# x y z rho theta phi s1 s2 stress_xx np intf bulk
-0.975827 -10.900635 -14.288476 17.998240 1.481514 2.487963 -0.008526 0.013202 -837045.000000 1 0 0
1.927773 -13.545035 -13.037576 18.898748 -1.429423 2.332098 -0.015630 0.018088 475137.000000 1 0 0
1.882173 -11.192735 -14.688476 18.562630 -1.404195 2.483717 -0.013784 0.014937 1152950.000000 1 0 0
-5.747327 -6.203635 -16.192376 18.267728 0.823561 2.660290 0.002785 -0.008989 509462.000000 1 0 0
4.365273 -14.165635 -11.515076 18.770131 -1.271871 2.231254 -0.008891 0.007190 552990.000000 1 0 0
13.885873 -10.753435 -8.098676 19.340176 -0.658945 2.002863 0.012728 0.000920 1143010.000000 1 0 0
7.092673 10.846765 -10.804276 16.872780 0.991686 2.265734 0.009998 -0.008042 300103.000000 1 0 0
5.625473 -4.274835 -12.635076 14.476371 -0.649811 2.631720 -0.006365 0.002000 2969390.000000 1 0 0
13.540173 0.487865 -10.082976 16.889071 0.036015 2.210568 0.005467 0.001212 1423140.000000 1 0 0
14.056973 5.019665 -10.335176 18.155203 0.342981 2.176412 0.005241 0.000949 -416549.000000 1 0 0
3.985473 4.332265 -13.515976 14.742256 0.827067 2.730835 -0.003942 0.002082 1900640.000000 1 0 0
10.040573 -4.945335 -13.829876 17.791428 -0.457658 2.461213 0.006811 0.000846 -629709.000000 1 0 0
2.351073 -7.573335 -12.042776 14.419133 -1.269788 2.559282 -0.006543 0.006703 1132450.000000 1 0 0
-5.688127 -1.863235 -15.106976 16.249528 0.316551 2.764359 -0.001741 -0.004394 113788.000000 1 0 0
10.521273 0.011965 -9.680776 14.297369 0.001137 2.314614 0.007959 -0.001216 2923680.000000 1 0 0
-1.806627 -9.592935 -16.850876 19.474094 1.384648 2.616539 0.005344 0.006842 1438590.000000 1 0 0
8.436973 1.656565 -17.975676 19.926155 0.193879 2.695442 -0.010006 0.006868 -29888.700000 1 0 0
16.271573 -5.995335 -8.951876 19.515231 -0.353020 2.047342 0.014503 -0.007628 750056.000000 1 0 0
10.092273 7.542365 -9.920476 16.036118 0.641797 2.237798 0.008745 -0.002195 1003000.000000 1 0 0
13.632073 -2.347135 -10.723576 17.502501 -0.170506 2.230254 0.012276 -0.000512 -1608510.000000 1 0 0
7.051973 -1.820735 -13.711576 15.525873 -0.252670 2.653318 0.001020 -0.000618 850708.000000 1 0 0
-2.846127 6.723665 -13.782276 15.596770 -1.170367 2.654425 -0.003744 -0.003825 588456.000000 1 0 0
11.151273 1.864665 -13.891276 17.910763 0.165683 2.458434 0.002830 0.002476 525723.000000 1 0 0
-2.318727 10.844565 -12.898176 17.010115 -1.360153 2.431444 -0.002948 -0.001052 -1420500.000000 1 0 0
2.703473 -1.023135 -15.230176 15.502059 -0.361794 2.954029 -0.000498 -0.004649 -566387.000000 1 0 0
-9.114527 0.626665 -15.150876 17.692268 -0.068646 2.598967 -0.006394 -0.004087 -335122.000000 1 0 0
2.235473 -1.754635 -18.044876 18.267283 -0.665469 2.985388 0.007637 -0.006030 460472.000000 1 0 0
1.038373 7.859665 -13.139676 15.346128 1.439443 2.598706 0.002797 -0.005070 -1316690.000000 1 0 0
9.172473 -9.050435 -9.990576 16.305099 -0.778701 2.230303 0.009032 0.003517 943169.000000 1 0 0
3.915373 7.287165 -13.511376 15.842670 1.077758 2.592210 -0.004869 -0.000616 1041030.000000 1 0 0
-2.686927 9.201165 -15.433576 18.168001 -1.286676 2.585818 -0.004378 -0.003885 185268.000000 1 0 0
5.300073 -7.790535 -15.271076 17.944051 -0.973399 2.588756 -0.009727 0.007270 865698.000000 1 0 0
4.282073 7.375265 -16.382376 18.469243 1.044764 2.661622 -0.003320 0.003384 72941.200000 1 0 0
-0.328127 5.107765 -13.443776 14.385133 -1.506644 2.777818 0.005833 -0.003984 1406750.000000 1 0 0
8.579073 4.106565 -16.632576 19.160035 0.446440 2.622132 -0.010505 0.003109 -970045.000000 1 0 0
5.160173 0.325665 -14.348176 15.251348 0.063028 2.795723 -0.002226 -0.000136 615299.000000 1 0 0
6.203473 7.957165 -11.639276 15.403646 0.908613 2.427394 -0.001595 -0.001712 -378279.000000 1 0 0
2.457173 -8.365935 -15.052376 17.395419 -1.285119 2.616559 -0.006581 0.006874 1771410.000000 1 0 0
4.078773 11.412965 -13.705476 18.295689 1.227561 2.417513 0.007048 -0.015872 -1912260.000000 1 0 0
0.492873 -4.606035 -13.732776 14.493020 -1.464196 2.816259 0.003597 0.000243 -354055.000000 1 0 0
8.366973 -0.118235 -11.698876 14.383460 -0.014130 2.520694 -0.003213 -0.001659 511407.000000 1 0 0
-1.131927 -5.126435 -16.282276 17.107721 1.353481 2.829686 0.003400 -0.002918 472878.000000 1 0 0
4.417973 0.887365 -11.706676 12.544009 0.198216 2.774148 -0.002180 -0.002154 -88131.700000 1 0 0
-3.031627 -7.210935 -15.509676 17.370619 1.172811 2.674471 -0.002925 0.000010 1853670.000000 1 0 0
11.113973 -3.786635 -11.395976 16.362374 -0.328374 2.341269 0.013289 -0.004052 723727.000000 1 0 0
6.370273 -7.176435 -12.641676 15.871156 -0.844838 2.492312 -0.009249 0.006790 -3181760.000000 1 0 0
3.308073 -3.976835 -14.662776 15.548491 -0.876943 2.802435 -0.001303 -0.001920 3667710.000000 1 0 0
-0.660127 -1.481935 -18.353876 18.425435 1.151733 3.053431 0.019101 -0.008876 284009.000000 1 0 0
14.869673 2.809865 -8.484376 17.348981 0.186764 2.081787 0.006132 0.001214 -217391.000000 1 0 0
6.824573 4.317365 -14.313576 16.434503 0.564060 2.627922 -0.004057 0.002744 1948610.000000 1 0 0
9.950473 -9.640535 -14.117976 19.780523 -0.769579 2.365607 0.013939 0.001682 -356420.000000 1 0 0
8.787073 -3.110735 -15.622076 18.191718 -0.340245 2.603615 0.004236 -0.003640 -364715.000000 1 0 0
-5.549227 -2.103935 -18.033076 18.984528 0.362396 2.823657 0.001700 0.004447 -2174580.000000 1 0 0
4.901473 -9.170135 -11.175376 15.264497 -1.079928 2.392219 -0.009792 0.007800 3134010.000000 1 0 0
-2.396227 4.076465 -17.129076 17.769770 -1.039381 2.872245 0.003645 0.002094 657494.000000 1 0 0
9.454273 9.210265 -14.487476 19.598449 0.772326 2.402701 0.016294 -0.009031 -1370230.000000 1 0 0
9.796273 10.015965 -11.617176 18.200145 0.796486 2.263086 0.014836 -0.006988 -498836.000000 1 0 0
11.857673 -5.978835 -9.748376 16.473668 -0.467015 2.204031 0.022391 -0.002162 -466541.000000 1 0 0
8.088173 6.835365 -13.691176 17.308641 0.701646 2.483242 -0.000706 0.001573 -552632.000000 1 0 0
3.921373 -4.124535 -17.585276 18.483260 -0.810643 2.828600 0.010578 -0.008474 977410.000000 1 0 0
9.233373 -7.508435 -12.458376 17.229130 -0.682729 2.379075 0.007260 0.001778 1508340.000000 1 0 0
11.857273 -8.697835 -8.970976 17.225727 -0.632886 2.118572 0.018504 -0.001729 532310.000000 1 0 0
-2.996027 -2.486335 -13.971376 14.503703 0.692695 2.869822 0.001855 -0.003934 -1838640.000000 1 0 0
-0.410027 6.242365 -17.564476 18.645269 -1.505206 2.799438 0.007904 -0.000018 798445.000000 1 0 0
0.890973 -8.578935 -17.540076 19.546003 -1.467311 2.684578 0.001585 0.007092 866549.000000 1 0 0
0.048473 8.657765 -15.978676 18.173534 1.565198 2.645035 0.000494 -0.000424 -1082220.000000 1 0 0
1.623673 3.441365 -14.973276 15.449217 1.129953 2.892730 0.003397 0.000213 1809760.000000 1 0 0
-2.054227 -0.405235 -15.826076 15.963983 0.194768 3.010055 0.008705 -0.005062 1588800.000000 1 0 0
14.024973 -4.332935 -8.568676 16.996953 -0.299642 2.099171 0.015411 -0.003061 1265320.000000 1 0 0
0.426473 0.691565 -14.603376 14.625961 1.018203 3.086013 0.003980 -0.003705 1276230.000000 1 0 0
8.689873 2.746165 -12.492276 15.463256 0.306088 2.511323 -0.002719 -0.000280 1424900.000000 1 0 0
5.825373 0.951565 -17.101576 18.091555 0.161918 2.809247 0.001650 0.002448 -777826.000000 1 0 0
15.139673 1.529765 -12.418576 19.641052 0.100702 2.255284 0.006424 0.000703 -1769420.000000 1 0 0
8.593073 -11.250335 -12.056776 18.595075 -0.918518 2.276258 0.009631 0.004257 1193640.000000 1 0 0
-4.703027 0.813965 -15.085676 15.822725 -0.171375 2.835169 0.002621 -0.005465 297323.000000 1 0 0
2.375873 5.211265 -17.220676 18.148106 1.143038 2.820517 -0.000540 0.001411 369959.000000 1 0 0
5.734873 -11.783335 -12.454976 18.079331 -1.117850 2.330776 -0.009854 0.008422 308633.000000 1 0 0
12.741573 7.167465 -8.573276 16.947604 0.512409 2.101186 0.005874 0.001835 530941.000000 1 0 0
-5.037427 3.692465 -15.668776 16.867736 -0.632536 2.762282 -0.001852 0.000137 2887680.000000 1 0 0
-0.713427 -4.358935 -19.056276 19.561466 1.408565 2.913831 0.019613 -0.009680 -1478410.000000 1 0 0
9.781573 4.397565 -10.174776 14.783228 0.422502 2.329891 0.002050 -0.000714 614242.000000 1 0 0
13.221373 3.719265 -12.824976 18.791425 0.274220 2.321962 0.004760 -0.001460 1310040.000000 1 0 0
-6.296227 5.944765 -17.036676 19.111019 -0.756694 2.671350 -0.010149 0.002304 -863381.000000 1 0 0
-10.159027 3.390265 -15.300276 18.676139 -0.322098 2.530884 -0.011461 -0.001854 -2489630.000000 1 0 0
10.804273 13.542065 -8.289076 19.204911 0.897380 2.017076 0.016182 -0.000608 1283650.000000 1 0 0
7.409573 13.469265 -12.237476 19.648885 1.067869 2.243123 0.025300 -0.014232 333429.000000 1 0 0
5.285673 15.204565 -11.094676 19.550165 1.236228 2.174260 0.023192 -0.016043 125328.000000 1 0 0
14.090473 9.264465 -10.058876 19.635497 0.581629 2.108634 0.019932 -0.000038 -563623.000000 1 0 0
8.286173 -17.340835 -2.180776 19.342208 -1.125032 1.683784 0.018713 -0.000920 88578.600000 1 0 0
0.649573 -16.063235 -0.010676 16.076367 -1.530380 1.571460 0.012758 -0.004958 2431310.000000 1 0 0
-8.976727 -11.728835 7.579624 16.601142 0.917540 1.096657 0.006862 -0.002195 -293515.000000 1 0 0
2.043273 -15.906235 -2.583576 16.243711 -1.443039 1.730526 0.011004 -0.011163 2272180.000000 1 0 0
-1.410427 -11.091935 -9.423276 14.622533 1.444317 2.271081 -0.010005 0.006243 -424152.000000 1 0 0
-4.838727 -12.797235 -13.047276 18.905394 1.209304 2.332472 -0.000312 0.006059 484836.000000 1 0 0
-8.127327 -18.046435 -1.748176 19.869157 1.147646 1.658895 -0.006011 0.005676 -832934.000000 1 0 0
-11.435427 -6.963835 -8.858476 16.054177 0.546989 2.155301 0.006737 -0.001478 2958260.000000 1 0 0
-13.572227 -11.452735 -4.703376 18.370962 0.700905 1.829701 0.000677 0.002999 -345607.000000 1 0 0
-5.689327 -13.441235 9.736024 17.544954 1.170388 0.982531 0.007053 -0.005448 771270.000000 1 0 0
0.050073 -14.068535 -3.724976 14.553407 -1.567237 1.829629 0.008023 -0.001999 -684861.000000 1 0 0
-14.639227 -11.794035 1.893924 18.894263 0.678174 1.470390 -0.022636 0.007135 132220.000000 1 0 0
-4.021227 -16.518735 -7.499876 18.581901 1.332007 1.986257 -0.016022 0.001453 553664.000000 1 0 0
0.380773 -15.430735 -9.244476 17.992024 -1.546125 2.110416 -0.013149 0.011222 316097.000000 1 0 0
4.490073 -14.236235 -2.687676 15.167556 -1.265274 1.748936 0.010382 -0.005118 120881.000000 1 0 0
-3.531827 -18.219035 -2.486476 18.724038 1.379318 1.703986 -0.012334 -0.002081 1549340.000000 1 0 0
-1.062427 -13.556835 0.689624 13.615877 1.492588 1.520126 0.002752 -0.001697 3038740.000000 1 0 0
-8.464427 -11.310935 -10.611576 17.668880 0.928358 2.215023 0.003897 -0.002694 1033790.000000 1 0 0
-3.817627 -14.178035 -0.384276 14.688044 1.307771 1.596962 -0.005283 0.002867 5072740.000000 1 0 0
-1.645027 -14.902935 -7.291676 16.672496 1.460859 2.023443 -0.011523 0.006265 -389757.000000 1 0 0
-14.083327 -7.909035 -1.793176 16.251413 0.511697 1.681361 -0.006772 0.006740 1632420.000000 1 0 0
-10.760927 -7.263035 -11.614676 17.419814 0.593712 2.300637 0.000288 -0.004568 -466157.000000 1 0 0
-9.414727 -14.744235 6.832224 18.780544 1.002522 1.198460 -0.003059 -0.000058 -405536.000000 1 0 0
-2.583927 -14.474235 -12.410676 19.240713 1.394138 2.271848 -0.000309 0.012467 214055.000000 1 0 0
2.245973 -17.818035 -4.783776 18.585244 -1.445407 1.831123 0.010408 -0.008448 -671682.000000 1 0 0
-6.558727 -9.689235 -9.292876 14.941744 0.975737 2.242015 -0.005833 -0.001599 1530360.000000 1 0 0
-11.128627 -15.437935 0.277124 19.032945 0.946206 1.556236 -0.004300 0.004649 2311900.000000 1 0 0
-12.640427 -11.213335 4.143424 17.397909 0.725643 1.330329 0.003659 0.006416 1404650.000000 1 0 0
-16.818827 -9.004535 -1.497176 19.136252 0.491553 1.649114 -0.021771 0.007274 -1180180.000000 1 0 0
-1.356427 -19.296435 -3.941976 19.741618 1.500618 1.771826 -0.007858 0.001194 -38056.800000 1 0 0
3.070673 -14.381235 -8.821976 17.148651 -1.360436 2.111152 -0.007393 0.005457 1164380.000000 1 0 0
-4.381627 -8.108835 -13.046176 15.973559 1.075390 2.526527 -0.005782 0.002642 771096.000000 1 0 0
5.484973 -16.682435 1.170324 17.599950 -1.253143 1.504251 0.022718 -0.002150 4570870.000000 1 0 0
-2.867027 -13.851235 -3.240976 14.511392 1.366692 1.796036 -0.007895 0.003427 -1622080.000000 1 0 0
-0.407727 -14.043135 3.681024 14.523286 1.541771 1.314544 0.001715 0.001264 -3633220.000000 1 0 0
1.251573 -16.142335 7.037924 17.654286 -1.493418 1.160749 0.008841 -0.004894 2463180.000000 1 0 0
-5.608227 -10.427035 -14.606976 18.802634 1.077326 2.460457 0.000150 0.003370 -1807220.000000 1 0 0
-0.367727 -17.303835 -5.822576 18.260896 1.549548 1.895317 -0.000555 -0.000992 944699.000000 1 0 0
-6.620627 -13.516435 -1.288176 15.105831 1.115325 1.656177 -0.000441 0.002475 2390170.000000 1 0 0
-1.758327 -17.795735 -0.190676 17.883408 1.472310 1.581459 -0.007067 -0.005045 2646730.000000 1 0 0
-9.438927 -9.752635 -4.942176 14.444111 0.801743 1.920009 0.008144 -0.000848 2816680.000000 1 0 0
-0.769227 -16.750935 4.942624 17.481850 1.524907 1.284158 0.013038 -0.006717 2028000.000000 1 0 0
-6.762127 -9.902635 -6.406776 13.595416 0.971666 2.061499 0.005171 -0.000940 2050400.000000 1 0 0
-6.025427 -14.577635 -8.641276 17.985685 1.178849 2.071967 -0.009988 0.001076 -26372.000000 1 0 0
-5.772127 -12.257335 -10.370376 17.061782 1.130689 2.224100 -0.003823 0.000266 1070600.000000 1 0 0
-10.639527 -12.260535 -8.878076 18.502446 0.856066 2.071260 0.011395 -0.007090 -1485580.000000 1 0 0
4.021573 -17.129235 6.732024 18.838893 -1.340194 1.205370 0.013033 -0.003218 1621080.000000 1 0 0
-6.692827 -14.420435 -4.205676 16.444774 1.136262 1.829415 -0.004619 0.003622 -1921400.000000 1 0 0
-2.807127 -12.221835 -7.105576 14.413273 1.345031 2.086318 -0.006619 0.003494 2941530.000000 1 0 0
-6.970527 -12.892535 4.426224 15.310035 1.075149 1.277503 -0.001742 0.003241 3279930.000000 1 0 0
2.567373 -16.495935 2.337824 16.857423 -1.416398 1.431666 0.013717 -0.004213 2005620.000000 1 0 0
-6.085227 -11.965535 7.190724 15.228609 1.100322 1.079028 -0.001474 -0.001000 1409520.000000 1 0 0
-11.277227 -12.921235 -1.049976 17.182451 0.853232 1.631942 -0.005201 0.008666 2112950.000000 1 0 0
-14.232827 -8.825535 4.755224 17.409066 0.555056 1.294134 0.000516 0.005949 502241.000000 1 0 0
-7.952127 -15.594435 4.431924 18.057261 1.099233 1.322826 -0.004948 0.005359 597605.000000 1 0 0
-16.335627 -9.231635 1.297924 18.808519 0.514380 1.501734 -0.021818 0.009037 -720220.000000 1 0 0
-6.658827 -17.229735 2.337324 18.618991 1.202005 1.444930 -0.007963 0.008752 1792440.000000 1 0 0
-11.547027 -14.926035 -4.725276 19.453755 0.912351 1.816148 0.012491 0.000849 -1568430.000000 1 0 0
-10.024727 -9.884735 -12.664076 18.936261 0.778367 2.303355 0.005609 0.001854 713048.000000 1 0 0
-4.354127 -16.095435 -4.502276 17.271131 1.306600 1.834525 -0.014530 0.004316 -564068.000000 1 0 0
-11.748327 -8.290935 0.055624 14.379356 0.614549 1.566928 -0.007331 0.005402 2558140.000000 1 0 0
-9.614227 -11.325035 3.495024 15.261225 0.866920 1.339732 -0.002865 0.008014 3549680.000000 1 0 0
-14.187727 -12.965335 -0.761676 19.234648 0.740410 1.610406 -0.013869 0.010941 -907288.000000 1 0 0
5.398573 -14.904935 -7.189476 17.406615 -1.223294 1.996576 -0.000359 -0.008165 -1079190.000000 1 0 0
-7.534527 -10.626935 -1.267276 13.088424 0.954054 1.667772 -0.001717 0.001892 1172060.000000 1 0 0
-11.641927 -8.132935 -6.069276 15.443938 0.609779 1.974675 0.004570 -0.002432 704827.000000 1 0 0
-14.499427 -6.449235 -9.136676 18.311332 0.418515 2.093198 -0.000877 -0.000379 2499130.000000 1 0 0
-3.938527 -16.505035 1.380324 17.024497 1.336551 1.489629 -0.002611 -0.003363 1647510.000000 1 0 0
-8.049227 -15.718235 0.122724 17.659786 1.097520 1.563847 -0.005903 0.006664 2444260.000000 1 0 0
0.983173 -18.749735 3.696724 19.135960 -1.518408 1.376392 0.012941 -0.006874 2605360.000000 1 0 0
-14.002227 -8.634535 -4.541776 17.065910 0.552575 1.840174 -0.005015 0.002114 11452.900000 1 0 0
-3.242127 -14.493435 11.080924 18.529920 1.350723 0.929791 -0.005987 -0.008535 398329.000000 1 0 0
-10.826927 -12.116135 -3.884876 16.706746 0.841531 1.805478 0.009823 -0.001990 1080030.000000 1 0 0
-10.016127 -10.801735 0.530924 14.740494 0.823117 1.534770 -0.003791 0.008203 1318660.000000 1 0 0
-0.256327 -13.337735 -11.098476 17.353301 1.551581 2.264722 -0.008765 0.009669 2549320.000000 1 0 0
-5.854327 -12.696935 -6.367276 15.363187 1.138765 1.998135 -0.008876 -0.000176 1155680.000000 1 0 0
1.766973 -15.807835 9.993324 18.785004 -1.459480 1.009854 0.000280 -0.007150 289826.000000 1 0 0
-9.016827 -15.727435 -5.580876 18.968436 1.050227 1.869435 0.006168 0.000154 249820.000000 1 0 0
-3.340727 -15.587135 5.901724 16.998517 1.359665 1.216223 -0.000972 0.000613 -875606.000000 1 0 0
-17.448727 -5.329335 -6.380976 19.328133 0.296429 1.907247 -0.005120 0.004313 303831.000000 1 0 0
18.813673 5.471065 -2.942176 19.812704 0.282998 1.719847 -0.007782 0.005044 -1432320.000000 1 0 0
12.779373 -12.547635 -5.998276 18.887426 -0.776249 1.893973 0.014272 0.003554 -501283.000000 1 0 0
10.999673 -13.462135 -1.745376 17.471927 -0.885726 1.670859 0.012375 -0.000511 2743460.000000 1 0 0
18.731573 -2.880435 4.364424 19.447800 -0.152579 1.344451 0.011472 -0.007876 -642455.000000 1 0 0
8.881473 -16.916035 4.705824 19.676829 -1.087324 1.329300 0.017994 -0.013164 572530.000000 1 0 0
18.088673 -1.075335 6.542524 19.265541 -0.059378 1.224308 0.025831 -0.007105 -1361140.000000 1 0 0
17.869173 -4.376435 -5.186976 19.114530 -0.240187 1.845605 0.014586 -0.008466 -13772.500000 1 0 0
5.522473 -11.835035 14.798224 19.737102 -1.134207 0.723087 0.005736 0.006773 -1161220.000000 1 0 0
15.897173 -8.915635 -0.969076 18.252336 -0.511121 1.623915 0.004817 0.002193 2531120.000000 1 0 0
13.916573 -12.691735 -1.637676 18.905902 -0.739398 1.657528 0.013647 0.005955 1745040.000000 1 0 0
10.962673 -1.969635 13.705424 17.660643 -0.177771 0.682429 -0.012588 -0.002184 117088.000000 1 0 0
16.766073 -6.142835 -1.575476 17.925338 -0.351196 1.658801 0.001585 -0.002313 -1940030.000000 1 0 0
17.630373 3.578865 -1.119576 18.024755 0.200273 1.632950 -0.004026 0.001689 971584.000000 1 0 0
9.718273 -11.120535 9.319524 17.463238 -0.852588 1.007868 0.005715 -0.003125 -74042.900000 1 0 0
9.069873 -11.178035 4.168624 14.986277 -0.889142 1.288915 0.001835 -0.002954 515601.000000 1 0 0
13.941273 -10.112535 6.717224 18.486308 -0.627549 1.198922 0.013131 -0.007250 23146.600000 1 0 0
16.204073 -0.626835 -4.753976 16.898674 -0.038665 1.855968 0.012213 -0.001888 -1487320.000000 1 0 0
15.680873 -0.468535 -1.776976 15.788190 -0.029871 1.683586 0.010030 -0.003114 1171490.000000 1 0 0
12.778273 -5.133335 -0.387476 13.776267 -0.381991 1.598926 0.010838 -0.004435 1629580.000000 1 0 0
14.166473 -7.547435 0.951824 16.079761 -0.489517 1.511568 0.010665 -0.002717 2105760.000000 1 0 0
15.546873 2.408565 3.584524 16.135528 0.153701 1.346776 0.014886 -0.005597 697732.000000 1 0 0
15.886373 -7.155435 4.793724 18.070885 -0.423198 1.302309 0.012981 -0.008203 -1503410.000000 1 0 0
13.713473 -12.161635 3.170224 18.601480 -0.725496 1.399532 0.011174 -0.002735 229070.000000 1 0 0
13.952073 -0.958035 9.069324 16.668258 -0.068559 0.995471 0.014939 -0.006473 228219.000000 1 0 0
14.077873 -2.841235 -1.676976 14.459301 -0.199148 1.687037 0.009401 -0.002733 1601690.000000 1 0 0
14.989873 1.871265 8.999624 17.583832 0.124193 1.033503 0.023703 -0.004279 -1813000.000000 1 0 0
14.335573 -10.241935 -3.127576 17.893787 -0.620353 1.746484 0.009857 0.000820 495009.000000 1 0 0
7.253373 -12.650735 6.052224 15.788665 -1.050199 1.177400 -0.000453 -0.002827 -43563.700000 1 0 0
12.389773 -4.623835 6.850424 14.893443 -0.357190 1.092843 0.007556 -0.008750 2466940.000000 1 0 0
14.924373 -9.092735 -5.821176 18.420121 -0.547196 1.892331 0.014300 -0.002711 640588.000000 1 0 0
14.254073 -4.621935 4.521124 15.651883 -0.313557 1.277766 0.009981 -0.008036 1120890.000000 1 0 0
17.034173 -4.313935 0.814824 17.590822 -0.248037 1.524459 0.003034 -0.006486 -1300910.000000 1 0 0
10.219773 -14.475035 0.970024 17.745742 -0.956037 1.516107 0.011517 -0.003460 1038140.000000 1 0 0
16.385473 -2.585035 8.453224 18.617818 -0.156474 1.099502 0.018851 -0.007650 913729.000000 1 0 0
16.014673 -2.730435 3.115524 16.541811 -0.168872 1.381322 0.009152 -0.008453 2200950.000000 1 0 0
7.800573 -15.289735 2.492924 17.344729 -1.099035 1.426569 0.005575 -0.004737 2506060.000000 1 0 0
16.701773 -6.987535 7.604224 19.636677 -0.396242 1.173154 0.017849 -0.007262 134230.000000 1 0 0
10.244473 -8.620735 5.063424 14.314488 -0.699539 1.209243 0.009385 -0.005760 1929860.000000 1 0 0
10.923873 -11.864535 2.049424 16.257255 -0.826653 1.444398 0.009763 -0.004622 1866820.000000 1 0 0
12.383373 -7.304435 11.899724 18.662962 -0.532929 0.879402 -0.005535 0.001201 -1588070.000000 1 0 0
15.215073 -9.982035 4.165824 18.667982 -0.580625 1.345748 0.011111 0.000157 -225154.000000 1 0 0
7.342173 -10.316935 7.722124 14.831651 -0.952286 1.023182 -0.000078 -0.001010 526092.000000 1 0 0
15.159573 -3.363435 -4.414076 16.143402 -0.218332 1.847753 0.014165 -0.004739 2347750.000000 1 0 0
11.808373 -9.022435 9.596224 17.689814 -0.652446 0.997420 0.001440 -0.007139 -1036050.000000 1 0 0
16.851773 -6.673635 2.284424 18.268505 -0.377070 1.445421 0.004400 -0.003102 1283640.000000 1 0 0
17.501773 3.952365 1.895424 18.042336 0.222101 1.465548 0.006274 -0.002171 2398660.000000 1 0 0
14.737073 -5.022335 8.617724 17.795234 -0.328452 1.065266 0.006755 -0.005020 223212.000000 1 0 0
12.730673 -12.666435 6.015224 18.939154 -0.782869 1.247591 0.003158 -0.004346 -811162.000000 1 0 0
18.116973 0.726165 -0.900376 18.153862 0.040061 1.620414 0.009708 -0.003265 214541.000000 1 0 0
11.729773 -2.145235 10.860024 16.128538 -0.180889 0.832076 0.000623 -0.001842 750855.000000 1 0 0
5.757173 -12.495635 10.669024 17.410170 -1.139051 0.911192 0.000340 0.000414 -1143830.000000 1 0 0
10.774573 -5.062935 10.900624 16.141510 -0.439276 0.829403 -0.005482 0.000382 -687788.000000 1 0 0
17.843873 1.361965 4.956524 18.569488 0.076179 1.300603 0.021128 -0.005722 -1007360.000000 1 0 0
12.301373 -7.694035 6.993624 16.106916 -0.558931 1.121646 0.011181 -0.007939 -175730.000000 1 0 0
10.722873 -7.888035 14.246524 19.497809 -0.634239 0.751489 -0.004706 0.000579 -477695.000000 1 0 0
14.151773 -0.373735 3.678424 14.626796 -0.026403 1.316582 0.009049 -0.005356 1523880.000000 1 0 0
11.566673 -7.758035 2.456824 14.142525 -0.590806 1.396192 0.010638 -0.003070 1273800.000000 1 0 0
9.309973 6.070065 3.536424 11.663086 0.577777 1.262732 0.003151 0.001192 1339810.000000 1 0 0
-3.954427 14.883465 -9.938776 18.328510 -1.311104 2.143918 -0.007861 0.003492 3023060.000000 1 0 0
8.862273 -6.421235 9.155424 14.268635 -0.627019 0.874153 -0.000788 -0.004646 -1487660.000000 1 0 0
5.634673 -10.690835 -8.576976 14.819178 -1.085739 2.188023 -0.001793 0.002142 -9010.560000 1 0 0
5.368773 1.076265 0.509724 5.499263 0.197845 1.477974 -0.005069 0.003329 2695340.000000 1 0 0
-0.466027 9.930565 11.028024 14.847579 -1.523902 0.733630 0.006854 -0.002399 338799.000000 1 0 0
-6.251727 -5.189535 1.156824 8.206924 0.692825 1.429368 0.000551 -0.000134 3597230.000000 1 0 0
-1.063927 4.030865 -10.814776 11.590479 -1.312737 2.773663 0.004662 -0.003420 800519.000000 1 0 0
10.965173 5.792965 1.248724 12.464059 0.486035 1.470442 0.003597 0.002717 748654.000000 1 0 0
-10.215427 -1.552535 -13.502976 17.002814 0.150825 2.488422 -0.003405 -0.003501 1190400.000000 1 0 0
7.464873 10.938065 -6.096576 14.578540 0.971934 2.002246 0.009672 -0.001746 1519980.000000 1 0 0
-12.413127 -2.856035 -9.565376 15.929189 0.226146 2.214915 -0.002181 0.001681 808068.000000 1 0 0
-3.859127 -8.701135 2.454524 9.829919 1.153344 1.318427 -0.002050 0.001592 -1083320.000000 1 0 0
8.037473 -6.864635 -5.908076 12.109069 -0.706857 2.080484 -0.002391 -0.002375 2324570.000000 1 0 0
14.290873 3.102465 -4.314076 15.246822 0.213777 1.857664 0.011073 0.000396 1278530.000000 1 0 0
-2.424427 -4.891935 9.715524 11.144518 1.110678 0.511980 -0.003206 -0.000317 2431780.000000 1 0 0
3.451373 -1.916635 -4.535776 6.013213 -0.506923 2.425386 -0.004621 0.000667 -1516440.000000 1 0 0
-4.004527 8.485465 -3.377476 9.972296 -1.129858 1.916316 -0.004671 0.003555 818645.000000 1 0 0
5.887873 0.178065 11.639724 13.045380 0.030233 0.468495 -0.006646 -0.000580 258348.000000 1 0 0
7.099873 4.774365 12.327824 15.005932 0.592001 0.606707 0.004425 -0.003013 1287740.000000 1 0 0
1.187873 -14.407935 12.551724 19.145376 -1.488537 0.855818 -0.007502 -0.005969 -96530.800000 1 0 0
3.064973 8.768765 -9.031676 12.955943 1.234538 2.342151 0.004072 -0.001513 1607000.000000 1 0 0
-4.464927 -8.910635 -4.595776 10.975252 1.106286 2.002854 -0.001889 -0.001671 620446.000000 1 0 0
5.641073 -6.624035 -4.130876 9.631391 -0.865370 2.014068 0.000618 -0.003212 1957860.000000 1 0 0
-3.022727 3.447065 8.672924 9.810135 -0.850892 0.486279 -0.003909 0.003913 766324.000000 1 0 0
-3.780727 3.244065 -11.001876 12.077215 -0.709151 2.716405 -0.002716 -0.005856 -800421.000000 1 0 0
3.046573 -6.212135 8.585524 11.026489 -1.114840 0.678321 -0.005028 0.002448 1454580.000000 1 0 0
-5.110527 -8.662835 10.490724 14.533323 1.037809 0.764340 0.003476 -0.002890 1555160.000000 1 0 0
-13.072127 -2.512535 6.671924 14.889859 0.189890 1.106174 0.003295 0.002267 58849.500000 1 0 0
3.861173 -5.928635 -8.383076 10.969655 -0.993525 2.440606 -0.002855 -0.000115 2520250.000000 1 0 0
3.071073 -0.508035 12.379524 12.764882 -0.163941 0.246341 -0.004849 0.002339 1278540.000000 1 0 0
1.390973 -1.424935 -7.543076 7.801490 -0.797458 2.883491 -0.002703 -0.000384 815879.000000 1 0 0
3.558573 -3.618335 3.356124 6.084354 -0.793725 0.986516 -0.006621 0.003535 2156120.000000 1 0 0
1.456273 0.454965 -11.821676 11.919721 0.302809 3.013244 0.000961 -0.002656 1500040.000000 1 0 0
4.023473 3.583265 -10.660576 11.944706 0.727592 2.673640 -0.002400 0.000162 2886720.000000 1 0 0
2.879573 3.220965 3.440624 5.523083 0.841301 0.898284 -0.009787 0.006061 322378.000000 1 0 0
-5.315627 0.838165 2.694424 6.018167 -0.156392 1.106588 -0.002625 -0.000025 931349.000000 1 0 0
-9.448027 -9.364335 5.717624 14.479199 0.780949 1.164853 0.003604 0.003249 -893080.000000 1 0 0
-3.042327 3.893665 -0.528276 4.969452 -0.907529 1.677302 -0.002132 -0.000963 164806.000000 1 0 0
-15.825527 -6.563235 5.144124 17.888135 0.393135 1.279106 0.010454 0.007641 408168.000000 1 0 0
0.987773 6.764965 -8.058176 10.567622 1.425808 2.438018 0.002075 -0.001235 1220510.000000 1 0 0
-1.616727 6.593265 -9.480076 11.660051 -1.330332 2.520149 0.000096 -0.001009 997872.000000 1 0 0
2.089473 -0.398235 5.158924 5.580232 -0.188333 0.391075 -0.006688 0.003990 2346090.000000 1 0 0
-3.429127 -0.573635 -6.255276 7.156567 0.165749 2.634296 0.001828 -0.004776 -136314.000000 1 0 0
1.887173 -1.151335 -2.434776 3.288637 -0.547802 2.404403 -0.003165 0.000780 149071.000000 1 0 0
2.420873 -8.695535 -7.655376 11.835444 -1.299268 2.274201 -0.005021 0.001319 1196000.000000 1 0 0
-2.442127 14.024465 -5.463976 15.248102 -1.398392 1.937284 -0.003138 0.004343 1575970.000000 1 0 0
6.804673 -5.229735 -8.180876 11.856662 -0.655268 2.332260 -0.004574 0.000716 2710560.000000 1 0 0
-14.137027 -5.005735 -2.095676 15.142813 0.340311 1.709636 -0.004208 0.002463 549675.000000 1 0 0
-2.757927 6.902665 -6.776776 10.058709 -1.190682 2.310031 -0.002146 0.000875 -2320640.000000 1 0 0
-5.686927 -1.107935 -8.123276 9.977789 0.192411 2.522036 0.003078 -0.006358 -41209.900000 1 0 0
-5.716027 -10.625735 3.474324 12.555881 1.077258 1.290429 -0.002153 0.002833 -2759900.000000 1 0 0
8.004873 -7.627435 6.571924 12.862579 -0.761258 1.034526 0.001572 -0.003595 -495877.000000 1 0 0
8.861873 -5.964435 13.049824 16.864317 -0.592405 0.685958 -0.006861 0.002902 1161020.000000 1 0 0
-4.696627 9.637065 -0.653276 10.740488 -1.117320 1.631658 -0.005618 0.004480 815276.000000 1 0 0
2.753073 6.619665 12.188624 14.140789 1.176664 0.531697 0.004964 -0.004897 915226.000000 1 0 0
6.006973 -2.779835 10.871424 12.727885 -0.433421 0.546897 -0.007101 0.001236 411575.000000 1 0 0
-9.618827 -6.592835 -1.056076 11.709082 0.600866 1.661112 0.002400 -0.000064 -70110.400000 1 0 0
0.852873 -13.399435 6.194524 14.786629 -1.507232 1.138533 -0.000717 0.001791 -297737.000000 1 0 0
-0.361527 -3.137835 8.656924 9.215153 1.456087 0.349854 -0.004779 0.000405 1428950.000000 1 0 0
4.273173 0.710665 3.371924 5.489529 0.164800 0.909366 -0.009365 0.005396 1714050.000000 1 0 0
-10.188927 5.563565 8.333124 14.290152 -0.499798 0.948211 -0.003652 -0.005982 10989.300000 1 0 0
9.377673 7.998365 -0.019976 12.325380 0.706184 1.572417 -0.001961 0.003470 1816450.000000 1 0 0
4.292073 2.915965 8.130124 9.644877 0.596755 0.568058 -0.007421 0.000928 3113920.000000 1 0 0
1.281273 2.652265 -9.754776 10.189790 1.120771 2.848340 0.002789 -0.001492 2545380.000000 1 0 0
-1.449227 -10.263235 3.031424 10.799250 1.430518 1.286266 -0.000210 -0.000348 -1795110.000000 1 0 0
-9.935727 9.599065 9.110324 16.548677 -0.768166 0.987813 0.004390 -0.009824 1647130.000000 1 0 0
9.675873 -2.066135 -7.691476 12.531969 -0.210375 2.231596 0.006495 -0.000971 1492100.000000 1 0 0
-5.082827 -1.894735 6.700724 8.621186 0.356816 0.680530 -0.005606 0.000031 -536645.000000 1 0 0
3.033373 -7.891235 -4.922276 9.782727 -1.203812 2.098048 -0.002039 -0.002272 2711660.000000 1 0 0
-5.114227 4.951665 -13.008876 14.829199 -0.769250 2.640894 -0.008079 -0.009381 2281350.000000 1 0 0
-5.578527 9.729965 5.448424 12.469062 -1.050214 1.118585 -0.002974 -0.000539 3026120.000000 1 0 0
-0.567227 -1.776735 -9.440576 9.623046 1.261772 2.946544 0.000856 -0.002583 1969770.000000 1 0 0
-16.667527 0.262665 6.515724 17.897768 -0.015758 1.198181 0.009821 -0.004028 402333.000000 1 0 0
-5.886027 -2.932435 4.088424 7.743365 0.462209 1.014564 -0.005103 0.001091 2565540.000000 1 0 0
0.934973 -5.684235 -5.181576 7.748125 -1.407771 2.303326 -0.001135 -0.001270 1315370.000000 1 0 0
-7.024927 1.399865 -8.414476 11.050458 -0.196695 2.436358 -0.004918 -0.003326 184528.000000 1 0 0
7.960773 1.964665 4.737324 9.469744 0.241958 1.046899 -0.004100 0.001373 1456640.000000 1 0 0
0.376873 -8.081935 -0.527676 8.107907 -1.524199 1.635924 -0.001847 0.000745 330174.000000 1 0 0
5.416073 5.527565 -3.414476 8.458514 0.795586 1.986325 -0.004499 0.002134 859878.000000 1 0 0
-0.731627 -0.270235 -1.314976 1.528878 0.353819 2.606247 -0.003319 -0.000038 749800.000000 1 0 0
9.069573 6.381365 -6.319576 12.763856 0.613139 2.088763 0.001863 -0.001099 171879.000000 1 0 0
-14.918127 -7.165535 2.666324 16.763195 0.447783 1.411060 -0.010357 0.008810 1314710.000000 1 0 0
-6.418427 6.933865 8.916924 12.991775 -0.823982 0.814336 -0.000034 -0.000075 -630830.000000 1 0 0
-9.451627 -3.085235 -9.601576 13.821801 0.315519 2.338756 0.000225 -0.001263 1372230.000000 1 0 0
14.812073 3.412165 -1.276776 15.253542 0.226414 1.654598 -0.000249 0.000118 562640.000000 1 0 0
12.001573 1.693065 -5.737576 13.409847 0.140145 2.012923 0.010550 0.000198 -837567.000000 1 0 0
1.682473 -9.423335 12.760324 15.951672 -1.394115 0.643607 -0.002469 -0.003133 107283.000000 1 0 0
-3.587927 6.392065 7.960424 10.821278 -1.059312 0.744205 -0.003532 0.003179 2071700.000000 1 0 0
-3.976827 13.189965 -12.384576 18.524795 -1.277960 2.303041 -0.011337 -0.000718 -872085.000000 1 0 0
-10.217027 7.846265 6.497524 14.428074 -0.654897 1.103651 -0.001736 -0.007631 190467.000000 1 0 0
7.962973 -9.437035 -7.244276 14.315939 -0.869913 2.101371 0.003097 -0.000308 955888.000000 1 0 0
5.831473 -3.859735 -0.350076 7.001870 -0.584681 1.620815 -0.002258 -0.000343 -653428.000000 1 0 0
-1.615427 -4.517935 4.130024 6.330754 1.227404 0.860083 -0.006416 0.001607 2040680.000000 1 0 0
9.789273 -2.099835 -2.685076 10.365752 -0.211302 1.832818 0.000326 -0.001664 -1421580.000000 1 0 0
13.571873 7.041965 1.326824 15.347491 0.478625 1.484236 0.008047 -0.001100 538027.000000 1 0 0
5.363373 -3.783135 -3.309076 7.350365 -0.614318 2.037777 -0.002030 -0.001357 -2458420.000000 1 0 0
-12.222827 -6.053435 2.024324 13.789107 0.459846 1.423458 -0.007389 0.006663 2112050.000000 1 0 0
3.708873 -5.751235 -0.253176 6.848105 -0.998027 1.607775 -0.002117 -0.001499 -566025.000000 1 0 0
-5.245327 3.742565 -8.574176 10.725518 -0.619732 2.497123 -0.004632 -0.003316 -10277.000000 1 0 0
-1.712527 -9.255835 7.242224 11.876575 1.387844 0.915000 -0.006139 0.001829 1861320.000000 1 0 0
-7.409727 -7.497935 2.526724 10.840084 0.791315 1.335541 0.000927 0.002585 -4241720.000000 1 0 0
-5.701127 13.072665 -8.552376 16.629508 -1.159553 2.110975 -0.006531 -0.000212 1275690.000000 1 0 0
9.166873 -13.917635 -4.271076 17.203902 -0.988363 1.821682 0.011572 -0.000688 -119230.000000 1 0 0
-6.589227 -5.250435 -6.686076 10.755863 0.672800 2.241607 -0.000990 -0.002812 4866.860000 1 0 0
3.342273 0.412065 -6.184576 7.041986 0.122670 2.642972 -0.004145 -0.002411 519644.000000 1 0 0
-3.534127 5.815265 5.056224 8.477780 -1.024710 0.931777 -0.002030 0.002985 2083010.000000 1 0 0
-2.747727 -10.776235 -2.853276 11.481221 1.321136 1.821945 -0.000071 0.001792 1468850.000000 1 0 0
-12.507027 -0.461335 1.793224 12.643346 0.036869 1.428485 -0.007413 0.001539 -413946.000000 1 0 0
8.352473 -12.096135 -6.275376 15.983136 -0.966470 1.974280 0.007318 -0.001007 -404506.000000 1 0 0
6.059573 3.913665 0.967724 7.278165 0.573463 1.437439 -0.004541 0.002456 -572237.000000 1 0 0
3.306073 -4.832535 -11.064776 12.518498 -0.970802 2.654878 -0.005034 0.002549 -1061510.000000 1 0 0
-7.579127 4.258065 8.677424 12.282995 -0.511869 0.786315 -0.004635 0.001873 2330640.000000 1 0 0
8.220673 8.741865 4.026224 12.657414 0.816115 1.247080 0.008837 -0.000364 1361420.000000 1 0 0
0.270773 10.619265 -6.323876 12.362585 1.545304 2.107765 0.000404 0.003055 1375230.000000 1 0 0
5.415373 8.166665 3.304224 10.341111 0.985262 1.245570 0.002109 0.001296 2846690.000000 1 0 0
8.036873 6.693265 -3.759976 11.114339 0.694435 1.915906 -0.001355 0.001204 -80816.500000 1 0 0
10.446773 2.483965 -8.188576 13.503997 0.233439 2.222299 0.001746 -0.001354 1173290.000000 1 0 0
3.307073 -12.606735 -0.373876 13.038646 -1.314251 1.599475 0.005962 -0.000025 -1121360.000000 1 0 0
0.628573 2.114165 5.269424 5.712410 1.281805 0.396413 -0.006882 0.004686 -14763.000000 1 0 0
-4.860327 13.517065 1.489824 14.441378 -1.225622 1.467449 -0.003670 0.004285 1404890.000000 1 0 0
8.160573 4.074965 -7.925976 12.083931 0.463126 2.286184 -0.003639 0.003664 1003620.000000 1 0 0
-13.724927 -0.552935 -3.456376 14.164247 0.040265 1.817307 -0.010342 -0.000304 -402280.000000 1 0 0
-8.537727 0.007165 -0.459176 8.550069 -0.000839 1.624527 -0.006265 0.000039 602138.000000 1 0 0
1.697973 -3.888135 -1.137076 4.392454 -1.159052 1.832649 -0.001202 0.000266 -1135910.000000 1 0 0
8.032873 -5.684435 -0.260776 9.844179 -0.615840 1.597290 0.002728 -0.003309 1973310.000000 1 0 0
-2.224527 -1.138635 7.316524 7.731528 0.473087 0.329133 -0.004225 0.001834 1234650.000000 1 0 0
-5.874427 8.864365 -11.728476 15.831709 -0.985544 2.405089 -0.011449 -0.000720 -1962250.000000 1 0 0
-6.165727 9.155365 -8.875376 14.163657 -0.978109 2.248018 -0.014787 0.001802 -773279.000000 1 0 0
-1.575727 14.003465 -8.268676 16.338633 -1.458744 2.101431 0.007196 -0.004513 -703981.000000 1 0 0
-1.469727 7.220665 9.852124 12.302944 -1.369995 0.642177 -0.002488 0.000475 -37534.800000 1 0 0
9.929473 2.328765 -3.996276 10.953894 0.230367 1.944243 0.001454 0.000457 -2494770.000000 1 0 0
-3.035027 -7.552135 -6.994376 10.731609 1.188673 2.280692 -0.001925 -0.000668 590720.000000 1 0 0
-5.533227 -5.000035 -1.566276 7.620379 0.734822 1.777810 -0.000130 -0.000042 -957537.000000 1 0 0
5.705573 7.377965 -8.816076 12.833983 0.912533 2.328055 0.001057 -0.000861 174860.000000 1 0 0
-9.462627 5.209965 -7.504376 13.152973 -0.503291 2.177967 -0.016674 0.004142 -140457.000000 1 0 0
-0.456127 6.159965 -5.298676 8.138131 -1.496884 2.279819 0.002087 0.000739 966087.000000 1 0 0
-8.188427 2.757065 -6.288776 10.686461 -0.324780 2.199975 -0.005837 0.000355 1787410.000000 1 0 0
3.599173 1.379765 -2.064776 4.372768 0.366076 2.062570 -0.008060 0.001737 3138960.000000 1 0 0
-6.658327 12.526265 -3.495176 14.610164 -1.082229 1.812368 -0.007835 0.006422 173425.000000 1 0 0
-6.536127 3.132765 -2.238576 7.585934 -0.446951 1.870352 -0.006667 0.002909 -1822150.000000 1 0 0
12.030773 3.998565 -0.794876 12.702750 0.320876 1.633412 0.005071 0.000290 -1180790.000000 1 0 0
2.246573 12.424365 -5.475476 13.762004 1.391909 1.979989 0.004758 -0.000944 -224072.000000 1 0 0
-9.154727 -1.513635 -4.174476 10.174791 0.163857 1.993553 -0.002516 0.000027 652219.000000 1 0 0
-1.095027 5.808365 3.449124 6.843438 -1.384458 1.042567 -0.005086 0.001970 980789.000000 1 0 0
11.530173 2.660065 11.967424 16.829738 0.226738 0.779752 0.017758 -0.002602 112729.000000 1 0 0
-6.989427 -2.444435 -5.706276 9.348205 0.336437 2.227380 0.001368 -0.003282 634825.000000 1 0 0
7.517473 -7.397335 10.804024 15.098341 -0.777343 0.773347 -0.001142 -0.000601 -1030840.000000 1 0 0
-5.554927 -1.847635 -11.029476 12.486806 0.321101 2.653631 0.002611 -0.005979 -460887.000000 1 0 0
0.812873 -6.286835 4.422824 7.729582 -1.442212 0.961617 -0.005573 0.001602 189367.000000 1 0 0
-4.804927 -9.259635 7.392024 12.785546 1.092135 0.954331 -0.003122 0.001486 1441550.000000 1 0 0
-8.811127 9.379565 1.820224 12.997131 -0.816637 1.430286 0.000894 0.002102 780571.000000 1 0 0
-8.118327 7.250365 -9.051176 14.156229 -0.728982 2.264485 -0.014282 0.000712 81927.800000 1 0 0
-1.367027 -10.696535 -0.090576 10.783916 1.443684 1.579196 0.001262 0.000907 -367245.000000 1 0 0
-3.920127 10.363765 7.763924 13.529727 -1.209177 0.959607 0.002601 -0.001997 2719610.000000 1 0 0
-7.487427 12.109165 2.074524 14.387393 -1.017010 1.426102 -0.000223 -0.000169 743562.000000 1 0 0
-8.112627 -8.329435 -2.859676 11.973803 0.798584 1.811955 0.007384 -0.001612 -1258740.000000 1 0 0
5.338973 4.613665 -8.083276 10.729860 0.712651 2.423929 -0.001433 0.002227 995536.000000 1 0 0
-8.972127 -0.045635 -10.155576 13.551268 0.005086 2.417980 -0.003938 -0.004043 -1837570.000000 1 0 0
-15.163827 -2.240435 -1.425376 15.394574 0.146687 1.663519 -0.007570 -0.000964 -396482.000000 1 0 0
-7.134927 -5.827335 8.890624 12.802664 0.684861 0.803161 0.002388 -0.000384 -1546000.000000 1 0 0
8.071373 3.446365 -0.979976 8.830903 0.403552 1.681997 -0.003393 0.004006 -346366.000000 1 0 0
11.830473 7.284965 -5.784376 15.049578 0.551941 1.965305 0.004124 0.001312 338399.000000 1 0 0
3.662173 13.375265 -9.471176 16.793225 1.303544 2.170003 0.007738 -0.008130 -151067.000000 1 0 0
-9.681927 5.481565 -0.390676 11.132829 -0.515169 1.605896 -0.010132 0.006490 2532040.000000 1 0 0
11.212973 -1.274935 -5.236676 12.441021 -0.113216 2.005256 0.008985 -0.002962 252548.000000 1 0 0
10.442173 1.685865 -1.147076 10.639403 0.160066 1.678820 -0.000116 0.001532 -539713.000000 1 0 0
14.559573 4.981865 4.724824 16.097332 0.329683 1.272894 0.007043 -0.002715 1673670.000000 1 0 0
0.922173 -0.756835 10.318824 10.387556 -0.687241 0.115101 -0.002380 0.002275 2060030.000000 1 0 0
-7.991227 1.544965 -12.442876 14.868483 -0.190976 2.562323 -0.007366 -0.006104 151665.000000 1 0 0
2.985173 -11.646635 -7.879376 14.374976 -1.319886 2.150925 -0.005777 0.004663 -303203.000000 1 0 0
2.864473 5.028465 -6.748276 8.889876 1.052991 2.432721 -0.000917 0.001254 -1585110.000000 1 0 0
6.476073 8.043265 0.547824 10.340877 0.892920 1.517795 0.002220 0.001209 172218.000000 1 0 0
-8.989927 -5.554335 6.821724 12.577971 0.553434 0.997559 0.002868 0.002692 -1671800.000000 1 0 0
-0.461027 -6.886435 -11.784576 13.656931 1.503949 2.611778 -0.003346 0.006146 3119650.000000 1 0 0
6.380473 -13.380735 -4.725876 15.559191 -1.125848 1.879407 0.006432 -0.004930 3111300.000000 1 0 0
-3.208827 -0.401935 10.001324 10.511166 0.124610 0.312736 -0.001228 0.003306 -1112180.000000 1 0 0
8.717273 8.545265 6.924024 14.034048 0.775434 1.054833 0.003621 0.000671 973159.000000 1 0 0
-7.865927 5.638965 -2.617276 10.026009 -0.621968 1.834905 -0.007326 0.004086 67358.300000 1 0 0
-5.386627 5.864165 -6.339476 10.178071 -0.827818 2.243185 -0.006261 0.000731 -938112.000000 1 0 0
3.302373 -13.706135 2.518824 14.321602 -1.334362 1.394001 0.010992 -0.003016 -2406390.000000 1 0 0
-11.199327 -7.111735 6.646424 14.838351 0.565768 1.106357 0.008867 0.003007 -43677.200000 1 0 0
-12.840627 -3.662335 -6.705676 14.941904 0.277838 2.036200 -0.000336 -0.000319 -506405.000000 1 0 0
5.928573 0.344965 -7.269376 9.386736 0.058121 2.456611 -0.004645 0.001649 -741260.000000 1 0 0
-1.482327 2.215065 -2.456376 3.624581 -0.981040 2.315426 -0.002127 -0.001003 2891020.000000 1 0 0
7.486173 0.970765 -5.055876 9.085541 0.128955 2.160933 -0.003515 0.001989 56323.300000 1 0 0
3.706073 -4.514535 10.857024 12.328462 -0.883429 0.493570 -0.004333 0.003551 -755767.000000 1 0 0
5.908373 -2.608035 2.044724 6.774335 -0.415690 1.264181 -0.006156 0.001667 -166179.000000 1 0 0
-6.337227 7.818165 1.261324 10.142735 -0.889639 1.446116 -0.004235 0.002867 1183220.000000 1 0 0
6.097473 -3.461835 7.893224 10.557768 -0.516368 0.726322 -0.004511 -0.001359 221269.000000 1 0 0
6.654873 -2.298935 -7.849976 10.544883 -0.332617 2.410484 -0.003042 0.000146 912653.000000 1 0 0
12.094273 -8.127535 -5.973876 15.748507 -0.591696 1.959868 0.013857 -0.005330 -57383.200000 1 0 0
5.588773 -9.637335 9.982924 14.958990 -1.045281 0.840148 -0.001824 -0.001256 1337430.000000 1 0 0
-6.605727 7.571365 -4.388276 10.964404 -0.853406 1.982563 -0.006696 0.004569 241222.000000 1 0 0
-1.261327 -7.499835 9.663724 12.297400 1.404175 0.666752 -0.000840 -0.001952 -1571970.000000 1 0 0
10.020873 -9.299935 0.617524 13.685322 -0.748101 1.525658 0.006819 -0.001578 968883.000000 1 0 0
11.150273 6.177565 9.837124 16.101550 0.505931 0.913546 0.006607 0.001016 2165850.000000 1 0 0
-15.216827 -4.235635 -4.916976 16.542947 0.271480 1.872581 -0.009741 0.002122 2578350.000000 1 0 0
-4.725827 -4.562135 7.862924 10.245589 0.767776 0.695950 -0.003961 -0.002320 -289773.000000 1 0 0
2.915173 10.957365 -10.995276 15.794245 1.310773 2.340827 0.003898 -0.002688 130005.000000 1 0 0
9.855673 -1.408035 1.474524 10.064347 -0.141905 1.423757 -0.001525 0.000905 259314.000000 1 0 0
-1.596327 -2.591935 0.603324 3.103287 1.018781 1.375136 -0.004096 -0.000878 582702.000000 1 0 0
1.556873 2.971165 0.890524 3.470548 1.088138 1.311299 -0.008026 0.002730 -5760.750000 1 0 0
-8.824327 -2.430035 4.338724 10.129084 0.268719 1.128138 -0.005903 0.002345 2501940.000000 1 0 0
9.882173 4.860165 -2.710976 11.341426 0.457075 1.812166 -0.001055 0.000586 344000.000000 1 0 0
2.543273 8.562765 2.565824 9.293688 1.282080 1.291081 -0.001966 0.000010 2160120.000000 1 0 0
-8.144827 -0.103435 2.518824 8.526041 0.012699 1.270894 -0.006006 -0.000307 343435.000000 1 0 0
6.885473 2.068365 13.655924 15.432826 0.291820 0.484598 -0.001576 -0.000430 -2026390.000000 1 0 0
6.809173 4.391165 3.751924 8.928835 0.572774 1.137127 -0.002730 0.001381 410774.000000 1 0 0
-0.233027 3.415065 7.819324 8.535736 -1.502667 0.412631 -0.006295 0.003412 73909.600000 1 0 0
2.732973 -10.277235 9.244124 14.090583 -1.310887 0.855224 -0.005211 -0.002636 2413600.000000 1 0 0
1.368473 -4.659335 6.809524 8.363716 -1.285124 0.619490 -0.007149 0.001764 -404515.000000 1 0 0
-0.069227 10.873265 -1.959176 11.048577 -1.564430 1.749063 0.002044 0.000580 769425.000000 1 0 0
8.785373 5.669765 8.029624 13.183470 0.573109 0.915912 0.001609 -0.001696 -1152350.000000 1 0 0
2.692373 11.438465 -2.814076 12.083310 1.339625 1.805844 0.004378 -0.000917 1851430.000000 1 0 0
1.459573 2.480765 -6.680776 7.274429 1.038982 2.734793 -0.001591 -0.000425 411156.000000 1 0 0
-13.529927 -2.262635 3.725524 14.214710 0.165699 1.305610 -0.004858 0.005969 1267230.000000 1 0 0
-1.041227 -10.576035 -5.291576 11.871708 1.472661 2.032786 -0.002032 0.001779 524304.000000 1 0 0
-5.671827 2.890865 0.545424 6.389382 -0.471368 1.485328 -0.001217 0.000365 1706270.000000 1 0 0
3.738373 7.318565 -4.997176 9.618139 1.098541 2.117129 0.000147 -0.000299 -1105930.000000 1 0 0
2.985973 9.852665 -6.469576 12.159213 1.276532 2.131842 0.003336 -0.000729 2101600.000000 1 0 0
-12.071727 1.658465 -2.427476 12.424562 -0.136530 1.767438 -0.006751 0.002418 885471.000000 1 0 0
-2.543227 9.722165 -5.662876 11.535019 -1.314939 2.083952 -0.004565 0.004132 1834530.000000 1 0 0
-1.331627 3.394865 1.777324 4.056749 -1.196991 1.117295 -0.004300 0.001507 -892234.000000 1 0 0
12.876773 3.775665 9.592124 16.494719 0.285221 0.950192 0.021487 -0.000533 1181620.000000 1 0 0
-2.514127 -9.616035 11.513124 15.209898 1.315069 0.712164 -0.005871 -0.005866 478622.000000 1 0 0
-0.501227 -8.917035 -7.581676 11.715228 1.514645 2.274655 -0.004593 0.001971 2489610.000000 1 0 0
2.434473 7.722965 -0.448976 8.110020 1.265431 1.626185 -0.001243 0.001670 1409080.000000 1 0 0
-11.797627 -1.251735 -5.499776 13.076635 0.105705 2.004881 -0.002258 0.001646 -1619880.000000 1 0 0
-6.299627 -7.130635 -10.960576 14.514320 0.847195 2.426688 -0.003988 -0.001194 579929.000000 1 0 0
-4.681927 -2.315835 -1.410376 5.410425 0.459345 1.834520 -0.003925 0.000197 -1405930.000000 1 0 0
-10.388927 3.749465 4.594624 11.962393 -0.346361 1.176575 -0.007041 -0.003254 2908880.000000 1 0 0
6.792473 9.357265 -3.646776 12.124152 0.942896 1.876313 0.005184 0.002146 988616.000000 1 0 0
1.159973 -2.697435 -11.531876 11.899826 -1.164675 2.892268 -0.000158 0.000630 -1343550.000000 1 0 0
1.230373 8.817565 7.671324 11.752126 1.432155 0.859574 -0.002708 0.000777 640323.000000 1 0 0
10.334573 0.432765 10.444024 14.699263 0.041851 0.780569 0.003062 -0.000063 -324673.000000 1 0 0
-5.235527 -0.869335 -3.849176 6.556115 0.164544 2.198283 -0.002129 -0.001351 -615762.000000 1 0 0
11.697573 5.631965 5.429724 14.072460 0.448709 1.174678 0.002984 0.000839 3516980.000000 1 0 0
9.828073 -3.544635 3.618024 11.056471 -0.346144 1.237424 0.005884 -0.006465 -1987540.000000 1 0 0
7.168773 -1.706635 -3.510976 8.162773 -0.233715 2.015423 -0.002642 0.001112 -2005530.000000 1 0 0
2.454173 9.211565 10.534724 14.207614 1.310421 0.735516 0.000955 -0.000235 4050860.000000 1 0 0
2.326673 -10.920035 6.350524 12.844833 -1.360871 1.053648 -0.003779 0.000339 1475400.000000 1 0 0
5.848573 -7.575135 -1.284976 9.656068 -0.913316 1.704267 0.001995 -0.003876 -275761.000000 1 0 0
-0.339627 -5.624635 -2.380476 6.117069 1.510488 1.970508 -0.000378 0.000452 2181730.000000 1 0 0
7.606373 -5.157535 2.698724 9.578110 -0.595845 1.285169 -0.000376 -0.005457 2079270.000000 1 0 0
-2.794327 -12.566235 4.688324 13.700325 1.351989 1.221533 -0.002535 -0.000374 -833433.000000 1 0 0
4.833173 -10.343535 -1.207876 11.480734 -1.133678 1.676200 0.004676 -0.003719 1158570.000000 1 0 0
0.894973 0.231865 1.082324 1.423434 0.253501 0.706927 -0.007411 0.003417 -1687920.000000 1 0 0
-1.647627 8.562865 2.469824 9.062966 -1.380704 1.294787 -0.003042 0.003335 -1438420.000000 1 0 0
-7.533827 0.632865 -3.019176 8.140915 -0.083806 1.950736 -0.006164 0.001282 -835111.000000 1 0 0
4.458773 -6.401835 12.869124 15.049203 -0.962434 0.544982 -0.001996 -0.000283 -1772720.000000 1 0 0
-5.044627 13.073665 8.532624 16.406542 -1.202537 1.023858 0.004079 -0.008546 361316.000000 1 0 0
0.683173 6.142765 8.301724 10.349826 1.460036 0.639972 -0.004323 0.003718 -492783.000000 1 0 0
7.840573 -0.516235 -0.839976 7.902319 -0.065747 1.677292 -0.002295 0.000440 2653940.000000 1 0 0
2.343373 -9.249835 -2.390176 9.836859 -1.322675 1.816235 -0.000989 -0.001850 2927940.000000 1 0 0
-7.043527 12.386565 4.947924 15.083773 -1.053753 1.236579 -0.005370 -0.006423 878457.000000 1 0 0
-14.899127 0.244365 0.265424 14.903494 -0.016400 1.552986 -0.004335 -0.002398 436952.000000 1 0 0
6.848073 -0.529235 3.913024 7.904932 -0.077129 1.052949 -0.003014 0.003259 332883.000000 1 0 0
-4.189227 -5.133535 5.132724 8.381388 0.886345 0.911709 -0.006545 -0.000082 1855980.000000 1 0 0
2.898873 5.209965 6.883024 9.106218 1.063046 0.713830 -0.006584 0.002194 -607037.000000 1 0 0
2.005873 -7.308835 1.746224 7.777654 -1.302946 1.344348 -0.004312 0.000928 1892700.000000 1 0 0
-2.452327 6.491365 -1.673576 7.138107 -1.209588 1.807456 -0.001940 0.002391 2250220.000000 1 0 0
2.648773 -3.832835 -6.607176 8.084640 -0.966086 2.527420 -0.003322 -0.000602 -509198.000000 1 0 0
-5.137327 1.018565 -12.175976 13.254584 -0.195729 2.735380 -0.000100 -0.005407 626282.000000 1 0 0
-7.490827 6.399565 -11.906976 15.454546 -0.706997 2.450345 -0.010867 -0.004570 1485260.000000 1 0 0
-1.001527 11.208865 -8.977476 14.395721 -1.481682 2.244163 0.002645 -0.000474 1205200.000000 1 0 0
4.620173 5.896665 -0.631076 7.517640 0.906183 1.654841 -0.003608 0.001628 -479915.000000 1 0 0
-2.752327 13.540065 3.663724 14.294458 -1.370256 1.311600 -0.002317 0.002412 132511.000000 1 0 0
1.463873 -7.948035 10.294224 13.087599 -1.388657 0.665573 -0.004211 -0.002209 -1721650.000000 1 0 0
12.854673 -0.309435 -1.146976 12.909451 -0.024067 1.659761 0.005918 -0.000934 1914570.000000 1 0 0
-1.050327 3.147865 -5.333776 6.281831 -1.248749 2.585037 -0.000028 -0.002751 1363130.000000 1 0 0
6.484073 1.067065 7.229524 9.769741 0.163105 0.737739 -0.004586 0.002698 677116.000000 1 0 0
5.461973 -6.161335 6.859124 10.716473 -0.845495 0.876227 -0.003360 0.000133 1683330.000000 1 0 0
12.078573 -4.928735 2.512724 13.285260 -0.387432 1.380514 0.009605 -0.005645 1000750.000000 1 0 0
4.467873 -9.237135 13.866224 17.249891 -1.120285 0.637067 0.001922 0.000623 1614770.000000 1 0 0
-2.775927 -4.376135 -1.425576 5.374811 1.005514 1.839242 -0.001317 -0.002030 1980220.000000 1 0 0
-9.345927 -5.128635 -7.625276 13.107024 0.501888 2.191700 0.005408 -0.001478 -480104.000000 1 0 0
-10.429027 -3.167035 7.936924 13.482933 0.294825 0.941391 0.000625 0.004294 -20986.200000 1 0 0
12.039573 -0.698135 1.674524 12.175498 -0.057922 1.432827 0.002701 -0.002493 257513.000000 1 0 0
-7.502327 4.763165 4.480224 9.952138 -0.565681 1.103833 -0.002978 0.000844 1472950.000000 1 0 0
-1.057327 10.571965 7.011324 12.729613 -1.471115 0.987488 -0.001356 0.002977 -21784.500000 1 0 0
7.373473 -10.099335 1.815124 12.635638 -0.940157 1.426646 0.003460 -0.003931 3344240.000000 1 0 0
-4.345927 -1.746535 1.614224 4.954108 0.382125 1.238901 -0.006816 0.002328 394984.000000 1 0 0
6.628973 -15.115435 -1.100676 16.541800 -1.157499 1.637385 0.018270 -0.004410 -665766.000000 1 0 0
-10.409527 1.659865 2.483624 10.829672 -0.158125 1.339402 -0.008138 0.002270 -137686.000000 1 0 0
-3.039427 8.385765 -11.368976 14.450356 -1.223073 2.476340 -0.007210 -0.001138 150532.000000 1 0 0
-1.349027 -5.176835 -6.922376 8.748645 1.315877 2.483649 -0.005056 -0.000890 -962593.000000 1 0 0
12.832773 -0.482235 6.388424 14.343102 -0.037561 1.109175 0.008704 -0.007201 2717150.000000 1 0 0
5.912873 -13.338435 3.632024 15.035542 -1.153532 1.326821 0.004363 0.001076 963082.000000 1 0 0
-5.524527 3.499365 -4.863676 8.149926 -0.564634 2.210273 -0.005297 0.001707 1524430.000000 1 0 0
-4.371527 8.101465 3.426624 9.822715 -1.075975 1.214456 -0.001621 0.002667 135362.000000 1 0 0
13.951273 6.143965 -4.025476 15.766762 0.414831 1.828969 0.009041 0.002839 884023.000000 1 0 0
-6.695527 -8.495935 5.251124 12.024363 0.903362 1.118861 0.004182 0.002354 127044.000000 1 0 0
1.628473 11.405665 2.741124 11.842925 1.428977 1.337222 -0.001908 -0.000575 940808.000000 1 0 0
-7.382527 7.306265 6.039724 12.015052 -0.780206 1.044100 -0.003644 -0.002942 -248529.000000 1 0 0
-17.303027 -4.092435 5.348824 18.567517 0.232248 1.278581 0.012053 -0.000304 -1695970.000000 1 0 0
7.283473 -13.150735 -8.679676 17.358790 -1.065006 2.094414 0.004894 0.001588 -779082.000000 1 0 0
-2.214927 12.914465 -2.657876 13.369877 -1.400941 1.770925 -0.005402 0.005695 -187351.000000 1 0 0
-5.445627 13.945765 -5.778376 16.047705 -1.198518 1.939145 -0.002686 0.004034 964019.000000 1 0 0
-5.578527 2.417965 7.504724 9.658540 -0.408999 0.680904 -0.003556 0.002819 1745450.000000 1 0 0
-7.402427 5.119365 1.568324 9.135834 -0.605052 1.398274 -0.002751 0.003513 1427450.000000 1 0 0
10.655373 -5.747435 -5.071376 13.125885 -0.494663 1.967483 0.007134 -0.003612 2919640.000000 1 0 0
-9.358227 -0.848435 6.840024 11.622486 0.090415 0.941574 -0.008527 0.001044 669296.000000 1 0 0
-11.229627 -4.573735 -2.475476 12.375442 0.386777 1.772186 -0.003496 0.000250 1064810.000000 1 0 0
6.528573 -4.290035 13.461124 15.563693 -0.581362 0.525834 -0.008458 -0.000563 -926276.000000 1 0 0
0.226373 10.201865 -11.575476 15.431168 1.548611 2.419064 -0.000525 -0.003715 -2357570.000000 1 0 0
-11.751427 -3.287735 1.491924 12.293538 0.272798 1.449138 -0.008795 0.002532 2216720.000000 1 0 0
5.231473 6.006665 5.459124 9.656623 0.854268 0.969970 -0.001931 0.001762 -5778870.000000 1 0 0
-6.999827 -0.055135 8.136124 10.732993 0.007877 0.710481 -0.007785 0.002654 1209550.000000 1 0 0
1.848073 2.050265 9.634324 10.021934 0.837218 0.279027 -0.005950 0.001939 1288020.000000 1 0 0
10.430273 -5.009635 -2.122876 11.764083 -0.447762 1.752244 0.002827 -0.001201 1076430.000000 1 0 0
-9.665027 -2.444935 -1.590676 10.095578 0.247769 1.729017 -0.004672 0.000726 -426762.000000 1 0 0
-2.157627 -5.201535 -9.899476 11.389072 1.177592 2.624395 -0.000557 -0.001940 1105180.000000 1 0 0
7.645273 -1.547335 6.489524 10.146840 -0.199694 0.876869 -0.002069 -0.000902 2257640.000000 1 0 0
1.423973 -11.925835 -2.564776 12.281341 -1.451957 1.781180 0.004036 -0.000391 -3478360.000000 1 0 0
-0.704927 -1.552835 4.749924 5.046781 1.144653 0.344694 -0.005463 0.003144 1314330.000000 1 0 0
7.662673 1.642565 9.791724 12.541628 0.211164 0.674951 -0.003977 0.000397 1317010.000000 1 0 0
-3.805627 10.718765 -8.051776 13.935774 -1.229636 2.186799 -0.005486 0.004548 2108390.000000 1 0 0
-9.452127 12.683565 6.468724 17.089760 -0.930357 1.182605 -0.002763 -0.009763 138861.000000 1 0 0
-2.643027 -2.472535 -11.147776 11.720577 0.752082 2.827667 0.004895 -0.003827 -1304620.000000 1 0 0
1.142373 -11.896835 11.103224 16.313224 -1.475067 0.822178 -0.004749 -0.002076 2008870.000000 1 0 0
1.323173 3.480865 -1.890276 4.176164 1.207538 2.040514 -0.004585 0.000659 859473.000000 1 0 0
-2.031427 -9.443335 -12.001476 15.405801 1.358908 2.463903 -0.007342 0.006453 430162.000000 1 0 0
1.243173 -2.697335 1.572624 3.360691 -1.138924 1.083830 -0.002669 0.002486 1064830.000000 1 0 0
-1.184027 -2.300935 -6.575276 7.066150 1.095549 2.766658 -0.000440 -0.003228 1077900.000000 1 0 0
1.901273 5.832165 4.027124 7.338032 1.255662 0.989866 -0.008953 0.003281 -722319.000000 1 0 0
-11.105627 8.736865 3.750824 14.619727 -0.666582 1.311336 -0.004846 -0.005549 2149350.000000 1 0 0
-16.295427 -1.496835 4.172624 16.887636 0.091599 1.321129 0.007559 -0.000004 173843.000000 1 0 0
-11.992027 0.235565 6.808024 13.791787 -0.019641 1.054539 -0.002144 0.001356 1093830.000000 1 0 0
-5.079827 3.068965 4.708324 7.575718 -0.543464 0.900138 -0.004179 0.001611 1416890.000000 1 0 0
5.132373 -6.104335 3.909124 8.881746 -0.871682 1.115053 -0.003804 -0.001212 928796.000000 1 0 0
9.912973 3.456065 6.345224 12.266755 0.335463 1.027138 -0.000151 0.002712 818420.000000 1 0 0
-12.149627 5.874765 3.319524 13.897681 -0.450389 1.329610 -0.006835 -0.001432 1463770.000000 1 0 0
-4.816427 12.417865 -1.281976 13.380762 -1.200797 1.666751 -0.009848 0.008969 772485.000000 1 0 0
-1.713427 -12.227635 10.296224 16.076788 1.431575 0.875725 -0.003327 -0.003725 84374.100000 1 0 0
5.261073 6.370465 13.859424 16.135220 0.880488 0.537572 0.001071 -0.002563 69232.200000 1 0 0
12.806373 -3.729235 -6.000376 14.625830 -0.283365 1.993534 0.007987 -0.004738 -646108.000000 1 0 0
3.562773 -2.659835 6.332624 7.737584 -0.641298 0.612133 -0.008880 0.004776 1390410.000000 1 0 0
7.166973 -11.922535 -0.775176 13.932453 -1.029548 1.626463 0.011466 -0.002231 -925065.000000 1 0 0
-6.099527 -6.567135 -4.083176 9.849052 0.822298 1.998273 0.003153 -0.002672 -253983.000000 1 0 0
0.237573 -8.998235 5.011624 10.302478 -1.544400 1.062776 -0.004330 -0.000665 2106020.000000 1 0 0
-10.191127 2.522165 -0.247276 10.501501 -0.242611 1.594345 -0.009639 0.005163 -919458.000000 1 0 0
-1.800327 9.034465 -0.329576 9.217990 -1.374100 1.606558 -0.000718 0.002365 889268.000000 1 0 0
-3.495427 2.318565 -6.593076 7.814244 -0.585678 2.574983 0.000857 -0.003645 843576.000000 1 0 0
-12.579427 2.936665 6.455924 14.441085 -0.229342 1.107329 -0.003427 -0.006603 666383.000000 1 0 0
11.390673 1.636965 7.940924 13.981608 0.142734 0.966777 0.008895 -0.001515 -2791460.000000 1 0 0
5.972073 2.671665 -3.232976 7.297642 0.420656 2.029757 -0.005738 0.002386 892414.000000 1 0 0
10.507173 -2.377335 6.279724 12.469456 -0.222512 1.043026 0.009263 -0.006970 3360180.000000 1 0 0
-1.058927 11.123165 4.116824 11.907744 -1.475882 1.217783 -0.001711 0.002179 1664380.000000 1 0 0
-1.582027 -12.272835 7.397624 14.417009 1.442599 1.031983 -0.005455 0.002188 -716269.000000 1 0 0
8.071273 8.640265 -7.803776 14.166811 0.819433 2.154178 0.005056 -0.002167 2477080.000000 1 0 0
-4.793627 -5.996535 -8.700976 11.603632 0.896422 2.418631 0.002578 -0.003812 692089.000000 1 0 0
-8.619727 -5.227035 -11.634176 15.394013 0.545115 2.427610 0.000364 -0.002751 440178.000000 1 0 0
5.945073 -0.691435 -9.963376 11.622859 -0.115784 2.600648 -0.002636 0.001692 -33663.900000 1 0 0
-11.177427 -5.423735 -5.348476 13.526196 0.451770 1.977317 0.000797 -0.003987 7213.560000 1 0 0
3.989373 8.966065 -2.751576 10.191986 1.152157 1.844163 0.003226 -0.000917 -1122420.000000 1 0 0
11.632173 -10.446735 -4.159676 16.178524 -0.731759 1.830828 0.009764 -0.000855 -319577.000000 1 0 0
3.955673 -11.331635 3.943624 12.633506 -1.234939 1.253335 0.000943 0.000874 1423660.000000 1 0 0
-1.008427 0.927765 3.219724 3.499185 -0.743762 0.402370 -0.005392 0.002592 -1580160.000000 1 0 0
-10.546927 -5.163235 4.610624 12.615646 0.455252 1.196660 0.002981 0.003105 3070880.000000 1 0 0
4.537773 -8.716135 2.609824 10.167280 -1.090791 1.311202 -0.001009 -0.000249 4456040.000000 1 0 0
-3.644427 -5.825235 2.639424 7.360827 1.011746 1.204053 -0.004789 0.000618 1593450.000000 1 0 0
9.995673 5.023365 12.275124 16.608020 0.465689 0.739051 0.013427 0.000346 342189.000000 1 0 0
1.501373 -12.317035 -5.296476 13.491336 -1.449501 1.974235 0.001953 0.000833 1077680.000000 1 0 0
9.776673 -10.740235 -1.904876 14.648022 -0.832328 1.701209 0.008398 -0.004675 316552.000000 1 0 0
9.438973 -4.513735 -9.210576 13.939252 -0.446058 2.292634 0.005699 -0.001306 1996350.000000 1 0 0
-7.534227 -2.995335 -13.115876 15.419560 0.378404 2.587922 -0.006069 -0.000229 1656870.000000 1 0 0
0.444473 6.284865 -2.454476 6.761770 1.500193 1.942274 -0.000918 -0.000208 -36689.700000 1 0 0
-5.898227 -9.563435 0.924624 11.274010 1.018153 1.488690 -0.000201 0.003205 -911990.000000 1 0 0
-8.945627 -4.177235 0.681824 9.896384 0.436867 1.501845 -0.006296 0.001043 4355290.000000 1 0 0
1.891973 3.838365 12.112924 12.846615 1.112836 0.339599 -0.003173 -0.003344 661690.000000 1 0 0
6.648773 4.362965 9.582824 12.452797 0.580726 0.692689 -0.005172 -0.000980 1142560.000000 1 0 0
-8.205527 9.927365 -3.499376 13.346493 -0.880071 1.836092 -0.010680 0.009176 1710840.000000 1 0 0
16.399673 1.988365 -6.125676 17.618932 0.120655 1.925887 0.009147 0.002324 1845990.000000 1 0 0
-10.853127 2.689465 -4.998676 12.247871 -0.242912 1.991197 -0.011103 0.004751 -405896.000000 1 0 0
-13.669727 3.997565 1.637724 14.336112 -0.284506 1.456309 -0.004796 0.003235 -1387760.000000 1 0 0
-17.420427 10.516465 3.442024 20.637704 -0.543125 1.403230 0.017162 -0.006660 -1947340.000000 1 0 0
-14.231927 2.886065 -1.097976 14.563058 -0.200075 1.646263 -0.007185 0.002865 249568.000000 1 0 0
-14.339827 5.053265 5.332324 16.112101 -0.338806 1.233485 -0.001295 -0.004963 1041620.000000 1 0 0
-17.333827 7.574665 3.267724 19.196748 -0.411980 1.399741 0.002724 0.000384 -1365550.000000 1 0 0
-14.724627 12.701465 -3.266976 19.718392 -0.711764 1.737246 0.029910 -0.000259 -467998.000000 1 0 0
-8.424327 12.503965 -9.640976 17.896001 -0.977918 2.139716 -0.012981 -0.002555 422598.000000 1 0 0
-12.232427 8.884765 -9.934476 18.090471 -0.628179 2.152149 -0.013399 0.009535 -1965780.000000 1 0 0
-13.846327 -3.357035 -12.184176 18.746856 0.237860 2.278291 -0.005123 0.007609 -1762560.000000 1 0 0
-14.716427 5.876665 -7.594676 17.572351 -0.379926 2.017721 0.006171 0.008914 768501.000000 1 0 0
-10.765927 13.644465 -8.395676 19.301916 -0.902779 2.020797 -0.005372 0.000936 655194.000000 1 0 0
-10.865527 13.639765 4.025924 17.897232 -0.898128 1.343908 0.002536 -0.006097 -1658070.000000 1 0 0
-15.060127 3.191865 3.190024 15.721694 -0.208851 1.366472 -0.004137 -0.002315 396151.000000 1 0 0
-10.934927 9.554765 -12.563976 19.202074 -0.718141 2.284057 -0.010714 -0.002949 -1202420.000000 1 0 0
-12.862227 11.719665 -9.143076 19.656634 -0.738952 2.054588 0.002174 -0.001864 -773837.000000 1 0 0
-8.773827 14.619365 -3.498176 17.405261 -1.030266 1.773158 -0.003226 -0.000430 1214110.000000 1 0 0
-16.516827 8.324065 -4.049676 18.933977 -0.466822 1.786346 0.024337 0.005631 -74934.800000 1 0 0
-16.711227 6.808965 0.509624 18.052336 -0.386911 1.542562 0.006494 0.009301 -488964.000000 1 0 0
-10.487827 2.982865 -12.360476 16.482517 -0.277095 2.418729 -0.008459 -0.008042 102506.000000 1 0 0
-16.779327 0.830665 2.468724 16.980295 -0.049465 1.424892 0.006017 -0.003125 -411560.000000 1 0 0
-12.607427 1.332465 -6.882876 14.425556 -0.105298 2.068183 -0.003514 0.000956 1553430.000000 1 0 0
-12.233527 9.066665 -5.418376 16.162376 -0.637802 1.912663 -0.000751 0.006598 313310.000000 1 0 0
-9.626327 14.055865 1.349524 17.089608 -0.970303 1.491747 0.006712 -0.002279 219430.000000 1 0 0
-12.214827 11.266465 2.827024 16.856076 -0.745032 1.402285 0.000782 -0.002701 -95051.900000 1 0 0
-12.405927 6.930365 -3.637776 14.668687 -0.509447 1.821407 -0.011534 0.011175 5531.710000 1 0 0
-15.680727 3.802565 -9.384876 18.666028 -0.237907 2.097606 0.003801 0.004614 -817914.000000 1 0 0
-14.955827 5.920865 -4.680576 16.752349 -0.376958 1.853964 0.009470 0.008562 1720480.000000 1 0 0
-17.878027 5.246565 7.554924 20.105401 -0.285450 1.185573 0.013099 -0.007405 -1558990.000000 1 0 0
-15.733227 10.221265 -1.995576 18.867724 -0.576137 1.676761 0.022930 0.007555 -640098.000000 1 0 0
-8.744027 9.981665 -8.284376 15.643610 -0.851395 2.128889 -0.014943 0.001712 -315710.000000 1 0 0
-16.775627 4.292465 -1.192576 17.357107 -0.250500 1.639559 -0.001572 0.003774 -1375990.000000 1 0 0
-10.097227 5.378965 -4.556576 12.314611 -0.489477 1.949820 -0.013572 0.008274 -265263.000000 1 0 0
-18.163227 2.771665 6.108424 19.362277 -0.151429 1.249833 0.014354 -0.006504 -51780.700000 1 0 0
-10.199427 10.148065 -5.711476 15.480067 -0.782874 1.948683 -0.014487 0.004357 2425560.000000 1 0 0
-15.279227 0.537365 -5.729776 16.327090 -0.035155 1.929368 -0.004023 0.001148 1068470.000000 1 0 0
-16.481227 -4.080635 -8.741976 19.097240 0.242712 2.046272 -0.003138 -0.002156 -216568.000000 1 0 0
-9.889927 9.716765 -0.979376 13.899113 -0.776567 1.641318 -0.006991 0.006752 2012450.000000 1 0 0
-17.240827 -2.980435 -3.135576 17.775290 0.171179 1.748125 -0.008344 0.000078 -1253090.000000 1 0 0
-11.953927 5.292865 -11.551476 17.445555 -0.416827 2.294473 -0.007410 -0.002754 69815.800000 1 0 0
-16.216427 7.070965 6.007224 18.683088 -0.411182 1.243449 0.000665 -0.004865 -464357.000000 1 0 0
-12.025427 6.066765 -8.779676 16.077911 -0.467237 2.148463 -0.009060 0.002757 1538670.000000 1 0 0
-14.383227 8.587465 0.076024 16.751941 -0.538245 1.566258 0.006274 0.008852 -398224.000000 1 0 0
-14.906027 12.020665 3.941924 19.550570 -0.678649 1.367778 0.004417 -0.010187 1788130.000000 1 0 0
-17.130427 4.140165 -3.963376 18.063799 -0.237137 1.792006 0.011527 0.000857 -259710.000000 1 0 0
-13.964927 13.486965 -0.564276 19.422559 -0.767989 1.599853 0.021145 -0.003005 -149206.000000 1 0 0
-9.933427 7.003065 -13.133376 17.894174 -0.614074 2.394911 -0.018868 -0.006802 1662180.000000 1 0 0
-15.835927 -1.011735 -8.161376 17.843998 0.063802 2.045836 -0.002505 -0.002345 -587924.000000 1 0 0
-11.475827 11.993365 0.003424 16.599259 -0.807446 1.570590 0.004539 -0.000639 1353960.000000 1 0 0
-11.890627 7.448165 -0.876976 14.058138 -0.559598 1.633219 -0.011779 0.010553 1864600.000000 1 0 0
-11.515627 0.327565 -11.566276 16.324696 -0.028438 2.358187 -0.004705 -0.004799 -283660.000000 1 0 0
-19.000427 -1.189835 -4.530976 19.569407 0.062540 1.804450 0.002304 -0.005895 -501990.000000 1 0 0
-17.874927 1.489365 -4.930676 18.602225 -0.083129 1.839061 0.000049 0.000813 839416.000000 1 0 0
-13.348727 -0.083035 -9.333076 16.288085 0.006220 2.180958 0.000368 -0.004459 -861338.000000 1 0 0
-6.047327 11.366565 -13.223076 18.455858 -1.081856 2.369526 -0.019265 -0.002515 -2693050.000000 1 0 0
16.397273 5.769165 6.945324 18.718743 0.338310 1.190672 0.018596 -0.000810 766998.000000 1 0 0
14.860073 10.093565 -5.584976 18.812065 0.596657 1.872223 0.019882 0.002913 -55027.700000 1 0 0
2.407173 16.902265 4.351524 17.618649 1.429330 1.321230 0.015825 -0.001235 1958230.000000 1 0 0
-3.860427 18.204965 -5.900676 19.522848 -1.361838 1.877843 -0.005982 -0.001449 1985200.000000 1 0 0
5.507473 14.515265 5.666524 16.526786 1.208151 1.220827 0.012441 -0.004183 -1363940.000000 1 0 0
9.850073 5.873465 15.051624 18.922814 0.537684 0.651093 0.022411 -0.001032 -2145580.000000 1 0 0
4.652773 12.795265 -1.123276 13.661217 1.222029 1.653113 0.007479 -0.002897 2176250.000000 1 0 0
3.595873 13.636665 12.847524 19.077416 1.312974 0.831942 -0.004295 -0.010245 195638.000000 1 0 0
-0.736527 12.442865 9.258524 15.526996 -1.511673 0.931930 0.003749 -0.003648 2432760.000000 1 0 0
-7.700927 13.870465 8.502124 17.999449 -1.063967 1.078836 0.007969 -0.019326 650329.000000 1 0 0
11.438973 12.976365 -4.090976 17.775608 0.848283 1.803024 0.020557 0.007120 -16957.800000 1 0 0
-5.744727 16.281065 0.893324 17.287943 -1.231587 1.519100 -0.004559 0.009878 -81988.900000 1 0 0
3.206673 10.555065 6.809624 12.963916 1.275853 1.017758 0.004800 0.000277 1758450.000000 1 0 0
-1.229927 15.650365 2.482824 15.893742 -1.492370 1.413940 -0.001254 0.002543 -2200530.000000 1 0 0
10.063373 8.907665 9.447824 16.428005 0.724554 0.958064 0.006046 0.002012 2733680.000000 1 0 0
7.281173 12.315265 6.240224 15.608383 1.036849 1.159498 0.009006 -0.002349 1494860.000000 1 0 0
11.877373 14.086765 -1.461876 18.483669 0.870288 1.649969 0.020227 0.007052 -740885.000000 1 0 0
9.769873 16.136065 -1.262876 18.905498 1.026366 1.637646 0.019036 0.004639 397302.000000 1 0 0
10.093973 13.844665 2.897724 17.376992 0.940814 1.403257 0.017751 -0.003646 2543930.000000 1 0 0
-5.970527 14.684365 6.397624 17.094073 -1.184621 1.187198 -0.006974 -0.007847 -1124730.000000 1 0 0
-0.952727 18.225865 -6.285476 19.302773 -1.518571 1.902470 0.015561 -0.002815 -248533.000000 1 0 0
-3.583527 15.838065 5.568724 17.166731 -1.348283 1.240429 -0.003192 -0.002260 1921040.000000 1 0 0
7.211873 12.317765 10.600924 17.779708 1.041118 0.931990 0.001151 -0.002683 3157560.000000 1 0 0
1.506273 14.639365 6.247424 15.987813 1.468265 1.169337 0.006830 -0.002126 25801.100000 1 0 0
17.478073 7.567465 -1.369076 19.095128 0.408601 1.642556 0.003431 0.001900 379637.000000 1 0 0
2.089773 16.254365 -3.315376 16.720145 1.442931 1.770406 0.001759 0.001252 1275280.000000 1 0 0
6.737173 11.188365 0.589824 13.073519 1.028791 1.525665 0.010946 0.000064 867613.000000 1 0 0
12.708673 9.288165 3.078724 16.039293 0.631134 1.377649 0.010257 -0.001055 -225409.000000 1 0 0
6.029473 14.318465 -3.478876 15.920916 1.172236 1.791083 0.010447 -0.003060 814093.000000 1 0 0
3.136973 16.563865 1.542624 16.928730 1.383627 1.479545 0.013096 -0.002794 -244496.000000 1 0 0
2.608573 19.090165 -2.706576 19.456736 1.434993 1.710356 0.005945 -0.000119 -400623.000000 1 0 0
4.128473 11.861065 10.605924 16.438211 1.235842 0.869512 0.000828 -0.006964 2495370.000000 1 0 0
7.992473 11.600965 3.326824 14.475143 0.967526 1.338893 0.011656 -0.000220 1195750.000000 1 0 0
0.747573 12.584165 0.196024 12.607874 1.511460 1.555248 0.002334 -0.001134 -699645.000000 1 0 0
11.960973 10.016165 -4.628476 16.273021 0.697136 1.859204 0.011233 0.005163 278591.000000 1 0 0
-1.307827 16.503565 9.899224 19.289186 -1.491716 1.031886 0.000167 -0.006252 -328054.000000 1 0 0
8.163373 14.799965 -7.972476 18.687964 1.066740 2.011538 0.021431 -0.004920 3267430.000000 1 0 0
14.493873 7.478665 -1.454776 16.374344 0.476356 1.659758 0.011652 0.000281 183239.000000 1 0 0
12.609473 8.339865 5.853724 16.211670 0.584345 1.201370 0.007278 0.002040 -970253.000000 1 0 0
-3.040027 14.266565 10.312824 17.864237 -1.360849 0.955392 0.009591 -0.014565 1508360.000000 1 0 0
-4.633527 17.164865 -3.156576 18.057301 -1.307138 1.746508 -0.000220 -0.000139 214729.000000 1 0 0
-7.159127 16.508665 -1.737476 18.077830 -1.161615 1.667056 0.002033 0.002962 596159.000000 1 0 0
8.376873 11.297665 -1.822276 14.182028 0.932777 1.699644 0.011040 0.000192 -1273630.000000 1 0 0
8.502173 12.965165 -4.213776 16.066684 0.990375 1.836168 0.018569 0.001020 3095600.000000 1 0 0
2.529873 14.904565 -7.291276 16.784189 1.402661 2.020183 0.003313 -0.005860 -260082.000000 1 0 0
11.492973 11.447465 9.627824 18.863400 0.783414 1.035150 0.007484 -0.000893 1079040.000000 1 0 0
8.698373 15.988465 1.409424 18.255935 1.072540 1.493516 0.020307 0.004837 2076820.000000 1 0 0
6.063673 9.931165 7.729424 13.969257 1.022641 0.984456 0.006350 0.001716 3233210.000000 1 0 0
14.511673 11.381065 2.505724 18.611715 0.665075 1.435755 0.016846 -0.003653 1295750.000000 1 0 0
12.175273 12.734565 1.139324 17.655154 0.807847 1.506219 0.020975 -0.000315 3060070.000000 1 0 0
5.243673 15.794665 8.303824 18.598952 1.250255 1.107983 0.009849 -0.007324 267868.000000 1 0 0
11.530673 15.049665 5.106624 19.634827 0.917023 1.307691 0.015262 -0.004807 -881250.000000 1 0 0
5.962573 17.012565 1.793724 18.116210 1.233693 1.471622 0.018610 -0.002326 1289140.000000 1 0 0
-0.670527 16.193965 -4.186076 16.739693 -1.529414 1.823548 0.001781 -0.000355 810245.000000 1 0 0
16.019073 6.368865 2.498924 17.418891 0.378419 1.426839 -0.000338 -0.004414 -917773.000000 1 0 0
7.693173 16.772065 -3.230976 18.733026 1.140740 1.744138 0.016807 -0.001520 -95188.300000 1 0 0
14.940073 8.176965 7.294124 18.527622 0.500781 1.166155 0.018155 -0.000835 -385631.000000 1 0 0
2.139873 12.946565 8.589524 15.683511 1.406992 0.991209 0.007136 -0.005013 2233110.000000 1 0 0
15.983673 7.366765 -5.875876 18.554594 0.431876 1.893024 0.006541 0.009720 -1001190.000000 1 0 0
-2.984727 17.172165 0.728424 17.444840 -1.398704 1.529028 -0.004848 0.007248 1521870.000000 1 0 0
-2.787727 18.682265 4.736724 19.473957 -1.422671 1.325098 0.003984 0.001453 701470.000000 1 0 0
-0.876127 19.177765 0.876124 19.217748 -1.525144 1.525191 -0.002194 0.000183 -843998.000000 1 0 0
7.054473 16.847065 -6.072076 19.247319 1.174243 1.891755 0.018537 -0.003248 1827710.000000 1 0 0
11.003073 10.164265 0.740224 14.997594 0.745791 1.521420 0.012127 -0.000016 -789078.000000 1 0 0
9.208673 8.582765 14.206124 18.980976 0.750232 0.725089 0.014282 -0.005636 -137917.000000 1 0 0
6.253073 12.483765 -8.380076 16.284071 1.106432 2.111358 0.015125 -0.005839 1939990.000000 1 0 0
6.450073 9.007365 13.290524 17.302430 0.949354 0.694880 0.000102 -0.008410 681767.000000 1 0 0
16.658273 9.396165 2.766424 19.324572 0.513569 1.427147 0.008830 -0.007676 -478363.000000 1 0 0
2.541473 14.804865 -0.729276 15.039114 1.400789 1.619307 0.006223 0.000428 1363040.000000 1 0 0
9.210773 13.022765 8.325524 17.992918 0.955200 1.089745 0.010345 -0.007248 913551.000000 1 0 0
7.317673 9.377165 10.538624 15.891575 0.908139 0.845766 0.005841 -0.004161 583431.000000 1 0 0
4.372373 15.924065 -5.329676 17.352202 1.302824 1.882990 0.005147 -0.000777 1399220.000000 1 0 0
0.234973 16.303565 -8.137176 18.222927 1.556385 2.033685 0.005778 -0.005484 -298915.000000 1 0 0
-2.392827 15.811865 -1.927676 16.107657 -1.420605 1.690758 -0.008127 0.008114 -727536.000000 1 0 0
13.417473 10.551565 7.476324 18.634901 0.666396 1.157970 0.009560 -0.000386 3252750.000000 1 0 0
-1.005527 15.863565 7.052624 17.389746 -1.507495 1.153203 0.000286 -0.007461 1923220.000000 1 0 0
13.382773 13.387465 6.555524 20.032417 0.785573 1.237409 0.009689 -0.006930 -1507390.000000 1 0 0
5.380073 17.333565 4.586124 18.719780 1.269840 1.323289 0.013436 -0.007666 455895.000000 1 0 0
10.803273 9.569765 -1.886076 14.555012 0.724926 1.700744 0.010323 0.002784 196571.000000 1 0 0
3.307673 12.670365 4.768524 13.936200 1.315440 1.221573 0.006576 0.001471 2348440.000000 1 0 0
-0.159227 18.071265 3.596024 18.426268 -1.561986 1.374378 0.003223 -0.004224 1696060.000000 1 0 0
-7.628127 15.948965 -5.845776 18.620711 -1.124672 1.890136 0.005134 -0.002556 620163.000000 1 0 0
-12.438627 -9.249935 8.331924 17.598344 0.639422 1.077594 0.017209 0.000906 1449880.000000 1 0 0
-13.158027 -11.880235 6.933524 19.035425 0.734409 1.197976 0.007245 0.003191 -1291860.000000 1 0 0
-6.554627 -12.315135 12.373024 18.647182 1.081689 0.845265 0.015050 -0.006593 728863.000000 1 0 0
-1.852627 -10.637435 14.357824 17.964809 1.398365 0.644801 0.001218 -0.008762 1301910.000000 1 0 0
-8.759327 2.860565 11.069824 14.403112 -0.315654 0.694191 -0.005795 0.003342 1059860.000000 1 0 0
0.772873 10.082665 15.212724 18.267031 1.494292 0.586656 0.015639 -0.008772 -749368.000000 1 0 0
1.159973 -6.741735 16.550924 17.908926 -1.400406 0.391935 -0.002345 -0.010360 1328560.000000 1 0 0
6.071673 2.376465 17.818524 18.973998 0.373072 0.350788 0.008824 -0.002768 2350380.000000 1 0 0
-5.000027 -3.107835 17.632924 18.589753 0.556124 0.322237 0.026671 -0.011854 376997.000000 1 0 0
-4.241027 8.238365 13.042824 15.999132 -1.095387 0.617686 0.004643 -0.001317 -5792.390000 1 0 0
0.262273 -4.873235 18.557724 19.188703 -1.517029 0.257156 0.009204 -0.014808 407559.000000 1 0 0
-11.559527 2.097965 11.280424 16.287175 -0.179538 0.805715 -0.002613 -0.001970 1120880.000000 1 0 0
-3.303627 -6.092235 14.345024 15.931384 1.073908 0.450050 0.011520 -0.011173 494956.000000 1 0 0
-7.429027 -2.330735 14.726824 16.658395 0.304008 0.486343 0.006384 -0.002239 1564440.000000 1 0 0
-6.095627 -1.111235 10.632524 12.306180 0.180320 0.527638 -0.002666 0.001444 1664180.000000 1 0 0
-3.920727 2.347265 11.147924 12.048152 -0.539449 0.389021 -0.001155 0.005046 -269942.000000 1 0 0
-6.449027 6.378065 13.608224 16.354003 -0.779866 0.587907 0.001613 0.000554 1473160.000000 1 0 0
-8.935427 5.498065 12.478524 16.302887 -0.551601 0.699106 -0.003247 -0.000848 308205.000000 1 0 0
-12.175427 -2.283435 15.790424 20.069693 0.185391 0.665222 0.008134 -0.000254 823519.000000 1 0 0
-3.302827 -7.572335 16.967324 18.871646 1.159503 0.453108 0.018122 -0.012886 -1683490.000000 1 0 0
-0.439527 -5.345335 14.406824 15.372780 1.488755 0.356384 0.004259 -0.004608 1451790.000000 1 0 0
-14.155527 -2.369235 13.665524 19.817638 0.165835 0.809910 0.010035 0.000698 -583664.000000 1 0 0
-6.387427 1.471965 12.201424 13.850655 -0.226493 0.492978 -0.002326 0.004165 738840.000000 1 0 0
2.361273 -2.249735 14.563724 14.924442 -0.761213 0.220307 -0.003822 0.001123 251354.000000 1 0 0
-12.531227 3.956265 9.218924 16.052172 -0.305809 0.959035 -0.004278 -0.003074 -1611580.000000 1 0 0
-8.986327 -3.064335 12.675924 15.837401 0.328634 0.642869 0.000247 0.002397 -195961.000000 1 0 0
-7.030627 -7.376735 15.195924 18.296504 0.809417 0.590725 0.021847 -0.011241 -2237150.000000 1 0 0
-3.088127 6.169465 19.484624 20.670012 -1.106709 0.340308 0.019815 -0.004933 1137020.000000 1 0 0
0.762873 5.385065 16.191024 17.080110 1.430068 0.324074 0.007295 -0.004586 1534170.000000 1 0 0
3.472073 1.480965 16.777724 17.197109 0.403171 0.221300 0.005466 -0.000763 3626290.000000 1 0 0
-11.689027 11.435965 7.779824 18.109122 -0.774455 1.126738 0.005978 -0.015276 -466290.000000 1 0 0
0.612273 -9.466335 15.452024 18.131504 -1.506207 0.550583 -0.015464 0.000035 89697.100000 1 0 0
-2.353827 -3.619035 18.794624 19.284082 0.994139 0.225785 0.026532 -0.018913 2460110.000000 1 0 0
-12.724027 2.234165 13.882424 18.963492 -0.173814 0.749455 -0.006704 0.000577 211106.000000 1 0 0
-5.246827 -0.688035 15.846324 16.706543 0.130390 0.322298 0.015086 -0.001107 1528000.000000 1 0 0
-4.326927 -5.962035 11.655824 13.788633 0.942999 0.563630 0.002511 -0.003362 -1166600.000000 1 0 0
2.509873 1.893865 13.965324 14.314903 0.646417 0.221453 -0.002073 -0.000042 -1481560.000000 1 0 0
0.096573 3.247465 14.287224 14.651966 1.541067 0.223597 0.006642 -0.000924 1022550.000000 1 0 0
-13.014327 7.102865 12.199124 19.200052 -0.499592 0.882310 0.001742 0.000533 195725.000000 1 0 0
0.938273 1.464265 18.286124 18.368635 1.000929 0.094819 0.005496 0.001289 1265800.000000 1 0 0
-1.977827 6.460165 12.541824 14.245802 -1.273700 0.494118 0.000474 0.000825 114028.000000 1 0 0
-13.395627 -2.738135 10.913824 17.494335 0.201628 0.897138 0.010982 0.000524 -122996.000000 1 0 0
-2.593127 3.686465 13.538724 14.269246 -0.957780 0.321367 0.004637 0.002395 225972.000000 1 0 0
3.605773 6.163665 16.316124 17.810341 1.041476 0.412544 0.005611 -0.004340 1085240.000000 1 0 0
-3.645127 12.425365 12.438824 17.955528 -1.285441 0.805491 0.010862 -0.010375 107634.000000 1 0 0
3.948173 -1.492635 17.078624 17.592482 -0.361448 0.242290 -0.000365 0.002564 421064.000000 1 0 0
-15.609127 0.710365 9.198624 18.131854 -0.045478 1.038726 0.006992 -0.004005 147192.000000 1 0 0
-4.731127 4.618865 15.302824 16.670150 -0.773392 0.407845 0.011709 0.001260 744356.000000 1 0 0
-7.965827 -8.183435 10.672224 15.630719 0.798872 0.819246 0.012865 -0.003412 2718390.000000 1 0 0
-2.500627 -0.413235 14.801924 15.017352 0.163773 0.169586 0.013724 -0.001381 2259220.000000 1 0 0
-1.838727 1.124065 17.264824 17.398810 -0.548707 0.124183 0.013196 -0.002157 -50479.300000 1 0 0
-0.574227 -2.447435 14.413224 14.630813 1.340341 0.172679 0.007165 -0.000458 -790737.000000 1 0 0
5.255173 -8.293935 16.450724 19.158093 -1.006025 0.538102 0.002373 0.001251 533327.000000 1 0 0
-4.444327 10.019365 10.682524 15.305425 -1.153299 0.798256 0.003996 -0.005312 -70509.400000 1 0 0
-6.052527 1.972865 15.252224 16.527420 -0.315097 0.395397 0.007432 0.004200 878387.000000 1 0 0
-4.927627 6.913565 17.315924 19.285230 -0.951566 0.455854 0.018077 -0.000575 500013.000000 1 0 0
-3.936327 9.170165 15.730424 18.628817 -1.165328 0.565327 0.016735 -0.008294 53373.600000 1 0 0
-4.433127 -9.965835 18.362224 21.357475 1.152248 0.536004 0.032048 -0.010781 -387420.000000 1 0 0
-6.753027 -4.134935 11.212424 13.726599 0.549421 0.614886 0.006599 -0.000609 25347.500000 1 0 0
-2.288827 -0.783735 19.526324 19.675627 0.329904 0.123271 0.022168 -0.005756 -1296060.000000 1 0 0
-5.661727 -4.671335 15.259524 16.933092 0.689843 0.448345 0.018061 -0.010718 448785.000000 1 0 0
-12.693127 -0.008335 9.729324 15.992976 0.000657 0.916817 0.003411 -0.000898 1640420.000000 1 0 0
-14.433927 8.711565 10.261624 19.736528 -0.543024 1.024027 0.000347 -0.001849 -3633560.000000 1 0 0
-8.414227 10.595865 12.839224 18.652540 -0.899660 0.811603 0.007457 -0.013924 -577059.000000 1 0 0
-10.449127 7.206465 10.749724 16.633519 -0.603760 0.868112 -0.000930 -0.002265 547371.000000 1 0 0
-9.834827 -6.565835 14.912224 19.031774 0.588656 0.670448 0.014756 -0.008528 297396.000000 1 0 0
-0.853727 -13.449335 14.479124 19.780255 1.507404 0.749545 -0.008529 -0.007596 -362899.000000 1 0 0
4.001473 -5.732035 16.922824 18.309833 -0.961354 0.391735 -0.002329 -0.002185 2076200.000000 1 0 0
-7.264327 9.439665 10.375224 15.796297 -0.914898 0.854211 0.003587 -0.006398 2049790.000000 1 0 0
-10.236227 -6.718135 11.973624 17.125459 0.580798 0.796559 0.007285 -0.009129 1818400.000000 1 0 0
-10.792027 -3.957235 10.807424 15.777451 0.351458 0.816204 0.001805 0.004139 -811933.000000 1 0 0
-10.000827 -10.267635 9.849424 17.391148 0.798561 0.968730 0.015117 -0.008078 1608350.000000 1 0 0
-9.800227 -3.714235 15.307724 18.551722 0.362268 0.600351 0.015198 -0.007735 2186370.000000 1 0 0
5.829173 -3.367035 16.059824 17.413619 -0.523800 0.396919 -0.002939 0.003515 787600.000000 1 0 0
-11.140327 0.397165 15.525124 19.112668 -0.035636 0.622720 0.000527 0.006793 -174829.000000 1 0 0
-3.034727 3.315265 18.770024 19.300631 -0.829549 0.235026 0.015785 -0.003849 -654886.000000 1 0 0
0.499373 7.355565 14.034924 15.853479 1.503010 0.483679 0.005294 -0.005772 1439010.000000 1 0 0
-13.009027 -7.678135 12.283124 19.469558 0.533194 0.888098 0.004052 -0.003686 -933985.000000 1 0 0
-1.522927 -1.126435 12.182624 12.329010 0.636845 0.154252 0.004861 0.000109 858798.000000 1 0 0
2.082573 -4.917535 13.087524 14.135153 -1.170197 0.387425 -0.003367 -0.002482 -543530.000000 1 0 0
-14.555327 -4.127935 8.672024 17.438503 0.276347 1.050322 0.015915 -0.004958 -380368.000000 1 0 0
8.032473 0.934865 16.114824 18.030035 0.115864 0.465100 0.003193 -0.000038 689457.000000 1 0 0
-1.104727 11.387465 13.395724 17.616475 -1.474086 0.706854 0.007284 -0.006772 265940.000000 1 0 0
2.573873 -12.281435 -13.795076 18.648394 -1.364212 2.403489 -0.014917 0.016989 -579895.000000 1 0 0
0.547373 -10.695235 -13.926276 17.567836 -1.519662 2.486045 -0.015078 0.014708 -1902830.000000 1 0 0
3.159373 -14.367035 -12.511176 19.311211 -1.354337 2.275583 -0.013690 0.014262 -1794440.000000 1 0 0
-5.314027 -10.205535 -16.188676 19.861145 1.090726 2.523686 -0.001994 0.005250 -448753.000000 1 0 0
-1.281227 -12.262935 -15.103376 19.497002 1.466694 2.456960 -0.001474 0.016388 -545011.000000 1 0 0
5.495473 -15.140035 -12.143876 20.171629 -1.222608 2.216834 -0.009490 0.012739 144703.000000 1 0 0
1.694073 -11.809335 -16.155976 20.083472 -1.428316 2.505531 -0.016805 0.013917 -818988.000000 1 0 0
1.134073 -14.538235 -14.035676 20.239729 -1.492948 2.337093 -0.007936 0.024603 -321035.000000 1 0 0
-1.303927 -10.650135 -15.817476 19.113298 1.448970 2.545551 -0.000465 0.007437 -659197.000000 1 0 0
-6.061127 -5.614435 -14.757076 16.912434 0.747158 2.631210 -0.001717 -0.006527 -126392.000000 1 0 0
-6.540827 -7.603935 -16.254176 19.099751 0.860416 2.588712 -0.003989 -0.006559 205216.000000 1 0 0
4.867273 -12.641935 -11.423876 17.720435 -1.203279 2.271391 -0.009992 0.009402 -74758.500000 1 0 0
-1.828827 -15.548735 -13.291876 20.537326 1.453715 2.274710 -0.003584 0.012825 -430895.000000 1 0 0
15.467573 -7.379035 -9.094176 19.401031 -0.445132 2.058668 -0.001778 0.004483 531001.000000 1 0 0
19.215273 -3.746535 -4.578676 20.105410 -0.192561 1.800546 -0.005403 -0.007089 625463.000000 1 0 0
14.757673 -11.894535 -8.887076 20.934398 -0.678383 2.009228 0.018994 0.001594 564561.000000 1 0 0
17.717173 -3.623135 -6.591976 19.247844 -0.201717 1.920350 0.022163 -0.005844 384165.000000 1 0 0
9.377273 -9.071535 -15.516076 20.272509 -0.768827 2.442420 0.018075 -0.005352 4545.300000 1 0 0
1.139573 1.955665 -15.285776 15.452450 1.043192 2.994585 0.004491 -0.003479 350588.000000 1 0 0
4.727773 -4.379935 -14.006976 15.418530 -0.747225 2.710359 -0.007213 0.001148 744899.000000 1 0 0
12.943573 -5.483735 -8.748176 16.557114 -0.400739 2.127468 0.017833 -0.004096 -1410640.000000 1 0 0
2.916173 0.954265 -12.205476 12.585243 0.316249 2.895306 -0.000035 -0.002141 -2624810.000000 1 0 0
0.589773 6.325765 -13.045276 14.510078 1.477832 2.688390 0.008252 -0.004731 -199405.000000 1 0 0
2.956073 -1.115235 -16.807576 17.101951 -0.360759 2.955783 0.004239 -0.005455 -243283.000000 1 0 0
13.112873 4.382565 -11.378676 17.906105 0.322547 2.259405 0.004090 -0.001320 -27604.800000 1 0 0
-3.915427 9.444165 -16.448876 19.367197 -1.177779 2.585485 -0.004462 -0.004870 356770.000000 1 0 0
-0.421627 -5.168935 -17.690776 18.435271 1.489407 2.856429 0.008204 -0.004688 369452.000000 1 0 0
-0.681027 -8.713335 -17.609976 19.659534 1.492796 2.680906 0.005753 0.007167 -1592850.000000 1 0 0
5.381873 -10.222135 -12.236176 16.827971 -1.086180 2.384933 -0.008501 0.008271 273489.000000 1 0 0
1.615073 -9.875235 -18.180076 20.751961 -1.408684 2.638437 -0.001638 0.013289 -304938.000000 1 0 0
10.911073 8.570065 -14.427576 20.016305 0.665804 2.375739 0.017758 -0.011897 -974524.000000 1 0 0
10.625773 -3.734935 -12.927676 17.145892 -0.338009 2.424898 0.010717 -0.003881 672851.000000 1 0 0
4.862273 7.397965 -12.227476 15.095786 0.989345 2.514936 -0.005864 -0.001021 -1456170.000000 1 0 0
9.500373 -6.045335 -12.817276 17.061235 -0.566703 2.420752 0.011219 0.002002 -1035280.000000 1 0 0
-3.445827 0.353965 -15.919276 16.291788 -0.102364 2.927337 0.008772 -0.003788 -2392740.000000 1 0 0
-0.762527 10.728665 -12.702376 16.644400 -1.499842 2.438989 -0.003503 -0.004662 -1918340.000000 1 0 0
6.536073 -5.578735 -12.468976 15.143246 -0.706540 2.538176 -0.007064 0.004614 76076.800000 1 0 0
17.707673 -6.348935 -8.203576 20.522410 -0.344264 1.982027 0.006323 -0.007909 2068590.000000 1 0 0
13.065273 4.849265 -13.928676 19.703420 0.355397 2.355926 0.008525 -0.005721 425425.000000 1 0 0
14.043073 0.820865 -11.547076 18.199360 0.058387 2.258128 0.013167 -0.001426 -913515.000000 1 0 0
15.119573 5.956865 -11.087476 19.672769 0.375309 2.169528 0.015016 -0.002478 496306.000000 1 0 0
8.120473 1.486065 -11.748876 14.359198 0.180999 2.529091 -0.004430 0.000691 280854.000000 1 0 0
9.780773 1.194565 -8.899376 13.277402 0.121532 2.305362 -0.001073 -0.000056 510958.000000 1 0 0
-0.240827 -5.838435 -13.004076 14.256624 1.529571 2.719278 -0.000538 0.001595 -18131.000000 1 0 0
10.444873 -5.754535 -9.044476 14.967050 -0.503567 2.219674 0.011443 -0.002843 -1048590.000000 1 0 0
10.232273 8.499265 -11.209076 17.394835 0.693143 2.271023 0.014003 -0.007576 905725.000000 1 0 0
8.365773 8.059165 -14.651176 18.697413 0.766733 2.471226 0.009509 0.000195 414926.000000 1 0 0
8.667973 10.599965 -10.694676 17.374381 0.885334 2.233871 0.017920 -0.008317 -1076180.000000 1 0 0
6.853573 1.779165 -17.940176 19.286960 0.253990 2.765675 -0.005583 0.008193 -2331170.000000 1 0 0
12.009873 2.674865 -12.869276 17.804781 0.219145 2.378640 0.001429 0.000493 -1251250.000000 1 0 0
2.500473 -0.828135 -19.276376 19.455510 -0.319822 3.005788 0.012337 -0.007622 -659983.000000 1 0 0
10.081773 -2.159535 -15.463376 18.585525 -0.211013 2.553521 0.005481 -0.003264 360703.000000 1 0 0
8.151173 -0.792935 -13.136876 15.480565 -0.096974 2.584138 -0.001061 -0.000155 326163.000000 1 0 0
0.361873 4.393565 -14.658576 15.307130 1.488617 2.849456 0.005237 -0.000628 285754.000000 1 0 0
3.766673 -7.633735 -15.678376 17.840214 -1.112423 2.644185 -0.005766 0.003102 -318016.000000 1 0 0
11.250573 -5.550635 -14.655976 19.292034 -0.458325 2.433633 0.019193 -0.001414 -1224800.000000 1 0 0
-5.787627 4.425665 -16.879276 18.384589 -0.652828 2.734109 -0.005906 0.003425 6255.980000 1 0 0
11.342973 7.811665 -9.012876 16.459559 0.603087 2.150262 0.011980 -0.002308 -1439050.000000 1 0 0
9.527673 6.156165 -13.479776 17.617584 0.573653 2.442043 0.008158 0.001745 -252589.000000 1 0 0
11.951073 0.593365 -10.182476 15.711876 0.049609 2.275851 0.010399 -0.000810 -559196.000000 1 0 0
5.342073 -7.422735 -13.725976 16.493549 -0.946977 2.553865 -0.010179 0.007452 -1776960.000000 1 0 0
8.416273 -10.168735 -10.862176 17.094552 -0.879415 2.259345 0.005543 0.003708 9639.420000 1 0 0
9.810073 4.868465 -15.939676 19.339409 0.460661 2.539597 0.000291 0.005383 21336.400000 1 0 0
9.808773 -0.400835 -11.084876 14.806998 -0.040842 2.416781 0.001329 -0.001026 -717024.000000 1 0 0
-1.814527 5.486665 -13.939876 15.090266 -1.251403 2.748597 -0.000648 -0.003965 463958.000000 1 0 0
1.204373 -0.609835 -14.989476 15.050143 -0.468715 3.051774 0.004773 -0.002454 -1741400.000000 1 0 0
11.211573 -10.623035 -14.334576 21.071980 -0.758450 2.318923 0.024088 0.004064 222098.000000 1 0 0
9.245973 -7.674035 -10.832376 16.177738 -0.692760 2.304447 0.008074 0.000683 -776159.000000 1 0 0
13.894273 -1.038435 -9.807076 17.038425 -0.074600 2.184117 0.006840 0.000468 809439.000000 1 0 0
4.034173 11.260465 -12.112076 17.022779 1.226782 2.362458 0.008536 -0.008016 -620103.000000 1 0 0
-1.310927 2.909365 -17.288976 17.581002 -1.147453 2.959074 0.007450 0.004069 217372.000000 1 0 0
5.742073 -0.523235 -17.723876 18.638159 -0.090872 2.827075 -0.008946 0.005632 -56585.800000 1 0 0
6.270773 -6.830235 -16.119776 18.596287 -0.828076 2.619601 0.002803 0.006437 57315.700000 1 0 0
-1.844127 -5.014535 -19.964776 20.667333 1.218391 2.880105 0.018709 -0.008033 -602514.000000 1 0 0
-0.154727 -4.390035 -15.182876 15.805571 1.535566 2.859959 0.003822 -0.003930 403446.000000 1 0 0
0.388673 0.843265 -12.987676 13.020825 1.138903 3.070221 0.001413 -0.002961 1330510.000000 1 0 0
15.403873 0.558365 -13.679176 20.608516 0.036232 2.296635 0.009993 -0.000317 525730.000000 1 0 0
-0.209827 7.094265 -16.244276 17.727073 -1.541228 2.729673 0.006136 -0.003725 -275503.000000 1 0 0
-5.086927 -0.595935 -18.294976 18.998371 0.116619 2.868628 0.001948 0.001215 -366138.000000 1 0 0
10.318873 -8.453035 -13.143976 18.726907 -0.686328 2.348825 0.014760 -0.004976 225633.000000 1 0 0
4.224973 8.532365 -17.441076 19.870651 1.111020 2.641901 0.001932 -0.006720 -315263.000000 1 0 0
9.065373 0.364165 -17.227276 19.470302 0.040149 2.656856 -0.002062 0.010896 139815.000000 1 0 0
3.295073 4.912365 -18.507076 19.429377 0.979957 2.832239 -0.002307 0.003165 -601869.000000 1 0 0
1.214973 -8.165835 -16.031776 18.032606 -1.423093 2.666049 -0.010502 0.008059 -288250.000000 1 0 0
4.378473 7.932165 -14.890276 17.430163 1.066427 2.594964 -0.002803 0.002628 386551.000000 1 0 0
-5.807227 -0.301135 -15.179976 16.255653 0.051809 2.775764 -0.001491 -0.004524 -1117860.000000 1 0 0
2.720373 3.417865 -13.795476 14.470570 0.898543 2.834933 0.000359 0.000005 -104805.000000 1 0 0
-2.607027 -10.432435 -18.010276 20.976233 1.325915 2.603336 0.019114 0.006729 146117.000000 1 0 0
5.794973 -9.270735 -15.529576 18.991998 -1.012138 2.528184 -0.024531 0.012181 -107614.000000 1 0 0
-1.774327 5.522865 -17.179276 18.132231 -1.259942 2.815946 0.002382 -0.005756 -205003.000000 1 0 0
9.857073 -12.229335 -11.780676 19.634227 -0.892396 2.214306 0.016473 0.005943 370110.000000 1 0 0
10.847273 3.581365 -9.296876 14.728252 0.318894 2.253931 0.002003 -0.003151 -1179210.000000 1 0 0
4.757073 -0.487035 -11.015576 12.008741 -0.102026 2.732034 -0.001588 -0.003235 136325.000000 1 0 0
6.303573 9.546865 -11.316376 16.091551 0.987231 2.350754 0.000135 -0.007640 -10506.200000 1 0 0
10.666273 -9.546135 -9.580976 17.224784 -0.730036 2.160641 0.018895 0.000657 -231255.000000 1 0 0
3.072873 -2.384235 -14.479976 14.993226 -0.659871 2.879184 0.001178 -0.003615 -288837.000000 1 0 0
8.889773 -4.449635 -14.802276 17.830723 -0.464075 2.550183 0.003169 -0.001035 -142361.000000 1 0 0
-4.175727 -6.510735 -16.380276 18.114630 1.000519 2.700432 -0.005970 -0.003756 -359996.000000 1 0 0
5.855573 -7.919135 -11.385776 15.054446 -0.934100 2.428445 -0.007039 0.005303 -26590.200000 1 0 0
5.546273 6.436265 -16.804376 18.830128 0.859536 2.673476 -0.004493 -0.006589 -191575.000000 1 0 0
8.817073 1.654765 -19.563976 21.522736 0.185519 2.711653 -0.004291 0.006935 235231.000000 1 0 0
13.067273 5.792765 -9.309876 17.058240 0.417271 2.148104 0.001597 0.000078 1410460.000000 1 0 0
-1.565727 -0.641335 -17.347876 17.430193 0.388762 3.044367 0.008030 -0.003048 412704.000000 1 0 0
-0.504427 -0.650735 -19.695976 19.713178 0.911384 3.099814 0.017171 -0.005782 -574078.000000 1 0 0
2.943173 6.547765 -16.533476 18.024742 1.148364 2.731956 -0.000596 0.000872 -813568.000000 1 0 0
7.517973 3.623965 -15.544876 17.643588 0.449177 2.648873 -0.003948 -0.000419 -453064.000000 1 0 0
2.822273 -9.911435 -14.855076 18.079687 -1.293389 2.535087 -0.008059 0.010745 -173788.000000 1 0 0
8.784873 -10.523235 -13.474376 19.221636 -0.875189 2.347596 0.007480 0.003506 -129726.000000 1 0 0
3.639173 0.153665 -14.765276 15.207912 0.042200 2.899734 -0.000144 -0.003838 -2222270.000000 1 0 0
-1.322727 -2.886935 -18.694176 18.961968 1.141163 2.973331 0.020843 -0.008119 738548.000000 1 0 0
9.231073 9.990765 -13.122376 18.900393 0.824900 2.338231 0.018855 -0.009755 433683.000000 1 0 0
4.680973 2.136165 -10.765876 11.932259 0.428122 2.695755 -0.005850 0.000705 277483.000000 1 0 0
-0.551627 7.100365 -18.913376 20.209781 -1.493262 2.781467 0.012673 -0.004457 -30112.600000 1 0 0
0.708773 -1.820835 -17.638376 17.746270 -1.199585 3.031266 0.018155 -0.008248 -2748840.000000 1 0 0
-4.523427 -2.134735 -14.085676 14.947400 0.440940 2.800380 0.001201 -0.005618 -3294810.000000 1 0 0
9.951773 5.993865 -10.441976 15.620469 0.542102 2.302960 0.005284 0.001893 105354.000000 1 0 0
7.924573 5.004965 -17.779576 20.098802 0.563314 2.656451 -0.003275 -0.000002 -329119.000000 1 0 0
11.468973 0.332665 -13.467276 17.692245 0.028997 2.435953 0.008125 0.003739 477068.000000 1 0 0
6.797373 12.088865 -11.816576 18.220220 1.058571 2.276464 0.018247 -0.013538 -663788.000000 1 0 0
-1.103027 0.650465 -15.047476 15.101864 -0.532818 3.056697 0.007471 -0.004334 -69308.000000 1 0 0
-4.638327 -3.091335 -18.926476 19.730229 0.587871 2.855178 0.000527 0.002669 136261.000000 1 0 0
5.500973 -12.173235 -14.038376 19.378451 -1.146371 2.381007 -0.013027 0.011468 -150885.000000 1 0 0
2.015073 -4.764035 -14.077576 14.997823 -1.170641 2.789466 0.001257 0.001368 -1279370.000000 1 0 0
11.712273 2.079865 -15.367876 19.433857 0.175748 2.482876 0.007459 0.001953 495049.000000 1 0 0
9.578173 2.161365 -13.712576 16.865576 0.221938 2.520170 -0.001158 0.001852 470848.000000 1 0 0
-2.385727 -4.151135 -16.397676 17.082371 1.049175 2.857506 0.001564 -0.005025 -1535570.000000 1 0 0
-2.902827 10.131965 -14.202976 17.686369 -1.291769 2.503186 -0.004375 -0.008771 85262.800000 1 0 0
3.509173 5.778465 -13.793176 15.360881 1.025038 2.685867 -0.003821 0.001855 -213836.000000 1 0 0
-5.324727 -2.522235 -16.505276 17.525368 0.442374 2.798722 0.002474 -0.001220 410466.000000 1 0 0
-4.316227 6.214065 -13.489376 15.466340 -0.963710 2.630430 -0.009890 -0.004290 -1050760.000000 1 0 0
5.650573 -1.160535 -14.009876 15.150988 -0.202567 2.751001 0.000463 -0.001059 -1784760.000000 1 0 0
6.653173 -3.010235 -12.676776 14.629658 -0.424890 2.618968 -0.003047 -0.000262 1353920.000000 1 0 0
2.882573 -3.170435 -18.317276 18.811791 -0.832919 2.911795 0.008076 -0.009093 -151049.000000 1 0 0
7.270273 -12.097835 -12.226976 18.673870 -1.029674 2.284667 -0.001376 0.008775 -2095020.000000 1 0 0
-6.379927 -5.260135 -17.318576 19.191289 0.689492 2.696147 0.020576 -0.009665 369390.000000 1 0 0
0.494173 8.639465 -11.867576 14.687543 1.513659 2.511551 -0.000140 -0.002762 92975.600000 1 0 0
0.497873 8.661765 -14.427576 16.835350 1.513380 2.600179 0.001640 -0.003949 369800.000000 1 0 0
7.473273 -2.432535 -15.097576 17.020689 -0.314682 2.661632 -0.001839 -0.004983 -841602.000000 1 0 0
14.176073 1.397565 -8.905476 16.799457 0.098269 2.129521 0.002011 -0.000910 581298.000000 1 0 0
2.889273 10.710665 -14.482476 18.243036 1.307311 2.487932 0.006370 -0.006801 -1005280.000000 1 0 0
6.101573 0.909165 -15.521876 16.702826 0.147917 2.763299 0.002398 0.000779 690011.000000 1 0 0
16.674273 -5.353535 -10.353976 20.344448 -0.310669 2.104742 0.038002 -0.013134 566118.000000 1 0 0
4.718273 -4.197335 -11.328776 12.970000 -0.727035 2.633060 -0.006978 0.003783 -2124170.000000 1 0 0
8.685073 -3.468335 -17.132876 19.519101 -0.379941 2.641940 -0.002462 -0.005140 134552.000000 1 0 0
13.116573 -9.675835 -8.999776 18.618868 -0.635570 2.075295 0.017460 0.001136 -43341.400000 1 0 0
2.104573 -7.744335 -13.627676 15.815104 -1.305448 2.609382 -0.006543 0.007682 -195655.000000 1 0 0
-7.063827 -2.305335 -18.343076 19.790924 0.315460 2.756711 0.002108 -0.000513 -2334710.000000 1 0 0
-1.630227 -6.521235 -15.743376 17.118354 1.325829 2.738056 -0.000019 0.000162 -777207.000000 1 0 0
1.338673 -7.322135 -18.481776 19.924401 -1.389968 2.758719 0.009462 -0.000701 -79593.200000 1 0 0
5.401273 10.768565 -14.356276 18.741355 1.105887 2.443425 0.010993 -0.021027 -510095.000000 1 0 0
5.395473 -3.537835 -17.262076 18.428420 -0.580375 2.783907 0.009766 -0.009843 64344.600000 1 0 0
4.080973 12.999665 -13.932076 19.487133 1.266610 2.367331 0.011782 -0.014853 -114876.000000 1 0 0
9.302973 10.243965 -15.686676 20.917838 0.833501 2.418735 0.022022 -0.019909 322348.000000 1 0 0
2.386373 3.958965 -16.241076 16.886111 1.028337 2.864303 0.001175 -0.000844 59799.100000 1 0 0
16.476773 1.567665 -11.567676 20.192889 0.094858 2.180786 -0.002325 0.003607 -789257.000000 1 0 0
9.808073 -3.664935 -10.520276 14.842717 -0.357600 2.358569 0.008499 -0.003930 -602297.000000 1 0 0
14.409973 -2.169435 -12.081576 18.929296 -0.149429 2.263016 0.014694 -0.001095 -91118.500000 1 0 0
-2.845027 -8.667535 -16.074876 18.483019 1.253637 2.625412 -0.002164 0.008398 -412728.000000 1 0 0
13.969673 8.080465 -8.965076 18.461264 0.524407 2.077863 0.020261 0.003137 395858.000000 1 0 0
-8.364927 0.184265 -16.512876 18.511646 -0.022025 2.672605 -0.010586 -0.000622 -371863.000000 1 0 0
-3.456927 3.980165 -15.980876 16.827966 -0.855638 2.822951 0.000905 0.000362 413334.000000 1 0 0
15.007173 3.893665 -9.681676 18.278696 0.253856 2.129008 0.006835 0.006349 762958.000000 1 0 0
5.303973 1.091865 -12.968076 14.053302 0.203022 2.746025 -0.005200 -0.000309 -506400.000000 1 0 0
7.737273 -7.760135 -13.015276 17.014186 -0.786873 2.441785 -0.001109 0.005502 -3254500.000000 1 0 0
3.106273 -6.177735 -11.948976 13.805484 -1.104897 2.616992 -0.003431 0.002919 -1107070.000000 1 0 0
-3.211727 4.035365 -18.495976 19.201575 -0.898563 2.869658 0.003957 0.005439 -590510.000000 1 0 0
0.907973 5.377765 -17.711876 18.532548 1.403535 2.842884 0.002859 -0.003298 -2208380.000000 1 0 0
6.290773 7.180265 -10.287676 14.034468 0.851332 2.393561 -0.002023 0.000930 166427.000000 1 0 0
9.633773 3.624165 -11.570876 15.486424 0.359817 2.414579 0.000833 -0.001480 -374469.000000 1 0 0
4.436373 1.659965 -17.471076 18.101806 0.358044 2.876837 0.002523 -0.001630 -677836.000000 1 0 0
2.588473 7.992665 -13.021276 15.496339 1.257599 2.568597 0.001282 -0.007012 -2879100.000000 1 0 0
14.268173 -3.590035 -9.975076 17.775580 -0.246495 2.166592 0.019741 -0.001984 55164.900000 1 0 0
-1.286927 9.499665 -16.112576 18.748731 -1.436145 2.604883 0.001508 -0.002583 -1678500.000000 1 0 0
-5.360527 2.136865 -15.771676 16.794261 -0.379324 2.790830 0.000627 -0.002974 939308.000000 1 0 0
4.393473 4.352765 -11.988276 13.489549 0.780744 2.665317 -0.004503 -0.000358 232620.000000 1 0 0
9.226173 2.828265 -17.306176 19.814769 0.297453 2.632933 -0.000750 -0.003753 627989.000000 1 0 0
-4.319927 14.438165 -13.330676 20.120370 -1.280072 2.295009 -0.006951 -0.004202 -369077.000000 1 0 0
15.402873 -4.996535 -8.082376 18.098029 -0.313680 2.033745 0.014804 -0.004202 210304.000000 1 0 0
1.140773 9.219265 -16.979876 19.354906 1.447684 2.640984 0.000578 0.001752 -507951.000000 1 0 0
0.433073 -3.270835 -12.824176 13.241805 -1.439158 2.889776 0.001654 -0.000643 -77440.000000 1 0 0
7.430773 3.606765 -12.980076 15.385302 0.451885 2.574874 -0.003240 0.002359 425209.000000 1 0 0
-2.845627 7.632465 -15.048376 17.111567 -1.213928 2.645454 -0.008306 -0.002397 -225629.000000 1 0 0
11.912373 -5.162135 -11.153276 17.115719 -0.408915 2.280540 0.023749 -0.002487 -408412.000000 1 0 0
0.638773 -4.358835 -19.901576 20.383332 -1.425285 2.923747 0.023515 -0.012061 -943489.000000 1 0 0
3.257773 -4.465135 -16.180576 17.098584 -0.940478 2.812422 0.001109 -0.004627 463449.000000 1 0 0
-5.705927 4.170465 -14.265476 15.920245 -0.631165 2.681607 -0.005696 -0.006568 931790.000000 1 0 0
12.118073 -7.508435 -10.016276 17.422689 -0.554711 2.183276 0.020709 0.000380 -118628.000000 1 0 0
-2.155127 -1.788535 -15.075076 15.333015 0.692707 2.957909 0.004844 -0.002387 11763.600000 1 0 0
7.068173 5.875065 -14.346076 17.037763 0.693478 2.571807 -0.001072 0.004460 -919523.000000 1 0 0
4.108873 -5.419735 -18.565976 19.772502 -0.922111 2.790448 0.013447 -0.006417 183398.000000 1 0 0
7.525973 7.405065 -12.342176 16.242062 0.777301 2.433940 -0.002278 -0.002400 -355873.000000 1 0 0
12.102773 -2.586635 -11.032776 16.579805 -0.210555 2.298872 0.015630 -0.003929 -1351390.000000 1 0 0
7.349773 -0.719135 -10.673976 12.979603 -0.097534 2.536352 -0.003567 -0.000425 -2215500.000000 1 0 0
5.266773 4.000165 -14.438376 15.881024 0.649560 2.712057 -0.004115 0.001780 -276274.000000 1 0 0
14.641273 2.951565 -13.023476 19.816396 0.198926 2.287904 0.004537 -0.001848 1182770.000000 1 0 0
-6.523627 6.744965 -15.675076 18.269107 -0.802078 2.602179 -0.008921 -0.000150 527819.000000 1 0 0
-11.211427 4.040065 -16.270176 20.167718 -0.345868 2.509417 -0.000704 -0.009727 -652470.000000 1 0 0
-5.201827 6.630165 -17.982576 19.859283 -0.905535 2.703352 -0.003817 0.011084 -97124.000000 1 0 0
-10.058127 1.844765 -15.525276 18.590408 -0.181394 2.559153 -0.004080 -0.004942 70478.300000 1 0 0
-7.702227 5.998465 -17.785876 20.288994 -0.661677 2.639603 -0.015367 0.002285 -732977.000000 1 0 0
-8.753327 4.017865 -15.584676 18.320647 -0.430321 2.588039 -0.012701 0.001156 -1931410.000000 1 0 0
8.992573 13.431465 -11.982376 20.120834 0.980824 2.208710 0.036524 -0.021690 -834359.000000 1 0 0
13.567773 8.796765 -11.502376 19.843694 0.575220 2.189094 0.008507 -0.006369 159823.000000 1 0 0
8.411473 15.911465 -9.064076 20.151552 1.084498 2.037333 0.034644 -0.014457 -212584.000000 1 0 0
7.164073 13.631765 -13.831476 20.699243 1.086924 2.302599 0.025610 -0.013644 -42392.200000 1 0 0
4.758273 16.110665 -12.292276 20.815733 1.283612 2.202509 0.031307 -0.019382 13433.200000 1 0 0
11.131673 10.887665 -11.465176 19.336640 0.774317 2.205483 0.021529 -0.010118 65767.000000 1 0 0
15.647773 9.698165 -10.167976 21.030809 0.554836 2.075422 0.023403 0.012775 821823.000000 1 0 0
13.299473 10.570965 -9.455176 19.442778 0.671587 2.078656 0.036738 -0.003988 537356.000000 1 0 0
10.607673 11.977865 -8.231976 17.993260 0.845991 2.045982 0.019845 0.005564 341676.000000 1 0 0
5.431473 16.169865 -9.852476 19.698647 1.246737 2.094580 0.022770 -0.023333 -328936.000000 1 0 0
6.751573 14.643965 -11.394876 19.745193 1.138793 2.185965 0.028745 -0.012331 -263308.000000 1 0 0
10.720973 13.985065 -9.832976 20.179413 0.916755 2.079766 0.024740 -0.001741 -440532.000000 1 0 0
8.152473 -18.805435 -1.560876 20.555864 -1.161734 1.646803 0.022900 0.007438 -435301.000000 1 0 0
7.503173 -17.283635 -3.581076 19.179306 -1.161226 1.758614 0.027882 -0.003672 -463047.000000 1 0 0
4.549973 -18.390235 5.860424 19.830471 -1.328254 1.270790 0.014467 0.007843 266008.000000 1 0 0
9.826673 -17.098435 -2.587376 19.890061 -1.049179 1.701250 0.017449 0.005519 -664168.000000 1 0 0
-9.682027 -12.179535 -10.112376 18.556478 0.899147 2.147127 0.009601 -0.002778 -1158000.000000 1 0 0
-5.295327 -7.100035 -12.204176 15.079553 0.929978 2.513789 -0.007951 0.000590 37627.100000 1 0 0
-10.787327 -9.410335 -5.712276 15.412687 0.717328 1.950475 0.003493 -0.001166 -860205.000000 1 0 0
-4.710827 -11.567135 -14.010676 18.769378 1.184047 2.413529 0.002991 0.006268 -493598.000000 1 0 0
-3.001227 -15.605135 7.464624 17.556999 1.380793 1.131652 -0.002929 0.003135 132237.000000 1 0 0
-4.806927 -12.101235 -11.606876 17.443223 1.192684 2.298838 -0.005638 0.004094 -241959.000000 1 0 0
-14.420127 -12.697135 -4.221976 19.671868 0.721945 1.787099 -0.004238 0.000132 -195600.000000 1 0 0
-3.226227 -12.274735 -3.211476 13.091648 1.313775 1.818633 -0.001117 0.000654 598232.000000 1 0 0
-2.551727 -17.422335 -1.508276 17.672690 1.425367 1.656245 -0.012669 -0.001371 -1180930.000000 1 0 0
-5.701527 -12.209235 3.715924 13.977873 1.133908 1.301718 -0.000700 0.002419 -209143.000000 1 0 0
-8.778727 -10.545235 -11.959176 18.201372 0.876560 2.287693 0.000064 0.001172 -405854.000000 1 0 0
-9.854027 -11.993435 -7.537076 17.255488 0.883012 2.022827 0.009929 -0.003249 -165884.000000 1 0 0
-10.830727 -15.107435 6.176924 19.588099 0.948809 1.249981 -0.002756 -0.005954 -1090140.000000 1 0 0
-9.592727 -15.906035 0.565124 18.583373 1.028110 1.540381 -0.000351 0.010506 1119080.000000 1 0 0
-14.907127 -7.681735 -8.196676 18.665931 0.475817 2.025421 -0.008526 0.003804 -80255.100000 1 0 0
-2.348827 -16.584635 5.128324 17.517615 1.430105 1.273692 0.002606 -0.003562 -710412.000000 1 0 0
4.474373 -15.750635 6.003324 17.439680 -1.294012 1.219374 0.011221 -0.000593 -347523.000000 1 0 0
3.929073 -14.796935 -10.128376 18.356768 -1.311253 2.155259 -0.009046 0.006604 79135.600000 1 0 0
-7.604227 -14.213035 -0.237276 16.121133 1.079528 1.585515 -0.000081 0.009070 818901.000000 1 0 0
3.014773 -14.836135 9.729524 17.996205 -1.370321 0.999595 0.005052 -0.006914 -598861.000000 1 0 0
2.328973 -17.254635 10.340324 20.250157 -1.436631 1.034880 0.007231 -0.007793 -427780.000000 1 0 0
-8.364127 -17.199335 -5.806376 19.987240 1.118164 1.865550 0.006465 0.000803 -386530.000000 1 0 0
-6.377427 -9.172635 -7.758676 13.601686 0.963254 2.177814 0.003830 -0.001964 73625.000000 1 0 0
-6.080527 -13.099835 -4.872376 15.241999 1.136223 1.896175 -0.006442 0.002375 281175.000000 1 0 0
1.921073 -19.337335 -4.838176 20.025759 -1.471776 1.814808 0.002568 -0.013644 -696737.000000 1 0 0
-5.273427 -12.763435 8.325224 16.125249 1.178991 1.028289 -0.001288 -0.004460 832226.000000 1 0 0
2.211673 -17.660235 3.413624 18.122589 -1.446210 1.381301 0.014968 -0.006700 1921710.000000 1 0 0
-17.344327 -10.215935 -2.378476 20.269390 0.532297 1.688411 -0.019526 0.002526 124215.000000 1 0 0
-3.505827 -15.514935 2.570124 16.112405 1.348564 1.410600 -0.006921 -0.000187 149926.000000 1 0 0
-9.942027 -10.272035 -14.193276 20.144669 0.801722 2.352610 0.000999 0.002261 -1095000.000000 1 0 0
5.977273 -14.586335 -5.748576 16.779008 -1.181882 1.920485 0.002299 -0.004659 150002.000000 1 0 0
-7.258727 -12.274835 -10.969976 17.991695 1.036761 2.226509 -0.002742 -0.002421 -1652340.000000 1 0 0
-7.016627 -14.393535 3.960624 16.495256 1.117211 1.328320 -0.008303 0.006806 969074.000000 1 0 0
3.183573 -14.958235 -3.212776 15.627088 -1.361094 1.777863 0.008868 -0.009095 -966802.000000 1 0 0
-7.440327 -11.316735 7.738724 15.598552 0.989193 1.051674 0.004168 -0.004331 -1622660.000000 1 0 0
-12.804027 -12.353735 -1.141776 17.828672 0.767501 1.634882 -0.007842 0.008872 -1001500.000000 1 0 0
-1.856327 -13.700035 4.083824 14.415774 1.436119 1.283575 -0.004916 0.001581 -3337170.000000 1 0 0
-3.147527 -14.049135 5.299824 15.341879 1.350399 1.218080 -0.005718 0.001432 141537.000000 1 0 0
-14.399927 -10.152635 -4.423076 18.165833 0.614106 1.816752 -0.007094 0.002310 354157.000000 1 0 0
-6.418927 -8.657635 -10.491276 15.040750 0.932810 2.342732 -0.006417 0.000846 137720.000000 1 0 0
0.642673 -19.637035 2.386524 19.791960 -1.538080 1.449922 0.012673 -0.006414 168800.000000 1 0 0
6.214573 -14.290435 -8.374876 17.691128 -1.160590 2.063936 0.003487 0.000324 -2359780.000000 1 0 0
-4.003627 -16.737435 -5.916876 18.198357 1.336006 1.901948 -0.015177 0.001304 -363716.000000 1 0 0
-3.650227 -13.809035 -13.365976 19.561772 1.312371 2.323028 0.005975 0.009866 -1614980.000000 1 0 0
-8.163027 -14.690835 -4.632576 17.433199 1.063622 1.839761 0.001856 -0.000310 -1965780.000000 1 0 0
-4.575527 -14.465135 10.203224 18.283363 1.264440 0.978750 0.004606 0.000724 -534580.000000 1 0 0
-0.462227 -12.269335 -9.887376 15.764214 1.533141 2.248754 -0.007899 0.007414 274014.000000 1 0 0
2.424673 -17.238835 6.904924 18.727906 -1.431061 1.193189 0.009059 -0.006592 -223841.000000 1 0 0
-2.909727 -19.192835 -3.545476 19.733267 1.420337 1.751447 -0.012983 -0.000368 -662303.000000 1 0 0
0.622673 -15.409635 -3.094376 15.729582 -1.530410 1.768811 0.008469 -0.006188 -583391.000000 1 0 0
5.842473 -18.096735 0.475124 19.022410 -1.258513 1.545817 0.021569 -0.004243 -367332.000000 1 0 0
-7.129127 -16.862135 3.848724 18.707451 1.170800 1.363585 -0.005262 0.007573 745419.000000 1 0 0
-5.242027 -13.554735 -9.610176 17.423122 1.201781 2.155049 -0.008199 0.002211 -100295.000000 1 0 0
5.585173 -15.310835 -2.311576 16.460839 -1.221011 1.711691 0.015442 -0.005676 -662897.000000 1 0 0
-8.876427 -10.281735 -0.459776 13.591042 0.858620 1.604632 -0.000425 0.005707 -540670.000000 1 0 0
-7.381027 -18.304435 -3.156576 19.987393 1.187502 1.729389 0.000182 -0.002803 -60588.100000 1 0 0
7.744773 -16.244235 -1.190376 18.035346 -1.125904 1.636847 0.014403 0.001121 -1006050.000000 1 0 0
-8.056127 -10.280035 -9.481376 16.139294 0.906094 2.198727 0.003954 -0.003343 -422910.000000 1 0 0
-9.183027 -15.075135 -7.074476 19.016727 1.023676 1.951973 0.008450 -0.003576 -476951.000000 1 0 0
-11.414927 -10.478435 -12.017076 19.608883 0.742649 2.230444 0.010696 0.009614 582314.000000 1 0 0
6.600073 -16.365835 2.321824 17.798663 -1.187462 1.439974 0.016653 -0.001018 907091.000000 1 0 0
-2.299127 -11.136235 -6.118676 12.912781 1.367202 2.064450 -0.005038 0.001122 -259322.000000 1 0 0
-12.311727 -15.273435 -3.400476 19.910291 0.892354 1.742428 -0.001877 -0.003449 -851702.000000 1 0 0
-0.404927 -19.648335 -2.699476 19.837042 1.550191 1.707302 -0.002433 -0.011605 -289270.000000 1 0 0
-5.842927 -15.645635 -4.721576 17.355661 1.213382 1.846317 -0.012370 0.002342 -2654280.000000 1 0 0
1.874773 -15.927735 -0.998676 16.068755 -1.453630 1.632987 0.014416 -0.008631 -35594.000000 1 0 0
-13.187927 -12.175035 5.323124 18.721339 0.745484 1.282484 0.006958 0.003066 451995.000000 1 0 0
1.880373 -15.451035 -8.781276 17.871237 -1.449693 2.084451 -0.007688 0.009505 -2254520.000000 1 0 0
-12.026427 -16.707235 -0.119576 20.585941 0.946883 1.576605 0.009297 0.000054 -1906.580000 1 0 0
-7.621327 -16.698835 -1.095876 18.388493 1.142634 1.630427 -0.005127 0.006246 517506.000000 1 0 0
-3.055827 -14.462535 -1.778476 14.888451 1.362566 1.690536 -0.007093 0.001314 315336.000000 1 0 0
-2.020527 -10.518335 -13.182676 16.985313 1.381012 2.459289 -0.005241 0.007286 -942748.000000 1 0 0
1.422573 -19.669735 4.906424 20.322283 -1.498599 1.326956 0.017515 -0.009095 164445.000000 1 0 0
-17.272027 -9.605135 2.559324 19.928163 0.507522 1.442013 -0.008113 0.012104 -67707.500000 1 0 0
-2.881827 -15.538635 -8.022876 17.723449 1.387418 2.040554 -0.009382 0.002210 -1595070.000000 1 0 0
-10.522127 -12.260835 0.182724 16.157866 0.861567 1.559487 -0.006317 0.009345 284533.000000 1 0 0
-6.814727 -11.454335 -6.632776 14.887445 1.034100 2.032560 -0.004067 -0.001582 282201.000000 1 0 0
-2.077727 -13.557135 -6.651676 15.243283 1.418723 2.022354 -0.013289 0.007003 216117.000000 1 0 0
-14.357227 -14.472235 -1.199776 20.420946 0.789387 1.629582 0.008199 0.007571 117212.000000 1 0 0
-9.579527 -11.285635 -4.398776 15.442867 0.866985 1.859638 0.009429 -0.000461 268426.000000 1 0 0
9.368373 -15.253135 -5.120976 18.618511 -1.020006 1.849436 0.009087 0.005949 -147883.000000 1 0 0
-5.536427 -10.913435 -9.533676 15.512771 1.101323 2.232636 -0.007903 -0.000589 -455409.000000 1 0 0
-10.404227 -15.973935 -4.867476 19.675032 0.993490 1.820786 0.013920 -0.002014 -2549670.000000 1 0 0
2.232173 -17.356935 -3.243776 17.797974 -1.442894 1.754076 0.012404 -0.008916 547486.000000 1 0 0
-0.418427 -14.582935 -8.193976 16.732553 1.542111 2.082545 -0.008978 0.007815 -1629980.000000 1 0 0
-0.555227 -18.343935 -7.023776 19.650488 1.540538 1.936317 -0.005540 0.001628 41854.000000 1 0 0
-1.995227 -10.161935 -10.573076 14.799858 1.376919 2.366568 -0.008141 0.006281 228422.000000 1 0 0
-5.091527 -17.409935 2.066024 18.256450 1.286281 1.457387 -0.003214 0.000714 -368275.000000 1 0 0
0.177273 -12.853435 -2.680676 13.131194 -1.557005 1.776387 0.000399 -0.002017 -2332630.000000 1 0 0
2.676073 -15.063135 3.067724 15.603536 -1.394974 1.372903 0.015143 -0.002304 -544939.000000 1 0 0
-9.159827 -13.151735 6.838024 17.424957 0.962441 1.167528 -0.003351 -0.001414 -1121870.000000 1 0 0
-1.039027 -17.851235 -4.496176 18.438053 1.512657 1.817133 -0.006013 -0.005318 -735008.000000 1 0 0
-9.669927 -18.059935 -2.173876 20.600837 1.079204 1.676517 0.004490 0.012400 -680993.000000 1 0 0
1.259373 -16.358335 1.438524 16.469685 -1.493961 1.483341 0.010582 -0.007542 160861.000000 1 0 0
-0.421327 -18.072135 4.130624 18.542968 1.547487 1.346152 0.018925 -0.012152 623955.000000 1 0 0
-17.259027 -9.192235 0.031024 19.554339 0.489390 1.569210 -0.019295 0.004504 450944.000000 1 0 0
-15.047027 -6.867235 -10.561176 19.624229 0.428151 2.139061 0.013685 -0.004033 465740.000000 1 0 0
2.591873 -12.866335 -8.833576 15.820634 -1.372011 2.163201 -0.008018 0.005270 380926.000000 1 0 0
-11.713927 -14.733735 1.635924 18.893790 0.899086 1.484103 -0.012142 0.006261 51910.200000 1 0 0
-2.144027 -15.517635 10.524724 18.872299 1.433498 0.979207 -0.000320 -0.003488 -182864.000000 1 0 0
-7.134527 -16.100635 1.336824 17.661230 1.153678 1.495031 -0.006410 0.009563 -1261440.000000 1 0 0
-12.453427 -15.043735 -6.054676 20.446538 0.879324 1.871427 0.005597 0.000322 -29146.400000 1 0 0
0.828073 -13.767335 -5.120276 14.711983 -1.510721 1.926270 0.002771 -0.000749 438418.000000 1 0 0
5.748173 -16.436935 -7.353976 18.902257 -1.234379 1.970400 0.006440 -0.013097 222655.000000 1 0 0
-6.469427 -12.947335 5.983524 15.661722 1.107411 1.178785 0.002650 0.000450 -428211.000000 1 0 0
-2.691327 -13.603335 0.671424 13.883256 1.375476 1.522415 0.001571 0.000041 2006650.000000 1 0 0
-4.349927 -15.640035 0.097024 16.233976 1.299525 1.564820 -0.001709 0.001834 37380.600000 1 0 0
-17.522427 -7.669935 -2.124076 19.245131 0.412596 1.681391 -0.023348 0.005676 710549.000000 1 0 0
1.083873 -12.893435 -11.873676 17.561311 -1.486930 2.313290 -0.010460 0.013873 64593.900000 1 0 0
1.189273 -16.961635 -5.584976 17.897022 -1.500795 1.888159 0.009799 -0.010619 -670425.000000 1 0 0
-12.877527 -6.330035 -9.217676 17.054782 0.456870 2.141797 0.001232 0.004516 1453080.000000 1 0 0
-11.237527 -13.751735 -8.943876 19.884294 0.885672 2.037333 0.003055 -0.005609 276182.000000 1 0 0
-4.301027 -9.835235 3.521324 11.297363 1.158547 1.253821 -0.003305 0.002929 -3850750.000000 1 0 0
-7.050927 -14.282035 9.532824 18.562512 1.112208 1.031477 0.008452 -0.008006 -680534.000000 1 0 0
-5.414127 -15.918335 -8.058176 18.645117 1.242951 2.017713 -0.013176 -0.003135 -511538.000000 1 0 0
-0.289427 -13.664235 2.121424 13.830963 1.549618 1.416806 0.001781 -0.000458 986932.000000 1 0 0
-11.020127 -13.430535 -4.747276 18.009972 0.883663 1.837540 0.015964 -0.002025 -857570.000000 1 0 0
-9.590627 -10.525335 6.784224 15.773031 0.831831 1.126176 0.004274 0.002111 -448649.000000 1 0 0
-15.454127 -7.967135 -4.705076 18.012302 0.475998 1.835077 -0.000909 0.004694 -164243.000000 1 0 0
-14.501027 -7.439135 5.536424 17.212568 0.473999 1.243325 0.013010 0.004765 129836.000000 1 0 0
-1.621827 -19.348635 -0.008676 19.416490 1.487171 1.571243 -0.002264 -0.009099 -444075.000000 1 0 0
-15.413527 -12.142235 -1.387076 19.670655 0.667236 1.641370 -0.014131 0.010092 485086.000000 1 0 0
-4.403827 -12.271335 -6.828476 14.717590 1.226241 2.053264 -0.008146 0.001345 -685643.000000 1 0 0
-7.440527 -18.609235 2.021924 20.143318 1.190437 1.470250 -0.007108 0.009112 22829.500000 1 0 0
-2.552527 -11.752635 -8.573676 14.769826 1.356930 2.190122 -0.008902 0.005771 -831462.000000 1 0 0
-1.354127 -20.476935 -5.039676 21.131419 1.504763 1.811609 -0.009164 0.005836 -130356.000000 1 0 0
-5.385527 -9.042735 -13.853076 17.397778 1.033645 2.491876 -0.005905 0.002536 272305.000000 1 0 0
-7.759227 -19.291835 -0.832176 20.810407 1.188393 1.610795 -0.017603 0.016359 -107861.000000 1 0 0
-17.029127 -7.306335 5.861124 19.435186 0.405295 1.264454 0.009761 0.009500 -653076.000000 1 0 0
-3.593927 -14.724935 -4.310376 15.758153 1.331406 1.847861 -0.012563 0.003654 -2919870.000000 1 0 0
-3.165927 -15.152235 -11.073276 19.032361 1.364818 2.191752 -0.007374 0.011682 -421583.000000 1 0 0
-0.098727 -16.712235 6.369324 17.885101 1.564889 1.206679 0.014597 -0.008435 -274253.000000 1 0 0
-11.155827 -11.689235 3.851524 16.610988 0.808743 1.336801 -0.002747 0.005359 -198141.000000 1 0 0
-0.347827 -14.775435 -0.099876 14.779866 1.547260 1.577554 0.001629 -0.002853 1401540.000000 1 0 0
-7.342227 -9.641535 -2.502876 12.374647 0.919963 1.774460 0.001947 0.002651 -468335.000000 1 0 0
-11.165927 -14.476635 -0.934576 18.306401 0.913798 1.621870 -0.004625 0.001905 144749.000000 1 0 0
0.155473 -14.835635 -10.713676 18.300358 -1.560317 2.196213 -0.013514 0.012401 -82807.000000 1 0 0
-1.475427 -14.133735 -3.858076 14.724949 1.466783 1.835900 -0.006156 0.001719 -5420730.000000 1 0 0
-11.490827 -8.003435 -7.660776 15.961879 0.608377 2.071385 0.008569 -0.002605 457168.000000 1 0 0
-0.230927 -17.323135 -0.347976 17.328169 1.557467 1.590879 0.010402 -0.008427 81150.600000 1 0 0
-12.853627 -9.679835 4.699524 16.763068 0.645471 1.286638 0.005192 0.005354 386437.000000 1 0 0
3.924073 -16.852635 1.597224 17.377019 -1.342026 1.478751 0.021944 -0.009298 652785.000000 1 0 0
-3.779027 -17.884835 -8.325076 20.086196 1.362561 1.998154 -0.013163 0.000265 267216.000000 1 0 0
-13.307627 -11.321635 2.669024 17.674729 0.704937 1.419209 -0.014826 0.005420 178531.000000 1 0 0
-8.498127 -12.363535 4.068524 15.544390 0.968608 1.305976 -0.003277 0.003915 2483510.000000 1 0 0
-8.214827 -9.408635 -5.990176 13.852365 0.853035 2.017982 0.008276 -0.001167 265334.000000 1 0 0
3.740073 -17.567235 -5.307876 18.728840 -1.361028 1.858141 0.002941 0.001684 -194463.000000 1 0 0
-2.594127 -13.050335 11.322924 17.471387 1.374576 0.865731 -0.005486 -0.005192 203343.000000 1 0 0
-0.156827 -16.937335 -9.435876 19.389009 1.561537 2.079060 -0.016299 0.009304 -43793.300000 1 0 0
-7.138527 -10.770335 -14.522276 19.438498 0.985479 2.414467 0.001474 0.006054 -2537910.000000 1 0 0
-4.541127 -19.134235 -1.587976 19.729736 1.337778 1.651370 -0.001918 0.000059 -145357.000000 1 0 0
-2.567727 -17.291135 1.115824 17.516325 1.423374 1.507051 -0.000649 -0.007176 536551.000000 1 0 0
3.873573 -14.728535 -7.477176 16.965921 -1.313622 2.027194 -0.001895 0.001284 -1814640.000000 1 0 0
-1.170527 -15.952735 -6.175276 17.146251 1.497553 1.939228 -0.009641 0.004529 -755034.000000 1 0 0
-9.423827 -15.234935 8.339324 19.759962 1.016836 1.135111 -0.001546 -0.003731 -530063.000000 1 0 0
-7.368127 -12.178135 -1.716576 14.336768 1.026687 1.690817 -0.003638 0.001107 697452.000000 1 0 0
-7.267427 -15.169935 -9.508276 19.322260 1.124034 2.085284 -0.001967 -0.000176 -17810.600000 1 0 0
-5.141927 -13.267135 -0.637676 14.242996 1.201052 1.615583 -0.001071 0.002598 1963370.000000 1 0 0
-6.474527 -13.814735 -7.315376 16.919845 1.132527 2.017899 -0.007266 -0.000587 49750.200000 1 0 0
5.683073 -15.515835 0.130524 16.524391 -1.219696 1.562897 0.019473 -0.003339 86657.700000 1 0 0
-14.241527 -12.887335 0.820524 19.224405 0.735523 1.528102 -0.026800 0.004906 707508.000000 1 0 0
0.905373 -15.304735 11.258024 19.020981 -1.511709 0.937415 -0.001633 -0.004623 197165.000000 1 0 0
-9.332427 -10.880335 2.006824 14.474226 0.861830 1.431700 -0.001610 0.007364 646942.000000 1 0 0
-9.370327 -8.781535 -3.659376 13.353255 0.752973 1.848392 0.007400 0.000278 -1597730.000000 1 0 0
-12.231627 -7.116235 -12.247376 18.715013 0.526922 2.284204 0.002875 -0.000389 -438831.000000 1 0 0
-13.250327 -8.356235 -0.554776 15.675000 0.562647 1.606196 -0.011486 0.005927 -24325.200000 1 0 0
-11.189627 -9.736035 0.544824 14.842337 0.716045 1.534081 -0.004775 0.006700 144394.000000 1 0 0
-15.605927 -12.486135 2.934624 20.200509 0.674795 1.425006 -0.011743 0.015531 -781586.000000 1 0 0
-10.476627 -12.538435 -2.383476 16.512209 0.874745 1.715649 0.004499 0.001749 674874.000000 1 0 0
-3.495827 -8.881035 -12.026576 15.353571 1.195795 2.470766 -0.008142 0.005267 -1956300.000000 1 0 0
-0.259127 -15.580535 3.962224 16.078540 1.554166 1.321802 0.009214 -0.003474 -544879.000000 1 0 0
-15.529727 -7.853535 1.391924 17.458175 0.468205 1.490983 -0.022022 0.007904 -185.642000 1 0 0
-6.228227 -13.555535 -13.344776 20.015654 1.140103 2.300591 0.006729 0.002507 -238270.000000 1 0 0
-15.331127 -10.516235 1.179824 18.628651 0.601227 1.507420 -0.011896 0.005069 573198.000000 1 0 0
-9.947627 -8.333135 -12.486676 18.008706 0.697310 2.336950 0.006088 -0.001788 315667.000000 1 0 0
-13.437127 -11.697235 -6.266976 18.885356 0.716285 1.909053 0.014240 0.002378 -251185.000000 1 0 0
-12.192927 -11.284135 -3.895076 17.063727 0.746708 1.801093 0.000664 0.003095 -1081360.000000 1 0 0
-11.866527 -11.286135 -9.031276 18.701745 0.760335 2.074772 0.016241 -0.001903 -625037.000000 1 0 0
-13.196827 -8.389035 -5.870876 16.703273 0.566247 1.929948 0.000698 0.000524 -1430780.000000 1 0 0
-13.315227 -8.122835 -3.194876 15.921148 0.547770 1.772837 -0.003910 0.000544 112572.000000 1 0 0
-4.416027 -17.059035 -3.220176 17.913166 1.317490 1.751545 -0.012032 0.000436 476654.000000 1 0 0
-15.265827 -9.024235 -1.708776 17.815785 0.533879 1.666858 -0.014360 0.007378 -1907100.000000 1 0 0
-9.336327 -15.598435 3.636124 18.539137 1.031449 1.373384 -0.006520 0.001906 -1076650.000000 1 0 0
4.818473 -17.181635 8.136924 19.612134 -1.297377 1.142972 0.017917 -0.014752 441070.000000 1 0 0
-8.279027 -15.546835 6.003124 18.608704 1.081471 1.242324 -0.001355 0.004951 199013.000000 1 0 0
0.907273 -15.875635 8.581024 18.069115 -1.513710 1.075946 0.000845 -0.007072 1000290.000000 1 0 0
-10.806727 -7.770035 -10.085676 16.699690 0.623364 2.219236 0.003756 -0.002396 930080.000000 1 0 0
-4.787227 -16.214435 5.676424 17.833879 1.283708 1.246867 -0.007468 0.001353 -968580.000000 1 0 0
-1.569227 -13.297735 -12.034876 18.003624 1.453332 2.302946 -0.009112 0.008906 -134758.000000 1 0 0
-6.562727 -14.402435 -2.618976 16.042399 1.143239 1.734784 -0.000258 0.003721 507253.000000 1 0 0
-17.714627 -6.777235 -7.029276 20.227448 0.365398 1.925713 -0.003346 -0.001289 91186.000000 1 0 0
-17.289827 -4.288935 -10.114876 20.485209 0.243153 2.087210 -0.003518 0.005267 589854.000000 1 0 0
-15.249727 -5.129535 -8.677576 18.280225 0.324480 2.065417 -0.013792 -0.010305 -185980.000000 1 0 0
-16.052927 -5.419935 -5.598476 17.844189 0.325612 1.889928 -0.007695 0.006203 -97840.000000 1 0 0
-15.194527 -4.167435 -12.388876 20.043089 0.267689 2.237135 0.001160 0.005695 -977960.000000 1 0 0
-18.648127 -5.097335 -5.317676 20.050265 0.266825 1.839226 -0.009337 0.004444 165187.000000 1 0 0
-17.535527 -4.220335 -7.547876 19.551889 0.236182 1.967135 -0.006544 -0.000044 567880.000000 1 0 0
12.270173 -7.831735 8.598724 16.906545 -0.568088 1.037235 0.007412 -0.005942 176118.000000 1 0 0
15.974973 -3.508735 1.713124 16.445236 -0.216206 1.466436 0.008363 -0.007741 -82402.300000 1 0 0
11.976173 -2.099635 12.437124 17.393080 -0.173554 0.774084 -0.006176 -0.000045 406082.000000 1 0 0
9.664173 -10.083335 5.150624 14.886196 -0.806621 1.217492 0.005767 -0.005445 361222.000000 1 0 0
16.936373 -2.012235 7.043924 18.452823 -0.118257 1.179133 0.017986 -0.011455 -171821.000000 1 0 0
5.112173 -12.873835 9.201024 16.629155 -1.192794 0.984467 0.001826 0.004235 -122527.000000 1 0 0
15.034773 -9.087135 -2.309776 17.718789 -0.543654 1.701526 0.004382 -0.000484 283417.000000 1 0 0
11.062973 -8.484435 6.421024 15.349416 -0.654243 1.139197 0.012603 -0.008236 -2578830.000000 1 0 0
20.016473 -3.062835 3.406024 20.533903 -0.151838 1.404153 0.010250 -0.011932 635588.000000 1 0 0
13.639373 -8.514135 6.626224 17.390510 -0.558047 1.179891 0.010916 -0.009201 -1095860.000000 1 0 0
8.281973 -11.144335 8.710624 16.390920 -0.931690 1.010509 0.001254 -0.000783 -2255880.000000 1 0 0
16.675973 0.083465 -0.665476 16.689455 0.005005 1.610681 0.009259 -0.003324 -809228.000000 1 0 0
12.450573 -12.343135 2.198824 17.669312 -0.781065 1.446030 0.009912 -0.005618 -173505.000000 1 0 0
10.435273 -11.650435 3.513424 16.030337 -0.840363 1.349829 0.005112 -0.004226 -265228.000000 1 0 0
16.295973 2.907365 2.290124 16.710960 0.176552 1.433320 0.009297 -0.004758 144140.000000 1 0 0
18.212173 -3.277735 0.432124 18.509823 -0.178069 1.547449 0.003879 -0.009373 505407.000000 1 0 0
13.609373 -11.815035 -0.343876 18.025769 -0.714940 1.589874 0.015438 0.003512 -110912.000000 1 0 0
16.814173 -7.582935 -0.939976 18.468917 -0.423673 1.621713 0.005449 -0.001387 319007.000000 1 0 0
10.245073 -5.795235 9.584924 15.179494 -0.514787 0.887389 -0.000224 -0.002575 -925727.000000 1 0 0
11.243673 -13.281535 6.004424 18.408489 -0.868300 1.238540 0.001303 -0.003398 -148224.000000 1 0 0
13.087473 -1.778335 10.088424 16.619889 -0.135054 0.918505 0.010615 -0.005114 -315549.000000 1 0 0
15.487673 -2.059335 -1.465276 15.692543 -0.132191 1.664307 0.008975 -0.006403 512396.000000 1 0 0
10.446273 -12.504235 8.863424 18.548337 -0.874829 1.072585 0.008137 -0.010529 255004.000000 1 0 0
14.547273 1.157365 3.339624 14.970495 0.079392 1.345823 0.012645 -0.005613 1350520.000000 1 0 0
14.740473 -6.058835 5.039824 16.714989 -0.389982 1.264515 0.005261 -0.011136 -591206.000000 1 0 0
14.252173 -3.503035 -3.094076 14.998967 -0.241012 1.778574 0.008482 -0.004249 1245810.000000 1 0 0
13.985073 0.633865 9.389824 16.856834 0.045293 0.979987 0.019866 -0.006355 -289166.000000 1 0 0
15.417173 -3.536635 4.364324 16.408667 -0.225495 1.301579 0.009218 -0.007835 -585995.000000 1 0 0
18.519273 4.741265 -4.326376 19.600015 0.250634 1.793363 -0.016330 0.002964 604857.000000 1 0 0
18.126573 -5.954635 -5.289476 19.799214 -0.317397 1.841237 0.032578 -0.008309 607554.000000 1 0 0
17.336073 0.115665 5.808624 18.283679 0.006672 1.247499 0.024417 -0.005901 632898.000000 1 0 0
16.998473 -6.613635 3.850624 18.641769 -0.371051 1.362740 0.010699 -0.005850 -626282.000000 1 0 0
9.843273 -6.568235 14.178624 18.467948 -0.588428 0.695486 -0.006056 0.004477 -163453.000000 1 0 0
8.530273 -12.334235 5.135824 15.851675 -0.965735 1.240850 -0.001564 -0.002274 -1358260.000000 1 0 0
16.852173 -10.223635 -0.720676 19.724042 -0.545306 1.607342 0.009746 0.006737 353100.000000 1 0 0
14.785673 -8.794135 0.236324 17.204906 -0.536568 1.557060 0.011300 -0.003373 871560.000000 1 0 0
9.938873 -12.965035 1.393324 16.395569 -0.916762 1.485712 0.006268 -0.004816 513149.000000 1 0 0
17.097873 -8.181835 8.623424 20.824100 -0.446324 1.143834 0.019180 -0.000691 428726.000000 1 0 0
18.981073 -0.309135 -1.803176 19.069036 -0.016285 1.665498 0.003821 -0.002988 -223265.000000 1 0 0
13.378373 -1.234035 7.640224 15.455638 -0.091981 1.053730 0.011964 -0.008298 -350770.000000 1 0 0
12.750073 -9.997835 -3.108576 16.498010 -0.664995 1.760351 0.007339 0.001785 -1249260.000000 1 0 0
8.865673 -15.284935 1.280624 17.716360 -1.045192 1.498448 0.012069 0.000415 435779.000000 1 0 0
11.529573 -8.306935 10.964824 17.948916 -0.624345 0.913611 0.003229 -0.001656 344156.000000 1 0 0
13.801273 -3.917235 -0.486976 14.354686 -0.276558 1.604727 0.010714 -0.003598 -604542.000000 1 0 0
7.175873 -13.246935 10.740324 18.502135 -1.074347 0.951465 0.009374 0.003678 -147332.000000 1 0 0
15.338173 -6.799935 1.757624 16.869734 -0.417297 1.466419 0.008870 -0.006183 -459683.000000 1 0 0
15.648173 -6.193535 -2.752276 17.052866 -0.376880 1.732902 0.005135 -0.003414 314875.000000 1 0 0
11.099673 -8.662235 3.712524 14.560903 -0.662678 1.312985 0.013654 -0.006104 -30039.100000 1 0 0
10.550473 -14.563535 -0.592376 17.993331 -0.943852 1.603724 0.014525 -0.000324 820765.000000 1 0 0
13.389173 -12.853235 4.592624 19.119828 -0.764978 1.328222 0.006943 -0.004046 101327.000000 1 0 0
12.722073 -11.104935 6.478224 18.086960 -0.717632 1.204488 0.002576 -0.008579 -372219.000000 1 0 0
10.841773 -10.502435 1.281224 15.148819 -0.769501 1.486119 0.009492 -0.003326 263881.000000 1 0 0
13.914073 -7.526635 11.629324 19.633972 -0.495858 0.936878 -0.001806 -0.001943 -1899720.000000 1 0 0
15.304573 -1.885535 -5.050876 16.226415 -0.122583 1.887331 0.017245 -0.005948 -762954.000000 1 0 0
12.776373 -11.565435 -7.256076 18.698814 -0.735692 1.969311 0.015528 0.003645 523412.000000 1 0 0
17.646273 -5.433135 1.712124 18.542958 -0.298681 1.478332 0.008877 -0.002274 346250.000000 1 0 0
10.516573 -9.772735 8.958824 16.922328 -0.748753 1.012893 -0.000613 -0.006576 -342511.000000 1 0 0
16.327973 1.807265 9.860924 19.160030 0.110236 1.030184 0.024480 -0.005606 355500.000000 1 0 0
17.999173 3.704565 0.401124 18.380831 0.202984 1.548972 -0.008832 -0.002256 739378.000000 1 0 0
13.194473 -4.079635 5.576924 14.894282 -0.299869 1.187010 0.012403 -0.012706 -1225100.000000 1 0 0
12.090773 -6.171135 6.454524 15.030987 -0.471933 1.126952 0.012311 -0.011057 -416542.000000 1 0 0
16.613373 -10.467335 3.580124 19.959623 -0.562226 1.390452 0.007483 0.007633 -1080470.000000 1 0 0
16.306573 -8.266935 -5.784276 19.175620 -0.469208 1.877216 0.012145 -0.000936 334156.000000 1 0 0
14.036673 -0.548335 5.300924 15.014282 -0.039045 1.209958 0.011388 -0.005297 885396.000000 1 0 0
18.388173 -4.307835 4.999224 19.536494 -0.230122 1.312026 0.021199 -0.009027 179115.000000 1 0 0
13.605573 -13.484635 7.049624 20.411864 -0.780934 1.218164 0.006521 -0.005215 -311883.000000 1 0 0
15.013873 -13.770235 -1.082776 20.401181 -0.742219 1.623895 0.008600 0.010780 955398.000000 1 0 0
17.884073 -5.886935 7.657424 20.325654 -0.318001 1.184525 0.025606 -0.007824 -128359.000000 1 0 0
14.341773 3.293765 9.099024 17.301086 0.225748 1.016997 0.018721 -0.006593 221262.000000 1 0 0
18.820973 3.510565 2.771524 19.345140 0.184405 1.427034 0.021452 -0.009927 1145680.000000 1 0 0
14.766873 -10.462335 8.039924 19.803065 -0.616408 1.152730 0.006751 -0.005539 -232312.000000 1 0 0
14.677073 -4.929435 10.206324 18.544133 -0.324022 0.987977 -0.001766 -0.004460 83639.600000 1 0 0
17.794773 -7.901935 1.840824 19.557177 -0.417903 1.476532 0.012697 -0.003118 262000.000000 1 0 0
18.213073 -5.898835 -2.147776 19.264611 -0.313218 1.682517 -0.002338 -0.002874 -1067200.000000 1 0 0
14.261773 -13.034735 -5.659676 20.132919 -0.740476 1.855753 0.012957 0.002892 -993202.000000 1 0 0
15.419373 -1.567535 9.171424 18.009144 -0.101312 1.036466 0.016133 -0.010206 -1090030.000000 1 0 0
12.939573 -10.061135 10.031924 19.217141 -0.660900 1.021567 -0.005404 -0.006727 -1627470.000000 1 0 0
16.567473 2.279665 4.741124 17.382643 0.136740 1.294546 0.017590 -0.006192 -1957580.000000 1 0 0
14.919573 2.373065 -0.080776 15.107337 0.157736 1.576143 0.006377 -0.001763 -1574080.000000 1 0 0
14.907573 -9.943935 -7.161876 19.297929 -0.588260 1.951013 0.012959 -0.001505 897312.000000 1 0 0
16.133973 -0.069035 -3.266176 16.461402 -0.004279 1.770536 0.010167 -0.001155 -268138.000000 1 0 0
12.008873 2.467965 13.497824 18.234449 0.202690 0.737373 0.025323 -0.006915 -34322.600000 1 0 0
17.589973 -2.865935 9.494824 20.193376 -0.161511 1.081285 0.014305 -0.005895 381248.000000 1 0 0
8.045273 -18.220835 4.226224 20.361391 -1.154998 1.361716 0.028461 -0.011065 -116880.000000 1 0 0
6.742073 -11.234335 6.629024 14.683658 -1.030280 1.102400 0.000836 -0.001704 85492.300000 1 0 0
17.921573 2.104265 -1.633076 18.118434 0.116880 1.661052 0.003980 0.001652 431049.000000 1 0 0
17.539273 -2.366935 3.451424 18.031661 -0.134140 1.378199 0.009500 -0.006952 -1006410.000000 1 0 0
12.562873 -13.453435 -2.138276 18.530864 -0.819616 1.686444 0.010753 0.005060 883060.000000 1 0 0
15.137373 -8.422135 4.169824 17.817403 -0.507728 1.334575 0.014743 -0.000503 -259557.000000 1 0 0
11.447173 -2.923735 14.904224 19.018988 -0.250065 0.670277 -0.016911 0.003578 200680.000000 1 0 0
11.962573 -13.882235 -6.461476 19.431168 -0.859539 1.909783 0.012213 0.002687 -261617.000000 1 0 0
10.648273 -11.947335 -1.414876 16.066313 -0.842827 1.658975 0.013401 -0.005497 -848653.000000 1 0 0
13.076773 -8.045935 2.045124 15.489403 -0.551582 1.438376 0.013489 -0.004689 -756560.000000 1 0 0
8.729073 -7.870735 9.859324 15.341169 -0.733736 0.872817 -0.000506 -0.002596 -920170.000000 1 0 0
15.660673 -3.934335 7.982924 18.012850 -0.246130 1.111654 0.014066 -0.011622 -1026790.000000 1 0 0
10.468473 -17.133035 4.987524 20.688287 -1.022320 1.327318 0.016322 -0.016001 681195.000000 1 0 0
15.285373 -6.397835 8.089524 18.439504 -0.396403 1.116638 0.013583 -0.003662 -4374.880000 1 0 0
16.392573 -4.990735 -0.510576 17.143062 -0.295535 1.600584 0.000592 -0.006378 -617444.000000 1 0 0
13.946573 -10.604535 3.386724 17.844690 -0.650104 1.379849 0.014645 -0.004958 541434.000000 1 0 0
14.909573 -10.132635 -4.594076 18.602989 -0.596907 1.820332 0.014591 -0.004845 273413.000000 1 0 0
13.593973 -6.502135 -0.094576 15.069267 -0.446146 1.577072 0.009247 -0.003546 -64669.200000 1 0 0
17.721673 -1.028435 -4.954176 18.429846 -0.057968 1.842956 0.002418 -0.001888 -1006140.000000 1 0 0
14.244673 0.207865 -1.730776 14.350941 0.014591 1.691694 0.008957 -0.001400 -1477760.000000 1 0 0
4.841373 -12.885435 11.888624 18.188258 -1.211391 0.858408 -0.000897 0.002338 -793887.000000 1 0 0
12.033573 -7.551135 13.452424 19.565128 -0.560399 0.812657 -0.010023 0.002186 -736516.000000 1 0 0
12.034373 -5.838235 11.405524 17.578313 -0.451681 0.864737 -0.003039 0.001907 -872337.000000 1 0 0
13.304273 -4.580435 8.138024 16.254584 -0.331573 1.046435 0.011877 -0.009776 -1862240.000000 1 0 0
15.273273 -1.328035 3.005824 15.622789 -0.086733 1.377189 0.012109 -0.008902 265781.000000 1 0 0
15.091773 -10.455735 5.646024 19.208373 -0.605884 1.272455 0.010050 -0.003845 408673.000000 1 0 0
13.667673 -8.081835 -5.763976 16.892151 -0.534005 1.919013 0.015641 -0.003762 -892638.000000 1 0 0
9.458273 -2.267635 13.211524 16.405653 -0.235310 0.634610 -0.014739 -0.005990 -439683.000000 1 0 0
9.855073 -9.146335 13.685524 19.185189 -0.748116 0.776547 -0.001059 0.005898 186374.000000 1 0 0
20.252573 6.112065 -3.061076 21.375085 0.293100 1.714498 -0.000887 -0.004127 -1265510.000000 1 0 0
11.266973 -3.617035 10.418424 15.766140 -0.310637 0.848899 0.000274 -0.001076 779535.000000 1 0 0
10.223573 -13.931335 -3.085576 17.553471 -0.937709 1.747496 0.010311 -0.003573 276440.000000 1 0 0
14.947173 -12.911635 2.575124 19.918825 -0.712462 1.441153 0.003382 0.008714 -1212350.000000 1 0 0
11.056473 -0.503935 14.295724 18.079471 -0.045547 0.658819 -0.002289 0.002665 330024.000000 1 0 0
19.003073 -1.810335 5.496024 19.864551 -0.094979 1.290464 0.014893 -0.009686 224716.000000 1 0 0
19.015673 -0.536235 7.720624 20.530256 -0.028192 1.185255 0.033972 -0.006981 171208.000000 1 0 0
18.887473 0.818665 0.495324 18.911695 0.043317 1.544602 0.007486 -0.008347 165389.000000 1 0 0
18.411373 0.692465 3.603424 18.773461 0.037593 1.377655 0.012736 -0.008356 59210.400000 1 0 0
16.623773 -4.025135 -4.250776 17.624433 -0.237559 1.814385 0.009666 -0.007374 289941.000000 1 0 0
11.074973 -8.150735 15.809824 20.953283 -0.634455 0.715863 -0.002459 0.005255 386066.000000 1 0 0
16.540873 -7.634935 6.141324 19.225207 -0.432442 1.245657 0.009077 -0.005146 50073.900000 1 0 0
18.869873 2.184365 5.846324 19.875187 0.115246 1.272228 0.025540 -0.003920 -243332.000000 1 0 0
15.362973 1.664465 7.450624 17.155267 0.107922 1.121529 0.025341 -0.004633 -149581.000000 1 0 0
8.799973 -15.758335 3.599224 18.404322 -1.061502 1.373964 0.007716 -0.011825 187777.000000 1 0 0
11.455873 -15.145435 1.776924 19.072984 -0.923217 1.477497 0.009784 -0.000558 516266.000000 1 0 0
8.159173 -16.228935 5.926924 19.107037 -1.104947 1.255397 0.010550 -0.005216 -225817.000000 1 0 0
14.613673 -11.753935 -2.712476 18.949194 -0.677364 1.714434 0.007521 0.004548 466131.000000 1 0 0
13.589973 -4.893835 3.096324 14.772414 -0.345650 1.359629 0.005973 -0.004221 -431082.000000 1 0 0
-1.033427 10.200565 -5.538676 11.653172 -1.469830 2.066094 -0.002296 0.005054 -1182380.000000 1 0 0
8.150273 -1.737935 -8.014976 11.562319 -0.210090 2.336713 -0.002881 -0.000267 -2563230.000000 1 0 0
2.827173 -10.187435 7.659624 13.055519 -1.300093 0.943823 -0.003513 -0.001426 670046.000000 1 0 0
-6.144427 1.279265 8.396924 10.483264 -0.205267 0.641860 -0.007680 0.003004 52511.600000 1 0 0
7.199373 -6.334535 -7.136976 11.953817 -0.721583 2.210610 -0.005409 0.000060 -26570.600000 1 0 0
-11.397827 -4.523935 -4.043176 12.912154 0.377842 1.889283 -0.000925 -0.001290 -223238.000000 1 0 0
2.035673 -3.246835 2.877724 4.792411 -1.010781 0.926701 -0.004473 0.002824 1566240.000000 1 0 0
-3.581527 -4.145335 8.881124 10.434822 0.858236 0.552711 -0.005414 -0.001705 -986856.000000 1 0 0
-4.702627 -1.086035 -2.409776 5.394552 0.226963 2.033876 -0.003343 0.000551 -113796.000000 1 0 0
4.953973 -5.277335 -3.703676 8.130765 -0.816993 2.043746 0.000568 -0.001794 57479.900000 1 0 0
2.638473 14.352865 -8.784576 17.033351 1.388997 2.112653 0.006648 -0.007946 -813064.000000 1 0 0
5.520273 -5.515735 13.632324 15.707864 -0.784987 0.519905 -0.004728 0.000147 -1031030.000000 1 0 0
-4.679527 -0.907135 9.909724 10.996522 0.191477 0.448338 -0.001161 0.002438 -3604520.000000 1 0 0
-0.904927 12.029765 -2.611476 12.343174 -1.495714 1.783980 0.000253 0.002343 -639238.000000 1 0 0
3.091873 9.451065 -10.459376 14.431939 1.254625 2.381451 0.005071 -0.001845 -498804.000000 1 0 0
-10.566827 2.681465 1.306324 10.979734 -0.248517 1.451538 -0.011293 0.004243 219270.000000 1 0 0
5.615673 -9.037335 -0.726376 10.664747 -1.014800 1.638959 0.002799 -0.004516 561272.000000 1 0 0
-7.009427 5.536265 9.432624 12.990638 -0.668510 0.758150 -0.003414 0.000880 88143.300000 1 0 0
-5.518727 -1.777335 5.145324 7.751750 0.311566 0.844958 -0.005129 -0.000756 502245.000000 1 0 0
6.649873 -3.844435 -7.389776 10.658766 -0.524177 2.336862 -0.004788 -0.000548 36582.900000 1 0 0
6.174673 4.828965 11.030624 13.532189 0.663706 0.617826 -0.003201 -0.003733 344787.000000 1 0 0
3.808373 -9.926335 3.259824 11.120355 -1.204452 1.273287 -0.003652 0.000700 931437.000000 1 0 0
-6.645127 6.599565 -5.683776 10.955240 -0.781958 2.116264 -0.008961 0.002634 -113614.000000 1 0 0
-11.138927 8.567065 5.382124 15.047842 -0.655620 1.205027 -0.003005 -0.006512 329590.000000 1 0 0
-9.108127 -5.594635 5.202824 11.888116 0.550829 1.117814 0.001229 0.002763 -1049240.000000 1 0 0
3.361873 9.917765 -8.028176 13.195297 1.243977 2.224854 0.004429 -0.003860 555506.000000 1 0 0
-8.070927 -8.609135 6.012624 13.244196 0.817654 1.099567 0.006562 0.002847 -1841710.000000 1 0 0
-7.906327 -5.788035 -7.426176 12.294692 0.631931 2.219325 0.002066 -0.001009 -670504.000000 1 0 0
9.244973 -1.523435 6.855224 11.609672 -0.163318 0.939149 0.001327 -0.004467 2695230.000000 1 0 0
-4.158527 -0.377635 -4.871676 6.416322 0.090562 2.432976 0.001107 -0.004260 -1279820.000000 1 0 0
8.974073 1.223265 -4.612676 10.164012 0.135476 2.041849 -0.000862 0.001203 -3179900.000000 1 0 0
-1.938427 -10.683035 10.496524 15.101714 1.391300 0.802300 -0.005113 -0.004025 151399.000000 1 0 0
-12.823227 0.277565 -2.485476 13.064830 -0.021642 1.762205 -0.008952 0.002512 -1368040.000000 1 0 0
-9.864627 -5.039935 -6.138576 12.664672 0.472337 2.076817 0.003417 -0.003439 -1797670.000000 1 0 0
-5.675427 8.489865 -0.037976 10.212234 -0.981529 1.574515 -0.005356 0.004840 1273920.000000 1 0 0
6.243973 9.623965 0.346224 11.477272 0.995269 1.540626 0.008099 -0.000508 453830.000000 1 0 0
-0.671227 -12.131735 0.034824 12.150340 1.515524 1.567930 0.003716 -0.000261 -278614.000000 1 0 0
6.168673 4.769065 2.334024 8.139052 0.658128 1.279944 -0.003198 0.000755 364332.000000 1 0 0
3.484273 -7.530535 -8.210076 11.672809 -1.137443 2.350896 -0.003906 0.000173 1377970.000000 1 0 0
-6.525127 -9.919335 4.581524 12.726384 0.988944 1.202526 -0.000983 0.003447 -2865490.000000 1 0 0
-0.054927 6.573265 -9.232176 11.333309 -1.562440 2.522845 0.002073 -0.000627 -1793770.000000 1 0 0
-17.249527 -2.752035 4.526124 18.044547 0.158209 1.317258 0.015540 0.000234 975403.000000 1 0 0
-8.334727 1.008265 -9.192776 12.449554 -0.120387 2.401494 -0.005722 -0.002927 -449165.000000 1 0 0
-10.059627 -5.842135 -11.766276 16.546054 0.526145 2.361890 -0.001249 0.001296 -1653670.000000 1 0 0
2.109273 9.495465 6.496524 11.696910 1.352211 0.981946 -0.001541 0.002371 -789035.000000 1 0 0
-11.249227 1.697365 -1.068176 11.426598 -0.149758 1.664415 -0.007457 0.002333 -2331030.000000 1 0 0
-6.033027 -5.360235 -3.024376 8.618375 0.726415 1.929352 0.002993 -0.002326 424875.000000 1 0 0
-6.888927 -8.358135 1.267824 10.905188 0.881462 1.454274 -0.001242 0.003387 -59523.100000 1 0 0
0.083173 10.968065 -7.830676 13.476826 1.563213 2.190811 0.003979 0.000711 569299.000000 1 0 0
-2.972027 9.387165 -4.182576 10.697932 -1.264176 1.972482 -0.001785 0.003712 -275223.000000 1 0 0
3.509073 -4.861135 9.312424 11.075444 -0.945548 0.572005 -0.005045 0.001362 -769456.000000 1 0 0
-8.879927 1.569465 -0.387376 9.025873 -0.174936 1.613728 -0.009042 0.002149 -1109150.000000 1 0 0
2.396373 3.580065 -10.493876 11.343761 0.980927 2.752040 -0.000481 -0.000240 1315640.000000 1 0 0
-13.635627 0.437565 1.202224 13.695515 -0.032079 1.482901 -0.008931 0.000754 -1622490.000000 1 0 0
9.380473 -12.684035 -5.226776 16.619182 -0.934017 1.890729 0.013200 -0.000412 -2293150.000000 1 0 0
-4.691727 9.428565 -8.423476 13.485736 -1.109064 2.245443 -0.009997 0.003908 -1437220.000000 1 0 0
-2.289227 7.209565 8.478424 11.362308 -1.263339 0.728478 -0.001760 0.003547 -423846.000000 1 0 0
-10.719927 -1.396635 -4.409176 11.675113 0.129554 1.958060 -0.002301 -0.002741 -3254770.000000 1 0 0
2.688473 -7.217635 9.752224 12.426907 -1.214231 0.668477 -0.004338 0.000077 -2593800.000000 1 0 0
-16.170927 -6.688935 3.557124 17.857600 0.392209 1.370261 0.006468 0.009028 331369.000000 1 0 0
-10.604627 -0.180035 6.109524 12.239968 0.016975 1.048184 -0.003743 0.000313 -1000410.000000 1 0 0
-8.444327 10.043865 9.407724 16.145933 -0.871700 0.948788 0.005895 -0.009128 291162.000000 1 0 0
0.209573 -6.071935 -3.835676 7.185035 -1.536295 2.133934 -0.001963 -0.000382 154781.000000 1 0 0
4.856273 1.546965 -3.037576 5.933242 0.308387 2.108260 -0.007749 0.002474 108646.000000 1 0 0
0.415373 5.464465 3.679424 6.600838 1.494929 0.979524 -0.006102 0.003368 -2787660.000000 1 0 0
5.998373 -11.324335 -1.640276 12.919426 -1.083681 1.698102 0.005698 -0.004612 -2411290.000000 1 0 0
6.231073 -13.470935 5.159124 15.713336 -1.137549 1.236264 0.002751 -0.002547 -717214.000000 1 0 0
8.196073 -8.432735 -6.046976 13.223183 -0.799629 2.045754 0.003010 -0.003047 482491.000000 1 0 0
-13.027927 -1.364535 -4.577776 13.876054 0.104359 1.906999 -0.006246 0.000722 -3822570.000000 1 0 0
-6.737327 -1.509835 -6.980076 9.817975 0.220458 2.361643 0.000915 -0.003854 -272620.000000 1 0 0
-5.678727 12.865265 -4.666276 14.816785 -1.155117 1.891181 -0.006166 0.007130 -175008.000000 1 0 0
-4.310227 6.937065 -6.766876 10.606203 -1.014838 2.262709 -0.003548 0.001568 -3202040.000000 1 0 0
-9.391627 -3.615935 -8.133476 12.939516 0.367524 2.250518 0.002575 -0.001598 417687.000000 1 0 0
-2.094927 -6.318235 9.087624 11.264711 1.250635 0.632193 -0.002439 0.000903 -530027.000000 1 0 0
7.557573 -5.988535 9.966024 13.867267 -0.670083 0.768905 -0.002913 -0.000318 -383015.000000 1 0 0
9.730373 -5.058635 12.060424 16.301036 -0.479426 0.737940 -0.004934 0.005009 -1069290.000000 1 0 0
-6.495027 2.819065 -8.968276 11.426394 -0.409498 2.473289 -0.005685 -0.004167 -445957.000000 1 0 0
7.405273 5.596665 8.869124 12.838305 0.647182 0.808156 0.000467 -0.004167 794986.000000 1 0 0
12.761773 3.239265 11.119424 17.233609 0.248576 0.869489 0.027309 -0.002110 447840.000000 1 0 0
-7.395027 -7.362535 -3.929176 11.150416 0.783196 1.930909 0.005765 -0.002983 -2930050.000000 1 0 0
2.179073 1.369265 -5.816376 6.360305 0.561019 2.725019 -0.000691 -0.000365 -790840.000000 1 0 0
12.815773 6.966165 -6.980576 16.170960 0.497887 2.017144 0.005952 0.003360 -291438.000000 1 0 0
0.694573 -7.763235 0.982924 7.855978 -1.481564 1.445350 -0.001562 -0.000486 200783.000000 1 0 0
-10.243227 -5.968535 -8.576776 14.632437 0.527588 2.197093 0.005039 -0.000562 -937065.000000 1 0 0
-6.701127 0.187865 3.149624 7.406789 -0.028027 1.131575 -0.005144 -0.000264 -646801.000000 1 0 0
10.712073 -7.987635 1.139524 13.410792 -0.640722 1.485723 0.005644 -0.004071 -410221.000000 1 0 0
6.282973 1.181065 10.485924 12.281094 0.185810 0.547504 -0.004755 0.000622 68145.000000 1 0 0
-12.906127 5.339965 2.037124 14.114999 -0.392307 1.425967 -0.005705 0.002244 -99165.200000 1 0 0
2.109073 7.383065 3.648724 8.501236 1.292543 1.127190 -0.006462 0.002247 -105079.000000 1 0 0
10.084673 -9.447535 -0.983076 13.853628 -0.752790 1.641818 0.006052 -0.002191 675841.000000 1 0 0
6.677773 -11.765535 -9.107576 16.308538 -1.054563 2.163318 -0.000019 0.000147 -855884.000000 1 0 0
10.213873 3.512365 11.762624 15.969322 0.331214 0.742802 0.005686 -0.001866 -897484.000000 1 0 0
-11.082327 -3.116235 -1.939476 11.674351 0.274112 1.737702 -0.006288 0.000655 -148639.000000 1 0 0
12.355373 1.006765 6.805124 14.141377 0.081304 1.068750 0.008833 -0.003012 2935.830000 1 0 0
-9.692827 9.318065 3.160224 13.811743 -0.765688 1.339944 -0.003111 -0.002340 463803.000000 1 0 0
-6.586927 7.659565 -8.819976 13.410761 -0.860548 2.288530 -0.011707 -0.000564 -582343.000000 1 0 0
8.503973 5.499865 12.028124 15.723925 0.574080 0.699822 0.009568 -0.001298 -1582450.000000 1 0 0
1.237373 4.921265 -2.621476 5.711574 1.324468 2.047639 -0.001778 0.000438 216545.000000 1 0 0
1.259473 0.581365 9.458024 9.559209 0.432453 0.145628 -0.004969 0.002411 881823.000000 1 0 0
2.477373 12.628065 -3.925576 13.454202 1.377077 1.866877 0.004597 -0.003002 643814.000000 1 0 0
2.241173 0.654065 13.067624 13.274541 0.283954 0.176795 -0.005297 -0.000327 -19404.200000 1 0 0
-12.184827 -1.784635 0.916724 12.348899 0.145430 1.496493 -0.012097 0.002577 105078.000000 1 0 0
3.342473 8.751665 -1.313476 9.459861 1.205969 1.710094 0.002781 -0.001402 30431.200000 1 0 0
3.622073 -2.849635 -5.847176 7.445086 -0.666604 2.474096 -0.004016 0.000037 -1094920.000000 1 0 0
-7.736627 -7.182735 9.480824 14.189190 0.748290 0.839047 0.006480 -0.000364 -403825.000000 1 0 0
-6.975827 10.942465 -3.582276 13.462258 -1.003258 1.840139 -0.007951 0.008540 182133.000000 1 0 0
0.358873 0.548865 2.551224 2.634157 0.991722 0.251597 -0.007157 0.003794 -2625340.000000 1 0 0
-6.958927 4.575965 -1.892676 8.540980 -0.581677 1.794251 -0.005922 0.003770 -822945.000000 1 0 0
-7.016427 -4.007435 -5.873776 9.989546 0.518936 2.199371 -0.003199 -0.002138 -341556.000000 1 0 0
3.045973 -6.103335 13.423124 15.056856 -1.107895 0.470160 -0.003073 -0.001616 -3010050.000000 1 0 0
-5.582827 -0.420735 -11.690676 12.962133 0.075220 2.694968 0.002285 -0.005516 -855288.000000 1 0 0
11.765373 2.418165 -0.666876 12.029807 0.202709 1.626260 0.000609 0.000575 -1067980.000000 1 0 0
6.106273 -10.898035 10.832124 16.534469 -1.060072 0.856450 0.001582 -0.002033 712232.000000 1 0 0
-8.231127 6.572865 -10.489376 14.865430 -0.673849 2.354097 -0.011906 -0.003595 193194.000000 1 0 0
3.026973 8.036965 11.452424 14.314796 1.210596 0.643433 0.000979 -0.002475 1363420.000000 1 0 0
-6.239427 -10.255335 -0.444676 12.012497 1.024217 1.607823 0.001126 0.004468 -172322.000000 1 0 0
11.270873 4.315565 6.194124 13.565539 0.365675 1.096618 0.004189 -0.001221 280819.000000 1 0 0
-7.942627 10.680465 1.613424 13.407490 -0.931366 1.450166 -0.001188 0.001577 146466.000000 1 0 0
4.162073 -2.863035 -3.512576 6.152887 -0.602550 2.178377 -0.004115 -0.000504 -5048080.000000 1 0 0
6.401273 6.490065 6.305324 11.083968 0.792286 0.965667 -0.000338 0.000727 -5549820.000000 1 0 0
-0.380827 10.321565 -10.155376 14.484868 -1.533917 2.347739 -0.001874 -0.001233 -340441.000000 1 0 0
14.053873 6.327665 -2.460576 15.607855 0.423056 1.729107 0.009841 0.001198 558880.000000 1 0 0
1.424973 9.552665 -6.151376 11.450912 1.422718 2.137905 0.001597 -0.000327 -427668.000000 1 0 0
0.672373 7.406365 7.334724 10.445310 1.480261 0.792310 -0.005610 0.003218 -114293.000000 1 0 0
12.271573 6.299065 1.931924 13.928462 0.474235 1.431644 0.005596 -0.000077 -1358930.000000 1 0 0
-6.815227 6.707865 -3.086876 10.048461 -0.777459 1.883045 -0.007689 0.003707 103071.000000 1 0 0
1.130273 9.923565 11.170324 14.984351 1.457387 0.729563 0.004015 -0.001500 492480.000000 1 0 0
-3.492327 13.784665 -10.994676 17.974878 -1.322668 2.228965 -0.007953 0.004913 -93361.600000 1 0 0
-10.029727 -5.626435 -2.265276 11.721078 0.511231 1.765285 -0.001976 0.001081 28484.700000 1 0 0
-4.008727 3.974665 -12.417976 13.640894 -0.781132 2.714923 -0.001778 -0.008389 -449487.000000 1 0 0
-3.173327 8.281665 2.425624 9.194543 -1.204878 1.303825 -0.003311 0.002580 -4070960.000000 1 0 0
7.127073 8.940665 7.025324 13.419606 0.897794 1.019829 0.006087 -0.000461 1776870.000000 1 0 0
-1.445327 -2.285335 -8.159976 8.596333 1.006868 2.821605 -0.000026 -0.002437 -843371.000000 1 0 0
0.865773 -1.319935 4.769224 5.023673 -0.990270 0.319636 -0.004939 0.003504 -1862170.000000 1 0 0
2.678573 -8.930035 -6.087276 11.134416 -1.279384 2.149224 -0.004088 -0.000983 363872.000000 1 0 0
5.381273 3.991365 8.658324 10.947861 0.638177 0.658569 -0.004493 -0.000124 314552.000000 1 0 0
6.093973 -7.421635 -2.859876 10.019784 -0.883316 1.860244 0.000306 -0.004465 1057860.000000 1 0 0
1.761973 2.266265 -8.239776 8.725504 0.909939 2.806356 -0.000944 -0.001018 153616.000000 1 0 0
-5.342527 11.071065 -0.611376 12.307918 -1.121192 1.620490 -0.006898 0.006414 497546.000000 1 0 0
-5.443527 3.285065 -3.317976 7.171653 -0.542975 2.051780 -0.006342 0.003611 -1166230.000000 1 0 0
2.082873 13.753865 -6.267276 15.257323 1.420499 1.994097 0.002021 -0.002854 473498.000000 1 0 0
-5.147327 -2.623035 2.665224 6.362288 0.471292 1.138552 -0.006650 0.001893 80055.900000 1 0 0
10.407173 -3.418735 -1.935576 11.124004 -0.317392 1.745686 -0.001966 -0.001716 138077.000000 1 0 0
2.404873 -3.482435 7.003024 8.182488 -0.966426 0.543595 -0.007205 0.001958 -2396230.000000 1 0 0
-2.958527 9.960465 -11.698576 15.646738 -1.282069 2.415341 -0.005729 0.001501 -2287700.000000 1 0 0
0.638173 -2.029435 9.335624 9.574954 -1.266128 0.224055 -0.003413 0.001104 682723.000000 1 0 0
9.386573 2.704665 5.031724 10.988231 0.280543 1.095143 -0.001408 -0.001155 794657.000000 1 0 0
13.353173 1.988865 -4.953976 14.380706 0.147856 1.922489 0.009890 -0.000360 -1507080.000000 1 0 0
-6.328427 3.790265 7.751624 10.700596 -0.539630 0.760618 -0.003428 0.002193 615297.000000 1 0 0
10.578873 -0.022335 1.839124 10.737571 -0.002111 1.398668 -0.000815 0.002091 1560760.000000 1 0 0
15.283173 6.796665 -4.603376 17.348231 0.418451 1.839365 0.003463 0.006045 -201410.000000 1 0 0
7.947273 -5.098935 -9.285176 13.242839 -0.570444 2.347801 -0.000795 0.002608 -286360.000000 1 0 0
4.399373 5.650365 -2.177376 7.484789 0.909241 1.865971 -0.002880 -0.000098 355132.000000 1 0 0
-1.696327 -10.584035 1.467024 10.819034 1.411876 1.434781 0.000614 0.001155 -1245640.000000 1 0 0
-2.795727 12.390365 -13.011076 18.183105 -1.348875 2.368220 -0.007977 0.002902 -1048070.000000 1 0 0
8.329173 4.230765 -9.499276 13.323316 0.469984 2.364537 -0.001694 -0.000338 -826886.000000 1 0 0
4.145973 7.614965 -8.957676 12.466625 1.072224 2.372486 0.002760 -0.002245 -2023010.000000 1 0 0
-1.817827 -5.005635 -2.550476 5.904728 1.222450 2.017437 -0.000019 -0.001451 -91354.600000 1 0 0
-3.271427 -8.947035 7.283224 11.991540 1.220254 0.918059 -0.006009 0.005032 -2254840.000000 1 0 0
1.142973 7.330165 -1.365676 7.543393 1.416115 1.752843 -0.000904 0.001122 1187020.000000 1 0 0
0.494673 -0.477535 -2.314776 2.414732 -0.767772 2.852861 -0.005835 0.000078 -2501610.000000 1 0 0
4.216073 -6.800735 7.639424 11.062824 -1.015841 0.808548 -0.005116 0.001382 196586.000000 1 0 0
-13.879427 3.760665 6.115124 15.626126 -0.264599 1.168709 -0.005571 -0.003802 -743517.000000 1 0 0
4.219773 6.268565 12.660824 14.744418 0.978309 0.538096 0.004834 -0.001824 -1726270.000000 1 0 0
8.323473 10.095665 -7.205876 14.937446 0.881318 2.074193 0.010928 -0.002802 486226.000000 1 0 0
12.502773 5.339265 9.572424 16.627038 0.403603 0.957319 0.017682 0.000244 237847.000000 1 0 0
7.430173 4.163165 0.235324 8.520258 0.510721 1.543173 -0.001123 0.003963 -1654090.000000 1 0 0
-10.718227 -7.715135 -0.976376 13.242243 0.623901 1.644595 -0.000848 0.003760 -1871640.000000 1 0 0
10.469273 6.844665 0.259524 12.510894 0.579032 1.550051 0.001736 0.002225 -409317.000000 1 0 0
14.540673 3.526665 4.063624 15.504244 0.237943 1.305601 0.011611 -0.003996 396503.000000 1 0 0
2.180473 5.612265 8.253124 10.215969 1.200226 0.630276 -0.005680 0.002173 -846258.000000 1 0 0
4.334273 0.280465 11.809024 12.582433 0.064618 0.352442 -0.004046 0.001606 -2576170.000000 1 0 0
-1.183227 -1.685335 -0.691476 2.172216 0.958681 1.894761 -0.006605 -0.001462 -940958.000000 1 0 0
3.109673 -5.294035 -9.597476 11.393350 -1.039699 2.572472 -0.007444 0.000856 -147196.000000 1 0 0
-4.022127 -5.387435 -1.378976 6.863202 0.929491 1.773097 -0.002550 -0.002122 -1968710.000000 1 0 0
-1.038527 -8.445735 8.441824 11.986383 1.448446 0.789382 -0.003654 0.003465 -339895.000000 1 0 0
3.937073 8.626465 -5.891476 11.163598 1.142637 2.126734 0.003948 -0.000010 675632.000000 1 0 0
-14.152427 -1.747035 -2.511776 14.479376 0.122823 1.745151 -0.011216 -0.000324 -1081370.000000 1 0 0
8.810273 -10.734335 -6.942376 15.525574 -0.883527 2.034381 0.001656 0.001410 98415.200000 1 0 0
14.832873 6.078065 1.521024 16.101879 0.388900 1.476193 0.002326 -0.001525 -1258870.000000 1 0 0
-5.764827 0.419165 -8.566876 10.334423 -0.072583 2.548051 0.000484 -0.006223 101184.000000 1 0 0
-8.209327 -4.457135 -12.986876 15.997439 0.497403 2.518041 -0.003857 0.000253 685941.000000 1 0 0
0.856673 -10.645135 12.069824 16.116248 -1.490494 0.724361 -0.003753 -0.003686 -49033.900000 1 0 0
0.191173 11.779265 3.330224 12.242468 1.554568 1.295302 -0.001195 0.002109 98326.100000 1 0 0
5.121873 -13.173335 -3.739576 14.620355 -1.199977 1.829449 0.006169 -0.007336 778914.000000 1 0 0
-7.408727 1.493565 -6.825676 10.183802 -0.198929 2.305340 -0.004911 -0.001117 647889.000000 1 0 0
1.493673 2.799665 4.147624 5.222257 1.080695 0.653073 -0.008740 0.005347 -722870.000000 1 0 0
17.290673 5.481865 2.214424 18.273530 0.307017 1.449316 0.002695 -0.002547 -107104.000000 1 0 0
2.314173 -8.249335 -3.557676 9.277068 -1.297298 1.964370 -0.002632 -0.001821 556703.000000 1 0 0
-0.413527 -9.489235 -0.589076 9.516491 1.527245 1.632736 0.002163 0.001601 -754902.000000 1 0 0
0.746373 11.927765 -5.616376 13.205011 1.508303 2.010113 0.002823 0.001122 -960054.000000 1 0 0
6.124173 -5.020735 7.732724 11.068347 -0.686712 0.797310 -0.002152 -0.000317 -821486.000000 1 0 0
-5.908627 -1.936435 -9.461876 11.322047 0.316699 2.560209 0.003575 -0.003174 -268703.000000 1 0 0
2.246673 -1.102035 11.135924 11.413624 -0.456034 0.221043 -0.009589 0.001181 -490848.000000 1 0 0
18.023573 2.081865 -5.910176 19.081759 0.114998 1.885704 0.001354 0.007249 797428.000000 1 0 0
-8.875727 4.778765 7.896424 12.805024 -0.493900 0.906296 -0.003629 -0.003670 -734352.000000 1 0 0
11.537373 -7.082135 -5.005376 14.433344 -0.550536 1.924946 0.009300 -0.005243 94632.800000 1 0 0
10.872873 0.542365 8.944924 14.089897 0.049841 0.882986 0.005231 -0.001151 -28815.000000 1 0 0
-8.348227 -7.441635 -1.531076 11.287826 0.728045 1.706855 0.004624 -0.001517 -650274.000000 1 0 0
10.242373 -10.580935 -3.420376 15.118246 -0.801656 1.799014 0.009252 -0.001922 -444703.000000 1 0 0
7.652073 -13.902135 -3.871876 16.334473 -1.067627 1.810111 0.014701 -0.008200 -2068780.000000 1 0 0
1.609773 -1.136435 -11.671676 11.836844 -0.614715 2.974343 0.000848 -0.001692 2109.150000 1 0 0
-11.753327 -2.567435 -6.342676 13.600072 0.215065 2.055980 -0.000273 -0.001740 -155937.000000 1 0 0
2.608973 -12.193235 -6.437476 14.032919 -1.360006 2.047374 -0.001773 0.000849 608513.000000 1 0 0
-5.541827 1.496265 1.246824 5.874115 -0.263707 1.356912 -0.003069 -0.000866 523013.000000 1 0 0
0.105473 6.884865 -3.948176 7.937290 1.555478 2.091420 0.001769 -0.000353 1248920.000000 1 0 0
5.433573 -11.829535 3.552624 13.493805 -1.140217 1.304378 -0.000160 -0.002655 -2219930.000000 1 0 0
-4.366527 -9.288835 1.019324 10.314458 1.131367 1.471810 -0.001088 0.002299 -1987050.000000 1 0 0
7.122773 -6.424135 -4.656976 10.662591 -0.733872 2.022788 0.001847 -0.002272 262457.000000 1 0 0
-6.995227 -6.036535 2.263624 9.512989 0.711965 1.330541 -0.001666 0.001490 101294.000000 1 0 0
-5.942927 -0.725335 7.168524 9.339819 0.121450 0.695829 -0.006155 0.001519 -553559.000000 1 0 0
4.172973 -5.082135 3.074824 7.259225 -0.883318 1.133408 -0.006461 0.001301 -511545.000000 1 0 0
-2.403027 10.496365 -8.735176 13.865479 -1.345736 2.252343 -0.006082 0.000199 -1444250.000000 1 0 0
-2.325027 -4.906635 2.758424 6.090133 1.128284 1.100744 -0.006236 0.001688 -274727.000000 1 0 0
15.096873 5.016765 6.239924 17.088597 0.320825 1.197001 0.014537 -0.003376 1624140.000000 1 0 0
6.555173 0.128265 -0.103276 6.557241 0.019564 1.586547 -0.008690 0.002514 1942810.000000 1 0 0
-9.637527 9.250965 0.498824 13.368287 -0.764936 1.533474 -0.004681 0.001497 -1645030.000000 1 0 0
7.272273 10.444565 -2.565276 12.982894 0.962576 1.769694 0.005984 0.001769 -248304.000000 1 0 0
1.523173 -4.268235 -5.517576 7.140136 -1.228021 2.453967 -0.002400 -0.001370 -320875.000000 1 0 0
0.935073 -8.219635 -7.879476 11.424662 -1.457522 2.331857 -0.006084 0.001645 -297912.000000 1 0 0
-10.460227 0.341265 -10.381876 14.741647 -0.032613 2.352169 -0.006751 -0.004468 -4290760.000000 1 0 0
5.858273 -2.519535 0.474924 6.394762 -0.406167 1.496460 -0.003603 0.001548 -138292.000000 1 0 0
-3.320927 5.382965 -0.971076 6.399051 -1.018019 1.723138 -0.001357 0.000028 793427.000000 1 0 0
-0.365127 4.572165 -5.026776 6.804887 -1.491107 2.401937 0.000739 -0.000770 -805252.000000 1 0 0
4.018073 -9.744135 10.061224 14.571250 -1.179682 0.808638 -0.004459 -0.001031 -2232310.000000 1 0 0
7.273173 -13.567835 -0.882976 15.419626 -1.078719 1.628091 0.014634 -0.006947 664967.000000 1 0 0
12.960473 -0.267935 0.453324 12.971166 -0.020670 1.535841 0.002567 -0.002040 237870.000000 1 0 0
9.173073 2.447165 -0.518876 9.508055 0.260705 1.625396 -0.001607 0.002290 -795714.000000 1 0 0
-0.721227 -5.844935 4.491524 7.406566 1.448023 0.919240 -0.007139 0.002355 -27437.500000 1 0 0
11.330173 -3.793635 3.259924 12.385136 -0.323093 1.304446 0.008499 -0.007366 -2505830.000000 1 0 0
1.646173 -8.118235 11.854924 14.462187 -1.370734 0.609877 0.000963 -0.001441 302609.000000 1 0 0
9.391273 -6.016935 -5.960476 12.646217 -0.569806 2.061589 0.000656 -0.002657 -1634410.000000 1 0 0
3.261673 6.410065 -0.091876 7.192766 1.100105 1.583570 -0.002012 0.001421 -2127580.000000 1 0 0
6.361773 -1.281135 11.223624 12.964690 -0.198722 0.524235 -0.009480 0.000493 76870.200000 1 0 0
-4.835127 -7.567735 -3.815576 9.757443 1.002254 1.972560 0.002258 -0.001596 934063.000000 1 0 0
-3.424327 -8.517935 -5.773676 10.845118 1.188555 2.132201 -0.000173 -0.000468 -695688.000000 1 0 0
9.827273 5.324865 2.270424 11.405451 0.496561 1.370393 0.000412 0.001794 -65774.100000 1 0 0
8.784273 -1.384435 0.182624 8.894575 -0.156318 1.550263 0.000065 -0.000245 2332740.000000 1 0 0
-3.890827 9.757865 9.247624 13.995464 -1.191379 0.848967 0.001497 0.000297 -110765.000000 1 0 0
-14.280427 -3.506135 -6.021076 15.889523 0.240758 1.959440 -0.007849 0.001535 -259013.000000 1 0 0
10.619573 6.245665 -5.938876 13.676765 0.531644 2.019981 0.004136 -0.001676 -650610.000000 1 0 0
-1.819027 4.589465 2.692724 5.623416 -1.193442 1.071462 -0.003868 0.002164 442027.000000 1 0 0
6.875873 -3.764935 2.587024 8.255002 -0.500966 1.252037 -0.002736 -0.002024 -2043860.000000 1 0 0
8.296373 -11.226735 -1.709376 14.063832 -0.934383 1.692642 0.010664 -0.005747 -1897810.000000 1 0 0
4.525473 0.444265 1.796724 4.889325 0.097856 1.194499 -0.007110 0.005076 448525.000000 1 0 0
-10.774127 2.387865 3.859324 11.690940 -0.218104 1.234374 -0.008177 -0.000974 -227877.000000 1 0 0
-0.805927 -3.128735 4.358824 5.425666 1.318688 0.637861 -0.004830 0.001295 526879.000000 1 0 0
8.388873 -8.770235 -8.655576 14.906684 -0.807620 2.190324 0.003518 0.000914 -504268.000000 1 0 0
11.846273 -4.857435 0.907724 12.835608 -0.389131 1.500018 0.006839 -0.005137 474488.000000 1 0 0
3.051973 4.803965 3.453324 6.657181 1.004822 1.025424 -0.010619 0.002491 369162.000000 1 0 0
6.073973 7.530465 2.001024 9.879532 0.892052 1.366843 0.000415 0.001120 -30811.800000 1 0 0
-1.781327 -1.303535 -10.419176 10.650425 0.631737 2.932826 0.004564 -0.003761 1949350.000000 1 0 0
-1.087327 -8.793635 5.866324 10.626573 1.447771 0.985984 -0.009844 0.000699 -253024.000000 1 0 0
-4.264727 -0.300535 2.233924 4.823757 0.070354 1.089297 -0.005256 0.001031 790797.000000 1 0 0
-8.316227 6.046465 -8.084976 13.079992 -0.628663 2.237142 -0.015859 0.000654 -2048950.000000 1 0 0
6.483073 11.232865 -9.365576 15.997547 1.047346 2.196217 0.008964 -0.006677 410359.000000 1 0 0
-11.080627 -5.811435 3.205924 12.916308 0.483030 1.319967 -0.003372 0.007968 1616970.000000 1 0 0
1.584473 -6.419635 3.022324 7.270262 -1.328816 1.142073 -0.008941 0.002565 371599.000000 1 0 0
10.093673 2.169465 7.235624 12.607262 0.211712 0.959505 0.001884 0.000224 -1601520.000000 1 0 0
-4.160527 -2.473235 -10.751976 11.791178 0.536330 2.718604 0.004314 -0.007236 -3798710.000000 1 0 0
-8.169727 11.897665 5.971424 15.619115 -0.969075 1.178496 -0.001012 -0.007521 -597282.000000 1 0 0
6.872273 5.992265 -2.941376 9.580557 0.717099 1.882851 -0.000390 0.001591 -2801210.000000 1 0 0
3.835273 -9.864335 -2.344976 10.840357 -1.199981 1.788839 -0.000383 -0.003287 -703103.000000 1 0 0
8.250973 -13.145435 -7.421176 17.203339 -1.010281 2.016818 0.006947 0.001836 -24825.400000 1 0 0
-1.397427 9.627565 3.620724 10.380387 -1.426654 1.214501 -0.008053 0.003076 -414535.000000 1 0 0
0.547273 -13.194835 4.661924 14.004882 -1.529344 1.231442 -0.000387 0.001506 -1377410.000000 1 0 0
-11.178327 -6.969635 -5.137976 14.139647 0.557517 1.942683 0.001273 -0.001756 -250868.000000 1 0 0
3.696173 10.390265 -3.424776 11.547657 1.229022 1.871903 0.008623 -0.002175 -642295.000000 1 0 0
11.491273 -8.178335 -7.480976 15.965573 -0.618535 2.058467 0.019789 -0.003071 533067.000000 1 0 0
11.600673 -4.725435 -5.923076 13.855980 -0.386819 2.012493 0.009038 -0.007141 -365811.000000 1 0 0
1.175673 -10.371035 -2.604976 10.757624 -1.457917 1.815379 -0.000929 -0.000551 -172021.000000 1 0 0
2.279873 -12.045835 -3.906176 12.866942 -1.383742 1.879247 0.003482 -0.000968 -1238930.000000 1 0 0
-7.533527 -5.836335 7.387424 12.057814 0.659132 0.911366 0.003777 0.002007 -1898410.000000 1 0 0
-7.196927 -0.930835 9.461624 11.924116 0.128624 0.654280 -0.004682 0.002592 466876.000000 1 0 0
16.192673 2.535565 -7.599776 18.066221 0.155326 2.004971 0.003017 0.003538 223340.000000 1 0 0
-2.069727 6.294065 -5.478476 8.597251 -1.253097 2.261703 -0.001555 0.002563 754273.000000 1 0 0
7.649473 1.255365 8.295524 11.353682 0.162661 0.751528 -0.003330 0.000621 -201948.000000 1 0 0
7.935073 8.319765 -3.790676 12.105912 0.809060 1.889279 0.002803 0.002441 -1029780.000000 1 0 0
8.007473 0.592965 3.942424 8.945051 0.073916 1.114376 -0.003624 0.001289 837006.000000 1 0 0
-6.892427 5.870565 5.515124 10.601211 -0.705504 1.023670 0.000397 -0.002730 109330.000000 1 0 0
-5.977627 -2.155135 -4.433576 7.748111 0.346028 2.179999 -0.001016 -0.001333 221220.000000 1 0 0
-15.049327 -1.967635 3.321524 15.536613 0.130008 1.355347 -0.000724 0.000888 -1615530.000000 1 0 0
1.008673 1.272865 -10.493876 10.618806 0.900680 2.988047 0.000377 -0.003674 561079.000000 1 0 0
1.476673 -9.322535 9.522924 13.408069 -1.413703 0.780960 -0.003975 -0.002912 -398284.000000 1 0 0
-0.345127 -6.805835 -1.196876 6.918889 1.520129 1.744658 -0.001498 0.001034 380290.000000 1 0 0
-0.491527 -10.286335 -8.419076 13.301546 1.523048 2.256141 -0.006852 0.004317 -722171.000000 1 0 0
-4.337227 6.557265 3.888324 8.770879 -0.986422 1.111495 -0.000970 0.003243 75193.400000 1 0 0
10.637073 -1.280335 -8.714476 13.810455 -0.119789 2.253645 0.012079 -0.002073 338424.000000 1 0 0
3.126273 -1.115935 6.172724 7.008667 -0.342856 0.493401 -0.008678 0.004682 876614.000000 1 0 0
1.911073 -12.386335 6.723724 14.222587 -1.417715 1.078388 -0.001200 -0.000307 -503773.000000 1 0 0
2.863773 -4.968635 -1.370976 5.896449 -1.047933 1.805453 0.000474 -0.000867 -716088.000000 1 0 0
-0.947527 9.599365 -1.570776 9.773072 -1.472408 1.732221 -0.000766 0.001620 342189.000000 1 0 0
4.447573 -2.551735 2.642624 5.768511 -0.520884 1.094926 -0.005556 0.003405 -1712490.000000 1 0 0
17.792673 6.691765 -2.699876 19.200215 0.359732 1.711881 -0.000303 0.007193 589197.000000 1 0 0
-7.061327 3.479265 -5.386076 9.538209 -0.457808 2.170847 -0.008312 0.001099 288067.000000 1 0 0
-13.777127 -6.067535 2.458624 15.253493 0.414847 1.408906 -0.006151 0.005193 828891.000000 1 0 0
6.620473 -6.236435 3.339224 9.688870 -0.755537 1.218935 -0.001258 -0.003520 -749163.000000 1 0 0
-4.674327 1.912365 3.678424 6.247981 -0.388344 0.941300 -0.003250 -0.000460 255030.000000 1 0 0
6.879373 -12.119135 -5.615776 15.024519 -1.054507 1.953871 0.003745 -0.001755 -89879.700000 1 0 0
2.883373 -12.409835 3.308224 13.162910 -1.342501 1.316743 0.004730 -0.001616 -195476.000000 1 0 0
3.304573 11.388265 -6.054076 13.314076 1.288379 2.042846 0.004481 -0.001466 -803765.000000 1 0 0
-5.542927 -8.258035 6.354024 11.802237 0.979651 1.002289 -0.000274 0.004852 141667.000000 1 0 0
-3.898327 6.582965 6.434324 9.996644 -1.036144 0.871540 0.001210 0.001988 502808.000000 1 0 0
4.245073 4.322665 -7.033276 9.282944 0.794454 2.430510 -0.003314 0.001701 -2708220.000000 1 0 0
-0.332927 -2.792635 1.603624 3.237478 1.452140 1.052580 -0.004639 0.001768 -1258270.000000 1 0 0
-13.034027 -0.945135 6.638424 14.657688 0.072386 1.100784 0.002441 0.000772 -111422.000000 1 0 0
-0.498527 -9.288035 -6.032776 11.086502 1.517174 2.146178 -0.004543 0.001433 211606.000000 1 0 0
1.962373 -1.705135 -3.947376 4.726539 -0.715373 2.559204 -0.001562 0.000512 -40659.700000 1 0 0
11.306073 -2.030235 1.135624 11.542911 -0.177677 1.472254 0.001211 -0.001210 671389.000000 1 0 0
0.411673 -4.262835 -1.965976 4.712356 -1.474522 2.001154 -0.002605 -0.000746 -1804550.000000 1 0 0
1.006173 -7.358935 -11.246376 13.477659 -1.434911 2.557923 -0.006337 0.005934 -493522.000000 1 0 0
-4.526627 4.118465 -9.902176 11.640670 -0.738220 2.588023 -0.004853 -0.003489 -289469.000000 1 0 0
-0.985927 5.929665 -2.029976 6.344586 -1.406033 1.896477 -0.000443 0.000571 -2540830.000000 1 0 0
-11.252027 1.683765 -3.824676 12.002971 -0.148539 1.895095 -0.008527 0.002102 -110536.000000 1 0 0
-1.812627 -11.367835 4.182524 12.247726 1.412675 1.222290 0.001050 -0.000849 110003.000000 1 0 0
-3.715727 -5.366835 -9.672476 11.669034 0.965223 2.547937 -0.002101 0.000155 -1678260.000000 1 0 0
-12.779727 -3.665735 -8.260176 15.652142 0.279340 2.126728 -0.002345 0.002389 -16750.400000 1 0 0
11.322973 4.428965 0.551924 12.170870 0.372853 1.525433 0.002914 0.002523 264762.000000 1 0 0
-8.903427 -2.440735 -2.941376 9.689164 0.267561 1.879238 -0.002380 -0.001565 -705669.000000 1 0 0
-2.546227 -6.120735 -6.482476 9.271956 1.176573 2.345002 -0.003461 -0.002290 -749464.000000 1 0 0
-0.094527 2.791865 -1.821976 3.335122 -1.536951 2.148736 -0.002114 -0.000667 -828583.000000 1 0 0
8.057973 6.115165 -5.220176 11.383163 0.649170 2.047201 0.002203 0.000258 -1426200.000000 1 0 0
-9.732127 -1.039635 -0.877876 9.826790 0.106422 1.660251 -0.006787 0.000141 433120.000000 1 0 0
5.908273 0.471265 -8.868576 10.666838 0.079595 2.552447 -0.002080 0.001323 290909.000000 1 0 0
-4.036327 2.505065 7.936424 9.249546 -0.555450 0.539367 -0.005244 0.004208 -763767.000000 1 0 0
-10.149927 -3.419035 1.529024 10.818906 0.324915 1.428993 -0.005769 0.003232 1027330.000000 1 0 0
-1.844027 -8.137335 -7.904976 11.493707 1.347947 2.329203 -0.006054 -0.000226 -355317.000000 1 0 0
-9.382727 -9.949635 4.252024 14.321680 0.814714 1.269358 -0.000913 0.004582 -239142.000000 1 0 0
-1.171427 -10.753535 7.444524 13.131325 1.462290 0.968024 -0.004065 0.000903 274711.000000 1 0 0
9.385373 3.763865 -3.733576 10.779216 0.381398 1.924493 -0.000680 0.001007 -950158.000000 1 0 0
12.797273 -0.901935 3.053224 13.187337 -0.070362 1.337149 0.006123 -0.004687 -1269710.000000 1 0 0
6.492673 11.914765 -6.924276 15.233582 1.071857 2.042652 0.011133 -0.003808 330714.000000 1 0 0
-11.753527 0.004065 -6.437776 13.401133 -0.000346 2.071896 -0.003302 0.001058 1104430.000000 1 0 0
-7.692827 -6.515235 -11.375376 15.199574 0.702705 2.416444 0.002838 -0.004134 -2225300.000000 1 0 0
4.127873 6.100365 6.540824 9.850693 0.975907 0.844646 -0.003690 0.000837 -3717880.000000 1 0 0
-4.293527 -1.379535 -7.400576 8.666373 0.310887 2.594310 0.001902 -0.006278 -802586.000000 1 0 0
9.644673 9.281865 0.853724 13.412739 0.766231 1.507103 0.008568 0.000601 -600431.000000 1 0 0
-8.829227 3.977365 4.927824 10.865456 -0.423251 1.100073 -0.003597 -0.001762 588597.000000 1 0 0
-6.899527 7.808865 -12.250876 16.083091 -0.847144 2.436766 -0.012446 -0.003514 -1733890.000000 1 0 0
11.129773 -3.603835 7.108624 13.689120 -0.313147 1.024776 0.007357 -0.006857 649439.000000 1 0 0
11.970273 6.916665 6.382224 15.226965 0.523951 1.138299 0.009766 -0.000057 338698.000000 1 0 0
-10.109427 -0.516235 -14.669376 17.822952 0.051020 2.537576 -0.003562 -0.003928 336089.000000 1 0 0
1.675573 -12.948835 12.178424 17.854800 -1.442112 0.820191 -0.004229 -0.001949 77400.500000 1 0 0
2.972573 3.191065 13.097724 13.804690 0.820832 0.321419 -0.005142 -0.001857 -1241390.000000 1 0 0
-2.466927 -1.432135 10.949124 11.314595 0.525983 0.254858 0.000973 0.002140 -753159.000000 1 0 0
2.418673 -10.200135 -8.293876 13.367166 -1.337975 2.240134 -0.008095 0.004590 -1484100.000000 1 0 0
13.892773 3.618465 -7.510176 16.202011 0.254796 2.052775 0.009518 0.000644 -2024550.000000 1 0 0
7.387973 -1.555235 4.947224 9.026402 -0.207480 0.990725 -0.001628 0.000741 136153.000000 1 0 0
-1.157127 8.737565 10.206924 13.485743 -1.439131 0.712289 0.000183 -0.001400 243364.000000 1 0 0
-12.220327 -4.758935 1.019424 13.153824 0.371359 1.493218 -0.007918 0.004065 234586.000000 1 0 0
-4.881427 4.907065 -5.212576 8.664789 -0.788017 2.216276 -0.004950 0.001877 -479781.000000 1 0 0
-11.168027 0.356165 1.954824 11.343413 -0.031881 1.397601 -0.010012 0.001663 -2607470.000000 1 0 0
-1.355927 2.238065 -4.015076 4.792526 -1.026088 2.563998 -0.001656 -0.002148 806782.000000 1 0 0
3.171073 -9.789835 13.123124 16.676719 -1.257546 0.665006 0.001254 -0.001066 -2119440.000000 1 0 0
8.828373 4.688265 -1.544776 10.114659 0.488174 1.724123 -0.003123 0.000997 -1377600.000000 1 0 0
4.113373 2.259265 3.783924 6.028449 0.502266 0.892230 -0.010520 0.006838 258335.000000 1 0 0
-5.540327 -3.224435 7.505924 9.870719 0.527074 0.706832 -0.005534 -0.001081 380646.000000 1 0 0
1.706873 -5.881935 7.796224 9.914216 -1.288365 0.665889 -0.007126 -0.000115 -162486.000000 1 0 0
-5.983527 -6.289235 -9.696076 13.014260 0.810303 2.411383 -0.001659 -0.001304 -668838.000000 1 0 0
-11.614827 -5.870835 5.624624 14.177705 0.468006 1.162852 0.004490 0.005834 -2107710.000000 1 0 0
10.457273 6.194065 4.590724 12.992142 0.534754 1.209651 0.004942 0.000533 -1449230.000000 1 0 0
1.385173 -3.737535 0.401324 4.006112 -1.215879 1.470450 0.001387 0.001020 -924573.000000 1 0 0
8.793273 4.394665 7.018524 12.078676 0.463468 0.950757 -0.000675 0.002886 205989.000000 1 0 0
-7.865627 12.264965 3.571024 15.001655 -1.000555 1.330447 -0.002083 -0.002102 169907.000000 1 0 0
-6.113327 13.282465 -7.048376 16.231951 -1.139447 2.019978 -0.005640 0.001546 306917.000000 1 0 0
4.443273 -6.941535 -1.011776 8.303691 -1.001413 1.692946 0.000560 -0.004514 -1155110.000000 1 0 0
-1.909127 -8.232435 10.947724 13.830055 1.342921 0.657391 -0.003716 -0.004655 -823385.000000 1 0 0
11.444673 8.908365 -5.699376 15.582759 0.661422 1.945234 0.010897 0.003420 416462.000000 1 0 0
-3.325627 -2.972035 -1.952076 4.868613 0.729311 1.983351 -0.000200 -0.001423 -2297900.000000 1 0 0
-1.924327 6.032065 4.800424 7.945622 -1.261986 0.922085 -0.005969 0.002663 1820300.000000 1 0 0
0.294073 -11.384435 -5.592576 12.687346 -1.544971 2.027286 -0.004172 0.001284 -995539.000000 1 0 0
-8.746027 6.249065 -1.468476 10.848973 -0.620394 1.706569 -0.006599 0.006519 -406424.000000 1 0 0
2.880873 0.021165 3.811424 4.777743 0.007346 0.647249 -0.009100 0.005539 -54610.800000 1 0 0
-10.042527 3.966165 -0.919976 10.836474 -0.376134 1.655795 -0.007714 0.005895 179957.000000 1 0 0
6.517673 5.490765 13.619124 16.065774 0.700090 0.559142 0.008912 -0.000263 -1740060.000000 1 0 0
-8.590827 -1.752735 5.761924 10.491623 0.201262 0.989398 -0.006615 0.001400 -233485.000000 1 0 0
12.847073 -1.787135 -1.670176 13.077868 -0.138221 1.698856 0.005759 -0.001039 -1147890.000000 1 0 0
5.101273 -5.614035 5.415324 9.320199 -0.833215 0.950802 -0.005821 -0.000955 -147444.000000 1 0 0
-8.989427 -1.250835 3.276724 9.649420 0.138257 1.224329 -0.007399 0.001644 330719.000000 1 0 0
1.939473 5.613465 5.611224 8.170580 1.238133 0.813775 -0.005306 0.002621 -487583.000000 1 0 0
9.240973 3.052965 -7.329276 12.183368 0.319084 2.216274 0.000279 -0.000369 -1034640.000000 1 0 0
2.158873 -2.415035 -1.503376 3.571172 -0.841345 2.005317 -0.001584 0.001049 -43109.000000 1 0 0
-6.263227 0.315165 -3.843676 7.355351 -0.050277 2.120657 -0.007304 0.000858 -2961180.000000 1 0 0
-3.975127 4.239365 4.988124 7.658670 -0.817554 0.861494 -0.003319 0.001353 795288.000000 1 0 0
-6.461827 1.921065 -12.172776 13.914819 -0.288973 2.635833 -0.006345 -0.005020 -1334420.000000 1 0 0
-0.101127 3.096765 6.290124 7.011835 -1.538152 0.457697 -0.006438 0.004025 1467190.000000 1 0 0
-8.623927 9.555065 -1.978876 13.022570 -0.836574 1.723345 -0.007193 0.009372 537323.000000 1 0 0
-1.525827 -3.792435 -6.110876 7.352110 1.188279 2.552011 0.000713 -0.001380 331655.000000 1 0 0
-3.328727 7.082065 -2.886976 8.340905 -1.131417 1.924231 -0.002763 0.005041 955173.000000 1 0 0
6.931073 -0.401935 -4.409876 8.224861 -0.057925 2.136683 -0.003509 0.002105 -307620.000000 1 0 0
-5.137627 -10.725735 6.834724 13.716780 1.124089 1.049189 -0.001809 0.000610 127037.000000 1 0 0
9.864773 8.372565 -1.504976 13.026072 0.703758 1.686591 0.002623 0.002634 -143465.000000 1 0 0
13.719173 4.590465 -4.473276 15.142598 0.322892 1.870681 0.006804 -0.002241 726165.000000 1 0 0
4.617873 1.112965 -6.782176 8.280178 0.236502 2.530612 -0.006146 0.001377 -1486130.000000 1 0 0
8.869873 -4.827835 3.651524 10.738541 -0.498453 1.223838 0.001256 -0.005587 396332.000000 1 0 0
-8.784727 -3.357935 -0.640876 9.426446 0.365109 1.638836 -0.004614 0.000096 335386.000000 1 0 0
-8.518527 -4.124835 -10.436176 14.088766 0.450944 2.404974 0.001130 -0.003019 84531.100000 1 0 0
10.525273 -1.147135 10.559424 14.953218 -0.108560 0.786731 0.000443 -0.000160 429890.000000 1 0 0
2.221673 -11.615735 9.924624 15.438889 -1.381815 0.872606 -0.002425 -0.003333 417262.000000 1 0 0
-6.349827 -10.618435 1.993424 12.531768 1.031849 1.411048 0.000651 0.003147 -422996.000000 1 0 0
-3.563827 -1.563635 6.585924 7.649850 0.413461 0.533717 -0.004316 -0.000464 -2804530.000000 1 0 0
4.649673 -7.607835 3.731224 9.665436 -1.022205 1.174464 -0.003706 -0.000536 132390.000000 1 0 0
11.545973 -9.464235 -5.385476 15.870873 -0.686638 1.917002 0.014093 -0.003320 321784.000000 1 0 0
11.325273 1.149565 11.438224 16.137418 0.101158 0.782999 0.007051 -0.001640 74975.400000 1 0 0
-10.113627 -3.507435 4.494324 11.609759 0.333824 1.173295 0.002796 0.004735 2386960.000000 1 0 0
2.107773 8.688265 9.053024 12.723439 1.332794 0.779132 -0.000176 -0.001672 154592.000000 1 0 0
6.608373 8.837565 4.113124 11.776711 0.928731 1.214016 0.005821 0.001506 91906.600000 1 0 0
-4.225627 3.582465 0.477524 5.560396 -0.703212 1.484811 -0.000698 -0.000639 -828543.000000 1 0 0
4.914873 6.985665 4.234324 9.533362 0.957681 1.110561 -0.001131 0.001475 -1266470.000000 1 0 0
-8.273727 13.219965 1.170924 15.639472 -1.011585 1.495856 -0.004734 0.003295 297796.000000 1 0 0
8.778873 8.146365 -9.163376 15.079766 0.748045 2.223908 0.004380 -0.005340 -622387.000000 1 0 0
6.968273 1.889465 5.994524 9.384094 0.264786 0.877864 -0.005901 0.002586 -243532.000000 1 0 0
11.421873 -6.276335 3.037724 13.382053 -0.502460 1.341800 0.009331 -0.004393 47312.700000 1 0 0
11.318973 4.722565 -2.061876 12.436764 0.395267 1.737354 0.005693 -0.000774 -503973.000000 1 0 0
-3.924327 14.308565 -5.983576 15.998079 -1.303114 1.954134 -0.006102 0.004593 -2018270.000000 1 0 0
7.176573 -2.975635 6.820924 10.338405 -0.393056 0.850290 -0.003594 -0.002184 -477872.000000 1 0 0
-7.940727 -0.422335 0.975824 8.011601 0.053136 1.448692 -0.005590 0.002180 261677.000000 1 0 0
-3.196527 1.028765 10.705424 11.219726 -0.311370 0.303953 -0.001128 0.004465 -220791.000000 1 0 0
6.975173 -1.253035 -1.990576 7.361082 -0.177746 1.844624 -0.000643 0.000942 -953569.000000 1 0 0
-7.785427 5.485365 3.081524 10.009889 -0.613785 1.257866 -0.002897 0.001850 858338.000000 1 0 0
9.377173 -2.312435 2.690224 10.025769 -0.241779 1.299136 -0.002590 -0.002036 -1775400.000000 1 0 0
0.222573 3.422065 1.657724 3.808952 1.505847 1.120516 -0.006373 0.003661 -3554540.000000 1 0 0
-7.482427 -3.119435 3.945524 9.015805 0.394991 1.117843 -0.004801 0.002498 -987401.000000 1 0 0
-2.327227 8.415865 -6.607576 10.950015 -1.301010 2.218593 -0.005092 0.001475 -141111.000000 1 0 0
4.497373 9.770565 7.433224 13.074522 1.139412 0.966082 0.005104 -0.001036 1033710.000000 1 0 0
-11.702727 -3.224335 7.022524 14.023765 0.268850 1.046321 0.004129 0.001836 -2247840.000000 1 0 0
-4.716727 2.337965 -5.545676 7.646445 -0.460182 2.382211 -0.002844 -0.001562 -377670.000000 1 0 0
-2.776227 2.978265 -1.911776 4.498042 -0.820493 2.009785 -0.002621 0.001253 566516.000000 1 0 0
2.312173 5.247065 11.450424 12.805860 1.155736 0.464256 -0.003066 -0.004705 355639.000000 1 0 0
-0.678727 1.687665 4.569924 4.918647 -1.188421 0.378819 -0.005019 0.002976 -971189.000000 1 0 0
5.048873 1.609265 7.584924 9.252671 0.308557 0.609813 -0.008824 0.004080 -569066.000000 1 0 0
3.237773 -8.387935 1.730524 9.156164 -1.202414 1.380652 -0.001280 -0.000975 2193240.000000 1 0 0
5.077473 6.521665 -4.586676 9.452536 0.909269 2.077425 -0.000999 0.000305 -2253800.000000 1 0 0
-4.095127 2.852365 -7.971676 9.404981 -0.608391 2.582245 -0.001218 -0.004034 -346847.000000 1 0 0
-8.801527 -2.044035 -12.866376 15.722232 0.228191 2.529340 -0.007850 -0.003193 827908.000000 1 0 0
-7.837527 8.145265 1.600324 11.416357 -0.804650 1.430155 -0.001289 0.003676 -1735070.000000 1 0 0
7.230873 0.956465 -6.632576 9.858571 0.131512 2.308746 -0.004494 0.001803 -628832.000000 1 0 0
9.035773 8.936765 5.390824 13.804780 0.779889 1.169617 0.006450 0.001165 549420.000000 1 0 0
9.272873 -1.124735 -1.470276 9.455840 -0.120703 1.726918 -0.000679 -0.000482 1113160.000000 1 0 0
5.431173 0.080365 4.282224 6.916758 0.014796 0.903189 -0.007015 0.004618 -1898280.000000 1 0 0
-4.239127 -7.261735 -7.926976 11.555949 1.042402 2.326725 0.003791 -0.004214 -1982610.000000 1 0 0
-2.170927 7.499065 -0.519976 7.824274 -1.289007 1.637302 -0.002583 0.002312 283638.000000 1 0 0
13.232173 -3.370135 -7.512076 15.584592 -0.249390 2.073754 0.009884 -0.002371 1554050.000000 1 0 0
-4.695827 -5.086635 1.641124 7.114628 0.825327 1.338031 -0.001033 0.000644 1428430.000000 1 0 0
-8.882427 1.273865 2.616924 9.347113 -0.142443 1.287032 -0.006654 0.001309 -1771630.000000 1 0 0
-0.955527 11.225665 10.232324 15.219364 -1.485881 0.833454 -0.000437 -0.004480 624055.000000 1 0 0
-8.395927 0.313765 7.384724 11.185892 -0.037354 0.849735 -0.007483 -0.000074 813131.000000 1 0 0
-5.993027 12.999465 -2.135676 14.472856 -1.138815 1.718901 -0.009555 0.007298 -560476.000000 1 0 0
-12.907027 -0.822335 3.336024 13.356520 0.063626 1.318356 -0.005753 0.001914 517185.000000 1 0 0
-6.592627 12.684365 8.734224 16.752388 -1.091478 1.022338 0.004291 -0.015675 623788.000000 1 0 0
-8.061027 1.058265 -13.995476 16.185593 -0.130535 2.615324 -0.011305 -0.005109 117886.000000 1 0 0
7.238073 2.870165 3.647524 8.598371 0.377518 1.132706 -0.004292 0.003237 -393988.000000 1 0 0
-1.742027 0.736265 -1.974176 2.733883 -0.399877 2.377650 -0.001576 -0.001212 16341.600000 1 0 0
-6.268827 9.646365 -10.374576 15.491364 -0.994517 2.304602 -0.013411 0.003523 -379409.000000 1 0 0
-10.061027 13.745465 5.418624 17.875221 -0.938946 1.262815 -0.004693 -0.009219 584071.000000 1 0 0
-5.650627 8.435465 2.555324 10.469782 -0.980582 1.324239 -0.003571 0.001646 -1279140.000000 1 0 0
-2.511227 -10.794835 -1.252876 11.153673 1.342229 1.683362 0.000306 0.002169 211667.000000 1 0 0
-2.209827 -12.582735 8.841024 15.536160 1.396946 0.965433 -0.006683 0.000310 223418.000000 1 0 0
-14.707327 -6.431235 -1.680476 16.139710 0.412227 1.675106 0.002964 0.003235 257329.000000 1 0 0
-2.762327 -9.425035 3.322924 10.368393 1.285697 1.244554 -0.003345 0.001148 -1240590.000000 1 0 0
4.699973 -2.835535 7.479524 9.277569 -0.542849 0.633105 -0.005179 0.002687 -1414120.000000 1 0 0
-14.983327 -1.289035 -0.158076 15.039504 0.085820 1.581307 -0.006207 -0.002500 128924.000000 1 0 0
5.516073 8.811665 -2.746376 10.752445 1.011481 1.829077 0.001404 0.002170 -2206140.000000 1 0 0
-5.599227 -5.644735 8.622224 11.728475 0.789446 0.744904 -0.000774 0.001571 -3019210.000000 1 0 0
3.371773 3.646165 6.989424 8.574113 0.824477 0.617761 -0.006217 0.002512 434718.000000 1 0 0
3.373373 2.412065 9.336724 10.216267 0.620742 0.417988 -0.005838 -0.000173 -288394.000000 1 0 0
9.844673 -3.175435 5.122524 11.543016 -0.312018 1.110987 0.007825 -0.005565 -870471.000000 1 0 0
6.575073 9.948265 -5.117576 12.976484 0.986778 1.976182 0.006278 -0.001168 453377.000000 1 0 0
-4.412327 12.111865 -8.554776 15.470943 -1.221441 2.156706 -0.010791 0.004047 -346169.000000 1 0 0
-3.281127 -7.276735 2.110324 8.256521 1.147189 1.312333 -0.001542 0.000109 743317.000000 1 0 0
-7.362327 -3.976035 1.159424 8.447306 0.495173 1.433108 0.001442 0.000932 4386770.000000 1 0 0
-2.091227 -3.988835 -10.961776 11.850931 1.087922 2.751757 0.002883 -0.002469 -932124.000000 1 0 0
-5.253027 8.400265 -4.337676 10.815460 -1.011952 1.983473 -0.005460 0.003710 -1758770.000000 1 0 0
-10.958127 -3.124635 -10.129476 15.246317 0.277772 2.297472 0.001468 0.002279 -1078180.000000 1 0 0
4.549773 -11.538235 -7.787376 14.644949 -1.195195 2.131456 -0.003124 0.000027 -2739070.000000 1 0 0
-9.276627 -4.077035 7.297024 12.486976 0.414084 0.946692 -0.000186 0.001294 -313706.000000 1 0 0
-5.766927 -9.635435 -5.166676 12.360971 1.031471 2.002020 0.001036 -0.001650 -361483.000000 1 0 0
4.802973 4.412865 -9.574476 11.585013 0.743093 2.543576 -0.001872 0.003382 175250.000000 1 0 0
-3.446027 -7.216635 -13.972176 16.098964 1.125301 2.621741 -0.007833 0.002021 -317165.000000 1 0 0
0.580173 -0.861035 -8.828376 8.889219 -0.977866 3.024526 -0.000551 -0.003994 297163.000000 1 0 0
-7.731327 2.210865 -2.834476 8.526171 -0.278529 1.909690 -0.006108 0.002113 64569.200000 1 0 0
-2.312527 7.555265 -12.551576 14.831449 -1.273770 2.579762 -0.006943 -0.004098 36282.300000 1 0 0
-9.843327 8.799965 7.707524 15.288440 -0.729492 1.042410 0.001449 -0.010447 -377611.000000 1 0 0
-10.822427 -2.741735 -14.316176 18.154750 0.248118 2.479266 -0.002216 0.004106 -289703.000000 1 0 0
-3.176727 4.861365 8.022824 9.904048 -0.991990 0.626550 -0.003119 0.003321 -151819.000000 1 0 0
8.575873 -2.427135 -3.625276 9.621809 -0.275806 1.957111 -0.000145 0.000917 -3710740.000000 1 0 0
1.794573 -8.315935 -1.196476 8.591090 -1.358256 1.710520 0.001219 -0.000487 -738351.000000 1 0 0
-13.464127 -2.909535 5.179924 14.716648 0.212823 1.211114 0.003001 0.002372 371850.000000 1 0 0
6.985173 2.767665 -1.975176 7.768779 0.377243 1.827864 -0.004103 0.001139 672472.000000 1 0 0
-11.073127 4.388565 8.912924 14.876621 -0.377335 0.928391 -0.004710 -0.003985 -3282200.000000 1 0 0
-1.640327 -2.427035 8.045124 8.561845 0.976459 0.349195 -0.003190 0.000037 -767463.000000 1 0 0
2.834473 12.118365 -9.873476 15.886300 1.341028 2.241464 0.002851 -0.002911 542980.000000 1 0 0
3.611973 -5.017735 -7.089176 9.406404 -0.946878 2.424401 -0.004391 -0.001021 -36488.100000 1 0 0
8.103373 -13.774135 -9.895276 18.796488 -1.039022 2.125208 0.006956 0.000967 -513462.000000 1 0 0
-6.316027 -5.715035 -0.335976 8.524477 0.735486 1.610220 0.000620 -0.000797 -379582.000000 1 0 0
-1.067227 -4.047735 9.788424 10.645956 1.313003 0.404117 -0.004267 -0.000289 808507.000000 1 0 0
2.754273 3.321765 1.862724 4.699987 0.878526 1.163285 -0.009359 0.004468 -378574.000000 1 0 0
-9.062527 13.418965 7.848624 17.994413 -0.976805 1.119458 -0.001998 -0.016780 -710365.000000 1 0 0
4.015473 -11.143035 -0.079376 11.844727 -1.224925 1.577498 0.004664 -0.001283 167555.000000 1 0 0
-12.443127 -1.367535 -8.964976 15.397154 0.109464 2.192288 -0.001357 -0.000680 740290.000000 1 0 0
-4.326227 1.099765 -13.550476 14.266784 -0.248936 2.823367 0.002769 -0.005988 509164.000000 1 0 0
3.889473 -3.255335 4.918624 7.065272 -0.696875 0.800749 -0.007771 0.006837 -253187.000000 1 0 0
1.586173 -1.211135 1.041324 2.251033 -0.652122 1.089873 -0.004023 0.002776 49051.500000 1 0 0
8.139773 -9.021935 7.287724 14.169056 -0.836756 1.030557 0.002004 -0.002287 -1297580.000000 1 0 0
-0.080527 2.404265 -6.358376 6.798229 -1.537315 2.779899 -0.002504 -0.002616 -1573950.000000 1 0 0
-3.921227 -9.842935 -3.400376 11.127531 1.191687 1.881346 -0.000307 0.000752 -51825.100000 1 0 0
-9.387627 2.305465 -5.316876 11.032311 -0.240819 2.073660 -0.008136 0.001621 -2281310.000000 1 0 0
8.882173 -7.709735 5.182124 12.852526 -0.714852 1.155787 0.003182 -0.004232 2274340.000000 1 0 0
-5.510727 -4.333135 4.689524 8.434205 0.666337 0.981216 -0.003320 0.000174 -4043.030000 1 0 0
-0.168727 -12.494935 10.389924 16.251228 1.557294 0.877168 -0.002519 -0.002373 -1969800.000000 1 0 0
-14.099327 -8.410635 3.250524 16.736060 0.537862 1.375331 -0.013658 0.004613 -781422.000000 1 0 0
10.718673 -1.279535 -3.704776 11.412823 -0.118812 1.901401 0.004111 -0.001639 -233911.000000 1 0 0
-13.505827 2.943665 2.838324 14.111293 -0.214599 1.368276 -0.006734 -0.000434 -1156220.000000 1 0 0
-6.304927 6.217665 1.162924 8.931061 -0.778430 1.440214 -0.002643 0.002698 533769.000000 1 0 0
7.109173 -6.950735 -0.596276 9.960352 -0.774130 1.630697 0.003732 -0.004311 -677447.000000 1 0 0
-6.851727 7.949465 10.063124 14.539828 -0.859428 0.806392 0.001290 -0.002260 301875.000000 1 0 0
-12.559727 -5.191235 -1.862376 13.717292 0.391939 1.706985 -0.007892 -0.000524 -1437960.000000 1 0 0
-9.295227 -5.717635 0.286224 10.916708 0.551460 1.544574 -0.001577 0.001174 -1096950.000000 1 0 0
-1.803027 1.916365 2.230624 3.449499 -0.815861 0.867610 -0.003404 0.002387 92141.600000 1 0 0
-7.120127 7.445265 7.570124 12.784168 -0.807717 0.937074 -0.000185 -0.004901 -134426.000000 1 0 0
5.597673 7.147365 -0.412676 9.087853 0.906396 1.616222 -0.002139 0.000878 -2027030.000000 1 0 0
0.059173 -3.994935 7.375224 8.387904 -1.555985 0.496471 -0.005707 0.002067 -1389470.000000 1 0 0
6.607473 0.646965 12.989624 14.587926 0.097603 0.472493 -0.006037 0.000661 248168.000000 1 0 0
5.734373 6.092365 -7.847576 11.471024 0.815659 2.324195 -0.002314 0.001791 -773169.000000 1 0 0
9.999873 5.459265 8.970124 14.500488 0.499716 0.903826 0.003068 -0.000492 -2079090.000000 1 0 0
-1.392427 -4.970335 -8.479776 9.927220 1.297651 2.594796 -0.000951 -0.001378 653547.000000 1 0 0
9.788373 -3.607235 -7.911176 13.092406 -0.353080 2.219629 0.006819 -0.003458 49673.700000 1 0 0
8.273273 -5.677835 1.314924 10.119975 -0.601463 1.440494 0.002618 -0.005234 1125430.000000 1 0 0
15.747873 2.958765 -4.996776 16.784444 0.185718 1.873082 0.012668 0.001979 463684.000000 1 0 0
-6.902327 3.619065 1.309124 7.902756 -0.482918 1.404375 -0.003061 0.000935 949225.000000 1 0 0
-1.701227 3.855465 0.322024 4.226403 -1.155242 1.494529 -0.000679 -0.000617 -831735.000000 1 0 0
-2.567127 10.133065 6.912224 12.531878 -1.322675 0.986550 -0.002009 0.002092 -1079710.000000 1 0 0
5.415973 -5.754935 -8.780076 11.812780 -0.815732 2.408740 -0.005703 -0.000345 -457437.000000 1 0 0
-1.184427 -0.899035 6.182524 6.358831 0.649266 0.236032 -0.003499 0.001740 -323612.000000 1 0 0
-5.710627 5.007665 -7.663576 10.789734 -0.719907 2.360672 -0.007168 -0.001760 -385257.000000 1 0 0
6.746573 -1.318335 2.508524 7.317578 -0.192976 1.220892 -0.004426 0.003524 -1110900.000000 1 0 0
8.831173 7.561765 3.168024 12.050157 0.708116 1.304766 0.004989 -0.000399 -90463.700000 1 0 0
-5.461327 -4.911635 -7.726776 10.660831 0.732455 2.381514 -0.000949 -0.005975 165777.000000 1 0 0
-2.255527 7.963265 -10.015076 12.992411 -1.294784 2.450956 -0.003489 -0.000912 675077.000000 1 0 0
-2.823327 -2.168035 1.593724 3.900193 0.654860 1.149847 -0.005136 0.000233 -324464.000000 1 0 0
5.845173 -2.117435 -9.222376 11.122131 -0.347549 2.548456 -0.003391 0.000921 967027.000000 1 0 0
1.169773 -7.662135 5.094724 9.275392 -1.419297 0.989302 -0.006560 0.000989 1178670.000000 1 0 0
1.720673 12.027465 1.303824 12.219680 1.428699 1.463894 0.001755 -0.001457 232621.000000 1 0 0
-0.944327 7.151765 2.577324 7.660424 -1.439515 1.227655 -0.003630 0.002946 364877.000000 1 0 0
8.802973 7.842165 -6.666876 13.543970 0.727739 2.085457 0.005382 -0.002656 -649100.000000 1 0 0
3.635373 -11.154435 5.484824 12.950701 -1.255739 1.133474 -0.000560 0.002735 51940.800000 1 0 0
8.065273 -7.161735 12.287824 16.350220 -0.726130 0.720405 -0.001709 0.000261 419005.000000 1 0 0
-8.728327 0.010465 -3.881676 9.552550 -0.001199 1.989252 -0.005795 -0.000199 -386479.000000 1 0 0
-3.139027 -5.097235 11.146924 12.652637 1.018819 0.492833 0.000736 -0.002405 -456358.000000 1 0 0
-8.323127 0.248765 -11.571876 14.256390 -0.029879 2.517849 -0.009588 -0.003076 -2001240.000000 1 0 0
1.439373 -5.144935 5.325124 7.543149 -1.298006 0.787026 -0.006002 0.002553 -619470.000000 1 0 0
6.630773 3.734165 -7.712276 10.834682 0.512888 2.362874 -0.005464 0.002329 -543316.000000 1 0 0
16.144673 4.211665 -1.375376 16.741572 0.255183 1.653042 -0.005670 0.002363 -755568.000000 1 0 0
7.894673 7.458365 0.182424 10.862152 0.756987 1.554001 0.002782 0.000695 -1840290.000000 1 0 0
5.578173 -10.434835 14.007824 18.336328 -1.079875 0.701402 0.002521 0.001994 983222.000000 1 0 0
-5.278027 -9.135635 8.950324 13.835668 1.046905 0.867281 -0.000884 -0.001856 289326.000000 1 0 0
-12.580127 -3.197035 2.889724 13.297787 0.248865 1.351740 -0.006464 0.003281 436770.000000 1 0 0
-2.117727 -1.274435 -5.806776 6.310911 0.541738 2.739175 0.000321 -0.005176 -1470680.000000 1 0 0
-2.391627 13.019165 -4.224476 13.894773 -1.389121 1.879720 -0.002798 0.006114 674554.000000 1 0 0
3.895273 -0.462835 -4.917976 6.290776 -0.118265 2.468305 -0.003390 0.000903 -534836.000000 1 0 0
-8.821027 3.727465 -7.396576 12.100159 -0.399807 2.228472 -0.012490 0.001270 144151.000000 1 0 0
-4.597127 8.015165 -11.371876 14.652509 -1.050050 2.459261 -0.008386 -0.002132 -2130880.000000 1 0 0
-10.000827 -6.527235 7.526324 14.116193 0.578250 1.008454 0.002853 0.003413 -2091110.000000 1 0 0
8.069173 5.287165 4.115624 10.488280 0.580043 1.167555 -0.001276 0.001486 -1968470.000000 1 0 0
-6.696727 -7.523035 3.971924 10.826744 0.843443 1.195162 0.001811 0.001915 -629667.000000 1 0 0
-4.105027 11.900565 8.140124 14.991207 -1.238633 0.996799 0.001809 -0.005491 -705607.000000 1 0 0
-7.182527 9.919165 -7.914876 14.581625 -0.944074 2.144561 -0.015253 0.002007 -867101.000000 1 0 0
13.032073 5.346965 4.544524 14.801272 0.389348 1.258719 0.000730 -0.000770 1407.420000 1 0 0
5.317673 4.012365 -3.770176 7.654472 0.646396 2.085809 -0.004842 0.002416 539333.000000 1 0 0
-2.829627 -4.249835 5.174624 7.269431 0.983380 0.778691 -0.006584 0.001908 422502.000000 1 0 0
12.396073 -2.341035 -5.374876 13.712490 -0.186655 1.973568 0.008774 -0.005092 -1390120.000000 1 0 0
-5.266027 9.909965 6.973824 13.212595 -1.082355 1.014769 0.000014 -0.000125 693436.000000 1 0 0
1.691673 3.799265 -0.392776 4.177373 1.151888 1.664960 -0.006091 0.000745 541709.000000 1 0 0
-0.162727 9.558365 7.776724 12.323402 -1.553773 0.887886 -0.001675 0.001772 -1074170.000000 1 0 0
-5.477227 2.165165 5.966224 8.383542 -0.376451 0.778939 -0.004785 0.000181 657336.000000 1 0 0
8.847273 0.914565 10.569424 13.813884 0.103007 0.699552 0.000612 0.000974 -2184950.000000 1 0 0
0.307173 -2.893935 -10.212976 10.619515 -1.465049 2.863999 -0.000313 0.000236 -2251090.000000 1 0 0
1.259773 10.637565 -2.747176 11.058562 1.452919 1.821846 0.001439 0.000206 -259510.000000 1 0 0
2.339773 -4.312435 11.609824 12.603954 -1.073680 0.399834 -0.005057 0.001321 -1003120.000000 1 0 0
6.583573 -3.173535 9.389124 11.898336 -0.449175 0.661434 -0.003664 -0.000366 530235.000000 1 0 0
-10.620027 -8.299835 5.750024 14.653840 0.663375 1.167567 0.003698 0.002993 -1123340.000000 1 0 0
-2.975427 0.797765 -6.842576 7.504028 -0.261957 2.718574 0.002572 -0.004385 695231.000000 1 0 0
10.984273 2.647265 -5.057576 12.379069 0.236495 1.991671 0.006037 -0.002059 -3520960.000000 1 0 0
-2.007427 -4.054635 -0.008576 4.524368 1.111081 1.572692 -0.004597 -0.000859 1103790.000000 1 0 0
-1.439927 -6.444435 -10.607576 12.494991 1.350970 2.584784 -0.002636 0.002282 563091.000000 1 0 0
0.325573 6.880565 -6.588876 9.532128 1.523514 2.333984 0.002437 0.000872 -1986160.000000 1 0 0
2.024273 3.861765 -6.125276 7.518638 1.087990 2.522972 -0.001409 0.000675 -1755660.000000 1 0 0
1.620573 -14.752535 6.377024 16.153328 -1.461385 1.164967 0.006414 0.000068 -310408.000000 1 0 0
-1.791827 5.392265 -10.481676 11.922781 -1.249980 2.644830 0.001448 -0.001413 -717914.000000 1 0 0
13.557273 4.275065 -0.768076 14.236073 0.305464 1.624775 0.005857 -0.000008 -1914630.000000 1 0 0
-2.422627 3.378365 -6.122376 7.400403 -0.948685 2.545086 -0.000114 -0.002373 -1205840.000000 1 0 0
5.640273 7.909265 14.051224 17.082331 0.951318 0.604900 0.001547 -0.007012 53315.300000 1 0 0
15.889873 0.440865 -5.952776 16.974038 0.027738 1.929114 0.011802 -0.000336 461093.000000 1 0 0
6.194473 -8.255835 10.579724 14.780422 -0.927094 0.773037 -0.001622 0.000221 76837.900000 1 0 0
-0.069527 -5.937735 -6.398776 8.729597 1.559088 2.393515 -0.004247 -0.001228 -1329100.000000 1 0 0
8.612073 5.551265 -7.520276 12.709795 0.572563 2.203952 0.001085 0.000870 -399628.000000 1 0 0
-15.909027 -0.765735 5.533124 16.861167 0.048095 1.236444 0.006537 -0.004484 133312.000000 1 0 0
-0.404627 4.028265 -12.264176 12.915133 -1.470685 2.822745 0.004151 -0.005152 560506.000000 1 0 0
-11.232627 3.691565 5.957724 13.239865 -0.317527 1.104049 -0.004635 -0.006059 425196.000000 1 0 0
5.020373 -9.717735 -9.688876 14.612079 -1.093942 2.295713 -0.010964 0.003845 -179261.000000 1 0 0
1.504073 11.060365 -11.701576 16.171604 1.435638 2.379783 0.003302 -0.004416 -3151560.000000 1 0 0
6.013973 2.338765 1.164324 6.556931 0.370891 1.392278 -0.003350 0.004331 -822939.000000 1 0 0
5.709273 4.652765 4.894624 8.843153 0.683790 0.984244 -0.004802 0.002854 -93657.900000 1 0 0
0.334373 -1.781235 -6.390076 6.642114 -1.385236 2.865231 -0.002625 -0.003331 -869905.000000 1 0 0
12.581173 6.849265 -4.440776 14.997294 0.498538 1.871409 0.004872 0.001363 248644.000000 1 0 0
7.383373 3.229565 12.663124 15.009963 0.412335 0.566755 0.003491 -0.001234 -450366.000000 1 0 0
-2.555727 -0.158535 8.526424 8.902628 0.061952 0.291749 -0.002849 0.003951 760190.000000 1 0 0
2.290973 -15.136635 13.481524 20.398965 -1.420584 0.848789 -0.008901 -0.000997 81878.500000 1 0 0
18.800073 4.411165 -1.757776 19.390485 0.230467 1.661572 -0.001773 0.003798 467350.000000 1 0 0
-0.368327 -13.269135 7.205624 15.103862 1.543045 1.073477 -0.005572 -0.000176 -1942510.000000 1 0 0
4.334073 1.623565 -0.658676 4.674827 0.358424 1.712165 -0.007356 0.002545 909467.000000 1 0 0
2.688373 -0.502135 -7.323576 7.817561 -0.184653 2.784196 -0.005112 0.000830 623216.000000 1 0 0
7.121273 -11.324235 0.755524 13.398569 -1.009432 1.514378 0.004314 -0.000865 46301.300000 1 0 0
-11.827027 -7.404235 1.366124 14.020255 0.559349 1.473202 -0.007702 0.008785 252285.000000 1 0 0
0.194073 -7.025735 10.023424 12.242044 -1.543180 0.611530 -0.004203 -0.001096 -2278500.000000 1 0 0
-4.538827 -7.180435 10.616724 13.596854 1.007100 0.674816 0.001111 -0.001496 -1301610.000000 1 0 0
11.680273 0.751265 -1.674276 11.823552 0.064231 1.712879 0.003195 -0.001243 1897100.000000 1 0 0
6.418573 -9.775135 -7.547176 13.918018 -0.989780 2.143920 -0.004498 -0.001455 -136033.000000 1 0 0
-10.882227 4.949165 3.665824 12.504214 -0.426833 1.273259 -0.007603 -0.001393 306082.000000 1 0 0
6.021473 -9.117735 2.042524 11.115896 -0.987136 1.385998 0.000807 -0.002834 3961490.000000 1 0 0
11.587173 -1.283835 5.724924 12.987901 -0.110348 1.114319 0.008553 -0.007628 515440.000000 1 0 0
-6.407527 3.717065 4.115924 8.474302 -0.525665 1.063639 -0.003523 0.000430 -1792940.000000 1 0 0
9.466673 6.315165 -3.180176 11.815783 0.588299 1.843303 0.000718 0.000005 -254794.000000 1 0 0
-2.296027 6.539365 11.018424 13.016939 -1.233134 0.561480 -0.003161 0.000147 48491.600000 1 0 0
1.713073 9.823765 2.991424 10.411032 1.398152 1.279356 -0.002657 -0.000436 -241591.000000 1 0 0
2.889673 6.141565 -5.614076 8.808341 1.131017 2.261862 -0.002487 0.000181 -1843570.000000 1 0 0
11.823173 0.110965 -5.684576 13.119228 0.009385 2.018949 0.009829 -0.002596 281757.000000 1 0 0
-2.664027 -12.567435 6.279224 14.299165 1.361910 1.116164 -0.004131 0.002734 -144757.000000 1 0 0
10.629773 1.814965 -2.700276 11.116549 0.169113 1.816157 0.003643 -0.000584 205695.000000 1 0 0
-8.852127 5.386765 0.963724 10.407024 -0.546666 1.478060 -0.005949 0.003504 -131832.000000 1 0 0
1.084573 -10.263035 5.521224 11.704277 -1.465509 1.079548 -0.005179 -0.000054 617026.000000 1 0 0
9.320873 -5.726235 -1.225476 11.007735 -0.550901 1.682356 0.003291 -0.002958 -16995.500000 1 0 0
-7.760027 8.620965 -4.317976 12.376751 -0.837907 1.927170 -0.013644 0.007163 -1107030.000000 1 0 0
-7.432327 -0.131835 -1.607976 7.605422 0.017736 1.783829 -0.005844 0.001639 -1162480.000000 1 0 0
4.110973 8.981065 2.830324 10.274744 1.141526 1.291724 0.001839 -0.000396 1536930.000000 1 0 0
-1.408527 -10.430635 -3.700576 11.156898 1.436571 1.908886 -0.001594 0.001183 -322997.000000 1 0 0
3.189773 7.855265 -3.614376 9.216482 1.185070 1.973780 0.002223 -0.000595 -141970.000000 1 0 0
-4.300627 1.726565 -11.045476 11.978270 -0.381771 2.744337 -0.000778 -0.005515 -404718.000000 1 0 0
1.427673 2.796965 11.023624 11.462179 1.098834 0.277516 -0.005713 0.001088 453607.000000 1 0 0
2.052973 5.523265 -8.041776 9.969519 1.214926 2.509235 0.000985 0.002032 636406.000000 1 0 0
15.455373 6.073465 3.939624 17.066815 0.374430 1.337860 0.002613 -0.004212 340497.000000 1 0 0
-4.295827 9.148865 4.657624 11.128761 -1.131806 1.138980 -0.001069 0.002574 332710.000000 1 0 0
-0.948527 -8.327235 -12.333676 14.911811 1.457379 2.544739 -0.007451 0.005498 -606680.000000 1 0 0
14.130673 -4.198435 -5.337076 15.677601 -0.288808 1.918167 0.007521 -0.005174 -181089.000000 1 0 0
-6.086127 -6.268935 -5.608476 10.382461 0.800193 2.141456 0.000665 -0.001537 177698.000000 1 0 0
-8.949727 2.745265 -12.063376 15.269549 -0.297631 2.481651 -0.010117 -0.007562 -1167280.000000 1 0 0
10.454173 5.237565 13.764724 18.060715 0.464449 0.704190 0.013310 -0.003018 191132.000000 1 0 0
-0.472027 10.943565 5.578224 12.292315 -1.527690 1.099774 0.000359 0.004280 527109.000000 1 0 0
0.454673 11.283365 -0.573676 11.307084 1.530522 1.621554 0.003392 -0.000975 -247733.000000 1 0 0
-1.468027 -0.578235 3.670424 3.995181 0.375225 0.405988 -0.005640 0.003172 723379.000000 1 0 0
-4.852627 6.832965 8.832624 12.175904 -0.953272 0.759154 0.000779 0.001789 -1612210.000000 1 0 0
3.314373 -8.765435 -11.431276 14.781475 -1.209294 2.454907 -0.009588 0.008818 2917750.000000 1 0 0
6.758173 -3.714235 11.955524 14.226841 -0.502530 0.572868 -0.000994 0.004284 108903.000000 1 0 0
-2.424627 -1.930735 -12.608776 12.984136 0.672482 2.900555 0.004603 -0.006222 1074220.000000 1 0 0
-15.982327 -4.968235 5.511624 17.620900 0.301388 1.252668 0.008944 0.003036 -93566.000000 1 0 0
-8.925227 7.393865 5.717524 12.923583 -0.691833 1.112512 -0.003523 -0.004340 -3110410.000000 1 0 0
-12.722627 1.424065 6.013724 14.144189 -0.111468 1.131644 -0.002554 -0.003697 656574.000000 1 0 0
-3.399727 3.479265 10.206924 11.306844 -0.796960 0.444744 -0.000403 0.005375 531389.000000 1 0 0
1.940073 -12.435135 -1.147176 12.637741 -1.416029 1.661695 0.007056 -0.000701 -2301920.000000 1 0 0
10.081773 -5.188035 -3.662276 11.915122 -0.475256 1.883218 0.007986 -0.002079 808986.000000 1 0 0
3.126473 -13.497835 0.942324 13.887202 -1.343183 1.502889 0.009757 0.000660 577249.000000 1 0 0
9.995773 -1.723535 -6.170176 11.872537 -0.170747 2.117298 0.007343 -0.000794 -106323.000000 1 0 0
11.873573 -5.495435 -1.689876 13.192317 -0.433471 1.699245 0.009649 -0.002679 -607676.000000 1 0 0
1.518373 0.916165 5.880424 6.142003 0.542905 0.292897 -0.007768 0.003347 733242.000000 1 0 0
-10.549127 11.569265 6.652024 17.011213 -0.831487 1.169038 -0.001851 -0.015174 -350691.000000 1 0 0
4.774573 -14.088135 2.893324 15.153991 -1.244038 1.378689 0.009342 -0.001128 -4626440.000000 1 0 0
5.252273 -3.470735 -1.747976 6.533590 -0.583934 1.841632 -0.001202 -0.000407 -1436160.000000 1 0 0
2.032873 -2.902235 -7.769976 8.539793 -0.959768 2.713731 -0.006062 0.000317 280988.000000 1 0 0
-2.848527 14.877565 -8.715076 17.475943 -1.381621 2.092883 -0.000937 -0.002007 140794.000000 1 0 0
-2.380627 6.173565 -8.147176 10.495559 -1.202751 2.459492 0.000774 -0.001871 -1239.540000 1 0 0
2.464773 -3.541835 -11.284776 12.081634 -0.962825 2.776369 -0.004176 0.004270 -2309610.000000 1 0 0
14.447773 2.799265 -2.725976 14.966796 0.191379 1.753954 0.003853 0.000528 719885.000000 1 0 0
-3.549227 13.224365 2.339324 13.890762 -1.308590 1.401581 -0.005582 0.003253 -834073.000000 1 0 0
7.901473 -4.959935 13.824924 16.678212 -0.560555 0.593620 -0.012305 0.002479 -1596750.000000 1 0 0
-11.648127 7.395265 3.050924 14.130709 -0.565679 1.353175 -0.009502 -0.001126 1088570.000000 1 0 0
-2.256927 12.179165 4.315224 13.116666 -1.387564 1.235565 -0.002834 0.001828 247850.000000 1 0 0
1.818573 1.443365 0.642024 2.408880 0.670875 1.301012 -0.010493 0.003722 -1115710.000000 1 0 0
-6.828227 8.662965 5.390024 12.276970 -0.903286 1.116272 -0.003395 -0.002007 333294.000000 1 0 0
-1.122627 9.218565 1.102924 9.351934 -1.449614 1.452586 -0.002202 0.002867 310648.000000 1 0 0
4.757673 12.995165 -8.417876 16.197852 1.219841 2.117285 0.010809 -0.012329 -2328520.000000 1 0 0
8.916173 6.964765 7.113824 13.364602 0.663134 1.009495 -0.000572 0.000905 -1438070.000000 1 0 0
7.236973 -13.816535 2.796324 15.845815 -1.088298 1.393396 0.008313 -0.003745 805805.000000 1 0 0
4.164073 -13.449735 -1.388776 14.147918 -1.270553 1.669116 0.005543 -0.001866 -3261470.000000 1 0 0
12.052173 -11.899435 -4.704276 17.577874 -0.779021 1.841723 0.008849 0.001353 -687212.000000 1 0 0
3.075973 -0.135535 -2.020476 3.682703 -0.044034 2.151532 -0.004761 0.002124 814725.000000 1 0 0
-13.630427 -2.983735 -10.629676 17.540845 0.215503 2.221813 -0.002715 0.001307 892968.000000 1 0 0
-6.561227 13.913365 5.131924 16.216290 -1.130144 1.248793 -0.002722 -0.004734 -32700.200000 1 0 0
7.288573 -4.383935 -0.691276 8.533466 -0.541507 1.651893 -0.000255 -0.000475 -1495300.000000 1 0 0
11.708373 2.005265 -7.275876 13.930020 0.169622 2.120361 0.009831 -0.001386 -202175.000000 1 0 0
-7.436927 -4.617335 9.865924 13.189546 0.555621 0.725736 0.005169 -0.001090 135862.000000 1 0 0
1.061573 2.807765 8.530224 9.042964 1.209324 0.338362 -0.006130 0.001692 -1621530.000000 1 0 0
1.663073 8.061965 -8.632176 11.927931 1.367364 2.379937 0.003192 -0.001722 -140345.000000 1 0 0
-8.528527 -2.195735 -5.470876 10.367618 0.251985 2.126674 0.000109 -0.002526 -1134340.000000 1 0 0
6.599273 -0.488035 7.054724 9.672524 -0.073819 0.753415 -0.004687 0.001733 209994.000000 1 0 0
-10.802327 6.507565 7.182924 14.513203 -0.542199 1.053050 -0.003681 -0.007742 309495.000000 1 0 0
-5.897727 11.232765 4.904524 13.601931 -1.087313 1.201911 -0.004428 -0.001032 268068.000000 1 0 0
5.992473 -1.228935 -6.874276 9.201939 -0.202275 2.414404 -0.003748 0.001199 -807491.000000 1 0 0
4.540773 -5.791635 11.356124 13.532302 -0.905874 0.575011 -0.003861 0.000453 -1551020.000000 1 0 0
-8.943827 -7.572035 2.820824 12.053415 0.702529 1.334579 0.001655 0.004632 -2722980.000000 1 0 0
-1.330227 12.754865 -9.297876 15.840031 -1.466880 2.198127 0.009695 -0.002326 607219.000000 1 0 0
-4.662227 9.336865 -2.186176 10.662681 -1.107681 1.777291 -0.006275 0.003280 812210.000000 1 0 0
-3.218227 9.745865 -0.122076 10.264198 -1.251855 1.582690 -0.002578 0.002773 -1649280.000000 1 0 0
-3.514227 10.774365 -6.461976 13.045837 -1.255511 2.089009 -0.003177 0.003957 1235530.000000 1 0 0
4.846973 -4.890035 0.324124 6.892797 -0.789821 1.523755 -0.003992 -0.001040 -2118830.000000 1 0 0
-2.263027 3.048065 -10.634376 11.291676 -0.932147 2.798709 0.002193 -0.003308 -2319660.000000 1 0 0
-3.540127 12.210265 -2.241776 12.909246 -1.288603 1.745338 -0.006485 0.006131 -1406260.000000 1 0 0
-0.290027 0.413665 0.072124 0.510329 -0.959322 1.428993 -0.006325 0.001977 -1553890.000000 1 0 0
-4.834727 -1.829035 0.091324 5.169941 0.361671 1.553131 -0.006559 0.001506 97149.300000 1 0 0
2.442573 2.490265 -2.423076 4.247220 0.795066 2.177921 -0.009013 0.001455 1144270.000000 1 0 0
6.064473 -9.792735 8.488424 14.308349 -1.016319 0.935707 -0.001218 -0.000957 -616144.000000 1 0 0
-4.178027 -5.497035 6.709124 9.627339 0.920894 0.799755 -0.004325 -0.000633 228021.000000 1 0 0
-6.337627 5.305665 -11.997776 14.569222 -0.696998 2.538352 -0.008547 -0.006336 646708.000000 1 0 0
-12.830927 2.962865 8.023724 15.420486 -0.226938 1.023560 -0.000973 -0.006242 563833.000000 1 0 0
4.616973 -7.568035 -4.923176 10.140477 -1.023011 2.077728 -0.001640 -0.003169 735492.000000 1 0 0
-5.994727 2.464865 -0.925776 6.547470 -0.390100 1.712666 -0.003641 0.001009 -693653.000000 1 0 0
-6.952727 -2.652735 -14.536176 16.330274 0.364491 2.668441 -0.007248 -0.000663 -176122.000000 1 0 0
2.647073 -6.190735 0.805924 6.780982 -1.166737 1.451664 -0.003441 0.001613 -371799.000000 1 0 0
4.920973 -7.942735 13.004924 16.013465 -1.016121 0.623013 -0.000281 -0.001197 -90028.800000 1 0 0
-9.815227 -1.731335 8.077224 12.828786 0.174597 0.889736 -0.003404 0.004219 -606538.000000 1 0 0
-4.422327 13.374665 -0.042076 14.086887 -1.251463 1.573783 -0.006625 0.007907 471335.000000 1 0 0
6.775473 2.273465 -4.522376 8.457397 0.323738 2.134978 -0.004895 0.002516 -1779630.000000 1 0 0
4.912073 4.516865 0.077324 6.673568 0.743508 1.559209 -0.006697 0.001826 -1098410.000000 1 0 0
-5.954127 12.409365 1.883624 13.892156 -1.123431 1.434788 -0.002288 0.003363 -1383110.000000 1 0 0
6.491773 -7.342735 6.468224 11.742947 -0.846831 0.987453 -0.001508 -0.002363 -2710730.000000 1 0 0
-0.262927 5.004765 7.740224 9.221056 -1.518309 0.574604 -0.006279 0.003532 -1053540.000000 1 0 0
-5.826227 -3.420935 -1.562476 6.934627 0.530926 1.798063 -0.003570 0.000408 -397429.000000 1 0 0
2.217773 -6.598035 -5.324176 8.763529 -1.246534 2.223754 -0.000392 -0.000833 -694222.000000 1 0 0
-14.302827 -4.836235 -3.696476 15.544258 0.326063 1.810900 -0.005708 -0.001593 -87264.500000 1 0 0
-12.453727 -5.098335 -6.252376 14.838482 0.388568 2.005743 -0.000262 -0.002465 -1374220.000000 1 0 0
-14.776927 -3.783735 -1.238776 15.303881 0.250671 1.651830 -0.003273 0.000393 99037.500000 1 0 0
11.823273 3.011265 8.698024 14.983762 0.249388 0.951458 0.010555 -0.001445 -1623630.000000 1 0 0
8.724173 -6.615235 7.575024 13.313659 -0.648770 0.965548 0.004219 -0.006955 -39013.500000 1 0 0
-8.773927 -1.599235 -9.669676 13.154542 0.180292 2.396585 -0.003667 -0.003575 172383.000000 1 0 0
-8.767727 5.017665 -3.783876 10.787387 -0.519794 1.929188 -0.009343 0.003686 -1510040.000000 1 0 0
-4.073927 -6.345235 4.154924 8.609430 1.000034 1.067174 -0.002773 0.000020 -1180880.000000 1 0 0
-0.175327 -9.343235 3.464624 9.966464 1.552033 1.215756 -0.004157 -0.000573 1131430.000000 1 0 0
7.943273 -10.501635 3.233824 13.558671 -0.923222 1.329969 0.002008 -0.001895 -182321.000000 1 0 0
-0.046827 6.487365 9.694624 11.665069 -1.563578 0.589747 -0.004222 -0.001231 394425.000000 1 0 0
-0.041627 3.550565 -9.682576 10.313124 -1.559073 2.790100 0.003437 -0.002208 -579178.000000 1 0 0
4.463873 -3.144635 10.966924 12.251054 -0.613715 0.461957 -0.006827 0.001788 -2121960.000000 1 0 0
8.503573 -9.252335 1.103824 12.614868 -0.827543 1.483182 0.004654 -0.003029 -1060040.000000 1 0 0
-0.221927 -0.502435 11.441724 11.454900 1.154864 0.047969 0.001890 0.001683 -63099.200000 1 0 0
10.880773 6.032765 11.401624 16.875500 0.506248 0.828975 0.015509 0.002859 135753.000000 1 0 0
-6.439727 -2.883235 -11.954376 13.881291 0.420962 2.608395 -0.001005 -0.003355 -2076.010000 1 0 0
-1.568227 2.869465 8.493324 9.101083 -1.070627 0.367520 -0.000399 0.002473 -1424290.000000 1 0 0
-1.718427 13.487665 -6.744176 15.177417 -1.444072 2.031252 0.003429 -0.001120 -72415.800000 1 0 0
7.694873 3.234165 9.689424 12.788895 0.397884 0.711101 -0.001407 -0.000294 -650635.000000 1 0 0
6.460573 8.483565 -7.929376 13.288524 0.919950 2.210189 0.006907 -0.002753 717620.000000 1 0 0
6.471873 -3.031435 -4.123176 8.250777 -0.438051 2.094085 -0.000362 0.000263 -2259030.000000 1 0 0
2.039573 8.359165 1.047724 8.667942 1.331480 1.449627 -0.001735 0.003565 971055.000000 1 0 0
-17.534327 6.277965 6.399124 19.693000 -0.343818 1.239844 0.003446 -0.004925 -234002.000000 1 0 0
-14.421127 3.112365 -10.184876 17.927281 -0.212560 2.175018 -0.000365 0.000092 333929.000000 1 0 0
-18.173027 0.113765 -4.147176 18.640572 -0.006260 1.795155 0.011116 -0.002576 205149.000000 1 0 0
-12.949627 8.002965 0.163924 15.223901 -0.553555 1.560029 -0.008714 0.008238 -2324470.000000 1 0 0
-12.671927 -4.275935 -12.738276 18.469570 0.325436 2.331857 0.000223 0.007527 -524158.000000 1 0 0
-17.337327 -0.493335 -8.336776 19.243911 0.028447 2.018855 -0.006695 -0.002876 -384792.000000 1 0 0
-16.631927 -2.029335 -2.027276 16.877471 0.121414 1.691204 -0.002200 -0.002458 -231164.000000 1 0 0
-15.233627 4.070165 1.873524 15.878908 -0.261084 1.452533 -0.001399 0.002645 -1739040.000000 1 0 0
-13.185427 5.863365 4.553924 15.131846 -0.418425 1.265108 -0.004746 -0.005755 162845.000000 1 0 0
-10.026527 14.335065 2.868024 17.727123 -0.960446 1.408295 0.008517 -0.006464 -32938.100000 1 0 0
-11.660227 2.534865 -6.380876 13.531519 -0.214063 2.061851 -0.010039 0.005356 521153.000000 1 0 0
-15.974027 10.803465 3.986724 19.692088 -0.594652 1.366934 0.012038 -0.004431 -564844.000000 1 0 0
-12.760727 1.122465 -8.452876 15.347547 -0.087737 2.154076 -0.002292 -0.001424 785296.000000 1 0 0
-12.262127 14.355565 4.172524 19.335251 -0.863885 1.353287 0.006632 -0.011247 -895776.000000 1 0 0
-10.489027 11.224265 -1.030176 15.396917 -0.819246 1.637754 -0.003259 0.004759 989364.000000 1 0 0
-17.021327 5.534465 8.902324 19.990179 -0.314367 1.109248 0.008711 -0.006353 718301.000000 1 0 0
-11.644927 12.707965 -9.338676 19.603764 -0.829022 2.067320 -0.002849 0.003604 -1351730.000000 1 0 0
-17.176427 -0.480335 3.286324 17.494579 0.027958 1.381826 0.012892 -0.001593 806289.000000 1 0 0
-13.254027 14.914965 -0.423476 19.957573 -0.844293 1.592017 0.028875 -0.006311 7666.950000 1 0 0
-16.259727 4.903565 -10.373476 19.900570 -0.292903 2.119129 0.012284 0.002443 163869.000000 1 0 0
-11.811127 7.646265 -8.996676 16.700547 -0.574530 2.139696 -0.012065 0.006069 -678027.000000 1 0 0
-14.844127 13.466765 -1.899176 20.132281 -0.736785 1.665272 0.039553 -0.009627 776107.000000 1 0 0
-11.770527 10.610565 -5.417676 16.747555 -0.733617 1.900212 0.004517 0.000269 2842820.000000 1 0 0
-17.505127 2.875665 -0.872976 17.761222 -0.162821 1.619967 0.007210 0.001284 -217215.000000 1 0 0
-9.363427 15.502865 0.728224 18.125752 -1.027455 1.530609 0.006858 -0.003663 102022.000000 1 0 0
-8.014727 13.286865 -3.741376 15.961658 -1.028022 1.807395 -0.006913 0.004380 -1471910.000000 1 0 0
-17.807827 11.584765 2.350124 21.374016 -0.576757 1.460621 0.031794 0.002415 -106053.000000 1 0 0
-7.933427 15.682065 -7.457176 19.091252 -1.102446 1.972087 0.010250 -0.005610 -134795.000000 1 0 0
-6.170527 15.312565 -5.427776 17.378458 -1.187731 1.888439 -0.010352 0.003021 578709.000000 1 0 0
-17.130127 5.370465 -0.076576 17.952409 -0.303805 1.575062 0.008357 0.006509 892151.000000 1 0 0
-5.304827 12.362965 -12.231476 18.182219 -1.165466 2.308670 -0.023525 -0.001171 -1079790.000000 1 0 0
-11.128527 3.934765 -11.299976 16.340622 -0.339856 2.334397 -0.006450 -0.005887 169825.000000 1 0 0
-11.722727 11.147165 1.354524 16.233186 -0.760237 1.487258 -0.001164 0.001407 181910.000000 1 0 0
-12.961527 0.284565 -10.851276 16.906577 -0.021951 2.267688 0.001869 -0.004592 999681.000000 1 0 0
-14.033227 -2.078035 -13.106076 19.313698 0.147011 2.316637 -0.007698 0.008469 96987.300000 1 0 0
-18.624227 -2.337935 -3.540176 19.101325 0.124879 1.757211 -0.000233 -0.001434 30339.600000 1 0 0
-18.135427 4.844565 -5.021876 19.431489 -0.261037 1.832203 0.026092 -0.000481 228362.000000 1 0 0
-8.170527 15.413665 -2.263976 17.591593 -1.083373 1.699851 0.003650 -0.002641 -264280.000000 1 0 0
-15.851127 9.183665 -5.249776 19.056707 -0.525112 1.849887 0.019392 0.005511 -137877.000000 1 0 0
-18.071827 1.753065 2.135424 18.281800 -0.096703 1.453723 0.010696 -0.005447 151065.000000 1 0 0
-15.845527 -2.586435 -8.665976 18.244712 0.161801 2.065744 0.001617 0.000951 542391.000000 1 0 0
-9.523627 10.613565 -7.103276 15.931219 -0.839471 2.032944 -0.015175 0.000190 -135860.000000 1 0 0
-13.732827 12.068165 -7.828776 19.887706 -0.720968 1.975394 0.011949 -0.000509 134295.000000 1 0 0
-10.873327 6.580765 -3.888676 13.291257 -0.544250 1.867714 -0.010902 0.009753 -878019.000000 1 0 0
-13.113727 5.161665 -12.656476 18.941990 -0.374984 2.302543 0.002193 -0.005014 387976.000000 1 0 0
-17.589627 9.089765 2.778024 19.993404 -0.476972 1.431398 0.012733 -0.001082 871974.000000 1 0 0
-13.297527 8.733765 -6.601076 17.224316 -0.581138 1.964100 -0.003406 0.006883 -295549.000000 1 0 0
-15.566127 7.066965 -3.749276 17.501525 -0.426172 1.786695 0.005854 0.010471 -979885.000000 1 0 0
-14.901427 -0.198335 -9.144276 17.484555 0.013309 2.121153 0.000458 -0.004671 -1498460.000000 1 0 0
-9.850127 5.821365 -6.071176 12.952701 -0.533771 2.058636 -0.016249 0.005619 289026.000000 1 0 0
-12.926727 12.281565 -0.542276 17.839035 -0.759810 1.601199 0.014970 -0.001890 -978408.000000 1 0 0
-10.671727 3.573765 -13.852776 17.848164 -0.323143 2.459326 -0.009306 -0.006137 263843.000000 1 0 0
-10.938327 6.431265 -11.985876 17.454781 -0.531517 2.327711 -0.012695 -0.002963 -275106.000000 1 0 0
-5.661627 11.685965 -14.722076 19.630469 -1.119641 2.418799 -0.014412 -0.009847 -397374.000000 1 0 0
-15.656527 13.388865 3.629524 20.917982 -0.707483 1.396402 0.006398 -0.014349 251416.000000 1 0 0
-15.083627 11.173665 -3.138676 19.032022 -0.637575 1.736469 0.033649 0.006021 710062.000000 1 0 0
-17.990927 7.848265 -4.528176 20.143810 -0.411348 1.797526 0.027055 0.005243 514259.000000 1 0 0
-4.069527 16.348865 -10.593376 19.901408 -1.326836 2.132103 0.007367 0.004699 83991.000000 1 0 0
-15.616527 4.475065 -4.387476 16.827123 -0.279081 1.834583 0.010219 0.006342 233211.000000 1 0 0
-18.637127 -1.816435 -5.973176 19.655044 0.097156 1.879580 -0.002367 -0.002080 364925.000000 1 0 0
-10.711027 8.648665 -5.820776 14.946803 -0.679270 1.970812 -0.014015 0.007974 1041680.000000 1 0 0
-11.050527 13.402665 -6.859076 18.675987 -0.881293 1.946865 -0.002713 -0.001921 178122.000000 1 0 0
-9.379127 10.527665 -4.411476 14.773654 -0.843030 1.874026 -0.016754 0.006775 -818837.000000 1 0 0
-11.023527 6.330365 -0.142176 12.712666 -0.521278 1.581980 -0.009679 0.007894 -209744.000000 1 0 0
-14.559127 9.513765 -1.184276 17.432223 -0.578802 1.638785 0.014530 0.009915 109746.000000 1 0 0
-18.516427 3.523765 4.728724 19.432854 -0.188056 1.324992 0.003708 -0.002839 271315.000000 1 0 0
-15.013527 13.288765 0.639224 20.060056 -0.724533 1.538925 0.024908 -0.001223 246471.000000 1 0 0
-16.728927 2.591165 -9.113176 19.225533 -0.153670 2.064640 0.007240 0.004258 365417.000000 1 0 0
-9.152327 8.466365 -8.736676 15.224123 -0.746484 2.182021 -0.013296 0.001312 -2027400.000000 1 0 0
-17.376427 4.821165 -2.564976 18.214361 -0.270647 1.712088 0.005092 0.007615 791148.000000 1 0 0
-13.369427 5.926265 -4.422276 15.278047 -0.417243 1.864452 -0.003510 0.010817 -546431.000000 1 0 0
-12.244127 9.799265 3.380024 16.042718 -0.674938 1.358517 -0.006433 0.000673 689828.000000 1 0 0
-17.465427 2.616465 -3.909376 18.087848 -0.148702 1.788648 0.017660 0.000670 953039.000000 1 0 0
-11.361327 1.651965 -12.434076 16.923799 -0.144391 2.396035 -0.001247 -0.006927 211678.000000 1 0 0
-11.163427 12.131365 3.639324 16.883032 -0.826926 1.353530 0.002572 -0.004083 58787.400000 1 0 0
-15.636627 13.485365 -4.316776 21.094874 -0.711661 1.776888 0.013129 0.006187 552397.000000 1 0 0
-11.039227 4.124665 -4.400776 12.579516 -0.357575 1.928193 -0.013913 0.006569 -340112.000000 1 0 0
-11.174927 15.176865 -8.682176 20.750817 -0.936112 2.002481 0.001913 -0.001152 446117.000000 1 0 0
-15.284927 7.287865 0.031124 16.933485 -0.444917 1.568958 0.002169 0.011957 -1428130.000000 1 0 0
-12.744227 8.469365 -4.041276 15.826477 -0.586546 1.829005 -0.004084 0.010314 632682.000000 1 0 0
-19.233027 2.005065 -5.713976 20.163807 -0.103876 1.858111 0.028330 -0.003163 1599720.000000 1 0 0
-12.394827 10.173765 -9.022676 18.399617 -0.687300 2.083314 -0.007043 0.002884 499132.000000 1 0 0
-16.640627 11.011265 -0.943976 19.976223 -0.584563 1.618069 0.022476 0.003873 172076.000000 1 0 0
-10.647027 6.753365 -14.543976 19.248230 -0.565256 2.427367 -0.010043 -0.008788 -143315.000000 1 0 0
-13.171927 12.777265 -3.744376 18.729082 -0.770190 1.772076 0.011640 -0.008732 549312.000000 1 0 0
-17.842227 7.814465 -0.076976 19.478625 -0.412810 1.574748 0.019152 0.009296 541580.000000 1 0 0
-12.659627 6.724665 -2.085976 14.485806 -0.488287 1.715300 -0.012666 0.012817 676938.000000 1 0 0
-13.561927 8.534965 -10.755176 19.298842 -0.561709 2.161923 -0.009408 0.005517 -941584.000000 1 0 0
-14.887727 1.421665 -0.868076 14.980624 -0.095204 1.628775 -0.005162 0.002288 -923701.000000 1 0 0
-13.210027 2.790865 -2.327376 13.700745 -0.208207 1.741496 -0.009273 0.006274 276226.000000 1 0 0
-11.160427 9.265565 -11.029176 18.222199 -0.692896 2.220889 -0.009504 0.000693 -771457.000000 1 0 0
-15.253427 4.474465 -8.012476 17.801338 -0.285337 2.037680 0.004086 0.001672 445214.000000 1 0 0
-18.452727 10.743965 4.624224 21.847639 -0.527260 1.357525 0.009315 -0.008107 208864.000000 1 0 0
-15.227427 6.274865 -6.181076 17.591309 -0.390874 1.929831 0.011738 0.009340 394604.000000 1 0 0
-7.620627 11.390965 -13.087376 18.950130 -0.981176 2.333145 -0.020499 0.001632 -1679200.000000 1 0 0
-16.675527 9.127965 -2.715676 19.203329 -0.500835 1.712689 0.019233 0.007430 1175880.000000 1 0 0
-20.604327 -0.950135 -4.551376 21.122407 0.046081 1.787976 0.020956 -0.008114 884763.000000 1 0 0
-15.387327 4.267465 4.353424 16.550933 -0.270537 1.304633 0.002055 -0.001627 490797.000000 1 0 0
-6.856527 12.416365 -9.406876 17.019618 -1.066253 2.156406 -0.012142 -0.004254 -1450460.000000 1 0 0
-17.237227 1.543165 5.724824 18.228466 -0.089287 1.251330 0.013957 -0.004971 11270.800000 1 0 0
-10.339527 14.327765 -3.139776 17.945720 -0.945692 1.746661 0.010691 -0.007423 1055970.000000 1 0 0
-9.768127 8.619365 -13.025076 18.421790 -0.723004 2.356110 -0.026810 -0.001366 -971462.000000 1 0 0
-13.722627 11.816965 2.887524 18.338182 -0.710920 1.412679 0.001612 -0.005250 461168.000000 1 0 0
-16.667627 6.718165 2.093124 18.092117 -0.383147 1.454844 0.000275 0.006480 923242.000000 1 0 0
-9.204727 13.390765 -8.611376 18.390089 -0.968581 2.058119 -0.000831 -0.002080 -834336.000000 1 0 0
-5.593127 9.877465 -12.910576 17.190996 -1.055562 2.420384 -0.010491 -0.001039 -648483.000000 1 0 0
-15.793627 1.759265 3.270824 16.224425 -0.110933 1.367806 -0.001219 -0.001353 -965534.000000 1 0 0
-18.504127 -4.879335 4.645724 19.692470 0.257820 1.332638 0.010234 0.006701 -181672.000000 1 0 0
-5.387927 14.459465 -9.278276 18.005340 -1.214111 2.112162 -0.000581 0.002351 1050390.000000 1 0 0
-15.412127 -0.756035 -6.638676 16.798133 0.049015 1.977085 -0.000694 -0.000482 683054.000000 1 0 0
-8.884227 10.959565 -9.565676 17.045343 -0.889603 2.166619 -0.014940 -0.002410 104692.000000 1 0 0
-16.653927 1.344865 -5.938676 17.732169 -0.080579 1.912306 0.001516 -0.000436 21138.200000 1 0 0
-10.981727 8.646265 -1.453276 14.052339 -0.666969 1.674400 -0.008040 0.006807 -542589.000000 1 0 0
-10.614427 11.122365 -12.713376 19.950012 -0.808762 2.261736 -0.007573 -0.001237 -435223.000000 1 0 0
-13.777827 11.766765 -10.466576 20.924495 -0.706833 2.094634 0.007850 -0.001776 -133727.000000 1 0 0
-13.087827 5.801165 -7.614976 16.215196 -0.417226 2.059656 -0.005868 0.009920 885818.000000 1 0 0
-8.769427 15.388465 -4.917476 18.381764 -1.052826 1.841614 0.004244 -0.005560 -92437.700000 1 0 0
-8.583727 6.103465 -13.041776 16.763668 -0.618104 2.462238 -0.015952 -0.007307 -29497.900000 1 0 0
-16.263627 7.472565 4.461524 18.445866 -0.430697 1.326502 0.003634 -0.000850 647837.000000 1 0 0
-12.659327 5.589465 -10.135276 17.152973 -0.415787 2.202940 -0.005138 0.001204 336857.000000 1 0 0
-12.253727 9.221965 -13.395176 20.362446 -0.645153 2.288740 -0.000689 -0.006961 -1173150.000000 1 0 0
-10.672627 5.214965 -8.535676 14.627323 -0.454510 2.193881 -0.016673 0.005966 -638795.000000 1 0 0
-17.511627 -4.467635 -2.507476 18.245665 0.249795 1.708661 -0.018076 0.000788 -11873.900000 1 0 0
-8.713827 13.191365 -11.082676 19.307216 -0.987026 2.182200 -0.006354 -0.003075 181454.000000 1 0 0
-14.965027 6.119365 6.296024 17.350463 -0.388165 1.199447 -0.001194 -0.006848 -764444.000000 1 0 0
-16.222427 -3.080635 -4.374776 17.082041 0.187665 1.829786 -0.015531 0.001181 -113495.000000 1 0 0
-11.274727 -1.012235 -12.420276 16.804980 0.089539 2.402504 -0.002086 -0.001658 307686.000000 1 0 0
-15.150427 7.031365 -8.586076 18.780208 -0.434520 2.045627 -0.001014 0.009777 -485144.000000 1 0 0
-14.674227 9.379465 1.450924 17.476054 -0.568731 1.487677 0.000458 0.004809 -73509.700000 1 0 0
-19.434327 5.439565 7.825224 21.645232 -0.272911 1.200897 0.016742 -0.004843 -597644.000000 1 0 0
-16.238227 0.348565 1.103624 16.279419 -0.021462 1.502952 0.003288 -0.002626 -537753.000000 1 0 0
-17.407027 3.818765 7.046924 19.163681 -0.215959 1.194237 0.006238 -0.004724 842916.000000 1 0 0
-15.232827 4.098965 -1.348476 15.832211 -0.262861 1.656073 0.002656 0.003988 -2757750.000000 1 0 0
-10.757227 13.354865 0.492424 17.155548 -0.892716 1.542089 0.005976 -0.006331 -696607.000000 1 0 0
-13.382527 3.440965 0.159924 13.818750 -0.251672 1.559223 -0.006554 0.004368 -43773.500000 1 0 0
-14.920627 0.214365 -4.194776 15.500555 -0.014366 1.844834 -0.009168 0.001254 -47090.400000 1 0 0
-18.701127 6.782065 3.581624 20.212783 -0.347904 1.392660 0.004921 0.000442 611396.000000 1 0 0
-14.073227 1.417465 -6.294176 15.481653 -0.100382 1.989479 -0.002104 0.000668 -873069.000000 1 0 0
-14.165427 12.200165 5.368024 19.450425 -0.710997 1.291182 0.000640 -0.008178 227402.000000 1 0 0
17.674373 5.280165 6.118524 19.434504 0.290307 1.250521 0.012351 -0.002546 -362211.000000 1 0 0
18.587873 7.199865 -0.270676 19.935404 0.369547 1.584374 0.011553 -0.006149 433948.000000 1 0 0
16.649773 5.169065 8.425824 19.363075 0.301024 1.120593 0.025429 -0.002629 582557.000000 1 0 0
11.881573 12.363365 10.869924 20.302212 0.805267 1.005808 0.007272 0.000307 469558.000000 1 0 0
-2.330427 16.449865 -0.494976 16.621490 -1.430064 1.600580 -0.007399 0.007775 -71558.600000 1 0 0
15.192273 12.597065 3.261724 20.003251 0.692280 1.407005 0.010932 -0.005035 174378.000000 1 0 0
13.682773 11.825765 6.579624 19.244699 0.712727 1.221866 0.012760 0.002669 784373.000000 1 0 0
-0.676027 15.783265 8.618724 17.995857 -1.527991 1.071363 -0.000470 -0.003938 11825.800000 1 0 0
0.780573 12.946465 9.480524 16.065509 1.510577 0.939593 0.002782 -0.004260 867536.000000 1 0 0
0.768573 15.544365 -3.918376 16.049039 1.521393 1.817440 -0.000054 0.000069 279144.000000 1 0 0
5.667873 10.399165 13.499724 17.958562 1.071776 0.720137 0.000480 -0.007625 -235377.000000 1 0 0
-1.290927 16.568965 -2.783876 16.850728 -1.493041 1.736765 -0.005364 0.004200 -397431.000000 1 0 0
8.534473 10.137465 3.299024 13.656097 0.871038 1.326804 0.012449 -0.000347 330644.000000 1 0 0
12.539473 13.932465 -4.812976 19.352434 0.837971 1.822136 0.023114 0.006190 554494.000000 1 0 0
2.415373 11.579065 7.765724 14.149743 1.365147 0.989839 0.007122 -0.003402 555684.000000 1 0 0
-0.349427 14.900265 -8.627176 17.221154 -1.547350 2.095508 0.008278 -0.004951 -1994040.000000 1 0 0
2.342973 15.992265 0.304124 16.165845 1.425325 1.551982 0.008063 0.000470 -528115.000000 1 0 0
1.959773 13.436165 5.288524 14.571881 1.425960 1.199390 0.005431 0.001021 1543770.000000 1 0 0
17.666573 9.142765 -1.775076 19.971200 0.477563 1.659796 0.004919 0.001580 733999.000000 1 0 0
-7.145627 14.971665 7.442324 18.182379 -1.125492 1.149093 0.001435 -0.014889 -997474.000000 1 0 0
8.603573 16.135665 -0.177976 18.286958 1.080941 1.580529 0.017525 0.000998 255594.000000 1 0 0
15.745273 10.446765 1.943224 18.995385 0.585797 1.468317 0.012842 -0.007057 1500080.000000 1 0 0
14.215973 7.511565 8.554024 18.212326 0.486100 1.081864 0.018813 -0.003183 -1074650.000000 1 0 0
3.921773 18.837565 -1.784676 19.324058 1.365539 1.663283 0.016941 -0.002186 8014.520000 1 0 0
-0.511527 17.588265 -4.891576 18.262974 -1.541721 1.841948 0.005019 -0.001192 621834.000000 1 0 0
1.277573 13.797465 -0.690176 13.873664 1.478465 1.620564 0.000894 -0.001170 280273.000000 1 0 0
10.226673 14.750065 4.237124 18.441867 0.964560 1.338970 0.013798 -0.007922 287092.000000 1 0 0
-1.690827 15.352465 -5.073076 16.257096 -1.461104 1.888150 0.000953 -0.000417 -208721.000000 1 0 0
15.116273 8.643665 -6.282276 18.511662 0.519435 1.917042 0.013542 0.003684 342217.000000 1 0 0
-2.358927 18.647565 0.918724 18.818615 -1.444964 1.521957 -0.002907 0.002862 -1053310.000000 1 0 0
-3.712227 19.358265 3.616224 20.039963 -1.381332 1.389352 0.002018 -0.006622 249767.000000 1 0 0
1.827173 17.729365 -2.703976 18.027213 1.468100 1.721359 0.002267 0.000576 -509980.000000 1 0 0
2.888273 12.106165 3.358824 12.891200 1.336596 1.307203 0.005233 0.001722 -136831.000000 1 0 0
-2.569127 16.314465 1.958124 16.631188 -1.414604 1.452785 -0.002830 0.003694 -1203020.000000 1 0 0
11.820273 12.927465 -2.512376 17.696051 0.830107 1.713251 0.012572 0.008649 598040.000000 1 0 0
7.253873 11.695565 4.749524 14.558945 1.015639 1.238487 0.008970 -0.001749 21019.000000 1 0 0
7.160273 15.955565 1.897424 17.591184 1.148971 1.462724 0.019652 -0.000268 222434.000000 1 0 0
5.632373 12.276065 10.198724 16.924519 1.140641 0.924041 0.002100 0.000643 1068580.000000 1 0 0
-1.450527 14.273065 3.200424 14.699222 -1.469517 1.351311 -0.000955 0.001977 -1195960.000000 1 0 0
4.678873 16.119265 1.466424 16.848529 1.288294 1.483650 0.012842 -0.002947 -1075640.000000 1 0 0
7.459773 13.146365 11.905424 19.240952 1.054662 0.903640 0.001831 -0.001364 131669.000000 1 0 0
0.659073 17.150965 -9.402676 19.570393 1.532387 2.071969 0.013110 -0.008051 355155.000000 1 0 0
10.001873 9.463765 15.246324 20.543873 0.757761 0.734546 0.025019 -0.011334 -570578.000000 1 0 0
13.496373 7.500465 -0.198476 15.441776 0.507239 1.583650 0.006277 0.002060 160330.000000 1 0 0
12.504773 13.644265 -0.117476 18.508082 0.828947 1.577144 0.025564 -0.000134 337622.000000 1 0 0
9.346573 12.475565 3.252124 15.924021 0.927814 1.365122 0.012474 0.001138 885599.000000 1 0 0
-0.753127 12.922465 0.737224 12.965369 -1.512582 1.513905 -0.000831 -0.000234 875312.000000 1 0 0
15.976073 7.262065 -0.963376 17.575568 0.426639 1.625637 0.004644 0.001686 -1925770.000000 1 0 0
-4.238127 18.527065 -2.404676 19.157148 -1.345912 1.696652 -0.002355 0.001637 281034.000000 1 0 0
11.623673 9.413265 -3.215976 15.299079 0.680710 1.782583 0.014412 0.004248 39690.800000 1 0 0
14.857473 9.752765 7.568924 19.317079 0.580876 1.168181 0.014231 -0.000464 1119080.000000 1 0 0
4.630173 13.542165 4.731124 15.073562 1.241349 1.251531 0.011165 -0.001520 -566865.000000 1 0 0
2.055373 16.007765 5.631624 17.093516 1.443097 1.235065 0.009696 -0.001009 261631.000000 1 0 0
6.101173 18.391365 5.558124 20.158357 1.250479 1.291454 0.012575 -0.013665 -371458.000000 1 0 0
10.759873 17.363565 -1.047676 20.453994 1.016031 1.622040 0.032367 -0.001882 -980552.000000 1 0 0
10.006173 13.553265 -4.429076 17.419277 0.934835 1.827882 0.027346 -0.000409 391209.000000 1 0 0
16.503173 7.861465 2.266524 18.419948 0.444558 1.447436 -0.002942 -0.006199 -321376.000000 1 0 0
3.926673 14.046765 -0.412176 14.591102 1.298212 1.599049 0.005698 -0.002158 706547.000000 1 0 0
5.454573 13.190265 -2.499276 14.490750 1.178681 1.744137 0.007609 -0.002854 97470.000000 1 0 0
-6.178927 16.919565 -2.917976 18.247339 -1.220650 1.731398 -0.000655 0.002220 -1201720.000000 1 0 0
18.215273 9.853965 2.579224 20.869815 0.495886 1.446893 0.009353 -0.008855 1203240.000000 1 0 0
8.099973 13.016965 9.446124 18.007781 1.014168 1.018601 0.005062 -0.003774 -29046.900000 1 0 0
-2.590627 15.731365 6.848724 17.352008 -1.407582 1.165062 0.000520 -0.005033 161930.000000 1 0 0
11.169173 16.077665 6.288924 20.561914 0.963635 1.259962 0.009277 -0.001892 33468.300000 1 0 0
13.613373 12.025065 1.370424 18.215493 0.723527 1.495491 0.022256 -0.002726 457851.000000 1 0 0
17.512373 7.729365 -5.557376 19.932655 0.415651 1.853349 0.000742 0.013835 -30338.900000 1 0 0
9.594173 9.293265 7.975824 15.557207 0.769468 1.032496 0.004472 -0.000111 -448083.000000 1 0 0
-2.018727 14.258065 -1.883476 14.522918 -1.430146 1.700853 -0.005593 0.005277 466138.000000 1 0 0
10.954673 11.733265 0.798224 16.072073 0.819702 1.521111 0.011899 0.003886 488878.000000 1 0 0
11.786573 9.782065 -0.621576 15.329659 0.692728 1.611355 0.009455 0.004218 -468272.000000 1 0 0
-0.196527 16.223865 11.073024 19.643428 -1.558683 0.971936 0.003654 -0.010287 588309.000000 1 0 0
1.723273 20.287465 -2.033376 20.461806 1.486057 1.670335 0.005154 -0.002288 -11906.800000 1 0 0
9.362973 14.544965 1.642224 17.375792 0.998844 1.476143 0.020535 -0.000746 244583.000000 1 0 0
8.488673 11.703865 -5.158276 15.350760 0.943299 1.913492 0.016681 -0.000815 -344020.000000 1 0 0
10.687473 10.227565 10.179824 17.957003 0.763412 0.968059 0.002348 0.002482 5275.340000 1 0 0
-5.126927 15.963465 5.978124 17.800437 -1.260036 1.228298 -0.006923 -0.001979 -160348.000000 1 0 0
14.435973 8.918565 -2.157676 17.105370 0.553406 1.697274 0.017181 0.000142 -191368.000000 1 0 0
12.272373 9.622765 6.750624 16.993518 0.664970 1.162281 0.007205 -0.000112 -131559.000000 1 0 0
3.289673 12.865365 9.683424 16.434970 1.320460 0.940733 0.000799 -0.004381 -678602.000000 1 0 0
8.443173 12.658765 -2.605676 15.437650 0.982575 1.740395 0.016666 0.001754 -546969.000000 1 0 0
9.621873 17.120165 2.072524 19.747806 1.058772 1.465653 0.020091 -0.003324 193590.000000 1 0 0
9.679773 14.374065 -7.459776 18.866902 0.978133 1.977288 0.017747 -0.006677 2553990.000000 1 0 0
6.494273 11.410665 7.346824 15.045088 1.053377 1.060632 0.006823 0.000118 131812.000000 1 0 0
5.520273 16.990265 -5.559176 18.709542 1.256648 1.872482 0.011831 -0.001551 -507964.000000 1 0 0
-4.028127 17.216265 -4.648076 18.281963 -1.340959 1.827862 -0.007622 -0.002654 53801.500000 1 0 0
-0.144127 18.564465 -0.401076 18.569356 -1.563033 1.592397 -0.003100 0.001012 -618812.000000 1 0 0
6.614773 15.640665 -2.766476 17.205784 1.170688 1.732285 0.016548 0.000131 801146.000000 1 0 0
-0.946627 20.801065 0.743724 20.835871 -1.525319 1.535094 -0.000590 0.002221 160054.000000 1 0 0
-1.221027 18.932265 4.476524 19.492584 -1.506391 1.339076 0.006367 -0.001422 298067.000000 1 0 0
7.195973 13.819665 -4.438276 16.200724 1.090722 1.848300 0.015794 0.000769 -882527.000000 1 0 0
-0.953427 11.996465 7.745124 14.311224 -1.491487 0.998942 0.000647 0.001233 429509.000000 1 0 0
7.774773 10.882965 10.816324 17.201130 0.950472 0.890768 0.002727 -0.001846 138664.000000 1 0 0
1.505773 16.139465 -7.206976 17.739509 1.477768 1.989161 0.005786 -0.005734 -687117.000000 1 0 0
8.885973 7.100565 14.732124 18.612201 0.674177 0.657487 0.017695 -0.001799 157049.000000 1 0 0
11.578673 11.555765 -4.850876 17.062601 0.784408 1.859071 0.016574 0.008485 254067.000000 1 0 0
-3.212527 17.105565 4.671824 18.020727 -1.385153 1.308554 -0.002439 -0.001901 -332916.000000 1 0 0
3.953173 15.428765 -6.790476 17.314298 1.319971 1.973806 0.004918 -0.007322 -298748.000000 1 0 0
-4.449427 14.127065 9.576424 17.637439 -1.265674 0.996838 0.010672 -0.012286 -632701.000000 1 0 0
6.113473 18.042265 0.558824 19.058073 1.244096 1.541470 0.016009 0.002086 -44769.300000 1 0 0
9.835673 10.806865 -2.134776 14.767737 0.832412 1.715861 0.014240 0.002679 -1778710.000000 1 0 0
7.391173 18.213365 -2.622076 19.830062 1.185291 1.703412 0.021393 -0.001345 79142.600000 1 0 0
3.684673 10.307765 10.429324 15.119445 1.227486 0.809590 0.000980 -0.003303 1833680.000000 1 0 0
-0.050527 18.794865 2.183524 18.921344 -1.568108 1.455139 0.004399 -0.000858 391218.000000 1 0 0
-0.918727 17.123765 -7.419676 18.684725 -1.517196 1.979150 0.013576 -0.005801 -289213.000000 1 0 0
10.107473 8.635165 12.888224 18.515761 0.707005 0.800890 0.011788 -0.002819 -61139.000000 1 0 0
3.677273 11.331465 5.503824 13.123129 1.257000 1.138013 0.008416 -0.000754 721960.000000 1 0 0
13.328173 14.041465 8.009324 20.951186 0.811454 1.178528 0.004818 -0.003194 7219.750000 1 0 0
-0.527427 17.346065 6.812324 18.643280 -1.540400 1.196730 0.003992 -0.008355 -608019.000000 1 0 0
12.140673 13.720165 5.632224 19.166659 0.846399 1.272539 0.010452 -0.005545 -1025120.000000 1 0 0
4.857273 14.691565 -4.501276 16.115107 1.251493 1.853882 0.005549 -0.002473 -573042.000000 1 0 0
3.815873 17.624065 4.691024 18.632612 1.357573 1.316294 0.013388 -0.005444 -559180.000000 1 0 0
6.926073 11.613265 2.115424 13.686249 1.033033 1.415609 0.016062 -0.000136 604335.000000 1 0 0
6.516073 8.687265 11.725824 15.981950 0.927249 0.747057 0.002304 -0.006722 402215.000000 1 0 0
-5.362727 14.996265 1.792724 16.026873 -1.227363 1.458704 -0.004378 0.006269 -61562.900000 1 0 0
6.803573 13.801565 6.078124 16.544346 1.112799 1.194602 0.009774 -0.003128 -2272520.000000 1 0 0
5.857873 15.835465 4.900424 17.580978 1.216486 1.288320 0.008662 -0.005224 602811.000000 1 0 0
1.277673 18.020765 4.271624 18.564137 1.500015 1.338615 0.012748 -0.004928 -714455.000000 1 0 0
7.497173 18.043965 -7.006776 20.757822 1.177004 1.915108 0.017558 -0.005975 219064.000000 1 0 0
-2.380627 18.858065 -6.128876 19.971407 -1.445221 1.882712 0.006997 0.002020 -778522.000000 1 0 0
13.537973 10.025465 -4.725276 17.496139 0.637422 1.844268 0.012197 0.004990 -2059460.000000 1 0 0
-1.535127 18.075065 9.660524 20.552136 -1.486069 1.081449 0.006567 -0.013200 -827740.000000 1 0 0
3.436673 11.833465 -1.499776 12.413337 1.288152 1.691912 0.006239 -0.001560 -487501.000000 1 0 0
4.237673 14.069465 -10.745976 18.203948 1.278242 2.202239 0.009387 -0.016767 -418943.000000 1 0 0
11.594573 13.534565 2.394024 17.981933 0.862446 1.437265 0.019981 -0.005705 451628.000000 1 0 0
15.929273 6.179565 -6.979976 18.456674 0.370065 1.958628 0.005337 0.004800 305217.000000 1 0 0
2.516573 16.101165 2.979924 16.566852 1.415753 1.389939 0.010166 0.000261 286971.000000 1 0 0
13.553173 10.634265 3.475524 17.574281 0.665300 1.371722 0.013722 0.001105 -484134.000000 1 0 0
-4.900827 19.443665 -5.813776 20.877600 -1.323887 1.852997 -0.008173 -0.004287 277440.000000 1 0 0
5.600473 12.164565 0.033124 13.391902 1.139334 1.568323 0.009416 -0.001283 316974.000000 1 0 0
4.972973 15.261665 9.777624 18.794967 1.255798 1.023681 0.006891 -0.011168 -184649.000000 1 0 0
7.846673 9.329965 13.988424 18.555175 0.871540 0.716845 0.001303 -0.006519 -2038940.000000 1 0 0
-4.984627 13.681265 7.113924 16.205907 -1.221404 1.116343 -0.002029 -0.005135 -2077130.000000 1 0 0
-4.579927 17.296365 0.606324 17.902726 -1.311946 1.536922 -0.002644 0.008840 -1134770.000000 1 0 0
-0.636127 16.529265 3.558524 16.919939 -1.532330 1.358899 0.000300 -0.002757 -1784700.000000 1 0 0
7.998073 16.851665 -4.770976 19.253830 1.127661 1.821198 0.018118 -0.002765 867300.000000 1 0 0
3.114873 16.462565 -4.525676 17.355121 1.383797 1.834615 0.002930 -0.003896 -326825.000000 1 0 0
9.656873 14.540365 8.213224 19.290787 0.984543 1.130996 0.014390 -0.003936 359016.000000 1 0 0
12.868773 10.931665 8.934024 19.102968 0.704188 1.084135 0.002876 -0.003283 1003510.000000 1 0 0
3.781873 12.229465 12.113524 17.623843 1.270882 0.812980 0.000564 -0.005537 382423.000000 1 0 0
-3.247727 19.248765 6.136324 20.462579 -1.403647 1.266229 0.011432 -0.008872 137838.000000 1 0 0
-2.670727 15.821065 10.223724 19.025336 -1.403565 1.003476 0.009077 -0.014894 -1429310.000000 1 0 0
2.081173 14.268965 7.702224 16.348054 1.425964 1.080213 0.010116 -0.004381 -295912.000000 1 0 0
4.473173 17.191865 8.048424 19.502477 1.316249 1.145394 0.013112 -0.007673 -47662.800000 1 0 0
-1.920627 13.506965 9.503824 16.626773 -1.429548 0.962345 0.003981 -0.005359 -935272.000000 1 0 0
5.825573 17.834065 3.123024 19.019580 1.255069 1.405849 0.010667 -0.006217 528201.000000 1 0 0
7.265773 15.460565 -6.824276 18.395414 1.131472 1.950857 0.016554 -0.004000 -133790.000000 1 0 0
11.147673 7.740465 9.413724 16.516767 0.606929 0.964352 0.005954 0.002791 151851.000000 1 0 0
9.111473 16.283065 -2.715076 18.855471 1.060637 1.715293 0.019705 -0.004829 -215727.000000 1 0 0
14.565373 11.170265 -6.724576 19.548525 0.654233 1.921964 0.023782 0.005808 575701.000000 1 0 0
10.998073 6.373965 15.983624 20.422078 0.525249 0.671862 0.027229 -0.002099 -1523530.000000 1 0 0
8.652973 8.548165 10.212324 15.881959 0.779305 0.872369 0.007142 0.000081 1134160.000000 1 0 0
16.470773 9.430865 4.354924 19.472877 0.520015 1.345248 0.012859 -0.004897 55548.700000 1 0 0
-3.540727 14.498265 4.642924 15.629881 -1.331268 1.269190 -0.001371 0.001618 -1839860.000000 1 0 0
4.819973 14.671065 12.735224 20.016448 1.253370 0.881184 -0.005532 -0.001395 -923472.000000 1 0 0
16.111473 10.566565 -4.719776 19.837040 0.580470 1.811028 0.016521 0.002982 75479.400000 1 0 0
14.617073 14.079365 5.838924 21.118247 0.766663 1.290659 0.000022 -0.004457 -1447270.000000 1 0 0
6.388873 9.477465 9.242424 14.699062 0.977657 0.890818 0.006727 -0.004066 397170.000000 1 0 0
10.593573 12.273165 8.610424 18.357390 0.858718 1.082588 0.004836 0.000016 283559.000000 1 0 0
8.050273 11.418865 -0.274376 13.973999 0.956724 1.590432 0.009840 -0.000978 -828993.000000 1 0 0
7.346073 13.640465 -8.689176 17.763132 1.076786 2.081933 0.023382 -0.004125 262914.000000 1 0 0
2.713773 15.331865 -2.228876 15.728907 1.395609 1.712981 0.000031 0.001354 364647.000000 1 0 0
12.308373 13.953265 -7.877476 20.205056 0.847951 1.971294 0.021404 -0.001109 531855.000000 1 0 0
-7.934727 14.558565 9.973524 19.348976 -1.071784 1.029258 0.014997 -0.019874 159578.000000 1 0 0
11.486473 9.675765 2.142924 15.170748 0.700043 1.429069 0.017152 -0.000085 -1267130.000000 1 0 0
12.078273 8.610365 4.379824 15.466283 0.619318 1.283683 0.006288 0.000624 550970.000000 1 0 0
14.153873 7.999865 5.878524 17.288349 0.514443 1.223850 0.010619 -0.000401 -2267570.000000 1 0 0
16.294773 7.378065 7.063024 19.231271 0.425169 1.194727 0.017749 -0.000746 -465192.000000 1 0 0
13.623073 8.293665 2.266124 16.109262 0.546862 1.429656 0.006499 -0.001695 -2187360.000000 1 0 0
-4.255527 17.355765 -7.190176 19.262157 -1.330346 1.953338 -0.003814 -0.004057 -11329.100000 1 0 0
2.977173 19.531865 -4.165876 20.191875 1.419534 1.778603 0.003388 -0.005470 295865.000000 1 0 0
-0.068227 14.840965 6.277424 16.114122 -1.566199 1.170642 0.003835 -0.003381 -793625.000000 1 0 0
6.836173 16.130665 8.295524 19.384203 1.169943 1.128570 0.013819 -0.009234 288934.000000 1 0 0
12.823373 15.246765 -2.084676 20.031191 0.871518 1.675057 0.027850 0.000135 -161226.000000 1 0 0
12.550373 15.827365 4.159124 20.623182 0.900366 1.367731 0.017937 -0.004768 -661136.000000 1 0 0
3.008873 18.131765 1.287324 18.424750 1.406350 1.500870 0.021729 -0.002900 -662428.000000 1 0 0
10.450573 14.694665 -1.144676 18.068147 0.952605 1.634192 0.025470 0.014630 -1322750.000000 1 0 0
-6.338127 15.796065 -0.525676 17.028325 -1.189215 1.601672 -0.001577 0.005660 356656.000000 1 0 0
-3.866027 15.973365 -2.445876 16.615560 -1.333333 1.718537 -0.003352 0.006167 -1602170.000000 1 0 0
-6.847227 17.135565 1.642124 18.525892 -1.190642 1.482040 -0.003247 0.005706 -683936.000000 1 0 0
0.138073 19.343765 -6.538976 20.419562 1.563659 1.896770 0.016024 -0.009205 -159975.000000 1 0 0
4.791673 14.815365 7.114024 17.119127 1.257989 1.142238 0.011019 -0.002807 -406566.000000 1 0 0
8.772073 12.497965 6.864924 16.741433 0.958810 1.148281 0.009247 -0.001004 526286.000000 1 0 0
-7.505727 17.559965 -5.804476 19.959465 -1.166866 1.865873 0.006817 -0.001733 205625.000000 1 0 0
-7.959327 17.809365 -1.260776 19.547734 -1.150508 1.635338 0.015280 -0.003811 315463.000000 1 0 0
-13.811327 -9.215435 9.239424 19.001157 0.588398 1.062997 0.019478 -0.006918 1332600.000000 1 0 0
-12.584927 -13.175635 7.651724 19.761747 0.808325 1.173205 0.006115 0.003507 -272480.000000 1 0 0
-3.779927 -15.017935 12.504024 19.904192 1.324224 0.891545 -0.001350 -0.010189 410150.000000 1 0 0
-2.176327 -14.144435 14.943524 20.690828 1.418129 0.763776 0.000627 -0.004756 -1978200.000000 1 0 0
-7.227027 -13.761235 12.796724 20.133496 1.087214 0.882019 0.022563 -0.009031 424134.000000 1 0 0
-9.701927 -11.619635 8.975324 17.598288 0.875099 1.035599 0.006167 -0.005915 547171.000000 1 0 0
-10.675627 -10.796235 11.224924 18.881913 0.791015 0.934177 0.020698 -0.010313 563749.000000 1 0 0
-6.002227 -12.344735 10.843824 17.493077 1.118235 0.902191 0.010319 -0.004250 891529.000000 1 0 0
-12.402427 -10.542835 7.343224 17.857618 0.704530 1.147016 0.006486 0.000942 -332717.000000 1 0 0
-7.649927 -11.179935 12.711624 18.576806 0.970716 0.817189 0.019515 -0.009125 201176.000000 1 0 0
-14.716327 -11.813035 7.327024 20.243601 0.676395 1.200445 0.010734 0.005708 44946.800000 1 0 0
-11.104227 -9.299735 9.215824 17.167421 0.697189 1.004132 0.015239 -0.002593 170531.000000 1 0 0
-5.255527 -11.968535 13.285624 18.637977 1.157034 0.777278 0.013141 -0.009995 147647.000000 1 0 0
4.035073 -12.391335 14.757424 19.687777 -1.255989 0.723380 -0.000664 0.000278 -1037400.000000 1 0 0
6.542073 -12.860735 14.182124 20.231902 -1.100224 0.794028 0.011674 0.003408 -520740.000000 1 0 0
6.801173 -8.573935 16.041824 19.419280 -0.900192 0.598685 0.005170 0.006975 586328.000000 1 0 0
0.849273 -1.841335 14.392224 14.534369 -1.138646 0.139971 0.002964 -0.001966 -3660080.000000 1 0 0
-0.072027 -6.263835 15.631324 16.839807 1.559298 0.381153 -0.000148 -0.007115 334205.000000 1 0 0
-1.286627 -4.721335 18.265424 18.909578 1.304743 0.261764 0.017072 -0.021612 -1211630.000000 1 0 0
-5.039527 12.483965 13.210224 18.861501 -1.187122 0.794866 0.016488 -0.014176 -581642.000000 1 0 0
-3.929227 8.871765 11.661224 15.170075 -1.153870 0.693991 0.003561 0.000917 -243771.000000 1 0 0
-0.524227 -3.894535 15.025724 15.531085 1.436995 0.255799 0.006207 -0.005908 85174.200000 1 0 0
-4.173327 9.391365 14.171524 17.505613 -1.152626 0.627425 0.006163 -0.005534 316129.000000 1 0 0
-13.348327 -2.593435 16.842524 21.646578 0.191898 0.679211 0.004855 0.003185 -660051.000000 1 0 0
-0.288127 0.978065 17.394524 17.424382 -1.284311 0.058550 0.009604 0.002255 -2534860.000000 1 0 0
-3.221927 -7.264535 15.431024 17.357154 1.153349 0.475575 0.013991 -0.013205 319436.000000 1 0 0
-7.339727 5.582765 12.553124 15.576257 -0.650265 0.633579 -0.002398 0.001511 -540328.000000 1 0 0
-9.915427 10.271165 13.310124 19.518502 -0.803019 0.820407 0.009903 -0.008082 -131082.000000 1 0 0
-5.490827 2.147465 11.096024 12.565132 -0.372811 0.488409 -0.001793 0.004790 -2174930.000000 1 0 0
-6.834427 -7.390835 16.788424 19.575112 0.824492 0.540131 0.017701 -0.018180 -152998.000000 1 0 0
-4.608127 3.046365 18.680224 19.479885 -0.584129 0.287523 0.013394 -0.003140 -813279.000000 1 0 0
1.045073 -8.395735 16.601124 18.632710 -1.446957 0.471327 -0.004704 -0.004577 677012.000000 1 0 0
-14.712027 -3.800635 13.836224 20.550661 0.252808 0.832169 0.006101 -0.005846 109344.000000 1 0 0
-14.167027 1.992365 13.202624 19.467497 -0.139718 0.825502 -0.000684 0.004379 -338279.000000 1 0 0
-5.403727 0.821565 16.166124 17.065134 -0.150881 0.326038 0.015628 -0.001533 369586.000000 1 0 0
4.628273 5.785665 15.149624 16.864339 0.896083 0.454859 0.005196 -0.000826 -317993.000000 1 0 0
-1.096727 -11.965335 13.902724 18.375467 1.479393 0.712712 -0.007181 -0.008465 -194683.000000 1 0 0
-5.830627 -4.259635 16.812524 18.297586 0.630944 0.405670 0.023720 -0.012131 690642.000000 1 0 0
-12.850327 -1.599435 9.914824 16.309287 0.123830 0.917352 0.003972 0.003850 -761588.000000 1 0 0
-14.773927 10.274365 10.223624 20.696714 -0.607658 1.054143 0.007314 0.005348 435248.000000 1 0 0
-3.449127 -3.369835 17.670124 18.316264 0.773771 0.266407 0.025947 -0.016345 -2108070.000000 1 0 0
-7.857627 9.465065 11.852324 17.082369 -0.877927 0.803997 0.002437 -0.006570 246530.000000 1 0 0
-4.067927 10.541365 16.504124 20.001362 -1.202503 0.600329 0.016871 -0.010854 240745.000000 1 0 0
-12.293227 12.890365 7.956724 19.508828 -0.809105 1.150696 0.002270 -0.018023 -533384.000000 1 0 0
-12.541527 3.210465 10.638024 16.756030 -0.250605 0.882947 -0.000004 -0.001877 862852.000000 1 0 0
-10.055927 -3.574935 13.749624 17.405573 0.341571 0.660060 0.008040 -0.000736 -1225860.000000 1 0 0
-3.948627 -6.392735 17.826724 19.345563 1.017482 0.398899 0.030906 -0.014281 -583835.000000 1 0 0
1.090273 -3.688335 17.815224 18.225661 -1.283381 0.212625 0.001629 -0.012598 5907.630000 1 0 0
-5.776327 1.714665 13.705624 14.971645 -0.288558 0.414200 0.003831 0.006708 -916682.000000 1 0 0
-10.518927 8.753965 10.375724 17.173682 -0.694075 0.922080 0.005431 -0.007727 229515.000000 1 0 0
4.596273 2.574165 17.202124 17.990695 0.510530 0.297174 0.003411 -0.003584 336742.000000 1 0 0
0.597773 -5.366635 13.184924 14.247818 -1.459867 0.388708 0.001290 -0.001098 -2008880.000000 1 0 0
-3.942327 5.809665 20.806524 21.959180 -0.974591 0.325443 0.024489 -0.008221 -105249.000000 1 0 0
-10.907227 10.921665 9.058924 17.897331 -0.786060 1.040069 0.015119 -0.012720 1047390.000000 1 0 0
0.614473 4.156365 13.043024 13.703044 1.424020 0.311633 -0.000806 -0.001384 -2144930.000000 1 0 0
-3.187427 7.089865 13.364424 15.460715 -1.148296 0.526817 0.005635 0.001096 -840169.000000 1 0 0
0.884673 8.891765 14.183024 16.763183 1.471629 0.562205 0.008526 -0.004374 302090.000000 1 0 0
-4.012927 -6.665135 13.060824 15.202392 1.028851 0.537230 0.009461 -0.008100 -42169.000000 1 0 0
-4.981227 8.171765 16.360124 18.953733 -1.023373 0.529299 0.019991 -0.007205 -368673.000000 1 0 0
1.460473 -10.789835 15.717824 19.120761 -1.436258 0.605831 -0.016259 0.000373 -528530.000000 1 0 0
-15.149027 -1.294235 14.353324 20.908992 0.085227 0.814178 0.008957 0.002667 624704.000000 1 0 0
-13.628027 -5.442335 8.530524 16.973861 0.379945 1.044229 0.020442 -0.000714 12209.300000 1 0 0
-14.116927 -1.989635 12.113624 18.707917 0.140017 0.866480 0.014045 0.000746 486316.000000 1 0 0
9.460173 1.176265 16.880624 19.386437 0.123704 0.514083 0.010038 -0.001676 402869.000000 1 0 0
5.213773 -6.707035 16.667324 18.707417 -0.910014 0.471369 -0.002903 -0.003341 68702.000000 1 0 0
-6.146027 -2.667435 11.137624 12.997520 0.409477 0.541564 -0.001652 -0.001070 -30689.900000 1 0 0
0.807473 -6.315135 18.026324 19.117565 -1.443623 0.339506 0.004899 -0.013503 98600.600000 1 0 0
-8.316727 12.037965 12.139524 19.011801 -0.966221 0.878215 0.009416 -0.011870 -211966.000000 1 0 0
-6.572127 -5.910835 14.811024 17.248109 0.732472 0.538061 0.019912 -0.009401 -530928.000000 1 0 0
-4.153027 -8.856035 17.243724 19.824808 1.132297 0.515989 0.029154 -0.012090 -338375.000000 1 0 0
2.637673 -6.267735 16.255024 17.620092 -1.172460 0.396216 -0.003564 -0.004755 -934272.000000 1 0 0
2.349873 5.203465 16.046924 17.032373 1.146614 0.341831 0.008035 -0.002487 -979067.000000 1 0 0
0.881973 -8.888835 14.014724 16.619319 -1.471897 0.567441 -0.005800 -0.002940 -369159.000000 1 0 0
-9.750127 -2.849635 11.306024 15.199065 0.284347 0.731964 -0.007072 0.002084 -530607.000000 1 0 0
-1.086227 10.102665 12.492524 16.103008 -1.463689 0.682833 0.000471 -0.005934 -343531.000000 1 0 0
-12.230727 -3.726235 11.427524 17.148289 0.295728 0.841434 0.004925 0.002980 -1383470.000000 1 0 0
-1.708127 6.948265 19.861524 21.111045 -1.329741 0.345778 0.019490 -0.007681 550351.000000 1 0 0
0.098873 -13.395735 15.754624 20.680031 -1.563416 0.704666 -0.016498 -0.006315 -783675.000000 1 0 0
4.203173 -8.715135 15.336224 18.133395 -1.121421 0.562837 0.004035 -0.001749 -110425.000000 1 0 0
4.558673 -4.381435 16.196924 17.387318 -0.765576 0.372180 -0.004768 0.003103 756287.000000 1 0 0
7.903173 1.925965 14.880124 16.958407 0.239036 0.500280 -0.000808 0.000891 -79918.100000 1 0 0
-6.350827 -0.076635 11.854224 13.448476 0.012066 0.491862 -0.001208 0.004365 342305.000000 1 0 0
-3.177227 -10.988235 18.323124 21.600300 1.289325 0.558066 0.020059 -0.010207 175821.000000 1 0 0
3.365273 -1.582735 13.516424 14.018696 -0.439618 0.268495 -0.007575 0.002852 406012.000000 1 0 0
-2.402127 8.681265 15.949624 18.317343 -1.300848 0.514093 0.014559 -0.007141 35248.100000 1 0 0
-3.279527 4.105565 14.920024 15.818283 -0.896787 0.338620 0.005872 0.003065 -725621.000000 1 0 0
-4.519027 -9.174135 19.810224 22.294200 1.113100 0.476552 0.036892 -0.010414 175306.000000 1 0 0
-5.652427 -2.981635 19.140624 20.179285 0.485402 0.322240 0.028107 -0.012110 -446062.000000 1 0 0
-6.548027 -8.608935 11.251524 15.607281 0.920540 0.765675 0.014572 -0.007321 -328855.000000 1 0 0
-11.527927 2.432965 12.836024 17.423430 -0.207997 0.742604 -0.005961 -0.001789 266161.000000 1 0 0
-11.524327 -7.630635 11.755224 18.144476 0.584857 0.866014 0.009044 -0.005700 -1499580.000000 1 0 0
-10.968027 -7.357035 15.711924 20.525305 0.590839 0.698993 0.020128 -0.017787 -57671.800000 1 0 0
0.400073 5.416665 17.727824 18.541199 1.497071 0.297298 0.010039 -0.006234 -355414.000000 1 0 0
-2.210527 -0.164535 13.241424 13.425677 0.074296 0.165864 0.008163 0.000508 -162483.000000 1 0 0
-5.790127 -10.782635 18.075124 21.828901 1.077999 0.595200 0.023805 -0.008967 91849.100000 1 0 0
0.519273 2.577365 19.321224 19.499286 1.371983 0.135245 0.016057 -0.002436 -221098.000000 1 0 0
-0.468027 10.973565 14.785424 18.418657 -1.528172 0.638918 0.016116 -0.008854 -260325.000000 1 0 0
-12.680127 -2.280335 14.282624 19.234835 0.177933 0.733943 0.006300 -0.001181 -657972.000000 1 0 0
-13.808027 8.355165 11.658524 19.909585 -0.544157 0.945209 0.007195 -0.003453 -54595.100000 1 0 0
-17.933127 -0.490435 7.180524 19.323496 0.027341 1.190069 0.020168 -0.008967 101526.000000 1 0 0
-1.873727 -7.839835 17.618824 19.375160 1.336196 0.429075 0.009920 -0.013504 -2157470.000000 1 0 0
5.641473 2.647765 14.354724 15.649121 0.438820 0.409585 0.005550 -0.000678 -4678010.000000 1 0 0
-13.975327 -7.018635 11.180024 19.224046 0.465419 0.950146 0.011805 -0.004774 492805.000000 1 0 0
3.195573 7.691265 16.224524 18.237391 1.177016 0.474263 0.004719 -0.016925 -664748.000000 1 0 0
1.053173 2.028565 14.498324 14.677385 1.091929 0.156363 0.001195 -0.001051 -2894010.000000 1 0 0
-14.092527 0.774065 9.665724 17.106277 -0.054872 0.970315 0.005119 -0.005333 -1804260.000000 1 0 0
-9.481427 -5.209935 15.636324 19.014087 0.502450 0.605259 0.011733 -0.004186 134742.000000 1 0 0
-2.598027 0.065865 18.218324 18.402755 -0.025346 0.141695 0.018437 -0.005128 204723.000000 1 0 0
6.939273 3.695465 17.465824 19.153720 0.489342 0.422964 0.019066 -0.002313 -291834.000000 1 0 0
-4.019627 -0.956835 14.878624 15.441709 0.233692 0.270884 0.012532 0.000666 -246249.000000 1 0 0
4.744673 -8.974735 17.824024 20.512280 -1.084477 0.517732 -0.005398 0.005040 24217.800000 1 0 0
1.909373 6.809765 13.531924 15.268646 1.297428 0.481599 0.003797 -0.003220 -965872.000000 1 0 0
-3.646927 -0.947435 20.339424 20.685499 0.254171 0.183179 0.032375 -0.009567 -1154860.000000 1 0 0
-10.577927 1.540365 16.519424 19.676296 -0.144604 0.574324 0.004494 0.006409 27353.800000 1 0 0
-3.931727 7.184965 18.542024 20.270393 -1.070093 0.415946 0.025801 -0.001233 222778.000000 1 0 0
-12.439327 0.991665 14.776924 19.341089 -0.079552 0.701280 -0.001631 0.002853 351424.000000 1 0 0
-16.067727 -4.653035 8.657224 18.835342 0.281878 1.093222 0.027944 -0.001144 -1554670.000000 1 0 0
-2.284227 0.856265 15.796724 15.983972 -0.358648 0.153217 0.012766 -0.000017 -95955.300000 1 0 0
-13.501027 -9.207735 12.449924 20.544117 0.598545 0.919762 -0.008309 -0.010002 565351.000000 1 0 0
6.189373 -3.149235 14.519024 16.094349 -0.470673 0.446140 -0.005397 0.002710 595682.000000 1 0 0
-15.612927 0.746765 7.610324 17.384999 -0.047793 1.117699 0.008784 -0.004222 683436.000000 1 0 0
-14.031127 5.852865 12.478324 19.668175 -0.395190 0.883509 -0.002814 -0.001634 452719.000000 1 0 0
0.675473 9.624665 16.761124 19.339744 1.500730 0.522314 0.015435 -0.009951 -507725.000000 1 0 0
-10.277327 -5.476035 10.996524 16.016677 0.489563 0.814039 0.004621 -0.002682 -23505.400000 1 0 0
-3.308627 -10.915535 15.030324 18.868136 1.276487 0.649149 0.016073 -0.011879 62438.500000 1 0 0
-3.502827 2.736165 12.659624 13.417245 -0.663129 0.337656 0.005016 0.003815 -1967080.000000 1 0 0
-12.373727 -7.850235 7.466824 16.446543 0.565350 1.099540 0.016399 -0.000625 395315.000000 1 0 0
-8.131327 -1.943235 13.328224 15.733283 0.234582 0.560225 0.001106 0.000572 -760456.000000 1 0 0
-9.759827 6.494565 9.521824 15.102937 -0.587152 0.888648 -0.001175 -0.002780 -714997.000000 1 0 0
-17.840927 -3.701635 6.787224 19.443950 0.204577 1.214222 0.015962 -0.000726 30776.500000 1 0 0
-1.216827 -0.073435 20.414624 20.450988 0.060277 0.059643 0.019011 -0.004839 -1794760.000000 1 0 0
-2.697527 2.680365 20.210024 20.564680 -0.782207 0.185988 0.023184 -0.003925 -583969.000000 1 0 0
-3.746427 11.296665 11.322824 16.427315 -1.250570 0.810318 0.006493 -0.011292 -369015.000000 1 0 0
-4.138527 -4.859635 14.846424 16.160438 0.865367 0.406047 0.013921 -0.011398 -810923.000000 1 0 0
-0.181627 -14.358235 13.356224 19.610727 1.558147 0.821577 -0.006287 -0.005488 -779036.000000 1 0 0
-11.889927 0.429965 8.405124 14.567132 -0.036146 0.955755 -0.001583 0.000048 -666423.000000 1 0 0
-7.678627 1.922865 15.358424 17.278307 -0.245372 0.475891 0.004844 0.001520 423663.000000 1 0 0
3.726273 -2.198235 18.534524 19.032759 -0.532981 0.229315 -0.003448 0.004627 -157136.000000 1 0 0
-2.069627 4.916365 12.689424 13.765009 -1.172347 0.397941 0.001463 0.000742 -546715.000000 1 0 0
-10.349227 -6.274935 13.495224 18.127393 0.545053 0.731062 0.008817 -0.008479 -292674.000000 1 0 0
2.435073 -3.828035 14.221524 14.927665 -1.004244 0.308810 -0.004771 0.000315 -400443.000000 1 0 0
6.887973 1.114065 17.170224 18.533804 0.160352 0.385987 0.002025 0.007912 -731973.000000 1 0 0
-1.864727 -5.676435 13.854624 15.088066 1.253399 0.407157 0.005991 -0.007472 -2891460.000000 1 0 0
-12.819527 3.575765 14.781224 19.889971 -0.272017 0.733031 -0.009460 0.006572 248812.000000 1 0 0
-13.340627 -6.770535 13.543424 20.180109 0.469640 0.835068 0.016169 -0.009711 -116488.000000 1 0 0
-9.471327 6.895365 11.989324 16.762934 -0.629288 0.773846 -0.001338 0.001323 -70929.400000 1 0 0
-1.108827 -2.484435 12.892624 13.176557 1.151016 0.207972 0.003808 0.000122 498095.000000 1 0 0
0.191273 6.664965 15.417424 16.797479 1.542106 0.408188 0.007541 -0.004910 231899.000000 1 0 0
-16.178927 -0.672235 9.828424 18.942215 0.041526 1.025275 0.012948 -0.002917 71135.300000 1 0 0
-1.355527 2.745465 13.862624 14.196738 -1.112175 0.217382 0.006624 0.000845 -1329320.000000 1 0 0
-11.197127 -3.500235 16.095224 19.916916 0.302977 0.629846 0.015302 -0.006480 226428.000000 1 0 0
-5.105327 -1.589035 17.125824 17.941105 0.301746 0.302623 0.030548 -0.005772 474050.000000 1 0 0
-11.894227 6.665665 11.193724 17.640952 -0.510802 0.883395 -0.000836 0.002110 -1357300.000000 1 0 0
-2.655827 4.848165 18.725424 19.524334 -1.069643 0.287057 0.015882 -0.003425 -74379.500000 1 0 0
5.377873 -1.894635 16.551024 17.505643 -0.338724 0.331768 -0.003845 0.005800 -951578.000000 1 0 0
-7.926827 -4.194935 12.287624 15.212422 0.486740 0.630494 0.006032 -0.002311 -1561400.000000 1 0 0
-11.478327 -0.913135 16.259524 19.923803 0.079386 0.616192 0.011901 0.003126 152493.000000 1 0 0
2.044473 2.073065 17.296124 17.539480 0.792342 0.166775 0.001955 -0.005395 164395.000000 1 0 0
-8.893927 -7.583135 11.805024 16.612178 0.706013 0.780411 0.014254 -0.006067 22899.700000 1 0 0
-7.248327 6.938365 14.902324 17.965478 -0.763553 0.592588 -0.000209 -0.000518 -480842.000000 1 0 0
-5.605827 3.405065 15.836024 17.140578 -0.545854 0.392669 0.007742 0.001365 175799.000000 1 0 0
-9.265127 4.312965 11.544924 15.418479 -0.435673 0.724589 -0.009829 0.000576 -18128.100000 1 0 0
-10.050027 0.091165 14.416324 17.573894 -0.009071 0.608815 -0.003019 0.008049 -827134.000000 1 0 0
7.990373 -0.595235 15.661124 17.591793 -0.074357 0.472899 -0.009506 0.003216 -100049.000000 1 0 0
-8.528227 -7.515235 14.849024 18.700346 0.722341 0.653352 0.021687 -0.011586 -2419690.000000 1 0 0
0.063473 4.081765 15.615024 16.139820 1.555247 0.255708 0.006463 -0.001595 85140.600000 1 0 0
-7.989827 3.080565 9.672324 12.918245 -0.367997 0.724647 -0.009437 0.004928 -220145.000000 1 0 0
-2.063327 -9.698435 13.055224 16.393774 1.361173 0.649556 -0.003505 -0.007090 412900.000000 1 0 0
-6.005527 10.384865 10.508224 15.947869 -1.046488 0.851426 0.008839 -0.009164 -1181860.000000 1 0 0
-8.532827 -2.831435 15.794224 18.173708 0.320396 0.517477 0.013044 -0.008338 835526.000000 1 0 0
4.277873 5.908265 17.779924 19.218051 0.944112 0.389319 0.009971 0.000244 354066.000000 1 0 0
-6.673527 -1.029935 15.209124 16.640738 0.153123 0.417836 0.009365 -0.001292 181497.000000 1 0 0
-0.918227 -9.888435 15.397324 18.322169 1.478203 0.572839 -0.005199 -0.008457 -1158940.000000 1 0 0
-4.366627 5.692765 16.416624 17.915930 -0.916473 0.412018 0.014609 0.001251 335525.000000 1 0 0
3.887573 0.066365 17.437724 17.865941 0.017069 0.219384 0.006156 -0.000351 -573866.000000 1 0 0
1.455373 0.220965 19.121424 19.178003 0.150676 0.076833 0.000470 -0.003226 -766499.000000 1 0 0
-6.450427 6.628265 17.759824 20.023817 -0.798995 0.480130 0.018659 -0.004286 -134185.000000 1 0 0
-11.999827 0.569765 11.026624 16.306652 -0.047445 0.828199 0.003568 -0.000802 -282876.000000 1 0 0
-5.420627 5.238265 14.040224 15.935824 -0.768291 0.492723 0.006324 0.003442 -1311530.000000 1 0 0
-8.608427 -9.550135 10.093724 16.346050 0.837212 0.905233 0.016114 -0.003320 -283415.000000 1 0 0
7.100073 -3.769335 16.936024 18.746942 -0.488051 0.443158 -0.002749 0.004877 -499537.000000 1 0 0
-16.410127 1.970665 9.698524 19.163433 -0.119516 1.040145 0.006787 -0.002549 307617.000000 1 0 0
-4.093627 -9.573935 11.296624 15.363324 1.166742 0.744690 0.004289 -0.005593 -728705.000000 1 0 0
-10.897027 -3.857635 9.262824 14.813050 0.340241 0.895261 0.000852 0.003173 -40356.000000 1 0 0
3.789773 -5.552735 18.477824 19.662788 -0.971908 0.348940 -0.007762 -0.002452 -152125.000000 1 0 0
2.722073 -1.855135 16.079424 16.413381 -0.598212 0.202069 -0.002426 0.000326 484509.000000 1 0 0
-2.975427 -4.212435 20.162124 20.811271 0.955826 0.250422 0.031857 -0.018478 -796903.000000 1 0 0
-6.271227 -3.452835 14.459424 16.134599 0.503291 0.459724 0.014297 -0.003730 620043.000000 1 0 0
-9.739627 5.130965 13.822124 17.670264 -0.484867 0.672567 0.002116 -0.000778 802767.000000 1 0 0
-5.691027 -5.156435 11.827824 14.102270 0.736155 0.575872 0.004447 -0.001845 -461161.000000 1 0 0
6.029073 2.132865 19.407324 20.433870 0.340023 0.318320 0.010416 -0.004436 153100.000000 1 0 0
-2.590927 11.919665 13.496224 18.191739 -1.356760 0.734915 0.011958 -0.017201 -1901550.000000 1 0 0
3.415773 1.388465 15.174324 15.615872 0.386085 0.238369 -0.002208 0.001082 -959455.000000 1 0 0
-5.696927 7.646965 12.968524 16.097008 -0.930508 0.634028 0.000825 -0.000925 -1300950.000000 1 0 0
-1.558027 -1.580035 15.326724 15.486524 0.792411 0.143781 0.015587 -0.000732 -104787.000000 1 0 0
-7.468827 10.533465 14.131224 19.142328 -0.954018 0.740371 0.029058 -0.016091 135851.000000 1 0 0
-10.051127 2.020865 10.729524 14.840206 -0.198413 0.762656 -0.010495 0.001270 -842930.000000 1 0 0
-13.510227 5.209765 9.184824 17.147270 -0.368046 1.005527 -0.007072 -0.002935 -403088.000000 1 0 0
0.620173 -4.767635 20.124124 20.690465 -1.441443 0.234512 0.007578 -0.016768 -105691.000000 1 0 0
-14.280127 -3.014835 7.583624 16.447571 0.208066 1.091586 0.009407 -0.000664 243701.000000 1 0 0
-2.201227 2.618565 17.641124 17.969739 -0.871771 0.191537 0.009598 -0.000579 -423516.000000 1 0 0
-6.194227 -8.553235 14.544324 17.973971 0.944015 0.628027 0.019050 -0.009245 -254368.000000 1 0 0
-7.853327 2.094665 12.139324 14.609091 -0.260655 0.589996 -0.004896 0.005557 -294648.000000 1 0 0
-14.452827 -3.604235 10.165024 18.033370 0.244394 0.971964 0.013005 -0.002751 -230221.000000 1 0 0
-0.561727 7.049665 12.881524 14.695134 -1.491283 0.502078 0.001941 -0.002136 -1405310.000000 1 0 0
-1.689027 -2.216335 19.127624 19.329536 0.919608 0.144665 0.021237 -0.016276 62136.500000 1 0 0
-12.835027 10.473965 7.297224 18.102246 -0.684448 1.155882 0.003424 -0.012006 -324158.000000 1 0 0
-19.527027 2.220865 6.847124 20.811538 -0.113246 1.235545 0.022840 -0.007226 1540790.000000 1 0 0
-16.095527 8.431165 6.907524 19.438735 -0.482522 1.207510 0.003491 0.000695 438752.000000 1 0 0
-12.327227 7.495065 13.594724 19.823043 -0.546288 0.815088 0.006206 0.006522 306025.000000 1 0 0
-15.784327 7.967465 10.183724 20.404257 -0.467457 1.048239 -0.008069 -0.005547 -2315910.000000 1 0 0
2.144373 10.800365 14.878124 18.509586 1.374799 0.637130 0.007201 -0.017613 -710461.000000 1 0 0
2.236573 14.385165 12.360024 19.097262 1.416554 0.866872 -0.008365 -0.013005 222777.000000 1 0 0
-3.231727 13.844665 11.816024 18.486136 -1.341475 0.877361 0.007096 -0.012688 319137.000000 1 0 0
8.989073 4.694265 15.747024 18.729878 0.481264 0.572141 0.021008 -0.002588 92102.800000 1 0 0
-0.171227 12.576965 12.909424 18.023945 -1.557183 0.772401 0.001722 -0.010889 -298576.000000 1 0 0
3.503273 13.367865 14.442024 19.988616 1.314493 0.763367 -0.011732 -0.007379 -15328.800000 1 0 0
-2.950627 -4.108035 -13.800576 14.698233 0.947922 2.790297 -0.002893 -0.002480 -457123.000000 1 0 0
5.899973 -11.659735 16.350524 20.930808 -1.102350 0.674258 0.003634 0.009017 170214.000000 1 0 0
7.648773 -13.652635 7.268424 17.254801 -1.060124 1.135983 -0.006337 -0.003534 -272709.000000 1 0 0
-0.121627 15.621965 1.392324 15.684360 -1.563011 1.481908 -0.002551 0.004227 -2639570.000000 1 0 0
-13.530527 8.295365 9.044324 18.267130 -0.549985 1.052830 -0.009903 -0.002421 -123040.000000 1 0 0
-15.481627 -9.814435 5.041824 19.011152 0.565003 1.302381 0.007716 0.006454 -387569.000000 1 0 0
9.456573 -11.159335 10.907324 18.246294 -0.867806 0.930064 0.002877 -0.004065 251453.000000 1 0 0
-4.752427 -10.891735 -16.529476 20.357776 1.159366 2.518280 -0.003741 0.002562 92894.400000 1 0 0
-2.049427 -12.815135 -15.016876 19.847781 1.412217 2.428897 0.002108 0.015922 -127315.000000 1 0 0
5.298173 -16.058235 -12.286976 20.902329 -1.252107 2.199168 -0.011224 0.014146 210868.000000 1 0 0
2.485573 -11.913735 -16.670876 20.640574 -1.365116 2.510995 -0.009129 0.015659 295271.000000 1 0 0
1.578473 -14.607935 -14.872376 20.906241 -1.463158 2.362263 0.037285 0.042343 343025.000000 1 0 0
-6.715927 -6.045435 -14.220276 16.848359 0.732906 2.575523 -0.001754 -0.006179 -24528.900000 1 0 0
-6.538827 -7.963435 -17.133576 19.993299 0.883318 2.600150 -0.005239 -0.000432 -86323.500000 1 0 0
-2.385627 -16.306735 -13.425376 21.256565 1.425530 2.254395 0.001127 0.008458 339258.000000 1 0 0
16.030873 -8.125535 -9.261276 20.218419 -0.469127 2.046609 0.004293 0.003307 39789.700000 1 0 0
19.067673 -3.024535 -3.979176 19.711870 -0.157310 1.774060 -0.010277 -0.009216 67386.600000 1 0 0
15.678273 -11.672935 -8.963676 21.503794 -0.639991 2.000764 0.023674 0.004111 284095.000000 1 0 0
18.259773 -4.008235 -7.270076 20.058397 -0.216085 1.941687 0.119396 -0.009370 -366647.000000 1 0 0
8.665173 -9.633535 -15.798376 20.432301 -0.838269 2.454677 0.020594 0.003300 243792.000000 1 0 0
-4.401027 10.230665 -16.229476 19.683278 -1.164546 2.540169 -0.008538 0.004405 324289.000000 1 0 0
2.512973 -9.695835 -18.433376 20.978885 -1.317196 2.643852 0.001630 0.015292 274035.000000 1 0 0
11.201873 7.902165 -15.037476 20.348264 0.614363 2.402389 0.021721 -0.027975 357435.000000 1 0 0
18.478073 -6.506535 -8.736576 21.449987 -0.338564 1.990292 0.014269 -0.000012 372306.000000 1 0 0
12.161173 5.097965 -14.081076 19.291451 0.396948 2.388991 0.001174 -0.000054 99476.900000 1 0 0
15.987273 6.136365 -10.744976 20.216389 0.366488 2.131165 0.010866 -0.000022 372994.000000 1 0 0
3.352073 -0.407335 -19.289276 19.582607 -0.120925 2.968291 0.012240 -0.000089 226126.000000 1 0 0
10.248973 -1.803935 -14.598376 17.927862 -0.174227 2.522291 0.006768 -0.007435 185125.000000 1 0 0
11.746373 -6.257135 -14.258976 19.505062 -0.489454 2.390641 0.017224 0.009306 411035.000000 1 0 0
10.037973 6.522265 -12.766976 17.501329 0.576206 2.388367 0.006223 -0.004860 504838.000000 1 0 0
9.884273 5.773265 -16.219376 19.851892 0.528636 2.527019 -0.024823 -0.001430 311034.000000 1 0 0
11.008173 -11.385435 -14.863576 21.719436 -0.802243 2.324501 0.006375 0.014561 270664.000000 1 0 0
-1.782327 2.140865 -17.588376 17.807610 -0.876534 2.984516 -0.000192 -0.003171 404666.000000 1 0 0
6.115173 -1.150235 -17.115576 18.211571 -0.185923 2.792896 -0.000818 0.005621 102405.000000 1 0 0
6.494873 -6.015235 -15.686076 18.011647 -0.747077 2.627797 -0.017952 -0.000936 444883.000000 1 0 0
-2.308427 -4.384935 -20.503676 21.094009 1.086217 2.904454 0.027180 -0.016467 446444.000000 1 0 0
15.769373 -0.229635 -13.294476 20.626899 -0.014561 2.271193 0.009741 -0.000942 71751.200000 1 0 0
-4.150727 -0.468635 -18.394176 18.862499 0.112428 2.918292 0.003234 -0.004479 213806.000000 1 0 0
3.575073 9.223865 -17.396276 20.012277 1.201034 2.624541 0.001903 -0.017669 -65021.600000 1 0 0
8.996273 0.432765 -16.282276 18.607330 0.048068 2.636328 -0.001927 -0.031832 3102.370000 1 0 0
4.145273 4.818165 -18.093676 19.177568 0.860328 2.803778 0.001594 -0.003878 276399.000000 1 0 0
-2.108427 -11.094535 -18.474576 21.652809 1.382994 2.592922 0.020344 0.014012 249292.000000 1 0 0
6.111573 -9.363735 -16.420476 19.866125 -0.992536 2.543758 0.001625 0.010086 264934.000000 1 0 0
9.722673 -12.807035 -11.038576 19.503863 -0.921454 2.172404 -0.004060 0.020789 -192482.000000 1 0 0
6.091573 6.869165 -17.450676 19.718488 0.845322 2.657270 0.003465 0.005197 328914.000000 1 0 0
8.200573 1.210065 -20.133676 21.773345 0.146501 2.751027 -0.010701 0.003783 237569.000000 1 0 0
-0.915027 -1.057435 -20.449976 20.497731 0.857471 3.073319 0.019504 -0.002293 35191.200000 1 0 0
-1.312327 6.886165 -19.440676 20.665947 -1.382480 2.795516 0.004645 -0.010147 72319.500000 1 0 0
8.404073 5.778165 -18.053176 20.734821 0.602317 2.627358 -0.005331 -0.005312 203041.000000 1 0 0
12.382473 0.097765 -13.580576 18.378445 0.007895 2.402293 0.022992 0.010956 27148.700000 1 0 0
-4.443627 -2.644535 -19.741976 20.407964 0.536831 2.885418 -0.003861 -0.002672 426923.000000 1 0 0
5.779673 -11.490335 -14.637176 19.485363 -1.104749 2.420657 -0.018045 0.010792 153711.000000 1 0 0
11.257173 2.810365 -15.770176 19.578574 0.244650 2.507284 0.012520 0.002970 -243301.000000 1 0 0
-2.962027 -4.367335 -17.121276 17.916063 0.974836 2.842616 -0.001619 -0.004631 205083.000000 1 0 0
-6.828527 -4.509735 -16.946776 18.819132 0.583670 2.691732 0.000998 -0.018411 983.566000 1 0 0
3.004473 10.267365 -15.314776 18.681221 1.286121 2.531850 -0.000863 -0.012183 199511.000000 1 0 0
16.964673 -6.024435 -10.960676 21.076773 -0.341226 2.117689 0.036164 -0.006927 -39604.100000 1 0 0
9.214173 -2.891535 -17.671376 20.138011 -0.304081 2.641449 -0.014297 -0.001924 110307.000000 1 0 0
-7.410127 -1.444035 -18.545176 20.022956 0.192461 2.754991 -0.008522 0.000937 508026.000000 1 0 0
1.513373 -7.538235 -19.390176 20.858912 -1.372670 2.764087 0.010968 -0.001197 211357.000000 1 0 0
6.193773 10.982365 -13.878076 18.750364 1.057288 2.404089 0.016429 -0.004911 372334.000000 1 0 0
6.061973 -3.704635 -17.918176 19.275188 -0.548561 2.764117 0.012466 -0.012149 596811.000000 1 0 0
4.518773 13.295165 -14.721776 20.344813 1.243165 2.379819 0.018922 -0.013450 158421.000000 1 0 0
8.995273 11.098265 -15.407376 21.011274 0.889679 2.393946 0.024003 -0.022682 75343.100000 1 0 0
16.822073 0.686565 -11.484376 20.380000 0.040791 2.169427 0.003775 0.004315 182211.000000 1 0 0
14.755173 -3.019035 -12.329776 19.464149 -0.201823 2.256814 0.014557 -0.002967 167673.000000 1 0 0
-8.886627 0.276565 -17.301376 19.452153 -0.031111 2.666898 -0.005369 -0.000280 424350.000000 1 0 0
-3.433327 4.791165 -19.027176 19.919248 -0.949019 2.841184 0.014365 0.004954 219187.000000 1 0 0
3.987073 2.081765 -16.748076 17.341527 0.481193 2.879225 -0.001076 -0.007298 502550.000000 1 0 0
-5.110427 14.377365 -13.854076 20.609719 -1.229275 2.307987 -0.007304 -0.007574 168747.000000 1 0 0
0.754273 9.394265 -17.829876 20.167440 1.490677 2.655344 0.002366 -0.006080 224259.000000 1 0 0
1.373473 -4.744035 -19.438576 20.056185 -1.288986 2.892782 0.020594 -0.010132 345802.000000 1 0 0
3.428373 -6.058935 -18.390676 19.664216 -1.055875 2.779720 0.005715 -0.000952 142485.000000 1 0 0
-6.661427 7.660365 -15.888676 18.854862 -0.855035 2.573044 -0.015964 0.000070 54718.900000 1 0 0
-11.756527 3.368765 -16.663676 20.669848 -0.279067 2.508468 0.007017 -0.013737 277141.000000 1 0 0
-4.436227 6.984065 -17.545376 19.398389 -1.004901 2.700946 -0.004316 0.016393 377001.000000 1 0 0
-8.433027 5.575965 -17.350076 20.080649 -0.584212 2.613996 -0.003565 -0.005367 467298.000000 1 0 0
-8.243327 4.401965 -14.881276 17.572197 -0.490479 2.580858 -0.028556 -0.019755 455912.000000 1 0 0
9.434173 14.224965 -12.261176 21.016415 0.985189 2.193717 0.030856 -0.021491 446462.000000 1 0 0
13.255273 9.502465 -12.056376 20.281896 0.621966 2.207366 -0.007403 -0.010694 133077.000000 1 0 0
8.861573 15.581965 -9.832976 20.445354 1.053704 2.072522 0.024555 -0.017467 -121227.000000 1 0 0
7.972173 13.991165 -14.178476 21.455475 1.052878 2.292724 0.036885 -0.026600 274917.000000 1 0 0
3.935173 15.793565 -12.644976 20.611106 1.326606 2.231285 0.026630 -0.021278 185786.000000 1 0 0
11.182873 11.361565 -10.643476 19.168343 0.793324 2.159476 0.026615 -0.029877 221810.000000 1 0 0
15.733773 10.536965 -10.605676 21.703908 0.590102 2.081341 0.018984 0.009447 239598.000000 1 0 0
13.521773 11.316965 -9.999776 20.270855 0.696865 2.086685 0.044808 -0.005481 -77662.200000 1 0 0
11.383273 11.656065 -7.787676 18.057980 0.797238 2.016685 0.019749 0.000668 263152.000000 1 0 0
6.251873 16.648565 -9.863576 20.335947 1.211570 2.077196 0.051599 -0.018221 55.962600 1 0 0
11.404573 13.673865 -10.414676 20.627757 0.875640 2.100047 0.031882 -0.024691 116959.000000 1 0 0
8.065173 -19.533235 -2.165176 21.243406 -1.179223 1.672896 0.020031 0.000667 102395.000000 1 0 0
7.950973 -17.808335 -4.234176 19.957030 -1.150878 1.784586 0.026329 0.021805 185333.000000 1 0 0
3.877673 -18.904535 5.429124 20.047274 -1.368484 1.296556 0.022644 -0.007938 140881.000000 1 0 0
10.297273 -16.693635 -1.868276 19.702836 -1.018088 1.665762 0.012611 -0.031047 539690.000000 1 0 0
-2.138927 -15.261735 7.667124 17.212797 1.431554 1.109140 0.000218 -0.019668 141190.000000 1 0 0
-15.129127 -12.887935 -4.824876 20.451621 0.705574 1.808958 -0.016557 0.012972 106479.000000 1 0 0
-9.419127 -12.669535 -7.030776 17.282040 0.931502 1.989773 0.007060 -0.006057 256771.000000 1 0 0
-11.288627 -15.659335 6.800024 20.466759 0.946189 1.232111 -0.007866 0.004181 79220.500000 1 0 0
-15.843627 -7.836435 -8.157876 19.467439 0.459327 2.003198 0.074111 -0.001407 -55485.200000 1 0 0
5.194673 -15.306135 6.434624 17.397321 -1.243609 1.191935 0.014466 -0.006692 240477.000000 1 0 0
2.836273 -14.125735 9.124624 17.054020 -1.372644 1.006238 0.002758 -0.003194 385566.000000 1 0 0
2.964573 -17.492335 9.675424 20.208521 -1.402913 1.071532 -0.005058 -0.006392 72916.200000 1 0 0
-7.537027 -17.258835 -5.342876 19.576018 1.159053 1.847233 -0.030230 -0.001498 -60402.900000 1 0 0
1.941773 -19.691735 -3.956976 20.179014 -1.472506 1.768169 0.018641 -0.017256 90031.000000 1 0 0
-17.821027 -10.845135 -1.849976 20.943457 0.546689 1.659244 -0.042996 0.008257 -33240.000000 1 0 0
-4.219827 -15.188335 3.104924 16.066519 1.299798 1.376318 -0.004491 0.005288 105358.000000 1 0 0
-10.798027 -10.143935 -14.584976 20.789861 0.754175 2.348356 0.005821 0.006195 286309.000000 1 0 0
0.606573 -20.573135 2.544124 20.738717 -1.541321 1.447811 0.016801 -0.003324 265920.000000 1 0 0
6.691673 -18.456835 0.702524 19.645020 -1.222978 1.535028 0.025220 -0.000288 370046.000000 1 0 0
-7.233627 -19.231635 -3.301276 20.810564 1.211034 1.730104 -0.018694 -0.002000 39223.500000 1 0 0
-8.967727 -15.696835 -7.759876 19.672988 1.051741 1.976258 0.011832 -0.004644 -19695.200000 1 0 0
-11.634527 -11.342835 -12.344576 20.406143 0.772704 2.220492 -0.003978 0.013633 458600.000000 1 0 0
-13.214527 -14.978135 -3.394676 20.260604 0.847872 1.739141 -0.003944 -0.004707 155483.000000 1 0 0
-0.662827 -20.471235 -2.300976 20.610806 1.538429 1.682669 -0.007407 -0.007071 477602.000000 1 0 0
-12.530227 -16.618435 -0.920076 20.833279 0.924743 1.614974 0.018073 -0.001358 255020.000000 1 0 0
0.704973 -20.235135 5.166924 20.896287 -1.535971 1.320940 0.018942 -0.013017 55317.100000 1 0 0
-18.178727 -9.322735 2.534024 20.586422 0.473865 1.447391 0.010313 0.018781 104259.000000 1 0 0
-15.108927 -14.904735 -0.812076 21.238886 0.778595 1.609041 0.003803 0.004807 -164255.000000 1 0 0
10.297773 -15.449135 -5.136276 19.263988 -0.982868 1.840687 0.013413 0.004811 23672.400000 1 0 0
-0.340227 -19.252335 -6.847476 20.436636 1.553126 1.912464 -0.002738 0.001904 201153.000000 1 0 0
-9.808327 -17.829935 -3.085176 20.582230 1.067873 1.721259 -0.002208 0.031522 377784.000000 1 0 0
-14.540727 -6.425535 -11.232776 19.465238 0.416097 2.185931 0.003828 0.001614 141444.000000 1 0 0
-12.631427 -14.487335 1.628824 19.289606 0.853728 1.486255 -0.001926 -0.014397 46335.200000 1 0 0
-2.400727 -16.299935 10.050924 19.299545 1.424563 1.023025 0.000080 -0.014585 230207.000000 1 0 0
-12.407927 -14.314835 -6.662276 20.081262 0.856636 1.908971 0.006313 -0.001596 103830.000000 1 0 0
6.106873 -16.862035 -6.583776 19.104142 -1.223324 1.922636 0.026190 -0.022465 127278.000000 1 0 0
-17.256327 -7.485835 -3.017276 19.050525 0.409303 1.729849 -0.043641 0.007281 -88434.800000 1 0 0
-11.966527 -13.818835 -9.549376 20.623980 0.857111 2.052199 0.010663 -0.009402 52981.400000 1 0 0
-6.885827 -15.100935 9.080324 18.918381 1.142975 1.070172 0.000995 0.003107 512226.000000 1 0 0
-15.870327 -8.149135 -5.539476 18.680511 0.474375 1.871862 0.010646 0.008844 470517.000000 1 0 0
-0.773827 -19.728235 0.189524 19.744316 1.531592 1.561197 0.005560 -0.006316 196448.000000 1 0 0
-14.962927 -11.532935 -1.959976 18.993138 0.656660 1.674174 -0.012032 0.010056 220289.000000 1 0 0
-6.980227 -19.184335 1.421924 20.464217 1.221836 1.501257 -0.007713 -0.000325 181141.000000 1 0 0
-2.102127 -21.061935 -5.011476 21.751757 1.471319 1.803279 -0.016146 0.011198 136089.000000 1 0 0
-8.423327 -19.969235 -0.883676 21.691097 1.171626 1.611547 -0.023904 0.021885 294597.000000 1 0 0
-17.801227 -7.439235 5.323924 20.014247 0.395846 1.301548 0.014134 0.012899 165426.000000 1 0 0
-3.536227 -16.000335 -11.288176 19.898205 1.353283 2.174015 -0.002293 0.021588 93769.100000 1 0 0
-3.041327 -17.892935 -8.923776 20.224752 1.402432 2.027766 -0.014146 0.000889 246459.000000 1 0 0
3.900573 -17.923735 -6.173676 19.354303 -1.356517 1.895452 0.007953 0.026619 372831.000000 1 0 0
0.546573 -17.561735 -9.302476 19.880879 -1.539683 2.057722 -0.014721 0.010191 39762.000000 1 0 0
-7.750627 -10.356435 -15.119476 19.897903 0.928328 2.433883 -0.002668 0.008837 376877.000000 1 0 0
-5.201227 -19.638435 -2.048976 20.418600 1.311891 1.671314 -0.001203 -0.000048 343868.000000 1 0 0
-9.787127 -16.081235 8.572224 20.685188 1.024073 1.143498 -0.007557 -0.001632 203526.000000 1 0 0
-7.015227 -15.791535 -10.181076 20.055930 1.152743 2.103233 -0.011154 0.010548 278011.000000 1 0 0
-12.612727 -7.971835 -12.405576 19.404364 0.563651 2.264408 0.000257 0.000042 408414.000000 1 0 0
-15.390127 -13.358235 3.243324 20.635349 0.714837 1.412969 -0.010127 0.013757 41858.000000 1 0 0
-6.374927 -14.446335 -13.049076 20.484499 1.155215 2.261425 0.000725 0.007805 439263.000000 1 0 0
-13.952927 -11.027135 -6.699776 19.004444 0.668804 1.931077 0.004194 -0.015961 256827.000000 1 0 0
-11.662027 -10.464735 -9.462576 18.304478 0.731340 2.114085 0.016593 0.008376 278967.000000 1 0 0
-9.802727 -14.806335 3.396124 18.079123 0.985988 1.381826 -0.009090 0.000158 638020.000000 1 0 0
5.139273 -18.030935 8.416624 20.551553 -1.293134 1.148850 0.022855 -0.010976 203771.000000 1 0 0
-4.687027 -17.034535 5.207524 18.419064 1.302292 1.284163 -0.015053 0.013433 280065.000000 1 0 0
-18.541727 -7.134935 -6.728676 20.975653 0.367338 1.897355 -0.008271 -0.000783 -66028.500000 1 0 0
-16.878827 -3.789735 -10.810776 20.399259 0.220863 2.129349 -0.000883 0.004899 -335880.000000 1 0 0
-15.609927 -4.014835 -13.229476 20.852044 0.251741 2.258087 -0.005415 0.008454 250383.000000 1 0 0
-19.096527 -4.314935 -5.616576 20.367669 0.222222 1.850176 -0.013795 0.006827 -24877.500000 1 0 0
5.620373 -13.481535 8.676724 16.988994 -1.175811 1.034767 0.013504 -0.000835 103745.000000 1 0 0
19.761073 -3.300335 2.522424 20.192941 -0.165485 1.445553 0.004187 -0.010484 -1841.900000 1 0 0
17.874273 -2.401835 0.286724 18.037202 -0.133574 1.554899 0.002296 -0.015282 268103.000000 1 0 0
14.381573 -11.762335 0.206824 18.580230 -0.685546 1.559665 0.016928 0.010087 181733.000000 1 0 0
11.171173 -13.953435 5.336724 18.654064 -0.895687 1.280654 0.008738 0.004647 434049.000000 1 0 0
9.761073 -13.154935 8.765224 18.578483 -0.932429 1.079472 0.000925 -0.008903 157681.000000 1 0 0
18.697773 3.808265 -4.314976 19.563451 0.200926 1.793188 0.029518 0.007169 -101481.000000 1 0 0
18.749573 -6.254335 -4.637976 20.302069 -0.321965 1.801280 0.010148 -0.009334 -10566.800000 1 0 0
17.770573 -9.986835 -0.666576 20.395452 -0.512000 1.603485 0.021960 0.003043 258677.000000 1 0 0
17.361673 -9.051235 8.345724 21.283883 -0.480569 1.167867 0.023798 0.003898 54008.200000 1 0 0
19.793973 0.066565 -2.120276 19.907320 0.003363 1.677506 0.008234 -0.000271 83926.100000 1 0 0
7.634273 -12.987735 11.531024 18.971766 -1.039391 0.917510 0.015005 -0.008433 336744.000000 1 0 0
15.948073 -6.503135 -3.598776 17.594971 -0.387186 1.776784 0.005649 -0.002186 320279.000000 1 0 0
14.219473 -7.241335 10.776224 19.255061 -0.471024 0.976825 -0.008144 -0.034153 400710.000000 1 0 0
15.976273 1.915565 10.736724 19.343938 0.119331 0.982381 0.008891 -0.008983 390459.000000 1 0 0
16.918973 -10.060135 2.778024 19.879019 -0.536444 1.430591 0.022145 -0.001805 308195.000000 1 0 0
16.289173 -7.376235 -6.114176 18.897861 -0.425205 1.900263 0.014498 0.000075 272095.000000 1 0 0
18.282673 -4.268235 5.942524 19.692322 -0.229350 1.264249 0.068163 -0.010270 -5874.040000 1 0 0
13.249573 -13.436835 7.929124 20.468775 -0.792415 1.173012 0.006216 -0.006969 272973.000000 1 0 0
15.314673 -14.421135 -1.705876 21.104937 -0.755358 1.651713 0.013040 0.010548 164766.000000 1 0 0
18.663273 -6.213035 7.222624 20.954376 -0.321362 1.218895 0.014735 -0.008468 233240.000000 1 0 0
19.650273 3.521865 2.308124 20.096373 0.177344 1.455690 0.015221 -0.011002 383306.000000 1 0 0
15.644673 -10.813035 7.945324 20.610815 -0.604771 1.175054 0.021133 -0.018501 296353.000000 1 0 0
14.411873 -4.072635 10.519424 18.301550 -0.275408 0.958457 0.006015 -0.006297 29741.400000 1 0 0
18.669173 -7.626435 1.591924 20.229552 -0.387816 1.492022 0.006630 -0.003035 9082.810000 1 0 0
18.694273 -5.235435 -1.667276 19.485006 -0.273060 1.656468 -0.007231 -0.002897 231396.000000 1 0 0
14.416873 -13.910935 -5.992476 20.911005 -0.767540 1.861442 0.011216 0.008225 435009.000000 1 0 0
13.771273 -9.649135 10.234724 19.685105 -0.611176 1.024036 -0.006654 0.000865 409813.000000 1 0 0
14.122373 2.008665 0.285624 14.267366 0.141285 1.550776 -0.000120 -0.004722 -249766.000000 1 0 0
12.904673 2.777265 13.564124 18.926945 0.211981 0.771800 0.020050 -0.010596 260173.000000 1 0 0
17.974273 -2.036035 9.751624 20.550282 -0.112794 1.076372 0.001019 0.000399 152867.000000 1 0 0
7.363073 -18.436435 4.851024 20.436473 -1.190828 1.331138 0.015306 -0.013878 388180.000000 1 0 0
12.215573 -3.469035 14.783424 19.488562 -0.276700 0.709682 -0.016299 0.011434 117347.000000 1 0 0
11.160173 -13.583635 -6.873176 18.876047 -0.883029 1.943486 0.002271 -0.000655 28548.400000 1 0 0
10.820373 -17.779135 4.386424 21.270140 -1.024078 1.363081 0.011176 -0.010950 486097.000000 1 0 0
17.979373 -1.017935 -5.868476 18.940250 -0.056556 1.885823 -0.008276 0.001665 294002.000000 1 0 0
4.431573 -13.737935 11.799624 18.644056 -1.258755 0.885517 -0.000020 -0.001233 264617.000000 1 0 0
8.980373 -2.562735 13.977724 16.810457 -0.277982 0.589012 -0.019443 0.000817 182767.000000 1 0 0
9.090273 -9.297335 14.228524 19.274968 -0.796659 0.740418 0.004579 0.005863 342339.000000 1 0 0
20.966973 5.499165 -3.189076 21.909472 0.256500 1.716872 0.004486 -0.001155 340662.000000 1 0 0
14.684973 -13.733835 2.177824 20.223985 -0.751942 1.462902 0.004340 0.010846 352853.000000 1 0 0
11.513873 -0.423835 15.124524 19.013157 -0.036794 0.651002 0.015884 0.000583 -33874.800000 1 0 0
19.679173 0.104365 7.492724 21.057580 0.005303 1.207004 0.061206 -0.008239 74887.700000 1 0 0
19.727373 1.258765 0.436324 19.772307 0.063722 1.548727 0.005808 -0.007466 256114.000000 1 0 0
17.673173 0.286765 3.164124 17.956474 0.016225 1.393661 0.006504 -0.007604 62115.700000 1 0 0
10.341773 -8.594635 16.219624 21.068845 -0.693395 0.692207 0.006900 0.012368 231927.000000 1 0 0
19.000373 3.052865 5.484124 20.010242 0.159312 1.293178 0.021560 -0.002596 123547.000000 1 0 0
15.096773 2.284865 6.782224 16.707236 0.150208 1.152783 0.016157 -0.006820 26426.400000 1 0 0
11.316673 -16.060335 1.991224 19.747568 -0.956966 1.469791 -0.008348 0.007471 286298.000000 1 0 0
8.718973 -16.135835 6.688724 19.522415 -1.075393 1.221095 0.009266 -0.003967 238785.000000 1 0 0
6.163073 6.811065 7.167124 11.650826 0.835302 0.908207 0.002426 -0.000051 -921524.000000 1 0 0
18.493473 2.524465 -6.607176 19.799905 0.135667 1.911019 -0.006952 0.010129 233107.000000 1 0 0
14.224173 4.419665 -7.121976 16.510090 0.301258 2.016808 0.013204 -0.001697 92513.600000 1 0 0
-10.507327 -3.549335 -13.927476 17.803828 0.325762 2.469105 -0.008049 0.002069 -131760.000000 1 0 0
7.554173 -14.306735 -10.458576 19.264735 -1.084989 2.144667 -0.000749 0.005618 44489.800000 1 0 0
2.071473 -15.964235 13.893024 21.264146 -1.441760 0.858789 -0.012248 -0.001311 384128.000000 1 0 0
-9.417527 -8.309335 2.453924 12.796742 0.722965 1.377840 0.002983 0.003965 505288.000000 1 0 0
-13.619627 3.120365 -9.674776 16.995064 -0.225221 2.176414 -0.000609 0.000232 349099.000000 1 0 0
-12.898527 -5.012735 -13.293476 19.188956 0.370665 2.336115 0.000484 0.009246 97792.100000 1 0 0
-17.570827 -0.060635 -9.149576 19.810411 0.003451 2.050884 0.006204 0.000802 441099.000000 1 0 0
-12.222327 15.121665 4.732824 20.011238 -0.891035 1.332026 0.005429 -0.016967 422711.000000 1 0 0
-17.553727 5.782965 9.648924 20.848927 -0.318246 1.089643 0.026753 -0.011907 162070.000000 1 0 0
-13.657927 15.453265 0.247124 20.625310 -0.846992 1.558814 0.024470 -0.022551 185197.000000 1 0 0
-15.609227 5.521265 -10.686176 19.706006 -0.339983 2.143945 -0.004090 0.000994 37014.300000 1 0 0
-18.192727 2.868965 -0.217476 18.418837 -0.156410 1.582604 0.034588 0.000735 -7156.590000 1 0 0
-9.800527 15.602565 -0.109376 18.425589 -1.009945 1.576732 0.006036 -0.005447 36086.900000 1 0 0
-18.289427 12.368165 2.588824 22.230084 -0.594606 1.454076 0.024388 -0.010847 -205981.000000 1 0 0
-8.580227 16.332965 -7.703076 19.993084 -1.087089 1.966315 0.019891 -0.012271 -162734.000000 1 0 0
-14.747027 -1.602835 -12.697276 19.526001 0.108264 2.278743 -0.013512 -0.010938 85192.500000 1 0 0
-19.007727 4.970765 -4.667276 20.193703 -0.255785 1.804030 0.056567 -0.003021 -8641.690000 1 0 0
-16.424727 9.790565 -5.702676 19.953629 -0.537537 1.860634 0.026439 0.018075 -149095.000000 1 0 0
-18.786027 1.317165 2.585424 19.008791 -0.070000 1.434361 0.013478 -0.010136 38062.500000 1 0 0
-13.240627 12.107365 -7.017176 19.265078 -0.740720 1.943617 0.009398 0.005316 -39557.600000 1 0 0
-12.896827 5.176365 -13.581276 19.431262 -0.381685 2.344710 0.003455 -0.008101 -169489.000000 1 0 0
-13.903227 9.463865 -6.651176 18.085978 -0.597652 1.947388 0.004194 0.004785 59859.000000 1 0 0
-6.271927 11.687265 -15.450076 20.362565 -1.078263 2.432187 -0.013421 -0.017412 -170951.000000 1 0 0
-15.019627 14.076665 3.475124 20.876258 -0.753001 1.403555 0.010583 -0.013108 124896.000000 1 0 0
-18.578927 8.593765 -4.559776 20.971907 -0.433245 1.789970 0.043507 -0.001569 93483.700000 1 0 0
-3.911627 17.042465 -9.963776 20.125190 -1.345182 2.088735 0.002625 0.006207 90237.000000 1 0 0
-19.066127 -1.615735 -6.796576 20.305695 0.084542 1.912097 -0.011800 -0.002889 -266599.000000 1 0 0
-10.739027 14.182865 -6.415576 18.911371 -0.922714 1.916910 0.002733 0.004154 96931.300000 1 0 0
-19.419627 3.534065 4.434324 20.230540 -0.180014 1.349813 0.029641 0.002039 46933.700000 1 0 0
-15.390827 12.417965 0.595524 19.784793 -0.678899 1.540692 0.022098 -0.002779 144157.000000 1 0 0
-17.027927 2.530065 -8.213576 19.073918 -0.147504 2.015974 -0.014215 -0.003890 207280.000000 1 0 0
-15.566027 14.413165 -4.125276 21.611534 -0.746962 1.762858 -0.014815 0.054065 -59434.800000 1 0 0
-10.362027 15.665665 -8.734776 20.714270 -0.986415 2.006093 -0.002087 -0.003485 129191.000000 1 0 0
-19.227427 2.394365 -6.580476 20.462883 -0.123891 1.898195 0.031086 -0.005622 89674.400000 1 0 0
-17.357427 10.469065 -0.636176 20.280195 -0.542730 1.602171 0.034879 0.006299 -32267.900000 1 0 0
-11.512827 7.143865 -14.565976 19.893407 -0.555367 2.392345 -0.002950 -0.009662 252663.000000 1 0 0
-12.875927 12.601765 -4.629876 18.601874 -0.774638 1.822333 0.023821 -0.003144 405015.000000 1 0 0
-18.685527 7.390665 0.031224 20.094074 -0.376646 1.569242 0.016959 0.006584 52829.900000 1 0 0
-14.316227 9.075565 -10.551976 19.966583 -0.564999 2.127608 -0.001168 0.012410 504798.000000 1 0 0
-18.577927 11.675965 4.759024 22.452524 -0.561102 1.357217 0.001012 -0.008159 172151.000000 1 0 0
-8.028827 12.111165 -13.553376 19.870490 -0.985387 2.321407 -0.025642 0.001440 410370.000000 1 0 0
-21.098927 -1.609935 -5.023176 21.748308 0.076157 1.803869 0.013930 -0.013413 361048.000000 1 0 0
-10.762327 13.565165 -3.516876 17.669459 -0.900105 1.771171 0.009191 0.006879 465863.000000 1 0 0
-18.597027 -5.008735 3.709224 19.613648 0.263087 1.380536 0.011277 0.003780 -104257.000000 1 0 0
-11.279927 11.627265 -13.165976 20.875176 -0.800560 2.253251 0.001306 -0.001284 183961.000000 1 0 0
-14.683527 11.883565 -10.204376 21.469848 -0.680394 2.066088 0.010967 0.015130 141690.000000 1 0 0
-12.545127 9.891865 -14.002476 21.243788 -0.667691 2.290461 0.014368 -0.007667 219993.000000 1 0 0
-18.292027 -4.867135 -2.873376 19.145327 0.260054 1.721448 -0.016512 0.001492 -226494.000000 1 0 0
-9.361527 12.622565 -11.482176 19.462983 -0.932661 2.201793 -0.002876 -0.006274 -104490.000000 1 0 0
-15.532527 7.846965 -8.283676 19.273130 -0.467795 2.015072 0.005572 0.008887 -24680.000000 1 0 0
-14.821427 8.871165 2.239824 17.418067 -0.539343 1.441847 0.010564 0.003432 -248869.000000 1 0 0
-19.741427 6.310965 7.604024 22.076535 -0.309414 1.219155 0.015171 -0.006921 220364.000000 1 0 0
-18.502827 5.870965 3.763424 19.773371 -0.307253 1.379300 -0.008716 -0.000186 190210.000000 1 0 0
-14.565127 12.815965 5.971024 20.298891 -0.721603 1.272225 0.007247 -0.012917 -58125.700000 1 0 0
18.084873 6.028565 5.701524 19.897578 0.321764 1.280179 0.011172 -0.002805 107586.000000 1 0 0
18.403673 7.765065 0.470324 19.980306 0.399268 1.547255 0.015800 -0.001427 71642.100000 1 0 0
16.893973 4.251065 8.431224 19.353641 0.246514 1.120047 0.026446 -0.005996 -124287.000000 1 0 0
12.156373 13.205565 10.527024 20.808233 0.826743 1.040364 0.001504 -0.002826 14300.600000 1 0 0
15.652073 12.369265 4.061224 20.358773 0.668776 1.369966 0.015043 -0.006682 178268.000000 1 0 0
4.724373 10.329165 13.413724 17.576670 1.141821 0.702615 0.001411 -0.020645 221257.000000 1 0 0
13.218073 13.447065 -5.267376 19.577698 0.793986 1.843203 0.022096 0.011965 293725.000000 1 0 0
17.698373 9.317265 -2.708376 20.183635 0.484581 1.705389 0.001513 0.002127 -157026.000000 1 0 0
14.752573 7.408965 9.331224 18.963199 0.465418 1.056330 0.028275 -0.003590 92196.100000 1 0 0
4.246473 19.675765 -1.477176 20.182921 1.358234 1.644051 0.005053 0.000801 516058.000000 1 0 0
-4.602727 19.593065 3.849524 20.491269 -1.340064 1.381812 -0.003455 0.007473 163472.000000 1 0 0
8.361573 13.438565 11.842524 19.767557 1.014208 0.928434 0.044309 0.004417 69347.200000 1 0 0
0.150373 16.980065 -10.186576 19.801806 1.561941 2.111135 0.010842 0.000118 -29313.800000 1 0 0
10.609673 8.961965 15.776824 21.018805 0.701408 0.721819 0.024825 -0.008029 -71324.900000 1 0 0
-1.116627 12.221365 1.265124 12.337307 -1.479683 1.468071 -0.001304 0.000525 406466.000000 1 0 0
-4.739027 19.230265 -2.801076 20.002687 -1.329175 1.711293 -0.001585 0.008669 100845.000000 1 0 0
5.637473 18.487165 6.381724 20.353937 1.274814 1.251880 0.016392 -0.008438 177010.000000 1 0 0
11.193473 17.605465 -1.857576 20.945090 1.004472 1.659601 0.033625 0.006043 294708.000000 1 0 0
18.598973 10.447165 3.214324 21.573060 0.511786 1.421242 0.014286 -0.004762 266297.000000 1 0 0
11.477273 16.963465 6.137924 21.381325 0.975957 1.279630 0.009851 0.006049 -365785.000000 1 0 0
18.117673 7.145465 -5.999176 20.378858 0.375663 1.869605 -0.003601 0.014309 266115.000000 1 0 0
0.244373 15.385765 10.997324 18.913556 1.554915 0.950284 -0.002023 -0.009657 357464.000000 1 0 0
0.829473 20.246565 -2.352776 20.399680 1.529851 1.686388 -0.006808 -0.000998 277037.000000 1 0 0
14.232173 9.679065 -1.626076 17.288238 0.597234 1.664992 0.011218 -0.000456 -66634.100000 1 0 0
10.427973 17.333665 1.617424 20.293216 1.029199 1.491009 0.044504 -0.012801 206241.000000 1 0 0
0.341273 17.790565 -0.140076 17.794389 1.551616 1.578668 -0.005950 0.007425 22039.500000 1 0 0
-0.496527 21.136965 1.509924 21.196643 -1.547310 1.499502 0.004671 0.005673 186741.000000 1 0 0
5.597773 17.728265 -0.174576 18.591851 1.264950 1.580186 0.015104 -0.005061 -53905.700000 1 0 0
6.475073 18.422165 -2.482376 19.684128 1.232801 1.697244 -0.002335 -0.010823 68882.100000 1 0 0
10.455573 9.514565 12.798624 19.069628 0.738312 0.835034 0.016949 0.000543 127573.000000 1 0 0
12.864773 14.867665 8.081124 21.256867 0.857495 1.180821 -0.002283 -0.000365 213676.000000 1 0 0
0.247273 17.669365 7.257124 19.103231 1.556803 1.181119 0.007691 -0.004376 281213.000000 1 0 0
6.982273 18.227365 -7.783776 21.013713 1.204973 1.950251 0.010223 -0.005831 118396.000000 1 0 0
-0.729427 18.552965 9.502724 20.857764 -1.531501 1.097754 0.011121 -0.012693 87887.400000 1 0 0
16.062973 6.460365 -7.877576 19.021346 0.382393 1.997798 0.026630 0.004698 -377115.000000 1 0 0
-4.770927 20.077465 -6.509476 21.638845 -1.337497 1.876353 -0.028494 0.003337 278698.000000 1 0 0
4.207873 15.598565 10.228924 19.122037 1.307308 1.006373 0.002228 -0.006647 270518.000000 1 0 0
9.274973 14.979965 7.462524 19.134099 1.016409 1.170152 0.013326 -0.002709 36193.500000 1 0 0
-2.531727 19.163565 6.754824 20.476315 -1.439445 1.234615 0.010713 -0.011725 96956.800000 1 0 0
4.829573 17.970465 8.459824 20.440915 1.308249 1.144098 0.011535 -0.015344 259998.000000 1 0 0
15.192373 11.305265 -7.425376 20.340930 0.639741 1.944479 0.024909 -0.016963 -138103.000000 1 0 0
11.811973 6.341565 15.494724 20.489622 0.492711 0.713275 0.034282 -0.008114 193275.000000 1 0 0
17.232273 9.140165 4.842824 20.098428 0.487678 1.327446 0.004982 -0.003319 148265.000000 1 0 0
5.573373 14.297465 13.177324 20.226761 1.199100 0.861263 -0.006833 -0.011461 336796.000000 1 0 0
15.873173 10.785365 -3.826576 19.568454 0.596815 1.767613 0.021661 0.004659 223379.000000 1 0 0
15.355073 13.834565 6.384624 21.631849 0.733355 1.271185 0.000269 0.009582 56287.800000 1 0 0
12.773373 14.528065 -8.474176 21.119550 0.849581 1.983675 0.036400 -0.014332 280145.000000 1 0 0
-8.409727 15.371465 9.846424 20.098694 -1.070182 1.058817 0.017004 -0.013631 83394.700000 1 0 0
-5.091927 17.530965 -7.605276 19.776316 -1.288121 1.965533 -0.001797 0.035155 60179.300000 1 0 0
2.297573 19.176365 -4.726376 19.883421 1.451552 1.810798 -0.003440 -0.020663 157171.000000 1 0 0
7.205373 16.213365 9.167024 19.970601 1.152601 1.093898 0.011246 -0.017770 518697.000000 1 0 0
13.629573 15.367465 -1.596776 20.602765 0.845260 1.648377 0.050821 -0.007365 39201.400000 1 0 0
13.397173 16.012865 4.547924 21.367725 0.874103 1.356315 0.035701 -0.019094 214339.000000 1 0 0
3.048573 18.471465 0.401024 18.725641 1.407229 1.549379 0.031011 -0.006357 64773.900000 1 0 0
-7.169627 17.893265 1.168424 19.311594 -1.189696 1.510256 -0.016796 0.018841 339259.000000 1 0 0
0.029773 20.159565 -6.064476 21.052002 1.569319 1.863008 0.010641 0.005742 172966.000000 1 0 0
-7.794227 18.109165 -6.523976 20.766658 -1.164359 1.890364 0.025486 -0.004977 29958.500000 1 0 0
-7.399227 18.557665 -1.091076 20.008146 -1.191398 1.625355 0.004536 -0.003771 119973.000000 1 0 0
-14.596327 -9.091135 8.719024 19.280116 0.557043 1.101534 0.027136 -0.008410 364030.000000 1 0 0
-13.067327 -13.979535 7.498124 20.552477 0.819112 1.197348 0.004175 0.006517 -88690.300000 1 0 0
-3.952327 -15.952135 12.514424 20.656774 1.327925 0.919992 0.020479 -0.004914 72291.000000 1 0 0
-2.023927 -15.046835 15.198524 21.482520 1.437090 0.784866 -0.003546 -0.006699 569219.000000 1 0 0
-7.965627 -13.700435 13.391124 20.747900 1.044155 0.869222 0.014052 -0.004435 95946.400000 1 0 0
-10.168627 -11.522835 11.567724 19.235097 0.847748 0.925561 0.030554 -0.002166 206432.000000 1 0 0
-7.526427 -10.632335 13.478024 18.744353 0.954801 0.768370 0.024639 0.001027 358627.000000 1 0 0
-14.998927 -12.520135 7.895024 21.072565 0.695565 1.186767 -0.000585 0.019543 316990.000000 1 0 0
-4.699427 -12.715535 13.473224 19.112750 1.216785 0.788466 0.017190 -0.006424 444144.000000 1 0 0
3.643173 -12.434435 13.893124 18.997547 -1.285782 0.750554 -0.000373 -0.000586 461960.000000 1 0 0
6.166673 -13.723635 14.051924 20.586952 -1.148486 0.819530 -0.005729 -0.006288 273318.000000 1 0 0
7.228873 -9.147135 16.667124 20.340101 -0.902005 0.610395 0.000725 0.010305 503397.000000 1 0 0
-4.991127 13.193365 13.840324 19.761852 -1.209131 0.794901 0.008997 -0.007121 579301.000000 1 0 0
-13.362127 -1.992135 17.577924 22.169764 0.147998 0.655278 0.009983 -0.001463 387740.000000 1 0 0
-10.162727 9.370265 13.137324 19.070190 -0.744850 0.810835 0.003878 -0.006677 511156.000000 1 0 0
-7.053227 -8.252435 17.123524 20.274757 0.863589 0.565028 0.018899 -0.011082 -16397.100000 1 0 0
-4.891127 2.243465 18.258724 19.035158 -0.430049 0.286600 0.017360 -0.004176 615477.000000 1 0 0
-14.405227 -4.241235 14.620024 20.958143 0.286333 0.798779 -0.016063 -0.001121 -57203.700000 1 0 0
-14.434927 2.783165 12.749524 19.459277 -0.190470 0.856362 0.000770 0.008726 101156.000000 1 0 0
-14.284327 10.786565 9.590724 20.306993 -0.646778 1.078913 -0.034737 0.015832 -79100.500000 1 0 0
-4.526027 11.191565 15.984624 20.031082 -1.186490 0.646842 0.034683 -0.009193 275916.000000 1 0 0
-12.840427 13.122165 7.215524 19.726418 -0.796249 1.196326 0.005305 -0.031892 -149858.000000 1 0 0
-3.591327 -6.497935 18.700724 20.120583 1.065892 0.377924 0.027744 -0.011468 299404.000000 1 0 0
0.862173 -2.876135 18.251924 18.497249 -1.279552 0.163047 0.009167 -0.006764 171334.000000 1 0 0
-4.431327 6.544665 21.157424 22.585524 -0.975612 0.357515 0.027064 -0.006566 226153.000000 1 0 0
2.219273 -10.692335 16.281024 19.604156 -1.366145 0.590812 -0.013636 -0.007519 350469.000000 1 0 0
-15.069327 -0.441135 13.942924 20.534954 0.029265 0.824417 -0.003000 0.006567 98477.500000 1 0 0
-14.109427 -6.221535 8.782924 17.746075 0.415302 1.053051 0.026369 0.008784 193150.000000 1 0 0
10.152173 1.030165 16.246324 19.185174 0.101126 0.560825 0.016142 0.000652 404914.000000 1 0 0
-7.415827 12.315365 12.021024 18.739469 -1.028790 0.874368 0.015500 -0.013119 159637.000000 1 0 0
-1.799127 7.588165 20.557824 21.987297 -1.337999 0.362576 0.028231 -0.002284 506938.000000 1 0 0
1.020773 -13.601035 15.652524 20.761302 -1.495886 0.716776 -0.018577 -0.001321 678213.000000 1 0 0
-3.197027 -11.537435 17.548224 21.243200 1.300479 0.598710 0.014544 -0.019206 528935.000000 1 0 0
-2.122227 8.693665 16.857324 19.085414 -1.331367 0.488033 0.020564 -0.015529 598607.000000 1 0 0
-4.026727 -9.692335 20.436024 22.973615 1.177038 0.474452 0.022146 -0.010810 251861.000000 1 0 0
-6.601127 -2.991135 19.090824 20.420121 0.425450 0.362812 0.028849 -0.013602 6066.890000 1 0 0
-10.810127 -8.279935 15.551624 20.670491 0.653626 0.719161 0.051197 -0.021667 311594.000000 1 0 0
-0.513827 5.622465 17.885824 18.755768 -1.479661 0.305764 0.020170 -0.019950 -274567.000000 1 0 0
-5.990327 -11.479935 18.688424 22.736097 1.089855 0.605932 0.032649 -0.011933 380330.000000 1 0 0
1.014773 3.372565 19.164124 19.485061 1.278523 0.181749 0.016757 0.007528 114159.000000 1 0 0
-18.495827 -0.156235 7.869224 20.100863 0.008447 1.168549 0.020793 -0.009050 387270.000000 1 0 0
-1.662827 -8.763935 17.681724 19.804417 1.383290 0.467235 0.002707 -0.006811 184160.000000 1 0 0
5.827573 3.396665 14.908824 16.363709 0.527722 0.424874 0.005927 -0.001622 459320.000000 1 0 0
-14.812027 -6.748135 11.539624 19.952353 0.427489 0.954081 0.074137 0.016834 -50589.900000 1 0 0
3.854273 8.281965 16.570424 18.921557 1.135225 0.503823 0.008431 -0.013858 249903.000000 1 0 0
6.464073 4.506165 17.326024 19.033677 0.608783 0.426830 0.020737 -0.023828 277773.000000 1 0 0
4.805673 -9.922635 17.839324 20.971282 -1.119776 0.553567 -0.009506 0.004036 298164.000000 1 0 0
-4.431927 -0.887335 19.807724 20.316871 0.197602 0.224347 0.030948 -0.006500 720222.000000 1 0 0
-11.295627 1.980565 16.959524 20.472891 -0.173575 0.594570 0.031635 -0.003753 251306.000000 1 0 0
-16.668327 -3.951635 8.880524 19.295394 0.232777 1.092530 0.025657 -0.005944 385630.000000 1 0 0
-12.919827 -9.779035 11.961824 20.140424 0.647903 0.934872 -0.004848 -0.014862 93855.600000 1 0 0
-14.628327 6.065365 13.185924 20.606921 -0.393056 0.876456 -0.004896 0.002796 53402.000000 1 0 0
1.421273 9.160065 17.122224 19.470422 1.416864 0.496203 0.014498 -0.019629 146235.000000 1 0 0
-3.937427 -10.221035 14.873224 18.471212 1.203089 0.634765 0.022605 -0.015410 661996.000000 1 0 0
-18.524727 -3.043535 6.744224 19.947761 0.162841 1.225905 0.083593 -0.008092 -234496.000000 1 0 0
-0.550427 -0.695435 20.682124 20.701132 0.901269 0.042856 0.023193 -0.013107 371948.000000 1 0 0
-1.798927 2.398565 20.334424 20.554271 -0.927294 0.146390 0.014622 -0.008734 205830.000000 1 0 0
-8.098427 2.183265 16.169824 18.215772 -0.263331 0.478509 0.008563 0.008319 545661.000000 1 0 0
3.496973 -3.118635 18.586424 19.167938 -0.728272 0.246952 0.015836 0.000765 83522.500000 1 0 0
-12.411427 4.322265 14.358424 19.465092 -0.335114 0.741213 -0.015264 0.003308 141327.000000 1 0 0
-13.058827 -5.863235 13.549024 19.710062 0.422011 0.812870 -0.001987 -0.001558 -137000.000000 1 0 0
-16.681627 -0.570935 10.628124 19.787866 0.034212 1.003797 -0.003894 0.005664 170264.000000 1 0 0
-7.376427 7.878065 14.957724 18.444757 -0.818271 0.625027 0.005665 -0.000880 73188.800000 1 0 0
-9.427927 0.768165 14.177024 17.043001 -0.081298 0.588384 0.004666 0.004293 183365.000000 1 0 0
7.293673 -0.847735 15.066624 16.760653 -0.115710 0.453479 -0.008634 0.004299 48290.700000 1 0 0
4.051173 6.560965 18.431824 19.979750 1.017633 0.396223 0.016222 0.000497 225368.000000 1 0 0
1.475573 0.294965 20.068324 20.124660 0.197298 0.074842 -0.004543 0.005575 172939.000000 1 0 0
-7.033727 7.374265 17.683424 20.409718 -0.809029 0.522805 0.010889 -0.004436 663203.000000 1 0 0
7.932973 -3.595335 16.513424 18.669538 -0.425524 0.485350 -0.004966 0.008899 381168.000000 1 0 0
-15.903027 2.711665 9.388124 18.665376 -0.168888 1.043765 -0.001384 -0.005497 123114.000000 1 0 0
3.777373 -6.326335 19.029224 20.405941 -1.032521 0.369429 -0.014331 -0.006785 121867.000000 1 0 0
-3.735427 -3.752535 20.499124 21.171892 0.787683 0.252770 0.029331 -0.016583 360621.000000 1 0 0
-9.833027 5.890565 14.384924 18.393292 -0.539727 0.672809 0.006294 0.001237 -9661.710000 1 0 0
6.560073 2.664665 19.988524 21.205567 0.385835 0.340441 0.019781 -0.002740 101686.000000 1 0 0
-7.657427 11.263465 14.709224 20.046523 -0.973725 0.746965 0.035985 -0.019061 316992.000000 1 0 0
-14.385027 5.000365 8.879224 17.628762 -0.334543 1.042945 -0.006857 -0.009935 213280.000000 1 0 0
0.730073 -5.616035 20.537124 21.303669 -1.441523 0.269071 0.000061 -0.010136 99258.800000 1 0 0
-5.845227 -8.385035 13.676924 17.074359 0.962018 0.641797 0.010550 -0.006934 247541.000000 1 0 0
-12.730527 10.271065 6.375024 17.555683 -0.678877 1.199170 -0.012916 -0.015696 128908.000000 1 0 0
-19.534427 2.416165 7.776824 21.163900 -0.123062 1.194523 -0.002991 -0.004091 81716.300000 1 0 0
-15.825727 9.174965 6.381724 19.374210 -0.525397 1.235136 -0.003826 -0.004862 67470.300000 1 0 0
-12.844627 7.213865 14.340224 20.558850 -0.511725 0.798865 0.002700 0.003939 200541.000000 1 0 0
-16.473327 8.567165 10.444724 21.303968 -0.479569 1.058395 -0.004967 -0.002247 255295.000000 1 0 0
2.092373 11.067065 13.967824 17.943189 1.383939 0.678608 -0.010292 -0.049833 267485.000000 1 0 0
2.095873 15.217965 12.795124 19.992357 1.433934 0.876297 -0.009382 -0.013622 589458.000000 1 0 0
9.336673 4.447565 16.596024 19.554598 0.444553 0.557270 0.035079 -0.007417 200185.000000 1 0 0
-0.033727 13.339165 13.459524 18.949755 -1.568268 0.780909 0.002223 0.002482 282337.000000 1 0 0
3.925673 12.625465 14.857824 19.888896 1.269340 0.727196 -0.004941 -0.000576 83156.800000 1 0 0
-3.807127 -4.489435 -13.953476 15.144264 0.867453 2.742388 -0.003372 -0.003099 150893.000000 1 0 0
6.432473 -12.303435 16.802724 21.796393 -1.089060 0.690552 -0.000120 0.025449 185458.000000 1 0 0
8.583573 -13.820935 7.245724 17.810011 -1.015038 1.151810 -0.003820 -0.004289 175856.000000 1 0 0
-0.458727 15.368965 0.540924 15.385321 -1.540958 1.535631 -0.003239 0.005810 -302527.000000 1 0 0
-13.984127 7.720365 8.439324 18.066046 -0.504439 1.084746 -0.006304 -0.007153 110740.000000 1 0 0
-15.708527 -10.063635 5.930024 19.575489 0.569773 1.263030 -0.009032 0.012806 29382.300000 1 0 0
9.551973 -10.330235 11.361024 18.083883 -0.824522 0.891507 0.019000 0.003160 -28471.400000 1 0 0
-25.166807 5.860865 31.731263 40.921766 -0.228803 0.683428 0.023804 -0.013953 -325828.000000 0 0 1
-24.026627 5.157865 31.334683 39.821410 -0.211463 0.665059 0.026370 -0.013822 -541468.000000 0 0 1
-22.975627 5.387065 32.213833 39.932830 -0.230308 0.632249 0.021688 -0.010177 -179095.000000 0 0 1
-21.643227 4.696365 31.813153 38.762892 -0.213677 0.608141 0.036451 -0.011242 -4450.130000 0 0 1
-21.494027 3.323965 32.029023 38.715633 -0.153431 0.596531 0.026747 -0.011436 -174149.000000 0 0 1
-20.199327 2.920465 31.672013 37.678353 -0.143587 0.572426 0.029037 -0.010529 -221628.000000 0 0 1
-19.640227 1.671165 32.353763 37.885317 -0.084884 0.547186 0.024216 -0.015704 -316182.000000 0 0 1
-20.215327 0.464765 31.984493 37.840233 -0.022987 0.563762 0.035596 -0.013101 -29413.600000 0 0 1
-19.967327 -0.440135 33.029593 38.598470 0.022039 0.543850 0.018898 -0.006523 -35547.700000 0 0 1
-20.684527 -1.829135 32.873473 38.882652 0.088201 0.563383 0.019043 -0.021377 -75158.000000 0 0 1
-20.078527 -2.804735 31.987053 37.870639 0.138790 0.564904 0.027838 -0.033086 281991.000000 0 0 1
-20.394427 -4.163635 32.225873 38.363725 0.201388 0.573497 0.036146 -0.031608 -145404.000000 0 0 1
-21.829127 -4.710635 31.952943 38.983220 0.212537 0.609981 0.022441 -0.021743 306379.000000 0 0 1
-22.930127 -4.413335 32.767843 40.236796 0.190144 0.619145 0.020971 -0.018579 228257.000000 0 0 1
-22.815327 -4.807235 34.120322 41.326082 0.207664 0.599467 0.009974 -0.008777 -545295.000000 0 0 1
-23.986627 -4.441935 -34.019696 41.862021 0.183110 2.519503 0.013121 -0.002827 260040.000000 0 0 1
-23.846127 -4.993635 -32.728596 40.801166 0.206428 2.501681 0.012413 0.008026 543647.000000 0 0 1
-24.997727 -4.573835 -31.984246 40.850928 0.180968 2.470191 0.004824 0.009718 225035.000000 0 0 1
-25.025027 -5.018535 -30.535226 39.797458 0.197915 2.445363 -0.013318 0.016290 -780184.000000 0 0 1
-25.179867 -6.419735 -30.438196 40.021525 0.249637 2.434949 -0.012371 0.011255 411761.000000 0 0 1
-25.105787 -6.801035 -29.079676 39.015153 0.264546 2.411846 -0.025594 0.007836 -170779.000000 0 0 1
-25.407457 -8.304835 -28.851796 39.331098 0.315919 2.394345 -0.015995 0.003420 -240198.000000 0 0 1
-26.756107 -8.686435 -28.926526 40.349564 0.313918 2.370139 0.000880 -0.002449 -342673.000000 0 0 1
-26.845047 -10.040235 -28.641996 40.519462 0.357900 2.355860 0.007169 -0.003192 779409.000000 0 0 1
-28.348317 -10.387335 -28.378496 41.435044 0.351226 2.325251 0.043427 -0.010840 674108.000000 0 0 1
-28.545857 -11.420835 -27.512826 41.258418 0.380582 2.300759 0.048149 -0.014399 -418072.000000 0 0 1
-29.881687 -11.426335 -27.058576 41.900393 0.365230 2.272845 0.032883 -0.016088 -296780.000000 0 0 1
-30.176067 -12.146335 -25.704696 41.459135 0.382673 2.239540 0.021061 -0.010406 -107859.000000 0 0 1
-29.730657 -11.406935 -24.601076 40.239820 0.366355 2.228576 0.024127 -0.007526 196623.000000 0 0 1
-29.638217 -12.241435 -23.440176 39.720505 0.391687 2.202014 0.018581 -0.009885 -417327.000000 0 0 1
-29.360237 -11.337535 -22.193376 38.511156 0.368512 2.184971 0.023624 -0.010333 218214.000000 0 0 1
-28.977347 -11.981235 -20.934076 37.702416 0.392063 2.159454 0.020653 -0.007306 -347548.000000 0 0 1
-27.723227 -12.571035 -21.014876 36.989637 0.425717 2.175027 0.018532 -0.021785 -1190040.000000 0 0 1
-27.441217 -13.279935 -19.674876 36.283299 0.450718 2.143917 0.008437 -0.021103 -176428.000000 0 0 1
-27.112767 -12.349635 -18.688476 35.169230 0.427411 2.131033 0.008469 -0.020722 -1127.900000 0 0 1
-26.745517 -12.929035 -17.536376 34.496480 0.450287 2.104067 -0.002451 -0.002205 -92371.200000 0 0 1
-26.632977 -11.899635 -16.383476 33.456465 0.420190 2.082537 0.002470 -0.016016 -353223.000000 0 0 1
-25.542837 -11.036535 -16.561276 32.380820 0.407852 2.107671 0.017850 -0.017012 -181413.000000 0 0 1
-25.564437 -9.837235 -15.828876 31.636450 0.367336 2.094784 0.034062 -0.019876 -819062.000000 0 0 1
-24.393427 -8.853035 -15.972876 30.472090 0.348144 2.122549 0.035702 -0.019632 -243393.000000 0 0 1
-23.324327 -9.421735 -15.248276 29.416037 0.383902 2.115736 -0.001686 -0.019396 465686.000000 0 0 1
-22.102727 -8.656835 -15.357376 28.272254 0.373299 2.145035 0.029092 -0.039372 1144850.000000 0 0 1
-20.938327 -9.214035 -14.509276 27.089317 0.414554 2.136025 0.019158 -0.002261 322215.000000 0 0 1
-20.173627 -10.340535 -14.967476 27.164816 0.473658 2.154344 0.015184 0.000738 702983.000000 0 0 1
-19.093927 -10.586935 -14.063576 25.970087 0.506266 2.143052 0.019339 0.012431 230258.000000 0 0 1
-18.169727 -11.740135 -14.515176 26.051105 0.573655 2.161783 0.019960 0.005856 -124735.000000 0 0 1
-17.290227 -11.338735 -15.550976 25.871833 0.580434 2.215645 0.025350 -0.006088 195286.000000 0 0 1
-17.859327 -11.498235 -16.866476 27.122739 0.572020 2.241909 0.018028 -0.008775 -301740.000000 0 0 1
-16.991327 -11.057535 -18.041676 27.138098 0.576920 2.298036 0.012249 -0.004983 -646187.000000 0 0 1
-17.670327 -11.117835 -19.248176 28.396109 0.561600 2.315625 0.008695 -0.011974 -19281.200000 0 0 1
-17.084527 -10.362835 -20.309276 28.490983 0.545231 2.364324 0.008654 -0.008037 -95914.600000 0 0 1
-17.898727 -10.416035 -21.637676 29.950747 0.527036 2.378124 0.004450 -0.001390 161643.000000 0 0 1
-19.227227 -9.972035 -21.419876 30.462089 0.478449 2.350635 0.007850 -0.021593 163665.000000 0 0 1
-20.073027 -10.712035 -22.295376 31.855265 0.490206 2.346048 0.007504 -0.012188 651570.000000 0 0 1
-21.290927 -9.916735 -22.878376 32.788188 0.435893 2.343066 0.003491 -0.017448 322996.000000 0 0 1
-20.873427 -8.986735 -23.843076 32.938634 0.406549 2.380182 0.000434 -0.014727 117460.000000 0 0 1
-21.924127 -8.429135 -24.592076 34.007174 0.367046 2.379139 -0.010151 -0.012959 -168261.000000 0 0 1
-21.402927 -7.521235 -25.757026 34.323150 0.337932 2.419505 -0.011686 -0.012930 371310.000000 0 0 1
-20.475927 -8.192635 -26.603656 34.556293 0.380602 2.449425 0.002117 -0.016401 88396.400000 0 0 1
-19.767227 -7.391335 -27.458726 34.631730 0.357822 2.486313 0.005188 -0.017348 -298833.000000 0 0 1
-18.568927 -8.105935 -28.123816 34.662087 0.411598 2.517290 0.033215 -0.013368 -129938.000000 0 0 1
-18.982427 -9.171935 -29.008266 35.859956 0.450102 2.513130 0.038313 -0.006378 623679.000000 0 0 1
-17.884227 -9.978935 -29.426276 35.851506 0.508945 2.533575 0.015784 -0.002600 73761.600000 0 0 1
-18.286727 -11.200535 -30.272966 37.098637 0.549557 2.525276 0.025771 -0.002784 -303241.000000 0 0 1
-18.697127 -10.918135 -31.574356 38.284830 0.528532 2.540507 0.020223 0.003441 378054.000000 0 0 1
-18.307627 -11.991735 -32.378556 39.081221 0.579891 2.547209 0.002354 0.002946 44415.000000 0 0 1
-19.073227 -11.998835 -33.756546 40.586506 0.561537 2.552992 -0.006837 0.000218 281602.000000 0 0 1
-18.608827 -10.949035 34.446372 40.653688 0.531831 0.559892 -0.003418 0.001752 163289.000000 0 0 1
-19.007827 -11.078735 33.082608 39.730276 0.527715 0.586866 0.008393 -0.001965 -136399.000000 0 0 1
-18.454927 -12.262035 32.222913 39.105728 0.586454 0.602371 0.016356 0.001979 565380.000000 0 0 1
-17.051527 -12.164335 31.933713 38.190151 0.619654 0.580522 0.022541 -0.002768 920666.000000 0 0 1
-16.555027 -13.078235 30.952253 37.458659 0.668605 0.598282 0.023195 -0.001048 157808.000000 0 0 1
-16.416327 -14.571635 31.284423 38.217057 0.725939 0.611830 0.025259 0.004294 -725083.000000 0 0 1
-17.646027 -15.244935 31.143653 38.906522 0.712526 0.642711 0.009771 0.001557 98759.100000 0 0 1
-17.550427 -16.559635 31.569033 39.734655 0.756359 0.652619 0.020728 -0.003336 -309685.000000 0 0 1
-17.836327 -16.855035 33.020433 41.140926 0.757119 0.639126 0.006267 -0.007372 -106332.000000 0 0 1
-16.812327 -16.353335 33.875779 41.202601 0.771560 0.605574 0.009251 -0.002163 358322.000000 0 0 1
-17.236427 -16.246635 -33.882516 41.340930 0.755846 2.531487 0.006486 -0.005943 -138940.000000 0 0 1
-16.166627 -15.531635 -33.060656 39.944943 0.765368 2.545714 0.011559 0.001399 -35991.800000 0 0 1
-16.037127 -14.166335 -33.399506 39.666125 0.723538 2.571806 0.012517 0.006496 350923.000000 0 0 1
-14.831927 -13.605335 -32.855686 38.530343 0.742292 2.591971 0.015962 0.006578 549334.000000 0 0 1
-14.872427 -13.261635 -31.345226 37.142742 0.728206 2.575331 0.021573 0.001420 -286885.000000 0 0 1
-15.101627 -14.359635 -30.466036 36.911213 0.760218 2.541684 0.016283 -0.002049 -122846.000000 0 0 1
-15.121127 -13.926935 -29.137096 35.659198 0.744310 2.527157 0.013965 -0.001529 -440547.000000 0 0 1
-15.307927 -15.127935 -28.153136 35.437073 0.779484 2.488905 0.017514 0.006657 -64386.100000 0 0 1
-14.187727 -15.905935 -27.825776 35.050880 0.842432 2.487940 0.006118 -0.002556 -20966.500000 0 0 1
-13.490227 -16.522135 -28.965056 35.971401 0.886079 2.506850 -0.000640 -0.005651 26671.800000 0 0 1
-12.006227 -16.757135 -28.647126 35.293185 0.949092 2.517836 -0.008928 0.000243 -127587.000000 0 0 1
-11.146827 -15.649035 -28.621406 34.472147 0.951862 2.550400 -0.001202 0.004961 -60907.400000 0 0 1
-9.891927 -15.987135 -28.021946 33.744158 1.016709 2.550664 0.006983 0.000731 622394.000000 0 0 1
-8.982927 -14.744535 -28.086616 32.968960 1.023612 2.590420 0.003211 0.006675 -190464.000000 0 0 1
-9.383727 -13.709435 -27.209606 31.880490 0.970568 2.593438 -0.009665 -0.004015 411810.000000 0 0 1
-8.255927 -12.916035 -26.798166 30.872739 1.002051 2.621998 -0.005850 0.002818 368599.000000 0 0 1
-8.109327 -11.613535 -27.631706 31.050710 0.961236 2.667900 -0.017540 -0.001893 8848.980000 0 0 1
-7.556227 -11.927235 -28.939616 32.200262 1.006089 2.687680 0.002244 -0.005606 332276.000000 0 0 1
-7.515127 -10.675535 -29.680196 32.424655 0.957419 2.727195 -0.008464 -0.001252 212033.000000 0 0 1
-6.403927 -10.735235 -30.781976 33.223269 1.032930 2.755848 -0.008502 0.005268 817376.000000 0 0 1
-5.039027 -10.725935 -30.306916 32.541460 1.131601 2.768851 0.006668 0.003419 1271730.000000 0 0 1
-4.065027 -10.468235 -31.306016 33.259210 1.200399 2.797179 0.009620 -0.003880 159908.000000 0 0 1
-4.012227 -9.038935 -31.742996 33.247829 1.153041 2.839577 -0.012122 -0.000093 -656314.000000 0 0 1
-2.834327 -8.742435 -32.503556 33.777874 1.257285 2.866035 -0.014856 0.000137 444809.000000 0 0 1
-2.904827 -7.471235 -33.043306 34.001727 1.199981 2.903597 -0.022794 0.002793 527910.000000 0 0 1
-1.544627 -6.980835 -33.649646 34.400823 1.353038 2.932232 -0.010893 0.000597 615498.000000 0 0 1
-1.163127 -7.490035 34.164606 34.995340 1.416737 0.218325 0.001610 -0.010025 29369.600000 0 0 1
0.096373 -6.954135 33.793622 34.501857 -1.556939 0.202968 0.000477 0.003515 79106.300000 0 0 1
0.636873 -7.332835 32.416853 33.241968 -1.484161 0.223270 -0.005021 0.005360 -350778.000000 0 0 1
0.016073 -6.820535 31.264073 31.999410 -1.568440 0.214794 -0.008752 0.008163 -359936.000000 0 0 1
0.700973 -7.281135 30.120453 30.995935 -1.474820 0.238240 -0.005190 0.001740 -226943.000000 0 0 1
0.028873 -6.965535 28.814683 29.644653 -1.566651 0.237187 -0.010179 0.007835 -319175.000000 0 0 1
0.224073 -5.600035 28.356563 28.905108 -1.530805 0.195130 -0.017858 0.017193 -100362.000000 0 0 1
-0.010627 -5.454835 26.966323 27.512505 1.568848 0.199590 -0.001232 0.015645 -92261.200000 0 0 1
-1.233627 -4.594135 26.607123 27.029001 1.308462 0.176913 0.005533 0.016171 12585.900000 0 0 1
-2.457927 -5.155835 26.963873 27.562193 1.125940 0.208744 0.026493 0.008074 -789840.000000 0 0 1
-3.559927 -4.320735 26.722853 27.302980 0.881641 0.206511 0.016596 0.004051 586598.000000 0 0 1
-4.956327 -4.884035 27.147223 28.024823 0.778052 0.250918 0.012488 0.007747 742045.000000 0 0 1
-5.397527 -5.960035 26.368063 27.566829 0.834885 0.295989 0.016625 0.004098 77324.500000 0 0 1
-6.662827 -6.490935 26.760593 28.331164 0.772331 0.334533 0.001566 0.003229 595216.000000 0 0 1
-6.716127 -8.059835 26.658503 28.648614 0.876088 0.374929 -0.002042 -0.004321 257189.000000 0 0 1
-5.827227 -8.601335 27.628413 29.517262 0.975345 0.359682 0.007342 -0.009766 74493.700000 0 0 1
-6.042127 -9.975535 27.832933 30.177653 1.026200 0.396799 0.015514 -0.011934 -239928.000000 0 0 1
-4.943227 -10.545335 28.731073 31.001841 1.132452 0.385119 0.014723 -0.016868 -223665.000000 0 0 1
-5.032227 -11.953535 28.847183 31.628631 1.172334 0.422518 0.036364 -0.019487 182427.000000 0 0 1
-4.431327 -12.425235 30.049573 32.817678 1.228219 0.413669 0.038058 -0.022114 -305853.000000 0 0 1
-4.279227 -13.917635 30.048443 33.390437 1.272502 0.451229 0.049637 -0.025688 185171.000000 0 0 1
-5.499727 -14.619935 29.842123 33.682960 1.210992 0.482213 0.067005 -0.028777 145477.000000 0 0 1
-5.405127 -16.029135 30.093753 34.522204 1.245564 0.512091 0.043717 -0.031818 48289.400000 0 0 1
-5.571027 -16.493635 31.601843 36.079812 1.245060 0.503525 0.053567 -0.025623 353741.000000 0 0 1
-6.944227 -16.483035 31.954043 36.619306 1.172068 0.510294 0.051774 -0.021664 -122822.000000 0 0 1
-7.097027 -16.636535 33.308734 37.902689 1.167577 0.497463 0.044487 -0.007882 12527.400000 0 0 1
-8.553627 -16.927135 33.782909 38.742449 1.102901 0.511550 0.045024 -0.002243 540697.000000 0 0 1
-8.968227 -18.314135 33.508486 39.225697 1.115432 0.546693 0.026925 -0.002136 244001.000000 0 0 1
-9.209127 -18.596235 32.084863 38.210815 1.110984 0.574102 0.037966 -0.010550 -670350.000000 0 0 1
-9.838527 -19.991535 31.836823 38.859251 1.113461 0.610632 0.054777 -0.020907 -333216.000000 0 0 1
-11.062627 -20.228835 32.477443 39.829283 1.070356 0.617349 0.052077 -0.014834 92867.300000 0 0 1
-11.508727 -21.597235 32.495393 40.679748 1.081192 0.645482 0.041498 -0.016259 -73629.100000 0 0 1
-10.836627 -22.437535 33.586270 41.820007 1.120866 0.638292 0.039017 -0.017727 131657.000000 0 0 1
-9.433327 -22.586335 33.353513 41.371331 1.175162 0.633098 0.022004 -0.014660 464400.000000 0 0 1
-8.723827 -23.270235 34.396431 42.434932 1.212120 0.625674 0.004768 -0.010453 223584.000000 0 0 1
-9.083927 -24.751335 -34.430770 43.366165 1.219051 2.488083 0.005232 0.003831 -346466.000000 0 0 1
-8.525427 -25.608875 33.681111 43.161495 1.249428 0.675570 0.020583 -0.005515 -67964.600000 0 0 1
-8.852727 -26.982195 33.770217 44.122978 1.253768 0.699187 0.016002 -0.000546 -475446.000000 0 0 1
-8.216427 -27.785595 32.602813 43.617570 1.283282 0.726551 0.022860 -0.004432 549676.000000 0 0 1
-6.818727 -27.696005 32.404113 43.169321 1.329398 0.721784 0.001391 -0.004846 -219930.000000 0 0 1
-6.019927 -28.467125 33.283134 44.208413 1.362397 0.718386 0.008432 -0.001492 -675076.000000 0 0 1
-4.593527 -28.027385 33.571414 43.973568 1.408346 0.702166 -0.000221 0.004918 -476997.000000 0 0 1
-4.353327 -26.740005 34.067538 43.526733 1.409410 0.671835 -0.005332 0.012451 -114718.000000 0 0 1
-4.737827 -25.642105 33.224639 42.235544 1.388089 0.665430 0.000705 0.003990 -288817.000000 0 0 1
-4.414627 -24.294135 33.878677 41.922055 1.391042 0.629818 -0.007033 0.001722 240120.000000 0 0 1
-3.040727 -24.113135 34.162517 41.925731 1.445356 0.618353 -0.015559 0.008263 -89937.800000 0 0 1
-2.825727 -22.963935 -34.125784 41.229798 1.448361 2.545788 -0.010744 0.002870 -138585.000000 0 0 1
33.473886 -15.468035 2.297524 36.946445 -0.432865 1.508571 0.059633 -0.039247 191371.000000 0 0 1
34.373553 -15.873735 3.340324 38.008872 -0.432624 1.482800 0.044245 -0.044512 756474.000000 0 0 1
33.691896 -16.691235 4.306624 37.845584 -0.459967 1.456755 0.044931 -0.039671 410489.000000 0 0 1
34.517669 -16.838135 5.610124 38.813216 -0.453850 1.425747 0.040167 -0.025742 489339.000000 0 0 1
-34.525519 -17.727535 5.585324 39.210621 0.474359 1.427866 0.057091 -0.029267 17642.500000 0 0 1
-33.825667 -17.646135 6.817424 38.756149 0.480840 1.393971 0.045524 -0.015454 -527421.000000 0 0 1
-32.545357 -18.443935 6.668724 37.998038 0.515585 1.394381 0.025831 -0.017337 -920984.000000 0 0 1
-32.720887 -19.838935 6.534024 38.819238 0.545045 1.401672 0.052879 -0.015268 19120.100000 0 0 1
-31.669797 -20.545135 7.145324 38.420493 0.575482 1.383730 0.024325 -0.004093 -186309.000000 0 0 1
-32.031667 -22.012235 7.228424 39.532472 0.602085 1.386914 0.018245 0.003100 -659852.000000 0 0 1
-31.841407 -22.825335 6.068124 39.644587 0.621942 1.417129 0.042759 -0.002979 214470.000000 0 0 1
-32.162477 -24.198935 6.363824 40.749376 0.645033 1.413985 0.058385 -0.004432 -119269.000000 0 0 1
-31.678097 -25.248105 5.309524 40.855351 0.672922 1.440469 0.062447 -0.003600 -126.525000 0 0 1
-32.187057 -25.023765 4.019724 40.967715 0.660838 1.472519 0.065997 -0.006538 163013.000000 0 0 1
-31.660197 -25.925925 3.054724 41.034778 0.686148 1.496285 0.057171 -0.003367 5029.680000 0 0 1
-32.220357 -25.572225 1.639824 41.167695 0.670867 1.530953 0.062284 -0.008933 -59276.100000 0 0 1
-33.614387 -25.635315 1.502924 42.300770 0.651535 1.535259 0.060043 -0.003242 -365762.000000 0 0 1
-34.045827 -25.119765 0.228424 42.310437 0.635662 1.565398 0.049165 -0.001942 513253.000000 0 0 1
35.043306 -23.944635 0.323024 42.443883 -0.599421 1.563186 0.059893 -0.013447 113296.000000 0 0 1
33.751296 -24.485935 0.337224 41.699217 -0.627624 1.562709 0.038484 -0.004099 -1185000.000000 0 0 1
32.866116 -23.520535 0.758524 40.422426 -0.621150 1.552030 0.049200 -0.014501 -217429.000000 0 0 1
31.389466 -23.772735 0.381924 39.377498 -0.648187 1.561097 0.000587 -0.002881 14728.400000 0 0 1
31.069616 -23.605735 -0.971176 39.031973 -0.649724 1.595680 -0.003178 -0.016625 -574288.000000 0 0 1
29.722616 -23.533335 -1.327376 37.934334 -0.669700 1.605795 -0.017089 -0.005748 -361225.000000 0 0 1
29.441506 -23.259235 -2.777476 37.623246 -0.668623 1.644687 -0.027467 0.006240 -371145.000000 0 0 1
29.942526 -22.033135 -3.208176 37.313621 -0.634382 1.656881 -0.013708 -0.008588 56051.200000 0 0 1
29.828386 -21.849335 -4.612476 37.261253 -0.632208 1.694902 -0.009086 -0.029668 -257185.000000 0 0 1
30.073956 -20.387235 -5.045076 36.681535 -0.595742 1.708771 0.011537 -0.029715 238398.000000 0 0 1
29.043036 -19.648235 -4.415276 35.341841 -0.594794 1.696054 0.006570 -0.027833 -101731.000000 0 0 1
29.019146 -18.222035 -4.604876 34.573954 -0.560705 1.704382 0.015622 -0.027782 -320813.000000 0 0 1
28.116876 -17.621335 -3.524776 33.369061 -0.559833 1.676624 0.023687 -0.017984 -425643.000000 0 0 1
28.573556 -17.399435 -2.213976 33.527453 -0.546963 1.636879 0.024093 -0.013099 -254603.000000 0 0 1
29.127226 -18.484835 -1.503776 34.530360 -0.565490 1.614359 0.012893 -0.000981 -585612.000000 0 0 1
28.293376 -19.760835 -1.213176 34.532268 -0.609669 1.605935 -0.000429 0.000901 224782.000000 0 0 1
27.097786 -19.601235 -0.456676 33.447077 -0.626227 1.584450 -0.007395 0.020697 621775.000000 0 0 1
26.613816 -20.766335 0.225324 33.757764 -0.662603 1.564122 -0.017010 0.021556 131457.000000 0 0 1
25.474556 -20.441335 1.235124 32.685268 -0.676216 1.532999 -0.016995 0.029957 -189987.000000 0 0 1
25.036026 -21.597035 2.006024 33.124895 -0.711786 1.510200 -0.028080 0.040354 307730.000000 0 0 1
24.124926 -21.371235 3.077324 32.376097 -0.724946 1.475603 -0.025853 0.038672 1005890.000000 0 0 1
22.642526 -20.971535 2.743824 30.984155 -0.747104 1.482124 -0.022423 0.025444 262395.000000 0 0 1
22.415826 -19.666835 2.297224 29.908709 -0.720167 1.493913 0.000333 0.013945 96223.800000 0 0 1
22.562126 -18.658735 3.332224 29.466959 -0.690985 1.457471 0.007449 0.008657 -428142.000000 0 0 1
22.468926 -17.187835 2.931124 28.440566 -0.653007 1.467552 0.009980 0.018390 524794.000000 0 0 1
21.206026 -16.976735 2.294724 27.261160 -0.675083 1.486521 0.010435 0.015646 59738.300000 0 0 1
21.248526 -15.738335 1.557924 26.488152 -0.637509 1.511946 0.013582 -0.003742 -192227.000000 0 0 1
19.910526 -15.109635 1.147324 25.020921 -0.649158 1.524926 0.000335 0.007120 156411.000000 0 0 1
19.031626 -14.707635 2.221424 24.154752 -0.657934 1.478700 0.002942 -0.001297 372523.000000 0 1 0
18.202726 -13.625035 1.975324 22.822855 -0.642551 1.484138 0.013892 -0.006376 -340523.000000 0 1 0
18.900626 -12.253835 2.187524 22.631292 -0.575200 1.473986 0.021221 -0.002707 -142394.000000 0 1 0
19.798926 -11.740435 1.224024 23.050673 -0.535244 1.517670 0.021936 -0.003224 329400.000000 0 1 0
20.083326 -10.437335 1.588424 22.689227 -0.479284 1.500731 0.018293 -0.009536 -334651.000000 0 1 0
20.751426 -9.600135 0.495924 22.869854 -0.433303 1.549110 0.015417 0.001504 -39613.400000 0 1 0
19.940626 -9.292835 -0.649576 22.009255 -0.436100 1.600314 0.002684 0.008841 655900.000000 0 1 0
20.677126 -8.447235 -1.503076 22.386571 -0.387839 1.637989 0.000251 0.007658 -321609.000000 0 1 0
20.112926 -8.391835 -2.932676 21.989845 -0.395276 1.704560 0.013482 0.003896 -234115.000000 0 1 0
20.876626 -7.702335 -3.930176 22.596587 -0.353452 1.745613 0.009707 0.002748 532874.000000 0 1 0
21.982526 -8.393035 -4.481276 23.953211 -0.364723 1.758990 0.016165 0.002779 -424584.000000 0 1 0
21.670026 -9.586335 -5.477276 24.320534 -0.416497 1.797957 0.015590 -0.000554 -262602.000000 0 1 0
20.983326 -9.355535 -6.702376 23.932151 -0.419402 1.854650 0.002712 -0.006174 -608282.000000 0 1 0
19.622626 -9.125435 -6.495676 22.594575 -0.435296 1.862400 0.003754 -0.001423 -1241090.000000 0 1 0
18.952026 -9.399135 -7.859576 22.567587 -0.460397 1.926519 -0.000438 0.006925 -530365.000000 0 1 0
18.821826 -10.752235 -8.265176 23.198811 -0.519022 1.935075 0.001121 0.010997 1184930.000000 0 1 0
19.937826 -11.230035 -9.055176 24.609486 -0.512961 1.947605 -0.000964 0.010559 556648.000000 0 1 0
19.594426 -12.602335 -9.608076 25.200704 -0.571551 1.961958 -0.014567 0.007612 -222218.000000 0 0 1
18.688526 -12.540135 -10.683776 24.913030 -0.591002 2.014008 0.009801 0.004163 -13143.400000 0 1 0
18.607226 -13.856735 -11.263976 25.789826 -0.640098 2.022791 0.019443 0.010499 41154.300000 0 0 1
17.410226 -14.221935 -12.178576 25.567501 -0.684945 2.067273 0.031402 0.000377 35237.900000 0 0 1
17.409926 -15.562635 -12.625176 26.546115 -0.729432 2.066436 0.032220 -0.001328 -389335.000000 0 0 1
16.398026 -15.706235 -13.563176 26.448834 -0.763853 2.109249 0.047798 -0.008945 -529898.000000 0 0 1
16.181526 -17.101935 -14.086276 27.436128 -0.813045 2.109963 0.037415 -0.009725 -254785.000000 0 0 1
15.595526 -17.900535 -13.080876 27.106437 -0.854104 2.074388 0.035912 -0.002033 145735.000000 0 0 1
15.772726 -19.257335 -13.356476 28.249235 -0.884547 2.063272 0.030799 -0.005851 -211818.000000 0 0 1
14.851026 -20.040835 -12.410076 27.860331 -0.933055 2.032461 0.024842 -0.005413 -590879.000000 0 0 1
13.509126 -19.919435 -12.723376 27.224340 -0.974860 2.057091 0.020541 -0.004273 -776910.000000 0 0 1
12.638826 -20.473935 -11.738076 26.771335 -1.017744 2.024677 0.018434 0.005788 1691670.000000 0 0 1
11.086126 -20.361235 -12.003576 26.106856 -1.072207 2.048551 0.012870 0.000459 1534220.000000 0 0 1
10.241926 -21.005035 -11.059376 25.853788 -1.117123 2.012816 0.005474 0.000793 -681610.000000 0 0 1
8.905226 -20.707335 -11.296776 25.213368 -1.164655 2.035376 -0.000749 0.005278 -85586.300000 0 0 1
7.871126 -21.296535 -10.296076 24.930027 -1.216771 1.996541 -0.002825 -0.000958 178909.000000 0 1 0
7.865626 -22.692335 -10.332676 26.145255 -1.237135 1.977085 0.000416 0.004254 -26713.300000 0 0 1
7.087126 -23.203935 -9.253276 25.966769 -1.274367 1.935156 0.000273 -0.012775 42755.300000 0 0 1
6.917426 -24.748835 -9.382576 27.356688 -1.298247 1.920875 0.002246 -0.006875 457079.000000 0 0 1
8.141126 -25.450395 -9.135076 28.239160 -1.261200 1.900211 0.000509 0.006376 -73522.200000 0 0 1
8.189726 -26.807325 -9.556176 29.614605 -1.274298 1.899361 -0.014893 0.001960 451776.000000 0 0 1
9.625926 -27.407265 -9.564376 30.582576 -1.233037 1.888872 -0.013919 0.009215 511233.000000 0 0 1
10.170726 -27.673635 -8.287276 30.626014 -1.218596 1.844808 -0.001143 0.007990 52350.700000 0 0 1
11.535626 -28.057785 -8.339376 31.461964 -1.180725 1.839065 0.023007 0.012594 96140.000000 0 0 1
12.111726 -28.348835 -6.912676 31.593282 -1.167031 1.791383 0.018175 0.002258 100581.000000 0 0 1
11.546426 -29.458535 -6.209876 32.244190 -1.197244 1.764596 0.030803 -0.004321 -593247.000000 0 0 1
10.210726 -29.330445 -5.845576 31.602290 -1.235791 1.756841 0.029429 -0.001973 -941678.000000 0 0 1
9.818026 -30.374235 -4.719676 32.268609 -1.258161 1.717585 0.042870 -0.009189 52348.800000 0 0 1
9.842126 -31.757165 -5.048876 33.628502 -1.270265 1.721503 0.054119 -0.011207 -314578.000000 0 0 1
9.001826 -32.185385 -6.093476 33.971493 -1.298078 1.751143 0.049521 -0.006939 -148977.000000 0 0 1
9.280826 -33.699485 -6.413476 35.537610 -1.302059 1.752261 0.042273 -0.004215 -242864.000000 0 0 1
8.730226 -34.597236 -5.540576 36.109328 -1.323618 1.724844 0.043261 -0.002373 -434132.000000 0 0 1
8.946226 33.354832 -5.667076 34.995650 1.308750 1.733449 0.043432 -0.001963 -112924.000000 0 0 1
8.560426 32.565398 -4.459276 33.965735 1.313743 1.702464 0.018018 0.003892 487762.000000 0 0 1
7.157326 32.529108 -4.224776 33.574081 1.354219 1.696965 0.020114 0.000629 -271949.000000 0 0 1
6.816726 31.551028 -3.302176 32.447488 1.358013 1.672743 0.008773 0.002760 110779.000000 0 0 1
5.607526 30.650128 -3.644076 31.371229 1.389845 1.687219 0.005446 -0.006122 22463.200000 0 0 1
5.803826 29.792538 -4.737376 30.720066 1.378398 1.725625 0.001699 -0.001731 -90468.300000 0 0 1
5.484226 30.407518 -5.992376 31.473838 1.392357 1.762358 -0.001433 -0.006994 -168101.000000 0 0 1
5.585726 29.564048 -7.277676 30.954771 1.384061 1.808125 0.021807 -0.007609 585156.000000 0 0 1
4.596326 28.520388 -7.376176 29.815210 1.411011 1.820789 0.019838 -0.010660 524643.000000 0 0 1
5.101826 27.293458 -6.818476 28.591137 1.386004 1.811599 0.006553 -0.009245 701401.000000 0 0 1
4.178226 26.015238 -7.153976 27.302556 1.411549 1.835917 0.015890 -0.007454 527884.000000 0 0 1
2.847726 26.081908 -6.696476 27.078003 1.462043 1.820692 0.012787 -0.011536 23482.800000 0 0 1
1.895426 26.625538 -7.642376 27.765407 1.499728 1.849644 0.025482 -0.014448 719192.000000 0 0 1
1.421026 25.760828 -8.860076 27.278939 1.515690 1.901592 0.037817 -0.017243 355568.000000 0 0 1
2.533826 25.462968 -9.736576 27.378530 1.471613 1.934382 0.027493 -0.016543 616685.000000 0 0 1
2.149426 24.809118 -10.951976 27.204010 1.484374 1.985137 0.038247 -0.013342 -114281.000000 0 0 1
1.984726 23.260138 -10.929376 25.776431 1.485675 2.008661 0.050011 -0.013567 -411854.000000 0 0 1
0.816326 22.893838 -10.272276 25.106052 1.535154 1.992325 0.058380 -0.014142 -593715.000000 0 0 1
0.720926 21.533238 -9.982776 23.745650 1.537329 2.004687 0.034843 -0.016404 -930131.000000 0 1 0
-0.460274 21.021038 -9.193076 22.947953 -1.548904 1.982974 0.048643 -0.011656 -710259.000000 0 1 0
-1.629974 20.995138 -9.979876 23.303445 -1.493316 2.013360 0.059574 -0.010627 -597435.000000 0 1 0
-2.668374 20.490038 -9.163576 22.603827 -1.441297 1.988212 0.043246 -0.009164 -458852.000000 0 1 0
-3.969674 20.399938 -9.979876 23.054581 -1.378606 2.018482 0.039477 -0.008208 -1071580.000000 0 1 0
-4.954574 19.853638 -9.187676 22.430518 -1.326237 1.992819 0.018150 -0.011663 -371791.000000 0 1 0
-6.064474 19.594238 -10.062176 22.846431 -1.270644 2.026870 0.021097 -0.000620 -616433.000000 0 1 0
-6.862374 18.365938 -9.689076 21.869569 -1.213213 2.029782 0.018922 -0.002472 -628819.000000 0 1 0
-7.804774 18.651638 -8.683476 22.004564 -1.174487 1.976452 0.023943 -0.005317 139509.000000 0 1 0
-9.106774 18.769238 -9.235076 22.814563 -1.119061 1.987544 0.028811 -0.012125 -440440.000000 0 1 0
-10.200274 18.880238 -8.184276 22.967180 -1.075460 1.935151 0.044389 -0.021878 -317739.000000 0 1 0
-10.271374 17.739038 -7.282276 21.753302 -1.045941 1.912154 0.031304 -0.019358 -606969.000000 0 1 0
-11.207374 18.080738 -6.308976 22.188319 -1.015908 1.859112 0.031792 -0.019707 -216736.000000 0 1 0
-11.774074 16.946238 -5.361376 21.320135 -0.963576 1.824995 0.028560 -0.028802 -24926.200000 0 1 0
-12.571774 17.464938 -4.325576 21.949583 -0.946886 1.769163 0.040744 -0.023539 -21092.100000 0 1 0
-13.116174 16.439138 -3.538276 21.326010 -0.897360 1.737481 0.045990 -0.015906 -465244.000000 0 1 0
-14.448374 16.784838 -2.887276 22.334338 -0.860066 1.700434 0.044753 -0.012201 305145.000000 0 1 0
-15.611574 16.667938 -3.732276 23.140253 -0.818112 1.732793 0.061426 -0.022179 2039970.000000 0 1 0
-16.779174 17.301838 -3.107876 24.301300 -0.800733 1.699037 0.054752 -0.017997 989681.000000 0 1 0
-17.947874 17.576438 -4.060876 25.446966 -0.774943 1.731063 0.041908 -0.022749 -58327.600000 0 0 1
-17.645874 18.592238 -5.038676 26.123485 -0.811507 1.764892 0.030427 -0.022621 71993.700000 0 0 1
-18.785774 18.732938 -5.839276 27.164783 -0.783990 1.787445 0.014058 -0.019073 32310.800000 0 0 1
-18.527374 19.689838 -6.971276 27.920459 -0.815806 1.823150 0.013653 -0.009432 -466309.000000 0 0 1
-18.437974 21.012838 -6.550676 28.712534 -0.850573 1.800970 0.017707 -0.014976 131323.000000 0 0 1
-18.604774 21.902338 -7.634476 29.734412 -0.866626 1.830460 0.014873 -0.001543 -139118.000000 0 0 1
-18.433774 23.336238 -7.249876 30.609553 -0.902232 1.809919 0.009548 -0.008957 273409.000000 0 0 1
-17.154174 23.678238 -6.717976 30.000931 -0.943836 1.796637 0.013798 -0.009884 361708.000000 0 0 1
-17.188674 24.641028 -5.665876 30.573402 -0.961708 1.757194 0.007661 -0.014046 617843.000000 0 0 1
-15.743974 25.029378 -5.169976 30.017847 -1.009312 1.743889 0.003673 -0.010761 319435.000000 0 0 1
-15.735774 25.812168 -3.984876 30.491996 -1.023329 1.701857 -0.005802 -0.008938 -503777.000000 0 0 1
-14.481274 26.308678 -3.651776 30.252096 -1.067618 1.691803 0.001762 -0.005968 -354951.000000 0 0 1
-13.880474 27.412888 -4.596376 31.068644 -1.102083 1.719284 0.014283 -0.006376 108237.000000 0 0 1
-14.615774 28.653898 -4.409876 32.467118 -1.099117 1.707043 0.012374 -0.001779 408180.000000 0 0 1
-14.030474 29.694868 -5.155676 33.244855 -1.129399 1.726507 0.012877 0.000876 -650932.000000 0 0 1
-14.403374 31.102068 -4.702776 34.596415 -1.137102 1.707151 0.014311 0.002885 -711593.000000 0 0 1
-15.741574 31.373268 -4.960976 35.449829 -1.105749 1.711201 0.037296 -0.002113 -642214.000000 0 0 1
-15.973674 32.654158 -4.463476 36.624786 -1.115844 1.692970 0.038330 -0.004941 -16074.900000 0 0 1
12.613073 -8.552135 19.117353 24.447941 -0.595833 0.672990 0.012456 0.011903 -284700.000000 0 1 0
13.072373 -9.805135 19.559153 25.487018 -0.643543 0.695995 0.026600 0.011649 51798.800000 0 0 1
13.312273 -10.696635 18.527353 25.197171 -0.676882 0.744695 0.018756 0.005954 -160051.000000 0 0 1
13.559073 -12.144835 19.054353 26.351733 -0.730433 0.762549 0.028817 -0.002211 -33951.400000 0 0 1
14.840673 -12.230535 19.668653 27.507953 -0.689278 0.774148 0.030914 -0.003529 591355.000000 0 0 1
14.978873 -13.458135 20.341853 28.623051 -0.731972 0.780331 0.029402 -0.009139 -122256.000000 0 0 1
15.430473 -14.661835 19.399653 28.799574 -0.759861 0.831715 0.032328 -0.009060 -464376.000000 0 0 1
14.502273 -15.101935 18.436753 27.897997 -0.805651 0.848828 0.035349 -0.011408 118731.000000 0 0 1
14.962773 -16.283535 17.803953 28.390471 -0.827642 0.892959 0.037974 -0.014296 -205980.000000 0 0 1
14.626273 -16.430235 16.327053 27.394400 -0.843419 0.932286 0.040382 -0.014851 -89010.900000 0 0 1
13.221473 -16.483435 16.148353 26.594742 -0.894772 0.918263 0.057257 -0.017963 -202230.000000 0 0 1
12.950673 -16.306435 14.806053 25.550714 -0.899598 0.952709 0.062383 -0.025937 -241099.000000 0 0 1
12.477573 -17.572935 14.074553 25.740842 -0.953361 0.992284 0.042524 -0.014987 -691839.000000 0 0 1
13.455073 -18.546035 13.953453 26.827100 -0.943163 1.023799 0.041820 -0.009106 -526990.000000 0 0 1
12.889273 -19.738135 13.425353 27.128720 -0.992305 1.053104 0.037200 -0.013700 -278217.000000 0 0 1
13.965373 -20.742735 13.008053 28.186915 -0.978239 1.091119 0.037804 -0.008347 -372327.000000 0 0 1
14.609173 -21.358535 14.104453 29.471182 -0.970892 1.071754 0.045061 -0.011398 21858.400000 0 0 1
14.817173 -22.751135 13.895653 30.500032 -0.993528 1.097756 0.009860 0.003619 -229949.000000 0 0 1
15.622773 -23.362935 15.077553 31.894049 -0.981388 1.078400 0.009754 -0.002773 905802.000000 0 0 1
17.018973 -23.021935 15.077253 32.357047 -0.934211 1.086071 -0.011395 -0.001422 570798.000000 0 0 1
17.651773 -23.621335 16.184553 33.637662 -0.929038 1.068837 0.002220 -0.008290 -922200.000000 0 0 1
19.095073 -23.266035 16.447053 34.299209 -0.883544 1.070692 -0.006274 -0.008953 -1082420.000000 0 0 1
19.961073 -23.853935 15.535753 34.768007 -0.874013 1.107566 0.011383 -0.018403 -966763.000000 0 0 1
21.238273 -23.316535 15.742553 35.249866 -0.832009 1.107836 0.014368 -0.007688 -952026.000000 0 0 1
22.358173 -24.092535 15.133353 36.185032 -0.822719 1.139310 0.005235 -0.016996 -549150.000000 0 0 1
22.815973 -25.237235 15.931153 37.567117 -0.835743 1.132860 0.016819 -0.015364 440722.000000 0 0 1
23.993673 -25.858195 15.453653 38.511790 -0.822782 1.157893 0.021338 -0.022646 -345361.000000 0 0 1
24.481673 -26.954585 16.471153 39.964996 -0.833438 1.145995 0.023162 -0.023529 -283207.000000 0 0 1
25.075973 -26.430065 17.610153 40.465668 -0.811682 1.120550 0.001437 -0.008400 -288102.000000 0 0 1
25.686673 -27.461605 18.310953 41.823868 -0.818782 1.117634 0.017897 -0.004900 -479401.000000 0 0 1
25.898473 -27.112505 19.832653 42.416423 -0.808296 1.084256 0.012128 -0.006618 -371955.000000 0 0 1
24.676073 -26.928395 20.485953 41.877456 -0.829016 1.059638 0.032013 0.000959 -406657.000000 0 0 1
24.772373 -26.469275 21.864153 42.335968 -0.818502 1.028103 0.023670 0.007311 -442689.000000 0 0 1
23.425573 -26.398965 22.586353 41.902341 -0.845005 1.001519 0.025499 -0.000438 -262871.000000 0 0 1
22.914373 -27.704895 22.752053 42.547452 -0.879755 1.006590 0.028718 0.000893 -1258270.000000 0 0 1
21.710673 -27.760875 23.394053 42.300133 -0.907090 0.984777 0.029881 -0.003081 -1219520.000000 0 0 1
21.186073 -29.197385 23.329853 42.960669 -0.943085 0.996730 0.050682 -0.006245 -576025.000000 0 0 1
22.100873 -30.074985 23.918953 44.329106 -0.937056 1.000862 0.036251 -0.010171 246806.000000 0 0 1
22.001273 -31.415015 23.377153 44.916038 -0.959840 1.023403 0.045373 -0.012336 -518477.000000 0 0 1
22.978473 -32.348895 24.066153 46.407338 -0.953169 1.025601 0.009333 -0.006191 -554992.000000 0 0 1
22.746973 -32.575705 25.449823 47.183629 -0.961225 1.001098 0.008085 -0.005643 294730.000000 0 0 1
23.941473 -32.677005 26.202363 48.244633 -0.938479 0.996654 0.014497 -0.000769 -842607.000000 0 0 1
23.612173 -32.901345 27.658623 49.041132 -0.948312 0.971589 0.007761 -0.009124 -102258.000000 0 0 1
23.160473 -34.158948 28.026403 49.887078 -0.974974 0.974240 0.002034 -0.008062 -300205.000000 0 0 1
21.929673 -34.565563 27.513273 49.322094 -1.005440 0.979029 0.004089 -0.003420 -1191810.000000 0 0 1
21.336273 33.493000 28.028043 48.606469 1.003588 0.956196 0.049580 -0.020860 -324374.000000 0 0 1
20.536173 33.683371 29.169083 49.062606 1.023287 0.934118 0.040528 -0.018780 157652.000000 0 0 1
19.956373 32.452428 29.585673 48.236179 1.019462 0.910501 0.047082 -0.024121 209128.000000 0 0 1
19.382173 32.573348 31.055653 49.001482 1.034038 0.884379 0.034438 -0.026278 -153295.000000 0 0 1
20.441573 32.939448 31.876133 50.189172 1.015382 0.882633 0.011986 -0.014529 -110851.000000 0 0 1
19.999273 33.208788 33.205443 51.043079 1.028740 0.862504 -0.007913 -0.009898 -713591.000000 0 0 1
21.213073 33.363410 34.113711 52.219315 1.004455 0.858891 -0.024269 -0.003443 -261245.000000 0 0 1
21.758073 32.140188 34.434750 51.886004 0.975692 0.845093 -0.023919 -0.007198 -157437.000000 0 0 1
22.835673 32.177208 -33.760016 51.928599 0.953600 2.278544 -0.032877 -0.005264 -70126.700000 0 0 1
23.328273 30.766238 -33.255196 50.957608 0.922041 2.281814 -0.019675 0.007195 -506592.000000 0 0 1
23.807773 29.908748 -34.273258 51.341986 0.898491 2.301708 -0.011171 0.005931 -722495.000000 0 0 1
22.923973 28.909558 34.354629 50.413407 0.900366 0.821043 -0.006689 -0.002982 -441757.000000 0 0 1
23.260473 28.159078 33.030063 49.243968 0.880379 0.835586 0.020961 -0.009158 52191.100000 0 0 1
24.433273 27.364758 33.120507 49.424516 0.841932 0.836422 0.016361 -0.014639 755166.000000 0 0 1
24.369773 26.588148 31.937093 48.174613 0.828904 0.846051 0.029661 -0.025463 464801.000000 0 0 1
25.584273 25.585098 31.787673 48.162313 0.785414 0.849962 0.018068 -0.020101 569220.000000 0 0 1
25.564373 24.567548 32.775403 48.283834 0.765517 0.824660 0.026689 -0.018927 1096790.000000 0 0 1
26.688373 24.770528 33.661245 49.587576 0.748146 0.824636 0.035065 -0.024371 -176143.000000 0 0 1
26.776873 23.668438 -34.323952 49.551282 0.723856 2.336016 0.031883 -0.023426 -231727.000000 0 0 1
25.822573 23.828438 -33.234056 48.364266 0.745257 2.328371 0.033426 -0.013618 772358.000000 0 0 1
24.480473 23.558238 -33.540036 47.741158 0.766203 2.349756 0.019674 -0.008791 -771242.000000 0 0 1
24.130373 22.049138 -33.654236 46.915317 0.740360 2.370773 0.014784 -0.005778 -764993.000000 0 0 1
23.994973 21.504838 -32.349666 45.658709 0.730724 2.358181 0.005412 -0.001476 381869.000000 0 0 1
23.673673 20.164038 -32.371526 44.888160 0.705509 2.376271 0.006183 0.000403 -527883.000000 0 0 1
23.517073 19.553638 -30.934866 43.501304 0.693635 2.361893 0.006268 0.003286 408620.000000 0 0 1
22.297773 19.856938 -30.231696 42.490518 0.727561 2.362417 0.004119 -0.002648 810881.000000 0 0 1
22.309973 19.208638 -28.959366 41.295902 0.710839 2.347967 0.010343 -0.004524 31383.600000 0 0 1
20.986473 19.369638 -28.173136 40.116587 0.745355 2.349394 0.021942 -0.010867 -82410.700000 0 0 1
20.908873 18.814838 -26.866866 38.897398 0.732732 2.333268 0.023170 -0.006717 -169932.000000 0 0 1
21.456373 19.567938 -25.845416 38.875001 0.739399 2.298068 0.020492 -0.003959 -181157.000000 0 0 1
21.587273 18.824338 -24.490876 37.685131 0.717135 2.278225 0.026703 -0.004745 -49459.600000 0 0 1
22.481673 17.744338 -24.549276 37.722064 0.668170 2.279425 0.039794 -0.017030 115166.000000 0 0 1
22.493873 17.149138 -23.286576 36.637848 0.651385 2.259566 0.047086 -0.021657 -430749.000000 0 0 1
23.302973 15.824438 -23.384076 36.609513 0.596543 2.263660 0.048981 -0.030962 950487.000000 0 0 1
24.693373 16.162938 -23.638976 37.812755 0.579564 2.246131 0.050851 -0.034840 1521210.000000 0 0 1
25.632873 15.089338 -23.788776 38.087244 0.532048 2.245398 0.044113 -0.034393 411329.000000 0 0 1
25.935273 14.125138 -22.602476 37.189109 0.498711 2.224047 0.043235 -0.030215 -1119210.000000 0 0 1
24.924673 13.192138 -22.404176 36.016926 0.486797 2.242149 0.037510 -0.023697 -325302.000000 0 0 1
24.648173 12.966338 -21.014376 34.889287 0.484275 2.217196 0.025656 -0.028948 -975913.000000 0 0 1
23.290973 12.348238 -20.780376 33.567431 0.487493 2.238346 0.022507 -0.013081 -478615.000000 0 0 1
22.284073 13.331738 -21.019476 33.408585 0.539141 2.251273 0.042046 -0.018663 -740754.000000 0 0 1
21.062173 12.757638 -21.344876 32.587976 0.544610 2.284969 0.042930 -0.014569 -196646.000000 0 0 1
19.940673 13.860938 -21.439976 32.394886 0.607436 2.294056 0.046573 -0.013470 -241588.000000 0 0 1
20.136573 14.923338 -22.342876 33.576654 0.637785 2.298865 0.039400 -0.007564 278135.000000 0 0 1
19.209373 15.997938 -22.130676 33.387136 0.694435 2.295416 0.022285 -0.003743 -261621.000000 0 0 1
17.904173 15.835138 -22.914876 33.111970 0.724151 2.335110 0.023397 0.008436 -434809.000000 0 0 1
17.002973 14.918738 -22.297576 31.762427 0.720199 2.349014 0.012572 0.001919 -27837.200000 0 0 1
15.990073 14.610738 -23.221076 31.754913 0.740354 2.390963 0.014475 -0.007714 -366102.000000 0 0 1
14.827573 13.767838 -22.669076 30.385808 0.748355 2.412894 0.012698 -0.011639 -6845.220000 0 0 1
13.656073 14.167038 -23.329476 30.519793 0.803761 2.440914 0.015177 -0.013929 42135.000000 0 0 1
12.433873 13.659238 -22.809076 29.350127 0.832325 2.460900 0.027827 -0.015951 10687.700000 0 0 1
11.154873 14.011438 -23.547076 29.584056 0.898422 2.491352 0.024371 -0.008375 -564708.000000 0 0 1
10.802173 15.363238 -23.359876 29.973319 0.957981 2.464433 -0.005474 -0.008495 43272.900000 0 0 1
10.272073 15.936738 -24.535376 31.007738 0.998260 2.483673 -0.000066 -0.007227 -671888.000000 0 0 1
10.219073 17.490538 -24.584076 31.854751 1.042029 2.452393 -0.007900 0.002038 631682.000000 0 0 1
11.491873 18.164938 -24.442476 32.549390 1.006722 2.420273 -0.015930 -0.000932 1043380.000000 0 0 1
12.548273 17.966738 -25.375466 33.528751 0.961134 2.429241 -0.004343 -0.003181 -54643.000000 0 0 1
12.231473 18.191838 -26.866536 34.675102 0.978862 2.457207 0.002080 -0.011665 -568635.000000 0 0 1
13.301273 17.979838 -27.759526 35.648138 0.933863 2.463402 0.001476 -0.016323 37661.100000 0 0 1
12.799373 17.458238 -28.954586 36.152207 0.938172 2.499606 0.003228 -0.023135 282171.000000 0 0 1
13.773973 17.659838 -30.184036 37.585479 0.908395 2.503238 0.009458 -0.013340 261199.000000 0 0 1
14.919973 16.832938 -30.095176 37.572237 0.845571 2.499752 -0.001074 -0.016622 -271759.000000 0 0 1
15.847173 17.451838 -30.952496 38.907025 0.833550 2.490712 -0.003404 -0.007950 -298712.000000 0 0 1
17.043573 16.581238 -31.381186 39.372575 0.771649 2.493160 0.012711 -0.011480 -1086390.000000 0 0 1
17.940973 16.243138 -30.339196 38.809598 0.735772 2.468255 0.021174 -0.009717 117749.000000 0 0 1
19.023673 15.507438 -30.860066 39.429994 0.683920 2.469715 0.030327 -0.009361 170953.000000 0 0 1
20.197673 16.322838 -31.478666 40.807934 0.679693 2.451812 0.027146 -0.007802 -627032.000000 0 0 1
19.947673 16.980138 -32.715626 41.911179 0.705210 2.466412 0.017865 -0.010313 4124.250000 0 0 1
21.128173 17.585538 -33.165816 43.076934 0.694144 2.449513 0.024689 -0.000592 -377281.000000 0 0 1
20.988773 17.898538 34.415602 44.105781 0.706098 0.675656 0.023814 0.013821 -398244.000000 0 0 1
21.994473 18.758538 33.996383 44.625034 0.706161 0.704673 0.020188 0.007676 23604.800000 0 0 1
21.815873 19.115438 32.632353 43.660082 0.719519 0.726629 0.033133 0.001530 -223413.000000 0 0 1
22.685473 20.348738 32.283823 44.395349 0.731152 0.756578 0.037467 -0.003071 -638064.000000 0 0 1
24.037173 20.071238 32.177293 44.900094 0.695726 0.771821 0.026957 -0.003483 -716461.000000 0 0 1
24.759373 21.272138 31.896483 45.638975 0.709785 0.796956 0.034611 -0.015629 430978.000000 0 0 1
26.262073 21.048838 31.552993 46.133951 0.675650 0.817642 0.013895 -0.015128 311093.000000 0 0 1
26.952473 20.440338 32.611423 46.986680 0.648846 0.803687 0.013788 -0.011337 -589985.000000 0 0 1
28.316373 20.737638 32.505183 47.837784 0.632112 0.823732 0.005884 -0.003344 -187538.000000 0 0 1
29.181473 20.125038 33.665359 48.886930 0.603747 0.811188 -0.000943 -0.004980 194212.000000 0 0 1
29.035773 20.778138 -34.188319 49.433271 0.621122 2.334506 -0.002025 -0.008173 401134.000000 0 0 1
28.019273 20.202838 -33.349616 48.014906 0.624703 2.338616 -0.002294 -0.011625 272523.000000 0 0 1
28.030873 20.595438 -31.852706 47.164571 0.633664 2.312239 0.011052 -0.013868 -298958.000000 0 0 1
29.138373 20.085638 -31.169876 47.159716 0.603522 2.292871 0.013080 -0.019420 -275998.000000 0 0 1
29.488673 20.688038 -29.978056 46.864279 0.611771 2.264876 -0.001113 -0.018565 124353.000000 0 0 1
30.849073 20.121338 -29.474406 47.172812 0.577956 2.245694 0.048058 -0.009811 1172910.000000 0 0 1
31.956873 20.483238 -30.356276 48.603583 0.569998 2.245375 0.008609 -0.009072 93769.000000 0 0 1
33.148373 20.056638 -29.791046 48.873201 0.544129 2.226299 0.049373 -0.006071 -676946.000000 0 0 1
34.371773 20.865838 -30.248916 50.316984 0.545597 2.215757 0.042627 -0.008438 -393604.000000 0 0 1
34.976173 20.434538 -31.416996 51.263346 0.528752 2.230465 0.023210 -0.004315 -295608.000000 0 0 1
-33.987080 21.145838 -31.655646 51.032813 -0.556564 2.239921 0.023591 -0.016016 -167483.000000 0 0 1
-33.238880 20.563138 -32.892026 51.083766 -0.554018 2.270360 -0.000589 -0.011587 -656113.000000 0 0 1
-32.411180 19.516838 -32.574166 49.924621 -0.542009 2.281632 0.018124 -0.010902 -624143.000000 0 0 1
-31.534780 19.367538 -33.656016 50.022708 -0.550769 2.308803 0.013768 -0.003073 -364387.000000 0 0 1
-30.601580 18.135738 -33.472126 48.844088 -0.534991 2.325791 0.004493 -0.001516 -446362.000000 0 0 1
-31.323180 16.979338 -33.173366 48.681739 -0.496734 2.320516 0.001103 0.000565 -178449.000000 0 0 1
-30.755380 15.762638 -33.599646 48.200522 -0.473611 2.342114 -0.006499 0.006999 -447030.000000 0 0 1
-31.779580 14.601038 -33.532326 48.451511 -0.430682 2.335163 -0.015654 0.013953 -349382.000000 0 0 1
-31.264080 13.316738 -33.703556 47.861340 -0.402670 2.352080 -0.005990 0.011079 185018.000000 0 0 1
-32.236780 12.296438 -33.486056 48.080436 -0.364406 2.341248 -0.000033 0.007238 -115956.000000 0 0 1
-31.660980 10.864538 -33.615546 47.439021 -0.330561 2.358316 -0.001988 0.012230 -222432.000000 0 0 1
-31.234680 10.499738 34.212045 47.500671 -0.324289 0.766643 -0.016484 0.005966 125387.000000 0 0 1
-31.590980 9.157438 33.961779 47.278442 -0.282142 0.769390 -0.004339 -0.001509 -283307.000000 0 0 1
-30.869580 8.375138 32.823793 45.830942 -0.264930 0.772465 0.011526 -0.001813 -725518.000000 0 0 1
-29.639780 7.963638 33.289273 45.278160 -0.262482 0.744810 0.009769 0.008933 -1195200.000000 0 0 1
-28.828880 7.333838 32.364023 43.958156 -0.249108 0.743290 0.016172 0.001623 -169900.000000 0 0 1
19.164473 -4.001935 -31.629896 37.198694 -0.205862 2.587344 0.003026 -0.013652 -144165.000000 0 0 1
20.135873 -4.167435 -32.649866 38.585420 -0.204084 2.579555 0.022328 -0.028014 593350.000000 0 0 1
21.332673 -3.420435 -32.383626 38.929186 -0.158985 2.553247 0.011871 -0.020405 453637.000000 0 0 1
21.330673 -1.919035 -32.891266 39.249404 -0.089724 2.564416 0.012628 -0.018590 647583.000000 0 0 1
22.506873 -1.185335 -32.424076 39.487784 -0.052617 2.534161 0.005834 -0.020088 1255920.000000 0 0 1
22.538373 0.095365 -32.980796 39.946468 0.004231 2.542105 -0.009143 -0.021373 -515882.000000 0 0 1
23.372673 1.117865 -32.239856 39.836413 0.047791 2.513766 0.012469 -0.024647 -395560.000000 0 0 1
24.760173 0.902565 -32.368316 40.762589 0.036436 2.488271 0.026415 -0.034185 -220308.000000 0 0 1
25.459973 1.919865 -31.660916 40.673206 0.075265 2.462944 0.030277 -0.028581 860147.000000 0 0 1
27.032673 1.881665 -31.656086 41.670300 0.069495 2.433617 0.029195 -0.030390 986609.000000 0 0 1
27.705373 2.382165 -32.798466 43.000021 0.085771 2.438358 0.038034 -0.028730 -4382.820000 0 0 1
27.861473 1.410265 -33.835806 43.853304 0.050574 2.452099 0.021591 -0.025550 -238153.000000 0 0 1
28.529073 1.897065 33.930181 44.370757 0.066398 0.700225 0.011705 -0.033435 -68169.300000 0 0 1
27.737373 2.810365 33.232549 43.378132 0.100976 0.698025 0.005501 -0.024772 150091.000000 0 0 1
27.921473 4.134665 33.697238 43.956887 0.147014 0.697271 0.008588 -0.015187 -21969.700000 0 0 1
27.381073 5.116865 32.647293 42.915629 0.184745 0.706356 0.021270 -0.008398 -12284.500000 0 0 1
27.602573 6.502265 32.999583 43.510389 0.231350 0.709896 0.012731 -0.003760 -112158.000000 0 0 1
26.818273 7.267265 32.148303 42.491720 0.264627 0.712732 0.006076 -0.001092 -637607.000000 0 0 1
27.209373 8.741365 32.206273 43.058164 0.310848 0.725796 0.000992 0.010925 -284430.000000 0 0 1
28.493373 8.948965 31.689673 43.545283 0.304316 0.755774 -0.007542 0.012186 -452064.000000 0 0 1
28.871473 10.316365 31.949453 44.280434 0.343181 0.764794 -0.003740 0.007018 -66975.800000 0 0 1
30.180873 10.843165 31.337033 44.838253 0.344912 0.796951 -0.015972 0.016485 176260.000000 0 0 1
31.341673 10.350365 32.050823 46.007453 0.318967 0.800087 -0.019604 0.018366 1864760.000000 0 0 1
32.621573 10.891965 31.639533 46.731809 0.322250 0.827057 -0.022873 0.020563 1104070.000000 0 0 1
32.842773 12.402365 31.734863 47.324073 0.361073 0.835798 -0.011050 0.017698 -983170.000000 0 0 1
32.983573 12.806065 33.074607 48.433883 0.370341 0.819096 0.003034 0.014025 279416.000000 0 0 1
33.414973 14.220065 33.314725 49.281250 0.402345 0.828459 0.000464 0.020099 262244.000000 0 0 1
32.334273 15.317465 33.193617 48.805186 0.442405 0.822863 0.013767 0.013135 -496989.000000 0 0 1
31.884973 15.701665 31.876133 47.741823 0.457587 0.839712 0.006510 0.009359 512977.000000 0 0 1
30.804873 16.625465 31.820543 47.306376 0.494903 0.833015 0.004041 0.012853 -9610.510000 0 0 1
29.410673 16.040565 32.015133 46.338495 0.499304 0.808067 0.011896 0.018844 -630582.000000 0 0 1
28.892373 15.325465 30.860453 44.966728 0.487696 0.814413 0.008490 0.021738 357691.000000 0 0 1
27.653073 14.692765 31.121773 44.149004 0.488392 0.788478 0.003992 0.022316 302101.000000 0 0 1
26.936973 13.982765 29.913283 42.613645 0.478804 0.792644 0.003691 0.022075 -60318.900000 0 0 1
27.389673 12.734065 29.511673 42.229012 0.435194 0.797010 -0.009840 0.017094 320392.000000 0 0 1
26.423273 12.144065 28.614353 40.797658 0.430806 0.793475 -0.005908 0.008442 330104.000000 0 0 1
26.522473 10.576165 28.591293 40.407411 0.379439 0.784735 -0.007833 0.021942 33548.700000 0 0 1
27.497373 10.108065 27.672123 40.299192 0.352268 0.813902 -0.009700 0.016916 93295.900000 0 0 1
27.320773 8.683965 27.642303 39.823772 0.307753 0.803606 0.004941 0.013570 -274977.000000 0 0 1
28.470373 7.924565 26.983553 40.018408 0.271473 0.830809 -0.002513 0.003373 -354086.000000 0 0 1
28.568973 8.219265 25.584393 39.221215 0.280134 0.860168 -0.002042 0.005373 -526861.000000 0 0 1
29.627373 7.543465 25.031863 39.513026 0.249314 0.884716 -0.001748 0.014105 -791565.000000 0 0 1
30.091973 7.993965 23.680853 39.117938 0.259654 0.920565 0.007351 0.014155 -275119.000000 0 0 1
30.697673 9.287365 23.656053 39.852366 0.293788 0.935281 0.000348 0.001374 434418.000000 0 0 1
29.862573 10.312065 23.128153 39.153843 0.332497 0.938871 -0.000713 -0.001281 -33916.900000 0 0 1
29.382073 10.279965 21.656253 37.920670 0.336561 0.962959 -0.007568 0.018992 -1615.980000 0 0 1
30.333373 10.845765 20.785353 38.337645 0.343387 0.997784 0.001452 0.007089 339649.000000 0 0 1
30.044773 10.540465 19.446753 37.309060 0.337410 1.022500 -0.008567 0.006252 -741604.000000 0 0 1
30.998173 11.356865 18.536153 37.860984 0.351185 1.059183 0.004787 -0.007842 707578.000000 0 0 1
32.227573 10.763365 18.123953 38.509014 0.322332 1.080778 0.013895 -0.000465 800582.000000 0 0 1
33.242673 10.725365 19.135353 39.828011 0.312094 1.069629 0.024994 0.003590 -476958.000000 0 0 1
34.493273 9.940565 18.756453 40.501916 0.280586 1.089306 0.027029 -0.011249 -424060.000000 0 0 1
34.213773 8.577565 18.505953 39.832489 0.245642 1.087620 0.033890 -0.009277 667811.000000 0 0 1
-34.806780 7.904465 17.949653 39.952253 -0.223308 1.104840 0.024982 0.001358 148110.000000 0 0 1
35.065673 6.411565 17.622353 39.765021 0.180847 1.111673 0.018175 0.010591 -218349.000000 0 0 1
33.939473 6.286465 16.762553 38.371743 0.183150 1.118707 -0.003657 0.022893 326533.000000 0 0 1
33.940073 4.996965 16.230253 37.951539 0.146179 1.128897 -0.001207 0.027964 -93742.100000 0 0 1
32.850673 4.033765 16.740453 37.090170 0.122179 1.102525 -0.007698 0.023116 -163537.000000 0 0 1
33.120273 3.510865 18.007153 37.862068 0.105609 1.075152 0.011695 0.030139 -252844.000000 0 0 1
32.104973 2.628065 18.341353 37.068062 0.081676 1.053189 0.000703 0.026486 -290788.000000 0 0 1
32.406773 1.886565 19.667253 37.954695 0.058150 1.026078 0.006807 0.013637 313425.000000 0 0 1
33.127173 0.644165 19.504453 38.447994 0.019443 1.038754 0.014914 0.015631 170797.000000 0 0 1
32.962973 -0.160135 20.659553 38.902447 -0.004858 1.010945 0.022467 0.004398 276425.000000 0 0 1
33.398373 -1.610735 20.528853 39.236203 -0.048191 1.020181 0.038344 0.004337 111753.000000 0 0 1
32.988073 -2.344635 21.680053 39.544089 -0.070956 0.990526 0.050658 0.008154 110069.000000 0 0 1
33.299973 -3.703235 21.592353 39.860154 -0.110753 0.998335 0.030666 0.006740 -487110.000000 0 0 1
32.646773 -4.454735 22.745153 40.037463 -0.135615 0.966605 0.013902 0.005848 -108284.000000 0 0 1
33.231173 -4.192435 24.003053 41.207207 -0.125497 0.949000 0.016675 0.005093 331978.000000 0 0 1
32.543673 -4.904935 25.029583 41.347661 -0.149593 0.920598 0.017363 0.003072 164653.000000 0 0 1
32.889673 -4.296235 26.385403 42.383696 -0.129890 0.898816 0.006324 0.003652 -127144.000000 0 0 1
32.039573 -4.658535 27.445113 42.443732 -0.144388 0.867647 0.007989 0.002330 -29028.100000 0 0 1
32.508973 -4.122835 28.706663 43.564935 -0.126148 0.851388 0.004201 0.008053 -303844.000000 0 0 1
31.603773 -4.454235 29.891693 43.728160 -0.140018 0.818140 0.016154 -0.000527 -87560.500000 0 0 1
31.541373 -5.851635 30.130793 44.010959 -0.183437 0.816714 0.014097 -0.007942 184136.000000 0 0 1
30.431073 -6.157635 30.955833 43.843247 -0.199651 0.786882 0.035119 -0.020630 -311312.000000 0 0 1
30.331673 -7.664735 31.332853 44.277604 -0.247516 0.784636 0.028257 -0.019673 403625.000000 0 0 1
31.373173 -8.195435 32.183563 45.686134 -0.255515 0.789149 0.009632 -0.024738 306530.000000 0 0 1
32.450973 -8.638035 31.378613 45.959750 -0.260155 0.819289 0.008486 -0.016076 185342.000000 0 0 1
33.807773 -8.742435 32.123693 47.448154 -0.253049 0.827081 0.007336 -0.013355 163152.000000 0 0 1
33.607673 -9.509235 33.305017 48.261013 -0.275741 0.809166 0.002914 -0.016297 -451466.000000 0 0 1
34.799073 -9.527235 34.024244 49.592266 -0.267230 0.814710 -0.007756 -0.010720 -725058.000000 0 0 1
34.687373 -10.008835 -33.567856 49.296974 -0.280914 2.319830 0.012114 -0.017980 -302747.000000 0 0 1
34.349773 -9.068335 -32.500426 48.149967 -0.258111 2.311738 0.010383 -0.017149 516633.000000 0 0 1
-34.992080 -7.909635 -32.403516 48.342485 0.222305 2.305397 0.015627 -0.014510 -212232.000000 0 0 1
34.463173 -6.877635 -31.532806 47.215782 -0.196977 2.302106 0.018957 -0.017839 -316951.000000 0 0 1
34.616473 -7.061535 -30.146626 46.443348 -0.201232 2.277204 0.013331 -0.014358 170603.000000 0 0 1
33.934273 -6.055235 -29.465346 45.347628 -0.176582 2.278073 0.019897 -0.021919 -215136.000000 0 0 1
34.305973 -6.091435 -28.003496 44.701244 -0.175730 2.247798 0.011708 -0.017387 -474274.000000 0 0 1
-34.548980 -5.640235 -27.778846 44.689020 0.161826 2.241584 0.014314 -0.020177 -710810.000000 0 0 1
-34.437080 -5.085135 -26.514386 43.758242 0.146605 2.221729 0.010133 -0.016386 -394659.000000 0 0 1
-32.988780 -4.800135 -26.147806 42.367542 0.144494 2.235932 0.005854 -0.013061 -1100700.000000 0 0 1
-32.845380 -4.407735 -24.810376 41.398090 0.133400 2.213438 0.007134 -0.006936 488457.000000 0 0 1
-31.493480 -4.374435 -24.355376 40.051957 0.138017 2.224454 0.017014 -0.009561 933439.000000 0 0 1
-30.415980 -3.421635 -24.986376 39.511497 0.112024 2.255421 0.022467 -0.007918 -202206.000000 0 0 1
-29.770780 -3.992435 -26.099156 39.792019 0.133310 2.286156 0.025260 -0.008854 -313977.000000 0 0 1
-28.975880 -3.039935 -26.704616 39.521884 0.104530 2.312699 0.021525 -0.005739 -292391.000000 0 0 1
-28.299680 -3.540035 -27.983646 39.956078 0.124445 2.346698 0.023801 0.002740 -137217.000000 0 0 1
-29.217280 -3.709835 -29.053386 41.370419 0.126298 2.349384 0.025983 -0.000759 11031.000000 0 0 1
-28.655180 -4.373535 -30.179676 41.845669 0.151458 2.376349 0.030354 -0.003754 -1089030.000000 0 0 1
-29.610580 -4.712535 -31.340636 43.373147 0.157827 2.378326 0.007706 -0.003153 108599.000000 0 0 1
-30.740880 -5.533535 -30.975266 43.989644 0.178099 2.352020 0.010376 -0.007962 1627670.000000 0 0 1
-31.819180 -5.005335 -30.161616 44.127505 0.156027 2.323358 0.027083 -0.016809 -63396.300000 0 0 1
-32.720280 -4.053735 -30.928846 45.206670 0.123263 2.324255 0.044444 -0.019950 -1169590.000000 0 0 1
-32.162180 -2.780135 -31.255116 44.933476 0.086227 2.340032 0.044226 -0.010258 29413.800000 0 0 1
-32.062880 -1.857035 -30.184756 44.074895 0.057854 2.325196 0.032546 -0.002806 -482325.000000 0 0 1
-31.842480 -0.441935 -30.720276 44.247872 0.013878 2.338211 0.025771 -0.005349 -21939.700000 0 0 1
-32.949680 0.132165 -31.378646 45.500750 -0.004011 2.331773 0.039357 -0.003997 -143473.000000 0 0 1
-32.654480 1.459365 -31.808646 45.609591 -0.044661 2.342575 0.043197 -0.003660 -501000.000000 0 0 1
-33.873580 2.228065 -32.260516 46.830808 -0.065681 2.330731 0.026062 -0.005309 -440831.000000 0 0 1
-34.413080 1.758265 -33.513856 48.067974 -0.051049 2.342306 0.019154 -0.009163 -347634.000000 0 0 1
34.499273 2.383465 -33.679386 48.271957 0.068978 2.342979 0.004533 -0.011162 -114120.000000 0 0 1
33.680473 1.859365 34.152475 48.002323 0.055150 0.779201 -0.005830 -0.013625 231021.000000 0 0 1
34.082373 2.372865 32.880633 47.417029 0.069509 0.804551 -0.014430 0.000158 -146314.000000 0 0 1
-35.052480 1.643065 32.282703 47.681746 -0.046840 0.827056 -0.025172 0.003416 -769646.000000 0 0 1
-34.946480 1.766765 30.785793 46.606254 -0.050513 0.849244 -0.019944 0.002414 -550739.000000 0 0 1
-34.475080 3.011365 30.337573 46.021384 -0.087128 0.851034 -0.013554 0.001581 117742.000000 0 0 1
-34.246880 3.092965 28.976743 44.967397 -0.090069 0.870565 -0.005559 -0.002636 12413.300000 0 0 1
-33.694980 4.516765 28.660033 44.465158 -0.133254 0.870361 -0.005389 -0.003498 -90217.700000 0 0 1
-33.147480 4.661565 27.376143 43.242789 -0.139715 0.885271 -0.001685 -0.002179 124574.000000 0 0 1
-32.653880 5.965765 27.227423 42.932491 -0.180704 0.883834 0.003228 0.004008 -581006.000000 0 0 1
-31.970880 6.091765 25.881953 41.582715 -0.188284 0.898964 0.011640 0.004748 61067.000000 0 0 1
-30.637580 5.575665 25.844463 40.468328 -0.180018 0.878074 0.006057 0.008290 820018.000000 0 0 1
-29.797780 6.080765 24.823683 39.256829 -0.201304 0.886226 0.002100 0.001823 154798.000000 0 0 1
-30.120580 5.564265 23.395153 38.542749 -0.182674 0.918526 0.015127 -0.000712 -340171.000000 0 0 1
-29.958480 4.189365 23.229253 38.139998 -0.138938 0.915931 0.013066 0.014260 -32712.400000 0 0 1
-30.474980 3.771065 21.990053 37.769137 -0.123117 0.949336 0.028689 0.010524 -253130.000000 0 0 1
-30.337180 2.177265 21.771153 37.404118 -0.071646 0.949546 0.021119 0.018229 449757.000000 0 0 1
-29.151380 1.700265 21.116853 36.036305 -0.058259 0.944697 0.008590 0.029581 325355.000000 0 0 1
-29.098480 2.003165 19.723353 35.210010 -0.068732 0.976214 0.019814 0.021996 -298536.000000 0 0 1
-27.905980 1.440165 18.932153 33.752691 -0.051562 0.975314 0.011549 0.026144 -211860.000000 0 0 1
-28.020280 0.045465 18.836353 33.763091 -0.001623 0.978946 0.018634 0.018130 253049.000000 0 0 1
-27.108880 -0.607535 17.964253 32.526525 0.022407 0.985681 0.016801 0.017068 -153249.000000 0 0 1
-27.283780 -0.567135 16.403353 31.840167 0.020784 1.029581 0.020370 0.019844 -103831.000000 0 0 1
-26.893680 0.736165 15.980553 31.292012 -0.027366 1.034808 0.023077 0.023631 370976.000000 0 0 1
-26.950980 0.944365 14.551953 30.643212 -0.035026 1.075965 0.030347 0.018492 -180679.000000 0 0 1
-26.533980 2.353165 14.217653 30.194885 -0.088454 1.080528 0.026532 0.018742 398432.000000 0 0 1
-25.118580 2.483465 14.078053 28.901595 -0.098549 1.062027 0.027201 0.014889 684906.000000 0 0 1
-24.894580 3.778465 13.511653 28.575893 -0.150629 1.078292 0.028804 0.013389 -164264.000000 0 0 1
-23.408980 4.141665 13.327753 27.253673 -0.175114 1.059824 0.031126 0.010362 -204581.000000 0 0 1
-22.684580 4.448165 14.496053 27.285745 -0.193631 1.010699 0.020883 0.014109 326892.000000 0 0 1
-21.337080 4.691165 14.123853 26.014635 -0.216417 0.996887 0.023010 0.011096 -230166.000000 0 0 1
-20.459680 5.168665 15.268853 26.047101 -0.247449 0.944434 -0.000215 0.016176 -513088.000000 0 0 1
-20.874380 6.317465 15.994253 27.045632 -0.293879 0.938027 0.000162 0.031587 670694.000000 0 0 1
-19.950780 6.662265 17.038353 27.068891 -0.322292 0.889959 -0.012637 0.030291 147901.000000 0 0 1
-20.162880 8.148065 17.425453 27.867168 -0.384046 0.895275 -0.017974 0.029485 -458045.000000 0 0 1
-19.492280 8.994965 16.524053 27.090638 -0.432346 0.914793 -0.017371 0.029277 420352.000000 0 0 1
-19.740880 10.405865 16.702553 27.873995 -0.485110 0.928274 -0.005492 0.030996 -191007.000000 0 0 1
-19.192480 11.078565 17.962853 28.526303 -0.523512 0.889637 0.005339 0.024565 -133138.000000 0 0 1
-20.052280 10.896265 19.091253 29.753965 -0.497756 0.874165 0.008809 0.018172 556034.000000 0 0 1
-19.513380 11.314765 20.307653 30.351221 -0.525469 0.837815 0.014451 0.011372 -891812.000000 0 0 1
-12.741727 -33.484409 -22.174876 42.134100 1.207189 2.125031 0.058807 0.010832 -58751.100000 0 0 1
-12.993127 -34.214009 -20.977776 42.183964 1.207859 2.091272 0.069290 0.008327 -76279.600000 0 0 1
-14.020827 -33.629409 -20.205776 41.662863 1.175788 2.077140 0.070449 -0.010607 -158753.000000 0 0 1
-14.721027 34.669365 -19.386676 42.361736 -1.169254 2.046142 0.075779 -0.007029 -450120.000000 0 0 1
-15.517027 33.716165 -20.090476 42.204089 -1.139472 2.066933 0.060556 -0.009980 227973.000000 0 0 1
-16.161627 32.730665 -19.299876 41.291401 -1.112140 2.057151 0.056137 -0.010082 353366.000000 0 0 1
-17.547227 33.117165 -18.723276 41.895260 -1.083553 2.034101 0.050337 -0.010752 -186951.000000 0 0 1
-17.421127 34.121265 -17.677976 42.193213 -1.098732 2.003114 0.055870 -0.016515 -222058.000000 0 0 1
-18.722727 34.487865 -17.326276 42.897006 -1.073437 1.986577 0.030957 -0.016377 -140840.000000 0 0 1
-19.213827 34.032765 -15.869876 42.181195 -1.056837 1.956521 0.033507 -0.015630 -46014.200000 0 0 1
-19.303927 32.611965 -15.819376 41.066221 -1.036333 1.966238 0.037685 -0.020494 68736.700000 0 0 1
-19.731727 32.138765 -14.555476 40.424041 -1.020180 1.939139 0.030017 -0.016723 -293065.000000 0 0 1
-19.779627 30.587465 -14.421076 39.176448 -0.996774 1.947767 0.024198 -0.017568 -106546.000000 0 0 1
-18.495927 30.008065 -14.323576 38.049285 -1.018430 1.956756 0.025212 -0.027499 -98981.600000 0 0 1
-18.597727 28.612865 -14.022376 36.894424 -0.994437 1.960666 0.021336 -0.029877 -625726.000000 0 0 1
-17.306727 28.052765 -13.433076 35.593931 -1.018018 1.957781 0.029736 -0.025368 -455932.000000 0 0 1
-16.267927 28.157565 -14.386576 35.559351 -1.046901 1.987315 0.038797 -0.033557 -579343.000000 0 0 1
-15.174727 27.386965 -13.940076 34.273078 -1.064822 1.989674 0.045839 -0.034665 -43136.500000 0 0 1
-13.857327 27.681965 -14.694576 34.267291 -1.106676 2.013985 0.049396 -0.036081 -270250.000000 0 0 1
-13.904527 27.554365 -16.107176 34.814078 -1.103458 2.051793 0.035534 -0.037586 -153502.000000 0 0 1
-12.838227 28.218265 -16.768776 35.246026 -1.143824 2.066628 0.052541 -0.030984 -573.451000 0 0 1
-12.997427 28.139665 -18.342776 36.017097 -1.138099 2.105144 0.068443 -0.038663 -70167.000000 0 0 1
-12.521527 26.921665 -18.854776 35.171967 -1.135448 2.136576 0.047216 -0.029809 242717.000000 0 0 1
-12.819627 26.874665 -20.269876 36.020249 -1.125705 2.168488 0.046212 -0.032679 -512027.000000 0 0 1
-12.033227 25.908065 -21.100376 35.514113 -1.135984 2.206993 0.024065 -0.025501 -1273120.000000 0 0 1
-10.686527 26.202665 -21.272276 35.401853 -1.183549 2.215398 0.016900 -0.024840 -965521.000000 0 0 1
-10.084027 25.044165 -21.780876 34.688677 -1.188008 2.249643 0.029664 -0.026898 17754.100000 0 0 1
-8.937627 25.508965 -22.735776 35.320022 -1.233790 2.270130 0.029876 -0.025434 193940.000000 0 0 1
-9.375927 26.195065 -23.888176 36.670620 -1.227077 2.280258 0.031645 -0.024005 -210517.000000 0 0 1
-8.247127 26.389065 -24.686776 37.065277 -1.267893 2.299677 0.010656 -0.018461 -468936.000000 0 0 1
-8.544227 27.164165 -26.032136 38.581962 -1.266054 2.311386 0.011536 -0.007898 -279738.000000 0 0 1
-9.404527 26.466465 -26.863496 38.866004 -1.229374 2.333920 0.015943 -0.009984 -631709.000000 0 0 1
-9.791627 27.206865 -27.961366 40.223469 -1.225333 2.339426 0.027759 -0.009346 906685.000000 0 0 1
-11.028527 26.531265 -28.711506 40.618801 -1.176846 2.355835 0.013436 -0.006514 1088420.000000 0 0 1
-11.490327 27.417465 -29.754286 42.060225 -1.173944 2.356639 0.023624 -0.004406 256240.000000 0 0 1
-12.727427 26.978965 -30.299416 42.519484 -1.130000 2.363995 0.017573 -0.003088 4233.290000 0 0 1
-12.873527 27.292265 -31.809476 43.845617 -1.130051 2.382540 0.012296 -0.003843 -214500.000000 0 0 1
-11.997727 26.564365 -32.665716 43.779675 -1.146573 2.413040 0.005352 -0.003792 103120.000000 0 0 1
-11.975027 25.121465 -32.605126 42.867044 -1.125974 2.435049 0.003583 -0.009851 130840.000000 0 0 1
-11.036827 24.514065 -33.693916 43.104882 -1.147756 2.468140 -0.009430 -0.001815 58750.700000 0 0 1
-11.524027 24.751565 34.148702 43.721585 -1.135055 0.674452 -0.004634 -0.000719 -54873.100000 0 0 1
-10.943327 23.859665 33.227447 42.345050 -1.140769 0.668611 -0.000016 0.000870 -276923.000000 0 0 1
-11.501427 24.054965 31.782083 41.485238 -1.124796 0.698036 -0.004416 0.006095 155551.000000 0 0 1
-12.740127 23.393465 31.508633 41.259653 -1.072107 0.701822 0.011575 -0.003687 207485.000000 0 0 1
-13.095427 23.472665 30.143113 40.386426 -1.061907 0.728209 0.022183 0.002342 704186.000000 0 0 1
-14.413327 22.668965 29.822513 40.137367 -1.004456 0.733238 0.017009 0.001289 734232.000000 0 0 1
-14.277027 21.261865 29.806103 39.297635 -0.979465 0.709833 -0.009678 0.001001 566873.000000 0 0 1
-15.555727 20.635465 29.667493 39.344163 -0.924846 0.716589 0.001762 -0.012653 397814.000000 0 0 1
-15.330927 19.083365 29.737663 38.516759 -0.894006 0.688703 -0.005658 -0.016227 -58287.200000 0 0 1
-14.850127 18.458765 28.580653 37.122850 -0.893316 0.692122 -0.002439 -0.003540 99070.000000 0 0 1
-14.392027 17.141465 28.859813 36.521898 -0.872369 0.659652 -0.018536 -0.005713 -39081.400000 0 0 1
-13.953027 16.363565 27.556853 34.954733 -0.864743 0.662660 -0.002151 -0.003846 588493.000000 0 0 1
-12.759927 16.921065 27.003333 34.326639 -0.924686 0.665419 -0.022364 -0.002413 536917.000000 0 0 1
-12.143827 16.128065 25.956923 32.883869 -0.925402 0.661045 -0.033624 0.004406 108842.000000 0 0 1
-11.155827 16.947065 25.126253 32.295264 -0.988626 0.679294 -0.022403 0.001613 -184906.000000 0 0 1
-11.666027 18.064765 24.366613 32.498673 -0.997387 0.723078 -0.020129 -0.001562 -211756.000000 0 0 1
-12.031227 19.318665 24.960683 33.778646 -1.013797 0.739288 -0.011109 -0.004855 -310180.000000 0 0 1
-10.994727 20.121865 25.749803 34.479353 -1.070716 0.727532 -0.030108 0.005087 -308177.000000 0 0 1
-10.641927 19.669465 27.034803 35.085881 -1.074860 0.691121 -0.028642 0.003803 296046.000000 0 0 1
-11.625427 19.955465 28.064363 36.345283 -1.043293 0.688563 -0.007533 0.006115 56104.800000 0 0 1
-11.253527 19.580265 29.456323 37.117430 -1.049159 0.654096 -0.012629 0.005425 59624.700000 0 0 1
-10.139927 20.303765 30.005333 37.621549 -1.107620 0.647562 -0.031068 0.009066 293764.000000 0 0 1
-10.161027 20.294765 31.446253 38.781320 -1.106611 0.625175 -0.035101 0.006336 -27043.100000 0 0 1
-8.977927 21.072765 32.091483 39.427501 -1.168042 0.619900 -0.038751 0.003985 -878112.000000 0 0 1
-7.797927 20.401865 32.190603 38.900882 -1.205714 0.596150 -0.034239 0.004103 -1304050.000000 0 0 1
-6.910027 21.180565 32.947423 39.773075 -1.255440 0.594578 -0.036801 0.007431 -238711.000000 0 0 1
-5.672127 20.442265 33.476096 39.632161 -1.300135 0.564848 -0.025097 0.010521 -314154.000000 0 0 1
-5.911927 19.542765 34.534087 40.118246 -1.277036 0.533942 -0.020453 0.002230 163623.000000 0 0 1
-4.711027 18.988165 -34.064196 39.282485 -1.327604 2.620267 -0.021966 0.006500 213994.000000 0 0 1
-4.084227 17.818765 34.232523 38.807923 -1.345479 0.490492 -0.028787 0.006529 -239123.000000 0 0 1
-4.672627 16.555365 34.486675 38.538867 -1.295709 0.462691 -0.018798 0.005374 295511.000000 0 0 1
-4.805327 15.886365 33.222559 37.137665 -1.277065 0.463309 -0.031880 0.014708 -208151.000000 0 0 1
-5.428127 14.466565 33.293407 36.704182 -1.211834 0.434516 -0.014882 0.000765 -781795.000000 0 0 1
-4.654327 13.562265 33.956187 36.859468 -1.240208 0.399556 -0.011096 0.005945 -286260.000000 0 0 1
-5.307627 12.309865 33.758964 36.323151 -1.163712 0.377996 0.000296 0.007810 167447.000000 0 0 1
-4.522327 11.100965 34.272681 36.308394 -1.183943 0.336450 0.011912 -0.006712 117846.000000 0 0 1
-4.328727 11.060165 -33.376126 35.426415 -1.197743 2.799711 0.015742 -0.010973 116833.000000 0 0 1
-3.424527 9.987265 -33.117136 34.759424 -1.240470 2.832970 0.016750 -0.007646 372940.000000 0 0 1
-3.308227 9.604565 -31.651236 33.241432 -1.239080 2.831032 0.020980 -0.004812 -464530.000000 0 0 1
-4.458927 8.910665 -31.326886 32.873329 -1.106826 2.833645 0.028419 -0.003870 -389752.000000 0 0 1
-4.360227 8.471165 -30.002636 31.479047 -1.095447 2.834110 0.031856 -0.000953 -701545.000000 0 0 1
-5.685027 7.843065 -29.700056 31.239823 -0.943588 2.826319 0.035719 -0.004231 -919777.000000 0 0 1
-5.571727 7.140165 -28.527186 29.930360 -0.908161 2.834177 0.028699 0.000587 438217.000000 0 0 1
-6.630927 6.185865 -28.353276 29.768144 -0.750687 2.832042 0.038879 -0.007393 -120878.000000 0 0 1
-6.496627 5.426765 -27.046776 28.340502 -0.695910 2.838274 0.026795 -0.008171 -229182.000000 0 0 1
-6.909327 6.058065 -25.803646 27.391004 -0.719846 2.799481 0.010388 0.003110 92184.000000 0 0 1
-6.405127 7.352665 -25.463516 27.266793 -0.854162 2.775870 0.018258 0.001886 110974.000000 0 0 1
-7.141327 7.916065 -24.207676 26.451356 -0.836805 2.726744 0.010454 0.006071 367854.000000 0 0 1
-6.922527 7.112565 -23.053176 25.098982 -0.798938 2.735042 0.003522 0.007300 117591.000000 0 0 1
-7.932527 7.366965 -22.087076 24.597481 -0.748449 2.685864 0.001453 0.001768 -119464.000000 0 1 0
-7.470927 7.677565 -20.647576 23.261173 -0.799038 2.662994 -0.009303 0.003744 -298206.000000 0 1 0
-7.122827 8.971765 -20.395376 23.392276 -0.899776 2.629835 -0.016847 0.005225 -33838.500000 0 1 0
-6.779427 9.270765 -19.063076 22.255529 -0.939391 2.599352 -0.015190 0.004552 -949548.000000 0 1 0
-7.928827 9.324365 -18.101476 21.851167 -0.866108 2.547039 -0.023103 0.000979 -1071020.000000 0 1 0
-7.578127 9.747665 -16.833776 20.876326 -0.909970 2.508763 -0.033927 0.004798 1097350.000000 0 1 0
-8.739827 10.082665 -16.005276 20.837792 -0.856620 2.446648 -0.021247 -0.003275 1108580.000000 0 1 0
-9.427627 11.411265 -16.306276 22.022528 -0.880301 2.404515 -0.013103 -0.004595 -697394.000000 0 1 0
-8.577927 12.467465 -15.969176 22.000752 -0.968153 2.383061 -0.024343 0.001014 123836.000000 0 1 0
-9.043627 13.752465 -16.343176 23.195191 -0.989097 2.352646 -0.014693 0.001438 -599574.000000 0 1 0
-7.894827 14.747565 -16.278676 23.341256 -1.079285 2.342588 -0.011161 0.004085 -374442.000000 0 1 0
-7.256127 14.973265 -15.019676 22.415189 -1.119540 2.305095 -0.012725 0.012859 -6910.600000 0 1 0
-8.073527 15.429165 -13.964876 22.321710 -1.088711 2.246721 -0.019023 -0.002934 -1118210.000000 0 1 0
-7.371527 16.142365 -12.813876 21.888599 -1.142420 2.196186 -0.017996 -0.003559 -241531.000000 0 1 0
-7.126727 17.509365 -13.074076 22.984768 -1.184250 2.175860 0.000125 -0.005138 775525.000000 0 1 0
-5.892327 17.690665 -13.811376 23.204164 -1.249278 2.208325 0.001621 -0.007806 468742.000000 0 1 0
-5.747927 19.128865 -14.384976 24.614623 -1.278895 2.194946 0.015708 -0.002043 -21994.700000 0 1 0
-5.485527 20.038365 -13.347376 24.693714 -1.303591 2.141848 0.033554 -0.009308 -203447.000000 0 1 0
-5.569827 21.375065 -13.772876 26.030914 -1.315889 2.128332 0.044400 -0.009796 63432.100000 0 0 1
-4.913527 22.396965 -12.808276 26.264400 -1.354834 2.080212 0.049424 -0.007006 -515796.000000 0 0 1
-4.893527 23.735765 -13.206576 27.599760 -1.367478 2.069746 0.044391 -0.012622 540315.000000 0 0 1
-6.117127 24.498765 -13.279876 28.530051 -1.326108 2.054962 0.039022 -0.012893 844789.000000 0 0 1
-7.000227 24.585865 -12.008276 28.242992 -1.293411 2.009954 0.026101 -0.013909 35276.600000 0 0 1
-7.790627 23.403865 -11.789476 27.339102 -1.249456 2.016653 0.026199 -0.011054 -27079.300000 0 0 1
-8.685427 23.423765 -10.725676 27.187304 -1.215717 1.976331 0.026307 -0.010683 -140891.000000 0 0 1
-8.044027 23.534265 -9.306876 26.555337 -1.241445 1.928870 0.027563 -0.007788 -467482.000000 0 0 1
-7.577927 24.831165 -9.094476 27.508566 -1.274596 1.907741 0.018311 -0.010619 -54090.000000 0 0 1
-6.916427 24.884265 -7.827376 26.987616 -1.299695 1.865061 0.017450 -0.013169 19409.200000 0 0 1
-6.732127 26.413465 -7.434176 28.253489 -1.321235 1.837055 0.013240 -0.008561 269446.000000 0 0 1
-5.816527 27.259265 -8.122176 29.032210 -1.360571 1.854345 0.011685 -0.011995 2559.580000 0 0 1
-6.100827 27.437165 -9.490776 29.666360 -1.352000 1.896438 0.016376 -0.012293 -216898.000000 0 0 1
-5.448927 28.683165 -10.139876 30.906825 -1.383064 1.905065 0.017028 -0.011642 -19942.700000 0 0 1
-6.198627 29.869065 -10.199276 32.165342 -1.366174 1.893455 0.007690 -0.007838 -510733.000000 0 0 1
-6.917127 29.957665 -11.409876 32.794719 -1.343876 1.926146 0.008704 -0.007424 93119.800000 0 0 1
-7.894027 31.181365 -11.383176 34.119933 -1.322841 1.910940 0.004546 -0.004931 480903.000000 0 0 1
-8.900527 30.953965 -10.376876 33.838541 -1.290809 1.882477 0.011573 -0.002957 -4682.580000 0 0 1
-9.855727 31.991165 -10.373676 35.045444 -1.271946 1.871305 0.010750 -0.003286 -358312.000000 0 0 1
-11.121027 31.508865 -9.673576 34.785972 -1.231497 1.852600 0.017523 0.001523 -169568.000000 0 0 1
-11.835227 30.469865 -10.362876 34.291026 -1.200309 1.877800 0.024767 -0.009357 442960.000000 0 0 1
-12.989327 30.115965 -9.590476 34.171204 -1.163593 1.855278 0.042342 -0.005143 830608.000000 0 0 1
-13.940527 29.000665 -10.073776 33.717322 -1.122710 1.874201 0.048414 -0.009762 183867.000000 0 0 1
-13.575527 27.695165 -9.687976 32.329150 -1.115038 1.875140 0.022569 -0.011248 -87458.300000 0 0 1
-14.718527 26.894865 -9.903476 32.218746 -1.070058 1.883237 0.037522 -0.012364 -107196.000000 0 0 1
-14.765527 25.566865 -9.061276 30.883524 -1.047066 1.868579 0.024048 -0.009340 -44834.200000 0 0 1
-13.895227 24.492465 -9.442376 29.700448 -1.054748 1.894332 0.020992 -0.005721 251288.000000 0 0 1
-14.276727 23.273565 -8.908876 28.720234 -1.020560 1.886195 0.027210 -0.007478 -229005.000000 0 0 1
-13.189227 22.217865 -9.143776 27.407989 -1.035073 1.910934 0.020552 -0.000080 -234154.000000 0 0 1
-13.015327 21.937365 -10.506476 27.586822 -1.035322 1.961513 0.012704 0.002524 418248.000000 0 0 1
-12.289027 20.713965 -10.685076 26.348802 -1.035338 1.988349 0.017105 -0.003190 -31241.800000 0 0 1
-12.336027 20.197165 -12.161276 26.608263 -1.022488 2.045471 0.012066 0.004847 -370184.000000 0 0 1
-13.580327 19.623065 -12.453876 26.918190 -0.965420 2.051786 0.009335 0.008563 -88606.500000 0 0 1
-13.475427 19.104465 -13.753276 27.124165 -0.956486 2.102554 0.004743 0.008777 485447.000000 0 0 1
-14.880727 18.773465 -14.333976 27.916695 -0.900555 2.110003 0.001539 0.021493 699956.000000 0 0 1
-15.528427 19.916565 -14.929376 29.337482 -0.908573 2.104684 -0.009741 0.020433 -283088.000000 0 0 1
-16.854727 19.634165 -15.264676 30.043179 -0.861424 2.103764 -0.002368 0.022205 -445615.000000 0 0 1
-17.619327 20.674565 -16.061876 31.557284 -0.865013 2.104790 0.005882 0.014096 -190416.000000 0 0 1
-17.917327 21.804865 -15.271476 32.088950 -0.882956 2.066796 0.001480 0.003820 74370.200000 0 0 1
-18.653027 22.658565 -16.090176 33.469983 -0.882055 2.072289 0.010685 -0.002912 -201863.000000 0 0 1
-18.890927 24.098965 -15.570276 34.352012 -0.905956 2.041212 0.009074 -0.006537 659411.000000 0 0 1
-19.989227 24.040965 -14.625476 34.517267 -0.877162 2.008339 0.000770 -0.003049 731146.000000 0 0 1
-20.312527 25.303365 -14.065576 35.365229 -0.894375 1.979830 0.002404 -0.013049 -2533.740000 0 0 1
-25.449647 -0.805535 3.815424 25.746667 0.031642 1.422058 0.027066 -0.014644 16528.000000 0 0 1
-25.562857 -0.112935 5.014824 26.050352 0.004418 1.377082 0.009545 -0.010444 430729.000000 0 0 1
-26.646337 -0.682835 5.743024 27.266754 0.025620 1.358583 0.012436 -0.012180 -451407.000000 0 0 1
-27.045907 0.187965 6.936424 27.921862 -0.006950 1.319745 0.015787 -0.010985 -663134.000000 0 0 1
-27.546617 1.467865 6.520124 28.345771 -0.053236 1.338697 0.019316 0.000060 239831.000000 0 0 1
-27.920737 2.317465 7.616324 29.033542 -0.082812 1.305362 0.021081 0.010239 136486.000000 0 0 1
-26.790527 2.982565 8.506724 28.266453 -0.110873 1.265110 0.021086 -0.000080 -73619.400000 0 0 1
-26.281977 1.986065 9.269724 27.939480 -0.075424 1.232608 0.024912 -0.006277 -736120.000000 0 0 1
-25.062027 2.441265 9.732524 26.996055 -0.097103 1.201975 0.023960 -0.013109 -918801.000000 0 0 1
-24.127627 1.402065 10.391824 26.307759 -0.058045 1.164718 0.020020 -0.009771 -113323.000000 0 0 1
-23.503327 0.441965 9.489524 25.350597 -0.018802 1.187121 0.022860 -0.015934 789913.000000 0 0 1
-24.271427 -0.740135 9.190524 25.963738 0.030485 1.208978 0.010148 -0.011738 -174278.000000 0 0 1
-23.477927 -1.780935 8.325024 24.973802 0.075711 1.230941 0.031508 -0.010767 -299067.000000 0 1 0
-22.542727 -2.466335 9.089724 24.431136 0.108974 1.189574 0.022835 -0.007117 -461246.000000 0 1 0
-21.370327 -2.758135 8.386324 23.122037 0.128354 1.199635 0.030490 -0.009619 554394.000000 0 1 0
-20.094427 -2.612135 9.322324 22.305044 0.129268 1.139612 0.027422 -0.006862 538131.000000 0 1 0
-19.668127 -1.317035 9.660724 21.952207 0.066863 1.115109 0.034130 -0.007958 573106.000000 0 1 0
-20.431227 -0.753435 10.721524 23.085792 0.036860 1.087816 0.032845 -0.008794 -335879.000000 0 1 0
-19.920627 0.659865 11.023324 22.776753 -0.033113 1.065608 0.021700 -0.000117 -266693.000000 0 1 0
-20.225227 1.651565 10.067624 22.652693 -0.081478 1.110254 0.010410 -0.000521 517604.000000 0 1 0
-20.273727 2.885365 10.716624 23.112667 -0.141371 1.088665 0.007640 0.001015 -413054.000000 0 1 0
-21.175127 3.857965 9.945324 23.710322 -0.180217 1.137956 0.011806 -0.001965 -698381.000000 0 1 0
-21.357027 5.106865 10.531424 24.353923 -0.234712 1.123608 0.008655 0.006757 494378.000000 0 1 0
-22.108527 5.985265 9.754224 24.894884 -0.264385 1.168191 0.012126 0.006730 -550141.000000 0 1 0
-22.268127 7.265865 10.616124 25.717005 -0.315398 1.145264 0.018866 0.018443 -312490.000000 0 0 1
-23.037727 7.050265 11.770624 26.814002 -0.296981 1.116341 0.005756 0.022059 358482.000000 0 0 1
-23.270127 8.151065 12.657024 27.715319 -0.336924 1.096537 0.010246 0.026510 -386331.000000 0 0 1
-24.001427 7.691665 13.913924 28.789364 -0.310126 1.066375 0.016744 0.023214 283951.000000 0 0 1
-25.313847 7.218165 13.639524 29.646743 -0.277775 1.092724 0.026402 0.021633 222396.000000 0 0 1
-26.122387 6.953165 14.753724 30.796071 -0.260145 1.071192 0.029018 0.015056 -143315.000000 0 0 1
-27.561927 6.603665 14.350224 31.767863 -0.235161 1.102102 0.030913 0.026784 -378503.000000 0 0 1
-27.768087 5.391265 13.644424 31.405456 -0.191767 1.121357 0.036118 0.028615 102137.000000 0 0 1
-28.640567 5.467665 12.525924 31.734464 -0.188637 1.165044 0.009779 0.009404 -46427.100000 0 0 1
-28.966717 4.167665 11.821524 31.562455 -0.142897 1.186892 0.023924 0.011189 -56001.700000 0 0 1
-29.700847 3.210565 12.576524 32.413222 -0.107679 1.172329 0.019374 0.012442 349315.000000 0 0 1
-29.983557 2.007165 11.872724 32.311050 -0.066842 1.194530 0.016298 0.006414 -144506.000000 0 0 1
-31.040117 1.124565 12.565924 33.506058 -0.036214 1.186362 0.023199 0.013755 147268.000000 0 0 1
-30.437277 0.289165 13.556024 33.320823 -0.009500 1.151811 0.026818 0.013354 90605.400000 0 0 1
-31.471877 -0.396835 14.211724 34.534180 0.012609 1.146668 0.031865 0.017890 -142481.000000 0 0 1
-31.164867 -1.725335 14.945924 34.606450 0.055305 1.124217 0.028784 0.016459 -451384.000000 0 0 1
-31.184087 -2.920435 14.182124 34.381810 0.093379 1.145611 0.015039 0.008021 268391.000000 0 0 1
-31.164117 -4.071635 15.012524 34.830393 0.129916 1.125176 0.017504 0.013738 -316678.000000 0 0 1
-31.086957 -5.414135 14.285624 34.637996 0.172431 1.145680 0.015087 0.007596 241300.000000 0 0 1
-32.219417 -5.637435 13.434824 35.360515 0.173217 1.181066 0.000701 -0.005041 502190.000000 0 0 1
-32.208697 -6.917335 12.863924 35.365664 0.211553 1.198516 -0.000382 0.001044 -462055.000000 0 0 1
-33.438177 -7.141335 11.965324 36.225396 0.210407 1.234173 0.006200 0.014868 710613.000000 0 0 1
-34.778958 -7.155435 12.441224 37.623931 0.202909 1.233780 -0.006322 0.020966 756625.000000 0 0 1
34.902130 -5.896935 13.007224 37.711011 -0.167376 1.218644 0.007895 0.008318 -307281.000000 0 0 1
33.378886 -5.634535 12.912524 36.230254 -0.167229 1.206382 0.024027 0.007611 634697.000000 0 0 1
32.518566 -6.435835 13.728724 35.879729 -0.195388 1.178153 0.011965 0.015593 259040.000000 0 0 1
31.169336 -6.231535 13.361424 34.480243 -0.197324 1.172868 0.010783 0.017968 176660.000000 0 0 1
30.175816 -7.332535 13.789524 33.977888 -0.238374 1.152901 -0.009848 0.013490 -7106.260000 0 0 1
29.941726 -7.369735 15.200124 34.378245 -0.241339 1.112809 0.004339 0.015105 316530.000000 0 0 1
28.945126 -8.354535 15.454624 33.859474 -0.280997 1.096813 0.011207 0.018707 404212.000000 0 0 1
28.347156 -8.338935 16.908024 34.043801 -0.286101 1.051056 -0.003399 0.019165 724144.000000 0 0 1
29.303666 -8.875335 17.873424 35.453289 -0.294092 1.042410 -0.016039 0.028832 890247.000000 0 0 1
28.675206 -9.003635 19.116324 35.619752 -0.304239 1.004302 -0.003838 0.022584 41932.500000 0 0 1
29.708336 -9.486435 20.161824 37.135924 -0.309085 0.996886 -0.017972 0.026480 807755.000000 0 0 1
30.810296 -8.611835 20.436224 37.961524 -0.272556 1.002330 -0.012728 0.023417 688615.000000 0 0 1
32.041436 -9.075335 19.880124 38.784464 -0.276008 1.032610 -0.020790 0.026345 -105377.000000 0 0 1
33.222066 -8.258235 20.396324 39.848640 -0.243639 1.033465 0.002398 0.016332 -268566.000000 0 0 1
33.561966 -8.544035 21.755724 40.898871 -0.249280 1.009907 0.005886 0.012508 -752064.000000 0 0 1
34.905239 -8.279735 22.007524 42.086350 -0.232902 1.020531 -0.004748 0.014724 -615497.000000 0 0 1
-34.779181 -8.725935 23.426024 42.831203 0.245821 0.992094 -0.005235 0.018153 -112407.000000 0 0 1
34.870262 -7.972135 24.534024 43.375205 -0.224760 0.969608 -0.003514 0.008235 231105.000000 0 0 1
34.549073 -8.834835 25.688524 43.949892 -0.250353 0.946538 -0.001505 0.006920 -88416.100000 0 0 1
34.129450 -8.101635 26.965624 44.244782 -0.233066 0.915411 0.006247 0.000871 -387039.000000 0 0 1
-35.003138 -7.691035 27.829824 45.374781 0.216287 0.910523 -0.014602 -0.005048 -574824.000000 0 0 1
34.805175 -6.745835 28.784924 45.667038 -0.191443 0.888829 -0.018132 -0.011641 -211446.000000 0 0 1
-34.231350 -6.400435 29.808524 45.839928 0.184842 0.862851 -0.014689 -0.001987 393279.000000 0 0 1
-33.912967 -7.399635 30.803524 46.407984 0.214828 0.844969 -0.014412 -0.002622 734504.000000 0 0 1
-32.570007 -7.218435 31.303424 45.747301 0.218103 0.817197 -0.015688 -0.010341 863766.000000 0 0 1
-32.245127 -8.030635 32.532924 46.504091 0.244084 0.795999 -0.019860 -0.003023 -341999.000000 0 0 1
-32.286627 -9.429535 32.390424 46.695631 0.284154 0.804252 -0.012669 -0.003743 361604.000000 0 0 1
-31.611197 -10.141135 33.420224 47.106494 0.310436 0.782063 -0.013268 -0.004353 -367551.000000 0 0 1
-31.921907 -11.638635 33.301424 47.575738 0.349619 0.795446 -0.004872 -0.005055 985429.000000 0 0 1
-33.307227 -11.891635 33.629524 48.802943 0.342923 0.810566 -0.016593 -0.003763 791945.000000 0 0 1
-33.527177 -13.305635 33.703324 49.366239 0.377798 0.819317 -0.010832 -0.005291 -78322.500000 0 0 1
-34.970680 -13.605535 34.118724 50.716333 0.371036 0.832895 0.000933 -0.007098 -225845.000000 0 0 1
34.967761 -14.976235 34.247724 51.185335 -0.404651 0.837809 0.000262 -0.008616 -175047.000000 0 0 1
33.643946 -15.324935 -34.536305 50.591749 -0.427421 2.322175 -0.008619 -0.006380 -448251.000000 0 0 1
33.536066 -16.893135 -34.336005 50.882286 -0.466627 2.311507 -0.010600 0.000870 -97389.600000 0 0 1
33.993656 -17.383635 -33.055805 50.501937 -0.472709 2.284377 -0.009173 -0.002988 350744.000000 0 0 1
33.758086 -18.778935 -33.042405 50.833624 -0.507652 2.278395 -0.001897 -0.011068 -191467.000000 0 0 1
34.372961 -19.407635 -31.804805 50.692232 -0.513998 2.249019 0.003826 -0.014613 -27977.700000 0 0 1
33.621096 -19.153635 -30.618105 49.342762 -0.517835 2.240200 -0.009145 -0.010959 -42450.300000 0 0 1
33.943816 -20.054835 -29.624405 49.315154 -0.533645 2.215193 -0.011243 -0.003509 -939310.000000 0 0 1
32.863096 -20.068435 -28.543605 47.931853 -0.548227 2.208689 -0.019873 -0.001157 66399.100000 0 0 1
31.632666 -20.687335 -28.846705 47.547069 -0.579173 2.222696 -0.010244 -0.005282 498718.000000 0 0 1
30.756736 -19.936635 -29.683505 47.165207 -0.575112 2.251515 -0.016634 -0.000947 -532671.000000 0 0 1
29.312196 -20.443435 -29.866105 46.573846 -0.609004 2.266940 -0.023002 0.004351 409457.000000 0 0 1
28.445376 -19.618535 -30.637805 46.181181 -0.603774 2.296185 -0.037989 0.012631 533794.000000 0 0 1
27.143036 -20.165335 -30.761905 45.713017 -0.638960 2.308966 -0.027123 0.008783 436215.000000 0 0 1
26.214576 -19.450035 -31.762005 45.544844 -0.638332 2.342530 -0.018750 0.017247 161899.000000 0 0 1
26.553126 -19.865535 -33.048405 46.817786 -0.642312 2.354481 -0.018435 0.006418 -178985.000000 0 0 1
25.599626 -19.449435 -33.976505 46.776322 -0.649715 2.383809 -0.008926 0.005249 -627827.000000 0 0 1
25.889896 -19.880935 33.636524 46.871676 -0.654861 0.770403 -0.012123 0.004737 -1058380.000000 0 0 1
26.970656 -19.203035 33.146124 46.849102 -0.618733 0.784830 -0.015826 0.002527 -844118.000000 0 0 1
27.194696 -19.254635 31.756324 46.029953 -0.616094 0.809438 -0.012878 0.003354 -487925.000000 0 0 1
26.196116 -18.487435 30.863924 44.503972 -0.614563 0.804447 -0.008242 -0.001586 -271259.000000 0 0 1
26.008436 -17.173935 31.348424 44.205276 -0.583597 0.782496 -0.001797 -0.008273 243980.000000 0 0 1
25.206146 -16.493135 30.435324 42.821516 -0.579413 0.780235 0.017345 -0.017942 -222098.000000 0 0 1
24.837026 -15.028235 30.717224 42.264330 -0.544142 0.757162 0.022900 -0.018347 -184278.000000 0 0 1
25.943406 -14.183135 30.553424 42.517448 -0.500302 0.768996 0.022358 -0.019449 -134805.000000 0 0 1
25.659846 -12.873735 30.928324 42.198601 -0.465013 0.748188 0.035075 -0.020669 71471.700000 0 0 1
26.853726 -11.879435 31.057924 42.741528 -0.416495 0.757370 0.024809 -0.023603 37821.600000 0 0 1
27.450546 -11.562435 29.846424 42.166710 -0.398656 0.784390 0.024484 -0.014851 -588422.000000 0 0 1
28.749086 -11.101135 30.097524 43.076746 -0.368500 0.797224 0.019287 -0.011142 -397836.000000 0 0 1
29.472676 -10.624235 28.853024 42.591196 -0.345978 0.826518 0.015978 -0.010686 -494781.000000 0 0 1
29.139806 -9.288335 28.546024 41.836311 -0.308569 0.819856 0.020772 -0.005452 -308623.000000 0 0 1
29.863606 -8.753335 27.462624 41.504838 -0.285124 0.847749 0.018438 0.007358 -161281.000000 0 0 1
29.814556 -7.222935 27.302624 41.067162 -0.237683 0.843532 0.023502 0.002614 -40392.200000 0 0 1
28.569026 -6.590935 27.100424 39.925714 -0.226735 0.824708 0.035565 -0.000336 -235833.000000 0 0 1
28.701536 -5.162735 27.125024 39.827113 -0.177973 0.821574 0.040337 -0.002576 539628.000000 0 0 1
27.284086 -4.542135 26.997124 38.650964 -0.164963 0.797518 0.037108 -0.000522 842463.000000 0 0 1
26.605416 -4.780435 25.737124 37.324258 -0.177782 0.809922 0.030133 0.007376 1927870.000000 0 0 1
25.157666 -4.613535 25.755824 36.298145 -0.181370 0.781918 0.038217 -0.002347 1153760.000000 0 0 1
24.447526 -4.930735 24.469124 34.938971 -0.199017 0.794924 0.031359 0.007518 -482488.000000 0 0 1
24.932226 -4.134435 23.380324 34.428898 -0.164332 0.824274 0.037797 0.014193 417873.000000 0 0 1
24.856526 -4.842735 22.135524 33.634512 -0.192417 0.852478 0.033170 0.009691 -4370.950000 0 0 1
25.122436 -3.873635 20.975324 32.956123 -0.152985 0.880894 0.039181 0.007602 180417.000000 0 0 1
24.027026 -3.011235 20.662824 31.832653 -0.124677 0.864385 0.038450 0.013784 287063.000000 0 0 1
24.366926 -1.931735 19.804624 31.459526 -0.079111 0.889852 0.045693 0.009338 -786191.000000 0 0 1
23.164426 -1.124635 19.366624 30.214592 -0.048512 0.875036 0.002771 0.013520 -682475.000000 0 0 1
22.363426 -1.814335 18.436624 29.040037 -0.080952 0.882957 0.027677 0.010246 -203706.000000 0 0 1
21.347826 -0.938735 17.985924 27.930348 -0.043945 0.871138 0.020193 0.012075 -47518.600000 0 0 1
20.201826 -1.563535 17.181924 26.566462 -0.077242 0.867478 0.011985 0.012049 -210252.000000 0 0 1
20.608926 -2.093135 15.948724 26.143275 -0.101217 0.914672 0.021121 -0.009128 122574.000000 0 0 1
19.513626 -2.703735 15.285724 24.934818 -0.137680 0.910910 0.029289 -0.003940 34723.400000 0 1 0
19.818626 -3.150535 13.846424 24.380879 -0.157649 0.966818 0.019413 -0.021622 -197873.000000 0 1 0
18.865626 -4.051035 13.302324 23.436607 -0.211519 0.967224 0.015309 -0.015171 496789.000000 0 1 0
19.150226 -4.394535 11.961324 23.002529 -0.225572 1.023945 0.009453 -0.012213 -551813.000000 0 1 0
18.221026 -5.437435 11.362224 22.151109 -0.290002 1.032188 0.002317 -0.008598 -409366.000000 0 1 0
18.422826 -6.764335 11.871324 22.936545 -0.351890 1.026785 0.015776 -0.009261 438864.000000 0 1 0
17.248226 -7.528135 11.777724 22.201101 -0.411536 1.011604 0.002377 0.001298 -456065.000000 0 1 0
17.417326 -8.919135 12.368124 23.149184 -0.473268 1.007142 0.019398 -0.001582 -199105.000000 0 1 0
18.277826 -9.689735 11.562124 23.699211 -0.487465 1.061149 0.013308 -0.006423 539435.000000 0 1 0
17.924526 -11.056535 11.667824 24.076414 -0.552709 1.064872 0.019979 -0.007544 208577.000000 0 1 0
18.614926 -11.892935 10.537424 24.474368 -0.568527 1.125695 0.024888 -0.005954 293231.000000 0 1 0
18.031226 -11.553635 9.285424 23.341609 -0.569850 1.161672 0.023356 -0.003923 398587.000000 0 1 0
18.694026 -12.163635 8.185624 23.757632 -0.576846 1.219040 0.025883 -0.016423 -105334.000000 0 1 0
18.432526 -11.538235 6.816124 22.789217 -0.559298 1.267053 0.019078 -0.001155 -423828.000000 0 1 0
19.104826 -10.346335 6.603524 22.707874 -0.496337 1.275730 0.033654 0.005942 399887.000000 0 1 0
19.186726 -9.851035 5.274224 22.203396 -0.474334 1.330962 -0.012016 -0.000601 -717284.000000 0 1 0
19.772226 -8.445635 5.291524 22.142039 -0.403687 1.329480 0.008176 0.002700 -677611.000000 0 1 0
20.135426 -8.080735 4.003224 22.062626 -0.381643 1.388337 -0.003638 -0.005071 415423.000000 0 1 0
20.393626 -6.681335 4.002524 21.830264 -0.316599 1.386406 -0.001541 -0.005998 -1133540.000000 0 1 0
21.237926 -6.232735 2.843824 22.315551 -0.285457 1.443012 0.013051 -0.010593 -763206.000000 0 1 0
20.525926 -6.210135 1.618824 21.505813 -0.293795 1.495451 0.005803 -0.016702 288559.000000 0 1 0
21.104026 -5.388635 0.603824 21.789491 -0.249995 1.543081 0.018421 -0.008299 -18571.800000 0 1 0
-25.336997 -16.292235 -0.002476 30.123087 0.571454 1.570879 0.010036 0.001578 -126252.000000 0 0 1
-24.403027 -15.621335 -0.857676 28.987402 0.569412 1.600389 -0.001022 0.007330 1168050.000000 0 0 1
-23.013827 -15.971535 -0.656576 28.020658 0.606686 1.594230 0.002203 0.001084 1582020.000000 0 0 1
-22.254127 -15.187235 0.468724 26.946577 0.598847 1.553401 -0.004058 -0.002501 -202203.000000 0 0 1
-22.731127 -15.573335 1.745924 27.609440 0.600663 1.507518 0.004549 0.008582 -364578.000000 0 0 1
-21.934727 -15.139435 2.796824 26.798451 0.604121 1.466241 0.016075 0.017273 -209322.000000 0 0 1
-22.278727 -15.674135 4.190924 27.560552 0.613103 1.418142 0.023930 0.021536 -435309.000000 0 0 1
-21.921127 -17.034135 4.380524 28.104921 0.660599 1.414295 0.031298 0.013195 197533.000000 0 0 1
-22.399927 -17.596635 5.587124 29.027819 0.665878 1.377113 0.030626 0.003984 -466188.000000 0 0 1
-22.167727 -19.101335 5.632724 29.799274 0.711232 1.380630 0.012117 0.004907 21561.200000 0 0 1
-22.846027 -19.732035 6.696124 30.921388 0.712392 1.352514 0.001775 0.007064 -14388.900000 0 0 1
-22.926027 -21.117135 6.454124 31.830674 0.744350 1.366616 0.003311 0.010823 125245.000000 0 0 1
-23.759427 -21.854435 7.542724 33.151461 0.743659 1.341263 -0.001011 0.016020 29975.600000 0 0 1
-23.016627 -22.215635 8.695024 33.149706 0.767692 1.305396 -0.000232 0.021018 -31333.200000 0 0 1
-23.818827 -22.887735 9.676824 34.421300 0.765466 1.285826 0.004186 0.020756 457609.000000 0 0 1
-22.984427 -23.402335 10.912224 34.569203 0.794407 1.249641 -0.018503 0.015840 365364.000000 0 0 1
-22.743427 -22.373435 11.862624 34.037566 0.777198 1.214809 0.003897 0.019414 -372765.000000 0 0 1
-21.959227 -22.866635 12.891924 34.224149 0.805638 1.184575 0.012376 0.019754 -468725.000000 0 0 1
-22.285327 -22.331735 14.326424 34.649511 0.786438 1.144538 0.002912 0.028037 -198552.000000 0 0 1
-23.446027 -22.944335 14.828624 36.000650 0.774584 1.146259 0.000869 0.029059 -347650.000000 0 0 1
-23.892627 -22.212135 15.960624 36.317738 0.748965 1.115786 0.006009 0.035379 644969.000000 0 0 1
-25.270957 -22.774935 16.520124 37.818427 0.733494 1.118728 -0.031617 0.037647 641005.000000 0 0 1
-26.382837 -22.538635 15.679524 38.077443 0.706980 1.146390 -0.030270 0.031661 50886.200000 0 0 1
-26.509817 -23.443535 14.561424 38.267543 0.724092 1.180442 -0.027723 0.032338 -785662.000000 0 0 1
-27.386957 -24.624535 14.975424 39.757722 0.732336 1.184601 -0.020632 0.029828 -764526.000000 0 0 1
-26.902647 -25.394485 16.033524 40.320047 0.756568 1.161835 -0.022925 0.035771 -158850.000000 0 0 1
-27.744547 -26.486065 16.397524 41.715109 0.762196 1.166814 -0.033185 0.029869 -29739.600000 0 0 1
-27.677257 -27.768815 15.460924 42.144725 0.787049 1.195172 -0.016885 0.022927 -171334.000000 0 0 1
-28.366057 -27.606275 14.265524 42.074277 0.771825 1.224883 -0.012544 0.006490 171875.000000 0 0 1
-29.707227 -28.082025 14.301524 43.308810 0.757283 1.234258 0.008884 -0.008790 312379.000000 0 0 1
-30.283287 -28.448055 12.884324 43.501438 0.754160 1.270104 0.024792 -0.021148 -31841.200000 0 0 1
-29.900037 -29.752205 12.462624 43.983212 0.782920 1.283511 0.035870 -0.019004 241471.000000 0 0 1
-30.142537 -29.937015 11.068524 43.901135 0.781977 1.315922 0.031144 -0.008340 -277554.000000 0 0 1
-29.318367 -31.135955 10.630924 44.068480 0.815455 1.327157 0.036671 -0.021174 -377464.000000 0 0 1
-29.660127 -32.394155 11.157724 45.316655 0.829428 1.322021 0.021469 -0.009704 -306524.000000 0 0 1
-28.870507 -33.443205 10.664324 45.449774 0.858649 1.333948 0.039842 -0.012042 -485282.000000 0 0 1
-28.993827 34.581469 11.382424 46.541160 -0.873063 1.323723 0.030822 -0.002820 240102.000000 0 0 1
-30.328067 34.082999 11.354924 47.014644 -0.843629 1.326866 0.016891 0.008799 309733.000000 0 0 1
-30.494257 32.754278 11.756024 46.270363 -0.821115 1.313908 0.011020 0.005814 -35763.000000 0 0 1
-31.869597 32.382858 12.404224 47.097616 -0.793386 1.304280 0.016566 0.005337 1158760.000000 0 0 1
-32.980817 32.336888 11.490024 47.596526 -0.775540 1.326983 -0.006220 0.004328 509880.000000 0 0 1
-33.574717 33.596954 11.149924 48.788705 -0.785729 1.340224 0.002878 0.012954 -241106.000000 0 0 1
-34.962608 33.352607 10.504424 49.448188 -0.761835 1.356732 -0.002444 0.024397 17240.200000 0 0 1
-35.043544 32.788638 9.193024 48.863651 -0.752168 1.381532 -0.016968 0.017673 161559.000000 0 0 1
33.749616 32.686338 8.802824 47.800868 0.769395 1.385583 -0.010070 0.024505 45111.400000 0 0 1
33.582686 32.223558 7.328624 47.115424 0.764748 1.414616 -0.008259 0.009137 -206082.000000 0 0 1
34.011846 30.918808 7.106724 46.511116 0.737798 1.417399 -0.005705 0.000672 41795.600000 0 0 1
33.814226 30.536138 5.765924 45.924977 0.734501 1.444913 0.009159 -0.002276 3716.120000 0 0 1
34.187652 29.046928 5.356724 45.179797 0.704280 1.451952 0.000971 0.000262 47321.800000 0 0 1
33.328856 28.071678 5.942924 43.978973 0.699985 1.435251 0.003279 -0.001458 365491.000000 0 0 1
33.687936 27.764098 7.287124 44.258607 0.689297 1.405394 -0.005948 -0.003065 -61045.100000 0 0 1
32.707756 26.706338 7.862424 42.951641 0.684730 1.386705 0.000515 -0.002512 -78543.000000 0 0 1
32.833336 25.438518 7.232024 42.159795 0.659171 1.398405 0.006720 -0.008099 -89135.600000 0 0 1
31.667556 24.687598 7.454724 40.839742 0.662169 1.387231 0.003608 -0.002546 -606107.000000 0 0 1
31.630196 23.305738 6.712624 39.858324 0.635012 1.401578 0.004939 0.002480 81258.400000 0 0 1
32.531606 22.293938 7.106624 40.072798 0.600793 1.392510 0.015169 0.002781 -356451.000000 0 0 1
33.902226 22.508838 6.922624 41.278704 0.586108 1.402296 0.035622 -0.005021 -332376.000000 0 0 1
34.755276 21.198538 7.004624 41.308255 0.547694 1.400403 0.025294 0.001000 -95632.700000 0 0 1
34.683096 20.267938 5.922724 40.605235 0.528851 1.424413 0.041888 -0.005711 -95165.800000 0 0 1
-34.977264 19.023838 6.235524 40.301330 -0.498141 1.415450 0.046187 -0.006800 -265847.000000 0 0 1
34.793496 17.935938 5.219124 39.490815 0.475968 1.438248 0.040444 -0.007188 29227.200000 0 0 1
-34.560072 17.820338 4.044224 39.093718 -0.476076 1.467161 0.040574 -0.006268 176312.000000 0 0 1
-35.067472 16.778038 3.232724 39.008726 -0.446260 1.487829 0.022143 -0.006245 -884480.000000 0 0 1
-34.194829 16.316838 2.001724 37.941171 -0.445220 1.518013 0.023705 0.011323 119453.000000 0 0 1
-33.084287 15.497138 2.285824 36.605414 -0.438061 1.508311 0.034669 0.003290 -468213.000000 0 0 1
-32.002737 16.209838 2.762524 35.980072 -0.468845 1.493941 0.052788 0.000459 -1422310.000000 0 0 1
-30.742917 15.349038 2.986524 34.491147 -0.463064 1.484100 0.041843 -0.002658 -256492.000000 0 0 1
-30.839757 14.562338 4.173924 34.359481 -0.441156 1.449017 0.049013 -0.007113 708629.000000 0 0 1
-29.573357 13.996738 4.485524 33.024416 -0.442051 1.434551 0.031870 -0.002050 -30902.500000 0 0 1
-29.404587 13.538738 5.941424 32.912424 -0.431493 1.389279 0.033144 -0.011424 -209643.000000 0 0 1
-29.368757 12.154038 6.125924 32.369298 -0.392382 1.380397 0.030962 0.000898 429616.000000 0 0 1
-29.087007 11.833438 7.476324 32.279709 -0.386380 1.337063 0.003186 0.002577 -100197.000000 0 0 1
-28.970617 10.306438 7.628324 31.681393 -0.341792 1.327624 0.001496 0.008440 743326.000000 0 0 1
-30.233677 9.636538 7.824624 32.682760 -0.308555 1.329037 -0.003461 0.000955 786266.000000 0 0 1
-30.087927 8.244238 7.899624 32.181592 -0.267441 1.322792 -0.008693 0.003580 438137.000000 0 0 1
-31.366017 7.404738 7.555924 33.102102 -0.231831 1.340505 -0.010173 0.008169 792519.000000 0 0 1
-32.449007 7.559638 8.472924 34.378432 -0.228887 1.321770 -0.009439 0.010042 471612.000000 0 0 1
-33.555177 6.741438 8.130524 35.178151 -0.198267 1.337563 0.004483 0.008217 382526.000000 0 0 1
-34.298084 6.125738 9.325924 36.067383 -0.176739 1.309255 0.006153 0.008599 -251629.000000 0 0 1
-34.921206 6.959038 10.260124 37.056565 -0.196702 1.290253 0.000434 0.015071 602513.000000 0 0 1
-34.028977 7.705438 11.137724 36.625045 -0.222682 1.261801 -0.001839 0.005613 250690.000000 0 0 1
-34.717978 8.893538 11.912024 37.766775 -0.250773 1.249908 0.010612 -0.004910 -143892.000000 0 0 1
34.627176 8.477338 13.026624 37.955230 0.240095 1.220464 0.003631 -0.001290 494031.000000 0 0 1
34.101056 9.605438 13.615524 37.954301 0.274562 1.203884 0.016502 -0.002019 -497605.000000 0 0 1
33.360856 9.312538 14.944324 37.722710 0.272216 1.163463 0.001035 0.000533 -619187.000000 0 0 1
32.130466 8.673238 14.880024 36.455548 0.263654 1.150349 0.001641 0.000722 -182281.000000 0 0 1
31.697726 8.257438 16.199924 36.542696 0.254842 1.111503 -0.010564 0.009854 304499.000000 0 0 1
30.208736 7.804238 16.316624 35.209460 0.252816 1.088950 -0.015622 0.018794 823113.000000 0 0 1
29.245196 8.884538 16.408524 34.690865 0.294935 1.078112 -0.029918 0.015360 1238480.000000 0 0 1
27.861106 8.530038 16.380924 33.426598 0.297101 1.058642 -0.017280 0.021924 865562.000000 0 0 1
27.294996 7.725738 17.601024 33.384126 0.275831 1.015462 -0.011861 0.019830 -638863.000000 0 0 1
27.211236 8.619938 18.717824 34.133731 0.306778 0.990386 0.000970 0.010290 99612.500000 0 0 1
26.539226 8.187738 19.893624 34.163223 0.299250 0.949228 0.006775 0.010120 -269575.000000 0 0 1
27.105266 7.027638 20.743024 34.847614 0.253686 0.933220 0.009841 0.010303 -281715.000000 0 0 1
26.489286 6.962338 21.997624 35.129074 0.257023 0.894134 0.003279 0.011968 -10145.900000 0 0 1
26.880126 5.812538 22.712224 35.667518 0.212960 0.880486 0.008274 0.011529 -572574.000000 0 0 1
26.141376 5.502138 24.046324 35.942603 0.207448 0.837907 0.011792 0.004685 -929118.000000 0 0 1
24.863126 5.023238 23.895024 34.847957 0.199352 0.815240 0.001625 -0.000593 -991436.000000 0 0 1
23.900926 6.042038 24.141424 34.504620 0.247608 0.795878 0.001792 0.011771 -614227.000000 0 0 1
22.462926 5.569238 24.292424 33.551771 0.243030 0.761172 -0.003579 0.002695 -614665.000000 0 0 1
22.044826 4.839438 23.231624 32.389857 0.216099 0.770949 -0.011731 0.013199 -1091390.000000 0 0 1
20.660126 4.831938 23.243224 31.471191 0.229748 0.739871 0.006602 0.002397 -2070810.000000 0 0 1
20.071026 4.018638 22.122124 30.139408 0.197608 0.746613 -0.002187 0.011375 808511.000000 0 0 1
18.679026 4.228338 21.808424 29.023994 0.222616 0.720626 0.006171 0.004488 1201680.000000 0 0 1
17.777326 3.679338 22.761324 29.114407 0.204087 0.673267 0.013459 0.000753 -1081600.000000 0 0 1
16.337126 3.588838 22.298124 27.874500 0.216239 0.643589 0.022786 0.007822 -910925.000000 0 0 1
16.194826 2.714338 21.239624 26.847004 0.166062 0.658133 0.010482 0.007581 -484784.000000 0 0 1
14.961626 2.565238 20.605324 25.593164 0.169803 0.634935 0.019252 -0.000851 -726135.000000 0 0 1
13.966326 1.598838 21.235224 25.466631 0.113982 0.584759 0.024455 -0.002381 -523465.000000 0 0 1
14.285426 0.210438 21.051024 25.441369 0.014730 0.596276 0.004086 -0.001637 166130.000000 0 0 1
13.750526 -0.495362 22.140824 26.067958 -0.036009 0.556043 0.008248 -0.000779 -140761.000000 0 0 1
13.963826 -2.004562 22.026724 26.156897 -0.142580 0.569631 -0.008252 -0.001798 -8041.100000 0 0 1
13.251126 -2.658862 20.983724 24.959538 -0.198022 0.572204 -0.012698 0.013611 204959.000000 0 1 0
13.277926 -4.047662 21.102324 25.258562 -0.295893 0.581841 -0.012818 0.027173 65480.800000 0 0 1
13.201226 -4.668262 19.735324 24.198100 -0.339899 0.617077 -0.005396 0.021489 -18705.400000 0 1 0
11.909026 -4.559762 19.193124 23.043271 -0.365664 0.586439 -0.015029 0.013071 -224676.000000 0 1 0
11.862026 -4.982962 17.853324 22.006334 -0.397693 0.624456 -0.001795 0.012806 1127980.000000 0 1 0
10.356726 -5.362462 17.566024 21.085136 -0.477767 0.586108 0.000224 0.010776 1215900.000000 0 1 0
9.773726 -6.226362 18.529124 21.854559 -0.567218 0.558902 0.002079 0.023628 -1170850.000000 0 1 0
8.400226 -6.253762 18.400224 21.171716 -0.639956 0.517427 -0.005845 0.012746 -650530.000000 0 1 0
7.625126 -7.290262 19.277424 21.975203 -0.762951 0.500724 -0.012025 0.010757 -35024.200000 0 1 0
7.784426 -8.657362 18.862024 22.165810 -0.838441 0.553003 -0.005334 0.010671 197518.000000 0 1 0
8.947926 -9.289562 19.399224 23.295734 -0.804129 0.586763 0.012415 0.005773 426676.000000 0 1 0
9.122526 -10.731662 18.883324 23.557779 -0.866269 0.640872 0.020001 0.004188 125119.000000 0 1 0
9.357326 -10.675162 17.518024 22.547722 -0.851088 0.681020 0.027154 0.002232 72144.500000 0 1 0
9.763926 -11.909562 16.956324 22.906087 -0.884075 0.737348 0.024084 -0.000401 160599.000000 0 1 0
10.107126 -11.844462 15.450224 21.935239 -0.864378 0.789280 0.032555 -0.006654 195421.000000 0 1 0
10.485226 -13.068762 14.882024 22.409978 -0.894647 0.844533 0.024161 -0.009311 -258519.000000 0 1 0
10.155026 -13.156262 13.557224 21.447846 -0.913440 0.886534 0.017630 -0.007051 -549946.000000 0 1 0
10.712326 -14.320362 12.732624 21.953278 -0.928545 0.952083 0.024706 -0.013476 -202472.000000 0 1 0
12.082826 -14.279862 12.431524 22.460007 -0.868545 0.984240 0.015176 -0.010993 -258018.000000 0 1 0
12.372726 -13.363862 11.331024 21.449225 -0.823890 1.014232 0.000761 -0.008194 391711.000000 0 1 0
13.889526 -13.343462 10.897124 22.129487 -0.765349 1.055922 0.004411 -0.009343 947177.000000 0 1 0
14.222826 -14.498462 10.254824 22.752046 -0.794995 1.103224 0.006065 -0.007601 -289049.000000 0 1 0
15.521226 -14.501062 9.718624 23.358958 -0.751431 1.141693 0.008441 -0.011056 -49337.900000 0 1 0
15.994426 -15.974662 9.333524 24.456618 -0.784780 1.179231 0.006112 -0.011147 30998.100000 0 1 0
16.543326 -16.796462 10.346624 25.745978 -0.792991 1.157235 0.017234 -0.006356 324658.000000 0 0 1
15.572426 -17.319462 11.275624 25.876706 -0.838463 1.119931 0.024075 -0.000852 280911.000000 0 0 1
16.068226 -17.871462 12.610324 27.140326 -0.838479 1.087575 0.023010 -0.001330 -320019.000000 0 0 1
16.980026 -18.990962 12.600924 28.421140 -0.841244 1.111448 0.028050 -0.001350 322042.000000 0 0 1
17.313926 -19.376862 13.904924 29.471710 -0.841564 1.079459 0.014771 -0.007757 -585312.000000 0 0 1
18.598426 -20.211962 14.046424 30.850071 -0.826949 1.098073 -0.006627 -0.009604 -282306.000000 0 0 1
19.696726 -19.361962 13.804424 30.877317 -0.776828 1.107306 -0.001799 0.001197 -1025160.000000 0 0 1
20.692126 -20.167862 13.231624 31.780223 -0.772568 1.141372 -0.010537 -0.003306 265944.000000 0 0 1
21.699626 -19.351462 12.350124 31.589213 -0.728259 1.169122 -0.010492 0.010222 126406.000000 0 0 1
21.482926 -19.502562 10.932724 31.006297 -0.737117 1.210452 -0.010636 0.008886 -287011.000000 0 0 1
20.297126 -19.059362 10.327324 29.696569 -0.753958 1.215614 0.000319 0.003905 -225725.000000 0 0 1
20.077126 -17.520062 10.077824 28.488701 -0.717491 1.209221 0.027443 -0.001293 42660.500000 0 0 1
21.098026 -16.823162 9.388724 28.570852 -0.673142 1.235963 0.016647 -0.001310 162915.000000 0 0 1
20.781026 -15.429662 9.342324 27.517349 -0.638676 1.224404 0.026730 -0.011823 129881.000000 0 0 1
-33.631687 25.486465 7.950424 42.940185 -0.648481 1.384571 0.016368 0.005231 -1003720.000000 0 0 1
-32.681577 24.869165 8.671924 41.973362 -0.650475 1.362692 0.015193 0.000490 -1539390.000000 0 0 1
-31.670897 25.657765 9.126624 41.769150 -0.680892 1.350518 0.008053 -0.005637 -1140760.000000 0 0 1
-30.574457 24.885065 9.868424 40.638032 -0.683169 1.325507 0.009610 -0.012882 -301272.000000 0 0 1
-29.767887 24.073965 9.037424 39.336470 -0.680037 1.338979 0.008518 -0.014641 343516.000000 0 0 1
-28.883847 23.256665 9.826024 38.362740 -0.677891 1.311775 0.003476 -0.015057 447090.000000 0 0 1
-28.039377 22.341165 8.916024 36.943603 -0.672773 1.327048 0.011686 -0.022701 -416885.000000 0 0 1
-28.836637 21.338065 8.378724 36.838399 -0.637047 1.341343 0.025007 -0.021013 -187921.000000 0 0 1
-28.235727 20.575265 7.336324 35.699012 -0.629727 1.363817 0.020903 -0.019813 -300620.000000 0 0 1
-29.157547 19.735765 6.413924 35.788285 -0.595031 1.390604 0.035868 -0.013272 -346198.000000 0 0 1
-29.719087 18.593165 6.995724 35.747308 -0.559053 1.373826 0.045079 -0.009089 -62691.700000 0 0 1
-30.563287 18.017965 6.039324 35.989373 -0.532685 1.402190 0.057085 -0.007733 -77916.700000 0 0 1
-31.384597 16.825065 6.628424 36.221702 -0.492103 1.386763 0.057540 -0.006945 347894.000000 0 0 1
-32.416577 17.102665 7.585124 37.428194 -0.485475 1.366725 0.047323 -0.007445 894623.000000 0 0 1
-33.146267 15.909565 7.908824 37.607695 -0.447504 1.358917 0.049231 -0.010673 120705.000000 0 0 1
-34.214281 16.076065 8.997424 38.858854 -0.439250 1.337135 0.030860 -0.011042 235581.000000 0 0 1
34.895003 17.007165 8.694924 39.780731 0.453502 1.350446 0.037190 -0.010249 200421.000000 0 0 1
34.126522 17.217265 9.851024 39.472729 0.467251 1.318565 0.033440 -0.004917 -121134.000000 0 0 1
33.210986 18.448465 9.705824 39.211203 0.507051 1.320670 0.027297 -0.006347 428327.000000 0 0 1
32.012776 18.297765 8.934024 37.939989 0.519258 1.333086 0.006655 -0.004396 194932.000000 0 0 1
31.446986 19.521165 8.746924 38.032847 0.555548 1.338736 -0.001943 -0.004808 -421368.000000 0 0 1
29.990516 19.458265 8.245024 36.688357 0.575541 1.344129 -0.011901 -0.006487 -348706.000000 0 0 1
29.481486 20.775765 8.312124 37.011914 0.613877 1.344285 -0.022018 -0.003100 599957.000000 0 0 1
28.253846 20.941465 7.555224 35.970907 0.637839 1.359183 -0.032772 -0.008540 676762.000000 0 0 1
28.195976 20.862765 6.021324 35.588261 0.637019 1.400784 -0.048605 0.012166 -775040.000000 0 0 1
28.224556 19.506065 5.597524 34.762687 0.604730 1.409071 -0.032191 0.009131 50573.000000 0 0 1
27.874216 19.184665 4.264824 34.105894 0.602802 1.445422 -0.023944 0.007782 675294.000000 0 0 1
26.381106 19.501865 3.853624 33.032346 0.636577 1.453868 -0.001804 0.016112 293910.000000 0 0 1
25.452786 18.581065 4.503424 31.833647 0.630591 1.428853 0.006533 0.011758 1174190.000000 0 0 1
24.106326 18.847365 4.110624 30.874509 0.663571 1.437260 0.018268 0.007515 666294.000000 0 0 1
23.322326 20.140465 4.511124 31.143530 0.712320 1.425435 0.013789 0.000771 -465421.000000 0 0 1
23.962626 21.319065 4.018224 32.324234 0.727084 1.446164 0.004957 0.002802 176995.000000 0 0 1
23.458726 22.504565 4.567124 32.827212 0.764642 1.431217 -0.001160 0.005835 69095.900000 0 0 1
24.388726 23.715165 4.260824 34.283722 0.771397 1.446193 -0.007438 0.006659 278820.000000 0 0 1
25.678426 23.714665 4.844424 35.287892 0.745661 1.433079 -0.010702 0.000216 -150019.000000 0 0 1
26.335016 24.885265 4.468424 36.507208 0.757101 1.448090 -0.003312 -0.004521 -1602300.000000 0 0 1
27.606946 24.934065 5.303024 37.576230 0.734570 1.429197 -0.011035 -0.000770 -349824.000000 0 0 1
28.593306 23.920665 4.920824 37.603056 0.696653 1.439558 -0.021077 -0.002412 853161.000000 0 0 1
29.201516 23.966665 3.637524 37.952090 0.687256 1.474804 -0.010944 -0.010070 -185693.000000 0 0 1
30.191196 25.196565 3.397424 39.470466 0.695466 1.484615 0.005181 -0.018826 -236154.000000 0 0 1
29.587586 26.483865 3.380224 39.852807 0.730102 1.485877 -0.003263 -0.016067 -294187.000000 0 0 1
30.291546 27.322265 2.490324 40.869128 0.733906 1.509824 0.019162 -0.015676 -833560.000000 0 0 1
29.829216 28.790765 2.383024 41.525523 0.767685 1.513378 0.017258 -0.013860 1175020.000000 0 0 1
28.485936 29.112665 1.983224 40.779026 0.796279 1.522144 0.032923 -0.019766 1266820.000000 0 0 1
27.396946 28.601765 2.771124 39.703057 0.806910 1.500943 0.013817 -0.016297 119779.000000 0 0 1
25.995656 29.077765 2.346524 39.074246 0.841303 1.510707 -0.008547 -0.011218 -126338.000000 0 0 1
25.834176 30.440465 2.421724 39.998641 0.867070 1.510214 -0.004828 -0.016483 370519.000000 0 0 1
24.540926 30.961765 2.118124 39.564812 0.900571 1.517235 0.000808 -0.008007 407451.000000 0 0 1
24.417626 32.513065 2.546324 40.740687 0.926649 1.508255 0.017371 -0.020807 -524590.000000 0 0 1
24.337126 32.662965 3.936324 40.922605 0.930440 1.474458 0.005975 -0.037515 497727.000000 0 0 1
25.522786 32.429065 4.725024 41.537726 0.904011 1.456797 -0.000326 -0.033055 183992.000000 0 0 1
25.441846 32.316765 6.285424 41.607299 0.903869 1.419150 0.012538 -0.043724 -267013.000000 0 0 1
24.891526 31.147965 6.816124 40.450504 0.896581 1.401483 0.013214 -0.037998 514252.000000 0 0 1
25.842676 30.076065 6.758624 40.225521 0.860960 1.401977 0.011125 -0.033236 5182.070000 0 0 1
25.363986 28.759865 7.359324 39.046398 0.848059 1.381186 0.015868 -0.023330 -957134.000000 0 0 1
24.176626 28.413065 6.735524 37.910141 0.865781 1.392177 0.008376 -0.027474 -507754.000000 0 0 1
23.842526 27.057065 6.996124 36.735494 0.848469 1.379180 0.024166 -0.014177 -321039.000000 0 0 1
22.483726 26.763965 6.325124 35.522316 0.872093 1.391781 0.038334 0.000311 -207424.000000 0 0 1
22.535926 26.498865 4.936924 35.134470 0.866042 1.429815 0.008739 -0.004880 288267.000000 0 0 1
22.467726 27.685665 4.183724 35.899837 0.889065 1.453992 0.016985 -0.002930 -366148.000000 0 0 1
22.444626 27.415665 2.665424 35.531456 0.884769 1.495710 0.012226 0.001662 -572460.000000 0 0 1
23.489326 26.660665 2.128524 35.595928 0.848551 1.510964 -0.003163 0.017890 -155433.000000 0 0 1
23.314826 26.410165 0.720724 35.236307 0.847567 1.550341 0.009645 0.018348 72888.300000 0 0 1
24.561526 25.875965 -0.042776 35.676826 0.811453 1.571995 0.018926 0.017239 211853.000000 0 0 1
25.636936 26.839965 -0.271676 37.117516 0.808319 1.578116 0.001259 0.020363 1400900.000000 0 0 1
26.841166 26.316265 -0.798376 37.598289 0.775524 1.592032 0.007101 0.027773 480828.000000 0 0 1
27.617766 25.151965 -0.094276 37.354668 0.738705 1.573320 -0.000930 0.016056 -726523.000000 0 0 1
27.024606 23.904565 -0.260476 36.080817 0.724212 1.578016 0.006260 0.005921 56149.900000 0 0 1
27.864106 22.947065 0.285424 36.097890 0.688928 1.562889 0.007579 0.001608 -158300.000000 0 0 1
27.052556 21.813065 0.965824 34.764686 0.678584 1.543011 0.017508 0.006667 167080.000000 0 0 1
26.259256 21.187965 -0.038776 33.741367 0.678920 1.571946 0.030253 -0.009173 824208.000000 0 0 1
25.052126 20.701065 0.567824 32.503315 0.690585 1.553326 0.017023 0.005882 -90349.500000 0 0 1
24.445226 19.605065 -0.271676 31.336902 0.675959 1.579466 0.030147 -0.002851 -490533.000000 0 0 1
23.421326 18.891065 0.407124 30.093132 0.678737 1.557267 0.025109 0.000482 440066.000000 0 0 1
22.930026 17.826365 -0.426776 29.047332 0.660823 1.585489 0.028003 -0.012273 244487.000000 0 0 1
21.706726 17.152965 0.260124 27.667197 0.668745 1.561394 0.034124 -0.000264 -840146.000000 0 0 1
21.231826 16.081065 -0.555376 26.640186 0.648223 1.591645 0.042103 -0.009171 1507500.000000 0 0 1
19.870226 15.769265 -0.132576 25.367561 0.670834 1.576023 0.050457 -0.007472 654083.000000 0 0 1
18.793226 16.590865 -0.771876 25.080628 0.723237 1.601577 0.046406 -0.014358 -1585080.000000 0 0 1
18.709626 17.943665 -0.269676 25.924851 0.764504 1.581199 0.017121 0.003450 -171684.000000 0 0 1
17.744326 18.758565 -0.881176 25.836434 0.813176 1.604909 0.013877 -0.001673 -14547.700000 0 0 1
17.687226 20.194665 -0.287976 26.846701 0.851493 1.581523 0.003837 0.006571 -114213.000000 0 0 1
17.330126 20.253665 1.124424 26.679740 0.863029 1.528639 0.013665 0.003777 196856.000000 0 0 1
17.423726 21.539765 1.738624 27.759151 0.890646 1.508123 0.019614 0.005573 -307502.000000 0 0 1
16.432726 22.630865 1.267724 27.996386 0.942754 1.525499 0.019865 0.000884 -814446.000000 0 0 1
15.129326 22.439365 1.686124 27.115763 0.977575 1.508574 0.009760 -0.001918 -671185.000000 0 0 1
14.324126 23.565065 1.338824 27.609515 1.024622 1.522286 -0.003343 -0.000782 889793.000000 0 0 1
12.803626 23.451965 1.697524 26.773290 1.071067 1.507350 -0.000777 0.002676 654739.000000 0 0 1
12.549926 23.526265 3.034124 26.836387 1.080753 1.457494 -0.006636 0.004931 277017.000000 0 0 1
11.189626 23.296865 3.385524 26.065560 1.123028 1.440543 -0.010372 0.001563 401187.000000 0 0 1
10.881226 23.443865 4.892724 26.305030 1.136246 1.383707 -0.011785 0.005061 257476.000000 0 0 1
11.770726 22.668965 5.718224 26.174989 1.091872 1.350559 -0.006517 -0.015033 516141.000000 0 0 1
11.004926 22.256365 6.803324 25.743725 1.111589 1.303348 -0.010216 -0.006984 -638158.000000 0 0 1
11.693626 21.284065 7.762024 25.495123 1.068408 1.261434 -0.004033 -0.002929 49758.600000 0 0 1
12.830726 21.809665 8.419424 26.667878 1.039021 1.249587 0.009287 0.004297 899514.000000 0 0 1
14.094026 21.750665 7.727524 27.045288 0.995841 1.281033 0.002185 0.004053 -238299.000000 0 0 1
15.245326 22.071265 8.626024 28.177455 0.966318 1.259669 0.017128 0.004908 -865782.000000 0 0 1
15.618126 21.038365 9.514224 27.875780 0.932200 1.222488 0.024489 0.002571 693231.000000 0 0 1
16.840426 21.262465 10.235024 28.990482 0.900936 1.209970 0.032604 0.001964 631169.000000 0 0 1
16.748626 22.145665 11.509924 30.057034 0.923279 1.177824 0.021264 0.013020 -544829.000000 0 0 1
15.921026 21.648265 12.531524 29.650725 0.936678 1.134442 0.019197 0.012914 -325373.000000 0 0 1
16.217326 21.963765 13.911124 30.641932 0.934782 1.099558 0.016558 0.009460 -309810.000000 0 0 1
17.422626 21.186565 14.525524 31.038835 0.882579 1.083794 0.024853 0.011532 448581.000000 0 0 1
18.636926 21.677565 13.967924 31.817522 0.860679 1.116310 0.043236 0.006544 -917191.000000 0 0 1
19.674326 21.198665 14.770624 32.475126 0.822675 1.098616 0.028650 0.012282 820571.000000 0 0 1
21.077026 21.885565 14.435424 33.639269 0.804216 1.127273 0.030267 0.007569 896293.000000 0 0 1
21.796426 21.151065 13.510024 33.241126 0.770373 1.152258 0.044537 0.009178 -301053.000000 0 0 1
23.078226 21.674565 13.246724 34.320066 0.754044 1.174531 0.035472 0.007386 234761.000000 0 0 1
23.890426 21.100765 12.060224 34.079961 0.723473 1.209080 0.035435 0.011913 133332.000000 0 0 1
23.328826 21.449265 10.785824 33.475947 0.743448 1.242748 0.022694 0.015211 850851.000000 0 0 1
24.279326 21.289765 9.689524 33.713893 0.719887 1.279280 0.038063 0.000311 90598.300000 0 0 1
23.876626 22.129865 8.446724 33.632890 0.747449 1.316934 0.023609 -0.002083 -347495.000000 0 0 1
24.218426 23.515265 8.477424 34.804691 0.770668 1.324750 0.018387 -0.003220 173315.000000 0 0 1
25.565516 23.794265 8.174924 35.869095 0.749529 1.340866 0.000197 -0.008766 -372371.000000 0 0 1
26.124786 24.998665 9.016524 37.265740 0.763374 1.326419 0.005283 -0.010871 -76329.900000 0 0 1
27.397336 25.429265 8.552224 38.345822 0.748160 1.345876 -0.009646 -0.008645 480112.000000 0 0 1
27.774846 26.486865 9.413024 39.517098 0.761666 1.330283 -0.005258 -0.006620 16629.200000 0 0 1
28.995646 27.265065 8.869024 40.777332 0.754648 1.351545 -0.003413 -0.013427 -142308.000000 0 0 1
28.684006 28.271565 7.928024 41.047620 0.778157 1.376433 0.003910 -0.012508 -163224.000000 0 0 1
29.702456 28.409965 6.985624 41.691257 0.763161 1.402446 0.007352 -0.006166 -588152.000000 0 0 1
29.453466 29.513065 5.939824 42.116614 0.786409 1.429292 0.025874 -0.002796 -169192.000000 0 0 1
29.442856 30.834665 6.494624 43.125844 0.808484 1.419624 0.022261 -0.012378 211038.000000 0 0 1
29.604506 31.810765 5.444724 43.794937 0.821306 1.446151 0.023135 -0.011678 -10550.500000 0 0 1
29.701196 33.251565 5.973724 44.983474 0.841736 1.437605 -0.005128 -0.007414 240240.000000 0 0 1
28.461536 33.701865 6.497724 44.588060 0.869499 1.424548 -0.009147 -0.015194 72831.200000 0 0 1
28.410916 -34.309509 6.916424 45.079479 -0.879168 1.416761 -0.011689 -0.002808 208847.000000 0 0 1
27.011386 -33.733109 7.297924 43.826901 -0.895605 1.403500 0.008491 -0.015600 288301.000000 0 0 1
26.114746 -33.867009 6.228024 43.217387 -0.913929 1.426184 0.017238 -0.023409 -778162.000000 0 0 1
24.856726 -33.350609 6.575324 42.111220 -0.930300 1.414013 0.005927 -0.025608 -322885.000000 0 0 1
23.836726 -33.564009 5.453424 41.526763 -0.953266 1.439093 0.026860 -0.022906 -349141.000000 0 0 1
24.155526 -32.778509 4.339224 40.948125 -0.935711 1.464628 0.007134 0.000150 9848.590000 0 0 1
23.169126 -32.839609 3.318224 40.326901 -0.956373 1.488420 0.023523 -0.008519 -131755.000000 0 0 1
23.668826 -32.209709 2.015924 40.021777 -0.937072 1.520404 0.026230 0.005392 -49025.800000 0 0 1
23.894226 -30.809909 2.106524 39.046408 -0.911151 1.516821 0.031409 0.016668 -10263.800000 0 0 1
24.365326 -30.294709 0.886424 38.887327 -0.893453 1.548000 0.010346 0.017933 -422865.000000 0 0 1
24.615926 -28.784309 1.047424 37.889013 -0.863299 1.543148 -0.002651 0.023397 -549254.000000 0 0 1
23.510126 -27.953509 1.113724 36.542647 -0.871525 1.540314 -0.011418 0.027481 -949288.000000 0 0 1
22.782626 -27.832509 -0.076876 35.968076 -0.884839 1.572934 -0.007214 0.032444 -292010.000000 0 0 1
21.643526 -26.801709 0.079524 34.449675 -0.891473 1.568488 -0.001235 0.027642 -111740.000000 0 0 1
22.035226 -25.443209 0.119524 33.658912 -0.857055 1.567245 -0.012223 0.022981 -257521.000000 0 0 1
22.361126 -24.948909 1.404224 33.532668 -0.840042 1.528908 -0.021862 0.025103 99634.500000 0 0 1
21.146226 -24.657809 2.333424 32.567089 -0.861914 1.499085 -0.018786 0.020898 198590.000000 0 0 1
21.393426 -24.026409 3.560724 32.367047 -0.843303 1.460562 -0.026475 0.021814 -89270.700000 0 0 1
20.141426 -23.779709 4.186724 31.443286 -0.868046 1.437248 -0.015681 0.017667 156513.000000 0 0 1
20.225626 -22.967509 5.527224 31.098756 -0.848793 1.392116 -0.013371 0.010442 -106967.000000 0 0 1
20.405026 -21.566109 5.499024 30.194393 -0.813055 1.387654 0.005016 0.011886 -163019.000000 0 0 1
19.309426 -20.872709 4.967624 28.865225 -0.824283 1.397838 -0.001650 0.007397 -955438.000000 0 0 1
19.213726 -19.337609 5.326724 27.775607 -0.788612 1.377824 0.004059 0.004069 69045.000000 0 0 1
18.785226 -19.075709 6.690324 27.595793 -0.793070 1.325916 0.017981 -0.000415 -158120.000000 0 0 1
17.441226 -19.375209 6.946924 26.978785 -0.837880 1.310367 0.005436 0.000731 -545753.000000 0 0 1
18.147673 -26.326815 -12.342276 34.274933 -0.967272 1.939167 0.073026 -0.015604 232730.000000 0 0 1
18.439373 -25.111705 -12.965676 33.744881 -0.937423 1.965166 0.069965 -0.009340 -374119.000000 0 0 1
17.215373 -24.485535 -13.250276 32.733474 -0.958004 1.987549 0.049168 -0.002025 -206168.000000 0 0 1
17.303073 -22.990635 -13.704976 31.871492 -0.925624 2.015297 0.042222 -0.003902 -133021.000000 0 0 1
17.521773 -21.974335 -12.776876 30.872844 -0.897658 1.997481 0.045331 -0.006803 228076.000000 0 0 1
18.725473 -21.940035 -11.991376 31.237823 -0.864283 1.964784 0.046866 -0.015891 -27678.400000 0 0 1
18.765273 -22.780035 -10.654376 31.378037 -0.881735 1.917234 0.046018 -0.010427 37051.500000 0 0 1
17.911973 -22.354235 -9.587276 30.207060 -0.895276 1.893767 0.045365 -0.011469 -78603.400000 0 0 1
16.583773 -22.779735 -9.751876 29.816723 -0.941521 1.903988 0.049673 0.001678 -67883.200000 0 0 1
15.584573 -22.213235 -8.681976 28.490059 -0.959004 1.880459 0.035377 -0.003128 -101978.000000 0 0 1
15.203573 -20.831635 -8.832176 27.260099 -0.940329 1.900747 0.015517 -0.004368 -113825.000000 0 0 1
14.298673 -20.377135 -7.898276 26.116326 -0.958929 1.878034 -0.001529 0.003798 -59759.500000 0 0 1
12.786473 -20.584435 -8.142576 25.563928 -1.014955 1.894962 0.006322 0.011723 56756.000000 0 0 1
12.465373 -21.959635 -8.019876 26.493953 -1.054504 1.878327 0.012635 0.011451 -734623.000000 0 0 1
11.101273 -22.181835 -8.220476 26.131366 -1.106775 1.890813 0.007170 0.015818 -367716.000000 0 0 1
10.676073 -23.644835 -7.984276 27.144160 -1.146681 1.869355 -0.000909 0.017304 -85074.900000 0 0 1
10.987573 -23.992335 -6.607476 27.203266 -1.141341 1.816143 0.006022 0.019328 66414.100000 0 0 1
10.395373 -25.178545 -6.171276 27.930406 -1.179248 1.793587 -0.008076 0.022492 -115871.000000 0 0 1
10.649273 -25.423475 -4.731476 27.966891 -1.174125 1.740795 0.016131 0.012055 33435.900000 0 0 1
9.812373 -26.424485 -4.192876 28.497654 -1.215241 1.718463 0.030832 0.004555 -241265.000000 0 0 1
10.257173 -26.714325 -2.888976 28.761275 -1.204195 1.671413 0.023539 -0.004287 -127296.000000 0 0 1
9.171073 -27.351095 -2.028576 28.918958 -1.247269 1.641001 0.019254 -0.000397 -94058.700000 0 0 1
8.205973 -26.473945 -1.484176 27.756271 -1.270223 1.624294 0.015253 0.004508 -435624.000000 0 0 1
7.648073 -27.242305 -0.416376 28.298579 -1.297099 1.585511 0.021806 -0.000299 54135.600000 0 0 1
6.961273 -26.289505 0.624624 27.202713 -1.311944 1.547832 0.021593 0.001613 439665.000000 0 0 1
5.670673 -25.871925 0.223024 26.487031 -1.355026 1.562376 0.033015 -0.001416 -284938.000000 0 0 1
5.016773 -25.150985 1.225924 25.675727 -1.373914 1.523032 0.042756 -0.007914 995206.000000 0 0 1
3.470873 -24.960335 0.996724 25.220205 -1.432627 1.531265 0.010534 -0.006182 1121940.000000 0 0 1
2.716773 -26.178145 0.921424 26.334866 -1.467386 1.535800 0.002701 -0.001757 -702836.000000 0 0 1
1.467473 -25.890855 0.386424 25.935289 -1.514178 1.555896 -0.002519 0.000942 -509564.000000 0 0 1
0.768973 -27.190315 -0.074476 27.201289 -1.542523 1.573534 0.000425 0.004168 -323976.000000 0 0 1
0.472473 -27.982935 1.020124 28.005509 -1.553914 1.534362 -0.002011 0.007445 -169490.000000 0 0 1
0.760073 -29.355195 0.863624 29.377731 -1.544910 1.541395 -0.009398 0.017566 -487038.000000 0 0 1
0.101573 -30.190595 1.984324 30.255907 -1.567432 1.505165 -0.004277 0.005565 -9414.030000 0 0 1
0.731773 -30.101885 3.246824 30.285324 -1.546491 1.463382 -0.006812 0.008349 -137098.000000 0 0 1
0.168973 -31.046675 4.103724 31.317170 -1.565354 1.439381 0.000240 0.002936 -352571.000000 0 0 1
0.487273 -30.893205 5.571624 31.395391 -1.555025 1.392385 0.004785 0.004332 -298437.000000 0 0 1
1.858873 -30.879105 5.875124 31.487960 -1.510670 1.383113 -0.011568 0.012217 -403568.000000 0 0 1
2.018873 -30.821255 7.273724 31.732203 -1.505387 1.339518 0.002675 0.012871 553344.000000 0 0 1
3.410473 -31.387055 7.677424 32.491867 -1.462562 1.332253 0.014878 0.004304 555452.000000 0 0 1
3.452173 -32.760885 7.244424 33.729435 -1.465809 1.354329 0.011970 0.002677 -200445.000000 0 0 1
4.718073 -33.338555 7.463624 34.488044 -1.430210 1.352659 0.006629 0.001582 -23006.500000 0 0 1
4.792673 34.478490 7.345224 35.576513 1.432677 1.362838 -0.004085 0.009282 -350622.000000 0 0 1
4.579173 34.123903 6.014324 34.951133 1.437401 1.397857 -0.000332 0.007142 45919.100000 0 0 1
4.495573 32.707328 5.888924 33.535935 1.434204 1.394281 -0.014860 0.003800 -686881.000000 0 0 1
4.939573 32.213758 4.538924 32.904824 1.418644 1.432414 -0.012509 0.001178 1017440.000000 0 0 1
6.363073 32.424628 4.301324 33.321864 1.377017 1.441351 -0.011290 0.005266 1122130.000000 0 0 1
6.973673 31.179188 4.501924 32.265170 1.350754 1.430811 -0.016363 0.007421 -903892.000000 0 0 1
8.347173 31.071028 3.831624 32.400084 1.308345 1.452259 -0.019906 0.015862 -902128.000000 0 0 1
9.282673 31.783588 4.562124 33.424205 1.286641 1.433877 -0.013236 0.006789 367693.000000 0 0 1
10.526573 31.990668 3.800824 33.891855 1.252904 1.458414 -0.003353 0.005823 946931.000000 0 0 1
11.645273 32.321548 4.765824 34.684405 1.224980 1.432955 0.008022 -0.004451 -532584.000000 0 0 1
12.021273 31.187738 5.597124 33.889730 1.202897 1.404879 0.011027 -0.003405 590233.000000 0 0 1
13.256473 31.509588 6.257024 34.752533 1.172563 1.389764 0.023882 -0.004106 668012.000000 0 0 1
13.873173 30.338268 7.143624 34.116078 1.141902 1.359843 0.028657 -0.007191 16562.900000 0 0 1
13.328773 30.162868 8.429024 34.036792 1.154704 1.320548 0.012453 0.003740 -4887.340000 0 0 1
14.088073 29.212268 9.099924 33.684403 1.121437 1.297245 0.012690 -0.003465 137498.000000 0 0 1
13.635673 29.167878 10.569524 33.888221 1.133494 1.253611 0.007431 0.008686 193142.000000 0 0 1
14.343973 30.160508 11.273024 35.248927 1.126868 1.245265 0.021918 0.002268 180439.000000 0 0 1
13.750073 30.409758 12.509124 35.641213 1.146148 1.212186 0.011200 0.007107 -116314.000000 0 0 1
14.521273 31.539028 13.285824 37.176482 1.139309 1.205344 0.019300 0.000240 -307444.000000 0 0 1
15.686773 31.036958 13.826524 37.423794 1.102820 1.192371 0.019635 -0.001892 -1000820.000000 0 0 1
16.417173 31.964098 14.545424 38.765919 1.096318 1.186171 0.027266 -0.003948 -381562.000000 0 0 1
17.538573 31.323218 15.380424 39.055127 1.060367 1.166020 0.019159 -0.003109 114557.000000 0 0 1
18.701873 30.942268 14.671124 39.018276 1.027139 1.185314 0.019963 -0.006340 41194.300000 0 0 1
18.873273 29.518298 14.834024 38.047058 1.001926 1.170288 0.015196 -0.001573 -2395.750000 0 0 1
20.281973 29.197588 14.306324 38.321384 0.963673 1.188206 0.033041 -0.004129 -476808.000000 0 0 1
21.359373 29.631188 15.071524 39.514313 0.946220 1.179465 0.025269 -0.005603 -576921.000000 0 0 1
22.547973 29.143778 14.481624 39.591518 0.912311 1.196330 0.019234 -0.004466 357244.000000 0 0 1
23.786873 29.247898 15.433624 40.736367 0.888007 1.182226 0.021613 -0.008355 175404.000000 0 0 1
23.645873 28.479178 16.572724 40.556702 0.877859 1.149843 0.009963 -0.004641 -239518.000000 0 0 1
24.608373 28.800788 17.547624 41.748970 0.863734 1.137006 0.010796 -0.010984 -785902.000000 0 0 1
25.450973 27.507588 17.803724 41.489662 0.824213 1.127287 -0.004328 -0.002114 -601720.000000 0 0 1
24.861973 26.372198 18.425524 40.658461 0.814867 1.100469 0.000224 -0.000877 -43970.700000 0 0 1
24.833373 26.580858 19.840024 41.435069 0.819373 1.071484 0.035510 -0.003962 175248.000000 0 0 1
24.256273 25.264028 20.575924 40.620273 0.805746 1.039625 0.043336 -0.004873 371479.000000 0 0 1
25.121973 24.139038 20.479724 40.413188 0.765447 1.039376 0.024045 -0.004376 130891.000000 0 0 1
24.441273 22.958738 20.879424 39.502276 0.754131 1.013890 0.035347 -0.004323 -237079.000000 0 0 1
25.312073 21.685838 20.886424 39.334709 0.708393 1.011025 0.013343 -0.001171 -315012.000000 0 0 1
24.685073 20.419938 20.977224 38.293219 0.691118 0.991058 0.008735 0.013284 -387901.000000 0 0 1
25.589173 19.344138 20.997424 38.339187 0.647298 0.991213 0.003265 0.012170 -135053.000000 0 0 1
26.211573 19.127138 22.403824 39.431273 0.630396 0.966511 0.005617 0.016235 -279603.000000 0 0 1
25.322273 18.409738 23.264324 39.004676 0.628629 0.931726 -0.008138 0.026711 240582.000000 0 0 1
25.815773 18.116538 24.567424 39.977761 0.611908 0.909010 0.002182 0.028087 36873.500000 0 0 1
24.792473 17.336638 25.461024 39.540985 0.610236 0.871192 0.002421 0.025227 228062.000000 0 0 1
24.634973 16.019038 24.991124 38.575222 0.576555 0.866032 -0.004553 0.021652 1014620.000000 0 0 1
23.459073 15.391338 25.549924 37.947596 0.580647 0.832140 -0.002774 0.025400 629960.000000 0 0 1
23.165073 14.050638 24.869024 36.776479 0.545217 0.828176 -0.007805 0.025860 -398723.000000 0 0 1
22.097973 13.371638 25.460624 36.267954 0.544166 0.792574 -0.000213 0.017770 -152397.000000 0 0 1
21.607673 12.310738 24.644424 35.011333 0.517872 0.789925 0.000029 0.018310 202555.000000 0 0 1
20.295473 11.738538 25.240424 34.449652 0.524372 0.748551 0.012012 0.012712 -216354.000000 0 0 1
19.173873 12.551638 25.112724 33.997499 0.579618 0.739710 0.017697 0.010042 -1020580.000000 0 0 1
18.031073 11.785338 25.292024 33.221985 0.578911 0.705475 0.011403 0.011049 -598290.000000 0 0 1
16.767073 12.637938 25.505424 33.036024 0.645888 0.688738 0.008978 0.002936 -186134.000000 0 0 1
16.658073 13.246638 26.771124 34.200262 0.671812 0.671683 0.011912 0.010412 705171.000000 0 0 1
15.393073 13.919738 26.793424 33.890904 0.735178 0.659043 0.017280 0.011277 402964.000000 0 0 1
14.993673 14.502138 28.178224 35.059015 0.768735 0.637247 0.012918 0.016235 -247857.000000 0 0 1
14.578273 13.405038 28.983924 35.103973 0.743496 0.599426 0.013566 0.014561 -92161.800000 0 0 1
14.720073 13.523138 30.407324 36.389025 0.743044 0.581539 0.010637 0.013202 -279327.000000 0 0 1
16.147373 13.484738 31.023524 37.483795 0.695782 0.595886 0.011339 0.019196 -189697.000000 0 0 1
16.937373 14.605838 30.806124 38.068654 0.711617 0.627964 0.017459 0.012454 -483372.000000 0 0 1
18.182773 14.140038 30.389124 38.132044 0.660971 0.648576 0.016005 0.029015 -625656.000000 0 0 1
19.229973 15.206638 29.940124 38.696831 0.669092 0.686120 0.027110 0.021134 21071.300000 0 0 1
18.954573 15.821938 28.709624 37.866239 0.695562 0.710271 0.028247 0.009627 249568.000000 0 0 1
19.294073 15.093238 27.567124 36.878360 0.663838 0.726483 0.035805 0.007767 -318253.000000 0 0 1
19.042373 15.795538 26.230524 36.057612 0.692468 0.756181 0.017414 0.005244 -52418.300000 0 0 1
20.081273 16.735738 25.987724 36.860606 0.694778 0.788335 0.025233 0.008514 458281.000000 0 0 1
19.948573 17.405938 24.795524 36.272996 0.717435 0.818139 0.019673 0.003596 -1212990.000000 0 0 1
21.167773 18.183738 24.433824 37.090898 0.709713 0.851633 0.015903 0.009986 -1279470.000000 0 0 1
21.115173 18.824938 23.186424 36.576483 0.728119 0.884190 0.011818 0.006274 -405753.000000 0 0 1
22.221873 19.603738 22.831724 37.408633 0.722883 0.914315 0.018299 0.009375 -647317.000000 0 0 1
22.291573 21.033938 23.527524 38.637872 0.756379 0.916093 0.036562 -0.008496 345427.000000 0 0 1
21.413573 21.978638 22.861624 38.265591 0.798420 0.930484 0.035647 -0.001886 607832.000000 0 0 1
21.349773 23.153838 23.652124 39.387003 0.825913 0.926663 0.042972 -0.006142 289554.000000 0 0 1
20.390873 24.270238 23.129324 39.240257 0.872043 0.940445 0.032152 -0.016625 104631.000000 0 0 1
20.915873 24.911468 21.988124 39.262356 0.872366 0.976373 0.045340 -0.009924 73493.600000 0 0 1
20.080273 25.955048 21.527224 39.246697 0.912327 0.990215 0.044717 -0.017262 -613763.000000 0 0 1
20.668173 26.771658 20.407224 39.501264 0.913353 1.027895 0.037170 -0.016500 -310936.000000 0 0 1
20.526773 26.131008 19.148024 38.351334 0.904939 1.048030 0.023843 -0.011410 90000.200000 0 0 1
21.045973 26.998728 18.152424 38.747578 0.908670 1.083228 0.033193 -0.015970 -294739.000000 0 0 1
21.123973 26.274808 16.780824 37.658782 0.893644 1.108950 0.032371 -0.001563 -1183410.000000 0 0 1
19.938573 25.949688 16.188924 36.510468 0.915651 1.111402 0.036589 -0.003572 -1257420.000000 0 0 1
20.156073 25.556248 14.830324 35.767689 0.902987 1.143261 0.037821 -0.000962 -32488.900000 0 0 1
18.845673 25.022048 14.145224 34.370767 0.925274 1.146644 0.037008 -0.001326 116593.000000 0 0 1
17.792373 25.861608 13.899624 34.330611 0.968180 1.153954 0.024704 0.002100 -788360.000000 0 0 1
16.965973 25.961348 15.060724 34.476967 0.991958 1.118720 0.021415 -0.008292 -1730300.000000 0 0 1
15.533473 26.304518 14.715324 33.908070 1.037373 1.121894 0.010290 -0.002889 -401661.000000 0 0 1
14.623773 25.186728 14.461524 32.517098 1.044753 1.109917 0.020074 0.007207 825457.000000 0 0 1
14.249273 24.390118 15.644024 32.290171 1.042058 1.065025 0.029626 0.007369 -246932.000000 0 0 1
13.276673 25.050638 16.656124 32.882077 1.083443 1.039628 0.029991 -0.000891 -156882.000000 0 0 1
13.850773 26.168168 17.313024 34.298072 1.083986 1.041668 0.024359 -0.007057 163510.000000 0 0 1
12.896073 26.856118 18.097524 34.858000 1.123121 1.024907 0.025098 -0.008099 158224.000000 0 0 1
13.532773 28.096678 18.795324 36.411859 1.121936 1.028403 0.025912 -0.009797 -212144.000000 0 0 1
13.613673 29.272008 17.988424 36.956271 1.135477 1.062432 0.027207 -0.010398 235268.000000 0 0 1
14.266773 30.326468 18.711324 38.384230 1.131075 1.061602 0.025057 -0.009987 -124612.000000 0 0 1
14.258273 31.615478 17.915324 39.035825 1.147119 1.093988 0.023942 -0.012585 -1849620.000000 0 0 1
13.035173 32.079068 17.617224 38.850340 1.184832 1.100148 0.026068 -0.002688 -1867950.000000 0 0 1
13.044373 33.280478 16.867024 39.525212 1.197246 1.129910 0.032146 -0.006193 -91410.400000 0 0 1
11.684173 34.018442 16.773224 39.687723 1.239954 1.134451 0.027113 -0.009134 11065.400000 0 0 1
11.586773 -34.047906 16.201924 39.446363 -1.242782 1.147538 0.024870 -0.011127 -298817.000000 0 0 1
12.169373 -33.018215 16.972024 39.068476 -1.217679 1.121405 0.027307 -0.014386 -181475.000000 0 0 1
11.684573 -32.766305 18.429424 39.367546 -1.228251 1.083614 0.034167 -0.020942 -389177.000000 0 0 1
12.347473 -33.624955 19.303724 40.690680 -1.218871 1.076512 0.045569 -0.020800 392338.000000 0 0 1
11.924873 -33.346345 20.661024 41.000723 -1.227361 1.042667 0.038984 -0.017352 -617033.000000 0 0 1
12.934773 -33.860625 21.648024 42.219513 -1.205902 1.032412 0.059998 -0.015503 -561804.000000 0 0 1
14.145673 -33.150655 21.583324 42.010783 -1.167479 1.031238 0.058162 -0.022009 -516172.000000 0 0 1
15.114573 -33.679605 22.432624 43.197092 -1.148961 1.024755 0.055042 -0.018914 -385664.000000 0 0 1
16.525873 -33.143325 22.178424 43.167893 -1.108255 1.031221 0.074939 -0.025205 -153899.000000 0 0 1
16.731173 -31.789985 22.437524 42.355375 -1.086328 1.012497 0.072730 -0.022053 386549.000000 0 0 1
18.050973 -31.323855 22.162224 42.405020 -1.048009 1.020861 0.078160 -0.016938 325774.000000 0 0 1
-4.696627 13.241965 18.404353 23.154441 -1.229961 0.652033 0.026638 -0.003379 156587.000000 0 1 0
-4.300927 14.299065 17.574953 23.061661 -1.278621 0.704269 0.026995 -0.011452 622472.000000 0 1 0
-5.501527 15.028165 17.244153 23.526014 -1.219868 0.748100 0.017648 -0.003885 569966.000000 0 1 0
-5.274427 16.565365 17.042653 24.345080 -1.262545 0.795336 0.021966 -0.013437 -199044.000000 0 1 0
-5.057627 17.116165 18.292953 25.557285 -1.283484 0.773081 0.024986 -0.000519 77452.900000 0 0 1
-4.757727 18.510665 18.156653 26.361804 -1.319216 0.811035 0.019573 0.007197 -553448.000000 0 0 1
-4.010927 19.029865 19.349253 27.433864 -1.363067 0.787942 0.009120 0.007609 -581143.000000 0 0 1
-4.862227 19.127765 20.451653 28.421519 -1.321871 0.767594 -0.006324 0.008323 -255685.000000 0 0 1
-4.307927 19.924665 21.483753 29.615910 -1.357863 0.759163 -0.009017 0.019278 -376316.000000 0 0 1
-5.297127 20.112765 22.628753 30.735050 -1.313273 0.743281 -0.024876 0.020440 -278274.000000 0 0 1
-5.449727 19.021465 23.490153 30.713237 -1.291767 0.700032 -0.027876 0.016280 290850.000000 0 0 1
-6.353127 19.422865 24.558983 31.949234 -1.254671 0.694009 -0.039613 0.015885 345578.000000 0 0 1
-5.790027 20.161365 25.792303 33.245269 -1.291138 0.682785 -0.046147 0.013616 -234976.000000 0 0 1
-5.268927 21.406865 25.354983 33.598967 -1.329461 0.715697 -0.044200 0.005241 24671.800000 0 0 1
-4.379627 22.039465 26.243193 34.548868 -1.374634 0.708104 -0.023676 0.019610 246266.000000 0 0 1
-2.876027 21.769665 26.024303 34.050759 -1.439445 0.700873 -0.012620 0.020329 5754.840000 0 0 1
-2.315427 20.596965 26.695913 33.797454 -1.458850 0.660184 -0.014238 0.027705 277312.000000 0 0 1
-1.083727 20.270265 26.079263 33.048238 -1.517383 0.661410 -0.004987 0.019810 150222.000000 0 0 1
-0.402627 19.016165 26.748183 32.821364 -1.549627 0.618132 -0.013689 0.029312 -392996.000000 0 0 1
-1.104727 17.808965 26.547803 31.986958 -1.508844 0.591766 -0.002748 0.025097 -75031.900000 0 0 1
-0.449327 16.592865 26.953713 31.654821 -1.543723 0.551979 -0.001754 0.019720 711590.000000 0 0 1
1.009473 16.194665 26.535253 31.103148 1.508543 0.548827 0.004500 0.017664 315833.000000 0 0 1
1.232573 15.865665 25.183363 29.789936 1.493264 0.563549 0.005526 0.022953 -242215.000000 0 0 1
1.018873 14.568965 24.716473 28.708829 1.500976 0.533689 0.021129 0.014969 -65347.000000 0 0 1
1.136173 14.319165 23.171953 27.262956 1.491616 0.554920 0.030776 0.002206 -251155.000000 0 0 1
2.473373 14.387065 22.774553 27.051533 1.400544 0.570011 0.026194 -0.004041 -509640.000000 0 0 1
2.546573 14.012465 21.393953 25.700884 1.391022 0.587334 0.019463 -0.006959 104140.000000 0 0 1
3.979873 13.859365 20.824353 25.329332 1.291159 0.605630 0.004246 -0.002785 393801.000000 0 0 1
4.486273 15.102965 20.326753 25.717758 1.282052 0.659370 -0.001803 0.001736 234672.000000 0 0 1
5.904273 15.062565 20.218453 25.894539 1.197220 0.674851 0.006567 0.003320 212071.000000 0 0 1
6.448273 16.167565 19.292253 25.983868 1.191290 0.734046 0.007732 -0.002172 -238029.000000 0 0 1
6.221773 15.727865 17.967053 24.675720 1.194098 0.755211 0.004050 -0.011513 39894.600000 0 1 0
6.766273 16.594465 17.022653 24.716986 1.183633 0.811098 -0.004309 -0.005914 -136905.000000 0 1 0
6.502273 16.184265 15.530353 23.353840 1.188769 0.843300 -0.008664 -0.004864 -20169.700000 0 1 0
7.217373 15.156565 14.867953 22.424717 1.126379 0.845956 -0.015736 -0.007271 -137426.000000 0 1 0
7.337373 13.934965 15.645253 22.198969 1.086140 0.788692 -0.009395 -0.006612 -70938.100000 0 1 0
8.360173 12.978065 14.981353 21.511941 0.998525 0.800399 -0.014792 -0.005992 686422.000000 0 1 0
9.665373 13.518465 14.842253 22.281400 0.950090 0.841792 -0.004527 -0.013424 464775.000000 0 1 0
10.708673 12.574165 14.614953 22.054073 0.865350 0.846395 -0.009859 0.006097 638291.000000 0 1 0
12.085273 13.224665 14.371553 22.967088 0.830385 0.894709 -0.001878 0.004149 -336154.000000 0 1 0
12.701573 13.779865 15.543053 24.347507 0.826094 0.878400 0.006641 0.009335 558356.000000 0 1 0
14.062173 14.141965 15.347453 25.165138 0.788227 0.914900 0.012094 0.009192 190384.000000 0 0 1
15.107673 13.021965 15.372353 25.181791 0.711387 0.914161 -0.000910 0.012404 -236577.000000 0 0 1
16.433173 13.555965 15.271453 26.211269 0.689749 0.948836 0.005126 0.000305 422620.000000 0 0 1
17.190873 12.826265 14.336353 25.798647 0.641006 0.981590 0.003332 0.002015 65570.900000 0 0 1
18.648373 13.367665 14.317653 27.045359 0.621930 1.012910 0.012148 0.005332 14122.500000 0 0 1
19.389673 13.145565 15.466853 28.071139 0.595785 0.987249 -0.001400 0.000868 -211431.000000 0 0 1
20.702073 13.634265 15.279953 29.119512 0.582393 1.018396 0.013180 0.006545 71500.600000 0 0 1
21.626273 13.462865 16.506353 30.354639 0.556817 0.995857 0.019682 0.012859 -134610.000000 0 0 1
22.214573 12.208865 16.590953 30.295269 0.502527 0.991253 0.011441 0.012073 265815.000000 0 0 1
23.099673 12.070165 17.687053 31.497867 0.481505 0.974561 -0.003644 0.015447 66483.800000 0 0 1
23.541673 10.566965 17.942553 31.429386 0.421907 0.963213 0.006068 0.015272 -254830.000000 0 0 1
22.572573 9.880365 18.679653 30.920415 0.412591 0.922135 -0.019457 0.011675 180279.000000 0 0 1
22.247773 8.601565 18.188153 29.995987 0.368924 0.919330 -0.009924 0.015180 -108623.000000 0 0 1
20.929073 8.043265 18.759353 29.234116 0.366908 0.874092 0.004337 0.007552 -476318.000000 0 0 1
20.829573 6.640465 18.458653 28.612738 0.308614 0.869616 0.003931 0.010885 426084.000000 0 0 1
19.670673 6.032065 18.996553 28.003396 0.297549 0.825260 -0.000070 0.015812 -322010.000000 0 0 1
19.469773 4.611965 18.445353 27.213477 0.232591 0.826027 0.010195 0.005506 -597011.000000 0 0 1
19.183373 4.675465 17.069553 26.100410 0.239064 0.857942 0.026732 -0.007107 -14551.700000 0 0 1
19.329873 3.435465 16.429853 25.600517 0.175892 0.873982 0.012831 -0.000614 -407320.000000 0 0 1
18.408373 2.202865 16.700353 24.952407 0.119100 0.837546 0.030613 0.006811 -74417.400000 0 1 0
18.505373 1.539165 17.950553 25.827122 0.082983 0.802339 0.017292 0.005509 -131604.000000 0 0 1
17.311773 0.829465 18.213153 25.141687 0.047877 0.760603 0.017070 -0.000235 -395339.000000 0 0 1
17.325873 0.054765 19.517153 26.098048 0.003161 0.725995 0.005434 -0.001596 -132266.000000 0 0 1
17.923573 -1.219735 19.377853 26.424296 -0.067947 0.747582 0.012516 0.005314 -212806.000000 0 0 1
17.193773 -2.191035 20.067853 26.516885 -0.126749 0.712400 0.016259 0.009266 -41900.300000 0 0 1
17.237373 -3.633535 19.443053 26.236652 -0.207753 0.736142 0.006586 0.013817 371202.000000 0 0 1
16.644173 -3.639835 18.107953 24.863122 -0.215296 0.754950 -0.007922 0.011894 450986.000000 0 1 0
16.788873 -4.897135 17.525853 24.758912 -0.283815 0.784332 0.014413 0.014606 -67063.600000 0 1 0
16.389373 -5.093735 16.039253 23.490750 -0.301331 0.819222 -0.002772 0.005979 669509.000000 0 1 0
15.000273 -4.858935 15.738553 22.278229 -0.313258 0.786320 -0.018059 0.007490 970076.000000 0 1 0
14.753273 -4.804335 14.338353 21.126502 -0.314816 0.824818 -0.015149 0.006266 -106864.000000 0 1 0
15.349573 -3.610535 13.563853 20.799603 -0.231021 0.860418 -0.007368 0.006320 28185.700000 0 1 0
14.622073 -2.366735 13.666153 20.153665 -0.160469 0.825625 -0.006376 0.004186 412723.000000 0 1 0
15.333773 -1.282435 13.067253 20.187182 -0.083441 0.866754 0.004007 -0.002260 267969.000000 0 1 0
14.508473 0.072965 13.116253 19.558558 0.005029 0.835759 0.017915 -0.003757 91467.400000 0 1 0
15.189273 1.304765 12.876653 19.955566 0.085690 0.869425 0.032288 -0.003537 -88450.200000 0 1 0
16.058973 1.706465 13.894853 21.304215 0.105865 0.860298 0.035394 -0.006150 -389893.000000 0 1 0
16.392273 3.193865 13.595653 21.534836 0.192429 0.887525 0.045163 -0.002482 -389531.000000 0 1 0
15.270773 4.022265 13.711853 20.913872 0.257547 0.855774 0.050488 0.000916 168634.000000 0 1 0
15.471473 5.140265 12.959053 20.826086 0.320768 0.899181 0.049160 -0.005014 -289773.000000 0 1 0
14.367773 6.195065 12.996153 20.339905 0.407092 0.877666 0.053056 -0.004497 -354752.000000 0 1 0
14.588673 7.266765 12.120053 20.310858 0.462135 0.931379 0.037516 -0.013075 504716.000000 0 1 0
13.553573 8.249265 12.198153 20.013611 0.546749 0.915376 0.025408 -0.010680 49475.600000 0 1 0
13.561973 9.216665 13.393453 21.172118 0.596900 0.885892 0.019689 -0.010312 -161616.000000 0 1 0
13.144773 8.633065 14.604253 21.461572 0.581118 0.822374 0.022326 -0.009589 266203.000000 0 1 0
13.797273 9.237765 15.700053 22.851536 0.589986 0.813381 0.037641 -0.013230 -100289.000000 0 1 0
13.215073 8.836665 17.049553 23.311200 0.589396 0.750440 0.040570 -0.010562 -205775.000000 0 1 0
11.966673 9.399265 17.400653 23.115583 0.665808 0.718541 0.032621 -0.005553 -380538.000000 0 1 0
11.441773 8.830665 18.604153 23.558636 0.657302 0.660484 0.042976 0.000947 -266209.000000 0 1 0
12.034173 8.961665 20.009553 25.010297 0.640091 0.643413 0.045412 0.000150 -801966.000000 0 0 1
13.269673 8.344365 20.217153 25.582141 0.561349 0.659524 0.036190 0.002130 -469520.000000 0 0 1
13.750973 8.521565 21.500653 26.906958 0.554784 0.645043 0.034838 0.003218 260774.000000 0 0 1
15.285873 8.298565 21.587853 27.722905 0.497369 0.678204 0.032605 0.003152 664453.000000 0 0 1
16.108673 9.321665 21.031153 28.083664 0.524591 0.724433 0.041132 0.013564 -53382.100000 0 0 1
17.214073 8.874365 20.314853 28.067275 0.475994 0.761515 0.041155 0.002192 -424946.000000 0 0 1
17.980873 10.040465 19.671853 28.479897 0.509267 0.808301 0.039525 0.003492 40942.400000 0 0 1
18.809173 10.787465 20.565953 29.884993 0.520722 0.811833 0.019443 0.002719 453942.000000 0 0 1
19.800273 11.564165 19.926653 30.378483 0.528602 0.855361 0.017492 0.012323 -8385.280000 0 0 1
20.476073 12.530965 20.898953 31.828617 0.549182 0.854483 -0.000425 0.017637 -559728.000000 0 0 1
19.750073 13.729265 21.176253 32.046712 0.607464 0.848921 0.009251 0.008980 290817.000000 0 0 1
20.357973 14.733165 22.026053 33.416466 0.626459 0.851125 -0.014906 0.022908 242963.000000 0 0 1
21.640973 15.388665 21.402953 34.106145 0.618130 0.892407 -0.017812 0.027306 657215.000000 0 0 1
22.743873 14.506865 21.309353 34.377629 0.567777 0.902231 -0.016130 0.027152 64568.600000 0 0 1
23.980873 15.186565 21.476353 35.594210 0.564530 0.923080 -0.017551 0.032257 891362.000000 0 0 1
25.222673 14.212965 21.376853 35.988351 0.513148 0.934782 -0.018805 0.027398 452820.000000 0 0 1
25.574373 13.889065 20.053853 35.342774 0.497519 0.967439 -0.022156 0.021730 -285310.000000 0 0 1
26.673273 13.044265 20.025153 35.813728 0.454840 0.977439 -0.019048 0.011919 -525305.000000 0 0 1
26.929073 12.348665 18.689553 35.028044 0.429952 1.007992 -0.011632 0.011072 -267167.000000 0 0 1
27.417473 13.186365 17.586953 35.141129 0.448290 1.046659 -0.005116 0.009693 534746.000000 0 0 1
27.751873 12.497165 16.396553 34.571557 0.423118 1.076652 0.000514 0.002512 -295020.000000 0 0 1
26.542973 12.065465 15.566253 33.051673 0.426642 1.080409 0.008009 -0.003786 -174370.000000 0 0 1
25.974773 12.975865 14.642053 32.518481 0.463293 1.103730 0.022654 -0.007414 -251292.000000 0 0 1
24.865373 12.408165 14.027653 31.129156 0.462858 1.103328 0.023711 0.000267 -433517.000000 0 0 1
24.201673 13.252465 12.931653 30.472552 0.500987 1.132530 0.026794 0.004489 -45318.200000 0 0 1
23.454573 14.369765 13.388453 30.591793 0.549679 1.117815 0.022860 0.005271 361798.000000 0 0 1
22.950273 15.094965 12.276253 30.087861 0.581787 1.150519 0.006382 0.002969 -29022.800000 0 0 1
22.205073 16.391965 12.668553 30.368635 0.635911 1.140479 0.016377 0.010929 -732541.000000 0 0 1
20.893873 16.188565 13.104453 29.501699 0.659185 1.110523 0.025147 0.011306 -335668.000000 0 0 1
20.228473 17.368065 13.508153 29.888309 0.709463 1.101841 0.021294 0.016501 -411877.000000 0 0 1
19.647573 18.270365 12.388653 29.551854 0.749093 1.138213 0.033260 0.015880 -417348.000000 0 0 1
18.506973 17.813665 11.705953 28.228780 0.766312 1.143204 0.014279 0.018698 187210.000000 0 0 1
17.290473 18.019065 12.424353 27.892861 0.806030 1.109140 0.000823 0.018007 -662008.000000 0 0 1
16.156073 17.244265 11.791853 26.408922 0.817967 1.107935 0.000746 0.024040 -737949.000000 0 0 1
16.271073 15.861065 12.090353 25.739033 0.772639 1.081813 -0.001880 0.029744 -129176.000000 0 0 1
15.202673 15.257565 11.432853 24.384927 0.787200 1.082809 -0.006436 0.017251 -356291.000000 0 1 0
15.533773 13.992865 10.590453 23.436213 0.733258 1.101920 0.005274 0.012459 -477537.000000 0 1 0
15.726873 12.790265 11.252453 23.184976 0.682783 1.064051 0.014323 0.015795 254075.000000 0 1 0
16.162373 11.739565 10.437553 22.538460 0.628194 1.089307 0.012272 0.011386 -24349.500000 0 1 0
16.630973 10.441665 11.158153 22.585881 0.560642 1.054075 0.024153 0.002257 -701317.000000 0 1 0
17.192273 9.479765 10.311853 22.175989 0.503915 1.087161 0.020934 0.000614 373336.000000 0 1 0
17.700573 8.290965 10.896553 22.378232 0.438050 1.062229 0.026901 -0.003682 805233.000000 0 1 0
19.043773 8.471665 11.692253 23.898602 0.418565 1.059573 0.019742 -0.008419 268724.000000 0 1 0
18.764973 9.032065 12.945053 24.520946 0.448597 1.014649 0.016382 -0.004811 471124.000000 0 1 0
19.991473 9.137465 13.656053 25.877404 0.428716 1.014881 0.025028 -0.016125 -519738.000000 0 0 1
19.805973 9.630065 15.136753 26.723323 0.452563 0.968635 0.026995 -0.000365 -182845.000000 0 0 1
19.280573 8.700665 16.062353 26.560144 0.423906 0.921339 0.044141 -0.001409 974833.000000 0 0 1
17.910873 8.386965 15.773553 25.297145 0.437936 0.897545 0.054340 -0.009756 -46061.500000 0 0 1
17.510873 7.074665 16.514453 25.088019 0.383963 0.852291 0.052357 -0.000114 -102430.000000 0 0 1
16.124673 6.856765 16.750953 24.240766 0.402069 0.807891 0.041903 -0.006633 439632.000000 0 1 0
15.938573 5.482865 17.116053 24.022056 0.331319 0.777722 0.057501 -0.000583 744553.000000 0 1 0
14.447873 5.236865 17.619453 23.379711 0.347737 0.717242 0.050679 -0.010441 1369200.000000 0 1 0
14.058973 3.860865 17.798853 23.007828 0.268012 0.686294 0.060642 -0.006121 161438.000000 0 1 0
13.893773 3.189565 16.555753 21.847270 0.225658 0.710869 0.078770 -0.005843 -526509.000000 0 1 0
13.451673 1.705965 16.685553 21.500360 0.126148 0.682403 0.045767 -0.002152 225767.000000 0 1 0
14.533773 0.811665 16.989653 22.372699 0.055789 0.708418 0.021707 0.001701 244044.000000 0 1 0
14.237673 -0.600735 16.891353 22.099548 -0.042168 0.700794 0.009506 0.021095 -44964.300000 0 1 0
13.144373 -1.228235 17.847453 22.199430 -0.093171 0.636872 0.003023 0.015701 402982.000000 0 1 0
11.890773 -0.770535 17.396653 21.086198 -0.064711 0.600549 0.009326 -0.001848 -777536.000000 0 1 0
10.880173 -1.566135 17.973753 21.068620 -0.142962 0.548888 -0.002427 -0.004807 -17048.600000 0 1 0
-25.246107 14.401965 29.067313 41.105853 -0.518418 0.785361 0.047232 -0.008501 -588608.000000 0 0 1
-24.321027 14.282565 30.107133 41.254617 -0.530993 0.752784 0.055106 -0.005365 150147.000000 0 0 1
-23.738727 12.986765 30.111273 40.482984 -0.500592 0.732058 0.046745 0.000823 360078.000000 0 0 1
-22.504527 12.891265 31.075763 40.476431 -0.520202 0.695475 0.052764 -0.010923 351954.000000 0 0 1
-22.887627 13.062565 32.444173 41.798306 -0.518616 0.682168 0.058135 -0.012909 408250.000000 0 0 1
-21.766027 12.987765 33.325300 41.869053 -0.537989 0.650236 0.033620 -0.003293 15837.900000 0 0 1
-22.026927 13.127265 -34.209917 42.753117 -0.537447 2.498381 0.026922 0.006945 -538205.000000 0 0 1
-22.722527 12.054665 -33.704926 42.398705 -0.487761 2.489724 0.014233 0.003104 -237236.000000 0 0 1
-23.318527 12.442865 -32.483666 41.878003 -0.490168 2.458578 -0.007663 0.004860 151924.000000 0 0 1
-24.275927 11.332665 -31.929226 41.680036 -0.436759 2.443478 -0.023497 -0.000659 -17539.900000 0 0 1
-23.661527 10.273965 -31.244666 40.517297 -0.409642 2.451432 -0.031007 -0.002013 108235.000000 0 0 1
-23.175727 9.196065 -32.057926 40.612714 -0.377742 2.480557 -0.026810 0.000910 229122.000000 0 0 1
-22.302727 8.197765 -31.197726 39.216235 -0.352239 2.490680 -0.034142 0.007810 -318459.000000 0 0 1
-22.989327 7.353165 -30.313446 38.748977 -0.309568 2.469151 -0.039459 0.005308 -225268.000000 0 0 1
-22.137427 6.833665 -29.345346 37.388688 -0.299413 2.473286 -0.043396 0.013519 -517752.000000 0 0 1
-22.813527 6.013065 -28.197946 36.765991 -0.257713 2.444882 -0.040504 0.012228 -158992.000000 0 0 1
-23.331227 4.754065 -28.604576 37.217859 -0.201012 2.447401 -0.033963 0.006858 -79898.200000 0 0 1
-23.756927 3.958465 -27.571256 36.609223 -0.165107 2.423593 0.000501 0.008315 -672386.000000 0 0 1
-24.547227 2.700065 -28.037006 37.362152 -0.109554 2.419481 0.002881 0.004031 1031890.000000 0 0 1
-25.880167 2.913165 -28.556076 38.648662 -0.112092 2.402178 0.005023 0.001994 1053300.000000 0 0 1
-25.962217 3.720865 -29.734426 39.648678 -0.142349 2.418779 0.001889 0.002274 -2116900.000000 0 0 1
-27.273817 3.542165 -30.398976 40.993972 -0.129151 2.406170 0.024721 -0.005401 -1225560.000000 0 0 1
-28.389037 3.984465 -29.650506 41.242768 -0.139441 2.373053 0.021794 -0.001283 48085.000000 0 0 1
-29.618207 4.113065 -30.315186 42.581287 -0.137987 2.363049 0.032019 -0.009293 174261.000000 0 0 1
-29.822587 5.500665 -30.951126 43.331469 -0.182396 2.366402 0.032229 -0.027289 -741440.000000 0 0 1
-28.962317 5.735165 -32.054746 43.579980 -0.195493 2.397257 0.025799 -0.017892 100015.000000 0 0 1
-28.965987 7.063665 -32.640966 44.208104 -0.239192 2.401414 0.020905 -0.016142 -430234.000000 0 0 1
-28.332727 8.230965 -31.807366 43.384337 -0.282729 2.393743 0.008443 -0.016559 -100983.000000 0 0 1
-26.947507 8.134965 -31.569526 42.296344 -0.293182 2.413416 -0.038148 -0.013818 -58031.700000 0 0 1
-26.480407 7.575865 -30.401636 41.022739 -0.278650 2.405492 -0.024707 -0.016125 -679820.000000 0 0 1
-26.570117 8.349965 -29.043206 40.239295 -0.304489 2.377141 -0.026517 -0.008173 905488.000000 0 0 1
-27.918367 8.634765 -28.584876 40.878962 -0.299954 2.345153 -0.026768 -0.004903 1336330.000000 0 0 1
-28.456137 7.517065 -27.863736 40.529567 -0.258264 2.328826 -0.025003 0.000019 224731.000000 0 0 1
-29.913907 7.715565 -27.328846 41.246062 -0.252424 2.295055 -0.009869 -0.005916 511934.000000 0 0 1
-30.049697 8.467465 -26.175946 40.741409 -0.274660 2.268540 -0.030130 0.005245 81098.400000 0 0 1
-30.258547 7.695165 -24.962176 39.973810 -0.249035 2.245240 -0.028001 -0.000589 -126092.000000 0 0 1
-29.749277 8.495265 -23.763776 39.011614 -0.278159 2.225780 -0.022737 0.003094 -606965.000000 0 0 1
-30.508217 9.591465 -23.329776 39.585679 -0.304605 2.201049 -0.026827 0.001159 -197720.000000 0 0 1
-29.715537 10.499665 -22.573876 38.766428 -0.339647 2.192357 -0.034049 0.002323 -306014.000000 0 0 1
-30.462177 11.555765 -21.740676 39.168060 -0.362577 2.159233 -0.037768 0.007768 -361892.000000 0 0 1
-30.882947 10.983665 -20.538276 38.680978 -0.341703 2.130536 -0.048043 -0.003483 -28799.100000 0 0 1
-31.552637 11.868965 -19.678176 39.034239 -0.359791 2.099166 -0.039114 -0.000374 -207920.000000 0 0 1
-30.665267 12.607365 -18.658876 38.045471 -0.390063 2.083387 -0.049445 0.012482 -310091.000000 0 0 1
-30.131137 11.873065 -17.534876 36.828344 -0.375363 2.067039 -0.029856 0.017222 780904.000000 0 0 1
-31.061137 11.563765 -16.474376 37.012430 -0.356393 2.032087 -0.027178 0.019529 117271.000000 0 0 1
-31.441777 12.787665 -15.606676 37.358775 -0.386277 2.001765 -0.032076 0.018851 -351145.000000 0 0 1
-32.046467 13.871165 -16.319976 38.545128 -0.408497 2.007990 -0.037482 0.015605 466014.000000 0 0 1
-32.757407 14.786765 -15.508676 39.143520 -0.424019 1.978171 -0.041287 0.016159 -108195.000000 0 0 1
-33.262707 16.098865 -16.181876 40.341470 -0.450759 1.983538 -0.038277 0.014958 226763.000000 0 0 1
-34.163580 15.919265 -17.264176 41.456302 -0.436056 2.000325 -0.030056 0.002318 506874.000000 0 0 1
-34.806584 17.125165 -17.637876 42.612958 -0.457235 1.997540 -0.024476 0.001822 -228952.000000 0 0 1
34.605034 17.023065 -19.007876 42.995261 0.457166 2.028726 -0.017784 -0.002573 289417.000000 0 0 1
33.520736 16.125765 -19.071776 41.802065 0.448388 2.044562 0.010608 -0.013451 880167.000000 0 0 1
32.255146 16.709465 -18.714976 40.863810 0.477975 2.046523 0.053250 -0.028339 1158330.000000 0 0 1
31.020596 15.747065 -19.018776 39.647967 0.469735 2.071099 0.059617 -0.031790 707025.000000 0 0 1
30.561496 15.681865 -20.366176 39.933783 0.474092 2.105980 0.047556 -0.029522 85412.600000 0 0 1
29.657816 14.617965 -20.572276 38.942130 0.457941 2.127368 0.031838 -0.027241 -320566.000000 0 0 1
30.193386 13.139265 -20.581576 38.831458 0.410453 2.129424 0.020846 0.006616 -224880.000000 0 0 1
30.529556 12.714865 -19.287776 38.284982 0.394630 2.098783 0.027444 0.002102 -76223.700000 0 0 1
31.142566 11.476865 -19.381976 38.434865 0.353083 2.099346 0.015030 0.017632 -408068.000000 0 0 1
31.561656 11.033965 -17.968176 37.957105 0.336319 2.063922 0.000095 0.019628 -504077.000000 0 0 1
30.447616 10.753165 -17.154176 36.564376 0.339495 2.059124 0.011635 0.017216 -183025.000000 0 0 1
30.772616 10.217465 -15.909376 36.117291 0.320578 2.026943 -0.022946 0.018563 -544856.000000 0 0 1
30.430416 11.181565 -14.738676 35.612725 0.352132 1.997486 -0.000475 0.008712 -250307.000000 0 0 1
29.046546 11.430965 -14.679676 34.494371 0.374925 2.010385 0.002539 0.013533 -114636.000000 0 0 1
28.736836 12.322065 -13.631476 34.109473 0.405076 1.981919 -0.005794 0.013719 -270091.000000 0 0 1
27.236326 12.676665 -13.538876 32.951729 0.435613 1.994204 0.036186 0.005418 -258079.000000 0 0 1
26.549276 11.497365 -13.215576 31.807309 0.408676 1.999276 0.009921 0.024777 518930.000000 0 0 1
25.124246 11.562765 -13.389776 30.728022 0.431323 2.021669 0.019564 0.023298 641655.000000 0 0 1
24.670226 10.847665 -14.668476 30.683156 0.414261 2.069244 0.014397 0.017944 -661202.000000 0 0 1
24.895326 9.473265 -14.682776 30.415521 0.363605 2.074577 0.000688 0.024459 -411946.000000 0 0 1
26.131606 8.946565 -15.020476 31.440683 0.329858 2.068877 -0.000514 0.017956 -832335.000000 0 0 1
26.561886 7.695365 -14.251376 31.110354 0.281994 2.046643 -0.007987 0.019260 246590.000000 0 0 1
25.632496 6.604165 -14.438076 30.151250 0.252164 2.070146 0.012898 0.006224 1043940.000000 0 0 1
25.872186 5.630565 -13.444376 29.695530 0.214289 2.040633 -0.005628 0.003745 192613.000000 0 0 1
24.949626 4.377665 -13.645176 28.772185 0.173692 2.064907 0.002896 0.004861 117481.000000 0 0 1
24.814226 3.633065 -12.483276 28.013874 0.145378 2.032652 -0.018529 -0.000586 377387.000000 0 0 1
23.970426 2.484865 -12.609976 27.198665 0.103295 2.052878 -0.018537 -0.003400 -124062.000000 0 0 1
23.028526 2.345165 -11.384476 25.795719 0.101488 2.027879 -0.024409 0.003540 -566494.000000 0 0 1
23.621626 2.091665 -10.140676 25.791269 0.088318 1.974887 -0.028032 0.005286 92743.400000 0 0 1
22.752826 2.216765 -9.035876 24.581542 0.097122 1.947210 -0.031545 0.008210 -912474.000000 0 1 0
23.392426 1.799665 -7.714976 24.697474 0.076782 1.888493 -0.033941 0.012850 -234351.000000 0 1 0
23.544626 0.394765 -7.384176 24.678560 0.016765 1.874665 -0.037603 0.007634 588331.000000 0 1 0
24.399426 -0.393635 -8.208376 25.746152 -0.016132 1.895280 -0.016346 0.001282 -307422.000000 0 0 1
24.464126 -1.892635 -7.883976 25.772710 -0.077210 1.881684 0.005337 -0.006054 -735227.000000 0 0 1
25.354216 -2.186235 -6.856476 26.355780 -0.086015 1.833975 0.014854 -0.002008 148361.000000 0 0 1
25.415816 -3.589335 -6.641176 26.513247 -0.140297 1.823978 0.013726 -0.002173 171562.000000 0 0 1
26.614096 -4.164635 -5.788776 27.552935 -0.155224 1.782470 0.012903 -0.005082 1543700.000000 0 0 1
27.902946 -4.034635 -6.449876 28.921507 -0.143600 1.795701 0.021930 -0.006531 938823.000000 0 0 1
28.928956 -4.570835 -5.675776 29.832725 -0.156707 1.762217 0.022896 -0.000067 -185943.000000 0 0 1
30.225206 -4.828835 -6.499376 31.290935 -0.158423 1.780028 0.024784 -0.006019 -71524.200000 0 0 1
30.080126 -5.742035 -7.589276 31.549676 -0.188622 1.813729 0.008528 -0.005672 -223052.000000 0 0 1
31.143806 -5.667335 -8.487676 32.773403 -0.180003 1.832763 0.009645 -0.013190 -952920.000000 0 0 1
30.961046 -6.563735 -9.789076 33.128462 -0.208907 1.870763 0.008298 -0.005260 -38351.600000 0 0 1
29.793316 -6.276135 -10.530876 32.216935 -0.207620 1.903790 0.026452 -0.004986 -155983.000000 0 0 1
28.665866 -6.954935 -10.071876 31.169627 -0.238022 1.899833 0.017848 -0.015719 -109381.000000 0 0 1
27.408776 -6.129535 -9.627576 29.690106 -0.220014 1.901035 0.006606 -0.010047 35526.100000 0 0 1
26.539666 -5.765235 -10.660176 29.175866 -0.213908 1.944834 -0.007835 -0.002688 646711.000000 0 0 1
25.364006 -5.043335 -10.311576 27.840557 -0.196278 1.950214 -0.001703 0.002862 912613.000000 0 0 1
24.082726 -5.806535 -9.862276 26.663796 -0.236592 1.949671 0.008507 -0.003413 -951050.000000 0 0 1
24.088626 -6.553435 -8.670876 26.427136 -0.265626 1.905093 0.004197 -0.002468 376201.000000 0 0 1
22.860926 -7.176335 -8.307976 25.360288 -0.304171 1.904556 0.000338 -0.009018 -752211.000000 0 0 1
21.932026 -6.244335 -7.548976 24.020669 -0.277374 1.890484 0.001802 -0.002380 -725259.000000 0 1 0
21.302026 -5.430135 -8.558476 23.590468 -0.249596 1.942061 -0.006728 -0.004864 351811.000000 0 1 0
21.081526 -4.109135 -8.141076 22.969389 -0.192503 1.933102 -0.019671 -0.006193 -430421.000000 0 1 0
21.027126 -3.111835 -9.331976 23.214420 -0.146925 1.984486 -0.017309 -0.001979 -727750.000000 0 1 0
22.272326 -2.843235 -9.910576 24.543024 -0.126971 1.986468 -0.015513 -0.002567 92705.500000 0 1 0
22.084926 -2.147235 -11.155176 24.835308 -0.096922 2.036628 -0.011254 0.000142 -566283.000000 0 1 0
23.317726 -2.051235 -12.055676 26.329892 -0.087743 2.046394 -0.002758 -0.004209 -331886.000000 0 0 1
24.284826 -1.208235 -11.480576 26.888961 -0.049712 2.011927 -0.003421 -0.008104 891846.000000 0 0 1
25.604266 -1.318535 -12.011076 28.312240 -0.051451 2.008915 0.007304 -0.007844 741945.000000 0 0 1
26.588776 -0.152535 -11.666076 29.035902 -0.005737 1.984257 0.011045 -0.005329 527920.000000 0 0 1
27.856206 -0.380735 -12.285876 30.447593 -0.013667 1.986145 0.016918 -0.011035 1480690.000000 0 0 1
28.905186 0.613265 -12.115476 31.347578 0.021213 1.967617 0.027868 -0.009590 813637.000000 0 0 1
28.784616 1.866465 -12.974176 31.628580 0.064752 1.993474 0.025346 -0.008876 -474166.000000 0 0 1
29.075326 1.518465 -14.329576 32.450224 0.052178 2.028162 0.031043 -0.009792 427487.000000 0 0 1
29.124466 2.658265 -15.208076 32.963411 0.091020 2.050326 0.013648 0.000372 -341638.000000 0 0 1
29.354886 2.100965 -16.616376 33.796854 0.071449 2.084785 0.009882 -0.005413 35394.600000 0 0 1
28.239476 1.466765 -17.229476 33.113052 0.051894 2.118025 0.016634 -0.001309 182698.000000 0 0 1
28.463726 1.433665 -18.635276 34.051617 0.050326 2.149890 0.006000 -0.001677 -392777.000000 0 0 1
27.383596 0.694565 -19.391676 33.561598 0.025359 2.186819 0.000645 0.002840 -539804.000000 0 0 1
27.275156 -0.708635 -19.179176 33.350818 -0.025975 2.183490 0.007397 0.009574 54130.400000 0 0 1
26.943936 -1.312135 -20.384776 33.811780 -0.048660 2.217915 0.002581 0.007100 -150941.000000 0 0 1
26.637126 -2.824035 -20.354576 33.642539 -0.105624 2.220594 -0.003938 0.014996 1072940.000000 0 0 1
25.362706 -3.114035 -19.706876 32.269568 -0.122169 2.227735 0.013291 0.016442 1243540.000000 0 0 1
25.131766 -4.495835 -19.568576 32.167489 -0.177018 2.224756 0.013154 0.014176 -239083.000000 0 0 1
25.889006 -5.215735 -18.425176 32.201423 -0.198804 2.179964 -0.007544 0.013017 -52258.600000 0 0 1
27.252986 -5.310835 -18.774576 33.517382 -0.192460 2.165357 -0.013461 0.016353 -643026.000000 0 0 1
28.069466 -5.513735 -17.696676 33.637309 -0.193962 2.124807 -0.020498 0.013057 -92596.900000 0 0 1
29.587066 -5.305035 -17.948476 35.009794 -0.177417 2.109088 -0.019041 0.016484 369914.000000 0 0 1
30.146486 -6.329735 -18.746176 36.059607 -0.206960 2.117491 -0.030149 0.018195 -179870.000000 0 0 1
31.509366 -6.138735 -19.033876 37.320405 -0.192412 2.105996 -0.026834 0.019562 -175806.000000 0 0 1
32.149036 -7.315735 -19.817376 38.468284 -0.223747 2.111992 -0.029079 0.019965 -94023.600000 0 0 1
32.443466 -8.313935 -18.836176 38.425272 -0.250861 2.083119 -0.023139 0.015729 -76499.000000 0 0 1
32.963936 -9.429235 -19.499676 39.443237 -0.278607 2.087910 -0.022750 0.020273 -205518.000000 0 0 1
33.802956 -10.383735 -18.633376 39.970795 -0.298035 2.055758 -0.014710 0.013923 -268688.000000 0 0 1
33.044326 -11.170735 -17.722476 39.125426 -0.325992 2.040885 -0.026769 0.013746 117285.000000 0 0 1
33.845696 -11.856435 -16.791576 39.598778 -0.336950 2.008701 0.001345 0.009799 -906346.000000 0 0 1
34.701796 -11.094835 -15.753576 39.692382 -0.309448 1.978924 0.008219 0.010622 -381627.000000 0 0 1
-34.953477 -11.889535 -14.650276 39.720740 0.327876 1.948548 0.002143 0.007080 578766.000000 0 0 1
-34.197572 -13.068035 -14.998476 39.562631 0.365010 1.959628 -0.002696 0.007170 -472672.000000 0 0 1
-32.774697 -12.873335 -15.555676 38.495228 0.374269 1.986784 -0.010559 0.007858 -791669.000000 0 0 1
-32.718707 -12.230535 -16.847076 38.780456 0.357726 2.020193 -0.002862 0.005571 -1061600.000000 0 0 1
-31.425097 -12.292935 -17.316276 37.927647 0.372882 2.044922 -0.007198 0.008854 -845497.000000 0 0 1
-31.029677 -11.309435 -18.421176 37.816450 0.349508 2.079586 -0.000639 0.007106 115784.000000 0 0 1
-31.234447 -9.957835 -17.979976 37.390222 0.308623 2.072447 0.017062 0.005008 909.069000 0 0 1
-32.519107 -9.557235 -18.391776 38.562812 0.285847 2.067955 0.009589 0.001261 -328752.000000 0 0 1
-32.959637 -8.193735 -17.767076 38.329414 0.243660 2.052778 0.016306 0.001784 460034.000000 0 0 1
-34.252632 -7.792435 -18.230376 39.576653 0.223692 2.049506 0.006630 -0.000315 366332.000000 0 0 1
-34.626807 -6.624535 -17.512976 39.365017 0.189028 2.031844 0.005961 -0.000420 -30765.100000 0 0 1
23.642073 27.232065 -27.805886 45.537899 0.855848 2.227627 0.011343 0.014770 42605.900000 0 0 1
24.254373 26.822365 -26.616466 44.901560 0.835633 2.205295 0.003192 0.007573 78522.300000 0 0 1
25.392873 26.015565 -26.888416 45.217193 0.797510 2.207627 -0.007985 0.004129 174512.000000 0 0 1
25.993773 25.262865 -25.668016 44.415489 0.771139 2.186958 -0.001764 -0.002906 -212681.000000 0 0 1
26.460973 26.122465 -24.623676 44.596992 0.778961 2.155722 -0.000224 0.007924 341004.000000 0 0 1
26.638573 25.375765 -23.421576 43.613223 0.761125 2.137708 0.007255 0.004190 -159493.000000 0 0 1
27.187473 26.185165 -22.218476 43.800482 0.766621 2.102805 0.008721 0.009118 279534.000000 0 0 1
26.227273 27.068965 -21.696076 43.489291 0.801190 2.093106 0.004114 0.012914 249862.000000 0 0 1
26.939173 27.951565 -20.818176 44.050034 0.803840 2.063038 -0.010751 0.014641 -127584.000000 0 0 1
26.104773 28.934365 -20.031676 43.816945 0.836763 2.045604 -0.003264 0.025899 -564021.000000 0 0 1
25.330773 28.234865 -19.074476 42.458112 0.839561 2.036726 0.011463 0.014866 17361.600000 0 0 1
24.534373 29.146065 -18.342076 42.283097 0.871098 2.019494 0.013757 0.009960 -105796.000000 0 0 1
23.435173 28.595465 -17.416476 40.868589 0.884253 2.011038 0.019285 0.005223 -728741.000000 0 0 1
22.426673 28.019565 -18.170876 40.227259 0.895816 2.039472 0.033977 0.009176 -1443840.000000 0 0 1
21.376773 27.833065 -17.289176 39.122392 0.915852 2.028540 0.015494 0.009108 -704439.000000 0 0 1
20.370973 26.826965 -17.916476 38.153148 0.921340 2.059627 0.008760 0.007951 -312995.000000 0 0 1
19.727873 27.237965 -19.080876 38.667500 0.943961 2.086860 0.009937 0.014997 87310.600000 0 0 1
18.944073 26.151965 -19.652476 37.802420 0.943892 2.117499 0.017317 0.013132 671997.000000 0 0 1
18.234073 26.615465 -20.957476 38.471810 0.970145 2.146886 0.007987 0.021591 149063.000000 0 0 1
17.315973 27.644965 -20.818576 38.697546 1.011213 2.138837 -0.012253 0.025963 -345054.000000 0 0 1
16.219973 27.545265 -21.723876 38.649139 1.038617 2.167694 -0.010945 0.017910 750398.000000 0 0 1
14.985873 28.455065 -21.407076 38.633276 1.086056 2.158090 -0.012185 0.023827 424642.000000 0 0 1
14.384773 28.065565 -20.186676 37.444619 1.097166 2.140173 -0.006157 0.024836 -397963.000000 0 0 1
13.572373 29.077165 -19.644976 37.624671 1.134084 2.120143 -0.026793 0.020969 -99271.300000 0 0 1
13.324573 28.862065 -18.125576 36.593709 1.138285 2.088999 -0.021412 0.016969 638620.000000 0 0 1
12.314873 27.878365 -17.799676 35.294302 1.154836 2.099392 -0.026617 0.024096 368300.000000 0 0 1
11.998473 27.798865 -16.458776 34.462030 1.163334 2.068708 -0.012338 0.025805 195731.000000 0 0 1
11.129873 26.550565 -16.060376 32.965774 1.173853 2.079658 0.008806 0.015257 99879.500000 0 0 1
11.830373 25.341065 -15.951576 32.195963 1.134022 2.089152 0.002229 0.012185 -196230.000000 0 0 1
10.938273 24.233465 -16.096176 31.080436 1.146803 2.115176 0.018923 0.000560 183934.000000 0 0 1
11.671573 22.887165 -16.292776 30.422072 1.099211 2.135964 0.009519 0.002523 8154.040000 0 0 1
12.387473 22.941565 -17.507976 31.405320 1.075696 2.162149 0.003129 0.010109 -491009.000000 0 0 1
13.192273 21.766065 -17.673676 30.986392 1.025908 2.177751 0.004619 0.014787 -43085.500000 0 0 1
12.567973 20.392565 -18.055976 29.997148 1.018476 2.216703 0.014420 0.003971 -235740.000000 0 0 1
11.776573 19.789765 -17.057976 28.658280 1.033999 2.208336 0.013757 -0.002444 -174938.000000 0 0 1
11.468973 18.428465 -17.317176 27.767431 1.014104 2.244200 0.018343 -0.009007 191157.000000 0 0 1
12.664473 17.425465 -17.292076 27.623388 0.942323 2.247202 0.010322 -0.003522 369095.000000 0 0 1
13.225873 17.105965 -16.027176 26.914831 0.912629 2.208656 0.012768 -0.002250 47642.600000 0 0 1
14.296073 16.192365 -16.199776 27.000058 0.847515 2.214285 0.012294 0.002543 -666997.000000 0 0 1
14.832773 15.393765 -14.989876 26.108917 0.803956 2.182336 0.019978 0.009857 -360207.000000 0 0 1
15.650973 16.127665 -14.031576 26.494144 0.800397 2.128938 -0.003399 0.019644 1348280.000000 0 0 1
16.992173 16.430565 -14.439576 27.698353 0.768597 2.119188 -0.014148 0.024481 281062.000000 0 0 1
17.940373 15.194265 -14.580076 27.664079 0.702710 2.125910 -0.016584 0.022165 -782950.000000 0 0 1
18.270973 14.416865 -13.427876 26.869728 0.668034 2.094095 0.001272 0.013782 282346.000000 0 0 1
18.868173 15.068565 -12.352476 27.122929 0.673901 2.043647 -0.006401 0.018654 -164113.000000 0 0 1
19.786573 14.141365 -11.514276 26.908460 0.620520 2.012970 0.015007 0.014765 415955.000000 0 0 1
18.890973 13.204265 -10.933576 25.510087 0.610036 2.013737 0.029706 0.011039 855994.000000 0 0 1
19.590773 12.205965 -10.224076 25.245112 0.557193 1.987767 0.039481 0.014981 -50959.800000 0 0 1
20.015473 10.966965 -11.037776 25.352041 0.501248 2.021257 0.035720 0.016492 -531438.000000 0 0 1
21.186973 11.164965 -11.789276 26.693282 0.484993 2.028241 0.021436 0.019752 177397.000000 0 0 1
21.650973 10.114165 -12.579476 27.005632 0.437021 2.055345 0.013449 0.022037 -103612.000000 0 0 1
22.321173 8.901365 -11.872576 26.803491 0.379459 2.029681 0.006507 0.032363 -341879.000000 0 0 1
21.366973 8.132765 -11.148876 25.435936 0.363691 2.024516 0.006502 0.030376 445342.000000 0 0 1
21.888973 7.065065 -10.381976 25.235446 0.312212 1.994791 -0.014254 0.029526 -786401.000000 0 0 1
22.223573 5.800365 -11.258376 25.578946 0.255305 2.026553 -0.011458 0.024193 839996.000000 0 0 1
21.080673 4.993765 -11.694176 24.618818 0.232601 2.065771 0.004110 0.016278 876903.000000 0 1 0
20.376373 5.563965 -12.741376 24.667731 0.266561 2.113578 -0.006973 0.009609 -336781.000000 0 1 0
19.184973 4.618565 -13.070076 23.668993 0.236243 2.155800 -0.008472 -0.003164 42948.200000 0 1 0
19.578973 3.506965 -13.805076 24.211880 0.177239 2.177519 -0.017343 -0.004685 454298.000000 0 1 0
18.522173 2.567565 -13.847076 23.268107 0.137743 2.208198 -0.014382 -0.002541 -904727.000000 0 1 0
18.947873 1.291165 -14.599776 23.955009 0.068038 2.226184 -0.011933 -0.000458 -461834.000000 0 1 0
19.918473 0.517965 -13.968176 24.333594 0.025998 2.182214 -0.019638 -0.003707 -614901.000000 0 1 0
21.200573 0.741865 -14.467576 25.677333 0.034978 2.169337 -0.005596 -0.003494 -924430.000000 0 0 1
21.846273 -0.530635 -14.971376 26.489306 -0.024285 2.171455 0.008171 -0.002599 -776727.000000 0 0 1
21.062373 -1.115535 -15.977476 26.460305 -0.052914 2.219091 0.005329 -0.001513 71897.700000 0 0 1
21.739473 -2.169735 -16.671276 27.481701 -0.099477 2.222613 0.008330 -0.002082 163456.000000 0 0 1
20.876773 -2.977335 -17.726476 27.548723 -0.141659 2.269805 0.011148 -0.003298 203266.000000 0 0 1
19.888473 -3.814335 -17.155976 26.541063 -0.189485 2.273645 0.018799 -0.001400 -245695.000000 0 0 1
19.116673 -4.299935 -18.217676 26.754819 -0.221249 2.319803 0.029342 -0.001519 -328181.000000 0 0 1
18.194873 -5.372735 -17.585176 25.868091 -0.287129 2.318289 0.031842 -0.004130 -402830.000000 0 0 1
18.937873 -6.418335 -17.017076 26.256789 -0.326766 2.275886 0.038096 -0.002705 105552.000000 0 0 1
18.187173 -7.602535 -16.754876 25.870788 -0.395941 2.275275 0.052064 0.006514 -53484.200000 0 0 1
18.950073 -8.754235 -16.067276 26.341968 -0.432758 2.226793 0.056164 0.004975 -47962.300000 0 0 1
19.838873 -9.523535 -16.830476 27.704576 -0.447556 2.223703 0.067415 -0.003648 405907.000000 0 0 1
20.475373 -10.565335 -16.092876 28.104232 -0.476367 2.180487 0.059007 -0.010577 -185687.000000 0 0 1
21.027473 -11.686535 -17.015476 29.466187 -0.507266 2.186408 0.056308 -0.015613 121787.000000 0 0 1
22.137073 -11.302135 -17.843576 30.597083 -0.472054 2.193433 0.050630 -0.012084 514664.000000 0 0 1
22.582773 -12.353735 -18.657876 31.791709 -0.500570 2.197995 0.051627 -0.018251 -260221.000000 0 0 1
21.821673 -12.583535 -20.005876 32.167777 -0.523076 2.241992 0.060283 -0.018218 929574.000000 0 0 1
20.421673 -12.865635 -19.916376 31.292672 -0.562186 2.260690 0.046909 -0.008628 500719.000000 0 0 1
20.175273 -14.240935 -19.817376 31.663453 -0.614649 2.247050 0.040763 -0.008064 358672.000000 0 0 1
18.642073 -14.554535 -19.918476 30.920981 -0.662884 2.270739 0.039869 -0.006111 803937.000000 0 0 1
18.156973 -14.057935 -21.154476 31.221997 -0.658838 2.315223 0.033927 0.000030 -1402790.000000 0 0 1
16.784073 -14.106135 -21.245076 30.529354 -0.698922 2.340455 0.033830 0.002812 -1048550.000000 0 0 1
16.380173 -13.203335 -22.429176 30.752335 -0.678423 2.388166 0.031329 0.002858 -338243.000000 0 0 1
16.286973 -13.908535 -23.676376 31.926222 -0.706793 2.406243 0.026717 0.008214 285284.000000 0 0 1
15.870873 -13.112435 -24.737876 32.183584 -0.690511 2.447523 0.039997 -0.001653 -156955.000000 0 0 1
15.765873 -13.878935 -26.102056 33.503805 -0.721832 2.463989 0.046068 -0.007187 -470242.000000 0 0 1
14.706273 -14.797235 -26.184116 33.478957 -0.788481 2.468836 0.041487 -0.006400 -206251.000000 0 0 1
14.699273 -15.682535 -27.365816 34.797966 -0.817750 2.475788 0.047500 -0.007176 -438730.000000 0 0 1
15.517973 -16.979535 -27.283446 35.686111 -0.830342 2.441123 0.044978 -0.008952 399293.000000 0 0 1
16.922073 -16.754835 -27.131736 36.100030 -0.780432 2.421237 0.054449 -0.004360 381988.000000 0 0 1
17.612173 -17.973035 -27.317966 37.141485 -0.795539 2.397217 0.043095 -0.006186 168917.000000 0 0 1
19.152273 -17.862935 -27.372156 37.883096 -0.750580 2.378270 0.029063 -0.000628 408719.000000 0 0 1
19.713873 -17.211135 -26.204406 37.034185 -0.717723 2.356855 0.029224 -0.000961 46744.400000 0 0 1
21.108073 -17.000335 -26.285916 37.755947 -0.678022 2.340895 0.022844 0.006981 56828.800000 0 0 1
21.763473 -16.435935 -24.998576 36.996183 -0.646826 2.312720 0.028872 0.008159 -38193.600000 0 0 1
21.548473 -15.083535 -24.669276 36.061377 -0.610714 2.324154 0.039618 0.001553 1472090.000000 0 0 1
20.131073 -14.783835 -24.402776 34.918725 -0.633428 2.344578 0.046991 0.001513 1856580.000000 0 0 1
19.891573 -13.448735 -23.662176 33.711152 -0.594506 2.348871 0.049118 0.003086 -302932.000000 0 0 1
20.182873 -12.333735 -24.448476 34.017604 -0.548541 2.372728 0.055441 0.000833 118631.000000 0 0 1
20.022073 -11.177835 -23.682176 32.964722 -0.509175 2.372310 0.058206 -0.003687 -8791.340000 0 0 1
19.891273 -9.898735 -24.536776 33.101376 -0.461760 2.405744 0.064193 0.000732 15675.800000 0 0 1
19.676073 -8.631635 -23.872876 32.118020 -0.413406 2.408765 0.056727 -0.005915 100804.000000 0 0 1
19.333173 -7.667935 -24.814976 32.378262 -0.377590 2.444028 0.040499 0.001325 -298739.000000 0 0 1
18.735073 -6.444535 -24.130376 31.221948 -0.331304 2.454141 0.031404 -0.003249 -292007.000000 0 0 1
17.422073 -6.539035 -23.634576 30.081237 -0.359060 2.474610 0.035418 -0.005903 -183533.000000 0 0 1
17.047673 -5.555935 -22.660376 28.896094 -0.315051 2.472205 0.016345 -0.008416 -94124.400000 0 0 1
17.766973 -5.720335 -21.262476 28.292763 -0.311484 2.421154 0.025290 -0.009526 -539521.000000 0 0 1
17.351973 -6.778135 -20.411976 27.634812 -0.372399 2.401836 0.035877 -0.006926 -11549.400000 0 0 1
17.682973 -8.130235 -20.874576 28.540080 -0.430955 2.391188 0.045732 -0.004156 -114915.000000 0 0 1
17.225573 -9.288535 -19.965576 27.957494 -0.494536 2.366192 0.048104 -0.013085 1064050.000000 0 0 1
15.803273 -9.382835 -19.757876 26.984342 -0.535794 2.392340 0.025926 -0.010939 648011.000000 0 0 1
15.423473 -10.523335 -18.974976 26.620928 -0.598743 2.364256 0.035083 -0.007955 331154.000000 0 0 1
13.888973 -10.490735 -18.694276 25.542808 -0.646903 2.391873 0.034136 -0.004722 409119.000000 0 0 1
13.382873 -9.582435 -17.713076 24.180104 -0.621398 2.392853 0.039283 -0.004022 82643.600000 0 1 0
13.515173 -8.198735 -18.030676 23.978833 -0.545282 2.421798 0.036245 -0.017147 -617798.000000 0 1 0
12.409773 -7.313435 -17.412076 22.597991 -0.532536 2.450444 0.030479 -0.005340 47182.000000 0 1 0
11.176673 -7.458135 -18.091476 22.535379 -0.588437 2.502778 0.014646 -0.017128 -337134.000000 0 1 0
10.356073 -6.347835 -17.804976 21.553664 -0.549893 2.542906 0.002489 -0.006371 721706.000000 0 1 0
8.877973 -6.568035 -18.302476 21.376111 -0.636949 2.598688 -0.004127 -0.003915 830157.000000 0 1 0
8.681973 -6.646135 -19.692576 22.524327 -0.653354 2.634748 -0.000493 -0.006152 -200737.000000 0 1 0
7.369073 -6.313835 -20.095676 22.316002 -0.708430 2.691726 0.005609 -0.000334 -49634.500000 0 1 0
7.020273 -6.083335 -21.526676 23.445447 -0.714017 2.734208 0.015727 -0.008667 -100330.000000 0 1 0
7.005873 -7.248135 -22.351576 24.519598 -0.802393 2.717907 0.023763 -0.014211 58761.300000 0 1 0
6.530873 -6.889635 -23.647676 25.481993 -0.812124 2.759846 0.033953 -0.010925 -58404.800000 0 0 1
6.582173 -8.087335 -24.636376 26.752215 -0.887645 2.741204 0.037796 -0.010063 -209993.000000 0 0 1
5.787373 -9.181835 -24.265376 26.582104 -1.008390 2.720998 0.032977 -0.006454 60294.500000 0 0 1
5.380573 -9.964835 -25.381606 27.793424 -1.075697 2.721923 0.019163 0.008339 195409.000000 0 0 1
4.505573 -11.192435 -25.010776 27.768862 -1.188089 2.692122 0.030093 -0.001183 472544.000000 0 0 1
5.302473 -12.148035 -24.316776 27.694703 -1.159236 2.642526 0.021934 -0.003242 99393.500000 0 0 1
4.533773 -13.266635 -23.943876 27.746494 -1.241497 2.611878 0.029245 -0.003281 -226790.000000 0 0 1
5.200473 -14.238535 -22.868676 27.436420 -1.220610 2.556236 0.029462 -0.003964 1120770.000000 0 0 1
6.431673 -14.828335 -23.332476 28.383981 -1.161544 2.535763 0.031857 -0.005773 1885950.000000 0 0 1
7.699273 -14.111435 -23.437376 28.420451 -1.071333 2.540408 0.036777 -0.008413 1819010.000000 0 0 1
8.355673 -13.677835 -22.028576 27.242588 -1.022407 2.512579 0.026548 -0.002465 -33180.300000 0 0 1
8.707073 -14.625535 -21.044276 27.066233 -1.033815 2.461493 0.024350 0.005685 546781.000000 0 0 1
7.614673 -15.221735 -20.335876 26.518528 -1.106949 2.444724 0.025830 0.007909 403530.000000 0 0 1
8.130373 -15.882935 -19.035276 26.090465 -1.097679 2.388515 0.009971 0.012195 145947.000000 0 0 1
9.111073 -16.862635 -19.252676 27.166628 -1.075422 2.358434 0.015919 0.008955 -264085.000000 0 0 1
9.698173 -17.334735 -17.992276 26.800552 -1.060716 2.306811 0.022388 0.009311 183832.000000 0 0 1
8.799073 -18.241435 -17.072376 26.488482 -1.121354 2.271193 0.009452 0.006804 -392288.000000 0 0 1
8.595673 -19.516335 -17.606376 27.654248 -1.155925 2.260957 0.006709 0.010271 300465.000000 0 0 1
7.661373 -19.679535 -18.678576 28.193438 -1.199542 2.294968 0.009076 0.017512 980956.000000 0 0 1
6.119673 -19.469935 -18.444776 27.508881 -1.266260 2.305682 0.009602 0.011967 691593.000000 0 0 1
5.849073 -18.147235 -17.976576 26.204792 -1.258997 2.326778 0.009503 0.012301 -1185620.000000 0 0 1
4.480873 -17.932735 -17.915376 25.741444 -1.325939 2.340572 -0.001882 0.010803 -517902.000000 0 0 1
4.116873 -16.454235 -17.523476 24.387758 -1.325628 2.372491 -0.015940 0.016602 74823.600000 0 1 0
4.159573 -16.276235 -16.146376 23.300716 -1.320591 2.336378 -0.029686 0.019131 183333.000000 0 1 0
4.509673 -14.917335 -15.831476 22.214853 -1.277221 2.364069 -0.017950 0.021502 34827.400000 0 1 0
10.087773 30.728265 -18.387476 37.203342 1.253592 2.087760 -0.000871 0.000780 -1004840.000000 0 0 1
9.171173 29.993765 -19.084176 36.714331 1.274055 2.117415 0.007282 0.000129 -1032120.000000 0 0 1
8.467673 29.077065 -18.308376 35.388894 1.287419 2.114546 0.010244 -0.002438 -220299.000000 0 0 1
7.415673 28.352765 -19.173976 35.021605 1.314977 2.150158 0.008187 -0.003464 -526517.000000 0 0 1
6.503573 29.302565 -19.594276 35.845117 1.352391 2.149139 0.014998 -0.019990 -724158.000000 0 0 1
5.811073 28.924465 -20.780076 36.086075 1.372531 2.184437 0.014039 -0.016300 294620.000000 0 0 1
4.842073 30.019465 -21.309776 37.131126 1.410876 2.182064 0.021642 -0.015970 686143.000000 0 0 1
3.782673 30.393165 -20.415176 36.808049 1.446975 2.158725 0.019793 -0.020761 90491.300000 0 0 1
2.870973 31.225365 -21.092676 37.791095 1.479110 2.162937 0.011347 -0.015957 -98195.100000 0 0 1
1.396973 31.018565 -20.613376 37.269480 1.525790 2.156865 0.028560 -0.015145 601965.000000 0 0 1
0.885573 29.667165 -20.767276 36.224365 1.540955 2.181319 0.024474 -0.022998 75494.800000 0 0 1
0.490073 29.421865 -22.063176 36.778663 1.554141 2.214161 0.024156 -0.021570 -656637.000000 0 0 1
0.051873 27.995865 -22.377676 35.840362 1.568943 2.245122 0.025929 -0.022102 462154.000000 0 0 1
-1.233027 27.651065 -21.862276 35.271247 -1.526233 2.239326 0.032976 -0.019929 323708.000000 0 0 1
-1.635227 26.384665 -22.327276 34.602482 -1.508899 2.272148 0.034666 -0.029342 48049.000000 0 0 1
-2.608727 25.655265 -21.348176 33.477495 -1.469461 2.262289 0.021853 -0.023540 -148988.000000 0 0 1
-3.831527 26.329365 -21.307776 34.087202 -1.426288 2.246051 0.018327 -0.021944 -518338.000000 0 0 1
-4.765827 25.738865 -20.454376 33.220231 -1.387709 2.234096 0.015521 -0.019959 100210.000000 0 0 1
-5.754927 26.765765 -19.842276 33.811851 -1.359010 2.197952 0.023013 -0.021096 -79679.400000 0 0 1
-6.951427 26.196965 -19.416476 33.340708 -1.311421 2.192432 0.031004 -0.029817 -131597.000000 0 0 1
-7.949427 27.152965 -18.998476 34.079598 -1.285991 2.162136 0.030069 -0.029106 1342810.000000 0 0 1
-9.205327 26.498165 -18.337176 33.513323 -1.236444 2.149765 0.036280 -0.030148 400714.000000 0 0 1
-8.950427 25.921165 -17.052176 32.292315 -1.238320 2.127107 0.029623 -0.029178 348735.000000 0 0 1
-10.117927 25.177765 -16.609476 31.814572 -1.188688 2.120074 0.012723 -0.027714 893883.000000 0 0 1
-10.164427 24.506865 -15.247476 30.600450 -1.177632 2.092406 0.015153 -0.026897 -44641.700000 0 0 1
-9.525227 23.260765 -15.348576 29.451178 -1.182129 2.118998 0.013317 -0.019604 -139450.000000 0 0 1
-9.862927 22.588865 -14.175776 28.433902 -1.159118 2.092724 0.026611 -0.013803 2505.750000 0 0 1
-9.441427 21.063665 -14.160676 27.080311 -1.149413 2.121062 0.049870 -0.002031 -248444.000000 0 0 1
-10.264327 20.092165 -14.768576 26.965948 -1.098497 2.150379 0.008667 0.001215 -455503.000000 0 0 1
-10.522227 20.154065 -16.193676 27.913057 -1.089634 2.189705 0.019106 -0.001841 52743.900000 0 0 1
-9.317027 20.184765 -17.174576 28.092664 -1.138348 2.228567 0.009681 -0.002629 -62183.400000 0 0 1
-8.627927 18.952865 -17.174076 26.992612 -1.143601 2.260425 0.003462 -0.002823 -709416.000000 0 0 1
-7.738827 18.976565 -18.224376 27.424940 -1.183576 2.297645 0.012334 -0.007356 -550923.000000 0 0 1
-7.030627 17.617865 -18.456476 26.466212 -1.191099 2.342504 0.006852 -0.007373 115761.000000 0 0 1
-7.910827 16.665865 -19.018776 26.496152 -1.127615 2.371425 0.001305 -0.010940 -304545.000000 0 0 1
-7.349027 15.958365 -20.075476 26.677750 -1.139235 2.422673 -0.004274 -0.011916 510758.000000 0 0 1
-6.242827 14.894265 -19.683876 25.461088 -1.173897 2.454505 0.001545 -0.009866 223359.000000 0 0 1
-6.731327 13.630065 -19.212976 24.499548 -1.112074 2.472230 -0.004518 -0.005312 418958.000000 0 1 0
-5.597527 12.850065 -18.900776 23.530742 -1.159979 2.503507 -0.004151 -0.001330 1065790.000000 0 1 0
-4.655227 13.237165 -17.676776 22.569051 -1.232627 2.470642 0.001246 -0.000223 361080.000000 0 1 0
-4.056627 14.513065 -17.694676 23.241920 -1.298237 2.436152 -0.006153 -0.008640 -613031.000000 0 1 0
-3.821927 14.975065 -16.406576 22.539641 -1.320911 2.386049 0.010073 0.000702 119116.000000 0 1 0
-2.914627 16.212665 -16.381376 23.231337 -1.392922 2.353419 0.023560 -0.007335 -230645.000000 0 1 0
-3.609927 17.282665 -16.873476 24.422045 -1.364881 2.333546 0.014878 -0.009177 -484559.000000 0 1 0
-2.823327 18.439165 -16.835676 25.127952 -1.418861 2.305002 0.024955 -0.015843 255135.000000 0 0 1
-3.617227 19.727365 -17.353476 26.521621 -1.389450 2.284072 0.037860 -0.024189 493541.000000 0 0 1
-3.765827 19.721065 -18.755676 27.475029 -1.382113 2.322172 0.024400 -0.025146 -184680.000000 0 0 1
-4.043827 21.033965 -19.320476 28.845468 -1.380862 2.304726 0.032570 -0.020814 -510089.000000 0 0 1
-2.881727 22.022265 -19.331076 29.444439 -1.440680 2.287002 0.028089 -0.029002 -1609850.000000 0 0 1
-1.912927 21.846965 -20.314476 29.893596 -1.483459 2.317958 0.046142 -0.025549 731853.000000 0 0 1
-0.786127 22.772365 -20.092176 30.379173 -1.536289 2.293453 0.042306 -0.025869 1414370.000000 0 0 1
0.202573 22.446165 -18.969476 29.388984 1.561772 2.272425 0.045702 -0.020130 -827355.000000 0 0 1
-0.407727 22.613865 -17.722776 28.734124 -1.552768 2.235448 0.042004 -0.017907 -535050.000000 0 0 1
0.542273 22.295065 -16.732176 27.880633 1.546479 2.214468 0.048506 -0.015756 -149552.000000 0 0 1
-0.041427 22.377865 -15.313776 27.116089 -1.568945 2.170925 0.053805 -0.018989 -199490.000000 0 0 1
-0.693627 21.161465 -15.005376 25.950915 -1.538030 2.187343 0.051194 -0.011581 -210443.000000 0 0 1
-0.519627 20.928365 -13.687376 25.012211 -1.545973 2.149845 0.061297 -0.011821 73520.900000 0 0 1
-1.484627 19.888565 -13.093476 23.857876 -1.496287 2.151738 0.047132 -0.010197 80742.400000 0 1 0
-1.096427 18.538665 -13.354476 22.874140 -1.511722 2.194227 0.035101 -0.009468 71835.900000 0 1 0
-2.015727 17.627065 -12.799176 21.876825 -1.456937 2.195746 0.026251 -0.005086 -62793.400000 0 1 0
-1.483527 16.162565 -12.888376 20.725337 -1.479265 2.241919 0.009739 -0.003371 -1330870.000000 0 1 0
-0.331127 16.057365 -12.150376 20.139023 -1.550178 2.218460 0.011835 0.001039 -482692.000000 0 1 0
0.239073 14.717565 -12.007876 18.996130 1.554554 2.255085 0.018862 -0.001180 938085.000000 0 1 0
0.899173 13.988365 -13.248776 19.287637 1.506605 2.328018 0.005202 -0.006750 457181.000000 0 1 0
-0.146027 13.641665 -14.158476 19.661607 -1.560092 2.374754 0.009739 -0.018075 483646.000000 0 1 0
0.431373 12.970265 -15.283976 20.050281 1.537550 2.437628 0.010320 -0.011130 -284663.000000 0 1 0
-0.382527 12.762365 -16.550076 20.902854 -1.540832 2.484484 0.009326 -0.015045 -422778.000000 0 1 0
-0.647927 13.993565 -17.181876 22.168819 -1.524528 2.457586 0.011924 -0.019496 -93983.300000 0 1 0
-0.655727 13.884265 -18.560376 23.188151 -1.523603 2.498800 0.012955 -0.014611 -402620.000000 0 1 0
-1.192127 15.134065 -19.315976 24.567621 -1.492188 2.475492 0.018165 -0.010984 -476917.000000 0 1 0
-0.520327 16.343765 -19.225776 25.239252 -1.538971 2.436793 0.017986 -0.015542 -719892.000000 0 0 1
-1.227127 17.370865 -19.820876 26.384084 -1.500271 2.420741 0.030552 -0.016812 -249160.000000 0 0 1
-0.370627 18.663965 -20.031276 27.381252 -1.550941 2.391417 0.034862 -0.019246 181836.000000 0 0 1
0.501773 18.415265 -21.107276 28.015904 1.543555 2.424019 0.046699 -0.020907 -338059.000000 0 0 1
1.319273 19.507865 -21.392376 28.981563 1.503271 2.401102 0.049304 -0.020499 -144981.000000 0 0 1
1.795773 19.522865 -22.844976 30.104152 1.479071 2.432364 0.051641 -0.025648 -339293.000000 0 0 1
2.754973 18.565265 -23.152876 29.804607 1.423477 2.460400 0.033806 -0.021245 -359092.000000 0 0 1
3.186773 18.702965 -24.494376 30.982751 1.402028 2.482554 0.030577 -0.029319 236816.000000 0 0 1
4.185173 17.637365 -24.998376 30.878975 1.337815 2.514198 0.016871 -0.008168 -904373.000000 0 0 1
5.496873 17.724265 -24.524176 30.753868 1.270070 2.493827 0.011103 -0.001558 -573130.000000 0 0 1
6.203473 16.579065 -24.934676 30.579185 1.212749 2.524239 0.010899 0.000862 13475.500000 0 0 1
6.714373 16.534265 -26.422926 31.884726 1.185052 2.547580 0.001829 -0.005472 -726834.000000 0 0 1
7.850973 17.377065 -26.670756 32.786116 1.146446 2.520902 -0.016858 -0.002584 631381.000000 0 0 1
8.348973 17.376065 -28.010446 34.003207 1.122881 2.538806 -0.005161 -0.011200 21796.900000 0 0 1
8.812073 16.035265 -28.593896 33.946918 1.068304 2.572355 -0.006713 -0.007453 454818.000000 0 0 1
10.066073 15.547665 -28.026696 33.593919 0.996228 2.557620 0.008957 -0.009539 1185320.000000 0 0 1
10.263673 14.219065 -28.406786 33.383683 0.945573 2.588527 0.007583 -0.007719 -252780.000000 0 0 1
9.606473 13.236765 -27.442016 31.946213 0.943002 2.604123 0.008052 -0.004549 -660936.000000 0 0 1
8.215973 13.164765 -27.504746 31.580442 1.012853 2.627913 0.007453 0.003807 -825323.000000 0 0 1
7.708373 12.399365 -26.421546 30.187106 1.014592 2.636768 0.026382 0.005384 18056.800000 0 0 1
6.218573 12.066465 -26.607756 29.870435 1.094936 2.669838 -0.002351 -0.000361 -8271.310000 0 0 1
5.412873 13.203465 -26.652436 30.232152 1.181735 2.650022 -0.003476 0.003544 51594.000000 0 0 1
4.040473 12.963065 -26.336386 29.630587 1.268648 2.665569 -0.009297 0.004686 1040290.000000 0 0 1
3.054173 14.089465 -26.769696 30.404895 1.357329 2.647586 0.003705 0.015007 -475885.000000 0 0 1
2.808173 14.128765 -28.161646 31.632043 1.374597 2.668775 0.012421 0.006745 80968.300000 0 0 1
3.673473 14.926465 -28.955136 32.782521 1.329487 2.653543 0.018043 -0.007871 13133.300000 0 0 1
3.437073 14.757565 -30.528776 34.082332 1.341973 2.680881 0.036647 -0.009193 -3694.080000 0 0 1
4.117673 13.532165 -30.882526 33.967707 1.275410 2.712090 0.030325 -0.008631 126446.000000 0 0 1
4.203573 13.436365 -32.274106 35.211132 1.267592 2.730258 0.026928 -0.012013 -1020560.000000 0 0 1
5.282373 12.433465 -32.773726 35.448718 1.169052 2.750621 0.026550 -0.004812 848446.000000 0 0 1
6.646973 12.852065 -32.610256 35.676135 1.093491 2.723989 0.031920 -0.004928 746641.000000 0 0 1
7.134673 13.036665 -31.300486 34.649367 1.070046 2.698312 0.017143 -0.003114 -1103000.000000 0 0 1
7.203173 11.799865 -30.321506 33.324409 1.022732 2.713812 0.017595 0.001477 -45678.100000 0 0 1
8.413973 11.075665 -30.420246 33.449315 0.921128 2.712739 0.021027 0.005287 342470.000000 0 0 1
8.187273 9.848665 -29.800606 32.436149 0.877255 2.735691 0.017006 0.002470 130717.000000 0 0 1
9.282373 8.855265 -30.227806 32.837455 0.761854 2.740227 0.003925 0.005179 -224464.000000 0 0 1
10.539573 9.065965 -29.664276 32.760397 0.710376 2.703334 0.013781 -0.003186 -606550.000000 0 0 1
11.246673 7.858565 -29.637226 32.658994 0.609884 2.708031 -0.006225 0.005003 -171604.000000 0 0 1
12.635473 7.921065 -28.911786 32.531367 0.559958 2.665376 0.000242 0.010921 665215.000000 0 0 1
13.276273 6.677665 -28.645096 32.270608 0.466027 2.663019 0.008320 0.009168 -92807.700000 0 0 1
13.902473 6.151865 -29.770046 33.427232 0.416601 2.669443 0.006105 0.003020 -718753.000000 0 0 1
14.719173 4.884765 -29.302806 33.153724 0.320428 2.654819 0.004551 -0.005871 691602.000000 0 0 1
15.790673 5.156065 -28.387816 32.890705 0.315611 2.612163 0.002235 -0.007731 762524.000000 0 0 1
16.586173 4.026165 -28.096236 32.874148 0.238136 2.595693 0.003490 -0.006672 332099.000000 0 0 1
17.494473 3.959165 -26.828426 32.272217 0.222560 2.552268 0.009583 -0.011125 526542.000000 0 0 1
18.535073 4.935765 -26.827716 32.979343 0.260254 2.520891 0.031893 -0.016002 354127.000000 0 0 1
19.035273 5.179165 -25.537666 32.269765 0.265652 2.483860 0.038315 -0.009137 -164208.000000 0 0 1
20.068973 6.303165 -25.675426 33.192184 0.304319 2.455202 0.033113 -0.003018 -425716.000000 0 0 1
19.463873 7.592465 -25.828926 33.220796 0.371925 2.461465 0.044691 -0.003973 576629.000000 0 0 1
20.297573 8.568365 -26.464956 34.435480 0.399443 2.447348 0.054081 -0.016409 -365698.000000 0 0 1
20.434373 8.341165 -27.962406 35.623515 0.387549 2.473399 0.045610 -0.013034 7077.980000 0 0 1
19.347573 8.631065 -28.829156 35.776306 0.419611 2.507850 0.043164 -0.001129 824038.000000 0 0 1
18.283273 7.663265 -28.867546 35.019122 0.396897 2.539826 0.039656 0.000273 274117.000000 0 0 1
16.930373 8.202665 -29.374016 34.882002 0.451166 2.571955 0.027061 0.006968 -263817.000000 0 0 1
16.922573 8.383565 -30.753176 36.088994 0.459967 2.590873 0.021103 0.008255 61445.700000 0 0 1
15.850173 9.241365 -31.022696 36.042176 0.527859 2.607504 0.004900 0.011797 -261410.000000 0 0 1
15.271373 9.131865 -32.448106 37.006559 0.538928 2.640005 -0.000930 0.018577 348300.000000 0 0 1
14.533173 7.919165 -32.653166 36.608135 0.498921 2.672469 -0.007485 0.019328 477385.000000 0 0 1
13.337373 8.062565 -33.410246 36.866448 0.543728 2.705125 -0.014497 0.018015 542786.000000 0 0 1
12.852973 6.622165 -33.816766 36.778059 0.475753 2.737557 -0.009511 0.009124 -62340.100000 0 0 1
12.373473 5.870265 -32.740676 35.489642 0.442978 2.745412 0.001275 0.005759 -142207.000000 0 0 1
11.827873 4.740465 -33.346516 35.698189 0.381185 2.776592 0.004693 -0.003263 -344996.000000 0 0 1
11.613173 3.403265 -32.471786 34.653498 0.285070 2.784858 0.007049 -0.011828 -180474.000000 0 0 1
12.772173 2.731765 -32.038616 34.598611 0.210709 2.754495 0.012412 -0.018369 -69956.400000 0 0 1
12.402773 1.734265 -31.026466 33.458602 0.138928 2.757955 0.013907 -0.013379 115650.000000 0 0 1
11.690573 0.436765 -31.459076 33.563875 0.037343 2.785568 0.012710 -0.013430 449572.000000 0 0 1
12.523473 -0.521435 -32.162306 34.518447 -0.041613 2.769979 0.016270 -0.009365 626596.000000 0 0 1
13.528673 -1.097235 -31.309906 34.125345 -0.080927 2.732538 0.016866 -0.014802 356584.000000 0 0 1
14.037773 -2.428535 -31.898796 34.935513 -0.171304 2.721562 0.026683 -0.016311 474306.000000 0 0 1
12.983173 -3.398535 -32.013736 34.712997 -0.256020 2.744633 0.032903 -0.019211 403498.000000 0 0 1
13.379673 -4.515635 -32.746656 35.661605 -0.325496 2.734462 0.024119 -0.014936 -185189.000000 0 0 1
12.468973 -5.770635 -32.700446 35.469631 -0.433447 2.743825 0.029132 -0.017983 -196044.000000 0 0 1
12.472973 -6.298035 -31.416206 34.383402 -0.467587 2.723100 0.037286 -0.020855 372833.000000 0 0 1
11.854773 -7.595335 -31.450396 34.457977 -0.569809 2.720682 0.057358 -0.027057 11430.500000 0 0 1
11.708973 -8.146035 -30.006546 33.224249 -0.607840 2.697852 0.057170 -0.019785 -640003.000000 0 0 1
12.934373 -8.347335 -29.367306 33.157423 -0.573107 2.658781 0.037054 -0.017795 -276623.000000 0 0 1
12.809573 -9.144735 -28.170486 32.268989 -0.619993 2.632095 0.039173 -0.023738 -44100.600000 0 0 1
13.064673 -10.668435 -28.329166 32.970333 -0.684773 2.604563 0.046249 -0.021112 -681625.000000 0 0 1
12.068973 -11.156435 -29.122626 33.440298 -0.746128 2.627795 0.041325 -0.020309 -625247.000000 0 0 1
12.236673 -12.560135 -29.310826 34.155786 -0.798442 2.602454 0.026403 -0.016681 130522.000000 0 0 1
-10.356027 -2.914735 -17.336376 20.403257 0.274356 2.586187 -0.001431 -0.002828 115565.000000 0 1 0
-10.707327 -2.482235 -18.621376 21.623228 0.227802 2.608372 -0.014677 0.000042 182620.000000 0 1 0
-11.616527 -3.409135 -19.222776 22.717417 0.285458 2.579551 -0.013702 0.004734 -246408.000000 0 1 0
-12.295127 -2.712335 -20.401176 23.973629 0.217125 2.588652 -0.005374 -0.009150 17652.500000 0 1 0
-13.186727 -1.638535 -20.047176 24.051275 0.123623 2.556242 0.000353 -0.007919 113698.000000 0 1 0
-14.143527 -1.415335 -21.036676 25.388664 0.099737 2.547373 0.006597 -0.001796 342821.000000 0 0 1
-14.979427 -0.102035 -20.919676 25.729875 0.006812 2.520168 0.000979 0.007165 356112.000000 0 0 1
-14.191727 1.014765 -21.268776 25.588976 -0.071382 2.552004 -0.004118 0.005621 42774.100000 0 0 1
-14.973127 2.193865 -21.349676 26.168994 -0.145485 2.524974 -0.005284 0.017099 236119.000000 0 0 1
-14.218727 3.410065 -21.978376 26.397912 -0.235383 2.554546 0.003237 0.001935 219301.000000 0 0 1
-13.056727 3.824065 -21.285976 25.262509 -0.284913 2.572874 -0.000473 0.002416 195766.000000 0 0 1
-12.607927 5.057265 -21.861676 25.738466 -0.381470 2.585601 -0.000784 -0.000443 -341862.000000 0 0 1
-11.452027 5.606865 -21.041376 24.603361 -0.455290 2.596779 -0.015702 -0.002545 -400752.000000 0 1 0
-11.883927 6.012365 -19.720176 23.796252 -0.468376 2.547594 -0.003097 -0.014701 362289.000000 0 1 0
-10.825327 6.469865 -18.900276 22.721516 -0.538697 2.553180 -0.008965 -0.009953 -115473.000000 0 1 0
-11.352727 7.164265 -17.576176 22.116353 -0.562946 2.489333 0.008032 -0.012707 176628.000000 0 1 0
-11.757627 8.519865 -17.807676 22.977015 -0.627062 2.457545 0.006293 -0.011174 1099090.000000 0 1 0
-12.903827 8.774765 -16.952476 23.041087 -0.597185 2.397570 0.022431 -0.010713 261157.000000 0 1 0
-13.406327 10.182865 -17.096676 23.994096 -0.649589 2.363903 0.030048 -0.004902 -418439.000000 0 1 0
-12.658527 11.145365 -16.380576 23.511289 -0.721916 2.341599 0.003103 0.007584 298940.000000 0 1 0
-13.262527 12.396165 -16.549476 24.565111 -0.751646 2.309998 0.016602 -0.006158 -432653.000000 0 1 0
-12.600227 13.462765 -15.731576 24.238280 -0.818480 2.277116 0.020048 0.003921 -666505.000000 0 1 0
-12.887727 13.411365 -14.326576 23.477840 -0.805306 2.227131 0.029659 0.000744 471790.000000 0 1 0
-12.170027 14.468065 -13.678676 23.335394 -0.871454 2.197129 0.020023 -0.000420 -710951.000000 0 1 0
-12.633227 14.756965 -12.210876 22.944976 -0.862780 2.131971 0.011729 0.000426 568792.000000 0 1 0
-13.938027 15.242165 -11.975176 23.874610 -0.830061 2.096228 0.008548 0.007248 841669.000000 0 1 0
-15.087327 14.615265 -12.544876 24.466453 -0.769507 2.109167 0.018592 0.012145 -81125.200000 0 1 0
-16.355527 14.701965 -11.643876 24.884350 -0.732206 2.057732 0.004194 0.007076 127978.000000 0 1 0
-17.333827 13.786665 -12.079176 25.227766 -0.671906 2.070089 0.002845 0.003030 -1579440.000000 0 0 1
-18.567527 14.161865 -11.692876 26.115796 -0.651594 2.035024 0.037825 -0.004906 -1534860.000000 0 0 1
-19.718227 13.489365 -12.494176 26.960635 -0.599979 2.052650 0.018344 -0.005319 -47767.100000 0 0 1
-20.065427 12.167165 -12.121076 26.411773 -0.545094 2.047583 0.029700 -0.010975 256524.000000 0 0 1
-21.112227 11.692865 -12.947276 27.387610 -0.505789 2.063196 0.039285 -0.000569 -390996.000000 0 0 1
-21.813527 10.557165 -12.292276 27.173217 -0.450744 2.040214 0.035886 -0.007663 -186193.000000 0 0 1
-20.965327 9.401665 -12.340676 26.081191 -0.421555 2.063675 0.041573 -0.009695 882816.000000 0 0 1
-21.532527 8.323365 -11.556076 25.816100 -0.368857 2.034910 0.044713 -0.010944 -155908.000000 0 0 1
-20.534227 7.171665 -11.378976 24.547268 -0.336010 2.052798 0.053202 -0.014335 -207183.000000 0 1 0
-20.289627 6.552465 -12.624076 24.778439 -0.312373 2.105375 0.050906 -0.012037 400334.000000 0 1 0
-19.282127 5.552265 -12.661976 23.726645 -0.280364 2.133720 0.048441 -0.013148 66091.200000 0 1 0
-19.438327 4.544965 -13.826176 24.283089 -0.229688 2.176541 0.047690 -0.014414 -557035.000000 0 1 0
-20.297027 3.490065 -13.657276 24.711759 -0.170284 2.156353 0.038788 -0.017568 -46178.200000 0 1 0
-19.975327 2.539565 -14.669476 24.912981 -0.126457 2.200405 0.030192 -0.016854 -261494.000000 0 1 0
-20.642927 1.182365 -14.461576 25.232233 -0.057214 2.181128 0.024533 -0.007541 531726.000000 0 0 1
-21.985127 1.105565 -14.960076 26.615258 -0.050245 2.167703 0.022110 -0.020712 721239.000000 0 0 1
-22.363327 -0.242635 -14.976776 26.916186 0.010849 2.160871 0.011238 -0.024124 -896730.000000 0 0 1
-23.684427 -0.573635 -15.650776 28.394153 0.024215 2.154595 0.019773 -0.021233 -941639.000000 0 0 1
-24.767827 -0.060135 -14.926976 28.918221 0.002428 2.113180 0.046503 -0.031010 -1341840.000000 0 0 1
-25.922917 -0.474835 -15.551976 30.233873 0.018315 2.111092 0.038017 -0.025753 -1076210.000000 0 0 1
-27.147097 0.029165 -14.765876 30.903023 -0.001074 2.068960 0.044915 -0.026282 -616081.000000 0 0 1
-27.500247 -0.756935 -13.701676 30.733898 0.027518 2.032882 0.055712 -0.024927 -23244.400000 0 0 1
-28.550757 -0.136835 -12.994276 31.369024 0.004793 1.997903 0.068857 -0.021187 32656.900000 0 0 1
-28.640347 -0.708435 -11.521676 30.879125 0.024731 1.953168 0.057293 -0.016959 -371417.000000 0 0 1
-29.039397 -2.052935 -11.293776 31.225799 0.070577 1.940867 0.061621 -0.018388 425975.000000 0 0 1
-28.202847 -3.033735 -11.862576 30.746135 0.107156 1.966896 0.067424 -0.023670 -273058.000000 0 0 1
-28.511787 -4.387635 -11.183076 30.939207 0.152691 1.940622 0.048446 -0.023249 175653.000000 0 0 1
-29.740037 -5.052535 -11.503076 32.284960 0.168283 1.935100 0.051134 -0.024553 644556.000000 0 0 1
-29.931677 -6.332535 -10.854576 32.462719 0.208492 1.911734 0.053692 -0.027449 -157307.000000 0 0 1
-29.194217 -7.526935 -11.497976 32.267019 0.252328 1.935142 0.038909 -0.019102 51568.800000 0 0 1
-27.785887 -7.458135 -11.418976 30.952743 0.262233 1.948639 0.026623 -0.018813 -187997.000000 0 0 1
-27.192627 -8.574235 -12.007676 30.937692 0.305447 1.969392 0.033635 -0.020892 -1572200.000000 0 0 1
-25.730637 -8.627535 -11.741076 29.569459 0.323521 1.979116 0.032754 -0.021155 -1793890.000000 0 0 1
-24.985127 -7.491935 -12.207676 28.799532 0.291325 2.008526 0.026501 -0.020218 507274.000000 0 0 1
-23.660127 -7.429735 -11.712276 27.425900 0.304268 2.012026 0.026120 -0.023889 9149.140000 0 0 1
-23.472427 -7.147435 -10.177476 26.563540 0.295583 1.963986 0.014589 -0.018829 -740650.000000 0 0 1
-23.792427 -5.779835 -9.848076 26.390731 0.238311 1.953214 0.010834 -0.011982 1043290.000000 0 0 1
-25.186847 -5.536135 -9.635676 27.529481 0.216362 1.928381 0.021248 -0.016817 102244.000000 0 0 1
-25.397067 -4.212335 -8.800276 27.206610 0.164363 1.900181 0.034215 -0.025682 -245449.000000 0 0 1
-24.953327 -4.280735 -7.445776 26.390013 0.169896 1.856824 0.010907 -0.018688 376402.000000 0 0 1
-25.140777 -3.061835 -6.815876 26.227651 0.121191 1.833688 0.048590 -0.019196 -166605.000000 0 0 1
-24.930727 -3.019035 -5.310776 25.668270 0.120510 1.779202 0.038996 -0.009718 571807.000000 0 0 1
-23.590827 -2.700235 -4.906776 24.246543 0.113965 1.774574 -0.005492 -0.006750 939077.000000 0 1 0
-23.385827 -2.719635 -3.491976 23.800992 0.115774 1.718043 -0.025188 0.000629 -388306.000000 0 1 0
-22.156827 -3.502935 -3.047176 22.638039 0.156800 1.705810 -0.023745 -0.002731 -443522.000000 0 1 0
-22.462827 -4.877735 -2.996476 23.180806 0.213827 1.700424 0.006569 -0.004172 606247.000000 0 1 0
-21.303527 -5.669135 -2.792976 22.221163 0.260085 1.696820 0.006212 -0.012608 -71715.400000 0 1 0
-21.618927 -7.145635 -2.749876 22.934688 0.319223 1.690986 0.020932 -0.003958 -292339.000000 0 1 0
-22.313827 -7.439735 -1.591576 23.575191 0.321823 1.638358 0.030458 0.003467 211354.000000 0 1 0
-22.777327 -8.802835 -1.673076 24.476432 0.368792 1.639204 0.016471 0.003155 -41305.500000 0 1 0
-22.819327 -9.547135 -0.279076 24.737570 0.396250 1.582078 -0.002779 -0.003350 213364.000000 0 1 0
-21.567327 -10.043435 0.173124 23.791809 0.435815 1.563520 -0.017045 0.008327 340451.000000 0 1 0
-21.745827 -10.941935 1.249824 24.375582 0.466184 1.519500 -0.031665 0.013780 174665.000000 0 1 0
-20.426327 -11.590935 1.707024 23.547793 0.516142 1.498241 -0.029744 0.012316 117.215000 0 1 0
-19.880527 -12.712535 1.026324 23.619849 0.568921 1.527331 -0.018234 0.017278 680259.000000 0 1 0
-18.680227 -13.041735 1.751324 22.849614 0.609488 1.494075 -0.041365 0.016763 106772.000000 0 1 0
-17.871127 -14.132735 1.049924 22.808194 0.669115 1.524747 -0.042192 0.020883 -1018350.000000 0 1 0
-18.638927 -15.271035 0.760324 24.107928 0.686404 1.539253 -0.030801 0.019983 228491.000000 0 1 0
-18.003227 -16.374435 0.048624 24.335996 0.738054 1.568798 -0.035210 0.014042 -429227.000000 0 1 0
-16.917527 -17.125935 0.816424 24.086655 0.791520 1.536895 -0.014016 0.016614 -1240940.000000 0 1 0
-15.797927 -16.316635 0.875024 22.728237 0.801549 1.532287 -0.010608 0.010174 -417354.000000 0 1 0
-14.709227 -16.862035 1.644524 22.436445 0.853482 1.497434 0.001087 0.002015 332749.000000 0 1 0
-14.834027 -16.630635 3.162624 22.508411 0.842435 1.429821 0.004844 -0.002039 -279372.000000 0 1 0
-14.446327 -15.344435 3.642624 21.387304 0.815536 1.399645 -0.013644 -0.002478 -185094.000000 0 1 0
-13.742327 -15.420435 4.875224 21.222846 0.842878 1.339011 -0.027879 0.004738 -387434.000000 0 1 0
-14.446427 -15.965835 6.152224 22.393236 0.835317 1.292481 0.001537 0.008382 -1116230.000000 0 1 0
-15.188927 -14.991035 6.865424 22.418044 0.778841 1.259550 -0.002374 0.011079 50300.300000 0 1 0
-15.578327 -15.305035 8.208224 23.330309 0.776549 1.211275 0.004599 0.002700 52929.600000 0 1 0
-16.491827 -16.582035 8.427024 24.858781 0.788126 1.224947 0.005770 0.002013 -156098.000000 0 1 0
-15.872427 -17.872235 8.277124 25.295484 0.844592 1.237439 0.003583 0.011102 -321173.000000 0 0 1
-16.530727 -18.907035 8.920024 26.651599 0.852354 1.229520 0.008397 0.004781 -474681.000000 0 0 1
-16.134427 -19.092935 10.364224 27.060618 0.869185 1.177754 0.005347 0.001560 529179.000000 0 0 1
-14.779127 -19.485335 10.600424 26.654641 0.921894 1.161793 -0.002742 0.001461 407615.000000 0 0 1
-14.571527 -19.903735 11.929824 27.400890 0.938850 1.120335 0.001874 0.000266 -53991.900000 0 0 1
-13.189927 -20.444035 12.358324 27.288476 0.997822 1.100807 0.000984 0.000996 14261.800000 0 0 1
-12.206827 -19.445735 12.424724 26.105881 1.010231 1.074769 0.003074 0.001451 -179266.000000 0 0 1
-10.963627 -19.970035 12.878524 26.169826 1.068718 1.056280 0.007523 -0.001500 645914.000000 0 0 1
-9.898227 -18.883735 13.154624 25.052235 1.088003 1.017978 0.002512 -0.011961 200941.000000 0 0 1
-9.329527 -18.390935 11.966224 23.842338 1.101334 1.045014 -0.003099 -0.013084 -148496.000000 0 1 0
-8.067627 -17.823435 12.282924 23.100469 1.145748 1.010169 0.004342 -0.007574 540841.000000 0 1 0
-7.277427 -17.285735 11.037624 21.762048 1.172312 1.038868 0.006320 -0.008491 501089.000000 0 1 0
-6.410327 -18.225935 10.408924 21.945904 1.232595 1.076629 0.005198 -0.008080 205262.000000 0 1 0
-5.814927 -17.597435 9.244324 20.710882 1.251650 1.108113 0.006984 -0.003515 865721.000000 0 1 0
-4.582627 -18.360735 8.604124 20.788170 1.326205 1.144067 0.000578 -0.005131 461207.000000 0 1 0
-3.368627 -18.256235 9.288924 20.758658 1.388329 1.106859 0.008197 -0.011739 -337271.000000 0 1 0
-2.405627 -19.027635 8.588224 21.014175 1.445035 1.149781 0.012055 -0.007914 126518.000000 0 1 0
-1.048127 -19.167435 9.293824 21.327548 1.516168 1.119907 0.007345 -0.012518 213924.000000 0 1 0
0.019073 -19.500235 8.425324 21.242543 -1.569818 1.162959 0.017174 -0.011389 -188637.000000 0 1 0
1.113473 -20.018535 9.133024 22.031652 -1.515231 1.143358 0.016615 -0.004499 -255446.000000 0 1 0
2.323273 -20.413635 8.288524 22.154316 -1.457474 1.187341 0.018931 -0.018671 -572894.000000 0 1 0
2.197973 -21.719135 7.766724 23.170540 -1.469940 1.228981 0.020990 -0.013062 -45576.600000 0 1 0
2.518773 -22.758335 8.667524 24.482892 -1.460570 1.208926 0.025437 -0.017510 -354305.000000 0 1 0
1.932673 -24.138835 8.278524 25.592041 -1.490902 1.241391 0.021443 -0.011528 18529.600000 0 0 1
2.161573 -25.162825 9.231924 26.889935 -1.485103 1.220344 0.016913 -0.010969 -139783.000000 0 0 1
1.559773 -26.326015 8.693924 27.768261 -1.511617 1.252353 0.024353 -0.008195 -943644.000000 0 0 1
1.534673 -27.634465 9.587624 29.290637 -1.515319 1.237323 0.024134 -0.002222 222852.000000 0 0 1
0.811073 -27.565675 10.801424 29.617479 -1.541382 1.197488 0.008228 -0.009093 522069.000000 0 0 1
-0.611827 -27.450925 10.634024 29.445035 1.548512 1.201297 0.005261 -0.000883 703135.000000 0 0 1
-1.320727 -27.477125 12.025924 30.022651 1.522767 1.158667 -0.002699 -0.005143 58567.500000 0 0 1
-1.075827 -28.779125 12.564924 31.420897 1.533432 1.159399 -0.018936 -0.011502 7907.420000 0 0 1
-1.200327 -28.715655 13.986824 31.963431 1.529020 1.117882 -0.030111 -0.006378 -509579.000000 0 0 1
-1.087027 -30.124465 14.593624 33.490878 1.534727 1.119926 -0.051974 0.003795 151343.000000 0 0 1
-1.213827 -29.972465 16.011424 34.002761 1.530320 1.080502 -0.043884 0.004979 -19855.500000 0 0 1
-0.879227 -31.177695 16.616824 35.340353 1.542603 1.081286 -0.060432 0.006532 77575.900000 0 0 1
-0.918127 -30.978165 18.149724 35.915208 1.541167 1.041010 -0.045997 0.007931 -408845.000000 0 0 1
-2.200227 -30.991045 18.689624 36.257247 1.499920 1.029237 -0.049245 0.011073 -610275.000000 0 0 1
-2.206127 -30.620885 20.077724 36.682702 1.498874 0.991620 -0.032772 0.009364 619041.000000 0 0 1
-3.665727 -30.672285 20.674124 37.170500 1.451848 0.980994 -0.006921 0.002256 479886.000000 0 0 1
-4.534227 -29.824385 19.958024 36.171479 1.419921 0.986322 -0.011687 -0.000539 -266249.000000 0 0 1
-5.759727 -29.626465 20.629224 36.557719 1.378780 0.971221 -0.000864 -0.002957 89673.500000 0 0 1
-5.839927 -28.537845 21.719724 36.335379 1.368945 0.930096 0.010139 -0.008818 -555985.000000 0 0 1
-5.048027 -28.864065 22.834424 37.148725 1.397658 0.908821 0.005590 -0.008177 -121790.000000 0 0 1
-4.911927 -27.769385 23.679924 36.823968 1.395724 0.872312 0.014469 -0.013325 -378632.000000 0 0 1
-3.898527 -28.195025 24.764024 37.728170 1.433398 0.854786 0.020573 -0.011649 -330953.000000 0 0 1
-4.043927 -29.316175 25.602324 39.131451 1.433720 0.857587 0.014876 -0.005951 -114775.000000 0 0 1
-3.757327 -30.569145 24.983824 39.658311 1.448497 0.889273 0.001528 -0.007973 -101610.000000 0 0 1
-4.099227 -31.798975 25.853824 41.187361 1.442593 0.892185 0.006900 -0.009236 -134764.000000 0 0 1
-3.504827 -31.806465 27.135224 41.955398 1.461047 0.867463 0.012443 -0.015758 10755.000000 0 0 1
-3.990727 -32.798175 28.033024 43.330089 1.449716 0.867200 0.023160 -0.021155 -123866.000000 0 0 1
-3.421427 -32.609885 29.464424 44.082458 1.466259 0.838750 0.030871 -0.015563 332783.000000 0 0 1
-2.036327 -32.859355 29.652824 44.307717 1.508904 0.837601 0.026716 -0.019882 324406.000000 0 0 1
-1.548927 -32.899495 30.958824 45.202044 1.523750 0.816332 0.024550 -0.017764 -51812.300000 0 0 1
-28.293637 3.070065 -10.316676 30.271918 -0.108084 1.918564 0.054495 -0.005688 -34186.300000 0 0 1
-28.949587 2.742365 -11.512376 31.275133 -0.094447 1.947761 0.049120 -0.018589 -4468.750000 0 0 1
-29.575937 3.881265 -12.099276 32.189948 -0.130485 1.956133 0.029363 -0.014365 58987.900000 0 0 1
-30.438917 3.497465 -13.328076 33.412536 -0.114399 1.981107 0.037210 -0.010515 606302.000000 0 0 1
-31.529577 2.626065 -12.984076 34.199366 -0.083097 1.960223 0.037296 -0.009422 373809.000000 0 0 1
-32.455017 2.510565 -14.024476 35.444562 -0.077201 1.977597 0.044601 -0.012389 -243589.000000 0 0 1
-33.456017 1.376365 -13.812576 36.221357 -0.041116 1.962039 0.015504 -0.007971 -223793.000000 0 0 1
-32.927247 0.045065 -13.869876 35.729247 -0.001369 1.969467 0.039762 -0.010309 11270.200000 0 0 1
-32.950437 -0.711335 -12.653776 35.303758 0.021585 1.937377 0.024408 -0.004838 -280394.000000 0 0 1
-32.266167 -2.049635 -12.826876 34.782687 0.063438 1.948484 0.004490 -0.012265 -682515.000000 0 0 1
-32.908987 -3.022035 -13.533176 35.711076 0.091573 1.959472 0.023095 -0.005006 -537847.000000 0 0 1
-32.469437 -4.310435 -13.159176 35.298840 0.131982 1.952814 0.033641 -0.010971 -17576.500000 0 0 1
-32.994697 -5.486635 -14.042676 36.276024 0.164781 1.968287 0.029041 -0.008989 213343.000000 0 0 1
-32.607957 -6.721535 -13.461576 35.912002 0.203284 1.955030 0.031914 -0.020535 365106.000000 0 0 1
-33.256977 -7.823935 -14.111476 36.964500 0.231055 1.962493 0.030672 -0.004540 -298442.000000 0 0 1
-32.913037 -9.169835 -13.369876 36.689337 0.271717 1.943793 0.025581 -0.006996 356871.000000 0 0 1
-31.519367 -9.438135 -13.358376 35.510493 0.290942 1.956468 0.025440 -0.011052 477853.000000 0 0 1
-30.905537 -9.842735 -14.592576 35.566486 0.308322 1.993568 0.018265 -0.012917 -1000010.000000 0 0 1
-29.678607 -10.646635 -14.302376 34.622659 0.344432 1.996644 0.010904 -0.010753 -782436.000000 0 0 1
-30.134997 -11.942835 -13.788976 35.226201 0.377322 1.972993 -0.005368 -0.002220 732120.000000 0 0 1
-29.049047 -12.840735 -13.582076 34.542791 0.416212 1.974901 -0.006933 0.000021 -64617.900000 0 0 1
-29.346267 -14.273935 -14.061476 35.534121 0.452706 1.977645 -0.006430 0.005337 -177550.000000 0 0 1
-29.240647 -14.371235 -15.447576 36.057946 0.456810 2.013528 -0.012300 0.008086 93606.900000 0 0 1
-29.542717 -15.644035 -15.981576 37.052918 0.486999 2.016749 -0.013941 0.009053 -482312.000000 0 0 1
-28.429107 -16.726535 -15.834776 36.588676 0.531816 2.018368 -0.020144 0.015747 215935.000000 0 0 1
-27.282687 -16.271235 -16.518876 35.804628 0.537764 2.050325 -0.012888 0.002560 -229312.000000 0 0 1
-26.233107 -17.238035 -16.605376 35.511467 0.581357 2.057377 -0.004096 -0.002117 -35500.700000 0 0 1
-24.921127 -16.560835 -16.948376 34.388534 0.586522 2.086158 0.003795 -0.010599 -514192.000000 0 0 1
-24.964227 -16.038335 -18.245976 34.833267 0.571051 2.122113 0.012811 -0.013806 -1046590.000000 0 0 1
-23.695527 -15.935535 -18.765276 34.169502 0.592039 2.152181 0.012271 -0.009995 -1206520.000000 0 0 1
-23.655827 -15.538235 -20.239876 34.794935 0.581173 2.191602 0.025588 -0.021035 -459717.000000 0 0 1
-24.221727 -16.410635 -21.119376 36.083640 0.595477 2.196033 0.022688 -0.028991 -1035620.000000 0 0 1
-25.513457 -16.129635 -21.498876 37.058107 0.563761 2.189696 0.025806 -0.032926 -1270270.000000 0 0 1
-26.147827 -17.302835 -22.309676 38.481406 0.584578 2.189221 0.030223 -0.026352 -200278.000000 0 0 1
-25.653077 -17.569035 -23.571176 39.017326 0.600500 2.219458 0.031871 -0.015681 39730.100000 0 0 1
-26.362877 -18.692935 -24.087276 40.306625 0.616783 2.211302 0.017520 -0.005847 -295835.000000 0 0 1
-25.845527 -19.164435 -25.451786 41.025117 0.638038 2.240043 0.021824 -0.006655 122999.000000 0 0 1
-24.501227 -19.563935 -25.582726 40.466450 0.673818 2.255180 0.035927 -0.016958 -152903.000000 0 0 1
-24.238627 -20.839435 -25.005776 40.584257 0.710134 2.234635 0.028897 -0.012313 129821.000000 0 0 1
-22.719727 -21.120135 -24.763676 39.692389 0.748927 2.244506 0.034006 -0.008203 972368.000000 0 0 1
-21.974027 -21.117335 -25.981236 40.047776 0.765520 2.276745 0.033528 -0.017136 -66899.100000 0 0 1
-20.606527 -21.433035 -25.847726 39.396813 0.805056 2.286418 0.038028 -0.010550 -89188.800000 0 0 1
-19.820227 -21.275535 -27.133826 39.771024 0.820796 2.321634 0.040674 -0.016986 -270863.000000 0 0 1
-19.973127 -22.387135 -28.033806 41.060978 0.842324 2.322297 0.067789 -0.010064 -77963.200000 0 0 1
-20.595327 -22.068135 -29.266206 42.043798 0.819906 2.340731 0.059230 -0.022862 -272694.000000 0 0 1
-19.706427 -22.165135 -30.510256 42.550114 0.844051 2.370347 0.065532 -0.027219 -56929.700000 0 0 1
-19.416427 -23.462235 -30.869626 43.363671 0.879474 2.362964 0.072134 -0.025633 -55233.600000 0 0 1
-18.520927 -23.454435 -31.979066 43.769806 0.902395 2.390025 0.069778 -0.027414 229461.000000 0 0 1
-18.143827 -24.886235 -32.396166 44.699382 0.940825 2.381477 0.062588 -0.024096 -219975.000000 0 0 1
-17.599427 -24.991535 -33.704036 45.500316 0.957247 2.404972 0.055896 -0.018883 -180305.000000 0 0 1
-18.464727 -24.908535 34.298264 46.235832 0.932886 0.735029 0.052059 -0.011812 -395741.000000 0 0 1
-17.663127 -25.042915 32.976903 45.017883 0.956513 0.748767 0.046289 -0.007405 -8446.770000 0 0 1
-16.795927 -23.964535 32.722743 43.899659 0.959489 0.729664 0.054408 -0.010694 -252352.000000 0 0 1
-16.497327 -23.903635 31.333623 42.724016 0.966705 0.747492 0.049180 -0.005819 386102.000000 0 0 1
-15.462127 -22.818335 30.891593 41.401018 0.975250 0.728528 0.036537 -0.001297 217062.000000 0 0 1
-16.075927 -21.565735 30.630533 40.764518 0.930221 0.720612 0.032592 -0.003348 -113758.000000 0 0 1
-15.239127 -20.464735 30.313063 39.622193 0.930726 0.699673 0.030179 -0.004886 -212071.000000 0 0 1
-15.002027 -19.506735 31.536473 40.001533 0.915202 0.662623 0.031185 -0.010194 105434.000000 0 0 1
-14.373427 -18.321435 31.071503 38.829225 0.905570 0.643152 0.034256 -0.011661 83727.600000 0 0 1
-13.883727 -17.565935 32.196543 39.216544 0.901950 0.607647 0.036716 -0.009044 86333.400000 0 0 1
-13.242327 -16.184335 31.937043 38.174162 0.885045 0.579724 0.041896 -0.005413 -148306.000000 0 0 1
-11.998727 -16.028535 31.299773 37.155877 0.928201 0.569091 0.044894 -0.013990 -18170.100000 0 0 1
-11.833427 -14.721035 30.900203 36.215486 0.893715 0.548645 0.045164 -0.013360 187298.000000 0 0 1
-10.406427 -14.449535 30.358293 35.195294 0.946647 0.530475 0.042591 -0.013713 263496.000000 0 0 1
-10.079927 -13.098235 30.420573 34.620513 0.914892 0.497693 0.050972 -0.017456 144454.000000 0 0 1
-8.719727 -12.852235 30.745803 34.445870 0.974674 0.467754 0.048530 -0.021743 419536.000000 0 0 1
-8.277127 -11.353135 30.708483 33.770038 0.940831 0.429099 0.043737 -0.021340 163526.000000 0 0 1
-8.974727 -10.604335 31.736713 34.644142 0.868439 0.412610 0.036949 -0.017549 501241.000000 0 0 1
-8.679827 -9.216835 31.642313 34.081159 0.815395 0.380605 0.016781 -0.012863 -381020.000000 0 0 1
-9.363027 -8.313935 32.686873 35.003135 0.726120 0.365830 0.008599 -0.012762 597064.000000 0 0 1
-10.712127 -8.063235 32.263373 34.938384 0.645240 0.393856 0.020943 -0.013840 777420.000000 0 0 1
-11.661227 -7.643235 33.231865 36.038314 0.580190 0.397256 0.029196 -0.018246 365764.000000 0 0 1
-11.514527 -6.198535 33.822251 36.262251 0.493834 0.368934 0.012685 -0.013731 -384348.000000 0 0 1
-11.441827 -5.314835 32.739503 35.086150 0.434854 0.367809 0.019444 -0.013396 187457.000000 0 0 1
-11.454327 -4.009735 33.274382 35.418414 0.336731 0.349729 0.003710 -0.014307 -196325.000000 0 0 1
-11.166027 -2.958935 32.172803 34.183691 0.259041 0.344708 -0.003006 -0.000662 242473.000000 0 0 1
-9.785527 -2.648935 32.051583 33.616623 0.264364 0.306338 -0.009709 0.000231 346196.000000 0 0 1
-9.540927 -1.493935 31.282813 32.739510 0.155321 0.299424 -0.017516 0.011853 8122.910000 0 0 1
-8.043927 -1.105835 31.265473 32.302592 0.136618 0.254085 -0.017640 0.019006 203554.000000 0 0 1
-7.647027 -0.669935 32.574913 33.467160 0.087384 0.231429 -0.009975 0.002790 -364050.000000 0 0 1
-6.319827 -0.235135 32.692393 33.298469 0.037189 0.191085 -0.002735 0.003485 -290864.000000 0 0 1
-6.089727 0.399665 34.100055 34.641857 -0.065535 0.177093 0.007457 -0.004645 -1023230.000000 0 0 1
-6.778827 1.579865 34.338649 35.036999 -0.228971 0.199992 0.014656 -0.003278 -664346.000000 0 0 1
-6.248627 2.664765 33.662668 34.341251 -0.403103 0.199125 0.027304 0.001114 -18265.500000 0 0 1
-7.138127 3.967865 33.710075 34.685241 -0.507338 0.237687 0.024402 -0.004260 600312.000000 0 0 1
-8.361227 3.895365 32.984613 34.250090 -0.435985 0.272683 0.001405 0.004264 106580.000000 0 0 1
-9.054027 5.098265 33.141229 34.731956 -0.512840 0.303822 -0.008483 0.009230 -230015.000000 0 0 1
-10.387627 5.113565 32.361013 34.369849 -0.457448 0.343587 -0.021227 0.013988 -131853.000000 0 0 1
-11.151027 6.239665 32.745223 35.150084 -0.510153 0.372053 -0.017931 0.014591 -864261.000000 0 0 1
-12.287227 6.244765 31.965483 34.810417 -0.470212 0.407099 -0.026675 0.017419 -1077520.000000 0 0 1
-13.214427 7.426765 32.225823 35.612941 -0.512024 0.439673 -0.012698 0.010280 -302917.000000 0 0 1
-13.789127 7.476265 33.523791 37.011878 -0.496824 0.437632 -0.000247 0.008168 215860.000000 0 0 1
-14.393327 8.783965 33.617162 37.609034 -0.547944 0.464917 -0.000671 0.012941 196689.000000 0 0 1
-15.215627 9.016965 -34.155726 38.463419 -0.534970 2.663786 0.013905 0.014768 199883.000000 0 0 1
-14.493227 9.264165 -32.969686 37.187075 -0.568750 2.660716 0.015079 0.011696 -637092.000000 0 0 1
-15.321327 9.637665 -31.937276 36.709907 -0.561496 2.625980 0.019477 0.009611 -1158320.000000 0 0 1
-14.594027 10.037165 -30.641586 35.392614 -0.602463 2.617468 0.036016 -0.001453 671361.000000 0 0 1
-13.632027 11.111765 -30.657176 35.343541 -0.683894 2.620760 0.034204 -0.004488 1146840.000000 0 0 1
-12.394527 10.773765 -31.323296 35.367318 -0.715556 2.658702 0.045468 -0.010786 198045.000000 0 0 1
-11.514327 12.043265 -31.362176 35.513463 -0.807847 2.653239 0.037401 -0.013306 -470.694000 0 0 1
-12.115327 13.037565 -32.182016 36.775554 -0.822047 2.636423 0.020720 -0.010117 131137.000000 0 0 1
-11.311427 14.202165 -32.132536 36.907313 -0.898219 2.627274 0.018143 -0.013477 -6459.250000 0 0 1
-11.739327 15.464065 -31.269606 36.806757 -0.921474 2.585950 0.028091 -0.015397 1373930.000000 0 0 1
-12.971027 16.183165 -31.644156 37.835102 -0.895133 2.561424 0.016973 -0.011318 1653610.000000 0 0 1
-13.232827 17.277865 -30.748426 37.670917 -0.917207 2.525665 -0.010966 -0.001905 117765.000000 0 0 1
-14.533727 18.054065 -31.110716 38.795040 -0.893007 2.501307 -0.024314 -0.001666 39048.000000 0 0 1
-14.349927 18.813865 -32.307436 40.045628 -0.919197 2.509454 -0.014904 -0.006011 484137.000000 0 0 1
-15.506727 19.460365 -32.840006 41.202310 -0.897987 2.493179 -0.016991 -0.007076 18795.100000 0 0 1
-16.100627 20.635965 -32.046516 41.376955 -0.908232 2.456723 -0.027929 -0.015234 -902839.000000 0 0 1
-15.432327 21.845765 -32.133076 41.808238 -0.955773 2.447419 -0.015609 -0.016529 -190894.000000 0 0 1
-15.920127 22.992165 -31.433996 42.073581 -0.965179 2.414514 -0.027748 -0.004947 -190908.000000 0 0 1
-17.293627 23.563365 -31.801836 43.193269 -0.937666 2.398335 -0.007890 -0.013951 641993.000000 0 0 1
-18.500827 22.996365 -31.276876 43.004144 -0.893311 2.385175 -0.007166 -0.010854 814415.000000 0 0 1
-19.449227 22.655665 -32.249296 43.949615 -0.861405 2.394664 0.020540 -0.016271 -698230.000000 0 0 1
-20.712427 21.932565 -31.737286 43.786954 -0.814002 2.381557 0.025403 -0.024421 -79996.000000 0 0 1
-21.575927 22.807065 -30.935826 44.076163 -0.813130 2.348819 0.039865 -0.027870 779839.000000 0 0 1
-22.451527 23.648365 -31.636366 45.433202 -0.811354 2.341063 0.049695 -0.024898 -335006.000000 0 0 1
-23.682127 22.973965 -32.287816 46.164372 -0.770221 2.345368 0.046638 -0.032916 -631911.000000 0 0 1
-23.309127 22.260565 -33.467046 46.463871 -0.762392 2.375004 0.067087 -0.030525 75032.700000 0 0 1
-24.468127 21.964565 -34.190222 47.435247 -0.731532 2.375719 0.080025 -0.031192 -332394.000000 0 0 1
-24.235627 20.916165 33.811692 46.562668 -0.712012 0.758084 0.092428 -0.022533 -170441.000000 0 0 1
-23.932227 19.588165 34.321203 46.199487 -0.685911 0.733417 0.091811 -0.022336 478712.000000 0 0 1
-23.573827 18.664565 33.263585 44.839239 -0.669690 0.734985 0.088295 -0.024464 -188558.000000 0 0 1
-23.312127 17.268065 33.847199 44.578854 -0.637544 0.708612 0.067538 -0.014390 -82219.300000 0 0 1
-24.444527 16.496665 34.218113 45.172493 -0.593654 0.711323 0.064027 -0.011942 548528.000000 0 0 1
-24.935127 15.664265 33.166166 44.352275 -0.560898 0.726070 0.070724 -0.013535 -108673.000000 0 0 1
-25.847957 14.538165 33.732991 44.915362 -0.512351 0.721169 0.045028 -0.009850 213793.000000 0 0 1
-27.189897 14.917865 34.058483 46.063147 -0.501810 0.738637 0.037354 -0.011036 833093.000000 0 0 1
-28.182187 13.930765 33.747924 46.121841 -0.459086 0.749965 0.015942 0.002083 148318.000000 0 0 1
-28.117137 12.520865 34.373639 46.139923 -0.418948 0.730281 -0.011255 0.010315 -438641.000000 0 0 1
-27.044677 11.646165 33.994472 44.974124 -0.406627 0.713818 -0.003355 0.000094 68598.900000 0 0 1
-27.384947 10.281965 34.018535 44.865519 -0.359174 0.710197 -0.007741 0.003203 -443562.000000 0 0 1
-26.215527 9.325065 34.454169 44.286572 -0.341751 0.679348 -0.008489 -0.003834 343147.000000 0 0 1
-25.247257 9.122365 33.458501 42.896536 -0.346725 0.676160 0.004877 -0.001492 -372836.000000 0 0 1
-24.299527 10.109465 33.260245 42.413585 -0.394253 0.669409 0.003343 -0.002395 -767408.000000 0 0 1
-23.018327 9.531165 32.563943 41.001181 -0.392575 0.653074 0.019729 -0.004905 96580.600000 0 0 1
-23.195027 9.241265 31.197863 39.958940 -0.379140 0.674934 0.024994 -0.004724 265910.000000 0 0 1
-21.961827 8.992065 30.539003 38.675700 -0.388618 0.660611 0.029257 -0.003786 325723.000000 0 0 1
-22.058027 9.093965 28.991283 37.546654 -0.391043 0.688594 0.040795 -0.008136 -74444.500000 0 0 1
-22.325827 10.371565 28.503483 37.662454 -0.434891 0.712371 0.037833 -0.013791 259961.000000 0 0 1
-22.401027 10.347465 27.066363 36.626002 -0.432722 0.739222 0.025973 -0.014900 -992845.000000 0 0 1
-22.568827 11.756065 26.461113 36.711681 -0.480226 0.765867 0.021241 -0.016611 454187.000000 0 0 1
-23.863727 12.322665 26.621003 37.815385 -0.476663 0.789820 0.032810 -0.009748 617991.000000 0 0 1
-24.904427 11.699865 25.834993 37.743399 -0.439189 0.816892 0.026536 -0.009531 -120147.000000 0 0 1
-26.198357 12.490365 26.133803 39.055586 -0.444884 0.837740 0.014786 -0.006264 -337527.000000 0 0 1
-26.175307 13.830465 25.666483 39.181587 -0.486092 0.856528 0.021638 -0.006912 616698.000000 0 0 1
-27.461187 14.468165 25.809933 40.368270 -0.484903 0.877128 0.012101 -0.012108 959160.000000 0 0 1
-27.689387 15.767365 24.976733 40.486407 -0.517644 0.905978 0.009950 -0.012541 -221532.000000 0 0 1
-26.985847 16.820765 25.538943 40.784944 -0.557389 0.894145 0.022064 -0.011262 8186.830000 0 0 1
-27.041697 17.884065 24.630253 40.715384 -0.584314 0.921109 0.020810 -0.017030 -88024.200000 0 0 1
-22.296127 -9.033835 32.553663 40.477999 0.384960 0.636416 0.011211 0.004788 -620319.000000 0 0 1
-21.222727 -8.813735 31.691883 39.146667 0.393624 0.627381 0.019627 -0.007663 -206696.000000 0 0 1
-21.544427 -9.182035 30.351663 38.336608 0.402879 0.657185 0.020165 -0.008162 -866321.000000 0 0 1
-20.463527 -8.855035 29.398093 36.897364 0.408394 0.648893 0.029374 -0.008229 -1990640.000000 0 0 1
-20.309927 -7.440535 29.291073 36.411834 0.351165 0.636067 0.031100 -0.015559 862752.000000 0 0 1
-18.984027 -6.900935 29.486803 35.741960 0.348662 0.600610 0.027272 -0.014438 1423540.000000 0 0 1
-17.835127 -7.499535 28.562843 34.498852 0.398046 0.595379 0.035008 -0.014210 -452511.000000 0 0 1
-17.386027 -8.854235 28.717413 34.718312 0.471039 0.596771 0.032616 -0.012614 567349.000000 0 0 1
-16.759527 -9.187135 29.999463 35.570395 0.501440 0.567248 0.033648 -0.012340 1285500.000000 0 0 1
-15.227727 -8.769935 30.175423 34.919215 0.522525 0.527338 0.030547 -0.011584 766470.000000 0 0 1
-14.296827 -9.637035 29.639513 34.289538 0.593109 0.526862 0.035158 -0.008268 -2165820.000000 0 0 1
-13.082027 -9.266035 30.111553 34.113113 0.616277 0.489225 0.029598 -0.013063 -994735.000000 0 0 1
-11.882727 -10.080435 29.540733 33.398642 0.703522 0.485399 0.029851 -0.011391 129043.000000 0 0 1
-11.570027 -9.828135 28.159563 31.990917 0.704173 0.494437 0.035054 -0.009897 -596085.000000 0 0 1
-10.664227 -10.748835 27.695833 31.564574 0.789349 0.500310 0.030649 -0.010109 -713032.000000 0 0 1
-10.181627 -10.479135 26.249803 30.042136 0.799797 0.507903 0.011894 -0.010107 98974.000000 0 0 1
-11.169727 -10.673935 25.261813 29.611736 0.762705 0.548895 0.012330 -0.009782 -242276.000000 0 0 1
-10.626127 -10.169135 24.063103 28.202106 0.763426 0.548634 0.000747 -0.013398 -45318.600000 0 0 1
-11.493527 -10.367535 22.792353 27.551376 0.733937 0.596570 0.004427 -0.011084 -356051.000000 0 0 1
-11.533327 -11.725735 22.420453 27.806244 0.793670 0.632909 0.016858 -0.006533 292395.000000 0 0 1
-12.754327 -12.363635 22.073753 28.333424 0.769845 0.677613 0.006606 -0.002663 112947.000000 0 0 1
-13.785627 -12.627035 23.179053 29.778415 0.741561 0.678708 0.007532 -0.002858 -489921.000000 0 0 1
-15.017027 -13.118635 22.729753 30.236590 0.718027 0.720115 0.004813 0.009999 -468846.000000 0 0 1
-15.942627 -12.989135 23.766553 31.428236 0.683666 0.713285 0.006112 0.011330 -229395.000000 0 0 1
-17.280427 -13.718235 23.502453 32.236135 0.670986 0.753832 0.019501 0.011608 -253840.000000 0 0 1
-17.139227 -15.162035 23.653853 32.911171 0.724263 0.768839 0.010091 0.012777 307475.000000 0 0 1
-18.323427 -15.879635 23.353653 33.664579 0.714070 0.804161 0.019195 0.013815 212805.000000 0 0 1
-19.322827 -16.050335 24.533613 35.112435 0.693147 0.797195 0.018478 0.008159 -252612.000000 0 0 1
-18.838027 -16.920835 25.513903 35.946421 0.731835 0.781616 0.015269 0.007517 108594.000000 0 0 1
-19.711427 -16.886635 26.645173 37.197635 0.708367 0.772291 0.016472 0.005904 -69115.500000 0 0 1
-19.305927 -17.659535 27.891963 38.243164 0.740889 0.753451 0.014844 0.004852 -365017.000000 0 0 1
-19.320227 -19.055635 27.755423 38.816902 0.778504 0.774123 0.017901 0.006888 183229.000000 0 0 1
-19.116627 -19.702335 29.007563 39.938279 0.800485 0.757858 0.011255 0.001776 -360058.000000 0 0 1
-18.858927 -21.202135 28.884203 40.490577 0.843823 0.776521 0.026950 0.006987 146182.000000 0 0 1
-20.030827 -21.911435 28.492623 41.148203 0.830206 0.805932 0.010957 0.008367 357831.000000 0 0 1
-19.749927 -23.272235 28.172293 41.537148 0.867088 0.825427 0.020546 0.009664 173497.000000 0 0 1
-20.946227 -23.998535 27.514943 42.092116 0.853206 0.858354 0.018306 0.009367 1288500.000000 0 0 1
-21.961327 -24.498935 28.453873 43.498513 0.839963 0.857759 0.001966 0.011812 651184.000000 0 0 1
-23.137427 -24.955435 27.864933 43.983733 0.823182 0.884692 -0.011989 0.013340 -160338.000000 0 0 1
-23.962427 -25.862315 28.825383 45.540751 0.823511 0.885428 -0.014972 0.010261 -243495.000000 0 0 1
-24.495027 -25.195085 29.935393 46.161959 0.799486 0.865202 -0.013292 0.011979 -34691.800000 0 0 1
-25.205157 -26.149185 30.677973 47.541749 0.803779 0.869400 -0.012654 0.006190 -372344.000000 0 0 1
-26.184817 -25.423225 31.613393 48.284486 0.770642 0.856968 0.014928 -0.008312 -770997.000000 0 0 1
-27.227147 -24.848135 30.931933 48.119973 0.739746 0.872637 0.003517 -0.008614 -792236.000000 0 0 1
-28.410717 -24.709935 31.655793 49.191859 0.715843 0.871712 0.011632 -0.016517 -785836.000000 0 0 1
-29.503287 -23.907935 30.998043 49.019506 0.681019 0.886199 0.016058 -0.020058 -1377670.000000 0 0 1
-30.093147 -24.579635 29.952523 49.060265 0.684892 0.914073 0.016455 -0.011140 629122.000000 0 0 1
-31.439937 -24.194635 29.660723 49.533913 0.655897 0.928799 0.006351 -0.012068 1256920.000000 0 0 1
-32.584837 -24.801135 30.551913 51.090971 0.650583 0.929805 0.005205 -0.015550 -15069.800000 0 0 1
-32.653517 -26.173645 30.362993 51.703222 0.675689 0.943133 0.015676 -0.016866 319750.000000 0 0 1
-33.732167 -26.741395 31.094913 53.102306 0.670309 0.945218 0.024714 -0.013515 283128.000000 0 0 1
-33.608607 -28.282105 31.179733 53.866424 0.699547 0.953498 0.033415 -0.015930 260148.000000 0 0 1
-32.802077 -28.644505 32.307423 54.224105 0.717840 0.932519 0.028594 -0.016721 139688.000000 0 0 1
-32.679687 -30.082595 32.502413 55.039362 0.744042 0.939080 0.032448 -0.019510 79484.900000 0 0 1
-31.521517 -30.444985 33.469451 55.142609 0.768027 0.918564 0.041223 -0.018828 -72115.700000 0 0 1
-31.838507 -30.275885 -34.288506 55.731691 0.760246 2.233490 0.036449 -0.021897 247118.000000 0 0 1
-30.840917 -30.787825 -33.380506 54.893629 0.784537 2.224454 0.022119 -0.016013 378900.000000 0 0 1
-31.328257 -30.572945 -31.957266 54.198077 0.773197 2.201407 0.019066 -0.017479 -63487.300000 0 0 1
-31.397397 -29.261245 -31.499276 53.237406 0.750197 2.203932 0.016821 -0.009310 -858040.000000 0 0 1
-30.174617 -28.662905 -31.262556 52.052061 0.759711 2.215050 0.019937 -0.006018 -772522.000000 0 0 1
-30.288917 -27.146915 -31.253046 51.294506 0.730748 2.225957 0.014041 -0.005031 78573.500000 0 0 1
-30.894997 -26.644645 -30.070846 50.682282 0.711664 2.205974 0.008680 -0.012039 31648.200000 0 0 1
-30.787637 -25.259685 -30.090606 49.913674 0.687086 2.217868 0.012725 -0.000536 532202.000000 0 0 1
-29.570497 -24.698735 -29.276026 48.389333 0.695868 2.220575 0.002365 -0.006132 63204.400000 0 0 1
-29.527777 -23.284135 -29.278406 47.657797 0.667720 2.232354 0.013189 -0.007032 385143.000000 0 0 1
-28.418287 -22.736735 -28.558416 46.261661 0.674786 2.236132 0.001956 0.000135 25997.900000 0 0 1
-28.426397 -21.192635 -28.544756 45.519127 0.640632 2.248613 0.020258 -0.009362 52884.400000 0 0 1
-27.870677 -20.674235 -29.759076 45.714344 0.638227 2.279670 0.018288 -0.006200 385726.000000 0 0 1
-27.671487 -19.240735 -29.625656 44.873117 0.607583 2.291894 0.021109 -0.011409 -167758.000000 0 0 1
-27.010297 -18.611935 -30.891316 45.058115 0.603351 2.326208 0.026624 -0.006600 114990.000000 0 0 1
-27.786707 -18.466235 -32.060116 46.270444 0.586550 2.336279 0.024894 -0.006519 40698.000000 0 0 1
-28.824297 -17.505035 -32.043746 46.519545 0.545771 2.330661 0.031189 -0.007968 -642371.000000 0 0 1
-29.378857 -17.177535 -33.474206 47.735809 0.529086 2.347930 0.034707 -0.011085 -187485.000000 0 0 1
-30.327867 -17.988035 -34.107867 49.058083 0.535345 2.339571 0.031630 -0.009210 -610119.000000 0 0 1
-31.586007 -17.786835 -33.560826 49.400166 0.512863 2.317696 0.037762 -0.015073 -1078920.000000 0 0 1
-32.748267 -18.181935 -34.511867 50.932315 0.506829 2.315294 0.033571 -0.012918 -52302.100000 0 0 1
-32.959107 -19.614535 -34.526301 51.605215 0.536822 2.303722 0.026554 -0.015837 327971.000000 0 0 1
-33.680107 -20.047835 33.407737 51.500895 0.536914 0.864944 0.027954 -0.019697 -41003.200000 0 0 1
-34.184856 -21.492835 33.634140 52.552847 0.561273 0.876290 0.023612 -0.018146 -71901.600000 0 0 1
-33.192287 -22.492635 33.590667 52.306591 0.595566 0.873447 0.031897 -0.025923 -220920.000000 0 0 1
-33.718997 -23.690835 34.099471 53.488320 0.612466 0.879531 0.034609 -0.028247 -1020600.000000 0 0 1
-32.618787 -24.736335 34.258405 53.380800 0.648821 0.873987 0.025525 -0.020492 -57784.100000 0 0 1
-31.513907 -24.509235 -33.976476 52.423562 0.661012 2.275902 0.015835 -0.023843 256206.000000 0 0 1
-30.687917 -23.425535 -34.287557 51.634683 0.651989 2.297007 0.017118 -0.028084 -1447600.000000 0 0 1
-29.453937 -23.215235 -33.367006 50.197994 0.667497 2.297899 0.012998 -0.022536 -324066.000000 0 0 1
-28.462767 -24.137135 -33.771656 50.331453 0.703346 2.306333 0.012664 -0.018131 75089.700000 0 0 1
-27.173647 -23.972035 -33.214056 49.155255 0.722882 2.312706 0.014652 -0.013920 254536.000000 0 0 1
-27.012867 -24.313435 -31.708056 48.231099 0.732853 2.288185 0.011202 -0.000475 -1092060.000000 0 0 1
-26.746757 -25.674275 -31.530526 48.669616 0.764942 2.275553 0.025833 -0.000002 -109939.000000 0 0 1
-26.172607 -25.866705 -30.264306 47.644727 0.779520 2.259074 0.007220 0.006683 -291890.000000 0 0 1
-25.777167 -27.335995 -29.969936 48.061586 0.814739 2.244102 0.013554 0.005221 -679115.000000 0 0 1
-26.823207 -28.224495 -30.065116 49.193676 0.810849 2.228319 -0.009864 0.008946 -531048.000000 0 0 1
-26.322867 -29.476505 -29.712146 49.442586 0.841856 2.215476 -0.014660 0.004873 -223253.000000 0 0 1
-27.225447 -30.707985 -30.026906 50.850963 0.845439 2.202460 -0.006709 0.011166 -83955.100000 0 0 1
-27.415317 -30.999215 -31.389136 51.940628 0.846674 2.219718 0.030068 -0.004900 360689.000000 0 0 1
-27.698707 -32.391135 -31.583456 53.046383 0.863330 2.208551 0.037636 0.007608 -355881.000000 0 0 1
-27.461067 -32.962875 -32.994576 54.123039 0.876201 2.226380 0.027110 -0.009772 -1268590.000000 0 0 1
-26.108427 -33.174925 -33.122246 53.659191 0.904037 2.236065 0.027068 -0.005494 -1120000.000000 0 0 1
-25.818087 -33.540185 -34.472367 54.588110 0.914765 2.254282 0.031142 -0.009279 35938.200000 0 0 1
-24.408227 -34.173188 -34.515496 54.358880 0.950570 2.258748 0.024255 -0.007120 94052.200000 0 0 1
-23.928127 -34.470005 33.297475 53.567326 0.963992 0.900012 0.021782 0.001065 -348240.000000 0 0 1
-22.973927 33.857537 33.339545 52.779346 -0.974614 0.887081 0.008732 0.007266 -467185.000000 0 0 1
-22.712227 33.136828 32.035743 51.382715 -0.969931 0.897619 0.009195 0.000134 63346.900000 0 0 1
-23.897427 32.498438 31.558233 51.216770 -0.936743 0.906926 0.017335 -0.017906 11549.000000 0 0 1
-23.814827 31.676748 30.419203 49.958886 -0.926139 0.916142 0.005714 -0.010935 296800.000000 0 0 1
-25.232217 31.160728 29.993093 50.072361 -0.890142 0.928551 0.014719 -0.015980 278831.000000 0 0 1
-25.750257 30.228068 30.925983 50.331186 -0.865220 0.909108 0.022535 -0.020247 44754.100000 0 0 1
-26.961577 29.677558 30.455193 50.350798 -0.833314 0.921206 0.022487 -0.022774 -44267.500000 0 0 1
-27.519857 28.503538 31.189083 50.423735 -0.802955 0.903913 0.041277 -0.033099 -167994.000000 0 0 1
-26.686367 27.369948 30.996313 49.214303 -0.798043 0.889471 0.036281 -0.028397 232766.000000 0 0 1
-27.137527 26.159368 31.569753 49.167135 -0.767047 0.873574 0.036548 -0.027856 205937.000000 0 0 1
-28.180517 25.349268 30.759013 48.814381 -0.732556 0.889086 0.037660 -0.026128 164735.000000 0 0 1
-27.642707 24.900028 29.540623 47.505569 -0.733246 0.899713 0.037220 -0.031130 582758.000000 0 0 1
-28.646027 24.319438 28.664743 47.262008 -0.703892 0.919136 0.023590 -0.016709 947217.000000 0 0 1
-27.914477 23.946538 27.319953 45.815222 -0.709036 0.931903 0.034198 -0.023166 93121.900000 0 0 1
-26.960517 22.925638 27.432743 44.777335 -0.704692 0.911390 0.036074 -0.023259 -232852.000000 0 0 1
-26.355017 22.597938 26.212213 43.500963 -0.708800 0.924084 0.027238 -0.009930 -883259.000000 0 0 1
-25.050327 21.873638 26.481793 42.511884 -0.717803 0.898318 0.035700 -0.015540 -916571.000000 0 0 1
-25.165647 20.577138 27.093643 42.317773 -0.685422 0.875982 0.052306 -0.028378 1009640.000000 0 0 1
-23.896727 19.971738 27.438603 41.506636 -0.696164 0.848558 0.054699 -0.021286 749908.000000 0 0 1
-24.020427 18.670638 28.206763 41.487288 -0.660734 0.823185 0.068127 -0.020856 -1347180.000000 0 0 1
-22.810727 18.155038 28.573353 40.821210 -0.672235 0.795450 0.063654 -0.013573 -971775.000000 0 0 1
-22.811527 17.044938 29.466633 40.977776 -0.641711 0.768307 0.066257 -0.008608 615775.000000 0 0 1
-21.413927 16.337138 29.681703 40.080691 -0.651719 0.736910 0.053779 -0.008830 736887.000000 0 0 1
-20.491927 16.897938 30.564233 40.492366 -0.689571 0.715425 0.072633 -0.006631 69050.400000 0 0 1
-19.238327 16.266438 30.371783 39.460809 -0.701889 0.692473 0.047462 -0.003225 -447784.000000 0 0 1
-18.062727 16.814538 31.127583 39.723006 -0.749625 0.670331 0.037331 -0.010921 -720609.000000 0 0 1
-18.142727 16.398138 32.490283 40.665415 -0.734933 0.645223 0.020715 -0.005024 94735.200000 0 0 1
-17.025227 16.853138 33.209066 40.947877 -0.780319 0.624923 0.007213 0.000397 -711100.000000 0 0 1
-17.038827 16.390538 -34.378356 41.723407 -0.766008 2.539158 -0.009161 -0.004158 -345036.000000 0 0 1
-17.974427 16.935638 -33.515446 41.631490 -0.755651 2.506557 0.021166 -0.004598 -166072.000000 0 0 1
-19.313727 16.536738 -33.737036 42.245371 -0.708092 2.495757 0.038560 -0.003558 -248575.000000 0 0 1
-20.322027 17.478738 -33.022746 42.532256 -0.710322 2.459756 0.048455 -0.021241 -234149.000000 0 0 1
-20.606427 17.074738 -31.703526 41.488373 -0.691946 2.440526 0.034638 -0.020773 365482.000000 0 0 1
-21.390027 18.120438 -31.116386 41.882132 -0.702834 2.408265 0.031801 -0.019726 -409154.000000 0 0 1
-21.772227 17.911638 -29.638676 40.906085 -0.688420 2.381184 0.024472 -0.018799 323421.000000 0 0 1
-22.476327 16.687938 -29.300456 40.523935 -0.638663 2.378990 0.019525 -0.019135 1176530.000000 0 0 1
-23.805927 16.586338 -29.853876 41.630310 -0.608529 2.370456 0.034552 -0.019720 1029250.000000 0 0 1
-24.805427 15.619938 -29.080596 41.291316 -0.561971 2.352203 0.026833 -0.013804 237976.000000 0 0 1
-24.508427 14.241238 -29.078586 40.608374 -0.526388 2.368957 -0.003767 -0.007045 -76220.700000 0 0 1
-25.405717 13.548438 -28.244516 40.333154 -0.489918 2.346586 -0.026340 0.002934 66795.200000 0 0 1
-24.969627 12.042238 -28.138606 39.500366 -0.449368 2.363656 -0.016762 0.001096 169786.000000 0 0 1
-23.806227 11.825838 -27.372016 38.155133 -0.461047 2.370841 -0.022210 -0.009506 -274850.000000 0 0 1
-23.135427 10.705338 -27.876846 37.775267 -0.433385 2.400847 -0.033918 0.001572 -220689.000000 0 0 1
-22.096027 10.110438 -26.915266 36.261369 -0.429130 2.407229 -0.014619 0.000695 -113356.000000 0 0 1
-22.599927 9.166738 -25.987506 35.638971 -0.385333 2.387931 -0.016758 0.003284 322159.000000 0 0 1
-21.541727 8.614138 -25.193136 34.248262 -0.380404 2.397353 0.006499 0.010740 238307.000000 0 0 1
-22.004927 7.447038 -24.237676 33.572908 -0.326327 2.377400 0.010756 0.011675 -50511.700000 0 0 1
-22.220527 6.247638 -24.863776 33.926275 -0.274089 2.393337 0.006893 -0.005540 71450.300000 0 0 1
-22.395127 5.279038 -23.907076 33.180691 -0.231497 2.375336 0.021640 0.000667 -266007.000000 0 0 1
33.755756 25.097165 -10.689176 43.400198 0.639324 1.819650 -0.018274 0.001483 -451120.000000 0 0 1
34.589469 24.487065 -9.779776 43.493582 0.616031 1.797591 -0.010403 -0.002665 -721765.000000 0 0 1
-34.649307 23.629565 -10.393176 43.208204 -0.598518 1.813715 -0.007606 0.000671 -588276.000000 0 0 1
-33.613167 23.096565 -9.404076 41.853709 -0.602035 1.797420 -0.014681 -0.004445 -694840.000000 0 0 1
-34.132167 22.264965 -8.440576 41.617025 -0.578002 1.775029 -0.007716 -0.009107 -114751.000000 0 0 1
-33.118507 21.953365 -7.503576 40.436238 -0.585372 1.757444 -0.013709 -0.010281 -123242.000000 0 0 1
-33.528877 20.969165 -6.385976 40.058359 -0.558891 1.730896 -0.021196 -0.004524 -284976.000000 0 0 1
-33.899967 19.689365 -6.830876 39.793714 -0.526188 1.743308 -0.013385 -0.005398 472428.000000 0 0 1
-34.378060 18.855765 -5.761076 39.630555 -0.501677 1.716683 -0.011694 -0.014508 -292056.000000 0 0 1
-35.006197 17.570765 -6.245476 39.663227 -0.465193 1.728917 -0.005342 -0.002084 -675974.000000 0 0 1
33.913366 17.813765 -6.844676 38.913959 0.483661 1.747609 0.005149 -0.008950 -480717.000000 0 0 1
33.392216 16.656965 -7.449076 38.052375 0.462709 1.767827 0.016152 0.000847 239121.000000 0 0 1
32.358016 17.113565 -8.521276 37.583606 0.486485 1.799514 0.007452 -0.008421 227420.000000 0 0 1
31.631786 16.083165 -9.176476 36.653046 0.470384 1.823849 0.022755 -0.001420 -127991.000000 0 0 1
31.216576 16.534465 -10.421476 36.830290 0.487100 1.857675 0.038584 -0.006758 -435953.000000 0 0 1
30.535426 15.380565 -11.289176 36.005826 0.466600 1.889712 0.035626 0.003987 769469.000000 0 0 1
29.294896 14.854565 -10.796976 34.574900 0.469288 1.888386 0.026149 0.011477 1013220.000000 0 0 1
29.452646 14.142365 -9.588476 34.050018 0.447661 1.856257 0.011066 0.005170 -492598.000000 0 0 1
28.223376 13.187165 -9.339176 32.522000 0.437100 1.862062 0.012829 0.015527 555891.000000 0 0 1
28.351106 12.062965 -10.112076 32.427679 0.402281 1.887920 0.010905 0.020818 345007.000000 0 0 1
27.235796 11.212365 -10.036976 31.116661 0.390532 1.899229 0.009111 0.020400 -569602.000000 0 0 1
27.467686 9.795065 -10.630376 31.039039 0.342545 1.920356 0.000899 0.021712 -546933.000000 0 0 1
28.496196 9.181365 -9.924976 31.541017 0.311694 1.890904 0.005002 0.027184 172768.000000 0 0 1
28.592196 7.774765 -10.249576 31.353061 0.265500 1.903827 -0.002810 0.023837 -356952.000000 0 0 1
29.485146 7.102165 -9.205476 31.694721 0.236370 1.865485 0.018645 0.013390 -615010.000000 0 0 1
30.818196 7.487465 -9.283476 33.045518 0.238338 1.855559 0.021803 0.015118 -598253.000000 0 0 1
31.690626 6.685465 -8.529476 33.492434 0.207912 1.828301 0.022602 0.006994 1128130.000000 0 0 1
33.219446 6.865665 -8.891776 35.067544 0.203807 1.827157 0.014995 0.007257 1094980.000000 0 0 1
33.584626 6.348965 -10.154776 35.656078 0.186839 1.859592 0.002505 0.007845 895802.000000 0 0 1
35.006508 6.318365 -10.341876 37.044996 0.178569 1.853727 0.007055 0.000781 80732.200000 0 0 1
-34.726837 5.630265 -11.662976 37.063164 -0.160731 1.890914 0.006441 0.002944 587506.000000 0 0 1
-33.340697 5.584665 -12.021776 35.879153 -0.165962 1.912468 0.017692 0.001664 1470410.000000 0 0 1
-32.614217 6.758565 -12.452876 35.558958 -0.204335 1.928585 0.005140 0.006204 346389.000000 0 0 1
-31.884587 7.660665 -11.374976 34.708828 -0.235793 1.904692 -0.000451 0.012970 -271407.000000 0 0 1
-32.743227 8.432865 -10.513376 35.408519 -0.252067 1.872258 0.011992 0.004399 387484.000000 0 0 1
-32.875197 9.702865 -11.115776 36.034492 -0.286994 1.884387 0.015496 0.002232 -100465.000000 0 0 1
-33.774767 10.650565 -10.304876 36.883057 -0.305471 1.853958 0.015117 0.003702 15702.700000 0 0 1
-33.135597 11.070465 -9.148076 36.113851 -0.322437 1.826899 0.001446 0.008171 -480729.000000 0 0 1
-33.883067 12.039465 -8.533576 36.957176 -0.341410 1.803803 0.014072 0.003461 -406308.000000 0 0 1
-33.048137 13.036765 -7.663576 36.343734 -0.375737 1.783255 0.013606 0.006237 -4360.190000 0 0 1
-32.291827 13.975665 -8.391876 36.173262 -0.408453 1.804920 -0.002483 -0.001682 -219222.000000 0 0 1
-31.686037 14.917865 -7.566176 35.830080 -0.440018 1.783566 -0.015861 0.001748 -169918.000000 0 0 1
-30.744667 15.937065 -8.239076 35.596446 -0.478234 1.804372 -0.022504 -0.000260 -283812.000000 0 0 1
-31.344117 16.868365 -9.079876 36.734718 -0.493713 1.820559 -0.019294 0.001256 -198808.000000 0 0 1
-30.761567 18.135765 -8.943576 36.812600 -0.532707 1.816201 -0.027736 0.004994 -103937.000000 0 0 1
-31.484347 19.102665 -9.877076 38.127844 -0.545357 1.832836 -0.039835 0.003842 120822.000000 0 0 1
-31.224137 18.920065 -11.243676 38.201254 -0.544778 1.869548 -0.048336 0.009273 -53361.800000 0 0 1
-32.229107 19.537765 -12.033776 39.563257 -0.544977 1.879859 -0.051292 0.002520 -223607.000000 0 0 1
-31.989577 19.504065 -13.558976 39.844540 -0.547522 1.918029 -0.052022 0.019462 -95453.700000 0 0 1
-31.122517 20.579465 -13.937176 39.829264 -0.584237 1.928285 -0.054151 0.012535 236174.000000 0 0 1
-31.059687 20.765265 -15.346576 40.390813 -0.589312 1.960541 -0.068059 0.017968 -724161.000000 0 0 1
-30.166407 21.954965 -15.754376 40.499789 -0.629138 1.970341 -0.043770 0.004259 84772.300000 0 0 1
-28.811857 21.857565 -15.330576 39.279801 -0.649002 1.971745 -0.040060 0.004953 300582.000000 0 0 1
-28.139017 23.073465 -15.321176 39.483256 -0.686806 1.969303 -0.030816 0.004323 -208270.000000 0 0 1
-27.483397 23.547665 -16.621576 39.825951 -0.708426 2.001330 -0.023197 -0.004870 -1350200.000000 0 0 1
-28.367447 24.270465 -17.394776 41.186718 -0.707721 2.006821 -0.028952 0.006365 -439989.000000 0 0 1
-27.837337 24.808765 -18.608676 41.673432 -0.727934 2.033686 -0.028316 0.004680 -1035300.000000 0 0 1
-27.116007 26.124365 -18.388876 41.903592 -0.766775 2.025101 -0.010001 0.001251 -103083.000000 0 0 1
-27.912017 27.129165 -17.816176 42.807574 -0.771176 2.000050 -0.007562 0.001330 335517.000000 0 0 1
-27.171127 28.373765 -17.846376 43.148972 -0.807046 1.997200 0.001017 0.000995 908891.000000 0 0 1
-27.995737 29.643065 -17.311876 44.296429 -0.813971 1.972317 -0.003622 0.005617 64905.200000 0 0 1
-28.288247 29.766165 -15.921076 44.042367 -0.810850 1.940667 -0.006691 0.001767 590820.000000 0 0 1
-27.206287 29.605865 -14.967476 42.903550 -0.827610 1.927154 -0.005158 0.005618 335587.000000 0 0 1
-27.485167 30.333765 -13.664476 43.154253 -0.834626 1.892984 -0.006540 0.001052 -266195.000000 0 0 1
-27.135197 31.713365 -13.816676 43.965406 -0.863038 1.890476 0.002087 0.005011 226887.000000 0 0 1
-27.459257 32.470765 -12.646176 44.365382 -0.868827 1.859851 0.000704 -0.004472 -198200.000000 0 0 1
-26.759537 33.818665 -12.518176 44.905229 -0.901404 1.853308 -0.008327 -0.004983 -432702.000000 0 0 1
-27.127417 -34.534709 -13.480576 45.937662 0.904952 1.868634 -0.015501 -0.014636 -404476.000000 0 0 1
-26.342977 -33.385909 -13.623976 44.656288 0.902771 1.880824 -0.005337 -0.011458 -473705.000000 0 0 1
-26.605457 -32.608309 -14.934376 44.656329 0.886429 1.911796 -0.016796 -0.009577 -9080.040000 0 0 1
-26.142117 -33.352609 -16.037876 45.310267 0.906005 1.932595 -0.021449 -0.007728 220475.000000 0 0 1
-26.631427 -32.710109 -17.242976 45.568677 0.887478 1.958858 -0.019730 0.005526 418633.000000 0 0 1
-25.690607 -33.119809 -18.426676 45.787241 0.911057 1.984978 -0.026677 0.012117 -342823.000000 0 0 1
-25.869187 -34.425209 -18.957876 47.050089 0.926361 1.985512 -0.024082 0.020446 -73376.400000 0 0 1
-25.410737 33.796065 -18.224076 46.043420 -0.926090 1.977737 -0.025311 0.012238 -746863.000000 0 0 1
-25.365837 32.513365 -19.073676 45.435115 -0.908267 2.004022 -0.021487 -0.002401 240692.000000 0 0 1
-26.624087 31.959365 -19.459976 45.923128 -0.876219 2.008379 -0.008299 0.008144 127398.000000 0 0 1
-27.197187 32.551265 -20.586476 47.149494 -0.874770 2.022636 -0.002953 0.012630 -770197.000000 0 0 1
-28.684717 32.237465 -20.660476 47.842684 -0.843648 2.017330 0.003137 0.004925 -529948.000000 0 0 1
-28.936477 30.890465 -20.950276 47.227689 -0.818047 2.030410 -0.004068 -0.004010 -308164.000000 0 0 1
-30.290167 30.576065 -21.122476 47.943184 -0.790095 2.027033 -0.000613 -0.004895 -364211.000000 0 0 1
-30.659777 29.087465 -21.309376 47.330667 -0.759088 2.037812 -0.002668 -0.004021 -693674.000000 0 0 1
-31.938857 28.854265 -21.826976 48.260502 -0.734702 2.040110 0.001331 -0.007687 -136807.000000 0 0 1
-32.037017 27.554865 -22.358576 47.807394 -0.710325 2.057461 0.005249 -0.008652 -21604.500000 0 0 1
-33.531097 27.129765 -22.429876 48.615408 -0.680261 2.050339 0.033104 -0.002754 78419.000000 0 0 1
-34.301333 27.884265 -23.309476 49.974447 -0.682570 2.056044 0.018142 -0.003329 -547602.000000 0 0 1
34.698337 27.118665 -23.604176 49.965525 0.663392 2.062819 0.035552 -0.003011 -19504.200000 0 0 1
33.773406 27.845765 -24.577176 50.200270 0.689495 2.082407 0.039248 -0.007328 -71243.600000 0 0 1
34.365579 27.857065 -25.864286 51.244223 0.681177 2.099861 0.038529 -0.007225 -574693.000000 0 0 1
33.453536 27.990565 -26.895296 51.244197 0.696722 2.123330 0.038681 -0.008355 -493224.000000 0 0 1
34.120565 28.323465 -28.253456 52.580314 0.692827 2.138075 0.031801 -0.012744 249596.000000 0 0 1
34.911917 27.258765 -28.748966 52.805163 0.662915 2.146511 0.028734 -0.003337 -172282.000000 0 0 1
-34.733287 27.624765 -30.013306 53.575436 -0.671893 2.165431 0.010567 0.000734 -908344.000000 0 0 1
-34.171414 26.403965 -30.749886 53.013304 -0.657866 2.189575 0.008567 0.001669 -400643.000000 0 0 1
-33.014517 25.796065 -30.338606 51.728390 -0.663268 2.197525 0.026641 -0.003850 -828912.000000 0 0 1
-31.808027 26.511765 -30.364156 51.347894 -0.694832 2.203518 0.006247 0.014198 150021.000000 0 0 1
-30.558567 25.801765 -29.734356 49.836623 -0.701198 2.210100 -0.003278 0.002180 414575.000000 0 0 1
-30.135777 24.520565 -30.175006 49.193029 -0.683021 2.231155 0.022756 -0.004194 620414.000000 0 0 1
-30.887207 23.535865 -29.406596 48.710413 -0.651133 2.218934 0.020139 -0.006128 253890.000000 0 0 1
-30.788297 22.155365 -29.970676 48.342743 -0.623762 2.239491 -0.000261 -0.007234 732642.000000 0 0 1
-29.491147 21.517465 -29.909476 47.194341 -0.630333 2.257190 0.010633 0.003961 1176140.000000 0 0 1
-29.606367 20.218465 -30.381716 46.993318 -0.599163 2.273799 0.004001 -0.003370 403556.000000 0 0 1
-28.187747 19.562765 -30.345666 45.805134 -0.606699 2.294941 0.020828 -0.011760 697737.000000 0 0 1
-27.279967 20.075965 -31.333956 46.141714 -0.634431 2.317306 0.042219 -0.022033 468646.000000 0 0 1
-26.145787 19.314965 -31.681866 45.391747 -0.636256 2.343349 0.045705 -0.024196 29585.100000 0 0 1
-26.384417 17.977765 -32.438046 45.514441 -0.598118 2.364133 0.047940 -0.015167 -440990.000000 0 0 1
-26.886597 16.985065 -31.549876 44.797056 -0.563424 2.352211 0.019518 -0.005983 261937.000000 0 0 1
-27.039197 15.743665 -32.242136 44.928126 -0.527268 2.371201 -0.001538 0.001162 -140159.000000 0 0 1
-27.455057 14.487965 -31.373536 44.135927 -0.485559 2.361487 -0.000391 0.005816 131513.000000 0 0 1
-28.817997 14.311565 -31.015086 44.690417 -0.460939 2.337824 -0.017520 0.003560 304299.000000 0 0 1
-29.236457 12.926865 -31.001146 44.530274 -0.416306 2.340861 -0.028741 0.012009 25833.400000 0 0 1
-28.734307 12.015265 -29.819186 43.118567 -0.396055 2.334446 -0.044924 0.003770 -283188.000000 0 0 1
-29.036397 12.492565 -28.522896 42.576192 -0.406299 2.304905 -0.047734 0.012873 296433.000000 0 0 1
-29.039827 11.383465 -27.557016 41.620715 -0.373586 2.294412 -0.040656 0.009465 -90372.700000 0 0 1
-29.114407 11.912165 -26.117546 40.886117 -0.388369 2.263718 -0.045018 0.010512 -462254.000000 0 0 1
-27.843247 12.400365 -25.827596 39.950972 -0.418991 2.273761 -0.039238 0.002523 -289009.000000 0 0 1
-27.908477 13.259365 -24.711076 39.564266 -0.443531 2.245391 -0.037301 0.003972 131459.000000 0 0 1
-26.531767 13.873065 -24.364576 38.600896 -0.481788 2.253885 -0.032065 0.007522 -498520.000000 0 0 1
-25.986167 14.828265 -25.230576 39.137454 -0.518537 2.271382 -0.026165 0.003391 474913.000000 0 0 1
-24.590527 15.023465 -24.976176 38.134078 -0.548429 2.284922 -0.008175 -0.003669 740084.000000 0 0 1
-24.177227 15.764965 -23.644176 37.311117 -0.577821 2.257127 -0.004598 0.004770 -997434.000000 0 0 1
-24.644927 17.096465 -23.556676 38.138937 -0.606493 2.236553 0.010885 0.006382 134914.000000 0 0 1
-24.690827 17.528465 -22.221376 37.558934 -0.617351 2.203888 0.009098 0.009699 158973.000000 0 0 1
-26.127887 17.520965 -21.635376 38.180364 -0.590710 2.173246 -0.010977 0.020812 -2367.450000 0 0 1
-26.499857 16.229465 -21.264076 37.653670 -0.549513 2.170900 -0.017392 0.024661 519428.000000 0 0 1
-27.765737 16.304965 -20.605976 38.228187 -0.530979 2.140076 -0.020856 0.033578 753522.000000 0 0 1
-28.762867 15.037965 -20.793076 38.546010 -0.481741 2.140563 -0.052453 0.023265 1069320.000000 0 0 1
-29.488737 14.886065 -22.024376 39.702061 -0.467484 2.158848 -0.051788 0.027748 951926.000000 0 0 1
-30.345717 15.962065 -22.440376 40.978293 -0.484236 2.150309 -0.064483 0.022822 -244356.000000 0 0 1
-30.650047 16.034265 -23.896376 42.042357 -0.481988 2.175342 -0.046935 0.026948 -170013.000000 0 0 1
-31.736917 15.216665 -24.291676 42.765223 -0.447083 2.174899 -0.032519 0.020631 133748.000000 0 0 1
-31.894587 15.280965 -25.706126 43.721590 -0.446795 2.199319 -0.005904 0.005461 -603078.000000 0 0 1
-33.130407 14.495265 -26.110376 44.603680 -0.412428 2.196153 -0.008621 0.006231 -667240.000000 0 0 1
-33.046687 13.051965 -26.152266 44.117778 -0.376150 2.205306 -0.002559 0.006577 185472.000000 0 0 1
-32.929357 12.441365 -24.867676 43.099088 -0.361241 2.185833 -0.015558 0.007335 -367205.000000 0 0 1
-32.918027 10.871565 -24.907776 42.687056 -0.318984 2.193825 -0.002330 0.002933 -1307360.000000 0 0 1
-34.137722 10.361965 -25.247316 43.705621 -0.294696 2.186665 0.017064 -0.001673 -957730.000000 0 0 1
-33.986727 9.283365 -26.146536 43.873908 -0.266642 2.209241 0.015253 -0.001246 292697.000000 0 0 1
34.771965 8.859165 -26.671826 44.709738 0.249471 2.209998 0.031423 0.002350 438816.000000 0 0 1
34.057316 7.949965 -25.841486 43.484309 0.229323 2.207156 0.012600 0.011989 307008.000000 0 0 1
32.965356 7.304565 -26.487556 42.914589 0.218060 2.235995 0.019198 0.009834 682168.000000 0 0 1
32.102426 6.366765 -25.517306 41.499811 0.195786 2.233027 0.014238 0.007806 903456.000000 0 0 1
32.963506 5.365165 -24.973776 41.702125 0.161346 2.212874 0.006435 0.002180 731229.000000 0 0 1
32.177586 4.446465 -24.204576 40.509623 0.137316 2.211178 0.008369 0.003717 225520.000000 0 0 1
33.043366 3.498465 -23.387976 40.633738 0.105482 2.184110 -0.008393 0.004374 -380416.000000 0 0 1
33.779456 2.529365 -24.053976 41.545675 0.074739 2.188269 -0.006514 0.001645 -75759.200000 0 0 1
34.432867 1.722865 -23.084776 41.490932 0.049994 2.160821 -0.003013 -0.003998 -122812.000000 0 0 1
-34.830894 0.648465 -23.754076 42.164770 -0.018615 2.169247 0.008100 -0.005839 62593.200000 0 0 1
34.579574 -0.477335 -24.184176 42.200108 -0.013803 2.181060 -0.003874 -0.013217 -7212.130000 0 0 1
-34.722299 -1.550735 -24.472076 42.507944 0.044631 2.184264 0.007134 -0.015446 76624.300000 0 0 1
-22.148327 29.647965 27.822483 46.299468 -0.929190 0.926139 -0.008453 -0.003666 -1180840.000000 0 0 1
-23.298027 30.157265 27.197193 46.818223 -0.913018 0.950950 -0.016167 -0.006996 436558.000000 0 0 1
-23.411427 29.724165 25.858493 45.828839 -0.903648 0.971283 -0.020062 0.001573 -633299.000000 0 0 1
-23.530327 28.175865 25.618223 44.764372 -0.875002 0.961500 -0.010347 -0.001925 -108603.000000 0 0 1
-24.834227 27.671365 25.913303 45.320443 -0.839381 0.962123 -0.007854 -0.006369 780287.000000 0 0 1
-25.215297 27.409965 27.293763 46.174309 -0.827078 0.938371 0.000806 -0.013459 -849114.000000 0 0 1
-24.702127 26.171265 27.937293 45.559000 -0.814268 0.910677 0.015873 -0.015672 -730794.000000 0 0 1
-23.371527 26.297865 28.347103 45.181459 -0.844246 0.892579 0.012247 -0.012115 -509076.000000 0 0 1
-23.258427 26.612265 29.752173 46.199122 -0.852548 0.871083 0.018484 -0.023260 889669.000000 0 0 1
-21.842427 26.264665 30.355343 45.698699 -0.877065 0.844307 0.035529 -0.016085 -380327.000000 0 0 1
-20.764227 26.965365 29.880393 45.289313 -0.914597 0.850288 0.025892 -0.011974 51957.900000 0 0 1
-19.526227 26.553665 30.496093 44.904146 -0.936738 0.824209 0.025106 -0.013660 1013580.000000 0 0 1
-18.894827 25.182865 29.967493 43.465409 -0.927100 0.810058 0.031389 -0.011420 -524208.000000 0 0 1
-18.312927 25.285465 28.686333 42.398393 -0.943982 0.827674 0.024891 -0.005068 28675.400000 0 0 1
-18.887527 24.405965 27.716553 41.480081 -0.912180 0.839024 0.032826 -0.007988 -474831.000000 0 0 1
-18.581327 22.892765 27.837093 40.549329 -0.888981 0.814132 0.030853 0.002781 -205246.000000 0 0 1
-19.268027 22.307265 28.906153 41.284823 -0.858370 0.795169 0.032628 -0.001799 2892.720000 0 0 1
-19.124427 20.908265 28.935363 40.498820 -0.829928 0.774924 0.044923 -0.002520 -211199.000000 0 0 1
-19.628327 20.331765 30.237333 41.387778 -0.803000 0.751617 0.052755 -0.007170 -208044.000000 0 0 1
-18.792327 20.671165 31.301823 41.955366 -0.832972 0.728649 0.044149 -0.016977 -173963.000000 0 0 1
-19.361427 20.347865 32.520913 42.971039 -0.810235 0.712377 0.047411 -0.007719 214881.000000 0 0 1
-18.401227 20.769465 33.729035 43.676351 -0.845784 0.688422 0.042304 -0.010224 147499.000000 0 0 1
-18.378627 22.176865 33.917536 44.497039 -0.878781 0.704026 0.027178 -0.020269 147680.000000 0 0 1
-17.610427 22.955965 33.004963 43.891127 -0.916416 0.719746 0.031734 -0.003770 4119.450000 0 0 1
-16.078127 22.968865 33.238518 43.484181 -0.960073 0.700714 0.016900 -0.002822 272836.000000 0 0 1
-15.464627 21.660565 33.198947 42.550027 -0.950767 0.675758 0.017982 -0.015773 -613792.000000 0 0 1
-14.103727 21.781365 33.491077 42.367384 -0.996171 0.659184 -0.012442 -0.012316 -1154530.000000 0 0 1
-13.368027 20.428465 33.331077 41.315699 -0.991347 0.632180 -0.020265 -0.002752 709236.000000 0 0 1
-12.012427 20.342865 33.827131 41.260215 -1.037393 0.609650 -0.023970 -0.006397 959571.000000 0 0 1
-11.916327 20.311465 -33.864696 41.247692 -1.040229 2.533971 -0.011339 0.000525 -1249160.000000 0 0 1
-10.518127 20.278065 -33.284256 40.369204 -1.092305 2.540108 -0.019305 0.002794 -783569.000000 0 0 1
-9.867027 21.508165 -33.416706 40.946741 -1.140684 2.525429 -0.012600 -0.005641 -70232.800000 0 0 1
-8.590627 21.349365 -32.809046 40.075276 -1.188237 2.529914 -0.019732 0.000211 -62573.300000 0 0 1
-7.661527 22.564465 -32.821456 40.559857 -1.243471 2.513603 -0.028545 0.000477 -287445.000000 0 0 1
-7.796327 23.638765 -31.860256 40.430803 -1.252219 2.478382 -0.022386 0.003048 300707.000000 0 0 1
-7.271527 23.321665 -30.531146 39.101484 -1.268556 2.466771 -0.019488 -0.005983 -105110.000000 0 0 1
-7.037827 24.539965 -29.658536 39.132718 -1.291502 2.430878 -0.013248 -0.008585 24815.200000 0 0 1
-5.966427 25.321765 -30.152976 39.824515 -1.339393 2.429730 -0.013491 0.001516 150463.000000 0 0 1
-5.937327 26.573565 -29.540886 40.175492 -1.350977 2.396900 -0.015568 0.006573 -268076.000000 0 0 1
-4.659827 27.365365 -29.876766 40.782329 -1.402132 2.392917 -0.019896 0.006322 -141753.000000 0 0 1
-3.530527 26.734165 -29.259576 39.790740 -1.439496 2.396959 -0.017413 0.006193 267014.000000 0 0 1
-2.272227 27.192865 -29.691086 40.325866 -1.487430 2.398351 -0.020494 0.009521 145651.000000 0 0 1
-1.786827 28.537465 -29.130326 40.818569 -1.508265 2.365497 -0.028049 0.014237 -623904.000000 0 0 1
-1.371227 28.466865 -27.745666 39.775176 -1.522664 2.342786 -0.019753 0.005420 290727.000000 0 0 1
-0.584427 29.598065 -27.448356 40.370772 -1.551053 2.318432 -0.020143 0.007583 -259237.000000 0 0 1
0.221673 29.500865 -26.094086 39.385930 1.563282 2.294978 -0.000491 -0.007489 369350.000000 0 0 1
1.120373 28.424365 -25.992646 38.533328 1.531401 2.311151 0.018134 -0.015398 -25491.700000 0 0 1
2.389973 28.526665 -26.600486 39.077723 1.487211 2.319524 0.020110 -0.016218 -43061.000000 0 0 1
3.554973 28.764865 -25.599546 38.670299 1.447832 2.294274 0.026074 -0.016313 -17491.300000 0 0 1
4.021073 27.594965 -24.969476 37.431615 1.426097 2.301064 0.032517 -0.018379 -175319.000000 0 0 1
5.117373 27.816865 -24.115676 37.168956 1.388864 2.276819 0.018025 -0.015076 -191375.000000 0 0 1
5.779173 26.493565 -23.710876 36.021014 1.356026 2.289290 0.018281 -0.019965 136328.000000 0 0 1
6.898973 26.677865 -22.854176 35.799688 1.317737 2.263202 0.007865 -0.018960 23112.600000 0 0 1
7.620473 25.440165 -22.660176 34.910703 1.279757 2.277183 0.004436 -0.009027 658820.000000 0 0 1
9.076973 25.759565 -22.236776 35.219608 1.232009 2.254121 -0.015552 0.004649 -525203.000000 0 0 1
9.142673 26.132065 -20.878576 34.675470 1.234243 2.216942 -0.010093 0.003364 104420.000000 0 0 1
10.421073 26.534165 -20.387976 35.047542 1.196563 2.191642 -0.004757 0.002355 18312.700000 0 0 1
11.303573 25.376965 -20.010976 34.237410 1.151752 2.195032 -0.017718 0.017020 -892054.000000 0 0 1
11.638173 24.533965 -21.067376 34.368544 1.127862 2.230628 -0.017149 0.009673 -289668.000000 0 0 1
11.587373 23.120865 -20.813976 33.197337 1.106217 2.248463 -0.020512 0.015954 -517081.000000 0 0 1
11.821873 22.230365 -22.016976 33.446869 1.082042 2.289311 -0.029714 0.013541 -210469.000000 0 0 1
10.949973 22.381865 -23.116276 33.988410 1.115798 2.318726 -0.030226 -0.001035 -7127.170000 0 0 1
11.230173 21.424865 -24.058576 34.116810 1.088004 2.353477 -0.037076 -0.002793 -238642.000000 0 0 1
10.302673 21.513265 -25.259876 34.742294 1.124172 2.384832 -0.006595 -0.005612 -254465.000000 0 0 1
8.961873 21.182565 -24.990176 33.963585 1.170555 2.397634 -0.006352 -0.006573 -114927.000000 0 0 1
8.225873 21.256565 -26.230556 34.749800 1.201564 2.426207 -0.013558 -0.005946 442063.000000 0 0 1
6.749373 20.791265 -26.077326 34.027308 1.256903 2.443959 0.001037 -0.012813 303152.000000 0 0 1
5.782573 21.596865 -25.438646 33.867203 1.309182 2.420567 0.023146 -0.016060 -3685.870000 0 0 1
5.877973 21.891365 -24.083376 33.072518 1.308477 2.386487 0.028855 -0.012613 -241369.000000 0 0 1
4.559173 22.421665 -23.452576 32.764927 1.370193 2.368541 0.045297 -0.016993 405144.000000 0 0 1
4.010573 23.629365 -23.966176 33.894087 1.402670 2.356171 0.038606 -0.023451 788884.000000 0 0 1
2.575573 23.538565 -23.867876 33.621022 1.461811 2.360166 0.047938 -0.025282 1193820.000000 0 0 1
1.852773 24.900465 -24.201376 34.773158 1.496526 2.340578 0.037441 -0.012228 -38610.500000 0 0 1
0.507673 24.807965 -24.576676 34.924287 1.550335 2.351406 0.035178 -0.026433 -345552.000000 0 0 1
0.290973 25.302065 -25.959106 36.251267 1.559297 2.368978 0.017784 -0.017047 -63324.100000 0 0 1
-1.196927 25.276965 -26.345716 36.530184 -1.523479 2.376335 0.022971 -0.009125 -283095.000000 0 0 1
-1.533127 23.992965 -26.674956 35.910529 -1.506984 2.408065 0.041156 -0.018153 -468781.000000 0 0 1
-2.728927 23.897365 -27.400486 36.459810 -1.457095 2.421168 0.034637 -0.009894 -81224.900000 0 0 1
-3.168527 22.442565 -27.847016 35.904938 -1.430540 2.458424 0.027527 -0.009348 299519.000000 0 0 1
-2.315627 21.854465 -28.875276 36.287206 -1.465233 2.491029 0.027670 -0.005214 496155.000000 0 0 1
-2.725727 20.528965 -29.246866 35.836394 -1.438794 2.525464 0.017459 -0.000359 -221909.000000 0 0 1
-3.989427 20.469665 -30.135006 36.647528 -1.378315 2.536225 0.015921 -0.000135 -149021.000000 0 0 1
-3.927927 20.902565 -31.528816 38.031724 -1.385047 2.548138 -0.000452 0.003751 -63444.600000 0 0 1
-3.688327 22.317165 -31.637466 38.892015 -1.407008 2.520889 0.009236 -0.001958 -270432.000000 0 0 1
-3.350927 22.844065 -33.043906 40.311037 -1.425148 2.531724 -0.005162 0.003573 391255.000000 0 0 1
-2.094427 22.415765 -33.561316 40.413056 -1.477631 2.550724 -0.012443 0.003599 548571.000000 0 0 1
-2.003127 22.630565 34.144741 41.012416 -1.482512 0.587108 -0.017569 0.015058 63561.500000 0 0 1
-0.828627 21.778465 33.602536 40.051449 -1.532767 0.575382 -0.016201 0.014327 12089.000000 0 0 1
-1.115627 20.392565 33.516187 39.248390 -1.516143 0.547265 -0.032600 0.020662 494179.000000 0 0 1
-0.013327 19.733865 32.914103 38.376604 -1.570121 0.540093 -0.022585 0.018981 -308534.000000 0 0 1
-0.370527 18.284765 32.592703 37.373175 -1.550535 0.511343 -0.028717 0.032260 -101732.000000 0 0 1
-1.130227 18.238165 31.400903 36.330769 -1.508905 0.527027 -0.037472 0.027700 314079.000000 0 0 1
-1.429027 16.867165 31.044363 35.359522 -1.486276 0.499205 -0.033702 0.026663 -315371.000000 0 0 1
-2.391527 16.628465 29.870293 34.270390 -1.427955 0.512326 -0.029717 0.029748 486580.000000 0 0 1
-3.770627 16.952665 30.048683 34.706394 -1.351938 0.524056 -0.040979 0.025696 634568.000000 0 0 1
-4.030027 18.257565 29.622743 35.029797 -1.353548 0.563025 -0.042547 0.028432 -1266870.000000 0 0 1
-5.490727 18.589765 29.690043 35.457384 -1.283599 0.578389 -0.039996 0.027749 -769274.000000 0 0 1
-6.338727 17.995265 28.707763 34.469474 -1.232124 0.586567 -0.044937 0.029948 -747441.000000 0 0 1
-7.660327 18.378365 28.920223 35.111596 -1.175881 0.602951 -0.047026 0.024738 -875770.000000 0 0 1
-8.578527 17.537365 27.984973 34.121972 -1.115861 0.609132 -0.040124 0.021370 -334595.000000 0 0 1
-8.913827 16.193765 28.327823 33.825432 -1.067609 0.578157 -0.030750 0.005942 175928.000000 0 0 1
-9.649827 15.968865 29.532993 34.933100 -1.027228 0.563453 -0.026477 0.007830 -459017.000000 0 0 1
-10.308127 14.619665 29.726083 34.693401 -0.956665 0.541721 -0.018856 0.009875 254330.000000 0 0 1
-9.447227 13.476865 29.940753 34.166133 -0.959402 0.502610 -0.017171 0.013283 635319.000000 0 0 1
-8.460327 13.460865 30.980213 34.821625 -1.009675 0.474146 -0.023764 0.018262 77008.700000 0 0 1
-8.878827 13.293265 32.472563 36.194085 -0.981927 0.457457 -0.001712 0.003815 -611691.000000 0 0 1
-9.301227 11.970465 32.794163 36.128409 -0.910229 0.433000 -0.002534 0.008729 136980.000000 0 0 1
-9.388327 11.691865 34.187226 37.331043 -0.894241 0.413337 -0.009349 0.011211 -285707.000000 0 0 1
-9.899627 10.291765 -34.513183 37.350808 -0.804817 2.749281 -0.004367 0.004580 -107424.000000 0 0 1
-8.940727 9.232565 34.423889 36.744809 -0.801455 0.357322 0.004177 -0.000557 396213.000000 0 0 1
-8.740827 8.420565 -33.486346 35.618020 -0.766739 2.793872 0.023611 -0.008525 299217.000000 0 0 1
-7.922527 9.097465 -32.320046 34.498053 -0.854322 2.784353 0.030691 -0.008195 14276.000000 0 0 1
-8.679327 10.164165 -31.784286 34.480165 -0.864034 2.743530 0.035414 -0.011020 84583.300000 0 0 1
-7.960627 10.975365 -30.865496 33.712150 -0.943280 2.727694 0.032101 -0.007025 29041.200000 0 0 1
-7.075427 12.078465 -31.543256 34.509824 -1.040892 2.723924 0.012622 -0.006882 21674.900000 0 0 1
-7.783227 13.177765 -32.043126 35.510478 -1.037293 2.696004 0.025475 -0.014201 300109.000000 0 0 1
-6.870427 14.166765 -32.567226 36.173529 -1.119247 2.691267 0.004101 -0.010709 291164.000000 0 0 1
-7.473227 15.535265 -32.965096 37.200687 -1.122424 2.659749 -0.002188 -0.004405 -77644.300000 0 0 1
-8.211027 15.509665 -34.186978 38.428116 -1.083896 2.667341 -0.001453 -0.006492 123742.000000 0 0 1
-8.422427 16.799965 34.466207 39.256789 -1.106080 0.499195 -0.001528 -0.005494 -1676920.000000 0 0 1
-9.122727 16.815865 33.124770 38.252423 -1.073724 0.523745 -0.013912 -0.006950 772161.000000 0 0 1
-10.415527 16.208165 33.135611 38.329577 -0.999634 0.526658 -0.019683 -0.000099 1406920.000000 0 0 1
-11.451127 16.564765 34.085010 39.589236 -0.965937 0.533629 -0.012751 -0.019205 -522500.000000 0 0 1
-12.854527 16.580165 33.439290 39.475649 -0.911302 0.560317 -0.007850 -0.015897 36612.300000 0 0 1
-13.462327 15.395565 32.927873 38.762127 -0.852290 0.555787 -0.022296 -0.008732 489379.000000 0 0 1
-13.695627 14.297765 33.816003 39.185690 -0.806905 0.529681 -0.001571 -0.002445 -509874.000000 0 0 1
-13.002927 12.975565 33.403043 38.120922 -0.784345 0.502795 -0.021267 0.008753 -119361.000000 0 0 1
-13.355427 12.344665 32.182003 36.965382 -0.746089 0.514379 -0.033615 0.004562 594169.000000 0 0 1
-12.284027 11.517465 31.679753 35.876957 -0.753203 0.488557 -0.026077 0.002140 274188.000000 0 0 1
-12.395727 11.114065 30.211863 34.495407 -0.730936 0.503658 -0.011546 0.006335 62672.200000 0 0 1
-13.357627 10.086965 30.030603 34.380375 -0.646787 0.508489 -0.024902 0.010524 225185.000000 0 0 1
-13.225827 9.536765 28.743643 33.046473 -0.624728 0.516010 -0.036743 0.009659 -408358.000000 0 0 1
-14.085327 8.338665 28.390633 32.771295 -0.534524 0.522997 -0.022685 0.014574 -261191.000000 0 0 1
-13.797727 7.165065 29.116653 33.007498 -0.478963 0.490447 -0.039016 0.015743 155097.000000 0 0 1
-14.622427 6.172565 28.554983 32.669603 -0.399437 0.507312 -0.025806 0.017217 75884.400000 0 0 1
-13.897527 4.818465 28.528013 32.096828 -0.333744 0.476052 -0.022715 0.016079 278507.000000 0 0 1
-13.078127 4.526865 27.380483 30.679321 -0.333232 0.467997 -0.021920 0.010170 80596.900000 0 0 1
-13.759827 4.436965 26.161973 29.890940 -0.311931 0.504849 -0.009020 0.006265 192496.000000 0 0 1
-12.783127 4.257765 24.925153 28.333728 -0.321520 0.495567 -0.003569 0.015555 336655.000000 0 0 1
-12.070327 3.029065 24.858833 27.799813 -0.245874 0.464136 -0.011581 0.012993 -128670.000000 0 0 1
-11.321327 3.106565 23.664953 26.416911 -0.267808 0.460510 -0.002582 0.008268 -478886.000000 0 0 1
-10.380527 1.913665 23.576353 25.831412 -0.182305 0.420951 -0.001059 -0.004253 514236.000000 0 0 1
-9.036427 2.169365 24.033253 25.767429 -0.235610 0.368971 0.013117 -0.010223 521134.000000 0 0 1
-8.353527 0.970565 24.234033 25.651740 -0.115668 0.334019 0.001763 -0.001852 -1420.260000 0 0 1
-6.827527 1.209965 24.182403 25.156863 -0.175398 0.279242 0.024629 -0.010260 -321509.000000 0 0 1
-6.295227 1.547865 22.859053 23.760515 -0.241096 0.276340 0.028173 -0.008821 -396258.000000 0 1 0
-4.924027 1.782665 22.767653 23.362148 -0.347355 0.226078 0.025886 -0.010327 -403073.000000 0 1 0
-4.427827 3.104065 23.462253 24.077337 -0.611421 0.226520 0.040007 -0.008505 -853784.000000 0 1 0
-4.290027 2.935265 24.881523 25.418700 -0.600048 0.205951 0.041522 -0.006938 -18931.800000 0 0 1
-4.157227 4.172365 25.487423 26.159126 -0.787216 0.227105 0.040886 -0.009011 -16482.600000 0 0 1
3.946773 -23.572135 13.237824 27.321467 -1.404901 1.064981 0.020881 -0.004562 220428.000000 0 0 1
3.779173 -24.801035 13.910624 28.685867 -1.419580 1.064514 0.027691 -0.009739 -186610.000000 0 0 1
2.512873 -25.370685 13.631724 28.910381 -1.472072 1.079787 0.010230 -0.001337 182088.000000 0 0 1
2.297973 -26.797075 14.262124 30.442932 -1.485251 1.083219 0.003078 0.005575 9485.350000 0 0 1
1.933773 -26.722645 15.629224 31.017929 -1.498558 1.042715 -0.004071 0.004501 -33778.700000 0 0 1
2.143273 -27.991235 16.179324 32.401750 -1.494376 1.047965 -0.014333 0.003965 -55843.100000 0 0 1
1.856073 -28.213965 17.728024 33.372978 -1.505105 1.010770 -0.030936 0.011388 187649.000000 0 0 1
2.682273 -27.486675 18.644524 33.321617 -1.473520 0.976975 -0.018761 0.009099 144694.000000 0 0 1
2.313873 -27.630985 19.977524 34.174944 -1.487249 0.946451 -0.018947 0.003187 177488.000000 0 0 1
3.077673 -26.583145 20.895024 33.951991 -1.455534 0.907867 -0.013437 0.007591 337790.000000 0 0 1
2.556473 -25.254735 20.957824 32.917588 -1.469913 0.880617 -0.016814 0.005002 -216849.000000 0 0 1
3.235573 -24.538835 21.948824 33.081328 -1.439697 0.845335 0.000415 -0.009559 26384.100000 0 0 1
2.501973 -23.307535 22.612824 32.570552 -1.463860 0.803388 0.000646 -0.013110 -227997.000000 0 0 1
2.044473 -22.385635 21.724924 31.261300 -1.479719 0.802451 -0.003883 -0.004572 -531346.000000 0 0 1
3.024373 -21.619435 21.078624 30.345596 -1.431807 0.802906 -0.002173 0.000841 -505504.000000 0 0 1
2.474773 -20.535435 20.115824 28.852643 -1.450862 0.799324 -0.007854 -0.006298 -255204.000000 0 0 1
1.859073 -19.467135 20.774824 28.531015 -1.475587 0.755179 -0.012200 -0.002848 -39755.900000 0 0 1
1.255273 -18.573135 19.841324 27.206896 -1.503314 0.753534 -0.018520 -0.005130 -53373.500000 0 0 1
0.957873 -17.199635 20.548024 26.813546 -1.515162 0.697687 -0.023374 0.000987 343287.000000 0 0 1
2.067873 -16.315735 20.689124 26.429513 -1.444727 0.671637 -0.033876 0.013713 475981.000000 0 0 1
1.544173 -15.063335 21.116024 25.984130 -1.468641 0.622110 -0.032412 0.011456 283645.000000 0 0 1
2.584873 -13.990135 20.803624 25.203099 -1.388093 0.599817 -0.034102 0.018521 -201638.000000 0 0 1
2.932373 -13.652235 19.443024 23.937701 -1.359220 0.622824 -0.033819 0.012993 -189054.000000 0 1 0
1.893073 -13.087035 18.675124 22.882624 -1.427140 0.616120 -0.025881 0.009281 -26131.800000 0 1 0
1.229573 -11.758435 19.124924 22.484114 -1.466606 0.553676 -0.026729 -0.000282 -270994.000000 0 1 0
2.032773 -10.590435 19.051124 21.891432 -1.381159 0.515077 -0.023374 0.006512 -311493.000000 0 1 0
1.713773 -9.577935 19.983124 22.226091 -1.393741 0.453124 -0.021200 -0.003980 -215486.000000 0 1 0
0.299973 -8.947335 19.957224 21.873170 -1.537282 0.421670 -0.007833 -0.011932 172507.000000 0 1 0
0.115273 -8.133035 21.071024 22.586447 -1.556624 0.368398 0.002687 -0.017676 -715118.000000 0 1 0
-1.215927 -7.721235 21.072824 22.475762 1.414601 0.355191 0.012394 -0.019974 -546421.000000 0 1 0
-1.703327 -7.195735 22.383624 23.573429 1.338361 0.319070 0.023303 -0.016891 -296408.000000 0 1 0
-1.660527 -8.190535 23.433824 24.879436 1.370770 0.342568 0.015377 -0.006766 -3832.980000 0 1 0
-2.040227 -7.652135 24.684324 25.923610 1.310236 0.310455 0.020844 0.007369 -65895.100000 0 0 1
-1.929727 -8.666835 25.834124 27.317391 1.351714 0.331047 0.019521 0.005538 4177.210000 0 0 1
-0.623227 -9.141535 26.047524 27.612127 1.502726 0.338251 0.011363 0.001469 -283687.000000 0 0 1
-0.645727 -10.251835 26.988224 28.877003 1.507893 0.363685 0.019187 -0.007705 -7659.700000 0 0 1
0.656573 -11.059335 27.164324 29.336675 -1.511498 0.387250 0.013059 -0.005974 241071.000000 0 0 1
1.685573 -10.448835 27.939724 29.877207 -1.410857 0.362109 -0.001632 -0.002541 -164151.000000 0 0 1
2.562773 -11.448135 28.352324 30.683577 -1.350568 0.392325 -0.012613 -0.006244 -373826.000000 0 0 1
3.512873 -10.996535 29.494424 31.673098 -1.261590 0.373067 -0.007481 -0.001864 146984.000000 0 0 1
2.885073 -10.890935 30.789024 32.785669 -1.311839 0.350794 -0.014399 0.001304 507928.000000 0 0 1
3.760973 -10.235035 31.691224 33.514691 -1.218652 0.331387 -0.021907 0.007633 214175.000000 0 0 1
3.156873 -10.293135 33.120224 34.826193 -1.273207 0.314294 -0.020334 0.008070 24960.200000 0 0 1
3.528073 -11.429735 33.826724 35.879429 -1.271400 0.339898 -0.019082 0.004916 179398.000000 0 0 1
2.912673 -11.458435 -33.989605 35.987118 -1.321874 2.806846 -0.015594 0.003034 -222507.000000 0 0 1
3.358273 -10.440035 -32.898105 34.677913 -1.259577 2.819819 -0.025379 0.009184 -229309.000000 0 0 1
2.811573 -9.153235 -33.023505 34.383696 -1.272777 2.859377 -0.016763 0.002057 -7966.480000 0 0 1
3.424973 -8.246135 -32.122405 33.340337 -1.177134 2.870466 -0.013341 0.001145 -179628.000000 0 0 1
2.742073 -6.877535 -31.825705 32.675602 -1.191411 2.913016 -0.026650 -0.002995 -186620.000000 0 0 1
3.010973 -5.926335 -32.836505 33.502589 -1.100716 2.941854 0.005396 -0.005208 95561.300000 0 0 1
3.071173 -4.662235 -32.232605 32.712526 -0.988306 2.970088 -0.003018 -0.002155 -61364.200000 0 0 1
3.307173 -3.480435 -33.173905 33.519529 -0.810919 2.997865 0.002120 0.008106 190449.000000 0 0 1
2.218673 -3.447835 -34.102205 34.347787 -0.999006 3.021940 -0.003836 0.010198 249460.000000 0 0 1
2.433373 -2.498035 33.996724 34.175118 -0.798510 0.102221 0.008722 0.011041 20324.100000 0 0 1
1.875773 -2.967835 32.591624 32.780185 -1.007155 0.107311 0.002955 0.006762 587227.000000 0 0 1
0.457573 -2.982535 32.578824 32.718262 -1.418566 0.092356 0.000813 0.006084 -201304.000000 0 0 1
0.110273 -3.513835 31.317624 31.514326 -1.539424 0.111787 0.002202 0.010910 54669.200000 0 0 1
-1.395127 -3.612435 31.020024 31.260805 1.202242 0.124195 0.005001 0.008442 482464.000000 0 0 1
-2.142927 -2.397635 30.743824 30.911543 0.841436 0.104218 0.007855 0.006722 219242.000000 0 0 1
-3.531127 -2.643335 30.708324 31.023495 0.642592 0.142663 -0.003601 0.006178 254825.000000 0 0 1
-4.346827 -1.618735 29.884824 30.242650 0.356485 0.153982 0.011093 0.004761 -179153.000000 0 0 1
-4.140427 -1.796735 28.496324 28.851549 0.409426 0.157083 0.014430 0.006901 -84010.500000 0 0 1
-4.993427 -1.065735 27.620924 28.088886 0.210273 0.182792 0.008801 0.004279 143488.000000 0 0 1
-5.127327 0.494165 27.736724 28.210982 -0.096082 0.183622 0.019412 0.003255 -21449.600000 0 0 1
-6.159027 0.863165 28.623624 29.291475 -0.139239 0.213950 0.009413 0.009468 -269460.000000 0 0 1
-6.632427 2.202365 28.642224 29.482478 -0.320604 0.239318 0.012858 0.004886 -324582.000000 0 0 1
-7.915827 2.377865 29.445924 30.583933 -0.291818 0.273651 -0.000997 0.001397 383297.000000 0 0 1
-9.085527 1.935765 28.745124 30.208875 -0.209921 0.312572 -0.012469 0.016472 402823.000000 0 0 1
-10.304127 2.509865 29.181224 31.048644 -0.238926 0.348591 -0.029988 0.017292 812804.000000 0 0 1
-11.526727 1.804765 28.455924 30.754873 -0.155311 0.389104 -0.026732 0.018322 583726.000000 0 0 1
-11.542427 0.443765 28.764724 30.997321 -0.038427 0.381856 -0.017476 0.018065 -55058.800000 0 0 1
-11.811927 -0.306135 27.648224 30.067252 0.025912 0.403872 -0.007121 0.019719 -1205860.000000 0 0 1
-11.811027 -1.845535 27.952324 30.401295 0.155002 0.404129 -0.002716 0.016716 270973.000000 0 0 1
-10.534727 -2.375735 28.292424 30.283425 0.221804 0.364634 -0.014210 0.014801 766801.000000 0 0 1
-9.418427 -2.132435 27.440724 29.090331 0.222657 0.338380 -0.013108 0.016033 -432215.000000 0 0 1
-9.438627 -2.989835 26.152624 27.964022 0.306767 0.361905 -0.021492 0.014214 -681033.000000 0 0 1
-10.398527 -2.493235 25.254824 27.425384 0.235326 0.400527 -0.018730 0.014606 20695.900000 0 0 1
-10.542427 -3.291735 24.085924 26.497359 0.302645 0.429934 -0.013871 0.012447 43070.200000 0 0 1
-9.653127 -2.688435 22.928624 25.022636 0.271621 0.412016 0.005039 0.008397 -940647.000000 0 0 1
-8.327127 -2.855535 23.155824 24.772713 0.330353 0.363295 0.016423 0.003324 -2000670.000000 0 1 0
-7.501427 -2.532535 22.070924 23.448045 0.325592 0.344427 0.017101 -0.000286 444884.000000 0 1 0
-5.987827 -2.432335 22.489124 23.399381 0.385851 0.279842 0.032408 -0.004246 780518.000000 0 1 0
-5.344427 -3.696735 22.530924 23.449334 0.605133 0.280799 0.030750 -0.007099 -109140.000000 0 1 0
-5.730527 -4.571935 23.596724 24.709247 0.673411 0.301219 0.022383 -0.000244 -468006.000000 0 1 0
-5.565227 -6.074735 23.280924 24.695659 0.829143 0.340124 0.026059 -0.003851 -233625.000000 0 1 0
-6.412327 -6.604935 22.257924 24.086475 0.800193 0.392165 0.031616 -0.011462 -9514.390000 0 1 0
-5.992127 -6.272935 20.915124 22.642829 0.808289 0.393175 0.033920 -0.014875 -142308.000000 0 1 0
-7.126827 -6.284635 19.870124 22.025216 0.722684 0.446061 0.033980 -0.015673 60616.900000 0 1 0
-8.203927 -5.418335 20.170124 22.438732 0.583691 0.453549 0.038845 -0.010894 -247549.000000 0 1 0
-9.024627 -5.237735 19.055624 21.725436 0.525870 0.500982 0.028681 -0.013783 -92831.700000 0 1 0
-9.751127 -3.897735 19.116324 21.810792 0.380266 0.502333 0.018102 -0.013316 148015.000000 0 1 0
-8.829527 -2.837135 18.925624 21.075795 0.310903 0.455641 0.016850 -0.008610 -86840.800000 0 1 0
-9.467427 -1.619335 18.938424 21.234837 0.169404 0.469364 0.010691 -0.008968 -321.940000 0 1 0
-8.494827 -0.513435 18.440424 20.309479 0.060368 0.432379 0.015568 -0.003203 1606480.000000 0 1 0
-7.351927 -0.165535 19.295824 20.649626 0.022512 0.364115 0.019026 0.005982 1566170.000000 0 1 0
-7.798927 0.700865 20.363624 21.817233 -0.089626 0.367097 0.035213 0.004606 25469.400000 0 1 0
-7.596927 2.188465 20.147324 21.642951 -0.280478 0.373940 0.026952 -0.003648 -309646.000000 0 1 0
-8.440727 2.666665 19.145224 21.092571 -0.306005 0.433083 0.009291 -0.010445 -148587.000000 0 1 0
-8.313727 4.056565 18.934224 21.073173 -0.453950 0.454458 0.010931 -0.010074 325.332000 0 1 0
-9.093427 4.612065 17.695524 20.422858 -0.469380 0.522735 0.010681 -0.008118 -419395.000000 0 1 0
-10.460827 4.594465 18.040024 21.353699 -0.413842 0.564568 0.003869 0.001269 -540422.000000 0 1 0
-11.330727 5.096865 17.097324 21.134850 -0.422710 0.628409 0.004795 0.013772 -391345.000000 0 1 0
-11.407227 6.668665 16.996524 21.528533 -0.529019 0.660822 0.002935 0.017578 -466155.000000 0 1 0
-10.254527 7.315565 16.512824 20.768875 -0.619662 0.651664 0.008333 0.003436 154884.000000 0 1 0
-10.590527 8.673965 16.625124 21.535823 -0.686238 0.688853 0.008269 0.002908 35158.200000 0 1 0
-9.389127 9.633965 16.695724 21.440993 -0.798268 0.678233 0.011064 0.001012 -160308.000000 0 1 0
-8.791227 9.714165 17.975224 22.243186 -0.835231 0.629838 0.024672 0.008775 -54229.300000 0 1 0
-7.982927 10.824565 18.317024 22.724693 -0.935355 0.633365 0.035704 0.003896 22917.500000 0 1 0
-8.459527 12.257765 17.981024 23.348096 -0.966721 0.691754 0.027457 0.007420 -144405.000000 0 1 0
-8.269027 12.588965 16.604224 22.417830 -0.989623 0.736729 0.018294 -0.006724 -112321.000000 0 1 0
-8.844927 13.846565 16.260024 23.115978 -1.002348 0.790612 0.020965 -0.012582 -67233.300000 0 1 0
-8.661627 14.314965 14.785324 22.328184 -1.026654 0.847069 0.019217 -0.010634 -355086.000000 0 1 0
-7.446327 14.966565 14.662824 22.236102 -1.109126 0.850756 0.026376 -0.004071 -839027.000000 0 1 0
-7.140127 15.331865 13.320524 21.528675 -1.134959 0.903666 0.015341 -0.017863 245298.000000 0 1 0
-6.050727 16.440665 13.258524 21.970326 -1.218147 0.922945 -0.008731 -0.013519 1075250.000000 0 1 0
-4.768927 16.073265 13.775424 21.699189 -1.282370 0.883000 -0.005063 -0.018619 189717.000000 0 1 0
-3.834527 17.128665 13.722724 22.280213 -1.350561 0.907249 -0.006204 -0.017969 515948.000000 0 1 0
-2.345027 16.697665 13.800224 21.788927 -1.431268 0.884910 0.006296 -0.028282 305534.000000 0 1 0
-1.770027 16.273465 15.037624 22.228108 -1.462455 0.827778 0.006189 -0.018523 -68804.900000 0 1 0
-2.173527 14.979765 15.432124 21.616383 -1.426704 0.775732 0.022182 -0.016676 -228656.000000 0 1 0
-1.123527 14.430865 16.449124 21.910861 -1.493097 0.721631 0.018235 -0.005150 -692416.000000 0 1 0
0.025973 14.009165 15.796524 21.113681 1.568942 0.725504 -0.002708 -0.021490 -986988.000000 0 1 0
1.030773 13.646865 16.723324 21.609465 1.495408 0.685838 0.002688 0.001639 323014.000000 0 1 0
2.000273 14.733665 17.236624 22.763637 1.435859 0.711781 -0.000223 -0.005201 -481803.000000 0 1 0
1.280273 15.697365 17.954824 23.883510 1.489417 0.720059 -0.007876 -0.005912 -160768.000000 0 1 0
2.092573 16.744465 18.487524 25.030871 1.446470 0.739821 -0.001726 -0.003241 -685593.000000 0 0 1
1.214073 17.823365 19.048024 26.114623 1.502784 0.753351 0.000750 0.001282 -29991.900000 0 0 1
0.594773 18.696365 18.103524 26.031623 1.538995 0.801759 -0.010331 0.003413 -417641.000000 0 0 1
-0.533327 18.181665 17.473324 25.222498 -1.541472 0.805477 -0.000949 0.000705 -1063660.000000 0 0 1
-1.267727 19.166565 16.546824 25.352746 -1.504750 0.859701 -0.008892 0.002463 -99978.400000 0 0 1
-1.802527 20.272365 17.283124 26.700641 -1.482114 0.866769 -0.009090 0.011761 -12860.000000 0 0 1
-2.301127 21.291865 16.469324 27.016242 -1.463139 0.915230 -0.004169 0.006220 -210037.000000 0 0 1
-2.986927 22.536665 17.188324 28.500201 -1.439028 0.923421 -0.004068 0.019991 -153462.000000 0 0 1
-4.119027 22.159165 17.949524 28.812851 -1.387010 0.898263 -0.002539 0.016903 118056.000000 0 0 1
-4.646727 23.300865 18.609024 30.179764 -1.373956 0.906372 -0.001980 0.027264 124792.000000 0 0 1
-5.561627 23.027765 19.847624 30.905304 -1.333816 0.873421 -0.020589 0.030560 1148890.000000 0 0 1
-6.857427 22.554665 19.425324 30.546365 -1.275641 0.881584 -0.020492 0.032155 518786.000000 0 0 1
-7.722727 22.209865 20.467624 31.174384 -1.236158 0.854557 -0.036802 0.022292 1297430.000000 0 0 1
-9.258827 22.454165 20.120824 31.539863 -1.179695 0.878964 -0.026719 0.021955 1211340.000000 0 0 1
-9.496527 23.868065 20.102024 32.618398 -1.192122 0.906788 -0.022856 0.020375 -183518.000000 0 0 1
-10.530627 24.199065 19.225524 32.651334 -1.160346 0.941207 -0.013899 0.014437 -223527.000000 0 0 1
-11.030027 25.673465 19.184024 33.894174 -1.165013 0.969153 -0.006040 0.006103 55039.600000 0 0 1
-11.688427 26.009565 20.397624 35.059661 -1.148450 0.949859 -0.008804 0.013178 307449.000000 0 0 1
-12.382427 27.241665 20.437624 36.237125 -1.144173 0.971578 -0.009784 0.011155 -124923.000000 0 0 1
-13.251727 27.443865 21.742624 37.436822 -1.120949 0.951108 0.009370 -0.004735 -91899.200000 0 0 1
-14.527727 26.846165 21.705524 37.455322 -1.074775 0.952676 0.007828 -0.008976 99890.800000 0 0 1
-15.190227 26.980865 22.956724 38.545054 -1.058027 0.932807 0.001005 -0.008989 -118958.000000 0 0 1
-16.684027 26.642765 22.872024 38.875740 -1.011326 0.941796 0.015391 -0.004738 -291360.000000 0 0 1
-16.870127 25.255065 22.865524 38.016466 -0.981878 0.925464 0.018537 -0.005024 149395.000000 0 0 1
-18.236227 24.948465 23.088224 38.575276 -0.939595 0.929139 0.020578 -0.000066 153596.000000 0 0 1
26.429073 25.018265 23.634953 43.393784 0.757983 0.994810 0.044314 -0.022273 55659.100000 0 0 1
26.015373 24.397965 24.841733 43.464606 0.753326 0.962416 0.044174 -0.024031 189284.000000 0 0 1
26.215873 22.991265 24.758143 42.764891 0.719960 0.953373 0.040642 -0.019750 -228868.000000 0 0 1
26.124473 22.168965 26.075753 43.056892 0.703675 0.920262 0.060850 -0.022452 -1126110.000000 0 0 1
24.857373 22.201265 26.607263 42.646589 0.729015 0.897071 0.053700 -0.015763 -820632.000000 0 0 1
24.738873 21.414865 27.739473 42.896231 0.713502 0.867593 0.061506 -0.014131 -415114.000000 0 0 1
23.353273 21.405865 28.377843 42.531028 0.741917 0.840317 0.051752 -0.018256 -449902.000000 0 0 1
23.009173 22.658665 28.951583 43.370857 0.777723 0.839903 0.049874 -0.025704 268499.000000 0 0 1
21.677973 22.676665 29.436083 43.019166 0.807910 0.817215 0.064207 -0.027402 -139761.000000 0 0 1
21.300573 24.061765 30.070813 44.010643 0.846193 0.818575 0.058974 -0.033732 -345319.000000 0 0 1
21.003373 25.141865 29.149803 43.851637 0.874843 0.843655 0.062128 -0.030716 -20491.400000 0 0 1
20.747573 26.366665 29.813763 44.883441 0.904103 0.844308 0.053793 -0.023509 -158700.000000 0 0 1
19.369873 26.549465 30.508533 44.842353 0.940495 0.822555 0.074284 -0.023600 -1236710.000000 0 0 1
18.400673 26.756965 29.501723 43.873358 0.968376 0.833311 0.066627 -0.032252 643320.000000 0 0 1
17.168973 27.233965 30.100563 44.073874 1.008305 0.818993 0.055940 -0.027646 788584.000000 0 0 1
16.235673 26.244165 30.784493 43.589428 1.016784 0.786627 0.043228 -0.014828 -881614.000000 0 0 1
16.662073 25.848865 32.055833 44.422572 0.998229 0.764669 0.036634 -0.017453 836186.000000 0 0 1
15.589973 25.077865 32.649753 44.022187 1.014600 0.735246 0.026013 -0.015673 1005140.000000 0 0 1
16.025573 24.558265 34.084341 44.962981 0.992628 0.710473 0.037267 -0.013618 -15180.600000 0 0 1
16.271673 25.669865 -34.155324 45.719749 1.005835 2.414422 0.039814 -0.015195 126446.000000 0 0 1
16.750473 25.157765 -32.947716 44.710664 0.983382 2.399284 0.010281 0.007325 -173667.000000 0 0 1
16.995373 26.306165 -31.907476 44.709552 0.997196 2.365507 0.006272 0.021519 -328733.000000 0 0 1
15.855273 26.869665 -31.317956 44.206141 1.037702 2.358100 0.021264 -0.004191 77889.200000 0 0 1
16.226773 28.100765 -30.637816 44.627759 1.047123 2.327487 0.028312 -0.011869 -207521.000000 0 0 1
15.608673 28.392965 -29.269046 43.663121 1.068155 2.305460 0.040967 -0.015217 -715700.000000 0 0 1
16.131173 27.624265 -28.192326 42.639442 1.042262 2.293186 0.019777 0.003665 221987.000000 0 0 1
15.873573 28.250565 -26.936496 42.138338 1.058874 2.264305 0.010514 0.008358 58867.500000 0 0 1
16.576273 27.408265 -25.795546 41.126585 1.026861 2.248779 0.004329 0.005467 504954.000000 0 0 1
17.976573 27.393065 -26.001336 41.828300 0.990043 2.241606 0.019251 0.005219 -626361.000000 0 0 1
18.678673 27.131065 -24.851676 41.262493 0.967857 2.217154 0.018038 0.011041 -264604.000000 0 0 1
20.205173 27.060665 -25.053476 42.050033 0.929435 2.209060 0.017443 0.011726 -158438.000000 0 0 1
20.801273 26.942565 -23.790076 41.527852 0.913326 2.180800 0.014646 0.015665 -698354.000000 0 0 1
22.150173 26.632165 -24.033876 42.160759 0.877018 2.177367 0.019301 0.019861 -218867.000000 0 0 1
22.998873 26.508565 -22.751976 41.824689 0.856172 2.145975 0.033648 0.014699 -134180.000000 0 0 1
22.603273 25.380965 -21.970076 40.469563 0.843221 2.144658 0.030790 0.011358 7378.270000 0 0 1
23.074373 25.450465 -20.667376 40.091062 0.834326 2.112400 0.020492 0.011116 -99555.800000 0 0 1
22.439173 24.386665 -19.696276 38.550865 0.826964 2.107047 0.011043 0.010074 -329742.000000 0 0 1
22.878973 23.079865 -19.992876 38.155506 0.789769 2.122318 0.013592 0.012345 111083.000000 0 0 1
22.646873 22.207265 -18.934176 36.939768 0.775598 2.108970 0.016277 0.010311 -439972.000000 0 0 1
22.875573 20.685665 -19.263976 36.363297 0.735168 2.129119 0.026406 -0.000111 187944.000000 0 0 1
22.105873 20.204265 -20.344676 36.204803 0.740484 2.167517 0.019144 -0.006428 515764.000000 0 0 1
20.730973 19.946165 -20.047176 35.064398 0.766107 2.179403 0.007498 0.001382 695001.000000 0 0 1
19.841173 19.612865 -21.310876 35.106838 0.779612 2.223113 0.012520 0.009794 357271.000000 0 0 1
19.822473 20.592165 -22.349876 36.283394 0.804441 2.234427 0.014295 0.006922 31448.900000 0 0 1
19.705573 21.976665 -22.007876 36.818881 0.839830 2.211467 0.014908 0.011288 -215767.000000 0 0 1
19.306673 22.959765 -23.117476 37.872366 0.871614 2.227368 0.021364 0.010271 -559218.000000 0 0 1
17.972773 22.781565 -23.436676 37.300108 0.902850 2.250198 0.014828 0.004724 -1011840.000000 0 0 1
17.581873 23.406765 -24.668876 38.282533 0.926563 2.271021 0.012900 0.003623 -143122.000000 0 0 1
16.084873 23.448165 -25.016076 37.872729 0.969545 2.292321 0.004642 0.006977 -674471.000000 0 0 1
15.443173 24.327065 -24.209876 37.635300 1.005171 2.269565 -0.006262 0.004029 -1055190.000000 0 0 1
14.087573 24.256565 -24.535776 37.267210 1.044634 2.289453 -0.010834 0.007305 -254397.000000 0 0 1
13.192473 25.417765 -23.981676 37.352709 1.092044 2.267944 -0.016336 0.013384 312954.000000 0 0 1
13.507973 26.693765 -24.515776 38.678750 1.102333 2.257292 -0.020412 0.011986 281400.000000 0 0 1
12.532373 27.627765 -24.052876 38.715560 1.144940 2.241161 -0.015914 0.016825 378331.000000 0 0 1
12.716373 29.031665 -24.680076 40.170261 1.157952 2.232405 -0.008192 0.008382 -99895.600000 0 0 1
12.636873 28.929765 -26.077206 40.946826 1.158963 2.261209 0.007179 -0.002836 -165696.000000 0 0 1
12.086473 29.987265 -26.821546 42.008502 1.187660 2.263317 0.036366 -0.008363 -168260.000000 0 0 1
12.842073 31.345465 -26.777856 43.179979 1.181960 2.239724 0.043913 -0.011743 265196.000000 0 0 1
14.033273 31.329165 -27.551906 44.017688 1.149665 2.247117 0.034325 -0.002385 115876.000000 0 0 1
14.588273 32.698465 -27.621976 45.221465 1.151152 2.227887 0.034094 -0.004821 631839.000000 0 0 1
16.061373 32.671665 -28.126846 46.005704 1.113892 2.228596 0.033574 0.010921 642420.000000 0 0 1
16.962973 32.028065 -27.208456 45.319306 1.083728 2.214763 0.009379 0.013648 -603414.000000 0 0 1
18.201373 31.927865 -27.824276 46.096300 1.052669 2.218820 0.001381 0.012721 -825504.000000 0 0 1
19.191273 31.002965 -27.079936 45.418187 1.016513 2.209600 -0.000549 0.021302 -758697.000000 0 0 1
19.646473 31.373265 -25.780746 45.110005 1.011322 2.179139 0.007141 0.014301 52596.100000 0 0 1
20.476873 32.507165 -25.586096 46.159142 1.008668 2.158320 0.008947 0.014731 -110806.000000 0 0 1
21.918873 32.337565 -26.095806 46.980274 0.975116 2.159716 -0.005215 0.013540 -602598.000000 0 0 1
21.865573 32.198365 -27.504676 47.658632 0.974243 2.185992 -0.011197 0.020418 164616.000000 0 0 1
23.123773 32.434565 -28.153836 48.778564 0.951441 2.186063 -0.022094 0.023115 -19704.700000 0 0 1
23.290973 31.800465 -29.549166 49.263498 0.938648 2.214071 -0.019067 0.024969 -290914.000000 0 0 1
22.412273 32.246165 -30.562646 49.761435 0.963409 2.232147 -0.015705 0.013236 -166603.000000 0 0 1
21.205773 31.524165 -30.533686 48.741807 0.978640 2.247770 -0.019340 0.017435 122134.000000 0 0 1
19.960773 32.163865 -31.269346 49.099070 1.015370 2.261218 -0.020419 0.014978 -162813.000000 0 0 1
19.436973 33.318165 -30.636836 49.259636 1.042691 2.242022 -0.013261 0.015302 70113.500000 0 0 1
18.650473 34.026665 -31.588096 50.034607 1.069403 2.254057 -0.011914 0.006102 456822.000000 0 0 1
17.142173 33.657665 -31.735486 49.333899 1.099729 2.269570 0.004968 -0.000031 -149401.000000 0 0 1
16.736673 32.326565 -32.056016 48.504754 1.093060 2.292792 0.024462 -0.008911 86177.900000 0 0 1
17.093473 31.944965 -33.378846 49.262714 1.079471 2.315247 0.027857 -0.014002 -402954.000000 0 0 1
16.512073 32.743665 34.463069 50.323943 1.103728 0.816433 0.048230 -0.015665 -274304.000000 0 0 1
17.071473 34.048765 34.326789 51.274575 1.106043 0.837301 0.026789 -0.004419 222108.000000 0 0 1
16.672073 -34.661009 33.068037 50.723157 -1.122461 0.860667 0.036860 -0.015870 296656.000000 0 0 1
15.208673 -34.111509 32.987683 49.830573 -1.151398 0.847316 0.050836 -0.017081 -447156.000000 0 0 1
14.301673 34.175465 32.907193 49.551827 1.174463 0.844512 0.055114 -0.016688 218578.000000 0 0 1
12.920673 34.523765 32.737283 49.300749 1.212679 0.844598 0.041878 -0.014764 1054260.000000 0 0 1
12.519773 -34.240509 31.352393 48.084610 -1.220255 0.860543 0.020885 -0.005128 -900288.000000 0 0 1
13.085673 -32.960509 31.151623 47.202263 -1.192870 0.850030 0.043403 -0.007606 162859.000000 0 0 1
12.650673 -32.364909 29.941313 45.869479 -1.198180 0.859587 0.031560 -0.015535 -377095.000000 0 0 1
13.223873 -30.987709 29.778193 44.964983 -1.167448 0.846975 0.015366 -0.016163 -380763.000000 0 0 1
12.831873 -29.992109 30.754933 44.833575 -1.166521 0.814847 -0.002450 0.001928 143854.000000 0 0 1
13.176073 -28.643009 30.466233 43.843155 -1.139649 0.802527 0.006661 -0.006528 -1029360.000000 0 0 1
12.844473 -27.751609 31.651283 44.010635 -1.137319 0.768184 0.005661 -0.008472 534111.000000 0 0 1
11.445573 -27.534709 31.890843 43.659904 -1.176848 0.751834 -0.002660 -0.000081 588748.000000 0 0 1
10.787573 -26.793809 30.894663 42.293736 -1.188038 0.751774 -0.015938 -0.000373 -832887.000000 0 0 1
11.017473 -25.287509 31.079783 41.554732 -1.159907 0.725867 -0.027099 0.006640 59312.000000 0 0 1
10.283473 -24.743509 32.206873 41.895987 -1.176912 0.693937 -0.001724 0.000436 488051.000000 0 0 1
10.923873 -23.561409 32.700023 41.758382 -1.136662 0.671198 -0.006057 0.002374 411067.000000 0 0 1
10.087373 -22.795309 33.782803 41.984032 -1.154180 0.635696 -0.003130 0.009300 -19910.000000 0 0 1
10.042173 -23.338909 -33.956716 42.410004 -1.164465 2.499221 0.000828 0.013209 331199.000000 0 0 1
11.297473 -23.597009 -33.336706 42.376735 -1.124279 2.476200 0.006585 0.009186 131816.000000 0 0 1
12.008473 -22.454109 -32.688276 41.435659 -1.079697 2.479801 0.017510 0.004358 -296858.000000 0 0 1
12.550373 -21.540009 -33.636206 41.867388 -1.043229 2.503778 0.000263 0.017600 210648.000000 0 0 1
13.514873 -20.651809 -33.086466 41.277878 -0.991323 2.500687 0.003860 0.018153 142073.000000 0 0 1
13.700573 -19.367209 -33.969456 41.433301 -0.955114 2.531961 -0.008587 0.014033 -324248.000000 0 0 1
14.557973 -19.546009 34.007008 41.838471 -0.930628 0.621825 -0.007644 0.017594 474965.000000 0 0 1
14.130073 -18.717509 32.928123 40.426048 -0.924159 0.618882 -0.024466 0.019749 -170326.000000 0 0 1
14.748173 -17.287509 32.901273 39.985752 -0.864499 0.604432 -0.008898 0.014029 -900589.000000 0 0 1
14.444073 -16.432309 34.001440 40.432041 -0.849703 0.571755 -0.015564 0.019119 265792.000000 0 0 1
14.947773 -15.126609 33.871283 39.993925 -0.791345 0.560648 0.015639 0.003671 873284.000000 0 0 1
16.489573 -14.943609 34.169279 40.776919 -0.736255 0.577269 0.025514 0.001013 1178100.000000 0 0 1
17.386173 -15.396309 33.164019 40.486757 -0.724774 0.610899 0.017560 -0.003840 -32734.000000 0 0 1
18.709473 -15.468109 33.635496 41.480759 -0.690842 0.625159 0.032796 -0.001536 -83357.700000 0 0 1
19.622273 -16.240209 32.649923 41.410089 -0.691370 0.662506 0.032242 -0.006323 -373680.000000 0 0 1
19.914673 -15.470309 31.449173 40.310980 -0.660452 0.675869 0.014545 -0.003762 528719.000000 0 0 1
20.664773 -16.326409 30.585873 40.361864 -0.668650 0.710875 0.008155 -0.006092 -107506.000000 0 0 1
20.830173 -15.594309 29.226133 39.131131 -0.642630 0.727444 0.012452 -0.002844 151984.000000 0 0 1
21.664173 -14.430509 29.322783 39.209713 -0.587610 0.725986 0.018116 -0.012212 563162.000000 0 0 1
22.027273 -13.909609 28.063873 38.291761 -0.563240 0.748228 0.009112 -0.003160 -390675.000000 0 0 1
22.547773 -12.532109 28.301043 38.293666 -0.507287 0.739133 0.010259 -0.002954 -538272.000000 0 0 1
21.642773 -11.533609 28.653733 37.715649 -0.489626 0.707898 0.007736 -0.006996 -375282.000000 0 0 1
22.311773 -10.432509 29.178743 38.184441 -0.437376 0.701070 0.018230 -0.011378 159949.000000 0 0 1
21.421073 -9.151909 29.270183 37.408066 -0.403765 0.672195 0.022199 -0.009382 1349440.000000 0 0 1
20.402973 -9.210109 30.331643 37.697692 -0.424026 0.635791 0.030045 -0.019487 690061.000000 0 0 1
19.450173 -8.200509 30.149483 36.804197 -0.399001 0.610806 0.036699 -0.012885 315664.000000 0 0 1
18.283173 -8.037209 31.174163 37.022960 -0.414168 0.569775 0.029617 -0.004548 242276.000000 0 0 1
18.683873 -7.632209 32.437653 38.203914 -0.387805 0.556581 0.030541 -0.007441 87272.200000 0 0 1
19.162773 -8.692209 33.257980 39.355554 -0.425843 0.564111 0.038197 -0.013074 -555611.000000 0 0 1
19.163573 -8.303809 -34.339866 40.192315 -0.408890 2.595170 0.043238 -0.021477 355051.000000 0 0 1
17.881373 -8.141909 -33.735936 39.040333 -0.427277 2.614216 0.037369 -0.019926 514566.000000 0 0 1
18.066273 -7.556109 -32.482816 37.929123 -0.396134 2.599069 0.026853 -0.020648 512366.000000 0 0 1
16.709773 -7.258609 -31.781556 36.632925 -0.409800 2.621087 0.022710 -0.019817 373519.000000 0 0 1
16.955073 -6.306109 -30.799886 35.719385 -0.356077 2.610539 0.009474 -0.009784 764547.000000 0 0 1
15.778773 -5.893809 -30.066996 34.463472 -0.357479 2.630950 0.007200 -0.006339 608966.000000 0 0 1
15.994073 -4.727509 -29.050596 33.497714 -0.287396 2.620431 -0.010114 -0.000359 420153.000000 0 0 1
16.911873 -4.903809 -27.923966 33.012220 -0.282223 2.578986 -0.005179 0.005326 641680.000000 0 0 1
16.533673 -5.863909 -26.945656 32.153012 -0.340824 2.564486 0.001919 -0.001259 -185475.000000 0 0 1
15.152373 -5.779709 -26.259906 30.863929 -0.364404 2.588356 0.012079 -0.004789 -65898.600000 0 0 1
15.022473 -4.482209 -25.629606 30.043994 -0.289958 2.592636 -0.015394 0.000280 171957.000000 0 0 1
13.759973 -4.287009 -24.989776 28.847950 -0.302025 2.618460 0.001919 -0.008199 344737.000000 0 0 1
13.722373 -3.145009 -23.996676 27.821486 -0.225297 2.611031 0.008219 -0.003443 6682.030000 0 0 1
13.610573 -1.867009 -24.626376 28.199146 -0.136323 2.632736 -0.010885 -0.003918 -78119.000000 0 0 1
13.142673 -0.962009 -23.697476 27.115045 -0.073067 2.634089 -0.004817 0.003082 -200059.000000 0 0 1
13.466673 0.453991 -24.115976 27.624947 0.033699 2.632072 -0.006456 -0.004945 -91419.200000 0 0 1
12.790073 0.939991 -25.295126 28.360412 0.073362 2.672363 -0.004503 -0.008214 252249.000000 0 0 1
13.249673 2.216991 -25.642056 28.947952 0.165788 2.659008 -0.003058 -0.000550 -300977.000000 0 0 1
12.662673 2.639991 -26.989666 29.929165 0.205542 2.694678 -0.005891 -0.010187 -262387.000000 0 0 1
11.457373 3.340991 -26.826716 29.361647 0.283734 2.723008 0.006671 -0.014882 -106182.000000 0 0 1
11.003273 3.917991 -28.039626 30.375044 0.342077 2.746898 0.001232 -0.011725 227688.000000 0 0 1
9.661273 4.695991 -27.905766 29.901912 0.452436 2.774135 0.003978 -0.005324 143993.000000 0 0 1
9.697973 5.920991 -27.184306 29.463457 0.548133 2.745680 0.006644 -0.013976 -525542.000000 0 0 1
8.445573 6.521991 -27.074516 29.101435 0.657582 2.766162 0.014119 -0.015530 -486752.000000 0 0 1
8.563573 5.701765 -31.589596 33.222695 0.587413 2.826746 0.009543 -0.012317 -69637.700000 0 0 1
8.177473 4.738265 -30.657196 32.080927 0.525156 2.842556 -0.003604 -0.000634 250356.000000 0 0 1
7.818573 3.555365 -31.377566 32.531867 0.426783 2.874407 -0.003795 -0.003895 -137014.000000 0 0 1
7.384573 2.399365 -30.487796 31.461001 0.314156 2.892215 0.002118 -0.011195 -602489.000000 0 0 1
8.451173 1.816665 -29.814936 31.042761 0.211738 2.859400 0.011566 -0.012001 -33901.400000 0 0 1
7.987473 0.840065 -28.986686 30.078787 0.104788 2.871297 0.015032 -0.019418 504423.000000 0 0 1
9.132473 0.437365 -27.962236 29.419041 0.047855 2.825576 0.011715 -0.015130 774787.000000 0 0 1
10.202373 -0.216435 -28.614686 30.379854 -0.021211 2.799029 0.023122 -0.012071 103469.000000 0 0 1
11.174273 -0.640635 -27.672586 29.850407 -0.057269 2.757242 0.011926 -0.014433 341508.000000 0 0 1
12.058273 -1.794735 -28.198176 30.720680 -0.147754 2.733524 0.003310 -0.009047 -328576.000000 0 0 1
11.300473 -2.927135 -28.187626 30.509197 -0.253457 2.748962 0.016392 -0.017493 -443521.000000 0 0 1
12.057673 -4.078235 -28.252836 30.987776 -0.326149 2.718300 0.019653 -0.018907 -853239.000000 0 0 1
11.245073 -5.254535 -27.808896 30.453186 -0.437126 2.721788 0.020688 -0.019652 -304895.000000 0 0 1
11.012873 -5.334435 -26.413696 29.110529 -0.451075 2.707754 0.018394 -0.014747 -40894.700000 0 0 1
10.762773 -6.697035 -26.059086 28.978674 -0.556613 2.688849 0.030523 -0.021959 6404.380000 0 0 1
10.408373 -6.831435 -24.543976 27.521074 -0.580820 2.672159 0.025198 -0.019655 -159033.000000 0 0 1
11.488573 -6.554435 -23.692476 27.134505 -0.518459 2.632423 0.007970 -0.010955 -273360.000000 0 0 1
11.109473 -6.850535 -22.395976 25.921612 -0.552564 2.613934 0.008302 -0.011404 -128749.000000 0 0 1
12.276773 -6.957335 -21.409276 25.641388 -0.515580 2.558838 0.014342 -0.011365 172117.000000 0 0 1
12.953273 -5.698535 -21.185776 25.477396 -0.414448 2.552692 0.004165 -0.007579 -658823.000000 0 0 1
14.175473 -5.920235 -20.579776 25.681129 -0.395620 2.500358 0.018035 -0.009627 -1024180.000000 0 0 1
14.732273 -4.735935 -19.733376 25.077382 -0.311033 2.476564 0.024467 -0.006287 -467953.000000 0 0 1
15.049273 -3.654235 -20.491276 25.685141 -0.238208 2.494413 0.012158 -0.010174 -38342.700000 0 0 1
15.776973 -2.727935 -19.711176 25.394586 -0.171213 2.459406 0.013013 -0.010029 126484.000000 0 0 1
16.646873 -1.743335 -20.565076 26.515655 -0.104344 2.458434 0.002907 -0.000576 780970.000000 0 0 1
17.820373 -2.286935 -21.158676 27.757618 -0.127635 2.437602 0.008011 -0.002530 -54294.900000 0 0 1
18.640373 -1.360835 -21.779876 28.699798 -0.072875 2.432397 0.005474 -0.003588 707294.000000 0 0 1
20.086773 -1.923835 -22.048876 29.888669 -0.095485 2.400454 0.005679 -0.001630 -1041760.000000 0 0 1
20.861373 -2.161535 -20.932676 29.631842 -0.103246 2.355231 0.008825 -0.000773 581904.000000 0 0 1
22.165473 -2.678835 -21.240476 30.816265 -0.120273 2.331266 0.008547 0.003825 1315020.000000 0 0 1
23.154973 -1.892135 -22.166076 32.110246 -0.081535 2.332716 0.015224 -0.000458 -1328610.000000 0 0 1
22.719673 -1.926835 -23.503876 32.746426 -0.084607 2.371368 0.016414 -0.000188 -3173.700000 0 0 1
23.463073 -1.115935 -24.400476 33.869519 -0.047526 2.375212 0.021861 0.005667 634648.000000 0 0 1
24.807973 -1.737935 -24.954276 35.230269 -0.069941 2.357911 0.026984 -0.008395 45588.500000 0 0 1
25.742273 -1.895035 -23.888376 35.169736 -0.073483 2.317511 0.023538 -0.004162 84019.000000 0 0 1
26.932773 -2.595135 -24.200576 36.301197 -0.096059 2.300516 0.015164 -0.003841 762044.000000 0 0 1
27.957773 -1.854335 -25.125986 37.634968 -0.066229 2.301808 0.018891 -0.014057 -873484.000000 0 0 1
27.607173 -1.832835 -26.465226 38.287380 -0.066293 2.333980 0.034285 -0.017083 -219116.000000 0 0 1
28.237073 -0.783535 -27.120176 39.159292 -0.027741 2.335829 0.031848 -0.023334 -789676.000000 0 0 1
27.642773 -0.350935 -28.519896 39.719397 -0.012695 2.371770 0.045102 -0.030146 1417330.000000 0 0 1
26.244873 0.051465 -28.476646 38.726159 0.001961 2.396955 0.027473 -0.021167 1329280.000000 0 0 1
26.039773 1.360565 -27.956726 38.229563 0.052202 2.391001 0.014291 -0.014330 -250932.000000 0 0 1
24.555673 1.762765 -28.185146 37.423133 0.071664 2.423630 -0.000961 -0.014875 31121.600000 0 0 1
23.699873 1.192865 -27.234716 36.122523 0.050290 2.424857 0.010304 -0.013426 192162.000000 0 0 1
22.376473 1.683065 -27.443786 35.449974 0.075074 2.456176 0.004055 -0.009549 215764.000000 0 0 1
21.342573 1.272665 -26.393246 33.966580 0.059560 2.460739 0.010158 -0.005752 -326701.000000 0 0 1
21.652573 1.703165 -25.099926 33.192484 0.078497 2.428272 0.010637 -0.004128 665250.000000 0 0 1
20.614273 1.456165 -24.126276 31.767056 0.070522 2.433302 0.011428 -0.006181 261814.000000 0 0 1
20.814173 2.090765 -22.795176 30.938991 0.100113 2.399089 0.013052 -0.008236 -437637.000000 0 0 1
20.690073 3.511965 -22.751076 30.951971 0.168139 2.396529 0.018810 -0.012392 349504.000000 0 0 1
20.997573 4.029865 -21.485276 30.310971 0.189615 2.358632 0.014374 -0.008489 -543113.000000 0 0 1
20.432473 5.394765 -21.043576 29.823171 0.258138 2.354082 0.018401 -0.002846 -273139.000000 0 0 1
20.971073 6.419465 -21.854976 30.961838 0.297053 2.354444 0.011839 -0.000239 401701.000000 0 0 1
20.745773 7.690365 -21.261976 30.685509 0.354992 2.336299 0.009779 -0.006143 -252421.000000 0 0 1
21.305673 8.090465 -19.880376 30.242630 0.362914 2.288110 0.001890 0.001701 -487026.000000 0 0 1
22.682673 8.080365 -19.569276 31.028254 0.342219 2.253241 -0.008309 0.002026 296175.000000 0 0 1
23.025173 8.449165 -18.216076 30.551144 0.351697 2.209616 0.002601 -0.000570 -18019.600000 0 0 1
22.844273 9.955565 -17.821676 30.636355 0.410984 2.191634 0.012939 -0.006701 187513.000000 0 0 1
21.468873 10.307065 -17.716476 29.682008 0.447596 2.210398 0.011315 -0.007150 273867.000000 0 0 1
21.269273 11.698465 -17.623276 29.996932 0.502856 2.198766 0.008578 -0.000214 -1118290.000000 0 0 1
19.830373 12.134665 -17.374376 29.023486 0.549140 2.212588 0.011349 -0.003063 56045.700000 0 0 1
18.943773 12.091965 -18.519576 29.121416 0.568112 2.260027 0.008251 0.000131 894540.000000 0 0 1
18.435273 10.734465 -18.718876 28.381056 0.527287 2.291023 0.012403 -0.002242 -722596.000000 0 0 1
17.740473 10.581765 -20.075176 28.804701 0.537824 2.341919 0.015548 -0.008881 -161471.000000 0 0 1
18.558073 10.396565 -21.208076 30.037862 0.510654 2.354694 0.034124 -0.017736 143739.000000 0 0 1
17.745373 10.282065 -22.357276 30.339198 0.525151 2.399285 0.029545 -0.016214 -358150.000000 0 0 1
18.542573 10.360165 -23.629176 31.772598 0.509516 2.409379 0.049608 -0.019571 -444219.000000 0 0 1
18.987973 11.681165 -23.823076 32.627162 0.551512 2.389354 0.034247 -0.014698 43482.000000 0 0 1
19.597273 11.848965 -25.066016 33.952264 0.543812 2.401302 0.044000 -0.021069 -134443.000000 0 0 1
19.748173 13.380765 -25.289916 34.765141 0.595513 2.385395 0.058377 -0.031932 244574.000000 0 0 1
20.417773 13.803465 -26.502246 36.191023 0.594472 2.392472 0.060970 -0.038311 452510.000000 0 0 1
20.254773 15.184465 -26.656176 36.761060 0.643292 2.382005 0.060073 -0.031164 1038940.000000 0 0 1
18.912773 15.728365 -27.303606 36.749984 0.693730 2.408272 0.051322 -0.030205 874074.000000 0 0 1
17.747973 15.649565 -26.540056 35.556631 0.722649 2.413457 0.044852 -0.027458 -231657.000000 0 0 1
16.590873 16.067265 -27.235746 35.709942 0.769367 2.438264 0.034925 -0.024971 809318.000000 0 0 1
15.216173 15.535565 -26.717926 34.448995 0.795784 2.458429 0.028959 -0.025313 375496.000000 0 0 1
15.037673 14.167865 -26.844326 33.874442 0.755625 2.485637 0.033790 -0.020358 -255683.000000 0 0 1
13.748673 13.730765 -26.500056 32.860506 0.784746 2.508905 0.011428 -0.018542 -330669.000000 0 0 1
13.544773 12.186065 -26.450656 32.118503 0.732642 2.538408 0.011685 -0.022379 -215771.000000 0 0 1
12.289573 11.825065 -25.925166 31.031919 0.766138 2.559721 0.019920 -0.016282 -250039.000000 0 0 1
12.135073 10.413365 -25.783786 30.339772 0.709190 2.586468 0.039303 -0.016612 843412.000000 0 0 1
10.740873 9.780065 -25.366196 29.231146 0.738611 2.621513 0.011809 -0.019138 969353.000000 0 0 1
10.303473 10.129765 -24.066976 28.071214 0.776897 2.600904 0.031222 -0.018717 -623527.000000 0 0 1
9.066273 9.580065 -23.768576 27.183086 0.812946 2.634970 0.019347 -0.017271 -443406.000000 0 0 1
8.235373 10.283265 -22.656776 26.208709 0.895536 2.614902 0.015335 -0.017043 173051.000000 0 0 1
7.619373 11.500165 -23.123276 26.925722 0.985653 2.603680 0.011411 -0.018830 -114515.000000 0 0 1
7.109373 12.323165 -22.112576 26.293908 1.047527 2.569883 0.019290 -0.010353 -137060.000000 0 0 1
8.118973 13.113965 -21.270476 26.274074 1.016444 2.514201 0.020594 -0.018291 -595458.000000 0 0 1
8.961973 12.324165 -20.531676 25.568569 0.942056 2.503116 0.025250 -0.021804 -840298.000000 0 0 1
9.956473 13.092765 -19.911976 25.827091 0.920637 2.451163 0.024572 -0.016993 -1015080.000000 0 0 1
11.059673 12.263565 -19.251376 25.363889 0.836970 2.432583 0.020500 -0.017123 213487.000000 0 0 1
12.122873 11.812765 -20.106176 26.282385 0.772443 2.441847 0.026429 -0.022369 601703.000000 0 0 1
11.654873 10.768065 -20.911176 26.250039 0.745870 2.492471 0.039574 -0.027060 -877229.000000 0 0 1
12.735873 10.053665 -21.729676 27.119319 0.668242 2.500198 0.044120 -0.024580 -562582.000000 0 0 1
13.447973 9.195365 -20.950476 26.539125 0.599752 2.480657 0.046550 -0.024506 -98301.500000 0 0 1
14.378173 8.432565 -21.708476 27.369654 0.530422 2.486774 0.046781 -0.029240 95959.300000 0 0 1
14.937673 7.132765 -21.093076 26.812838 0.445488 2.476206 0.060907 -0.024337 223654.000000 0 0 1
15.687273 7.410665 -19.905276 26.405085 0.441325 2.424687 0.043036 -0.023559 188384.000000 0 0 1
16.281173 6.203265 -19.472776 26.129411 0.364028 2.411696 0.027759 -0.020878 -114170.000000 0 0 1
17.145473 6.388965 -18.222076 25.823055 0.356694 2.354138 0.041686 -0.017153 -921283.000000 0 0 1
18.349873 7.115365 -18.457876 26.982206 0.369911 2.324132 0.031757 -0.017391 591695.000000 0 0 1
19.116573 7.081465 -17.239276 26.697999 0.354763 2.272755 0.021552 -0.013992 189210.000000 0 0 1
19.713573 5.710165 -16.719076 26.471843 0.281941 2.254385 0.005283 -0.013870 -904739.000000 0 0 1
20.769473 5.202965 -17.517576 27.664189 0.245459 2.256506 -0.000499 -0.015876 385029.000000 0 0 1
21.246073 4.036365 -16.882276 27.435362 0.187744 2.233623 -0.000055 -0.014628 -1625750.000000 0 0 1
22.693573 3.761165 -17.099976 28.662760 0.164244 2.210044 -0.004615 -0.002577 -1584190.000000 0 0 1
23.149973 2.666765 -16.319176 28.449049 0.114690 2.181725 -0.005431 -0.008379 769771.000000 0 0 1
24.483573 2.322865 -16.714176 29.735580 0.094591 2.167711 -0.001210 -0.003410 602013.000000 0 0 1
25.243073 1.245565 -15.935676 29.878252 0.049303 2.133357 0.010945 -0.008930 -70838.100000 0 0 1
24.740973 -0.067335 -16.132176 29.535866 -0.002722 2.148605 0.013622 -0.007717 -112221.000000 0 0 1
25.760673 -0.971335 -15.778776 30.224585 -0.037688 2.120050 0.014940 -0.002214 -222564.000000 0 0 1
25.435373 -2.499635 -15.907076 30.103844 -0.097959 2.127519 0.008375 -0.000821 -143614.000000 0 0 1
24.639673 -3.058635 -14.860476 28.936180 -0.123503 2.110125 0.007134 -0.005174 573677.000000 0 0 1
24.600373 -4.412635 -15.111776 29.206429 -0.177485 2.114621 0.004566 0.001774 -1332750.000000 0 0 1
24.145773 -5.258835 -13.899376 28.352537 -0.214446 2.083154 0.000985 0.001503 917274.000000 0 0 1
22.770273 -5.160535 -13.497676 26.968569 -0.222870 2.094969 0.006782 0.005617 512057.000000 0 0 1
21.860573 -5.561535 -14.455876 26.791560 -0.249124 2.140721 0.012599 0.006210 -1984010.000000 0 0 1
20.409373 -5.665535 -14.023876 25.402951 -0.270777 2.155626 0.025933 0.001388 -680966.000000 0 0 1
20.152673 -6.727035 -13.125276 24.973108 -0.322174 2.124189 0.029710 0.000456 239740.000000 0 1 0
20.372673 -6.444535 -11.792876 24.405937 -0.306372 2.075099 0.030394 0.001649 -719502.000000 0 1 0
20.207873 -7.635335 -10.867776 24.181916 -0.361258 2.036910 0.030927 0.001137 8619.090000 0 1 0
18.923473 -8.248235 -10.775376 23.286046 -0.411044 2.051879 0.035257 -0.001102 847922.000000 0 1 0
18.501273 -9.033835 -11.884076 23.772643 -0.454229 2.094286 0.034558 0.000094 226647.000000 0 1 0
17.036573 -9.594335 -11.759176 22.816098 -0.512892 2.112258 0.044001 0.001480 518920.000000 0 1 0
16.120673 -8.590335 -12.085176 21.902544 -0.489602 2.155282 0.045379 -0.000267 -751869.000000 0 1 0
14.810873 -9.099035 -12.171776 21.220427 -0.550903 2.181675 0.040853 -0.003228 -259474.000000 0 1 0
13.865773 -7.980735 -12.623076 20.378760 -0.522263 2.238804 0.037786 -0.004660 -710056.000000 0 1 0
14.050373 -7.412335 -13.922876 21.123498 -0.485447 2.290442 0.039589 -0.000281 1064770.000000 0 1 0
15.060373 -6.350635 -13.945576 21.485449 -0.399054 2.277159 0.041444 -0.002826 830163.000000 0 1 0
14.771373 -5.328535 -15.047376 21.748800 -0.346205 2.334874 0.020676 -0.000480 409060.000000 0 1 0
13.825573 -4.344135 -14.576576 20.554672 -0.304442 2.359104 0.028955 -0.002262 169416.000000 0 1 0
13.471173 -3.317035 -15.467976 20.778198 -0.241429 2.410482 0.018313 -0.008410 -537529.000000 0 1 0
14.468873 -2.153135 -15.631076 21.408289 -0.147727 2.389325 0.018106 -0.009161 -434184.000000 0 1 0
15.606573 -2.638535 -16.341476 22.750183 -0.167482 2.372153 0.014491 -0.004921 196373.000000 0 1 0
16.622373 -1.621035 -16.256676 23.306878 -0.097214 2.342707 0.015089 0.002178 282058.000000 0 1 0
17.756273 -1.993735 -15.287476 23.515253 -0.111815 2.278524 0.017139 0.002913 -512889.000000 0 1 0
17.427073 -1.884735 -13.896676 22.369012 -0.107731 2.241129 0.014796 0.001865 -672418.000000 0 1 0
18.494673 -2.395135 -13.206276 22.851594 -0.128787 2.186968 0.011589 0.003413 -823163.000000 0 1 0
18.222173 -2.699435 -11.755576 21.852417 -0.147071 2.138803 0.012233 0.003782 -295799.000000 0 1 0
17.974873 -1.586435 -10.906776 21.084843 -0.088030 2.114466 0.012139 0.002744 626881.000000 0 1 0
17.454273 -2.027135 -9.676176 20.059644 -0.115622 2.074155 0.008757 0.000473 -1102850.000000 0 1 0
17.315673 -0.873835 -8.654676 19.377811 -0.050422 2.033790 -0.002627 0.000557 92983.000000 0 1 0
18.491873 -0.388135 -7.998376 20.151279 -0.020986 1.978951 -0.013136 0.003044 1398500.000000 0 1 0
19.565273 0.184065 -8.778476 21.445173 0.009407 1.992532 -0.016554 0.003497 234565.000000 0 1 0
19.227873 1.442065 -9.594376 21.537008 0.074859 2.032510 -0.019347 0.006623 -970565.000000 0 1 0
19.195773 2.594565 -8.708776 21.237991 0.134349 1.993312 -0.015274 0.007314 514329.000000 0 1 0
18.761273 3.665365 -9.501476 21.347091 0.192938 2.032076 -0.011197 0.008075 -293760.000000 0 1 0
18.656973 5.030865 -8.811676 21.237652 0.263386 1.998638 0.007449 0.007709 -265121.000000 0 1 0
18.165473 6.033565 -9.674676 21.447323 0.320680 2.038783 0.027978 0.007102 409810.000000 0 1 0
18.400473 7.355465 -9.200776 21.847987 0.380285 2.005484 0.031865 0.004718 -344771.000000 0 1 0
-24.942727 -29.206555 5.697524 38.828138 0.863978 1.423528 0.017106 0.000163 -229268.000000 0 0 1
-25.084267 -28.314925 6.790224 38.432572 0.845825 1.393185 0.012182 0.002923 -495135.000000 0 0 1
-24.010427 -27.428195 6.799624 37.081551 0.851744 1.386383 0.008167 0.009110 -887149.000000 0 0 1
-24.236727 -26.274425 7.826124 36.592521 0.825718 1.355259 -0.002690 0.019347 -229402.000000 0 0 1
-25.361917 -25.399305 7.591124 36.687555 0.786135 1.362378 -0.008109 0.014477 918987.000000 0 0 1
-26.645197 -25.984295 7.804724 38.027146 0.772841 1.364087 -0.009633 0.014808 -100179.000000 0 0 1
-26.965257 -26.283585 9.269524 38.779840 0.772597 1.329430 -0.010538 0.014008 -891431.000000 0 0 1
-26.134977 -27.181165 9.990424 39.008478 0.805018 1.311801 -0.010902 0.009001 -307297.000000 0 0 1
-26.678017 -27.454185 11.199524 39.885815 0.799736 1.286180 -0.015456 0.015897 352226.000000 0 0 1
-25.636207 -28.304195 12.043424 40.042311 0.834820 1.265299 -0.013711 0.010030 1246150.000000 0 0 1
-24.447027 -27.639075 12.463024 38.947434 0.846606 1.245071 -0.000301 0.015983 337500.000000 0 0 1
-24.642927 -26.811525 13.642024 38.887486 0.827519 1.212363 -0.000753 0.022518 -1024630.000000 0 0 1
-23.328527 -26.322595 14.217624 37.937317 0.845627 1.186652 0.003909 0.025696 -487786.000000 0 0 1
-22.536627 -27.372935 14.729324 38.394402 0.881998 1.177070 0.014212 0.015832 -627746.000000 0 0 1
-21.395427 -26.862345 15.343324 37.613395 0.898203 1.150620 0.009119 0.015374 -535045.000000 0 0 1
-20.476727 -27.960765 15.894224 38.127773 0.938695 1.140800 0.016278 0.008606 -869446.000000 0 0 1
-21.023027 -28.527635 17.017024 39.311229 0.935709 1.123112 0.024024 0.012873 -85418.600000 0 0 1
-20.421527 -29.729435 17.439924 40.062814 0.968908 1.120409 0.013172 0.013848 -197822.000000 0 0 1
-21.315627 -30.605175 18.382824 41.580776 0.962443 1.112859 -0.002968 0.010779 -426628.000000 0 0 1
-22.345027 -31.248385 17.713024 42.302636 0.950023 1.138759 0.008503 0.002814 -207931.000000 0 0 1
-22.913627 -32.272435 18.497824 43.688830 0.953386 1.133602 -0.004243 0.004958 -621697.000000 0 0 1
-24.146727 -32.961315 17.922024 44.617392 0.938539 1.157443 -0.008439 0.000148 -417200.000000 0 0 1
-23.865527 -33.736955 16.809824 44.612955 0.955121 1.184465 0.000388 0.001768 865231.000000 0 0 1
-24.980127 -34.589328 16.457824 45.730606 0.945331 1.202650 0.005702 -0.002520 115599.000000 0 0 1
-24.580127 33.953964 15.204924 44.589730 -0.944193 1.222820 0.000105 -0.007014 90073.100000 0 0 1
-23.480127 33.069308 15.194924 43.310290 -0.953372 1.212330 -0.011018 -0.010725 917382.000000 0 0 1
-22.227327 33.782545 15.090224 43.162823 -0.988851 1.213640 -0.003279 -0.004484 -107317.000000 0 0 1
-21.023827 32.845118 14.937724 41.760492 -1.001419 1.204993 0.005100 -0.012143 -346238.000000 0 0 1
-20.950427 32.136818 13.752624 40.753284 -0.993077 1.226578 0.012505 -0.008753 -212044.000000 0 0 1
-20.016627 31.114828 13.831224 39.498109 -0.999135 1.213039 0.007726 -0.010729 -463429.000000 0 0 1
-19.984027 30.318318 12.543824 38.417564 -0.988022 1.238185 0.008004 -0.004341 235650.000000 0 0 1
-19.250727 30.938338 11.471624 38.201694 -1.014192 1.265799 -0.001355 0.002053 261608.000000 0 0 1
-19.527427 30.222478 10.294424 37.425843 -0.997152 1.292142 0.001302 0.005164 177391.000000 0 0 1
-18.877227 30.866988 9.030124 37.291605 -1.021915 1.326216 -0.017086 0.013045 560656.000000 0 0 1
-17.450427 30.826348 8.963024 36.539252 -1.055685 1.322969 -0.019018 0.003874 425087.000000 0 0 1
-16.924527 31.396508 7.741524 36.498103 -1.076393 1.357065 -0.018559 0.007377 54923.000000 0 0 1
-16.475127 30.333798 6.657924 35.155328 -1.073245 1.380260 -0.016462 0.007875 -1085540.000000 0 0 1
-17.368727 29.417858 6.136124 34.709294 -1.037455 1.393076 -0.021594 0.012872 -571157.000000 0 0 1
-17.689927 28.279488 6.985124 34.080125 -1.011809 1.364372 -0.027773 0.008891 -39767.700000 0 0 1
-18.614027 27.230188 6.339224 33.587958 -0.971175 1.380922 -0.017459 0.017006 -320194.000000 0 0 1
-18.034827 26.557788 5.234024 32.526391 -0.974250 1.409177 -0.004212 0.006043 512372.000000 0 0 1
-19.097427 25.966828 4.476224 32.542656 -0.936669 1.432809 0.009626 -0.000773 -227720.000000 0 0 1
-18.729327 25.181188 3.184724 31.543975 -0.931286 1.469663 0.017011 -0.006495 -1804380.000000 0 0 1
-18.371027 25.952868 1.977624 31.858390 -0.954814 1.508681 0.009357 -0.010377 694167.000000 0 0 1
-17.088227 26.599618 1.943824 31.675316 -0.999766 1.509391 -0.001632 -0.006596 249142.000000 0 0 1
-15.926127 25.585648 2.167824 30.215333 -1.014023 1.498989 -0.007309 -0.009992 -1436310.000000 0 0 1
-15.859227 24.499848 1.257624 29.211971 -0.996308 1.527731 0.006506 -0.018526 -92406.400000 0 0 1
-15.422827 24.908648 0.005124 29.296832 -1.016396 1.570621 0.004826 -0.023247 -524964.000000 0 0 1
-15.152527 23.749638 -0.968476 28.188337 -1.002896 1.605160 0.013031 -0.028493 -286475.000000 0 0 1
-16.235127 22.873738 -1.218276 28.076172 -0.953542 1.614202 0.025348 -0.034353 -124112.000000 0 0 1
-16.026027 21.843838 -2.191776 27.180704 -0.937833 1.651521 0.025193 -0.030182 -852959.000000 0 0 1
-15.185127 20.646938 -1.694976 25.685737 -0.936662 1.636833 0.028267 -0.032026 -95006.600000 0 0 1
-15.797827 19.826238 -0.721776 25.360836 -0.898001 1.599260 0.036163 -0.038330 813425.000000 0 0 1
-14.848527 18.876238 -0.161976 24.017022 -0.904264 1.577541 0.046061 -0.037154 277123.000000 0 1 0
-15.553227 17.883138 0.776824 23.713139 -0.854968 1.538031 0.041158 -0.032581 7321.090000 0 1 0
-16.387127 16.932938 0.167524 23.564600 -0.801778 1.563687 0.047008 -0.028631 371999.000000 0 1 0
-17.091427 16.219338 1.188824 23.592310 -0.759224 1.520385 0.046052 -0.034622 23246.700000 0 1 0
-17.817727 15.036838 0.534824 23.320890 -0.700957 1.547861 0.071923 -0.027196 -40225.800000 0 1 0
-18.836327 15.296838 -0.430176 24.269024 -0.682071 1.588523 0.069321 -0.029891 456856.000000 0 1 0
-19.617427 14.140238 -0.619876 24.190370 -0.624550 1.596424 0.057726 -0.020480 -281018.000000 0 1 0
-20.534627 14.304838 -1.875376 25.096142 -0.608454 1.645594 0.059579 -0.012232 453584.000000 0 0 1
-21.526127 13.279538 -2.197776 25.387999 -0.552756 1.657472 0.045729 -0.010616 1423700.000000 0 0 1
-22.588427 13.020338 -1.315776 26.105507 -0.522898 1.621220 0.028819 -0.004590 -133387.000000 0 0 1
-23.724727 14.092338 -1.225276 27.621694 -0.535991 1.615170 -0.001514 -0.000527 -441340.000000 0 0 1
-23.242827 15.351538 -0.827576 27.867250 -0.583711 1.600498 -0.018376 -0.005696 208334.000000 0 0 1
-24.242227 16.089738 -0.144076 29.096151 -0.585951 1.575748 -0.025970 -0.004944 -234745.000000 0 0 1
-23.775527 17.409338 0.536824 29.472850 -0.632036 1.552581 -0.029910 -0.010806 353779.000000 0 0 1
-22.847127 17.094738 1.602224 28.579510 -0.642363 1.514705 -0.034488 -0.015386 731648.000000 0 0 1
-22.120127 18.159838 2.154224 28.700530 -0.687394 1.495667 -0.029863 -0.022227 -251681.000000 0 0 1
-22.945927 19.214238 2.916824 30.070091 -0.697116 1.473643 -0.025866 -0.017655 -802292.000000 0 0 1
-23.578527 18.699338 4.062124 30.366314 -0.670499 1.436623 -0.021413 -0.019071 166042.000000 0 0 1
-24.878327 19.209938 4.281724 31.722012 -0.657531 1.435407 -0.017738 -0.023640 480747.000000 0 0 1
-25.986987 18.448338 3.484324 32.059401 -0.617344 1.461898 0.029496 -0.014242 -270533.000000 0 0 1
-27.274147 19.029938 3.514924 33.442074 -0.609200 1.465497 0.040481 -0.008301 371980.000000 0 0 1
-28.104017 18.479438 2.506724 33.728461 -0.581656 1.496407 0.035998 0.005983 264342.000000 0 0 1
-29.374247 19.268838 2.075724 35.191521 -0.580566 1.511778 0.029335 -0.007259 252652.000000 0 0 1
-30.451117 19.099238 2.974824 36.068005 -0.560187 1.488224 0.061526 -0.006258 -494113.000000 0 0 1
-31.551447 19.830138 2.565124 37.353822 -0.561113 1.502071 0.036428 -0.009929 -360743.000000 0 0 1
-32.331297 20.514438 3.715424 38.470239 -0.565407 1.474066 0.035559 -0.006785 -202735.000000 0 0 1
-31.530987 21.500338 4.277824 38.402701 -0.598461 1.459171 0.035842 -0.011699 76231.000000 0 0 1
-32.157987 22.118538 5.373224 39.398444 -0.602497 1.433988 0.020407 -0.008629 -517973.000000 0 0 1
-31.276707 23.129038 6.093324 39.374019 -0.636745 1.415417 0.020023 -0.010343 -334553.000000 0 0 1
-31.111797 24.281438 5.251024 39.813382 -0.662711 1.438520 0.013141 -0.007985 457829.000000 0 0 1
-30.084047 25.018728 5.889524 39.568588 -0.693731 1.421398 0.003775 -0.005505 53115.200000 0 0 1
-30.187307 26.512348 5.477524 40.548506 -0.720674 1.435296 0.000898 -0.002503 -13771.400000 0 0 1
-31.082807 27.090828 6.420024 41.728534 -0.716884 1.416331 0.000846 0.000755 239868.000000 0 0 1
-31.334257 28.453638 6.128024 42.766784 -0.737255 1.427012 0.000156 0.001867 -215506.000000 0 0 1
-32.473697 29.072768 6.933424 44.134331 -0.730196 1.413045 -0.003495 0.003162 -740609.000000 0 0 1
-32.017467 29.509968 8.232724 44.314040 -0.744667 1.383929 -0.009986 0.005216 631600.000000 0 0 1
-32.952137 30.160948 9.125224 45.593813 -0.741202 1.369294 -0.002236 0.007239 784307.000000 0 0 1
-34.164564 29.297048 9.615424 46.021634 -0.708848 1.360313 0.004023 0.003795 461363.000000 0 0 1
-33.617117 28.219078 10.398324 45.106009 -0.698323 1.338173 0.004988 -0.004925 411547.000000 0 0 1
-34.603548 27.650338 11.213624 45.691269 -0.674168 1.322842 0.019440 -0.007860 -278037.000000 0 0 1
-34.149339 26.365658 11.951224 44.767812 -0.657477 1.300559 0.020014 -0.000065 -514092.000000 0 0 1
-33.187717 26.656198 12.911624 44.482440 -0.676686 1.276294 0.016771 -0.006447 -106773.000000 0 0 1
-32.655287 25.495998 13.539824 43.586013 -0.662900 1.254924 0.018675 -0.008501 410011.000000 0 0 1
-31.473717 25.800438 14.496724 43.201996 -0.686665 1.228600 0.026346 -0.009546 337765.000000 0 0 1
-32.014587 26.595818 15.549924 44.430524 -0.693206 1.213243 0.018367 -0.012237 234273.000000 0 0 1
-30.999677 27.070768 16.391824 44.300094 -0.717843 1.191768 0.044187 -0.011831 -237393.000000 0 0 1
-31.442857 28.135478 17.414324 45.645559 -0.729942 1.179365 0.038536 -0.013668 -345793.000000 0 0 1
-31.426417 29.455548 16.984224 46.300247 -0.753037 1.195199 0.044034 -0.015288 69673.100000 0 0 1
-31.587097 30.465308 17.953324 47.415203 -0.767322 1.182469 0.031286 -0.012693 -52929.700000 0 0 1
-31.344107 31.859178 17.309024 47.927681 -0.793547 1.201297 0.021037 -0.005438 27854.300000 0 0 1
-29.985517 32.039078 16.983924 47.054090 -0.818495 1.201516 0.013559 0.000770 -276072.000000 0 0 1
-29.753777 33.204478 16.183324 47.431262 -0.840153 1.222608 0.007395 0.011737 -925155.000000 0 0 1
-28.333337 33.204328 15.655624 46.372448 -0.864388 1.226424 0.019296 0.004392 -898821.000000 0 0 1
-28.191697 32.301048 14.546824 45.274050 -0.853225 1.243688 0.017408 0.002374 83417.300000 0 0 1
-27.988477 30.938688 14.851524 44.284591 -0.835422 1.228803 0.007658 -0.001458 -189488.000000 0 0 1
-28.974067 29.902408 14.226724 44.000571 -0.801164 1.241549 0.020507 -0.003243 248684.000000 0 0 1
-28.983377 29.843168 12.831224 43.534941 -0.800013 1.271619 0.019874 -0.006161 -219924.000000 0 0 1
-29.926137 28.873818 12.465024 43.412531 -0.767503 1.279567 0.033382 -0.008371 -66636.200000 0 0 1
-29.937207 28.564588 10.937124 42.799448 -0.761940 1.312386 0.027043 -0.000853 183672.000000 0 0 1
-28.782047 27.896538 10.455724 41.423969 -0.769776 1.315629 0.015050 0.003583 93887.900000 0 0 1
-28.733507 28.031738 9.049124 41.149476 -0.773036 1.349076 0.012331 -0.003642 -126659.000000 0 0 1
-27.539177 27.289278 8.405424 39.670671 -0.780840 1.357298 0.012001 -0.004471 225927.000000 0 0 1
-27.345937 27.752108 7.071224 39.597752 -0.792770 1.391257 0.008840 -0.001794 -945543.000000 0 0 1
-26.318257 27.021848 6.537924 38.282834 -0.798588 1.399176 0.002915 -0.001097 -892757.000000 0 0 1
-26.032297 27.323488 4.993224 38.068173 -0.809593 1.439252 0.008475 -0.003086 54066.000000 0 0 1
-25.274837 28.514238 4.786724 38.403019 -0.845550 1.445827 0.010165 0.008881 226010.000000 0 0 1
-25.081817 28.724508 3.438324 38.288601 -0.852995 1.480875 0.010913 0.008000 119137.000000 0 0 1
-23.984127 29.821068 3.299524 38.411213 -0.893458 1.484790 0.008612 0.006428 -440932.000000 0 0 1
-22.691727 29.383648 3.567324 37.296636 -0.913202 1.475003 0.009397 0.006535 -577564.000000 0 0 1
-21.756327 30.412758 3.235524 37.533215 -0.949830 1.484485 0.011980 0.006225 106869.000000 0 0 1
-20.302927 29.938388 3.372324 36.330270 -0.974881 1.477838 -0.006633 0.005448 190305.000000 0 0 1
-19.381827 30.893958 2.858624 36.582285 -1.010497 1.492574 -0.004633 0.009920 -592152.000000 0 0 1
-18.063127 30.444278 2.814724 35.511312 -1.035305 1.491450 -0.001554 0.012809 29127.300000 0 0 1
-17.067827 31.499848 2.243424 35.896853 -1.074241 1.508259 0.003445 0.004196 108698.000000 0 0 1
-16.916327 32.598268 3.135224 36.859718 -1.092117 1.485635 0.006785 0.004517 92042.100000 0 0 1
-15.975927 33.496491 2.584624 37.201148 -1.125764 1.501263 0.010203 0.006828 -173505.000000 0 0 1
-15.688227 -34.589562 3.394324 38.132397 1.144991 1.481664 0.010399 0.000931 -226146.000000 0 0 1
-16.748927 -33.665855 3.386324 37.754252 1.109147 1.480982 0.010502 -0.005708 103937.000000 0 0 1
-16.414427 -32.443245 4.137324 36.593921 1.102406 1.457494 0.002573 0.001182 172334.000000 0 0 1
-17.583327 -31.427215 4.287724 36.266070 1.060694 1.452290 -0.001632 0.003810 201638.000000 0 0 1
-17.817427 -30.657845 3.135224 35.597666 1.044337 1.482608 0.012685 -0.008628 194192.000000 0 0 1
-18.984027 -29.883015 3.301624 35.556836 1.004840 1.477808 0.016356 -0.012006 -286671.000000 0 0 1
-19.177127 -28.854695 2.128924 34.711496 0.984219 1.509426 0.011715 -0.012792 -257370.000000 0 0 1
-18.351927 -27.722915 2.134324 33.315291 0.986048 1.506688 0.008340 -0.004659 -156158.000000 0 0 1
-18.631027 -26.845495 1.064924 32.694493 0.964102 1.538219 0.003197 -0.002969 80076.800000 0 0 1
-17.852227 -25.509995 1.236024 31.160706 0.960196 1.531120 0.005052 -0.001976 418179.000000 0 0 1
-16.478727 -25.622975 0.946424 30.479190 0.999271 1.539740 0.013926 -0.002879 -531333.000000 0 0 1
-15.718527 -24.459935 1.185124 29.099228 0.999624 1.530058 0.009799 -0.002080 592799.000000 0 0 1
-14.307527 -24.569135 0.528324 28.436365 1.043465 1.552216 0.023923 -0.008187 -164835.000000 0 0 1
-14.317827 -24.870535 -0.874576 28.710775 1.048440 1.601263 0.027941 -0.001131 -55573.500000 0 0 1
-14.680327 -23.803935 -1.685076 28.017473 1.018174 1.630976 0.032488 -0.004515 -341360.000000 0 0 1
-14.900327 -24.162135 -3.133276 28.559516 1.018202 1.680728 0.013686 -0.005053 -321163.000000 0 0 1
-13.777127 -24.277335 -3.976576 28.195946 1.054625 1.712302 0.037831 -0.004974 -289183.000000 0 0 1
-14.130127 -24.323235 -5.330976 28.630396 1.044516 1.758089 0.023117 -0.004797 41809.500000 0 0 1
-13.002727 -24.808435 -6.275876 28.703937 1.088035 1.791219 0.044444 -0.010743 315067.000000 0 0 1
-12.806127 -26.212535 -6.243376 29.834102 1.116351 1.781624 0.016121 -0.008384 -116369.000000 0 0 1
-11.659227 -26.589945 -6.988276 29.863000 1.157561 1.806998 0.027590 -0.012817 236448.000000 0 0 1
22.252273 12.699865 28.485063 38.312518 0.518613 0.732519 0.017612 0.018561 -253151.000000 0 0 1
23.281773 11.852265 28.955973 38.999558 0.470884 0.734047 0.010031 0.018210 283237.000000 0 0 1
22.849873 10.830465 29.835343 39.109632 0.442619 0.703065 0.014645 0.015820 -655203.000000 0 0 1
22.900373 11.282765 31.282893 40.377559 0.457782 0.684462 0.029990 0.009335 -190151.000000 0 0 1
21.882373 12.175465 31.651873 40.359897 0.507747 0.669325 0.029973 0.016912 -18819.700000 0 0 1
22.158673 12.829165 32.906593 41.694581 0.524811 0.661243 0.023752 0.015963 -544271.000000 0 0 1
21.166573 13.940565 33.229025 41.791521 0.582406 0.651601 0.015896 0.022897 -224946.000000 0 0 1
19.955473 13.476065 33.771173 41.476708 0.593960 0.619412 0.022480 0.025738 -128127.000000 0 0 1
19.061273 14.492365 34.152385 41.710264 0.650063 0.611478 0.016965 0.017494 49676.600000 0 0 1
17.884373 13.972065 -34.065913 40.933554 0.663199 2.553904 0.019911 0.024781 443924.000000 0 0 1
16.920673 13.257465 34.239374 40.427766 0.664603 0.560617 0.008790 0.021237 130239.000000 0 0 1
15.936573 12.708365 -34.015346 39.655021 0.673174 2.601734 0.005447 0.014854 242190.000000 0 0 1
14.626973 12.306065 34.320551 39.284702 0.699437 0.508170 0.003617 0.018073 432816.000000 0 0 1
14.686673 11.265065 33.435542 38.216953 0.654309 0.505592 0.000186 0.027776 134477.000000 0 0 1
13.418673 11.020865 32.841503 37.149489 0.687599 0.486368 0.009069 0.019573 249096.000000 0 0 1
13.563173 9.858365 31.857813 36.000934 0.628518 0.484482 0.010962 0.016017 -36791.900000 0 0 1
13.829973 8.568365 32.368783 36.227381 0.554671 0.465740 0.002222 0.018976 45180.700000 0 0 1
14.454073 7.756265 31.403693 35.429815 0.492508 0.481366 0.008915 0.004271 199380.000000 0 0 1
15.069773 6.455065 31.929963 35.892735 0.404701 0.474341 0.035915 -0.003638 339248.000000 0 0 1
14.058673 5.440365 32.102883 35.466025 0.369228 0.439010 0.022971 0.003081 183440.000000 0 0 1
14.516473 4.243565 32.596363 35.934088 0.284403 0.434418 0.031570 -0.006753 -267726.000000 0 0 1
13.390673 3.232665 32.882283 35.651154 0.236879 0.396717 0.006172 0.002469 -125242.000000 0 0 1
13.852973 1.949365 33.307088 36.125711 0.139800 0.397640 0.023233 -0.013320 -380473.000000 0 0 1
12.835373 0.988065 33.430984 35.823927 0.076828 0.367572 0.019054 -0.016877 -410762.000000 0 0 1
13.282573 -0.388435 33.871170 36.384527 -0.029236 0.373866 0.006709 -0.015044 -222401.000000 0 0 1
13.574173 -1.279435 32.839483 35.557373 -0.093977 0.393525 -0.001096 -0.005318 6543.650000 0 0 1
13.877473 -2.563835 33.368625 36.230134 -0.182688 0.400109 0.004788 -0.008648 -696049.000000 0 0 1
14.182573 -3.626835 32.250123 35.417083 -0.250359 0.426109 0.013337 -0.009623 -576952.000000 0 0 1
14.695973 -4.939035 32.635263 36.130681 -0.324221 0.443498 0.019820 -0.007319 13713.500000 0 0 1
15.880773 -5.081135 33.362324 37.296938 -0.309662 0.463472 0.015321 -0.008754 43429.700000 0 0 1
17.186973 -4.596835 32.661383 37.192592 -0.261343 0.498775 0.017080 -0.010420 -665355.000000 0 0 1
17.253973 -3.201235 32.634503 37.053452 -0.183450 0.493371 0.012396 -0.012721 145306.000000 0 0 1
18.065273 -2.658635 31.595093 36.492086 -0.146119 0.524036 0.039454 -0.026024 -232356.000000 0 0 1
18.083173 -1.107635 31.637563 36.457693 -0.061176 0.520062 0.042453 -0.034287 -545166.000000 0 0 1
18.579473 -0.686935 32.886963 37.778579 -0.036956 0.514541 0.018202 -0.022727 74414.500000 0 0 1
18.623873 0.719365 32.952573 37.858132 0.038607 0.514736 0.009055 -0.019232 289245.000000 0 0 1
19.675173 1.494465 32.064773 37.649642 0.075811 0.551648 0.036509 -0.028965 -242512.000000 0 0 1
19.626973 1.338265 30.672743 36.439349 0.068080 0.570284 0.042212 -0.031764 4022.860000 0 0 1
20.531273 2.141965 29.938443 36.365252 0.103951 0.603647 0.037054 -0.023457 -29228.600000 0 0 1
20.178973 3.667665 29.923003 36.277112 0.179794 0.600868 0.038582 -0.016716 -204021.000000 0 0 1
20.123473 4.286165 31.217113 37.387612 0.209857 0.582739 0.033255 -0.021600 427738.000000 0 0 1
19.381473 5.476965 31.157373 37.100142 0.275407 0.573848 0.045636 -0.014420 -223922.000000 0 0 1
19.164473 6.171665 32.506493 38.236613 0.311549 0.554544 0.040524 -0.007456 -20350.400000 0 0 1
18.171173 5.542265 33.300472 38.338358 0.296040 0.518438 0.038819 -0.011572 175020.000000 0 0 1
17.933773 6.344165 34.416954 39.324234 0.340016 0.504927 0.028781 -0.004533 267392.000000 0 0 1
16.860373 5.682665 -33.741936 38.145552 0.325085 2.656341 0.030560 -0.002611 244936.000000 0 0 1
17.227173 4.455465 -33.174986 37.645801 0.253084 2.649276 0.010442 -0.014261 404129.000000 0 0 1
16.100473 3.836565 -32.535516 36.503483 0.233926 2.670998 0.007984 -0.009749 636108.000000 0 0 1
15.757173 2.360465 -32.954696 36.604266 0.148697 2.691247 0.010109 -0.024190 -95613.700000 0 0 1
16.872373 1.574865 -32.599036 36.740364 0.093070 2.662213 -0.013369 -0.016512 131337.000000 0 0 1
16.747873 0.273065 -33.084056 37.082618 0.016303 2.672926 -0.003951 -0.015769 -22482.700000 0 0 1
17.779873 -0.651735 -32.366356 36.934126 -0.036639 2.638979 -0.009672 -0.014080 -71181.000000 0 0 1
17.649073 -0.769535 -30.929606 35.619131 -0.043574 2.622647 -0.008432 -0.012560 176737.000000 0 0 1
18.182573 0.309865 -30.134486 35.196438 0.017040 2.598627 0.000023 -0.004864 -279098.000000 0 0 1
17.844273 0.142465 -28.657946 33.759684 0.007984 2.584661 -0.018426 0.009027 557833.000000 0 0 1
16.431573 -0.121835 -28.547756 32.939123 -0.007415 2.619309 -0.015507 -0.002350 994578.000000 0 0 1
15.965273 -0.222935 -27.168626 31.513075 -0.013963 2.610271 -0.006917 -0.002394 130116.000000 0 0 1
16.494973 -1.355735 -26.200826 30.990409 -0.082006 2.578203 -0.000848 0.003836 -564338.000000 0 0 1
17.798373 -1.133235 -25.714046 31.293425 -0.063585 2.535197 0.005059 0.003664 -128878.000000 0 0 1
18.556373 -2.310135 -25.493826 31.616623 -0.123856 2.508738 -0.002954 0.010220 274502.000000 0 0 1
19.300573 -2.863135 -26.698806 33.068655 -0.147271 2.510486 0.008147 0.007640 -306966.000000 0 0 1
20.428173 -2.110435 -27.123346 34.021171 -0.102945 2.493521 0.018295 0.003893 -44481.200000 0 0 1
20.745573 -2.502835 -28.449796 35.299205 -0.120064 2.508094 0.015660 0.003037 -583076.000000 0 0 1
22.103473 -1.977035 -28.912556 36.447333 -0.089207 2.486956 0.005731 -0.006868 -343185.000000 0 0 1
23.005573 -3.063535 -28.788586 36.978701 -0.132386 2.463097 0.004079 -0.004202 -332083.000000 0 0 1
24.329173 -2.644235 -29.046356 37.981462 -0.108261 2.441451 0.012905 -0.012252 805743.000000 0 0 1
25.454673 -3.655535 -28.547146 38.421906 -0.142634 2.408325 0.035827 -0.010987 686503.000000 0 0 1
25.579073 -4.771335 -29.423746 39.278639 -0.184413 2.417503 0.027415 -0.008740 -5041.750000 0 0 1
26.704273 -5.577435 -29.163506 39.934147 -0.205899 2.389543 0.028138 -0.005126 -379409.000000 0 0 1
26.663173 -6.617935 -27.960756 39.198543 -0.243289 2.365008 0.010968 0.003263 -177769.000000 0 0 1
26.881973 -6.103735 -26.651516 38.343179 -0.223271 2.339325 0.010829 0.011339 256893.000000 0 0 1
26.628973 -7.129435 -25.674156 37.670855 -0.261597 2.320660 -0.007430 0.015240 -243050.000000 0 0 1
26.722873 -6.656135 -24.236976 36.685789 -0.244113 2.292499 -0.014897 0.017983 688623.000000 0 0 1
28.023473 -6.489835 -23.647776 37.237754 -0.227574 2.258868 -0.023190 0.019154 779828.000000 0 0 1
27.917573 -5.926735 -22.347776 36.248313 -0.209188 2.235110 -0.020073 0.016412 319438.000000 0 0 1
29.341073 -5.554235 -21.828376 36.989541 -0.187085 2.202007 -0.020959 0.019237 222794.000000 0 0 1
29.784073 -4.418835 -22.562676 37.625676 -0.147288 2.213875 -0.007342 0.010818 -36294.200000 0 0 1
31.091773 -4.066435 -22.152576 38.392328 -0.130050 2.185854 -0.016669 0.011006 -400205.000000 0 0 1
31.545373 -2.748235 -22.863976 39.056687 -0.086901 2.196176 -0.008277 -0.002830 130920.000000 0 0 1
30.763073 -1.570735 -22.542476 38.170631 -0.051015 2.202563 -0.003488 -0.006506 300969.000000 0 0 1
31.354773 -0.432335 -23.020376 38.900468 -0.013788 2.204057 -0.004608 -0.009495 -383360.000000 0 0 1
30.422073 0.787265 -22.806976 38.029994 0.025872 2.213935 0.004507 -0.004645 136190.000000 0 0 1
29.382873 0.731065 -23.771176 37.801541 0.024876 2.250859 0.009035 -0.007674 828051.000000 0 0 1
28.261373 1.548965 -23.374376 36.707846 0.054754 2.261095 0.007031 0.001851 773289.000000 0 0 1
27.097473 1.735765 -24.375476 36.489036 0.063969 2.302344 0.004212 0.001383 -127427.000000 0 0 1
26.198973 2.708565 -23.932876 35.587991 0.103018 2.308376 -0.003422 0.004912 -256088.000000 0 0 1
25.162773 2.925565 -24.868176 35.498595 0.115746 2.346950 0.008709 -0.000395 -215640.000000 0 0 1
24.128573 3.909465 -24.329576 34.487682 0.160630 2.353864 0.007899 0.000824 -534292.000000 0 0 1
24.720473 5.136165 -24.113876 34.913622 0.204855 2.333215 -0.010199 0.003800 -346479.000000 0 0 1
23.779573 6.077765 -23.647976 34.082754 0.250231 2.337604 0.001916 -0.004260 -223405.000000 0 0 1
24.308373 7.403465 -23.087676 34.332915 0.295639 2.308330 0.004210 -0.000757 69027.000000 0 0 1
24.923273 8.362565 -23.986376 35.587192 0.323728 2.310430 -0.007385 0.003030 307270.000000 0 0 1
24.916873 9.607865 -23.377376 35.491736 0.368028 2.289847 -0.001050 -0.000719 -34090.100000 0 0 1
25.856373 10.598365 -24.141776 36.928346 0.389006 2.283321 0.021014 -0.005981 -341644.000000 0 0 1
25.491573 11.082265 -25.455776 37.691291 0.410093 2.312270 0.032348 -0.009620 238584.000000 0 0 1
24.313373 11.871465 -25.483046 37.167962 0.454219 2.326249 0.045828 -0.015492 410419.000000 0 0 1
23.730773 12.179065 -26.916946 37.894606 0.474166 2.360736 0.041029 -0.020616 57680.200000 0 0 1
23.246473 11.040865 -27.682106 37.796801 0.443406 2.392626 0.031559 -0.003681 241437.000000 0 0 1
24.140973 10.001665 -28.049596 38.335359 0.392775 2.391594 0.018995 -0.013583 -347529.000000 0 0 1
25.065473 10.303665 -29.235136 39.863977 0.390013 2.394066 0.015518 -0.002758 302546.000000 0 0 1
26.142473 11.239265 -28.884006 40.546711 0.406034 2.363657 0.011355 -0.002815 1802530.000000 0 0 1
27.006773 11.685565 -29.956396 41.991712 0.408366 2.365118 0.010010 0.011540 972446.000000 0 0 1
27.966873 10.610965 -30.610186 42.798622 0.362633 2.367727 0.007316 0.006342 103726.000000 0 0 1
27.241873 9.680965 -31.455836 42.723651 0.341451 2.398327 0.002697 0.001552 494893.000000 0 0 1
27.990873 8.514465 -31.774176 43.192399 0.295294 2.397411 0.003677 -0.002051 -185452.000000 0 0 1
27.320073 7.535265 -32.792636 43.341938 0.269123 2.428898 0.004287 -0.004698 -589343.000000 0 0 1
26.204773 6.945365 -32.225846 42.112152 0.259085 2.442208 0.012965 -0.008992 -715201.000000 0 0 1
25.754773 5.899965 -33.041716 42.306890 0.225197 2.467063 0.005975 -0.004758 -820305.000000 0 0 1
24.389773 5.380565 -32.607406 41.073768 0.217130 2.487950 0.011449 -0.005164 103235.000000 0 0 1
23.291873 6.250465 -32.962986 40.842847 0.262177 2.509967 0.015929 -0.004059 658930.000000 0 0 1
22.809873 6.900865 -31.755896 39.703264 0.293784 2.497810 0.017637 -0.000282 963804.000000 0 0 1
21.320873 7.422965 -31.930406 39.105382 0.335030 2.526157 0.032665 -0.000662 1088500.000000 0 0 1
21.231973 8.479965 -32.829986 40.006430 0.379986 2.533287 0.042564 0.005560 -570823.000000 0 0 1
19.958273 9.036665 -32.881446 39.511814 0.425162 2.553847 0.031897 0.007755 -580085.000000 0 0 1
19.627773 10.055565 -33.966436 40.497934 0.473449 2.565725 0.026909 0.018188 -128902.000000 0 0 1
19.296173 9.447065 33.893537 40.129306 0.455279 0.564964 0.028384 0.012883 -97496.600000 0 0 1
18.882173 10.492665 33.028703 39.465525 0.507202 0.579201 0.027283 0.013974 -217883.000000 0 0 1
17.945973 10.002865 31.912303 37.954055 0.508497 0.572011 0.017329 0.015287 -11795.800000 0 0 1
18.457473 8.926665 31.073783 37.228264 0.450469 0.583240 0.019195 0.007138 809829.000000 0 0 1
19.509873 9.260665 30.124963 37.066271 0.443175 0.621970 0.032398 0.005638 109120.000000 0 0 1
19.087873 10.162465 28.863553 36.065597 0.489234 0.642989 0.036461 0.006275 -63005.400000 0 0 1
18.157073 9.583865 27.950093 34.680505 0.485664 0.633550 0.018406 0.010936 -510152.000000 0 0 1
16.871673 9.905765 28.343993 34.440666 0.530898 0.604159 0.005294 0.006840 -645449.000000 0 0 1
15.735573 9.161565 27.534283 33.010290 0.527243 0.584275 0.019506 0.003133 -58267.700000 0 0 1
15.564473 9.516665 26.192263 31.919498 0.548785 0.608384 0.022346 0.002719 1138600.000000 0 0 1
14.338473 9.035665 25.573943 30.679987 0.562308 0.585256 0.027858 0.002652 947466.000000 0 0 1
14.115373 7.514565 25.440053 30.048440 0.489205 0.561167 0.034617 -0.000945 -379420.000000 0 0 1
13.928973 6.900165 26.696243 30.892037 0.459947 0.527280 0.034274 -0.004968 -354485.000000 0 0 1
13.633973 5.550965 26.551473 30.359169 0.386648 0.506231 0.028712 -0.005794 -173063.000000 0 0 1
13.920573 4.715365 27.830253 31.472845 0.326603 0.485884 0.032935 -0.007389 -349543.000000 0 0 1
15.276873 4.425765 28.024873 32.223652 0.281984 0.516204 0.023657 -0.006240 -211594.000000 0 0 1
15.482573 3.847065 29.311973 33.372170 0.243545 0.498427 0.029989 -0.009414 109194.000000 0 0 1
16.288973 2.478365 29.144173 33.479184 0.150992 0.514546 0.044684 -0.012598 259507.000000 0 0 1
15.589573 1.249265 28.879443 32.842315 0.079964 0.496329 0.025557 -0.019681 415179.000000 0 0 1
14.675873 0.857365 29.919393 33.335963 0.058354 0.456704 0.011721 -0.013373 277401.000000 0 0 1
14.436073 -0.658535 29.933313 33.239090 -0.045586 0.449774 0.015176 -0.011588 -427506.000000 0 0 1
13.706773 -1.152735 28.824993 31.938764 -0.083902 0.445238 0.010621 -0.015241 419554.000000 0 0 1
14.417573 -1.313135 27.572163 31.141851 -0.090828 0.483500 0.014700 -0.013576 -1655800.000000 0 0 1
15.522373 -2.348835 27.442543 31.615728 -0.150180 0.519630 0.016158 -0.011608 -49522.500000 0 0 1
16.722773 -2.064435 28.140243 32.799181 -0.122829 0.539519 0.016473 -0.020562 61143.800000 0 0 1
17.433573 -0.928435 27.755133 32.789310 -0.053205 0.561478 0.012971 -0.021749 -1841750.000000 0 0 1
18.891173 -0.814235 28.226733 33.974812 -0.043075 0.590229 0.049380 -0.025133 -312875.000000 0 0 1
19.702973 -1.624335 27.480523 33.852987 -0.082255 0.623636 0.032033 -0.020570 -499130.000000 0 0 1
21.096273 -1.497435 27.669343 34.826536 -0.070862 0.652629 0.044912 -0.030670 414093.000000 0 0 1
21.994973 -2.127135 26.575753 34.562613 -0.096410 0.693652 0.041913 -0.014314 -76409.600000 0 0 1
22.120573 -1.506335 25.341213 33.671440 -0.067992 0.718791 0.040911 -0.002675 189866.000000 0 0 1
21.555673 -2.310635 24.318653 32.578873 -0.106786 0.728078 0.033563 0.011124 -155443.000000 0 0 1
21.542973 -1.396135 23.066853 31.593173 -0.064716 0.752297 0.024015 -0.009459 -1087350.000000 0 0 1
20.645873 -0.373635 23.257053 31.101161 -0.018095 0.726073 0.006371 -0.001470 -538134.000000 0 0 1
20.391073 0.291865 22.071053 30.050165 0.014312 0.745906 0.014191 0.011687 121974.000000 0 0 1
-29.318637 -28.093209 -10.339676 41.901310 0.764057 1.820134 -0.018690 0.013181 -99420.700000 0 0 1
-29.183897 -26.948709 -9.573176 40.860475 0.745599 1.807284 -0.013857 0.012721 -68635.400000 0 0 1
-29.782407 -27.017209 -8.268876 41.052353 0.736753 1.773607 -0.002432 0.006486 -306793.000000 0 0 1
-30.234057 -25.639809 -7.657676 40.374967 0.703357 1.761616 0.017986 -0.001303 728350.000000 0 0 1
-29.211777 -24.870209 -6.972376 38.993195 0.705292 1.750573 0.013367 -0.007278 410108.000000 0 0 1
-28.609097 -25.558909 -5.857476 38.807838 0.729148 1.722311 0.001568 -0.002021 313841.000000 0 0 1
-27.328907 -24.940809 -5.238776 37.367872 0.739742 1.711454 -0.006337 0.006187 89511.100000 0 0 1
-27.512197 -23.899209 -4.315476 36.697636 0.715238 1.688665 0.000833 -0.006281 -243352.000000 0 0 1
-27.987887 -22.687809 -4.832976 36.351288 0.681189 1.704143 0.010537 -0.016512 -206463.000000 0 0 1
-28.128277 -21.437109 -3.878976 35.578028 0.651213 1.680041 0.009433 -0.018708 -713224.000000 0 0 1
-26.928787 -20.734709 -3.796176 34.197934 0.656168 1.682032 0.006869 -0.026126 -304220.000000 0 0 1
-26.937007 -19.557709 -2.931976 33.417103 0.627998 1.658648 0.008393 -0.015334 -478243.000000 0 0 1
-25.856687 -18.559009 -3.323276 32.000769 0.622549 1.674834 0.008497 -0.015359 -246773.000000 0 0 1
-26.088997 -17.802909 -4.480676 31.900718 0.598810 1.711719 0.004331 -0.016548 219643.000000 0 0 1
-25.146347 -16.729509 -4.443376 30.528001 0.587046 1.716866 0.007962 -0.016104 109316.000000 0 0 1
-25.434057 -15.541809 -5.420076 30.295483 0.548514 1.750672 -0.005056 -0.020591 56839.700000 0 0 1
-26.676557 -14.885109 -5.204776 30.988624 0.508953 1.739554 -0.013054 -0.007810 268748.000000 0 0 1
-26.819947 -13.755209 -6.044176 30.741623 0.473892 1.768698 0.008711 -0.019113 -1579890.000000 0 0 1
-28.076487 -13.003209 -5.905676 31.499993 0.433723 1.759394 0.015530 -0.010400 -1687460.000000 0 0 1
-29.130937 -13.573709 -6.637076 32.816274 0.436043 1.774451 0.018414 -0.006285 -775403.000000 0 0 1
-30.297607 -12.922209 -6.270976 33.529891 0.403148 1.758931 0.013865 -0.011175 -622729.000000 0 0 1
-31.597137 -13.606609 -6.781576 35.064350 0.406628 1.765427 -0.008365 -0.007807 127452.000000 0 0 1
-31.953687 -14.798609 -6.071476 35.733734 0.433716 1.741533 -0.003055 -0.009909 201822.000000 0 0 1
-31.799457 -15.783309 -7.052276 36.194653 0.460714 1.766894 -0.009147 -0.013197 -930651.000000 0 0 1
-32.485087 -17.108509 -6.762676 37.332502 0.484745 1.752949 -0.008617 -0.008396 1204460.000000 0 0 1
-33.929617 -17.179209 -6.729776 38.621678 0.468690 1.745939 0.012350 -0.010625 1511630.000000 0 0 1
-34.564990 -16.495709 -5.625676 38.710401 0.445272 1.716640 0.013173 -0.009552 -618018.000000 0 0 1
34.064186 -16.420109 -5.574476 38.223861 -0.449172 1.717156 0.030553 -0.023419 -812441.000000 0 0 1
33.431486 -15.546609 -6.492676 37.436829 -0.435281 1.745108 0.026922 -0.018531 747727.000000 0 0 1
32.006316 -15.470609 -6.406476 36.121834 -0.450248 1.749097 0.031867 -0.025700 607082.000000 0 0 1
31.459176 -14.716109 -5.180176 35.115208 -0.437545 1.718856 0.042612 -0.031458 -942269.000000 0 0 1
31.590906 -15.357309 -3.887676 35.340434 -0.452491 1.681026 0.034805 -0.025760 443759.000000 0 0 1
30.980346 -14.593909 -2.845076 34.363621 -0.440237 1.653684 0.050398 -0.028224 -787089.000000 0 0 1
30.916676 -15.270509 -1.433976 34.512108 -0.458776 1.612358 0.050929 -0.025235 473410.000000 0 0 1
32.110046 -15.617409 -0.695076 35.713326 -0.452685 1.590260 0.066763 -0.021505 759332.000000 0 0 1
33.087466 -16.431709 -1.329976 36.966881 -0.460935 1.606782 0.050944 -0.031088 -722399.000000 0 0 1
32.768056 -17.903809 -1.828876 37.384979 -0.500060 1.619736 0.041960 -0.027813 -815699.000000 0 0 1
32.545466 -18.957409 -0.829676 37.673320 -0.527445 1.592821 0.054107 -0.027705 252545.000000 0 0 1
32.335446 -20.250409 -1.322976 38.176045 -0.559505 1.605458 0.040397 -0.025831 -454239.000000 0 0 1
33.401036 -20.860609 -2.247376 39.444200 -0.558275 1.627803 0.032125 -0.027627 -109896.000000 0 0 1
33.425896 -20.363609 -3.592776 39.304899 -0.547169 1.662332 0.025413 -0.031684 -479326.000000 0 0 1
34.426265 -20.935909 -4.368176 40.528520 -0.546382 1.678786 0.027846 -0.029240 -437941.000000 0 0 1
34.634817 -20.291109 -5.773776 40.554114 -0.529957 1.713654 0.043692 -0.028694 -617082.000000 0 0 1
33.538326 -20.326509 -6.628176 39.773345 -0.544869 1.738226 0.033675 -0.034156 -311547.000000 0 0 1
33.606426 -19.460209 -7.735576 39.597105 -0.524882 1.767418 0.033939 -0.031297 -691178.000000 0 0 1
32.511966 -19.862809 -8.689176 39.077626 -0.548424 1.795027 0.038694 -0.033288 -611649.000000 0 0 1
32.633356 -21.069509 -9.408576 39.967254 -0.573306 1.808434 0.046446 -0.027846 -281220.000000 0 0 1
31.487506 -21.255909 -10.173076 39.328974 -0.593790 1.832437 0.058397 -0.037442 -688278.000000 0 0 1
31.488436 -22.650109 -10.812376 40.267313 -0.623572 1.842647 0.045934 -0.024502 -95846.400000 0 0 1
31.324826 -23.655209 -9.827976 40.464833 -0.646794 1.816127 0.031006 -0.022610 85584.800000 0 0 1
31.150406 -24.949109 -10.367176 41.234502 -0.675304 1.824943 0.019046 -0.003801 -460358.000000 0 0 1
30.070156 -25.727009 -9.637376 40.730483 -0.707717 1.809675 0.003852 -0.002653 -381558.000000 0 0 1
28.792636 -25.151109 -9.754076 39.455496 -0.717994 1.820604 0.000597 -0.008461 -187794.000000 0 0 1
27.849486 -25.901609 -9.002976 39.083766 -0.749175 1.803234 -0.022024 0.005266 660686.000000 0 0 1
26.413366 -25.282509 -9.032476 37.662405 -0.763526 1.812984 -0.002231 -0.004432 306676.000000 0 0 1
25.778546 -25.406309 -10.269876 37.622923 -0.778126 1.847274 0.004908 -0.002144 -287094.000000 0 0 1
24.749126 -24.454809 -10.372376 36.306240 -0.779417 1.860524 0.020894 -0.015820 -432562.000000 0 0 1
24.075726 -24.503309 -11.765476 36.310868 -0.794200 1.900773 0.044471 -0.023298 -274856.000000 0 0 1
23.430826 -25.750409 -11.970576 36.815511 -0.832527 1.901967 0.041073 -0.016912 264240.000000 0 0 1
22.488726 -25.598709 -13.012576 36.474153 -0.849982 1.935595 0.051552 -0.005148 -85560.100000 0 0 1
21.965326 -26.980509 -13.379976 37.275289 -0.887506 1.937939 0.061280 -0.007959 344.542000 0 0 1
22.703626 -27.657709 -14.398676 38.571043 -0.883453 1.953363 0.049016 -0.008348 372854.000000 0 0 1
22.394926 -29.024709 -14.255276 39.334200 -0.913626 1.941653 0.063663 -0.013754 91400.400000 0 0 1
23.344626 -29.903409 -15.119776 40.838622 -0.907955 1.950055 0.057865 -0.014387 -5227.520000 0 0 1
23.249626 -29.756309 -16.551076 41.230100 -0.907541 1.983876 0.052167 -0.011642 182184.000000 0 0 1
23.167726 -30.984609 -17.193776 42.336928 -0.928758 1.988998 0.046533 -0.011990 -253352.000000 0 0 1
22.934026 -30.937409 -18.735176 42.826389 -0.932884 2.023577 0.038144 -0.004477 -350054.000000 0 0 1
21.623426 -30.548509 -19.023376 41.984197 -0.954829 2.041045 0.050558 -0.004617 -492460.000000 0 0 1
21.573526 -30.522509 -20.423876 42.593137 -0.955516 2.070894 0.036918 0.000645 141252.000000 0 0 1
20.174726 -30.247409 -21.019876 41.997149 -0.982570 2.094981 0.030943 0.013158 -94218.500000 0 0 1
20.251126 -30.282209 -22.419476 42.775614 -0.981355 2.122476 0.011642 0.019308 -42307.000000 0 0 1
18.943426 -30.318809 -22.927476 42.470610 -1.012335 2.141047 0.021364 0.017883 -462241.000000 0 0 1
18.864926 -30.524609 -24.472976 43.434591 -1.017230 2.169345 0.023739 0.021953 -332720.000000 0 0 1
19.472026 -29.426009 -25.129126 43.318850 -0.986220 2.189644 0.020754 0.017269 381463.000000 0 0 1
19.424726 -29.629009 -26.532606 44.262595 -0.990496 2.213593 0.014865 0.009730 -477926.000000 0 0 1
20.109126 -28.490509 -27.271246 44.269706 -0.956176 2.234483 0.001439 0.002838 -74814.000000 0 0 1
19.300226 -27.346209 -27.458736 43.293141 -0.956206 2.257836 0.029788 -0.006565 -219414.000000 0 0 1
18.207626 -27.422909 -28.340386 43.436287 -0.984672 2.281621 0.031775 -0.008103 -322988.000000 0 0 1
17.477726 -26.060609 -28.410976 42.329774 -0.980036 2.306598 0.031265 -0.004596 -643320.000000 0 0 1
16.745426 -25.825709 -27.264556 41.118518 -0.995546 2.295712 0.037374 0.002974 -333916.000000 0 0 1
16.124226 -24.569409 -27.223736 40.059684 -0.990024 2.317985 0.026024 0.003680 -23669.700000 0 0 1
15.134926 -24.334809 -26.049256 38.727415 -1.014396 2.308555 0.031326 0.002660 697910.000000 0 0 1
13.870926 -24.971909 -26.353416 38.865169 -1.063770 2.315934 0.051206 -0.001543 1636260.000000 0 0 1
12.647026 -24.478009 -25.740276 37.705198 -1.093903 2.322209 0.044872 -0.003635 1436520.000000 0 0 1
12.522026 -24.593109 -24.232176 36.726292 -1.099841 2.291355 0.024616 0.009364 -366848.000000 0 0 1
13.553126 -23.886109 -23.552276 36.179319 -1.054688 2.279681 0.014159 0.007158 -39079.800000 0 0 1
13.540326 -24.092309 -22.191176 35.443308 -1.058773 2.247342 0.023987 0.007222 295416.000000 0 0 1
14.810126 -23.400909 -21.626376 35.137480 -1.006546 2.233790 0.008266 0.004376 308568.000000 0 0 1
14.755126 -21.967609 -21.544376 34.124034 -0.979333 2.254095 0.006393 0.004034 -488897.000000 0 0 1
15.970626 -21.488009 -21.065276 34.066718 -0.931639 2.237442 0.012904 0.001279 -783197.000000 0 0 1
15.897126 -20.028609 -20.623676 32.851177 -0.899896 2.249508 0.018156 0.000852 312707.000000 0 0 1
15.201526 -19.846709 -19.380576 31.632024 -0.917167 2.230254 0.018858 0.000464 1554520.000000 0 0 1
13.746826 -19.845009 -19.427576 30.987583 -0.964980 2.248425 0.010180 -0.000461 1026960.000000 0 0 1
13.109626 -20.042909 -18.044376 29.986330 -0.991560 2.216491 0.014188 0.001423 -111323.000000 0 0 1
13.175326 -18.927109 -17.157076 28.743520 -0.962687 2.210431 0.035777 -0.004200 -147441.000000 0 0 1
12.513426 -19.135409 -15.943876 27.873946 -0.991656 2.179737 0.037567 -0.001982 -159262.000000 0 0 1
12.515026 -17.871109 -15.074976 26.518999 -0.959873 2.175428 0.036213 -0.003909 -388566.000000 0 0 1
11.530226 -16.939609 -15.407776 25.637785 -0.973164 2.215522 0.020392 -0.007622 -345985.000000 0 0 1
11.929526 -15.662509 -15.019476 24.763126 -0.919874 2.222480 0.027006 -0.006031 -404334.000000 0 1 0
10.840626 -14.736509 -14.464176 23.321583 -0.936555 2.239801 0.031411 -0.006154 -191046.000000 0 1 0
9.995626 -14.298809 -15.514176 23.346480 -0.960706 2.297646 0.024719 0.005631 -290907.000000 0 1 0
8.762426 -13.756809 -15.122376 22.242216 -1.003649 2.318416 0.021086 0.002582 -79092.100000 0 1 0
8.023626 -13.203709 -16.365876 22.506852 -1.024749 2.384959 0.015679 0.006565 -173929.000000 0 1 0
8.462926 -11.967709 -16.923776 22.388867 -0.955290 2.427826 0.017229 0.009146 53945.600000 0 1 0
9.703526 -12.016009 -17.613476 23.425999 -0.891469 2.421701 0.029326 0.004377 -65513.000000 0 1 0
9.975226 -10.948209 -18.690976 23.847872 -0.831867 2.471491 0.037554 0.006297 -128090.000000 0 1 0
9.139026 -11.018909 -19.830076 24.457515 -0.878387 2.516309 0.032307 0.008258 161297.000000 0 1 0
9.137926 -9.795709 -20.552976 24.533292 -0.820126 2.563962 0.023824 -0.002325 127165.000000 0 1 0
8.734826 -9.976609 -22.063276 25.741369 -0.851666 2.600436 0.026016 0.001722 -167116.000000 0 0 1
9.798826 -10.502209 -22.786176 26.935538 -0.820032 2.579145 0.017125 0.000220 -820654.000000 0 0 1
9.464326 -10.595109 -24.172576 28.038246 -0.841710 2.610252 0.022892 -0.003309 -27362.000000 0 0 1
10.550526 -11.175809 -25.081966 29.416276 -0.814170 2.591844 0.047638 -0.007878 -140391.000000 0 0 1
10.489226 -12.585209 -24.982076 29.874997 -0.875985 2.561150 0.029812 -0.005467 -645666.000000 0 0 1
11.618226 -13.227209 -25.465996 30.958992 -0.850068 2.536715 0.036483 -0.011828 -528939.000000 0 0 1
11.619626 -14.696609 -25.117616 31.335294 -0.901793 2.500723 0.024404 -0.007154 237307.000000 0 0 1
10.570626 -15.432809 -25.742316 31.821008 -0.970246 2.513198 0.022094 -0.007180 -60393.400000 0 0 1
10.346926 -16.672509 -25.130516 31.883762 -1.015369 2.478661 0.017980 -0.011055 -331864.000000 0 0 1
9.118626 -17.395509 -25.693566 32.340569 -1.087981 2.488928 0.024757 -0.010309 -50864.800000 0 0 1
9.249726 -17.844309 -27.029776 33.683610 -1.092571 2.502204 0.016279 -0.013863 -351508.000000 0 0 1
8.264226 -18.814509 -27.217826 34.104153 -1.156920 2.494898 0.022804 -0.015640 -460053.000000 0 0 1
8.497926 -19.759209 -28.412906 35.636138 -1.164636 2.493615 0.024609 -0.012818 -438479.000000 0 0 1
9.335026 -20.845109 -28.120376 36.227294 -1.149750 2.459445 0.019025 -0.013846 -213648.000000 0 0 1
9.181826 -21.924709 -29.086376 37.563494 -1.174198 2.456445 0.028817 -0.013864 94866.300000 0 0 1
10.115026 -23.169209 -28.933256 38.422120 -1.159165 2.423461 0.028653 -0.009436 40256.800000 0 0 1
9.940426 -24.031809 -30.000516 39.703537 -1.178590 2.427386 0.035026 -0.007354 -4881.590000 0 0 1
10.437326 -25.363109 -29.853806 40.539793 -1.180402 2.398541 0.042305 -0.012360 92946.600000 0 0 1
9.768026 -26.284309 -28.798716 40.195090 -1.214984 2.369530 0.035678 -0.015860 20179.500000 0 0 1
10.096426 -25.874009 -27.528486 39.105239 -1.198754 2.351753 0.036705 -0.007230 -566006.000000 0 0 1
9.303426 -26.382909 -26.493226 38.529244 -1.231780 2.328993 0.026060 -0.001083 126078.000000 0 0 1
8.381026 -25.383109 -25.763666 37.125602 -1.251885 2.337770 0.016457 0.008335 48395.500000 0 0 1
9.151226 -24.330409 -25.176796 36.188186 -1.211041 2.340216 0.020015 0.008844 128564.000000 0 0 1
8.480126 -23.091209 -25.296366 35.284878 -1.218842 2.370168 0.002174 0.014773 -212277.000000 0 0 1
9.487826 -21.919509 -25.085546 34.637672 -1.162297 2.380709 0.012183 0.003845 389405.000000 0 0 1
9.937426 -21.704609 -23.732776 33.661360 -1.141435 2.353283 0.004771 0.003297 -12853.900000 0 0 1
11.087026 -20.868209 -23.783676 33.527116 -1.082433 2.359423 0.017798 -0.004309 204879.000000 0 0 1
11.801026 -20.645609 -22.392676 32.664006 -1.051521 2.326150 0.006451 0.001064 93805.800000 0 0 1
11.080626 -20.005309 -21.343376 31.281502 -1.064976 2.321701 -0.008342 0.007974 -311476.000000 0 0 1
10.567126 -18.696309 -21.560576 30.431473 -1.056359 2.358161 0.000221 0.002638 629010.000000 0 0 1
11.672226 -17.569809 -21.555176 30.158990 -0.984410 2.367017 0.002586 0.001526 519211.000000 0 0 1
12.677726 -17.682809 -22.510576 31.307068 -0.948784 2.373195 0.008744 0.001765 -862572.000000 0 0 1
13.536626 -16.596709 -22.459776 31.034377 -0.886603 2.379954 0.010285 0.007584 320178.000000 0 0 1
14.838926 -16.769909 -23.312976 32.325198 -0.846412 2.376331 0.015924 0.000475 340198.000000 0 0 1
15.846426 -17.614409 -22.796176 32.879207 -0.838186 2.336898 0.018793 0.002786 -128578.000000 0 0 1
17.013926 -17.404809 -23.543876 33.863183 -0.796754 2.339584 0.017692 -0.001768 -587412.000000 0 0 1
18.292626 -17.657009 -22.749076 34.116134 -0.767719 2.300720 0.015626 0.002300 -434438.000000 0 0 1
18.555326 -19.056609 -22.663576 34.944129 -0.798725 2.276495 0.015286 0.006739 -14286.600000 0 0 1
19.936826 -19.180009 -22.399676 35.596281 -0.766053 2.251410 0.011495 0.001619 62863.900000 0 0 1
20.218126 -20.612809 -21.878276 36.225950 -0.795064 2.219231 0.024205 -0.004200 -393716.000000 0 0 1
19.716126 -20.841209 -20.633476 35.338675 -0.813132 2.194294 0.021401 -0.005658 45441.400000 0 0 1
19.870026 -22.234809 -20.346176 36.099467 -0.841503 2.169551 0.031990 0.009524 -178411.000000 0 0 1
-15.751227 13.937265 29.804013 36.477770 -0.724374 0.614528 0.012642 0.003132 229893.000000 0 0 1
-17.035427 14.196865 29.235663 36.694424 -0.694762 0.648926 0.028443 -0.007113 431572.000000 0 0 1
-17.064827 13.764865 27.889443 35.475355 -0.678766 0.666219 0.028120 -0.012120 714738.000000 0 0 1
-18.315127 14.224765 27.046443 35.627207 -0.660351 0.708788 0.042599 -0.010057 698688.000000 0 0 1
-18.235927 15.623065 26.865173 36.032856 -0.708382 0.729400 0.041370 -0.005677 -306330.000000 0 0 1
-19.292327 16.062265 26.075473 36.195587 -0.694289 0.766411 0.045642 -0.010698 -973422.000000 0 0 1
-19.577327 17.561765 26.160693 37.095406 -0.731181 0.788053 0.055949 -0.004078 387330.000000 0 0 1
-18.533827 18.376765 25.629433 36.579722 -0.781143 0.794494 0.043863 -0.002897 1106940.000000 0 0 1
-17.298227 18.374665 26.379043 36.506313 -0.815564 0.763257 0.029167 0.009101 988916.000000 0 0 1
-16.173727 19.342965 25.792343 36.069165 -0.874395 0.774058 0.021565 0.000840 755742.000000 0 0 1
-16.393827 20.747065 25.927443 37.032831 -0.902075 0.795230 0.031247 -0.000549 -42525.800000 0 0 1
-15.298527 21.421165 25.351993 36.546337 -0.950618 0.804191 0.037396 -0.003191 31147.900000 0 0 1
-15.391527 22.915165 25.319783 37.457913 -0.979335 0.828539 0.029493 -0.000398 -53475.200000 0 0 1
-15.280227 23.590065 26.569483 38.677046 -0.996012 0.813502 0.025448 0.004595 131546.000000 0 0 1
-15.469427 24.970165 26.353133 39.462639 -1.016150 0.839548 0.021243 -0.004619 -274763.000000 0 0 1
-15.202527 25.901365 27.551163 40.756154 -1.040036 0.828475 0.013894 -0.001682 -99308.400000 0 0 1
-13.814927 25.983865 27.813053 40.491719 -1.082132 0.813606 0.011685 -0.002306 79967.300000 0 0 1
-13.449827 26.940865 28.790453 41.660511 -1.107761 0.807824 0.004445 0.001163 -856511.000000 0 0 1
-11.958327 27.097565 28.956063 41.421410 -1.155196 0.796714 0.010863 0.001127 -383361.000000 0 0 1
-11.209027 27.753965 27.962053 40.960972 -1.186957 0.819412 0.014679 0.001921 464046.000000 0 0 1
-9.800227 27.521965 27.993083 40.461286 -1.228709 0.806750 0.005271 0.000539 452892.000000 0 0 1
-9.096727 28.197165 26.812283 39.959092 -1.258726 0.835249 0.008910 -0.003688 264823.000000 0 0 1
-7.684727 27.975165 26.796823 39.493475 -1.302711 0.825060 0.017833 -0.009013 837075.000000 0 0 1
-7.124127 28.641665 25.621423 39.083954 -1.327010 0.855888 0.013835 -0.006059 -381100.000000 0 0 1
-5.634927 28.441465 25.344903 38.510173 -1.375206 0.852457 -0.003404 -0.001548 -685305.000000 0 0 1
-4.821927 28.898965 26.405803 39.441952 -1.405465 0.837281 0.009936 -0.008882 226991.000000 0 0 1
-3.423127 28.780465 26.208933 39.076094 -1.452413 0.835624 -0.004586 -0.005286 579023.000000 0 0 1
-2.790027 29.913165 25.316413 39.287433 -1.477795 0.870572 -0.015943 -0.001509 -694315.000000 0 0 1
-2.883927 29.693465 23.938953 38.250390 -1.473977 0.894577 -0.023175 0.008166 -34646.800000 0 0 1
-2.667427 30.872565 23.151253 38.680886 -1.484609 0.929145 -0.028493 0.013136 -481438.000000 0 0 1
-3.128327 30.734565 21.669953 37.735749 -1.469360 0.959102 -0.026747 0.017112 1070540.000000 0 0 1
-4.497827 30.338065 21.434953 37.417721 -1.423612 0.960811 -0.024993 0.022252 715143.000000 0 0 1
-4.740627 28.990065 21.647953 36.490153 -1.408705 0.935701 -0.018280 0.018954 -827998.000000 0 0 1
-6.106627 28.653365 21.065453 36.084062 -1.360817 0.947409 -0.012436 0.019414 -789394.000000 0 0 1
-6.153727 28.898365 19.683653 35.502535 -1.360986 0.983119 -0.015016 0.021097 -302811.000000 0 0 1
-7.132727 28.125265 19.078653 34.726090 -1.322427 0.989146 -0.019938 0.023843 -911349.000000 0 0 1
-6.608827 26.605665 18.671753 33.168846 -1.327325 0.972869 -0.035720 0.027850 959427.000000 0 0 1
-5.651127 26.606965 17.597453 32.396545 -1.361514 0.996565 -0.027533 0.026592 908145.000000 0 0 1
-4.382227 27.216865 17.815353 32.822986 -1.411155 0.997064 -0.022507 0.032194 -300111.000000 0 0 1
-3.549127 27.233765 16.529153 32.054440 -1.441206 1.029020 -0.011447 0.027881 -162395.000000 0 0 1
-3.148127 25.951065 16.049953 30.675225 -1.450076 1.020169 -0.008445 0.025997 -233468.000000 0 0 1
-2.405427 26.137765 14.901853 30.183340 -1.479026 1.054444 -0.009454 0.014630 -470483.000000 0 0 1
-1.930827 24.835365 14.258653 28.702484 -1.493207 1.050918 -0.009478 0.007975 425859.000000 0 0 1
-0.803027 24.302565 14.957253 28.547835 -1.537765 1.019330 -0.007282 0.006864 219458.000000 0 0 1
-0.253027 23.133665 14.401853 27.251492 -1.559859 1.013988 -0.008054 -0.009689 43625.300000 0 0 1
1.043373 22.715665 15.158653 27.329010 1.524897 0.982827 -0.013926 -0.004209 309579.000000 0 0 1
2.087673 23.642465 15.014553 28.084895 1.482723 1.006746 -0.007228 -0.011582 -359058.000000 0 0 1
3.233973 23.343965 15.750753 28.345819 1.433137 0.981635 -0.006150 -0.004863 -47640.800000 0 0 1
4.327673 24.443765 15.793053 29.421878 1.395566 1.004181 0.003456 -0.001631 -115552.000000 0 0 1
5.607073 23.896365 15.854453 29.220527 1.340324 0.997292 0.009842 -0.000511 -1113230.000000 0 0 1
6.585973 24.881865 15.915053 30.261711 1.312041 1.017007 0.010770 -0.001754 -655124.000000 0 0 1
8.003473 24.271065 15.988153 30.145666 1.252271 1.011767 0.011293 0.004129 -164086.000000 0 0 1
8.382773 23.561465 14.824753 29.072097 1.228979 1.035692 0.005117 0.005797 32092.800000 0 0 1
8.987573 24.457065 13.868453 29.517088 1.218631 1.081681 0.007191 0.003202 -116152.000000 0 0 1
9.638173 23.791965 12.592753 28.592471 1.185899 1.114728 0.011230 0.001567 -432702.000000 0 0 1
10.809073 23.117365 12.895353 28.592634 1.133425 1.102908 0.013016 0.001327 -535895.000000 0 0 1
11.448373 22.529665 11.763353 27.875213 1.100653 1.135146 0.024762 0.005710 -42226.200000 0 0 1
12.623773 21.613165 12.075553 27.790421 1.042166 1.121289 0.003814 0.002319 -267284.000000 0 0 1
12.276973 20.425965 12.793953 27.048647 1.029607 1.078106 0.006293 0.006435 -219366.000000 0 0 1
13.389473 19.575465 12.884053 26.990288 0.970895 1.073150 0.007141 0.010210 -337509.000000 0 0 1
13.646973 19.035065 14.350653 27.468433 0.948792 1.021084 0.010942 0.005434 362839.000000 0 0 1
14.851673 18.268265 14.523953 27.663096 0.888193 1.018046 0.004712 0.016439 604724.000000 0 0 1
15.212473 18.052465 15.868853 28.445233 0.870567 0.978975 -0.002839 0.004666 221594.000000 0 0 1
16.486773 17.160765 15.962353 28.654882 0.805426 0.979961 0.001326 0.004975 252313.000000 0 0 1
16.756473 16.803265 17.260653 29.343811 0.786792 0.941939 0.013969 0.000400 -112464.000000 0 0 1
17.737573 15.791465 17.320953 29.394000 0.727421 0.940643 0.007930 0.004414 136618.000000 0 0 1
18.213373 15.428565 18.766753 30.363771 0.702809 0.904519 0.020263 0.000783 -37618.200000 0 0 1
18.726573 16.475665 19.560553 31.697749 0.721543 0.905750 0.016847 0.003694 174404.000000 0 0 1
17.766773 17.315965 20.147053 31.959421 0.772549 0.888735 0.011940 0.002812 -163066.000000 0 0 1
18.467473 18.460665 20.928053 33.463818 0.785214 0.895161 0.007685 0.003028 -225192.000000 0 0 1
17.541473 19.293865 21.514253 33.805614 0.832936 0.880960 0.014156 0.009322 -107942.000000 0 0 1
18.206273 20.411065 22.113253 35.172090 0.842430 0.890895 0.017317 0.004803 234512.000000 0 0 1
17.226973 21.533165 22.545353 35.619359 0.896043 0.885436 0.027867 0.002141 394067.000000 0 0 1
16.458273 21.242965 23.720153 35.843883 0.911634 0.847629 0.017889 0.002425 13056.000000 0 0 1
15.803573 22.389965 24.136013 36.518633 0.956166 0.848748 0.028145 -0.016796 -496879.000000 0 0 1
14.975573 22.323465 25.404633 36.986487 0.979907 0.813633 0.030502 -0.014330 -252801.000000 0 0 1
13.923473 21.402465 25.264903 35.919965 0.994031 0.790674 0.019199 -0.006667 -543048.000000 0 0 1
13.233073 21.284165 26.493233 36.469457 1.014550 0.757654 0.019518 -0.004355 109219.000000 0 0 1
12.147873 20.142665 26.328633 35.305731 1.028107 0.729163 0.026646 -0.007102 264526.000000 0 0 1
12.559373 18.753665 26.369973 34.710420 0.980695 0.707924 0.023466 -0.002921 3468.210000 0 0 1
13.318673 18.238265 25.272853 33.893044 0.940049 0.729264 0.025157 -0.009027 24897.700000 0 0 1
12.566973 18.055565 23.923453 32.500213 0.962749 0.743504 0.035312 -0.007830 -471296.000000 0 0 1
12.410273 19.226465 23.114653 32.526282 0.997606 0.780381 0.039279 -0.006288 464967.000000 0 0 1
13.556173 19.556765 22.312153 32.620071 0.964669 0.817563 0.035584 -0.003439 759196.000000 0 0 1
14.211673 18.482465 21.343653 31.608933 0.915291 0.829505 0.025735 -0.001297 -197717.000000 0 0 1
13.349973 18.066665 20.278353 30.262811 0.934419 0.836487 0.028910 -0.004724 244643.000000 0 0 1
13.799573 16.895965 19.634553 29.349915 0.885932 0.837959 0.027077 -0.005872 31872.200000 0 0 1
12.637573 16.285465 18.820153 27.912771 0.910860 0.830849 0.014291 -0.001962 173024.000000 0 0 1
12.232073 17.155465 17.769453 27.562421 0.951390 0.870167 0.011243 0.002864 -547094.000000 0 0 1
11.299573 16.456065 17.009253 26.225886 0.969086 0.865096 -0.002381 0.004407 -143521.000000 0 0 1
10.881873 17.026365 15.632453 25.547717 1.002108 0.912345 -0.001066 0.006654 64194.100000 0 0 1
10.233573 18.271065 15.572753 26.097288 1.060234 0.931390 0.000224 -0.002345 94668.100000 0 0 1
9.739673 18.508965 14.246853 25.306438 1.086398 0.972817 -0.007888 0.002048 185411.000000 0 0 1
8.812173 19.780765 14.038453 25.807193 1.151698 0.995630 -0.002168 -0.000434 770218.000000 0 0 1
7.508973 19.610865 14.576153 25.562373 1.205119 0.964024 -0.010985 0.000648 -265484.000000 0 0 1
6.752873 20.784665 14.516653 26.236173 1.256658 0.984467 -0.009273 -0.003180 -448917.000000 0 0 1
5.470173 20.614565 15.320053 26.259990 1.311419 0.947889 -0.006684 0.002773 -983117.000000 0 0 1
4.573173 19.747665 14.709553 25.045062 1.343227 0.943048 -0.000248 -0.005607 -692466.000000 0 0 1
3.476473 19.601465 15.604853 25.294559 1.395264 0.905966 -0.010713 0.002578 567288.000000 0 0 1
2.261873 18.831465 14.997853 24.180069 1.451258 0.901726 -0.013350 -0.002930 165344.000000 0 1 0
1.571473 19.599165 14.030253 24.154602 1.490787 0.951021 -0.009277 -0.012450 -225757.000000 0 1 0
0.658173 18.756165 13.337953 23.024506 1.535720 0.952934 -0.003448 -0.024273 -61822.000000 0 1 0
-0.240727 19.592965 12.401653 23.189291 -1.558511 1.006524 0.007226 -0.032671 515100.000000 0 1 0
-1.339327 20.283665 13.007053 24.133053 -1.504862 1.001579 0.007779 -0.019272 -98606.000000 0 1 0
-2.402427 20.417465 12.127353 23.868750 -1.453670 1.037836 0.007809 -0.033565 -272946.000000 0 1 0
-3.602527 21.274965 12.545053 24.959581 -1.403056 1.044176 0.007945 -0.013007 129597.000000 0 1 0
-4.312627 20.681065 13.620753 25.136231 -1.365212 0.998127 0.006202 -0.013312 -181644.000000 0 0 1
-5.307827 21.525865 14.115253 26.282622 -1.329040 1.003853 0.002967 0.000806 -238976.000000 0 0 1
-6.162527 21.072465 15.333253 26.779360 -1.286285 0.961150 0.003777 -0.001010 -705042.000000 0 0 1
-7.018127 19.983765 15.107653 26.016267 -1.233060 0.951208 0.010278 -0.004865 -167766.000000 0 0 1
-7.705227 19.510865 16.248253 26.533942 -1.194677 0.911757 0.010899 0.011304 -579235.000000 0 0 1
-8.894827 20.352665 16.660053 27.765199 -1.158776 0.927253 0.004604 0.017655 -657518.000000 0 0 1
-10.074427 20.272765 15.864653 27.643558 -1.109597 0.959535 -0.000551 0.004791 -86830.100000 0 0 1
-11.126127 19.708065 16.586653 28.059144 -1.056853 0.938335 -0.005846 0.011152 -700475.000000 0 0 1
-12.413027 19.587865 15.773653 28.045959 -1.005958 0.973485 0.003709 0.001313 -538964.000000 0 0 1
-12.919127 20.829165 15.291853 28.889422 -1.015626 1.012993 -0.003735 0.010173 370956.000000 0 0 1
-13.981427 20.513965 14.380953 28.689978 -0.972556 1.045749 0.004915 -0.004393 38254.200000 0 0 1
-15.062727 21.574765 14.177053 29.888878 -0.961304 1.076599 0.002398 -0.010772 -390998.000000 0 0 1
-16.131027 21.608065 15.072353 30.891654 -0.929521 1.061102 0.009520 -0.009603 -390971.000000 0 0 1
-16.936227 22.737165 14.908653 32.032520 -0.930587 1.086685 0.011434 -0.016681 257001.000000 0 0 1
-18.268727 22.765365 15.712853 33.149690 -0.894546 1.076972 0.037466 -0.024491 -198601.000000 0 0 1
-19.111227 21.671565 15.325153 32.707125 -0.848096 1.083140 0.041290 -0.021981 919343.000000 0 0 1
-20.291827 21.408265 16.114053 33.611527 -0.812165 1.070802 0.035535 -0.015354 223346.000000 0 0 1
-21.336927 22.471665 16.132853 34.935785 -0.811295 1.090789 0.029528 -0.014436 -2066400.000000 0 0 1
-21.921927 22.579465 14.880553 34.811406 -0.800173 1.129113 0.031858 -0.014479 -94212.000000 0 0 1
-22.738427 23.743465 14.864953 36.079842 -0.807017 1.146147 0.034292 -0.021719 21353.600000 0 0 1
-22.010827 25.028265 14.272053 36.257165 -0.849458 1.166215 0.024362 -0.016634 796091.000000 0 0 1
-20.828627 25.500065 14.934953 36.154361 -0.885891 1.144953 0.026961 -0.027886 571596.000000 0 0 1
-20.287327 26.590665 14.225853 36.345756 -0.919059 1.168640 0.009814 -0.010161 24147.600000 0 0 1
-18.767927 26.829465 14.420953 35.777355 -0.960388 1.155922 0.011294 -0.013563 184271.000000 0 0 1
-17.996327 26.051165 13.535253 34.434489 -0.966267 1.166826 0.013389 -0.008222 -326014.000000 0 0 1
-16.647127 26.439565 13.631053 34.087872 -1.008875 1.159411 -0.008930 0.001094 -771804.000000 0 0 1
-15.753827 25.914065 12.560453 32.825094 -1.024569 1.178136 0.001648 -0.003646 -317871.000000 0 0 1
-14.439127 26.399065 12.741253 32.676268 -1.070293 1.170248 -0.003852 0.005809 -100724.000000 0 0 1
-13.477827 25.865765 11.875153 31.491409 -1.090437 1.184142 -0.000484 -0.000390 -546662.000000 0 0 1
-12.087627 26.433865 12.171453 31.511969 -1.141906 1.174235 -0.008854 0.008568 -1100840.000000 0 0 1
-11.115927 25.816965 11.375153 30.322823 -1.164220 1.186254 -0.016712 0.010971 201652.000000 0 0 1
-9.796227 26.295465 11.630853 30.375883 -1.214180 1.177865 0.001892 0.007590 445532.000000 0 0 1
-9.412727 27.739865 11.124053 31.334391 -1.243666 1.207871 -0.003424 0.003886 -1170690.000000 0 0 1
-8.125827 28.091065 11.507553 31.425479 -1.289215 1.195890 0.021917 -0.004345 -467699.000000 0 0 1
-7.865027 29.435365 11.088653 32.423102 -1.309699 1.221753 0.023958 -0.006702 -807904.000000 0 0 1
-6.621027 30.043165 11.690953 32.910608 -1.353880 1.207632 0.022477 -0.011379 -753861.000000 0 0 1
-5.476027 29.510265 11.067853 31.989685 -1.387320 1.217511 0.031524 -0.007875 -246540.000000 0 0 1
-4.307027 29.903265 11.788153 32.430175 -1.427748 1.198781 0.015197 -0.004296 270054.000000 0 0 1
-3.058227 29.365865 11.039253 31.520975 -1.467028 1.212991 0.021226 -0.008976 -200063.000000 0 0 1
-2.858727 30.025865 9.800553 31.713967 -1.475874 1.256624 0.039131 -0.017197 879493.000000 0 0 1
-1.728627 29.539465 9.027053 30.936319 -1.512344 1.274694 0.030239 -0.020060 1000900.000000 0 0 1
-1.508127 30.433265 7.757553 31.442609 -1.521282 1.321501 0.024058 -0.019899 -344523.000000 0 0 1
-2.570227 30.212065 6.902353 31.096903 -1.485928 1.346969 0.032458 -0.022084 -350822.000000 0 0 1
-2.425227 31.032965 5.757353 31.655548 -1.492805 1.387903 0.024617 -0.017369 25372.200000 0 0 1
9.943973 -34.173509 -27.411866 44.923510 -1.287631 2.227096 0.085234 -0.008864 397923.000000 0 0 1
10.589973 -34.165809 -26.116436 44.289031 -1.270229 2.201461 0.053764 -0.001171 887587.000000 0 0 1
11.896173 -33.574909 -26.099386 44.158480 -1.230280 2.203143 0.052840 0.004658 893676.000000 0 0 1
12.600973 -33.765209 -24.703876 43.693882 -1.213610 2.171697 0.036285 0.021002 -299055.000000 0 0 1
12.101273 -32.902709 -23.700976 42.317435 -1.218362 2.165274 0.026355 0.023228 -129968.000000 0 0 1
12.694273 -32.784909 -22.439976 41.707881 -1.201374 2.138891 0.008508 0.026183 -646319.000000 0 0 1
14.120873 -32.247509 -22.249276 41.645302 -1.158058 2.134424 -0.002247 0.030551 137986.000000 0 0 1
15.034073 -33.331309 -22.499476 42.932807 -1.147070 2.122410 0.009403 0.026605 -47197.500000 0 0 1
16.377173 -32.928409 -22.333776 43.026613 -1.109265 2.116558 0.004450 0.020592 170072.000000 0 0 1
17.353473 -34.146909 -22.333976 44.339158 -1.100610 2.098682 -0.001641 0.021596 -271210.000000 0 0 1
18.722673 -33.860309 -22.365576 44.690916 -1.065700 2.094915 0.002766 0.027115 -264774.000000 0 0 1
19.409073 34.270465 -22.502076 45.359897 1.055487 2.089873 -0.001248 0.031360 87004.700000 0 0 1
20.905473 34.380265 -22.107176 45.910441 1.024467 2.073194 0.009734 0.034886 -92231.000000 0 0 1
21.706273 -34.425309 -23.081676 46.787049 -1.008229 2.086716 0.003808 0.033340 420340.000000 0 0 1
23.086673 -34.307909 -22.705676 47.175998 -0.978473 2.072930 -0.006667 0.031227 1024710.000000 0 0 1
23.986173 -33.659809 -23.790376 47.689634 -0.951660 2.093077 0.002232 0.012252 39515.100000 0 0 1
23.979473 -32.212109 -23.886976 46.724969 -0.930873 2.107406 0.008747 0.004846 744713.000000 0 0 1
22.780973 -31.619409 -24.457476 46.010085 -0.946461 2.131247 0.000303 0.012658 933392.000000 0 0 1
22.807573 -30.084809 -24.325876 44.911350 -0.922125 2.143186 0.009798 -0.010144 -487095.000000 0 0 1
23.755473 -29.519009 -25.157566 45.481837 -0.893165 2.156918 0.024725 -0.014446 -584608.000000 0 0 1
23.862573 -28.146009 -24.886876 44.508166 -0.867573 2.164160 0.022625 -0.005208 461264.000000 0 0 1
24.504473 -27.304709 -26.038286 44.988984 -0.839395 2.188016 0.008776 -0.000180 397350.000000 0 0 1
23.594673 -27.187109 -27.151026 45.089086 -0.856023 2.217005 0.007772 -0.003558 272083.000000 0 0 1
24.255173 -26.619209 -28.296546 45.799457 -0.831833 2.236784 0.002466 -0.002360 -682777.000000 0 0 1
23.303273 -26.260909 -29.413516 45.802105 -0.845000 2.268144 -0.000782 0.001974 70039.200000 0 0 1
22.544973 -25.074009 -29.221396 44.619186 -0.838458 2.284855 0.014370 -0.000640 -466176.000000 0 0 1
21.377173 -25.285009 -28.489806 43.680479 -0.868951 2.281322 0.002741 0.004113 -948634.000000 0 0 1
20.558673 -24.015709 -28.074136 42.279669 -0.862800 2.296966 0.004881 0.010023 191477.000000 0 0 1
20.069473 -23.257809 -29.185266 42.373213 -0.858853 2.330583 0.015327 0.004236 77321.700000 0 0 1
19.583573 -22.010209 -28.738456 41.156585 -0.843673 2.343776 0.014248 0.012931 -405077.000000 0 0 1
18.613573 -21.415309 -29.777096 41.130962 -0.855277 2.380319 0.016967 0.009062 654014.000000 0 0 1
17.378473 -22.153009 -29.756686 40.966175 -0.905594 2.383825 0.021926 0.006143 797975.000000 0 0 1
16.261773 -21.423509 -30.260546 40.485956 -0.921521 2.414986 0.020144 0.005542 486341.000000 0 0 1
14.991473 -22.307709 -30.230626 40.450821 -0.979089 2.414850 0.022699 0.001425 -143768.000000 0 0 1
15.179073 -23.322509 -31.208366 41.812747 -0.993835 2.413408 0.019977 0.002582 208834.000000 0 0 1
14.456273 -24.505409 -30.847926 41.965384 -1.037820 2.396581 0.029553 -0.004386 -54210.500000 0 0 1
14.858473 -25.852009 -31.476166 43.357233 -1.049149 2.383244 0.028496 -0.008242 328091.000000 0 0 1
13.962173 -26.942009 -31.173576 43.504091 -1.092671 2.369664 0.049868 -0.009912 383181.000000 0 0 1
14.514973 -28.194609 -31.525426 44.715466 -1.095368 2.353252 0.044913 -0.011459 282938.000000 0 0 1
13.785273 -29.320909 -30.756996 44.673731 -1.131311 2.330188 0.062247 -0.012785 201589.000000 0 0 1
14.203173 -29.439809 -29.393736 43.959347 -1.121289 2.303198 0.076346 -0.016262 -184750.000000 0 0 1
13.686073 -28.445909 -28.559986 42.569369 -1.122361 2.306224 0.068772 -0.012293 -571230.000000 0 0 1
14.432973 -28.182309 -27.282066 41.795507 -1.097493 2.282007 0.060102 -0.003565 -428455.000000 0 0 1
14.333973 -29.290809 -26.386176 41.948117 -1.115691 2.251087 0.060838 -0.002734 -4286.190000 0 0 1
15.097473 -29.132509 -25.198926 41.371761 -1.092668 2.225703 0.063021 -0.001321 -787838.000000 0 0 1
14.606973 -28.188509 -24.069176 39.840694 -1.092704 2.219477 0.047902 0.007916 771505.000000 0 0 1
13.408173 -28.592509 -23.371176 39.287689 -1.132304 2.207904 0.037022 0.012361 391005.000000 0 0 1
12.244473 -28.322409 -24.108676 39.157556 -1.162738 2.234050 0.029424 0.019631 -669697.000000 0 0 1
10.971573 -28.146809 -23.245776 38.118032 -1.199115 2.226651 0.000545 0.020829 52643.500000 0 0 1
10.816373 -26.957809 -22.503376 36.743970 -1.189227 2.229936 -0.008740 0.023303 -840541.000000 0 0 1
9.600173 -26.786309 -21.868776 35.887505 -1.226659 2.226062 -0.009537 0.024688 -864759.000000 0 0 1
9.399773 -25.278609 -21.613276 34.561503 -1.214793 2.246385 -0.005447 0.018420 -330542.000000 0 0 1
10.059273 -24.791309 -20.489676 33.699033 -1.185336 2.224360 -0.013612 0.013605 -6937.250000 0 0 1
10.003073 -23.381109 -20.383376 32.591713 -1.166533 2.246461 -0.015134 0.009088 -556014.000000 0 0 1
10.441073 -22.750609 -19.036476 31.448269 -1.140536 2.220973 -0.011938 0.012793 -33023.200000 0 0 1
9.514273 -23.077309 -18.049876 30.803922 -1.179750 2.196861 -0.007464 0.012342 230185.000000 0 0 1
9.858773 -22.306509 -16.930176 29.688493 -1.154641 2.177619 -0.002477 0.008691 72332.800000 0 0 1
9.040773 -22.718809 -15.675276 29.044692 -1.192065 2.140871 0.000535 0.008568 52222.800000 0 0 1
9.554373 -23.833209 -14.990076 29.732310 -1.189527 2.099214 -0.007592 0.007435 104828.000000 0 0 1
8.911873 -24.002209 -13.740076 29.057137 -1.215279 2.063335 -0.004303 0.004309 -58766.500000 0 0 1
8.770673 -25.489709 -13.416276 30.110570 -1.239399 2.032604 -0.008196 0.009614 -94734.200000 0 0 1
9.984873 -26.136209 -13.117576 30.900969 -1.205875 2.009210 -0.006869 0.003218 -228779.000000 0 0 1
9.917073 -27.556809 -13.290676 32.161594 -1.225349 1.996813 -0.015323 -0.002643 566066.000000 0 0 1
11.181773 -28.343009 -12.715276 33.015700 -1.195026 1.966143 0.008486 0.001266 1681430.000000 0 0 1
12.479773 -28.076109 -13.250076 33.460083 -1.152527 1.977949 0.017113 0.005858 501895.000000 0 0 1
12.690973 -28.369709 -14.647576 34.357716 -1.150155 2.011223 0.014945 -0.000099 -1203860.000000 0 0 1
14.019573 -27.887809 -15.179676 34.708801 -1.104980 2.023439 0.002125 0.006145 -499376.000000 0 0 1
15.093173 -28.802509 -15.021976 35.819662 -1.088116 2.003556 0.034315 0.000886 448964.000000 0 0 1
16.255173 -28.260009 -15.669976 36.171908 -1.048811 2.018846 0.039196 -0.005205 894510.000000 0 0 1
17.575273 -29.054309 -15.516576 37.333728 -1.026774 1.999419 0.039456 -0.007817 409811.000000 0 0 1
17.603673 -30.289909 -16.238276 38.614110 -1.044335 2.004822 0.029678 -0.001465 -77636.300000 0 0 1
18.933973 -30.651609 -16.586576 39.662715 -1.017452 2.002249 0.048012 0.000746 441736.000000 0 0 1
19.171373 -31.864209 -17.512776 41.104339 -1.029158 2.010926 0.029696 0.001680 -236289.000000 0 0 1
19.038073 -33.105809 -16.945176 41.780160 -1.048911 1.988409 0.016158 0.013069 -101875.000000 0 0 1
19.278573 -34.100509 -17.911576 43.073572 -1.056248 1.999659 0.001310 0.018383 33826.500000 0 0 1
18.952073 33.829165 -17.442776 42.518748 1.060134 1.993511 -0.016980 0.019750 -126014.000000 0 0 1
19.904173 33.356565 -16.521476 42.211322 1.032800 1.972948 0.000209 0.008882 20440.100000 0 0 1
19.765573 31.958165 -16.333776 40.973094 1.016897 1.980837 -0.008134 0.008944 -312885.000000 0 0 1
20.626373 31.488665 -15.159576 40.580735 0.990885 1.953647 -0.000160 0.002721 282670.000000 0 0 1
22.015973 31.338865 -15.471776 41.306215 0.958385 1.954722 0.008018 0.008007 1039740.000000 0 0 1
22.919473 31.152865 -14.366576 41.257748 0.936504 1.926463 0.022867 0.002539 569127.000000 0 0 1
22.788573 29.883165 -13.531576 39.942786 0.919287 1.916410 0.018330 0.002833 -818634.000000 0 0 1
22.944073 28.740965 -14.359976 39.480153 0.897089 1.943062 0.025065 0.005211 86164.000000 0 0 1
22.583973 27.496065 -13.792476 38.161523 0.883170 1.940591 0.001766 0.014507 -544009.000000 0 0 1
21.154173 27.217765 -13.315276 36.954057 0.910101 1.939407 -0.014742 0.014318 -1183330.000000 0 0 1
20.335973 26.944165 -14.472776 36.728750 0.924265 1.975825 -0.010019 0.009253 1043280.000000 0 0 1
18.952273 26.933365 -14.034476 35.798901 0.957610 1.973641 -0.007798 0.008068 919456.000000 0 0 1
18.351873 28.373265 -14.037676 36.590842 0.996673 1.964530 -0.003585 0.006824 -885560.000000 0 0 1
18.293873 29.148465 -15.228576 37.632543 1.010322 1.987409 -0.004674 0.005897 134143.000000 0 0 1
17.497073 28.629265 -16.311376 37.307417 1.022211 2.023296 -0.010984 0.016562 -445029.000000 0 0 1
17.479473 29.377465 -17.643576 38.468990 1.034064 2.047265 -0.014853 0.020905 -563875.000000 0 0 1
16.620873 30.443965 -17.756776 38.966543 1.071068 2.043947 -0.015260 0.011868 -511702.000000 0 0 1
16.820573 30.933665 -19.066376 40.041853 1.072754 2.067080 -0.016990 0.020409 1718.070000 0 0 1
15.833473 32.068965 -19.432376 40.703005 1.112176 2.068511 -0.021076 0.021882 50066.000000 0 0 1
16.158173 33.358665 -18.929476 41.619853 1.119725 2.042965 -0.021791 0.016070 204975.000000 0 0 1
15.124373 34.319265 -19.171776 42.120251 1.155706 2.043357 -0.014223 0.019444 118945.000000 0 0 1
15.237673 -33.813609 -18.296276 41.355780 -1.147413 2.029082 -0.020718 0.020149 -68212.500000 0 0 1
14.160973 -32.915209 -18.479176 40.316549 -1.164508 2.046937 -0.017005 0.026858 -42116.700000 0 0 1
14.138673 -31.953209 -17.433076 39.048966 -1.154213 2.033581 -0.008406 0.019274 -226814.000000 0 0 1
12.987273 -30.952909 -17.601776 37.902168 -1.173524 2.053754 -0.003309 0.013101 316587.000000 0 0 1
11.728573 -31.610809 -17.434976 37.957622 -1.215510 2.048034 -0.013255 0.010441 70065.600000 0 0 1
10.655773 -30.689409 -17.525276 36.912337 -1.236606 2.065512 -0.032789 0.022720 134749.000000 0 0 1
9.350473 -31.374009 -17.947376 37.334543 -1.281146 2.072269 -0.017566 0.020171 -926875.000000 0 0 1
8.621473 -32.125309 -16.948276 37.331077 -1.308604 2.042045 -0.004667 0.014040 -105783.000000 0 0 1
7.621873 -32.924709 -17.473376 38.045345 -1.343309 2.047978 0.016204 0.015097 441493.000000 0 0 1
6.343973 -32.235809 -18.095976 37.508102 -1.376481 2.074252 0.017045 0.019760 -266950.000000 0 0 1
6.592273 -31.659609 -19.401676 37.712252 -1.365506 2.111181 0.000244 0.027445 -58401.700000 0 0 1
6.305373 -32.602909 -20.415776 38.980910 -1.379756 2.122029 0.002163 0.018678 -775037.000000 0 0 1
6.245373 -32.062809 -21.841476 39.294764 -1.378420 2.160166 -0.015647 0.035461 544027.000000 0 0 1
7.439473 -31.570909 -22.471476 39.459286 -1.339375 2.176676 0.002765 0.027980 539323.000000 0 0 1
8.588273 -32.363309 -22.686076 40.445027 -1.311404 2.166283 0.008119 0.020103 31638.400000 0 0 1
8.532773 -33.544609 -23.648276 41.920043 -1.321708 2.170173 0.011792 0.024905 113548.000000 0 0 1
7.670973 -34.644009 -23.206176 42.397851 -1.352889 2.149983 0.012153 0.011587 274137.000000 0 0 1
7.590173 33.632465 -24.135576 42.086571 1.348835 2.181537 0.017091 0.004274 -556782.000000 0 0 1
6.459573 32.608065 -23.869876 40.924112 1.375231 2.193547 0.016801 -0.003016 382010.000000 0 0 1
5.130673 33.072565 -23.956476 41.158609 1.416889 2.192047 0.008406 0.002080 57047.300000 0 0 1
4.730173 33.887265 -22.872376 41.156613 1.432107 2.160049 0.001687 -0.001197 -944342.000000 0 0 1
3.449973 -34.642409 -23.133676 41.799112 -1.471535 2.157296 0.003256 0.006976 167207.000000 0 0 1
2.254573 33.985265 -22.949176 41.070013 1.504554 2.163712 0.006143 -0.000167 279460.000000 0 0 1
1.116073 -34.592209 -23.334676 41.741749 -1.538544 2.164006 0.006299 0.003831 712365.000000 0 0 1
-0.249927 34.197765 -22.835876 41.122096 -1.563488 2.159543 0.005204 -0.001409 252255.000000 0 0 1
-0.474727 34.283465 -21.433676 40.434933 -1.556950 2.129489 -0.000430 0.004159 -4710.110000 0 0 1
-1.524727 33.498565 -20.889576 39.507632 -1.525312 2.127921 0.002302 0.006782 313985.000000 0 0 1
-1.964127 33.834465 -19.405576 39.053875 -1.512810 2.090811 0.011194 0.003644 601851.000000 0 0 1
-0.929927 33.488565 -18.485776 38.263202 -1.543035 2.075013 0.009769 -0.002085 324013.000000 0 0 1
-1.537927 32.856865 -17.367076 37.196157 -1.524024 2.056584 -0.000271 -0.006582 -261115.000000 0 0 1
-0.685227 31.889965 -16.589676 35.953536 -1.549312 2.050391 -0.012872 -0.007797 -253287.000000 0 0 1
0.325673 32.449165 -15.799076 36.092453 1.560760 2.023879 0.001378 -0.007081 89765.600000 0 0 1
1.246473 31.450465 -15.285076 34.990270 1.531184 2.022877 0.005785 -0.006090 654778.000000 0 0 1
2.145473 32.035965 -14.165876 35.093847 1.503925 1.986307 0.012010 -0.006348 183825.000000 0 0 1
3.219573 32.782665 -14.758576 36.095489 1.472901 1.992018 0.018333 -0.007780 -261243.000000 0 0 1
4.023773 33.346665 -13.777076 36.304251 1.450712 1.960041 0.023024 -0.011638 -350391.000000 0 0 1
5.406573 33.707265 -14.356776 37.034143 1.411753 1.968892 0.035046 -0.022310 -15706.700000 0 0 1
6.170273 32.546065 -14.613176 36.205849 1.383434 1.986259 0.032950 -0.013240 -1503250.000000 0 0 1
7.320473 32.873265 -15.283476 36.984125 1.351684 1.996810 0.027267 -0.001181 -1107570.000000 0 0 1
8.232073 31.663765 -15.397176 36.158457 1.316443 2.010670 0.010890 -0.004352 -189584.000000 0 0 1
8.978173 31.357965 -14.231876 35.587580 1.291944 1.982216 0.004907 -0.010047 -168055.000000 0 0 1
9.756373 30.155565 -14.328376 34.782859 1.257890 1.995376 0.001382 -0.005249 264503.000000 0 0 1
9.065373 28.782065 -14.102876 33.308848 1.265666 2.007988 0.013104 -0.005110 -190965.000000 0 0 1
8.228773 28.369765 -15.166876 33.205276 1.288489 2.045147 0.006300 -0.010272 -218245.000000 0 0 1
7.633873 27.155665 -14.825276 31.866832 1.296754 2.054686 0.015082 -0.004303 -525386.000000 0 0 1
7.030873 26.285865 -15.978576 31.554631 1.309437 2.101776 0.011224 -0.004599 180420.000000 0 0 1
7.922673 25.516065 -16.801376 31.561441 1.269737 2.132157 0.011556 -0.001870 -377325.000000 0 0 1
7.295573 24.684865 -17.748676 31.266331 1.283429 2.174458 0.005999 0.001055 -669359.000000 0 0 1
8.225573 23.808565 -18.510676 31.259445 1.238147 2.204536 -0.003748 0.016607 -1037260.000000 0 0 1
7.559973 22.947265 -19.366876 30.964593 1.252545 2.246507 0.012396 0.004750 -44807.000000 0 0 1
8.382973 21.839565 -19.799276 30.647221 1.204295 2.273179 0.000054 0.006871 107378.000000 0 0 1
7.738973 20.992665 -20.959176 30.657311 1.217603 2.323562 0.004310 -0.009605 -104305.000000 0 0 1
6.882273 20.025265 -20.453776 29.440344 1.239763 2.338873 0.013045 -0.009605 -178883.000000 0 0 1
6.136373 19.346965 -21.472176 29.546818 1.263658 2.384327 0.018298 -0.005217 295854.000000 0 0 1
24.198173 -13.048735 -9.659676 29.139842 -0.494548 1.908683 0.030562 0.003677 405551.000000 0 0 1
24.994673 -12.314235 -8.744176 29.203334 -0.457770 1.874885 0.031118 0.005596 991659.000000 0 0 1
24.247473 -12.523935 -7.555476 28.317382 -0.476764 1.840882 0.023424 0.016459 -165600.000000 0 0 1
24.793473 -11.703635 -6.427676 28.160370 -0.441035 1.801079 0.014757 0.011427 -462191.000000 0 0 1
24.734173 -10.280335 -6.545076 27.573586 -0.393910 1.810451 0.008037 0.010300 109904.000000 0 0 1
25.758973 -9.690535 -7.287576 28.469983 -0.359823 1.829651 0.010112 0.010688 -1094890.000000 0 0 1
25.998073 -8.192135 -6.909676 28.120358 -0.305257 1.819057 0.026591 0.007898 -417916.000000 0 0 1
26.430973 -7.892435 -5.593876 28.145663 -0.290177 1.770876 0.029209 -0.000423 -15780.200000 0 0 1
27.704873 -8.357435 -5.267876 29.413555 -0.292978 1.750865 0.030363 -0.004021 -936939.000000 0 0 1
28.095073 -8.140435 -3.812376 29.498034 -0.282023 1.700401 0.029783 -0.008789 -269485.000000 0 0 1
28.777373 -6.933935 -3.509876 29.808319 -0.236444 1.688818 0.043043 -0.003702 538064.000000 0 0 1
29.133273 -6.949835 -2.124376 30.026002 -0.234177 1.641607 0.042952 -0.003871 -37825.500000 0 0 1
29.599573 -5.552235 -1.642476 30.160567 -0.185424 1.625281 0.036918 -0.013622 288945.000000 0 0 1
28.472473 -4.693235 -1.370276 28.889199 -0.163365 1.618246 0.040074 -0.004176 736847.000000 0 0 1
28.787073 -3.404235 -0.856276 29.000304 -0.117709 1.600327 0.032430 -0.001182 -156802.000000 0 0 1
29.449773 -3.298535 0.570524 29.639416 -0.111541 1.551546 0.031249 -0.010636 -197051.000000 0 0 1
28.627473 -3.561735 1.680724 28.897111 -0.123781 1.512601 0.033844 -0.019059 348318.000000 0 0 1
29.363673 -3.318335 2.869824 29.689603 -0.112531 1.473984 0.025157 -0.007819 -150141.000000 0 0 1
28.698773 -3.849935 4.154824 29.252421 -0.133354 1.428281 0.031655 -0.012689 -216352.000000 0 0 1
28.690073 -5.318635 4.182024 29.477067 -0.183302 1.428442 0.039522 -0.019395 198517.000000 0 0 1
28.674973 -5.809835 5.501124 29.770298 -0.199904 1.384943 0.035995 -0.021279 -69191.700000 0 0 1
29.402773 -7.179835 5.647924 30.789156 -0.239502 1.386313 0.030657 -0.020337 -183113.000000 0 0 1
30.797673 -7.117335 5.467924 32.078830 -0.227113 1.399507 0.028613 -0.019648 -129610.000000 0 0 1
31.312373 -8.451935 5.586424 32.910607 -0.263640 1.400225 0.022339 -0.018173 -18122.000000 0 0 1
32.847673 -8.535935 5.600424 34.397624 -0.254241 1.407254 0.034433 -0.018962 -143842.000000 0 0 1
33.460773 -8.157835 4.380424 34.718320 -0.239138 1.444289 0.034323 -0.015766 546374.000000 0 0 1
34.873673 -7.962635 4.572324 36.062207 -0.224480 1.443664 0.043716 -0.012614 885519.000000 0 0 1
-34.643080 -7.591235 3.215124 35.610488 0.215717 1.480387 0.042400 -0.011326 -182201.000000 0 0 1
-34.440280 -8.663235 2.332424 35.589671 0.246431 1.505213 0.054000 -0.021113 -180435.000000 0 0 1
-33.387780 -8.428735 1.457724 34.466105 0.247283 1.528489 0.069333 -0.024537 -582519.000000 0 0 1
-32.992080 -9.728735 0.735924 34.404465 0.286754 1.549404 0.066322 -0.020148 -286771.000000 0 0 1
-32.295180 -10.575935 1.612824 34.021026 0.316471 1.523372 0.059083 -0.021086 182081.000000 0 0 1
-32.184780 -11.822135 0.967424 34.301003 0.352021 1.542589 0.055213 -0.019358 -341043.000000 0 0 1
-32.032480 -13.044035 1.971824 34.642672 0.386709 1.513847 0.038742 -0.032682 648164.000000 0 0 1
-30.766380 -13.263035 2.586724 33.603115 0.407016 1.493741 0.031800 -0.029892 94577.100000 0 0 1
-29.824880 -13.961335 1.847024 32.982629 0.437812 1.514767 0.023154 -0.011833 -693947.000000 0 0 1
-28.518580 -14.251335 2.598724 31.986924 0.463424 1.489463 0.012008 -0.007538 -109442.000000 0 0 1
-27.842580 -13.055335 2.929924 30.890702 0.438458 1.475805 0.006753 -0.005852 682480.000000 0 0 1
-26.471980 -13.332435 3.230524 29.815362 0.466558 1.462232 0.012957 -0.006540 997193.000000 0 0 1
-25.565480 -12.234235 3.919824 28.611803 0.446337 1.433364 -0.005520 0.004737 94223.300000 0 0 1
-24.336380 -12.760435 4.315924 27.815738 0.482926 1.415006 -0.000461 0.010794 -229046.000000 0 0 1
-23.568180 -11.852835 5.079224 26.865355 0.465978 1.380589 0.000156 0.020297 566611.000000 0 0 1
-22.442180 -12.450035 6.003124 26.357016 0.506491 1.341018 0.004115 0.038210 474792.000000 0 0 1
-22.934680 -13.291435 7.010924 27.419242 0.525235 1.312231 0.018096 0.017243 -68763.300000 0 0 1
-21.914780 -13.748335 7.879524 27.043690 0.560291 1.275145 0.029759 0.031371 33444.400000 0 0 1
-21.760380 -12.977635 9.225124 26.963606 0.537760 1.221611 0.041441 0.030873 -378645.000000 0 0 1
-21.175380 -11.682835 9.049324 25.821998 0.504161 1.212745 0.033790 0.018566 587775.000000 0 0 1
-22.020580 -10.521735 9.238124 26.095129 0.445742 1.208933 0.033652 0.016215 -179489.000000 0 0 1
-22.567480 -10.287935 10.713824 27.017009 0.427728 1.163031 0.032889 0.012291 18555.200000 0 0 1
-23.395580 -11.322535 11.187324 28.296805 0.450734 1.164340 0.029841 -0.002998 130703.000000 0 0 1
-24.789880 -11.167035 11.031224 29.341587 0.423243 1.185365 0.029502 0.001357 -117679.000000 0 0 1
-25.542580 -10.914035 12.326124 30.388696 0.403807 1.153144 0.027038 -0.011286 -420772.000000 0 0 1
-25.560780 -12.039835 13.189824 31.181445 0.440202 1.134040 0.038963 -0.014360 -264885.000000 0 0 1
-26.477280 -11.840035 14.201524 32.294211 0.420504 1.115471 0.014770 -0.014024 -499782.000000 0 0 1
-26.320280 -12.769035 15.414824 33.066935 0.451690 1.085839 0.015644 -0.009954 -270149.000000 0 0 1
-26.617380 -14.149935 15.162024 33.743037 0.488611 1.104772 0.006398 -0.000852 278475.000000 0 0 1
-26.013180 -14.893535 16.152324 34.049970 0.519982 1.076547 0.000215 0.006369 -850655.000000 0 0 1
-25.902680 -16.401135 15.907224 34.539627 0.564462 1.092182 -0.007886 0.010051 -358591.000000 0 0 1
-27.034780 -17.206535 16.232824 35.922816 0.566797 1.101924 -0.031038 0.016519 453448.000000 0 0 1
-26.659080 -18.613435 16.208524 36.330191 0.609519 1.108343 -0.031710 0.021163 212607.000000 0 0 1
-27.780980 -19.376535 16.939524 37.870575 0.609029 1.107052 -0.050095 0.031272 29059.900000 0 0 1
-27.734080 -19.256335 18.335524 38.421050 0.606904 1.073301 -0.029849 0.026450 -105633.000000 0 0 1
-28.345380 -20.320935 19.055224 39.742956 0.621982 1.070755 -0.023409 0.026676 -390133.000000 0 0 1
-27.532680 -21.611835 19.183924 39.914193 0.665498 1.069424 -0.034936 0.032938 -776127.000000 0 0 1
-26.312280 -21.377935 19.837524 39.279505 0.682298 1.041374 -0.020107 0.036339 -245156.000000 0 0 1
-25.743780 -22.671335 20.095124 39.756077 0.722023 1.040881 -0.014938 0.031581 -1052550.000000 0 0 1
-24.469880 -22.500635 20.883624 39.257857 0.743498 1.009882 0.004060 0.032497 -711172.000000 0 0 1
-23.480380 -21.963335 20.027524 37.878992 0.752028 1.013700 0.004699 0.036870 947713.000000 0 0 1
-22.161480 -21.966135 20.633024 37.408073 0.780971 0.986556 0.017640 0.031655 1250580.000000 0 0 1
-20.997580 -21.579635 19.702524 35.982891 0.799068 0.991360 0.018418 0.036249 27476.200000 0 0 1
-20.674180 -22.516035 18.680224 35.823795 0.828018 1.022250 0.010285 0.038549 -31998.600000 0 0 1
-19.463380 -22.282435 18.017924 34.640665 0.852825 1.023784 0.010798 0.032695 -168084.000000 0 0 1
-19.260780 -23.212735 16.765624 34.509345 0.878176 1.063486 0.007194 0.036498 -412960.000000 0 0 1
-19.300680 -24.594435 17.004424 35.588663 0.905419 1.072643 0.012210 0.022882 1334600.000000 0 0 1
-18.034480 -25.232275 17.370524 35.547789 0.950247 1.060251 0.009396 0.015942 1796250.000000 0 0 1
-16.878980 -25.322465 16.301524 34.523425 0.982867 1.079026 0.002077 0.013880 346694.000000 0 0 1
-16.228480 -24.088035 16.171724 33.243370 0.977930 1.062758 0.003506 0.017029 -755753.000000 0 0 1
-15.147680 -24.151735 15.293024 32.351740 1.010625 1.078432 0.006247 0.017606 -364080.000000 0 0 1
-14.207180 -22.908335 15.422424 31.056190 1.015674 1.051122 0.014969 0.014918 -862.258000 0 0 1
-14.657780 -21.651635 14.935624 30.111737 0.975686 1.051802 0.008542 0.014011 -86253.900000 0 0 1
-15.716780 -20.945035 15.566624 30.463609 0.927051 1.034459 0.015019 0.012844 280186.000000 0 0 1
-15.274980 -19.885635 16.673624 30.112676 0.915785 0.983986 0.010540 0.004343 -285153.000000 0 0 1
-14.511880 -18.811435 16.116724 28.709119 0.913715 0.974744 0.002026 0.004610 93356.900000 0 0 1
-14.590280 -17.640535 16.890324 28.449038 0.879755 0.935142 -0.016707 0.005095 -754452.000000 0 0 1
-14.075280 -16.392635 16.207424 27.009491 0.861311 0.927215 -0.014564 0.004562 276411.000000 0 0 1
-14.904880 -15.883835 15.142024 26.527958 0.817183 0.963323 -0.018880 0.000322 354425.000000 0 0 1
-14.774480 -16.618235 13.953524 26.251701 0.844063 1.010392 -0.010872 -0.003604 -99099.700000 0 0 1
-15.554780 -15.891635 12.837924 25.676985 0.796110 1.047223 -0.005962 0.000840 -460380.000000 0 0 1
-16.893780 -15.729135 13.208324 26.594460 0.749713 1.051053 -0.009781 -0.006792 -960032.000000 0 0 1
-17.507080 -14.836635 12.394324 26.081466 0.703020 1.075587 -0.006821 -0.003538 -1261820.000000 0 0 1
-19.021780 -14.751735 12.604624 27.172014 0.659634 1.088423 0.017114 -0.004737 -247390.000000 0 0 1
-19.819780 -15.855035 12.233724 28.175695 0.674717 1.121653 0.033840 -0.006002 -41583.500000 0 0 1
-19.903380 -16.059135 10.861124 27.784966 0.678907 1.169188 0.031304 0.001521 -511628.000000 0 0 1
-20.805980 -17.249835 10.411124 28.962685 0.692223 1.203100 0.026212 0.003381 164453.000000 0 0 1
-20.075680 -18.439635 10.174124 29.095805 0.742946 1.213570 0.026970 0.012942 -292380.000000 0 0 1
-20.896880 -19.396135 9.557924 30.070643 0.748170 1.247336 0.022350 0.013842 25274.300000 0 0 1
-20.266980 -20.807835 9.419324 30.535883 0.798565 1.257215 0.025523 0.022388 -443992.000000 0 0 1
-19.258080 -20.979335 8.478624 29.713519 0.828150 1.281429 0.037115 0.018470 -655322.000000 0 0 1
-18.888380 -22.333935 8.333124 30.414084 0.868789 1.293258 0.022088 0.015610 -418548.000000 0 0 1
-17.574780 -22.424235 7.547024 29.473323 0.906049 1.311849 0.019686 0.006139 -226368.000000 0 0 1
-16.454080 -22.092535 8.353824 28.785469 0.930644 1.276350 0.011170 0.005060 -1086680.000000 0 0 1
-15.332880 -22.420535 7.646624 28.217875 0.970974 1.296380 0.019034 0.007826 -565319.000000 0 0 1
-13.979080 -21.927735 8.231724 27.276391 1.003254 1.264227 -0.031056 0.002274 420776.000000 0 0 1
-12.809680 -22.177935 7.493524 26.685232 1.047020 1.286157 -0.009649 0.002750 -149842.000000 0 0 1
-11.642180 -21.803635 8.206124 26.043796 1.080354 1.250245 -0.000051 0.002614 488239.000000 0 0 1
-10.394280 -22.433635 7.527124 25.845051 1.136909 1.275273 -0.002307 0.009505 63742.900000 0 0 1
-10.481480 -23.818335 7.700324 27.137972 1.156240 1.283097 -0.004454 0.015890 354075.000000 0 0 1
-9.266380 -24.467235 7.286724 27.158935 1.208763 1.299169 0.006902 0.011834 536645.000000 0 0 1
-9.269880 -26.005155 7.350924 28.569824 1.228375 1.310573 -0.004342 0.012292 -288762.000000 0 0 1
-10.141580 -26.662405 6.458424 29.248021 1.207326 1.348146 0.000283 0.005116 -177428.000000 0 0 1
-10.114080 -28.073025 6.648024 30.570993 1.224995 1.351583 0.013855 0.011359 169981.000000 0 0 1
-9.060780 -28.839725 5.791224 30.779307 1.266384 1.381515 0.027379 0.009073 604976.000000 0 0 1
-7.725180 -28.427545 6.154024 30.094447 1.305454 1.364853 0.020864 0.004783 865968.000000 0 0 1
-6.661280 -29.295895 5.771624 30.593035 1.347218 1.381001 0.016060 0.006042 732608.000000 0 0 1
-6.725280 -30.712245 6.426024 32.089955 1.355222 1.369183 0.018390 0.002882 -635115.000000 0 0 1
-6.900080 -30.735425 7.851124 32.464097 1.349959 1.326534 0.015935 0.006326 153113.000000 0 0 1
-6.639980 -31.981755 8.416524 33.730696 1.366087 1.318611 0.035057 -0.001187 -255602.000000 0 0 1
-6.650580 -32.102885 9.949924 34.261151 1.366521 1.276137 0.023693 0.002600 -485066.000000 0 0 1
-5.548480 -31.502135 10.589724 33.694397 1.396454 1.251090 0.001489 0.006607 123179.000000 0 0 1
-5.564880 -31.675315 12.006124 34.328421 1.396886 1.213500 -0.003512 -0.001292 -493306.000000 0 0 1
-4.708080 -30.640755 12.717924 33.507723 1.418335 1.181484 -0.011950 0.003238 -323675.000000 0 0 1
-5.269580 -29.350775 12.656724 32.394894 1.393151 1.169403 -0.011634 -0.000904 212099.000000 0 0 1
-4.634080 -28.423205 13.543924 31.824380 1.409180 1.131190 -0.023820 -0.001050 -238127.000000 0 0 1
-5.569280 -28.094245 14.764724 32.222672 1.375098 1.094817 -0.018937 -0.002566 50779.700000 0 0 1
-5.911580 -29.183685 15.590724 33.611084 1.370936 1.088453 -0.009655 -0.004690 500699.000000 0 0 1
-4.793080 -29.632365 16.376624 34.194217 1.410434 1.071361 -0.014723 -0.001976 522013.000000 0 0 1
-4.924080 -31.026405 16.949624 35.695576 1.413403 1.076016 -0.007831 -0.003408 -249799.000000 0 0 1
-4.759080 -32.047325 15.969124 36.120532 1.423372 1.112850 -0.008190 -0.003677 13175.800000 0 0 1
-5.086080 -33.325945 16.452724 37.512384 1.419349 1.116762 -0.008553 -0.004511 81255.900000 0 0 1
-4.683080 -34.591597 15.594524 38.232173 1.436232 1.150654 -0.016789 -0.004152 156200.000000 0 0 1
-5.524280 34.554987 14.471224 37.867943 -1.412269 1.178675 0.019045 -0.011515 274312.000000 0 0 1
-5.089080 33.422341 13.696924 36.476805 -1.419691 1.185864 0.008212 -0.005916 35502.000000 0 0 1
-4.036080 33.700882 12.597424 36.204067 -1.451602 1.215406 0.009202 -0.012365 -78309.500000 0 0 1
-4.533080 34.476464 11.576324 36.649511 -1.440063 1.249427 0.005394 -0.012508 262922.000000 0 0 1
-3.443080 -34.444234 10.777224 36.254774 1.471166 1.268971 0.003516 -0.011905 -204762.000000 0 0 1
-3.872080 -34.061525 9.311924 35.523125 1.457603 1.305560 0.005372 -0.009869 -1041790.000000 0 0 1
-4.009080 34.141971 8.464024 35.403200 -1.453908 1.329383 0.021629 -0.019552 771230.000000 0 0 1
-4.987080 33.092368 8.690224 34.575942 -1.421220 1.316735 0.034753 -0.021383 626055.000000 0 0 1
-6.473780 33.454406 8.882324 35.213673 -1.379648 1.315801 0.034185 -0.013163 -339435.000000 0 0 1
-7.202480 33.758078 7.729224 35.372651 -1.360592 1.350511 0.042530 -0.013372 -13656.300000 0 0 1
-8.525380 34.122094 8.131424 36.098746 -1.325960 1.343592 0.041840 -0.005712 329949.000000 0 0 1
-9.441780 34.360304 6.926624 36.300907 -1.302628 1.378808 0.047035 -0.004331 -172132.000000 0 0 1
-9.159280 -33.738355 6.322324 35.526621 1.305706 1.391883 0.044436 -0.000251 615934.000000 0 0 1
-9.820580 -33.766885 5.018324 35.522245 1.287769 1.429049 0.040050 0.005073 -161939.000000 0 0 1
-9.855980 -32.352855 4.437824 34.110730 1.275088 1.440326 0.022045 0.010149 165332.000000 0 0 1
-10.784480 -31.409205 4.944824 33.575206 1.240054 1.422983 0.032697 0.004690 416780.000000 0 0 1
-12.161580 -31.693345 4.716224 34.272656 1.204397 1.432749 0.030486 0.008201 -157613.000000 0 0 1
-13.094680 -30.609125 5.227424 33.700373 1.166554 1.415053 0.007909 0.004342 -576691.000000 0 0 1
-13.540180 -30.972535 6.495924 34.421381 1.158665 1.380940 0.016970 0.017459 -216028.000000 0 0 1
-14.106980 -29.957075 7.284824 33.904305 1.130693 1.354243 -0.000567 0.017301 5672.620000 0 0 1
32.577746 -13.492935 -13.051476 37.599333 -0.392667 1.925295 0.003363 0.004940 -21580.000000 0 0 1
31.630086 -13.539235 -12.003876 36.439899 -0.404451 1.906481 0.012692 0.005176 21470.100000 0 0 1
31.399226 -14.810035 -11.502176 36.572511 -0.440727 1.890730 0.020672 -0.006442 60974.700000 0 0 1
32.338276 -15.490735 -10.434376 37.344386 -0.446725 1.853975 0.011888 -0.001890 430973.000000 0 0 1
33.681496 -15.659935 -10.854176 38.697414 -0.435210 1.855099 0.024054 -0.002060 -171757.000000 0 0 1
34.459040 -16.026435 -9.750576 39.234497 -0.435329 1.821949 0.015289 -0.001318 -511876.000000 0 0 1
-34.180703 -15.955335 -9.947176 39.010761 0.436731 1.828629 -0.005649 0.004449 -364468.000000 0 0 1
-33.746407 -14.609535 -10.227576 38.168859 0.408561 1.842067 -0.013853 0.019155 -54933.100000 0 0 1
-32.357367 -14.538735 -10.459776 36.983522 0.422286 1.857532 -0.019211 0.006635 108218.000000 0 0 1
-31.941457 -13.117335 -10.921876 36.216136 0.389669 1.877140 -0.010246 0.000349 -145165.000000 0 0 1
-31.817387 -12.153435 -9.933376 35.478501 0.364871 1.854573 0.011138 -0.006496 283202.000000 0 0 1
-31.513617 -10.902735 -10.502276 34.961057 0.333079 1.875908 0.011424 -0.002397 -168177.000000 0 0 1
-32.007207 -9.795435 -9.545276 34.806955 0.296987 1.848590 0.016678 -0.011596 50435.300000 0 0 1
-31.276177 -9.722635 -8.342076 33.798212 0.301394 1.820194 0.029582 -0.009824 200707.000000 0 0 1
-31.940167 -8.859935 -7.451576 33.973500 0.270588 1.791929 0.042841 -0.021505 -329914.000000 0 0 1
-31.277147 -8.790935 -6.061176 33.049634 0.273997 1.755236 0.035544 -0.015058 -1107170.000000 0 0 1
-30.077527 -8.087735 -6.277776 31.772308 0.262683 1.769691 0.042152 -0.024799 93737.000000 0 0 1
-29.306417 -8.011335 -5.039376 30.796800 0.266845 1.735169 0.048556 -0.022065 -282060.000000 0 0 1
-28.520247 -9.298935 -4.637176 30.354210 0.315178 1.724166 0.037879 -0.013284 -1333470.000000 0 0 1
-29.297367 -10.386235 -4.282576 31.377541 0.340688 1.707709 0.056105 -0.008643 -156696.000000 0 0 1
-29.681767 -10.376935 -2.957176 31.582162 0.336324 1.664568 0.022860 -0.009143 -29778.000000 0 0 1
-30.301657 -11.731235 -2.449476 32.585460 0.369378 1.646038 0.029874 -0.009979 -362240.000000 0 0 1
-31.621777 -11.956935 -2.849276 33.926737 0.361506 1.654879 0.040589 -0.019504 -279416.000000 0 0 1
-32.017447 -13.270835 -2.565576 34.753621 0.392933 1.644685 0.043713 -0.027579 10063.600000 0 0 1
-33.565097 -13.363135 -2.610076 36.221563 0.378890 1.642917 0.018443 -0.020493 2563.480000 0 0 1
-34.154727 -12.607335 -1.605276 36.442656 0.353609 1.614860 0.028599 -0.028921 829503.000000 0 0 1
34.610502 -12.921435 -1.380076 36.969649 -0.357313 1.608135 0.062573 -0.025681 1229690.000000 0 0 1
33.855556 -11.989135 -0.350376 35.917416 -0.340346 1.580552 0.060852 -0.027083 203604.000000 0 0 1
34.385879 -12.206035 0.944424 36.500245 -0.341098 1.544919 0.060899 -0.026470 281790.000000 0 0 1
33.803066 -11.318935 1.853924 35.695974 -0.323114 1.518836 0.063914 -0.026340 -207459.000000 0 0 1
34.117922 -11.667435 3.356324 36.213624 -0.329507 1.477982 0.060841 -0.031372 -68349.000000 0 0 1
33.247676 -12.527635 4.019024 35.756148 -0.360345 1.458157 0.054629 -0.034445 -219230.000000 0 0 1
33.800976 -12.736035 5.275524 36.504023 -0.360343 1.425770 0.049842 -0.027223 -556644.000000 0 0 1
32.738356 -12.931735 6.379124 35.773215 -0.376191 1.391516 0.041235 -0.010283 144194.000000 0 0 1
32.108056 -11.680035 6.748524 34.826614 -0.348891 1.375788 0.030924 -0.012546 190653.000000 0 0 1
31.848056 -11.729235 8.161824 34.906862 -0.352873 1.334794 0.000792 0.007632 -697022.000000 0 0 1
31.312226 -10.389735 8.588224 34.090463 -0.320380 1.316128 -0.009089 -0.003029 194096.000000 0 0 1
29.930416 -10.083435 8.382724 32.676835 -0.324953 1.311362 -0.001668 -0.000910 182712.000000 0 0 1
29.548176 -9.202635 9.373124 32.336336 -0.301924 1.276712 0.003568 0.004933 -4366.890000 0 0 1
28.000086 -8.951135 9.366824 30.852310 -0.309415 1.262325 0.007288 -0.002882 703281.000000 0 0 1
27.479506 -8.370835 8.157924 29.862114 -0.295691 1.294092 0.022509 -0.007216 -22192.400000 0 0 1
27.118976 -9.490135 7.388024 29.666217 -0.336625 1.319109 0.031928 -0.020439 -979055.000000 0 0 1
26.012546 -9.108035 6.361224 28.285580 -0.336800 1.343963 0.035887 -0.021742 -383747.000000 0 0 1
24.777226 -8.813835 6.994824 27.212537 -0.341764 1.310834 0.032855 -0.013207 650954.000000 0 0 1
23.821426 -8.393635 5.975724 25.954243 -0.338773 1.338471 0.026966 -0.012804 297553.000000 0 0 1
23.984626 -7.029635 5.223324 25.533530 -0.285105 1.364775 0.023574 -0.007866 -1158380.000000 0 0 1
24.932626 -7.006335 4.202524 26.237107 -0.273946 1.409929 0.024783 -0.014467 15323.700000 0 0 1
25.021826 -5.682035 3.758524 25.932678 -0.223296 1.425350 0.028970 -0.023418 -218738.000000 0 0 1
25.762516 -5.643335 2.429824 26.485062 -0.215646 1.478924 0.042166 -0.023448 2244.580000 0 0 1
25.035026 -6.124035 1.326524 25.807286 -0.239908 1.519373 0.032851 -0.012606 111618.000000 0 0 1
25.748436 -5.623635 0.221624 26.356334 -0.215030 1.562387 0.030031 -0.014551 43056.200000 0 0 1
25.100816 -5.929535 -1.156276 25.817578 -0.231976 1.615598 0.036981 -0.015439 861951.000000 0 0 1
23.907126 -5.139835 -1.369776 24.491730 -0.211768 1.626754 0.030149 -0.009557 615882.000000 0 1 0
23.362226 -5.347235 -2.662876 24.113843 -0.225008 1.681451 0.020330 -0.007587 542411.000000 0 1 0
22.224026 -4.293635 -2.876376 22.817015 -0.190847 1.697195 -0.001562 -0.002204 213057.000000 0 1 0
22.822926 -3.022635 -2.755476 23.186524 -0.131672 1.689917 -0.001918 -0.002270 803442.000000 0 1 0
23.344126 -2.431435 -3.980476 23.805551 -0.103782 1.738793 -0.001383 -0.001431 -322169.000000 0 1 0
22.274626 -1.593435 -4.661876 22.812959 -0.071414 1.776598 -0.008520 0.002169 -303798.000000 0 1 0
21.936626 -0.357135 -4.036776 22.307816 -0.016279 1.752757 -0.023051 0.008388 303554.000000 0 1 0
21.193826 0.366965 -4.989076 21.776221 0.017313 1.801956 -0.000757 0.013001 -241158.000000 0 1 0
20.755726 1.829265 -4.548076 21.326776 0.087906 1.785703 -0.009876 0.014198 -401751.000000 0 1 0
21.784226 2.838565 -4.427276 22.410058 0.129574 1.769662 -0.008577 0.009740 864471.000000 0 1 0
22.368826 2.817265 -3.130976 22.761906 0.125286 1.708787 -0.004641 0.001355 -250860.000000 0 1 0
23.600526 3.720965 -3.004576 24.080238 0.156377 1.695896 -0.009695 -0.001401 -492111.000000 0 1 0
23.276826 5.078165 -3.133876 24.029556 0.214798 1.701586 -0.011355 -0.000835 580482.000000 0 1 0
24.398926 5.895065 -2.847876 25.262022 0.237068 1.683770 -0.011537 0.000003 -373275.000000 0 0 1
24.091626 7.384465 -2.943776 25.369323 0.297424 1.687095 -0.011606 -0.004642 -115757.000000 0 0 1
23.235226 7.839465 -1.911176 24.596453 0.325402 1.648576 0.005964 -0.010578 741060.000000 0 1 0
22.210926 8.697865 -2.445176 23.978260 0.373247 1.672949 -0.003647 -0.009378 9702.700000 0 1 0
21.244226 9.067065 -1.322876 23.136093 0.403395 1.628006 -0.002746 -0.008412 -639848.000000 0 1 0
21.953026 9.725765 -0.291076 24.012717 0.417039 1.582918 -0.008294 -0.003970 802236.000000 0 1 0
21.077426 10.078865 0.796824 23.376833 0.446042 1.536704 0.001537 -0.005813 -162288.000000 0 1 0
21.664926 10.554065 2.153224 24.194910 0.453315 1.481684 0.021272 -0.003860 -446907.000000 0 1 0
22.467126 11.775265 2.108024 25.453337 0.482750 1.487882 0.016115 -0.004447 942831.000000 0 0 1
21.830226 12.988865 1.703624 25.459216 0.536731 1.503830 0.017971 -0.003828 -850216.000000 0 0 1
20.833226 13.586165 2.764824 25.025016 0.577878 1.460088 0.013148 0.002785 -98904.500000 0 0 1
19.562626 12.992465 2.532724 23.620228 0.586256 1.463363 0.061472 -0.009146 -137906.000000 0 1 0
18.530726 13.570865 3.268524 23.199987 0.632105 1.429441 0.042125 -0.009849 -531028.000000 0 1 0
18.393926 13.350565 4.796324 23.228836 0.627841 1.362819 0.017094 -0.002067 -899613.000000 0 1 0
18.030926 12.073265 5.199424 22.313942 0.590021 1.335622 0.012725 -0.005071 370341.000000 0 1 0
17.911126 12.047265 6.611824 22.575678 0.592108 1.273565 -0.009815 -0.005935 -233013.000000 0 1 0
18.072726 10.661665 7.226524 22.192728 0.532983 1.239123 -0.020920 -0.008601 603282.000000 0 1 0
19.341026 10.024265 6.922824 22.857967 0.478172 1.263101 -0.011602 -0.006593 1287630.000000 0 1 0
19.342526 8.697365 7.431924 22.472449 0.422563 1.233738 -0.010064 -0.001270 -317665.000000 0 1 0
20.320726 7.854765 6.630624 22.772668 0.368849 1.275351 0.006563 -0.004982 -176046.000000 0 1 0
19.892626 7.734465 5.295124 21.990381 0.370823 1.327614 -0.005160 -0.010356 677217.000000 0 1 0
20.855426 6.992665 4.600424 22.472429 0.323513 1.364625 0.000662 -0.014460 -365876.000000 0 1 0
20.605826 6.817765 3.077824 21.921564 0.319528 1.429929 0.004218 -0.011158 -323308.000000 0 1 0
21.546926 6.037565 2.385524 22.503620 0.273199 1.464591 0.001515 -0.014709 364644.000000 0 1 0
21.197826 5.889965 1.029724 22.024982 0.271020 1.524027 0.006697 -0.007410 -353928.000000 0 1 0
22.059926 4.836265 0.263224 22.585373 0.215819 1.559141 0.005139 -0.013516 418679.000000 0 1 0
21.772226 3.477065 0.641924 22.057467 0.158365 1.541690 -0.005257 -0.008898 788179.000000 0 1 0
23.031026 2.851265 0.492024 23.212065 0.123174 1.549598 0.002191 -0.009848 327729.000000 0 1 0
23.001326 1.304265 0.531224 23.044398 0.056643 1.547742 0.021818 -0.012287 -32684.300000 0 1 0
22.085326 0.816765 -0.442376 22.104851 0.036965 1.590810 0.006882 -0.012562 782276.000000 0 1 0
22.262126 -0.510435 -0.755176 22.280778 -0.022924 1.604696 0.005858 -0.010776 -899688.000000 0 1 0
21.925126 -1.624135 0.327524 21.987638 -0.073941 1.555900 0.018916 -0.012509 -25443.000000 0 1 0
22.838226 -1.796835 1.404024 22.951786 -0.078515 1.509585 0.022132 -0.015304 985329.000000 0 1 0
24.097426 -2.358535 0.962624 24.231700 -0.097564 1.531060 0.022933 -0.010718 591585.000000 0 1 0
25.202216 -2.009635 2.007024 25.361752 -0.079572 1.491578 0.034659 -0.012720 -96285.800000 0 0 1
25.311726 -0.583335 2.165624 25.410897 -0.023042 1.485469 0.028034 -0.016830 442719.000000 0 0 1
26.245286 -0.136335 3.146824 26.433617 -0.005195 1.451467 0.030833 -0.007022 182956.000000 0 0 1
25.877376 1.260865 3.732724 26.175591 0.048686 1.427705 0.027348 -0.004339 -363886.000000 0 0 1
25.933636 2.311365 2.777324 26.184144 0.088891 1.464528 0.029456 -0.006053 -96364.400000 0 0 1
27.185686 2.827565 2.419124 27.439184 0.103637 1.482519 0.034812 -0.015047 -508974.000000 0 0 1
27.064986 3.888465 1.360024 27.376692 0.142695 1.521098 0.025198 -0.024965 -332904.000000 0 0 1
26.534556 3.384065 0.105624 26.749686 0.126849 1.566848 0.017463 -0.014906 565804.000000 0 0 1
26.863716 4.192265 -1.014376 27.207780 0.154808 1.608088 0.013253 -0.009174 796825.000000 0 0 1
28.350536 3.938065 -1.538976 28.664083 0.138023 1.624512 0.022709 -0.005517 855253.000000 0 0 1
29.304136 4.234665 -0.541476 29.613476 0.143514 1.589082 0.046179 -0.014655 -620987.000000 0 0 1
30.576966 4.057665 -1.121676 30.865412 0.131932 1.607145 0.015939 -0.010794 -502785.000000 0 0 1
31.708606 4.480265 -0.182276 32.024080 0.140366 1.576488 -0.005334 -0.003169 -389632.000000 0 0 1
31.874756 3.636965 0.963624 32.096046 0.113610 1.540769 -0.005612 0.000270 416325.000000 0 0 1
30.987096 4.029165 2.002624 31.312055 0.129302 1.506796 0.007045 0.006502 -118301.000000 0 0 1
31.017616 3.182265 3.263024 31.350704 0.102238 1.466526 0.020456 0.012919 -102144.000000 0 0 1
30.334726 1.918665 3.144824 30.557598 0.063166 1.467699 0.017212 0.006173 274194.000000 0 0 1
30.497016 0.967265 4.165024 30.795308 0.031706 1.435132 0.015511 0.009158 266015.000000 0 0 1
31.729816 0.008765 3.947424 31.974419 0.000276 1.447025 0.032770 0.009476 296226.000000 0 0 1
32.932426 0.686365 4.217224 33.208444 0.020839 1.443460 0.028404 0.010352 237779.000000 0 0 1
34.046446 -0.153535 3.882424 34.267437 -0.004510 1.457255 0.029037 0.009475 525805.000000 0 0 1
-34.736321 0.491565 4.326924 35.008226 -0.014150 1.446882 0.039987 0.001640 673835.000000 0 0 1
-34.310031 1.664465 3.625424 34.541169 -0.048474 1.465643 0.030636 0.003561 291703.000000 0 0 1
-34.026287 1.470465 2.285024 34.134613 -0.043189 1.503805 0.023007 0.002067 -1053900.000000 0 0 1
-33.937547 2.832265 1.568324 34.091618 -0.083262 1.524777 0.018973 0.001670 738206.000000 0 0 1
-32.780997 3.698665 1.640024 33.029737 -0.112354 1.521123 0.016805 0.001804 617903.000000 0 0 1
-31.671957 3.216465 0.935024 31.848591 -0.101209 1.541434 0.011138 0.007949 -183275.000000 0 0 1
-30.309037 3.857465 1.359224 30.583741 -0.126591 1.526339 -0.005740 0.005558 209565.000000 0 0 1
-30.102967 3.487965 2.717424 30.425958 -0.115353 1.481364 0.003489 0.000484 187937.000000 0 0 1
-29.424457 4.507665 3.439824 29.965815 -0.152013 1.455751 0.002649 0.006227 -637425.000000 0 0 1
-29.465167 4.344465 4.994024 30.199515 -0.146389 1.404666 0.002849 0.002935 213987.000000 0 0 1
-30.690257 4.678565 5.642124 31.553358 -0.151280 1.391017 0.005257 0.003363 -227815.000000 0 0 1
-31.699407 3.757465 5.537324 32.398038 -0.117984 1.399038 0.019802 0.005839 -1027260.000000 0 0 1
-31.781727 2.685965 6.647324 32.580354 -0.084313 1.365325 0.024621 0.012870 -649381.000000 0 0 1
-32.069877 3.418465 7.864324 33.196543 -0.106193 1.331621 0.010092 0.016591 344227.000000 0 0 1
-32.219097 2.652665 9.028124 33.565069 -0.082147 1.298469 0.013057 0.016422 21229.800000 0 0 1
-33.427497 1.672965 9.180224 34.705516 -0.050006 1.303093 0.015448 0.018939 -271064.000000 0 0 1
-33.572617 0.619165 8.242724 34.575229 -0.018440 1.330079 0.026166 0.005259 507779.000000 0 0 1
-34.613977 -0.342135 8.479424 35.639095 0.009884 1.330568 0.040265 0.004699 157008.000000 0 0 1
-34.410192 -1.240235 9.682124 35.767905 0.036027 1.296683 0.027682 0.016124 124779.000000 0 0 1
-33.143487 -1.899135 9.610124 34.560844 0.057238 1.289018 0.027881 -0.007434 703771.000000 0 0 1
-33.106027 -2.804935 10.731924 34.914909 0.084524 1.258364 0.021274 0.004652 -321843.000000 0 0 1
-31.741537 -3.491235 10.786624 33.705565 0.109549 1.245040 0.012926 -0.004468 -505866.000000 0 0 1
-31.561007 -4.289335 9.642624 33.278758 0.135079 1.276827 0.016321 -0.012205 -350286.000000 0 0 1
-30.363017 -5.002135 9.736524 32.275905 0.163278 1.264357 0.000889 -0.017413 -387762.000000 0 0 1
-30.354967 -6.065635 8.619824 32.132807 0.197226 1.299214 0.004823 -0.011307 4485.220000 0 0 1
-31.229517 -7.137835 8.858624 33.237127 0.224701 1.301007 0.004672 -0.006351 -103452.000000 0 0 1
-31.079897 -8.077135 7.848024 33.057398 0.254258 1.331102 0.014610 -0.009108 530167.000000 0 0 1
-32.166557 -9.224635 7.923624 34.388444 0.279282 1.338292 0.017370 -0.009631 1476350.000000 0 0 1
-33.494257 -8.776335 7.582124 35.445422 0.256264 1.355221 0.019527 -0.016031 903355.000000 0 0 1
-34.449398 -9.834935 7.686124 36.641008 0.278092 1.359458 0.019210 -0.011038 280902.000000 0 0 1
7.814673 -23.994835 10.596924 27.369984 -1.255948 1.173233 0.047942 -0.011939 -57444.300000 0 0 1
7.214173 -24.918635 9.701024 27.696436 -1.288992 1.212945 0.041932 -0.010964 -1136880.000000 0 0 1
5.857573 -25.012335 9.953124 27.549823 -1.340755 1.201159 0.046335 -0.019698 -710472.000000 0 0 1
5.261473 -26.044935 8.994224 28.052056 -1.371464 1.244406 0.031634 -0.006103 -520655.000000 0 0 1
4.986373 -25.551165 7.711424 27.151280 -1.378066 1.282815 0.040404 -0.004081 -294074.000000 0 0 1
4.712473 -26.598985 6.768224 27.848201 -1.395448 1.325298 0.036578 0.002326 -708590.000000 0 0 1
4.053673 -26.065455 5.487524 26.943518 -1.416513 1.365694 0.033781 0.006156 175089.000000 0 0 1
2.643673 -25.971225 5.521824 26.683030 -1.469353 1.362349 0.018300 -0.003385 -222682.000000 0 0 1
2.033373 -27.173565 5.103224 27.723278 -1.496106 1.385663 0.009078 -0.000074 1754940.000000 0 0 1
0.420473 -27.052285 5.084824 27.529228 -1.555255 1.385023 0.013620 -0.000681 1865040.000000 0 0 1
-0.135927 -26.977445 6.354624 27.716101 1.565758 1.339463 0.019808 -0.001863 46810.300000 0 0 1
-1.565027 -26.967725 6.348224 27.749008 1.512828 1.339979 0.007488 -0.002929 1105870.000000 0 0 1
-2.237527 -28.388725 6.529224 29.215698 1.492141 1.345410 0.003960 0.002770 -102527.000000 0 0 1
-1.840927 -28.982425 7.758024 30.059224 1.507363 1.309750 0.003402 -0.001575 -244507.000000 0 0 1
-2.541427 -30.114585 8.074824 31.281782 1.486604 1.309708 0.002106 0.000230 -341768.000000 0 0 1
-2.255027 -30.660925 9.518524 32.183533 1.497381 1.270548 -0.006770 0.000678 170509.000000 0 0 1
-1.000027 -31.297885 9.638524 32.763682 1.538855 1.272196 -0.005850 0.002807 -154626.000000 0 0 1
-0.810527 -31.595685 11.021724 33.472716 1.545149 1.235261 -0.012432 0.003207 -457009.000000 0 0 1
0.633673 -31.828725 11.448324 33.830954 -1.550890 1.225582 0.002522 0.001519 -685749.000000 0 0 1
1.047773 -33.098755 10.985624 34.889961 -1.539151 1.250482 0.001659 0.003741 -585854.000000 0 0 1
2.434873 -33.272805 11.042124 35.141666 -1.497747 1.251164 0.021987 0.005252 -177746.000000 0 0 1
2.980173 -33.889485 12.333224 36.186836 -1.483084 1.223007 0.011826 0.005623 -546484.000000 0 0 1
2.766773 -33.220235 13.557624 35.986779 -1.487702 1.184523 -0.005610 0.005994 -345531.000000 0 0 1
3.486073 -33.712805 14.608524 36.906841 -1.467758 1.163834 -0.007413 0.014320 -1220880.000000 0 0 1
3.232073 -32.809305 15.831024 36.572095 -1.472602 1.123120 -0.011244 0.007876 -26380.200000 0 0 1
3.591973 -31.413465 15.738124 35.318503 -1.456946 1.108946 -0.013651 0.000233 454832.000000 0 0 1
4.997273 -31.187445 15.838124 35.333775 -1.411913 1.105997 0.000382 0.004876 95484.600000 0 0 1
5.455173 -29.818075 15.348424 33.977208 -1.389849 1.102096 0.014744 0.002011 -209117.000000 0 0 1
5.488573 -29.538915 13.982024 33.138632 -1.387083 1.135229 0.015090 0.009527 -659750.000000 0 0 1
4.260173 -29.663875 13.325624 32.797360 -1.428157 1.152393 0.004928 0.012497 -1148780.000000 0 0 1
4.357673 -29.668125 11.766024 32.212207 -1.424958 1.196878 0.011666 0.003623 349188.000000 0 0 1
4.951473 -30.858125 11.182424 33.193186 -1.411693 1.227185 0.011734 0.002846 274381.000000 0 0 1
6.324473 -31.036895 11.504224 33.699184 -1.369776 1.222412 0.009676 0.008643 -291837.000000 0 0 1
6.925273 -32.208175 10.710924 34.641736 -1.359005 1.256454 -0.001816 0.005051 3552.600000 0 0 1
6.543473 -33.456785 11.373824 35.937966 -1.377655 1.248775 -0.008106 0.006675 348770.000000 0 0 1
6.830373 -34.519896 10.502824 36.723107 -1.375452 1.280746 0.001631 0.006145 -191882.000000 0 0 1
6.716773 33.482108 11.182524 35.933486 1.372816 1.254340 0.006333 0.007606 39458.500000 0 0 1
5.407273 33.137028 11.568724 35.512485 1.409043 1.238976 -0.003110 0.003808 -149134.000000 0 0 1
5.434873 31.916168 12.266624 34.621521 1.402128 1.208624 0.000101 0.002970 -135233.000000 0 0 1
4.143173 31.492678 12.972524 34.310946 1.439988 1.183067 -0.005630 0.010837 -103089.000000 0 0 1
4.112973 32.025058 14.323024 35.322371 1.443066 1.153277 0.007547 0.008852 -428983.000000 0 0 1
2.912773 31.703328 14.943924 35.169676 1.479178 1.131935 0.004099 0.007274 -455913.000000 0 0 1
3.093273 31.568638 16.458024 35.735330 1.473122 1.092178 0.000919 0.001087 16674.300000 0 0 1
3.518073 32.772688 16.997124 37.085417 1.463858 1.094688 0.001832 0.000069 163905.000000 0 0 1
3.657373 32.753558 18.401824 37.746511 1.459594 1.061560 0.000353 0.004820 -219376.000000 0 0 1
4.085973 34.020922 19.098324 39.228361 1.451267 1.062317 0.007325 0.008308 -362564.000000 0 0 1
3.117373 -34.323331 19.267824 39.484910 -1.480221 1.061023 -0.013320 0.004145 -382528.000000 0 0 1
3.507673 -33.459705 20.299224 39.292673 -1.466345 1.027902 -0.008366 -0.001636 83744.200000 0 0 1
2.446273 -32.425695 20.800224 38.601286 -1.495497 1.001727 -0.023742 0.001775 219180.000000 0 0 1
1.421573 -33.155395 21.449524 39.514342 -1.527947 0.996995 -0.021370 0.004105 -317954.000000 0 0 1
0.483973 -32.240585 21.996324 39.032395 -1.555786 0.972131 -0.019095 0.008420 522455.000000 0 0 1
-0.704527 -32.962015 22.766524 40.066263 1.549426 0.966453 -0.022709 0.005422 -493617.000000 0 0 1
-1.636627 -33.435215 21.888124 39.996027 1.521886 0.991712 -0.039196 0.007001 -961042.000000 0 0 1
-2.353127 -34.514258 22.426324 41.227554 1.502723 0.995642 -0.030605 0.004192 663594.000000 0 0 1
-3.740227 -34.106498 23.099324 41.362076 1.461570 0.978261 -0.009594 0.003147 639746.000000 0 0 1
-4.707227 -33.878105 22.087324 40.715278 1.432734 0.997407 -0.024796 0.001609 330831.000000 0 0 1
-5.929827 -33.399135 22.693324 40.812401 1.395083 0.981183 -0.012110 0.002120 1053010.000000 0 0 1
-7.081527 -33.270965 21.657324 40.325486 1.361082 1.003845 0.001130 -0.006112 2047.800000 0 0 1
-7.746327 -34.440950 21.299124 41.229083 1.349562 1.027916 0.012590 0.005928 -283356.000000 0 0 1
-8.957027 -34.156134 20.645424 40.903586 1.314333 1.041723 0.025923 -0.007586 -485919.000000 0 0 1
-9.953127 34.065490 20.708124 41.089521 -1.286533 1.042601 0.048892 -0.007263 -396890.000000 0 0 1
-10.340827 33.891913 22.067724 41.744208 -1.274656 1.013797 0.055967 -0.000839 -887201.000000 0 0 1
-11.701227 33.605992 22.159624 41.920524 -1.235736 1.013834 0.035863 -0.000268 -726627.000000 0 0 1
-12.134027 33.372844 23.623024 42.650071 -1.222066 0.983779 0.032470 0.000190 -364390.000000 0 0 1
-12.167727 34.559886 24.445724 44.045802 -1.232273 0.982425 0.037206 -0.004705 518526.000000 0 0 1
-10.993727 -33.967785 24.540524 43.323317 1.257785 0.968604 0.029012 -0.002436 318157.000000 0 0 1
-11.381827 -32.505735 24.822224 42.453641 1.233989 0.946298 0.029989 0.000064 -66597.000000 0 0 1
-11.877727 -32.383225 26.144724 43.281639 1.219246 0.922210 0.035499 -0.001095 61559.700000 0 0 1
-12.255127 -30.992425 26.339124 42.479030 1.194242 0.901990 0.042935 -0.003658 -149090.000000 0 0 1
-13.072627 -30.759365 27.594224 43.341358 1.168929 0.880622 0.047323 -0.011454 -234869.000000 0 0 1
-12.279427 -30.596865 28.749024 43.743101 1.189144 0.853666 0.045327 -0.013409 698726.000000 0 0 1
-13.135627 -30.077035 29.785724 44.321125 1.159030 0.833831 0.033758 -0.014737 442119.000000 0 0 1
-12.375927 -29.830865 31.115424 44.846557 1.177537 0.804017 0.035664 -0.007237 -183209.000000 0 0 1
-13.131727 -29.187085 32.164124 45.374652 1.148013 0.782920 0.041044 -0.006995 322004.000000 0 0 1
-12.482527 -28.995765 33.404624 45.961253 1.164281 0.757145 0.036477 -0.005674 -319255.000000 0 0 1
-12.019027 -30.190625 34.262524 47.221303 1.191925 0.758929 0.028953 0.004085 240048.000000 0 0 1
-10.731027 -30.616615 33.825224 46.868730 1.233679 0.764539 0.016215 0.007119 249902.000000 0 0 1
-10.157027 -31.508975 -34.319605 47.684547 1.258960 2.374198 0.014953 0.015967 215295.000000 0 0 1
-8.647427 -31.805155 -34.522605 47.730034 1.305326 2.379350 0.004740 0.012733 26577.400000 0 0 1
-7.889727 -30.832245 -33.863505 46.471627 1.320280 2.387206 0.007131 0.010261 -1278590.000000 0 0 1
-6.634927 -31.351035 -33.597405 46.429466 1.362240 2.379833 0.005032 0.006329 -461789.000000 0 0 1
-5.881827 -30.588685 -32.449705 44.980517 1.380827 2.376643 -0.009271 0.014893 552732.000000 0 0 1
-6.553327 -30.725425 -31.190005 44.269790 1.360658 2.352576 -0.019415 0.019874 11709.500000 0 0 1
-5.812627 -30.018895 -30.260505 43.018820 1.379531 2.351001 -0.025827 0.027661 -18918.000000 0 0 1
-6.330927 -30.160215 -28.758805 42.151964 1.363890 2.321652 -0.016744 0.018968 -35523.100000 0 0 1
-5.950327 -31.354615 -28.119105 42.534720 1.383251 2.293061 -0.023349 0.023878 -292667.000000 0 0 1
-6.863027 -31.596865 -27.095905 42.185911 1.356913 2.268288 -0.023954 0.025378 -252077.000000 0 0 1
-6.624027 -32.950825 -26.382905 42.728121 1.372413 2.236306 -0.018525 0.019820 -312870.000000 0 0 1
-5.544627 -32.871095 -25.521005 41.983014 1.403691 2.224195 -0.020765 0.009029 -615077.000000 0 0 1
-5.456427 -34.014125 -24.706305 42.392627 1.411735 2.192963 -0.017685 0.006649 -319650.000000 0 0 1
-4.741727 -33.872005 -23.354105 41.415105 1.431711 2.169901 -0.008112 0.001579 -66847.800000 0 0 1
-5.287327 -32.998805 -22.366805 40.213815 1.411919 2.160599 -0.001512 0.007680 -156320.000000 0 0 1
-5.083727 -31.585715 -22.544205 39.137487 1.411215 2.184655 -0.003377 0.012527 -247218.000000 0 0 1
-5.645527 -30.726995 -21.393805 37.864431 1.389091 2.171242 0.010514 0.002605 162731.000000 0 0 1
-7.068827 -30.738115 -21.515905 38.180286 1.344757 2.169454 0.020233 0.009229 35835.300000 0 0 1
-7.589227 -29.691725 -20.737805 37.003398 1.320553 2.165701 0.024334 -0.003718 -135105.000000 0 0 1
-7.604927 -28.286685 -21.417505 36.286099 1.308155 2.202152 0.023697 -0.019094 -534647.000000 0 0 1
-6.314227 -27.736195 -21.679405 35.765383 1.346958 2.222015 0.023073 -0.011269 157710.000000 0 0 1
-6.431527 -27.039435 -22.918705 36.024473 1.337278 2.260357 0.030981 -0.022599 -723686.000000 0 0 1
-5.508227 -27.653865 -24.011405 37.035448 1.374185 2.276193 0.015269 -0.010645 1022430.000000 0 0 1
-4.109227 -27.354195 -23.967405 36.600195 1.421688 2.284772 0.019187 -0.007003 951902.000000 0 0 1
-3.390127 -27.573105 -22.738705 35.900109 1.448460 2.256720 -0.001123 -0.010014 -779082.000000 0 0 1
-1.932127 -27.038535 -22.757205 35.393586 1.499459 2.269173 0.011166 -0.007057 191333.000000 0 0 1
-1.637027 -25.675015 -22.976305 34.493432 1.507123 2.299773 0.009563 -0.008567 14663.200000 0 0 1
-2.147227 -24.845935 -21.938605 33.214959 1.484589 2.292286 0.027131 -0.007903 -718071.000000 0 0 1
-2.071727 -23.369535 -22.321805 32.383487 1.482377 2.331313 0.027103 -0.003754 369896.000000 0 0 1
-2.905827 -22.967335 -23.408505 32.922643 1.444945 2.361737 0.019150 -0.010376 390968.000000 0 0 1
-4.300927 -23.199835 -23.351105 33.196452 1.387491 2.350996 0.014060 -0.014340 9121.260000 0 0 1
-5.051827 -23.344335 -24.742705 34.390121 1.357678 2.373837 0.004943 -0.011626 158570.000000 0 0 1
-5.134927 -22.130935 -25.430105 34.100382 1.342806 2.412445 0.012540 -0.010502 93356.600000 0 0 1
-5.493427 -22.300035 -26.779805 35.279276 1.329264 2.432696 0.011524 -0.003267 -56128.600000 0 0 1
-5.427127 -20.975335 -27.650405 35.127814 1.317610 2.476950 0.016242 0.008189 51713.000000 0 0 1
-5.611627 -21.093635 -29.063605 36.347283 1.310785 2.497440 0.008576 0.012457 -912488.000000 0 0 1
-4.479727 -21.454135 -29.735505 36.939791 1.364949 2.506425 0.005854 0.004861 -1041220.000000 0 0 1
-4.751027 -21.761535 -31.221205 38.352318 1.355847 2.521910 0.004372 -0.001196 -125669.000000 0 0 1
-5.275627 -20.721035 -31.975105 38.465581 1.321491 2.552177 0.023871 -0.005955 37325.800000 0 0 1
-6.257527 -21.263435 -32.857405 39.634573 1.284590 2.548129 0.012282 0.000154 194568.000000 0 0 1
-6.465927 -20.483435 -34.199405 40.385377 1.265030 2.580786 0.012420 -0.000796 396117.000000 0 0 1
-5.438327 -20.839635 33.979024 40.229838 1.315529 0.564937 0.012579 -0.004608 9362.790000 0 0 1
-5.541327 -20.022335 32.800324 38.826041 1.300797 0.564601 0.010926 -0.001388 539520.000000 0 0 1
-4.361627 -20.278635 31.814024 37.978665 1.358939 0.577772 0.004842 -0.001892 -460564.000000 0 0 1
-4.357427 -21.592135 31.380724 38.340022 1.371665 0.612028 -0.005165 -0.002982 -800148.000000 0 0 1
-3.285927 -22.064735 30.647124 37.906412 1.422961 0.629207 0.000021 -0.008530 321051.000000 0 0 1
-1.893227 -22.129635 31.397424 38.459112 1.485452 0.615674 0.001164 -0.008940 343377.000000 0 0 1
-1.161227 -20.937935 31.165024 37.563337 1.515393 0.592287 -0.002275 -0.007828 -214721.000000 0 0 1
-0.094727 -20.575935 32.006524 38.049910 1.566193 0.571349 0.003031 -0.003836 38927.900000 0 0 1
-0.503827 -20.123335 33.447124 39.037323 1.545765 0.541767 -0.005323 0.000117 -180498.000000 0 0 1
-1.357027 -18.996835 33.393424 38.442711 1.499483 0.518317 0.000180 -0.009939 -207436.000000 0 0 1
-1.745827 -18.744535 -34.381005 39.197692 1.477926 2.640625 0.001582 -0.008851 76759.900000 0 0 1
-2.762027 -17.565435 -34.331005 38.662530 1.414831 2.663699 -0.010719 -0.008040 163077.000000 0 0 1
-2.279927 -16.231635 34.537524 38.229630 1.431247 0.443109 0.007086 -0.011161 295247.000000 0 0 1
-3.228227 -15.229035 -34.133305 37.515697 1.361910 2.713696 0.014813 -0.011517 442302.000000 0 0 1
-2.891027 -13.789335 34.549024 37.311377 1.364133 0.387214 0.017134 -0.014427 157164.000000 0 0 1
-1.824927 -13.226235 -33.749905 36.294900 1.433684 2.764883 0.014324 -0.006194 511736.000000 0 0 1
-1.579827 -11.813535 -34.000805 36.029297 1.437855 2.804435 0.005568 -0.001814 211663.000000 0 0 1
-0.938527 -11.448435 33.720924 35.623703 1.489001 0.328316 0.003390 -0.007055 260784.000000 0 0 1
-1.860927 -11.667735 32.623124 34.696791 1.412635 0.347478 0.008273 -0.013688 1032650.000000 0 0 1
-1.238027 -11.233635 31.410424 33.381762 1.461032 0.345384 0.004634 -0.006107 133249.000000 0 0 1
-0.207927 -12.076335 30.655024 32.948621 1.553580 0.375325 0.000707 -0.009719 -303840.000000 0 0 1
-0.766327 -13.264935 30.181924 32.977178 1.513090 0.414701 0.019411 -0.020397 280941.000000 0 0 1
0.225073 -14.280335 29.991424 33.218431 -1.555037 0.444432 0.007620 -0.019465 -371449.000000 0 0 1
-0.261927 -15.667835 30.461324 34.255539 1.554080 0.475120 0.005854 -0.022296 341820.000000 0 0 1
-1.091627 -16.385435 29.539724 33.797477 1.504273 0.507378 0.014148 -0.023192 236978.000000 0 0 1
-1.483427 -17.581035 30.074624 34.867985 1.486619 0.530551 0.015537 -0.014023 -463703.000000 0 0 1
-2.253627 -18.544635 29.210324 34.673122 1.449865 0.568984 0.016394 -0.019766 141271.000000 0 0 1
-3.470527 -18.041435 28.640724 34.026887 1.380754 0.570356 0.033034 -0.020926 119371.000000 0 0 1
-4.164827 -18.994135 27.894024 34.002934 1.354943 0.608788 0.036619 -0.017777 -584013.000000 0 0 1
-3.531627 -19.565535 26.608324 33.215741 1.392217 0.641706 0.039753 -0.025921 -1573860.000000 0 0 1
-4.221427 -20.342835 25.727824 33.069205 1.366186 0.679321 0.050607 -0.021699 -768603.000000 0 0 1
-4.440227 -21.636735 26.210624 34.276242 1.368389 0.700240 0.033393 -0.021298 -113994.000000 0 0 1
-28.205777 34.621065 -0.430076 44.658358 -0.887156 1.580427 -0.007417 0.003102 -338966.000000 0 0 1
-27.750467 -33.409109 -0.223576 43.431635 0.877658 1.575944 0.001407 0.006763 55433.700000 0 0 1
-28.095227 -32.918209 1.065924 43.290720 0.864282 1.546171 -0.012771 0.007050 -356257.000000 0 0 1
-27.589687 -31.528509 1.459724 41.920979 0.851926 1.535968 0.002278 -0.002248 35733.400000 0 0 1
-26.174307 -31.499309 1.466124 40.981097 0.877467 1.535013 0.011181 -0.009911 -304826.000000 0 0 1
-25.671057 -30.220509 1.743624 39.690333 0.866617 1.526851 0.024515 -0.008124 730931.000000 0 0 1
-24.142627 -30.207409 2.067124 38.725018 0.896526 1.517391 0.024879 -0.006496 404543.000000 0 0 1
-23.937027 -30.930309 3.241524 39.245035 0.912173 1.488105 0.023278 -0.007268 947821.000000 0 0 1
-22.504327 -31.047209 3.387624 38.494804 0.943592 1.482680 0.027873 -0.000643 890696.000000 0 0 1
-22.122827 -31.769409 4.703324 38.997898 0.962520 1.449897 0.027321 -0.005026 -12831.500000 0 0 1
-22.339127 -30.938609 5.800824 38.599011 0.945427 1.419941 0.018014 -0.007875 -321138.000000 0 0 1
-21.655927 -31.527709 6.860024 38.859176 0.968926 1.393331 0.008926 0.001668 -348043.000000 0 0 1
-22.037427 -31.024909 8.269624 38.943290 0.953182 1.356817 0.003194 0.013244 -127851.000000 0 0 1
-21.584427 -29.688109 8.558124 37.689691 0.942153 1.341730 0.007407 0.012248 344563.000000 0 0 1
-22.185427 -29.321809 9.795924 38.051567 0.923073 1.310426 -0.002647 0.013410 174463.000000 0 0 1
-21.427827 -28.130609 10.407724 36.861954 0.919832 1.284560 -0.004828 0.014695 617499.000000 0 0 1
-20.169327 -28.376209 11.024324 36.517759 0.952870 1.264122 -0.009334 0.011404 205772.000000 0 0 1
-19.824427 -27.275809 11.912024 35.761347 0.942300 1.231209 0.004153 0.008726 -139319.000000 0 0 1
-18.482927 -27.435409 12.625824 35.408074 0.977948 1.206191 0.002344 0.013171 -412920.000000 0 0 1
-18.483427 -28.556309 13.494624 36.595146 0.996348 1.193128 -0.000810 0.019769 -50386.700000 0 0 1
-17.220327 -28.756609 14.108624 36.366681 1.031237 1.172385 0.005018 0.013155 -43786.300000 0 0 1
-17.262227 -29.785409 15.259724 37.656530 1.045547 1.153561 0.005307 0.000919 -131646.000000 0 0 1
-17.485827 -31.161709 14.764624 38.662648 1.059447 1.178963 0.004504 0.002178 -70102.700000 0 0 1
-17.623927 -32.151909 15.738624 39.900530 1.069378 1.165331 0.017335 0.003317 143339.000000 0 0 1
-17.373027 -33.543809 15.197024 40.718039 1.092915 1.188313 0.009868 0.000908 93872.900000 0 0 1
-17.082927 -34.554009 16.163824 41.798028 1.111652 1.173732 0.026027 0.005184 115991.000000 0 0 1
-16.986827 33.567965 15.479324 40.681323 -1.102326 1.180457 0.013593 0.002877 -205096.000000 0 0 1
-16.688027 32.394965 16.414424 39.966952 -1.095108 1.147575 0.017895 -0.003999 -263714.000000 0 0 1
-17.720027 32.105165 17.326324 40.557890 -1.066467 1.129403 0.016414 -0.010203 79771.300000 0 0 1
-17.474327 30.987465 18.215624 39.967287 -1.057332 1.097567 0.006105 -0.011041 -183913.000000 0 0 1
-18.277327 31.061365 19.524724 40.988826 -1.038930 1.074306 0.010857 -0.012114 -307537.000000 0 0 1
-17.820427 32.008665 20.415324 41.939333 -1.062795 1.062394 0.006381 -0.009534 -402823.000000 0 0 1
-18.772927 32.222965 21.412124 43.002573 -1.043273 1.049590 -0.000775 -0.003218 -287200.000000 0 0 1
-18.402327 33.278565 22.496724 44.183833 -1.065669 1.036586 -0.012242 0.006443 624719.000000 0 0 1
-17.238327 32.812365 23.211624 43.733176 -1.087067 1.011305 -0.008376 -0.005188 530792.000000 0 0 1
-17.067627 33.490565 24.449924 44.841059 -1.099478 0.994100 -0.009461 -0.004596 -61705.900000 0 0 1
-17.942327 32.902265 25.590424 45.380127 -1.071552 0.971680 -0.017341 -0.003738 -37605.100000 0 0 1
-19.250027 33.414465 25.646824 46.312520 -1.048137 0.983902 -0.021706 -0.007922 -723550.000000 0 0 1
-20.142327 32.457965 26.122324 46.277517 -1.015391 0.971004 -0.026032 -0.001796 -1581520.000000 0 0 1
-21.548927 32.836265 25.811324 46.997883 -0.990037 0.989387 -0.017589 -0.011061 -1711680.000000 0 0 1
-21.891827 32.720465 24.468524 46.352881 -0.981141 1.014700 -0.013649 0.001561 146540.000000 0 0 1
-23.269927 32.904465 24.246224 47.032677 -0.955257 1.029183 -0.022915 -0.003821 -391219.000000 0 0 1
-23.626227 32.400865 22.863024 46.159858 -0.940750 1.052615 -0.028105 -0.005219 -560611.000000 0 0 1
-23.250527 33.228865 21.811924 46.048936 -0.960266 1.077345 -0.030317 -0.007965 -34976.500000 0 0 1
-23.085727 32.489965 20.634624 44.881358 -0.953025 1.093072 -0.027541 0.000914 -334205.000000 0 0 1
-22.479227 33.156665 19.398324 44.508146 -0.975009 1.119828 -0.021462 0.002593 -1011480.000000 0 0 1
-21.119927 33.375265 19.506324 44.050610 -1.006606 1.112059 -0.010123 0.012522 -1095250.000000 0 0 1
-20.695027 34.304565 18.568124 44.157248 -1.027973 1.136800 -0.005427 0.010834 -490349.000000 0 0 1
-19.563527 -34.094209 18.953324 43.639147 1.049858 1.121514 0.006676 0.002981 -321814.000000 0 0 1
-19.771127 -33.160209 19.984324 43.472636 1.033153 1.093140 0.007124 0.002389 -91903.200000 0 0 1
-18.543827 -32.562309 20.304024 42.619607 1.053115 1.074240 0.010016 0.001307 -333839.000000 0 0 1
-18.645127 -31.550409 21.477624 42.477728 1.037048 1.040695 0.018896 0.000164 -274314.000000 0 0 1
-19.261127 -30.355109 21.054824 41.662084 1.005376 1.040984 0.016049 0.005959 208554.000000 0 0 1
-19.495027 -29.383609 22.065124 41.597142 0.985013 1.011667 0.018814 0.007780 -247603.000000 0 0 1
-20.238527 -28.125909 21.649024 40.857618 0.947057 1.012355 0.004442 0.003072 -380458.000000 0 0 1
-19.469227 -27.307309 20.778924 39.452549 0.951420 1.016104 0.007696 0.016566 385520.000000 0 0 1
-20.035127 -26.021309 20.505824 38.716968 0.914649 1.012627 0.008135 0.024899 -153787.000000 0 0 1
-21.207927 -25.919309 19.465724 38.736303 0.885039 1.044287 0.009695 0.018861 -235201.000000 0 0 1
-22.349727 -26.487209 20.039024 40.033049 0.869917 1.046548 0.006806 0.013103 -367658.000000 0 0 1
-23.396027 -26.475909 19.061824 40.145995 0.847076 1.076045 0.002225 0.018897 687840.000000 0 0 1
-24.781727 -26.894309 19.676524 41.528345 0.826257 1.077185 -0.013572 0.019798 429123.000000 0 0 1
-24.970727 -28.297509 19.925124 42.676654 0.847771 1.085030 -0.017946 0.019214 -91883.000000 0 0 1
-25.232357 -29.058009 18.757124 42.812024 0.855748 1.117282 -0.016000 0.018154 87649.400000 0 0 1
-26.441757 -30.015009 19.054124 44.307188 0.848606 1.126253 -0.002323 0.006958 -690319.000000 0 0 1
-27.610257 -29.325709 19.187924 44.615019 0.815519 1.126218 -0.003808 -0.000742 -1501090.000000 0 0 1
-28.633907 -29.955809 18.458124 45.364672 0.807956 1.151757 0.000061 0.006298 -809432.000000 0 0 1
-29.997807 -29.325009 18.719524 45.937405 0.774057 1.151081 -0.004822 -0.000849 -448637.000000 0 0 1
-30.132757 -28.083109 18.134624 45.005651 0.750205 1.156068 0.010035 0.006417 -662298.000000 0 0 1
-31.369637 -27.598609 18.519624 45.702448 0.721535 1.153575 -0.003225 0.018348 -779729.000000 0 0 1
-31.753777 -26.294409 17.874324 44.935395 0.691625 1.161702 -0.009798 0.008948 -329958.000000 0 0 1
-31.718847 -26.433009 16.474724 44.454536 0.694750 1.191144 0.012812 -0.005988 280361.000000 0 0 1
-32.331037 -25.401809 15.740924 44.026407 0.665947 1.205171 0.008709 -0.009206 47592.500000 0 0 1
-31.382147 -24.189209 15.417724 42.516622 0.656678 1.199710 -0.012674 -0.000300 289212.000000 0 0 1
-30.911087 -23.509309 16.552224 42.215625 0.650217 1.167897 -0.020932 0.014689 -18115.500000 0 0 1
-30.275697 -22.315509 16.180324 40.943896 0.635179 1.164529 -0.031410 0.015419 -180986.000000 0 0 1
-31.201457 -21.075109 16.248124 41.008446 0.594061 1.163407 -0.015688 0.002524 90997.200000 0 0 1
-31.515767 -20.748409 17.606424 41.638038 0.582223 1.134214 -0.015475 0.003590 -135752.000000 0 0 1
-32.485377 -19.759109 17.753324 41.963110 0.546461 1.133966 -0.007014 -0.002549 -243941.000000 0 0 1
-32.814087 -19.507809 19.251324 42.754326 0.536362 1.103720 0.007988 -0.003553 -104800.000000 0 0 1
-33.844357 -20.308409 19.797124 44.156518 0.540458 1.105889 0.006352 0.003140 234531.000000 0 0 1
-34.206551 -19.796609 21.073324 44.789271 0.524638 1.080940 0.001089 0.013133 -335262.000000 0 0 1
34.466057 -20.032109 21.432224 45.260741 -0.526491 1.077504 0.007391 0.019069 -94967.400000 0 0 1
33.883416 -21.302409 21.751824 45.552391 -0.561254 1.072975 0.017016 0.017172 7071.960000 0 0 1
34.578164 -22.040709 22.747824 46.892491 -0.567479 1.064312 -0.003703 0.026317 -498611.000000 0 0 1
33.971416 -23.386609 23.212624 47.326699 -0.602912 1.058160 0.006976 0.026333 244802.000000 0 0 1
32.862296 -23.253009 24.104324 46.921758 -0.615801 1.031289 0.023851 0.009499 327950.000000 0 0 1
32.770306 -24.521809 24.731824 47.821284 -0.642408 1.027253 0.029320 0.005033 -538347.000000 0 0 1
31.827846 -24.538209 25.925124 47.825177 -0.656785 0.997885 0.034813 -0.001484 866783.000000 0 0 1
30.428516 -24.551709 25.561424 46.712604 -0.678913 0.991774 0.036279 0.001182 757816.000000 0 0 1
29.639566 -24.516809 26.724624 46.837840 -0.691087 0.963587 0.014954 0.004096 295156.000000 0 0 1
28.298216 -25.301809 26.510624 46.301012 -0.729553 0.961158 0.018392 -0.001377 459967.000000 0 0 1
27.369856 -24.501709 25.783824 44.880378 -0.730161 0.958802 0.016280 -0.002567 353762.000000 0 0 1
26.157026 -25.229709 25.529324 44.412550 -0.767354 0.958409 0.012820 0.007135 152221.000000 0 0 1
24.935826 -24.339909 25.375124 43.105956 -0.773305 0.941385 0.020332 0.006313 -721478.000000 0 0 1
24.833426 -23.572109 24.194224 41.924978 -0.759347 0.955643 0.034667 -0.003906 562700.000000 0 0 1
25.866626 -22.566309 23.985124 41.876089 -0.717361 0.960922 0.022424 -0.000705 638062.000000 0 0 1
25.856466 -21.907709 22.596424 40.732087 -0.702914 0.982725 0.032255 -0.001608 -317310.000000 0 0 1
24.967826 -20.861309 22.451524 39.530462 -0.696032 0.966777 0.030674 -0.006924 -299688.000000 0 0 1
24.986226 -20.207609 21.152224 38.471749 -0.680054 0.988657 0.012172 -0.002980 228332.000000 0 0 1
24.159926 -18.842909 21.160524 37.236071 -0.662379 0.966382 0.029962 0.002228 221487.000000 0 0 1
24.670026 -17.686509 21.832124 37.390699 -0.621994 0.947282 0.031217 -0.009511 60591.100000 0 0 1
24.755326 -17.776709 23.232524 38.322157 -0.622768 0.919469 0.030341 -0.007026 -143029.000000 0 0 1
24.858126 -16.334109 23.816024 38.104232 -0.581346 0.895635 0.033532 0.000071 -630678.000000 0 0 1
23.584326 -15.792409 23.909724 37.111932 -0.590041 0.870741 0.002412 0.000191 -678003.000000 0 0 1
23.669526 -14.529909 24.462824 37.010734 -0.550552 0.848691 -0.005470 0.001075 -763361.000000 0 0 1
22.401726 -13.743409 24.233024 35.748539 -0.550285 0.825929 -0.017566 -0.001647 -886342.000000 0 0 1
21.357126 -14.289909 24.971324 35.831485 -0.589681 0.799716 0.008510 0.002316 292980.000000 0 0 1
20.120126 -13.575109 24.727824 34.649218 -0.593546 0.776084 0.019691 -0.003108 1442240.000000 0 0 1
18.821926 -14.407309 25.020124 34.465084 -0.653318 0.758373 0.026562 0.004591 329478.000000 0 0 1
18.594426 -15.533809 24.164324 34.219387 -0.695958 0.786738 0.028496 0.005011 682519.000000 0 0 1
17.309926 -16.057209 24.543524 34.056601 -0.747872 0.766030 0.012956 0.008663 512091.000000 0 0 1
16.787626 -17.148109 23.661724 33.701027 -0.796020 0.792444 -0.000198 0.003471 -300715.000000 0 0 1
17.446426 -18.342309 23.863024 34.788820 -0.810425 0.814902 -0.006066 0.001140 -261036.000000 0 0 1
16.995226 -19.226809 22.909324 34.399782 -0.846929 0.841999 -0.008661 0.009240 -349903.000000 0 0 1
17.333526 -20.668909 23.179924 35.566329 -0.872941 0.860923 -0.015609 0.012151 -363546.000000 0 0 1
16.630426 -21.313509 24.241224 36.310793 -0.908198 0.839811 -0.023836 0.010726 -17646.200000 0 0 1
17.042726 -22.580309 24.741424 37.582747 -0.924255 0.852213 -0.003854 0.005541 -325506.000000 0 0 1
16.470826 -23.738209 23.876324 37.481589 -0.964208 0.880177 -0.003673 0.000502 56407.700000 0 0 1
17.041026 -23.921409 22.597124 37.057528 -0.951813 0.915007 0.007048 0.003886 233066.000000 0 0 1
18.224526 -24.736509 22.674524 38.185891 -0.935832 0.935031 0.021623 -0.001220 364932.000000 0 0 1
19.055326 -24.575009 21.408724 37.754072 -0.911240 0.967867 0.046194 0.004618 -505107.000000 0 0 1
18.565526 -25.382009 20.383924 37.475718 -0.939277 0.995691 0.064674 -0.012805 -22185.600000 0 0 1
19.582226 -25.830209 19.520924 37.838205 -0.922123 1.028732 0.045780 -0.010600 74761.200000 0 0 1
18.984426 -26.617509 18.333924 37.483769 -0.951246 1.059720 0.051324 -0.018722 141939.000000 0 0 1
18.500326 -27.900509 18.623724 38.308531 -0.985280 1.063117 0.065933 -0.030370 120142.000000 0 0 1
17.885426 -28.477609 17.438624 37.880975 -1.010005 1.092403 0.064361 -0.030160 58675.300000 0 0 1
16.950026 -29.661809 17.766924 38.507011 -1.051640 1.091230 0.078663 -0.028611 -958895.000000 0 0 1
15.901126 -29.262309 18.538324 38.115587 -1.073035 1.062865 0.061964 -0.027928 -1262490.000000 0 0 1
15.109026 -30.396009 18.831624 38.817909 -1.109493 1.064288 0.064648 -0.026663 77177.600000 0 0 1
13.936326 -29.982109 19.764424 38.519871 -1.135686 1.032007 0.052824 -0.015838 -134996.000000 0 0 1
13.035226 -29.149409 19.105024 37.210309 -1.150284 1.031615 0.058444 -0.023012 -974061.000000 0 0 1
11.824426 -29.032809 19.795724 37.075487 -1.184032 1.007554 0.030099 -0.013511 101518.000000 0 0 1
10.771526 -28.270009 18.919124 35.681261 -1.206756 1.011930 0.030030 -0.015563 61587.100000 0 0 1
10.582426 -29.031509 17.779224 35.649923 -1.221249 1.048678 0.022283 -0.015644 -275092.000000 0 0 1
9.558726 -28.538209 16.968724 34.550488 -1.247596 1.057412 0.035139 -0.012504 -149011.000000 0 0 1
9.561126 -29.270809 15.640624 34.537291 -1.255078 1.100824 0.027514 -0.010658 -127504.000000 0 0 1
8.775826 -30.419709 15.642824 35.313903 -1.289931 1.111893 0.011336 -0.000956 -290124.000000 0 0 1
9.173626 -31.304809 14.630224 35.751782 -1.285735 1.149201 0.015655 0.001418 107407.000000 0 0 1
8.181426 -32.473609 14.350724 36.433697 -1.323992 1.165941 0.002821 0.000731 -100011.000000 0 0 1
7.851226 -33.320709 15.394424 37.535312 -1.339391 1.148198 0.005886 -0.001275 -207099.000000 0 0 1
7.025126 -34.345109 14.920124 38.099199 -1.369034 1.168413 -0.007829 0.002712 -422586.000000 0 0 1
6.932126 33.874365 15.947824 38.077028 1.368941 1.138639 0.017712 0.004665 459218.000000 0 0 1
8.122926 33.103465 15.999824 37.653893 1.330171 1.131925 0.014777 0.002263 288769.000000 0 0 1
7.824326 31.935465 16.752024 36.901548 1.330525 1.099586 0.026591 -0.007489 192885.000000 0 0 1
9.139526 31.221865 17.088024 36.746923 1.286024 1.087140 0.017633 -0.004949 145044.000000 0 0 1
9.667026 30.467265 15.962724 35.728338 1.263552 1.107633 0.027105 -0.005107 -708299.000000 0 0 1
10.880726 29.898865 16.304124 35.751318 1.221777 1.097253 0.024203 -0.000293 -1144290.000000 0 0 1
11.477226 29.056265 15.206824 34.745370 1.194608 1.117796 0.017044 0.001420 -1020470.000000 0 0 1
10.784726 28.030765 14.695724 33.436483 1.203509 1.115741 0.011846 -0.000992 -919119.000000 0 0 1
11.469426 27.454765 13.615924 32.721632 1.175076 1.141629 0.014507 0.004836 -82381.600000 0 0 1
-9.041727 -9.424035 19.065953 23.110081 0.806099 0.600584 0.011116 -0.015046 6879.570000 0 1 0
-9.355227 -9.537835 17.702253 22.177924 0.795063 0.646508 0.016136 -0.022135 124651.000000 0 1 0
-9.264227 -10.876335 17.320753 22.452818 0.865271 0.689713 0.018031 -0.023838 -79.810600 0 1 0
-9.903227 -11.151935 15.929253 21.821564 0.844635 0.752507 0.032094 -0.018560 -59461.600000 0 1 0
-11.316527 -11.185935 16.030153 22.586605 0.779595 0.781696 0.023800 -0.013297 362172.000000 0 1 0
-12.012527 -11.625235 14.841853 22.354586 0.769015 0.844736 0.038280 -0.006703 334606.000000 0 1 0
-11.869727 -13.115735 14.506853 22.877100 0.835226 0.883925 0.029226 -0.013843 -1308630.000000 0 1 0
-10.630727 -13.443535 13.979553 22.117163 0.901710 0.886577 0.031491 -0.016366 -513251.000000 0 1 0
-10.389327 -14.855735 14.116553 22.976250 0.960508 0.909174 0.023868 -0.012544 136388.000000 0 1 0
-9.758227 -15.363535 15.457153 23.878542 1.004928 0.866728 0.013602 -0.016178 94831.800000 0 1 0
-10.750427 -15.430435 16.456553 24.989761 0.962287 0.851930 0.007016 -0.007129 52957.500000 0 1 0
-10.204027 -15.720235 17.764253 25.822793 0.995053 0.812164 0.015945 -0.007829 184235.000000 0 0 1
-11.203327 -15.315635 18.910853 26.789990 0.939243 0.787114 0.002211 -0.001022 -64219.100000 0 0 1
-11.457927 -13.939435 18.972353 26.182859 0.882796 0.760328 0.003469 -0.002279 -136605.000000 0 0 1
-12.563327 -13.508135 18.214953 25.924726 0.821621 0.791739 -0.004295 -0.004271 483433.000000 0 0 1
-13.930727 -13.589735 19.002953 27.200336 0.773008 0.797316 -0.019053 0.002008 424345.000000 0 0 1
-14.396327 -14.931835 19.112153 28.204403 0.803655 0.826261 -0.013782 0.005475 -51900.700000 0 0 1
-15.260827 -15.083235 20.233353 29.492124 0.779546 0.814737 -0.004558 0.006341 35089.600000 0 0 1
-15.713427 -16.515235 20.524853 30.674654 0.810272 0.837780 0.004184 0.007571 -436073.000000 0 0 1
-16.862927 -16.973935 19.877953 31.106363 0.788679 0.877558 0.005883 0.013657 -223046.000000 0 0 1
-16.982727 -18.350035 20.138053 32.104174 0.824077 0.892751 -0.011121 0.014612 502940.000000 0 0 1
-18.207227 -18.995835 19.381453 32.680049 0.806592 0.935934 0.010184 0.019914 462030.000000 0 0 1
-18.107727 -19.106835 17.976453 31.876540 0.812239 0.971647 0.010652 0.019387 -32643.200000 0 0 1
-18.590727 -17.942735 17.355753 31.125215 0.767663 0.979292 0.014436 0.008420 -596540.000000 0 0 1
-18.216527 -17.889135 15.841253 30.046769 0.776331 1.015471 0.015385 0.003377 219568.000000 0 0 1
-19.055527 -18.759235 15.024153 30.671602 0.777563 1.058891 0.020700 0.006084 593920.000000 0 0 1
-18.763027 -18.598135 13.668953 29.745287 0.780985 1.093327 0.020551 -0.002603 85117.600000 0 0 1
-19.062527 -19.850435 12.778853 30.343349 0.805643 1.136092 0.027364 0.004893 -377154.000000 0 0 1
-18.261727 -20.920335 13.118553 30.712335 0.853147 1.129466 0.019661 0.014999 -193614.000000 0 0 1
-18.369227 -21.990935 12.177353 31.133867 0.874893 1.168939 0.010027 0.012781 -7153.310000 0 0 1
-17.658227 -23.254635 12.908153 31.925091 0.921343 1.154554 0.007470 0.010321 349923.000000 0 0 1
-17.668727 -24.466235 12.158853 32.536415 0.945347 1.187802 0.011909 0.007055 546048.000000 0 0 1
-16.639627 -24.397335 11.152153 31.567035 0.972235 1.209716 0.013957 0.001803 193031.000000 0 0 1
-16.701727 -25.571315 10.149353 32.184611 0.992215 1.249973 0.020466 0.005150 -324963.000000 0 0 1
-17.786727 -25.564715 9.260653 32.491261 0.962926 1.281769 0.008278 0.010042 -613805.000000 0 0 1
-17.732127 -26.570295 8.299953 33.004517 0.982309 1.316588 0.010579 0.014566 226844.000000 0 0 1
-18.817927 -26.692575 7.194553 33.442033 0.956731 1.353966 0.002762 0.009589 186718.000000 0 0 1
-18.763027 -25.566895 6.345553 32.341666 0.937692 1.373312 0.011137 0.005065 -559944.000000 0 0 1
-19.785527 -25.462925 5.421753 32.698976 0.910218 1.404219 0.015017 0.003410 -520228.000000 0 0 1
-19.850227 -24.142835 4.613953 31.594249 0.882665 1.424234 0.017252 0.004691 227244.000000 0 0 1
-20.879727 -24.222735 3.634653 32.185627 0.859383 1.457627 0.019819 0.002300 45299.600000 0 0 1
-20.816527 -22.985135 2.928053 31.148318 0.834868 1.476654 0.017011 0.010243 333023.000000 0 0 1
-21.594527 -22.889835 1.613153 31.509846 0.814508 1.519579 0.004069 0.006733 87607.800000 0 0 1
-20.875727 -23.680735 0.686053 31.576002 0.848269 1.549068 -0.000120 0.001819 267667.000000 0 0 1
-21.318027 -23.468535 -0.637147 31.711770 0.833378 1.590889 0.000336 -0.001116 -238032.000000 0 0 1
-20.629727 -24.355535 -1.734047 31.965367 0.868032 1.625071 -0.001583 0.002218 872396.000000 0 0 1
-19.241627 -24.017335 -1.974347 30.837812 0.895351 1.634864 0.001509 0.007011 1058500.000000 0 0 1
-18.604727 -24.666535 -3.068147 31.048146 0.924581 1.669777 0.005940 0.011383 115734.000000 0 0 1
-18.531927 -26.226345 -3.118647 32.264213 0.955645 1.667607 0.013584 0.001112 -335769.000000 0 0 1
-19.761527 -26.775715 -3.550047 33.467293 0.934994 1.677071 0.027678 -0.004488 -267111.000000 0 0 1
-19.565827 -28.059815 -4.017547 34.442931 0.961892 1.687706 0.038925 -0.006916 206673.000000 0 0 1
-20.806327 -28.718255 -4.665647 35.768837 0.943817 1.701608 0.040528 -0.011098 304352.000000 0 0 1
-21.259927 -28.213105 -5.936547 35.821870 0.925028 1.737289 0.031001 -0.003833 -309602.000000 0 0 1
-22.009627 -29.201225 -6.578247 37.153850 0.924917 1.748789 0.037493 -0.013213 -505787.000000 0 0 1
-22.290127 -28.890575 -8.070047 37.371657 0.913654 1.788451 0.012930 0.007227 552045.000000 0 0 1
-21.139927 -28.688615 -8.927047 36.737247 0.935748 1.816251 0.016454 0.001931 531410.000000 0 0 1
-21.464427 -28.630335 -10.337747 37.246298 0.927481 1.852040 0.007660 0.010706 -72671.200000 0 0 1
-22.269327 -27.416305 -10.929947 36.973510 0.888621 1.870896 -0.004120 0.023078 -190588.000000 0 0 1
-21.663627 -26.151715 -11.020247 35.702532 0.878987 1.884589 -0.008819 0.023491 -60640.500000 0 0 1
-21.376727 -25.493935 -9.758647 34.671839 0.873015 1.856109 -0.009782 0.018632 -90740.000000 0 0 1
-20.963127 -23.997835 -9.855847 33.353958 0.852792 1.870767 -0.015056 0.012931 287205.000000 0 0 1
-22.044127 -23.138635 -10.222847 33.553637 0.809617 1.880390 -0.018029 0.020865 123887.000000 0 0 1
-21.700327 -21.774735 -10.554647 32.502982 0.787110 1.901521 -0.015529 0.022939 -751937.000000 0 0 1
-22.849727 -20.820635 -10.630247 32.689617 0.738968 1.902006 -0.008520 0.023170 -1323560.000000 0 0 1
-23.723227 -21.073335 -11.678747 33.812277 0.726313 1.923461 -0.022186 0.038953 -171823.000000 0 0 1
-25.052227 -20.607635 -11.645047 34.465865 0.688363 1.915451 -0.024141 0.037355 269305.000000 0 0 1
-25.245677 -19.068735 -11.542447 33.677722 0.646902 1.920620 -0.017602 0.026177 -1225180.000000 0 0 1
-24.837327 -18.429835 -12.744647 33.451124 0.638375 1.961666 -0.015751 0.022736 345837.000000 0 0 1
-24.607627 -17.022635 -12.666447 32.492219 0.605176 1.971243 0.007193 0.007317 544320.000000 0 0 1
-23.345127 -16.618735 -11.813747 30.995837 0.618649 1.961825 -0.009279 0.015463 103737.000000 0 0 1
-23.566527 -16.559535 -10.436547 30.635289 0.612517 1.918427 0.004772 0.007552 915157.000000 0 0 1
-22.321127 -16.557735 -9.719347 29.442436 0.638230 1.907220 -0.010353 0.009459 892327.000000 0 0 1
-22.664527 -17.296635 -8.413847 29.726204 0.651870 1.857764 -0.022629 0.001802 85337.900000 0 0 1
-23.199827 -18.584535 -8.445147 30.902062 0.675389 1.847605 -0.021089 0.007469 259194.000000 0 0 1
-23.797527 -18.960535 -7.174347 31.261725 0.672752 1.802353 -0.006953 0.001821 112692.000000 0 0 1
-24.277327 -20.429935 -7.165247 32.528628 0.699552 1.792893 -0.007583 -0.006912 -320021.000000 0 0 1
-25.456077 -20.566735 -7.929147 33.673043 0.679558 1.808503 -0.019472 -0.009915 49683.000000 0 0 1
-26.003867 -21.904135 -7.786747 34.880162 0.700031 1.795936 -0.015228 -0.002133 106651.000000 0 0 1
-25.247327 -23.005035 -8.570847 35.215318 0.738961 1.816650 -0.038506 0.011356 -296893.000000 0 0 1
-25.699617 -24.258535 -8.256847 36.292181 0.756560 1.800317 -0.022954 0.009647 -460240.000000 0 0 1
-25.073497 -25.277605 -8.979547 36.718794 0.789452 1.817851 -0.021627 0.011516 -221339.000000 0 0 1
-25.760697 -26.609325 -8.753047 38.056347 0.801601 1.802876 -0.013269 0.009207 -30528.200000 0 0 1
-25.525137 -27.046025 -7.418947 37.921773 0.814320 1.767705 -0.004768 -0.005022 -267100.000000 0 0 1
-26.200047 -28.198415 -7.082547 39.137649 0.822117 1.752764 0.001485 -0.008248 -399023.000000 0 0 1
-25.713347 -28.736865 -5.766147 38.990154 0.840869 1.719228 0.006338 -0.005063 -126125.000000 0 0 1
-26.007047 -27.866965 -4.682247 38.403876 0.819908 1.693022 -0.000117 -0.003790 1607.380000 0 0 1
-25.333097 -28.175715 -3.469347 38.048300 0.838473 1.662106 0.001863 -0.009852 -11296.600000 0 0 1
-25.724497 -29.492305 -2.682947 39.226828 0.853529 1.639245 0.004569 -0.009142 -385124.000000 0 0 1
-25.380207 -30.680725 -3.411647 39.963748 0.879667 1.656269 0.027807 -0.010082 584.145000 0 0 1
-25.577727 -31.901245 -2.719947 40.979357 0.894972 1.637219 0.023193 -0.008100 255673.000000 0 0 1
-24.683827 -32.231725 -1.451947 40.623683 0.917245 1.606545 0.030441 -0.020258 204129.000000 0 0 1
-23.312627 -32.395565 -1.768047 39.950935 0.947021 1.615066 0.047720 -0.028401 -107106.000000 0 0 1
-22.602727 -32.742435 -0.550747 39.790120 0.966597 1.584638 0.084931 -0.021323 -3870.390000 0 0 1
-21.432727 -31.761905 -0.368847 38.318618 0.977189 1.580422 0.070913 -0.022817 -491614.000000 0 0 1
-21.639827 -30.449935 0.062253 37.356185 0.952946 1.569130 0.039589 -0.016252 -306055.000000 0 0 1
-21.861027 -29.556785 -1.052347 36.777921 0.933966 1.599414 0.040384 -0.015049 -131063.000000 0 0 1
-22.275727 -28.120305 -0.662247 35.880331 0.900855 1.589254 0.022045 -0.012918 242166.000000 0 0 1
-23.640727 -28.102835 -0.266247 36.724981 0.871420 1.578046 0.019539 -0.013594 560653.000000 0 0 1
-24.257227 -26.793745 -0.007547 36.143020 0.835043 1.571005 0.013742 -0.014329 450650.000000 0 0 1
-23.751727 -25.986905 1.199753 35.226456 0.830306 1.536731 0.012688 -0.000786 -260510.000000 0 0 1
-24.052727 -26.601885 2.391153 35.943172 0.835680 1.504221 -0.001886 0.001696 -43586.500000 0 0 1
-23.441427 -25.969265 3.501453 35.159116 0.836513 1.471042 0.016451 0.001310 253952.000000 0 0 1
-24.380727 -24.876235 4.140653 35.076943 0.795457 1.452476 0.025017 0.000908 326323.000000 0 0 1
-24.492427 -23.792235 3.251353 34.300448 0.770898 1.475863 0.010298 0.004327 212405.000000 0 0 1
-25.327377 -22.750635 3.788153 34.255183 0.731854 1.459983 -0.000149 0.007094 102890.000000 0 0 1
-25.556167 -21.554135 2.810053 33.549885 0.700651 1.486941 0.000395 0.004681 163402.000000 0 0 1
-24.378527 -20.768135 2.697553 32.138837 0.705598 1.486763 -0.000361 0.007675 143182.000000 0 0 1
-24.447927 -19.842535 1.636253 31.529425 0.681789 1.518877 -0.007550 0.002656 -473287.000000 0 0 1
-23.294227 -18.853835 1.568353 30.009129 0.680433 1.518510 0.001019 0.006733 -560332.000000 0 0 1
-22.088327 -19.542135 1.367453 29.523875 0.724313 1.524463 0.003709 0.004915 -727893.000000 0 0 1
-20.971327 -18.729335 1.582053 28.161808 0.728986 1.514589 0.005998 0.009661 -302880.000000 0 0 1
-19.640127 -19.465335 1.370253 27.685943 0.780928 1.521283 0.005875 0.003116 -433199.000000 0 0 1
-19.494527 -19.892135 0.020353 27.852003 0.795493 1.570066 -0.013082 0.003655 93027.600000 0 0 1
-18.518127 -20.918035 -0.087447 27.937303 0.846179 1.573926 0.010088 0.010577 90630.700000 0 0 1
-18.193327 -21.135635 -1.582947 27.932382 0.860072 1.627497 0.014972 0.002958 216675.000000 0 0 1
-17.423027 -20.167535 -2.315047 26.751650 0.858279 1.657443 0.000555 0.002962 180039.000000 0 0 1
-17.341327 -20.583035 -3.657347 27.161722 0.870669 1.705857 0.006212 0.002220 409232.000000 0 0 1
-16.560427 -19.597335 -4.614647 26.069106 0.869192 1.748750 0.010045 0.010935 384369.000000 0 0 1
-15.213827 -19.374435 -4.263347 25.000108 0.905113 1.742167 0.033229 0.002630 44158.400000 0 0 1
-14.584727 -18.565235 -5.289047 24.194137 0.904902 1.791185 0.037183 -0.001129 -28994.800000 0 1 0
-13.055127 -18.458635 -5.199747 23.199029 0.955212 1.796853 0.046083 -0.005084 -737853.000000 0 1 0
-12.370327 -19.515235 -5.656947 23.788032 1.005837 1.810903 0.038884 -0.010707 -788865.000000 0 1 0
-11.039127 -19.154535 -5.954747 22.895798 1.047971 1.833902 0.033085 -0.015920 -174760.000000 0 1 0
-10.146827 -20.408635 -5.998447 23.568026 1.109405 1.828144 0.033229 -0.014326 -102730.000000 0 1 0
-10.582327 -21.400235 -6.895647 24.849661 1.111562 1.851982 0.039126 -0.015346 -246049.000000 0 1 0
-9.496227 -22.253235 -7.189847 25.240418 1.167457 1.859651 0.040468 -0.010959 -146473.000000 0 0 1
-9.801227 -23.336935 -8.204347 26.608042 1.173179 1.884245 0.042790 -0.007706 -325564.000000 0 0 1
-10.227927 -22.796735 -9.434747 26.707978 1.149059 1.931845 0.031522 -0.010660 -62063.500000 0 0 1
-10.612627 -23.840935 -10.327247 28.065461 1.151989 1.947621 0.037041 -0.012610 44417.200000 0 0 1
-11.360927 -23.415035 -11.588547 28.489103 1.119060 1.989713 0.044037 -0.009697 -646117.000000 0 0 1
-10.547527 -22.723835 -12.456047 27.978137 1.136228 2.032201 0.038295 -0.010668 -546381.000000 0 0 1
-11.208227 -22.401835 -13.656747 28.530218 1.106888 2.069943 0.035242 -0.010508 -560959.000000 0 0 1
-10.697627 -21.123135 -14.314947 27.668462 1.102009 2.114576 0.033626 -0.011647 -310401.000000 0 0 1
-10.888027 -20.020135 -13.467047 26.471047 1.072684 2.104524 0.036982 -0.012492 -415855.000000 0 0 1
-10.331627 -18.825535 -14.012447 25.641606 1.068868 2.148943 0.030150 -0.004007 -346011.000000 0 0 1
-10.057527 -17.825435 -12.907547 24.197206 1.057099 2.133448 0.029122 0.000731 -684872.000000 0 1 0
-11.137027 -17.060535 -12.410947 23.856380 0.992459 2.117924 0.032323 -0.008534 -19548.600000 0 1 0
-10.730327 -16.053435 -11.485547 22.467098 0.981586 2.107396 0.026237 -0.014461 181021.000000 0 1 0
-10.246227 -14.696635 -12.174347 21.660817 0.961964 2.167652 0.028266 -0.002627 655532.000000 0 1 0
-11.314427 -13.905135 -12.726847 21.985033 0.887765 2.188159 0.028642 0.005092 360770.000000 0 1 0
-11.436127 -14.017535 -14.129447 22.954685 0.886469 2.233863 0.033100 -0.001106 13324.600000 0 1 0
-12.763427 -13.368235 -14.622647 23.567702 0.808539 2.240116 0.033043 0.003079 232324.000000 0 1 0
-12.797227 -11.974335 -14.377147 22.668394 0.752191 2.257818 0.016360 0.015531 -745580.000000 0 1 0
-13.883527 -11.384235 -15.010347 23.402215 0.686807 2.267127 0.001918 0.012578 -444692.000000 0 1 0
-14.171427 -10.031635 -14.350447 22.525505 0.615993 2.261494 0.004743 0.002570 312957.000000 0 1 0
-13.080627 -9.116735 -14.409647 21.490826 0.608686 2.305682 0.009549 0.000366 170552.000000 0 1 0
-13.036327 -8.358635 -15.629847 22.002380 0.570150 2.360821 0.005969 -0.005366 -233562.000000 0 1 0
-12.021427 -7.207435 -15.673847 21.026919 0.540088 2.411958 -0.005461 0.002699 -1376190.000000 0 1 0
-10.757727 -7.672135 -15.865647 20.647254 0.619513 2.447156 -0.007051 0.001577 -966784.000000 0 1 0
-9.838027 -6.533835 -15.858447 19.772914 0.586252 2.501481 -0.009017 0.007695 597818.000000 0 1 0
10.982573 21.940465 15.882753 29.227773 1.106699 0.996299 0.026069 0.006223 -11826.700000 0 0 1
11.607073 22.015765 17.182953 30.243543 1.085613 0.966537 0.039356 -0.004661 90531.100000 0 0 1
12.015773 20.725765 17.626153 29.742518 1.045399 0.936483 0.024302 -0.003707 -373350.000000 0 0 1
13.127673 20.734665 18.682753 30.843271 1.006374 0.920111 0.018463 -0.003942 1141360.000000 0 0 1
14.445873 21.054765 18.136653 31.319715 0.969454 0.953195 0.019419 0.000443 1427810.000000 0 0 1
15.391273 21.289665 19.187853 32.531751 0.944836 0.939961 0.019290 -0.004210 -50099.600000 0 0 1
16.756773 21.724365 18.675453 33.189004 0.913780 0.973148 0.025789 0.004165 -947108.000000 0 0 1
16.981773 23.127165 18.589853 34.188141 0.937433 0.995896 0.032322 0.002971 -405173.000000 0 0 1
18.107573 23.509065 17.860753 34.634763 0.914468 1.028985 0.030576 0.006975 1426270.000000 0 0 1
19.568573 23.279765 18.475353 35.583917 0.871795 1.024876 0.017120 0.000899 1023520.000000 0 0 1
19.945573 21.950565 18.530453 34.971858 0.833218 1.012352 0.028895 0.008791 412639.000000 0 0 1
21.202373 21.726865 19.186453 35.912633 0.797615 1.007172 0.038687 0.000115 472433.000000 0 0 1
21.582773 20.251965 19.035553 35.189635 0.753598 0.999240 0.036461 0.008844 -108815.000000 0 0 1
21.956073 19.958365 17.696253 34.547979 0.737773 1.033026 0.025343 0.010068 -11390.300000 0 0 1
21.567073 18.659765 17.308053 33.360068 0.713251 1.025320 0.029073 0.015327 -385502.000000 0 0 1
22.375873 17.469265 17.834253 33.524849 0.662873 1.009870 0.008205 0.017268 998277.000000 0 0 1
23.724273 17.495565 17.289753 34.174135 0.635423 1.040335 0.006619 0.017846 1196330.000000 0 0 1
24.572773 16.711965 18.097153 34.793935 0.597246 1.023800 -0.008402 0.013690 44262.900000 0 0 1
25.935673 16.298065 17.507153 35.281531 0.561043 1.051565 0.015529 0.012082 249736.000000 0 0 1
26.869273 17.383465 17.237353 36.349264 0.574238 1.076725 0.008771 0.015314 1384470.000000 0 0 1
28.258173 17.177065 17.459653 37.395392 0.546180 1.085022 0.016191 0.011934 348823.000000 0 0 1
28.978473 16.184665 16.589653 37.106763 0.509351 1.107299 0.015443 0.006232 -971184.000000 0 0 1
29.090173 16.510565 15.192153 36.737425 0.516229 1.144465 0.026292 -0.003508 54888.700000 0 0 1
29.297973 15.312265 14.489653 36.094137 0.481594 1.157707 0.050090 -0.015732 256465.000000 0 0 1
28.545373 15.324265 13.080853 34.939664 0.492683 1.187064 0.032248 -0.003799 232451.000000 0 0 1
29.199673 16.127465 12.092553 35.481627 0.504620 1.223016 0.025934 -0.000426 121083.000000 0 0 1
28.395773 16.445365 10.991953 34.606256 0.524946 1.247568 0.012276 0.004256 756553.000000 0 0 1
27.120073 17.381365 11.184253 34.098354 0.569954 1.236611 0.012190 0.005885 566672.000000 0 0 1
27.228373 18.724365 11.571753 35.012735 0.602408 1.233962 -0.006330 0.013743 -23052.200000 0 0 1
27.733573 18.933465 12.889853 35.969090 0.599015 1.204287 0.004141 0.012633 -229873.000000 0 0 1
26.702773 18.665865 14.035553 35.474629 0.610070 1.164020 -0.005710 0.011739 273528.000000 0 0 1
25.687173 19.670865 14.128853 35.304366 0.653528 1.159060 0.003769 0.021884 -6226.330000 0 0 1
24.960473 19.531365 15.318453 35.201625 0.663974 1.120577 0.012244 0.021878 -317273.000000 0 0 1
25.619773 20.236365 16.540553 36.598813 0.668535 1.101855 0.020700 0.011113 -94087.400000 0 0 1
25.626473 21.673265 16.370253 37.342090 0.702014 1.116994 0.007503 0.011125 -336916.000000 0 0 1
24.481273 22.357965 16.773153 37.155753 0.740097 1.102431 0.024319 0.006239 -501624.000000 0 0 1
24.519173 23.895265 16.505253 38.007853 0.772512 1.121581 0.015717 0.009698 -71683.100000 0 0 1
24.424773 24.171865 15.097753 37.533861 0.780194 1.156830 0.038150 0.003737 232493.000000 0 0 1
24.455573 25.557065 14.895953 38.381350 0.807419 1.172223 0.028812 -0.002940 -274765.000000 0 0 1
24.126173 26.057465 13.485553 37.985837 0.823864 1.207866 0.020153 -0.007201 573005.000000 0 0 1
22.712773 26.043665 13.213553 36.996493 0.853609 1.205574 0.032826 -0.009695 658496.000000 0 0 1
22.406773 26.186365 11.843153 36.442413 0.863022 1.239803 0.021159 -0.020852 -109967.000000 0 0 1
22.206373 24.826065 11.176253 35.133533 0.841040 1.247063 0.036767 -0.017535 235208.000000 0 0 1
20.861473 24.332065 11.285953 33.979746 0.862042 1.232227 0.052554 -0.018574 686490.000000 0 0 1
20.668073 23.187565 10.455653 32.774275 0.842785 1.246101 0.038790 0.001265 -166054.000000 0 0 1
20.514673 23.424465 8.962053 32.401786 0.851525 1.290551 0.042656 0.016127 -695330.000000 0 0 1
19.215473 23.855165 8.662253 31.832969 0.892707 1.295205 0.050810 0.015428 -67787.300000 0 0 1
19.287873 24.602565 7.497853 32.148500 0.905901 1.335403 0.045141 0.008512 817327.000000 0 0 1
17.878473 24.755965 6.805353 31.285946 0.945333 1.351522 0.025730 0.013479 371493.000000 0 0 1
17.398173 23.525565 6.264353 29.923080 0.934021 1.359888 0.035286 0.014958 436151.000000 0 0 1
16.591073 23.641665 5.092653 29.327924 0.958882 1.396266 0.042296 0.006509 73937.400000 0 0 1
15.161673 24.213965 5.137153 29.027276 1.011368 1.392882 0.036844 0.001665 -250539.000000 0 0 1
15.177373 25.613965 4.899153 30.173325 1.035878 1.407707 0.067341 -0.010321 -10513.600000 0 0 1
13.906673 26.113565 5.207553 30.040513 1.081452 1.396565 0.042940 -0.011673 -440051.000000 0 0 1
13.671173 27.529465 4.683753 31.091959 1.109871 1.419579 0.044039 -0.016322 -383407.000000 0 0 1
13.394173 27.421665 3.314753 30.697543 1.116430 1.462604 0.034926 -0.007975 342845.000000 0 0 1
13.124473 28.665465 2.755953 31.647368 1.141434 1.483603 0.025786 -0.007659 -287529.000000 0 0 1
12.724173 28.511865 1.287153 31.248804 1.151043 1.529594 0.034525 -0.001559 473372.000000 0 0 1
13.879973 28.293065 0.454153 31.517573 1.114714 1.556386 0.051322 -0.006446 621799.000000 0 0 1
14.016273 26.974165 0.027053 30.398391 1.091577 1.569906 0.035811 -0.002251 417206.000000 0 0 1
15.100773 26.893865 -1.097147 30.862875 1.059171 1.606353 0.042561 -0.002700 617719.000000 0 0 1
14.572073 27.291265 -2.370947 31.028694 1.080362 1.647282 0.037978 -0.009905 205562.000000 0 0 1
15.612673 27.529765 -3.336247 31.824111 1.054904 1.675823 0.045174 -0.003122 302392.000000 0 0 1
15.078673 27.969365 -4.685547 32.118625 1.076349 1.717201 0.049741 0.006237 -143598.000000 0 0 1
14.205173 27.007365 -5.292547 30.970885 1.086586 1.742527 0.047133 -0.002367 -77159.900000 0 0 1
13.834173 27.403965 -6.585347 31.396312 1.103297 1.782115 0.033576 0.000323 123995.000000 0 0 1
12.646773 26.714065 -7.277747 30.439246 1.128644 1.812226 0.029060 0.000174 -50658.000000 0 0 1
12.831373 25.427565 -7.833847 29.539369 1.103456 1.839208 0.042000 -0.011810 168986.000000 0 0 1
11.569073 24.792965 -8.068747 28.524362 1.134202 1.857584 0.025138 0.006907 592497.000000 0 0 1
11.688873 23.401565 -8.787147 27.594872 1.107556 1.894873 0.023886 -0.012614 -236577.000000 0 0 1
12.076173 23.365165 -10.106747 28.176430 1.093764 1.937666 0.023864 -0.010050 -152557.000000 0 0 1
12.359673 22.011165 -10.462947 27.326290 1.059153 1.963718 0.030239 -0.010091 -129760.000000 0 0 1
12.357573 21.679765 -12.011947 27.694922 1.052724 2.019418 0.035259 -0.007615 -62114.700000 0 0 1
12.113073 20.298965 -12.241147 26.619921 1.032782 2.048622 0.044326 -0.012913 -167011.000000 0 0 1
12.456473 19.886365 -13.564847 27.104175 1.011203 2.094939 0.042591 -0.007921 -124776.000000 0 0 1
13.912773 19.404865 -13.692747 27.524632 0.948769 2.091479 0.001348 -0.007793 -374524.000000 0 0 1
14.754873 20.501165 -13.583847 28.679695 0.946965 2.064215 0.005497 0.003759 -1430410.000000 0 0 1
16.065673 20.229365 -13.970847 29.368650 0.899617 2.066563 0.031567 0.010424 -265722.000000 0 0 1
16.951173 21.491665 -13.714547 30.615727 0.902964 2.035276 0.003787 0.020453 -124812.000000 0 0 1
16.864273 22.535065 -14.631147 31.722284 0.928348 2.050173 0.002050 0.018624 -529067.000000 0 0 1
15.814973 23.429365 -14.425247 31.735410 0.977042 2.042660 0.008308 0.012491 -213907.000000 0 0 1
15.980473 24.840065 -15.097547 33.171377 0.999121 2.043323 0.005948 0.010645 32610.000000 0 0 1
16.106473 24.963465 -16.521947 33.993643 0.997802 2.078338 -0.004510 0.012450 -965665.000000 0 0 1
14.905073 25.144265 -17.191847 33.910984 1.035701 2.102462 -0.010568 0.015939 -568252.000000 0 0 1
14.939673 25.013365 -18.743547 34.643655 1.032388 2.142468 -0.007216 0.017497 46731.100000 0 0 1
15.433773 23.755465 -19.161347 34.200595 0.994637 2.165500 -0.005836 0.023347 6555.280000 0 0 1
15.435373 23.703765 -20.560447 34.969289 0.993593 2.199327 -0.004015 0.023998 -203691.000000 0 0 1
15.815073 22.271365 -21.056247 34.489067 0.953319 2.227513 0.001422 0.021942 -9604.670000 0 0 1
14.866373 21.209965 -20.900847 33.282384 0.959457 2.249758 0.000177 0.016254 177376.000000 0 0 1
15.167373 20.130965 -21.771347 33.306103 0.925100 2.283226 0.004821 0.014479 163002.000000 0 0 1
14.043173 19.043465 -21.873347 32.222780 0.935390 2.316946 0.001944 0.011432 -492093.000000 0 0 1
13.916973 18.251965 -20.684347 30.897550 0.919348 2.304264 -0.000525 0.011201 -151823.000000 0 0 1
13.124073 17.113765 -20.855347 30.001129 0.916584 2.339428 -0.007212 0.003900 387844.000000 0 0 1
11.602873 17.288065 -21.155647 29.682743 0.979697 2.364172 -0.005956 -0.002134 -540005.000000 0 0 1
10.754873 17.342965 -20.065747 28.619572 1.015708 2.347763 0.010469 -0.002987 -854009.000000 0 0 1
9.419273 17.384565 -20.477547 28.465343 1.074256 2.373713 0.006430 -0.001083 -28537.200000 0 0 1
8.463873 17.028265 -19.281547 27.080934 1.109513 2.363135 0.024140 -0.016066 33753.100000 0 0 1
8.403873 15.642265 -19.073647 26.059730 1.077791 2.391932 0.015811 -0.018045 550705.000000 0 0 1
7.190573 15.110365 -18.499347 24.945006 1.126638 2.406256 0.028658 -0.024667 602909.000000 0 1 0
7.031573 15.256065 -16.933347 23.852228 1.138912 2.360191 0.028788 -0.029561 72641.400000 0 1 0
6.820873 16.631965 -16.581147 24.455695 1.181608 2.315845 0.038165 -0.025868 -288301.000000 0 1 0
6.301473 16.799465 -15.267047 23.558720 1.211938 2.275807 0.034385 -0.033811 -115627.000000 0 1 0
5.898373 18.298665 -15.129447 24.464916 1.258973 2.237519 0.033872 -0.022324 -216917.000000 0 1 0
6.871073 19.316265 -14.975047 25.388615 1.229040 2.201649 0.035474 -0.019293 -464453.000000 0 0 1
7.281773 19.940165 -16.167947 26.684020 1.220662 2.221698 0.037681 -0.011039 -131290.000000 0 0 1
8.509473 20.861465 -15.979647 27.621748 1.183495 2.187706 0.033707 -0.003487 -157400.000000 0 0 1
8.445273 22.030965 -15.206147 28.069787 1.204737 2.143286 0.027997 -0.007662 -268050.000000 0 0 1
8.353473 21.803465 -13.838347 27.141692 1.204921 2.105813 0.026940 -0.011842 -136333.000000 0 0 1
8.282673 23.118265 -13.055447 27.811895 1.226770 2.059430 0.031056 -0.007988 -723329.000000 0 0 1
7.124373 23.840665 -13.316947 28.221890 1.280411 2.062202 0.034940 -0.003524 -559506.000000 0 0 1
6.738373 24.817065 -12.323947 28.516172 1.305667 2.017698 0.016117 -0.002829 354221.000000 0 0 1
6.025673 24.270865 -11.038547 27.335565 1.327449 1.986481 0.005912 -0.001215 96956.100000 0 0 1
6.902673 23.775765 -10.037447 26.714869 1.288240 1.955975 0.002690 -0.000344 291310.000000 0 0 1
6.123173 23.262365 -8.932347 25.659651 1.313412 1.926349 0.006398 -0.009167 614197.000000 0 0 1
6.890873 23.226465 -7.590247 25.388278 1.282386 1.874406 0.002881 -0.012933 127823.000000 0 0 1
7.275973 24.504165 -7.137447 26.539348 1.282160 1.843087 -0.002774 -0.003552 484704.000000 0 0 1
8.051373 24.344965 -5.905247 26.312998 1.251399 1.797147 0.007558 -0.001986 399647.000000 0 0 1
8.296873 25.603665 -5.090747 27.391631 1.257424 1.757734 0.000895 0.000350 -65701.100000 0 0 1
9.052673 26.513465 -5.848247 28.620215 1.241770 1.776585 0.007842 0.004370 -142289.000000 0 0 1
9.338473 27.635465 -5.066947 29.607430 1.244927 1.742781 0.004809 0.004709 172908.000000 0 0 1
9.444873 28.961865 -5.900847 31.029264 1.255557 1.762132 0.009475 0.004248 1034460.000000 0 0 1
10.679373 29.057465 -6.642347 31.662376 1.218594 1.782153 0.014189 0.003224 530646.000000 0 0 1
10.557573 30.162365 -7.560747 32.838932 1.234099 1.803118 0.021535 0.000976 -15254.100000 0 0 1
11.810973 30.403365 -8.426447 33.687812 1.200264 1.823614 0.028161 0.000362 -181909.000000 0 0 1
12.930373 30.748765 -7.675447 34.228549 1.172729 1.796961 0.025502 0.003408 -858953.000000 0 0 1
14.007973 31.077365 -8.526847 35.138768 1.147323 1.815905 0.023832 0.003910 247313.000000 0 0 1
15.285873 31.510965 -7.761947 35.872645 1.119142 1.788896 0.022120 -0.003391 156230.000000 0 0 1
16.050373 30.398865 -7.323747 35.147443 1.085006 1.780707 0.023130 -0.000384 -449596.000000 0 0 1
17.053273 30.896165 -6.455547 35.875635 1.066454 1.751724 0.031617 0.001607 223206.000000 0 0 1
18.235573 29.938065 -6.215547 35.601360 1.023705 1.746283 0.027675 0.000134 -97299.700000 0 0 1
17.892773 28.863265 -5.321447 34.373786 1.015862 1.726233 0.040975 -0.009468 -412888.000000 0 0 1
18.913773 27.906865 -5.145647 34.102809 0.975162 1.722261 0.036892 -0.003917 -395654.000000 0 0 1
19.071073 26.798565 -6.285547 33.486968 0.952297 1.759618 0.031163 0.007028 -194049.000000 0 0 1
19.669273 27.247065 -7.467847 34.424578 0.945532 1.789468 0.019414 0.009190 25976.200000 0 0 1
19.392273 26.332165 -8.535947 33.798011 0.936025 1.826119 0.004204 0.007913 -927845.000000 0 0 1
20.063173 26.550465 -9.882247 34.714794 0.923681 1.859458 0.004322 0.007584 555964.000000 0 0 1
21.486173 26.449365 -9.977447 35.507379 0.888569 1.855629 -0.000840 0.013558 493376.000000 0 0 1
21.994973 25.135765 -9.822247 34.814681 0.851940 1.856809 0.001784 0.015681 -258093.000000 0 0 1
23.544373 25.195365 -9.922247 35.883072 0.819259 1.850963 -0.009239 0.020233 382081.000000 0 0 1
24.095773 25.528065 -11.185647 36.843006 0.814253 1.879268 -0.000297 0.014765 529151.000000 0 0 1
25.483073 25.845965 -11.053747 37.941880 0.792468 1.866417 -0.006249 0.022253 997935.000000 0 0 1
26.299873 26.084965 -12.372447 39.053632 0.781296 1.893157 0.008384 0.007758 372025.000000 0 0 1
26.087373 27.387065 -12.934447 39.973770 0.809698 1.900300 0.004309 0.010894 64646.200000 0 0 1
26.902773 27.460065 -14.080947 40.940047 0.795649 1.921907 0.010616 0.010560 31182.400000 0 0 1
26.589173 28.673165 -14.948847 41.864096 0.823091 1.935937 0.016982 -0.000639 -126445.000000 0 0 1
26.985873 29.938565 -14.461447 42.821589 0.837222 1.915283 0.018853 -0.008975 -22913.200000 0 0 1
26.739473 30.953165 -15.411647 43.710602 0.858306 1.931127 0.021705 0.004240 -285883.000000 0 0 1
27.293973 32.300465 -15.065047 44.891387 0.869211 1.913027 0.016877 -0.004758 -195352.000000 0 0 1
28.701373 32.329165 -15.023947 45.767485 0.844771 1.905264 0.013263 -0.007015 -142664.000000 0 0 1
29.137073 33.671265 -14.938347 46.966768 0.857464 1.894481 0.020133 -0.012471 17003.000000 0 0 1
14.567873 -33.149309 -29.675826 46.816175 -1.156740 2.257356 0.050083 -0.004064 76885.800000 0 0 1
15.744373 -33.506909 -28.991386 47.022321 -1.131530 2.235143 0.032081 0.000589 4337.220000 0 0 1
15.997073 -32.617309 -27.931006 45.825062 -1.114820 2.226243 0.033116 -0.006339 337561.000000 0 0 1
17.061373 -33.282309 -26.927926 46.085960 -1.097099 2.194811 0.011475 0.004695 2369300.000000 0 0 1
18.477273 -33.071809 -27.169156 46.618850 -1.061297 2.192958 0.021516 0.000035 1369290.000000 0 0 1
19.046973 -33.586909 -28.321056 47.884756 -1.054923 2.203642 0.009622 0.004494 -732951.000000 0 0 1
20.556473 -33.330409 -28.447286 48.401785 -1.018153 2.199049 0.017020 0.004232 -127107.000000 0 0 1
20.808773 -31.953109 -28.648526 47.694279 -0.993558 2.215135 0.009583 -0.006491 -495331.000000 0 0 1
22.138173 -31.689209 -28.316966 47.918214 -0.961009 2.203024 0.000279 -0.000606 -770720.000000 0 0 1
22.663673 -30.373409 -28.952806 47.691205 -0.929752 2.223188 -0.011304 0.011888 -231429.000000 0 0 1
22.891673 -30.546009 -30.316726 48.746192 -0.927669 2.242001 -0.010667 0.001052 -53656.000000 0 0 1
23.432873 -29.455309 -30.988936 48.754784 -0.898781 2.259592 -0.005630 -0.002299 -5911.940000 0 0 1
23.672473 -29.702109 -32.449266 49.955541 -0.897890 2.277806 -0.002226 0.004146 -375744.000000 0 0 1
24.897673 -30.347809 -32.588096 51.018307 -0.883733 2.263673 0.005286 -0.008874 -603315.000000 0 0 1
24.965573 -30.815609 -33.919516 52.186350 -0.889891 2.278340 -0.001213 -0.010310 -530894.000000 0 0 1
26.229073 -31.570009 -34.318536 53.501324 -0.877542 2.267186 -0.011617 -0.011856 -441153.000000 0 0 1
27.295473 -30.668709 -34.466117 53.605278 -0.843528 2.269155 0.000980 -0.015349 -326704.000000 0 0 1
28.491373 -31.338509 34.276689 54.486254 -0.832949 0.890416 0.005731 -0.007480 784935.000000 0 0 1
29.768173 -30.423409 34.356729 54.700208 -0.796284 0.891698 0.010896 -0.016210 413326.000000 0 0 1
29.650973 -29.509709 33.265464 53.447116 -0.783010 0.898992 0.010521 -0.006914 -431365.000000 0 0 1
30.787773 -28.727609 33.187353 53.614950 -0.750796 0.903335 0.013504 -0.009330 -502700.000000 0 0 1
30.824273 -28.021909 31.801863 52.409175 -0.737812 0.918768 0.003670 -0.007249 -357202.000000 0 0 1
32.061773 -27.385609 31.533803 52.652726 -0.706899 0.928667 0.013596 -0.022582 161976.000000 0 0 1
32.151873 -26.523109 30.422633 51.601888 -0.689760 0.940277 0.024819 -0.008211 -241254.000000 0 0 1
32.881873 -27.172609 29.215973 51.702431 -0.690615 0.970267 0.023300 -0.007292 -307477.000000 0 0 1
32.152473 -28.191809 28.575713 51.430837 -0.719858 0.981695 0.016838 -0.015280 58677.000000 0 0 1
31.245273 -27.731709 27.629193 50.086795 -0.725893 0.986484 0.022237 -0.015132 -380784.000000 0 0 1
30.619973 -28.853109 26.755953 49.859459 -0.755698 1.004361 0.006347 0.000561 104087.000000 0 0 1
29.563673 -28.389709 25.944113 48.508590 -0.765144 1.006483 -0.002325 0.003061 118349.000000 0 0 1
28.898473 -29.360609 25.206393 48.296266 -0.793330 1.021706 -0.013117 0.004521 1112270.000000 0 0 1
27.477473 -29.019809 24.576793 46.916730 -0.812691 1.019445 -0.013211 0.012332 1266510.000000 0 0 1
26.455873 -28.815209 25.524913 46.709214 -0.828059 0.992660 -0.012876 0.009706 -1064610.000000 0 0 1
25.215473 -28.681209 24.930983 45.606861 -0.849613 0.992438 -0.008786 0.013471 -912148.000000 0 0 1
24.178073 -28.568109 26.063963 45.607524 -0.868436 0.962483 -0.003958 0.009987 -477989.000000 0 0 1
24.191573 -27.417309 26.873663 45.377690 -0.847820 0.936983 -0.014470 0.008305 -92826.600000 0 0 1
23.182373 -27.426309 27.858333 45.450100 -0.869060 0.911016 -0.010639 -0.001989 -175039.000000 0 0 1
23.156173 -26.186809 28.782343 45.281128 -0.846741 0.881963 -0.013664 0.011741 -215169.000000 0 0 1
21.943173 -26.253909 29.499733 45.177481 -0.874601 0.859291 -0.008407 0.005754 165779.000000 0 0 1
21.680873 -25.077109 30.317353 44.922862 -0.857905 0.830000 -0.008691 0.008540 -52315.400000 0 0 1
20.926573 -23.906609 29.658023 43.463154 -0.851770 0.819794 -0.011339 0.007595 -426968.000000 0 0 1
21.652573 -23.329709 28.578613 42.776703 -0.822665 0.839160 -0.010446 0.002728 280087.000000 0 0 1
21.429173 -21.897409 28.437153 41.801646 -0.796205 0.822641 -0.001143 0.009398 -193353.000000 0 0 1
22.170073 -20.895409 29.346063 42.300374 -0.755809 0.804108 0.007483 0.005092 -307217.000000 0 0 1
21.812773 -20.880009 30.711293 43.069193 -0.763553 0.776931 0.004048 0.006886 1413.270000 0 0 1
22.421073 -19.757009 31.314793 43.285796 -0.722320 0.762020 0.008381 0.008804 -249628.000000 0 0 1
22.077773 -19.320809 32.754613 43.972564 -0.718901 0.730430 0.019496 -0.000393 -151767.000000 0 0 1
22.541073 -20.178409 33.808001 45.367930 -0.730148 0.729968 0.010593 0.001006 -21943.400000 0 0 1
21.971873 -19.717009 -34.136307 45.131044 -0.731363 2.428561 0.018253 -0.001300 -509559.000000 0 0 1
21.798973 -20.775909 -33.033916 44.699812 -0.761373 2.402406 0.002138 0.007556 -530591.000000 0 0 1
22.959473 -21.122909 -32.379316 44.963705 -0.743760 2.374773 0.009010 0.000168 -648285.000000 0 0 1
22.593573 -22.245609 -31.574696 44.747046 -0.777638 2.354103 0.007305 0.005193 35803.700000 0 0 1
23.634573 -22.665109 -30.547496 44.782248 -0.764462 2.321473 -0.011792 0.007086 -364171.000000 0 0 1
24.853373 -23.193109 -30.974996 45.989791 -0.750857 2.309756 -0.003816 0.009232 -353119.000000 0 0 1
25.814773 -23.223909 -29.923126 45.838258 -0.732614 2.282069 -0.008132 0.005887 22071.500000 0 0 1
27.067373 -24.042909 -30.243296 47.173733 -0.726292 2.266733 -0.018736 0.022964 100755.000000 0 0 1
28.058873 -23.499909 -31.114816 48.038296 -0.697205 2.275369 -0.015362 0.018245 421314.000000 0 0 1
27.634973 -23.428209 -32.475336 48.654087 -0.703200 2.301608 -0.006921 0.015365 -330792.000000 0 0 1
27.802173 -24.759309 -33.334956 49.972027 -0.727571 2.301068 0.000427 -0.001612 64403.600000 0 0 1
26.987673 -25.839709 -32.882906 49.772589 -0.763671 2.292498 0.009999 -0.009585 263263.000000 0 0 1
27.316373 -27.068109 -33.530346 51.021083 -0.780833 2.287876 0.014286 -0.014654 495464.000000 0 0 1
26.592173 -27.287209 34.160650 51.173093 -0.798297 0.839882 0.013542 -0.003381 377655.000000 0 0 1
27.419873 -26.798909 33.118332 50.664138 -0.773946 0.858354 0.003021 0.007598 75311.500000 0 0 1
26.815073 -26.930309 31.848183 49.584236 -0.787542 0.873295 0.006828 0.006856 -633590.000000 0 0 1
27.698773 -26.435009 30.654863 49.048469 -0.762057 0.895676 0.003637 -0.001840 -69007.300000 0 0 1
28.009673 -25.070509 30.516903 48.418525 -0.730082 0.888891 -0.010154 0.003461 216907.000000 0 0 1
28.698573 -24.615209 31.673143 49.322455 -0.708956 0.873477 -0.005143 0.005706 -1553480.000000 0 0 1
29.166673 -23.139409 31.603243 48.835356 -0.670673 0.866971 -0.009189 0.017176 -145303.000000 0 0 1
30.322573 -22.817509 30.885663 48.928737 -0.645094 0.887648 0.000000 0.006693 478599.000000 0 0 1
31.509073 -23.074009 31.687953 50.292722 -0.632075 0.889153 0.004451 0.002676 965110.000000 0 0 1
32.773773 -22.281409 31.193853 50.434491 -0.597077 0.903961 0.012611 -0.002216 478021.000000 0 0 1
33.168773 -22.595709 29.858513 50.022638 -0.598020 0.931165 0.017512 -0.009049 -708635.000000 0 0 1
34.385873 -22.033409 29.560403 50.415045 -0.569859 0.944262 0.009223 -0.003414 -857877.000000 0 0 1
34.983673 -22.500909 28.212303 50.260146 -0.571568 0.974810 0.012480 -0.001049 -151519.000000 0 0 1
-34.823880 -23.867209 28.214023 50.777725 0.600839 0.981666 0.018300 -0.005961 194408.000000 0 0 1
-34.321680 -24.249909 26.955253 49.926160 0.615107 1.000475 0.001982 0.009592 -170051.000000 0 0 1
-34.086780 -25.768209 26.749653 50.412826 0.647304 1.011474 -0.000997 0.003573 516861.000000 0 0 1
34.782573 -26.403109 26.646393 51.156444 -0.649293 1.022914 0.007090 0.007077 706281.000000 0 0 1
34.802073 -27.706609 26.038353 51.544508 -0.672370 1.041226 0.003856 0.003754 167927.000000 0 0 1
-34.735880 -28.833109 26.979173 52.590924 0.692808 1.032120 0.006157 -0.004752 -506631.000000 0 0 1
-34.439880 -30.055709 26.232103 52.702696 0.717526 1.049808 0.007252 -0.005276 703799.000000 0 0 1
-33.408880 -30.847709 26.862423 52.814052 0.745561 1.037212 0.015385 -0.014127 526988.000000 0 0 1
-31.980880 -30.279909 26.807083 51.558406 0.758085 1.024020 0.022313 -0.009867 -902154.000000 0 0 1
-31.417480 -30.327609 25.515553 50.575343 0.767749 1.041987 0.015985 -0.007024 -289788.000000 0 0 1
-30.196180 -29.659809 25.399243 49.362284 0.776437 1.030316 -0.005890 -0.002931 -370331.000000 0 0 1
-29.526780 -29.790309 24.048633 48.349043 0.789841 1.050201 -0.017082 -0.003227 -341351.000000 0 0 1
-29.211780 -31.069909 23.551153 48.716774 0.816213 1.066227 -0.006987 -0.005652 319610.000000 0 0 1
-28.802480 -31.017709 22.221053 47.806446 0.822413 1.087373 -0.008368 -0.003142 -554086.000000 0 0 1
-28.970080 -32.342109 21.497653 48.450249 0.840341 1.111067 -0.011441 -0.001689 282443.000000 0 0 1
-28.025580 -33.330309 21.874553 48.732316 0.871642 1.105294 -0.007269 -0.011727 304767.000000 0 0 1
-26.684380 -33.233209 21.434853 47.706972 0.894263 1.104812 -0.000985 -0.005217 93950.400000 0 0 1
-25.998880 -34.623209 21.446153 48.318173 0.926714 1.110903 -0.010436 -0.006575 -462788.000000 0 0 1
-26.381780 33.904465 20.315853 47.520994 -0.909539 1.129056 -0.019399 -0.003476 670536.000000 0 0 1
-27.578880 33.110965 20.340653 47.651576 -0.876300 1.129776 -0.008736 -0.003944 562091.000000 0 0 1
-27.544980 31.914465 21.356853 47.258588 -0.858753 1.101886 -0.001439 -0.005548 -125195.000000 0 0 1
-26.545080 30.957465 21.027853 45.882202 -0.861982 1.094714 -0.008222 -0.005752 140559.000000 0 0 1
-26.368380 30.007265 22.054653 45.630418 -0.849856 1.066339 -0.003828 -0.008109 -173266.000000 0 0 1
-25.412080 28.852365 21.662753 44.130574 -0.848712 1.057698 -0.004638 -0.005664 743063.000000 0 0 1
-24.054580 29.332265 21.570953 43.638407 -0.883935 1.053754 -0.009242 -0.001374 323184.000000 0 0 1
-23.206680 28.311365 21.185653 42.295570 -0.884161 1.046163 -0.003613 -0.004687 214652.000000 0 0 1
-21.720980 28.674765 21.541353 41.929381 -0.922516 1.031243 -0.011082 -0.003201 347430.000000 0 0 1
-21.499680 28.659465 22.930553 42.537177 -0.927182 1.001463 -0.013145 -0.005798 215674.000000 0 0 1
-20.197980 29.160865 23.122853 42.343603 -0.965027 0.993123 0.003768 -0.004924 -13831.600000 0 0 1
-19.750880 29.164465 24.657973 42.996266 -0.975520 0.960035 -0.009584 0.002217 -715103.000000 0 0 1
-19.727580 27.862065 25.167143 42.412936 -0.954692 0.935540 0.007907 -0.009046 291331.000000 0 0 1
-19.418780 27.818765 26.571133 43.092897 -0.961383 0.906378 0.008725 -0.007316 -1457500.000000 0 0 1
-18.015880 28.126465 26.978863 42.936336 -1.001106 0.891371 0.010566 -0.006063 -1838200.000000 0 0 1
-17.777880 29.556565 26.937793 43.764006 -1.029284 0.907746 -0.014067 -0.008352 -92756.700000 0 0 1
-16.457280 29.887265 27.294213 43.692845 -1.067458 0.896070 -0.009631 -0.008171 -274549.000000 0 0 1
-16.113480 30.058265 28.808493 44.643843 -1.078707 0.869386 -0.014896 0.002015 -419805.000000 0 0 1
-16.072080 28.815665 29.415143 44.202996 -1.062019 0.842692 -0.006004 -0.003296 197503.000000 0 0 1
-16.299780 29.011965 30.851133 45.378071 -1.058916 0.823213 -0.011175 0.005011 -169261.000000 0 0 1
-15.973480 27.707965 31.648563 44.994610 -1.047840 0.790647 -0.010754 0.003394 103895.000000 0 0 1
-14.574280 27.438465 31.689493 44.379082 -1.082531 0.775511 -0.006131 0.009474 398877.000000 0 0 1
-14.217580 26.451265 32.636753 44.350497 -1.077600 0.743827 0.006403 0.004429 -152643.000000 0 0 1
-14.611680 26.638365 34.144655 45.705154 -1.069090 0.727163 0.018814 0.002673 146713.000000 0 0 1
-15.931780 26.253365 34.538905 46.216844 -1.025357 0.726772 0.031500 -0.001620 216884.000000 0 0 1
-16.380380 27.320065 -33.687466 46.363220 -1.030691 2.384155 0.029757 -0.008788 -701742.000000 0 0 1
-17.775480 27.045965 -33.166826 46.341021 -0.989354 2.368439 0.021175 -0.010977 -472546.000000 0 0 1
-18.720680 26.915565 -34.210693 47.384417 -0.963074 2.377459 0.004887 -0.008865 287423.000000 0 0 1
-19.992480 26.430065 -33.796416 47.333342 -0.923193 2.366003 0.013282 -0.016752 1025190.000000 0 0 1
-21.098580 26.294865 34.179521 48.008433 -0.894603 0.778528 0.029511 -0.026484 222431.000000 0 0 1
-20.954980 25.309665 33.152082 46.677091 -0.879247 0.780953 0.038243 -0.022942 -83925.300000 0 0 1
-21.275980 23.985465 33.563987 46.416711 -0.845190 0.762515 0.040144 -0.025732 -347732.000000 0 0 1
-21.689780 23.101365 32.410763 45.327444 -0.816903 0.774120 0.052352 -0.025031 -317563.000000 0 0 1
-23.043780 23.291565 32.065393 45.844325 -0.790746 0.796182 0.050907 -0.028007 -296076.000000 0 0 1
-23.240180 22.853865 30.750003 44.810353 -0.777017 0.814509 0.059356 -0.027923 926148.000000 0 0 1
-24.699380 22.572565 30.210003 45.080199 -0.740437 0.836400 0.049402 -0.027196 1025400.000000 0 0 1
-25.164280 21.388465 30.857323 45.198250 -0.704467 0.819330 0.061152 -0.031303 819771.000000 0 0 1
-26.448780 20.997065 30.307453 45.375724 -0.670996 0.839383 0.049849 -0.030097 837971.000000 0 0 1
-26.910080 19.611465 30.812673 45.367199 -0.629780 0.824146 0.063501 -0.025201 -288899.000000 0 0 1
-27.468080 19.748465 32.142273 46.665008 -0.623338 0.810981 0.060729 -0.025420 267638.000000 0 0 1
-27.758180 18.587965 32.929013 46.907876 -0.590058 0.792604 0.050481 -0.015596 -278681.000000 0 0 1
-28.536780 17.462865 32.280093 46.489825 -0.549154 0.803284 0.026457 -0.009517 -170095.000000 0 0 1
-29.924280 17.748165 32.162363 47.380138 -0.535332 0.824648 0.014226 -0.010583 278944.000000 0 0 1
-30.647780 16.615765 31.737143 47.144631 -0.496798 0.832286 0.005180 0.005785 393090.000000 0 0 1
-32.196280 16.745965 31.799283 48.251654 -0.479615 0.851268 -0.010356 0.008451 167004.000000 0 0 1
-32.647680 16.816765 33.104478 49.442704 -0.475653 0.837190 -0.013392 0.007192 786477.000000 0 0 1
-34.019280 17.238265 33.117367 50.509694 -0.469010 0.855735 0.006871 0.005376 453198.000000 0 0 1
-34.538180 17.492265 34.514853 51.866562 -0.468804 0.842693 0.015131 0.012755 -1136950.000000 0 0 1
34.282073 17.833965 -34.447431 51.768102 0.479687 2.298850 0.016135 0.008027 -724465.000000 0 0 1
33.854473 17.944565 -33.099506 50.633092 0.487398 2.283277 0.012263 -0.001393 -662733.000000 0 0 1
32.383173 18.088665 -32.763136 49.490330 0.509408 2.294295 0.012700 -0.001086 -821841.000000 0 0 1
31.771073 16.820765 -32.793056 48.659262 0.486919 2.310315 0.008322 0.006893 293220.000000 0 0 1
30.399973 17.007265 -32.447676 47.605221 0.510070 2.320742 0.003262 0.010843 -66796.300000 0 0 1
29.616173 15.713265 -32.541986 46.722642 0.487799 2.341295 -0.002297 0.014257 -728278.000000 0 0 1
29.160173 15.441465 -33.820656 47.250305 0.486999 2.368532 0.006555 0.013112 332815.000000 0 0 1
28.453373 14.166265 -33.929356 46.491706 0.461947 2.388817 0.001675 0.016232 -148881.000000 0 0 1
29.395973 12.973265 -34.241302 46.956316 0.415619 2.387972 -0.000857 0.014318 20757.900000 0 0 1
29.939973 12.365665 -33.135676 46.338803 0.391676 2.367526 0.005019 0.019107 45250.600000 0 0 1
30.871773 11.389265 -33.585436 47.018754 0.353431 2.366418 0.022351 0.009593 97864.700000 0 0 1
17.170573 -21.798435 10.145724 29.545492 -0.903602 1.220269 -0.019570 0.007786 151230.000000 0 0 1
16.579673 -22.990635 10.615224 30.267769 -0.946017 1.212467 -0.013462 0.001962 496414.000000 0 0 1
17.549473 -23.804535 11.289124 31.655714 -0.935517 1.206147 -0.035057 0.007211 299715.000000 0 0 1
16.890373 -25.075105 11.854624 32.474262 -0.978015 1.197113 -0.022385 0.002428 55314.300000 0 0 1
16.589973 -26.024005 10.831424 32.707733 -1.003268 1.233266 -0.008377 0.001783 -653175.000000 0 0 1
15.227973 -26.288605 10.930724 32.287190 -1.045765 1.225424 0.002156 -0.004581 -502211.000000 0 0 1
14.667673 -27.283695 9.840724 32.502008 -1.077524 1.263196 0.003838 -0.011664 -16665.700000 0 0 1
14.774673 -26.600705 8.617224 31.625070 -1.063798 1.294826 0.004131 -0.006071 -159731.000000 0 0 1
14.000073 -27.071735 7.569624 31.403505 -1.093525 1.327355 0.013244 -0.007291 -512517.000000 0 0 1
13.836073 -26.161105 6.348624 30.267894 -1.084313 1.359479 0.017234 -0.002823 -469855.000000 0 0 1
13.020073 -25.069255 6.556924 28.999709 -1.091778 1.342721 0.023987 -0.010838 -330404.000000 0 0 1
12.809173 -24.306935 5.356924 27.992832 -1.085801 1.378241 0.025074 -0.005661 -243441.000000 0 0 1
12.250173 -22.915035 5.679824 26.597481 -1.079860 1.355592 0.038820 -0.008711 -269483.000000 0 0 1
11.740573 -22.319035 4.509224 25.618616 -1.086539 1.393861 0.046861 -0.011076 -158937.000000 0 0 1
11.053073 -21.131935 4.813924 24.329056 -1.088879 1.371615 0.046912 -0.008458 -190156.000000 0 1 0
10.237273 -20.563835 3.646324 23.258735 -1.108887 1.413375 0.035815 -0.014315 -114123.000000 0 1 0
11.037373 -19.973035 2.612424 22.968903 -1.065949 1.456812 0.023504 -0.010322 -116674.000000 0 1 0
10.295673 -19.699035 1.449624 22.274521 -1.089194 1.505670 0.016567 0.002318 176820.000000 0 1 0
11.218873 -19.282735 0.276024 22.310607 -1.043860 1.558424 0.006355 0.004873 423709.000000 0 1 0
11.804673 -17.999235 0.508824 21.530947 -0.990324 1.547162 0.003562 0.000023 755095.000000 0 1 0
12.834173 -17.674035 -0.473476 21.847465 -0.942728 1.592470 0.029499 0.001294 974913.000000 0 1 0
13.963373 -16.681235 -0.051276 21.754127 -0.873856 1.573153 0.026022 0.003027 -147357.000000 0 1 0
14.797773 -17.404435 0.797624 22.858798 -0.866169 1.535896 0.011994 -0.001706 -931943.000000 0 1 0
15.940873 -16.620435 1.018824 23.051861 -0.806265 1.526585 0.004584 -0.006201 347399.000000 0 1 0
17.043373 -17.411635 1.836824 24.433901 -0.796086 1.495550 -0.001416 0.010523 460677.000000 0 1 0
17.532473 -18.540935 1.158124 25.543985 -0.813347 1.525442 0.007015 0.011750 -734166.000000 0 0 1
18.713473 -19.005635 1.708524 26.726902 -0.793144 1.506827 0.003331 0.013505 -489404.000000 0 0 1
19.072973 -20.303235 0.995124 27.874539 -0.816632 1.535089 0.003013 0.008152 -73047.600000 0 0 1
18.242173 -21.394335 1.316124 28.146521 -0.864758 1.524020 0.001494 0.018004 -5224.190000 0 0 1
18.534873 -22.457235 0.491024 29.122329 -0.880794 1.553935 0.009316 0.012944 36881.500000 0 0 1
17.404873 -23.505435 0.527224 29.252574 -0.933428 1.552772 0.004434 0.009395 -318895.000000 0 0 1
17.442173 -24.225835 1.748324 29.902795 -0.946785 1.512296 -0.005669 0.008850 366139.000000 0 0 1
16.255273 -25.001235 1.923724 29.883045 -0.994295 1.506377 0.000512 0.003628 226751.000000 0 0 1
16.175873 -26.026325 3.132824 30.803296 -1.014704 1.468916 -0.004033 0.003289 14264.800000 0 0 1
16.992373 -27.182805 3.059624 32.202592 -1.012114 1.475641 -0.001854 -0.000194 443051.000000 0 0 1
18.251473 -26.931415 3.706624 32.743800 -0.975193 1.457352 -0.000438 0.005118 471638.000000 0 0 1
19.175473 -28.175855 3.664424 34.278355 -0.973234 1.463690 0.006736 0.003724 11983.200000 0 0 1
19.699073 -28.662895 2.456824 34.866188 -0.968667 1.500274 0.002770 0.016317 -390928.000000 0 0 1
20.451673 -29.856135 2.530024 36.277552 -0.970204 1.500999 0.020006 0.023355 -258336.000000 0 0 1
19.903773 -31.202765 2.957124 37.128390 -1.002985 1.491066 0.026455 0.018775 -489386.000000 0 0 1
19.941673 -31.416995 4.371724 37.467451 -1.005222 1.453849 0.038139 0.013653 409213.000000 0 0 1
18.854773 -32.285795 4.736424 37.686984 -1.042228 1.444785 0.038588 -0.008155 303303.000000 0 0 1
18.875773 -32.695075 6.239824 38.264842 -1.047214 1.406995 0.037644 -0.011543 -355225.000000 0 0 1
19.849373 -33.648435 6.581324 39.617277 -1.037833 1.403900 0.030103 -0.021528 -201980.000000 0 0 1
19.483373 -34.309499 7.728924 40.205470 -1.054336 1.377357 0.029272 -0.013836 -285477.000000 0 0 1
20.555273 34.210101 8.444824 40.794182 1.029749 1.362278 0.039469 -0.027311 327950.000000 0 0 1
21.601073 -34.373058 9.066024 41.596951 -1.009734 1.351084 0.038758 -0.024062 592305.000000 0 0 1
22.562373 34.175436 9.728424 42.091131 0.987289 1.337560 0.047510 -0.030304 498189.000000 0 0 1
23.596173 -34.307463 10.525524 42.948435 -0.968315 1.323201 0.037546 -0.017721 -94294.300000 0 0 1
24.418473 -33.475605 9.771424 42.571807 -0.940583 1.339204 0.026276 -0.011711 306319.000000 0 0 1
25.243073 -32.641705 10.608024 42.605444 -0.912525 1.319166 0.013351 -0.006029 253231.000000 0 0 1
25.916373 -31.490295 9.849324 41.956004 -0.882190 1.333831 0.003071 -0.006549 -263233.000000 0 0 1
24.990673 -30.493625 9.470724 40.547374 -0.884255 1.335047 0.003115 -0.007717 349364.000000 0 0 1
25.578773 -29.704415 8.474924 40.105489 -0.859888 1.357875 0.003658 -0.004422 88801.700000 0 0 1
25.039173 -28.232295 8.482624 38.677870 -0.845267 1.349684 -0.008137 0.004989 -70420.400000 0 0 1
25.598373 -27.437585 9.517324 38.712753 -0.820063 1.322405 -0.009162 -0.005492 -159481.000000 0 0 1
25.199573 -26.105905 9.512924 37.510432 -0.803062 1.314389 -0.002550 0.001565 -505581.000000 0 0 1
26.005473 -25.170865 10.394824 37.655139 -0.769091 1.291111 0.015421 -0.015775 345881.000000 0 0 1
27.314773 -24.799335 9.978724 38.218828 -0.737168 1.306641 0.023829 -0.013117 -12925.900000 0 0 1
27.976773 -24.037735 10.937224 38.472528 -0.709813 1.282534 0.022761 -0.020306 -676697.000000 0 0 1
29.439573 -23.775335 10.608024 39.299939 -0.679357 1.297482 0.040748 -0.024110 -378982.000000 0 0 1
29.505573 -23.006335 9.432624 38.585550 -0.662257 1.323834 0.046989 -0.019557 -1569360.000000 0 0 1
30.807673 -22.744935 9.140524 39.369963 -0.635963 1.336488 0.040718 -0.024221 -1309040.000000 0 0 1
30.899873 -22.230835 7.736324 38.844085 -0.623659 1.370292 0.043079 -0.001215 -431990.000000 0 0 1
30.352473 -20.934135 7.577524 37.642124 -0.603780 1.368107 0.036353 0.014687 -35318.200000 0 0 1
30.678773 -20.399635 6.318224 37.379837 -0.586808 1.400953 0.022065 0.010399 73400.800000 0 0 1
30.253173 -18.945235 6.073024 36.208536 -0.559478 1.402276 0.028677 0.009399 37211.800000 0 0 1
30.984373 -18.015235 6.877824 36.494993 -0.526653 1.381203 0.030334 0.011629 122074.000000 0 0 1
30.503473 -16.715535 6.797624 35.441200 -0.501297 1.377800 0.025242 0.012941 -29843.000000 0 0 1
30.742273 -15.964635 8.161224 35.588798 -0.478973 1.339417 0.021728 -0.012548 859428.000000 0 0 1
32.135973 -15.673935 8.335124 36.713312 -0.453790 1.341767 0.027575 -0.001407 434520.000000 0 0 1
32.386773 -15.276035 9.676324 37.093012 -0.440732 1.306877 0.028404 -0.011798 1426920.000000 0 0 1
33.961373 -15.276035 9.904624 38.533540 -0.422693 1.310839 0.012017 -0.014415 1337300.000000 0 0 1
34.613473 -14.423935 9.015324 38.567065 -0.394832 1.334856 0.021188 -0.003396 -1033870.000000 0 0 1
-34.175380 -14.686735 8.944824 38.257896 0.405884 1.334809 0.012281 -0.004671 -348419.000000 0 0 1
-33.432480 -13.540135 8.244924 37.000604 0.384809 1.346078 0.015367 -0.008128 -283010.000000 0 0 1
-33.834180 -13.384735 6.852224 37.025070 0.376706 1.384653 0.034062 -0.012520 -424102.000000 0 0 1
-32.858680 -12.833535 6.017524 35.785514 0.372349 1.401838 0.030591 -0.010864 -472783.000000 0 0 1
-31.852780 -13.891835 5.515124 35.185213 0.411257 1.413402 0.017231 -0.007668 193158.000000 0 0 1
-31.012380 -14.464235 6.520524 34.835313 0.436410 1.382504 0.014919 -0.007524 245039.000000 0 0 1
-29.940780 -15.224635 5.984224 34.118188 0.470418 1.394487 0.003732 -0.004292 332168.000000 0 0 1
-29.167680 -15.854935 7.150524 33.959719 0.497900 1.358650 -0.004884 -0.001284 -132575.000000 0 0 1
-30.087680 -16.684935 7.871824 35.293358 0.506325 1.345865 0.007087 -0.013173 369154.000000 0 0 1
-29.631780 -16.963335 9.171024 35.353993 0.519932 1.308390 -0.019283 -0.001463 -507770.000000 0 0 1
-30.571280 -17.802635 10.047024 36.776074 0.527327 1.294084 -0.028191 -0.001981 -1191470.000000 0 0 1
-31.850280 -17.217735 10.134624 37.597890 0.495585 1.297868 -0.001884 0.001192 413707.000000 0 0 1
-32.834880 -17.872235 10.945824 38.953269 0.498461 1.285962 0.025472 -0.010306 391879.000000 0 0 1
-33.186980 -19.288735 10.571524 39.814420 0.526492 1.302053 0.036170 -0.007458 -1341490.000000 0 0 1
-32.338080 -20.388635 10.943924 39.764523 0.562533 1.291980 0.020926 0.003749 -55842.200000 0 0 1
-32.340380 -20.772735 12.316224 40.362062 0.570954 1.260707 0.004109 -0.011268 -46700.200000 0 0 1
-33.570980 -21.616635 12.697024 41.898735 0.572081 1.262915 0.014650 -0.033669 -312.616000 0 0 1
-33.404680 -23.001335 12.407624 42.413243 0.603011 1.273913 0.028150 -0.032375 660076.000000 0 0 1
-34.632980 -23.509835 11.866524 43.508275 0.596375 1.294555 0.054732 -0.026300 536010.000000 0 0 1
-34.839680 -24.993135 12.217024 44.583806 0.622292 1.293222 0.039326 -0.013909 -191190.000000 0 0 1
-34.900080 -25.315335 13.562824 45.197699 0.627548 1.266022 0.045747 -0.016783 168457.000000 0 0 1
34.607773 -26.561685 13.794524 45.754890 -0.654611 1.264544 0.024579 -0.016219 730024.000000 0 0 1
33.173473 -26.368835 14.414624 44.761325 -0.671609 1.242920 0.033779 -0.019320 413720.000000 0 0 1
32.295073 -25.668085 13.585424 43.432547 -0.671561 1.252663 0.038831 -0.027051 -406036.000000 0 0 1
31.242673 -25.101485 14.342424 42.566352 -0.676832 1.227128 0.018189 -0.011396 -866360.000000 0 0 1
31.372373 -23.544735 14.497624 41.818195 -0.643816 1.216765 0.034326 -0.012659 291687.000000 0 0 1
32.373173 -23.087435 15.417024 42.646649 -0.619507 1.200914 0.047619 -0.019520 -476879.000000 0 0 1
33.559573 -22.714735 14.796324 43.140878 -0.595018 1.220712 0.051271 -0.031102 -931254.000000 0 0 1
34.635573 -22.343335 15.819224 44.148561 -0.572921 1.204331 0.051892 -0.030224 -412096.000000 0 0 1
34.543473 -21.114035 16.538224 43.732904 -0.548637 1.182984 0.047649 -0.013675 -518794.000000 0 0 1
33.440273 -20.999235 17.379524 43.142411 -0.560727 1.156178 0.042827 -0.013659 -285147.000000 0 0 1
33.331473 -19.547935 17.951524 42.607113 -0.530412 1.135888 0.035484 0.003203 -158181.000000 0 0 1
33.126773 -18.570435 16.912624 41.572599 -0.510935 1.151825 0.029162 -0.004165 123560.000000 0 0 1
32.900973 -17.225535 17.341224 40.986719 -0.482315 1.133939 0.020670 -0.001682 223628.000000 0 0 1
34.164973 -16.495435 17.887824 41.944237 -0.449807 1.130213 0.011379 -0.005259 10865.900000 0 0 1
34.674673 -16.838235 19.130624 43.033009 -0.452066 1.110117 0.003210 0.012755 -304326.000000 0 0 1
-34.427480 -15.961435 19.375124 42.607678 0.434126 1.098724 -0.007687 0.004500 -618883.000000 0 0 1
-34.193580 -15.684035 20.866224 43.018475 0.430052 1.064373 -0.014170 0.016985 -136409.000000 0 0 1
-33.645980 -16.843435 21.510424 43.341107 0.464134 1.051459 -0.001497 0.014238 304634.000000 0 0 1
-33.380280 -16.554135 22.872224 43.719802 0.460383 1.020248 -0.005253 0.022712 -189450.000000 0 0 1
-32.432580 -17.525635 23.589824 43.766424 0.495421 1.001554 -0.000800 0.026437 -584760.000000 0 0 1
-32.957480 -18.814435 23.912924 44.855394 0.518725 1.008522 -0.006367 0.021890 598318.000000 0 0 1
-32.042880 -19.747635 24.524824 44.924183 0.552310 0.993314 -0.008668 0.016682 614559.000000 0 0 1
-30.932180 -20.472035 23.658624 43.995846 0.584651 1.003034 -0.013078 0.014609 1402960.000000 0 0 1
-29.830280 -19.551735 23.377624 42.645389 0.580185 0.990602 -0.017155 0.025760 196920.000000 0 0 1
-28.862680 -20.233335 22.654924 41.900927 0.611411 0.999553 -0.011703 0.019369 -21529.500000 0 0 1
-27.499580 -19.463035 22.740024 40.646590 0.615913 0.977066 -0.009925 0.025564 309372.000000 0 0 1
-26.844280 -19.581335 23.977724 40.975301 0.630213 0.945700 0.005229 0.014677 -313861.000000 0 0 1
-25.779480 -18.716635 24.147424 39.974893 0.627982 0.922205 0.020205 0.012752 -609371.000000 0 0 1
-25.422980 -18.369235 25.593224 40.481722 0.625697 0.886385 0.021327 0.001770 -570130.000000 0 0 1
-24.559780 -17.240435 25.682324 39.496799 0.612053 0.862899 0.027341 0.001940 245714.000000 0 0 1
-24.342880 -16.785335 26.991524 40.035804 0.603670 0.830936 0.023587 -0.001975 655363.000000 0 0 1
-23.274680 -17.558835 27.867724 40.331544 0.646323 0.807972 0.014781 0.005689 233326.000000 0 0 1
-23.723380 -18.872235 28.179824 41.389159 0.671998 0.821873 0.014330 0.003808 511769.000000 0 0 1
-22.696780 -19.522035 28.917024 41.622685 0.710342 0.802735 0.013723 0.003439 63687.300000 0 0 1
-23.298480 -20.861935 29.437624 42.948960 0.730279 0.815630 0.012198 0.010856 62077.100000 0 0 1
-24.268580 -20.661235 30.447324 44.078227 0.705282 0.808262 0.011338 -0.001408 285570.000000 0 0 1
-24.781180 -21.917935 30.949124 45.302881 0.724162 0.818715 0.004518 -0.001477 -145411.000000 0 0 1
-25.901480 -21.772635 32.019624 46.585305 0.699008 0.812985 0.014907 -0.004852 -728764.000000 0 0 1
-25.468080 -21.047435 33.174324 46.820438 0.690647 0.783364 0.021662 -0.006446 961821.000000 0 0 1
-26.502280 -20.956435 34.174624 48.056716 0.669070 0.779691 0.023956 -0.014697 480370.000000 0 0 1
-27.821580 -20.249335 33.825324 48.251719 0.629160 0.793972 0.014701 -0.016886 -654376.000000 0 0 1
-28.684580 -20.994435 32.992624 48.498295 0.631820 0.822646 0.021445 -0.020030 -1166440.000000 0 0 1
-29.764080 -20.211535 32.715224 48.628104 0.596532 0.832858 0.030835 -0.015843 -1218270.000000 0 0 1
-30.387780 -20.632835 31.359524 48.296488 0.596482 0.864116 0.025721 -0.011283 -266856.000000 0 0 1
-31.256280 -19.724835 30.725224 48.063120 0.562951 0.877250 0.030468 -0.012475 277291.000000 0 0 1
-32.028280 -20.371335 29.750524 48.227541 0.566500 0.906026 0.023333 -0.007512 -193609.000000 0 0 1
-32.565680 -19.286735 28.801524 47.560797 0.534695 0.920311 0.014708 0.007685 -494091.000000 0 0 1
-33.647380 -19.686135 28.024324 48.010965 0.529371 0.947510 0.005071 0.010610 -138188.000000 0 0 1
-34.103080 -18.560535 27.281224 47.452910 0.498416 0.958300 0.000345 0.018238 -155418.000000 0 0 1
34.865973 -18.870935 26.346424 47.601285 -0.496095 0.984258 -0.014288 0.019891 -161919.000000 0 0 1
33.641673 -19.146535 26.978424 47.182490 -0.517413 0.962112 -0.010277 0.013742 197281.000000 0 0 1
32.710773 -19.799635 26.107324 46.299164 -0.544303 0.971716 0.010585 0.019417 848816.000000 0 0 1
31.516173 -20.469735 26.867224 46.196612 -0.576023 0.950121 0.012608 0.015012 506028.000000 0 0 1
30.578273 -19.609335 27.495324 45.558201 -0.570223 0.922887 0.007303 0.007072 110432.000000 0 0 1
29.730673 -20.283335 28.375424 45.831117 -0.598704 0.903162 0.013768 0.005957 -188733.000000 0 0 1
-29.062427 -5.827235 33.840955 44.986571 0.197884 0.719332 -0.007325 0.009230 240924.000000 0 0 1
-30.148277 -5.592935 32.957833 45.015756 0.183429 0.749338 -0.012510 0.007816 599164.000000 0 0 1
-29.892107 -4.374435 32.334013 44.251126 0.145309 0.751459 0.004597 0.005051 -71955.500000 0 0 1
-30.473277 -4.372935 30.889213 43.610625 0.142528 0.783716 -0.003492 -0.000820 119599.000000 0 0 1
-29.924387 -5.391135 30.045683 42.746653 0.178247 0.791361 -0.017545 0.001268 1813420.000000 0 0 1
-28.521047 -5.227535 29.628213 41.456100 0.181275 0.774617 -0.003581 -0.007940 1723090.000000 0 0 1
-28.099077 -6.263735 28.533203 40.533149 0.219330 0.789856 -0.001420 -0.013388 -104024.000000 0 0 1
-28.774157 -6.018035 27.277943 40.103055 0.206175 0.822766 -0.006963 -0.009117 307952.000000 0 0 1
-28.441547 -7.038835 26.359463 39.411776 0.242610 0.838173 0.012489 -0.005992 -235320.000000 0 0 1
-29.001927 -6.648735 25.003233 38.864883 0.225357 0.871947 -0.006907 -0.003587 48156.400000 0 0 1
-28.384887 -5.559035 24.305473 37.780427 0.193397 0.871950 0.009870 -0.006432 356933.000000 0 0 1
-29.236057 -5.104635 23.248253 37.699941 0.172858 0.906296 0.017427 -0.006406 196343.000000 0 0 1
-28.735707 -3.715335 22.727253 36.824891 0.128580 0.905654 0.020034 0.000296 -305290.000000 0 0 1
-27.509367 -3.939435 22.109053 35.511894 0.142236 0.898759 0.018346 0.006187 -559310.000000 0 0 1
-27.130697 -2.794335 21.352553 34.638339 0.102633 0.906579 0.026675 0.008762 55377.800000 0 0 1
-25.695337 -2.838635 20.791553 33.175245 0.110027 0.893461 0.011758 0.015663 -44677.100000 0 0 1
-25.576777 -3.712335 19.663853 32.474914 0.144138 0.920391 0.013007 0.005839 -295231.000000 0 0 1
-24.335727 -3.472135 19.067153 31.110121 0.141720 0.911081 0.000514 0.006693 -641473.000000 0 0 1
-24.280327 -4.144435 17.664253 30.310666 0.169062 0.948659 0.009214 0.002671 -823386.000000 0 0 1
-25.342897 -3.828235 16.824753 30.659258 0.149924 0.989909 0.008649 0.009945 -125782.000000 0 0 1
-25.009727 -4.299635 15.503353 29.737640 0.170254 1.022379 0.021288 -0.007183 -229787.000000 0 0 1
-26.152807 -4.408635 14.467553 30.211181 0.167002 1.071417 0.018557 -0.013642 -202683.000000 0 0 1
-26.631187 -3.135335 14.041753 30.269147 0.117192 1.088408 0.019741 -0.012913 186649.000000 0 0 1
-27.889517 -3.222335 13.409253 31.112966 0.115029 1.125211 0.019943 -0.016928 -199538.000000 0 0 1
-28.236327 -1.953035 12.618253 30.989108 0.069057 1.151428 0.015587 -0.002477 -376816.000000 0 0 1
-27.443497 -1.812335 11.445353 29.789699 0.065943 1.176450 0.019656 -0.011474 392841.000000 0 0 1
-27.748207 -0.628335 10.664153 29.733516 0.022640 1.203967 0.017745 0.000399 -180971.000000 0 0 1
-29.014387 -0.770135 9.776753 30.626992 0.026537 1.245890 0.005439 -0.001370 -42994.500000 0 0 1
-28.913987 -1.676035 8.672753 30.233167 0.057901 1.279847 -0.002149 -0.013442 66362.200000 0 0 1
-30.141467 -1.849835 7.977753 31.234187 0.061295 1.312517 0.010550 -0.009460 -29481.300000 0 0 1
-30.067737 -2.603835 6.605353 30.894651 0.086383 1.355331 0.006262 -0.006981 -661335.000000 0 0 1
-29.481287 -1.847135 5.556453 30.057151 0.062573 1.384864 0.015055 -0.009058 20157.900000 0 0 1
-30.208807 -0.733635 5.118253 30.648112 0.024281 1.403010 0.031512 -0.001123 -513171.000000 0 0 1
-29.797207 -0.261135 3.629353 30.018560 0.008764 1.449596 0.003351 -0.002098 -91463.300000 0 0 1
-30.257207 -1.085635 2.587853 30.387072 0.035865 1.485530 0.001043 -0.003402 220102.000000 0 0 1
-29.859877 -0.723335 1.276253 29.895891 0.024220 1.528093 -0.002757 -0.009804 -455434.000000 0 0 1
-30.645187 -1.401735 0.114453 30.677442 0.045709 1.567065 -0.002637 -0.002240 -587932.000000 0 0 1
-31.923177 -0.827735 0.064853 31.933972 0.025923 1.568765 0.005692 0.002574 -327268.000000 0 0 1
-32.608477 -0.935135 -1.157847 32.642424 0.028670 1.606274 0.006808 0.007906 -86591.500000 0 0 1
-34.110463 -0.628735 -1.024847 34.131647 0.018430 1.600827 0.022775 -0.000448 38864.900000 0 0 1
-34.862710 -1.649235 -0.326147 34.903222 0.047271 1.580141 0.022403 0.007407 1740710.000000 0 0 1
33.856566 -1.412835 -0.388847 33.888263 -0.041706 1.582271 0.033162 -0.000340 999246.000000 0 0 1
33.103696 -2.604535 0.141253 33.206298 -0.078516 1.566543 0.037213 -0.007167 -646462.000000 0 0 1
33.453396 -2.860235 1.540853 33.610785 -0.085292 1.524936 0.037178 -0.006189 580529.000000 0 0 1
32.903376 -4.101035 2.003153 33.218417 -0.123999 1.510457 0.032409 -0.000820 -367778.000000 0 0 1
33.250976 -4.279035 3.497553 33.707127 -0.127986 1.466846 0.037883 0.000341 -384135.000000 0 0 1
32.482296 -3.516235 4.362053 32.961962 -0.107831 1.438071 0.037138 -0.001373 -95124.800000 0 0 1
32.537166 -3.906235 5.730453 33.268062 -0.119483 1.397682 0.035919 -0.004783 -222812.000000 0 0 1
31.971746 -2.941435 6.770953 32.812960 -0.091743 1.362953 0.033696 0.001966 -402158.000000 0 0 1
30.604356 -2.670135 6.656253 31.433452 -0.087027 1.357424 0.027997 0.002871 -259150.000000 0 0 1
30.164136 -1.477735 7.244953 31.057175 -0.048951 1.335349 0.023933 0.010386 580038.000000 0 0 1
28.640056 -1.365435 7.587253 29.659461 -0.047640 1.312109 0.027925 0.008641 119759.000000 0 0 1
27.853426 -1.097035 6.452853 28.612167 -0.039366 1.343311 0.024732 -0.001534 927814.000000 0 0 1
26.437256 -1.094835 6.722653 27.300572 -0.041389 1.321991 0.018243 0.009692 1202000.000000 0 0 1
25.705676 -2.490535 6.847353 26.718360 -0.096585 1.311626 0.029806 -0.007718 -962426.000000 0 0 1
26.005756 -3.295535 7.948953 27.392439 -0.126051 1.276373 0.025820 -0.008808 493748.000000 0 0 1
25.446736 -4.597435 7.753953 26.996232 -0.178741 1.279469 0.032098 -0.020860 -251546.000000 0 0 1
25.723466 -5.640935 8.867653 27.787625 -0.215874 1.245993 0.032591 -0.006554 -143424.000000 0 0 1
24.962626 -5.487535 10.067153 27.469862 -0.216388 1.195573 0.042304 0.004466 491824.000000 0 0 1
25.539396 -6.144035 11.150653 28.536765 -0.236085 1.169353 0.024535 0.000963 -205834.000000 0 0 1
24.616526 -6.127535 12.414153 28.242366 -0.243962 1.115690 0.016190 0.005798 183398.000000 0 0 1
23.608426 -7.102735 12.286753 27.545797 -0.292242 1.108451 0.023146 -0.001869 513260.000000 0 0 1
22.469026 -6.756335 13.113853 26.878957 -0.292095 1.061131 0.037804 -0.000636 1297570.000000 0 0 1
21.379426 -7.877235 13.139553 26.301683 -0.353015 1.047693 0.040335 0.001749 508764.000000 0 0 1
21.895826 -9.033835 13.790253 27.408182 -0.391306 1.043564 0.030131 -0.000181 94210.700000 0 0 1
20.898826 -10.011535 13.794453 26.968105 -0.446746 1.033855 0.049775 -0.015204 -362204.000000 0 0 1
21.290526 -11.256535 14.634353 28.180851 -0.486352 1.024763 0.042290 -0.007957 -173209.000000 0 0 1
20.991626 -11.115435 16.032353 28.657243 -0.486982 0.977072 0.039475 -0.006389 160061.000000 0 0 1
21.587226 -12.128535 16.726853 29.881387 -0.511887 0.976682 0.035951 -0.005693 -456563.000000 0 0 1
21.574026 -12.000535 18.271253 30.713029 -0.507628 0.933652 0.047636 -0.008662 217086.000000 0 0 1
20.280126 -12.061235 18.854653 30.203557 -0.536537 0.896622 0.053983 -0.011597 178976.000000 0 0 1
20.357626 -12.271835 20.266153 31.236962 -0.542485 0.864806 0.092570 -0.010439 101156.000000 0 0 1
20.836926 -11.202535 21.246953 31.797913 -0.493296 0.839027 0.059010 -0.009023 225435.000000 0 0 1
19.879926 -10.173135 21.544653 31.030247 -0.472987 0.803334 0.064951 -0.010414 387629.000000 0 0 1
20.113026 -8.972335 20.794653 30.289506 -0.419602 0.814091 0.058296 -0.000521 -450516.000000 0 0 1
21.195326 -7.926535 21.268753 31.055300 -0.357872 0.816375 0.037448 0.013435 623981.000000 0 0 1
22.515126 -8.413135 21.293253 32.110969 -0.357601 0.845824 0.025232 0.013121 -35231.900000 0 0 1
23.133326 -8.453035 20.006653 31.731226 -0.350332 0.888594 0.022668 0.007025 162154.000000 0 0 1
24.462626 -9.304635 19.945153 32.906009 -0.363463 0.919617 -0.016851 0.017392 619430.000000 0 0 1
24.261626 -10.684135 20.202853 33.330654 -0.414818 0.919605 -0.011606 0.010525 1116280.000000 0 0 1
25.432266 -11.494935 19.887553 34.270227 -0.424501 0.951680 -0.011161 0.010018 897075.000000 0 0 1
25.298566 -12.991035 20.306353 34.944705 -0.474396 0.950717 -0.028131 0.008361 -236747.000000 0 0 1
24.319226 -13.638635 19.535353 34.045075 -0.511110 0.959648 0.011497 -0.000248 -14455.300000 0 0 1
24.044926 -14.927035 19.947753 34.624958 -0.555572 0.956836 0.012815 0.002585 -696209.000000 0 0 1
22.853326 -15.444035 19.173053 33.591646 -0.594292 0.963355 0.038814 -0.005790 -848944.000000 0 0 1
23.170526 -15.638735 17.792253 33.136197 -0.593709 1.003987 0.015376 0.000754 -328108.000000 0 0 1
22.227126 -16.309435 17.032253 32.405871 -0.633028 1.017386 0.006652 -0.006020 -872169.000000 0 0 1
22.079126 -17.883135 17.207953 33.217585 -0.680783 1.026241 0.000154 -0.003929 391346.000000 0 0 1
23.185626 -18.624035 16.636453 34.076377 -0.676724 1.060758 0.002839 0.005559 784097.000000 0 0 1
23.146626 -20.033535 16.902853 34.968776 -0.713427 1.066296 0.010487 -0.003701 -428028.000000 0 0 1
24.447926 -20.750935 16.549953 36.086055 -0.703786 1.094350 0.011405 0.003562 -329499.000000 0 0 1
24.672226 -20.818035 15.132353 35.652453 -0.700874 1.132452 0.004233 -0.005402 7659.350000 0 0 1
25.588556 -21.778435 14.668153 36.663731 -0.705133 1.159200 0.008636 -0.012367 -320228.000000 0 0 1
25.726376 -21.786435 13.151653 36.186477 -0.702664 1.198837 0.002085 -0.023101 -1542610.000000 0 0 1
24.510826 -21.931835 12.565853 35.209184 -0.729925 1.205858 -0.004537 -0.008907 -1131890.000000 0 0 1
24.622926 -21.686035 11.198853 34.669683 -0.722064 1.241882 0.017565 -0.000059 85149.200000 0 0 1
23.387126 -22.066335 10.347653 33.778021 -0.756348 1.259448 -0.010995 0.003080 -109446.000000 0 0 1
22.908126 -23.351635 10.726653 34.425894 -0.794985 1.253934 -0.004802 0.005481 135225.000000 0 0 1
21.638526 -23.619635 10.162353 33.606345 -0.829144 1.263593 -0.015469 0.017617 104507.000000 0 0 1
21.581026 -24.185535 8.726353 33.568289 -0.842245 1.307817 -0.018215 0.015243 -754936.000000 0 0 1
22.101926 -25.498395 8.755553 34.861483 -0.856631 1.316925 -0.018801 0.017163 22878.300000 0 0 1
21.860026 -26.224465 7.572153 34.970285 -0.875916 1.352537 -0.014284 0.016940 715072.000000 0 0 1
20.380526 -26.783105 7.419053 34.463646 -0.920326 1.353826 -0.012929 0.014603 905341.000000 0 0 1
19.497626 -25.712105 7.294253 33.082864 -0.922001 1.348485 -0.016572 0.015820 -195111.000000 0 0 1
18.141826 -26.081325 7.607953 32.668675 -0.963038 1.335756 -0.012724 0.005783 959185.000000 0 0 1
17.215226 -24.846535 7.572653 31.161826 -0.964877 1.325328 -0.015294 0.006229 -289588.000000 0 0 1
17.015326 -24.274835 6.283653 30.303024 -0.959436 1.361920 -0.002604 -0.002362 11387.300000 0 0 1
16.152226 -23.170235 6.378353 28.955787 -0.962012 1.348696 0.008232 -0.002208 -451997.000000 0 0 1
16.002726 -22.416335 5.042153 28.000047 -0.950811 1.389732 0.017148 -0.003317 -252207.000000 0 0 1
15.117826 -21.297535 5.088553 26.608778 -0.953497 1.378375 0.029671 -0.005907 173194.000000 0 0 1
15.009426 -20.659535 3.856053 25.825732 -0.942497 1.420925 0.030916 -0.005954 415890.000000 0 0 1
14.093026 -19.387235 3.857453 24.276701 -0.942229 1.411225 0.019450 -0.000504 425837.000000 0 1 0
14.800626 -18.225035 4.297553 23.867958 -0.888718 1.389754 0.009882 -0.004299 1049710.000000 0 1 0
13.853826 -17.150235 4.504853 22.502284 -0.891322 1.369239 -0.011199 0.003075 528535.000000 0 1 0
14.603026 -15.845835 4.772353 22.070664 -0.826192 1.352844 -0.034488 0.008825 462001.000000 0 1 0
15.423426 -15.771035 5.999453 22.860469 -0.796541 1.305249 -0.007852 -0.002731 1327470.000000 0 1 0
16.498326 -14.814935 5.960853 22.961029 -0.731690 1.308181 0.005355 -0.007092 842374.000000 0 1 0
17.834726 -15.475235 5.470653 24.238160 -0.714682 1.343131 -0.000616 -0.016752 -2904.300000 0 1 0
18.875626 -14.518035 5.518453 24.444139 -0.655640 1.343076 0.012592 -0.012579 -547542.000000 0 1 0
20.086726 -15.189935 5.353753 25.746327 -0.647469 1.361325 0.024206 -0.016990 391783.000000 0 0 1
21.357826 -14.226435 5.388253 26.221774 -0.587610 1.363834 0.020871 -0.020080 706749.000000 0 0 1
21.583826 -13.626235 6.668353 26.381864 -0.563129 1.315262 0.035101 -0.013388 228790.000000 0 0 1
22.547826 -12.588735 6.555653 26.643147 -0.509203 1.322189 0.029019 -0.012965 96074.400000 0 0 1
22.684926 -11.624335 7.783253 26.651643 -0.473539 1.274441 0.038240 -0.016064 -124457.000000 0 0 1
23.076226 -12.254635 8.945153 27.617097 -0.488178 1.240948 0.039342 -0.011796 205088.000000 0 0 1
22.960926 -11.445435 10.033853 27.547782 -0.462426 1.197986 0.049693 -0.019103 -247584.000000 0 0 1
23.366226 -12.077835 11.435053 28.681267 -0.477070 1.160704 0.030138 -0.005504 209669.000000 0 0 1
22.489426 -13.096435 12.017953 28.665695 -0.527331 1.138183 0.038367 -0.007554 837859.000000 0 0 1
23.194326 -14.118035 12.666753 29.962348 -0.546781 1.134312 0.029523 -0.008087 -912778.000000 0 0 1
22.338826 -15.238235 13.099753 30.047138 -0.598639 1.119677 0.011797 -0.010799 -626917.000000 0 0 1
21.181726 -14.778635 13.742553 29.256304 -0.609185 1.081812 0.017819 -0.015202 201662.000000 0 0 1
20.078326 -15.690435 13.751753 28.955822 -0.663334 1.075921 0.003354 -0.009009 677617.000000 0 0 1
18.756426 -15.044135 14.224053 27.936592 -0.676007 1.036594 0.005033 -0.010743 -502190.000000 0 0 1
18.708626 -14.906235 15.600353 28.558353 -0.672761 0.992901 0.010618 -0.012927 122756.000000 0 0 1
18.205926 -13.619935 15.959453 27.778814 -0.642287 0.958780 0.024917 -0.015600 -842290.000000 0 0 1
16.753026 -13.217035 15.869753 26.593288 -0.667957 0.931342 0.027078 -0.017176 -1288300.000000 0 0 1
16.180426 -13.394135 14.549353 25.551765 -0.691463 0.965012 0.016750 -0.020474 -729519.000000 0 0 1
14.860526 -12.963935 14.538653 24.500434 -0.717341 0.935515 0.041272 -0.023763 -760689.000000 0 1 0
14.538326 -11.531035 14.383853 23.478137 -0.670549 0.911389 0.025317 -0.018585 -595502.000000 0 1 0
14.834426 -10.688635 15.458053 23.942818 -0.624371 0.868956 0.017431 -0.002934 200366.000000 0 1 0
14.370626 -9.413535 15.115753 22.882647 -0.579920 0.849209 0.004481 0.000257 -601781.000000 0 1 0
14.827526 -8.452235 16.184753 23.521098 -0.518096 0.811936 0.007424 0.008621 562642.000000 0 1 0
16.242926 -8.259135 16.262653 24.423756 -0.470405 0.842159 0.015187 -0.004295 1052450.000000 0 1 0
16.932426 -9.137835 17.211653 25.815656 -0.494874 0.841005 0.041877 -0.000993 29036.400000 0 0 1
18.465326 -9.071835 17.100353 26.752355 -0.456656 0.877327 0.046717 -0.001199 -97330.600000 0 0 1
18.907226 -7.738235 17.377753 26.820697 -0.388476 0.865942 0.043089 -0.002664 185606.000000 0 0 1
20.222426 -7.589635 16.877653 27.411754 -0.359041 0.907511 0.036078 0.004780 -105654.000000 0 0 1
20.904926 -6.255435 17.182053 27.773537 -0.290753 0.903775 0.039948 0.013942 -273075.000000 0 0 1
21.355026 -6.143935 18.478453 28.900489 -0.280139 0.877102 0.040591 0.012115 73701.500000 0 0 1
21.801426 -4.833035 18.768353 29.170387 -0.218156 0.871859 0.032418 0.013967 -1880.510000 0 0 1
-5.450227 -33.561209 -6.453776 34.607961 1.409805 1.758377 -0.031927 0.015993 -293299.000000 0 0 1
-5.999927 -32.250209 -6.531676 33.447539 1.386856 1.767341 -0.026507 0.006795 114443.000000 0 0 1
-5.591227 -31.368109 -5.447876 32.324904 1.394403 1.740139 -0.025516 0.008102 -686371.000000 0 0 1
-6.167527 -29.956409 -5.495476 31.074508 1.367750 1.748580 -0.000119 0.001396 -690468.000000 0 0 1
-7.517827 -29.836809 -5.250276 31.214072 1.323969 1.739802 0.004998 -0.001054 -1094900.000000 0 0 1
-8.382727 -30.124009 -6.311076 31.899149 1.299389 1.769955 -0.000351 0.000021 -1405780.000000 0 0 1
-9.810427 -30.305309 -5.876676 32.391226 1.257723 1.753235 0.022732 0.002417 -1031530.000000 0 0 1
-10.741927 -30.626009 -6.859476 33.172184 1.233458 1.779083 0.016883 -0.003020 -1389220.000000 0 0 1
-11.968827 -30.796009 -6.257376 33.627396 1.200114 1.757967 0.020088 -0.005641 -696413.000000 0 0 1
-13.119627 -31.216409 -7.191676 34.616600 1.172930 1.780073 0.033553 -0.011264 140411.000000 0 0 1
-13.535727 -30.285709 -8.170776 34.164333 1.150495 1.812298 0.050419 -0.015459 -506024.000000 0 0 1
-14.630927 -30.763009 -8.878476 35.203041 1.126858 1.825757 0.061309 -0.017585 -436085.000000 0 0 1
-14.826127 -29.867309 -10.132776 34.850299 1.110033 1.865808 0.049768 -0.016123 -274710.000000 0 0 1
-15.181027 -28.567009 -9.786476 33.798117 1.082331 1.864560 0.055206 -0.013657 -504000.000000 0 0 1
-14.090327 -27.711509 -9.812676 32.599903 1.100400 1.876541 0.037627 -0.011227 -882439.000000 0 0 1
-14.323127 -26.210109 -9.600976 31.373564 1.070665 1.881807 0.042327 -0.007229 -391296.000000 0 0 1
-15.025727 -25.630709 -10.662276 31.565643 1.040556 1.915355 0.046156 -0.009475 124790.000000 0 0 1
-15.054427 -24.209109 -10.459976 30.366558 1.014466 1.922457 0.033743 0.003314 -267456.000000 0 0 1
-15.607727 -23.493609 -11.685476 30.530332 0.984407 1.963567 0.036167 0.003077 91672.900000 0 0 1
-16.951627 -23.803409 -12.009076 31.593953 0.951962 1.960708 0.034384 0.002089 135700.000000 0 0 1
-17.319927 -23.441309 -13.324376 32.047056 0.934461 1.999591 0.041886 -0.005537 593498.000000 0 0 1
-18.700327 -24.012309 -13.859376 33.442122 0.909128 1.998111 0.026988 0.014682 742940.000000 0 0 1
-18.909627 -25.404109 -13.973276 34.614956 0.930919 1.986329 0.046704 0.011759 -33769.200000 0 0 1
-18.759627 -26.128709 -12.768576 34.607363 0.948112 1.948681 0.049425 0.002731 -1261850.000000 0 0 1
-18.874127 -27.690209 -12.864476 35.895335 0.972515 1.937338 0.052102 -0.006677 88146.800000 0 0 1
-17.940327 -28.317309 -13.723576 36.222394 1.006075 1.959371 0.061953 -0.007109 -185890.000000 0 0 1
-16.577627 -28.082509 -13.509976 35.298222 1.037526 1.963555 0.064528 -0.013550 -1112150.000000 0 0 1
-15.812927 -29.331409 -13.973576 36.133655 1.076351 1.967868 0.059641 -0.015808 -431778.000000 0 0 1
-15.804627 -29.541209 -15.381176 36.865293 1.079540 2.001188 0.075928 -0.008259 -241390.000000 0 0 1
-15.123427 -30.665509 -15.867576 37.694448 1.112625 2.005292 0.068412 -0.005742 -24806.300000 0 0 1
-15.841427 -32.026909 -15.686076 39.022131 1.111455 1.984473 0.070510 -0.011167 22428.400000 0 0 1
-16.060527 -32.288209 -14.335976 38.807076 1.109222 1.949177 0.067412 -0.014552 209477.000000 0 0 1
-16.528327 -33.632709 -14.089676 40.035780 1.114023 1.930425 0.047346 -0.011126 -495529.000000 0 0 1
-16.943927 -33.953309 -12.606376 39.985554 1.107920 1.891541 0.048147 -0.012132 1229610.000000 0 0 1
-18.311227 -33.694009 -12.186876 40.238131 1.072991 1.878498 0.045639 -0.008971 1225230.000000 0 0 1
-18.808427 -32.358409 -12.201476 39.366224 1.044275 1.885935 0.051137 -0.017552 -659665.000000 0 0 1
-18.362027 -31.234209 -11.222276 37.929926 1.039335 1.871161 0.062410 -0.017908 -322125.000000 0 0 1
-18.625027 -31.523109 -9.790276 37.900495 1.037141 1.832074 0.048103 -0.023773 276908.000000 0 0 1
-18.439827 -30.391609 -8.941176 36.655446 1.025435 1.817207 0.057428 -0.015154 -378004.000000 0 0 1
-18.504727 -30.773909 -7.450076 36.673724 1.029413 1.775365 0.046653 -0.015060 -386852.000000 0 0 1
-17.380027 -31.453309 -7.001076 36.611351 1.065985 1.763208 0.052423 -0.021194 -559691.000000 0 0 1
-17.526227 -32.001909 -5.677976 36.926010 1.069750 1.725175 0.066832 -0.024637 -145991.000000 0 0 1
-16.432127 -33.018209 -5.272676 37.256114 1.109016 1.712798 0.068751 -0.020001 86652.300000 0 0 1
-15.178327 -32.506909 -4.883576 36.206768 1.133956 1.706089 0.065525 -0.011023 152996.000000 0 0 1
-15.126227 -32.301709 -3.460576 35.835439 1.132846 1.667516 0.047318 -0.007629 304719.000000 0 0 1
-13.814827 -31.568009 -3.035176 34.591920 1.158284 1.658652 0.052352 -0.001171 798699.000000 0 0 1
-12.574327 -32.257909 -3.153376 34.765359 1.199109 1.661626 -0.000160 0.007045 88685.500000 0 0 1
-11.624327 -31.453709 -2.455076 33.622733 1.216795 1.643880 0.005341 0.011922 -203394.000000 0 0 1
-10.219927 -32.054309 -2.470476 33.734684 1.262154 1.644094 0.012272 0.012395 -687537.000000 0 0 1
-10.265827 -33.250109 -1.735376 34.842050 1.271335 1.620624 0.008156 0.012428 157307.000000 0 0 1
-9.085227 -34.055509 -1.743776 35.289656 1.310091 1.620230 -0.011249 0.014173 186085.000000 0 0 1
-8.002927 -33.589209 -0.756376 34.537717 1.336898 1.592698 -0.004933 0.009807 -604956.000000 0 0 1
-8.405927 -33.658609 0.598324 34.697544 1.326062 1.553551 0.014719 0.008634 80815.400000 0 0 1
-7.437727 -33.094609 1.481824 33.952448 1.349728 1.527138 0.025725 -0.002982 -122988.000000 0 0 1
-6.501327 -34.110309 2.085324 34.786908 1.382458 1.510815 0.020042 -0.010536 -496333.000000 0 0 1
-7.178327 34.250265 2.908924 35.115108 -1.364202 1.487862 0.041558 -0.013542 605366.000000 0 0 1
-6.300427 33.365065 3.624224 34.147590 -1.384161 1.464462 0.030890 -0.014851 -58150.100000 0 0 1
-5.544627 33.918465 4.872324 34.712313 -1.408760 1.429968 0.034552 -0.014390 -433276.000000 0 0 1
-4.580827 -34.547409 4.450924 35.132864 1.438970 1.443767 0.024036 -0.013249 -1022330.000000 0 0 1
-3.932527 -33.992309 5.556824 34.667277 1.455620 1.409812 0.009538 -0.013130 202907.000000 0 0 1
-2.860327 -32.886309 5.355224 33.442027 1.484038 1.409969 0.029312 -0.009996 -16426.700000 0 0 1
-3.318127 -31.784709 4.600224 32.286835 1.466779 1.427830 0.019245 -0.003701 -57786.400000 0 0 1
-3.352527 -31.913609 3.169824 32.245397 1.466130 1.472334 0.016575 -0.008536 -203331.000000 0 0 1
-3.888227 -30.666309 2.486624 31.011677 1.444678 1.490527 0.009751 -0.003268 206669.000000 0 0 1
-3.072627 -29.544409 2.830124 29.838276 1.467169 1.475805 0.001058 0.002372 219513.000000 0 0 1
-3.631527 -28.317909 2.330424 28.644770 1.443251 1.489350 0.008940 -0.000895 566021.000000 0 0 1
-2.622127 -27.188109 2.636524 27.441211 1.474650 1.474569 0.003732 -0.003276 266282.000000 0 0 1
-2.900827 -26.048909 1.762124 26.269098 1.459892 1.503666 0.004853 -0.009809 -254698.000000 0 0 1
-2.786127 -24.777809 2.363324 25.045710 1.458822 1.476295 0.003415 -0.008642 -129344.000000 0 0 1
-3.967427 -24.368009 3.274924 24.905129 1.409400 1.438918 0.003974 -0.005592 -179557.000000 0 1 0
-4.026227 -25.045609 4.487424 25.761017 1.411404 1.395709 0.023984 -0.006463 -256980.000000 0 0 1
-4.945027 -24.391809 5.319224 25.450104 1.370774 1.360238 0.011070 -0.003928 -206230.000000 0 0 1
-5.595227 -25.266409 6.433924 26.666334 1.352864 1.327117 0.009123 0.000192 -365822.000000 0 0 1
-4.735327 -25.705409 7.456524 27.180712 1.388624 1.292902 0.013922 -0.009623 -136267.000000 0 0 1
-5.362527 -26.685809 8.270624 28.448063 1.372487 1.275810 0.006447 -0.009524 280151.000000 0 0 1
-4.573827 -27.081009 9.552024 29.078206 1.403481 1.236087 0.000107 -0.009464 282179.000000 0 0 1
-4.062527 -26.189109 10.500424 28.506709 1.416900 1.193564 0.005901 -0.013740 379810.000000 0 0 1
-5.124627 -25.436909 11.099524 28.222288 1.371993 1.166590 0.001559 -0.004379 596874.000000 0 0 1
-4.642427 -24.522709 12.251624 27.803195 1.383699 1.114468 -0.011661 -0.002787 -19911.800000 0 0 1
-4.125727 -25.196409 13.353824 28.813283 1.408494 1.088900 -0.009230 -0.001159 -10632.400000 0 0 1
-3.382827 -24.297209 14.201024 28.345493 1.432459 1.046045 -0.012939 -0.005069 -225871.000000 0 0 1
-2.439527 -25.063509 15.131124 29.378252 1.473768 1.029736 -0.013922 -0.003307 -144892.000000 0 0 1
-2.997927 -25.902709 16.138724 30.665882 1.455571 1.016581 -0.016683 -0.002868 -587439.000000 0 0 1
-1.942727 -26.396209 16.894724 31.400091 1.497330 1.002678 -0.028719 0.005395 -526221.000000 0 0 1
-2.298527 -26.886209 18.314624 32.612527 1.485513 0.974499 -0.025933 0.006468 -110759.000000 0 0 1
-2.545527 -25.754309 19.098924 32.164157 1.472277 0.935029 -0.015416 0.003224 -198358.000000 0 0 1
-2.720127 -26.211809 20.423324 33.340219 1.467392 0.911484 -0.004356 -0.001906 67381.900000 0 0 1
-2.810827 -25.038109 21.417024 33.068059 1.459002 0.866281 0.003994 -0.009231 -58619.500000 0 0 1
-2.667127 -25.493209 22.740824 34.266052 1.466554 0.845102 0.001374 -0.014871 -185166.000000 0 0 1
-2.782127 -24.490709 23.742824 34.223628 1.457682 0.804106 0.007773 -0.016838 -86081.600000 0 0 1
-1.884427 -23.234709 23.726824 33.262064 1.489869 0.776558 0.013574 -0.018224 -47282.400000 0 0 1
-2.081927 -22.316909 22.671324 31.880523 1.477776 0.779686 0.022032 -0.011965 -343196.000000 0 0 1
-0.985927 -21.428009 22.649224 31.194855 1.524818 0.758227 0.012023 -0.010863 -418742.000000 0 0 1
-1.271427 -20.153809 21.728324 29.663321 1.507794 0.748812 0.016156 -0.002388 121081.000000 0 0 1
-2.142027 -19.188109 22.323724 29.514750 1.459624 0.713068 0.019202 -0.012404 587945.000000 0 0 1
-3.480227 -19.554509 22.649224 30.124378 1.394665 0.719922 0.034458 -0.016541 388114.000000 0 0 1
-4.558427 -19.426209 21.500624 29.333150 1.340313 0.748103 0.029233 -0.008952 142515.000000 0 0 1
-4.487327 -20.391409 20.484224 29.249771 1.354189 0.794949 0.026216 -0.005290 -84797.300000 0 0 1
-5.063527 -21.660809 20.706324 30.390489 1.341156 0.821201 0.030576 -0.008804 -23846.400000 0 0 1
-5.039027 -22.601709 19.491024 30.267624 1.351435 0.871138 0.017918 -0.000413 168248.000000 0 0 1
-5.702927 -23.851209 19.636724 31.416627 1.336098 0.895610 0.027355 -0.007516 -186889.000000 0 0 1
-5.626127 -24.536909 18.385524 31.172756 1.345400 0.939992 0.028080 -0.005281 -221519.000000 0 0 1
-6.207627 -25.921509 18.281124 32.321181 1.335745 0.969626 -0.000165 -0.008812 230311.000000 0 0 1
-7.608227 -25.817709 18.485924 32.652237 1.284218 0.968974 0.019968 -0.008152 -508036.000000 0 0 1
-8.258027 -27.007909 18.198724 33.597853 1.274061 0.998382 0.023335 -0.010131 274434.000000 0 0 1
-9.806427 -26.870609 18.300824 33.957559 1.220866 1.001627 0.046417 -0.016000 -101225.000000 0 0 1
-10.291727 -26.171209 17.124424 32.925639 1.196126 1.023835 0.046082 -0.018103 502548.000000 0 0 1
-11.700227 -26.127209 16.910724 33.249044 1.149759 1.037229 0.043767 -0.022897 805791.000000 0 0 1
-12.567427 -25.399909 17.984824 33.564110 1.111332 1.005300 0.036620 -0.009932 -607545.000000 0 0 1
-12.536927 -23.978809 17.944024 32.467612 1.089049 0.985226 0.027283 -0.010126 120664.000000 0 0 1
-12.897027 -23.359709 19.196924 32.871434 1.066338 0.947148 0.020300 -0.000255 -392024.000000 0 0 1
-11.650827 -22.760109 19.833724 32.359557 1.097677 0.911049 0.006016 -0.003968 -171632.000000 0 0 1
-10.894527 -23.756309 20.483324 33.205715 1.140818 0.906048 0.017969 -0.002734 403480.000000 0 0 1
-9.488827 -23.519109 20.311024 32.491907 1.187318 0.895524 0.039207 -0.012134 589143.000000 0 0 1
-8.693027 -24.491209 21.152324 33.508340 1.229723 0.887625 0.037370 -0.014615 -284681.000000 0 0 1
-8.790427 -24.305409 22.528924 34.286687 1.223767 0.853864 0.039734 -0.019353 769923.000000 0 0 1
-7.613927 -24.835609 23.189124 34.821183 1.273320 0.842031 0.034016 -0.016323 1054080.000000 0 0 1
-7.655127 -24.564009 24.750724 35.701398 1.268695 0.804779 0.035218 -0.019052 595188.000000 0 0 1
-6.461227 -25.119409 25.317024 36.244777 1.319034 0.797495 0.026521 -0.018322 457056.000000 0 0 1
-6.207127 -24.612509 26.628724 36.788489 1.323754 0.761455 0.023937 -0.012011 372822.000000 0 0 1
-4.927827 -25.108609 27.376124 37.472361 1.376999 0.751642 0.018098 -0.010118 109811.000000 0 0 1
-3.711027 -24.579909 26.967824 36.677066 1.420950 0.744720 0.026784 -0.012768 -368480.000000 0 0 1
-2.635227 -24.874309 27.852624 37.435869 1.465248 0.731746 0.015575 -0.007722 372178.000000 0 0 1
-1.342727 -24.152809 27.441324 36.581243 1.515261 0.722511 0.017369 -0.010059 -1029510.000000 0 0 1
-1.461627 -22.711809 27.549524 35.734282 1.506530 0.690457 0.025428 -0.017564 -147002.000000 0 0 1
-0.324227 -21.924209 27.264224 34.987340 1.556009 0.677313 0.026587 -0.020631 84807.900000 0 0 1
0.685273 -21.819509 28.444324 35.855824 -1.539400 0.654591 0.020993 -0.020341 -470089.000000 0 0 1
1.340573 -22.999809 28.606924 36.730702 -1.512576 0.678000 0.016778 -0.015032 -513748.000000 0 0 1
2.075473 -22.963209 29.815824 37.690846 -1.480659 0.658252 0.017749 -0.008447 -123000.000000 0 0 1
2.746673 -24.296909 30.125324 38.799731 -1.458228 0.681813 0.027111 -0.010691 -230603.000000 0 0 1
3.607973 -24.697309 29.059024 38.306676 -1.425735 0.709651 0.020407 -0.022612 627037.000000 0 0 1
4.471073 -25.803109 29.336724 39.324729 -1.399223 0.728743 -0.008455 -0.004667 223604.000000 0 0 1
5.777473 -25.528509 30.142424 39.920542 -1.348231 0.715050 -0.006903 -0.002728 19423.000000 0 0 1
6.842073 -24.946509 29.437324 39.187987 -1.303109 0.720945 -0.016987 -0.001207 310177.000000 0 0 1
7.642573 -25.874409 28.661224 39.361907 -1.283591 0.755183 -0.003520 0.000197 -772299.000000 0 0 1
8.667773 -25.124109 27.884624 38.521467 -1.238584 0.761398 -0.006810 -0.002232 -673038.000000 0 0 1
8.054473 -24.231009 26.994824 37.158267 -1.249883 0.757607 0.000831 -0.000114 -332666.000000 0 0 1
9.069473 -23.686109 26.253224 36.503683 -1.205115 0.768155 -0.010326 -0.001338 -432139.000000 0 0 1
8.609673 -22.517709 25.339624 34.975280 -1.205596 0.760486 -0.001659 -0.001519 -185295.000000 0 0 1
7.863273 -22.937909 24.249724 34.293262 -1.240544 0.785368 0.010056 -0.002186 -411294.000000 0 0 1
7.412773 -21.840609 23.490224 32.920389 -1.243593 0.776249 0.003919 0.013414 -109478.000000 0 0 1
6.551573 -22.117609 22.241224 32.043467 -1.282815 0.803634 0.026205 0.008584 -378116.000000 0 0 1
7.139273 -23.099109 21.425424 32.304595 -1.271038 0.845668 0.015036 0.011369 -279205.000000 0 0 1
6.500673 -23.330009 20.186124 31.528204 -1.299049 0.875965 0.017703 0.002457 -221947.000000 0 0 1
7.318073 -24.232309 19.228824 31.788467 -1.277509 0.921157 0.016439 -0.010354 302285.000000 0 0 1
8.542573 -23.591609 18.918624 31.423779 -1.223381 0.924733 0.032005 -0.017444 -161381.000000 0 0 1
9.451173 -24.511809 18.309024 32.021458 -1.202786 0.962130 0.040713 -0.024848 770408.000000 0 0 1
10.770973 -23.876609 17.808624 31.674176 -1.147020 0.973699 0.042469 -0.023830 348394.000000 0 0 1
10.451573 -23.224909 16.548024 30.372173 -1.147929 0.994596 0.054239 -0.015420 -257295.000000 0 0 1
11.615373 -22.706009 15.972824 30.093369 -1.097947 1.011281 0.046810 -0.025684 -148079.000000 0 0 1
-12.001827 22.499765 12.027224 28.194634 -1.080771 1.130090 0.009125 -0.006605 -348476.000000 0 0 1
-12.953627 21.641165 11.451524 27.699709 -1.031433 1.144593 0.000651 -0.010260 -213856.000000 0 0 1
-12.367327 20.579865 10.782124 26.319875 -1.029684 1.148718 0.015707 -0.013385 -248888.000000 0 0 1
-13.350427 19.902865 9.801324 25.892545 -0.979952 1.182580 0.014811 -0.013532 -57978.000000 0 0 1
-13.557527 20.649365 8.586624 26.152111 -0.989824 1.236257 0.017138 -0.019678 -141369.000000 0 0 1
-14.281027 19.986565 7.602824 25.714071 -0.950384 1.270642 0.018729 -0.021431 54836.800000 0 0 1
-15.824927 20.075165 7.598524 26.667923 -0.903240 1.281862 0.012874 -0.017694 -80270.900000 0 0 1
-16.479227 19.413365 8.636424 26.889244 -0.866965 1.243816 0.012511 -0.019451 316619.000000 0 0 1
-17.859727 19.757465 8.729524 28.027341 -0.835804 1.254062 0.029449 -0.014494 401868.000000 0 0 1
-18.536627 18.591265 9.516924 27.925141 -0.786870 1.223027 0.016298 -0.011558 -111329.000000 0 0 1
-18.316027 17.351965 8.879724 26.747280 -0.758376 1.232388 0.003414 -0.012487 239764.000000 0 0 1
-19.011527 16.372265 9.642924 26.878898 -0.710946 1.203863 0.016296 -0.010977 -787086.000000 0 0 1
-18.271327 15.585765 10.711024 26.296073 -0.706243 1.151274 0.029049 -0.004634 81210.800000 0 0 1
-17.396527 14.617465 10.082924 24.859098 -0.698807 1.153158 0.008267 0.007082 901542.000000 0 1 0
-16.583927 13.766365 10.917824 24.160677 -0.692829 1.101920 0.006406 0.016062 514897.000000 0 1 0
-17.390927 12.711765 11.695524 24.511601 -0.631192 1.073396 0.010118 0.024690 300631.000000 0 1 0
-18.166827 11.780165 10.914124 24.247144 -0.575280 1.103897 0.002345 0.020238 244492.000000 0 1 0
-18.766227 10.795065 11.748824 24.632084 -0.522014 1.073590 0.002904 0.022560 -145599.000000 0 1 0
-19.737327 9.846965 11.036224 24.664205 -0.462768 1.106874 0.002172 0.021854 -422489.000000 0 1 0
-19.195027 8.949065 10.051324 23.442780 -0.436259 1.127677 -0.001715 0.013066 299604.000000 0 1 0
-18.811827 9.518765 8.754224 22.828231 -0.468435 1.177232 0.005016 0.008803 -877013.000000 0 1 0
-19.872927 9.864365 7.719424 23.491028 -0.460741 1.235963 0.007295 -0.000699 -575473.000000 0 1 0
-20.280227 8.664865 7.080524 23.162498 -0.403781 1.260134 -0.010347 -0.011305 475512.000000 0 1 0
-21.184627 9.010765 6.037724 23.799924 -0.402162 1.314307 -0.002598 -0.011647 -121223.000000 0 1 0
-21.575927 7.784165 5.192724 23.517615 -0.346246 1.348160 0.019284 -0.009350 -291256.000000 0 1 0
-22.272527 6.886765 6.007524 24.074537 -0.299880 1.318593 0.014140 -0.006279 204743.000000 0 1 0
-22.092527 5.564665 5.488524 23.434358 -0.246747 1.334392 0.030624 0.003773 -745912.000000 0 1 0
-22.950227 4.494965 6.103524 24.169622 -0.193409 1.315504 0.037414 0.004446 19255.200000 0 1 0
-24.261227 4.480765 5.530624 25.283832 -0.182630 1.350272 0.038772 0.004256 663292.000000 0 0 1
-24.560727 3.142965 5.234024 25.308152 -0.127275 1.362481 0.015915 -0.001453 329280.000000 0 0 1
-25.667757 2.958665 4.112824 26.163004 -0.114761 1.412942 0.019915 -0.003941 511245.000000 0 0 1
-25.272167 3.272465 2.793324 25.635797 -0.128772 1.461618 0.025330 -0.001326 -88318.200000 0 0 1
-26.352297 3.035365 1.950924 26.598178 -0.114679 1.497382 0.027787 0.000348 -557597.000000 0 0 1
-26.069647 3.183365 0.397024 26.266289 -0.121508 1.555680 0.054185 -0.005052 -201197.000000 0 0 1
-25.880117 4.542965 0.044124 26.275862 -0.173768 1.569117 0.064203 -0.008556 404384.000000 0 0 1
-25.699407 4.757365 -1.340176 26.170367 -0.183044 1.622028 0.095768 -0.008671 -382504.000000 0 0 1
-26.953237 5.171765 -2.107876 27.525756 -0.189575 1.647450 0.076179 -0.016732 -332551.000000 0 0 1
-27.995797 4.242465 -2.204176 28.401083 -0.150395 1.648483 0.043143 -0.014140 -13814.900000 0 0 1
-29.251767 4.880765 -2.103976 29.730699 -0.165331 1.641623 0.013024 0.006507 -967554.000000 0 0 1
-30.361237 3.917065 -2.337776 30.702008 -0.128307 1.647014 0.006328 0.008854 -1240890.000000 0 0 1
-30.525487 3.473665 -3.668676 30.940764 -0.113308 1.689647 -0.000819 0.012208 121655.000000 0 0 1
-31.462007 2.424365 -3.693576 31.770709 -0.076905 1.687317 0.017899 0.005959 -200225.000000 0 0 1
-31.537687 1.723965 -5.074276 31.989780 -0.054609 1.730091 0.020537 -0.004222 -49803.500000 0 0 1
-30.306537 1.066165 -5.358176 30.795015 -0.035165 1.745681 0.032108 -0.002126 462231.000000 0 0 1
-30.234207 0.175965 -6.464976 30.918185 -0.005820 1.781450 0.044528 -0.004336 -239943.000000 0 0 1
-30.461527 0.824765 -7.912376 31.483179 -0.027069 1.824841 0.038597 -0.001760 601739.000000 0 0 1
-31.840887 1.149965 -8.157776 32.889418 -0.036100 1.821449 0.021855 -0.005103 1008390.000000 0 0 1
-32.051467 1.963865 -9.273976 33.423942 -0.061196 1.851951 0.028550 -0.006500 -330413.000000 0 0 1
-33.517747 2.405565 -9.425076 34.900690 -0.071647 1.844246 0.030847 -0.007207 -216364.000000 0 0 1
-33.859597 3.260265 -8.395176 35.036846 -0.095992 1.812760 0.012370 0.002975 1017620.000000 0 0 1
34.914431 3.047365 -8.026276 35.954485 0.087060 1.795928 0.007135 0.007365 931241.000000 0 0 1
34.352331 3.925265 -6.803476 35.238865 0.113771 1.765084 0.016311 0.007620 189844.000000 0 0 1
32.968246 3.701365 -6.617076 33.828849 0.111802 1.767670 0.017144 0.000787 273788.000000 0 0 1
32.535266 4.385565 -5.454876 33.279609 0.133987 1.735450 0.012020 -0.003654 -14662.400000 0 0 1
31.172546 3.866665 -4.977776 31.803411 0.123410 1.727960 0.019657 -0.004675 -224496.000000 0 0 1
31.306246 2.588265 -4.342476 31.711784 0.082488 1.708164 0.031595 -0.014684 158364.000000 0 0 1
30.099996 1.859365 -4.427176 30.480598 0.061695 1.716558 0.042995 -0.015908 -251639.000000 0 0 1
30.190206 0.539865 -3.587776 30.407435 0.017880 1.689062 0.051265 -0.010493 -708737.000000 0 0 1
31.110496 -0.337235 -4.119376 31.383848 -0.010839 1.702434 0.045789 -0.013169 -293299.000000 0 0 1
31.189716 -1.542935 -3.373276 31.409521 -0.049429 1.678400 0.047389 -0.010921 -262457.000000 0 0 1
32.115166 -2.562135 -3.994476 32.463891 -0.079611 1.694153 0.041765 -0.012490 -275734.000000 0 0 1
32.157376 -3.712335 -3.187276 32.527480 -0.114934 1.668941 0.031243 -0.012002 -109814.000000 0 0 1
33.245936 -4.510935 -3.566076 33.739557 -0.134860 1.676688 0.049693 -0.015315 -177388.000000 0 0 1
33.123266 -5.951235 -3.018976 33.788787 -0.177773 1.660264 0.043670 -0.011125 -124571.000000 0 0 1
32.981176 -6.084435 -1.631976 33.577398 -0.182431 1.619419 0.037883 -0.010825 25408.100000 0 0 1
33.083456 -7.404935 -1.179076 33.922534 -0.220197 1.605561 0.052519 -0.015947 -113579.000000 0 0 1
32.819466 -7.478035 0.335824 33.662310 -0.224029 1.560820 0.045220 -0.009430 1588180.000000 0 0 1
31.377736 -7.298635 0.526524 32.219708 -0.228542 1.554454 0.035717 -0.014821 1736540.000000 0 0 1
30.897026 -7.536035 1.854224 31.856807 -0.239237 1.512558 0.026722 -0.013348 -489676.000000 0 0 1
30.687496 -9.044635 2.217724 32.069395 -0.286618 1.501587 0.035312 -0.021823 -640429.000000 0 0 1
29.626666 -9.689835 1.605224 31.212321 -0.316098 1.519344 0.035644 -0.030458 -559393.000000 0 0 1
28.370326 -9.371535 2.138724 29.954552 -0.319044 1.499337 0.031305 -0.031501 -1547000.000000 0 0 1
27.313976 -10.432735 1.945924 29.303274 -0.364855 1.504341 0.028785 -0.029105 -149705.000000 0 0 1
26.023306 -10.272735 2.566524 28.094992 -0.375974 1.479317 0.030311 -0.028535 1374250.000000 0 0 1
25.111256 -9.295235 2.097924 26.858478 -0.354523 1.492606 0.031225 -0.016555 -142225.000000 0 0 1
24.560826 -9.536235 0.612024 26.354289 -0.370354 1.547571 0.022867 -0.007046 -1018630.000000 0 0 1
25.581306 -9.655135 -0.358676 27.345082 -0.360899 1.583913 0.024617 -0.013886 -43636.700000 0 0 1
25.243596 -9.900335 -1.745776 27.171741 -0.373757 1.635090 0.025688 -0.002530 -307374.000000 0 0 1
24.505226 -11.190535 -2.156676 27.025644 -0.428378 1.650682 0.019009 0.001030 1051410.000000 0 0 1
23.189426 -11.373935 -1.584076 25.877117 -0.456002 1.632050 0.008925 0.014841 1038670.000000 0 0 1
22.726926 -12.730435 -1.780776 26.110310 -0.510601 1.639051 0.000679 0.019991 -636958.000000 0 0 1
21.270926 -13.024435 -1.457176 24.984226 -0.549423 1.629153 -0.000828 0.023264 -948895.000000 0 1 0
20.421526 -12.542635 -2.449076 24.090546 -0.550786 1.672634 -0.000978 0.022456 -794924.000000 0 1 0
19.106626 -12.759935 -2.045876 23.066528 -0.588806 1.659608 -0.000660 0.016563 -43027.100000 0 1 0
18.034526 -12.363835 -3.138776 22.089827 -0.600972 1.713370 -0.005997 0.019960 311317.000000 0 1 0
18.215726 -13.095135 -4.306476 22.843839 -0.623293 1.760449 0.003873 0.014106 446466.000000 0 1 0
17.544026 -12.415235 -5.376376 22.154826 -0.615850 1.815916 0.013688 0.007876 -91677.200000 0 1 0
17.506926 -13.153135 -6.752776 22.915004 -0.644339 1.869925 0.008864 0.007313 -648050.000000 0 1 0
16.747026 -14.323635 -6.771176 23.053812 -0.707560 1.868904 0.009344 0.009503 2296.670000 0 1 0
16.822826 -15.004935 -8.022376 23.927266 -0.728344 1.912701 0.020155 0.006051 -141000.000000 0 1 0
15.732726 -16.075435 -8.242676 23.955792 -0.796172 1.922054 0.012919 -0.001703 909275.000000 0 1 0
14.371526 -15.587135 -8.382876 22.798512 -0.825952 1.947324 0.013814 0.003641 1002540.000000 0 1 0
13.555126 -16.437535 -9.109276 23.171381 -0.881208 1.974825 0.017247 0.002869 -558491.000000 0 1 0
13.708226 -16.420835 -10.657176 23.898424 -0.875189 2.033016 0.028923 -0.002886 -668953.000000 0 1 0
13.056626 -15.421035 -11.423476 23.211627 -0.868235 2.085348 0.026944 0.001979 88079.700000 0 1 0
13.363126 -14.091135 -11.054176 22.345649 -0.811909 2.088275 0.023330 0.009428 -131786.000000 0 1 0
13.318526 -13.035735 -12.186876 22.267319 -0.774668 2.149930 0.038117 0.007079 -7481.050000 0 1 0
14.289326 -13.250935 -13.193876 23.534028 -0.747712 2.165942 0.044728 0.008105 52642.800000 0 1 0
13.944726 -12.619235 -14.365676 23.665864 -0.735541 2.223103 0.046580 0.010737 -770706.000000 0 1 0
15.165926 -12.111635 -15.130176 24.609333 -0.673892 2.232947 0.048995 0.002285 -237818.000000 0 1 0
16.005126 -13.182235 -15.515176 25.897028 -0.688982 2.213186 0.048716 -0.004283 -682670.000000 0 0 1
17.048726 -12.691635 -16.277876 26.771364 -0.639929 2.224377 0.051787 -0.006142 -515086.000000 0 0 1
18.146126 -13.773535 -16.549476 28.158077 -0.649258 2.199052 0.063183 -0.010066 86120.900000 0 0 1
19.095826 -13.787435 -15.488476 28.189303 -0.625348 2.152496 0.048319 -0.011301 166900.000000 0 0 1
19.976126 -14.903235 -15.502876 29.351170 -0.640970 2.127259 0.040651 -0.011143 276792.000000 0 0 1
21.036126 -14.895035 -14.356276 29.503955 -0.616121 2.078977 0.019363 -0.011632 -26885.700000 0 0 1
21.974126 -13.898635 -14.624676 29.831450 -0.563974 2.083165 0.037855 -0.011896 -453683.000000 0 0 1
22.809226 -13.645435 -13.525976 29.822990 -0.539126 2.041532 0.013778 -0.011793 376578.000000 0 0 1
23.479426 -12.222335 -13.486676 29.707900 -0.479956 2.042019 0.020217 -0.009003 148883.000000 0 0 1
22.453226 -11.250935 -13.250176 28.395388 -0.464514 2.056274 0.013412 -0.000155 468111.000000 0 0 1
22.781326 -9.873235 -13.359576 28.194820 -0.408957 2.064432 0.018054 -0.001499 -410137.000000 0 0 1
23.682326 -9.354335 -12.198476 28.234004 -0.376182 2.017560 0.009583 -0.004241 -613952.000000 0 0 1
24.932426 -9.915435 -12.339076 29.532939 -0.378515 2.001827 0.011600 0.001837 -914873.000000 0 0 1
25.796216 -9.793135 -11.227576 29.789406 -0.362828 1.957242 0.001277 0.000689 -639785.000000 0 0 1
27.028376 -10.655135 -11.401276 31.209840 -0.375514 1.944762 0.009064 0.005551 -607620.000000 0 0 1
27.919546 -10.151035 -12.379176 32.183669 -0.348723 1.965616 -0.008713 0.011823 -96241.500000 0 0 1
29.030826 -11.011335 -12.480076 33.463273 -0.362533 1.952981 -0.015572 0.013502 591806.000000 0 0 1
30.010416 -10.719035 -13.679576 34.679296 -0.343054 1.976276 -0.020059 0.017810 266119.000000 0 0 1
29.421846 -11.186035 -14.851576 34.804335 -0.363317 2.011655 -0.024532 0.002630 -4899.470000 0 0 1
30.217886 -10.855135 -15.949876 35.851822 -0.344873 2.031840 -0.033417 0.003371 -407767.000000 0 0 1
29.868146 -11.490935 -17.348076 36.401971 -0.367267 2.067545 -0.051956 0.017522 511852.000000 0 0 1
28.650636 -11.094435 -18.013576 35.615086 -0.369451 2.101088 -0.025122 0.004024 507237.000000 0 0 1
28.723256 -9.851935 -18.623676 35.622007 -0.330421 2.120945 -0.029931 0.018368 -239439.000000 0 0 1
27.485706 -9.278535 -19.338676 34.864590 -0.325565 2.158774 -0.061801 0.013158 -67266.900000 0 0 1
27.021766 -9.866235 -20.528376 35.340241 -0.350082 2.190603 -0.043361 0.015399 -186826.000000 0 0 1
25.679146 -9.483835 -20.676576 34.305721 -0.353782 2.217696 0.005861 0.022389 -130252.000000 0 0 1
25.050126 -9.631235 -22.063276 34.742735 -0.367055 2.258866 0.016131 0.011843 -83365.000000 0 0 1
24.848826 -11.011635 -22.329376 35.175578 -0.417139 2.258543 0.011681 0.002927 133493.000000 0 0 1
23.973826 -11.252335 -23.415876 35.350568 -0.438836 2.294801 0.016720 -0.003755 -651581.000000 0 0 1
23.962326 -12.795235 -23.810576 36.122772 -0.490455 2.290493 0.013490 0.002418 763276.000000 0 0 1
25.101516 -13.349835 -24.486576 37.521948 -0.488789 2.281798 -0.002851 0.011342 433344.000000 0 0 1
26.347346 -13.231435 -23.836676 37.913594 -0.465400 2.250690 -0.018460 0.015240 191754.000000 0 0 1
27.570326 -13.944335 -24.507376 39.435756 -0.468256 2.241389 -0.040977 0.023515 567817.000000 0 0 1
27.957806 -13.411135 -25.729606 40.292804 -0.447270 2.263429 -0.045261 0.018695 606854.000000 0 0 1
29.330796 -13.730435 -25.987616 41.523206 -0.437823 2.247027 -0.064405 0.019333 530406.000000 0 0 1
29.919596 -13.183435 -27.289806 42.587776 -0.415034 2.266323 -0.047992 0.019607 -148555.000000 0 0 1
29.554756 -13.905235 -28.441246 43.309856 -0.439763 2.287221 -0.040371 0.011315 41845.800000 0 0 1
30.323526 -13.505035 -29.532016 44.430194 -0.418993 2.297866 -0.041925 0.006975 -121527.000000 0 0 1
30.186776 -14.380835 -30.786426 45.451665 -0.444586 2.314943 -0.028925 0.001775 -42502.600000 0 0 1
30.669256 -15.697235 -30.648976 46.112538 -0.473061 2.297830 -0.036431 0.000699 -83153.800000 0 0 1
30.870016 -16.464135 -31.809106 47.284721 -0.489961 2.308667 -0.025367 -0.001256 -627782.000000 0 0 1
29.646786 -16.950535 -32.570176 47.191831 -0.519388 2.332514 -0.034091 0.003398 -509028.000000 0 0 1
29.001646 -15.961635 -33.319706 46.968842 -0.503127 2.359443 -0.037124 -0.000656 244939.000000 0 0 1
27.864676 -16.520035 -33.973956 46.942320 -0.535158 2.380001 -0.029416 -0.003937 108928.000000 0 0 1
27.217396 -15.660435 34.043673 46.314226 -0.522122 0.745043 -0.014999 -0.005786 -360966.000000 0 0 1
26.602816 -14.458135 34.468745 45.878556 -0.497825 0.720760 -0.008505 -0.011264 292794.000000 0 0 1
27.515666 -13.402135 -34.280844 45.955472 -0.453253 2.412768 -0.000726 -0.011664 -190490.000000 0 0 1
26.847526 -12.102935 -33.953796 44.945867 -0.423521 2.427118 0.005834 -0.014549 -194630.000000 0 0 1
26.241146 -11.368135 34.122452 44.521613 -0.408811 0.697540 0.033334 -0.022289 119136.000000 0 0 1
25.512716 -10.277235 -34.397698 44.042274 -0.382942 2.467087 0.022667 -0.017505 71264.800000 0 0 1
20.072573 -30.156109 9.165924 37.367275 -0.983517 1.322975 0.005115 -0.006948 -186565.000000 0 0 1
20.430273 -30.041509 7.781524 37.154279 -0.973573 1.359796 0.005340 -0.010112 374601.000000 0 0 1
21.710173 -30.638009 7.611124 38.313815 -0.954320 1.370814 0.015331 -0.004202 89868.100000 0 0 1
22.361873 -30.256409 6.277224 38.143246 -0.934321 1.405475 0.012269 -0.000122 -165150.000000 0 0 1
22.826973 -28.923809 6.114224 37.350250 -0.902669 1.406357 0.007574 0.016258 106266.000000 0 0 1
23.424573 -28.739909 4.862724 37.394372 -0.886943 1.440388 -0.003914 0.022313 -65484.600000 0 0 1
23.489873 -27.252909 4.416024 36.249089 -0.859422 1.448669 -0.019929 0.016981 -126461.000000 0 0 1
24.363573 -26.412109 5.121124 36.296131 -0.825721 1.429231 -0.019222 0.016014 -51547.300000 0 0 1
24.302673 -25.072309 4.754324 35.239810 -0.800984 1.435470 -0.027519 0.025697 -113174.000000 0 0 1
24.897273 -24.053009 5.779524 35.097355 -0.768152 1.405372 -0.025839 0.017609 925770.000000 0 0 1
26.229873 -23.606609 5.455224 35.707670 -0.732809 1.417421 -0.026301 0.013905 827653.000000 0 0 1
26.887673 -22.964309 6.531424 35.957836 -0.706860 1.388141 -0.001001 0.007539 154235.000000 0 0 1
26.430873 -21.443409 6.679024 34.684582 -0.681594 1.377021 -0.005646 0.015435 34545.700000 0 0 1
26.890973 -20.682609 5.601424 34.384163 -0.655631 1.407160 -0.006790 0.027541 124459.000000 0 0 1
26.535673 -19.307709 5.757924 33.317912 -0.629019 1.397107 0.003182 0.018472 -245000.000000 0 0 1
26.467173 -18.524909 4.431424 32.608603 -0.610672 1.434477 0.001870 0.029335 -726786.000000 0 0 1
27.722073 -18.286909 3.899624 33.438472 -0.583130 1.453909 0.011973 0.015924 -661209.000000 0 0 1
27.618273 -17.540009 2.683524 32.827157 -0.565820 1.488958 0.003462 0.016973 430915.000000 0 0 1
28.790273 -16.539809 2.431324 33.291988 -0.521453 1.497701 0.016354 -0.006647 363496.000000 0 0 1
28.615173 -15.363909 3.238124 32.639903 -0.492741 1.471425 0.023655 -0.013818 505631.000000 0 0 1
29.806673 -14.595109 3.470224 33.369109 -0.455341 1.466613 0.027977 -0.015476 568795.000000 0 0 1
29.460573 -13.352309 4.367324 32.638674 -0.425534 1.436586 0.029571 -0.021674 149818.000000 0 0 1
29.070573 -13.761009 5.664124 32.658014 -0.442114 1.396477 0.019687 -0.011424 -63140.900000 0 0 1
28.874873 -12.605809 6.441224 32.158266 -0.411627 1.369135 0.011464 -0.016704 -653683.000000 0 0 1
28.353073 -12.822909 7.839324 32.090166 -0.424730 1.324008 0.009182 0.003623 -795264.000000 0 0 1
26.979773 -13.082609 7.894524 31.006230 -0.451498 1.313351 0.010463 0.005106 -369703.000000 0 0 1
26.315473 -13.025609 9.164324 30.759640 -0.459623 1.268269 0.003917 0.015767 107939.000000 0 0 1
26.558173 -14.188509 10.175924 31.783640 -0.490665 1.244896 0.005857 0.017578 889771.000000 0 0 1
27.859873 -14.197409 10.818924 33.087582 -0.471299 1.237692 -0.000566 0.021757 1040840.000000 0 0 1
28.057073 -15.536209 11.255324 33.989049 -0.505707 1.233279 0.001912 0.013911 -229694.000000 0 0 1
28.781873 -15.681709 12.595224 35.113414 -0.498878 1.203920 0.007554 0.015758 234698.000000 0 0 1
30.181173 -15.441909 12.491524 36.130236 -0.472917 1.217773 0.015088 0.019651 155202.000000 0 0 1
30.710473 -15.395309 13.779824 37.013947 -0.464691 1.189324 0.029640 0.013882 106123.000000 0 0 1
32.260873 -15.338809 13.849424 38.312524 -0.443825 1.200936 0.022448 0.005683 64457.900000 0 0 1
32.754973 -14.039709 13.776924 38.207399 -0.404940 1.201904 0.011444 0.007482 226790.000000 0 0 1
34.062273 -14.026109 14.337524 39.528911 -0.390619 1.199622 -0.000046 -0.000617 252830.000000 0 0 1
34.764373 -12.648509 14.321924 39.669433 -0.348947 1.201422 -0.009342 0.000360 -206453.000000 0 0 1
-34.557680 -12.354609 13.202924 39.002394 0.343347 1.225457 0.005564 0.000061 211407.000000 0 0 1
-33.837880 -11.162509 13.447524 38.084637 0.318641 1.209918 0.008020 0.005323 -459764.000000 0 0 1
-32.590780 -10.994309 12.559724 36.616668 0.325356 1.220682 -0.001276 0.000389 165159.000000 0 0 1
-31.488980 -11.829709 12.909724 36.029971 0.359365 1.204344 -0.016992 0.008921 340723.000000 0 0 1
-31.640980 -13.187909 12.431124 36.463754 0.394903 1.222904 -0.018446 0.007280 -621033.000000 0 0 1
-30.430380 -14.113109 12.640924 35.846629 0.434257 1.210406 -0.020898 0.008485 -259721.000000 0 0 1
-29.323880 -13.916509 11.809824 34.540282 0.443105 1.221843 -0.010195 0.002401 21283.900000 0 0 1
-28.288080 -14.846509 12.175024 34.188675 0.483316 1.206692 -0.006564 0.000293 996418.000000 0 0 1
-26.961780 -14.556109 11.380424 32.685347 0.495040 1.215166 0.009823 -0.005728 508801.000000 0 0 1
-27.090380 -14.820109 10.014624 32.462547 0.500585 1.257183 -0.004403 0.001984 8450.940000 0 0 1
-25.888580 -14.466509 9.356424 31.097284 0.509573 1.265185 -0.000324 0.005324 65482.200000 0 0 1
-25.828280 -14.382909 7.816524 30.578851 0.508100 1.312309 0.013076 0.013580 -437880.000000 0 0 1
-25.970180 -15.641709 7.151424 31.148935 0.542105 1.339142 0.019672 0.008693 3154.010000 0 0 1
-25.560480 -15.558309 5.796924 30.479557 0.546782 1.379440 0.016820 0.006856 -461131.000000 0 0 1
-25.786980 -16.819309 4.876824 31.171155 0.577949 1.413698 0.009455 0.005706 -412837.000000 0 0 1
-27.146180 -16.948909 4.514224 32.319635 0.558137 1.430664 -0.004538 -0.006980 -7842.030000 0 0 1
-27.384680 -18.071109 3.716524 33.019664 0.583302 1.458002 -0.003713 -0.005574 -707515.000000 0 0 1
-28.821880 -18.539309 3.819624 34.481825 0.571606 1.459796 0.003136 -0.005194 -328759.000000 0 0 1
-29.760280 -17.592909 3.293424 34.727962 0.533890 1.475819 0.008336 -0.010367 428527.000000 0 0 1
-31.097980 -18.017209 3.509324 36.111210 0.525112 1.473462 0.027620 -0.012086 13700.600000 0 0 1
-32.184780 -17.097809 2.989424 36.566812 0.488325 1.488953 0.032190 -0.018414 -248015.000000 0 0 1
-32.313880 -17.252209 1.551624 36.663784 0.490394 1.528463 0.032167 -0.016548 -317319.000000 0 0 1
-33.287980 -16.409809 1.019824 37.126964 0.458004 1.543324 0.045929 -0.025387 -498124.000000 0 0 1
-33.718780 -16.905809 -0.376276 37.721400 0.464748 1.580772 0.041787 -0.023402 548882.000000 0 0 1
-32.623580 -16.951309 -1.349476 36.789481 0.479207 1.607486 0.031360 -0.018988 1379130.000000 0 0 1
-33.114280 -17.670009 -2.475776 37.615345 0.490170 1.636662 0.028502 -0.010941 109966.000000 0 0 1
-32.022680 -18.586509 -3.074376 37.153225 0.525896 1.653640 0.015676 -0.006221 265050.000000 0 0 1
-32.502480 -19.415609 -4.143076 38.085983 0.538474 1.679794 0.015092 -0.015986 475880.000000 0 0 1
-31.400380 -20.121809 -4.710276 37.590660 0.569891 1.696431 0.007602 -0.010265 -29830.300000 0 0 1
-31.811580 -21.314609 -5.662476 38.708562 0.590325 1.717608 0.019748 -0.012830 -480058.000000 0 0 1
-32.349780 -22.399009 -5.002276 39.664173 0.605608 1.697249 0.031751 -0.018263 -118590.000000 0 0 1
-32.755680 -23.449009 -5.851476 40.706637 0.621302 1.715044 0.021752 -0.011793 230263.000000 0 0 1
-33.486380 -24.633709 -5.129976 41.886440 0.634243 1.693578 0.026389 -0.016036 286681.000000 0 0 1
-32.608680 -25.487109 -4.409576 41.621666 0.663423 1.676940 0.033125 -0.015205 -386949.000000 0 0 1
-33.183580 -26.724309 -4.251076 42.818341 0.677993 1.670242 0.025291 -0.011686 187483.000000 0 0 1
-32.238280 -27.828509 -3.673476 42.746076 0.712115 1.656840 0.013667 -0.007397 -372348.000000 0 0 1
-31.258180 -28.232409 -4.608676 42.371955 0.734581 1.679779 0.004678 -0.006870 506469.000000 0 0 1
-30.431980 -29.378409 -4.279676 42.514843 0.767785 1.671630 0.006085 -0.000287 608242.000000 0 0 1
-29.392480 -29.157609 -3.133576 41.519915 0.781387 1.646340 0.009926 0.001313 -559975.000000 0 0 1
-29.983680 -28.846809 -1.924476 41.651687 0.766076 1.617017 0.008455 -0.003029 309754.000000 0 0 1
-28.898680 -28.664709 -1.022076 40.716629 0.781334 1.595901 0.010762 -0.005607 471671.000000 0 0 1
-29.437980 -28.360509 0.387624 40.878642 0.766758 1.561314 0.022219 -0.004822 298905.000000 0 0 1
-29.943080 -29.529409 1.069124 42.068005 0.778443 1.545379 0.019485 0.004848 -156783.000000 0 0 1
-30.805780 -29.295109 2.149024 42.565453 0.760268 1.520287 0.023731 0.007744 -498063.000000 0 0 1
-31.392980 -30.640409 2.574724 43.942952 0.773267 1.512170 0.012742 0.013045 -158913.000000 0 0 1
-32.351580 -30.410509 3.664724 44.551700 0.754481 1.488446 0.019677 0.014738 1036530.000000 0 0 1
-32.900080 -31.607709 4.232924 45.818993 0.765367 1.478281 0.007393 0.020062 501954.000000 0 0 1
-33.882580 -32.419409 3.294224 47.009565 0.763333 1.500663 0.011569 0.018658 -301066.000000 0 0 1
-34.435280 -33.533909 3.887024 48.222614 0.772137 1.490103 0.010116 0.018491 -581194.000000 0 0 1
34.716073 -34.006509 3.040724 48.691831 -0.775073 1.508307 0.004627 0.011557 -1285950.000000 0 0 1
33.559973 34.598965 3.734624 48.345709 0.800641 1.493471 -0.009349 0.009242 -70467.600000 0 0 1
32.708873 -33.872509 4.508624 47.302695 -0.802873 1.475337 -0.016278 0.016550 577177.000000 0 0 1
32.032873 -32.774409 3.939324 45.997664 -0.796840 1.485049 -0.010310 0.015954 -590953.000000 0 0 1
30.928073 -33.009609 2.904024 45.327843 -0.817942 1.506685 -0.008592 0.015800 -970515.000000 0 0 1
31.495373 -33.621009 1.750024 46.101989 -0.818030 1.532827 -0.003458 0.016418 -135011.000000 0 0 1
30.823473 -33.181509 0.601124 45.293050 -0.822223 1.557524 -0.005454 0.013727 -829363.000000 0 0 1
31.199773 -33.951209 -0.708976 46.115215 -0.827605 1.586171 -0.004066 0.003878 264991.000000 0 0 1
32.233673 -33.453709 -1.517476 46.480782 -0.803969 1.603450 -0.009879 0.003731 -1646010.000000 0 0 1
33.480373 -33.375509 -0.974276 47.284344 -0.783830 1.591402 -0.003261 0.007102 -1920410.000000 0 0 1
34.537073 -33.271009 -2.078776 48.000945 -0.766729 1.614117 -0.022617 0.010692 -446129.000000 0 0 1
34.855673 -34.511509 -2.738476 49.126993 -0.780437 1.626568 -0.018174 0.008579 450632.000000 0 0 1
-34.306380 -34.244009 -3.724976 48.615381 0.784488 1.647493 -0.023880 0.007282 -193573.000000 0 0 1
-33.687080 33.842065 -4.472676 47.959457 -0.787693 1.664192 -0.024244 0.001074 293878.000000 0 0 1
-32.593880 33.239265 -3.785376 46.706946 -0.795201 1.651931 -0.004648 -0.000086 115430.000000 0 0 1
-31.961780 32.212265 -4.500176 45.600844 -0.789301 1.669643 0.004283 -0.014979 526905.000000 0 0 1
-30.674180 31.634665 -3.816176 44.229181 -0.800812 1.657186 0.016358 -0.013387 -204853.000000 0 0 1
-29.563980 32.506665 -3.927976 44.115090 -0.832771 1.659954 0.005714 -0.009754 674406.000000 0 0 1
-28.281280 31.870065 -3.743176 42.773159 -0.844990 1.658421 0.018183 -0.008873 1219900.000000 0 0 1
-28.006280 31.686565 -2.215576 42.347359 -0.846974 1.623139 0.014261 -0.008347 -883040.000000 0 0 1
-28.841980 30.704765 -1.674176 42.159758 -0.816671 1.610517 0.022398 -0.007492 -405556.000000 0 0 1
-28.708980 30.498765 -0.254076 41.886092 -0.815618 1.576862 0.017890 0.001369 -119599.000000 0 0 1
-30.020380 29.947965 0.336024 42.405385 -0.784191 1.562872 0.004788 0.005698 -36321.300000 0 0 1
-30.350180 28.591965 0.004224 41.696929 -0.755578 1.570695 0.007221 -0.001824 552672.000000 0 0 1
-31.582280 28.591865 -0.755376 42.608751 -0.735743 1.588525 0.008878 -0.003389 819279.000000 0 0 1
-31.972080 27.206465 -1.277576 42.000450 -0.705042 1.601219 0.010608 -0.003079 91003.600000 0 0 1
-32.506680 26.317165 -0.311276 41.825522 -0.680563 1.578239 0.007475 0.000376 51276.900000 0 0 1
-32.768880 25.023865 -0.890876 41.240598 -0.652178 1.592400 0.020758 0.004076 -52236.900000 0 0 1
-32.961780 23.830365 0.155224 40.674184 -0.625976 1.566980 0.017290 0.001467 92903.600000 0 0 1
-31.762880 23.310765 0.708724 39.405260 -0.633117 1.552810 0.025789 -0.008597 66743.800000 0 0 1
-31.399680 23.975465 1.883224 39.551350 -0.652122 1.523164 0.026969 -0.011222 -420561.000000 0 0 1
-29.870580 23.821165 2.107424 38.264091 -0.673202 1.515693 0.022826 -0.020537 272075.000000 0 0 1
-29.104880 24.707965 1.299424 38.200341 -0.703872 1.536774 0.027732 -0.015134 68837.500000 0 0 1
-28.843480 25.924265 1.868324 38.826595 -0.732147 1.522658 0.002983 -0.003746 -998814.000000 0 0 1
-28.084480 26.900165 1.075224 38.903894 -0.763862 1.543155 0.009820 0.000839 436030.000000 0 0 1
-26.707080 26.549465 0.814024 37.667025 -0.782439 1.549184 0.012789 -0.004769 772534.000000 0 0 1
-26.135580 27.471165 -0.109376 37.917613 -0.810308 1.573681 0.024165 -0.011668 781950.000000 0 0 1
-24.876380 26.942965 -0.891976 36.681783 -0.825258 1.595115 0.022049 -0.012107 8845.820000 0 0 1
-25.132780 25.977365 -1.856876 36.192928 -0.801921 1.622124 0.036414 -0.022768 -169527.000000 0 0 1
-24.020580 25.435065 -2.575676 35.079408 -0.813991 1.644287 0.014020 -0.014234 158244.000000 0 0 1
-23.124080 24.444865 -1.863376 33.700840 -0.813157 1.626116 0.001955 -0.013873 -170260.000000 0 0 1
-23.775380 23.190365 -1.600576 33.250918 -0.772943 1.618951 -0.005843 -0.016638 -385845.000000 0 0 1
-22.891780 22.174365 -1.273176 31.896034 -0.769480 1.610723 -0.013681 -0.027609 -1050690.000000 0 0 1
-23.541480 20.791265 -1.035676 31.425317 -0.723442 1.603759 -0.020770 -0.019516 -88559.200000 0 0 1
-24.393480 20.655165 0.135524 31.963980 -0.702604 1.566556 -0.019065 -0.017004 861082.000000 0 0 1
-25.697780 21.208465 0.119224 33.319500 -0.689981 1.567218 -0.019288 -0.015502 -114945.000000 0 0 1
-26.720580 20.715265 -0.880076 33.821385 -0.659469 1.596821 -0.023546 -0.021135 -1094620.000000 0 0 1
-27.083080 19.389465 -0.688276 33.315436 -0.621334 1.591457 -0.044903 -0.004708 -44941.700000 0 0 1
-27.990180 18.967265 -1.657676 33.851960 -0.595561 1.619784 -0.025402 -0.006700 -438006.000000 0 0 1
-28.220580 17.456765 -1.739376 33.228981 -0.553971 1.623165 -0.038292 0.009763 -190385.000000 0 0 1
-28.791080 16.949265 -0.517476 33.413644 -0.532068 1.586284 -0.014645 0.009779 472741.000000 0 0 1
-29.014880 15.559665 -0.523476 32.927806 -0.492237 1.586695 -0.007197 0.003373 -341715.000000 0 0 1
-27.951180 14.667365 0.121924 31.566040 -0.483251 1.566934 -0.003898 0.003300 -617126.000000 0 0 1
-27.915280 14.913465 1.512824 31.685374 -0.490663 1.523033 0.003521 0.001651 612647.000000 0 0 1
-26.689780 14.540565 2.141824 30.468997 -0.498841 1.500443 0.001624 0.000250 249754.000000 0 0 1
-26.217680 13.053265 2.190924 29.369280 -0.461950 1.496128 0.005646 0.002714 -262972.000000 0 0 1
-25.766480 12.470465 0.996824 28.642933 -0.450750 1.535988 -0.003231 0.000608 421674.000000 0 0 1
-25.484780 11.076465 1.176524 27.812700 -0.409999 1.528482 0.013159 -0.002274 -223877.000000 0 0 1
-25.475880 10.280965 -0.194876 27.472835 -0.383569 1.577890 0.018508 -0.007757 -795283.000000 0 0 1
-26.673980 10.090665 -0.870276 28.532089 -0.361657 1.601303 0.018378 -0.005719 -446926.000000 0 0 1
-26.537080 9.231765 -1.997476 28.167925 -0.334786 1.641769 0.022979 -0.003385 231782.000000 0 0 1
-27.857780 9.172165 -2.817576 29.463931 -0.318071 1.666571 0.027401 -0.011451 50028.800000 0 0 1
-27.911580 8.313465 -3.914576 29.385266 -0.289483 1.704409 0.050499 -0.007566 -347601.000000 0 0 1
-29.188480 8.130865 -4.444976 30.624110 -0.271677 1.716457 0.017973 -0.001007 -659592.000000 0 0 1
-10.648427 17.965965 -20.084676 28.975146 -1.035762 2.336673 0.016680 -0.008061 -309322.000000 0 0 1
-11.167827 17.167765 -21.154976 29.444618 -0.994062 2.372392 0.025955 -0.013675 -212560.000000 0 0 1
-10.385127 17.122865 -22.312776 29.981717 -1.025606 2.410152 0.017997 -0.017268 -467690.000000 0 0 1
-10.843327 16.040665 -23.275476 30.275872 -0.976367 2.447727 0.022152 -0.016110 -286159.000000 0 0 1
-10.643827 14.730965 -22.840076 29.188379 -0.945097 2.469477 0.015309 -0.015545 37166.000000 0 0 1
-10.384427 13.752665 -23.918676 29.480081 -0.924049 2.517255 0.012143 -0.007053 76764.100000 0 0 1
-9.616027 12.440065 -23.509476 28.282833 -0.912744 2.552109 0.002482 0.000072 -172869.000000 0 0 1
-8.253627 12.661565 -23.265276 27.743660 -0.993111 2.565468 0.013103 -0.006300 -524780.000000 0 0 1
-7.718027 11.625765 -22.512176 26.486306 -0.984731 2.586697 0.005031 -0.004695 193877.000000 0 0 1
-6.173927 11.607965 -22.383176 25.958983 -1.081979 2.610495 -0.000532 0.000019 196640.000000 0 0 1
-5.478727 11.284665 -23.548776 26.681547 -1.118814 2.652132 -0.004664 -0.000872 204828.000000 0 0 1
-4.083027 11.192065 -23.217776 26.095949 -1.220985 2.667502 0.005443 0.001783 940873.000000 0 0 1
-3.177227 10.719565 -24.387876 26.828573 -1.282650 2.711738 0.012880 0.000785 -122499.000000 0 0 1
-3.448827 9.374065 -24.819076 26.753580 -1.218255 2.758978 0.013307 -0.002275 -172984.000000 0 0 1
-2.902727 9.099665 -26.062106 27.757217 -1.262007 2.790306 0.005652 -0.005858 -452722.000000 0 0 1
-2.481327 7.596965 -26.191536 27.383707 -1.255099 2.845433 0.013213 0.002340 721818.000000 0 0 1
-1.241027 7.363165 -25.494246 26.565258 -1.403820 2.856671 0.014549 -0.000039 421140.000000 0 0 1
-1.071827 5.971665 -25.213306 25.932998 -1.393202 2.905452 0.019448 -0.003058 269412.000000 0 0 1
0.333073 5.701265 -24.608376 25.262374 1.512442 2.913555 0.010232 -0.003815 306044.000000 0 0 1
0.422273 6.228265 -23.326476 24.147341 1.503100 2.880103 0.002533 -0.013870 1214580.000000 0 1 0
1.676973 5.789465 -22.690676 23.477583 1.288853 2.881953 0.020497 -0.015420 1607630.000000 0 1 0
1.996773 6.518865 -21.321876 22.385377 1.273563 2.832110 0.016831 -0.013772 263978.000000 0 1 0
2.520073 7.830565 -21.461876 22.984356 1.259439 2.775575 -0.002737 -0.012576 -35815.700000 0 1 0
2.363073 8.563265 -20.239576 22.103259 1.301543 2.728000 0.006183 -0.013173 51884.000000 0 1 0
2.925273 10.003965 -20.413076 22.920083 1.286316 2.669502 -0.002451 -0.005789 -380353.000000 0 1 0
2.714573 10.783965 -19.310776 22.283825 1.324197 2.619109 0.003823 -0.010024 -272826.000000 0 1 0
3.242573 12.077865 -19.373976 23.059489 1.308509 2.568400 0.011663 -0.008206 -324083.000000 0 1 0
4.493373 12.067365 -18.475376 22.520018 1.214344 2.532903 0.019418 -0.014390 -116228.000000 0 1 0
5.454573 11.169565 -19.030976 22.730807 1.116518 2.562999 0.017032 -0.010928 38535.000000 0 1 0
6.470473 10.852465 -18.047776 22.031006 1.033160 2.530809 0.019025 -0.016327 712317.000000 0 1 0
7.590973 9.935865 -18.632176 22.438856 0.918397 2.550538 0.022522 -0.015843 12121.300000 0 1 0
7.294273 8.584865 -18.872176 21.978748 0.866496 2.603437 0.017525 -0.011919 -139898.000000 0 1 0
6.511573 8.334265 -20.028476 22.649512 0.907561 2.655743 0.011132 -0.005072 -18217.800000 0 1 0
6.152573 6.906665 -20.443876 22.438989 0.843078 2.716710 0.014851 0.002994 11709.600000 0 1 0
7.275573 6.070165 -20.627776 22.699912 0.695321 2.710994 0.010563 0.010425 -95793.300000 0 1 0
6.901073 4.755265 -20.912476 22.529292 0.603347 2.760436 0.006690 0.014740 -110649.000000 0 1 0
7.013973 4.427165 -22.394676 23.881313 0.563040 2.786888 0.009791 0.008515 -29537.800000 0 1 0
5.988373 5.034765 -23.163276 24.448861 0.699103 2.815863 0.011296 0.007977 -80701.400000 0 1 0
6.128673 4.773865 -24.563176 25.762376 0.661767 2.835278 0.014344 0.003401 -193401.000000 0 0 1
5.087373 5.523765 -25.434066 26.519522 0.826501 2.854494 0.004734 -0.005151 23021.800000 0 0 1
5.147373 6.943365 -25.550406 26.972746 0.932863 2.815395 0.001429 -0.001248 -36207.800000 0 0 1
4.818973 7.518665 -24.275676 25.866219 1.000820 2.789082 0.013660 -0.006002 -561318.000000 0 0 1
4.281873 8.938365 -24.420376 26.354953 1.124053 2.756052 0.009005 -0.004650 151833.000000 0 0 1
3.109073 9.093165 -25.179406 26.950964 1.241344 2.776995 0.020939 0.007806 545225.000000 0 0 1
1.912473 9.361265 -24.414076 26.217131 1.369273 2.768559 -0.008355 0.003215 509870.000000 0 0 1
0.716273 9.644465 -25.313166 27.097696 1.496665 2.776651 -0.020077 0.009769 -925968.000000 0 0 1
0.821973 10.968465 -25.840756 28.084293 1.495996 2.739168 -0.007604 0.012345 146202.000000 0 0 1
-0.150527 11.393465 -26.778326 29.101760 -1.557585 2.739290 0.012324 0.007676 -206176.000000 0 0 1
-0.179427 12.898965 -27.011786 29.934129 -1.556887 2.696044 0.008038 0.010133 -566519.000000 0 0 1
-0.583327 13.658165 -25.868896 29.258939 -1.528113 2.655439 0.003536 0.010297 185446.000000 0 0 1
-0.966727 14.961465 -26.144516 30.138276 -1.506272 2.620921 0.006310 -0.002646 -260685.000000 0 0 1
-1.149727 15.839765 -24.901076 29.534448 -1.498339 2.573855 0.017256 -0.006954 -598370.000000 0 0 1
-2.177527 15.311965 -24.143776 28.672632 -1.429533 2.571868 0.016459 -0.009095 -968778.000000 0 0 1
-2.385427 16.050365 -22.972076 28.125091 -1.423255 2.526608 0.020676 -0.014766 -1303180.000000 0 0 1
-3.638627 15.629765 -22.228076 27.415625 -1.342069 2.516282 0.015402 -0.011889 -546337.000000 0 0 1
-4.891827 15.885065 -22.805876 28.220086 -1.272061 2.511789 0.006171 -0.014641 -334824.000000 0 0 1
-5.157327 15.202865 -24.013476 28.885501 -1.243745 2.552299 0.009587 -0.010886 -956379.000000 0 0 1
-6.580727 15.417365 -24.601376 29.769595 -1.167369 2.543467 0.000648 -0.013720 336805.000000 0 0 1
-7.009727 16.695065 -25.087286 30.939188 -1.173280 2.516413 0.005542 -0.015566 -193912.000000 0 0 1
-8.305927 16.615465 -25.608876 31.636634 -1.107236 2.514044 0.013858 -0.015723 -566278.000000 0 0 1
-9.045427 17.869965 -26.096126 32.896249 -1.102217 2.486983 0.014443 -0.010438 -266971.000000 0 0 1
-9.414027 18.724565 -25.055076 32.664814 -1.104940 2.445004 0.012550 -0.011494 -35639.000000 0 0 1
-10.368027 19.681465 -25.450156 33.801871 -1.085946 2.423286 0.014064 -0.008930 168150.000000 0 0 1
-10.807027 20.702865 -24.370076 33.753534 -1.089699 2.377486 0.000902 -0.007406 360810.000000 0 0 1
-9.930427 21.843765 -24.268176 34.127816 -1.144114 2.361853 0.009886 -0.002117 575628.000000 0 0 1
-10.393027 23.032365 -24.973176 35.526952 -1.146915 2.350313 0.017075 -0.013862 -217163.000000 0 0 1
-10.169627 23.224765 -26.492606 36.669731 -1.158068 2.378158 0.011971 -0.011647 -385940.000000 0 0 1
-10.891827 22.328465 -27.291186 36.905299 -1.116956 2.403112 0.000690 -0.005061 42013.600000 0 0 1
-10.726427 22.780865 -28.627056 38.125220 -1.130737 2.420174 0.014657 -0.002730 37865.100000 0 0 1
-11.502827 21.949665 -29.679686 38.665056 -1.088091 2.445900 0.014897 -0.000650 367425.000000 0 0 1
-10.687327 20.931165 -30.295846 38.342808 -1.098709 2.481819 0.011159 -0.007680 299295.000000 0 0 1
-10.566127 19.746965 -29.548486 37.076929 -1.079483 2.493027 0.005981 -0.001164 -628463.000000 0 0 1
-9.557227 18.741565 -30.057226 36.688195 -1.099222 2.530918 0.003988 -0.004730 -906703.000000 0 0 1
-8.239627 19.278765 -29.925846 36.539273 -1.166900 2.530471 0.001495 -0.010802 188900.000000 0 0 1
-7.267327 18.395965 -30.452666 36.312400 -1.194564 2.565559 0.006315 -0.005590 115520.000000 0 0 1
-6.981327 17.056665 -29.629346 34.893651 -1.182297 2.585138 0.013736 -0.012586 -684335.000000 0 0 1
-8.102927 16.180765 -29.600776 34.694099 -1.106529 2.592874 0.010786 -0.019637 426872.000000 0 0 1
-7.795327 14.992665 -28.864286 33.446885 -1.091322 2.611952 0.005976 -0.016380 -803838.000000 0 0 1
-9.021727 14.141365 -28.655436 33.203972 -1.002927 2.611999 0.015146 -0.012637 -566663.000000 0 0 1
-9.884427 14.696565 -27.666636 32.850170 -0.978720 2.572160 0.017993 -0.017691 163284.000000 0 0 1
-11.150327 14.047565 -27.781646 33.067865 -0.899875 2.568338 0.050008 -0.016933 303106.000000 0 0 1
-12.226127 14.649965 -26.860396 32.948149 -0.875340 2.523927 0.035369 -0.013257 -211687.000000 0 0 1
-12.518027 15.954065 -27.244976 33.963538 -0.905498 2.501739 0.021993 -0.013749 -241845.000000 0 0 1
-13.501527 16.386965 -26.327876 33.822787 -0.881640 2.462920 0.010178 -0.011368 -42406.900000 0 0 1
-14.311427 17.634965 -26.682176 35.039227 -0.889060 2.436412 -0.005162 -0.004635 -110357.000000 0 0 1
-13.676927 18.863565 -26.489116 35.278402 -0.943459 2.420158 -0.012761 0.009138 -74524.200000 0 0 1
-14.514127 19.861765 -27.053236 36.565382 -0.939725 2.403657 -0.025224 0.007097 56280.400000 0 0 1
-14.047927 21.332365 -26.932496 37.118370 -0.988450 2.382679 -0.007457 0.005746 -84922.600000 0 0 1
-15.075027 22.280765 -27.225446 38.274193 -0.975953 2.362180 -0.018886 -0.001516 167351.000000 0 0 1
-14.696327 23.598965 -27.357256 39.004008 -1.013814 2.348151 -0.001353 -0.004182 -122334.000000 0 0 1
-14.054827 24.239265 -26.084116 38.281343 -1.045334 2.320442 -0.020868 0.001209 -30775.500000 0 0 1
-13.489527 25.480265 -26.343996 39.054031 -1.083898 2.311155 0.006443 -0.013869 -220195.000000 0 0 1
-13.112627 26.073465 -25.130926 38.514023 -1.104823 2.281693 0.024698 -0.020251 -288121.000000 0 0 1
-12.819227 27.554065 -25.377876 39.592874 -1.135342 2.266559 0.045762 -0.016922 240166.000000 0 0 1
-13.840127 28.340765 -26.010236 40.881297 -1.116515 2.260409 0.055286 -0.019771 -18469.300000 0 0 1
-14.605527 29.021165 -25.040276 41.019079 -1.104535 2.227430 0.057067 -0.017864 -558643.000000 0 0 1
-15.910127 29.583365 -25.570406 42.215557 -1.077363 2.221455 0.050024 -0.019341 -380712.000000 0 0 1
-16.924627 28.626765 -25.717776 42.039727 -1.036860 2.229066 0.035939 -0.012364 -985597.000000 0 0 1
-18.173427 29.149065 -26.061216 43.117611 -1.013301 2.219836 0.023350 -0.012839 -555600.000000 0 0 1
-19.237727 28.067965 -25.910856 42.770004 -0.969938 2.221590 0.014017 -0.002366 -512421.000000 0 0 1
-19.506727 27.919565 -24.557676 41.989212 -0.960960 2.195500 0.025403 -0.002690 -109401.000000 0 0 1
-20.501627 26.925565 -24.360076 41.697914 -0.920027 2.194695 0.020600 -0.012240 -217927.000000 0 0 1
-21.023827 26.860365 -22.934276 41.103060 -0.906688 2.162734 0.016146 -0.006077 -560966.000000 0 0 1
-21.924527 27.889665 -22.705176 42.119393 -0.904578 2.140125 0.003460 -0.002625 -487635.000000 0 0 1
-22.207627 27.917465 -21.326576 41.561838 -0.898821 2.109622 -0.007937 -0.003630 786132.000000 0 0 1
-23.602927 28.606265 -20.949476 42.594566 -0.880939 2.084992 -0.028653 0.006226 1077140.000000 0 0 1
-24.673727 27.858065 -21.476376 42.966258 -0.845941 2.094214 -0.033848 0.001830 -524840.000000 0 0 1
-25.853167 28.599165 -21.270876 44.031223 -0.835785 2.074972 -0.019691 0.006903 -321053.000000 0 0 1
-27.153657 27.887765 -21.625176 44.527483 -0.798735 2.077913 -0.028703 0.004384 -421414.000000 0 0 1
-27.145577 27.587565 -22.978776 45.010890 -0.793473 2.106581 -0.034872 0.006139 307726.000000 0 0 1
-28.439667 27.154565 -23.425976 45.770748 -0.762287 2.108088 -0.030593 0.002706 404358.000000 0 0 1
-28.626307 26.828365 -24.961176 46.500397 -0.752988 2.137430 -0.031397 0.008045 -263186.000000 0 0 1
-28.113507 25.586365 -25.407426 45.722736 -0.738372 2.159983 -0.030055 0.008229 -363513.000000 0 0 1
-28.007317 25.545765 -26.779846 46.412887 -0.739466 2.185837 -0.002161 0.003806 -292529.000000 0 0 1
-27.921807 24.090065 -27.311766 45.889989 -0.711860 2.208258 -0.006865 -0.002969 564687.000000 0 0 1
-26.750217 23.358365 -26.896466 44.548930 -0.717811 2.218995 -0.024629 -0.005389 593201.000000 0 0 1
-26.750297 22.165365 -27.728446 44.449393 -0.691940 2.244418 0.001546 -0.013160 -98080.500000 0 0 1
-25.756987 21.042965 -27.396116 43.090323 -0.685010 2.259819 -0.002485 -0.000991 -186492.000000 0 0 1
-25.920127 20.527365 -26.086566 42.115729 -0.669811 2.238777 -0.003207 0.007480 6045.890000 0 0 1
-25.309527 19.262765 -26.033476 41.101924 -0.650559 2.256720 -0.004567 0.002687 -28584.100000 0 0 1
-26.243917 18.005865 -26.056876 41.132896 -0.601334 2.256839 -0.010147 0.013307 -240813.000000 0 0 1
-26.977357 17.841065 -27.246896 42.290362 -0.584302 2.270880 -0.002464 0.011670 438815.000000 0 0 1
-27.966767 16.825365 -26.991956 42.353260 -0.541610 2.261793 -0.016755 0.008101 191029.000000 0 0 1
-28.668997 16.437865 -28.303196 43.510754 -0.520606 2.279022 -0.022955 0.007807 -95665.300000 0 0 1
-29.805537 17.213065 -28.632176 44.771209 -0.523720 2.264673 -0.019035 -0.004643 -34268.800000 0 0 1
-30.521527 16.619465 -29.696566 45.712758 -0.498623 2.277899 -0.009819 -0.004007 -479617.000000 0 0 1
-31.861827 17.321765 -29.909666 47.008591 -0.497957 2.260436 0.005594 0.002957 -912967.000000 0 0 1
-32.724527 17.105665 -28.849536 46.859302 -0.481656 2.234023 0.003572 0.004654 69328.300000 0 0 1
-34.069969 17.270665 -29.317736 48.151514 -0.469166 2.225424 0.009675 0.001321 252362.000000 0 0 1
35.039167 16.862565 -28.303226 48.095342 0.448535 2.199976 -0.004203 0.008369 -601314.000000 0 0 1
34.572824 17.882665 -27.500066 47.658404 0.477349 2.185877 0.014730 -0.005167 460230.000000 0 0 1
33.428576 17.442565 -26.745616 46.228138 0.480924 2.187755 0.028793 -0.007438 788192.000000 0 0 1
32.741126 18.544365 -25.880696 45.669303 0.515342 2.173289 0.035114 -0.013616 17055.300000 0 0 1
32.183076 19.626065 -26.553146 46.108593 0.547613 2.184480 0.042529 -0.022689 -4889.040000 0 0 1
31.701336 20.541965 -25.593746 45.628794 0.574957 2.166284 0.054609 -0.021490 -354706.000000 0 0 1
30.981176 21.765765 -26.246356 46.070088 0.612434 2.176943 0.045755 -0.025435 -203666.000000 0 0 1
29.656306 21.628765 -26.649696 45.359742 0.630130 2.198785 0.034677 -0.022500 -938254.000000 0 0 1
28.731406 21.908165 -25.647186 44.308459 0.651464 2.188093 0.035064 -0.017254 -846656.000000 0 0 1
27.269566 21.777265 -26.065516 43.557888 0.673882 2.212313 0.016826 -0.015915 -292286.000000 0 0 1
27.018546 20.368465 -26.224996 42.809188 0.645973 2.230145 0.011837 -0.025949 -313926.000000 0 0 1
25.743336 20.050865 -26.721166 42.175552 0.661727 2.256955 -0.001452 -0.016762 -313317.000000 0 0 1
25.585466 18.519365 -26.679846 41.344856 0.626537 2.272213 0.009584 -0.013213 -105522.000000 0 0 1
26.546976 17.834665 -27.437806 42.138467 0.591559 2.279875 0.001879 -0.007931 -71354.400000 0 0 1
27.587306 17.278565 -26.652996 42.071254 0.559550 2.256891 0.003824 -0.009528 -89245.700000 0 0 1
28.557126 16.425665 -27.532336 42.934152 0.521974 2.266947 -0.008412 0.007111 -196027.000000 0 0 1
28.161006 15.277065 -28.244936 42.710741 0.497059 2.293357 -0.000827 -0.002025 -274899.000000 0 0 1
27.414676 14.291465 -27.554916 41.413570 0.480548 2.298772 0.000484 -0.010125 -329857.000000 0 0 1
28.107586 13.444065 -26.492606 40.897890 0.446143 2.275456 -0.002944 -0.007542 -330114.000000 0 0 1
28.276276 14.142465 -25.263406 40.469702 0.463770 2.244974 0.010186 -0.010297 102083.000000 0 0 1
29.034326 13.370465 -24.332076 40.172271 0.431556 2.221433 0.007125 -0.016730 -422354.000000 0 0 1
-13.379727 -31.480709 -25.418456 42.616312 1.168914 2.209866 0.066210 0.025159 -23753.200000 0 0 1
-13.256627 -30.119409 -25.361756 41.546788 1.156176 2.227410 0.039218 0.023833 98977.300000 0 0 1
-13.181127 -29.671009 -26.686796 42.027324 1.152741 2.258788 0.022276 0.032571 -377035.000000 0 0 1
-12.371527 -28.394609 -26.830686 40.977972 1.159898 2.284660 0.006959 0.024665 -54014.300000 0 0 1
-13.037327 -27.201909 -26.283396 40.009157 1.123862 2.287542 0.030476 0.014800 574354.000000 0 0 1
-12.428727 -26.040509 -26.794656 39.376833 1.125486 2.319197 0.014290 0.011907 -486755.000000 0 0 1
-13.017527 -24.759109 -26.260986 38.368071 1.086748 2.324644 0.024780 0.002202 -423721.000000 0 0 1
-12.683527 -24.561409 -24.887776 37.195915 1.094114 2.303793 0.012186 -0.002479 207500.000000 0 0 1
-13.225627 -23.350509 -24.402476 36.271812 1.055452 2.308739 0.015843 -0.002964 -243291.000000 0 0 1
-12.735027 -23.055509 -22.942876 34.930115 1.066140 2.287393 0.012274 -0.014156 -874723.000000 0 0 1
-11.420927 -22.657509 -22.926976 34.197171 1.103900 2.305591 0.008186 -0.022644 -1441830.000000 0 0 1
-10.912827 -22.343909 -21.662576 32.978891 1.116469 2.287446 0.006495 -0.027539 328942.000000 0 0 1
-9.423427 -21.920309 -21.793776 32.315160 1.164787 2.310966 0.016476 -0.029187 127838.000000 0 0 1
-9.225027 -20.892409 -22.727776 32.220268 1.154992 2.353766 0.016742 -0.023027 289259.000000 0 0 1
-7.850027 -20.528309 -22.803576 31.670767 1.205554 2.374627 0.019694 -0.021678 441942.000000 0 0 1
-7.553627 -19.305709 -23.729076 31.509312 1.197844 2.423529 0.026805 -0.009871 -126908.000000 0 0 1
-7.773327 -18.008009 -23.209776 30.387608 1.163299 2.439962 0.013255 -0.001920 -251335.000000 0 0 1
-8.071527 -16.946809 -24.092676 30.541790 1.126299 2.479720 0.008346 0.001764 -249652.000000 0 0 1
-7.048727 -16.517209 -25.147436 30.901396 1.167444 2.521451 0.016747 0.000821 -390818.000000 0 0 1
-6.802227 -17.381209 -26.234936 32.197028 1.197764 2.523223 0.010596 0.001878 265444.000000 0 0 1
-5.776627 -16.769309 -27.017936 32.319468 1.239051 2.560685 0.005880 0.000832 131408.000000 0 0 1
-5.558727 -17.507609 -28.339116 33.771605 1.263360 2.566497 0.003024 0.007607 -586409.000000 0 0 1
-6.624927 -17.279009 -29.171696 34.546225 1.204674 2.576287 0.011266 0.009272 -604152.000000 0 0 1
-6.385227 -17.857609 -30.462486 35.883539 1.227399 2.584747 0.015388 0.004694 498738.000000 0 0 1
-7.389027 -17.412609 -31.608476 36.836021 1.169477 2.602327 0.020603 0.006771 513049.000000 0 0 1
-7.141027 -16.238809 -32.403006 36.941142 1.156498 2.640696 0.019178 -0.001737 -107115.000000 0 0 1
-6.913327 -14.985209 -31.736646 35.771012 1.138549 2.662074 0.015884 0.000562 6042.480000 0 0 1
-7.144127 -13.770509 -32.612756 36.114503 1.092223 2.697586 0.020511 -0.005154 -9254.000000 0 0 1
-6.267427 -13.696109 -33.755616 36.963572 1.141635 2.721897 0.032015 -0.008050 323883.000000 0 0 1
-6.739227 -12.897409 34.234795 37.199214 1.089291 0.401925 0.040509 -0.004953 -265547.000000 0 0 1
-7.089827 -11.425809 34.453274 36.984359 1.015432 0.372107 0.023933 -0.010459 1092850.000000 0 0 1
-5.953827 -10.498409 34.480272 36.531545 1.054906 0.336702 0.005408 -0.011481 862655.000000 0 0 1
-5.456827 -10.231909 33.213590 35.179703 1.080854 0.335905 0.019971 -0.014420 -203699.000000 0 0 1
-4.225027 -9.301709 33.088173 34.629465 1.144438 0.299474 0.005443 -0.010422 38950.600000 0 0 1
-3.929227 -8.858609 31.783143 33.227729 1.153320 0.295953 0.007779 -0.000668 242811.000000 0 0 1
-3.045327 -7.725609 31.798163 32.864604 1.195312 0.255447 0.007039 -0.003715 -1006250.000000 0 0 1
-3.317927 -6.734009 30.581143 31.489075 1.112996 0.240719 0.002849 -0.003787 1167430.000000 0 0 1
-4.529727 -5.924509 30.583353 31.479512 0.918033 0.239182 -0.007313 0.000378 -318058.000000 0 0 1
-5.721427 -6.589909 30.596653 31.816926 0.855825 0.277851 -0.013472 -0.002527 -1642000.000000 0 0 1
-6.856927 -5.540109 30.418123 31.669740 0.679575 0.282078 -0.022762 0.000024 235130.000000 0 0 1
-8.041727 -6.213909 30.049193 31.721224 0.657877 0.326128 -0.016071 -0.000366 -451201.000000 0 0 1
-9.205727 -5.427509 29.937753 31.787927 0.532722 0.342862 -0.011920 -0.002582 -109017.000000 0 0 1
-10.250627 -6.177909 29.129103 31.492008 0.542392 0.389845 0.007175 -0.004584 -529242.000000 0 0 1
-9.890527 -6.334909 27.778793 30.159823 0.569670 0.400021 -0.015808 0.002905 -79358.500000 0 0 1
-10.926627 -6.899009 27.037873 29.967217 0.563184 0.445841 -0.019019 -0.005405 -228865.000000 0 0 1
-10.672827 -6.603709 25.484363 28.407234 0.554085 0.457616 -0.020842 -0.002853 37003.600000 0 0 1
-9.500827 -7.183909 24.958403 27.654948 0.647416 0.445273 -0.014085 -0.002457 -22987.500000 0 0 1
-9.049027 -6.738809 23.667553 26.219258 0.640100 0.444843 -0.011266 -0.008805 -1089110.000000 0 0 1
-9.931427 -6.959509 22.416153 25.486308 0.611233 0.495908 -0.007160 -0.009627 -180481.000000 0 0 1
-11.163527 -6.274909 22.564953 25.945634 0.512078 0.516199 -0.015690 -0.006283 -295270.000000 0 0 1
-11.794927 -6.161609 21.317753 25.130307 0.481403 0.558051 -0.012851 -0.013533 -790983.000000 0 0 1
-13.018827 -5.293309 21.347053 25.557888 0.386173 0.582221 -0.000412 -0.003218 -645675.000000 0 0 1
-12.729827 -3.973009 21.074253 24.939074 0.302523 0.564176 -0.008266 0.006507 -297083.000000 0 1 0
-13.900727 -3.196009 20.960253 25.353045 0.225989 0.597517 -0.003002 0.009411 42197.600000 0 0 1
-13.722327 -1.724009 20.420553 24.663200 0.124980 0.595307 0.002936 0.006216 -108080.000000 0 1 0
-12.926727 -0.876009 21.221653 24.864155 0.067664 0.548123 -0.002236 0.006187 -195612.000000 0 1 0
-13.076627 0.482991 21.003853 24.746581 -0.036919 0.557165 0.004677 -0.000882 -320106.000000 0 1 0
-12.511827 1.100991 19.707053 23.369337 -0.087770 0.567427 0.018882 -0.008599 210586.000000 0 1 0
-13.191227 0.718991 18.484353 22.719963 -0.054451 0.620525 0.017931 -0.006727 -296345.000000 0 1 0
-14.440427 1.300991 18.285853 23.336472 -0.089851 0.670399 0.009391 -0.004168 -382801.000000 0 1 0
-15.447927 0.461991 17.476353 23.329698 -0.029897 0.724089 0.023910 0.004510 -55738.900000 0 1 0
-15.669427 -0.790009 18.000253 23.878110 0.050375 0.716911 0.005928 0.002932 750652.000000 0 1 0
-16.700927 -1.508009 17.288553 24.085039 0.090051 0.770140 -0.000778 0.013719 489171.000000 0 1 0
-16.698027 -3.006009 17.683253 24.506277 0.178114 0.764714 0.005183 0.010161 -148753.000000 0 1 0
-17.031027 -3.295009 18.995453 25.724311 0.191110 0.740066 -0.013100 0.012137 -47715.700000 0 0 1
-17.111027 -4.681909 19.174753 26.122379 0.267082 0.746551 -0.007417 0.011443 -285198.000000 0 0 1
-17.852727 -5.182109 20.412453 27.608737 0.282506 0.738695 -0.020037 0.017465 -502744.000000 0 0 1
-17.208327 -4.858609 21.640353 28.072005 0.275178 0.690563 -0.011412 0.014117 -99691.200000 0 0 1
-18.009927 -5.007709 22.777953 29.466417 0.271202 0.687218 -0.011778 0.007939 -534794.000000 0 0 1
-18.086127 -6.424509 23.382553 30.251051 0.341315 0.687319 0.007436 0.003627 527142.000000 0 0 1
-16.915727 -6.961709 23.995353 30.172573 0.390426 0.651343 0.009613 -0.010367 789859.000000 0 0 1
-15.797927 -7.374009 23.195953 29.017283 0.436713 0.644527 0.013044 -0.006444 280427.000000 0 0 1
-14.717427 -7.952109 24.136553 29.366850 0.495380 0.606061 0.015069 -0.006296 -91723.600000 0 0 1
-15.100627 -9.090209 24.849273 30.465508 0.541871 0.616940 0.009287 -0.010808 -42745.800000 0 0 1
-14.060527 -9.389309 25.735343 30.792295 0.588772 0.581259 0.023166 -0.002589 -169832.000000 0 0 1
-14.553527 -10.404209 26.734333 32.167954 0.620651 0.589739 0.022330 -0.005392 -50630.200000 0 0 1
-14.652227 -11.717009 26.289923 32.297617 0.674542 0.619809 0.021111 -0.006971 -30786.500000 0 0 1
-14.081827 -12.541909 27.268383 33.153613 0.727622 0.605028 0.029071 -0.006930 -217253.000000 0 0 1
-14.361927 -14.070509 27.071253 33.720867 0.775149 0.638813 0.004285 -0.009549 366642.000000 0 0 1
-15.586127 -14.558009 27.637633 34.909909 0.751305 0.657235 0.011956 -0.005765 451281.000000 0 0 1
-15.709127 -15.984909 27.624203 35.572329 0.794099 0.681602 0.015967 0.001720 -157690.000000 0 0 1
-14.696427 -16.801909 28.458783 36.168929 0.852143 0.665141 0.019166 -0.002527 542049.000000 0 0 1
-13.387327 -16.845009 27.893793 35.228377 0.899274 0.657048 0.034243 -0.005944 574881.000000 0 0 1
-12.461027 -17.593309 28.690843 35.888246 0.954533 0.644418 0.046165 -0.009540 -174075.000000 0 0 1
-11.217327 -17.884409 27.872153 34.964802 1.010607 0.648238 0.048361 -0.016147 -463484.000000 0 0 1
-10.188427 -18.662809 28.437593 35.507762 1.071090 0.642027 0.051377 -0.027735 700661.000000 0 0 1
-9.226127 -19.151509 27.474203 34.738070 1.121860 0.658524 0.046714 -0.027364 286193.000000 0 0 1
-7.968427 -19.756009 28.105673 35.266479 1.187412 0.648565 0.047052 -0.026380 -245991.000000 0 0 1
-8.273527 -20.971009 28.745733 36.531515 1.195021 0.665068 0.040411 -0.014275 110156.000000 0 0 1
-7.194127 -21.472709 29.511353 37.198826 1.247514 0.654519 0.042345 -0.017887 -14401.600000 0 0 1
-7.617127 -22.679809 30.318083 38.620985 1.246778 0.668075 0.035151 -0.011623 31456.100000 0 0 1
-7.698427 -23.823609 29.465213 38.665603 1.258245 0.704320 0.031725 -0.015495 36573.800000 0 0 1
-8.081727 -24.935909 30.283123 40.052233 1.257379 0.713477 0.021393 -0.015854 -208828.000000 0 0 1
-8.070427 -26.278209 29.474373 40.304028 1.272825 0.750569 0.018189 -0.011714 -489855.000000 0 0 1
-9.223227 -26.392809 28.700523 40.067047 1.234603 0.772293 0.040360 -0.017944 -344291.000000 0 0 1
-9.294127 -27.586309 27.942313 40.350441 1.245829 0.805860 0.040672 -0.017233 331028.000000 0 0 1
-10.678527 -27.849309 27.249053 40.399577 1.204647 0.830525 0.040261 -0.011964 482984.000000 0 0 1
-11.133827 -27.120009 26.132503 39.272951 1.181238 0.842757 0.060183 -0.017754 204475.000000 0 0 1
-11.406527 -25.712109 26.322533 38.523981 1.153257 0.818556 0.053029 -0.016456 -283055.000000 0 0 1
-11.625927 -25.126509 24.887283 37.227416 1.137435 0.838579 0.054869 -0.025273 -675665.000000 0 0 1
-12.796527 -25.537609 24.265883 37.480043 1.106281 0.866583 0.044746 -0.013508 -495908.000000 0 0 1
-12.854527 -25.170209 22.871153 36.357501 1.098622 0.890449 0.040167 -0.005297 190412.000000 0 0 1
-14.172227 -25.448509 22.096953 36.561646 1.062672 0.921815 0.027059 -0.000252 -12160.500000 0 0 1
-14.428927 -26.821809 21.808553 37.459529 1.077248 0.949377 0.038152 0.001483 29733.300000 0 0 1
-15.588427 -26.862909 21.004153 37.493858 1.044991 0.976166 0.025654 0.007991 84191.500000 0 0 1
-15.902427 -28.250709 20.443153 38.326391 1.058100 1.008186 0.026430 0.001952 -1845.340000 0 0 1
-15.069127 -28.585109 19.358953 37.669034 1.085652 1.031046 0.014587 0.004780 -124164.000000 0 0 1
-14.981427 -29.956909 19.128553 38.571506 1.107069 1.051897 0.026390 0.015903 -216146.000000 0 0 1
-13.929327 -30.336309 18.097553 37.971558 1.140348 1.074004 0.021311 0.006236 -224205.000000 0 0 1
-14.236627 -29.959309 16.801353 37.182351 1.127186 1.101943 0.031336 -0.007405 -437278.000000 0 0 1
-13.059327 -29.742509 16.073953 36.242721 1.157061 1.111287 0.052322 -0.014613 -290753.000000 0 0 1
-13.269727 -29.228509 14.677453 35.296161 1.144621 1.141933 0.019931 -0.003419 -131833.000000 0 0 1
-13.628527 -27.851309 14.515253 34.236307 1.115720 1.132969 0.015159 -0.005711 -37664.500000 0 0 1
-14.018327 -27.399209 13.217953 33.495439 1.097886 1.165143 0.013755 0.006334 -260178.000000 0 0 1
-13.010927 -27.488309 12.062453 32.716878 1.128715 1.193195 0.007148 0.006044 224782.000000 0 0 1
-13.532927 -26.800709 10.928753 31.950833 1.103199 1.221700 -0.007358 0.011290 536476.000000 0 0 1
-12.601227 -26.969609 9.850553 31.355767 1.133700 1.251230 -0.001205 0.005919 473490.000000 0 0 1
-12.833627 -25.981409 8.681653 30.250730 1.111997 1.279713 0.000110 0.007686 -87880.100000 0 0 1
-13.959027 -26.341209 7.908953 30.842588 1.083492 1.311470 -0.000223 0.006163 -176093.000000 0 0 1
-13.983627 -25.701809 6.682453 30.012997 1.072516 1.346262 0.003501 0.000884 -533773.000000 0 0 1
-14.993727 -26.181009 5.673253 30.699232 1.050696 1.384927 -0.002840 0.012589 -538941.000000 0 0 1
-14.689027 -27.398109 5.001553 31.487131 1.078662 1.411276 0.007279 -0.000116 -45862.200000 0 0 1
-15.400127 -27.395409 3.784653 31.654319 1.058678 1.450948 0.014590 0.002469 -173766.000000 0 0 1
-15.015027 -28.596609 2.901453 32.428930 1.087300 1.481205 0.018309 0.009745 425204.000000 0 0 1
-13.774527 -28.426509 2.203553 31.664801 1.119572 1.501150 0.012036 0.008011 186290.000000 0 0 1
-13.416627 -29.668809 1.567153 32.599081 1.146103 1.522704 0.008895 0.006870 410434.000000 0 0 1
-12.112927 -29.632409 0.691053 32.019997 1.182750 1.549213 -0.008996 0.003433 503089.000000 0 0 1
-12.071827 -28.864909 -0.485447 31.291335 1.174684 1.586311 0.011126 0.004790 -146687.000000 0 0 1
-12.096627 -27.466009 -0.293747 30.013269 1.155936 1.580584 0.009283 0.001447 -533256.000000 0 0 1
-11.775727 -26.754809 -1.648047 29.278040 1.156176 1.627116 0.027955 0.006222 471430.000000 0 0 1
-10.441827 -27.099309 -2.041347 29.113079 1.203011 1.640972 0.020484 0.001334 324926.000000 0 0 1
-10.077627 -26.400109 -3.249847 28.444434 1.206141 1.685299 0.038110 -0.006451 -239650.000000 0 0 1
-8.641827 -26.664509 -3.669847 28.269152 1.257383 1.700982 0.027390 -0.007169 -537040.000000 0 0 1
-8.189027 -25.940009 -4.769047 27.616807 1.265007 1.744353 0.034789 -0.011939 -909284.000000 0 0 1
-6.879527 -26.338209 -5.043647 27.685150 1.315305 1.753998 0.030965 -0.002504 -268531.000000 0 0 1
-6.104727 -25.350409 -5.945947 26.744443 1.334482 1.794994 0.024146 0.000393 -531181.000000 0 0 1
-6.571127 -25.151409 -7.234147 26.983439 1.315246 1.842212 0.027393 -0.001113 -393933.000000 0 0 1
-6.094027 -23.923409 -7.756947 25.877343 1.321370 1.875236 0.012821 -0.002215 -232642.000000 0 0 1
-6.298427 -23.753309 -9.260147 26.261001 1.311601 1.931166 0.018571 -0.009454 -110651.000000 0 0 1
-5.583627 -24.659509 -10.098247 27.225776 1.348122 1.950782 -0.001180 -0.010221 11480.500000 0 0 1
-5.881427 -24.604509 -11.514947 27.795090 1.336161 1.997948 -0.006493 -0.007286 -334300.000000 0 0 1
-7.024627 -25.471009 -12.018147 29.026773 1.301697 1.997681 -0.003037 -0.008268 -178927.000000 0 0 1
-7.439327 -25.308309 -13.355647 29.567337 1.284901 2.039469 -0.000143 -0.008144 -252687.000000 0 0 1
-8.585327 -26.062909 -13.612747 30.631519 1.252583 2.031304 0.002520 -0.005444 -847186.000000 0 0 1
-8.790427 -26.096809 -15.135547 31.422919 1.245894 2.073358 0.007208 -0.009181 774499.000000 0 0 1
-7.899427 -26.869109 -16.050447 32.279511 1.284856 2.091203 -0.002034 -0.015846 1782480.000000 0 0 1
-6.539227 -26.347509 -16.056747 31.540004 1.327521 2.104925 0.008518 -0.017717 590466.000000 0 0 1
-5.667627 -27.418809 -16.702347 32.601863 1.366961 2.108672 -0.002309 -0.012407 -762131.000000 0 0 1
-5.802827 -27.390709 -18.086147 33.332153 1.362029 2.144330 0.016668 -0.014393 97619.400000 0 0 1
-4.675827 -27.966109 -18.717147 33.974964 1.405132 2.154251 0.008676 -0.017859 109660.000000 0 0 1
-23.986127 14.643465 -6.162176 28.770432 -0.548102 1.786653 -0.013617 -0.002018 -559250.000000 0 0 1
-24.434327 13.414065 -5.685076 28.448085 -0.502063 1.771991 -0.029170 0.006692 194546.000000 0 0 1
-23.406927 12.613365 -5.106476 27.075031 -0.494260 1.760537 -0.006204 -0.003442 -577318.000000 0 0 1
-23.825927 11.267465 -4.442676 26.727662 -0.441740 1.737792 0.013883 -0.005092 -242849.000000 0 0 1
-24.267527 10.316265 -5.399276 26.916359 -0.401960 1.772761 0.021708 -0.007532 156966.000000 0 0 1
-25.658147 10.339165 -5.637676 28.231582 -0.383054 1.771842 -0.001073 -0.008233 -337813.000000 0 0 1
-25.998797 9.741665 -7.043376 28.643439 -0.358505 1.819243 0.021848 -0.010077 -153890.000000 0 0 1
-25.616137 10.505065 -8.163576 28.864976 -0.389179 1.857529 0.043025 0.000799 -65242.700000 0 0 1
-25.856097 9.767865 -9.363776 29.182687 -0.361204 1.897442 0.062003 -0.013699 -131077.000000 0 0 1
-26.140837 10.698565 -10.599776 30.168823 -0.388469 1.929808 0.024892 -0.008698 -6566.770000 0 0 1
-25.021027 11.426365 -11.025976 29.634199 -0.428387 1.952034 0.026008 -0.009802 45859.900000 0 0 1
-25.495257 12.355065 -11.971676 30.756735 -0.451254 1.970600 0.012852 -0.009961 -187026.000000 0 0 1
-24.549227 13.424765 -12.543676 30.663213 -0.500422 1.992241 0.020167 -0.010088 -518541.000000 0 0 1
-24.219627 14.487865 -11.649376 30.531893 -0.539085 1.962266 0.017451 -0.006509 469219.000000 0 0 1
-23.447527 15.428865 -12.384076 30.679011 -0.581990 1.986317 0.018197 -0.008965 -177974.000000 0 0 1
-23.497027 16.795065 -11.721576 31.170175 -0.620573 1.956327 0.020513 -0.012367 -710595.000000 0 0 1
-22.749827 16.906265 -10.582676 30.255073 -0.639095 1.928135 0.013536 -0.006173 -236841.000000 0 0 1
-22.717527 18.296365 -10.297776 30.933593 -0.678016 1.910173 -0.001414 0.001407 564539.000000 0 0 1
-21.691427 18.574665 -9.121276 29.978890 -0.708148 1.879954 -0.009186 0.006677 696169.000000 0 0 1
-22.222127 18.104465 -7.863276 29.722478 -0.683643 1.838540 -0.002868 0.005139 570067.000000 0 0 1
-23.207327 18.933465 -7.239876 30.813502 -0.684325 1.807972 -0.016213 -0.001707 162229.000000 0 0 1
-23.662227 18.253265 -5.959276 30.472867 -0.657063 1.767625 -0.028469 0.005353 287398.000000 0 0 1
-22.611827 18.216665 -4.980776 29.460986 -0.678162 1.740676 0.000357 -0.015584 419685.000000 0 0 1
-23.003227 17.768965 -3.724576 29.304556 -0.657718 1.698240 -0.025084 -0.007017 -553157.000000 0 0 1
-21.880827 17.688665 -2.697576 28.265462 -0.679848 1.666379 -0.008279 -0.023650 -810772.000000 0 0 1
-21.280527 18.858665 -2.270576 28.524824 -0.725135 1.650481 0.002371 -0.025529 -203798.000000 0 0 1
-20.312627 18.463565 -1.340376 27.482770 -0.737749 1.619587 0.036213 -0.036235 -244045.000000 0 0 1
-19.492427 19.672865 -0.742776 27.704296 -0.790005 1.597610 0.036237 -0.038420 214262.000000 0 0 1
-20.196127 20.415565 0.227224 28.718121 -0.790801 1.562884 0.011460 -0.031848 62272.200000 0 0 1
-19.408127 21.474265 0.712824 28.953887 -0.835894 1.546175 0.018272 -0.039714 -136989.000000 0 0 1
-20.195127 22.471965 1.554824 30.253096 -0.838710 1.519380 0.001600 -0.029799 -142366.000000 0 0 1
-20.259327 21.940765 2.831524 29.997583 -0.825222 1.476264 0.011667 -0.025969 -91387.500000 0 0 1
-21.372427 22.456765 3.494324 31.197712 -0.810133 1.458555 -0.017469 -0.021165 -479485.000000 0 0 1
-21.463027 22.132065 5.002724 31.233268 -0.800744 1.409930 -0.010008 -0.013256 -284667.000000 0 0 1
-20.688727 23.144465 5.629524 31.549662 -0.841364 1.391402 -0.004998 -0.011009 634227.000000 0 0 1
-19.950427 22.737365 6.827824 31.010103 -0.850592 1.348797 0.002078 -0.009662 909406.000000 0 0 1
-20.830827 22.359665 8.115424 31.618635 -0.820781 1.311225 -0.015269 -0.014184 1105020.000000 0 0 1
-21.908427 21.350465 7.990224 31.617482 -0.772501 1.315311 -0.003256 -0.011134 1685320.000000 0 0 1
-22.420027 20.739465 9.143224 31.880739 -0.746479 1.279917 0.009142 -0.015664 -7464.330000 0 0 1
-22.848427 21.704665 10.310324 33.157893 -0.759732 1.254608 0.004854 -0.019501 -716952.000000 0 0 1
-23.831827 22.676065 9.995224 34.381163 -0.760552 1.275819 0.011081 -0.015071 365195.000000 0 0 1
-24.200327 23.316365 11.200124 35.422471 -0.766797 1.249089 0.015639 -0.012913 -125291.000000 0 0 1
-25.276437 24.380265 10.923224 36.777879 -0.767353 1.269241 0.014439 -0.024531 82209.900000 0 0 1
-26.173887 24.560365 12.017924 37.851213 -0.753605 1.247700 0.014065 -0.017379 291669.000000 0 0 1
-26.593447 25.917665 12.101824 39.056253 -0.772530 1.255754 0.008450 -0.015364 30299.200000 0 0 1
-27.041737 26.447965 13.490824 40.159092 -0.774298 1.228199 0.013635 -0.011430 150230.000000 0 0 1
-25.974387 26.273665 14.408924 39.655911 -0.791126 1.198937 0.003142 -0.011520 557423.000000 0 0 1
-26.333097 26.768065 15.719224 40.706944 -0.793589 1.174336 0.011796 -0.014954 -204153.000000 0 0 1
-25.131077 26.750665 16.652924 40.304950 -0.816605 1.144861 0.011807 -0.021614 -227528.000000 0 0 1
-24.586027 25.528165 17.152824 39.374856 -0.804196 1.120060 0.028519 -0.020630 128364.000000 0 0 1
-23.715527 25.780565 18.233824 39.490962 -0.827095 1.090861 0.026900 -0.017116 -146214.000000 0 0 1
-23.263827 24.432165 18.923824 38.681357 -0.809889 1.059597 0.028925 -0.008312 40397.600000 0 0 1
-22.447827 24.568465 20.082224 38.869141 -0.830472 1.027848 0.021039 -0.015381 643288.000000 0 0 1
-21.926427 23.301265 20.556124 38.029875 -0.815787 0.999735 0.029212 -0.004716 -987234.000000 0 0 1
-20.424027 23.321165 20.667724 37.258186 -0.851529 0.982774 0.024711 -0.016861 -1608490.000000 0 0 1
-19.780227 23.390165 19.403124 36.260700 -0.868825 1.006169 0.028672 -0.017274 895680.000000 0 0 1
-18.384327 23.063665 19.370424 35.286391 -0.897819 0.989690 0.024719 -0.024346 745869.000000 0 0 1
-17.985227 21.582265 19.395824 34.138842 -0.876058 0.966546 0.032278 -0.009749 -639203.000000 0 0 1
-18.506727 20.884265 20.528124 34.641815 -0.845682 0.936536 0.040723 -0.010653 143625.000000 0 0 1
-17.803127 21.037965 21.750324 35.108743 -0.868490 0.902674 0.052183 -0.013388 -477750.000000 0 0 1
-18.644927 20.644565 22.953224 36.064967 -0.836249 0.880921 0.039422 -0.008503 -380512.000000 0 0 1
-19.636227 21.559265 23.338524 37.350636 -0.832045 0.895858 0.028577 -0.005412 87066.800000 0 0 1
-20.240527 21.177565 24.579724 38.240437 -0.808018 0.872690 0.033602 -0.000899 202238.000000 0 0 1
-21.341927 22.197665 24.992224 39.658863 -0.805050 0.889011 0.028073 -0.003634 -354456.000000 0 0 1
-20.868727 23.422465 25.534524 40.449073 -0.842992 0.887599 0.022397 -0.008343 412015.000000 0 0 1
-21.880027 24.420165 25.800224 41.722075 -0.840206 0.904113 0.017060 -0.011764 52895.800000 0 0 1
-22.618927 25.016665 24.583524 41.734866 -0.835691 0.940925 0.012535 -0.008880 105043.000000 0 0 1
-23.669027 24.154965 24.159924 41.561846 -0.795559 0.950470 0.018676 -0.012597 61374.500000 0 0 1
-24.329127 24.642265 23.007124 41.574937 -0.791792 0.984368 0.015626 -0.009015 -284271.000000 0 0 1
-25.380707 23.594465 22.623624 41.384869 -0.748942 0.992421 0.019708 -0.003017 17076.800000 0 0 1
-26.630517 23.716965 23.291924 42.593339 -0.727594 0.992206 0.008991 -0.011188 221656.000000 0 0 1
-27.522457 22.742065 22.821624 42.373502 -0.690579 1.002043 0.019672 -0.012555 514190.000000 0 0 1
-29.020037 22.890365 23.257424 43.669659 -0.667861 1.009155 0.026529 -0.006999 92806.400000 0 0 1
-29.593957 23.978865 22.588424 44.283463 -0.680967 1.035510 0.023143 -0.008094 519985.000000 0 0 1
-31.013737 24.158165 22.590024 45.340688 -0.661773 1.049242 0.007590 -0.014034 740691.000000 0 0 1
-31.801597 23.198665 21.679324 44.938988 -0.630239 1.067385 -0.001096 -0.012731 -1201730.000000 0 0 1
-31.950017 21.880665 22.119024 44.596169 -0.600479 1.051828 -0.001799 -0.005821 477447.000000 0 0 1
-32.467997 20.852665 21.225024 44.039824 -0.570910 1.067917 -0.005590 0.010655 -797442.000000 0 0 1
-33.888577 21.071965 20.777324 44.990672 -0.556296 1.090757 -0.007655 0.005987 -1270850.000000 0 0 1
-34.297495 20.188565 19.799624 44.451337 -0.532018 1.109150 0.000768 0.008546 701701.000000 0 0 1
34.466976 20.294165 19.414824 44.460780 0.532144 1.118899 -0.003900 -0.001748 1028260.000000 0 0 1
34.097132 19.297665 18.264124 43.227219 0.515015 1.134579 0.005719 0.001450 -201788.000000 0 0 1
33.853386 17.969465 18.676624 42.635310 0.487985 1.117362 0.020654 0.000020 306771.000000 0 0 1
33.451956 17.121865 17.619924 41.504859 0.473070 1.132357 0.017061 -0.006401 -1315.830000 0 0 1
33.469636 15.579365 17.823624 40.995301 0.435650 1.121011 0.014479 -0.010537 -49664.100000 0 0 1
33.041636 14.926165 16.638824 39.892237 0.424298 1.140550 0.017908 -0.013303 54828.000000 0 0 1
33.255686 13.568865 16.557724 39.550132 0.387398 1.138836 0.009643 -0.016634 328874.000000 0 0 1
32.427676 12.976265 15.327924 38.142927 0.380644 1.157255 0.012403 -0.015321 471420.000000 0 0 1
32.935156 13.252065 14.036024 38.175276 0.382546 1.194291 0.016992 -0.024105 -161.912000 0 0 1
31.962686 12.870965 13.128524 36.873204 0.382821 1.206764 0.029150 -0.022593 -311817.000000 0 0 1
32.394536 13.229665 11.623124 36.871764 0.387720 1.250096 0.040511 -0.016004 -95646.600000 0 0 1
33.510156 12.512065 11.153524 37.468432 0.357351 1.268537 0.036076 -0.020252 -66874.000000 0 0 1
33.875156 13.041565 9.912524 37.628004 0.367499 1.304215 0.031215 -0.017121 -656100.000000 0 0 1
-34.965368 12.462665 9.388624 38.288918 -0.342391 1.323065 0.047410 -0.013574 -600291.000000 0 0 1
-34.935105 11.067865 9.244824 37.794523 -0.306809 1.323681 0.034453 -0.004261 158911.000000 0 0 1
-33.706787 10.604765 8.693224 36.389293 -0.304813 1.329568 0.007784 0.000033 285003.000000 0 0 1
-33.489797 10.738965 7.166024 35.892113 -0.310305 1.369791 0.017451 0.006979 -122573.000000 0 0 1
-33.253307 12.078965 6.752024 36.017685 -0.348422 1.382216 0.044898 0.000992 55786.700000 0 0 1
-33.094287 12.132965 5.333124 35.649444 -0.351402 1.420634 0.021912 -0.006142 -433577.000000 0 0 1
-34.116065 13.044865 4.678024 36.823339 -0.365214 1.443412 0.033339 -0.008537 -1161690.000000 0 0 1
34.744360 12.536865 4.688824 37.233434 0.346292 1.444531 0.037032 -0.013352 -362510.000000 0 0 1
33.695256 13.479665 4.538824 36.574206 0.380546 1.446377 0.034614 -0.014248 226291.000000 0 0 1
33.366506 14.294465 5.827724 36.764355 0.404753 1.411609 0.038704 -0.007925 -650706.000000 0 0 1
32.421066 15.387365 5.667824 36.332089 0.443130 1.414156 0.022432 -0.001111 794093.000000 0 0 1
31.797036 15.806165 6.851024 36.163833 0.461321 1.380200 0.016251 0.002729 214790.000000 0 0 1
30.697426 14.969465 7.530224 34.973148 0.453715 1.353783 0.034062 -0.008815 -295472.000000 0 0 1
31.292306 13.816565 8.080224 35.148199 0.415790 1.338832 0.040013 -0.001905 525259.000000 0 0 1
30.425846 12.667765 8.027924 33.921260 0.394520 1.331866 0.057273 0.004431 101984.000000 0 0 1
30.444396 11.829065 6.710124 33.343871 0.370594 1.368173 0.056173 -0.003181 -174657.000000 0 0 1
29.932626 12.357165 5.501724 32.847079 0.391520 1.402508 0.039504 -0.009876 138797.000000 0 0 1
30.420056 11.650565 4.406024 32.871393 0.365757 1.436353 0.052811 -0.012801 -306476.000000 0 0 1
29.659356 11.876465 3.080124 32.096962 0.380876 1.474685 0.026027 -0.020739 356656.000000 0 0 1
28.290276 11.497165 3.057624 30.689959 0.386011 1.471001 0.018459 -0.010082 776623.000000 0 0 1
27.643506 11.710165 1.802724 30.075591 0.400696 1.510821 0.019424 -0.007701 809481.000000 0 0 1
26.212896 11.100365 1.608424 28.511770 0.400574 1.514354 0.046410 0.003505 724362.000000 0 0 1
26.265366 9.724565 1.310524 28.038439 0.354594 1.524039 0.012372 -0.017107 517688.000000 0 0 1
24.959626 9.166665 1.385724 26.625756 0.351967 1.518728 0.012439 -0.020436 -327297.000000 0 0 1
25.034026 7.558865 1.457924 26.190923 0.293239 1.515102 0.019751 -0.020471 14671.900000 0 0 1
25.564616 6.959765 2.637124 26.625971 0.265800 1.471590 0.028537 -0.009668 -7073.830000 0 0 1
26.944866 7.120865 2.764924 28.006737 0.258369 1.471912 0.044648 -0.021732 -1095960.000000 0 0 1
27.542276 6.350865 3.968324 28.542215 0.226625 1.431311 0.052364 -0.023486 -504675.000000 0 0 1
28.931716 6.228765 4.078724 29.874365 0.212055 1.433839 0.070074 -0.022546 -89628.800000 0 0 1
29.236686 5.679965 5.335724 30.257491 0.191885 1.393525 0.054593 -0.004113 -833755.000000 0 0 1
30.659906 5.876765 5.801424 31.752523 0.189379 1.387057 0.056583 -0.007460 -809624.000000 0 0 1
30.900286 7.214865 6.145924 32.321113 0.229379 1.379479 0.070518 -0.018452 1088250.000000 0 0 1
32.253656 7.361665 6.653224 33.745486 0.224399 1.372337 0.028934 -0.004253 1161050.000000 0 0 1
32.488996 8.677865 7.444224 34.442077 0.261008 1.352940 0.047879 -0.014304 139702.000000 0 0 1
31.844866 8.593765 8.708024 34.114190 0.263585 1.312679 0.047101 -0.015119 289145.000000 0 0 1
32.402306 9.581765 9.526124 35.106505 0.287519 1.296002 0.037882 -0.008946 -398073.000000 0 0 1
31.805686 9.638765 10.925924 34.984043 0.294254 1.253171 0.029625 -0.004561 167069.000000 0 0 1
30.390546 9.866565 10.922324 33.767315 0.313923 1.241414 0.039640 -0.000643 475023.000000 0 0 1
29.915686 9.487065 12.164124 33.658856 0.307094 1.201033 0.035890 -0.003316 590733.000000 0 0 1
28.365576 9.791065 12.239324 32.407898 0.332369 1.183523 0.037062 -0.008648 696169.000000 0 0 1
27.912176 11.079965 12.557524 32.550677 0.377881 1.174739 0.039609 -0.005985 150526.000000 0 0 1
28.029386 12.055765 11.531324 32.618390 0.406192 1.209463 0.050293 -0.014374 -546945.000000 0 0 1
27.111316 11.939265 10.312124 31.367330 0.414825 1.235813 0.046624 -0.013492 -259674.000000 0 0 1
27.239356 13.040565 9.487924 31.655324 0.446495 1.266391 0.038026 0.000926 329255.000000 0 0 1
26.107036 13.065265 8.636524 30.444507 0.464007 1.283166 0.030388 0.004240 128341.000000 0 0 1
26.096776 14.257865 7.612824 30.696637 0.500033 1.320179 0.016499 0.006827 -119089.000000 0 0 1
25.879716 15.531665 8.182224 31.272050 0.540528 1.306069 0.025785 0.011833 321391.000000 0 0 1
26.077446 16.534865 7.252924 31.718131 0.565093 1.340087 0.025189 0.016139 -726791.000000 0 0 1
25.820806 17.973265 7.760124 32.403268 0.608088 1.328960 0.025081 0.007276 1173500.000000 0 0 1
24.423326 18.348365 7.755124 31.516714 0.644310 1.322179 0.025826 0.007707 1245320.000000 0 0 1
23.601126 17.782665 8.749824 30.818756 0.645716 1.282924 0.032146 0.013096 -594165.000000 0 0 1
22.371426 18.677865 9.040824 30.513600 0.695661 1.269992 0.032894 0.017925 -896308.000000 0 0 1
21.552626 18.703765 7.928724 29.617751 0.714748 1.299789 0.029554 0.012778 -310731.000000 0 0 1
20.386026 19.462965 8.220124 29.359283 0.762238 1.287019 0.049901 0.005097 150851.000000 0 0 1
19.582226 19.754665 6.934524 28.667019 0.789782 1.326474 0.039311 0.004053 59974.400000 0 0 1
20.140826 20.732865 6.011924 29.523681 0.799882 1.365732 0.037566 0.011220 -66018.100000 0 0 1
19.229326 21.037865 5.006424 28.938262 0.830281 1.396918 0.020433 0.009358 -326642.000000 0 0 1
16.983873 17.418365 32.812663 40.847548 0.798027 0.637988 0.026797 -0.003054 -250902.000000 0 0 1
16.284773 18.254265 31.953993 40.242635 0.842359 0.653381 0.022595 -0.007648 -300686.000000 0 0 1
15.615973 17.538465 30.952453 38.852422 0.843319 0.649035 0.017055 -0.000808 -41977.100000 0 0 1
15.214173 18.352965 29.699683 38.083770 0.878635 0.676368 0.015811 -0.002021 256940.000000 0 0 1
16.372573 18.557265 28.890983 38.041058 0.847862 0.708301 0.019124 -0.002689 87412.600000 0 0 1
16.020773 19.177965 27.674593 37.287298 0.874855 0.734451 0.037000 -0.014879 -214878.000000 0 0 1
17.201873 19.588465 26.763663 37.361826 0.850177 0.772258 0.031911 -0.003344 -134427.000000 0 0 1
17.900573 20.753565 27.125623 38.560866 0.859073 0.790557 0.045025 -0.015719 174414.000000 0 0 1
19.019473 20.969165 26.284593 38.630636 0.834116 0.822477 0.033060 -0.009033 -320940.000000 0 0 1
19.529573 22.310065 26.665453 39.877181 0.851757 0.838351 0.041960 -0.018919 -626784.000000 0 0 1
18.866673 23.430065 26.076083 39.810569 0.892872 0.856608 0.045058 -0.022297 196566.000000 0 0 1
19.093473 24.637665 26.792023 41.102162 0.911504 0.860788 0.044016 -0.018680 -236210.000000 0 0 1
18.200673 25.795665 26.297103 41.087935 0.956341 0.876272 0.054280 -0.019074 30028.100000 0 0 1
18.246473 26.027165 24.920533 40.390346 0.959363 0.905881 0.055915 -0.022258 729384.000000 0 0 1
17.191173 26.963065 24.606723 40.348905 1.003200 0.914927 0.057561 -0.027693 553236.000000 0 0 1
17.478573 27.964365 23.440653 40.459491 1.012175 0.952852 0.038815 -0.028984 27149.800000 0 0 1
18.681173 28.720965 23.562053 41.581851 0.994114 0.968371 0.046354 -0.028075 227913.000000 0 0 1
18.689073 29.849465 22.638853 41.866331 1.011399 0.999478 0.042362 -0.023619 -742978.000000 0 0 1
20.001373 30.577965 22.423053 42.870271 0.991537 1.020377 0.051347 -0.022912 -1156970.000000 0 0 1
20.878273 29.860765 21.662053 42.388820 0.960616 1.034411 0.044684 -0.023373 -1287820.000000 0 0 1
22.114973 30.477665 21.507053 43.364887 0.943087 1.051862 0.030415 -0.026184 -392251.000000 0 0 1
22.572773 30.543765 20.062853 42.953111 0.934353 1.084803 0.017586 -0.025896 -212553.000000 0 0 1
21.889073 31.578865 19.409553 43.047496 0.964679 1.103038 0.012011 -0.015222 181787.000000 0 0 1
21.867273 31.394765 17.994053 42.279958 0.962406 1.131179 0.018483 0.002347 -327610.000000 0 0 1
21.591273 32.654365 17.163653 42.744375 0.986583 1.157597 0.018060 -0.010615 -201975.000000 0 0 1
22.609973 33.626865 17.260653 44.044376 0.978850 1.168109 0.022549 -0.013356 75806.000000 0 0 1
22.504673 34.636065 16.258453 44.389803 0.994599 1.195804 0.026738 -0.012423 -467771.000000 0 0 1
23.272473 34.327465 14.979753 44.095077 0.975019 1.224183 0.008837 -0.006361 -496179.000000 0 0 1
22.952573 33.209065 14.232753 42.804601 0.966032 1.231838 0.022103 -0.013556 343785.000000 0 0 1
21.869873 33.349465 13.297153 42.039177 0.990369 1.248966 0.014776 -0.012076 383328.000000 0 0 1
21.597273 32.076365 12.548553 40.654662 0.978210 1.257010 0.027915 -0.026356 80931.000000 0 0 1
22.681973 31.811565 11.678153 40.777773 0.951392 1.280344 0.036580 -0.037756 376382.000000 0 0 1
22.320173 30.657165 10.933553 39.466371 0.941487 1.290090 0.037026 -0.034299 168755.000000 0 0 1
23.482873 30.244665 9.983253 39.570828 0.910593 1.315752 0.029800 -0.033759 936350.000000 0 0 1
24.572573 29.454165 10.488153 39.766324 0.875509 1.303894 0.024389 -0.022371 995796.000000 0 0 1
25.548973 30.203665 11.231853 41.123788 0.868693 1.294158 0.027380 -0.028820 -251683.000000 0 0 1
26.726273 29.271965 11.633753 41.309633 0.830827 1.285311 0.023344 -0.026293 65530.400000 0 0 1
26.618173 28.414065 12.717153 40.958664 0.818020 1.255091 0.021823 -0.016773 333498.000000 0 0 1
27.846873 27.687065 12.816653 41.307245 0.782520 1.255313 0.014000 0.004783 611011.000000 0 0 1
28.127873 26.869665 14.077453 41.368234 0.762525 1.223564 0.007323 -0.011722 -220998.000000 0 0 1
28.517573 27.587065 15.214653 42.494515 0.768814 1.204631 -0.011905 -0.014149 -28809.000000 0 0 1
28.588373 26.754965 16.286453 42.407213 0.752282 1.176619 0.012724 -0.017669 -428555.000000 0 0 1
29.762873 27.153965 17.203753 43.807939 0.739593 1.167221 0.009993 -0.028767 -157694.000000 0 0 1
31.010473 26.964565 16.580753 44.313187 0.715724 1.187293 0.030878 -0.021218 -691562.000000 0 0 1
32.013073 26.902865 17.547353 45.348766 0.698877 1.173483 0.005186 -0.017958 -1234680.000000 0 0 1
33.416373 26.954465 17.035353 46.188748 0.678767 1.193057 0.008280 -0.030689 -987030.000000 0 0 1
33.780073 28.221565 16.509053 47.011689 0.695986 1.211977 0.021158 -0.018718 84644.900000 0 0 1
-35.002680 28.274165 16.132953 47.800503 -0.679462 1.226530 0.037941 -0.014293 328789.000000 0 0 1
-34.836580 29.256465 15.006653 47.903315 -0.698554 1.252162 0.024194 -0.010369 53284.000000 0 0 1
-35.004580 30.592465 15.452553 48.989804 -0.718238 1.249893 0.023314 -0.007360 -94067.600000 0 0 1
35.019173 31.477365 14.366253 49.229627 0.732185 1.274666 0.012565 0.021430 153724.000000 0 0 1
34.218373 32.757565 14.729753 49.607668 0.763591 1.269326 -0.008076 0.018844 -157134.000000 0 0 1
33.938573 33.500265 13.536753 49.571546 0.778899 1.294208 -0.026823 0.024994 304349.000000 0 0 1
32.870173 34.433765 13.738553 49.546748 0.808626 1.289830 -0.030938 0.031946 1231610.000000 0 0 1
31.447873 33.856165 13.400453 48.112168 0.822260 1.288538 -0.016588 0.029576 414654.000000 0 0 1
30.977173 32.847365 14.264353 47.349830 0.814692 1.264788 -0.020732 0.006858 -396095.000000 0 0 1
29.865373 32.200365 13.717453 46.010569 0.823002 1.268056 -0.004269 0.005088 -551151.000000 0 0 1
29.207073 31.159465 14.666953 45.156227 0.817729 1.239991 0.004736 -0.001806 454168.000000 0 0 1
28.344873 31.720365 15.682953 45.338376 0.841536 1.217589 -0.003117 -0.006528 224365.000000 0 0 1
27.718173 30.680465 16.359953 44.466123 0.836080 1.194026 -0.004739 -0.015012 -111221.000000 0 0 1
27.284773 31.185865 17.787153 45.093235 0.852018 1.165324 -0.004163 -0.011182 -163342.000000 0 0 1
27.157373 30.168465 18.748753 44.712134 0.837876 1.138099 -0.013076 -0.010511 76965.600000 0 0 1
27.799873 30.598465 19.953953 45.904893 0.833284 1.121113 -0.012895 -0.017727 112067.000000 0 0 1
27.750473 29.544965 21.099253 45.696522 0.816708 1.090857 0.011086 -0.025448 -221886.000000 0 0 1
26.489173 29.418065 21.707353 45.147624 0.837739 1.069220 0.012644 -0.025443 -147970.000000 0 0 1
26.452073 28.528265 22.825253 45.106166 0.823143 1.040216 0.006039 -0.025940 65224.100000 0 0 1
25.078873 28.457065 23.542853 44.643256 0.848416 1.015312 0.032103 -0.026741 -225672.000000 0 0 1
24.022573 27.870265 22.791353 43.281421 0.859410 1.016218 0.034899 -0.023137 520475.000000 0 0 1
22.857473 27.861965 23.641253 43.100603 0.883750 0.990211 0.036035 -0.027989 379410.000000 0 0 1
22.728273 26.678465 24.690563 42.871188 0.865181 0.957062 0.044613 -0.028698 -666933.000000 0 0 1
23.659573 26.739165 25.747463 44.019202 0.846427 0.946022 0.028752 -0.029839 35226.900000 0 0 1
23.422573 25.680065 26.681043 43.817356 0.831341 0.916104 0.034479 -0.026091 -678368.000000 0 0 1
24.511973 25.621765 27.731203 45.014789 0.807531 0.907083 0.046304 -0.028621 -442055.000000 0 0 1
24.870373 26.830965 28.400903 46.314656 0.823301 0.910670 0.019344 -0.023368 -237919.000000 0 0 1
25.830073 27.573065 27.757063 46.881991 0.818025 0.937181 0.008976 -0.009237 -1244440.000000 0 0 1
26.034873 28.911165 28.550673 48.257756 0.837698 0.937719 -0.017110 -0.008650 -341126.000000 0 0 1
26.737673 28.724865 29.783563 49.265420 0.821212 0.921592 0.008155 0.000594 339677.000000 0 0 1
27.069273 30.006565 30.302023 50.510910 0.836816 0.927407 0.007847 -0.003692 398747.000000 0 0 1
28.592973 30.259865 30.504563 51.611490 0.813714 0.938446 0.005523 -0.002087 417783.000000 0 0 1
29.282373 30.285765 29.276263 51.300921 0.802241 0.963466 -0.012964 -0.000776 -189728.000000 0 0 1
30.659573 30.561465 29.387273 52.322312 0.783796 0.974407 0.013931 -0.007361 168258.000000 0 0 1
31.291273 30.926165 28.028823 52.164992 0.779530 1.003551 0.009156 -0.012433 -81196.300000 0 0 1
30.812473 32.215265 27.625133 52.444063 0.807651 1.016019 -0.001012 -0.009524 505342.000000 0 0 1
31.510373 32.631665 26.476013 52.523408 0.802878 1.042480 0.005875 -0.017911 -71699.700000 0 0 1
31.257573 34.129365 26.156743 53.160367 0.829290 1.056371 0.007898 -0.014509 -221484.000000 0 0 1
32.001673 -34.415909 27.029323 54.213893 -0.821732 1.048850 0.019907 -0.019695 316132.000000 0 0 1
31.723273 -33.010209 26.725193 53.012035 -0.805276 1.042417 0.016660 -0.011257 207725.000000 0 0 1
32.736073 -31.972309 27.388533 53.329267 -0.773596 1.031451 0.012929 -0.005807 434124.000000 0 0 1
32.518773 -31.875809 28.784073 53.870777 -0.775414 1.007097 0.015535 -0.007241 884129.000000 0 0 1
33.618673 -31.179709 29.383053 54.458730 -0.747777 1.000897 0.015722 -0.015280 181989.000000 0 0 1
33.304673 -30.662609 30.797633 54.753000 -0.744118 0.973410 0.025868 -0.020195 -208928.000000 0 0 1
33.309073 -31.694209 31.831313 55.921818 -0.760560 0.965250 0.025508 -0.015091 313458.000000 0 0 1
32.054773 -32.345009 31.918863 55.610448 -0.789905 0.959448 0.022441 -0.014044 -229642.000000 0 0 1
31.873873 -33.337309 33.079657 56.758996 -0.807836 0.948615 0.023635 -0.014067 -418059.000000 0 0 1
31.554873 -32.838409 34.378599 57.061013 -0.805328 0.924181 0.019499 -0.017763 200226.000000 0 0 1
32.072473 -33.602909 -33.642496 57.355179 -0.808697 2.197606 0.016084 -0.020179 -87235.900000 0 0 1
31.286973 34.432165 -33.403416 57.273352 0.833220 2.193493 0.015156 -0.021514 -22241.100000 0 0 1
31.455073 33.496865 -34.441755 57.425570 0.816823 2.214002 0.024230 -0.021229 42932.900000 0 0 1
30.501973 32.482265 -34.335580 56.252999 0.816829 2.227334 0.027775 -0.015036 -191109.000000 0 0 1
30.845673 31.484465 33.663044 55.461046 0.795646 0.918557 0.016161 -0.006310 535258.000000 0 0 1
32.044973 30.746765 33.908509 55.875136 0.764726 0.918690 0.022705 -0.011102 371971.000000 0 0 1
32.284573 29.851765 32.795403 54.853988 0.746265 0.929958 0.013801 -0.004918 -265503.000000 0 0 1
33.686973 29.232565 32.880663 55.412029 0.714721 0.935539 0.017284 -0.003356 -279806.000000 0 0 1
33.892073 28.273065 33.861890 55.629726 0.695255 0.916374 0.014077 0.004923 -568133.000000 0 0 1
-34.950580 27.842965 33.730214 55.986615 -0.672688 0.924205 0.005397 0.006976 -896266.000000 0 0 1
-34.718580 26.629565 -34.471401 55.702702 -0.654300 2.238069 0.007304 0.006789 -219261.000000 0 0 1
-35.059880 25.486965 33.884850 55.017848 -0.628589 0.907283 0.002806 0.007544 79924.000000 0 0 1
34.877073 24.382465 -34.348967 54.687899 0.610120 2.249894 0.010432 -0.003389 259075.000000 0 0 1
34.227673 23.181865 33.988619 53.517835 0.595317 0.882672 0.004867 -0.002645 116055.000000 0 0 1
-34.970880 22.624065 33.096825 53.199723 -0.574221 0.899344 0.008441 -0.002951 364838.000000 0 0 1
34.631073 21.588865 32.301783 52.046090 0.557445 0.901240 0.007378 -0.000595 -163519.000000 0 0 1
-34.499580 20.636965 31.634463 51.155103 -0.539080 0.904088 -0.002199 -0.003858 -70404.000000 0 0 1
-33.783680 21.267165 30.595933 50.296525 -0.561836 0.916865 -0.005306 -0.003706 256193.000000 0 0 1
-32.753580 20.410065 30.049703 48.911679 -0.557261 0.909213 0.004816 -0.005761 353821.000000 0 0 1
-33.007680 19.531465 28.771633 47.945718 -0.534313 0.927186 0.004059 -0.001083 -978813.000000 0 0 1
-33.767580 18.425565 29.102133 48.235723 -0.499504 0.923124 -0.006147 0.003256 -78955.300000 0 0 1
-34.000080 17.653265 27.950133 47.422074 -0.478899 0.940492 -0.009956 0.003370 -564592.000000 0 0 1
-34.696480 16.337465 28.262823 47.639748 -0.440072 0.935692 -0.016670 0.004277 -635932.000000 0 0 1
-34.069280 15.426365 29.158693 47.422757 -0.425175 0.908579 -0.010269 0.003279 51278.900000 0 0 1
-34.772080 14.229365 29.193023 47.579459 -0.388428 0.910231 -0.006152 0.006749 82042.800000 0 0 1
-33.868580 13.088765 29.774503 46.956549 -0.368778 0.883970 -0.008594 0.012670 119071.000000 0 0 1
-33.379980 13.366065 31.085323 47.530748 -0.380870 0.857930 -0.013474 0.015052 702397.000000 0 0 1
-32.493880 12.367865 31.625923 47.000163 -0.363690 0.832688 -0.008730 0.016453 888498.000000 0 0 1
-30.986480 12.728765 31.460403 45.955852 -0.389769 0.816771 -0.011745 0.016893 -282629.000000 0 0 1
-30.398580 12.558565 30.175353 44.635671 -0.391774 0.828426 0.000462 0.010594 -220304.000000 0 0 1
-29.042280 12.892965 30.186063 43.827856 -0.417801 0.811045 0.021321 0.002822 685150.000000 0 0 1
-28.029080 11.681165 30.572823 43.090328 -0.394864 0.782000 0.022296 0.008258 406238.000000 0 0 1
-27.594680 10.954665 29.500023 41.853582 -0.377904 0.788601 0.020980 -0.004075 -279942.000000 0 0 1
-26.462480 10.227165 29.897123 41.215236 -0.368795 0.759195 0.025945 -0.002907 -469725.000000 0 0 1
-26.186580 9.011865 28.887633 40.018071 -0.331445 0.764303 0.020023 -0.004871 366958.000000 0 0 1
-26.979580 7.802165 28.964903 40.345224 -0.281508 0.769977 0.021733 -0.008345 302707.000000 0 0 1
-28.338680 8.011565 28.620503 41.065790 -0.275518 0.799671 0.020183 -0.008433 -267950.000000 0 0 1
-29.112180 6.688865 28.573113 41.336215 -0.225842 0.807597 0.022358 -0.005104 -314901.000000 0 0 1
-29.341380 6.052665 29.793513 42.251683 -0.203431 0.788170 0.018877 -0.007536 -76429.300000 0 0 1
-29.935980 4.799865 29.712403 42.450306 -0.158984 0.795492 0.016596 -0.000542 -329681.000000 0 0 1
-30.430580 4.324665 31.100873 43.726276 -0.141170 0.779503 0.005067 0.003577 -838188.000000 0 0 1
-31.623480 4.930265 31.403803 44.839166 -0.154660 0.794887 0.002264 0.002990 -926652.000000 0 0 1
-32.238780 4.520565 32.633603 46.094755 -0.139313 0.784180 0.004405 -0.004081 958352.000000 0 0 1
-33.704580 5.031165 32.855973 47.337366 -0.148178 0.803654 -0.008330 -0.005561 680423.000000 0 0 1
-33.885380 6.405265 32.955723 47.700378 -0.186823 0.808077 -0.007453 0.001393 58122.900000 0 0 1
34.885073 6.637065 33.192646 48.608340 0.188008 0.819127 -0.007716 0.013303 382270.000000 0 0 1
34.573473 8.133765 33.477583 48.808111 0.231059 0.814954 -0.011346 0.014424 -279515.000000 0 0 1
34.857173 8.481665 -34.253886 49.601309 0.238688 2.333093 -0.002699 0.010875 254995.000000 0 0 1
34.659973 9.837665 -33.949656 49.504268 0.276560 2.326488 -0.000353 0.015218 -155569.000000 0 0 1
34.659673 10.181065 -32.421126 48.539432 0.285707 2.302225 0.015937 0.001701 -448952.000000 0 0 1
33.492773 9.667965 -31.854476 47.222273 0.281019 2.311171 0.023012 0.004978 -120558.000000 0 0 1
33.436373 9.884265 -30.447786 46.289928 0.287428 2.288641 0.023150 0.007745 -19476.000000 0 0 1
32.134873 9.315665 -29.861996 44.846076 0.282158 2.299466 0.020819 0.010158 -169770.000000 0 0 1
32.264173 7.980965 -29.577616 44.491663 0.242495 2.298009 0.016139 0.004876 -285166.000000 0 0 1
31.035073 7.412265 -29.274826 43.302804 0.234443 2.313184 0.021354 0.000293 -912426.000000 0 0 1
34.276589 6.275165 -19.659876 40.009661 0.181069 2.084468 0.000811 -0.002341 -537124.000000 0 0 1
33.689976 7.478165 -19.140376 39.462532 0.218429 2.077190 -0.007753 0.009108 434120.000000 0 0 1
34.289686 8.695765 -19.574876 40.429873 0.248361 2.076209 -0.015471 -0.001065 -1331700.000000 0 0 1
-34.454757 8.969465 -19.118576 40.411651 -0.254673 2.063598 -0.012655 0.000607 -758631.000000 0 0 1
-33.425587 8.157965 -19.656676 39.625840 -0.239384 2.089848 0.003535 -0.011997 157876.000000 0 0 1
-32.903297 8.563165 -20.907376 39.913320 -0.254605 2.122125 -0.004527 -0.011921 -566712.000000 0 0 1
-32.437337 7.331065 -21.741976 39.732089 -0.222273 2.149829 -0.003951 -0.009911 -627101.000000 0 0 1
-33.512347 6.478365 -21.985276 40.600480 -0.190957 2.143020 0.000831 -0.001513 5475.090000 0 0 1
-34.159214 6.684165 -23.257676 41.862268 -0.193235 2.159852 0.002704 0.001581 156357.000000 0 0 1
-33.874147 5.558265 -24.309876 42.063312 -0.162636 2.186993 0.011940 0.004229 -114741.000000 0 0 1
-32.554737 5.420765 -24.790976 41.276968 -0.164998 2.215049 0.017655 0.000457 -81313.800000 0 0 1
-32.297017 4.209065 -25.593436 41.422669 -0.129593 2.236815 0.019085 -0.001507 -1000880.000000 0 0 1
-30.953367 4.202365 -26.242376 40.797464 -0.134939 2.269513 0.033652 -0.008464 58709.300000 0 0 1
-29.805557 3.997365 -25.361606 39.339055 -0.133319 2.271418 0.027859 -0.009303 1554830.000000 0 0 1
-28.631487 3.838665 -26.198146 38.997952 -0.133277 2.307409 0.026559 -0.006316 -70183.900000 0 0 1
-27.365177 4.313565 -25.548226 37.685164 -0.156343 2.315751 0.006051 -0.009109 -1009120.000000 0 0 1
-27.156427 5.692565 -25.593206 37.747702 -0.206629 2.315844 -0.013673 -0.001788 -79064.400000 0 0 1
-25.862107 6.026765 -25.168706 36.587351 -0.228949 2.329398 -0.000426 -0.001274 -363000.000000 0 0 1
-25.578427 7.509165 -25.269456 36.731307 -0.285551 2.329463 -0.011342 -0.003505 -188918.000000 0 0 1
-26.361417 8.279465 -24.362176 36.837338 -0.304319 2.293406 -0.020270 0.002689 61651.500000 0 0 1
-26.427097 9.671665 -24.668576 37.422870 -0.350835 2.290530 -0.034808 0.002474 -286540.000000 0 0 1
-25.159047 10.529965 -24.438676 36.621123 -0.396383 2.301425 0.002089 0.000998 -67914.600000 0 0 1
-24.898927 10.834865 -23.085276 35.640999 -0.410440 2.275380 -0.025949 0.009667 841108.000000 0 0 1
-23.522827 11.187665 -22.874276 34.665829 -0.443945 2.291417 0.017116 0.010640 496905.000000 0 0 1
-23.147027 11.603265 -21.366176 33.569839 -0.464675 2.260708 0.025757 -0.010374 -1093470.000000 0 0 1
-23.663527 12.844665 -20.861676 34.061084 -0.497302 2.229988 0.026425 -0.003570 520279.000000 0 0 1
-25.049427 13.126565 -20.873676 35.149550 -0.482684 2.206636 0.004228 0.007810 33088.800000 0 0 1
-26.016197 12.136865 -20.197676 35.101170 -0.436500 2.183906 -0.013870 0.016121 -694244.000000 0 0 1
-25.686687 11.986565 -18.834576 34.032703 -0.436609 2.157268 -0.013012 0.009695 200035.000000 0 0 1
-26.833677 11.486665 -18.204776 34.400633 -0.404467 2.128452 -0.009751 0.005422 -710672.000000 0 0 1
-26.797537 11.206965 -16.686176 33.498246 -0.396104 2.092227 0.021478 0.002036 431596.000000 0 0 1
-25.905437 10.180765 -16.167276 32.188825 -0.374455 2.097011 0.039130 -0.005945 1738480.000000 0 0 1
-24.494927 10.435565 -16.326076 31.232086 -0.402742 2.120851 0.032542 -0.000599 254153.000000 0 0 1
-23.651227 9.256265 -15.881876 29.954849 -0.373040 2.129625 0.028768 -0.000450 524000.000000 0 0 1
-22.238627 9.507765 -15.809476 28.894526 -0.404015 2.149745 0.032269 0.002670 1248840.000000 0 0 1
-21.457627 8.359065 -15.479676 27.747506 -0.371475 2.162621 0.035569 0.002227 618159.000000 0 0 1
-19.927327 8.657865 -15.412576 26.638402 -0.409866 2.187789 0.041833 -0.000761 481708.000000 0 0 1
-19.410327 8.847465 -16.733776 27.111947 -0.427677 2.235989 0.051307 -0.017191 390022.000000 0 0 1
-18.056027 9.272865 -16.736876 26.308347 -0.474437 2.260335 0.059953 -0.022297 -281430.000000 0 0 1
-17.611827 9.861665 -18.101376 27.112519 -0.510447 2.301829 0.044551 -0.010499 -247956.000000 0 0 1
-17.272827 8.970865 -19.150576 27.305156 -0.479018 2.348091 0.062997 -0.025062 945126.000000 0 0 1
-16.013527 8.300765 -18.953076 26.163999 -0.478227 2.380953 0.058159 -0.021725 177562.000000 0 0 1
-15.360327 7.630665 -20.212776 26.508923 -0.461066 2.437949 0.034015 -0.005733 310872.000000 0 0 1
-16.066727 6.503765 -20.719576 27.013691 -0.384635 2.444953 0.019417 -0.007778 651608.000000 0 0 1
-17.278527 6.848165 -21.422476 28.361370 -0.377347 2.426969 0.030622 -0.009020 691943.000000 0 0 1
-18.041327 5.608665 -21.947276 28.959101 -0.301407 2.430841 0.031907 -0.001074 -215458.000000 0 0 1
-18.746027 4.799065 -21.060176 28.600272 -0.250622 2.398475 0.065209 -0.002074 57621.900000 0 0 1
-19.485927 3.855965 -21.773176 29.472716 -0.195361 2.402021 0.031533 0.003777 57040.200000 0 0 1
-20.352827 2.905765 -20.864876 29.292048 -0.141811 2.363573 0.033382 0.000810 16373.800000 0 0 1
-21.107727 1.945365 -21.524776 30.209875 -0.091904 2.363862 0.030868 -0.005561 -3932.270000 0 0 1
-22.080927 1.493665 -20.599576 30.234763 -0.067542 2.320362 0.024017 -0.011440 -118181.000000 0 0 1
-22.868427 0.237265 -21.067876 31.094640 -0.010375 2.315210 0.019985 -0.008750 33142.800000 0 0 1
-22.135127 -1.000035 -21.072076 30.577709 0.045148 2.331087 0.014821 -0.009101 -41254.100000 0 0 1
-22.954227 -2.113935 -21.348576 31.418577 0.091834 2.317862 0.017494 -0.012740 -772026.000000 0 0 1
-23.308427 -2.310335 -22.807376 32.692458 0.098797 2.342886 0.019106 -0.018392 -564461.000000 0 0 1
-22.300527 -2.478335 -23.771576 32.688583 0.110679 2.385050 0.005155 -0.012095 -845843.000000 0 0 1
-21.523127 -3.594635 -23.595776 32.139182 0.165485 2.395247 0.005455 -0.019718 -1181610.000000 0 0 1
-20.332227 -3.589735 -24.536576 32.067573 0.174753 2.442074 0.010768 -0.009431 -664748.000000 0 0 1
-20.735127 -3.707235 -25.892016 33.377921 0.176921 2.458656 0.011692 -0.009784 255091.000000 0 0 1
-19.711827 -3.377435 -26.807286 33.445385 0.169693 2.500636 0.015688 -0.018816 -204395.000000 0 0 1
-20.206327 -3.417435 -28.255856 34.905127 0.167542 2.514104 0.008595 -0.015505 -10892.500000 0 0 1
-20.337327 -4.641735 -28.852476 35.603623 0.224394 2.515597 0.004860 0.003671 605068.000000 0 0 1
-21.434327 -4.712135 -29.762826 36.979189 0.216398 2.506225 -0.011529 0.000584 29604.100000 0 0 1
-21.394827 -6.021635 -30.643196 37.855042 0.274355 2.514076 0.002390 0.000449 -445889.000000 0 0 1
-20.224227 -5.984635 -31.411966 37.835788 0.287704 2.550296 -0.002219 0.002152 -178981.000000 0 0 1
-19.664227 -7.254435 -31.633056 37.946790 0.353426 2.556419 -0.007679 0.006649 -310102.000000 0 0 1
-18.287327 -7.156335 -32.312626 37.811973 0.373008 2.595501 0.003804 -0.007273 -418557.000000 0 0 1
-18.351127 -6.755835 -33.668796 38.935755 0.352745 2.615403 0.009213 -0.017440 337906.000000 0 0 1
-18.748227 -7.808635 -34.546333 40.073931 0.394649 2.610127 0.005093 -0.012111 -463315.000000 0 0 1
-18.574827 -7.466535 33.084013 38.669436 0.382204 0.544165 0.015513 -0.015554 888168.000000 0 0 1
-17.260427 -7.162835 32.553153 37.535800 0.393358 0.521132 0.021303 -0.018408 1038460.000000 0 0 1
-16.743727 -5.876035 32.797833 37.290455 0.337512 0.495936 0.029055 -0.026163 -362717.000000 0 0 1
-15.378627 -5.599835 32.169763 36.093683 0.349208 0.470625 0.031726 -0.025183 -217949.000000 0 0 1
-15.495827 -5.409335 30.762523 34.867096 0.335858 0.490113 0.019441 -0.019944 -70795.700000 0 0 1
-14.303927 -4.942235 30.192473 33.772969 0.332675 0.464639 0.022100 -0.014232 -247994.000000 0 0 1
-14.343527 -4.988835 28.658403 32.433460 0.334723 0.487288 0.014466 -0.003171 29608.900000 0 0 1
-15.360227 -4.174535 28.135763 32.326220 0.265366 0.514844 0.005420 -0.007880 -53288.900000 0 0 1
-15.910527 -4.489135 26.866443 31.545253 0.275000 0.551615 0.011959 -0.006830 82005.100000 0 0 1
-15.012327 -4.060835 25.641453 29.989072 0.264178 0.545194 0.006520 -0.000430 460566.000000 0 0 1
-15.009227 -2.630835 25.469073 29.679486 0.173519 0.539166 0.006987 0.005843 -41925.700000 0 0 1
-14.092027 -2.251535 24.470773 28.327961 0.158435 0.527957 -0.000381 0.011522 21829.100000 0 0 1
-13.690627 -0.781735 24.538533 28.110211 0.057038 0.509599 0.010278 0.008423 520016.000000 0 0 1
-14.751327 -0.067435 23.891053 28.078259 0.004571 0.553150 0.013095 0.001608 635653.000000 0 0 1
-15.024727 1.244565 24.367703 28.654429 -0.082646 0.554053 0.002800 0.005472 -361012.000000 0 0 1
-15.864527 2.106865 23.432253 28.375915 -0.132031 0.599213 0.010622 0.002024 -805865.000000 0 0 1
-15.181827 2.837365 22.490353 27.282861 -0.184761 0.601761 0.006895 0.009907 -247069.000000 0 0 1
-15.963827 3.731165 21.717753 27.210773 -0.229604 0.646610 -0.005047 0.009761 -75778.500000 0 0 1
-15.071227 4.493165 20.691453 25.989741 -0.289739 0.649908 -0.000459 0.009679 339212.000000 0 0 1
-14.135927 5.343265 21.358553 26.164149 -0.361391 0.615770 0.003743 0.014405 151996.000000 0 0 1
-13.042627 5.469665 20.476853 24.886319 -0.397091 0.604448 0.002031 0.011561 -119279.000000 0 1 0
-12.013127 6.565165 20.790953 24.893379 -0.500152 0.582300 -0.002172 0.008613 63025.900000 0 1 0
-12.405827 7.884765 20.413753 25.155424 -0.566164 0.624073 0.003118 0.008399 -101816.000000 0 0 1
-11.427927 8.806965 20.804853 25.318018 -0.656588 0.606337 0.003241 0.009840 -230809.000000 0 0 1
-11.845927 10.307765 20.864553 26.113322 -0.716078 0.645165 -0.000456 0.017165 -184755.000000 0 0 1
-12.053927 10.898165 19.583553 25.447646 -0.735085 0.692641 -0.008097 0.014810 428665.000000 0 0 1
-12.755927 12.132465 19.678753 26.403857 -0.760353 0.729814 -0.012393 0.016236 -213464.000000 0 0 1
-13.181027 12.800365 18.357053 25.972489 -0.770748 0.785848 -0.012076 0.020330 -205939.000000 0 0 1
-12.175427 13.540665 17.706253 25.398858 -0.838437 0.799413 -0.003403 0.016908 91314.300000 0 0 1
-11.892327 14.834965 18.249853 26.354520 -0.895055 0.805882 -0.003730 0.011879 -177239.000000 0 0 1
-12.813227 15.991665 17.732553 27.098995 -0.895297 0.857458 -0.005181 0.013229 133730.000000 0 0 1
-12.701727 16.376165 16.361053 26.404482 -0.911097 0.902523 0.001398 0.001070 52746.800000 0 0 1
-13.257727 15.384565 15.521753 25.561239 -0.859517 0.918217 0.009243 0.008881 -470656.000000 0 0 1
-13.635227 15.709465 14.070253 25.113317 -0.855966 0.976084 0.012448 -0.002700 336402.000000 0 0 1
-14.693127 16.674765 13.964853 26.247912 -0.848488 1.009792 0.014665 -0.004869 184075.000000 0 0 1
-15.086727 16.941565 12.694853 25.995869 -0.843246 1.060609 0.006085 -0.011945 256224.000000 0 0 1
-16.064927 18.164765 12.625653 27.339489 -0.846667 1.090761 0.023697 -0.017826 40942.700000 0 0 1
-17.351727 17.902165 13.100253 28.163568 -0.801010 1.086994 0.032853 -0.018414 20117.800000 0 0 1
-18.242927 19.031265 13.215253 29.489597 -0.806545 1.106121 0.038986 -0.026284 881192.000000 0 0 1
-19.705227 18.612565 13.535553 30.297438 -0.756890 1.107661 0.029465 -0.012676 630834.000000 0 0 1
-20.362827 18.009065 12.396753 29.877259 -0.724134 1.142938 0.021085 -0.012397 -413087.000000 0 0 1
-21.702827 17.743065 12.689953 30.771154 -0.685349 1.145712 0.030805 -0.006320 -272153.000000 0 0 1
-22.473227 17.095965 11.537753 30.503076 -0.650330 1.182892 0.011445 -0.003277 -26163.500000 0 0 1
-21.893627 15.848165 11.215353 29.262251 -0.626568 1.177462 0.019261 0.008993 537928.000000 0 0 1
-22.541027 15.395465 10.010153 29.074411 -0.599224 1.219309 0.002918 0.001766 96703.000000 0 0 1
-21.933927 14.052965 9.537153 27.740588 -0.569806 1.219838 0.017731 0.014211 -365820.000000 0 0 1
-22.086927 12.922165 10.388653 27.617726 -0.529361 1.185149 0.008658 0.012252 1232870.000000 0 0 1
-23.387627 12.258665 10.486153 28.411536 -0.482782 1.192777 0.007876 0.001584 1527790.000000 0 0 1
-24.052427 11.621265 9.218953 28.258841 -0.450088 1.238481 0.003056 0.004010 -65489.200000 0 0 1
-24.476027 12.557565 8.234953 28.715549 -0.474038 1.279936 0.011969 0.003660 81941.000000 0 0 1
-25.140457 11.844365 7.219453 28.713273 -0.440284 1.316636 0.007923 0.000288 -689472.000000 0 0 1
-25.181717 12.612165 5.859453 28.766626 -0.464324 1.365672 0.002135 -0.001643 286136.000000 0 0 1
-23.919027 12.756665 5.211853 27.604633 -0.489952 1.380853 0.004744 -0.007667 1995840.000000 0 0 1
-22.810027 13.501665 5.814653 27.136736 -0.534456 1.354849 0.012896 -0.016065 743266.000000 0 0 1
-23.116127 14.994865 5.838053 28.165300 -0.575444 1.362004 -0.004588 -0.011610 -396974.000000 0 0 1
-21.967327 15.647065 6.358553 27.709660 -0.618925 1.339263 -0.027403 -0.006745 554525.000000 0 0 1
-22.161327 16.994665 6.453453 28.663393 -0.654205 1.343703 -0.014553 -0.010515 -1036990.000000 0 0 1
-20.902027 17.811165 6.553753 28.232676 -0.705727 1.336526 -0.012869 -0.015808 -706025.000000 0 0 1
-20.256127 17.992465 5.300153 27.606722 -0.726284 1.377609 -0.014706 -0.023367 -162049.000000 0 0 1
-18.975427 18.526965 5.430053 27.070292 -0.773441 1.368835 -0.012263 -0.020628 -442931.000000 0 0 1
-18.456127 19.190265 4.091053 26.937550 -0.804897 1.418335 0.003850 -0.022794 17810.300000 0 0 1
-17.056327 19.415965 4.195853 26.182115 -0.850005 1.409846 -0.000438 -0.026602 361519.000000 0 0 1
-16.641727 20.425165 3.275553 26.549269 -0.887116 1.447105 0.013596 -0.023350 -217546.000000 0 0 1
-16.888327 21.856965 3.901653 27.895616 -0.912941 1.430470 0.014165 -0.020380 -550083.000000 0 0 1
-16.143627 22.209065 5.044553 27.916066 -0.942248 1.389094 0.020064 -0.015274 86022.000000 0 0 1
-16.412327 23.532165 5.559053 29.223797 -0.961789 1.379407 0.012876 -0.012553 -397106.000000 0 0 1
-15.731727 23.823265 6.903453 29.371633 -0.987179 1.333539 0.012935 -0.002694 -51637.500000 0 0 1
-16.328227 23.162865 8.038253 29.457474 -0.956768 1.294415 0.010351 -0.005039 508909.000000 0 0 1
-15.561427 23.402365 9.204653 29.572864 -0.983982 1.254285 0.010502 -0.005409 109316.000000 0 0 1
-16.211727 22.767465 10.461753 29.843354 -0.952024 1.212632 0.006752 -0.004158 636492.000000 0 0 1
-17.349427 23.503865 10.920053 31.187847 -0.934921 1.213078 0.003757 -0.003898 811308.000000 0 0 1
-18.448527 22.645465 11.276053 31.309976 -0.887175 1.202376 0.012036 -0.013713 1206100.000000 0 0 1
-19.706927 23.336565 11.916053 32.786438 -0.869524 1.198834 0.017982 -0.018439 582174.000000 0 0 1
-20.525227 24.149165 11.087353 33.576725 -0.866340 1.234271 0.011288 -0.010655 329814.000000 0 0 1
-19.883327 25.340465 10.566353 33.898874 -0.905487 1.253812 -0.000022 -0.007374 -222605.000000 0 0 1
-20.862627 26.435665 10.121353 35.164405 -0.902685 1.278837 -0.000123 -0.002574 11883.000000 0 0 1
-21.585227 26.935365 11.231653 36.298566 -0.895220 1.256209 -0.000629 -0.015403 590006.000000 0 0 1
-22.662327 27.823565 10.863953 37.493430 -0.887276 1.276824 0.002707 -0.005779 133337.000000 0 0 1
-23.493127 28.156665 12.086053 38.610846 -0.875445 1.252423 -0.002612 -0.019758 -779986.000000 0 0 1
-22.869227 28.987165 13.003153 39.145105 -0.902834 1.232184 0.011658 -0.005382 185746.000000 0 0 1
-23.748227 29.315365 14.066853 40.264690 -0.889930 1.213909 0.008422 -0.002294 -82742.600000 0 0 1
8.453373 -32.710309 27.966663 43.858386 -1.317898 0.879342 -0.007176 -0.008602 -280225.000000 0 0 1
9.785373 -33.114709 27.781153 44.318505 -1.283474 0.893290 -0.017253 -0.003976 -137471.000000 0 0 1
10.235373 -32.694409 26.532743 43.332132 -1.267400 0.911816 -0.001246 -0.009918 -216329.000000 0 0 1
11.718873 -33.050609 26.318273 43.844341 -1.230053 0.926963 -0.021520 -0.003533 -288042.000000 0 0 1
11.961673 -34.441209 26.175933 44.882713 -1.236523 0.948125 -0.009457 -0.005053 87349.100000 0 0 1
13.340773 -34.500609 25.875983 45.142383 -1.201823 0.960381 0.018376 -0.008282 -385170.000000 0 0 1
13.979873 33.453465 25.643773 44.409168 1.174963 0.955203 0.048581 -0.002297 -145793.000000 0 0 1
13.893173 32.826265 24.399163 43.196100 1.170423 0.970549 0.036667 -0.015052 -152661.000000 0 0 1
14.891373 31.865665 24.272563 42.735593 1.133635 0.966758 0.051503 -0.017801 -735765.000000 0 0 1
15.198273 31.432565 22.816253 41.708213 1.120419 0.991967 0.048851 -0.026046 -584567.000000 0 0 1
14.242973 30.679065 22.128153 40.419332 1.136150 0.991465 0.029554 -0.012539 -394328.000000 0 0 1
14.195473 29.248565 22.359153 39.457847 1.118946 0.968351 0.028487 -0.009535 260840.000000 0 0 1
13.414973 28.728065 23.630553 39.543220 1.133925 0.930307 0.042348 -0.010557 -191405.000000 0 0 1
14.203373 29.006565 24.733833 40.680205 1.115454 0.917249 0.054654 -0.018020 -92841.900000 0 0 1
13.516373 28.745565 25.935153 41.007706 1.131266 0.886090 0.050736 -0.013141 -172605.000000 0 0 1
14.428073 28.903365 27.179153 42.217060 1.107802 0.871348 0.051405 -0.022073 165938.000000 0 0 1
14.500673 30.243665 27.650623 43.468445 1.123714 0.881353 0.049241 -0.014211 -299067.000000 0 0 1
15.464473 30.396565 28.623243 44.524051 1.100167 0.872555 0.083223 -0.023089 -445644.000000 0 0 1
15.428473 31.802165 29.198933 45.847499 1.119108 0.880364 0.083668 -0.028853 8037.340000 0 0 1
16.145773 32.795265 28.500603 46.351912 1.113311 0.908570 0.075914 -0.024150 34613.700000 0 0 1
15.852073 34.098265 28.979773 47.474278 1.135626 0.914192 0.087658 -0.012029 -88987.200000 0 0 1
16.593073 -34.160909 28.202133 47.303891 -1.118628 0.932049 0.083380 -0.024613 -320875.000000 0 0 1
16.266373 -34.072709 26.806283 46.304656 -1.125390 0.953404 0.087028 -0.022848 -349741.000000 0 0 1
16.519473 -32.803309 26.149623 45.086060 -1.104280 0.952076 0.061833 -0.022346 -1015550.000000 0 0 1
17.945273 -32.326509 25.936203 45.163288 -1.064026 0.959077 0.047932 -0.012001 -911449.000000 0 0 1
18.579473 -31.741409 27.003903 45.628112 -1.041227 0.937474 0.027149 -0.013837 44144.900000 0 0 1
19.833773 -31.192909 26.610223 45.546461 -1.004438 0.946849 0.029501 -0.016383 384947.000000 0 0 1
20.461273 -30.384909 27.796453 45.984227 -0.978145 0.921686 0.037308 -0.016290 104694.000000 0 0 1
19.514273 -29.378609 28.147983 45.124477 -0.984480 0.897220 0.023747 -0.010107 359470.000000 0 0 1
19.870173 -28.617709 29.250663 45.490640 -0.963885 0.872382 0.033426 -0.006940 -159437.000000 0 0 1
18.657673 -27.997109 30.008043 45.082475 -0.982968 0.842465 0.001716 -0.009621 678312.000000 0 0 1
17.905573 -27.031109 29.231083 43.654858 -0.985749 0.837133 0.018009 -0.011095 173908.000000 0 0 1
16.708873 -26.732409 29.906973 43.453828 -1.012167 0.811726 -0.002658 -0.011136 65.162700 0 0 1
15.636173 -26.002409 29.045133 42.002797 -1.029395 0.807226 -0.001704 0.010184 -567960.000000 0 0 1
15.213173 -26.874409 27.947513 41.650186 -1.055688 0.835232 -0.004987 0.004790 417106.000000 0 0 1
14.436073 -26.124709 26.989013 40.240619 -1.065972 0.835657 -0.005954 -0.012837 1014690.000000 0 0 1
12.989473 -25.588109 27.434473 39.700479 -1.101058 0.807875 -0.002445 0.001777 969081.000000 0 0 1
11.983773 -26.582909 27.518943 40.094315 -1.147271 0.814331 0.000379 0.001385 275685.000000 0 0 1
11.527273 -27.015009 26.220953 39.372923 -1.167488 0.842011 0.002531 0.002375 -832674.000000 0 0 1
10.636573 -28.258609 26.265413 40.019465 -1.210798 0.854871 0.008501 0.002188 486679.000000 0 0 1
9.258173 -28.032009 26.585523 39.727790 -1.251804 0.837675 -0.012057 -0.002818 784378.000000 0 0 1
8.580873 -29.294009 26.654673 40.524584 -1.285845 0.852981 -0.008447 -0.006258 -158461.000000 0 0 1
7.069273 -29.309209 26.936833 40.430153 -1.334120 0.841619 -0.001087 -0.003787 544138.000000 0 0 1
6.119873 -29.007509 25.869883 39.346401 -1.362870 0.853313 0.010344 -0.006054 607703.000000 0 0 1
6.201473 -27.721709 25.202383 37.975143 -1.350715 0.845102 0.009313 -0.008527 -672893.000000 0 0 1
4.951173 -27.345309 24.355863 36.952511 -1.391676 0.851158 0.026737 -0.010393 -105792.000000 0 0 1
4.577373 -28.178109 23.255253 36.820714 -1.409759 0.887206 0.016143 -0.004259 148131.000000 0 0 1
4.024473 -29.468209 23.566553 37.946728 -1.435066 0.900723 0.019154 0.002236 -435994.000000 0 0 1
2.620773 -29.538909 24.192923 38.271570 -1.482305 0.886487 -0.003914 0.001970 -768038.000000 0 0 1
1.566573 -29.302409 23.281353 37.458066 -1.517385 0.900101 -0.013782 0.011414 -79468.800000 0 0 1
0.450973 -28.743709 23.950353 37.416889 -1.555108 0.876175 -0.016403 -0.001906 -5814.180000 0 0 1
0.433473 -27.216509 24.163343 36.397711 -1.554871 0.844815 -0.009406 -0.001990 -829777.000000 0 0 1
1.208973 -26.703709 25.175373 36.719873 -1.525554 0.815360 0.003572 -0.006418 -373928.000000 0 0 1
1.082373 -25.346309 25.336233 35.854311 -1.528119 0.786052 0.013194 -0.015362 -1032530.000000 0 0 1
2.218673 -24.725909 26.119753 36.035185 -1.481305 0.759994 0.018108 -0.011584 -873884.000000 0 0 1
3.444273 -24.705409 25.387483 35.591355 -1.432275 0.776594 0.007486 -0.011323 -140890.000000 0 0 1
4.501473 -24.063309 26.013223 35.721056 -1.385866 0.755057 0.009313 -0.008375 -210272.000000 0 0 1
4.375673 -22.585009 26.331543 34.965401 -1.379425 0.718074 0.012198 -0.005561 -905474.000000 0 0 1
4.144373 -21.830109 25.154803 33.563277 -1.383182 0.723529 0.008274 -0.012400 176211.000000 0 0 1
3.864873 -20.475309 25.509833 32.938231 -1.384234 0.684912 0.009907 -0.015871 -198219.000000 0 0 1
3.835273 -19.573609 24.225213 31.379873 -1.377307 0.688817 0.000207 -0.013382 -92710.600000 0 0 1
5.074673 -19.123109 23.740553 30.904036 -1.311406 0.694768 0.003331 -0.001854 -319120.000000 0 0 1
4.908273 -18.294209 22.636153 29.515498 -1.308673 0.696762 0.005531 0.000048 170676.000000 0 0 1
6.264573 -17.731709 22.161353 29.065167 -1.231187 0.703672 0.010285 0.002733 368653.000000 0 0 1
7.178273 -18.783209 21.787953 29.648802 -1.205759 0.745324 0.016156 -0.000882 534932.000000 0 0 1
8.473173 -18.252509 21.484853 29.437181 -1.136180 0.752688 0.014789 0.004226 580981.000000 0 0 1
9.502973 -18.514409 22.586953 30.712543 -1.096586 0.744494 0.000819 0.004345 -490143.000000 0 0 1
9.384073 -17.595409 23.625353 30.916283 -1.080845 0.701040 0.000795 0.013666 691111.000000 0 0 1
10.426573 -17.797409 24.617773 32.116910 -1.040848 0.697415 -0.009756 0.019564 651328.000000 0 0 1
10.425773 -16.797809 25.747503 32.462240 -1.015322 0.654829 -0.008516 0.006069 -246785.000000 0 0 1
10.721273 -15.389209 25.554523 31.698692 -0.962306 0.633147 0.001743 0.013698 149016.000000 0 0 1
10.627773 -14.551809 26.703993 32.215027 -0.939997 0.593605 -0.004561 0.009190 -219857.000000 0 0 1
11.010573 -13.099209 26.542293 31.580299 -0.871813 0.572646 0.008917 0.008509 -171253.000000 0 0 1
9.928073 -12.278809 26.167743 30.562830 -0.890862 0.542937 0.009919 0.014483 52953.100000 0 0 1
10.316173 -10.945809 26.104373 30.127603 -0.815003 0.522728 0.019848 0.018967 -290161.000000 0 0 1
9.322273 -10.054809 25.355613 28.825528 -0.823184 0.495726 0.016578 0.019891 -388178.000000 0 0 1
8.156773 -9.800309 26.095533 29.044033 -0.876670 0.454498 -0.006381 0.015817 211800.000000 0 0 1
7.180773 -9.135409 25.252383 27.797519 -0.904627 0.431259 -0.003521 0.014779 385145.000000 0 0 1
5.718673 -9.252609 25.680193 27.888820 -1.017203 0.400654 -0.012655 0.014256 -1380350.000000 0 0 1
5.279773 -8.244309 26.644893 28.386528 -1.001189 0.352114 -0.007001 0.014844 803602.000000 0 0 1
3.865973 -8.269809 26.887103 28.394573 -1.133501 0.327312 -0.024547 0.009263 1368400.000000 0 0 1
2.863773 -8.237509 25.689943 27.129890 -1.236216 0.327268 -0.023655 0.007202 -861902.000000 0 0 1
2.946873 -7.039909 24.924873 26.067099 -1.174363 0.297128 -0.011955 0.007481 -146178.000000 0 0 1
1.826873 -6.921009 24.077203 25.118709 -1.312722 0.288974 -0.001341 -0.006172 -34256.900000 0 0 1
1.817773 -5.654309 23.250353 23.996967 -1.259747 0.250102 0.001342 -0.014823 -270781.000000 0 1 0
1.568673 -4.507409 24.025153 24.494600 -1.235886 0.196096 0.009783 -0.007481 -38364.700000 0 1 0
2.122673 -3.371009 23.389553 23.726370 -1.008835 0.168699 0.008799 -0.009013 -826678.000000 0 1 0
1.243673 -2.689009 22.321053 22.516814 -1.137594 0.131959 0.016789 -0.012906 339590.000000 0 1 0
0.328373 -1.729009 22.836753 22.904466 -1.383112 0.076913 0.031104 -0.009412 94536.300000 0 1 0
-0.843027 -2.224009 23.448253 23.568570 1.208473 0.101087 0.031724 -0.010375 -618787.000000 0 1 0
-1.766927 -1.260009 24.158503 24.255781 0.619469 0.089590 0.040997 -0.007113 -271035.000000 0 1 0
-1.223527 -0.629009 25.318823 25.356172 0.474860 0.054283 0.039974 -0.003292 48040.100000 0 0 1
-1.950527 0.519991 25.767643 25.846593 -0.260531 0.078181 0.041027 -0.004154 -323071.000000 0 0 1
-1.311727 1.242991 26.980333 27.040784 -0.758499 0.066879 0.033255 -0.007091 -284717.000000 0 0 1
-1.525327 0.567991 28.236753 28.283625 -0.356466 0.057579 0.032155 -0.005181 565649.000000 0 0 1
-0.678927 -0.595009 28.518063 28.532348 0.719620 0.031645 0.033686 -0.002925 385899.000000 0 0 1
0.652173 -0.237009 29.272563 29.280786 -0.348575 0.023700 0.026344 -0.006558 69994.000000 0 0 1
1.671173 0.401991 28.533043 28.584768 0.236060 0.060168 0.023853 0.001426 90579.600000 0 0 1
2.298673 -0.313009 27.462133 27.559946 -0.135337 0.084276 0.016108 0.000939 -273579.000000 0 0 1
3.289773 -1.375009 27.977783 28.204070 -0.395897 0.126759 0.002313 -0.001845 -580304.000000 0 0 1
2.578373 -2.459009 28.545713 28.767211 -0.761707 0.124174 0.001477 0.000264 -36712.700000 0 0 1
3.451073 -3.441009 29.101423 29.506665 -0.783938 0.165924 -0.009390 0.011306 294118.000000 0 0 1
3.947773 -4.532109 28.126353 28.761374 -0.854198 0.210526 -0.009023 0.011237 -66849.100000 0 0 1
4.927973 -4.004009 27.290013 28.018954 -0.682320 0.228603 0.000865 0.001718 -597132.000000 0 0 1
5.194173 -4.786909 26.117753 27.056070 -0.744617 0.264132 -0.001485 0.006921 -1089370.000000 0 0 1
6.263673 -4.093009 25.296203 26.379617 -0.578798 0.287591 0.001616 0.006664 1058410.000000 0 0 1
7.596873 -3.977009 25.887893 27.271085 -0.482275 0.319859 -0.000771 0.007356 1419600.000000 0 0 1
8.292573 -5.215009 26.041743 27.823290 -0.561382 0.359794 -0.001710 0.011319 -317519.000000 0 0 1
9.151273 -5.644609 24.791483 27.022676 -0.552689 0.409217 0.004131 0.005062 103617.000000 0 0 1
8.341373 -5.950509 23.653853 25.777739 -0.619645 0.408777 0.003491 0.008852 313722.000000 0 0 1
9.085173 -5.810009 22.425553 24.883770 -0.568962 0.448238 0.009694 0.007197 365768.000000 0 1 0
9.259073 -4.374809 21.830053 24.112665 -0.441397 0.438627 0.006995 0.010858 944316.000000 0 1 0
7.995773 -3.751009 21.521853 23.263547 -0.438643 0.389413 0.002595 0.006906 424646.000000 0 1 0
8.113773 -2.737009 20.498353 22.215018 -0.325342 0.395705 0.002742 0.000694 64199.300000 0 1 0
6.765773 -2.044009 20.220253 21.419904 -0.293392 0.336265 -0.001266 0.000062 15607.800000 0 1 0
6.359773 -1.313009 21.342253 22.308350 -0.203595 0.295373 0.003600 0.000312 -466432.000000 0 1 0
5.094273 -0.733009 21.145553 21.762889 -0.142908 0.238753 -0.005403 0.006471 -161194.000000 0 1 0
4.561073 -0.317009 22.533653 22.992812 -0.069392 0.200182 -0.008524 0.004887 550412.000000 0 1 0
3.205773 0.149991 22.514153 22.741736 0.046754 0.141591 -0.004650 0.004050 548130.000000 0 1 0
2.759873 0.638991 23.771253 23.939458 0.227520 0.118613 0.006444 0.004389 285216.000000 0 1 0
1.293773 1.128991 23.858153 23.919865 0.717489 0.071848 0.010778 0.003144 -102814.000000 0 1 0
1.038073 2.377991 23.286153 23.430266 1.159197 0.110969 0.015548 -0.001103 -1031590.000000 0 1 0
-0.315827 2.578991 23.198153 23.343205 -1.448942 0.111538 0.015521 -0.002264 -1120590.000000 0 1 0
-0.732727 3.973991 22.660353 23.017843 -1.388464 0.176473 0.020938 -0.005927 -84069.100000 0 1 0
-0.593727 5.064991 23.534153 24.080345 -1.454107 0.213393 0.021471 -0.006412 -126061.000000 0 1 0
-1.608927 5.998991 23.287653 24.101687 -1.308763 0.260641 0.024983 -0.005549 -177127.000000 0 1 0
-1.362727 7.303991 23.979653 25.104363 -1.386344 0.300466 0.031059 -0.007154 -465055.000000 0 0 1
-0.360327 8.104991 23.479253 24.841418 -1.526368 0.332695 0.026211 -0.009667 -451541.000000 0 1 0
-0.310227 9.331991 24.110003 25.854875 -1.537565 0.369487 0.038777 -0.002399 -307695.000000 0 0 1
0.491673 10.516991 23.470453 25.723744 1.524080 0.421676 0.047404 -0.007325 379630.000000 0 0 1
1.898473 10.440991 23.424953 25.716666 1.390933 0.425370 0.039931 -0.007559 -104194.000000 0 0 1
2.522573 10.792991 24.666123 27.041998 1.341195 0.422318 0.049061 -0.005572 491972.000000 0 0 1
3.851873 11.635991 24.449523 27.349815 1.251119 0.464701 0.042674 -0.007346 1345210.000000 0 0 1
5.044673 11.023991 23.954853 26.847944 1.141633 0.468511 0.031299 -0.004476 600526.000000 0 0 1
4.943473 10.545991 22.639353 25.459697 1.132457 0.475152 0.033689 -0.008906 -895123.000000 0 0 1
6.263973 10.045991 22.030253 25.009825 1.013255 0.493112 0.031414 -0.007028 117918.000000 0 0 1
7.123073 11.123991 21.688653 25.394468 1.001246 0.547036 0.025271 -0.010747 583312.000000 0 0 1
8.434773 10.698991 21.312853 25.295286 0.903187 0.568773 0.021880 -0.002146 675372.000000 0 0 1
9.301873 11.833991 20.761753 25.644075 0.904632 0.627305 0.014850 -0.009105 -491300.000000 0 0 1
8.741273 12.306991 19.527453 24.681842 0.953212 0.658082 0.013485 -0.007796 509812.000000 0 1 0
9.557273 13.275991 18.866753 24.970939 0.946845 0.714305 0.017362 -0.010190 456259.000000 0 1 0
10.964473 12.830991 18.363853 24.941634 0.863678 0.743250 0.011549 -0.006413 -200135.000000 0 1 0
11.868873 12.834991 19.418253 26.128063 0.824486 0.732963 0.022025 -0.006454 -247428.000000 0 0 1
13.146373 12.384991 18.963253 26.188167 0.755586 0.761046 0.030377 -0.006877 354330.000000 0 0 1
14.217473 12.140991 20.025153 27.396112 0.706782 0.751085 0.036742 0.001633 -67103.000000 0 0 1
14.707273 13.353991 20.609953 28.625218 0.737210 0.767004 0.028066 -0.002099 115765.000000 0 0 1
15.776173 13.031991 21.487953 29.672421 0.690428 0.760963 0.021444 0.000940 236152.000000 0 0 1
16.459473 14.288991 22.060353 31.012073 0.714927 0.779383 0.016928 0.004655 211389.000000 0 0 1
15.695173 14.956991 23.069453 31.658327 0.761320 0.754373 0.014139 0.000324 109578.000000 0 0 1
16.372073 16.090991 23.393953 32.775628 0.776740 0.775943 0.013192 0.004775 -352040.000000 0 0 1
-20.151927 12.980665 -24.759576 34.462072 -0.572245 2.372380 -0.009201 0.001791 -295881.000000 0 0 1
-20.280627 12.755465 -26.144306 35.461676 -0.561433 2.399795 -0.003248 -0.021125 -27133.500000 0 0 1
-21.095427 13.715065 -26.768806 36.738114 -0.576476 2.387128 0.003567 -0.020807 -162241.000000 0 0 1
-20.975127 13.730065 -28.337396 37.834887 -0.579594 2.417311 0.014230 -0.010847 316734.000000 0 0 1
-19.691227 14.193165 -28.730206 37.611369 -0.624541 2.440085 0.018837 -0.002032 151262.000000 0 0 1
-19.722727 14.399265 -30.116556 38.772822 -0.630633 2.460276 0.012749 -0.001912 537141.000000 0 0 1
-18.374427 14.949065 -30.699546 38.775717 -0.682967 2.484417 -0.003792 -0.004512 535112.000000 0 0 1
-17.346527 13.959565 -30.674186 37.903524 -0.677629 2.513705 -0.010724 -0.008158 676892.000000 0 0 1
-16.065927 14.618965 -30.724946 37.627788 -0.738278 2.526204 -0.016304 0.001468 1216700.000000 0 0 1
-15.089927 14.330365 -29.532546 36.128057 -0.759586 2.527750 0.003541 -0.000494 146499.000000 0 0 1
-15.727027 14.659965 -28.321356 35.557744 -0.750297 2.492263 -0.004992 -0.006020 26108.500000 0 0 1
-16.269727 13.579865 -27.618686 34.812477 -0.695527 2.487098 0.013226 -0.005893 459360.000000 0 0 1
-17.082027 13.942765 -26.285446 34.309197 -0.684556 2.443600 0.012788 -0.005749 141440.000000 0 0 1
-16.205127 14.362265 -25.258126 33.269411 -0.725183 2.432879 0.044332 -0.019435 142622.000000 0 0 1
-16.904527 14.975465 -24.207876 33.106628 -0.724962 2.390889 0.034571 -0.017882 -86146.900000 0 0 1
-15.985827 15.580165 -23.105976 32.127470 -0.772548 2.373442 0.032231 -0.013485 284315.000000 0 0 1
-15.309727 16.739165 -23.543876 32.694059 -0.829970 2.374782 0.013983 -0.011486 -223320.000000 0 0 1
-14.646527 17.412565 -22.513476 32.008979 -0.871464 2.350894 0.014997 -0.001435 -505339.000000 0 0 1
-14.454227 18.919065 -22.854576 33.002838 -0.918393 2.335750 0.014635 -0.005744 -3858.020000 0 0 1
-15.633627 19.685565 -22.907576 34.010128 -0.899622 2.309800 -0.004206 -0.004030 -67865.000000 0 0 1
-16.460327 19.454965 -24.017276 35.018103 -0.868586 2.326572 -0.013195 0.000387 -765893.000000 0 0 1
-17.686927 20.357165 -24.053776 36.136210 -0.855471 2.299150 -0.009160 -0.002551 -604571.000000 0 0 1
-17.333527 21.668165 -24.360076 36.923892 -0.896084 2.291266 -0.011268 -0.000723 406204.000000 0 0 1
-18.450927 22.538365 -24.599676 38.125564 -0.884789 2.272118 0.012821 -0.007505 536221.000000 0 0 1
-17.920127 23.958465 -24.754576 38.832049 -0.928598 2.262017 0.004787 -0.014962 103707.000000 0 0 1
-17.704427 24.593165 -23.507076 38.351703 -0.946844 2.230565 0.010990 -0.009405 -276995.000000 0 0 1
-16.958727 25.779065 -23.673776 38.892239 -0.988923 2.225220 0.008619 -0.003091 -410307.000000 0 0 1
-15.961327 25.992265 -22.500376 37.902885 -1.020088 2.206361 0.010519 -0.010445 -69046.600000 0 0 1
-14.926627 25.008765 -22.512076 36.810815 -1.032692 2.228829 0.015395 -0.025028 106688.000000 0 0 1
-15.262627 23.688965 -22.009576 35.756625 -0.998444 2.233865 0.004724 -0.005188 -797562.000000 0 0 1
-14.062227 22.711365 -21.988076 34.598090 -1.016399 2.259489 0.014354 -0.011933 301688.000000 0 0 1
-13.139027 23.032665 -20.966176 33.804115 -1.052387 2.239827 0.016672 -0.017233 52415.500000 0 0 1
-12.230727 21.990465 -20.650376 32.551640 -1.063218 2.258013 0.012734 -0.016665 230226.000000 0 0 1
-11.431627 22.303265 -19.325076 31.647690 -1.097156 2.227654 0.019849 -0.017419 261532.000000 0 0 1
-12.244727 22.202865 -18.164276 31.190407 -1.066807 2.192434 0.016684 -0.011915 238390.000000 0 0 1
-13.223927 23.207965 -18.020776 32.221580 -1.052878 2.164309 0.014862 -0.014423 -268901.000000 0 0 1
-14.002927 23.072265 -16.693876 31.734789 -1.025307 2.124738 0.022532 -0.015021 -93303.400000 0 0 1
-13.306127 23.510165 -15.513976 31.152276 -1.055772 2.092093 0.023052 -0.031548 -75441.700000 0 0 1
-14.102827 23.621965 -14.347476 31.028004 -1.032570 2.051501 0.014610 -0.019867 -141802.000000 0 0 1
-13.375927 24.024365 -13.037376 30.431212 -1.062774 2.013541 0.013795 -0.017293 -187971.000000 0 0 1
-12.766227 25.295065 -13.003676 31.175510 -1.103402 2.001062 0.020125 -0.024197 308862.000000 0 0 1
-11.884827 25.436365 -11.901476 30.494309 -1.133700 1.971738 0.015913 -0.014742 -79305.300000 0 0 1
-11.484427 26.919065 -11.696176 31.517117 -1.167548 1.950996 0.025772 -0.021945 -496901.000000 0 0 1
-10.803127 27.468965 -12.805976 32.175217 -1.196092 1.980140 0.032315 -0.025588 40032.900000 0 0 1
-10.760827 28.862965 -12.906176 33.398136 -1.213934 1.967558 0.018270 -0.014192 -366081.000000 0 0 1
-10.087127 29.329565 -14.246276 34.131069 -1.239545 2.001378 0.043808 -0.023892 1999320.000000 0 0 1
-8.627727 29.268165 -14.305576 33.700336 -1.284134 2.009199 0.029999 -0.018647 1491000.000000 0 0 1
-8.057127 27.994865 -14.547076 32.561437 -1.290563 2.033934 0.031408 -0.022470 -46203.700000 0 0 1
-6.663727 28.082165 -15.213576 32.626157 -1.337812 2.055900 0.035006 -0.020823 1005390.000000 0 0 1
-5.709727 28.779865 -14.362576 32.667494 -1.374946 2.026016 0.027034 -0.017582 -28759.500000 0 0 1
-4.421227 28.757165 -14.924476 32.699568 -1.418247 2.044755 0.030967 -0.018117 680359.000000 0 0 1
-3.312427 29.628565 -14.203176 33.023540 -1.459460 2.015392 0.008710 -0.009364 527314.000000 0 0 1
-3.319727 31.027065 -14.388176 34.361591 -1.464207 2.002841 -0.000424 -0.006087 -328481.000000 0 0 1
-4.367427 31.736565 -13.770376 34.869861 -1.434040 1.976764 -0.013505 -0.005793 51482.300000 0 0 1
-4.459227 33.210465 -14.220476 36.401121 -1.437323 1.972145 -0.015578 -0.003493 -188389.000000 0 0 1
-3.557827 33.999465 -13.531776 36.765890 -1.466532 1.947710 -0.025435 -0.005202 -392118.000000 0 0 1
-3.885727 -33.980309 -13.852176 36.900448 1.456939 1.955617 -0.020716 -0.007674 454248.000000 0 0 1
-3.063727 -32.982109 -13.005376 35.585752 1.478172 1.944930 -0.011089 -0.004509 -186991.000000 0 0 1
-3.258027 -32.945109 -11.606576 35.081442 1.472224 1.907997 -0.020311 -0.004280 -245306.000000 0 0 1
-2.317527 -32.169009 -10.900476 34.044624 1.498878 1.896718 -0.028569 -0.007022 -40058.500000 0 0 1
-2.640827 -32.254909 -9.371876 33.692509 1.489105 1.852673 -0.033720 0.002029 -142468.000000 0 0 1
-1.882327 -31.346309 -8.626176 32.566012 1.510819 1.838879 -0.019429 0.001048 -273472.000000 0 0 1
-2.045227 -31.598109 -7.212676 32.475316 1.506160 1.794761 -0.042940 -0.000914 -685855.000000 0 0 1
-0.862627 -31.062309 -6.475176 31.741756 1.543033 1.776234 -0.023678 -0.005490 -984384.000000 0 0 1
-0.955827 -31.201709 -5.083976 31.627631 1.540172 1.732242 -0.027566 0.003233 -230022.000000 0 0 1
0.194773 -30.717509 -4.433776 31.036457 -1.564456 1.714144 -0.014718 0.006249 -139225.000000 0 0 1
0.155273 -30.704709 -2.895776 30.841348 -1.565739 1.664827 -0.024569 0.009006 -390063.000000 0 0 1
0.029573 -31.930309 -2.105776 31.999684 -1.569870 1.636650 -0.017068 0.004275 -413827.000000 0 0 1
1.008673 -32.913509 -2.223176 33.003924 -1.540160 1.638208 -0.015264 0.001841 442884.000000 0 0 1
2.359873 -32.535109 -1.488376 32.654518 -1.498390 1.616392 -0.000460 0.002893 -251482.000000 0 0 1
2.321273 -32.471709 -0.088276 32.554692 -1.499432 1.573508 -0.005396 0.002982 451009.000000 0 0 1
3.584073 -32.083509 0.455924 32.286297 -1.459547 1.556675 0.001824 0.001479 688171.000000 0 0 1
3.999673 -30.541109 0.194824 30.802511 -1.440577 1.564471 0.000326 0.009054 -644597.000000 0 0 1
4.073773 -30.149009 -1.191376 30.446309 -1.436488 1.609937 0.016472 -0.001903 57640.700000 0 0 1
4.083573 -28.722509 -1.202476 29.036254 -1.429570 1.612221 0.003619 0.010660 -277175.000000 0 0 1
3.769173 -28.064709 -2.540976 28.430461 -1.437292 1.660291 -0.000343 0.020682 274490.000000 0 0 1
2.394373 -28.170409 -2.909076 28.421254 -1.486004 1.673332 -0.005629 0.013631 462529.000000 0 0 1
1.900973 -27.236109 -3.836176 27.570556 -1.501113 1.710390 -0.010259 0.008411 112942.000000 0 0 1
2.439873 -27.417309 -5.312676 28.033664 -1.482040 1.761460 -0.017963 0.011829 39797.500000 0 0 1
2.020473 -28.621509 -5.913376 29.295752 -1.500320 1.774044 -0.023430 0.008483 -194774.000000 0 0 1
2.667473 -28.826609 -7.140876 29.817460 -1.478524 1.812633 -0.006976 -0.012248 -712230.000000 0 0 1
1.922973 -29.682909 -8.163976 30.845152 -1.506103 1.838664 -0.004615 -0.008199 -345087.000000 0 0 1
0.729073 -28.952909 -8.440076 30.166826 -1.545620 1.854361 -0.003859 -0.002931 -177462.000000 0 0 1
0.459173 -28.716509 -9.836376 30.357915 -1.554808 1.900765 -0.004887 -0.005006 412701.000000 0 0 1
-0.925527 -28.024609 -10.039476 29.782988 1.537783 1.914618 -0.018909 -0.007934 -366856.000000 0 0 1
-1.033027 -26.702409 -9.599576 28.394324 1.532129 1.915673 -0.019046 0.002014 -337707.000000 0 0 1
-2.321627 -26.138909 -9.732376 27.988420 1.482210 1.925944 0.000901 -0.011315 335447.000000 0 0 1
-3.321927 -26.694009 -8.671376 28.263016 1.446988 1.882636 0.002870 -0.010843 -890673.000000 0 0 1
-3.051727 -26.528909 -7.281876 27.678905 1.456266 1.837014 0.004534 -0.006245 218429.000000 0 0 1
-2.109927 -27.482909 -6.706776 28.367991 1.494174 1.809477 -0.009124 0.000331 762037.000000 0 0 1
-1.638227 -27.236609 -5.253576 27.786988 1.510721 1.761007 0.001515 0.001075 -759436.000000 0 0 1
-2.567627 -27.490009 -4.285776 27.940314 1.477664 1.724795 0.008735 -0.005355 -409707.000000 0 0 1
-2.061527 -27.174409 -2.958876 27.412649 1.495079 1.678945 0.006114 0.002449 -280382.000000 0 0 1
-3.181327 -27.347009 -1.954476 27.600719 1.454985 1.641668 0.001099 0.001703 -357862.000000 0 0 1
-4.099827 -26.260709 -1.982876 26.652677 1.415926 1.645262 0.009553 -0.002306 -451765.000000 0 0 1
-4.918327 -26.485709 -0.869576 26.952530 1.387190 1.603065 0.016512 -0.004675 -550389.000000 0 0 1
-6.048527 -25.440809 -0.751576 26.160740 1.337381 1.599529 0.026944 -0.001539 -61022.700000 0 0 1
-5.569827 -24.108909 -0.417976 24.747468 1.343752 1.587687 0.003460 -0.003075 -352189.000000 0 1 0
-6.382827 -23.520509 0.530124 24.376953 1.305805 1.549048 0.016177 0.003442 -414638.000000 0 1 0
-5.977627 -22.064209 0.926924 22.878386 1.306228 1.530270 0.005826 0.001853 -808733.000000 0 1 0
-4.791227 -21.978309 1.604324 22.551625 1.356156 1.499596 -0.004309 -0.007314 -1086530.000000 0 1 0
-4.290627 -20.697209 1.691724 21.204855 1.366387 1.490931 -0.010582 -0.003162 -55276.500000 0 1 0
-3.226227 -20.372209 2.736324 20.806799 1.413737 1.438903 -0.002499 -0.002747 -346420.000000 0 1 0
-3.768927 -20.313909 4.041924 21.052241 1.387348 1.377602 -0.006422 -0.000077 460526.000000 0 1 0
-2.818227 -20.293309 5.138224 21.122550 1.432804 1.325073 0.007112 -0.001236 513324.000000 0 1 0
-1.950027 -21.547509 5.416124 22.303187 1.480543 1.325503 0.005804 -0.009622 -74091.400000 0 1 0
-1.081427 -21.902509 4.390124 22.364315 1.521462 1.373213 0.018241 -0.012025 -522499.000000 0 1 0
-0.415327 -23.105009 4.715424 23.584935 1.552823 1.369506 0.014371 -0.013578 -1274160.000000 0 1 0
0.551073 -23.477509 3.563324 23.752776 -1.547328 1.420211 0.014800 -0.014131 813718.000000 0 1 0
1.735773 -22.671209 3.376124 22.986840 -1.494383 1.423391 0.005999 -0.014211 628429.000000 0 1 0
2.619873 -22.909709 4.442724 23.483106 -1.456934 1.380461 0.024621 -0.013435 -2043300.000000 0 1 0
3.866473 -22.058209 4.479224 22.838074 -1.397274 1.373387 0.033419 -0.014248 -560658.000000 0 1 0
4.666073 -22.027809 3.315124 22.759320 -1.362055 1.424616 0.021419 -0.002418 -587785.000000 0 1 0
5.800073 -21.294509 3.694324 22.377332 -1.304873 1.404945 0.033315 -0.002522 43787.500000 0 1 0
6.544173 -20.699609 2.446824 21.846898 -1.264590 1.458562 0.039965 -0.000727 -1068.410000 0 1 0
7.235673 -21.669909 1.729924 22.911407 -1.248532 1.495219 0.035538 -0.000069 -472945.000000 0 1 0
6.857873 -21.715509 0.361924 22.775529 -1.264903 1.554905 0.036422 -0.006560 235038.000000 0 1 0
7.761673 -22.638809 -0.497676 23.937563 -1.240507 1.591588 0.035259 0.000669 545354.000000 0 1 0
9.090173 -22.181109 -0.689076 23.981402 -1.181857 1.599534 0.028199 0.005210 -597783.000000 0 1 0
9.788573 -23.070709 -1.505076 25.106553 -1.169531 1.630780 0.027485 0.008448 -98342.900000 0 0 1
11.173573 -22.479509 -1.833376 25.170187 -1.109507 1.643700 0.023240 0.012824 -97605.500000 0 0 1
11.145673 -21.415209 -2.740976 24.297122 -1.090918 1.683848 0.020063 0.017528 -243582.000000 0 1 0
12.359473 -21.395609 -3.460976 24.950090 -1.046962 1.709961 0.016852 0.024234 2117.780000 0 1 0
12.505973 -20.181709 -4.420376 24.150372 -1.016040 1.754870 0.011301 0.012370 -120784.000000 0 1 0
12.531973 -18.970609 -3.710876 23.037034 -0.987006 1.732584 0.025000 0.013718 7438.020000 0 1 0
12.572173 -17.904309 -4.638276 22.363752 -0.958604 1.779714 0.011313 0.007564 -1015270.000000 0 1 0
12.877873 -16.532909 -3.989476 21.332900 -0.909040 1.758914 0.019554 0.008876 403674.000000 0 1 0
14.191973 -16.309309 -3.478176 21.897565 -0.854705 1.730310 0.011083 0.008004 462617.000000 0 1 0
15.176973 -16.275509 -4.500676 22.704378 -0.820311 1.770348 0.007831 0.010520 483764.000000 0 1 0
16.620673 -15.907009 -3.948276 23.342420 -0.763461 1.740759 0.006580 0.009542 929667.000000 0 1 0
17.316173 -16.947809 -3.354176 24.460756 -0.774648 1.708355 0.013296 0.007428 634044.000000 0 1 0
18.668573 -16.585409 -3.058676 25.158436 -0.726377 1.692674 0.002855 0.019955 261486.000000 0 0 1
19.473973 -17.640709 -2.323476 26.378567 -0.736044 1.658993 0.002877 0.010844 -1129540.000000 0 0 1
20.771673 -17.173709 -2.201076 27.041513 -0.690861 1.652283 -0.005159 0.014190 -828909.000000 0 0 1
21.472373 -18.006709 -1.302676 28.053544 -0.697838 1.617248 -0.008143 0.014003 -952320.000000 0 0 1
22.976873 -17.882909 -1.305376 29.145139 -0.661369 1.615600 -0.001740 0.008661 -768758.000000 0 0 1
23.419873 -16.545409 -0.927576 28.689744 -0.615054 1.603133 -0.000666 -0.004773 440197.000000 0 0 1
24.789973 -16.566109 -0.554376 29.820900 -0.589104 1.589388 0.012695 -0.001922 292584.000000 0 0 1
25.381173 -15.231209 -0.049976 29.600611 -0.540492 1.572485 0.011209 0.001973 -186347.000000 0 0 1
24.616573 -14.759509 1.003724 28.719788 -0.540108 1.535840 -0.003475 0.004224 24051.900000 0 0 1
25.153773 -13.576509 1.548224 28.625703 -0.494932 1.516685 -0.020002 -0.001391 -218924.000000 0 0 1
24.411773 -13.029609 2.769824 27.809662 -0.490276 1.471032 -0.002860 -0.013820 -304695.000000 0 0 1
24.454773 -13.860509 3.923524 28.382101 -0.515636 1.432113 0.021890 -0.010937 886830.000000 0 0 1
25.739673 -14.353409 4.362924 29.792385 -0.508688 1.423824 0.029412 0.003565 643994.000000 0 0 1
25.508973 -15.130809 5.629924 30.188493 -0.535372 1.383206 0.029801 0.012595 296763.000000 0 0 1
24.566073 -16.180809 5.557324 29.936506 -0.582442 1.384076 0.013671 0.012729 -122971.000000 0 0 1
23.864373 -16.314909 6.770324 29.690433 -0.599669 1.340742 -0.006405 0.014426 -120322.000000 0 0 1
22.918573 -17.557909 6.791424 29.659140 -0.653725 1.339764 -0.006093 0.006160 -227021.000000 0 0 1
23.540973 -18.789409 6.635024 30.842225 -0.673617 1.353974 0.009218 0.010198 -395420.000000 0 0 1
22.670173 -19.865309 6.947324 30.932710 -0.719552 1.344269 0.001124 0.026577 51113.500000 0 0 1
1.170073 23.573865 -2.711476 23.758120 1.521203 1.685174 0.000495 -0.006340 270350.000000 0 1 0
1.866573 24.817065 -2.522176 25.014639 1.495724 1.671796 0.005751 -0.004732 -213482.000000 0 0 1
2.725273 25.078565 -3.590576 25.480458 1.462552 1.712182 0.006286 -0.009626 -128817.000000 0 0 1
3.761473 26.162565 -3.178276 26.621982 1.428002 1.690467 -0.004476 -0.001566 -63436.700000 0 0 1
4.730373 25.666165 -2.293576 26.199025 1.388538 1.658453 0.000009 -0.002347 -604930.000000 0 0 1
5.615673 26.669465 -1.861476 27.317782 1.363262 1.638991 -0.004475 -0.004897 172395.000000 0 0 1
6.819173 26.046465 -1.105676 26.947021 1.314735 1.611839 0.005478 -0.019165 516763.000000 0 0 1
7.782473 25.371965 -1.926576 26.608554 1.273172 1.643264 0.018004 -0.015168 50964.000000 0 0 1
8.746773 24.675065 -1.164776 26.205373 1.230138 1.615259 0.022037 -0.017060 -376461.000000 0 0 1
9.943073 24.271765 -1.991376 26.304920 1.181994 1.646572 0.022639 -0.014991 -608320.000000 0 0 1
11.014673 25.211165 -2.133576 27.594891 1.158892 1.648191 0.022486 -0.004040 764704.000000 0 0 1
11.875773 25.103165 -3.267276 27.962081 1.128917 1.687911 0.033329 -0.008708 840429.000000 0 0 1
12.815173 23.869865 -3.388176 27.303458 1.078084 1.695210 0.033737 -0.009330 12718.100000 0 0 1
12.069373 22.681565 -3.716676 25.960293 1.081782 1.714458 0.022472 -0.010759 179124.000000 0 0 1
12.028973 22.341165 -5.091176 25.879411 1.076886 1.768815 0.031528 -0.017995 -372678.000000 0 0 1
11.119873 21.148465 -5.332876 24.481599 1.086722 1.790389 0.028562 -0.019371 1241040.000000 0 1 0
9.707073 21.469665 -5.253776 24.140752 1.146173 1.790183 0.015329 -0.013303 898654.000000 0 1 0
8.883473 20.370265 -5.051676 22.789980 1.159562 1.794315 -0.000972 -0.009463 349445.000000 0 1 0
7.391473 20.795265 -4.854376 22.597386 1.229283 1.787304 0.009505 -0.007881 586576.000000 0 1 0
7.204673 21.470265 -3.647276 22.938662 1.247038 1.730475 0.014770 -0.003455 -878290.000000 0 1 0
5.868973 21.806665 -3.509076 22.853645 1.307889 1.724952 0.017514 0.003862 -510499.000000 0 1 0
5.502373 22.635065 -2.223076 23.400092 1.332331 1.665943 0.016044 0.001363 213983.000000 0 1 0
5.095773 21.839065 -1.083176 22.451835 1.341565 1.619059 0.018231 0.006687 -7557.420000 0 1 0
4.672673 22.570565 0.052124 23.049229 1.366655 1.568535 0.025503 0.010242 126868.000000 0 1 0
4.164773 21.577965 1.102924 22.003871 1.380130 1.520651 0.020763 0.007131 -98528.400000 0 1 0
3.602673 22.271265 2.186624 22.666491 1.410422 1.474177 0.019723 0.013621 222067.000000 0 1 0
3.079273 21.274265 3.113124 21.720216 1.427053 1.426973 0.014676 0.011186 509304.000000 0 1 0
1.939373 21.766765 4.054324 22.225903 1.481933 1.387355 0.013393 -0.002082 471009.000000 0 1 0
0.634873 21.994965 3.553224 22.289166 1.541940 1.410698 0.016523 0.001358 -25883.000000 0 1 0
-0.224727 22.189765 4.640124 22.670838 -1.560669 1.364666 0.017175 -0.015509 -642003.000000 0 1 0
-1.679927 22.347265 4.226824 22.805447 -1.495764 1.384376 0.013384 -0.010415 -659443.000000 0 1 0
-2.589227 22.714765 5.247124 23.456277 -1.457297 1.345189 0.027974 -0.013231 -481841.000000 0 1 0
-3.826727 22.847965 4.609524 23.620352 -1.404850 1.374385 0.024473 -0.011057 -190205.000000 0 1 0
-5.024227 23.200765 5.537824 24.375927 -1.357535 1.341611 0.030339 -0.016681 292776.000000 0 1 0
-4.938327 24.562765 5.954524 25.752142 -1.372392 1.337460 0.032806 -0.010273 -195208.000000 0 0 1
-6.047327 24.882265 6.744224 26.479838 -1.332381 1.313266 0.036088 -0.011591 -145939.000000 0 0 1
-6.293027 26.404765 6.949524 28.019808 -1.336832 1.320159 0.036671 -0.010624 -544305.000000 0 0 1
-5.275827 27.029765 7.681224 28.590973 -1.378034 1.298796 0.036885 -0.010104 -304261.000000 0 0 1
-5.488227 28.316065 8.271124 30.005527 -1.379350 1.291527 0.044550 -0.018408 -302952.000000 0 0 1
-5.668227 29.517065 7.308824 30.932262 -1.381074 1.332256 0.050236 -0.021701 -156244.000000 0 0 1
-6.995427 29.553465 6.847624 31.132511 -1.338370 1.349032 0.048368 -0.018137 -562922.000000 0 0 1
-7.246027 30.593665 5.977724 32.003287 -1.338234 1.382908 0.051242 -0.019960 -311869.000000 0 0 1
-8.681927 30.692365 5.406324 32.351591 -1.295129 1.402897 0.051060 -0.019487 613454.000000 0 0 1
-9.709327 31.145565 6.274024 33.221689 -1.268604 1.380802 0.045736 -0.008129 106043.000000 0 0 1
-10.164027 30.143265 7.196724 32.614670 -1.245578 1.348306 0.028611 -0.003906 -635054.000000 0 0 1
-11.020027 30.756065 8.337624 33.717836 -1.226743 1.320928 0.016390 -0.003596 112460.000000 0 0 1
-10.383227 31.311165 9.488724 34.325447 -1.250594 1.290715 0.026307 -0.005242 -625827.000000 0 0 1
-11.336327 31.693965 10.386924 35.226522 -1.227295 1.271486 0.025447 0.002385 -363669.000000 0 0 1
-10.637927 32.241865 11.690724 35.907887 -1.252102 1.239176 0.033884 -0.000661 420615.000000 0 0 1
-9.931627 33.483165 11.542924 36.783129 -1.282447 1.251593 0.033453 -0.002849 763776.000000 0 0 1
-9.014827 33.715665 12.622124 37.112412 -1.309530 1.223768 0.034148 -0.006546 494843.000000 0 0 1
-8.440027 -34.256809 12.698824 37.496975 1.329232 1.225301 0.028281 -0.010708 503684.000000 0 0 1
-9.485627 -33.388309 13.168324 37.123591 1.293990 1.208186 0.024837 0.000128 566602.000000 0 0 1
-9.026927 -32.058309 13.281424 35.855499 1.296325 1.191340 0.030050 0.004108 426041.000000 0 0 1
-10.064527 -31.057109 13.921524 35.491514 1.257410 1.167721 0.033333 -0.002489 342666.000000 0 0 1
-10.242227 -31.128909 15.324324 36.176610 1.252927 1.133383 0.034158 -0.003026 247848.000000 0 0 1
-9.136427 -30.566809 16.046324 35.711183 1.280349 1.104774 0.039159 0.001988 568549.000000 0 0 1
-9.093027 -31.037109 17.510824 36.777904 1.285799 1.074555 0.022850 -0.010126 90757.400000 0 0 1
-9.968827 -30.303509 18.345524 36.799978 1.252981 1.048906 0.057583 -0.006767 151958.000000 0 0 1
-10.240027 -31.025409 19.556224 38.077290 1.252001 1.031429 0.028789 -0.010554 135805.000000 0 0 1
-10.626327 -30.098309 20.778324 38.086294 1.231403 0.993740 0.033862 -0.017123 229283.000000 0 0 1
-9.500827 -29.488809 21.359224 37.630732 1.259113 0.967208 0.045520 -0.023410 146785.000000 0 0 1
-9.948027 -28.754509 22.492324 37.837675 1.237722 0.934224 0.040145 -0.014337 390162.000000 0 0 1
-9.070427 -28.969009 23.764024 38.551329 1.267358 0.906601 0.039980 -0.017867 243392.000000 0 0 1
-9.090327 -30.196409 24.440424 39.897261 1.278386 0.911471 0.037863 -0.014193 456013.000000 0 0 1
-7.963127 -30.168709 25.337024 40.193621 1.312729 0.888761 0.028298 -0.010024 732908.000000 0 0 1
-7.904027 -31.340209 26.324924 41.685536 1.323747 0.887294 0.028380 -0.008494 -201439.000000 0 0 1
-7.502527 -32.518609 25.722824 42.135632 1.344049 0.914134 0.029527 0.002137 -158907.000000 0 0 1
-7.751527 -33.588409 26.588424 43.534029 1.343987 0.913788 0.025642 -0.000898 -326429.000000 0 0 1
-7.422627 34.364665 26.013824 43.734936 -1.358068 0.933771 0.018221 -0.002008 1056910.000000 0 0 1
-6.013227 34.133665 25.749124 43.177347 -1.396419 0.931841 0.023899 -0.004049 1234330.000000 0 0 1
-5.727027 32.785865 25.390924 41.861806 -1.397861 0.919093 0.026401 -0.006871 -328558.000000 0 0 1
-6.214627 32.182365 24.067524 40.664135 -1.380038 0.937430 0.022399 -0.005224 -9478.600000 0 0 1
-7.613127 31.929665 24.142824 40.747259 -1.336732 0.936635 0.014571 -0.000433 346900.000000 0 0 1
-8.086427 31.650465 22.827824 39.852876 -1.320656 0.960876 0.015487 0.007495 170963.000000 0 0 1
-9.202027 30.596565 22.681924 39.182863 -1.278648 0.953450 -0.000978 -0.003196 186156.000000 0 0 1
-8.677627 29.287765 22.733424 38.077328 -1.282748 0.930999 0.000416 0.003254 204018.000000 0 0 1
-9.698327 28.344565 23.013724 37.777022 -1.241124 0.915746 -0.005232 0.004742 -62284.900000 0 0 1
-9.284427 26.858365 22.605824 36.312472 -1.237974 0.898817 -0.012391 0.004549 7313.010000 0 0 1
-8.208527 26.454665 23.437124 36.283991 -1.269929 0.868548 -0.021914 0.013168 217082.000000 0 0 1
-7.693827 25.169565 23.157524 35.056709 -1.274137 0.849214 -0.018184 0.008604 840926.000000 0 0 1
-6.377527 24.915865 24.007324 35.182734 -1.320214 0.819809 -0.026112 0.010439 938464.000000 0 0 1
-5.215627 25.362765 23.360924 34.874136 -1.367983 0.836771 -0.033230 0.011764 -1044230.000000 0 0 1
-4.018427 25.047865 23.982824 34.910158 -1.411722 0.813462 -0.005570 0.005663 -27868.700000 0 0 1
-2.880227 25.788665 23.164724 34.784413 -1.459571 0.842028 -0.015855 0.020257 94125.300000 0 0 1
-2.568327 25.036665 22.041524 33.455338 -1.468571 0.851528 -0.007057 0.017103 -304874.000000 0 0 1
-1.686127 25.674765 21.180324 33.326306 -1.505218 0.882084 -0.007653 0.023539 -303071.000000 0 0 1
-1.272927 24.842065 19.970224 31.899191 -1.519600 0.894330 -0.014079 0.020531 -610582.000000 0 0 1
-0.392427 23.845865 20.354624 31.354266 -1.554341 0.864288 0.003661 0.013506 -456949.000000 0 0 1
-0.191727 22.938365 19.295024 29.975044 -1.562438 0.871469 -0.015446 0.016972 -186893.000000 0 0 1
0.905573 21.880265 19.643024 29.417927 1.529432 0.839651 -0.000130 0.016666 948306.000000 0 0 1
2.246173 22.365065 19.479624 29.743859 1.470700 0.856730 0.000712 0.003809 749703.000000 0 0 1
3.184473 21.271965 19.547224 29.064262 1.422197 0.833145 0.003831 0.007447 -55924.100000 0 0 1
4.609973 21.786965 19.517724 29.611910 1.362279 0.851152 -0.006272 -0.001085 -925684.000000 0 0 1
5.592773 20.895465 19.109424 28.862946 1.309272 0.847213 0.005594 -0.000656 -201561.000000 0 0 1
6.853973 21.550265 19.068724 29.580519 1.262867 0.870247 0.022423 0.000076 -119029.000000 0 0 1
8.003973 20.659865 18.628924 28.947027 1.201185 0.871666 0.021868 0.005978 -495957.000000 0 0 1
8.296773 19.710165 19.642024 29.036807 1.172371 0.827861 0.018230 0.003236 74273.700000 0 0 1
9.545473 19.047265 19.514124 28.891441 1.106232 0.829250 0.018920 0.001200 -2940.790000 0 0 1
10.017373 18.295465 20.721024 29.401235 1.069849 0.788701 0.032475 -0.003647 -480170.000000 0 0 1
9.200073 17.197165 21.030124 28.681875 1.079561 0.747751 0.031197 0.001191 -74262.600000 0 0 1
9.689273 16.448165 22.172424 29.258170 1.038445 0.710831 0.040186 -0.008025 -272577.000000 0 0 1
8.728573 15.370565 22.710524 28.778640 1.054332 0.661380 0.030118 -0.004069 -231465.000000 0 0 1
7.659373 16.011265 23.405624 29.374305 1.124599 0.648806 0.030936 0.002970 -13744.300000 0 0 1
6.647273 15.115965 23.814024 28.979068 1.156497 0.606292 0.026377 0.005990 110236.000000 0 0 1
7.018673 14.080065 24.917124 29.468170 1.108363 0.563182 0.036905 0.001655 -465814.000000 0 0 1
7.415973 14.691965 26.135524 30.885532 1.103345 0.561972 0.041181 -0.002302 14763.000000 0 0 1
7.622273 13.683165 27.138424 31.334040 1.062553 0.523449 0.039292 -0.001055 -388888.000000 0 0 1
8.737973 14.086565 28.143224 32.662280 1.015580 0.532298 0.034594 -0.000300 371891.000000 0 0 1
10.059573 14.073165 27.600324 32.573407 0.950203 0.559865 0.032586 0.007451 355767.000000 0 0 1
10.394673 15.348165 27.076124 32.813593 0.975497 0.600329 0.030408 0.006231 -842610.000000 0 0 1
11.612973 15.192265 26.177824 32.418274 0.918142 0.630891 0.032037 0.003555 -490708.000000 0 0 1
11.332873 14.387365 25.037324 31.020926 0.903603 0.631554 0.039946 0.001250 -254308.000000 0 0 1
12.522173 14.028365 24.391424 30.798399 0.842067 0.656767 0.029549 0.005568 -495287.000000 0 0 1
12.360973 12.953965 23.338524 29.415736 0.808818 0.654417 0.030854 -0.000271 -53067.800000 0 0 1
12.112973 11.622565 23.762324 29.093920 0.764740 0.615049 0.027140 0.003361 404786.000000 0 0 1
10.797973 11.357765 24.244124 28.868193 0.810659 0.573842 0.033095 0.002707 114264.000000 0 0 1
10.616173 9.978265 24.944224 28.887423 0.754433 0.528632 0.016945 0.000312 -144573.000000 0 0 1
10.559273 8.917565 23.990224 27.686676 0.701307 0.522669 0.023039 0.002112 184190.000000 0 0 1
10.195173 7.694165 24.625924 27.741266 0.646494 0.478471 0.028963 -0.000477 6932.530000 0 0 1
10.224273 6.389365 23.789824 26.670498 0.558543 0.469067 0.037205 -0.007444 -327614.000000 0 0 1
11.541073 5.951465 23.564224 26.905184 0.476110 0.503654 0.034280 -0.000328 -59316.200000 0 0 1
11.640073 4.771465 22.751524 25.997885 0.389026 0.505092 0.034549 0.001251 6867.110000 0 0 1
11.503573 3.469065 23.526724 26.417292 0.292891 0.472177 0.025947 0.001858 58584.800000 0 0 1
12.762073 3.102765 24.065124 27.415832 0.238497 0.499584 0.015496 -0.003190 354365.000000 0 0 1
12.628573 2.060465 24.936524 28.027783 0.161734 0.474093 0.013124 -0.002339 -893016.000000 0 0 1
13.970173 1.671465 25.514924 29.137105 0.119079 0.503944 0.013338 -0.004879 -608838.000000 0 0 1
14.813773 1.085465 24.556624 28.699371 0.073143 0.543990 -0.002360 -0.001458 -174547.000000 0 0 1
16.151773 1.055465 24.983024 29.768192 0.065254 0.574890 0.008958 -0.008405 -295731.000000 0 0 1
17.029773 -0.060035 24.327124 29.695551 -0.003525 0.610751 0.015813 -0.009326 55252.000000 0 0 1
16.706573 -1.418035 24.568424 29.744375 -0.084676 0.598848 0.010372 -0.013983 269681.000000 0 0 1
17.689673 -2.226735 23.920624 29.834194 -0.125219 0.640519 0.013663 -0.004409 208756.000000 0 0 1
17.680673 -3.756335 24.252824 30.247574 -0.209342 0.640477 0.017415 0.005055 343852.000000 0 0 1
16.508073 -4.379535 23.739024 29.244454 -0.259323 0.623663 0.020635 0.005947 321294.000000 0 0 1
16.747073 -5.768435 23.803524 29.670643 -0.331717 0.639728 0.036680 0.006712 -331567.000000 0 0 1
16.031773 -6.765035 22.972224 28.818510 -0.399307 0.648262 0.029469 0.001694 -728307.000000 0 0 1
16.283473 -6.675135 21.563624 27.833412 -0.389040 0.684494 0.026010 0.004031 -35607.500000 0 0 1
15.799073 -7.690835 20.730924 27.175924 -0.453024 0.703100 0.036304 -0.003641 -299848.000000 0 0 1
16.312173 -9.132435 21.048624 28.151961 -0.510377 0.726237 0.037942 -0.004731 207677.000000 0 0 1
15.893473 -9.717835 22.327324 29.078312 -0.548786 0.695343 0.034143 -0.003664 444512.000000 0 0 1
16.668173 -10.902235 22.550924 30.087055 -0.579235 0.723456 0.032438 -0.007629 213278.000000 0 0 1
16.105973 -11.631635 23.735924 30.953051 -0.625466 0.696899 0.032838 -0.006712 752427.000000 0 0 1
14.925373 -12.432735 23.497824 30.487496 -0.694538 0.690800 0.031976 -0.008501 775386.000000 0 0 1
14.657973 -13.341735 24.527924 31.535331 -0.738424 0.679651 0.028044 0.003883 -196935.000000 0 0 1
13.549373 -14.334835 24.167224 31.194995 -0.813559 0.684532 0.018808 0.007119 -294988.000000 0 0 1
13.901173 -15.186435 23.062824 30.915438 -0.829555 0.728766 0.015713 0.009140 1339010.000000 0 0 1
12.702273 -15.945435 22.730224 30.533060 -0.898127 0.731091 0.003964 0.014260 905288.000000 0 0 1
12.940373 -17.011335 21.652024 30.424479 -0.920488 0.778932 0.008207 0.006427 -361516.000000 0 0 1
13.862273 -17.999035 21.986124 31.615147 -0.914512 0.801778 0.007765 0.005920 -207706.000000 0 0 1
14.286073 -18.678835 20.815724 31.405177 -0.917873 0.846229 0.001695 0.004546 -117082.000000 0 0 1
-22.949527 -32.191009 26.639723 47.671969 0.951454 0.977842 -0.014593 -0.014915 -846700.000000 0 0 1
-23.630727 -32.994409 27.572943 49.064340 0.949278 0.974024 -0.010591 -0.019286 -194457.000000 0 0 1
-24.590727 -33.801309 26.941823 49.730214 0.941846 0.998267 -0.009782 -0.021849 -249945.000000 0 0 1
-25.214767 34.669365 28.021793 51.214941 -0.941987 0.991852 -0.004854 -0.024165 -523271.000000 0 0 1
-26.070897 -34.082109 28.952503 51.764169 0.917800 0.977236 0.020215 -0.025297 -345553.000000 0 0 1
-25.485127 -33.882809 30.175343 52.039290 0.925917 0.952243 0.014760 -0.019724 -382113.000000 0 0 1
-26.386667 -33.185909 31.213933 52.648555 0.899040 0.936174 0.012678 -0.021113 -134037.000000 0 0 1
-26.676657 -31.872909 30.861933 51.768574 0.873916 0.932097 0.007184 -0.017014 414583.000000 0 0 1
-27.542317 -31.208709 31.803533 52.383465 0.847723 0.918354 0.001653 -0.001970 244510.000000 0 0 1
-27.959837 -29.797209 31.410053 51.538506 0.817200 0.915432 0.006636 -0.010824 -401292.000000 0 0 1
-28.803077 -29.654509 30.318793 51.266328 0.799962 0.938005 0.004215 -0.000377 106732.000000 0 0 1
-29.192007 -28.243809 30.279053 50.662679 0.768891 0.930217 0.010071 -0.006339 79624.900000 0 0 1
-29.718827 -27.872709 28.844993 49.921240 0.753354 0.954753 0.003760 -0.012155 723781.000000 0 0 1
-28.711147 -27.665009 27.804843 48.608558 0.766844 0.961836 -0.005208 -0.011417 861678.000000 0 0 1
-28.375227 -26.263509 27.760513 47.598020 0.746769 0.948099 -0.008904 -0.001089 40817.300000 0 0 1
-27.302487 -26.055409 26.654473 46.203583 0.762030 0.955878 -0.018130 0.007042 56728.900000 0 0 1
-27.824287 -26.204209 25.353243 45.865438 0.755422 0.985106 -0.024536 0.010684 759753.000000 0 0 1
-26.720617 -26.242409 24.417183 44.708547 0.776369 0.993045 -0.015163 0.019333 20307.900000 0 0 1
-27.087997 -26.691209 22.983953 44.434697 0.778020 1.027159 -0.018200 0.024737 -137678.000000 0 0 1
-27.567607 -25.593509 22.155453 43.656211 0.748281 1.038517 -0.036633 0.026671 661099.000000 0 0 1
-28.189387 -26.058509 20.945053 43.730798 0.746138 1.071333 -0.040737 0.038255 136252.000000 0 0 1
-28.906037 -24.939709 20.106553 43.148830 0.711870 1.086053 -0.045040 0.031725 -91542.500000 0 0 1
-30.061337 -24.383509 20.688553 43.889130 0.681488 1.079939 -0.028263 0.023918 13971.500000 0 0 1
-30.599147 -23.381509 19.878253 43.337601 0.652479 1.094283 -0.017192 0.016222 -73123.500000 0 0 1
-32.084917 -22.995609 20.177053 44.332306 0.621853 1.098276 0.000711 0.023612 522843.000000 0 0 1
-32.974347 -23.947609 19.619253 45.229532 0.628127 1.122123 -0.008641 0.015759 -21558.900000 0 0 1
-34.299624 -23.468109 19.490753 45.903222 0.600049 1.132270 0.000197 0.006449 473530.000000 0 0 1
34.953015 -24.482209 18.694653 46.589504 -0.611016 1.157901 0.007963 0.003190 259164.000000 0 0 1
34.656010 -25.704309 19.382153 47.301357 -0.638167 1.148607 0.002138 0.003169 -81876.300000 0 0 1
34.072486 -26.622909 18.486453 47.026190 -0.663272 1.166785 0.006555 0.007646 -633.874000 0 0 1
33.663876 -27.931209 19.258253 47.794239 -0.692595 1.156068 0.005277 0.015098 -464136.000000 0 0 1
32.430536 -27.886109 19.913753 47.179787 -0.710197 1.135055 -0.001123 0.011251 -518502.000000 0 0 1
32.433056 -27.289709 21.187453 47.387124 -0.699490 1.107260 0.008129 0.007961 -608703.000000 0 0 1
31.160236 -27.677309 21.924153 47.092061 -0.726272 1.086530 -0.003488 0.007161 -395551.000000 0 0 1
30.004386 -26.955609 21.624753 45.765685 -0.731924 1.078660 0.004749 0.008258 -330498.000000 0 0 1
29.539646 -26.215009 22.701053 45.553871 -0.725839 1.049120 0.008625 0.011555 -575938.000000 0 0 1
28.566076 -25.151809 22.224053 44.074286 -0.721924 1.042294 0.023523 0.008411 -436614.000000 0 0 1
29.150016 -24.053609 21.561253 43.510770 -0.689899 1.052342 0.019071 0.012328 388752.000000 0 0 1
30.024816 -23.236609 22.389353 44.076214 -0.658631 1.037971 0.030768 0.005069 424010.000000 0 0 1
30.734676 -22.143709 21.564653 43.588971 -0.624339 1.053275 0.028710 0.006402 -230592.000000 0 0 1
29.863246 -21.175809 21.095253 42.252077 -0.616802 1.048039 0.032256 0.002550 -213271.000000 0 0 1
30.681056 -20.120409 20.684553 42.118983 -0.580437 1.057446 0.027960 0.002283 -79021.400000 0 0 1
29.903466 -18.842709 20.973653 41.099380 -0.562271 1.035245 0.023255 0.008767 136769.000000 0 0 1
29.706156 -18.478709 22.341053 41.509529 -0.556475 1.002479 0.018541 0.001995 236024.000000 0 0 1
28.728506 -19.224909 23.067653 41.557680 -0.589749 0.982343 0.041622 -0.002457 -74240.200000 0 0 1
28.618686 -18.896009 24.577613 42.191793 -0.583560 0.948969 0.029531 0.003293 -7822.220000 0 0 1
28.122546 -17.633609 24.958003 41.529792 -0.560056 0.926087 0.021924 0.001844 58737.400000 0 0 1
28.539186 -17.289709 26.256063 42.459392 -0.544690 0.904116 0.017664 -0.001228 -281544.000000 0 0 1
28.122766 -15.887209 26.685603 41.897670 -0.514228 0.880296 0.006923 -0.001143 -834668.000000 0 0 1
26.761346 -15.596109 26.723533 40.909112 -0.527665 0.858938 0.018929 -0.000376 -412663.000000 0 0 1
26.370776 -14.329509 27.318263 40.583742 -0.497751 0.832359 0.010849 -0.005904 63993.200000 0 0 1
26.895446 -12.968809 26.739693 40.081993 -0.449301 0.840454 0.011411 0.002112 -498894.000000 0 0 1
26.252166 -12.614509 25.541983 38.738804 -0.447937 0.850858 0.000902 0.009839 85661.700000 0 0 1
26.923916 -11.800009 24.589253 38.324520 -0.413059 0.874206 -0.005040 0.010089 -395462.000000 0 0 1
28.006536 -12.418909 23.683853 38.723639 -0.417376 0.912699 0.001021 0.012818 -35419.000000 0 0 1
27.578346 -13.431909 22.757753 38.195506 -0.453230 0.932507 0.006950 0.009952 210999.000000 0 0 1
28.487846 -14.499309 22.863853 39.300675 -0.470794 0.949896 0.006254 -0.002051 283625.000000 0 0 1
27.981626 -15.552309 21.879053 38.775490 -0.507289 0.971272 0.018201 0.007530 43051.600000 0 0 1
28.212766 -15.202009 20.518353 38.053437 -0.494230 1.001311 0.005311 0.016523 154590.000000 0 0 1
27.582596 -16.141109 19.654253 37.518324 -0.529460 1.019423 0.002888 0.012032 -236980.000000 0 0 1
28.174546 -16.040009 18.213153 37.186098 -0.517546 1.058954 0.002510 0.005082 -34438.100000 0 0 1
27.710556 -17.014709 17.290153 36.828313 -0.550661 1.082095 0.011268 -0.001094 -271116.000000 0 0 1
26.338546 -17.198809 17.062753 35.786248 -0.578474 1.073790 0.014641 -0.003431 -267513.000000 0 0 1
25.705686 -16.166309 16.051553 34.347986 -0.561399 1.084538 0.006399 0.004104 -668411.000000 0 0 1
26.008966 -16.441709 14.649053 34.079185 -0.563728 1.126466 0.011907 0.001257 395573.000000 0 0 1
25.316816 -17.618909 14.184753 33.949585 -0.607994 1.139754 -0.000809 0.000898 90537.700000 0 0 1
25.598706 -18.029009 12.711353 33.792268 -0.613602 1.185146 -0.008060 0.017160 218401.000000 0 0 1
24.864126 -17.179409 11.784453 32.438098 -0.604614 1.198999 0.004314 0.003382 265500.000000 0 0 1
24.654826 -17.689609 10.472153 32.100603 -0.622369 1.238485 0.008704 0.000116 268681.000000 0 0 1
25.907486 -17.930209 9.576453 32.930209 -0.605395 1.275722 0.009140 -0.000294 865684.000000 0 0 1
26.753586 -19.040209 9.946053 34.310463 -0.618527 1.276691 0.004983 0.017759 168862.000000 0 0 1
28.127696 -18.903609 9.651553 35.237284 -0.591730 1.293349 0.012053 0.021273 96517.300000 0 0 1
28.934966 -19.762309 10.620353 36.613836 -0.599219 1.276503 0.039928 -0.001273 -444264.000000 0 0 1
28.863076 -19.400809 11.970853 36.780020 -0.591801 1.239286 0.040583 -0.016679 75065.500000 0 0 1
29.168096 -20.463509 12.779853 37.853106 -0.611780 1.226412 0.037530 -0.016776 -219019.000000 0 0 1
28.945276 -19.973509 14.249053 37.944770 -0.604013 1.185838 0.038390 -0.009370 -39072.600000 0 0 1
29.025456 -20.991409 15.204453 38.913901 -0.626132 1.169382 0.033294 -0.010638 -48057.800000 0 0 1
28.869116 -20.432909 16.494153 39.025462 -0.615927 1.134428 0.043649 -0.014773 93635.300000 0 0 1
28.742456 -21.509009 17.649453 40.003368 -0.642435 1.113862 0.017700 -0.005902 -327184.000000 0 0 1
27.488816 -22.115409 17.665653 39.456325 -0.677493 1.106575 0.005657 -0.001646 -548793.000000 0 0 1
27.355356 -23.069109 18.698153 40.374747 -0.700599 1.089290 0.019993 -0.004979 543744.000000 0 0 1
25.960526 -23.769809 18.766153 39.888861 -0.741375 1.080983 0.014283 0.004195 633853.000000 0 0 1
24.857226 -22.963409 19.138253 38.877661 -0.745816 1.056102 0.027088 0.005096 830731.000000 0 0 1
23.659626 -23.768809 19.023753 38.556936 -0.787700 1.054809 0.033445 -0.001563 694684.000000 0 0 1
22.398426 -23.199009 19.685653 37.781059 -0.802954 1.022721 0.031653 0.003288 -446388.000000 0 0 1
21.904526 -21.957809 19.206053 36.480489 -0.786613 1.016348 0.026774 -0.000247 988381.000000 0 0 1
20.664826 -21.497909 19.803053 35.796033 -0.805154 0.984573 0.027121 -0.002584 1113080.000000 0 0 1
20.822326 -20.970909 21.263853 36.407413 -0.788953 0.947084 0.012303 0.008471 -300884.000000 0 0 1
21.027026 -21.960709 22.214753 37.655063 -0.807115 0.939795 0.019055 0.007208 -187468.000000 0 0 1
21.102526 -21.392209 23.460553 38.122706 -0.792215 0.907908 0.025258 0.000870 194246.000000 0 0 1
21.625526 -22.397409 24.518033 39.628793 -0.802930 0.903719 0.030467 -0.005646 459089.000000 0 0 1
20.626626 -23.417109 24.653133 39.769280 -0.848671 0.902176 0.000784 0.007106 464507.000000 0 0 1
20.983526 -24.350209 25.661103 41.130685 -0.859526 0.897083 0.005021 0.006688 290130.000000 0 0 1
19.809126 -25.255909 26.179693 41.420269 -0.905680 0.886600 0.009686 0.005954 326303.000000 0 0 1
19.475426 -26.357509 25.373263 41.446507 -0.934441 0.911965 0.016111 -0.001584 152121.000000 0 0 1
18.462026 -27.100809 26.047423 41.878019 -0.972775 0.899523 0.017238 -0.008940 157740.000000 0 0 1
17.797526 -28.168809 25.104843 41.719143 -1.007310 0.925095 0.036696 -0.016765 -156629.000000 0 0 1
17.001726 -27.451109 24.183783 40.342006 -1.016273 0.927959 0.035062 -0.016318 -119211.000000 0 0 1
16.465326 -28.363209 23.253953 40.203543 -1.044826 0.954024 0.044516 -0.015687 -81991.100000 0 0 1
15.454626 -27.620009 22.308553 38.721853 -1.060655 0.956819 0.034447 -0.017953 -572142.000000 0 0 1
14.225126 -27.370409 22.898153 38.416388 -1.091492 0.932222 0.013659 -0.016418 -1082950.000000 0 0 1
13.608926 -26.510709 21.974453 37.025628 -1.096536 0.935404 0.004268 -0.010359 372897.000000 0 0 1
12.188526 -25.971609 22.334953 36.358421 -1.132007 0.909299 0.001911 -0.002875 160171.000000 0 0 1
11.184226 -26.928009 22.446653 36.797511 -1.177138 0.914730 0.006057 -0.012186 -879310.000000 0 0 1
9.978626 -26.222509 22.575353 36.011658 -1.207180 0.893241 0.005003 -0.006085 -482892.000000 0 0 1
8.715926 -27.069809 22.571753 36.307381 -1.259299 0.899904 0.006515 -0.003400 -421360.000000 0 0 1
8.536626 -27.801709 21.364853 36.086922 -1.272881 0.937210 0.013835 -0.002961 -145714.000000 0 0 1
7.202826 -28.255709 21.317353 36.120566 -1.321196 0.939524 0.006863 0.002353 -73523.500000 0 0 1
6.811426 -29.072809 20.083553 35.985731 -1.340659 0.978705 0.016114 0.002153 -1879.820000 0 0 1
7.390426 -30.361909 19.960753 37.079584 -1.332029 1.002352 0.023958 -0.004725 107347.000000 0 0 1
6.980526 -31.000309 18.776753 36.909529 -1.349314 1.037095 0.010387 -0.006195 -46196.100000 0 0 1
7.510026 -32.446309 18.618453 38.155081 -1.343342 1.061036 0.012821 -0.006434 270063.000000 0 0 1
7.063726 -33.351309 19.621053 39.334358 -1.362083 1.048551 0.010485 -0.002324 124088.000000 0 0 1
8.020526 -34.364709 19.609353 40.370642 -1.341507 1.063595 0.021667 -0.004279 -99731.400000 0 0 1
7.767326 33.882565 20.711353 40.463807 1.345447 1.033461 0.032304 -0.009888 699675.000000 0 0 1
6.803926 32.888365 20.235853 39.210046 1.366795 1.028518 0.033770 -0.012592 501482.000000 0 0 1
6.923426 31.677065 20.983753 38.622379 1.355617 0.996427 0.023595 -0.014713 6683.060000 0 0 1
5.975726 30.491365 20.679253 37.323774 1.377268 0.983574 0.034679 -0.014178 1563060.000000 0 0 1
4.570326 30.651165 21.026153 37.449711 1.422779 0.974659 0.024889 -0.010987 1438620.000000 0 0 1
3.891826 29.395465 21.032853 36.354099 1.439166 0.953840 0.023702 -0.010541 798652.000000 0 0 1
2.412726 29.392865 21.529053 36.513858 1.488895 0.940216 0.011836 -0.003848 426679.000000 0 0 1
2.338726 29.399465 22.904753 37.342012 1.491414 0.910466 0.018291 -0.013187 656889.000000 0 0 1
0.984826 29.318465 23.378553 37.511318 1.537218 0.897917 0.003590 -0.007914 691404.000000 0 0 1
0.832726 28.581065 24.730723 37.804488 1.541669 0.857706 0.018694 -0.012530 -263581.000000 0 0 1
1.278826 29.385365 25.784273 39.114751 1.527305 0.851048 0.020621 -0.011302 210989.000000 0 0 1
1.152726 28.846165 27.076993 39.580216 1.530856 0.817421 0.009093 -0.008548 -52551.700000 0 0 1
2.436426 28.173265 27.623563 39.531383 1.484531 0.797112 -0.005556 -0.008527 -81137.500000 0 0 1
2.800526 26.955165 27.003953 38.257513 1.467272 0.787178 0.004166 -0.010855 443493.000000 0 0 1
3.783526 26.256865 27.762223 38.398946 1.427685 0.762669 -0.015409 -0.000235 91171.500000 0 0 1
4.175526 24.883465 27.209223 37.107461 1.404542 0.747700 -0.023023 0.006451 -112875.000000 0 0 1
3.088226 23.966565 27.154993 36.350062 1.442647 0.727196 -0.009060 0.005492 68589.900000 0 0 1
3.500526 22.621765 26.976953 35.380134 1.417272 0.703645 -0.011720 0.011096 579344.000000 0 0 1
2.271026 21.644265 26.957023 34.645531 1.466254 0.679192 -0.013642 0.013474 168651.000000 0 0 1
2.624426 20.282165 26.885413 33.779864 1.442116 0.650303 -0.008896 0.017741 97964.500000 0 0 1
3.148626 19.876765 25.602213 32.564903 1.413694 0.666176 -0.002261 0.013221 -150638.000000 0 0 1
3.602826 18.385465 25.539923 31.674806 1.377288 0.632898 -0.001208 0.007498 -145985.000000 0 0 1
4.562526 18.049965 26.509733 32.394194 1.323210 0.612265 -0.000942 0.009284 215707.000000 0 0 1
5.874626 17.895165 25.986313 32.094183 1.253601 0.627174 0.019991 0.012113 -153138.000000 0 0 1
7.010226 17.854265 27.033553 33.147112 1.196654 0.617095 0.001239 0.006816 -23707.300000 0 0 1
7.289926 19.050065 27.741223 34.432883 1.205317 0.634006 0.003438 0.003942 124202.000000 0 0 1
7.949626 20.008765 26.922353 34.472602 1.192614 0.674566 -0.004827 -0.007027 -387586.000000 0 0 1
8.358726 21.381365 27.529923 35.845888 1.198129 0.695072 -0.021579 -0.003477 -175199.000000 0 0 1
9.494826 21.167365 28.320173 36.609305 1.149141 0.686327 -0.008736 -0.015936 -317717.000000 0 0 1
9.829126 22.423065 28.860453 37.846153 1.157674 0.703515 0.007659 -0.011887 -207057.000000 0 0 1
10.797026 22.410665 30.057683 39.016381 1.121830 0.691350 0.026339 -0.013833 -501475.000000 0 0 1
12.096826 22.024865 29.741243 38.935451 1.068541 0.701523 0.020551 -0.024464 -1009250.000000 0 0 1
12.882326 22.002965 30.911463 40.069980 1.041121 0.689700 0.031277 -0.018124 337199.000000 0 0 1
14.370526 21.868665 30.457493 40.154818 0.989426 0.709786 0.030328 -0.024463 139104.000000 0 0 1
14.862526 22.964165 29.784203 40.439415 0.996388 0.742894 0.022917 -0.039281 120689.000000 0 0 1
16.244626 22.703365 29.549613 40.651079 0.949733 0.756987 0.070416 -0.022934 416125.000000 0 0 1
-8.782227 16.723665 4.613224 19.444544 -1.087241 1.331262 0.002074 -0.014274 -483023.000000 0 1 0
-8.617227 18.116465 4.821024 20.632624 -1.126812 1.334956 0.004121 -0.015809 219228.000000 0 1 0
-7.250327 18.487165 4.931824 20.461314 -1.197048 1.327368 -0.001729 -0.008782 46029.900000 0 1 0
-6.966927 19.898765 5.511724 21.791696 -1.234016 1.315091 -0.000608 -0.010262 -152096.000000 0 1 0
-7.265727 21.008565 4.666024 22.713924 -1.237827 1.363898 0.005264 -0.009936 275912.000000 0 1 0
-8.626727 21.277365 4.357524 23.369524 -1.185608 1.383237 0.004227 -0.013731 192311.000000 0 1 0
-8.858827 22.494465 3.429324 24.418026 -1.195627 1.429888 0.014432 -0.015445 -355017.000000 0 1 0
-8.223527 22.444565 2.168924 24.001856 -1.219593 1.480308 0.006153 -0.014869 -246417.000000 0 1 0
-8.636427 21.421565 1.223724 23.129393 -1.187564 1.517864 0.011135 -0.014165 -916628.000000 0 1 0
-7.897127 21.403165 -0.157876 22.814140 -1.217323 1.577716 -0.005251 -0.000485 127642.000000 0 1 0
-6.650727 20.765365 -0.261176 21.805980 -1.260840 1.582774 -0.001858 0.001741 -643547.000000 0 1 0
-5.612627 21.523565 0.278224 22.245063 -1.315710 1.558289 -0.000328 -0.006119 -1421850.000000 0 1 0
-4.263227 21.279665 -0.363376 21.705559 -1.373071 1.587538 0.005384 -0.001058 -682693.000000 0 1 0
-4.292527 21.525765 -1.750476 22.019276 -1.373965 1.650378 0.002683 -0.008759 66461.200000 0 1 0
-2.985627 21.639565 -2.282776 21.963510 -1.433691 1.674919 0.003323 0.003330 30592.300000 0 1 0
-2.914127 22.128365 -3.776576 22.636678 -1.439858 1.738415 0.004650 0.004992 118187.000000 0 1 0
-1.623327 22.265365 -4.358776 22.746001 -1.498017 1.763617 0.008453 0.004145 388714.000000 0 1 0
-1.701727 22.531865 -5.742976 23.314428 -1.495414 1.819685 0.012355 -0.005721 199638.000000 0 1 0
-0.360727 23.139765 -6.217876 23.963322 -1.555209 1.833275 0.015767 -0.009113 677330.000000 0 1 0
0.761173 22.277765 -6.104076 23.111424 1.536642 1.838083 0.011346 -0.001718 -105196.000000 0 1 0
1.987773 22.806665 -6.502976 23.798821 1.483858 1.847564 0.012596 -0.004726 334708.000000 0 1 0
3.153773 21.764965 -6.592176 22.959023 1.426897 1.862023 0.013776 -0.003372 348831.000000 0 1 0
3.019273 20.962965 -7.697276 22.534639 1.427751 1.919389 0.016530 -0.008351 429108.000000 0 1 0
3.964973 19.881765 -7.684976 21.680969 1.373951 1.933130 0.019800 -0.009188 564591.000000 0 1 0
3.672073 18.970765 -8.820676 21.240959 1.379596 1.999033 0.013694 -0.010398 167308.000000 0 1 0
3.973073 19.585165 -10.052076 22.369806 1.370651 2.036844 0.018429 -0.010835 -287086.000000 0 1 0
3.114973 19.097465 -11.033976 22.274758 1.409111 2.089043 0.023057 -0.013617 -244765.000000 0 1 0
3.501973 19.425865 -12.505976 23.367231 1.392438 2.135532 0.030738 -0.012333 13934.900000 0 1 0
3.393773 20.805865 -12.794876 24.659898 1.409104 2.116306 0.041400 -0.010270 -171878.000000 0 1 0
3.884773 21.166565 -14.067476 25.710091 1.389283 2.149761 0.051493 -0.008442 78022.000000 0 0 1
4.102073 22.710165 -14.326476 27.162962 1.392096 2.126365 0.036822 -0.009127 73173.800000 0 0 1
2.967573 23.453665 -14.697976 27.837230 1.444936 2.127037 0.046489 -0.008106 -491258.000000 0 0 1
3.314173 24.813765 -14.978076 29.172751 1.438020 2.109970 0.033855 -0.010156 -25901.400000 0 0 1
2.164573 25.646265 -15.561876 30.076374 1.486595 2.114620 0.035442 -0.006526 180243.000000 0 0 1
1.178373 26.098465 -14.652876 29.953718 1.525676 2.081950 0.045239 -0.007871 -169162.000000 0 0 1
1.335573 27.438565 -14.296076 30.968312 1.522160 2.050634 0.031198 -0.003614 -654763.000000 0 0 1
0.539173 27.744165 -13.013576 30.649348 1.551365 2.009311 0.036385 -0.012476 442412.000000 0 0 1
-0.882727 27.794565 -13.024976 30.707768 -1.539048 2.008829 0.038852 -0.020010 554568.000000 0 0 1
-1.565727 26.533265 -13.262676 29.704616 -1.511855 2.033630 0.035005 -0.018731 -379939.000000 0 0 1
-1.539827 25.379265 -12.232976 28.215667 -1.510198 2.019228 0.067378 -0.023377 -139072.000000 0 0 1
-2.282127 25.653865 -11.049076 28.025184 -1.482071 1.976054 0.049229 -0.019106 106040.000000 0 0 1
-2.550327 24.393665 -10.385576 26.634850 -1.466626 1.971346 0.073908 -0.018443 357614.000000 0 0 1
-3.388327 24.243765 -9.058976 26.101838 -1.431935 1.925234 0.049275 -0.016056 460779.000000 0 0 1
-2.808027 24.739365 -7.805576 26.093068 -1.457776 1.874591 0.039953 -0.018143 29588.900000 0 0 1
-2.559327 26.123065 -7.853676 27.397899 -1.473136 1.861527 0.039764 -0.020051 -29785.200000 0 0 1
-2.278027 26.661165 -6.425776 27.519043 -1.485560 1.806475 0.024674 -0.015437 286407.000000 0 0 1
-1.031727 26.349965 -5.817176 27.004160 -1.531662 1.787916 0.022679 -0.012704 -38817.700000 0 0 1
-0.926727 26.621765 -4.435876 27.004706 -1.536000 1.735807 0.012730 -0.012354 -319681.000000 0 0 1
-1.819327 25.883965 -3.410776 26.171033 -1.500624 1.701494 0.010331 -0.013936 -736885.000000 0 0 1
-3.167027 26.171565 -3.546476 26.599969 -1.450372 1.704521 0.000895 -0.012908 -700443.000000 0 0 1
-3.939927 25.605365 -2.474576 26.024628 -1.418123 1.666026 0.000287 -0.007648 572401.000000 0 0 1
-5.179127 24.784665 -2.936876 25.489766 -1.364796 1.686271 0.001622 -0.008233 -79254.900000 0 0 1
-6.191227 25.494565 -3.577976 26.478407 -1.332563 1.706339 0.003250 -0.006403 -974815.000000 0 0 1
-7.281727 24.733365 -3.953776 26.084386 -1.284477 1.722959 -0.001224 -0.009112 143081.000000 0 0 1
-8.583427 25.580665 -4.104176 27.292671 -1.247058 1.721745 -0.005363 -0.004518 395042.000000 0 0 1
-9.217627 25.912965 -2.861376 27.652014 -1.229039 1.674460 -0.010009 -0.011609 392601.000000 0 0 1
-10.540727 26.419765 -3.053776 28.608328 -1.191177 1.677744 -0.003887 -0.005433 705688.000000 0 0 1
-11.298927 26.718965 -1.712476 29.060306 -1.170722 1.629759 -0.001718 -0.009240 -14075.200000 0 0 1
-11.786127 25.573465 -1.039276 28.177916 -1.138937 1.607687 0.002493 -0.016116 264625.000000 0 0 1
-10.783927 24.733665 -0.456676 26.986215 -1.159644 1.587720 -0.000182 -0.015558 108239.000000 0 0 1
-11.280427 23.294965 -0.157776 25.882973 -1.119833 1.576892 0.006923 -0.021592 -269478.000000 0 0 1
-12.107127 23.281965 0.992624 26.260573 -1.091260 1.532988 0.012832 -0.019546 -219498.000000 0 0 1
-12.632627 22.021265 1.167824 25.414232 -1.049973 1.524829 0.014908 -0.024100 -415715.000000 0 0 1
-13.305027 21.913065 2.553924 25.762932 -1.025119 1.471502 0.019153 -0.024481 -637911.000000 0 0 1
-12.468327 22.030465 3.656324 25.576733 -1.055784 1.427350 0.030988 -0.021666 -223839.000000 0 0 1
-12.301027 23.352665 4.095824 26.710260 -1.085978 1.416846 0.015497 -0.010627 -381133.000000 0 0 1
-12.209227 23.432665 5.647424 27.019408 -1.090463 1.360230 0.012988 -0.011361 256502.000000 0 0 1
-11.027427 22.793665 6.129324 26.052330 -1.120198 1.333300 0.007465 -0.011659 494819.000000 0 0 1
-11.244127 22.556765 7.488524 26.292889 -1.108364 1.281986 0.005604 -0.009775 -226064.000000 0 0 1
-9.981827 22.181465 8.271124 25.691744 -1.147936 1.243022 0.009805 -0.012820 -682660.000000 0 0 1
-9.000327 23.205565 8.352824 26.254024 -1.200806 1.247015 0.012702 -0.011756 -350436.000000 0 0 1
-7.880527 22.840565 9.069924 25.808092 -1.238562 1.211691 0.020154 -0.008516 -753700.000000 0 0 1
-8.089327 22.649165 10.592024 26.279514 -1.227759 1.155946 0.018011 -0.007041 -494371.000000 0 0 1
-8.930827 21.572665 11.008924 25.813484 -1.178290 1.130199 0.023683 -0.005210 187980.000000 0 0 1
-8.369827 20.888665 12.110624 25.554990 -1.189697 1.077077 0.018516 -0.003405 316982.000000 0 0 1
-9.320827 19.771665 12.711324 25.285852 -1.130270 1.044071 0.018313 -0.006793 290585.000000 0 0 1
-9.336727 18.630465 11.860924 23.978119 -1.106226 1.053357 0.027301 -0.019881 436250.000000 0 1 0
-10.132027 17.545665 12.455824 23.783521 -1.047111 1.019588 0.026858 -0.018472 482926.000000 0 1 0
-10.511127 16.373265 11.496424 22.599454 -1.000088 1.037118 0.030225 -0.026729 -207465.000000 0 1 0
-10.884627 15.230165 12.265424 22.380206 -0.950289 0.990768 0.021619 -0.019162 -87801.900000 0 1 0
-11.451327 14.345465 11.347424 21.579835 -0.897121 1.017100 0.017816 -0.009893 -23416.500000 0 1 0
-11.741927 12.954565 11.917424 21.159362 -0.834460 0.972516 0.012120 -0.012859 187760.000000 0 1 0
-12.663527 12.907165 12.988224 22.263283 -0.794926 0.947897 0.014041 -0.001564 -181615.000000 0 1 0
-13.152427 11.620565 13.233624 21.980734 -0.723641 0.924723 0.007385 0.002736 318432.000000 0 1 0
-14.057727 11.659765 14.535824 23.342236 -0.692425 0.898574 0.006699 0.012021 586009.000000 0 1 0
-15.199527 12.483365 14.308724 24.322820 -0.687594 0.941861 0.011578 0.016625 -417202.000000 0 1 0
-15.694827 12.710465 15.564024 25.497497 -0.680719 0.914213 0.012703 0.023470 -832788.000000 0 0 1
-16.729227 13.813165 15.543524 26.688419 -0.690211 0.949110 0.028809 0.019813 -282378.000000 0 0 1
-17.968427 13.477265 14.941124 26.976623 -0.643535 0.983810 0.021348 0.025465 -391767.000000 0 0 1
-18.735327 14.614365 14.835324 28.012122 -0.662453 1.012663 0.035185 0.015464 -276983.000000 0 0 1
-20.118927 14.417765 14.184624 28.527999 -0.621798 1.050407 0.030938 0.016860 341771.000000 0 0 1
-21.004427 13.547565 14.903024 29.100216 -0.572842 1.033136 0.027242 0.026125 1057810.000000 0 0 1
-22.236327 13.366565 14.165824 29.559937 -0.541238 1.071026 0.010508 0.033536 658879.000000 0 0 1
-23.067227 12.223565 14.749924 29.984542 -0.487289 1.056505 -0.005351 0.034297 -253170.000000 0 0 1
-23.531627 12.593365 16.021724 31.129181 -0.491384 1.030156 0.005080 0.025933 -351771.000000 0 0 1
-24.388527 11.619065 16.514624 31.662844 -0.444602 1.022098 0.000420 0.022289 -518885.000000 0 0 1
-25.139027 12.188265 17.745124 33.097037 -0.451442 1.004922 0.000712 0.013819 -13063.800000 0 0 1
-26.134727 13.169765 17.350924 34.022363 -0.466777 1.035628 -0.003299 0.021864 547845.000000 0 0 1
-26.721087 13.721765 18.488924 35.272420 -0.474404 1.019050 -0.018617 0.019777 -9964.190000 0 0 1
-27.949957 14.599165 18.214724 36.415819 -0.481353 1.046981 -0.022575 0.011177 516131.000000 0 0 1
-27.433737 15.872565 17.699024 36.301566 -0.524519 1.061509 -0.020418 0.014846 1213300.000000 0 0 1
-28.528757 16.825665 17.722624 37.564403 -0.532870 1.079473 -0.009000 0.010829 1014210.000000 0 0 1
-28.059697 18.324265 17.424124 37.772018 -0.578513 1.091340 0.008608 0.010024 -104464.000000 0 0 1
-27.359887 19.031265 18.426324 38.082566 -0.607760 1.065745 0.005608 0.007973 124244.000000 0 0 1
-28.084317 19.335965 19.610424 39.334172 -0.602964 1.048860 0.011063 0.002485 48743.400000 0 0 1
-27.128817 19.275965 20.847224 39.270119 -0.617761 1.011173 0.010922 -0.003944 508654.000000 0 0 1
-26.981357 17.942465 21.389024 38.825456 -0.586844 0.987352 0.005652 -0.005234 147694.000000 0 0 1
-25.912597 17.225465 20.776624 37.414535 -0.586676 0.982062 0.021817 0.002995 -64015.100000 0 0 1
-25.534797 16.030665 21.629124 37.105620 -0.560608 0.948495 0.008249 0.001184 -158929.000000 0 0 1
-26.602187 15.102965 21.735124 37.525878 -0.516357 0.953045 -0.022825 0.004107 110045.000000 0 0 1
-26.249127 13.817465 22.186224 37.042780 -0.484542 0.928626 -0.031347 0.010289 -328411.000000 0 0 1
-27.441207 12.875665 22.489024 37.743327 -0.438713 0.932484 -0.024784 0.003861 -6363.210000 0 0 1
-28.215137 12.607565 21.354024 37.563799 -0.420220 0.966147 -0.017442 -0.001604 -189954.000000 0 0 1
-29.139697 11.567165 21.514424 38.023567 -0.377879 0.969371 0.004370 -0.007458 -240355.000000 0 0 1
-29.836387 11.189165 20.148424 37.701013 -0.358786 1.006967 0.018968 0.001637 -98417.500000 0 0 1
-28.959527 10.988865 19.058624 36.368125 -0.362672 1.019200 0.026933 -0.004713 210312.000000 0 0 1
-28.147197 9.839865 19.091324 35.405738 -0.336306 1.001291 0.043010 -0.004191 -172513.000000 0 0 1
-27.385447 9.513465 17.776924 34.007172 -0.334349 1.020734 0.051250 -0.000831 -379546.000000 0 0 1
-28.210037 9.223665 16.654424 34.033102 -0.316007 1.059441 0.033096 0.015376 445736.000000 0 0 1
-28.997397 10.303165 16.174024 34.764972 -0.341401 1.086892 0.026237 0.016192 -426867.000000 0 0 1
-28.265227 11.376365 15.378824 34.129942 -0.382648 1.103363 0.011343 0.012902 -470886.000000 0 0 1
-28.028147 11.070865 14.015424 33.235119 -0.376181 1.135471 -0.004458 0.006767 -33670.000000 0 0 1
-27.238337 12.020265 13.370924 32.637331 -0.415595 1.148691 -0.006816 0.009366 -290314.000000 0 0 1
-27.052227 11.836265 11.858124 31.820359 -0.412439 1.188924 0.000090 0.012911 -97064.900000 0 0 1
-26.281307 10.671865 11.487024 30.603064 -0.385722 1.186016 0.014417 0.018432 982105.000000 0 0 1
-27.094437 9.504865 11.402424 30.894437 -0.337392 1.192781 -0.000117 0.020257 -124030.000000 0 0 1
-26.381957 8.360265 10.625424 29.644583 -0.306882 1.204214 -0.004358 0.005947 -163850.000000 0 0 1
-26.067637 8.791265 9.288724 29.035985 -0.325270 1.245168 0.004630 0.005463 141581.000000 0 0 1
-25.646617 7.720365 8.516124 28.104757 -0.292400 1.262943 0.012550 0.002542 -348714.000000 0 0 1
-25.100317 8.163065 7.154524 27.346823 -0.314429 1.306094 0.015133 0.001206 -134328.000000 0 0 1
-26.087577 8.609565 6.244524 28.172333 -0.318771 1.347285 0.019993 0.001189 170512.000000 0 0 1
-25.489727 9.080465 5.080024 27.531576 -0.342223 1.385217 0.023487 -0.000879 -43295.100000 0 0 1
-26.442797 8.885565 3.894224 28.166287 -0.324175 1.432094 0.010209 0.004171 -404440.000000 0 0 1
-26.788177 7.495265 3.552824 28.042966 -0.272821 1.443763 0.014362 0.000021 481952.000000 0 0 1
-25.778327 6.510465 3.306424 26.792550 -0.247383 1.447073 0.004926 0.001827 124910.000000 0 0 1
-24.818827 6.716065 2.105324 25.797521 -0.264274 1.489096 0.031921 -0.007723 -273349.000000 0 0 1
-23.971327 7.822865 2.173624 25.309017 -0.315446 1.484807 0.030857 -0.006278 -542401.000000 0 0 1
-22.877727 7.671265 1.355824 24.167684 -0.323534 1.514666 0.035192 -0.002633 -1379380.000000 0 1 0
-21.805027 8.682665 1.689024 23.530845 -0.378950 1.498955 0.024648 -0.001143 -717954.000000 0 1 0
-22.090727 10.044265 1.316324 24.302678 -0.426741 1.516606 0.015896 -0.003090 -13362.800000 0 1 0
-21.180027 10.920065 1.896324 23.904757 -0.476036 1.491385 0.030347 0.003580 -793169.000000 0 1 0
-21.531027 12.414565 2.198424 24.950743 -0.523028 1.482571 0.014915 0.006576 -722038.000000 0 1 0
-20.411527 13.141465 2.607324 24.415705 -0.572022 1.463804 0.012687 -0.001861 75291.400000 0 1 0
-20.754127 14.373965 3.158424 25.442490 -0.605731 1.446336 -0.007314 -0.012741 -737537.000000 0 0 1
-19.555027 14.880865 3.960124 24.890195 -0.650487 1.411014 -0.030913 -0.011691 -328827.000000 0 1 0
-19.327827 13.982565 5.025624 24.378964 -0.626286 1.363162 -0.020510 -0.010443 569945.000000 0 1 0
-18.471127 14.616865 6.003024 24.307850 -0.669436 1.321256 -0.019185 -0.013827 191398.000000 0 1 0
-18.026227 13.668865 7.096024 23.709413 -0.648777 1.266846 -0.021766 -0.004532 38896.800000 0 1 0
-17.002227 12.739365 6.741424 22.289323 -0.643038 1.263533 -0.010025 -0.007208 525882.000000 0 1 0
-16.533527 12.059765 7.849724 21.918339 -0.630195 1.204527 -0.013931 0.003997 -415186.000000 0 1 0
9.987673 -34.073209 -14.434276 38.328651 -1.285660 1.956911 0.002364 0.015092 229717.000000 0 0 1
11.102773 -33.492309 -13.728476 37.861291 -1.250695 1.941852 -0.003628 0.004528 527021.000000 0 0 1
11.467573 -32.225209 -14.138176 37.011584 -1.228913 1.962749 -0.000954 -0.007959 -384154.000000 0 0 1
12.707973 -31.745809 -13.359276 36.711840 -1.190028 1.943243 0.007011 -0.010416 -78373.000000 0 0 1
13.881073 -32.364709 -13.837476 37.836944 -1.165631 1.945195 0.006252 -0.007778 -560963.000000 0 0 1
15.036973 -31.717609 -13.371776 37.562237 -1.128091 1.934769 0.007847 -0.007959 -417863.000000 0 0 1
16.300773 -32.381309 -13.902976 38.827273 -1.104432 1.936999 0.017362 -0.005913 -255381.000000 0 0 1
16.682273 -33.578309 -13.227676 39.758930 -1.109698 1.909958 0.020479 -0.021206 -549221.000000 0 0 1
17.793073 -34.152809 -13.866776 40.930371 -1.090503 1.916426 0.002249 -0.001206 -1189040.000000 0 0 1
17.863173 33.607065 -13.771076 40.474316 1.082244 1.917971 -0.006459 -0.002123 -207744.000000 0 0 1
18.244973 33.214265 -12.473976 39.895695 1.068482 1.888793 -0.003906 -0.006326 -70585.100000 0 0 1
17.896473 31.873265 -12.247976 38.551286 1.059176 1.894106 -0.005263 -0.003495 51590.200000 0 0 1
18.487173 31.428465 -10.871576 38.048852 1.039076 1.860561 0.003682 -0.013117 349236.000000 0 0 1
19.824873 30.984865 -10.976176 38.387027 1.001608 1.860778 -0.003336 -0.013638 102695.000000 0 0 1
20.479173 30.838465 -9.721476 38.274202 0.984587 1.827605 0.005885 -0.011554 974774.000000 0 0 1
21.735673 29.897165 -9.715276 38.218667 0.942169 1.827819 0.000712 0.008425 1396140.000000 0 0 1
22.935673 30.320565 -10.396476 39.414064 0.923187 1.837731 -0.000185 -0.003667 683479.000000 0 0 1
23.986573 29.443265 -10.029076 39.279052 0.887173 1.828984 -0.001009 0.006975 -474960.000000 0 0 1
25.251873 29.779465 -10.788776 40.507670 0.867486 1.840389 -0.003023 -0.005926 -777640.000000 0 0 1
25.895373 30.992265 -10.526676 41.736096 0.874755 1.825770 -0.001205 -0.011098 148821.000000 0 0 1
26.824873 31.371665 -11.518476 42.853593 0.863368 1.842929 0.008825 -0.012267 -88451.800000 0 0 1
27.439073 32.752465 -11.443476 44.233243 0.873445 1.832480 0.008752 -0.011141 -560228.000000 0 0 1
26.602873 33.804765 -11.861476 44.622523 0.904060 1.839849 0.015774 -0.007422 -97153.600000 0 0 1
27.187273 -34.284209 -11.561776 45.257369 -0.900340 1.829127 0.020769 -0.012336 209554.000000 0 0 1
26.268673 -33.084509 -11.949276 43.902313 -0.899733 1.846453 0.017999 -0.002620 745063.000000 0 0 1
25.010673 -33.089909 -11.271376 42.982784 -0.923568 1.836129 0.022012 -0.014190 1100920.000000 0 0 1
24.014773 -32.046209 -11.553576 41.679179 -0.927692 1.851678 0.029698 -0.016496 1212040.000000 0 0 1
24.440773 -30.602209 -11.205876 40.735958 -0.896873 1.849475 0.019235 -0.006412 -252401.000000 0 0 1
25.391673 -29.979809 -12.050576 41.094311 -0.868070 1.868412 0.015724 -0.003168 -153410.000000 0 0 1
25.787573 -28.792009 -11.374476 40.290910 -0.840390 1.856996 0.014897 -0.001841 -140654.000000 0 0 1
26.723173 -27.858309 -12.178076 40.478623 -0.806192 1.876382 0.019107 0.010407 -168795.000000 0 0 1
27.943573 -28.407709 -12.572376 41.784038 -0.793634 1.876422 0.009475 0.008791 -293077.000000 0 0 1
27.813873 -29.206209 -13.754376 42.612170 -0.809812 1.899462 0.013618 -0.002193 -286978.000000 0 0 1
29.091873 -30.037709 -14.035776 44.109002 -0.801393 1.894633 0.009002 0.004441 177426.000000 0 0 1
29.333873 -31.002009 -13.083076 44.640425 -0.813039 1.868240 0.000740 0.003244 400374.000000 0 0 1
30.507973 -31.657909 -13.577976 46.014357 -0.803894 1.870337 -0.003514 -0.001834 182953.000000 0 0 1
30.933973 -32.774809 -12.591176 46.793552 -0.814285 1.843233 -0.016577 0.006542 286997.000000 0 0 1
32.049273 -33.419209 -13.225876 48.155199 -0.806320 1.849023 -0.015935 0.001804 327983.000000 0 0 1
32.797273 -34.332709 -12.464376 49.089273 -0.808267 1.827519 -0.019516 0.003456 -322320.000000 0 0 1
32.127773 33.787665 -11.834776 48.102620 0.810575 1.819380 -0.015597 -0.005096 -340294.000000 0 0 1
31.503773 34.108365 -10.610176 47.628186 0.825074 1.795452 -0.022487 -0.010760 71472.600000 0 0 1
30.698873 33.025265 -10.129276 46.213539 0.821889 1.791775 -0.015871 -0.010946 -339046.000000 0 0 1
30.093373 33.451465 -8.765476 45.841522 0.838195 1.763194 -0.015790 -0.008076 -608367.000000 0 0 1
29.075773 34.368365 -8.939176 45.896557 0.868627 1.766817 -0.018382 -0.005550 -1088880.000000 0 0 1
28.435773 34.518165 -7.705076 45.381330 0.881716 1.741408 -0.013799 -0.006475 37797.800000 0 0 1
27.516173 -33.590509 -7.810376 44.118749 -0.884478 1.748765 -0.002730 -0.012638 -510795.000000 0 0 1
28.237573 -32.408109 -7.924476 43.708619 -0.854059 1.753107 -0.013751 -0.010899 -142652.000000 0 0 1
27.468373 -31.378209 -8.476376 42.555287 -0.851742 1.771323 -0.003340 -0.004288 -77771.000000 0 0 1
26.538273 -30.627009 -7.520276 41.217086 -0.856801 1.754279 0.008985 -0.005706 4775.140000 0 0 1
25.530173 -29.912609 -8.199876 40.172029 -0.864278 1.776360 0.009237 -0.015631 -313714.000000 0 0 1
24.673973 -29.385209 -7.219976 39.043866 -0.872328 1.756786 0.009972 -0.019770 -67836.000000 0 0 1
23.574173 -28.450009 -7.778676 37.757813 -0.878848 1.778297 0.040267 -0.021247 -114508.000000 0 0 1
22.675873 -29.121309 -8.651576 37.909044 -0.909198 1.801045 0.053456 -0.019303 229064.000000 0 0 1
21.931773 -28.146909 -9.397476 36.899373 -0.908874 1.828312 0.073212 -0.019328 -65978.300000 0 0 1
20.656373 -28.725709 -10.013676 36.771263 -0.947373 1.846603 0.071591 -0.020127 -370370.000000 0 0 1
20.972973 -29.608609 -11.100476 37.944115 -0.954495 1.867687 0.074757 -0.024209 111080.000000 0 0 1
19.922973 -30.375109 -11.683476 38.158560 -0.990286 1.881976 0.065716 -0.025116 227709.000000 0 0 1
19.551373 -31.654209 -10.916576 38.773919 -1.017496 1.856199 0.062126 -0.034133 203896.000000 0 0 1
20.530673 -32.660909 -11.106676 40.144760 -1.009612 1.851119 0.043319 -0.027348 -99913.900000 0 0 1
20.229673 -33.819909 -10.381076 40.752824 -1.031732 1.828368 0.026739 -0.026207 -690557.000000 0 0 1
21.265773 34.438065 -10.526076 41.821187 1.017603 1.825225 0.026634 -0.018863 -1136200.000000 0 0 1
22.277573 -34.610509 -9.641676 42.274573 -0.998887 1.800894 0.025875 -0.014394 -1291210.000000 0 0 1
23.278473 33.758465 -9.776576 42.155696 0.967112 1.804843 0.005638 -0.011479 61720.400000 0 0 1
24.519973 34.190665 -8.905276 43.006215 0.948650 1.779375 0.006873 -0.011690 -271462.000000 0 0 1
24.678273 33.608365 -7.595876 42.382032 0.937426 1.750994 0.008573 -0.023242 304691.000000 0 0 1
25.271573 32.307865 -7.654876 41.725863 0.906997 1.755298 0.010695 -0.008475 -180515.000000 0 0 1
25.576373 31.611565 -6.281676 41.144882 0.890542 1.724068 0.022751 -0.009534 736360.000000 0 0 1
26.669073 32.330965 -5.624776 42.286745 0.881069 1.704207 0.009378 -0.009473 797738.000000 0 0 1
27.525873 31.541665 -4.813776 42.139325 0.853280 1.685281 0.021105 -0.006647 -195663.000000 0 0 1
26.913273 30.738365 -3.642376 41.017536 0.851649 1.659714 0.021489 0.005106 -666372.000000 0 0 1
26.364573 31.470265 -2.546776 41.133373 0.873450 1.632751 0.014754 -0.000646 184772.000000 0 0 1
25.977373 30.672865 -1.440876 40.220948 0.868095 1.606628 0.009375 0.009434 1177150.000000 0 0 1
24.729973 29.671265 -1.620076 38.659800 0.875980 1.612715 0.025025 0.002000 1288800.000000 0 0 1
23.429173 30.239265 -1.507076 38.283293 0.911616 1.610173 0.023455 0.000227 -134926.000000 0 0 1
22.457773 29.243865 -1.572876 36.905679 0.915907 1.613428 0.022832 0.003104 479781.000000 0 0 1
21.105773 29.685265 -0.902676 36.434646 0.952736 1.595574 0.038790 -0.009144 652421.000000 0 0 1
21.176073 29.754365 0.476524 36.523627 0.952264 1.557749 0.049410 -0.013210 -70538.700000 0 0 1
20.075073 30.483765 0.950824 36.512635 0.988434 1.544752 0.040547 -0.012008 48934.600000 0 0 1
19.268373 29.866465 2.142324 35.607098 0.997838 1.510594 0.039879 -0.022097 238042.000000 0 0 1
18.471573 28.728665 1.756924 34.199736 0.999381 1.519401 0.043437 -0.015199 416564.000000 0 0 1
17.862873 28.067265 2.821124 33.388805 1.004019 1.486202 0.055523 -0.018370 78759.600000 0 0 1
17.193073 26.707065 2.339524 31.848743 0.998817 1.497273 0.042079 0.008403 421238.000000 0 0 1
18.103073 25.704465 1.897124 31.496664 0.957205 1.510527 0.031357 0.001355 367610.000000 0 0 1
18.988873 25.118965 2.836324 31.616205 0.923493 1.480964 0.044103 0.002745 -18889.100000 0 0 1
20.247673 24.498465 2.183924 31.857692 0.880112 1.502190 0.036379 0.008182 -178870.000000 0 0 1
20.020473 23.335865 1.342324 30.776351 0.861718 1.527167 0.028927 0.015893 1019820.000000 0 0 1
21.288773 22.779365 0.925824 31.192442 0.819210 1.541111 0.005393 0.015296 707588.000000 0 0 1
21.253173 21.616765 -0.014576 30.314717 0.793879 1.571277 0.035506 0.008647 -492633.000000 0 0 1
20.969373 22.040865 -1.341676 30.451838 0.810305 1.614870 0.020482 0.008646 356635.000000 0 0 1
21.227973 21.096465 -2.328576 30.018493 0.782291 1.648446 0.053890 -0.002801 -121308.000000 0 0 1
21.095573 21.597265 -3.762376 30.424012 0.797149 1.694778 0.032588 -0.003099 496181.000000 0 0 1
22.087073 22.572965 -4.143776 31.851977 0.796278 1.701261 0.018114 0.006410 829771.000000 0 0 1
21.612773 23.199365 -5.336776 32.152817 0.820789 1.737550 0.018778 -0.003908 -518935.000000 0 0 1
22.411273 24.407965 -5.725576 33.627312 0.828019 1.741896 0.016452 0.018540 -401007.000000 0 0 1
22.358273 25.561865 -4.869276 34.307596 0.852152 1.713207 0.009049 0.017232 -85622.300000 0 0 1
22.840173 25.485065 -3.541176 34.404970 0.840075 1.673905 0.021641 0.013352 -349158.000000 0 0 1
21.804173 25.189465 -2.433376 33.404377 0.857311 1.643707 0.012394 0.011365 -830512.000000 0 0 1
20.827073 26.209265 -2.345076 33.558783 0.899329 1.640733 0.020832 0.008426 722517.000000 0 0 1
19.705073 25.965265 -1.495576 32.630072 0.921623 1.616647 0.036763 0.010670 685646.000000 0 0 1
18.729473 24.808365 -1.900476 31.142574 0.924125 1.631859 0.032688 -0.001608 -676886.000000 0 0 1
18.048073 25.176365 -3.097276 31.131582 0.948841 1.670451 0.033754 -0.006061 -131707.000000 0 0 1
17.317173 24.097465 -3.575276 29.889043 0.947676 1.690702 0.029073 -0.011667 -192583.000000 0 0 1
16.761773 24.392565 -4.973176 30.011443 0.968735 1.737274 0.034349 -0.010113 -4737.530000 0 0 1
16.054773 23.305265 -5.566076 28.842197 0.967565 1.764999 0.041821 -0.013481 265412.000000 0 0 1
15.458073 23.572065 -6.811176 28.999765 0.990369 1.807881 0.030791 -0.018270 -204810.000000 0 0 1
14.845473 22.316465 -7.417976 27.810772 0.983792 1.840795 0.031616 -0.018903 -456911.000000 0 0 1
15.767273 21.298065 -7.773076 27.615850 0.933523 1.856124 0.012540 -0.006391 379735.000000 0 0 1
15.065373 20.368465 -8.528976 26.731690 0.933957 1.895532 0.019684 -0.005962 309293.000000 0 0 1
15.963473 19.099465 -8.811276 26.405693 0.874600 1.911010 0.009822 -0.001599 736407.000000 0 0 1
17.113473 19.345665 -9.608676 27.558163 0.846546 1.926947 -0.000587 0.001464 337065.000000 0 0 1
17.892473 18.177065 -9.757176 27.308401 0.793288 1.936167 -0.006991 0.004108 -264505.000000 0 0 1
19.223873 18.416565 -10.471276 28.607250 0.763954 1.945542 -0.012957 0.009253 -297386.000000 0 0 1
19.039273 18.725165 -11.825776 29.205730 0.777081 1.987680 -0.018753 0.008493 319307.000000 0 0 1
20.255973 19.266065 -12.305476 30.543583 0.760356 1.985460 -0.010595 0.014382 221243.000000 0 0 1
20.191173 19.399565 -13.807576 31.219797 0.765406 2.028924 -0.010530 0.014181 -31932.800000 0 0 1
20.022073 18.240465 -14.628676 30.783049 0.738869 2.066009 -0.014058 0.024651 338283.000000 0 0 1
20.460273 18.682665 -15.892076 31.940927 0.740016 2.091564 -0.005909 0.014155 -103714.000000 0 0 1
20.342273 17.598665 -16.991176 31.815423 0.713211 2.134186 -0.001514 0.002762 -401271.000000 0 0 1
21.223873 16.503065 -16.833576 31.720234 0.660914 2.130209 0.019269 -0.002067 105774.000000 0 0 1
21.409173 15.718765 -18.028076 32.100526 0.633317 2.167130 0.030640 -0.008330 -332991.000000 0 0 1
22.205273 16.466465 -19.101176 33.601690 0.638075 2.175428 0.024748 -0.013705 -510605.000000 0 0 1
23.586273 16.601465 -18.816676 34.438179 0.613313 2.148844 0.048688 -0.022991 263731.000000 0 0 1
24.346273 16.856565 -19.961176 35.711809 0.605585 2.163917 0.066348 -0.027621 255882.000000 0 0 1
25.813273 17.230065 -19.578176 36.694757 0.588571 2.133579 0.057793 -0.025557 357636.000000 0 0 1
25.969173 18.607665 -19.316076 37.333014 0.621733 2.114605 0.049405 -0.020361 334515.000000 0 0 1
27.270073 18.949665 -18.856376 38.187820 0.607287 2.087227 0.047839 -0.024051 24206.900000 0 0 1
27.305173 19.744765 -17.518776 37.978095 0.626071 2.050241 0.037204 -0.016254 337726.000000 0 0 1
26.547273 19.206265 -16.415576 36.648458 0.626307 2.035234 0.027259 -0.020508 1082010.000000 0 0 1
25.154073 19.537465 -16.443176 35.844357 0.660379 2.047371 0.035995 -0.009139 559572.000000 0 0 1
24.304473 18.999865 -15.279976 34.426442 0.663509 2.030680 0.030987 0.006634 -126988.000000 0 0 1
24.867273 19.507865 -14.094076 34.606084 0.665205 1.990261 0.028698 0.003167 312518.000000 0 0 1
24.203773 19.125165 -12.904276 33.438225 0.668720 1.966995 0.019770 0.000347 -418263.000000 0 0 1
24.787973 19.763665 -11.626776 33.767262 0.673098 1.922312 0.022693 0.003174 -503756.000000 0 0 1
24.486773 21.122565 -11.446676 34.304390 0.711770 1.911001 0.014985 0.007553 18741.200000 0 0 1
24.846873 21.651365 -10.166476 34.489215 0.716783 1.870014 0.012040 0.004290 -334208.000000 0 0 1
24.106573 21.227565 -8.894276 33.329334 0.721977 1.840930 0.012795 0.005065 -906519.000000 0 0 1
24.379673 19.969665 -8.211976 32.566739 0.686286 1.825706 0.026890 -0.003062 -27085.900000 0 0 1
23.692673 19.854365 -6.987076 31.691604 0.697484 1.793094 0.031388 -0.006947 967418.000000 0 0 1
22.131073 19.586065 -7.034576 30.378999 0.724467 1.804478 0.027586 -0.001967 1061120.000000 0 0 1
21.498873 20.811165 -7.460776 30.837790 0.769146 1.815157 0.027130 -0.000038 -750148.000000 0 0 1
20.121973 20.658865 -7.617176 29.827904 0.798563 1.829028 0.028957 -0.003886 -713872.000000 0 0 1
19.358273 21.975165 -7.739576 30.291115 0.848626 1.829168 0.013035 -0.002122 -626938.000000 0 0 1
19.661873 22.816665 -8.836376 31.389026 0.859530 1.856165 -0.000178 0.008791 24410.800000 0 0 1
19.064073 22.492365 -10.075376 31.158603 0.867709 1.900072 -0.008647 0.013321 807444.000000 0 0 1
17.560273 22.911465 -10.297376 30.648562 0.916856 1.913444 0.004243 0.003392 611736.000000 0 0 1
17.370773 24.296865 -10.130876 31.539119 0.950114 1.897810 0.006882 0.002228 424010.000000 0 0 1
16.091673 24.695565 -10.633176 31.334921 0.993296 1.917011 0.016988 0.000318 596423.000000 0 0 1
15.734073 26.146665 -10.207476 32.177658 1.029082 1.893596 0.019956 0.003324 240190.000000 0 0 1
16.687273 27.116365 -10.671376 33.580360 1.019134 1.894190 0.037484 0.012464 388481.000000 0 0 1
16.486973 28.391865 -10.123576 34.357023 1.044694 1.869894 0.031182 -0.008444 -246298.000000 0 0 1
18.986273 29.395165 33.282739 48.293840 0.997310 0.810451 0.008073 0.017445 320224.000000 0 0 1
17.616373 29.740065 33.354361 48.034586 1.036025 0.803235 0.028094 -0.001396 -101800.000000 0 0 1
16.796173 28.689165 33.762822 47.382568 1.041141 0.777659 0.029057 -0.001846 422596.000000 0 0 1
15.283473 29.080465 33.715393 47.074257 1.086912 0.772430 0.065906 -0.014528 318355.000000 0 0 1
14.717373 29.278065 32.459823 46.124248 1.105010 0.790138 0.075086 -0.013902 -542512.000000 0 0 1
13.480573 29.900265 32.646213 46.276634 1.147235 0.787727 0.047032 -0.014925 -344956.000000 0 0 1
12.482573 29.741865 31.492363 45.079508 1.173426 0.797363 0.038116 -0.016327 -43503.000000 0 0 1
12.157973 28.421465 31.108493 43.855835 1.166578 0.782242 0.033371 -0.021365 381854.000000 0 0 1
10.767873 28.123965 31.108613 43.297232 1.205142 0.769168 0.013873 -0.010055 74676.900000 0 0 1
10.443873 26.606265 30.931863 42.115887 1.196742 0.745946 -0.012570 -0.004252 -235920.000000 0 0 1
10.779673 26.043665 29.645553 40.906389 1.178358 0.760173 -0.006742 0.004390 458972.000000 0 0 1
12.177673 25.814265 29.462893 41.021141 1.130010 0.769531 0.000156 -0.003464 348239.000000 0 0 1
12.519573 25.092265 28.130863 39.720359 1.107996 0.783819 0.015832 -0.012303 -309411.000000 0 0 1
12.223373 25.867965 26.962133 39.313090 1.129366 0.815051 0.002492 -0.002766 92885.300000 0 0 1
12.337173 25.141965 25.774273 38.060969 1.114616 0.826868 0.012467 -0.004115 -5357.080000 0 0 1
11.249373 24.070165 25.515973 36.837292 1.133602 0.805616 0.000697 0.001298 -525343.000000 0 0 1
11.417973 23.610265 24.177833 35.670468 1.120353 0.826015 0.012672 -0.005783 409343.000000 0 0 1
10.467673 22.594765 23.825553 34.463786 1.136955 0.807480 0.019974 -0.007603 238349.000000 0 0 1
10.630573 22.148765 22.361653 33.220782 1.123307 0.832373 0.032468 -0.010980 -49960.000000 0 0 1
10.176673 23.234565 21.509553 33.257639 1.157969 0.867474 0.032315 -0.009755 273157.000000 0 0 1
10.312673 22.998665 20.134253 32.259540 1.149271 0.896775 0.030558 -0.001310 -739104.000000 0 0 1
9.958973 24.219865 19.231153 32.490310 1.180681 0.937377 0.027827 -0.000204 162992.000000 0 0 1
8.576073 24.413165 19.012353 32.109519 1.232974 0.937122 0.024263 -0.003357 203773.000000 0 0 1
7.903573 25.100765 20.148053 33.143007 1.265750 0.917367 0.019528 -0.005742 86088.300000 0 0 1
6.528673 25.639565 19.679153 32.973928 1.321462 0.931277 0.032111 -0.004381 60976.700000 0 0 1
6.640373 26.566565 18.590353 33.098008 1.325863 0.974386 0.031911 -0.009900 292819.000000 0 0 1
5.371173 27.147565 18.312953 33.184394 1.375468 0.986210 0.023551 -0.010839 -19260.100000 0 0 1
5.535173 28.328065 17.320253 33.661678 1.377832 1.030326 0.022461 -0.003449 269333.000000 0 0 1
5.986673 27.867565 16.043453 32.708314 1.359187 1.058132 0.019466 -0.000631 296329.000000 0 0 1
6.635273 28.856265 15.194353 33.280313 1.344783 1.096675 0.011271 0.003049 735377.000000 0 0 1
7.318273 28.271465 13.925553 32.353576 1.317499 1.125841 0.010263 -0.000230 56496.000000 0 0 1
6.408173 28.256965 12.880953 31.708669 1.347786 1.152474 -0.001805 -0.003134 -347072.000000 0 0 1
6.405273 26.979065 12.227753 30.305369 1.337696 1.155474 -0.012910 -0.007291 -50514.900000 0 0 1
5.821173 26.986965 10.779653 29.637531 1.358348 1.198542 -0.012550 -0.008548 117668.000000 0 0 1
6.576073 27.715465 9.785253 30.118813 1.337833 1.239903 -0.015473 -0.003790 319440.000000 0 0 1
6.518673 29.129365 10.006953 31.482568 1.350640 1.247328 -0.017764 -0.000046 -471135.000000 0 0 1
6.839773 29.864265 8.719553 31.854158 1.345651 1.293524 -0.020996 0.008160 -671206.000000 0 0 1
5.952873 29.854565 7.621653 31.381863 1.373982 1.325475 -0.017457 -0.008746 -49368.700000 0 0 1
5.908473 28.624265 7.009553 30.056487 1.367240 1.335416 -0.015851 -0.000594 -247858.000000 0 0 1
4.435173 28.349765 6.684453 29.462889 1.415609 1.341926 -0.012589 -0.006151 -259598.000000 0 0 1
3.886673 29.197765 5.720653 30.005692 1.438459 1.378970 -0.023232 -0.001511 -316718.000000 0 0 1
2.480373 29.174765 5.684853 29.826778 1.485983 1.379027 -0.002378 -0.011494 -207749.000000 0 0 1
1.856773 30.311665 4.948953 30.769088 1.509617 1.409253 -0.003717 -0.012267 -825131.000000 0 0 1
2.199373 30.473965 3.560253 30.759960 1.498749 1.454793 -0.021471 -0.011485 -248426.000000 0 0 1
1.166673 31.098465 2.871653 31.252552 1.533298 1.478781 -0.024157 -0.014333 -129234.000000 0 0 1
0.036273 30.144265 2.413353 30.240739 1.569593 1.490907 -0.007381 -0.011514 -92575.500000 0 0 1
0.240073 29.408265 1.193053 29.433434 1.562633 1.530251 -0.004763 -0.012727 -402053.000000 0 0 1
-0.900827 28.605865 1.057953 28.639592 -1.539316 1.533848 0.002396 -0.008713 -1554.030000 0 0 1
-1.203327 28.046265 -0.325747 28.073957 -1.527918 1.582400 -0.010622 -0.009319 -349386.000000 0 0 1
-2.022227 28.932365 -1.032947 29.021339 -1.501015 1.606397 -0.005974 -0.014511 -250261.000000 0 0 1
-1.399127 29.920465 -1.847947 30.010109 -1.524069 1.632413 -0.010901 -0.005739 -171218.000000 0 0 1
-2.446127 30.927165 -2.446047 31.120029 -1.491867 1.649478 -0.016151 -0.004676 1183650.000000 0 0 1
-3.639827 30.506965 -3.126347 30.881989 -1.452046 1.672205 -0.009576 -0.003200 741315.000000 0 0 1
-3.341927 29.718465 -4.257047 30.207252 -1.458814 1.712195 -0.006678 0.000121 -364976.000000 0 0 1
-4.600927 29.255365 -5.005947 30.035053 -1.414806 1.738248 -0.000749 0.001987 163580.000000 0 0 1
-5.286927 30.259565 -5.736747 31.249050 -1.397823 1.755425 -0.011117 0.011205 -818046.000000 0 0 1
-6.450427 29.797565 -6.316947 31.135296 -1.357611 1.775102 -0.006952 0.006355 -630920.000000 0 0 1
-7.066827 30.934165 -7.200847 32.537898 -1.346203 1.793950 -0.006382 0.009599 -354061.000000 0 0 1
-7.586627 31.974165 -6.444047 33.487757 -1.337831 1.764434 -0.017420 0.025282 -76402.300000 0 0 1
-7.822527 33.119065 -7.265147 34.797223 -1.338853 1.781129 -0.021158 0.018534 430645.000000 0 0 1
-8.945227 34.063365 -6.660947 35.842686 -1.313989 1.757721 -0.023352 0.018729 496585.000000 0 0 1
-10.264227 33.595665 -6.818047 35.784198 -1.274281 1.762501 -0.006403 0.015003 -444502.000000 0 0 1
-11.103027 34.450265 -6.058347 36.698794 -1.259016 1.736638 0.003970 0.006078 -248812.000000 0 0 1
-12.590827 34.112965 -6.150047 36.878806 -1.217215 1.738343 0.031832 -0.000587 -355713.000000 0 0 1
-13.118727 34.294065 -7.426247 37.461087 -1.205435 1.770357 0.041092 -0.004530 -520475.000000 0 0 1
-14.468227 33.931965 -7.510747 37.644643 -1.167750 1.771661 0.044020 -0.007457 -810760.000000 0 0 1
-15.021427 34.051465 -8.934647 38.274971 -1.155336 1.806403 0.057110 -0.010142 162828.000000 0 0 1
-16.404527 33.799565 -9.061047 38.647402 -1.118939 1.807453 0.068489 -0.013681 278792.000000 0 0 1
-17.269327 -34.450609 -8.842847 39.538210 1.106127 1.796357 0.064751 -0.016916 -1440650.000000 0 0 1
-18.754227 34.590865 -8.973347 40.358021 -1.073982 1.795014 0.050341 -0.010332 -662959.000000 0 0 1
-19.223127 33.779365 -7.942547 39.669360 -1.053423 1.772377 0.036907 0.000997 25220.800000 0 0 1
-19.239027 34.367965 -6.652147 39.944314 -1.060464 1.738111 0.041408 -0.010317 -1126380.000000 0 0 1
-19.655327 33.341765 -5.565947 39.102237 -1.038125 1.713625 0.030941 -0.008007 -400044.000000 0 0 1
-19.471027 33.757165 -4.222047 39.198122 -1.047613 1.678716 0.040739 -0.016091 301811.000000 0 0 1
-20.679927 34.008565 -3.538447 39.959510 -1.024457 1.659463 0.035479 -0.006558 215328.000000 0 0 1
-21.493927 -34.054209 -3.879447 40.456497 1.007774 1.666836 0.042424 -0.014410 32856.600000 0 0 1
-21.931927 -33.913409 -5.242847 40.726112 0.996742 1.699889 0.041306 -0.009837 -121807.000000 0 0 1
-22.992527 -33.002909 -5.311547 40.571675 0.962301 1.702091 0.041090 -0.019275 -30123.100000 0 0 1
-23.488327 -32.892909 -6.803047 40.986905 0.950680 1.737549 0.038023 -0.014474 144700.000000 0 0 1
-22.469627 -32.258109 -7.568147 40.034317 0.962385 1.760982 0.052684 -0.010868 253881.000000 0 0 1
-22.412527 -32.691909 -8.910647 40.626123 0.969822 1.791927 0.037929 -0.005747 -27919.400000 0 0 1
-23.621727 -32.324409 -9.794047 41.216219 0.939716 1.810717 0.017902 -0.004802 17950.400000 0 0 1
-24.831027 -32.909309 -9.349047 42.273008 0.924403 1.793799 0.001026 0.003691 572377.000000 0 0 1
-26.079317 -32.515309 -9.929447 42.848220 0.894799 1.804658 -0.007569 0.007419 951100.000000 0 0 1
-26.613277 -31.046209 -9.741447 42.036049 0.862128 1.804663 -0.012728 0.012268 -355164.000000 0 0 1
-25.887107 -29.989409 -10.419547 40.964300 0.858684 1.827979 -0.014479 0.015314 169955.000000 0 0 1
-26.203987 -29.850809 -11.779747 41.430450 0.850365 1.859099 -0.021185 0.013903 -405866.000000 0 0 1
-24.981127 -29.333809 -12.538947 40.518567 0.865365 1.885423 -0.021704 0.021940 -5521.540000 0 0 1
-23.900127 -30.249409 -12.756347 40.607477 0.902120 1.890345 -0.010921 0.014781 21107.900000 0 0 1
-23.063727 -29.639909 -13.692447 39.974277 0.909533 1.920406 -0.002988 0.011888 -728292.000000 0 0 1
-21.698327 -30.315609 -13.827947 39.762616 0.949579 1.925980 0.020419 -0.004234 -512001.000000 0 0 1
-21.706327 -31.571009 -14.448347 40.946892 0.968482 1.931418 0.020534 -0.000955 12353.400000 0 0 1
-22.121927 -32.692709 -13.620947 41.757910 0.975905 1.903065 0.011214 0.008609 -289551.000000 0 0 1
-22.669527 -33.789209 -14.536847 43.208078 0.979862 1.913928 0.014267 -0.001895 -260300.000000 0 0 1
-23.180127 34.515465 -13.761547 43.795157 -0.979395 1.890437 0.003282 -0.010859 -181801.000000 0 0 1
-23.297327 33.279965 -14.438147 43.113589 -0.960043 1.912281 0.008835 -0.020756 -198395.000000 0 0 1
-23.569427 32.120865 -13.459447 42.052640 -0.937762 1.896591 -0.004700 -0.015656 -500574.000000 0 0 1
-22.643127 31.948665 -12.419647 41.081334 -0.954232 1.877920 -0.007227 -0.009592 -96465.700000 0 0 1
-22.574327 32.880065 -11.315047 41.457559 -0.969144 1.847235 0.015920 -0.013416 950.271000 0 0 1
-21.897227 32.302565 -10.034647 40.294396 -0.975072 1.822478 0.014140 -0.008038 56402.400000 0 0 1
-22.640827 31.253665 -9.428647 39.727799 -0.943867 1.810414 0.014280 0.003870 -46003.600000 0 0 1
-22.015727 30.734765 -8.290047 38.704559 -0.949205 1.786657 0.012911 0.004668 -277986.000000 0 0 1
-22.678627 29.510765 -7.594847 37.985353 -0.915568 1.772095 0.005340 -0.000352 -239726.000000 0 0 1
-22.630827 28.400065 -8.503647 37.296515 -0.897974 1.800821 0.007313 0.006922 79110.400000 0 0 1
-23.261027 27.258365 -8.017247 36.720159 -0.864358 1.790903 0.003073 0.002672 -502894.000000 0 0 1
-22.484827 26.516765 -6.859147 35.436622 -0.867495 1.765587 0.007184 0.001616 33543.200000 0 0 1
-22.369627 27.247965 -5.625947 35.700183 -0.883402 1.729045 0.010252 0.008405 713689.000000 0 0 1
-21.338327 26.646065 -4.818147 34.475375 -0.895564 1.711012 0.006695 0.006907 864418.000000 0 0 1
-19.983227 27.431965 -4.780047 34.273764 -0.941221 1.710719 -0.002772 -0.005165 324788.000000 0 0 1
-19.324527 27.544565 -6.035947 34.184398 -0.959015 1.748297 -0.008536 0.002324 194670.000000 0 0 1
-18.374927 28.598865 -5.974147 34.514105 -0.999708 1.744765 0.011480 -0.000020 -278135.000000 0 0 1
-17.274827 28.443965 -7.024947 34.012184 -1.025006 1.778836 0.022114 -0.001914 -559684.000000 0 0 1
-17.440427 28.893865 -8.352947 34.767738 -1.027732 1.813420 0.028112 -0.005584 89394.400000 0 0 1
-17.724827 30.283965 -8.473747 36.098371 -1.041265 1.807748 0.051059 -0.003322 -118439.000000 0 0 1
-17.694627 30.860865 -9.906647 36.927421 -1.050190 1.842397 0.040055 0.001251 371157.000000 0 0 1
-16.383027 31.027465 -10.438647 36.607000 -1.084987 1.859964 0.041410 -0.010658 542735.000000 0 0 1
-16.532627 31.727965 -11.641147 37.623235 -1.090432 1.885373 0.048943 -0.014154 1408670.000000 0 0 1
-15.102927 32.244565 -12.156347 37.624289 -1.132758 1.899798 0.054228 -0.018247 1403170.000000 0 0 1
-15.042527 32.764165 -13.508747 38.500056 -1.140388 1.929303 0.053225 -0.014403 -227561.000000 0 0 1
-15.412827 31.860065 -14.553047 38.267612 -1.120220 1.960913 0.047501 -0.023259 -225096.000000 0 0 1
-14.800727 32.179265 -15.921547 38.833777 -1.139702 1.993242 0.076542 -0.019541 372755.000000 0 0 1
-13.378227 32.109865 -15.831547 38.218559 -1.176029 1.997901 0.061550 -0.019767 195035.000000 0 0 1
-12.803127 32.482265 -17.056847 38.858121 -1.195337 2.025228 0.048301 -0.019342 1107750.000000 0 0 1
-11.263227 32.163165 -17.239447 38.190679 -1.233952 2.039135 0.058634 -0.008160 833802.000000 0 0 1
-10.961627 30.766465 -17.406247 37.009594 -1.228533 2.060446 0.061995 -0.016684 300075.000000 0 0 1
-9.657827 30.470765 -17.890247 36.630616 -1.263859 2.081047 0.049446 -0.014353 246208.000000 0 0 1
-9.408627 30.766365 -19.370447 37.554037 -1.274019 2.112740 0.042965 -0.005798 -265901.000000 0 0 1
-10.294427 30.102765 -20.263047 37.719262 -1.241288 2.137918 0.045874 -0.021441 188431.000000 0 0 1
-9.795327 30.026265 -21.568947 38.245843 -1.255457 2.169964 0.040111 -0.025195 -1017000.000000 0 0 1
-10.862527 29.568965 -22.587947 38.762527 -1.218738 2.192876 0.055986 -0.025922 1035080.000000 0 0 1
-11.916227 30.529065 -22.883847 39.971123 -1.198659 2.180360 0.068184 -0.022099 669809.000000 0 0 1
-12.903427 30.666065 -21.895247 39.828480 -1.172512 2.152847 0.076004 -0.024053 -1077810.000000 0 0 1
-13.625827 31.975465 -22.064547 41.169621 -1.167966 2.136420 0.085164 -0.019917 -275144.000000 0 0 1
-14.334327 32.015665 -23.282547 42.101695 -1.149833 2.156766 0.074193 -0.019917 163445.000000 0 0 1
-15.004127 33.301365 -23.490647 43.427125 -1.147480 2.142328 0.066620 -0.008906 430653.000000 0 0 1
-15.472727 33.486065 -24.952847 44.535002 -1.137955 2.165541 0.060787 -0.004470 368654.000000 0 0 1
-14.413727 33.622465 -25.906947 44.826282 -1.165802 2.187000 0.060903 -0.000553 312752.000000 0 0 1
-14.839327 33.758365 -27.285747 45.873138 -1.156646 2.207824 0.061038 0.009351 119582.000000 0 0 1
-15.347427 -34.247309 -27.824647 46.718654 1.149494 2.208783 0.047791 0.014479 89914.200000 0 0 1
-16.588527 -33.887709 -27.260947 46.547989 1.115572 2.196481 0.050730 0.014630 -408444.000000 0 0 1
-17.066527 -32.698709 -27.864247 46.226488 1.089757 2.217773 0.028093 0.021697 -384956.000000 0 0 1
-18.486927 -32.534209 -27.308647 46.324976 1.054064 2.201238 0.029994 0.011403 -197851.000000 0 0 1
-19.401427 -33.477009 -27.842647 47.669052 1.045553 2.194545 0.033691 0.014496 -687764.000000 0 0 1
-20.680527 -33.278609 -27.310647 47.760040 1.014764 2.179532 0.032272 0.019136 356588.000000 0 0 1
-21.763927 -34.336909 -27.685647 49.185230 1.005869 2.168669 0.012605 0.021907 443408.000000 0 0 1
-21.594727 33.811565 -26.939347 48.324761 -1.002421 2.162125 0.032774 0.008286 479925.000000 0 0 1
-22.718727 32.919065 -27.177947 48.357483 -0.966719 2.167624 0.007111 0.013470 954444.000000 0 0 1
-22.507227 31.424265 -26.886547 47.084457 -0.949256 2.178554 0.005617 0.011384 6225.440000 0 0 1
-22.378327 31.144065 -25.514747 46.062399 -0.947734 2.157858 0.017616 0.008942 -409154.000000 0 0 1
-22.587327 29.767965 -25.256947 45.102466 -0.921700 2.165171 -0.001830 0.003691 -255712.000000 0 0 1
29.749926 10.178565 -27.166676 41.553454 0.329653 2.283361 0.000023 0.004474 65664.300000 0 0 1
29.391416 8.861065 -26.749416 40.717380 0.292818 2.287567 -0.014619 0.012493 -673734.000000 0 0 1
28.052576 8.744065 -26.413986 39.510813 0.302158 2.303021 -0.005497 0.002561 -820381.000000 0 0 1
27.733226 7.280165 -26.020636 38.719583 0.256715 2.307740 -0.009427 0.007210 -67669.300000 0 0 1
28.171096 6.959765 -24.705976 38.110815 0.242203 2.276102 -0.014618 0.011495 176112.000000 0 0 1
27.790966 5.640165 -24.347376 37.375714 0.200230 2.280254 -0.010252 0.008540 -446000.000000 0 0 1
28.022026 5.278465 -22.862076 36.548196 0.186187 2.246610 -0.005514 0.010650 88698.700000 0 0 1
29.349636 5.108165 -22.398176 37.271608 0.172319 2.215479 -0.007796 0.009603 255564.000000 0 0 1
29.255436 4.843765 -21.057476 36.369766 0.164080 2.188277 -0.008801 0.009327 86059.400000 0 0 1
30.588646 4.487765 -20.365876 37.021267 0.145674 2.153296 -0.015205 0.009475 115447.000000 0 0 1
31.138596 3.182665 -20.455976 37.392358 0.101856 2.149648 -0.011458 0.009637 874650.000000 0 0 1
32.211536 2.889165 -19.536976 37.783909 0.089454 2.114222 -0.002288 0.004490 647101.000000 0 0 1
32.665086 1.397865 -19.586276 38.112781 0.042768 2.110525 0.003662 0.001247 424140.000000 0 0 1
31.616576 0.568165 -19.061276 36.922391 0.017969 2.113266 0.014079 0.003302 469317.000000 0 0 1
32.023376 -0.789235 -19.068376 37.278981 -0.024641 2.107731 0.013294 0.006204 8175.580000 0 0 1
30.994436 -1.815735 -18.498476 36.140636 -0.058516 2.108130 -0.004960 0.009604 315609.000000 0 0 1
30.961286 -1.949535 -17.095176 35.420996 -0.062884 2.074450 0.005303 0.004333 249022.000000 0 0 1
29.624526 -1.743635 -16.655676 34.030344 -0.058790 2.082239 -0.002344 0.004081 254130.000000 0 0 1
29.377986 -2.170635 -15.124476 33.113856 -0.073752 2.045125 0.003964 -0.012210 -241736.000000 0 0 1
29.363786 -3.579835 -14.974976 33.155649 -0.121315 2.039418 -0.003046 -0.003090 438538.000000 0 0 1
28.519826 -3.978735 -13.904576 31.977305 -0.138613 2.020642 0.016660 -0.006002 -101566.000000 0 0 1
28.546556 -5.458635 -13.427876 32.015784 -0.188938 2.003596 0.004245 0.004485 -47573.200000 0 0 1
27.946976 -6.281835 -14.443576 32.079772 -0.221102 2.037830 -0.011411 0.008087 547042.000000 0 0 1
27.590336 -7.557835 -13.966776 31.834232 -0.267372 2.024986 -0.018348 0.007223 12205.100000 0 0 1
26.925096 -8.512035 -15.054076 32.000637 -0.306195 2.060575 -0.018339 0.009009 -155966.000000 0 0 1
25.665036 -8.032035 -15.429476 31.004458 -0.303301 2.091688 0.000124 0.003859 -355623.000000 0 0 1
25.049726 -8.960335 -16.271576 31.185583 -0.343520 2.119716 0.000279 0.007357 107302.000000 0 0 1
23.640326 -8.633135 -16.827976 30.275020 -0.350140 2.160166 0.003881 0.001461 129082.000000 0 0 1
23.568626 -7.607735 -17.790576 30.493645 -0.312232 2.193729 0.003730 0.004856 379723.000000 0 0 1
22.194626 -7.368935 -18.103876 29.574532 -0.320563 2.229566 0.035136 -0.002859 770408.000000 0 0 1
21.786026 -7.759235 -19.606576 30.319210 -0.342149 2.274009 0.032064 0.002784 136385.000000 0 0 1
22.387126 -6.837335 -20.520176 31.128928 -0.296416 2.290550 0.026064 0.008779 417693.000000 0 0 1
22.089926 -7.144035 -21.871176 31.895931 -0.312790 2.326367 0.034360 0.002248 -116145.000000 0 0 1
22.722326 -6.086435 -22.804976 32.763024 -0.261718 2.340689 0.025458 0.003624 24335.900000 0 0 1
22.735926 -6.556335 -24.085176 33.763939 -0.280752 2.365049 0.026649 0.001165 151697.000000 0 0 1
22.899826 -5.413835 -24.890076 34.252409 -0.232151 2.384253 0.028515 -0.003864 -110140.000000 0 0 1
22.826626 -5.736235 -26.400436 35.368662 -0.246198 2.413486 0.030606 0.002420 -618832.000000 0 0 1
21.520826 -5.959235 -26.813526 34.894464 -0.270137 2.447161 0.036519 -0.001025 -599221.000000 0 0 1
21.499226 -6.171235 -28.232606 36.019174 -0.279529 2.471593 0.025538 -0.000987 448749.000000 0 0 1
20.226726 -6.962435 -28.661026 35.763814 -0.331516 2.500424 0.039448 -0.007736 348871.000000 0 0 1
20.014826 -8.314535 -28.310156 35.653747 -0.393727 2.488207 0.048767 -0.007972 162703.000000 0 0 1
19.440926 -9.055735 -29.377706 36.373143 -0.435922 2.510996 0.048436 -0.014175 -179608.000000 0 0 1
19.494626 -10.538035 -29.104306 36.580750 -0.495568 2.490824 0.058018 -0.011763 -508618.000000 0 0 1
18.582426 -11.030635 -28.147666 35.486231 -0.535705 2.486842 0.062274 -0.010811 20367.500000 0 0 1
18.753526 -12.363835 -27.619756 35.600703 -0.582872 2.458811 0.067248 -0.012398 -306458.000000 0 0 1
18.727726 -13.541935 -28.672296 36.826788 -0.626059 2.463183 0.061798 -0.010731 -439079.000000 0 0 1
17.395926 -13.713135 -29.048726 36.530765 -0.667563 2.490109 0.058433 -0.014786 -212275.000000 0 0 1
17.385726 -14.685535 -30.047136 37.692954 -0.701403 2.493365 0.050145 -0.007817 156201.000000 0 0 1
16.086626 -14.775435 -30.910196 37.848821 -0.742938 2.526423 0.032066 -0.005027 820987.000000 0 0 1
14.918226 -15.219035 -30.213186 36.973086 -0.795379 2.527275 0.034167 -0.004951 931401.000000 0 0 1
13.848326 -15.554435 -31.113046 37.439795 -0.843359 2.551727 0.020296 -0.006371 899816.000000 0 0 1
12.642326 -16.236235 -30.392906 36.703848 -0.909211 2.546431 0.016620 -0.009858 132304.000000 0 0 1
12.966626 -17.532535 -29.983646 37.074819 -0.934001 2.512792 0.018906 -0.004015 -153754.000000 0 0 1
12.055326 -18.014235 -29.048896 36.244750 -0.981034 2.500537 0.019067 -0.009480 -339161.000000 0 0 1
12.386226 -19.461735 -28.651676 36.784457 -1.004013 2.463718 0.028815 -0.011673 -497895.000000 0 0 1
13.453026 -19.594435 -27.780136 36.560385 -0.969138 2.433867 0.034492 -0.011030 -535678.000000 0 0 1
13.449226 -20.776635 -26.958916 36.596904 -0.996304 2.398892 0.029985 -0.009395 -12901.900000 0 0 1
14.339926 -20.690235 -25.678206 35.959555 -0.964732 2.366114 0.032803 -0.007676 468610.000000 0 0 1
15.720126 -20.867035 -25.983036 36.846624 -0.925156 2.353455 0.029768 -0.000363 138420.000000 0 0 1
16.519426 -20.717635 -24.871776 36.341672 -0.897667 2.324559 0.025810 0.005179 85776.100000 0 0 1
18.056226 -20.976135 -25.076116 37.347519 -0.860066 2.306928 0.012039 0.009481 966814.000000 0 0 1
18.532326 -22.368135 -25.216446 38.466216 -0.878909 2.285704 0.011913 0.008414 531878.000000 0 0 1
18.316626 -23.107935 -24.057276 38.055591 -0.900550 2.255136 0.011302 0.007789 -532389.000000 0 0 1
18.819126 -24.591235 -24.219576 39.312545 -0.917589 2.234550 0.022540 0.001233 574471.000000 0 0 1
20.196026 -24.766135 -23.864476 39.884259 -0.886694 2.212228 0.035784 0.000232 541330.000000 0 0 1
20.564026 -26.108525 -23.477276 40.690500 -0.903640 2.185813 0.032270 -0.006608 -144675.000000 0 0 1
20.242326 -26.547435 -22.031376 39.998745 -0.919345 2.154121 0.035851 -0.001985 -785739.000000 0 0 1
18.929326 -26.862035 -21.706976 39.383767 -0.956932 2.154557 0.031039 0.002946 -660844.000000 0 0 1
18.895726 -27.092705 -20.347276 38.795293 -0.961786 2.122898 0.031911 0.002794 -227284.000000 0 0 1
17.562826 -27.606045 -19.807676 38.247753 -1.004187 2.115165 0.021101 0.008285 -823518.000000 0 0 1
17.382426 -28.957525 -20.214876 39.361507 -1.030176 2.110136 0.026028 0.013199 181224.000000 0 0 1
16.240226 -29.672205 -19.760876 39.174953 -1.070012 2.099514 0.017953 0.025046 379003.000000 0 0 1
14.820026 -29.243345 -20.166776 38.490327 -1.101737 2.122271 0.008721 0.022802 -295194.000000 0 0 1
14.349226 -28.043225 -19.601576 37.101813 -1.097847 2.127415 0.009259 0.025685 -855024.000000 0 0 1
13.010726 -27.816735 -19.923076 36.605720 -1.133296 2.146305 -0.001229 0.029821 -418208.000000 0 0 1
12.433626 -26.681675 -19.090776 35.085105 -1.134718 2.146145 -0.011184 0.026562 -774192.000000 0 0 1
12.061626 -27.119675 -17.799676 34.609075 -1.152312 2.110995 -0.019246 0.021666 -500923.000000 0 0 1
11.220726 -26.197845 -17.206476 33.291059 -1.166128 2.113963 -0.015836 0.016491 -742519.000000 0 0 1
9.742526 -26.238365 -17.539376 33.030264 -1.215266 2.130588 -0.016445 0.023075 -1253070.000000 0 0 1
8.995926 -27.268375 -16.906376 33.321413 -1.252136 2.102930 -0.014699 0.026139 1066750.000000 0 0 1
7.562326 -27.079635 -16.979276 32.844958 -1.298472 2.114083 -0.011780 0.031002 1472420.000000 0 0 1
6.905726 -28.123225 -17.925276 34.057604 -1.330008 2.125066 -0.011020 0.032280 -167895.000000 0 0 1
7.072126 -27.831655 -19.273676 34.584543 -1.321959 2.161917 -0.014006 0.037709 -197030.000000 0 0 1
6.254926 -28.669985 -20.048576 35.539240 -1.355992 2.170170 -0.004296 0.035710 -232432.000000 0 0 1
6.223126 -28.274195 -21.550876 36.091518 -1.354151 2.210699 -0.011935 0.024271 -268358.000000 0 0 1
5.516526 -27.075285 -21.799676 35.195582 -1.369800 2.238758 -0.000744 0.022390 -214845.000000 0 0 1
5.660326 -26.664285 -23.149676 35.762144 -1.361620 2.274864 -0.002471 0.019288 88548.100000 0 0 1
4.449326 -25.830715 -23.657276 35.308484 -1.400221 2.305028 -0.009724 0.006283 1668110.000000 0 0 1
3.185426 -26.576785 -23.735576 35.774992 -1.451508 2.296241 -0.012648 0.021521 1468640.000000 0 0 1
2.165926 -25.745425 -24.291676 35.462708 -1.486865 2.325389 0.000490 0.015577 480545.000000 0 0 1
1.082326 -26.542775 -25.014276 36.488414 -1.530042 2.326142 -0.024092 0.014598 -33346.900000 0 0 1
1.732026 -27.241575 -26.078736 37.751872 -1.507302 2.333382 -0.034425 0.020504 513258.000000 0 0 1
0.814526 -28.026605 -26.830346 38.807493 -1.541742 2.334180 -0.028725 0.013183 81620.900000 0 0 1
1.456626 -28.835355 -27.985026 40.208969 -1.520324 2.340594 -0.034083 0.012410 -307891.000000 0 0 1
1.922026 -28.011755 -29.086516 40.427442 -1.502289 2.373842 -0.038159 0.007855 272376.000000 0 0 1
2.407226 -28.773875 -30.186176 41.772430 -1.487331 2.378402 -0.021126 0.004037 419724.000000 0 0 1
3.808326 -29.472795 -30.185176 42.359106 -1.442293 2.363996 -0.017989 0.005479 -366558.000000 0 0 1
3.927426 -30.450875 -29.147546 42.335091 -1.442529 2.330210 -0.031686 0.009973 587730.000000 0 0 1
5.098026 -31.291545 -29.239276 43.128714 -1.409295 2.315772 -0.007244 0.004059 641716.000000 0 0 1
5.314826 -32.245155 -28.076446 43.084617 -1.407440 2.280565 0.003525 -0.003246 -439590.000000 0 0 1
4.274326 -33.152165 -27.859916 43.514490 -1.442573 2.265613 -0.008955 -0.004747 -292184.000000 0 0 1
4.711026 -34.379592 -27.289506 44.145977 -1.434615 2.237203 -0.002897 -0.007185 211927.000000 0 0 1
3.514426 34.013999 -26.994896 43.566360 1.467839 2.239064 0.005858 -0.001100 176829.000000 0 0 1
2.994526 33.541572 -28.209126 43.929023 1.481754 2.268099 -0.005602 -0.000671 -339518.000000 0 0 1
1.683426 33.097418 -27.954116 43.355572 1.519977 2.271511 -0.038560 0.007869 -382538.000000 0 0 1
0.809726 33.173468 -29.218756 44.213916 1.546392 2.292747 -0.047986 0.010184 -213683.000000 0 0 1
0.927826 32.101328 -30.142826 44.044819 1.541901 2.324532 -0.041592 -0.001848 -399890.000000 0 0 1
-0.111974 32.281698 -31.036936 44.781826 -1.567328 2.336535 -0.040807 0.006610 -215057.000000 0 0 1
-0.279174 31.109248 -32.036296 44.656327 -1.561823 2.370854 -0.042451 0.010257 218390.000000 0 0 1
0.849726 31.120958 -32.898336 45.293891 1.543499 2.383765 -0.039026 0.009086 376256.000000 0 0 1
0.682126 29.959208 -33.660346 45.067043 1.548032 2.414176 -0.030842 0.009048 -439955.000000 0 0 1
1.806726 29.569358 34.481037 45.459357 1.509771 0.709784 -0.034863 0.010915 -304745.000000 0 0 1
2.088026 30.539648 33.499114 45.378636 1.502532 0.740378 -0.036587 0.000309 333331.000000 0 0 1
3.121026 30.242508 32.523293 44.520946 1.467960 0.751718 -0.049985 0.002930 175626.000000 0 0 1
2.775826 29.285338 31.340273 42.983124 1.476293 0.753747 -0.040831 0.005414 -254126.000000 0 0 1
2.669826 27.914918 31.599323 42.247933 1.475445 0.725829 -0.029400 -0.004464 -287275.000000 0 0 1
3.903826 27.261148 31.521303 41.856930 1.428562 0.718077 -0.024540 0.001173 -724284.000000 0 0 1
3.790326 25.816348 32.061033 41.337153 1.425019 0.683134 -0.000502 -0.005362 238258.000000 0 0 1
2.825126 25.115028 31.248713 40.189900 1.458780 0.680073 -0.005055 0.004778 694948.000000 0 0 1
3.021226 23.734038 31.346233 39.433725 1.444182 0.651938 -0.016629 0.006279 -216441.000000 0 0 1
2.098626 22.906338 30.399213 38.121079 1.479434 0.647758 -0.016271 0.015889 18649.300000 0 0 1
0.719426 22.965638 30.613333 38.276811 1.539480 0.643854 -0.020417 0.019770 -284702.000000 0 0 1
0.002926 22.111138 29.695223 37.023083 1.570664 0.640038 -0.013756 0.014364 735483.000000 0 0 1
-1.468974 21.754038 30.055663 37.131374 -1.503372 0.627597 -0.017974 0.025412 256639.000000 0 0 1
-2.310174 22.871238 30.077083 37.855797 -1.470130 0.652584 -0.005206 0.018399 -284324.000000 0 0 1
-3.618974 22.452638 30.356243 37.930455 -1.410988 0.642979 -0.021026 0.020624 394659.000000 0 0 1
-4.790274 23.433638 30.645333 38.874394 -1.369156 0.662728 -0.030911 0.003725 176849.000000 0 0 1
-4.791274 23.839438 32.008343 40.197128 -1.372458 0.649669 -0.032658 0.005808 238889.000000 0 0 1
-4.350874 25.211138 32.112743 41.058006 -1.399902 0.672718 -0.010951 -0.001137 -45036.500000 0 0 1
-4.390274 25.780968 33.530577 42.523316 -1.402123 0.662394 -0.012977 0.003049 251232.000000 0 0 1
-5.740674 25.944748 33.969121 43.127561 -1.353039 0.663822 -0.011276 -0.000087 499596.000000 0 0 1
-5.880774 26.259668 -33.714386 43.137148 -1.350484 2.467963 -0.008399 0.002811 19106.100000 0 0 1
-7.393674 26.470878 -33.450296 43.293142 -1.298424 2.453796 0.005585 0.009218 319606.000000 0 0 1
-7.860874 27.801318 -33.819506 44.479946 -1.295238 2.434620 0.006177 0.007381 746492.000000 0 0 1
-9.157374 28.159218 -33.304346 44.564319 -1.256384 2.414834 0.006528 0.006602 778310.000000 0 0 1
-9.199074 28.598468 -31.795696 43.743132 -1.259585 2.384554 0.010119 0.003093 -287783.000000 0 0 1
-8.666274 29.895268 -31.624636 44.372840 -1.288642 2.364140 0.010492 0.005386 143927.000000 0 0 1
-8.598774 30.211158 -30.254146 43.611539 -1.293506 2.337436 0.013949 0.004920 -143099.000000 0 0 1
-8.197874 31.637718 -29.890666 44.289979 -1.317255 2.311606 0.007660 0.004438 1182400.000000 0 0 1
-6.770274 31.868688 -30.001126 44.289022 -1.361466 2.315011 -0.015840 0.005040 1017840.000000 0 0 1
-6.372074 33.147308 -29.525196 44.845118 -1.380878 2.289463 -0.016199 0.011836 -933859.000000 0 0 1
-4.849674 33.259018 -29.505246 44.724056 -1.426001 2.291239 -0.017630 0.008956 -840114.000000 0 0 1
-4.373374 34.443001 -28.955206 45.208967 -1.444498 2.265913 -0.025116 0.008563 -426427.000000 0 0 1
-4.548874 -33.759505 -29.730596 45.213989 1.436860 2.288363 -0.014532 0.007561 -360011.000000 0 0 1
-3.802974 -33.570565 -31.117556 45.931991 1.457994 2.315114 -0.009698 0.000966 -62062.800000 0 0 1
-4.104574 -34.572424 -32.068266 47.333643 1.452626 2.315147 -0.005871 0.012727 -169872.000000 0 0 1
-4.093974 -34.309991 -33.474116 48.108758 1.452035 2.340331 0.002060 0.003336 42444.800000 0 0 1
-2.840874 -33.695005 -34.147557 48.057045 1.486684 2.361094 0.004950 0.000436 -429804.000000 0 0 1
-2.694574 -32.339305 -33.947596 46.963078 1.487666 2.378725 0.003492 0.006269 -232953.000000 0 0 1
-1.479474 -31.783605 -34.381995 46.845576 1.524282 2.394906 0.013266 -0.000970 7928.960000 0 0 1
31.075726 20.060065 12.247953 38.963050 0.573221 1.251027 0.027449 0.002316 102721.000000 0 0 1
31.957206 19.417165 13.202153 39.655846 0.545988 1.231400 0.015002 -0.000946 292969.000000 0 0 1
31.666806 18.085365 13.370853 38.841302 0.518909 1.219364 0.015262 -0.000619 -338412.000000 0 0 1
32.788796 17.201365 13.954953 39.569341 0.483142 1.210373 0.031094 -0.010276 -103305.000000 0 0 1
33.880816 17.018565 13.079653 40.107587 0.465491 1.238606 0.023288 0.001328 -408888.000000 0 0 1
34.731773 16.091965 13.665953 40.644872 0.433876 1.227887 0.014570 -0.001829 -112150.000000 0 0 1
-34.327478 15.553865 12.664653 39.757916 -0.425431 1.246603 0.014832 -0.007720 485122.000000 0 0 1
-33.388737 14.626465 13.159053 38.754379 -0.412885 1.224358 0.013877 -0.009799 -199516.000000 0 0 1
-33.939397 13.359665 13.288253 38.819337 -0.375006 1.221422 0.013639 -0.013065 -136886.000000 0 0 1
-33.172757 12.481065 14.350353 38.237958 -0.359861 1.186086 -0.000344 -0.005701 341844.000000 0 0 1
-33.378677 12.936665 15.751053 39.109961 -0.369748 1.156291 0.005953 -0.009583 11447.900000 0 0 1
-32.609087 12.188765 16.662253 38.594678 -0.357704 1.124393 -0.000474 -0.007839 -59937.100000 0 0 1
-32.420297 12.756965 18.086153 39.254614 -0.374879 1.091968 0.015304 -0.005467 38049.400000 0 0 1
-33.632277 12.828065 18.808853 40.613572 -0.364388 1.089287 0.025054 -0.006962 199960.000000 0 0 1
-33.393187 13.318165 20.077153 41.177306 -0.379496 1.061483 0.018741 -0.014574 801206.000000 0 0 1
-34.743013 13.494165 20.892453 42.727790 -0.370466 1.059892 0.035887 -0.017671 976789.000000 0 0 1
34.912583 12.254265 21.367553 42.727365 0.337564 1.047093 0.030436 -0.001974 355733.000000 0 0 1
33.872306 12.420665 22.336853 42.432782 0.351466 1.016429 0.019983 -0.015808 455722.000000 0 0 1
33.637156 11.091765 23.116253 42.294759 0.318520 0.992556 0.010903 -0.010693 651610.000000 0 0 1
34.725772 10.846665 24.040013 43.605637 0.302750 0.986869 0.017953 -0.006476 922605.000000 0 0 1
34.320362 11.244865 25.347043 44.122634 0.316622 0.958842 0.005081 -0.006145 -526487.000000 0 0 1
-34.592494 11.584465 26.183743 44.904664 -0.323145 0.948262 0.002135 -0.005923 -164514.000000 0 0 1
-33.896867 12.760265 25.897573 44.525344 -0.360036 0.950057 0.006461 -0.011080 6206.590000 0 0 1
-32.917287 12.484165 24.896563 43.118917 -0.362499 0.955264 0.011309 -0.018193 -759588.000000 0 0 1
-31.950547 13.643365 24.593733 42.565603 -0.403576 0.954785 0.010694 -0.019898 -74708.500000 0 0 1
-31.134737 14.075465 25.660113 42.730925 -0.424584 0.926664 -0.001380 -0.014690 359083.000000 0 0 1
-31.822027 14.708565 26.795943 44.124889 -0.432964 0.918170 -0.008688 -0.005207 -447529.000000 0 0 1
-30.881217 15.265265 27.919353 44.341494 -0.459095 0.889702 -0.010030 0.005088 -133893.000000 0 0 1
-30.353247 16.453765 27.379803 44.064720 -0.496739 0.900326 0.011153 -0.009495 -186181.000000 0 0 1
-29.714887 17.273465 28.332303 44.542861 -0.526561 0.881404 0.014971 -0.014033 10333.600000 0 0 1
-29.197137 18.652865 27.738893 44.382974 -0.568504 0.895678 0.030821 -0.007702 240992.000000 0 0 1
-30.228897 19.500065 27.215133 45.107673 -0.572909 0.923117 0.000329 -0.028942 228310.000000 0 0 1
-29.739337 20.687665 26.599073 44.943501 -0.607789 0.937465 0.005570 -0.035563 -780113.000000 0 0 1
-30.777427 21.735565 26.255433 45.924204 -0.614887 0.962205 0.015005 -0.020861 -763013.000000 0 0 1
-31.185567 22.366965 27.484013 47.203725 -0.622191 0.949312 0.004337 -0.018490 596069.000000 0 0 1
-32.243307 23.325865 27.327703 48.275565 -0.626280 0.969057 -0.002164 -0.016957 -520093.000000 0 0 1
-31.925847 24.685665 26.638543 48.355493 -0.658196 0.987366 0.000182 -0.018439 -671593.000000 0 0 1
-32.906047 25.120265 25.745973 48.751315 -0.652018 1.014425 -0.005293 -0.011559 -363446.000000 0 0 1
-32.586717 26.388665 25.285583 48.965462 -0.680687 1.028159 0.007423 -0.015660 -477194.000000 0 0 1
-33.652827 27.144265 24.544973 49.716995 -0.678750 1.054464 0.017561 -0.016108 -579252.000000 0 0 1
-33.445057 26.811665 23.188753 48.735567 -0.675754 1.074914 0.019156 -0.018959 639323.000000 0 0 1
-34.480552 27.319265 22.330153 49.334434 -0.670034 1.101086 0.030572 -0.028002 309480.000000 0 0 1
-34.070990 27.108665 20.847753 48.273604 -0.672084 1.124235 0.037417 -0.033180 127042.000000 0 0 1
-33.922207 25.736565 20.516453 47.265333 -0.649042 1.121791 0.031488 -0.022948 74909.500000 0 0 1
-33.447607 25.650165 19.176453 46.307771 -0.654215 1.143833 0.035640 -0.030329 -87502.600000 0 0 1
-33.601877 24.319765 18.403153 45.378553 -0.626496 1.153219 0.019058 -0.015130 97390.100000 0 0 1
-34.870270 24.161665 17.813453 46.011312 -0.605946 1.173254 0.024114 -0.014089 -281345.000000 0 0 1
-34.724251 23.340565 16.667153 45.037202 -0.591802 1.191706 0.013376 -0.009638 -413477.000000 0 0 1
34.172187 23.275765 15.802453 44.263044 0.597950 1.205729 0.011415 -0.002833 -563286.000000 0 0 1
33.227736 22.415765 16.358853 43.291581 0.593482 1.183295 0.006126 -0.004406 -833928.000000 0 0 1
32.293206 22.033065 15.377653 42.009276 0.598735 1.196031 0.006408 -0.003550 -735321.000000 0 0 1
31.227906 21.158665 16.073453 41.002769 0.595504 1.167982 0.012095 -0.002474 -112387.000000 0 0 1
30.479426 21.765065 17.137753 41.187571 0.620120 1.141655 -0.000530 0.000217 58104.900000 0 0 1
29.411106 22.577965 16.714253 40.671168 0.654713 1.147289 -0.002885 0.003355 -330427.000000 0 0 1
28.518406 23.137765 17.833053 40.824911 0.681610 1.118738 0.001877 -0.000849 -80752.500000 0 0 1
29.195696 23.989465 18.743253 42.180476 0.687820 1.110338 -0.011519 0.003072 -147305.000000 0 0 1
28.372226 24.653465 19.708953 42.440774 0.715381 1.087854 -0.000418 0.001401 548880.000000 0 0 1
29.274536 25.298965 20.839153 43.946631 0.712679 1.076750 -0.002690 -0.009384 744682.000000 0 0 1
29.880236 26.536965 20.445553 44.889415 0.726208 1.097902 0.004155 -0.018014 280051.000000 0 0 1
30.761426 27.031065 21.445853 46.226274 0.720940 1.088368 0.011573 -0.025279 -163106.000000 0 0 1
31.752246 28.093565 20.863653 47.251936 0.724339 1.113481 0.023083 -0.035822 551308.000000 0 0 1
32.777466 28.581265 21.718953 48.610327 0.717116 1.107614 0.027916 -0.032425 817655.000000 0 0 1
32.133636 29.384965 22.736653 49.122318 0.740748 1.089580 0.013128 -0.022937 -362056.000000 0 0 1
32.941076 29.607565 23.986153 50.369216 0.732154 1.074461 0.011004 -0.022949 -179947.000000 0 0 1
34.140020 30.337665 23.855453 51.526668 0.726495 1.089450 0.026176 -0.028017 91241.300000 0 0 1
34.789371 30.527665 25.105033 52.654547 0.720244 1.073800 0.034226 -0.017504 -808276.000000 0 0 1
-34.065657 31.261365 25.130183 52.623835 -0.742498 1.072939 0.044781 -0.026722 -937643.000000 0 0 1
-32.953827 30.616865 24.543053 51.241668 -0.748653 1.071319 0.040095 -0.028084 124097.000000 0 0 1
-31.817477 31.371865 24.947743 51.175537 -0.778346 1.061580 0.044415 -0.023318 1271700.000000 0 0 1
-30.381427 30.826465 24.544213 49.756612 -0.792669 1.054934 0.044664 -0.028015 943839.000000 0 0 1
-29.978787 30.824865 23.142753 48.831209 -0.799312 1.077044 0.019391 -0.019186 322747.000000 0 0 1
-30.624247 29.889165 22.270053 48.240667 -0.773251 1.090948 0.033100 -0.018283 -411819.000000 0 0 1
-30.428597 28.421165 22.706053 47.426015 -0.751300 1.071546 0.023586 -0.011762 -337982.000000 0 0 1
-29.099317 27.992065 22.447553 46.197603 -0.766006 1.063400 0.016299 -0.013337 328268.000000 0 0 1
-28.676807 26.944465 23.294353 45.727347 -0.754263 1.036288 0.017004 -0.014122 -171616.000000 0 0 1
-28.327587 27.389665 24.724743 46.518371 -0.768566 1.010420 0.024744 -0.017738 -540308.000000 0 0 1
-29.409747 27.638165 25.596193 47.790862 -0.754354 1.005593 0.020380 -0.017307 320233.000000 0 0 1
-28.899067 28.048765 26.925633 48.444597 -0.770468 0.981468 0.030585 -0.025246 253103.000000 0 0 1
-30.019887 28.348765 27.965733 49.869111 -0.756776 0.975466 0.030471 -0.025019 358561.000000 0 0 1
-30.766067 27.164265 28.337413 49.874413 -0.723303 0.966509 0.013609 -0.016878 215805.000000 0 0 1
-31.669767 27.575765 29.341163 51.227930 -0.716406 0.960931 0.017605 -0.007923 -274378.000000 0 0 1
-32.380417 26.388865 30.005933 51.431698 -0.683799 0.947871 0.005837 -0.006006 -219354.000000 0 0 1
-31.567497 25.641265 30.853403 51.048152 -0.682177 0.921786 0.007198 -0.003695 232261.000000 0 0 1
-32.347047 24.557465 31.409473 51.341557 -0.649355 0.912494 -0.002604 -0.006094 774753.000000 0 0 1
-31.482807 23.558665 32.253893 50.857560 -0.642414 0.883822 0.020223 -0.023094 -45840.800000 0 0 1
-30.393247 22.940665 31.555233 49.454588 -0.646563 0.878814 0.021875 -0.018075 387477.000000 0 0 1
-29.666417 22.071765 32.398873 49.162445 -0.639649 0.851286 0.025650 -0.023072 -32364.500000 0 0 1
-28.674687 22.698065 33.383187 49.516431 -0.669580 0.830937 0.036643 -0.027239 -826120.000000 0 0 1
-29.341747 23.371365 34.448637 50.930024 -0.672617 0.827944 0.043034 -0.029767 249594.000000 0 0 1
-29.211497 22.813265 -33.352096 49.860996 -0.663028 2.303526 0.033115 -0.026866 -20700.700000 0 0 1
-27.936107 23.181665 -32.545646 48.754843 -0.692655 2.301692 0.033278 -0.025947 20901.700000 0 0 1
-27.939697 24.474265 -32.076556 49.076692 -0.719378 2.283128 0.018840 -0.017481 -380279.000000 0 0 1
-26.776747 24.670265 -31.337656 48.038160 -0.744476 2.281476 0.027730 -0.014550 -700911.000000 0 0 1
-26.835767 25.905965 -30.426876 48.135976 -0.767771 2.255060 0.001008 -0.002428 -192191.000000 0 0 1
-26.911717 27.175365 -30.987396 49.223568 -0.790273 2.251736 0.009156 -0.007317 -388654.000000 0 0 1
-28.048077 27.461865 -31.742956 50.482313 -0.774838 2.250797 0.006742 0.002578 -867386.000000 0 0 1
-28.075767 28.917965 -32.356756 51.686140 -0.800174 2.247240 0.013632 0.001461 -44754.600000 0 0 1
-28.213107 30.001665 -31.455466 51.822057 -0.816112 2.223064 0.015955 -0.000454 115863.000000 0 0 1
-27.941387 31.231765 -32.057276 52.761853 -0.840947 2.223812 0.025725 -0.013567 -105473.000000 0 0 1
-28.355877 32.400165 -31.153786 53.144942 -0.851866 2.197162 0.029641 0.000316 -283961.000000 0 0 1
-27.519467 32.520865 -30.059626 52.139321 -0.868507 2.185266 0.001108 0.009104 -282173.000000 0 0 1
-27.864747 33.603665 -29.200386 52.519643 -0.878492 2.160350 0.002943 0.006986 -562482.000000 0 0 1
-27.015807 33.681965 -27.920796 51.418862 -0.894785 2.144810 -0.003619 -0.000213 1084090.000000 0 0 1
-25.686487 34.252065 -27.973086 51.141892 -0.927343 2.149537 -0.014813 0.006886 826641.000000 0 0 1
-25.568567 -33.714609 -28.119796 50.805013 0.921952 2.157339 -0.002608 0.025689 -674460.000000 0 0 1
-26.112787 -32.865909 -26.934446 49.874944 0.899403 2.141281 -0.009872 0.035569 1491680.000000 0 0 1
-27.529217 -32.543009 -26.877446 50.391491 0.868668 2.133379 -0.022738 0.022401 1043690.000000 0 0 1
-27.792497 -31.539809 -25.894426 49.373107 0.848472 2.122882 -0.029431 0.031637 190324.000000 0 0 1
-29.295647 -31.276609 -25.608836 49.922677 0.818091 2.109437 -0.025132 0.024309 121878.000000 0 0 1
-29.808287 -30.710409 -26.793536 50.493136 0.800304 2.130148 -0.016595 0.017773 -45716.600000 0 0 1
-31.199707 -30.490209 -26.653186 51.122078 0.773898 2.119244 -0.008953 0.004558 -293701.000000 0 0 1
-31.727167 -29.649909 -27.765726 51.542854 0.751567 2.139680 0.007267 -0.000358 -776173.000000 0 0 1
-33.116317 -29.545609 -27.748856 52.341498 0.728476 2.129574 0.000473 -0.002523 -811316.000000 0 0 1
-33.605697 -28.809609 -28.849636 52.835953 0.708707 2.148406 0.017096 -0.011336 346411.000000 0 0 1
35.009019 -28.978809 -28.948176 53.883204 -0.691436 2.137957 0.017918 -0.011240 343899.000000 0 0 1
34.335477 -28.410709 -27.842416 52.548011 -0.691253 2.129217 -0.013990 -0.005353 846438.000000 0 0 1
32.934756 -28.755109 -27.796896 51.809477 -0.717749 2.137106 -0.014127 -0.013349 1335240.000000 0 0 1
32.035256 -28.002209 -26.754216 50.261013 -0.718323 2.132118 -0.005489 -0.008181 215761.000000 0 0 1
32.086696 -28.546009 -25.477716 49.935405 -0.727069 2.106229 -0.015558 0.000320 848594.000000 0 0 1
31.094606 -27.922009 -24.611876 48.500078 -0.731692 2.103031 -0.018401 -0.000203 622724.000000 0 0 1
31.010746 -28.632609 -23.215376 48.171011 -0.745547 2.073660 -0.017720 -0.000337 -120747.000000 0 0 1
30.504686 -29.969909 -23.336176 48.716613 -0.776555 2.070333 -0.006965 0.002763 -207513.000000 0 0 1
30.142906 -30.564909 -22.132876 48.297750 -0.792349 2.046832 0.002872 -0.020914 -32453.300000 0 0 1
31.197366 -30.873409 -20.977976 48.646875 -0.780179 2.016652 0.001444 -0.012143 634537.000000 0 0 1
32.338236 -31.557409 -21.578576 50.072612 -0.773178 2.016337 -0.003785 -0.011534 946275.000000 0 0 1
33.576026 -31.380409 -20.915376 50.492896 -0.751610 1.997887 0.005519 -0.011414 712454.000000 0 0 1
34.302346 -30.023609 -21.241076 50.291663 -0.718980 2.006841 -0.014181 -0.002690 -475605.000000 0 0 1
33.578966 -28.899409 -20.742176 48.917897 -0.710639 2.008676 -0.014774 -0.000017 212542.000000 0 0 1
34.226364 -27.633209 -21.045176 48.764102 -0.679216 2.017030 -0.027960 0.009934 299908.000000 0 0 1
33.352696 -26.426509 -20.652776 47.300104 -0.670050 2.022649 -0.023964 0.016744 545116.000000 0 0 1
32.060656 -26.449009 -21.241476 46.675861 -0.689781 2.043264 -0.008429 0.008907 451868.000000 0 0 1
31.146556 -25.501109 -20.680076 45.255718 -0.686067 2.045371 0.013319 -0.008386 393282.000000 0 0 1
29.883756 -25.364509 -21.572176 44.740987 -0.703781 2.073911 0.008776 -0.012429 531839.000000 0 0 1
29.135726 -26.589409 -21.776576 45.056703 -0.739736 2.075234 0.017829 -0.016874 -249735.000000 0 0 1
27.882976 -26.377109 -22.357876 44.419442 -0.757653 2.098251 0.026658 -0.015273 -244686.000000 0 0 1
27.337696 -27.777209 -22.745776 45.125306 -0.793372 2.099087 0.022913 -0.016139 -380498.000000 0 0 1
26.835656 -28.610809 -21.732776 44.844669 -0.817403 2.076729 0.023532 -0.017470 -19557.900000 0 0 1
26.410326 -29.852609 -22.362476 45.702997 -0.846504 2.082083 0.017761 -0.019717 246516.000000 0 0 1
25.503646 -30.716709 -21.417076 45.306107 -0.877859 2.063171 0.026054 -0.006825 164652.000000 0 0 1
26.195376 -31.261409 -20.289176 45.553530 -0.873342 2.032408 0.041066 -0.009908 439394.000000 0 0 1
27.132476 -32.304109 -20.604976 46.949885 -0.872191 2.025139 0.035584 -0.005837 -63740.300000 0 0 1
28.027276 -32.658009 -19.418076 47.213721 -0.861558 1.994655 0.023530 -0.004488 -800759.000000 0 0 1
27.539256 -33.221509 -18.220876 46.841003 -0.878645 1.970336 0.031855 -0.006970 -355663.000000 0 0 1
27.063926 -32.261109 -17.299076 45.524645 -0.872780 1.960586 0.017016 -0.009098 -91627.900000 0 0 1
26.419646 -32.853809 -16.035676 45.105580 -0.893525 1.934261 0.024499 -0.005705 -857508.000000 0 0 1
25.230456 -33.519309 -16.247676 44.990076 -0.925560 1.940285 0.030668 0.004959 -711143.000000 0 0 1
24.706126 -33.846609 -14.978676 44.501082 -0.940255 1.914091 0.026495 -0.002278 316560.000000 0 0 1
23.226326 -34.358809 -14.930376 44.078408 -0.976365 1.916356 0.036730 0.002694 807756.000000 0 0 1
22.334926 -33.322009 -14.554476 42.673621 -0.980299 1.918846 0.047705 0.006046 450404.000000 0 0 1
20.999626 -33.788609 -14.374576 42.299915 -1.014718 1.917527 0.039432 -0.003436 -862412.000000 0 0 1
-1.350527 -6.989535 -29.218506 30.073221 1.379927 2.902608 -0.000306 0.007692 352754.000000 0 0 1
-0.766127 -8.296935 -29.223206 30.387857 1.478719 2.863839 0.008783 0.007627 37923.200000 0 0 1
-0.315927 -8.783135 -30.466886 31.709217 1.534842 2.860746 -0.001260 0.011466 -259778.000000 0 0 1
-0.090427 -10.282835 -30.618356 32.299050 1.562003 2.817577 0.006783 0.012247 -450403.000000 0 0 1
1.143773 -10.719935 -30.147726 32.017349 -1.464503 2.798165 -0.015088 0.002951 -610715.000000 0 0 1
1.109773 -12.124235 -30.289066 32.644390 -1.479517 2.759400 -0.000288 -0.002534 -480964.000000 0 0 1
2.429573 -12.656535 -29.776406 32.445725 -1.381141 2.733123 0.001456 -0.000455 187239.000000 0 0 1
3.476473 -12.721835 -30.808726 33.512812 -1.304041 2.737125 0.001619 -0.008697 1344500.000000 0 0 1
4.804473 -12.994035 -30.367676 33.378491 -1.216641 2.713593 0.006705 -0.005185 744053.000000 0 0 1
5.146873 -14.367735 -29.737136 33.424832 -1.226814 2.667423 0.007921 -0.006843 -892118.000000 0 0 1
4.663973 -14.588235 -28.424726 32.288300 -1.261358 2.647378 0.015672 -0.009154 -97716.300000 0 0 1
5.418373 -15.531135 -27.686276 32.204112 -1.235127 2.605503 0.027141 -0.007301 -36387.100000 0 0 1
5.155073 -17.074535 -28.046746 33.237547 -1.277583 2.575172 0.022328 -0.008287 -163962.000000 0 0 1
5.483673 -17.471735 -29.370796 34.611788 -1.266673 2.584088 0.020680 -0.019603 62387.900000 0 0 1
4.934173 -18.738535 -29.564196 35.348557 -1.313324 2.561409 0.012704 -0.014565 -259196.000000 0 0 1
5.226573 -19.286035 -30.984296 36.868616 -1.306150 2.568813 0.021797 -0.020188 -863763.000000 0 0 1
6.570573 -19.460135 -31.296936 37.434844 -1.245172 2.560817 0.018011 -0.013081 -667887.000000 0 0 1
6.793573 -20.252635 -32.467366 38.864531 -1.247150 2.559654 0.027887 -0.014136 303924.000000 0 0 1
8.271573 -20.311835 -32.945226 39.577487 -1.184073 2.554263 0.018695 -0.003832 380809.000000 0 0 1
8.738073 -19.060335 -33.440576 39.470526 -1.140944 2.581544 0.007961 0.000786 -91422.300000 0 0 1
9.930973 -19.206835 -34.173501 40.439522 -1.093599 2.577459 -0.001263 0.007175 -260866.000000 0 0 1
10.373373 -17.928435 34.185486 39.971028 -1.046262 0.544751 -0.009808 0.013472 -73034.800000 0 0 1
9.435373 -17.624435 33.167402 38.726264 -1.079264 0.542429 -0.002327 0.011467 139099.000000 0 0 1
9.725273 -16.397035 32.586903 37.753807 -1.035457 0.529337 -0.013685 0.006430 -323781.000000 0 0 1
8.609373 -15.908335 31.674533 36.475642 -1.074745 0.518880 -0.012747 0.002285 -716420.000000 0 0 1
8.575873 -16.610435 30.503183 35.775639 -1.094198 0.549809 -0.012335 0.002581 87814.400000 0 0 1
7.839973 -15.928135 29.522133 34.448904 -1.113401 0.541409 -0.006963 -0.000624 -448346.000000 0 0 1
7.804573 -16.574035 28.127383 33.567241 -1.130705 0.577296 -0.002200 -0.007227 -705575.000000 0 0 1
7.390973 -17.897935 28.264833 34.261689 -1.179175 0.600649 0.001953 -0.006976 195387.000000 0 0 1
7.473673 -18.690935 27.113593 33.769125 -1.190415 0.638634 -0.004113 -0.005467 -220951.000000 0 0 1
7.006573 -20.112435 27.482713 34.769263 -1.235574 0.659284 0.003201 -0.008604 -630341.000000 0 0 1
7.789773 -20.665735 28.475883 36.036497 -1.210325 0.659668 -0.002039 0.000641 160809.000000 0 0 1
7.155173 -21.765835 29.092543 37.031394 -1.253191 0.667101 -0.009482 0.000852 -101266.000000 0 0 1
7.698673 -21.922135 30.538923 38.372847 -1.233068 0.650391 -0.004397 -0.000369 65812.100000 0 0 1
7.026973 -21.220835 31.601533 38.708644 -1.251025 0.615656 0.014427 -0.003084 320368.000000 0 0 1
7.140473 -19.788135 31.530433 37.904154 -1.224492 0.588370 0.007582 -0.005725 -168153.000000 0 0 1
6.643273 -19.090935 32.832663 38.556201 -1.235922 0.551855 0.017793 -0.005409 -577473.000000 0 0 1
5.249773 -19.149635 32.893623 38.422117 -1.303225 0.543098 0.023028 -0.013805 -871569.000000 0 0 1
4.726773 -18.118135 33.703857 38.555923 -1.315598 0.507103 0.019584 -0.009547 163893.000000 0 0 1
3.195573 -18.218335 33.895962 38.614190 -1.397158 0.499523 0.022391 -0.015527 142465.000000 0 0 1
2.985773 -19.319935 -34.359383 39.531531 -1.417466 2.624306 0.023500 -0.014049 -76095.800000 0 0 1
2.346473 -18.939235 -33.170186 38.268287 -1.447530 2.619505 0.015515 -0.025436 -427083.000000 0 0 1
1.801273 -20.094835 -32.306386 38.088707 -1.481397 2.583351 0.002520 -0.004977 -636489.000000 0 0 1
0.705273 -20.803135 -32.894846 38.927352 -1.536907 2.577421 -0.012434 0.004561 748450.000000 0 0 1
-0.105127 -21.499135 -31.930176 38.493636 1.565907 2.548994 -0.014313 0.003523 553726.000000 0 0 1
-0.738027 -20.706635 -30.740706 37.071558 1.535169 2.548518 -0.007467 -0.001822 -1095800.000000 0 0 1
-1.606727 -19.672135 -31.082986 36.820192 1.489302 2.575836 -0.006850 0.001194 -210029.000000 0 0 1
-1.701727 -18.696535 -30.041406 35.425166 1.480028 2.583043 -0.000559 0.005340 77250.600000 0 0 1
-2.061927 -17.287335 -30.596316 35.202813 1.452083 2.624265 0.003089 0.008109 -41623.000000 0 0 1
-2.364827 -16.380835 -29.572806 33.889158 1.427421 2.631365 0.008079 0.007142 -294605.000000 0 0 1
-2.201927 -15.023435 -29.943686 33.573448 1.425266 2.672295 0.017535 0.005517 18371.100000 0 0 1
-3.300427 -14.043735 -29.441616 32.786096 1.339974 2.685978 0.021965 0.001327 289617.000000 0 0 1
-3.254727 -13.875935 -28.044536 31.458399 1.340402 2.671398 0.024538 -0.001538 -159348.000000 0 0 1
-4.322427 -13.102835 -27.533566 30.797158 1.252153 2.677056 0.020083 0.001717 -77961.000000 0 0 1
-4.460127 -12.886335 -25.979756 29.341065 1.237589 2.658236 0.022119 -0.003695 -452190.000000 0 0 1
-4.976027 -14.054735 -25.309696 29.374771 1.230521 2.609236 0.024009 0.001424 194182.000000 0 0 1
-5.054027 -13.871035 -23.907776 28.098587 1.221388 2.588404 0.026024 -0.000686 -428955.000000 0 0 1
-6.199527 -13.038735 -23.316076 27.424116 1.126965 2.587168 0.011854 -0.000960 -227692.000000 0 0 1
-7.482727 -13.611035 -23.417876 28.100683 1.068142 2.555948 0.002847 0.003983 -1126260.000000 0 0 1
-8.481527 -12.735235 -23.098276 27.706549 0.983263 2.556527 0.001960 0.005079 -1668630.000000 0 0 1
-9.787427 -13.411035 -23.378476 28.674078 0.940346 2.524074 0.003101 0.004261 -1370330.000000 0 0 1
-10.152827 -14.350435 -22.359476 28.442241 0.955059 2.475329 0.006241 -0.000585 -731927.000000 0 0 1
-11.336827 -15.023835 -22.627476 29.431989 0.924364 2.447768 -0.007848 0.004090 -465688.000000 0 0 1
-11.723027 -16.031135 -21.487876 29.260135 0.939393 2.395540 -0.004903 0.000854 55022.200000 0 0 1
-10.887627 -17.181935 -21.313476 29.462240 1.005989 2.379535 0.002303 0.002441 -150013.000000 0 0 1
-11.420827 -18.417535 -21.726076 30.686533 1.015724 2.357459 -0.003012 -0.004202 -42277.600000 0 0 1
-11.863527 -18.663135 -23.211876 32.060054 1.004564 2.380398 -0.008224 -0.001395 1198420.000000 0 0 1
-13.099927 -17.965235 -23.516276 32.363143 0.940752 2.384211 -0.015924 -0.001923 402532.000000 0 0 1
-13.518027 -18.233335 -24.824776 33.637198 0.932828 2.400921 -0.016405 -0.002165 261647.000000 0 0 1
-14.810527 -17.435235 -25.121156 33.976634 0.866616 2.402924 -0.004513 -0.005052 -51781.800000 0 0 1
-16.043827 -17.938335 -24.659176 34.456686 0.841091 2.368361 0.003155 -0.008627 479235.000000 0 0 1
-17.178127 -17.363735 -25.315086 35.177279 0.790772 2.374085 0.005051 -0.007457 609707.000000 0 0 1
-17.668327 -15.963735 -24.795276 34.377556 0.734758 2.376421 0.006673 -0.004207 -698578.000000 0 0 1
-18.483227 -16.042435 -23.663076 34.043070 0.714821 2.339345 0.005892 -0.003218 220809.000000 0 0 1
-19.125227 -14.772735 -23.413876 33.648441 0.657697 2.340383 0.006948 -0.010519 116952.000000 0 0 1
-19.859627 -14.814435 -22.090476 33.194298 0.640909 2.298947 0.004404 -0.015913 -343355.000000 0 0 1
-18.916627 -14.812735 -21.045776 31.940266 0.664322 2.290166 -0.002404 -0.009476 160523.000000 0 0 1
-19.453227 -14.997335 -19.748676 31.517587 0.656771 2.247969 0.000087 -0.015519 -172746.000000 0 0 1
-20.133127 -13.749635 -19.084576 30.961530 0.599182 2.234954 0.007336 -0.016948 -332990.000000 0 0 1
-21.254227 -13.200335 -19.698776 31.843882 0.555767 2.237762 0.013825 -0.027232 -440116.000000 0 0 1
-21.522727 -12.034935 -18.992576 31.125318 0.509859 2.227106 0.018813 -0.022145 -705634.000000 0 0 1
-22.958127 -11.590035 -19.189876 32.088251 0.467507 2.211843 0.022353 -0.021607 -654236.000000 0 0 1
-23.194827 -10.868635 -20.351176 32.715403 0.438197 2.242176 0.020531 -0.026652 -735922.000000 0 0 1
-24.566027 -10.640035 -20.394176 33.654457 0.408728 2.221803 0.012074 -0.023709 -808925.000000 0 0 1
-25.086197 -9.709235 -21.476476 34.421295 0.369280 2.244558 0.019319 -0.015790 -307346.000000 0 0 1
-25.090137 -10.247335 -22.804176 35.419674 0.387745 2.270287 0.004006 -0.020294 252369.000000 0 0 1
-25.855097 -9.476335 -23.709776 36.337865 0.351313 2.281650 0.014977 -0.016708 -287904.000000 0 0 1
-25.928217 -10.081335 -25.148426 37.501321 0.370829 2.305815 0.009352 -0.011068 19827.300000 0 0 1
-24.774327 -9.902835 -25.944696 37.215060 0.380266 2.342219 -0.007525 -0.005740 -291655.000000 0 0 1
-23.969527 -11.043735 -25.961446 37.020251 0.431750 2.347983 -0.006112 -0.002822 112988.000000 0 0 1
-22.926027 -10.948835 -27.171776 37.199262 0.445545 2.389760 -0.012683 0.005810 393200.000000 0 0 1
-23.356027 -11.199335 -28.475856 38.494201 0.447118 2.403486 -0.008065 0.009588 -16941.200000 0 0 1
-22.266627 -11.137535 -29.366866 38.500132 0.463799 2.438387 -0.005822 0.005390 214439.000000 0 0 1
-22.764927 -11.657035 -30.755026 40.000000 0.473250 2.447877 -0.008175 0.002940 344757.000000 0 0 1
-23.555227 -10.707535 -31.459496 40.733278 0.426649 2.453296 -0.009727 0.006143 250695.000000 0 0 1
-22.785327 -9.669935 -32.118096 40.549363 0.401356 2.484995 -0.008981 0.000428 -333366.000000 0 0 1
-23.587027 -8.583835 -32.841476 41.335126 0.349023 2.489009 -0.016679 0.008253 -573571.000000 0 0 1
-24.440527 -9.054535 -33.887826 42.751710 0.354795 2.485966 0.010666 0.004657 1184640.000000 0 0 1
-25.753997 -9.513435 -33.564476 43.362978 0.353849 2.455986 0.006121 0.002094 794567.000000 0 0 1
-26.753757 -8.539135 -32.801596 43.181304 0.308955 2.433533 0.003454 0.010717 -1463220.000000 0 0 1
-28.050197 -8.958435 -32.927306 44.173234 0.309133 2.411951 0.002169 0.004005 -1260800.000000 0 0 1
-28.802737 -8.509635 -31.826336 43.759881 0.287273 2.385168 0.008241 0.005051 -293930.000000 0 0 1
-30.309907 -8.759335 -31.922556 44.882803 0.281328 2.362060 0.013355 -0.006123 -406854.000000 0 0 1
-30.595817 -10.130035 -31.916546 45.358434 0.319732 2.351320 0.012308 -0.004997 389718.000000 0 0 1
-31.981057 -10.374035 -31.686756 46.200207 0.313672 2.326578 0.008413 -0.002499 302941.000000 0 0 1
-32.261657 -11.907135 -31.711806 46.778553 0.353571 2.315717 0.003301 -0.000392 123916.000000 0 0 1
-33.565437 -12.447035 -31.532856 47.706271 0.355109 2.292919 -0.013864 0.000330 201344.000000 0 0 1
-33.455107 -13.873335 -31.678576 48.117001 0.393102 2.289442 -0.006281 -0.011405 304238.000000 0 0 1
-34.688342 -14.731135 -31.288186 48.982017 0.401592 2.263693 -0.017440 -0.012616 164275.000000 0 0 1
-34.825523 -14.900935 -29.894016 48.254607 0.404302 2.238909 -0.020698 -0.004898 -125114.000000 0 0 1
34.415098 -15.943235 -29.658046 48.147538 -0.433828 2.234429 -0.020099 -0.006735 -103754.000000 0 0 1
34.305144 -16.215035 -28.165186 47.255137 -0.441546 2.209336 -0.021194 0.000901 -694376.000000 0 0 1
-34.634163 -16.566535 -27.584896 47.274748 0.446161 2.193830 -0.019280 -0.010274 -321667.000000 0 0 1
-34.680294 -16.687435 -26.166026 46.538739 0.448478 2.167891 -0.034141 -0.004365 -6881.870000 0 0 1
-33.493167 -15.914835 -25.507906 45.008082 0.443584 2.173341 -0.003237 -0.005743 824160.000000 0 0 1
-32.264707 -16.620335 -25.687286 44.464407 0.475674 2.186710 -0.004769 -0.002209 156339.000000 0 0 1
-31.113977 -15.873235 -25.367316 43.168737 0.471746 2.198925 0.015534 -0.002172 813530.000000 0 0 1
-29.770207 -16.681735 -25.389236 42.534208 0.510755 2.210445 0.014806 0.009251 501981.000000 0 0 1
-29.694297 -17.775535 -24.519076 42.413512 0.539403 2.187189 0.012707 0.003879 -107939.000000 0 0 1
-30.363727 -18.937635 -24.928976 43.612427 0.557659 2.179254 -0.003134 -0.001401 -321130.000000 0 0 1
-30.095137 -20.213135 -24.078776 43.520978 0.591439 2.157079 -0.006619 -0.004225 -237308.000000 0 0 1
-28.837557 -20.849935 -24.148576 43.005560 0.626005 2.167021 -0.012662 -0.001327 -73535.900000 0 0 1
-28.756057 -22.085135 -23.437876 43.174044 0.654933 2.144647 -0.032535 0.017100 -426733.000000 0 0 1
-27.432497 -22.881735 -23.629476 42.830688 0.695197 2.155191 -0.021423 0.014422 768295.000000 0 0 1
-26.280507 -22.295735 -22.997776 41.432627 0.703550 2.159237 -0.001805 0.003832 313318.000000 0 0 1
-26.204737 -22.210935 -21.566976 40.560428 0.703095 2.131432 -0.003593 -0.001548 -568843.000000 0 0 1
-26.350777 -23.486635 -20.760676 40.951083 0.727992 2.102454 -0.005277 0.006311 -111972.000000 0 0 1
-26.190377 -23.260435 -19.357476 40.021189 0.726218 2.075651 -0.014745 0.006363 17474.200000 0 0 1
-26.439247 -24.401835 -18.573876 40.490397 0.745345 2.047354 -0.012607 0.034271 -77114.600000 0 0 1
-26.197207 -24.110035 -17.107476 39.500040 0.743933 2.018726 -0.026221 0.035277 -35643.400000 0 0 1
-27.303907 -23.520835 -16.465376 39.621227 0.711102 1.999365 -0.039209 0.027087 -206510.000000 0 0 1
-26.947187 -22.654335 -15.438776 38.441197 0.699067 1.984082 -0.032504 0.022334 434984.000000 0 0 1
-28.196807 -21.955135 -14.806176 38.682176 0.661580 1.963584 -0.045257 0.021969 560921.000000 0 0 1
-28.855437 -20.977035 -15.565876 38.922600 0.628598 1.982224 -0.050798 0.027539 -419644.000000 0 0 1
-29.981407 -20.475535 -14.912176 39.249271 0.599185 1.960522 -0.042109 0.025133 419005.000000 0 0 1
-31.079617 -19.806635 -15.843776 40.115716 0.567386 1.976812 -0.042450 0.017476 812771.000000 0 0 1
-31.826577 -20.701535 -16.689276 41.473082 0.576690 1.984947 -0.044089 0.020048 294035.000000 0 0 1
-32.493487 -20.014035 -17.748376 42.087922 0.552058 2.006113 -0.035525 0.012998 110657.000000 0 0 1
-33.101407 -20.995535 -18.842676 43.492092 0.565244 2.018885 -0.043707 0.019073 238684.000000 0 0 1
-34.235287 -21.753635 -18.447376 44.559861 0.566054 1.997630 -0.036055 0.017500 -63875.200000 0 0 1
-34.022787 -22.767635 -17.508676 44.524925 0.589746 1.974942 -0.027188 0.016121 -499045.000000 0 0 1
-35.004854 -23.945335 -17.603276 45.919432 0.599946 1.964218 -0.028717 0.024563 834891.000000 0 0 1
33.762476 -23.718335 -17.295176 44.739103 -0.612406 1.967715 -0.018559 0.017129 977021.000000 0 0 1
33.136766 -24.989735 -16.929176 44.823310 -0.646145 1.958093 -0.025351 0.015112 737715.000000 0 0 1
31.633356 -24.880235 -16.548076 43.514758 -0.666467 1.960902 -0.021115 0.006403 601527.000000 0 0 1
30.757856 -24.522535 -17.611976 43.099677 -0.673078 1.991753 -0.006397 -0.000573 786128.000000 0 0 1
29.401566 -24.720035 -17.181776 42.080229 -0.699113 1.991398 0.008654 -0.005969 1402930.000000 0 0 1
28.257776 -24.298035 -18.180976 41.466183 -0.710197 2.024673 0.028798 -0.004243 455554.000000 0 0 1
28.103936 -22.925635 -18.514276 40.720933 -0.684268 2.042789 0.028430 -0.008184 -560104.000000 0 0 1
26.876056 -22.674635 -19.093076 40.012586 -0.700810 2.068236 0.029768 -0.025393 -894293.000000 0 0 1
33.126546 30.321165 -18.437976 48.545855 0.741211 1.960382 0.015737 -0.000532 -312612.000000 0 0 1
32.260756 30.718865 -19.470976 48.616087 0.760921 1.982864 0.009684 -0.005288 118584.000000 0 0 1
32.796786 30.172365 -20.706876 49.140365 0.743744 2.005765 0.023565 0.000604 312621.000000 0 0 1
31.804726 30.315165 -21.898776 49.092832 0.761424 2.033164 0.027154 0.004537 -353952.000000 0 0 1
30.818026 29.307765 -21.949376 47.858864 0.760285 2.047246 0.021963 -0.004053 709807.000000 0 0 1
29.963546 29.366165 -23.134976 47.910467 0.775330 2.074736 0.026661 0.002768 644777.000000 0 0 1
28.818866 30.390365 -23.160076 47.859068 0.811933 2.075928 0.009908 0.013168 -887739.000000 0 0 1
29.261826 31.752465 -23.025176 48.934979 0.826196 2.060683 0.028133 -0.000296 -263627.000000 0 0 1
28.255076 32.726165 -23.170676 49.053352 0.858586 2.062759 0.022023 0.005619 -471746.000000 0 0 1
28.749626 34.207065 -23.008676 50.259958 0.871868 2.046308 0.020068 0.003287 124590.000000 0 0 1
29.351896 34.478565 -21.758376 50.236761 0.865543 2.018744 0.015978 -0.004272 -241653.000000 0 0 1
30.745006 34.289065 -21.786676 50.947567 0.839840 2.012665 0.013592 -0.005241 -503500.000000 0 0 1
31.254166 34.016465 -20.324676 50.468160 0.827694 1.985286 0.015579 -0.011320 -296499.000000 0 0 1
31.110606 -34.144509 -19.584176 50.172276 -0.831858 1.971796 0.016134 -0.011406 19444.100000 0 0 1
31.288636 -34.345409 -18.219276 49.905189 -0.831938 1.944513 0.000527 -0.017100 -493989.000000 0 0 1
31.104406 -32.981409 -17.417276 48.565614 -0.814679 1.937600 -0.002922 -0.005490 -922462.000000 0 0 1
32.186086 -32.137409 -17.288876 48.658631 -0.784641 1.934042 -0.002280 -0.008290 -669400.000000 0 0 1
33.114226 -32.640009 -16.327576 49.279934 -0.778186 1.908502 -0.008905 -0.004346 -63599.700000 0 0 1
34.507862 -31.989209 -16.442676 49.844394 -0.747540 1.906973 -0.005805 0.006071 -190533.000000 0 0 1
-34.920831 -32.263009 -17.606976 50.698834 0.745858 1.925471 -0.012862 0.001593 -290449.000000 0 0 1
-33.612927 -31.738109 -17.470676 49.420248 0.756718 1.932120 -0.028728 0.014369 973311.000000 0 0 1
-32.522987 -32.270709 -18.498776 49.409999 0.781505 1.954539 -0.030750 0.007095 253447.000000 0 0 1
-31.777617 -33.419409 -18.037376 49.517883 0.810575 1.943634 -0.016672 0.000148 334671.000000 0 0 1
-30.892997 -34.038909 -18.922376 49.709968 0.833810 1.961301 -0.021282 0.004228 -916402.000000 0 0 1
-29.657037 -33.309909 -19.326276 48.606531 0.843346 1.979703 -0.026481 0.004344 -2013790.000000 0 0 1
-29.946737 -32.301009 -20.293876 48.497460 0.823201 2.002537 -0.038531 0.013819 350922.000000 0 0 1
-28.806257 -31.681509 -20.875976 47.637431 0.832897 2.024421 -0.034852 0.017499 257609.000000 0 0 1
-27.813847 -32.461609 -21.738676 47.957650 0.862355 2.041248 -0.032524 0.019986 2284.470000 0 0 1
-28.543767 -32.983809 -22.840276 49.237755 0.857437 2.053163 -0.030159 0.025208 137660.000000 0 0 1
-28.042617 -34.259709 -23.269776 50.015982 0.884858 2.054710 -0.030182 0.021298 193273.000000 0 0 1
-28.758137 34.488765 -24.528776 51.168019 -0.875759 2.070741 -0.031922 0.013372 681429.000000 0 0 1
-30.012727 33.830665 -24.232676 51.307896 -0.845129 2.062694 -0.034003 0.010340 590652.000000 0 0 1
-30.358727 32.811865 -25.148956 51.290747 -0.824212 2.083255 -0.021367 0.005987 181230.000000 0 0 1
-31.186097 33.410065 -26.317996 52.739378 -0.819813 2.093264 -0.017667 -0.006217 -621625.000000 0 0 1
-30.413977 34.192065 -27.184146 53.226733 -0.843810 2.106822 -0.014644 -0.013155 -545686.000000 0 0 1
-31.191527 -34.156309 -27.793396 53.963299 0.830736 2.111854 -0.016411 -0.011853 -201553.000000 0 0 1
-30.553527 -33.421809 -28.926596 53.733447 0.830202 2.139256 -0.007503 -0.012215 -479991.000000 0 0 1
-30.496957 -34.188209 -30.134386 54.835930 0.842401 2.152607 0.003375 -0.013059 -411683.000000 0 0 1
-31.562127 -33.936409 -30.995486 55.754532 0.821632 2.160275 0.006424 -0.008418 -576781.000000 0 0 1
-31.442477 34.609265 -32.283576 56.821297 -0.833306 2.175064 0.020901 -0.008140 72365.900000 0 0 1
-30.515867 -34.213609 -33.200056 56.604177 0.842462 2.197564 0.023309 -0.027620 -165798.000000 0 0 1
-30.570367 34.298165 -34.348026 57.364609 -0.842802 2.212757 0.014383 -0.027430 140081.000000 0 0 1
-29.828007 -34.568209 33.473661 56.614106 0.858876 0.938176 0.022939 -0.030255 688706.000000 0 0 1
-28.454097 34.430865 33.321135 55.726278 -0.880156 0.929864 0.034585 -0.027863 401295.000000 0 0 1
-28.293817 33.137965 32.668873 54.460261 -0.864089 0.927462 0.042709 -0.029944 -847328.000000 0 0 1
-26.908617 32.545165 32.773113 53.454077 -0.879921 0.910808 0.038194 -0.027637 -1174420.000000 0 0 1
-26.683017 32.131765 34.120148 53.931606 -0.877777 0.885818 0.040513 -0.022856 560497.000000 0 0 1
-25.371707 31.647465 34.426662 53.202261 -0.895021 0.867035 0.044807 -0.019121 153808.000000 0 0 1
-24.981827 30.257765 33.851406 51.822212 -0.880619 0.858964 0.034738 -0.026834 -345009.000000 0 0 1
-25.275127 29.238565 -34.362411 51.715578 -0.857976 2.297554 0.040263 -0.017629 -25161.800000 0 0 1
-24.728227 28.069065 34.271637 50.733645 -0.848591 0.829125 0.033038 -0.019417 -242404.000000 0 0 1
-24.660327 26.960365 -33.773616 49.755905 -0.829925 2.316905 0.035342 -0.032497 343989.000000 0 0 1
-23.589627 27.059765 -32.811276 48.634157 -0.853804 2.311294 0.032126 -0.022174 460905.000000 0 0 1
-23.844627 27.994865 -31.734046 48.572918 -0.865287 2.282768 0.025557 -0.009973 387738.000000 0 0 1
-22.721827 28.075165 -30.621606 47.351653 -0.890397 2.274027 0.039819 -0.010108 229892.000000 0 0 1
-21.478727 28.422965 -31.151856 47.324822 -0.923669 2.289296 0.025275 -0.010880 -450410.000000 0 0 1
-20.345227 28.325265 -30.315916 46.209346 -0.947913 2.286377 0.010508 -0.007285 339925.000000 0 0 1
-20.172527 29.498965 -29.334706 46.234670 -0.971000 2.258124 0.013418 0.006320 -402530.000000 0 0 1
-19.584827 30.636965 -29.992306 47.135204 -1.002012 2.260494 0.009556 0.013583 276886.000000 0 0 1
-19.328427 31.783265 -29.140446 47.253884 -1.024419 2.235312 0.016072 0.004725 8825.290000 0 0 1
-18.855227 32.977165 -30.032676 48.424938 -1.051396 2.239782 0.021337 0.015479 638311.000000 0 0 1
-17.504627 33.029565 -30.494956 48.242165 -1.083462 2.255086 0.018220 0.014740 136549.000000 0 0 1
-17.305427 34.184265 -31.324756 49.490222 -1.102170 2.256152 0.011250 0.023135 749601.000000 0 0 1
-15.837327 34.363265 -31.861316 49.465122 -1.138932 2.270664 0.010241 0.023684 499749.000000 0 0 1
-14.891127 -34.649309 -30.851866 48.725331 1.164895 2.256450 0.028558 0.022967 -136773.000000 0 0 1
-13.578527 -34.624309 -31.373086 48.656857 1.197060 2.271535 0.030627 0.027411 111167.000000 0 0 1
-12.869527 33.365965 -31.301426 47.525694 -1.202671 2.289781 0.035738 0.013323 -788630.000000 0 0 1
-12.672227 32.964565 -29.960236 46.312672 -1.203793 2.274325 0.056299 -0.000783 -43310.200000 0 0 1
-12.344027 31.608865 -29.919276 45.240009 -1.198485 2.293407 0.053564 -0.004551 -300179.000000 0 0 1
-12.162427 31.006065 -28.478516 43.821531 -1.196980 2.278216 0.048460 -0.012129 86849.800000 0 0 1
-10.894327 31.266665 -27.911346 43.305126 -1.235518 2.271202 0.031936 -0.007189 -131608.000000 0 0 1
-10.776327 30.836465 -26.549436 42.093816 -1.234596 2.253278 0.024015 -0.011326 733304.000000 0 0 1
-9.295727 31.012165 -26.094226 41.582130 -1.279574 2.249179 0.016054 -0.004309 95755.200000 0 0 1
-8.316227 30.174965 -26.597376 41.074427 -1.301872 2.275149 0.020436 0.000122 -1762420.000000 0 0 1
-7.148027 30.723165 -26.154006 40.976080 -1.342204 2.263052 0.016775 -0.004568 -842151.000000 0 0 1
-5.832527 29.978165 -26.527816 40.452858 -1.378638 2.286000 0.000164 -0.000236 214922.000000 0 0 1
-5.697727 28.798965 -25.784506 39.072819 -1.375474 2.291494 0.006054 -0.007463 219867.000000 0 0 1
-4.513127 28.075165 -26.131286 38.619002 -1.411408 2.313990 0.008778 -0.008683 459284.000000 0 0 1
-4.263727 26.912365 -25.117386 37.058573 -1.413672 2.315529 0.005425 -0.016512 -267786.000000 0 0 1
-5.197227 25.871165 -25.146356 36.450892 -1.372546 2.332105 0.015849 -0.013855 85135.000000 0 0 1
-4.676127 24.885365 -24.269776 35.073773 -1.385056 2.335002 0.013974 -0.020070 455671.000000 0 0 1
-5.642027 23.627465 -24.242476 34.318904 -1.336395 2.355179 0.017659 -0.011073 436138.000000 0 0 1
-5.804527 23.095465 -25.500496 34.890806 -1.324569 2.390386 0.009976 -0.012892 -375607.000000 0 0 1
-6.759827 22.102765 -25.466796 34.391644 -1.273994 2.404601 0.014141 -0.019284 -922934.000000 0 0 1
-6.875827 21.294065 -26.775436 34.894672 -1.258466 2.445450 0.008576 -0.009486 326783.000000 0 0 1
-5.759527 20.473765 -27.176086 34.509228 -1.296571 2.477542 0.020746 -0.014310 415925.000000 0 0 1
-5.753627 19.207065 -26.474946 33.210515 -1.279745 2.493416 0.012263 -0.015167 -249922.000000 0 0 1
-4.422827 18.407565 -26.598296 32.647652 -1.334994 2.523021 0.015792 -0.016416 440326.000000 0 0 1
-4.397927 17.806565 -27.856186 33.352400 -1.328659 2.559307 0.005387 -0.015492 -599660.000000 0 0 1
-3.297027 16.971065 -27.844146 32.774745 -1.378913 2.585949 0.004593 -0.010608 -822035.000000 0 0 1
-2.966727 16.496265 -29.295296 33.751186 -1.392856 2.621913 0.003846 -0.007759 -157498.000000 0 0 1
-2.435327 17.543765 -30.077446 34.905118 -1.432863 2.609390 0.005907 -0.019517 77313.000000 0 0 1
-2.202427 17.179765 -31.406086 35.865544 -1.443293 2.637601 0.003874 -0.027622 -366273.000000 0 0 1
-1.282727 18.206165 -32.050566 36.882904 -1.500457 2.623937 0.003152 -0.004317 -300630.000000 0 0 1
0.070273 18.101665 -31.605086 36.421926 1.566914 2.621451 0.003851 -0.014567 951047.000000 0 0 1
0.967873 19.066065 -32.201476 37.435099 1.520076 2.606448 0.000204 0.011402 459132.000000 0 0 1
0.723373 20.506265 -31.749086 37.802574 1.535535 2.567832 0.008063 0.008484 -559945.000000 0 0 1
1.165173 20.831865 -30.464126 36.924073 1.514922 2.541083 0.026978 -0.010437 -188941.000000 0 0 1
0.840073 22.151865 -30.038046 37.332225 1.532891 2.505822 0.032280 -0.007936 -21502.800000 0 0 1
1.626173 22.472065 -28.745016 36.522788 1.498558 2.476798 0.036359 -0.015102 659282.000000 0 0 1
3.014173 22.591665 -29.053096 36.926291 1.438160 2.476381 0.021147 -0.010808 209392.000000 0 0 1
3.889573 22.801665 -27.958466 36.286644 1.401840 2.450405 0.024567 -0.013258 246000.000000 0 0 1
4.086473 24.256065 -27.413626 36.831547 1.403891 2.410279 0.018268 -0.009071 -408366.000000 0 0 1
4.961973 24.949365 -28.255446 38.019235 1.374476 2.408619 0.010322 -0.013436 81936.700000 0 0 1
5.199473 26.296965 -27.978856 38.747661 1.375593 2.377598 0.015065 -0.011451 -110907.000000 0 0 1
5.944873 27.004265 -29.150786 40.178852 1.354107 2.382594 0.029270 -0.016298 114195.000000 0 0 1
7.314673 26.650265 -29.281436 40.263427 1.302924 2.385098 0.038983 -0.021058 1634.100000 0 0 1
7.962673 27.502165 -30.169966 41.593270 1.288973 2.382349 0.057189 -0.032758 -863056.000000 0 0 1
9.452673 27.384765 -29.934606 41.657640 1.238422 2.372564 0.053236 -0.024757 -648357.000000 0 0 1
10.266773 28.390565 -30.540736 42.943770 1.223802 2.361971 0.059201 -0.019288 729623.000000 0 0 1
11.610673 28.336165 -30.042386 42.898612 1.181915 2.346630 0.050424 -0.025577 874100.000000 0 0 1
12.653273 29.206765 -30.800316 44.292210 1.161975 2.339757 0.064384 -0.026090 -513277.000000 0 0 1
12.448673 30.629365 -30.670126 45.097495 1.184760 2.318675 0.057995 -0.019884 42156.300000 0 0 1
13.336273 31.332865 -31.504616 46.391221 1.168390 2.317342 0.096234 -0.031664 -25978.600000 0 0 1
12.959073 32.818565 -31.674536 47.415947 1.194720 2.302334 0.090968 -0.031736 347370.000000 0 0 1
11.732173 33.050165 -32.359136 47.718665 1.229691 2.316002 0.073195 -0.037468 235793.000000 0 0 1
11.417973 34.387865 -32.197326 48.472293 1.250215 2.297275 0.063584 -0.030585 -30056.500000 0 0 1
10.069573 -34.559009 -32.836396 48.723201 -1.287273 2.310322 0.013401 -0.017047 -168176.000000 0 0 1
10.048473 -34.158209 -34.185329 49.359819 -1.284693 2.335848 0.018172 -0.009919 -112632.000000 0 0 1
8.722173 -33.880909 34.517318 49.147101 -1.318831 0.792136 0.010480 -0.007972 236108.000000 0 0 1
8.602673 -33.315509 33.074202 47.726638 -1.318098 0.805165 0.019472 0.002008 111911.000000 0 0 1
9.026773 -31.997409 32.888233 46.764866 -1.295833 0.790812 -0.005584 -0.008778 -137040.000000 0 0 1
9.248273 -31.790309 31.502403 45.700719 -1.287695 0.810247 0.015215 0.000229 -330801.000000 0 0 1
9.300673 -30.292609 31.029213 44.350386 -1.272905 0.795906 -0.006243 -0.021430 -62799.100000 0 0 1
8.077373 -29.593009 30.995793 43.608821 -1.304338 0.780206 -0.013343 -0.001497 -403561.000000 0 0 1
7.596573 -29.205609 32.275553 44.185822 -1.316328 0.751815 -0.012425 0.004909 391126.000000 0 0 1
6.123373 -28.687309 32.102263 43.485775 -1.360500 0.740362 -0.029444 -0.002806 1218430.000000 0 0 1
5.056873 -29.621209 31.872283 43.804456 -1.401708 0.755974 -0.004341 -0.013016 462295.000000 0 0 1
5.051673 -30.455609 30.716503 43.549593 -1.406423 0.787919 -0.008072 -0.013254 -801370.000000 0 0 1
4.505273 -29.842209 29.433183 42.156461 -1.420958 0.797931 0.000156 -0.014309 -510313.000000 0 0 1
3.111773 -29.767909 29.305913 41.888519 -1.466640 0.795935 0.015984 -0.017866 -82411.900000 0 0 1
2.720473 -29.075009 28.139473 40.553508 -1.477501 0.803926 0.029956 -0.016663 1325200.000000 0 0 1
1.175973 -29.295709 27.768523 40.382079 -1.530676 0.812556 0.026515 -0.023810 1410270.000000 0 0 1
0.820373 -30.481809 27.167733 40.839924 -1.543889 0.843001 0.026104 -0.028175 -8891.470000 0 0 1
0.670173 -31.554809 28.009323 42.198072 -1.549561 0.844964 0.038856 -0.025968 -446333.000000 0 0 1
0.858173 -32.943909 27.333383 42.815317 -1.544753 0.878376 0.028470 -0.021600 416101.000000 0 0 1
2.220573 -33.271609 27.092203 42.964152 -1.504154 0.888500 0.020706 -0.015324 310303.000000 0 0 1
2.725973 -32.997209 25.799833 41.974732 -1.488371 0.908852 0.021778 -0.014291 -428131.000000 0 0 1
4.257373 -33.002909 25.901063 42.168499 -1.442505 0.909389 0.016581 -0.000592 -499821.000000 0 0 1
4.853773 -32.792709 24.643653 41.306543 -1.423849 0.931533 0.024704 -0.012158 333312.000000 0 0 1
6.193573 -32.370709 24.901353 41.307391 -1.381748 0.923752 0.013127 -0.014058 -42207.700000 0 0 1
6.975073 -32.077409 23.621653 40.442481 -1.356684 0.947050 0.015253 -0.005219 -241631.000000 0 0 1
8.262773 -31.575609 23.915553 40.462899 -1.314853 0.938438 0.004171 -0.007111 156861.000000 0 0 1
9.084673 -31.691609 22.756153 40.059104 -1.291624 0.966644 0.012374 -0.005934 -278878.000000 0 0 1
10.249473 -30.718709 22.624353 39.503824 -1.248756 0.960985 0.008927 -0.003194 -303292.000000 0 0 1
11.295073 -31.128909 23.491253 40.600820 -1.222721 0.953797 0.013481 -0.011736 33503.300000 0 0 1
12.315473 -30.127709 23.490853 40.139381 -1.182748 0.945630 0.020888 -0.009597 -599.477000 0 0 1
13.518073 -30.415709 24.378933 41.257557 -1.152573 0.938627 0.055455 -0.018767 -381979.000000 0 0 1
13.210073 -30.347909 25.745123 41.932242 -1.160244 0.909716 0.030561 -0.013031 155455.000000 0 0 1
14.368173 -29.873609 26.389353 42.370684 -1.122492 0.898453 0.020594 -0.007487 -31353.000000 0 0 1
-10.457627 -14.323435 26.466953 31.859416 0.940149 0.590357 0.036706 -0.024814 442797.000000 0 0 1
-9.088227 -14.268835 26.066223 31.074805 1.003665 0.575681 0.034165 -0.022334 -185324.000000 0 0 1
-8.252927 -14.548235 27.161463 31.898386 1.054783 0.551958 0.049592 -0.026623 -1058410.000000 0 0 1
-6.833927 -14.409935 26.671083 31.075641 1.127959 0.538920 0.059553 -0.018261 -1195100.000000 0 0 1
-6.357227 -15.421235 25.792793 30.716396 1.179784 0.574052 0.055818 -0.020594 45726.200000 0 0 1
-6.645527 -15.171735 24.456373 29.537413 1.157949 0.595301 0.045338 -0.013195 -421788.000000 0 0 1
-5.889727 -16.185335 23.573353 29.195153 1.221799 0.630995 0.039281 -0.016061 -95898.900000 0 0 1
-6.317327 -17.545735 23.518353 30.014569 1.225197 0.670414 0.048876 -0.014743 -225835.000000 0 0 1
-6.574127 -18.298935 24.751703 31.475657 1.225894 0.665876 0.054925 -0.019010 -284293.000000 0 0 1
-7.168227 -19.685535 24.559533 32.281178 1.221583 0.706251 0.055972 -0.021496 163042.000000 0 0 1
-8.566927 -19.637735 24.287933 32.387290 1.159437 0.722853 0.043141 -0.016963 -28121.500000 0 0 1
-9.040627 -20.924135 24.010453 33.106710 1.162955 0.759407 0.032468 -0.017555 504033.000000 0 0 1
-10.593927 -20.962635 24.123253 33.668898 1.102860 0.772046 0.028228 -0.016148 494637.000000 0 0 1
-11.141327 -20.922935 25.428143 34.763326 1.081493 0.750329 0.029497 -0.017060 1541060.000000 0 0 1
-12.599127 -20.986135 25.468293 35.324069 1.030116 0.765567 0.034179 -0.011024 1460930.000000 0 0 1
-13.053327 -21.008135 26.939693 36.571548 1.014829 0.742723 0.037310 -0.010667 -498832.000000 0 0 1
-12.696827 -22.223435 27.642383 37.672162 1.051728 0.746954 0.045312 -0.008817 646109.000000 0 0 1
-11.508827 -22.113435 28.452023 37.828227 1.090927 0.719497 0.044546 -0.008920 595673.000000 0 0 1
-11.259627 -23.514435 29.116503 39.082971 1.124220 0.730273 0.036406 -0.016183 -528354.000000 0 0 1
-12.180327 -23.900935 30.086543 40.308996 1.099485 0.728164 0.054363 -0.011691 -311483.000000 0 0 1
-11.880427 -25.194935 30.514993 41.316995 1.130175 0.739868 0.051011 -0.009141 324104.000000 0 0 1
-12.910727 -25.893985 31.482663 42.759132 1.108270 0.743241 0.059350 -0.018862 452779.000000 0 0 1
-12.593127 -25.527635 32.833663 43.454533 1.112512 0.714247 0.052137 -0.018119 -56201.900000 0 0 1
-13.691327 -25.664965 33.694402 44.513544 1.080738 0.712168 0.057724 -0.017513 -243373.000000 0 0 1
-13.459627 -25.033335 -34.003266 44.317621 1.077470 2.445359 0.055462 -0.018555 104997.000000 0 0 1
-13.418527 -23.641935 -33.998776 43.530619 1.054561 2.467112 0.047677 -0.019639 123368.000000 0 0 1
-14.688627 -23.034935 -34.222455 43.789730 1.003140 2.467891 0.058208 -0.024136 108253.000000 0 0 1
-14.847327 -21.536335 -33.985826 42.886982 0.967214 2.485613 0.039921 -0.013572 -146628.000000 0 0 1
-15.073127 -21.253235 -32.639856 41.764331 0.953912 2.467902 0.037955 -0.013306 150595.000000 0 0 1
-15.089527 -19.881235 -32.370896 40.875815 0.921571 2.484764 0.028552 -0.017351 -456060.000000 0 0 1
-15.423627 -19.447035 -30.913176 39.644671 0.900271 2.465073 0.027641 -0.009810 522610.000000 0 0 1
-16.763027 -19.676735 -30.458466 39.948606 0.865188 2.437874 0.024382 -0.014074 602201.000000 0 0 1
-16.964327 -19.274035 -29.111706 38.817113 0.849049 2.418814 0.021655 -0.012669 37865.300000 0 0 1
-16.140327 -19.960435 -27.994396 37.981777 0.890824 2.399488 0.019597 -0.007196 -701887.000000 0 0 1
-14.762727 -19.795435 -28.059746 37.378426 0.930012 2.419908 0.005264 -0.001640 -739764.000000 0 0 1
-14.099027 -20.824035 -27.346946 37.152099 0.975636 2.398058 0.004829 0.003505 400319.000000 0 0 1
-12.575627 -20.889135 -27.623486 36.845072 1.028895 2.418435 0.012682 -0.000311 -164355.000000 0 0 1
-11.807327 -19.862335 -27.035906 35.564948 1.034462 2.434393 -0.002226 -0.001303 976754.000000 0 0 1
-10.383127 -20.071335 -26.931206 35.156190 1.093396 2.443461 -0.014680 -0.003199 1357220.000000 0 0 1
-9.865827 -21.253135 -26.069266 35.051918 1.136192 2.409434 -0.000726 -0.006607 -789308.000000 0 0 1
-9.979027 -22.579435 -26.516186 36.228718 1.154655 2.391918 -0.011737 -0.002041 91922.300000 0 0 1
-9.445827 -23.363835 -25.489606 35.844281 1.186595 2.361887 0.009098 -0.004531 -232948.000000 0 0 1
-9.220827 -24.853535 -25.814086 37.001202 1.215531 2.342916 0.009269 -0.005681 -259522.000000 0 0 1
-8.112727 -25.084225 -26.666706 37.498639 1.257995 2.361912 -0.012013 0.002264 208616.000000 0 0 1
-8.272827 -26.335995 -27.295556 38.821021 1.266431 2.350562 -0.014897 0.005680 16929.400000 0 0 1
-8.148427 -27.732505 -26.543626 39.243507 1.285017 2.313637 -0.008228 0.001851 98977.600000 0 0 1
-9.175727 -27.926605 -25.565446 38.957429 1.253343 2.286622 -0.010029 0.000389 149894.000000 0 0 1
-9.143627 -29.234435 -25.028176 39.555881 1.267666 2.255869 0.023350 0.015602 7557.900000 0 0 1
-10.213627 -29.514215 -23.905676 39.330503 1.237638 2.224103 0.022292 0.014491 365097.000000 0 0 1
-10.168427 -28.551675 -22.871476 37.969718 1.228661 2.217252 0.013996 -0.003974 -313193.000000 0 0 1
-10.973427 -27.411465 -23.177876 37.536895 1.190012 2.236318 0.012505 0.004395 -262072.000000 0 0 1
-11.008527 -26.293475 -22.105776 36.072148 1.174292 2.230422 0.017055 -0.015486 -198489.000000 0 0 1
-11.618927 -26.648455 -20.901376 35.805128 1.159639 2.194141 0.023201 -0.017646 89780.200000 0 0 1
-11.689127 -25.578965 -20.000476 34.509973 1.142151 2.188981 0.014518 -0.017524 -132694.000000 0 0 1
-12.197527 -26.115205 -18.631776 34.320937 1.133841 2.144646 0.031625 -0.015673 -225582.000000 0 0 1
-13.560127 -26.440475 -18.729776 35.125209 1.096918 2.133209 0.049479 -0.014591 -465900.000000 0 0 1
-13.945827 -26.792015 -17.415376 34.865363 1.090866 2.093822 0.059268 -0.011233 176218.000000 0 0 1
-15.469927 -27.027265 -17.276076 35.612561 1.050932 2.077287 0.068545 -0.015266 -363933.000000 0 0 1
-16.264227 -25.865025 -17.372476 35.147227 1.009461 2.087800 0.075100 -0.010308 -143013.000000 0 0 1
-17.636027 -25.907485 -17.060876 35.683340 0.973120 2.069308 0.080407 -0.004971 348260.000000 0 0 1
-18.497227 -26.655795 -18.138276 37.170901 0.964157 2.080559 0.077980 -0.001041 -807902.000000 0 0 1
-18.369727 -28.074025 -18.101876 38.121853 0.991382 2.065581 0.073520 -0.005867 -205468.000000 0 0 1
-18.860827 -28.823615 -17.016376 38.419899 0.991367 2.029633 0.072634 -0.004796 -267523.000000 0 0 1
-20.360827 -29.189575 -17.013176 39.446708 0.961725 2.016724 0.051392 -0.004009 12987.800000 0 0 1
-20.798927 -29.947615 -18.100676 40.707364 0.963764 2.031584 0.061798 -0.001182 -451787.000000 0 0 1
-22.018427 -30.561825 -17.770676 41.648928 0.946474 2.011613 0.037366 0.006118 -100572.000000 0 0 1
-22.539327 -31.492345 -18.887676 43.087508 0.949606 2.024565 0.013846 0.003479 -188632.000000 0 0 1
-21.717127 -32.631395 -19.004376 43.561541 0.983582 2.022240 0.012689 -0.000061 336931.000000 0 0 1
-22.427227 -33.606635 -19.737376 44.966104 0.982324 2.025214 -0.003009 0.015276 68799.000000 0 0 1
-21.716527 34.336631 -19.706876 45.154986 -1.006851 2.022421 -0.012782 0.008536 212902.000000 0 0 1
-22.078327 33.515454 -18.607176 44.237599 -0.988294 2.004924 -0.011117 0.005487 88236.500000 0 0 1
-21.354827 32.264518 -18.647676 42.950711 -0.986124 2.019907 -0.014036 -0.005528 47168.300000 0 0 1
-22.100927 31.014458 -18.074176 42.154756 -0.951663 2.013914 -0.006861 -0.015400 -5400.130000 0 0 1
-22.305727 30.917918 -16.675676 41.611793 -0.945819 1.983125 -0.012601 -0.010889 -172415.000000 0 0 1
-23.048927 29.768028 -16.314376 41.031054 -0.911933 1.979707 -0.010949 -0.011811 188959.000000 0 0 1
-22.268327 28.377488 -16.262176 39.567898 -0.905443 1.994341 -0.004311 -0.026286 65865.800000 0 0 1
-21.811627 27.958948 -17.515076 39.550319 -0.908289 2.029577 -0.003030 -0.024113 -68903.400000 0 0 1
-21.287427 26.651528 -17.334576 38.261548 -0.896829 2.040985 -0.001607 -0.017567 39780.300000 0 0 1
-20.709727 26.075418 -18.633876 38.158113 -0.899587 2.080975 0.007050 -0.012743 -1106270.000000 0 0 1
-20.344727 24.716418 -18.635876 37.041937 -0.882112 2.097981 0.014459 -0.017822 -62.630800 0 0 1
-19.530127 24.370208 -19.710676 36.930254 -0.895206 2.133798 0.013783 -0.003158 -1172770.000000 0 0 1
-18.160227 24.958408 -19.860276 36.703495 -0.941773 2.142541 0.007638 -0.006727 -2471480.000000 0 0 1
-17.400627 24.565728 -18.751476 35.466529 -0.954502 2.127875 0.015491 -0.011417 488922.000000 0 0 1
-16.204727 25.370428 -18.611976 35.392901 -1.002388 2.124531 0.027516 -0.014086 644168.000000 0 0 1
-16.414227 26.521118 -17.560676 35.793490 -1.016587 2.083587 0.019107 -0.022641 -198219.000000 0 0 1
-17.356027 27.493398 -18.007676 37.167123 -1.007694 2.076594 0.016411 -0.016941 85960.300000 0 0 1
-17.223527 28.689208 -17.359176 37.696970 -1.030121 2.049346 0.024723 -0.030397 -429394.000000 0 0 1
-18.286627 29.703218 -17.783576 39.152745 -1.018953 2.042282 0.022121 -0.019763 -344808.000000 0 0 1
-18.295027 30.187218 -19.119976 40.144111 -1.025939 2.067219 0.029985 -0.020590 -46658.100000 0 0 1
-18.778927 29.281078 -20.049476 40.149858 -1.000538 2.093663 0.014960 -0.016720 -500789.000000 0 0 1
-18.908627 29.836838 -21.503076 41.354025 -1.005941 2.117618 0.018184 -0.016985 453387.000000 0 0 1
-20.004727 30.759268 -21.587576 42.571647 -0.994165 2.102599 0.006617 -0.010991 525415.000000 0 0 1
-20.224627 31.221828 -22.883776 43.674996 -0.995989 2.122285 0.016570 -0.006002 -110429.000000 0 0 1
-20.729427 32.630358 -23.108176 45.038175 -1.004838 2.109565 0.014572 -0.004963 -736207.000000 0 0 1
-19.787327 33.650351 -22.999576 45.308553 -1.039227 2.103218 0.006676 0.001802 -605344.000000 0 0 1
-20.115627 -34.534894 -23.712076 46.471066 1.043364 2.106277 0.022695 0.013438 -846935.000000 0 0 1
-19.019027 -33.485945 -23.802976 45.272658 1.054261 2.124416 0.045943 0.016648 -349272.000000 0 0 1
-18.882827 -32.552575 -22.682776 43.940183 1.045159 2.113227 0.052297 0.013057 -35207.000000 0 0 1
-18.460227 -33.202905 -21.508976 43.656030 1.063372 2.085977 0.053546 0.001424 -366461.000000 0 0 1
-18.114427 -32.246245 -20.325076 42.202625 1.058974 2.073284 0.065837 -0.005986 269227.000000 0 0 1
-17.015727 -31.384295 -20.570276 41.202490 1.073982 2.093527 0.072367 -0.001554 23453.800000 0 0 1
-16.688527 -30.684195 -19.381876 39.946012 1.072664 2.077390 0.074429 -0.001845 283910.000000 0 0 1
-15.392827 -29.840495 -19.556776 38.856940 1.094560 2.098212 0.080631 0.004448 1164200.000000 0 0 1
-14.215427 -30.586225 -19.937476 39.180333 1.135731 2.104661 0.074466 -0.001285 604001.000000 0 0 1
-13.156127 -29.669435 -20.200676 38.228607 1.153425 2.127532 0.049873 0.000098 -909832.000000 0 0 1
-11.808627 -30.340675 -20.480976 38.463887 1.199634 2.132316 0.043175 0.003315 -205056.000000 0 0 1
-11.080127 -30.734005 -19.344076 37.967639 1.224783 2.105387 0.045187 0.004147 -18188.400000 0 0 1
-10.713027 -29.744125 -18.407976 36.583268 1.225088 2.098071 0.033739 -0.008489 -522522.000000 0 0 1
-9.933027 -30.371555 -17.190476 36.285105 1.254711 2.064353 0.021012 0.002199 260971.000000 0 0 1
-10.817627 -31.116885 -16.385476 36.793552 1.236221 2.032345 0.038739 -0.001754 147300.000000 0 0 1
-10.713027 -32.488395 -16.676576 38.057496 1.252275 2.024385 0.043602 0.003549 -267731.000000 0 0 1
-11.783327 -33.255225 -15.911576 38.703166 1.230269 1.994477 0.070881 0.001098 -404270.000000 0 0 1
-11.518427 -33.591955 -14.511176 38.362323 1.240467 1.958719 0.056459 -0.004016 -1293600.000000 0 0 1
-12.651427 -33.989765 -13.826576 38.814134 1.214471 1.935021 0.058789 -0.004341 -699692.000000 0 0 1
-12.375227 -34.320610 -12.315176 38.506027 1.224730 1.896341 0.049117 -0.006697 112432.000000 0 0 1
-11.942527 -33.141565 -11.612776 37.092370 1.224932 1.889228 0.039518 -0.009117 81482.800000 0 0 1
-11.637427 -33.493375 -10.271576 36.915324 1.236391 1.852765 0.030989 -0.008151 -361653.000000 0 0 1
-10.404327 -32.806315 -9.684876 35.753338 1.263686 1.845104 0.022013 -0.008003 -1165440.000000 0 0 1
-9.248527 -33.230395 -10.283376 35.993642 1.299351 1.860533 0.001132 -0.003714 -917662.000000 0 0 1
-8.115927 -32.693875 -9.571776 35.019661 1.327475 1.847645 -0.020019 0.006555 1238390.000000 0 0 1
-6.772927 -33.211695 -10.213976 35.400771 1.369623 1.863481 -0.021986 0.000324 586435.000000 0 0 1
-6.508327 -34.538331 -9.883376 36.509393 1.384543 1.844924 -0.027102 0.007353 -556585.000000 0 0 1
-5.435727 34.246349 -10.569576 36.250179 -1.413385 1.866667 -0.024994 0.008580 24639.600000 0 0 1
-4.704727 33.049458 -9.849676 34.805420 -1.429392 1.857709 -0.024728 0.008027 216571.000000 0 0 1
-4.272227 33.488279 -8.582376 34.833517 -1.443908 1.819742 -0.027993 0.008814 -291941.000000 0 0 1
-3.638227 32.477238 -7.877376 33.616376 -1.459238 1.807327 -0.014047 0.005112 -164703.000000 0 0 1
-3.250327 32.918068 -6.467776 33.704539 -1.472375 1.763890 -0.016218 0.007542 543908.000000 0 0 1
-2.204227 33.937632 -6.433976 34.612390 -1.505938 1.757770 -0.022699 0.010683 546939.000000 0 0 1
-2.070327 34.521562 -5.149676 34.964892 -1.510896 1.718615 -0.024387 0.008633 -352422.000000 0 0 1
-1.120227 33.764550 -4.229276 34.046828 -1.537631 1.695337 -0.009827 0.005465 -384881.000000 0 0 1
0.216773 33.809493 -4.696876 34.134872 1.564385 1.708832 -0.017088 0.001892 397910.000000 0 0 1
1.061773 33.097198 -3.746776 33.325519 1.538727 1.683464 -0.021049 0.000230 1692210.000000 0 0 1
2.618473 33.152958 -4.045276 33.501333 1.491978 1.691841 -0.004382 0.002101 1113550.000000 0 0 1
3.214173 34.381936 -3.759276 34.735868 1.477583 1.679233 -0.003428 0.005874 -1014830.000000 0 0 1
4.580273 34.252911 -4.034276 34.792473 1.437866 1.687010 0.014140 0.004500 -807707.000000 0 0 1
5.267273 -33.822285 -3.634376 34.422374 -1.416304 1.676575 0.015540 0.007176 -362914.000000 0 0 1
5.083273 -32.795315 -4.570476 33.500174 -1.417020 1.707655 0.013448 0.005641 -73926.400000 0 0 1
5.589673 -31.517155 -4.096876 32.270109 -1.395268 1.698096 0.012778 0.001202 187200.000000 0 0 1
5.622873 -30.316205 -5.010076 31.237636 -1.387406 1.731878 0.003815 0.000323 171737.000000 0 0 1
6.628973 -30.201725 -6.026176 31.502417 -1.354733 1.763275 0.019842 -0.000126 -102860.000000 0 0 1
6.517073 -29.002455 -6.778176 30.488659 -1.349760 1.794988 0.007517 0.002957 -125098.000000 0 0 1
6.930673 -27.656275 -6.069076 29.150257 -1.325253 1.780530 0.011160 0.002911 14134.300000 0 0 1
6.122173 -27.207355 -4.997476 28.331889 -1.349464 1.748115 0.013819 -0.004215 -583484.000000 0 0 1
6.647073 -26.022795 -4.514476 27.235087 -1.320711 1.737325 0.014871 -0.000017 -100390.000000 0 0 1
5.846073 -25.210495 -3.417076 26.104062 -1.342933 1.702075 0.006413 0.005219 782242.000000 0 0 1
4.751473 -24.448335 -3.965776 25.219536 -1.378842 1.728702 0.008822 -0.008004 311922.000000 0 0 1
4.102373 -23.690235 -2.945676 24.222587 -1.399329 1.692707 0.012307 -0.014316 51764.200000 0 1 0
2.810073 -22.993135 -3.422076 23.415623 -1.449186 1.717467 0.014742 -0.012430 962767.000000 0 1 0
1.778273 -23.992735 -3.691276 24.340072 -1.496814 1.723038 -0.000352 0.000189 -300599.000000 0 1 0
0.552973 -23.381535 -3.905776 23.711960 -1.547151 1.736268 -0.003749 -0.001908 -768876.000000 0 1 0
-14.572727 23.323265 18.039953 32.890408 -1.012330 0.990243 -0.003418 -0.006303 -41515.600000 0 0 1
-15.087227 22.970565 19.319453 33.593340 -0.989651 0.958073 0.008383 -0.002801 251733.000000 0 0 1
-14.543427 23.837565 20.293853 34.519288 -1.022979 0.942337 0.001467 -0.003384 -738267.000000 0 0 1
-14.596827 23.319465 21.743053 35.066011 -1.011514 0.901976 0.015185 -0.011545 -323816.000000 0 0 1
-13.645527 22.359665 22.189153 34.329485 -1.022856 0.867994 0.009165 -0.007912 192852.000000 0 0 1
-12.297327 22.760865 22.215253 34.099834 -1.075443 0.861267 -0.013286 -0.005234 -378950.000000 0 0 1
-11.764027 23.913465 23.181453 35.321748 -1.113616 0.854900 -0.003653 0.004380 -589551.000000 0 0 1
-11.709927 23.496465 24.514873 35.919148 -1.108454 0.819617 -0.013022 0.007769 154528.000000 0 0 1
-11.497527 24.569765 25.453463 37.198726 -1.133112 0.817213 0.003859 0.004345 677.423000 0 0 1
-11.108127 24.044265 26.855263 37.718991 -1.138019 0.778479 -0.006495 0.002705 22713.700000 0 0 1
-9.812427 23.506765 26.970223 37.097771 -1.175355 0.756848 -0.035488 0.006962 -541561.000000 0 0 1
-9.565227 22.840065 28.223023 37.545987 -1.174196 0.720172 -0.040189 0.012657 -899304.000000 0 0 1
-8.092127 22.470765 28.500283 37.184458 -1.225136 0.697490 -0.043431 0.008227 -64887.200000 0 0 1
-7.237127 23.554765 28.722873 37.844502 -1.272704 0.709065 -0.032544 0.008269 -254315.000000 0 0 1
-7.001827 24.461965 27.633753 37.563780 -1.292017 0.744172 -0.036760 0.007029 -687479.000000 0 0 1
-5.916227 25.571765 27.952563 38.344004 -1.343439 0.753945 -0.018081 0.000995 399909.000000 0 0 1
-4.614027 25.034265 27.989423 37.833998 -1.388533 0.738030 -0.012683 0.000539 -225758.000000 0 0 1
-3.696027 26.069665 28.344073 38.686878 -1.429960 0.748584 0.000306 -0.000207 73766.600000 0 0 1
-2.199727 25.728965 28.335043 38.336576 -1.485508 0.739044 0.010759 -0.003969 -224062.000000 0 0 1
-1.747727 25.623765 26.988183 37.255790 -1.502695 0.760629 0.007276 -0.006904 -808043.000000 0 0 1
-0.488227 25.043865 26.960513 36.800853 -1.551304 0.748654 0.016126 -0.005009 -355817.000000 0 0 1
0.024573 24.821065 25.495343 35.582276 1.569806 0.771998 0.014185 -0.006004 157283.000000 0 0 1
-0.435927 23.591665 24.887493 34.294955 -1.552320 0.758760 0.005216 0.006146 79894.500000 0 0 1
0.092773 23.470265 23.583753 33.272441 1.566844 0.782990 0.009361 0.008728 -151358.000000 0 0 1
-0.241127 22.146365 22.893853 31.853542 -1.559909 0.768833 -0.008187 0.016988 -137306.000000 0 0 1
0.494973 21.005165 23.289153 31.366329 1.547236 0.734018 0.004484 0.011911 -381077.000000 0 0 1
0.008973 19.789665 22.767853 30.166306 1.570343 0.715532 0.006034 0.013927 -391453.000000 0 0 1
0.873773 18.502465 22.840753 29.407561 1.523607 0.681392 0.010770 0.016282 695188.000000 0 0 1
2.064173 18.740865 22.041953 29.005663 1.461096 0.707608 0.016642 0.010216 552164.000000 0 0 1
2.943373 17.624365 22.094153 28.415370 1.405318 0.680048 0.007478 0.009641 520852.000000 0 0 1
4.374273 17.974665 21.561653 28.409993 1.332079 0.709103 0.012963 0.008853 48084.200000 0 0 1
5.066573 18.747765 22.469253 29.698757 1.306852 0.712741 0.010043 0.010899 -186394.000000 0 0 1
6.351973 19.103965 21.961853 29.793154 1.249800 0.741962 0.013501 -0.001323 -148757.000000 0 0 1
7.329673 19.634665 22.989153 31.108605 1.213515 0.739217 0.019714 -0.010078 -725621.000000 0 0 1
6.986873 20.780765 23.733053 32.309664 1.246452 0.745794 0.010905 -0.007763 -28088.900000 0 0 1
6.851573 21.998065 23.039253 32.583218 1.268857 0.785423 0.006420 -0.007073 -423541.000000 0 0 1
5.700273 22.803165 23.655053 33.347248 1.325839 0.782213 -0.003195 -0.002153 -158803.000000 0 0 1
5.465873 24.010165 22.950553 33.661427 1.346963 0.820568 -0.008586 -0.000353 259627.000000 0 0 1
4.273273 24.558065 23.483053 34.246360 1.398514 0.815218 -0.019918 0.005342 -117950.000000 0 0 1
3.827273 25.885265 22.881253 34.759843 1.424005 0.852282 0.005029 0.002430 -73615.600000 0 0 1
3.656273 25.979665 21.471653 33.901964 1.430979 0.884928 0.005867 -0.005478 661442.000000 0 0 1
2.580573 25.198565 20.920453 32.852585 1.468743 0.880458 -0.000367 -0.002421 -118544.000000 0 0 1
2.460173 25.476665 19.390653 32.110906 1.474529 0.922455 0.003750 0.000219 -625107.000000 0 0 1
2.040473 26.802565 19.100853 32.975500 1.494813 0.952996 0.002165 0.004522 282195.000000 0 0 1
1.501373 26.989665 17.801753 32.366627 1.515226 0.988428 -0.002233 0.012496 -100369.000000 0 0 1
0.212973 27.832965 17.805853 33.041908 1.563145 1.001681 -0.019780 0.025376 -170538.000000 0 0 1
0.446573 29.066765 18.341253 34.372631 1.555434 1.007944 -0.009522 0.018033 -351036.000000 0 0 1
-0.728927 29.690765 18.740453 35.118050 -1.546251 1.007896 -0.021637 0.022642 -387358.000000 0 0 1
-0.463527 31.156365 19.110453 36.553294 -1.555920 1.020652 -0.022700 0.012818 -76514.400000 0 0 1
0.090873 31.325965 20.387153 37.375932 1.567895 0.993856 -0.020948 0.014194 -141212.000000 0 0 1
0.425473 32.705565 20.534753 38.620086 1.557788 1.010176 -0.019298 0.006517 -321349.000000 0 0 1
0.973673 33.076265 21.921453 39.693040 1.541368 0.985706 -0.008933 0.001567 -407019.000000 0 0 1
0.124973 32.972765 23.044553 40.227730 1.567006 0.960815 -0.010979 0.000282 -251422.000000 0 0 1
0.770373 33.160365 24.259323 41.094014 1.547569 0.939320 0.000391 -0.015968 -294647.000000 0 0 1
-0.211927 32.825565 25.388543 41.498683 -1.564340 0.912473 -0.002018 -0.007915 168939.000000 0 0 1
-1.313827 33.706065 25.583043 42.335765 -1.531837 0.921923 -0.000895 -0.002719 410065.000000 0 0 1
-2.157127 33.303265 26.658173 42.713216 -1.506114 0.896792 0.011187 -0.006313 -73565.600000 0 0 1
-1.698927 33.649165 28.097143 43.870287 -1.520350 0.875700 0.024354 -0.013173 -1365060.000000 0 0 1
-0.611627 32.915265 28.475063 43.527209 -1.552217 0.857685 0.020184 -0.014990 -819322.000000 0 0 1
-0.179427 33.332365 29.740903 44.672139 -1.565413 0.842285 0.010161 -0.010510 -641180.000000 0 0 1
0.998973 32.507265 30.289053 44.442625 1.540075 0.820943 -0.008664 -0.003346 -77718.100000 0 0 1
2.271173 32.680665 29.713063 44.227256 1.501412 0.834124 -0.019732 -0.005186 117065.000000 0 0 1
2.502973 31.986565 28.455993 42.885297 1.492705 0.845259 -0.020560 -0.005506 -969579.000000 0 0 1
3.989973 31.826265 28.180663 42.696379 1.446080 0.849945 -0.042492 -0.001712 -494427.000000 0 0 1
4.625173 30.831965 28.959593 42.551854 1.421894 0.822254 -0.045765 -0.003292 -564513.000000 0 0 1
5.992573 30.768465 28.703263 42.502784 1.378441 0.829389 -0.053838 -0.000330 -345969.000000 0 0 1
6.635973 29.680965 29.623463 42.456394 1.350837 0.798561 -0.061858 0.006907 -38170.900000 0 0 1
6.426273 29.955165 30.981973 43.571682 1.359470 0.779795 -0.052265 0.000628 221816.000000 0 0 1
7.034573 28.952365 31.828993 43.598273 1.332444 0.752399 -0.052642 0.010649 -410355.000000 0 0 1
6.940773 28.987765 33.412967 44.776011 1.335783 0.728424 -0.021457 -0.010315 -75938.500000 0 0 1
5.602573 29.192265 33.889009 45.078177 1.381182 0.720034 -0.034358 -0.007747 365063.000000 0 0 1
5.588273 28.793265 -33.826986 44.772155 1.379097 2.427269 -0.002535 -0.010996 21738.000000 0 0 1
5.634273 27.280565 -33.511896 43.577763 1.367129 2.448093 -0.008108 -0.009174 468046.000000 0 0 1
6.914173 26.680365 -33.756936 43.579564 1.317226 2.456886 -0.014026 -0.011891 771800.000000 0 0 1
6.802773 25.308965 -33.554876 42.576415 1.308213 2.478528 -0.002678 -0.011083 1191660.000000 0 0 1
8.179773 24.605865 -33.932736 42.705829 1.249857 2.489094 0.000535 -0.010223 853070.000000 0 0 1
8.374373 24.423765 33.777307 42.515372 1.240480 0.652657 -0.017704 -0.006095 -89503.700000 0 0 1
9.628973 23.947265 33.359169 42.178463 1.188489 0.658509 -0.004300 -0.015952 -254892.000000 0 0 1
9.969873 22.433065 33.701499 41.694505 1.152586 0.629544 0.005959 -0.012646 -563047.000000 0 0 1
9.269573 21.514065 32.843823 40.342244 1.163972 0.619567 -0.006391 -0.014890 382700.000000 0 0 1
8.933273 20.280865 33.457851 40.131591 1.155889 0.585015 0.003654 -0.012772 50292.000000 0 0 1
7.681873 20.215065 34.351951 40.592075 1.207643 0.561847 0.012244 -0.014570 -319287.000000 0 0 1
7.879673 20.964165 -33.596936 40.377464 1.211268 2.553628 0.013939 -0.011827 375032.000000 0 0 1
6.661873 21.005665 -32.853576 39.559777 1.263684 2.550764 0.022614 -0.004873 346651.000000 0 0 1
6.794073 21.490965 -31.373116 38.630214 1.264602 2.518606 0.026242 -0.013919 -581850.000000 0 0 1
6.811473 22.914265 -31.335056 39.412503 1.281856 2.489892 0.032531 -0.010686 -10868.500000 0 0 1
7.230673 23.499165 -30.144196 38.899434 1.272291 2.457395 0.016078 -0.012357 68656.800000 0 0 1
8.766573 23.492465 -29.940186 39.053341 1.213635 2.444401 0.022089 -0.018119 -21272.500000 0 0 1
9.383573 22.242065 -29.848516 38.388733 1.171568 2.461530 0.025304 -0.023764 -1774750.000000 0 0 1
10.744573 22.356265 -29.847316 38.808642 1.122783 2.448212 0.025490 -0.024331 -1026210.000000 0 0 1
11.536873 21.005665 -29.776296 38.222574 1.068547 2.463904 0.023620 -0.024829 143809.000000 0 0 1
11.521973 20.205365 -30.930166 38.699972 1.052544 2.496809 0.018154 -0.014543 921818.000000 0 0 1
10.218873 19.625965 -31.172916 38.227667 1.090741 2.524310 0.033867 -0.020256 650583.000000 0 0 1
10.146573 18.473665 -32.215576 38.497696 1.068533 2.562242 0.027572 -0.018424 -479892.000000 0 0 1
10.564173 17.266665 -31.624666 37.548089 1.021727 2.572229 0.031018 -0.015776 348062.000000 0 0 1
10.767273 16.122365 -32.470866 37.818275 0.981977 2.603334 0.022123 -0.010415 230223.000000 0 0 1
12.000273 16.122265 -33.437756 39.013043 0.930934 2.600394 0.011587 -0.001910 -13471.400000 0 0 1
11.897873 16.958265 -34.497796 40.239782 0.958999 2.600809 0.016742 -0.006095 296994.000000 0 0 1
12.692673 16.532565 33.489739 39.446068 0.916039 0.556705 0.017087 -0.007529 87630.500000 0 0 1
12.016573 16.795365 32.139013 38.202074 0.949763 0.571132 0.026649 -0.016014 -605086.000000 0 0 1
12.173673 18.100865 31.669843 38.455410 0.978734 0.603160 0.023081 -0.012619 98810.900000 0 0 1
11.584373 18.298765 30.384343 37.312877 1.006416 0.619253 0.022837 -0.013648 -220240.000000 0 0 1
10.056173 18.488865 30.320383 36.909218 1.072645 0.606785 0.016259 -0.000936 181677.000000 0 0 1
9.295473 17.293465 30.669173 36.415215 1.077590 0.569431 0.021606 -0.005791 1376940.000000 0 0 1
7.885773 17.595865 30.758903 36.303030 1.149473 0.559949 0.020249 -0.005832 908088.000000 0 0 1
7.075873 16.606465 31.579603 36.374634 1.168002 0.519280 0.027561 -0.006029 -159543.000000 0 0 1
7.353073 16.706765 32.978303 37.692866 1.156184 0.505522 0.031901 -0.003901 199961.000000 0 0 1
6.510873 15.889065 33.772794 37.887405 1.181895 0.470374 0.039390 -0.010323 -386429.000000 0 0 1
6.894073 16.010365 -33.861686 38.085086 1.164191 2.666185 0.036913 -0.011874 -198557.000000 0 0 1
6.194773 16.998065 -33.139036 37.755862 1.221316 2.641877 0.031825 -0.014390 107661.000000 0 0 1
6.404373 16.858865 -31.769256 36.531123 1.207753 2.625287 0.030972 -0.018186 -65292.700000 0 0 1
5.542273 17.943965 -31.072626 36.307172 1.271226 2.597942 0.020391 -0.015787 -291233.000000 0 0 1
5.565973 17.871765 -29.671226 35.082213 1.268878 2.578789 0.024776 -0.024176 402977.000000 0 0 1
4.822773 18.941465 -29.022686 34.990778 1.321479 2.548897 0.029534 -0.025552 1198760.000000 0 0 1
3.260773 18.795065 -29.007286 34.717571 1.399015 2.559878 0.037315 -0.026518 -121439.000000 0 0 1
2.695973 17.853165 -28.064526 33.370966 1.420921 2.569900 0.044926 -0.023339 390225.000000 0 0 1
1.291273 17.730865 -28.207096 33.342034 1.498098 2.579219 0.035855 -0.022165 508144.000000 0 0 1
0.388573 18.927565 -27.762686 33.603131 1.550270 2.543114 0.032474 -0.028513 -669796.000000 0 0 1
0.167473 19.190565 -26.393146 32.632867 1.562070 2.512889 0.047315 -0.033283 62084.400000 0 0 1
-0.461627 20.459765 -26.291346 33.317412 -1.548237 2.480167 0.057384 -0.020721 -84938.300000 0 0 1
-0.989427 20.786765 -24.844876 32.408894 -1.523233 2.444336 0.039561 -0.029280 -787487.000000 0 0 1
-2.006227 19.930665 -24.510476 31.654696 -1.470474 2.456417 0.033257 -0.023907 -828850.000000 0 0 1
-2.493827 20.399765 -23.254276 31.034351 -1.449152 2.417812 0.036338 -0.025847 413887.000000 0 0 1
-3.598227 19.437765 -22.699276 30.100350 -1.387753 2.425109 0.025737 -0.023209 1433320.000000 0 0 1
-4.978327 19.799565 -22.854876 30.645585 -1.324466 2.412502 0.013704 -0.017351 878283.000000 0 0 1
-5.922427 18.835865 -22.416476 29.872451 -1.266161 2.419473 0.004237 -0.011867 1303790.000000 0 0 1
-7.415127 19.371365 -22.416076 30.540372 -1.205215 2.394963 0.016669 -0.016973 892054.000000 0 0 1
-7.657627 20.202465 -21.323776 30.355926 -1.208485 2.349642 0.006685 -0.020450 97348.600000 0 0 1
-7.231327 21.530665 -21.527076 31.293396 -1.246772 2.329403 0.002788 -0.019819 -331893.000000 0 0 1
-7.675327 22.462865 -20.399676 31.299165 -1.241544 2.280705 0.014255 -0.023625 134929.000000 0 0 1
-6.856627 22.309365 -19.205676 30.225471 -1.272617 2.259340 0.014137 -0.026188 489974.000000 0 0 1
-7.288527 23.108165 -18.098176 30.243245 -1.265263 2.212324 0.034457 -0.021658 210338.000000 0 0 1
-6.212127 23.132465 -16.942676 29.338639 -1.308440 2.186443 0.038360 -0.024377 572722.000000 0 0 1
-5.085627 23.897765 -17.306676 29.941406 -1.361117 2.187094 0.039713 -0.024249 -442516.000000 0 0 1
-4.111727 23.843765 -16.278176 29.161797 -1.400031 2.163014 0.050326 -0.021269 461460.000000 0 0 1
-2.717627 24.432665 -16.616176 29.672174 -1.460022 2.165172 0.040127 -0.015639 100031.000000 0 0 1
-2.720527 25.807065 -16.665376 30.840568 -1.465766 2.141675 0.029145 -0.014202 -832481.000000 0 0 1
-1.538727 26.288265 -17.208076 31.457247 -1.512330 2.149609 0.020992 -0.011377 -393628.000000 0 0 1
-1.438927 27.863365 -17.079076 32.712879 -1.519200 2.120096 0.014060 -0.020409 -417779.000000 0 0 1
-2.409527 28.645865 -17.730476 33.775156 -1.486880 2.123460 0.017460 -0.022036 -388506.000000 0 0 1
-2.072027 29.063365 -19.067076 34.821342 -1.499623 2.150252 0.016531 -0.017499 -523889.000000 0 0 1
-3.191927 29.662265 -19.967576 35.899059 -1.463600 2.160620 0.025590 -0.010530 -16491.600000 0 0 1
-3.777527 30.856265 -19.616876 36.758681 -1.448979 2.133726 0.018683 0.003952 -221716.000000 0 0 1
-4.736727 30.713365 -18.588976 36.211840 -1.417778 2.109868 0.012333 -0.000925 -636277.000000 0 0 1
-5.216327 32.043365 -18.014276 37.128176 -1.409422 2.077379 0.012420 0.004183 -346657.000000 0 0 1
-6.070927 32.721165 -18.886776 38.265403 -1.387347 2.086990 0.025644 0.012394 -156923.000000 0 0 1
-6.193827 34.030165 -18.369876 39.164626 -1.390757 2.059003 0.020955 -0.005348 -90470.900000 0 0 1
-7.192627 -34.463809 -19.185376 40.094472 1.365049 2.069747 0.017773 0.010625 -21483.800000 0 0 1
-8.462327 34.290265 -19.162776 40.182648 -1.328846 2.067911 0.028375 0.004687 -310727.000000 0 0 1
-9.450027 -34.270709 -19.808676 40.696046 1.301736 2.079158 0.041837 0.012471 446564.000000 0 0 1
28.639173 -21.213935 -26.514036 44.421024 -0.637543 2.210404 -0.001959 0.005488 112458.000000 0 0 1
28.230973 -22.425035 -25.986276 44.442734 -0.671281 2.195323 0.014766 -0.014375 -526279.000000 0 0 1
26.826673 -22.582635 -25.932896 43.613770 -0.699713 2.207569 0.010893 -0.009070 157219.000000 0 0 1
26.499373 -23.891235 -25.217316 43.691200 -0.733686 2.186057 -0.002149 -0.002707 -162072.000000 0 0 1
26.745373 -25.129985 -25.939376 44.940877 -0.754268 2.186078 -0.010139 0.016021 623064.000000 0 0 1
28.147473 -25.452475 -26.063466 46.037083 -0.735161 2.172613 -0.005686 0.020328 582246.000000 0 0 1
28.305173 -26.825865 -26.738926 47.284036 -0.758572 2.171831 0.001328 0.011420 -387463.000000 0 0 1
27.809473 -27.847105 -25.922226 47.125257 -0.786074 2.153245 0.002646 -0.004497 -334094.000000 0 0 1
27.974773 -29.139825 -26.507026 48.315006 -0.805794 2.151520 0.003357 -0.000384 705766.000000 0 0 1
26.873673 -29.567475 -27.567916 48.542970 -0.833090 2.174758 -0.002456 0.004281 322301.000000 0 0 1
26.972473 -28.787155 -28.774446 48.828100 -0.817931 2.200990 -0.013867 0.000538 444971.000000 0 0 1
27.978173 -29.141685 -29.761406 50.177259 -0.805765 2.205732 -0.031972 0.004329 -59252.300000 0 0 1
27.981973 -30.632275 -30.352796 51.406413 -0.830583 2.202410 -0.022183 0.004484 -772887.000000 0 0 1
28.665673 -31.636265 -29.540026 51.915193 -0.834620 2.176092 -0.017270 0.005739 2056690.000000 0 0 1
30.100873 -31.466115 -29.339096 52.506776 -0.807569 2.163696 -0.010041 0.006069 1685050.000000 0 0 1
31.103173 -31.102515 -30.451376 53.498226 -0.785388 2.176333 -0.006693 0.004722 -674915.000000 0 0 1
30.796373 -29.809055 -30.938756 52.860221 -0.769109 2.196039 -0.006968 -0.005116 -1132560.000000 0 0 1
31.855373 -29.340985 -31.673926 53.655343 -0.744334 2.202254 -0.007744 -0.000648 -837226.000000 0 0 1
31.618073 -27.933005 -32.382736 53.184555 -0.723596 2.225438 -0.012545 -0.000261 -65870.800000 0 0 1
31.698273 -26.768475 -31.567626 52.132972 -0.701279 2.221217 -0.014194 0.011966 -471806.000000 0 0 1
30.603573 -26.600905 -30.716966 50.869626 -0.715541 2.219102 -0.008162 0.009008 -414370.000000 0 0 1
30.623973 -25.289725 -29.929626 49.731081 -0.690285 2.216586 -0.011179 0.002778 106911.000000 0 0 1
31.531373 -25.215605 -28.824176 49.607332 -0.674557 2.190810 -0.006345 -0.000726 383932.000000 0 0 1
31.488273 -23.904335 -28.261426 48.596675 -0.649332 2.191430 -0.007684 0.003159 -382301.000000 0 0 1
32.354873 -23.766035 -27.025976 48.394893 -0.633535 2.163309 -0.017187 0.000646 -554857.000000 0 0 1
31.903073 -24.419935 -25.869856 47.784817 -0.653311 2.142877 -0.014451 -0.007225 311277.000000 0 0 1
30.963673 -23.754435 -25.017276 46.356082 -0.654400 2.140849 0.005481 -0.005722 -337520.000000 0 0 1
31.549273 -22.650835 -24.101376 45.708788 -0.622672 2.126194 -0.000545 0.000316 -121868.000000 0 0 1
31.953973 -21.521035 -24.915576 45.880250 -0.592719 2.144869 -0.009772 -0.005471 88302.200000 0 0 1
32.241073 -20.407635 -24.056676 45.107450 -0.564310 2.133316 -0.022983 -0.010664 -346725.000000 0 0 1
32.277273 -19.021535 -24.805576 44.932814 -0.532527 2.155628 -0.035493 -0.003768 -237020.000000 0 0 1
31.104073 -18.578835 -25.444576 44.272598 -0.538441 2.183065 -0.034944 -0.001932 46412.600000 0 0 1
31.315873 -17.391035 -26.226646 44.395596 -0.506936 2.202783 -0.039345 -0.002061 -169119.000000 0 0 1
30.313173 -17.338935 -27.411056 44.394742 -0.519572 2.236279 -0.043544 0.011395 -901923.000000 0 0 1
29.029373 -17.084635 -26.956346 43.142020 -0.531942 2.245708 -0.035101 0.010047 -609508.000000 0 0 1
28.199973 -17.167935 -28.150746 43.387106 -0.546860 2.276839 -0.024637 0.005899 -531505.000000 0 0 1
26.763873 -16.715435 -27.966686 42.164514 -0.558277 2.295983 -0.018169 0.012284 -254530.000000 0 0 1
25.861673 -17.466535 -27.146636 41.362372 -0.594013 2.286717 -0.012012 0.012490 331069.000000 0 0 1
26.154773 -17.439535 -25.742016 40.630788 -0.588083 2.256941 -0.002161 0.011967 -178694.000000 0 0 1
25.100373 -18.209935 -24.868476 39.750114 -0.627626 2.246723 0.013988 0.008909 148676.000000 0 0 1
25.392273 -18.218235 -23.506176 39.105140 -0.622356 2.215676 0.027464 0.015227 -334961.000000 0 0 1
24.469573 -18.996235 -22.793776 38.460021 -0.660135 2.205156 0.032029 0.006114 -141269.000000 0 0 1
24.345773 -18.559535 -21.336576 37.315178 -0.651346 2.179487 0.030556 0.000004 210069.000000 0 0 1
23.580973 -17.351035 -21.123976 36.101843 -0.634355 2.195827 0.031370 -0.008811 501949.000000 0 0 1
24.130173 -16.151235 -21.711576 36.256313 -0.589850 2.212843 0.036904 0.000543 352161.000000 0 0 1
25.420373 -15.588635 -21.040676 36.495356 -0.550094 2.185272 0.018594 -0.006143 330945.000000 0 0 1
25.226873 -14.752235 -19.870776 35.339374 -0.529155 2.167942 0.018691 -0.018939 -899427.000000 0 0 1
26.375073 -14.048835 -19.681376 35.782270 -0.489430 2.153198 -0.001868 -0.013705 -1217120.000000 0 0 1
26.357973 -13.161835 -18.473176 34.774055 -0.463127 2.130853 0.003028 -0.013498 -322912.000000 0 0 1
26.351573 -13.854435 -17.231276 34.398658 -0.484038 2.095468 0.000093 -0.010450 205972.000000 0 0 1
26.177573 -12.885035 -16.202276 33.373691 -0.457402 2.077709 -0.013373 -0.004605 -168027.000000 0 0 1
26.828973 -13.396635 -14.903476 33.486971 -0.463115 2.032030 -0.005433 -0.006700 -833735.000000 0 0 1
26.281573 -14.403335 -14.196276 33.161897 -0.501337 2.013175 0.030627 -0.013629 -355289.000000 0 0 1
26.897773 -14.596935 -12.945676 33.228771 -0.497207 1.970985 0.038715 -0.013726 42887.700000 0 0 1
26.323373 -15.871435 -12.194176 33.068419 -0.542579 1.948467 0.039545 -0.021373 1285870.000000 0 0 1
24.977873 -15.786435 -11.655576 31.764101 -0.563629 1.946516 0.032325 -0.025243 1284620.000000 0 0 1
24.582373 -17.034235 -11.115576 31.906336 -0.605975 1.926640 0.023344 -0.010378 146900.000000 0 0 1
23.112073 -17.078435 -10.629576 30.640313 -0.636385 1.925076 0.029571 -0.011011 96420.600000 0 0 1
22.885373 -16.256735 -9.456576 29.621759 -0.617642 1.895728 0.015587 -0.007124 126085.000000 0 0 1
21.517673 -16.281735 -9.127076 28.485236 -0.647755 1.896963 0.021864 -0.007090 -339521.000000 0 0 1
21.195873 -15.878835 -7.668876 27.571981 -0.642955 1.852654 0.025531 -0.003775 -364867.000000 0 0 1
21.384373 -14.478135 -7.434076 26.873282 -0.595152 1.851086 0.018807 0.003402 358268.000000 0 0 1
21.219773 -14.005435 -6.086376 26.143354 -0.583386 1.805760 0.009076 0.008615 -381748.000000 0 0 1
22.126973 -14.561635 -4.966676 26.950177 -0.582044 1.756147 0.008436 0.005823 -228164.000000 0 0 1
23.521773 -14.437635 -5.083076 28.063442 -0.550504 1.752930 0.019214 0.003327 -190758.000000 0 0 1
24.163673 -15.127235 -4.055976 28.795265 -0.559341 1.712122 0.017874 -0.006556 -251446.000000 0 0 1
25.691373 -14.982535 -4.241176 30.041814 -0.527955 1.712445 0.026230 -0.008293 -376873.000000 0 0 1
26.105473 -13.665635 -4.053576 29.743517 -0.482253 1.707506 0.028297 0.000971 -455583.000000 0 0 1
27.452173 -13.509535 -4.392976 30.909992 -0.457317 1.713401 0.041659 -0.011875 -408102.000000 0 0 1
28.122973 -12.279235 -3.663776 30.904765 -0.411677 1.689626 0.044699 -0.012380 -1012260.000000 0 0 1
28.371873 -12.541935 -2.282876 31.104258 -0.416227 1.644257 0.044675 -0.023561 458037.000000 0 0 1
29.002373 -11.521035 -1.538276 31.244811 -0.378129 1.620049 0.044423 -0.023419 61229.800000 0 0 1
30.395773 -10.999935 -1.952576 32.383856 -0.347228 1.631128 0.048041 -0.017152 -614180.000000 0 0 1
30.343073 -10.281535 -3.134576 32.190645 -0.326701 1.668326 0.041312 -0.007645 -109960.000000 0 0 1
31.513473 -10.386335 -3.907376 33.410216 -0.318372 1.688016 0.054250 -0.015439 -590909.000000 0 0 1
31.223473 -10.304635 -5.420376 33.323734 -0.318773 1.734180 0.044903 -0.011289 -115626.000000 0 0 1
30.463973 -11.428435 -5.867676 33.061948 -0.358899 1.749217 0.023768 -0.014832 295746.000000 0 0 1
30.329673 -11.428435 -7.254276 33.213291 -0.360354 1.790986 0.022939 -0.003108 408805.000000 0 0 1
29.060773 -12.240735 -7.678276 32.454893 -0.398657 1.809644 0.018659 -0.003042 573255.000000 0 0 1
29.264573 -13.662335 -7.512276 33.158844 -0.436782 1.799335 0.022323 -0.007700 525169.000000 0 0 1
28.032173 -14.333835 -7.790076 32.433730 -0.472675 1.813352 0.025127 -0.012956 470303.000000 0 0 1
28.014773 -15.922335 -7.951276 33.189924 -0.516826 1.812718 0.033199 -0.019796 -78835.100000 0 0 1
28.506273 -16.368035 -9.220376 34.139940 -0.521226 1.844268 0.044577 -0.025823 272046.000000 0 0 1
28.515073 -17.778635 -9.257376 34.855248 -0.557507 1.839617 0.051863 -0.026240 -128989.000000 0 0 1
29.002973 -18.330135 -10.631576 35.919309 -0.563624 1.871283 0.052276 -0.026203 -101748.000000 0 0 1
30.365373 -18.168135 -10.962776 37.044831 -0.539181 1.871228 0.050345 -0.015263 50188.000000 0 0 1
30.774673 -18.547735 -12.277476 37.971508 -0.542399 1.900047 0.050468 -0.008127 10499.600000 0 0 1
30.034373 -17.973735 -13.541776 37.529967 -0.539271 1.939949 0.042640 -0.015131 -79530.100000 0 0 1
30.324473 -16.644035 -13.900576 37.280338 -0.501971 1.952892 0.018386 -0.004884 473799.000000 0 0 1
29.518173 -16.272635 -15.057676 36.916864 -0.503822 1.990928 0.020413 -0.010209 -705997.000000 0 0 1
30.032573 -15.113535 -15.983476 37.226951 -0.466235 2.014572 -0.004812 0.008807 97938.500000 0 0 1
31.106873 -15.404835 -16.869776 38.594506 -0.459819 2.023172 -0.013427 -0.005095 672585.000000 0 0 1
32.346073 -15.547635 -16.166476 39.361814 -0.448061 1.994034 -0.004598 0.007305 -57472.300000 0 0 1
33.554873 -15.646135 -17.142276 40.799371 -0.436314 2.004418 -0.011310 0.005476 24687.300000 0 0 1
34.847873 -15.885335 -16.663376 41.765850 -0.427707 1.981191 -0.013228 0.011279 -279334.000000 0 0 1
-34.418880 -16.348335 -17.659776 41.997560 0.443433 2.004787 -0.017719 0.010270 383217.000000 0 0 1
-32.960180 -16.280935 -17.117076 40.551653 0.458802 2.006563 -0.020348 0.019444 -118761.000000 0 0 1
-32.536580 -17.045935 -15.978976 40.056468 0.482585 1.981126 -0.024340 0.014931 149608.000000 0 0 1
-33.024580 -16.608635 -14.691476 39.778249 0.465979 1.949089 -0.019438 0.011001 -383824.000000 0 0 1
-32.446980 -17.435835 -13.502076 39.231631 0.493090 1.922144 -0.020183 0.012817 -411721.000000 0 0 1
-31.082780 -17.156835 -13.285576 37.907819 0.504356 1.928870 -0.037775 0.016517 -115769.000000 0 0 1
-30.621980 -17.916835 -12.171976 37.508341 0.529390 1.901294 -0.038110 0.019298 272053.000000 0 0 1
-29.172180 -17.655235 -11.689676 36.046802 0.544240 1.901059 -0.015425 0.015221 174518.000000 0 0 1
-28.990780 -16.286935 -11.391276 35.149548 0.511855 1.900836 -0.013030 0.007160 -441705.000000 0 0 1
-27.803680 -16.081535 -10.689976 33.851676 0.524383 1.892084 -0.000719 0.003425 -410252.000000 0 0 1
-27.953980 -16.135635 -9.164776 33.552598 0.523502 1.847459 0.001978 0.004431 -41371.000000 0 0 1
-27.957980 -17.446535 -8.654376 34.072400 0.557899 1.827610 -0.010273 0.004614 -66399.000000 0 0 1
-28.265480 -17.424835 -7.261376 33.989554 0.552442 1.786091 -0.002621 -0.005930 -152023.000000 0 0 1
-28.389480 -18.793135 -6.593076 34.678713 0.584748 1.762080 -0.008923 -0.015614 759406.000000 0 0 1
-29.452880 -19.676535 -7.078776 36.121285 0.588972 1.768045 -0.005523 -0.013187 392169.000000 0 0 1
-29.352180 -20.184435 -8.419276 36.603908 0.602399 1.802885 -0.011565 -0.003117 -689326.000000 0 0 1
-30.582980 -20.946735 -8.888476 38.119409 0.600530 1.806137 -0.008876 -0.005358 -676167.000000 0 0 1
-31.631880 -20.107635 -9.324876 38.624424 0.566240 1.814630 -0.016224 -0.001838 -270744.000000 0 0 1
-32.697480 -21.009835 -9.598276 40.033302 0.571122 1.812912 -0.020274 -0.002136 401210.000000 0 0 1
-33.976080 -20.279935 -10.143876 40.847864 0.538129 1.821755 -0.001253 -0.006479 303587.000000 0 0 1
-33.954380 -19.880035 -11.529676 41.000599 0.529684 1.855848 -0.010443 -0.002300 472833.000000 0 0 1
34.893273 -19.448935 -11.917576 41.687291 -0.508494 1.860721 0.029395 -0.011694 474129.000000 0 0 1
34.636473 -19.281235 -13.444176 41.859254 -0.507953 1.897767 0.017248 -0.008437 -275026.000000 0 0 1
34.466373 -20.556135 -14.113276 42.540218 -0.537777 1.908968 0.001255 -0.000993 274459.000000 0 0 1
33.937673 -20.386835 -15.450776 42.498414 -0.540944 1.942884 0.000970 -0.005372 1730020.000000 0 0 1
32.568873 -21.162235 -15.817176 41.937510 -0.576213 1.957525 0.012465 -0.010932 1557270.000000 0 0 1
31.459573 -20.625635 -15.110676 40.539538 -0.580318 1.952756 0.031145 -0.014996 709683.000000 0 0 1
30.231373 -21.329035 -15.382176 40.068379 -0.614425 1.964811 0.041902 -0.017719 1626350.000000 0 0 1
29.318873 -20.802035 -16.603876 39.598102 -0.617080 2.003481 0.042305 -0.018153 181203.000000 0 0 1
28.727473 -19.570735 -16.465876 38.463053 -0.598034 2.013181 0.022282 -0.011171 229847.000000 0 0 1
27.926973 -19.184135 -17.583976 38.172544 -0.601907 2.049518 0.019235 -0.017057 62447.700000 0 0 1
27.157173 -17.875435 -17.465076 36.906261 -0.582133 2.063748 0.022237 -0.011811 -902305.000000 0 0 1
26.109673 -17.903635 -16.581076 35.737757 -0.601070 2.053262 0.023028 -0.020177 -478609.000000 0 0 1
25.402373 -16.671735 -16.588976 34.618224 -0.580796 2.070537 0.016043 -0.016291 -1443920.000000 0 0 1
24.061273 -16.677735 -15.884576 33.307829 -0.606104 2.067923 0.012082 -0.015140 -53979.400000 0 0 1
22.971573 -17.315435 -16.566576 33.195917 -0.645914 2.093304 0.019941 -0.019179 631074.000000 0 0 1
22.503673 -16.631835 -17.721876 33.122472 -0.636470 2.135352 0.023095 -0.011098 -225223.000000 0 0 1
21.288873 -17.368635 -18.419776 33.078298 -0.684334 2.161389 0.020863 -0.006962 22447.200000 0 0 1
20.083573 -17.274835 -17.746876 31.886070 -0.710356 2.161050 0.026151 -0.005561 -1392870.000000 0 0 1
19.129673 -17.812735 -18.608876 32.086262 -0.749765 2.189481 0.024502 -0.011093 778664.000000 0 0 1
17.634273 -17.922735 -18.115776 30.989892 -0.793511 2.195147 0.029009 -0.003858 885051.000000 0 0 1
16.956473 -16.728835 -18.092276 29.911643 -0.778640 2.220383 0.028519 -0.008334 -204970.000000 0 0 1
15.573273 -16.922935 -17.878476 29.129924 -0.826907 2.231597 0.024530 -0.004724 29346.800000 0 0 1
14.718273 -15.661235 -17.683176 27.831575 -0.816428 2.259276 0.032940 -0.003332 -118093.000000 0 0 1
14.557173 -14.894635 -18.810976 28.064466 -0.796856 2.305379 0.028453 -0.001547 -87674.200000 0 0 1
13.315773 -14.257535 -18.663376 26.998310 -0.819540 2.334054 0.022848 0.004903 143937.000000 0 0 1
12.607673 -13.776535 -19.961576 27.335158 -0.829671 2.389488 0.025843 0.007789 316837.000000 0 0 1
13.293273 -12.723235 -20.624876 27.640140 -0.763491 2.413121 0.028419 0.003208 112800.000000 0 0 1
12.530073 -12.300835 -21.762476 27.962808 -0.776166 2.462694 0.043369 0.002411 345543.000000 0 0 1
12.776173 -10.862035 -22.235976 27.850548 -0.704598 2.495435 0.037412 -0.001131 728276.000000 0 0 1
14.043173 -10.668935 -22.925576 28.924366 -0.649695 2.485865 0.032468 -0.000802 1077630.000000 0 0 1
14.336673 -9.263635 -23.167876 28.776824 -0.573664 2.506620 0.044804 -0.003733 -271170.000000 0 0 1
15.454873 -9.090035 -24.187276 30.108241 -0.531673 2.503686 0.027148 -0.000077 -177859.000000 0 0 1
15.140173 -9.482835 -25.497586 31.133196 -0.559559 2.530434 0.042809 -0.005228 121386.000000 0 0 1
16.347773 -9.509735 -26.212736 32.323247 -0.526866 2.516581 0.036737 -0.003861 -211940.000000 0 0 1
22.047073 5.200265 -6.544876 23.578626 0.231637 1.852067 0.035105 0.022757 -274048.000000 0 1 0
21.916373 6.582365 -6.904176 23.902355 0.291769 1.863821 0.001403 0.020295 939373.000000 0 1 0
21.306373 7.388865 -5.852176 23.298172 0.333813 1.824702 -0.001890 0.014629 -64181.900000 0 1 0
21.287673 8.921765 -6.203776 23.900832 0.396867 1.833366 -0.003718 0.016291 -461427.000000 0 1 0
20.062873 9.211765 -6.833076 23.109877 0.430433 1.870961 -0.006654 0.009849 346645.000000 0 1 0
19.653173 10.538865 -6.963376 23.362438 0.492219 1.873455 -0.003215 0.018352 40277.700000 0 1 0
19.282773 11.382565 -5.714976 23.109502 0.533254 1.820689 0.012482 0.020110 28283.000000 0 1 0
20.371273 11.428065 -4.797376 23.845424 0.511241 1.773365 0.025074 0.011503 559599.000000 0 1 0
19.967573 12.224665 -3.691076 23.701697 0.549361 1.727163 0.044272 -0.003092 -330275.000000 0 1 0
21.104573 12.456965 -2.729176 24.658211 0.533219 1.681704 0.034134 -0.018783 -1170180.000000 0 1 0
22.174373 13.244565 -3.191676 26.025144 0.538426 1.693744 0.033406 -0.023825 1381310.000000 0 0 1
23.252973 13.446565 -2.216276 26.952231 0.524290 1.653119 0.048039 -0.023134 1033380.000000 0 0 1
24.057773 12.217365 -1.702376 27.035875 0.469895 1.633805 0.019120 -0.025525 -1002550.000000 0 0 1
25.085673 11.771265 -2.566476 27.828770 0.438740 1.663151 0.013566 -0.021833 79552.600000 0 0 1
25.753173 10.660665 -2.024476 27.945916 0.392479 1.643302 0.020789 -0.024486 830.423000 0 0 1
27.203573 10.607965 -2.564576 29.311096 0.371810 1.658403 0.010343 -0.016495 209526.000000 0 0 1
27.973873 11.811765 -2.401476 30.460178 0.399533 1.649718 0.008915 -0.013424 769695.000000 0 0 1
29.364973 11.529265 -2.499376 31.646050 0.374128 1.649858 0.013518 -0.010925 99487.300000 0 0 1
30.228473 12.694165 -2.056576 32.850143 0.397578 1.633442 -0.006317 -0.006847 -582727.000000 0 0 1
30.213273 13.059065 -0.702276 32.922245 0.407978 1.592129 -0.004440 -0.001392 603387.000000 0 0 1
30.990373 14.204265 -0.373376 34.092576 0.429771 1.581748 0.002657 0.000992 -483275.000000 0 0 1
32.409973 14.018665 0.181224 35.312351 0.408241 1.565664 0.009574 -0.003313 267925.000000 0 0 1
33.213973 15.215865 0.312024 36.534749 0.429583 1.562256 0.010071 0.001628 103320.000000 0 0 1
34.001373 15.540665 -0.793776 37.392990 0.428709 1.592026 0.017073 0.001649 -860398.000000 0 0 1
33.476673 16.387565 -1.977876 37.324950 0.455230 1.623812 -0.017184 0.021598 414296.000000 0 0 1
32.384873 15.728265 -2.666776 36.100831 0.452116 1.644734 -0.001190 0.012595 352652.000000 0 0 1
31.894673 16.522365 -3.687776 36.108979 0.477967 1.673104 -0.017218 0.015972 140311.000000 0 0 1
30.448973 16.157565 -4.128076 34.716680 0.487861 1.689986 0.006309 -0.001369 -256445.000000 0 0 1
30.345973 15.031865 -5.017776 34.234677 0.459920 1.717896 -0.002773 -0.000938 303383.000000 0 0 1
29.135073 15.080165 -5.752076 33.306910 0.477624 1.744366 0.010994 -0.015020 343163.000000 0 0 1
27.903773 14.436465 -5.055176 31.821170 0.477444 1.730334 0.026066 -0.020552 -602371.000000 0 0 1
26.750673 14.335665 -5.831476 30.904950 0.491953 1.760625 0.034975 -0.027521 -226228.000000 0 0 1
25.757373 13.590265 -5.191576 29.581921 0.485504 1.747208 0.031548 -0.018405 -567771.000000 0 0 1
24.590473 13.183165 -6.071376 28.554313 0.492116 1.785057 0.025579 -0.014495 -644916.000000 0 0 1
24.991473 12.319965 -7.163476 28.769266 0.458005 1.822441 0.018212 0.001223 340191.000000 0 0 1
23.979573 11.990865 -8.112976 28.011090 0.463684 1.864641 0.010517 0.010311 -56072.900000 0 0 1
23.617773 13.172265 -9.034076 28.511792 0.508756 1.893207 0.022360 0.014292 -518806.000000 0 0 1
22.670873 14.029665 -8.482276 27.977652 0.554158 1.878825 0.026141 -0.007741 -165415.000000 0 0 1
22.693973 15.292365 -9.133076 28.849366 0.592960 1.892916 0.026285 -0.008235 -1091730.000000 0 0 1
21.659373 16.252965 -8.652876 28.428147 0.643750 1.880081 0.033977 -0.006131 80851.700000 0 0 1
20.292773 15.832565 -8.621776 27.144093 0.662555 1.894025 0.008601 0.001712 728365.000000 0 0 1
19.962873 15.137565 -7.401876 26.123743 0.648783 1.858070 0.006532 0.003538 -488372.000000 0 0 1
18.528373 14.568665 -7.516576 24.739554 0.666325 1.879505 -0.001625 0.001866 -7784.630000 0 1 0
17.567873 15.608065 -7.575176 24.690588 0.726394 1.882630 0.007819 -0.001377 416612.000000 0 1 0
16.217173 15.198765 -7.385876 23.421151 0.752993 1.891623 0.013836 0.001163 467500.000000 0 1 0
15.708273 15.371765 -5.990576 22.779991 0.774571 1.836901 0.030293 0.001558 -624101.000000 0 1 0
16.105773 14.302865 -5.137876 22.144201 0.726178 1.804949 0.018079 0.000113 492077.000000 0 1 0
15.924073 14.675165 -3.803076 21.986358 0.744606 1.744645 0.032653 0.002220 -247023.000000 0 1 0
15.795673 13.462065 -2.812976 20.943813 0.705806 1.705514 0.032467 -0.000742 173020.000000 0 1 0
17.020273 12.829365 -2.404576 21.449109 0.645909 1.683139 0.040782 -0.001570 937150.000000 0 1 0
17.002573 12.218365 -1.105676 20.966603 0.623113 1.623556 0.045795 -0.004311 -162194.000000 0 1 0
16.989173 13.154865 0.119124 21.487128 0.658878 1.565252 0.050395 -0.005850 -53099.200000 0 1 0
15.790273 13.925365 0.183424 21.054267 0.722722 1.562084 0.035009 -0.012428 633460.000000 0 1 0
15.870373 14.938965 1.088924 21.822630 0.755176 1.520877 0.031507 -0.008319 -1000460.000000 0 1 0
14.607873 15.739765 1.311124 21.513930 0.822678 1.509816 0.024385 -0.008593 -1003140.000000 0 1 0
14.455673 16.830165 0.410624 22.189852 0.861150 1.552290 0.034131 -0.010404 -254149.000000 0 1 0
13.445973 17.713965 0.733824 22.251230 0.921522 1.537811 0.026446 -0.014767 -895084.000000 0 1 0
13.760573 19.230765 0.536824 23.652988 0.949710 1.548099 0.030429 -0.008605 -286634.000000 0 1 0
13.670073 19.617665 -0.767576 23.923061 0.962205 1.602887 0.055229 0.005709 180817.000000 0 1 0
13.143773 20.912165 -0.989476 24.719556 1.009668 1.610835 0.039046 -0.006527 734822.000000 0 1 0
11.590273 20.989765 -1.193976 24.006879 1.066276 1.620552 0.037641 -0.013058 716392.000000 0 1 0
10.885773 20.727065 0.030724 23.411796 1.087196 1.569484 0.038208 -0.019352 -214567.000000 0 1 0
9.506373 20.853165 -0.198476 22.918660 1.143070 1.579456 0.041232 -0.006557 63588.100000 0 1 0
8.574173 20.631265 1.016824 22.365139 1.176922 1.525316 0.035361 -0.013020 -59199.800000 0 1 0
8.374073 21.791665 1.756524 23.411261 1.203916 1.495697 0.033928 -0.006704 44569.000000 0 1 0
7.579873 21.525865 2.891024 23.003811 1.232226 1.444787 0.036860 -0.018441 199497.000000 0 1 0
6.944273 22.818965 3.576124 24.118805 1.275381 1.421976 0.020483 -0.011605 -123379.000000 0 1 0
7.744473 23.358965 4.555024 25.027312 1.250659 1.387774 -0.000861 -0.008836 -147007.000000 0 0 1
7.117673 24.520665 5.097624 26.036705 1.288288 1.373737 -0.019570 -0.003236 202555.000000 0 0 1
7.790873 24.944065 6.455024 26.917864 1.268063 1.328632 -0.022507 0.005110 -169998.000000 0 0 1
7.404473 24.091365 7.475324 26.288791 1.272610 1.282464 -0.003100 -0.014994 -62176.300000 0 0 1
8.062273 24.195165 8.728324 26.955331 1.249149 1.241046 -0.009598 -0.016327 -447410.000000 0 0 1
7.511373 23.320265 9.875624 26.415590 1.259193 1.187633 -0.007304 -0.016744 -638367.000000 0 0 1
6.299173 23.807865 10.372924 26.722491 1.312140 1.172149 -0.010615 -0.015296 -424036.000000 0 0 1
5.811373 22.919965 11.359724 26.232426 1.322479 1.122932 -0.013868 -0.013449 -536455.000000 0 0 1
4.457373 23.342465 11.912224 26.582699 1.382112 1.106136 -0.002494 -0.020502 -184905.000000 0 0 1
3.455873 23.388665 10.917124 26.041434 1.424099 1.138209 -0.001389 -0.025968 1690830.000000 0 0 1
2.075773 23.513165 11.402024 26.214193 1.482743 1.120807 -0.002305 -0.025557 1595780.000000 0 0 1
1.031173 23.656865 10.309224 25.826162 1.527235 1.160177 0.018520 -0.025243 -521056.000000 0 0 1
1.023973 24.966165 9.761424 26.826168 1.529805 1.198370 0.018733 -0.018195 202047.000000 0 0 1
0.132873 25.122165 8.661924 26.573854 1.565507 1.238773 0.018442 -0.019041 574305.000000 0 0 1
-1.267227 25.678865 8.993524 27.237721 -1.521487 1.234295 0.023732 -0.019974 902275.000000 0 0 1
-2.175427 24.923565 9.844924 26.885667 -1.483733 1.195899 0.020890 -0.020052 635866.000000 0 0 1
-3.482927 25.454265 9.810524 27.500850 -1.434810 1.206025 0.024974 -0.011520 -468184.000000 0 0 1
-4.497127 24.594665 10.585424 27.150928 -1.389945 1.170302 0.030006 -0.014222 -195890.000000 0 0 1
-4.678627 24.903565 11.961324 28.020534 -1.385091 1.129760 0.020187 -0.002608 404050.000000 0 0 1
-5.522027 26.074965 12.099324 29.270979 -1.362105 1.144660 0.025450 0.003728 -117601.000000 0 0 1
-6.002527 26.060165 13.583124 29.994396 -1.344411 1.100831 0.006247 0.018464 -265692.000000 0 0 1
-6.996127 25.108765 13.869824 29.525715 -1.299056 1.081784 0.005012 0.005626 -185204.000000 0 0 1
-7.269227 25.111865 15.221224 30.251166 -1.289024 1.043543 -0.009168 0.033270 412602.000000 0 0 1
-8.446827 24.146365 15.614324 29.970034 -1.234284 1.022777 -0.003670 0.016333 1010720.000000 0 0 1
-9.725127 24.623565 15.218624 30.536937 -1.194649 1.049081 -0.005939 0.018616 277283.000000 0 0 1
-10.796227 23.706265 15.363424 30.242029 -1.143447 1.037917 -0.006584 0.011248 168942.000000 0 0 1
-12.152127 24.427365 15.301224 31.280949 -1.109167 1.059676 -0.003355 0.006390 -326594.000000 0 0 1
-12.438527 25.287965 16.391224 32.601692 -1.113670 1.043994 -0.002040 -0.000575 -90974.200000 0 0 1
-13.325327 26.277765 15.920324 33.489431 -1.101489 1.075396 -0.010881 0.005716 -362332.000000 0 0 1
-13.828927 27.239065 17.063824 34.991141 -1.101018 1.061387 -0.001688 0.010508 815854.000000 0 0 1
-15.106427 26.745465 17.561324 35.382540 -1.056645 1.051433 0.004021 -0.004066 980559.000000 0 0 1
-15.475627 27.568265 18.616024 36.688698 -1.059276 1.038626 0.010332 -0.003577 -275229.000000 0 0 1
-16.793627 27.085565 19.283124 37.249061 -1.015785 1.026658 0.007004 -0.017338 -735343.000000 0 0 1
-17.897027 27.511965 18.585224 37.717666 -0.994057 1.055554 0.007976 -0.014246 -880772.000000 0 0 1
-19.050027 26.961265 19.219924 38.199722 -0.955674 1.043564 0.011965 -0.008065 258228.000000 0 0 1
-20.299427 27.106465 18.310824 38.498226 -0.928014 1.075119 0.011615 -0.020711 -283313.000000 0 0 1
-20.801427 28.442465 18.269524 39.691922 -0.939338 1.092482 0.001158 -0.019154 251160.000000 0 0 1
-21.255327 28.860665 16.960424 39.653283 -0.936004 1.128830 0.008991 -0.014965 -75630.600000 0 0 1
-22.208327 30.061165 17.175124 41.132326 -0.934520 1.140040 0.002981 -0.022571 -35297.100000 0 0 1
-23.480227 29.712565 17.682424 41.795044 -0.902031 1.133960 -0.000011 -0.020360 519715.000000 0 0 1
-24.437727 30.767165 17.542124 43.029606 -0.899553 1.150889 -0.004488 -0.012195 275721.000000 0 0 1
-25.777627 30.493865 18.248624 43.901869 -0.869015 1.142119 -0.008594 -0.012083 -124030.000000 0 0 1
-26.493647 29.330165 17.777124 43.338182 -0.836166 1.148128 -0.001561 -0.011616 -206366.000000 0 0 1
-27.762607 29.288865 18.360324 44.336231 -0.812144 1.143825 0.017265 -0.018426 -390333.000000 0 0 1
-27.938917 28.138665 19.305224 44.102825 -0.788960 1.117722 0.016190 -0.019754 -511313.000000 0 0 1
-27.958037 26.833865 18.816624 43.078689 -0.764884 1.118762 0.020403 -0.015721 202352.000000 0 0 1
-28.379767 25.880365 19.772124 43.198858 -0.739367 1.095390 0.020471 -0.004939 18570.500000 0 0 1
-28.630197 24.418365 19.294124 42.287208 -0.706169 1.097004 0.012988 -0.000395 806302.000000 0 0 1
-29.784767 24.357965 18.411224 42.654612 -0.685500 1.124492 0.035456 -0.004864 1005960.000000 0 0 1
-29.556697 23.605465 17.217724 41.560393 -0.673917 1.143643 0.017591 0.002398 -360139.000000 0 0 1
-29.872607 22.100065 17.274524 40.977978 -0.636948 1.135635 0.007027 0.001849 -594490.000000 0 0 1
-31.245617 21.871965 17.288024 41.875377 -0.610727 1.145221 0.010057 0.008061 -620645.000000 0 0 1
-31.509087 20.522865 17.044724 41.285992 -0.577311 1.145221 -0.000800 0.008569 -330115.000000 0 0 1
-32.881897 20.170465 16.480524 41.948474 -0.550230 1.167040 0.002827 -0.001646 -594448.000000 0 0 1
-32.929987 20.408765 15.090424 41.576707 -0.554824 1.199360 0.000491 0.000292 1000040.000000 0 0 1
-34.255541 20.216765 14.554824 42.355667 -0.533164 1.220013 0.013310 -0.000826 979846.000000 0 0 1
-34.243011 20.683065 13.072824 42.086479 -0.543362 1.254953 0.023675 -0.002645 5302.300000 0 0 1
-34.200497 22.048165 12.825924 42.664972 -0.572622 1.265454 0.016146 -0.002480 51425.300000 0 0 1
-34.385328 22.387165 11.459624 42.601161 -0.577125 1.298444 0.015735 -0.006471 12359.100000 0 0 1
-33.200567 21.986765 10.495224 41.180641 -0.584932 1.313095 0.019757 -0.011760 222911.000000 0 0 1
-33.300897 20.720165 9.860324 40.441327 -0.556591 1.324496 0.036508 -0.003649 -431368.000000 0 0 1
-32.112167 20.288565 9.274124 39.100211 -0.563476 1.331325 0.059000 -0.005517 -286831.000000 0 0 1
-31.398757 19.203965 10.113924 38.170219 -0.548917 1.302625 0.035718 -0.008561 -174386.000000 0 0 1
-31.103097 19.634765 11.437424 38.519362 -0.563103 1.269324 0.023658 -0.003741 186784.000000 0 0 1
-30.499347 18.626365 12.239824 37.775189 -0.548260 1.240823 0.015098 -0.007855 -63676.700000 0 0 1
-29.915267 19.199065 13.521924 38.031167 -0.570576 1.207295 0.002952 0.003999 -3059.270000 0 0 1
-28.860927 20.120165 13.318324 37.618504 -0.608805 1.208913 -0.003390 0.008853 -228706.000000 0 0 1
-29.256867 21.460065 13.380624 38.672209 -0.632861 1.217491 -0.005108 0.015459 -78474.000000 0 0 1
-28.114927 22.459665 13.662224 38.490804 -0.674041 1.207938 -0.001167 0.000279 120696.000000 0 0 1
-27.497807 22.196965 14.896824 38.350358 -0.679132 1.171858 0.008488 0.017399 300218.000000 0 0 1
-26.418147 23.076865 15.263424 38.254833 -0.717993 1.160378 0.011482 -0.001055 -35377.000000 0 0 1
-25.851797 22.603765 16.570824 38.129225 -0.718467 1.121206 0.016909 -0.001798 -798835.000000 0 0 1
-25.074527 21.425865 16.450924 36.856919 -0.707093 1.108119 0.032834 -0.004180 125896.000000 0 0 1
-24.770827 21.052265 17.765624 37.046040 -0.704425 1.070648 0.033554 0.000471 -405186.000000 0 0 1
-23.727027 19.955165 17.962624 35.830661 -0.699264 1.045673 0.036671 -0.004695 -228296.000000 0 0 1
-23.400127 19.738465 19.353024 36.217571 -0.700720 1.007052 0.027847 -0.000635 60230.000000 0 0 1
-22.351627 18.810265 19.448624 35.095160 -0.699575 0.983433 0.025496 -0.001693 -265815.000000 0 0 1
-21.783927 18.740965 20.892124 35.528074 -0.710450 0.942156 0.027190 -0.005902 -131996.000000 0 0 1
-22.537527 17.986065 21.817824 36.158762 -0.673551 0.923051 0.038157 -0.002121 149851.000000 0 0 1
-22.326427 18.425465 23.129724 37.053356 -0.689964 0.896654 0.046603 -0.004542 -82336.500000 0 0 1
-23.173127 17.647965 24.160524 37.844093 -0.650865 0.878349 0.039137 -0.005660 -39751.600000 0 0 1
-22.657327 16.351565 24.416424 37.106467 -0.625135 0.852623 0.043668 -0.011502 760219.000000 0 0 1
-23.433627 15.759765 25.501324 38.050264 -0.592049 0.836317 0.038315 -0.013462 538466.000000 0 0 1
21.224073 24.651465 33.832837 46.934176 0.859970 0.765758 -0.001580 0.004044 170635.000000 0 0 1
20.441973 23.812965 33.008483 45.546586 0.861423 0.760170 0.022428 -0.007198 81265.800000 0 0 1
19.765473 22.761565 33.678999 45.199975 0.855733 0.730095 0.019483 -0.004507 -315420.000000 0 0 1
18.708673 22.111665 32.806133 43.762798 0.868571 0.723286 0.037091 -0.011012 -763078.000000 0 0 1
19.236773 21.401765 31.726653 42.833042 0.838622 0.736677 0.051493 -0.013952 456669.000000 0 0 1
18.384973 20.332465 31.275003 41.587765 0.835656 0.719669 0.046820 -0.022548 -246545.000000 0 0 1
18.929373 19.648765 29.971343 40.529946 0.804044 0.738489 0.042662 -0.012510 -282127.000000 0 0 1
20.202873 19.043265 30.154163 40.988725 0.755860 0.744141 0.038090 -0.007179 19566.900000 0 0 1
20.789373 18.622065 28.960513 40.220525 0.730462 0.766932 0.039232 -0.004493 30115.400000 0 0 1
22.073373 17.777365 29.086153 40.611240 0.678010 0.772441 0.047070 0.002193 227173.000000 0 0 1
23.280373 18.497065 29.226413 41.692930 0.671400 0.794009 0.049952 0.001220 -361779.000000 0 0 1
24.296173 17.672665 29.675153 42.228448 0.628870 0.791570 0.046287 0.014224 -53635.900000 0 0 1
25.730273 18.280465 29.671413 43.319916 0.617715 0.816279 0.026207 0.008926 319834.000000 0 0 1
26.378073 18.491865 28.455513 42.982182 0.611418 0.847272 0.029937 0.014735 520335.000000 0 0 1
27.788773 18.596365 28.657703 44.037537 0.589757 0.862216 0.021916 0.009788 693421.000000 0 0 1
28.582473 18.390665 27.341613 43.620386 0.571739 0.893346 0.023167 0.006214 -224958.000000 0 0 1
28.544473 19.502565 26.453193 43.530545 0.599385 0.917644 0.025213 -0.001479 -608023.000000 0 0 1
29.536773 19.457265 25.499003 43.602813 0.582500 0.946161 0.022676 0.004249 -641038.000000 0 0 1
29.860773 20.878865 24.930663 44.148960 0.610194 0.970734 0.019281 -0.002581 437463.000000 0 0 1
28.845873 21.364265 24.027753 43.195476 0.637481 0.980922 0.021972 -0.000880 433674.000000 0 0 1
29.370873 22.097865 22.932753 43.322915 0.645018 1.012968 0.017977 -0.005629 -353574.000000 0 0 1
29.792673 21.203265 21.744453 42.544130 0.618531 1.034328 0.018839 0.003982 -94377.200000 0 0 1
28.856073 20.287165 21.203453 41.156147 0.612768 1.029561 0.009428 0.005385 33358.200000 0 0 1
29.450973 19.453665 20.223253 40.679047 0.583752 1.050495 0.004366 0.005475 -188810.000000 0 0 1
30.502173 18.396265 20.549553 41.122855 0.542706 1.047531 0.010388 0.004582 -183486.000000 0 0 1
30.004973 17.155965 20.948453 40.416126 0.519404 1.025912 0.021183 0.005229 568557.000000 0 0 1
31.076473 16.197865 21.114653 40.913892 0.480484 1.028534 0.010020 0.000287 214048.000000 0 0 1
30.590973 14.773965 21.633553 40.275157 0.449916 1.003749 0.016381 -0.003384 105798.000000 0 0 1
30.033773 14.721965 22.932653 40.554535 0.455761 0.969785 0.005986 0.002752 994997.000000 0 0 1
28.720373 15.317565 23.011053 39.862215 0.489958 0.955421 0.005060 0.002630 -308523.000000 0 0 1
27.932573 14.694865 24.094853 39.708055 0.484296 0.918768 -0.008028 0.003796 -628409.000000 0 0 1
27.632373 13.299665 23.794253 38.814889 0.448582 0.910921 -0.006063 0.005819 -11479.500000 0 0 1
27.083773 12.690865 24.920023 38.930661 0.438196 0.876151 -0.012818 0.012311 -197272.000000 0 0 1
26.563573 11.258365 24.693493 37.975555 0.400877 0.862887 -0.011121 0.016986 -327709.000000 0 0 1
25.444673 11.080565 23.876953 36.610370 0.410711 0.860325 -0.017100 0.030349 -183293.000000 0 0 1
25.356073 9.694265 23.487453 35.896652 0.365177 0.857530 -0.012329 0.028761 -385150.000000 0 0 1
24.206173 9.267665 22.582753 34.377451 0.365647 0.854089 -0.024684 0.015298 -344483.000000 0 0 1
22.903073 9.382465 23.130753 33.876439 0.388806 0.819211 -0.013932 0.010674 649490.000000 0 0 1
21.969873 8.765865 22.238653 32.466496 0.379640 0.816231 -0.021168 0.023958 769356.000000 0 0 1
20.448673 8.861265 22.581053 31.726553 0.408915 0.778824 -0.005067 0.013060 514243.000000 0 0 1
20.085273 7.978665 23.618153 32.013972 0.378124 0.741072 0.010954 0.013920 366697.000000 0 0 1
18.703673 8.164265 23.915453 31.439330 0.411576 0.706427 0.018917 0.011397 380035.000000 0 0 1
18.284973 7.373565 25.200583 31.996548 0.383312 0.663887 0.025540 -0.000216 -238883.000000 0 0 1
18.220773 6.003165 25.005663 31.516944 0.318268 0.654416 0.023692 -0.011812 175759.000000 0 0 1
18.152673 5.356765 26.295743 32.398774 0.286951 0.623863 0.021495 -0.016389 -56198.100000 0 0 1
18.169573 3.775165 26.365673 32.241805 0.204859 0.613309 0.027832 -0.024482 528630.000000 0 0 1
19.491173 3.437965 25.926833 32.617880 0.174590 0.652010 0.027809 -0.017277 648761.000000 0 0 1
19.713573 2.062965 25.895053 32.610344 0.104267 0.653312 0.019505 -0.018771 808650.000000 0 0 1
21.270873 1.860565 25.674163 33.392730 0.087248 0.693748 0.020248 -0.015877 941197.000000 0 0 1
22.016173 2.176665 26.819233 34.766665 0.098546 0.689748 0.024771 -0.030350 -83043.600000 0 0 1
23.377173 2.333865 26.472163 35.393708 0.099505 0.725852 0.030362 -0.021633 137646.000000 0 0 1
24.261073 2.678765 27.688523 36.911106 0.109969 0.722522 0.020370 -0.024708 -797342.000000 0 0 1
24.491973 1.644465 28.682223 37.752231 0.067042 0.707869 0.023860 -0.030327 196004.000000 0 0 1
25.034373 2.183165 29.878053 39.040800 0.086987 0.699284 0.023792 -0.013997 576708.000000 0 0 1
26.530173 2.637865 29.868393 40.036600 0.099103 0.728720 0.024606 -0.011279 -333625.000000 0 0 1
26.708773 3.811065 29.038103 39.637031 0.141733 0.748662 0.007498 0.005039 699604.000000 0 0 1
28.071973 4.001165 28.628863 40.294625 0.141579 0.780604 -0.003172 0.012876 787737.000000 0 0 1
28.691873 3.014065 27.645303 39.957114 0.104666 0.806714 0.011428 0.011314 -537388.000000 0 0 1
28.169673 3.258465 26.343403 38.705593 0.115161 0.822202 0.013787 0.015087 285401.000000 0 0 1
28.579873 2.219565 25.426213 38.317462 0.077506 0.845219 0.035080 0.021603 -102922.000000 0 0 1
28.324173 2.465865 23.863553 37.118842 0.086840 0.872523 0.027753 0.010323 341803.000000 0 0 1
29.047873 3.539465 23.277253 37.391673 0.121252 0.898831 0.028218 0.019117 -592959.000000 0 0 1
30.419273 3.341265 23.108253 38.346937 0.109402 0.924029 0.017968 0.018709 -204338.000000 0 0 1
31.175973 4.534765 22.420853 38.667817 0.144444 0.952273 -0.000839 0.017219 -317092.000000 0 0 1
30.682873 4.800665 21.142953 37.570062 0.155202 0.973075 0.003336 0.013249 -285548.000000 0 0 1
31.193473 5.922265 20.459053 37.771402 0.187623 0.998392 0.001219 0.014039 129949.000000 0 0 1
32.723073 6.104165 20.159353 38.916062 0.184420 1.026260 -0.009706 0.007817 104941.000000 0 0 1
33.521273 6.268765 21.308153 40.212070 0.184873 1.012320 -0.003147 0.005726 14318.800000 0 0 1
33.409473 7.511865 21.952953 40.676199 0.221164 1.000715 0.001279 0.000626 -631849.000000 0 0 1
34.075373 7.415865 23.334353 41.959720 0.214290 0.981095 0.003325 0.003102 83600.700000 0 0 1
33.298473 6.533165 24.099123 41.620167 0.193739 0.953264 0.004005 0.010448 147793.000000 0 0 1
33.907773 6.379665 25.339583 42.808079 0.185973 0.937339 0.008972 0.007709 -256238.000000 0 0 1
33.250973 5.367565 26.243923 42.698729 0.160045 0.908879 0.012658 0.008460 -155329.000000 0 0 1
33.282273 4.021465 25.819253 42.314486 0.120246 0.914515 0.016346 0.002662 -73884.000000 0 0 1
32.582173 3.155465 26.726763 42.259612 0.096545 0.886094 0.012989 0.014216 56395.100000 0 0 1
32.737773 1.693965 26.487533 42.145233 0.051697 0.891196 0.011771 0.015886 74877.600000 0 0 1
32.016473 1.212465 25.363053 40.863297 0.037852 0.901186 0.029347 0.007782 -51212.400000 0 0 1
32.208673 -0.153935 25.241913 40.921589 -0.004779 0.906080 0.029810 0.001716 -255593.000000 0 0 1
31.250073 -0.872835 24.260373 39.571386 -0.027923 0.910845 0.038821 0.007981 1162340.000000 0 0 1
29.893173 -1.031035 24.722993 38.805814 -0.034477 0.880073 0.041876 0.008439 648921.000000 0 0 1
29.128173 -1.733335 23.761953 37.630909 -0.059437 0.887377 0.045980 0.002420 834978.000000 0 0 1
27.638273 -2.039435 24.125083 36.743068 -0.073657 0.854509 0.054047 0.003203 646942.000000 0 0 1
26.842473 -0.872835 24.230133 36.171529 -0.032505 0.836766 0.052326 0.003967 629314.000000 0 0 1
25.469873 -1.222035 23.989453 35.010022 -0.047943 0.815895 0.048857 0.007857 196449.000000 0 0 1
24.600473 -0.022035 23.709553 34.166163 -0.000896 0.803838 0.033892 0.004579 -1148730.000000 0 0 1
24.838473 0.752265 22.560753 33.563421 0.030277 0.833643 0.026734 0.007790 268639.000000 0 0 1
24.095373 1.960565 22.648153 33.126570 0.081188 0.817996 0.010394 0.006157 15803.200000 0 0 1
24.346673 2.862165 21.370253 32.521380 0.117022 0.853813 0.004680 0.006765 -22690.900000 0 0 1
23.865973 2.435965 20.091253 31.291805 0.101716 0.873613 0.007942 0.008352 474561.000000 0 0 1
23.100573 3.480365 19.463153 30.406640 0.149537 0.876174 -0.005755 0.007932 92483.700000 0 0 1
22.994173 3.302965 17.958253 29.362228 0.142668 0.912701 -0.007474 0.008093 -122002.000000 0 0 1
24.233873 3.284665 17.269953 29.938619 0.134719 0.955935 -0.009185 0.012798 243448.000000 0 0 1
24.141673 3.460465 15.834453 29.077914 0.142370 0.994941 -0.016041 0.013531 -160884.000000 0 0 1
23.564973 2.266865 14.943653 27.995703 0.095901 1.007727 -0.008707 0.018976 267116.000000 0 0 1
22.172773 2.019565 14.941153 26.813216 0.090832 0.979749 0.002771 0.010702 395505.000000 0 0 1
21.976273 0.917265 14.130953 26.143485 0.041715 0.999747 0.014748 0.003143 -1399230.000000 0 0 1
20.540973 0.481865 13.976053 24.849423 0.023454 0.973475 0.028838 -0.008164 -1110100.000000 0 1 0
19.664073 1.385965 13.334553 23.799306 0.070366 0.976058 0.035532 -0.007723 461711.000000 0 1 0
19.692873 1.353865 11.910253 23.054204 0.068641 1.027898 0.040898 -0.006538 -939961.000000 0 1 0
19.166673 0.098265 11.185953 22.192263 0.005127 1.042518 0.029137 -0.006611 -510176.000000 0 1 0
19.915073 -1.088435 11.157253 22.853427 -0.054600 1.060760 0.012497 -0.009576 -40199.700000 0 1 0
21.142373 -1.004335 10.502153 23.628454 -0.047468 1.110213 0.010980 -0.007236 -614059.000000 0 1 0
22.315173 -1.860335 11.002453 24.949585 -0.083174 1.114098 0.017758 -0.008303 -116830.000000 0 1 0
22.711273 -1.674935 12.337753 25.900337 -0.073616 1.074292 0.011558 -0.007980 -38442.600000 0 0 1
23.672573 -2.623535 12.677653 26.981411 -0.110376 1.081657 0.006483 -0.008677 -404071.000000 0 0 1
23.917273 -2.671335 14.190353 27.938112 -0.111230 1.038027 0.023900 0.004193 234204.000000 0 0 1
24.761573 -1.569035 14.602753 28.789543 -0.063281 1.038835 0.014552 0.007044 484650.000000 0 0 1
24.744873 -1.259635 16.010453 29.499661 -0.050861 0.997108 0.004305 -0.000435 66197.200000 0 0 1
25.877873 -0.295635 16.491553 30.687506 -0.011424 1.003442 0.042485 0.007431 1040600.000000 0 0 1
27.175673 -0.903735 16.434253 31.771349 -0.033243 1.027143 0.029332 0.003440 292571.000000 0 0 1
28.231373 -0.030135 16.605153 32.752747 -0.001067 1.039113 0.010235 0.011840 -782495.000000 0 0 1
29.620673 -0.643035 16.712853 34.016426 -0.021706 1.057195 0.020471 0.013306 -386409.000000 0 0 1
30.010073 -1.176735 15.457853 33.777721 -0.039191 1.095463 0.025662 0.021477 628986.000000 0 0 1
31.363773 -1.626435 15.547053 35.043436 -0.051811 1.111128 0.029138 0.023137 554714.000000 0 0 1
31.879673 -2.281735 14.244853 34.991938 -0.071452 1.151531 0.028648 0.011179 -123217.000000 0 0 1
31.755573 -1.510535 13.087553 34.379968 -0.047532 1.180271 0.032294 0.014164 414938.000000 0 0 1
32.420173 -2.060535 11.946953 34.612759 -0.063472 1.218387 0.032598 0.004330 34207.600000 0 0 1
32.044573 -1.285735 10.668153 33.798184 -0.040102 1.249662 0.038184 0.014745 -407559.000000 0 0 1
32.523073 0.039865 10.641253 34.219704 0.001226 1.254584 0.037750 0.020371 337825.000000 0 0 1
31.641673 0.937165 9.980653 33.191673 0.029609 1.265372 0.008381 0.020996 -380006.000000 0 0 1
32.289873 2.241465 9.645253 33.774117 0.069306 1.281183 0.004700 0.018883 -16252.400000 0 0 1
33.162273 2.127565 8.519053 34.305060 0.064068 1.319838 0.022357 0.015128 370970.000000 0 0 1
33.382473 3.392065 7.903453 34.472600 0.101265 1.339471 0.025428 0.012543 -19688.100000 0 0 1
34.202773 3.427465 6.586453 34.999408 0.099877 1.381480 0.037466 0.008992 -48475.500000 0 0 1
34.504073 4.683065 6.050953 35.342272 0.134901 1.398739 0.033827 0.004664 234034.000000 0 0 1
34.658173 4.602865 4.656753 35.271244 0.132035 1.438383 0.018034 0.009606 -185363.000000 0 0 1
-35.031880 5.925265 3.957153 35.749132 -0.167553 1.459877 0.013374 -0.004166 -12492.200000 0 0 1
34.183273 6.973665 3.969053 35.112413 0.201247 1.457516 0.022879 -0.009555 118361.000000 0 0 1
34.784973 8.190365 3.513553 35.908515 0.231245 1.472792 0.013878 -0.008144 -214111.000000 0 0 1
33.706773 9.306965 3.519553 35.144749 0.269403 1.470484 0.038715 -0.014607 1055820.000000 0 0 1
32.630573 9.290265 2.557953 34.023616 0.277371 1.495544 0.034776 -0.019737 1058190.000000 0 0 1
31.677273 8.243065 2.787953 32.850729 0.254574 1.485827 0.050071 -0.016668 -673785.000000 0 0 1
30.439573 8.350465 1.894853 31.621011 0.267742 1.510837 0.049975 -0.022247 -121978.000000 0 0 1
30.851773 8.252765 0.548753 31.941214 0.261378 1.553615 0.046228 -0.019510 12403.900000 0 0 1
29.721673 7.889865 -0.161347 30.751485 0.259474 1.576043 0.057867 -0.022207 -527034.000000 0 0 1
30.021673 7.722965 -1.630647 31.041972 0.251787 1.623351 0.029405 -0.013931 -720061.000000 0 0 1
28.911673 7.297365 -2.352847 29.911073 0.247238 1.649539 0.027743 -0.007979 216175.000000 0 0 1
29.267473 6.980365 -3.695647 30.314490 0.234129 1.693011 0.025558 -0.001665 -242049.000000 0 0 1
28.187873 6.349665 -4.623647 29.261793 0.221564 1.729471 0.017607 0.002050 -339640.000000 0 0 1
28.040873 4.965565 -4.519447 28.833536 0.175266 1.728188 0.023355 -0.002920 1100510.000000 0 0 1
26.868373 4.560865 -5.237247 27.751391 0.168146 1.760655 0.000575 0.001686 135067.000000 0 0 1
26.698173 3.031265 -5.330247 27.393294 0.113054 1.766628 0.005109 0.006795 -389562.000000 0 0 1
26.536273 2.264465 -4.137347 26.952166 0.085128 1.724913 0.007114 -0.000308 465112.000000 0 0 1
26.328473 0.936565 -4.288647 26.691912 0.035557 1.732168 0.003214 -0.000836 -172171.000000 0 0 1
26.118673 0.129765 -2.955347 26.285661 0.004968 1.683466 0.000717 0.000564 241267.000000 0 0 1
27.355273 0.159765 -2.250747 27.448176 0.005840 1.652888 0.021363 -0.007475 581133.000000 0 0 1
27.211073 -0.141735 -0.851447 27.224760 -0.005209 1.602076 0.023510 -0.003916 352011.000000 0 0 1
28.390073 0.445765 0.037153 28.393597 0.015700 1.569488 0.033789 -0.004583 396163.000000 0 0 1
29.594273 -0.223535 -0.272147 29.596369 -0.007553 1.579992 0.038297 -0.001217 -860754.000000 0 0 1
30.599273 0.538965 0.270753 30.605217 0.017612 1.561950 0.030036 -0.001550 -906909.000000 0 0 1
-2.590227 -21.715435 -8.252376 23.374583 1.452077 1.931624 -0.010606 0.021583 15037.100000 0 1 0
-3.049427 -22.269835 -7.046776 23.556350 1.434712 1.874593 -0.010144 0.016167 256710.000000 0 1 0
-2.295627 -23.393735 -6.499676 24.388164 1.472980 1.840566 -0.001620 0.012477 301443.000000 0 1 0
-3.033327 -23.889135 -5.218976 24.639999 1.444497 1.784222 -0.007007 0.017638 -426492.000000 0 1 0
-2.910927 -22.980035 -4.152576 23.532943 1.444795 1.748183 -0.003788 0.013908 -137914.000000 0 1 0
-3.169927 -23.669135 -2.955476 24.062653 1.437662 1.693931 -0.004660 0.003690 -387268.000000 0 1 0
-2.732127 -23.005635 -1.650476 23.226017 1.452591 1.641918 -0.005957 -0.010461 -559881.000000 0 1 0
-1.350027 -22.861535 -1.557376 22.954254 1.511812 1.638695 0.003548 -0.007193 -1280610.000000 0 1 0
-0.965727 -22.647235 -0.227876 22.668962 1.528180 1.580849 -0.003293 -0.011129 1508050.000000 0 1 0
0.607473 -22.459235 -0.103576 22.467688 -1.543755 1.575406 0.006932 -0.015003 1229410.000000 0 1 0
1.148173 -21.343635 -0.714376 21.386430 -1.517053 1.604206 0.000271 -0.013202 -405154.000000 0 1 0
2.341673 -21.024735 -0.028376 21.154757 -1.459876 1.572138 0.008760 -0.014627 -135235.000000 0 1 0
3.139873 -19.864535 -0.580976 20.119545 -1.414029 1.599677 0.020294 -0.025317 248561.000000 0 1 0
3.811073 -20.292635 -1.778976 20.723901 -1.385153 1.656744 0.016119 -0.018820 -217214.000000 0 1 0
4.794973 -19.375435 -2.227176 20.083814 -1.328194 1.681919 0.032356 -0.021191 337765.000000 0 1 0
5.630673 -20.077635 -3.399576 21.127542 -1.297375 1.732406 0.023802 -0.003573 -353713.000000 0 1 0
6.491673 -21.133135 -3.008476 22.311480 -1.272766 1.706048 0.030827 -0.007033 -429295.000000 0 1 0
7.249373 -21.682135 -4.024676 23.213497 -1.248133 1.745053 0.019914 -0.006131 609157.000000 0 1 0
8.515173 -20.987135 -4.632476 23.117696 -1.185358 1.772549 0.017129 0.000120 193774.000000 0 1 0
8.163873 -19.815835 -5.372176 22.094715 -1.179999 1.816401 0.016564 -0.002069 -269981.000000 0 1 0
9.254273 -19.333235 -6.124076 22.291700 -1.124356 1.849099 0.021330 -0.000102 -549123.000000 0 1 0
9.063173 -18.020335 -6.958076 21.337489 -1.104798 1.902968 0.019433 -0.002821 -205158.000000 0 1 0
9.916773 -17.988535 -8.063276 22.066858 -1.066969 1.944861 0.022138 0.012944 142498.000000 0 1 0
9.631573 -16.728535 -8.696776 21.171798 -1.048393 1.994097 0.015481 0.010050 237375.000000 0 1 0
9.948173 -16.677735 -10.240376 21.954004 -1.032959 2.056066 0.006409 0.018580 11856.700000 0 1 0
9.134973 -17.454235 -11.118976 22.621443 -1.088630 2.084635 0.004574 0.017010 -87708.200000 0 1 0
8.767473 -16.735035 -12.260476 22.522195 -1.088213 2.146438 0.001008 0.009613 -107240.000000 0 1 0
8.034473 -17.573635 -13.288476 23.451418 -1.141980 2.173217 0.001124 0.011768 -286316.000000 0 1 0
6.783873 -18.042535 -12.881776 23.183921 -1.211155 2.159922 -0.009788 0.010479 -249222.000000 0 1 0
6.147073 -18.811935 -13.898376 24.183471 -1.254969 2.183041 -0.015813 0.013770 420773.000000 0 1 0
4.977373 -19.691135 -13.382176 24.322781 -1.323210 2.153389 -0.021221 0.013232 -161107.000000 0 1 0
5.369873 -20.817035 -12.589176 24.913287 -1.318344 2.100549 -0.005281 0.003971 634115.000000 0 1 0
4.231873 -21.671735 -12.295376 25.273487 -1.377951 2.078868 -0.001497 0.014469 837892.000000 0 0 1
4.630673 -23.098135 -12.117076 26.491329 -1.372941 2.045863 -0.007851 0.018300 11597.500000 0 0 1
5.256173 -23.731735 -13.253976 27.685565 -1.352832 2.070007 0.001999 0.006285 56597.800000 0 0 1
4.899873 -25.094425 -13.486476 28.907161 -1.377965 2.056176 -0.000384 0.001736 82628.200000 0 0 1
3.470973 -25.424955 -13.995176 29.229112 -1.435117 2.070094 0.003535 -0.001362 -250124.000000 0 0 1
2.478873 -25.256675 -13.041176 28.532731 -1.472962 2.045483 0.015579 -0.003509 -832070.000000 0 0 1
1.191273 -25.508425 -13.541476 28.904506 -1.524129 2.058377 0.014082 -0.014124 -73138.800000 0 0 1
0.556973 -26.860575 -13.285376 29.971686 -1.550064 2.030033 0.009304 -0.010311 -892967.000000 0 0 1
0.950073 -27.847965 -14.219876 31.282850 -1.536693 2.042672 0.016480 -0.008860 246446.000000 0 0 1
0.345773 -29.147965 -14.000476 32.337854 -1.558934 2.018552 0.005951 0.004261 883274.000000 0 0 1
-1.196527 -29.342985 -14.222276 32.629980 1.530042 2.021796 -0.008485 0.000931 449469.000000 0 0 1
-2.003527 -28.739005 -13.256376 31.712396 1.501194 2.002060 0.002155 -0.014181 -236242.000000 0 0 1
-3.349027 -29.009345 -13.614176 32.219620 1.455859 2.007046 0.006744 -0.005668 -25107.400000 0 0 1
-4.448527 -28.178245 -12.856176 31.290321 1.414218 1.994202 -0.016725 -0.014099 231001.000000 0 0 1
-4.730027 -28.353635 -11.508476 30.963637 1.405496 1.951611 -0.017162 -0.017747 -179553.000000 0 0 1
-5.010327 -29.653985 -11.056776 32.042386 1.403417 1.923107 -0.028689 -0.011782 -507890.000000 0 0 1
-5.405927 -29.632855 -9.550276 31.599651 1.390350 1.877825 -0.014297 -0.010095 395589.000000 0 0 1
-6.734927 -29.240635 -9.222376 31.391499 1.344417 1.868981 0.001376 -0.011806 -167381.000000 0 0 1
-6.937227 -27.830945 -9.157776 30.108994 1.326511 1.879847 0.011470 -0.013570 -239050.000000 0 0 1
-8.409127 -27.349765 -8.857576 29.952959 1.272504 1.871002 0.014297 -0.015683 1363400.000000 0 0 1
-9.353027 -27.670835 -9.903376 30.842035 1.244842 1.897687 0.017465 -0.014334 244570.000000 0 0 1
-9.635627 -29.070815 -10.028676 32.226262 1.250738 1.887247 0.021637 -0.016718 -1432700.000000 0 0 1
-10.948327 -29.265635 -10.781876 33.054381 1.212813 1.903062 0.027187 -0.012962 -584176.000000 0 0 1
-10.856227 -28.895315 -12.144776 33.170657 1.211404 1.945643 0.030359 -0.018447 100112.000000 0 0 1
-11.764327 -29.611345 -12.960576 34.397786 1.192627 1.957120 0.038263 -0.014634 -95793.400000 0 0 1
-11.782827 -28.874795 -14.308676 34.312199 1.183356 2.000954 0.043538 -0.016205 483942.000000 0 0 1
-12.655527 -27.712885 -14.545676 33.760081 1.142413 2.016236 0.036033 -0.025431 620402.000000 0 0 1
-12.520927 -26.567175 -13.675276 32.397555 1.130377 2.006566 0.041090 -0.015337 -319590.000000 0 0 1
-13.509827 -25.487215 -14.120176 32.116864 1.083389 2.026005 0.060320 -0.014060 -187292.000000 0 0 1
-13.109627 -24.690735 -15.224176 31.831906 1.082694 2.069478 0.049537 -0.013064 -144849.000000 0 0 1
-14.016127 -23.653835 -15.470776 31.548386 1.035871 2.083325 0.060126 -0.013014 -547267.000000 0 0 1
-13.900827 -23.001335 -16.872676 31.732974 1.027185 2.131412 0.055553 -0.019121 287047.000000 0 0 1
-12.722427 -22.204535 -16.998976 30.722414 1.050493 2.157127 0.042275 -0.017650 571830.000000 0 0 1
-12.677627 -21.463435 -18.236776 30.886587 1.037272 2.202404 0.020507 -0.015120 -118625.000000 0 0 1
-13.148427 -19.988935 -18.045376 29.967887 0.988968 2.216997 0.020499 -0.003787 131609.000000 0 0 1
-12.058927 -19.219235 -17.566776 28.694744 1.010444 2.229630 0.028509 -0.004631 671974.000000 0 0 1
-12.420827 -17.823535 -17.660976 27.997597 0.962169 2.253384 0.024920 0.004395 868420.000000 0 0 1
-11.094027 -16.996635 -17.780476 26.983483 0.992512 2.290204 0.036585 -0.004178 742465.000000 0 0 1
-10.392027 -16.790035 -16.557976 25.769480 1.016567 2.268608 0.036510 0.008170 -577139.000000 0 0 1
-9.248427 -16.086935 -16.908576 25.104239 1.049035 2.309777 0.042464 0.005089 -1100440.000000 0 0 1
-8.668827 -15.320235 -15.690976 23.581028 1.055872 2.298835 0.036886 0.006603 -241720.000000 0 1 0
-8.117427 -16.001435 -14.578176 23.118429 1.101331 2.253105 0.037324 0.004822 1322230.000000 0 1 0
-6.911627 -16.795135 -14.860576 23.466655 1.180394 2.256559 0.036231 0.008452 914757.000000 0 1 0
-6.537627 -17.618635 -13.661976 23.233736 1.215482 2.199409 0.024502 0.005625 -515492.000000 0 1 0
-5.897027 -16.918535 -12.557576 21.879316 1.235410 2.182114 0.015020 0.005460 509143.000000 0 1 0
-5.639127 -17.858535 -11.494276 21.973744 1.264938 2.121270 0.007466 0.010635 -583717.000000 0 1 0
-4.528027 -18.906735 -11.629476 22.654191 1.335731 2.109877 0.011155 0.008997 -296549.000000 0 1 0
-3.247927 -18.282335 -11.625676 21.907742 1.394977 2.130182 0.011381 0.011279 -265785.000000 0 1 0
-2.253127 -19.283235 -11.569276 22.600175 1.454480 2.108204 -0.001292 0.014740 -237481.000000 0 1 0
-0.880327 -18.822935 -12.034176 22.358427 1.524062 2.139142 -0.004933 0.023277 -1153860.000000 0 1 0
-0.767327 -18.577035 -13.416776 22.928256 1.529515 2.195878 -0.002611 0.017593 -489001.000000 0 1 0
0.355973 -17.826235 -13.838276 22.569875 -1.550830 2.230813 -0.006486 0.017265 -10639.100000 0 1 0
1.644473 -18.683835 -13.888076 23.338137 -1.483007 2.208162 -0.002779 0.010860 -1031310.000000 0 1 0
1.731573 -19.749335 -14.845276 24.767253 -1.483342 2.213537 0.010610 0.013726 -127632.000000 0 1 0
1.033473 -20.949935 -14.551776 25.528847 -1.521506 2.177318 0.006631 0.003969 -734364.000000 0 0 1
1.069273 -21.949235 -15.711976 27.014412 -1.522119 2.191508 0.019660 -0.002337 -99884.200000 0 0 1
2.279973 -22.614235 -15.916376 27.747666 -1.470316 2.181704 0.015849 -0.001402 -1471.530000 0 0 1
3.348273 -21.843935 -16.472576 27.562914 -1.418699 2.211345 0.013209 0.000418 798615.000000 0 0 1
4.634973 -22.696335 -16.806576 28.619357 -1.369349 2.198447 0.009781 0.006079 765508.000000 0 0 1
4.736773 -23.077935 -18.135976 29.731158 -1.368357 2.226856 0.008119 0.011868 328685.000000 0 0 1
5.969873 -23.704635 -18.472076 30.639300 -1.324083 2.217913 -0.001207 0.016121 507177.000000 0 0 1
6.429673 -23.619935 -19.970076 31.591866 -1.305022 2.255092 0.003281 0.022398 -394833.000000 0 0 1
6.641973 -22.306135 -20.487976 31.007042 -1.281392 2.292617 0.009196 0.010789 -67328.200000 0 0 1
6.823973 -22.365035 -21.883176 32.025534 -1.274651 2.323075 -0.001628 0.007238 -118095.000000 0 0 1
7.187473 -20.908035 -22.309876 31.409175 -1.239686 2.360718 0.003020 0.001369 -8381.130000 0 0 1
6.126273 -19.983335 -22.198776 30.490172 -1.273324 2.386289 0.030060 0.004427 116576.000000 0 0 1
6.544873 -18.715535 -22.667676 30.115281 -1.234386 2.422945 0.045124 -0.002936 901569.000000 0 0 1
5.223673 -17.915135 -22.959676 29.586915 -1.287083 2.459108 0.036887 -0.004018 129301.000000 0 0 1
4.583173 -18.334335 -24.149476 30.665135 -1.325839 2.477574 0.023076 -0.004786 -83827.200000 0 0 1
3.621673 -17.411735 -24.588776 30.346218 -1.365719 2.515417 0.026646 -0.006893 140950.000000 0 0 1
2.254373 -17.271435 -23.902276 29.575386 -1.441004 2.511854 0.035347 -0.000376 -403812.000000 0 0 1
2.342073 -16.630635 -22.631776 28.182630 -1.430888 2.503175 0.037314 -0.000615 489182.000000 0 0 1
1.035173 -16.281335 -22.136576 27.498754 -1.507301 2.506477 0.030848 0.003567 971442.000000 0 0 1
1.246373 -15.409635 -20.919876 26.012526 -1.490089 2.505164 0.029029 0.003986 176051.000000 0 0 1
2.000673 -14.224135 -21.213976 25.619553 -1.431060 2.546396 0.021248 0.012882 -74423.700000 0 0 1
1.925273 -13.263335 -20.171876 24.218326 -1.426646 2.555156 0.015983 0.007852 230056.000000 0 1 0
3.161573 -12.342035 -20.054476 23.759280 -1.320026 2.575623 0.013022 0.006123 824236.000000 0 1 0
4.375873 -12.921635 -19.527876 23.821311 -1.244271 2.531797 0.010422 -0.001179 784972.000000 0 1 0
5.517773 -12.106035 -19.769776 23.829519 -1.143140 2.549248 0.017689 0.007297 553837.000000 0 1 0
5.939173 -11.018535 -18.726276 22.524549 -1.076425 2.552368 0.010261 0.010910 -582738.000000 0 1 0
4.994373 -9.996335 -18.550076 21.655849 -1.107452 2.599411 -0.004079 0.015001 -332905.000000 0 1 0
5.005073 -8.843135 -19.417776 21.915790 -1.055764 2.659481 0.014213 0.005009 -377639.000000 0 1 0
4.419673 -8.889335 -20.869876 23.110723 -1.109401 2.697588 0.025146 -0.003213 498789.000000 0 1 0
3.010373 -9.121035 -20.860476 22.965520 -1.252006 2.710092 0.023635 -0.003512 18063.400000 0 1 0
2.558173 -8.945635 -22.189976 24.061664 -1.292261 2.744561 0.026726 -0.010258 252008.000000 0 1 0
1.018973 -8.880435 -22.307976 24.032192 -1.456552 2.760487 0.037253 -0.010973 -66484.300000 0 1 0
0.578473 -7.657735 -21.724876 23.042261 -1.495399 2.801811 0.035258 -0.013459 1813470.000000 0 1 0
-0.892527 -7.517735 -21.745376 23.025515 1.452627 2.806572 0.038636 -0.009476 2316170.000000 0 1 0
-1.337427 -6.702035 -22.999276 23.993180 1.373828 2.852755 0.047392 -0.005719 -287507.000000 0 1 0
-0.930827 -7.191135 -24.256876 25.317482 1.442071 2.851117 0.049102 -0.010045 -275997.000000 0 0 1
-1.334527 -6.397635 -25.362566 26.191038 1.365148 2.889402 0.035350 -0.008481 -39635.000000 0 0 1
-0.678627 -5.070035 -25.707836 26.211803 1.437737 2.945182 0.041670 -0.005442 -327501.000000 0 0 1
-1.310227 -4.611035 -26.889486 27.313418 1.293943 2.965176 0.026666 -0.001234 213109.000000 0 0 1
-0.894927 -3.324535 -27.366696 27.582413 1.307841 3.016445 0.011271 -0.000506 -706507.000000 0 0 1
-1.130527 -2.134235 -26.359146 26.469561 1.083664 3.050222 0.021516 -0.004333 523676.000000 0 0 1
-2.504527 -1.842835 -26.098436 26.283019 0.634352 3.023008 0.000224 -0.002742 208351.000000 0 0 1
-3.161627 -1.223435 -27.145806 27.356671 0.369218 3.017352 0.004921 0.000460 -1281240.000000 0 0 1
-4.663927 -1.399735 -26.960416 27.396633 0.291566 2.962905 -0.000133 0.002289 -694605.000000 0 0 1
-5.140227 -0.434235 -26.026016 26.532320 0.084278 2.945922 0.007825 -0.001025 432778.000000 0 0 1
-6.567527 -0.570635 -25.994896 26.817768 0.086670 2.893230 0.002447 -0.004998 286557.000000 0 0 1
-7.274227 0.589665 -25.295216 26.326983 -0.080885 2.860704 0.006026 -0.007048 -814781.000000 0 0 1
-7.312927 1.835865 -26.006236 27.077179 -0.245961 2.859405 0.005307 -0.008676 573513.000000 0 0 1
-8.187027 1.906165 -27.178206 28.448476 -0.228752 2.841633 0.012716 -0.003127 1831840.000000 0 0 1
-9.718727 1.519865 -27.137796 28.865613 -0.155129 2.793845 0.015412 -0.005987 805990.000000 0 0 1
-10.622727 2.148565 -28.020146 30.043090 -0.199569 2.772528 0.022956 -0.012761 689113.000000 0 0 1
-11.917427 1.567665 -27.972036 30.445319 -0.130793 2.735732 0.015298 -0.015150 605434.000000 0 0 1
-13.011727 2.336365 -28.785886 31.676346 -0.177665 2.711076 0.008622 -0.007119 481775.000000 0 0 1
-14.320627 1.811165 -28.558736 31.999408 -0.125805 2.673603 0.011198 -0.008302 1109310.000000 0 0 1
-15.347727 2.364065 -29.410916 33.258736 -0.152832 2.655803 0.004778 -0.005079 670878.000000 0 0 1
-16.132727 3.547165 -28.777506 33.181201 -0.216430 2.620515 -0.000143 0.003417 -565602.000000 0 0 1
-15.430927 4.770165 -28.747256 32.973819 -0.299812 2.629703 0.008396 0.004636 -21597.800000 0 0 1
-15.286727 5.500165 -29.975406 34.094879 -0.345379 2.644927 0.012942 -0.000298 802497.000000 0 0 1
-16.606127 6.071865 -30.663906 35.396414 -0.350540 2.618543 -0.002607 0.009825 968741.000000 0 0 1
-17.255627 7.074065 -29.915506 35.252469 -0.389060 2.584144 -0.008607 0.016660 768004.000000 0 0 1
-18.325627 7.757165 -30.583006 36.487292 -0.400426 2.564738 -0.021898 0.013105 244318.000000 0 0 1
-19.013727 8.826365 -29.810946 36.443367 -0.434608 2.528735 0.000795 0.012004 -651621.000000 0 0 1
-18.005727 9.767665 -29.545866 35.952353 -0.497048 2.535370 -0.006053 0.011852 597923.000000 0 0 1
-18.469227 10.787165 -28.695996 35.790159 -0.528618 2.501072 0.003889 0.008653 -147875.000000 0 0 1
-8.058727 25.269465 31.209063 40.957228 -1.262081 0.704413 -0.020444 0.004861 31198.700000 0 0 1
-8.961727 26.406165 31.233913 41.870698 -1.243614 0.728820 -0.013735 0.002720 641830.000000 0 0 1
-8.557927 27.330365 32.226713 43.113199 -1.267339 0.726520 -0.000750 -0.000209 366794.000000 0 0 1
-7.349527 28.285165 31.938993 43.291631 -1.316581 0.741045 0.004911 0.000075 287889.000000 0 0 1
-7.415427 29.163165 30.826693 43.078576 -1.321799 0.773325 0.019757 -0.005548 -153172.000000 0 0 1
-6.223027 29.104765 30.087353 42.320943 -1.360153 0.779972 0.022749 -0.003285 -136056.000000 0 0 1
-6.029627 30.349065 29.260613 42.586448 -1.374674 0.813324 0.038612 -0.009390 -115940.000000 0 0 1
-5.813827 31.548265 30.014313 43.931225 -1.388557 0.818645 0.041588 -0.010836 231449.000000 0 0 1
-5.788527 32.668165 29.107463 44.135705 -1.395425 0.850644 0.046917 -0.010030 -169991.000000 0 0 1
-6.251627 33.995165 29.805643 45.641323 -1.388931 0.859204 0.044871 -0.009758 129455.000000 0 0 1
-5.418727 34.492965 30.914483 46.635099 -1.414973 0.846109 0.043486 -0.012198 491067.000000 0 0 1
-6.103827 -34.147709 31.970543 47.174552 1.393917 0.826156 0.031611 -0.019182 -459.878000 0 0 1
-7.246427 34.505565 32.701643 48.088898 -1.363797 0.823000 0.015482 -0.009932 -570000.000000 0 0 1
-6.824127 33.566665 33.610177 47.988891 -1.370229 0.794875 0.026823 -0.005116 -138459.000000 0 0 1
-6.621127 32.263465 33.097880 46.693041 -1.368386 0.782944 0.038520 -0.001393 -91284.400000 0 0 1
-6.443927 31.242565 34.279480 46.826326 -1.367394 0.749462 0.030095 0.005365 299969.000000 0 0 1
-5.217227 31.240565 -34.096303 46.537622 -1.405322 2.393020 0.012993 0.004435 233256.000000 0 0 1
-5.464927 30.841365 -32.801666 45.354211 -1.395422 2.379269 0.007498 0.005268 -243699.000000 0 0 1
-4.166527 30.491765 -32.014866 44.407874 -1.434993 2.375936 -0.017108 0.008653 553868.000000 0 0 1
-3.575627 29.201265 -32.190436 43.608751 -1.448955 2.401142 -0.011528 0.011761 104455.000000 0 0 1
-3.149027 28.912165 -33.498716 44.362074 -1.462307 2.426634 -0.012166 0.012031 -1007700.000000 0 0 1
-2.388927 27.598265 -33.573116 43.526145 -1.484451 2.451728 -0.013240 0.008263 -653643.000000 0 0 1
-1.073527 27.618865 -33.028866 43.068087 -1.531947 2.444791 -0.003589 0.016510 570377.000000 0 0 1
-0.271227 26.453565 -33.236006 42.479368 -1.560544 2.469312 -0.008698 0.017753 509327.000000 0 0 1
0.207573 26.022065 34.439619 43.165707 1.562820 0.647081 -0.007615 0.016455 -594652.000000 0 0 1
-0.886427 25.648465 33.651499 42.320833 -1.536249 0.651538 -0.007271 0.008991 19632.400000 0 0 1
-0.549927 25.386365 32.272003 41.064000 -1.549137 0.666654 -0.000177 0.010855 -86588.100000 0 0 1
-0.156127 26.609465 31.341433 41.114151 -1.564929 0.703933 -0.005764 0.004559 449221.000000 0 0 1
-1.316027 27.371865 30.987153 41.366104 -1.522754 0.724101 0.005675 -0.001189 636608.000000 0 0 1
-0.887827 28.539065 30.376303 41.689162 -1.539697 0.754465 0.017658 -0.003929 200791.000000 0 0 1
-1.960127 29.652765 30.493533 42.579151 -1.504790 0.772510 0.028168 -0.011227 215021.000000 0 0 1
-1.744527 30.469365 31.649873 43.967488 -1.513604 0.767214 0.036997 -0.009286 348866.000000 0 0 1
-2.738927 31.477565 31.872923 44.880085 -1.484003 0.781043 0.030194 -0.005636 468981.000000 0 0 1
-2.269827 32.330565 33.095648 46.322127 -1.500704 0.774934 0.039869 0.001798 1184560.000000 0 0 1
-1.040827 33.043765 32.845333 46.602463 -1.539308 0.788658 0.002466 -0.004597 424702.000000 0 0 1
-0.458127 33.553465 34.014648 47.781180 -1.557144 0.778619 -0.020489 0.005624 -124202.000000 0 0 1
0.935073 34.210065 33.800318 48.100565 1.543470 0.791610 -0.006511 0.003425 310740.000000 0 0 1
0.830473 -33.944909 33.067843 47.396506 -1.546336 0.798635 0.012055 -0.009281 150799.000000 0 0 1
2.110573 -33.517109 32.677583 46.858036 -1.507909 0.799069 -0.005388 -0.014923 25705.700000 0 0 1
1.910873 -32.046609 32.360943 45.583629 -1.511239 0.781405 -0.002406 -0.009560 -23673.900000 0 0 1
1.679773 -31.222009 33.505680 45.828660 -1.517047 0.750852 -0.012400 0.001512 146060.000000 0 0 1
1.840273 -29.798709 33.171853 44.628707 -1.509118 0.732829 0.002705 -0.009109 -52049.500000 0 0 1
1.666873 -28.810909 34.323073 44.843286 -1.513005 0.699133 0.001482 -0.008277 205009.000000 0 0 1
0.339973 -28.745309 -34.277947 44.736853 -1.558970 2.443723 -0.010552 -0.001294 96242.000000 0 0 1
0.181373 -28.019409 -33.096846 43.364979 -1.564323 2.439072 -0.018901 0.008337 470182.000000 0 0 1
-1.319727 -27.610809 -32.935676 42.998340 1.523035 2.443354 -0.027784 0.021180 608054.000000 0 0 1
-1.644327 -27.066709 -31.693416 41.710708 1.510120 2.433862 -0.023151 0.018177 -841612.000000 0 0 1
-2.899927 -26.503909 -31.648826 41.382544 1.461815 2.441507 -0.023033 0.012028 -988755.000000 0 0 1
-3.305927 -26.080509 -30.193786 40.034820 1.444710 2.425213 -0.019405 0.009488 -325106.000000 0 0 1
-3.761627 -27.124609 -29.322436 40.121061 1.432996 2.390361 -0.018769 0.015556 67791.100000 0 0 1
-4.354027 -26.684809 -28.109296 39.002168 1.409057 2.375624 -0.017220 0.006542 165231.000000 0 0 1
-3.455027 -25.989009 -27.011256 37.642712 1.438629 2.371102 -0.010171 0.004281 194359.000000 0 0 1
-3.009227 -24.707809 -27.414716 37.028339 1.449601 2.404419 -0.009024 0.009016 152895.000000 0 0 1
-1.996427 -24.179109 -26.572436 35.982070 1.488415 2.401626 -0.006233 0.004155 -893127.000000 0 0 1
-1.243327 -23.088609 -27.397986 35.850793 1.516998 2.440631 0.016223 0.009377 259830.000000 0 0 1
-0.369427 -23.423109 -28.486896 36.881998 1.555026 2.453375 -0.017894 0.004919 1123710.000000 0 0 1
0.753173 -24.238809 -28.055736 37.083844 -1.539733 2.428816 -0.021337 0.001364 254902.000000 0 0 1
1.559873 -24.721509 -29.294476 38.363427 -1.507782 2.439673 -0.031836 -0.005389 605711.000000 0 0 1
2.597573 -23.883509 -29.844686 38.312853 -1.462462 2.463823 -0.014531 -0.003414 1300930.000000 0 0 1
3.329573 -24.427909 -30.980156 39.592662 -1.435329 2.469422 -0.008031 -0.001481 330746.000000 0 0 1
4.280473 -23.426509 -31.730566 39.673071 -1.390071 2.497760 0.001180 -0.005402 211064.000000 0 0 1
5.471773 -22.935309 -31.046456 38.985268 -1.336600 2.492055 0.006673 -0.010332 1111840.000000 0 0 1
6.550873 -23.808309 -30.899006 39.553737 -1.302290 2.467367 0.013338 -0.005496 -603396.000000 0 0 1
7.155573 -24.361709 -32.183896 40.993881 -1.285109 2.473638 0.013024 0.000805 -912046.000000 0 0 1
6.307173 -25.381509 -32.788756 41.941673 -1.327235 2.468296 -0.018603 0.001905 323733.000000 0 0 1
6.536673 -25.588509 -34.143084 43.165381 -1.320692 2.483210 -0.008512 0.004294 -93018.200000 0 0 1
6.281673 -24.429909 33.955662 42.299726 -1.319118 0.638921 -0.004323 0.005549 -289279.000000 0 0 1
4.916773 -24.115909 33.962396 41.942771 -1.369672 0.627101 0.007387 -0.002095 -329209.000000 0 0 1
4.738773 -22.900609 33.311835 40.701010 -1.366748 0.612084 0.021520 0.005003 -126113.000000 0 0 1
3.411073 -22.147509 33.564756 40.357656 -1.417981 0.588665 0.017477 -0.002344 1590990.000000 0 0 1
2.160773 -22.797209 33.184602 40.318724 -1.476296 0.604024 0.012632 -0.002904 1367390.000000 0 0 1
1.631073 -23.703909 34.163736 41.613658 -1.502094 0.607681 0.009905 0.001094 474002.000000 0 0 1
0.321273 -24.462009 33.736378 41.672968 -1.557664 0.627410 0.007487 0.000904 639410.000000 0 0 1
0.494973 -25.534309 32.802203 41.571991 -1.551414 0.661542 0.016814 -0.002569 -682592.000000 0 0 1
-0.746827 -26.004209 32.382333 41.537840 1.542085 0.676791 0.013505 -0.005641 -536151.000000 0 0 1
-0.785527 -27.226109 31.408273 41.573521 1.541952 0.714399 0.023257 -0.011150 525004.000000 0 0 1
-2.032927 -27.418409 30.720283 41.226663 1.496787 0.730028 0.013137 -0.014353 702590.000000 0 0 1
-1.891327 -28.468509 29.785653 41.245827 1.504458 0.763892 0.021930 -0.021305 285340.000000 0 0 1
-3.153527 -28.706909 28.882463 40.843947 1.461382 0.785349 0.023434 -0.013470 1010290.000000 0 0 1
-4.242227 -29.200109 29.686613 41.856156 1.426525 0.782358 0.023224 -0.013832 843615.000000 0 0 1
-5.441927 -29.370509 28.929183 41.582917 1.387589 0.801404 0.018900 -0.008105 594398.000000 0 0 1
-6.619427 -29.914309 29.773073 42.721406 1.353026 0.799713 0.013352 -0.008532 76858.900000 0 0 1
-7.763327 -30.348809 29.060033 42.729439 1.320363 0.822906 0.021569 -0.004193 277936.000000 0 0 1
-8.944127 -30.620209 29.797273 43.651713 1.286604 0.819463 0.025559 -0.005964 102405.000000 0 0 1
-8.952627 -31.755909 30.909973 45.210770 1.296008 0.817995 0.026643 -0.002850 -614182.000000 0 0 1
-8.984027 -33.105709 30.425033 45.851754 1.305804 0.845239 0.033032 -0.008736 1428780.000000 0 0 1
-10.232327 -33.439909 29.716133 45.890920 1.273852 0.866447 0.025655 -0.008459 1335630.000000 0 0 1
-10.177827 34.475465 29.179943 46.299189 -1.283731 0.888925 0.032182 -0.003022 -380482.000000 0 0 1
-10.310527 33.501265 30.239603 46.293361 -1.272231 0.858971 0.026680 0.000393 128236.000000 0 0 1
-9.892727 32.252565 29.803963 45.015222 -1.273180 0.847197 0.031289 -0.005165 -251953.000000 0 0 1
-10.434427 31.040165 30.651963 44.854341 -1.246505 0.818432 0.036812 0.007060 885112.000000 0 0 1
-11.867427 30.893765 30.609343 45.079845 -1.204040 0.824393 0.014595 0.022332 752577.000000 0 0 1
-12.253927 29.704765 31.307213 44.862828 -1.179540 0.798415 0.015928 0.014510 -103009.000000 0 0 1
-12.268727 29.704065 32.838313 45.947882 -1.179106 0.774621 0.014565 -0.004458 -933139.000000 0 0 1
-13.226627 30.474365 33.469383 47.157504 -1.161307 0.781673 0.018272 0.006075 -242679.000000 0 0 1
-13.166327 30.319265 -34.242700 47.593828 -1.161112 2.373846 0.019474 -0.000525 -285043.000000 0 0 1
-14.537627 30.608065 -33.635116 47.744290 -1.127380 2.352493 0.017203 0.003359 -347300.000000 0 0 1
-14.586427 30.289265 -32.272266 46.601530 -1.122000 2.335766 0.019578 -0.002969 628294.000000 0 0 1
-15.851527 30.624565 -31.666426 46.817704 -1.093162 2.313629 0.021381 -0.002897 765162.000000 0 0 1
-15.984827 30.060965 -30.250606 45.544214 -1.082075 2.297224 0.043438 -0.007677 -60599.600000 0 0 1
-16.001027 28.634665 -30.225546 44.604490 -1.061223 2.315338 0.035560 -0.015747 48959.200000 0 0 1
-16.077327 28.208065 -28.894496 43.463401 -1.052762 2.298023 0.036699 -0.013099 -68331.200000 0 0 1
-16.530027 26.694865 -28.726896 42.556928 -1.016363 2.311792 0.014906 -0.018988 339292.000000 0 0 1
-17.924427 26.560465 -28.954546 43.186909 -0.977147 2.305608 0.016584 -0.014317 44184.500000 0 0 1
-18.360327 25.299965 -28.520336 42.315475 -0.943026 2.310397 0.001032 -0.014378 238885.000000 0 0 1
-19.879427 25.077665 -28.729236 43.005231 -0.900514 2.302369 0.002627 -0.008667 98061.200000 0 0 1
-20.777327 25.677265 -27.832406 43.193310 -0.890488 2.270993 -0.006435 -0.004921 138103.000000 0 0 1
-22.106627 25.273865 -28.119556 43.797039 -0.852146 2.267956 -0.004064 -0.013848 406986.000000 0 0 1
-23.074327 25.312165 -26.927846 43.568786 -0.831614 2.237061 0.014644 -0.023652 -70577.400000 0 0 1
-23.569927 26.538865 -26.562466 44.333028 -0.844579 2.213245 -0.003647 -0.003341 687056.000000 0 0 1
-24.762427 26.646265 -25.744236 44.564188 -0.822026 2.186691 -0.004966 0.002018 721192.000000 0 0 1
-24.545027 26.228965 -24.260076 43.347067 -0.818551 2.164785 -0.011931 0.004104 -612710.000000 0 0 1
-24.426327 24.796965 -24.109276 42.341376 -0.792928 2.176575 -0.015924 0.001387 54857.900000 0 0 1
-25.661787 24.111365 -23.932276 42.575099 -0.754258 2.167742 -0.025493 -0.000879 -19977.700000 0 0 1
-26.368277 24.211365 -22.547376 42.306741 -0.742780 2.132879 -0.021224 0.000872 -248249.000000 0 0 1
-25.741037 23.682065 -21.355576 40.981725 -0.743762 2.118936 -0.024500 0.004256 63215.200000 0 0 1
-24.620127 24.410065 -20.916476 40.490750 -0.781114 2.113641 -0.005846 0.005303 -487237.000000 0 0 1
-23.792127 23.753965 -19.846476 39.040988 -0.784596 2.104064 0.004274 0.002565 -79381.000000 0 0 1
-24.422227 23.657365 -18.570276 38.742370 -0.769491 2.070684 0.009236 -0.003565 559791.000000 0 0 1
-23.360327 23.576765 -17.634876 37.584007 -0.790009 2.059195 0.021585 -0.009416 461508.000000 0 0 1
-23.889527 23.705165 -16.128776 37.319991 -0.781525 2.017700 0.011474 -0.007915 -77780.900000 0 0 1
-24.392727 24.954065 -15.773876 38.295243 -0.796773 1.995336 0.016575 -0.019049 -142041.000000 0 0 1
-24.803327 24.996365 -14.476576 38.073541 -0.789274 1.960838 -0.017239 -0.014402 -329425.000000 0 0 1
-25.003827 26.405265 -13.966376 38.954961 -0.812652 1.937485 -0.020250 -0.011344 325704.000000 0 0 1
-23.783327 27.091265 -13.712976 38.569793 -0.850328 1.934285 -0.001839 -0.014319 389339.000000 0 0 1
-24.001627 27.974265 -12.661476 38.973716 -0.861682 1.901673 0.003810 -0.018655 -487538.000000 0 0 1
-22.727227 28.746665 -12.382676 38.681110 -0.901811 1.896655 0.005843 -0.012688 -351727.000000 0 0 1
-21.787427 27.885265 -11.751976 37.287919 -0.907547 1.891430 0.004818 -0.013436 38344.400000 0 0 1
-20.704427 28.469165 -11.082676 36.905180 -0.942010 1.875805 0.000543 -0.008716 -278587.000000 0 0 1
-19.934327 27.354465 -10.324676 35.387046 -0.941040 1.866867 0.025413 -0.003918 7907.670000 0 0 1
-19.161127 26.520065 -11.181876 34.575959 -0.945119 1.900117 0.015465 -0.015707 194889.000000 0 0 1
-18.626427 25.420965 -10.460676 33.205345 -0.938447 1.891284 0.022579 -0.001299 -110815.000000 0 0 1
-17.778427 24.503065 -11.393476 32.346313 -0.943122 1.930754 0.014752 -0.006078 -63191.400000 0 0 1
-17.424027 23.238265 -10.848076 31.004748 -0.927424 1.928244 -0.005689 -0.002496 251935.000000 0 0 1
-16.949227 22.424365 -11.953376 30.545239 -0.923568 1.972877 0.008858 0.004143 -185011.000000 0 0 1
-16.459827 21.067565 -11.553976 29.124947 -0.907570 1.978719 0.000982 0.023280 8988.140000 0 0 1
-17.472627 20.129365 -11.181076 28.905025 -0.855935 1.967978 0.002134 0.025956 256153.000000 0 0 1
-16.957627 18.846565 -10.989176 27.631795 -0.838107 1.979805 0.020312 0.017272 -1182290.000000 0 0 1
-18.063527 17.832165 -10.663676 27.531638 -0.778953 1.968524 0.011405 0.012126 -43090.300000 0 0 1
-18.705327 17.247365 -11.784776 28.040003 -0.744868 2.004555 0.014632 0.013621 469892.000000 0 0 1
-19.525527 18.110765 -12.556676 29.443439 -0.747825 2.011380 0.011457 0.019314 -1129320.000000 0 0 1
-20.236427 17.414465 -13.709976 30.012331 -0.710587 2.045204 0.016744 0.013086 -597560.000000 0 0 1
-19.467127 17.128665 -14.873276 29.892717 -0.721585 2.091574 0.023430 0.015185 -85247.600000 0 0 1
-20.187727 16.897665 -16.060876 30.838728 -0.696914 2.118587 0.027140 0.013854 -413779.000000 0 0 1
-19.339927 16.705865 -17.320476 30.872602 -0.712452 2.166427 0.035049 0.006905 -742141.000000 0 0 1
-18.712827 17.865365 -17.743576 31.371574 -0.762234 2.171950 0.023134 0.007902 -35557.000000 0 0 1
-17.834727 17.446565 -18.754176 31.211844 -0.774397 2.215382 0.019240 0.011938 -684579.000000 0 0 1
-17.040027 18.476165 -19.592376 31.868360 -0.825812 2.232917 0.007920 0.013967 -1183760.000000 0 0 1
-15.977227 18.925765 -18.876876 31.141496 -0.869676 2.222026 0.000888 0.015746 -870595.000000 0 0 1
-15.474727 20.139165 -19.389576 31.953228 -0.915629 2.222839 0.007182 0.006475 -46734.200000 0 0 1
31.935066 31.884165 2.120124 45.176801 0.784601 1.523850 0.009765 -0.009980 -436.740000 0 0 1
33.146346 31.525465 1.493824 45.768621 0.760340 1.538152 0.019655 -0.009077 24667.900000 0 0 1
33.280706 32.156365 0.240324 46.278450 0.768218 1.565603 0.003442 -0.001080 -365224.000000 0 0 1
34.673074 31.892065 -0.384276 47.111288 0.743644 1.578953 -0.009267 0.003687 -296793.000000 0 0 1
-34.460311 32.682565 0.143124 47.494037 -0.758927 1.567783 -0.019371 0.005942 311194.000000 0 0 1
-33.371297 32.709165 -0.825076 46.735572 -0.775378 1.588451 -0.012294 -0.002300 801595.000000 0 0 1
-32.281217 33.708965 -0.328876 46.674184 -0.807031 1.577843 -0.012743 0.005802 356250.000000 0 0 1
-31.645447 33.376465 0.937424 46.003277 -0.812014 1.550418 -0.007432 0.016143 416528.000000 0 0 1
-31.368107 34.576465 1.661524 46.714566 -0.834012 1.535221 -0.023619 0.010345 -182919.000000 0 0 1
-30.845967 34.337065 3.095924 46.261133 -0.838905 1.503823 -0.022441 0.018333 -195934.000000 0 0 1
-30.378007 -33.814909 3.685524 45.605421 0.838887 1.489895 -0.013533 0.021176 587317.000000 0 0 1
-29.654637 -34.107809 4.927424 45.464487 0.855125 1.462203 0.003131 0.006949 -31062.600000 0 0 1
-29.568267 -32.818309 5.816024 44.555021 0.837446 1.439887 0.007268 0.005955 -143065.000000 0 0 1
-30.719927 -32.321609 6.511524 45.064401 0.810799 1.425795 0.013905 0.004773 557793.000000 0 0 1
-31.181127 -33.107209 7.627424 46.114288 0.815349 1.404630 0.010967 -0.006759 -2225190.000000 0 0 1
-32.132957 -32.424409 8.554924 46.444116 0.789913 1.385540 0.025599 -0.005213 -309124.000000 0 0 1
-33.476567 -32.210609 8.185424 47.172079 0.766128 1.396391 0.016102 0.002841 240334.000000 0 0 1
-34.167796 -33.347509 7.693524 48.359952 0.773249 1.411029 0.009377 0.003681 -1366090.000000 0 0 1
34.474380 -33.174009 7.397024 48.411917 -0.766178 1.417402 0.000861 0.010838 80668.100000 0 0 1
33.700746 -33.113109 8.548724 48.013529 -0.776603 1.391794 -0.001351 0.021451 720287.000000 0 0 1
32.369336 -32.622609 8.254024 46.691942 -0.789295 1.393086 -0.020462 0.029261 641913.000000 0 0 1
31.522716 -32.605409 9.504924 46.337219 -0.802280 1.364205 -0.029435 0.019620 -537000.000000 0 0 1
30.144976 -32.385709 9.254824 45.201830 -0.821217 1.364594 -0.020416 0.009863 535232.000000 0 0 1
29.345906 -32.323609 10.437924 44.888174 -0.833646 1.336116 -0.018222 0.019038 -185150.000000 0 0 1
29.670026 -31.128609 11.458624 44.503941 -0.809384 1.310389 -0.013085 0.017260 -900884.000000 0 0 1
29.336196 -29.804409 11.003124 43.243311 -0.793315 1.313521 -0.019676 0.011960 24358.900000 0 0 1
29.818506 -29.234409 9.778424 42.888361 -0.775507 1.340776 -0.011680 0.010986 -285635.000000 0 0 1
28.991516 -28.051109 9.172124 41.370286 -0.768914 1.347231 -0.010703 0.002382 -266323.000000 0 0 1
29.319866 -27.591909 7.873424 41.023880 -0.755045 1.377675 -0.001390 -0.010987 -101255.000000 0 0 1
28.683546 -26.367709 7.570224 39.690177 -0.743356 1.378888 0.001413 -0.007452 -25575.900000 0 0 1
28.693816 -26.048509 6.070924 39.226471 -0.737113 1.415406 -0.015227 0.004062 -323650.000000 0 0 1
30.003416 -25.658309 5.799624 39.902248 -0.707493 1.424934 0.007273 -0.003680 -562635.000000 0 0 1
30.168846 -25.182309 4.523724 39.557199 -0.695552 1.456187 -0.001981 0.002682 -354167.000000 0 0 1
31.608736 -24.726809 4.208724 40.351464 -0.663841 1.466305 0.023349 -0.005625 -177847.000000 0 0 1
32.388916 -25.799809 3.736124 41.576804 -0.672642 1.480814 0.027092 0.006847 -58449.000000 0 0 1
33.763306 -25.452009 3.906824 42.462087 -0.645952 1.478659 0.039632 -0.005209 267126.000000 0 0 1
34.612614 -26.689209 4.054924 43.895208 -0.656858 1.478287 0.041575 -0.000300 -464398.000000 0 0 1
34.226673 -27.469609 5.153424 44.188260 -0.676312 1.453906 0.027768 0.003047 -313323.000000 0 0 1
34.792140 -28.750009 5.133724 45.424785 -0.690595 1.457538 0.020951 0.003694 -420024.000000 0 0 1
34.107178 -29.690809 6.204224 45.643577 -0.716284 1.434447 0.026203 0.007037 952507.000000 0 0 1
32.773686 -30.126309 5.979124 44.916132 -0.743334 1.437282 0.016564 0.014629 161191.000000 0 0 1
31.766946 -29.153509 6.091224 43.545022 -0.742525 1.430453 0.011942 0.012161 -32290.500000 0 0 1
30.330316 -29.663809 5.739224 42.811310 -0.774289 1.436333 -0.018862 0.008922 149830.000000 0 0 1
30.177686 -29.772309 4.346324 42.614242 -0.778636 1.468626 -0.035482 0.008647 -134718.000000 0 0 1
28.897456 -29.645209 3.781024 41.571595 -0.798170 1.479718 -0.030819 0.009377 438188.000000 0 0 1
27.874226 -30.829409 3.983424 41.752755 -0.835696 1.475246 -0.014582 0.002440 337502.000000 0 0 1
28.154106 -31.977909 3.193624 42.725163 -0.848903 1.495978 -0.009240 0.013202 -266702.000000 0 0 1
27.140466 -32.983409 3.353824 42.845750 -0.882276 1.492439 0.004793 0.010356 -146953.000000 0 0 1
27.338086 -34.351409 2.651424 43.982045 -0.898600 1.510476 0.005731 0.003281 -268272.000000 0 0 1
27.154776 -34.258309 1.200124 43.731612 -0.900554 1.543350 0.009584 -0.008395 314985.000000 0 0 1
27.557056 33.910765 0.572624 43.699647 0.888399 1.557692 0.004428 -0.001346 -198695.000000 0 0 1
27.170626 33.988265 -0.889676 43.522828 0.896414 1.591239 0.004292 0.000404 -238663.000000 0 0 1
28.072096 -34.586109 -1.642076 44.575082 -0.888987 1.607643 -0.012384 0.003115 89890.500000 0 0 1
27.632666 -34.543809 -2.998176 44.337659 -0.896097 1.638469 0.005284 -0.001251 -388703.000000 0 0 1
28.654916 -33.916009 -3.916276 44.572829 -0.869283 1.658772 -0.006389 -0.001892 -352473.000000 0 0 1
28.655896 -32.520309 -3.888876 43.518435 -0.848483 1.660277 -0.010340 0.001649 313731.000000 0 0 1
29.456796 -32.001609 -4.954276 43.776142 -0.826782 1.684212 -0.023123 0.011939 94256.200000 0 0 1
29.993346 -30.564709 -4.825176 43.093904 -0.794833 1.683000 -0.020304 0.012432 -842375.000000 0 0 1
28.988186 -29.636909 -5.211176 41.782983 -0.796463 1.695842 -0.022313 0.008818 233785.000000 0 0 1
29.288396 -28.296809 -4.957776 41.025590 -0.768180 1.691938 -0.016582 -0.008178 297777.000000 0 0 1
30.360876 -27.538309 -5.856076 41.405735 -0.736687 1.712704 -0.009256 -0.010277 -103655.000000 0 0 1
31.602546 -28.068309 -5.494776 42.623273 -0.726238 1.700071 -0.007832 -0.008495 -635276.000000 0 0 1
32.678236 -27.700409 -6.351676 43.307315 -0.703141 1.717992 -0.002344 -0.012986 175669.000000 0 0 1
32.850096 -28.651309 -7.560476 44.240107 -0.717233 1.742536 -0.009504 0.001136 -716986.000000 0 0 1
31.737866 -28.731109 -8.446676 43.636167 -0.735715 1.765597 -0.014323 0.002588 66547.100000 0 0 1
31.773706 -29.675309 -9.496676 44.501452 -0.751263 1.785852 -0.025627 0.007561 -35051.400000 0 0 1
31.532676 -31.111009 -8.998876 45.201596 -0.778667 1.771219 -0.034335 0.011504 488776.000000 0 0 1
32.638596 -31.715609 -8.298776 46.260431 -0.771057 1.751165 -0.029570 0.004236 100844.000000 0 0 1
32.342196 -33.005809 -7.794276 46.863118 -0.795553 1.737893 -0.025374 -0.006862 -468597.000000 0 0 1
33.540716 -33.677909 -7.163476 48.067625 -0.787439 1.720383 -0.026390 -0.007437 -692433.000000 0 0 1
33.382186 34.472765 -6.522976 48.428205 0.801469 1.705901 -0.031991 -0.009067 88903.500000 0 0 1
32.634036 34.475465 -5.279876 47.764161 0.812830 1.681563 -0.024657 -0.003454 53402.200000 0 0 1
32.467886 33.084865 -4.624276 46.584931 0.794810 1.670226 -0.036736 -0.001903 28064.300000 0 0 1
31.476936 32.362765 -5.329176 45.459280 0.799273 1.688296 -0.016114 -0.012485 24685.800000 0 0 1
31.628686 30.979065 -5.189676 44.575879 0.775022 1.687484 -0.018263 0.003774 -65263.400000 0 0 1
30.529126 30.164265 -5.892376 43.320093 0.779387 1.707239 -0.000760 -0.005238 -312995.000000 0 0 1
30.457516 30.161265 -7.324576 43.485763 0.780511 1.740039 -0.007154 -0.008229 257159.000000 0 0 1
29.110286 29.792365 -7.612576 42.343182 0.796977 1.751562 -0.011989 -0.006400 719264.000000 0 0 1
28.902496 29.468065 -9.120676 42.271833 0.795087 1.788269 -0.003548 -0.006644 -225798.000000 0 0 1
29.601496 28.273565 -9.407476 42.001710 0.762457 1.796691 -0.000761 -0.008343 -14725.100000 0 0 1
29.697416 28.009865 -10.834976 42.236071 0.756163 1.830231 -0.010093 -0.003709 493195.000000 0 0 1
30.916136 28.772165 -11.459276 43.760255 0.749494 1.835750 0.004535 -0.007344 29670.900000 0 0 1
32.168096 28.227565 -11.075676 44.206927 0.720245 1.824036 -0.008474 -0.008117 1399710.000000 0 0 1
33.363886 28.909065 -11.554376 45.633173 0.713983 1.826784 -0.010607 -0.008913 1128020.000000 0 0 1
33.664526 30.235965 -10.840276 46.529834 0.731795 1.805932 -0.009064 -0.016788 -847391.000000 0 0 1
34.121367 30.106265 -9.482276 46.481915 0.722966 1.776238 -0.006288 -0.011459 308255.000000 0 0 1
33.937876 31.355165 -8.877076 47.050274 0.745863 1.760606 -0.011803 -0.012525 -640825.000000 0 0 1
34.813949 31.585965 -7.612676 47.619713 0.736822 1.731349 -0.016708 0.000517 1945060.000000 0 0 1
-33.913027 31.847065 -7.769176 47.166609 -0.753992 1.736268 -0.009486 -0.002585 1629470.000000 0 0 1
-33.084897 30.857665 -8.324576 46.001135 -0.750580 1.752763 -0.003273 -0.010184 -938997.000000 0 0 1
-31.664047 31.288065 -8.662076 45.349602 -0.779426 1.762984 0.016672 -0.009555 -514225.000000 0 0 1
-30.867677 31.608165 -7.511376 44.814175 -0.797250 1.739203 0.016912 -0.011411 476243.000000 0 0 1
-29.531197 32.058665 -7.657776 44.254843 -0.826412 1.744710 0.020661 -0.008889 383056.000000 0 0 1
-29.353207 33.364565 -8.555376 45.254827 -0.849270 1.760990 0.009698 -0.001498 -733023.000000 0 0 1
-29.477527 34.639965 -7.994776 46.181903 -0.865740 1.744788 -0.004582 -0.001723 230849.000000 0 0 1
-28.490847 -34.391709 -7.000876 45.205423 0.878964 1.726290 0.009521 -0.006217 376677.000000 0 0 1
-28.775187 -33.009709 -6.286476 44.239937 0.853828 1.713379 -0.011158 -0.003302 425323.000000 0 0 1
-29.802607 -32.774609 -5.304276 44.615084 0.832856 1.689968 -0.012670 -0.008039 235157.000000 0 0 1
-29.496587 -33.398209 -4.006476 44.738583 0.847353 1.660469 0.000257 -0.005326 -598130.000000 0 0 1
-30.680887 -33.598109 -3.088276 45.603587 0.830751 1.638568 -0.012013 0.000904 -1022480.000000 0 0 1
-31.197387 -32.349209 -2.743376 45.025264 0.803522 1.631764 -0.033871 0.007723 -106706.000000 0 0 1
-31.774797 -32.164409 -1.451176 45.235968 0.791492 1.602882 -0.012264 0.007538 122102.000000 0 0 1
-32.643957 -30.877309 -1.462976 44.957496 0.757593 1.603343 0.006436 0.008337 -117039.000000 0 0 1
-33.360417 -30.766209 -0.282876 45.382343 0.744966 1.577030 0.010050 0.004617 -597169.000000 0 0 1
-34.107023 -29.592209 -0.187776 45.155543 0.714639 1.574955 0.027053 -0.000194 -54.441200 0 0 1
-35.068230 -29.564609 1.043124 45.879570 0.700451 1.548058 0.029281 0.005948 473137.000000 0 0 1
33.830486 -30.201109 0.729124 45.355709 -0.728778 1.554720 -0.003663 0.015034 463331.000000 0 0 1
32.855286 -29.941309 1.707124 44.484447 -0.739028 1.532411 0.002925 0.014466 209965.000000 0 0 1
32.018026 -28.616009 1.599724 42.971957 -0.729350 1.533561 -0.012146 0.013574 -356542.000000 0 0 1
31.065166 -28.698809 0.544224 42.296127 -0.745824 1.557929 -0.026898 0.015664 -274352.000000 0 0 1
30.345456 -27.485309 0.577324 40.946577 -0.735981 1.556696 -0.025364 0.011807 -1119340.000000 0 0 1
29.158036 -27.563309 -0.363576 40.125543 -0.757290 1.579857 -0.038595 0.004039 -797046.000000 0 0 1
28.199396 -28.450109 0.212024 40.058202 -0.789824 1.565503 -0.039419 0.009329 56639.700000 0 0 1
28.322706 -29.811309 -0.209676 41.120965 -0.810999 1.575895 -0.032639 0.017951 -644649.000000 0 0 1
27.874416 -30.047909 -1.647776 41.019203 -0.822905 1.610978 -0.023238 -0.000493 517939.000000 0 0 1
26.484346 -29.812609 -1.924076 39.923856 -0.844449 1.619009 -0.009921 0.015924 766378.000000 0 0 1
26.111306 -30.378109 -3.183476 40.184130 -0.860788 1.650102 -0.004697 0.019082 -844486.000000 0 0 1
24.657626 -30.779309 -3.351576 39.580266 -0.895379 1.655576 0.006543 0.015698 -787212.000000 0 0 1
23.864126 -29.652109 -3.483876 38.221479 -0.893133 1.662073 0.021266 0.024896 -1252210.000000 0 0 1
22.517126 -30.002609 -3.506876 37.675930 -0.926972 1.664011 0.022148 0.013418 -734729.000000 0 0 1
21.643726 -28.765009 -3.674176 36.185303 -0.925740 1.672509 0.015737 0.013380 -266490.000000 0 0 1
21.508226 -28.236309 -4.991676 35.844243 -0.919835 1.710511 0.017312 0.017685 -29020.500000 0 0 1
21.211226 -26.895909 -5.004876 34.617262 -0.903020 1.715882 0.012180 0.011770 76622.000000 0 0 1
20.583726 -26.275509 -6.327676 33.972513 -0.906272 1.758149 0.020346 -0.017268 -478744.000000 0 0 1
19.300626 -26.734409 -6.559876 33.619559 -0.945497 1.767177 0.028557 -0.011483 -1147690.000000 0 0 1
18.711126 -26.137709 -7.682276 33.050014 -0.949500 1.805386 0.044757 -0.011965 44835.100000 0 0 1
17.179726 -26.330209 -7.694076 32.366984 -0.992685 1.810808 0.051901 -0.016802 63884.300000 0 0 1
16.573826 -25.534209 -6.706976 31.171639 -0.995066 1.787655 0.036898 -0.012239 -681978.000000 0 0 1
15.186026 -25.644109 -6.650876 30.536369 -1.036144 1.790358 0.038621 -0.012486 -361374.000000 0 0 1
14.601026 -24.821609 -5.466776 29.311906 -1.039070 1.758398 0.022063 -0.003678 -79996.100000 0 0 1
14.816526 -25.400209 -4.178176 29.701131 -1.042730 1.711938 0.016014 0.001757 -1571.820000 0 0 1
14.267726 -24.618609 -3.121876 28.624989 -1.045549 1.680075 0.007107 0.016776 -11533.400000 0 0 1
14.341926 -25.299009 -1.710476 29.131708 -1.055073 1.629545 0.009975 0.011019 -87266.800000 0 0 1
13.543426 -26.473109 -1.550376 29.776728 -1.097918 1.622887 0.015134 0.007159 45674.700000 0 0 1
14.199026 -27.673409 -1.791376 31.155079 -1.096729 1.628327 0.017439 -0.001300 -1194380.000000 0 0 1
13.277226 -28.841009 -1.886776 31.806421 -1.139361 1.630152 0.015504 0.006082 -435307.000000 0 0 1
12.429226 -29.109609 -0.797676 31.662143 -1.167250 1.595992 0.024766 -0.003918 159418.000000 0 0 1
11.620026 -30.293509 -0.916376 32.458611 -1.204524 1.599032 0.021839 -0.006159 417062.000000 0 0 1
12.449226 -31.619009 -0.781076 33.990514 -1.195710 1.593778 0.018548 -0.000082 550932.000000 0 0 1
13.372826 -31.877709 -1.846776 34.618368 -1.173590 1.624168 0.015931 0.004800 -143750.000000 0 0 1
14.035326 -33.092109 -1.565676 35.979569 -1.169664 1.614326 0.012596 0.006228 161952.000000 0 0 1
15.509726 -33.114309 -2.077576 36.625474 -1.132772 1.627552 0.012923 0.009412 58776.700000 0 0 1
16.237826 -32.143409 -1.409176 36.039582 -1.103023 1.609907 0.008151 0.020274 131061.000000 0 0 1
17.572926 -32.026009 -1.920376 36.580880 -1.068946 1.623317 0.014645 0.017061 648594.000000 0 0 1
18.294326 -30.836309 -1.209376 35.875101 -1.035338 1.604513 0.012202 0.017568 -207384.000000 0 0 1
17.783526 -29.567909 -1.507976 34.536778 -1.029314 1.614473 0.005608 0.023530 37364.200000 0 0 1
18.193926 -28.575809 -0.600176 33.881499 -1.003835 1.588511 0.002549 0.028428 -134924.000000 0 0 1
17.663626 -27.130209 -0.938576 32.387233 -0.993670 1.599780 -0.008265 0.029911 -451115.000000 0 0 1
18.123026 -26.492809 -2.125876 32.168810 -0.970840 1.636930 0.001623 0.025864 -134959.000000 0 0 1
17.525126 -26.894509 -3.295176 32.269224 -0.993280 1.673090 0.013907 0.016992 -585498.000000 0 0 1
32.007946 -30.003009 13.963524 46.039865 -0.753077 1.262651 0.001860 0.002764 -127233.000000 0 0 1
32.519766 -30.100609 15.272824 46.870470 -0.746785 1.238884 -0.000830 0.004946 151205.000000 0 0 1
31.671776 -30.722609 16.264124 47.026607 -0.770187 1.217652 -0.004687 0.015900 92473.900000 0 0 1
32.397396 -31.070809 17.576724 48.207133 -0.764500 1.197584 -0.003110 0.019947 -693272.000000 0 0 1
31.554576 -31.694709 18.531424 48.411357 -0.787614 1.177981 -0.008488 0.018013 -67073.100000 0 0 1
32.105806 -32.096009 19.755624 49.509809 -0.785246 1.160344 -0.006756 0.012792 -140156.000000 0 0 1
33.036126 -33.349709 19.772924 50.936796 -0.790122 1.172134 -0.009442 0.014177 47136.700000 0 0 1
34.162248 -33.267209 18.935724 51.306218 -0.772125 1.192785 -0.003892 0.023150 -245116.000000 0 0 1
34.786110 -34.559309 18.936924 52.564497 -0.782128 1.202249 0.003923 0.007456 91355.800000 0 0 1
-34.244275 -34.522309 17.847824 51.797731 0.789441 1.219018 0.000802 0.014572 917992.000000 0 0 1
-33.109277 -33.736009 18.317024 50.693746 0.794774 1.201106 -0.006408 0.017257 995052.000000 0 0 1
-32.186897 -33.555109 17.256424 49.595623 0.806207 1.215421 0.000072 0.015585 -547715.000000 0 0 1
-30.877567 -32.860709 17.649824 48.422790 0.816502 1.197707 0.001099 0.011216 117807.000000 0 0 1
-29.793787 -32.794009 16.728324 47.359831 0.833298 1.209788 0.011008 0.003941 293888.000000 0 0 1
-30.026917 -32.125209 15.529824 46.634968 0.819146 1.231304 0.017746 0.001240 -560874.000000 0 0 1
-28.789067 -32.018609 14.610124 45.469302 0.838459 1.243675 0.015761 -0.006208 -106758.000000 0 0 1
-27.641337 -31.489709 15.205824 44.574234 0.850389 1.222672 0.024969 -0.010004 -50026.300000 0 0 1
-26.560387 -31.581909 14.259924 43.660240 0.871550 1.238080 0.022641 -0.005537 2375290.000000 0 0 1
-25.167137 -30.920509 14.779324 42.519302 0.887619 1.215796 0.018785 -0.005052 2104790.000000 0 0 1
-24.152527 -31.050209 13.794424 41.686283 0.909706 1.233528 0.020860 -0.006331 -429687.000000 0 0 1
-22.948627 -30.494409 14.267424 40.744421 0.925664 1.213045 0.019526 0.008919 -439860.000000 0 0 1
-21.876227 -30.681109 13.194524 39.924869 0.951386 1.233980 0.008249 0.008902 -307558.000000 0 0 1
-21.491727 -32.001609 12.930124 40.659383 0.979398 1.247166 -0.005640 0.000343 471496.000000 0 0 1
-20.168427 -32.017809 12.394624 39.818742 1.008672 1.254261 -0.015007 -0.000503 593020.000000 0 0 1
-19.738327 -33.458809 12.143824 40.700932 1.037815 1.267815 -0.004832 0.008772 -216817.000000 0 0 1
-20.427427 -33.913709 11.015524 41.094540 1.028661 1.299425 0.002659 0.006384 163191.000000 0 0 1
-20.342227 34.002965 10.971124 41.114150 -1.031666 1.300678 0.000804 0.013975 -333110.000000 0 0 1
-21.433927 33.541465 10.015324 41.045704 -1.002173 1.324304 -0.004209 0.012372 -545269.000000 0 0 1
-21.252627 33.762465 8.659824 40.823654 -1.008986 1.357045 -0.005834 0.012710 315014.000000 0 0 1
-22.448827 33.674565 7.870524 41.229495 -0.982812 1.378722 0.003862 0.009393 247251.000000 0 0 1
-22.126227 33.943965 6.389824 41.019416 -0.993125 1.414384 0.007094 0.008009 -337646.000000 0 0 1
-21.260727 33.186865 5.557024 39.802852 -1.001032 1.430725 0.008839 0.009375 476712.000000 0 0 1
-19.865427 33.121065 5.832224 39.059633 -1.030537 1.420920 -0.009621 0.009001 221735.000000 0 0 1
-19.110027 34.416565 5.495424 39.747864 -1.063926 1.432095 -0.002714 0.010668 -1014550.000000 0 0 1
-19.350327 -33.821209 6.320024 39.474701 1.051117 1.410001 -0.004289 0.007314 -148820.000000 0 0 1
-18.821527 -33.991109 7.587724 39.588116 1.065102 1.377936 -0.010797 0.013378 -747998.000000 0 0 1
-18.682427 -32.688209 8.374524 38.570516 1.051571 1.351931 -0.005946 0.013053 -724387.000000 0 0 1
-17.819127 -31.700009 7.844624 37.201478 1.058698 1.358333 -0.015863 0.008526 -121027.000000 0 0 1
-17.715527 -30.524109 8.631824 36.332761 1.044930 1.330926 -0.007971 0.012707 64195.700000 0 0 1
-17.167627 -30.657609 10.058324 36.548410 1.060324 1.291993 -0.014151 0.012559 -549733.000000 0 0 1
-15.924127 -31.295509 10.054224 36.524979 1.100109 1.291926 0.000053 0.004545 -595560.000000 0 0 1
-15.474227 -31.396309 11.430924 36.821813 1.112871 1.255142 0.004196 0.001490 949001.000000 0 0 1
-13.974727 -31.876409 11.426824 36.632919 1.157628 1.253575 0.016021 -0.001111 1155670.000000 0 0 1
-13.024727 -30.883709 11.031224 35.286469 1.171695 1.252847 -0.000299 0.008534 287842.000000 0 0 1
-11.933827 -31.468909 10.334824 35.206775 1.208326 1.272862 0.012837 0.016893 494257.000000 0 0 1
-10.864027 -30.467509 9.800224 33.798529 1.228274 1.276611 0.011395 0.018429 396555.000000 0 0 1
-10.129327 -29.946509 10.892624 33.437194 1.244630 1.238977 0.019439 0.005943 495646.000000 0 0 1
-9.001427 -29.157009 10.414324 32.243061 1.271357 1.241905 0.008864 0.012349 1226670.000000 0 0 1
-8.223527 -28.511709 11.572624 31.850739 1.289991 1.198947 0.003197 0.019335 166189.000000 0 0 1
-9.000627 -27.440409 12.064224 31.297489 1.253848 1.175080 0.011181 0.008080 150543.000000 0 0 1
-8.553527 -27.087509 13.360824 31.391202 1.264932 1.131146 0.011627 0.007905 -210145.000000 0 0 1
-9.125227 -25.703209 13.743124 30.541745 1.229654 1.104055 0.012814 -0.000802 137694.000000 0 0 1
-8.677027 -24.587009 12.957324 29.115357 1.231531 1.109584 0.012060 -0.002738 354300.000000 0 0 1
-9.481827 -24.347509 11.786524 28.664061 1.199429 1.147031 0.009382 0.000418 313649.000000 0 0 1
-9.097627 -23.042809 11.078524 27.138009 1.194768 1.150283 0.003677 0.000551 451437.000000 0 0 1
-7.932627 -23.147809 10.257324 26.532251 1.240645 1.173856 0.002366 -0.008887 404768.000000 0 0 1
-7.368127 -21.836709 10.049724 25.142158 1.245373 1.159589 -0.000410 -0.001031 -101914.000000 0 0 1
-6.095527 -21.798709 9.197224 24.432112 1.298133 1.184846 0.002797 -0.007836 -461513.000000 0 1 0
-4.950727 -22.397409 9.735524 24.918548 1.353254 1.169411 0.004589 -0.010619 -381501.000000 0 1 0
-3.996327 -22.595909 8.700124 24.540535 1.395746 1.208395 0.006657 -0.014628 -247898.000000 0 1 0
-2.743827 -23.265009 9.239324 25.182421 1.453401 1.195126 0.012986 -0.014442 -542028.000000 0 0 1
-1.941627 -22.595009 10.193424 24.863834 1.485075 1.148375 0.008859 -0.011153 -473284.000000 0 1 0
-1.044827 -23.517209 10.715324 25.864434 1.526397 1.143636 0.010704 -0.011332 6213.100000 0 0 1
-0.070927 -22.940109 11.769224 25.783100 1.567705 1.096772 0.007242 -0.007143 35513.100000 0 0 1
-0.741527 -22.765009 13.017324 26.234447 1.538235 1.051589 0.002140 -0.001599 334675.000000 0 0 1
0.079573 -22.448109 14.182824 26.553275 -1.567252 1.007321 0.001267 -0.001721 48475.900000 0 0 1
0.671873 -21.034809 14.128424 25.348115 -1.538866 0.979575 -0.009989 -0.006339 -380566.000000 0 0 1
1.781873 -21.040109 13.266924 24.937372 -1.486309 1.009824 -0.000865 -0.011586 -821299.000000 0 1 0
2.247773 -19.728009 13.134524 23.806775 -1.457347 0.986379 -0.006454 -0.008604 22235.300000 0 1 0
3.748573 -19.794309 12.778024 23.856747 -1.383636 1.005561 0.006999 -0.003291 52423.300000 0 1 0
3.969273 -20.379909 11.528524 23.748741 -1.378440 1.063933 0.009635 0.001460 -944520.000000 0 1 0
5.335773 -20.331709 11.226824 23.830452 -1.314148 1.080245 0.031423 -0.005754 -279973.000000 0 1 0
5.739873 -21.115909 9.998324 24.058143 -1.305382 1.142205 0.031946 -0.014202 -869815.000000 0 1 0
5.499273 -20.450809 8.739524 22.909755 -1.308108 1.179404 0.029770 -0.014411 -444970.000000 0 1 0
5.846273 -21.261709 7.613824 23.328298 -1.302461 1.238328 0.032638 -0.015265 -369806.000000 0 1 0
7.334873 -21.616709 7.438124 24.008502 -1.243672 1.255801 0.028105 -0.006888 804249.000000 0 1 0
8.348773 -20.622809 7.037324 23.335085 -1.186131 1.264450 0.035132 -0.014714 932380.000000 0 1 0
8.597973 -19.519109 7.869724 22.734408 -1.155879 1.217322 0.032958 -0.008815 -117454.000000 0 1 0
9.408473 -19.802509 9.169324 23.764158 -1.127254 1.174671 0.028094 -0.004459 -20108.700000 0 1 0
8.691873 -20.214009 10.289124 24.290345 -1.164705 1.133393 0.038437 -0.005200 -490750.000000 0 1 0
9.540173 -19.999709 11.410624 24.923996 -1.125705 1.095258 0.045156 -0.002394 288427.000000 0 1 0
8.784273 -20.299509 12.678024 25.494427 -1.162394 1.050328 0.049837 -0.005111 -140380.000000 0 0 1
8.616873 -21.652609 13.021124 26.695236 -1.192050 1.061263 0.043871 -0.013726 283677.000000 0 0 1
7.778373 -21.961209 14.166924 27.267188 -1.230396 1.024461 0.049682 -0.006699 554638.000000 0 0 1
7.788273 -23.343909 14.789124 28.710860 -1.248777 1.029666 0.044551 -0.018203 -7398.620000 0 0 1
7.457273 -24.336909 13.864724 28.984938 -1.273462 1.072030 0.042219 -0.012500 -268380.000000 0 0 1
7.158573 -25.567209 14.486224 30.245297 -1.297797 1.071329 0.041504 -0.013415 252585.000000 0 0 1
7.164273 -26.702109 13.432024 30.736764 -1.308666 1.118534 0.035637 -0.021341 -284466.000000 0 0 1
8.434373 -27.081709 12.996724 31.200520 -1.268876 1.141144 0.037572 -0.012525 -579420.000000 0 0 1
8.420273 -28.098609 12.025724 31.702537 -1.279644 1.181724 0.027791 -0.011700 -317447.000000 0 0 1
9.819073 -28.431309 11.502024 32.203262 -1.238260 1.205561 0.024522 -0.012707 169994.000000 0 0 1
10.634373 -29.203109 12.403324 33.462724 -1.221570 1.191076 0.020631 -0.014948 215887.000000 0 0 1
11.921073 -29.441509 11.896724 33.918232 -1.186067 1.212427 0.030011 -0.010627 48158.400000 0 0 1
12.827073 -30.389709 12.723124 35.354577 -1.171396 1.202666 0.026151 -0.014439 -373528.000000 0 0 1
13.365773 -29.847009 13.905524 35.536621 -1.149766 1.168751 0.026830 -0.013807 282028.000000 0 0 1
14.345073 -30.657109 14.539524 36.837986 -1.133140 1.165068 0.037319 -0.015422 381829.000000 0 0 1
15.780973 -30.594209 14.000624 37.162645 -1.094576 1.184523 0.033797 -0.008800 -693461.000000 0 0 1
16.406373 -29.357709 14.024724 36.438126 -1.061189 1.175706 0.034660 -0.012782 -1319450.000000 0 0 1
17.573973 -29.407909 13.344024 36.765916 -1.032148 1.199369 0.023542 -0.003216 -1007870.000000 0 0 1
18.394273 -28.069609 13.230024 36.073339 -0.990698 1.195279 0.015566 -0.005807 -176240.000000 0 0 1
19.703873 -28.287709 12.796924 36.772250 -0.962388 1.215354 0.003186 -0.004930 -504715.000000 0 0 1
20.387173 -27.037109 12.788724 36.196596 -0.924712 1.209686 -0.001061 -0.004091 -194793.000000 0 0 1
21.822373 -27.257809 12.303224 37.021256 -0.895695 1.232025 0.005352 0.004003 -182662.000000 0 0 1
22.636573 -28.174109 13.032624 38.419320 -0.893953 1.224708 0.015025 -0.007192 454406.000000 0 0 1
23.763773 -28.555709 12.255624 39.119634 -0.876733 1.252145 0.003518 -0.012372 -421563.000000 0 0 1
24.936373 -29.214709 12.963224 40.538464 -0.864242 1.245303 0.003162 -0.009945 407882.000000 0 0 1
25.982573 -28.401209 13.553024 40.809401 -0.829842 1.232262 -0.004622 -0.011755 1634390.000000 0 0 1
27.103973 -28.158909 12.662024 41.083772 -0.804485 1.257496 -0.015217 -0.010856 1041330.000000 0 0 1
28.298573 -27.360209 13.309624 41.551611 -0.768541 1.244734 0.007885 -0.023970 403693.000000 0 0 1
28.129573 -25.961709 13.514124 40.594516 -0.745342 1.231414 0.021850 -0.026766 146099.000000 0 0 1
27.354173 -25.612709 14.665024 40.240832 -0.752532 1.197774 0.022028 -0.024821 -437599.000000 0 0 1
28.246573 -25.550709 15.956924 41.295654 -0.735329 1.174064 0.007467 -0.011853 -323538.000000 0 0 1
28.610173 -26.828909 16.372524 42.501669 -0.753279 1.175349 0.014497 -0.011217 -103569.000000 0 0 1
29.274173 -26.776809 17.603524 43.403442 -0.740872 1.153184 0.026922 0.007839 -253196.000000 0 0 1
29.653373 -28.129709 18.151124 44.722101 -0.759036 1.152872 0.002754 0.029422 -731206.000000 0 0 1
28.517273 -28.844109 18.491924 44.577671 -0.791096 1.143046 -0.003895 0.016201 -749608.000000 0 0 1
28.800773 -29.812409 19.487724 45.804319 -0.802656 1.131331 0.002286 0.006215 -837324.000000 0 0 1
27.707173 -30.681209 20.052324 45.946923 -0.836290 1.119176 -0.008711 0.016276 -1633640.000000 0 0 1
26.790973 -29.964509 20.836624 45.274639 -0.841256 1.092545 -0.010058 0.013325 100851.000000 0 0 1
25.649873 -30.605309 21.363324 45.287885 -0.873260 1.079553 -0.011373 0.005937 209167.000000 0 0 1
24.622973 -31.133909 20.359224 44.610639 -0.901645 1.096878 0.022129 -0.000035 -1316800.000000 0 0 1
25.028073 -32.292309 19.681324 45.349225 -0.911457 1.121874 0.005265 0.004474 77444.400000 0 0 1
24.336673 -32.505309 18.440624 44.597370 -0.928129 1.144511 0.019030 0.000675 -436703.000000 0 0 1
24.727573 -31.626809 17.244924 43.693195 -0.907218 1.165074 0.016719 0.005686 -55535.700000 0 0 1
26.036873 -31.920209 16.786224 44.481410 -0.886564 1.183835 -0.001572 0.001505 247636.000000 0 0 1
26.501873 -30.850609 15.967524 43.692919 -0.861078 1.196681 0.002454 -0.011015 242916.000000 0 0 1
27.857873 -31.074309 15.213624 44.419907 -0.839923 1.221224 0.000496 -0.002487 269652.000000 0 0 1
27.950773 -32.093709 14.233524 44.875885 -0.854287 1.248047 0.020875 0.004119 239125.000000 0 0 1
28.013273 -33.397209 14.806224 46.036304 -0.872846 1.243356 0.018847 -0.001405 -562696.000000 0 0 1
27.176473 -34.325109 13.926824 45.942684 -0.901114 1.262816 0.026227 -0.007190 -48574.100000 0 0 1
27.717673 34.659265 12.630224 46.141701 0.896227 1.293531 0.032877 -0.003727 330649.000000 0 0 1
26.916773 33.652665 12.077724 44.753614 0.896152 1.297537 0.024594 -0.015085 -361441.000000 0 0 1
27.439573 33.228065 10.708724 44.403955 0.880523 1.327229 0.022812 -0.014902 -427856.000000 0 0 1
28.576273 32.424065 10.830624 44.555872 0.848393 1.325257 0.002184 -0.013062 -262981.000000 0 0 1
28.897173 31.722665 9.630324 43.978599 0.831974 1.350030 0.004258 -0.016980 3357.030000 0 0 1
30.403173 31.363765 9.688024 44.742558 0.800949 1.352539 -0.015169 -0.008086 -107389.000000 0 0 1
30.684473 30.515065 10.752524 44.590614 0.782630 1.327257 -0.036582 0.001472 -410201.000000 0 0 1
32.052873 30.279565 10.926624 45.427192 0.756957 1.327884 -0.009719 0.000814 -256885.000000 0 0 1
32.320473 29.465265 12.192824 45.403521 0.739220 1.298916 -0.003859 0.011860 -157945.000000 0 0 1
31.923773 28.141965 12.009224 44.218988 0.722520 1.295757 -0.016386 -0.000260 225506.000000 0 0 1
32.177573 27.415865 13.171324 44.277642 0.705664 1.268753 -0.005162 -0.013820 -32498.300000 0 0 1
31.885973 25.944165 12.949124 43.098663 0.683012 1.265629 -0.007133 -0.007656 -662878.000000 0 0 1
32.918673 25.364365 12.247324 43.324208 0.656503 1.284199 0.000628 0.006680 -734127.000000 0 0 1
32.765973 23.944465 11.895024 42.289928 0.631081 1.285676 0.001033 0.003589 -817028.000000 0 0 1
31.596273 23.514465 10.999424 40.893054 0.639789 1.298462 -0.008588 0.001270 496106.000000 0 0 1
30.351873 23.331865 11.688224 40.027824 0.655370 1.274476 -0.007514 -0.000619 437033.000000 0 0 1
29.331073 23.023265 10.768324 38.811588 0.665493 1.289656 -0.012143 0.004826 -153555.000000 0 0 1
27.974273 22.602665 11.358424 37.715437 0.679588 1.264886 -0.026930 0.006804 -70099.800000 0 0 1
27.447673 23.540565 12.265424 38.183420 0.708920 1.243775 -0.018316 0.004325 28289.000000 0 0 1
27.232573 22.954765 13.514424 38.094277 0.700367 1.208136 0.025315 -0.001066 51571.200000 0 0 1
23.725473 9.338565 26.560433 36.817977 0.374985 0.764977 -0.008911 0.010992 -271526.000000 0 0 1
23.223773 8.118765 27.143853 36.633956 0.336308 0.736316 0.001825 -0.002358 474759.000000 0 0 1
21.809073 8.030865 27.071153 35.678814 0.352827 0.709411 0.014844 -0.005564 64055.000000 0 0 1
21.390573 6.656265 27.706713 35.630386 0.301680 0.679933 0.035851 -0.017762 -300928.000000 0 0 1
21.731973 6.530865 29.056623 36.867576 0.291933 0.663023 0.026168 -0.011959 1432530.000000 0 0 1
23.112673 6.145565 29.307603 37.827228 0.259883 0.684437 0.013426 -0.011586 1059320.000000 0 0 1
23.319573 5.870865 30.787813 39.066085 0.246632 0.663087 0.020488 -0.010914 -246448.000000 0 0 1
23.223673 7.061565 31.508073 39.773903 0.295184 0.656424 0.028563 -0.008289 255373.000000 0 0 1
23.328873 6.900365 32.882663 40.903800 0.287587 0.636969 0.018071 -0.004112 -496346.000000 0 0 1
23.178473 8.206865 33.709497 41.724386 0.340298 0.630202 0.048756 0.005031 190359.000000 0 0 1
24.265473 9.130965 33.634741 42.467440 0.359905 0.656698 0.023049 0.008019 115919.000000 0 0 1
24.394473 9.729265 -34.185677 43.109273 0.379498 2.486515 0.035356 0.010373 399520.000000 0 0 1
25.450973 10.866865 -34.006116 43.843548 0.403540 2.458500 0.025599 0.014242 278723.000000 0 0 1
24.983673 12.067565 34.512163 44.282044 0.449970 0.677134 0.023299 0.009845 340956.000000 0 0 1
25.191573 13.100565 -33.690916 44.060390 0.479549 2.441299 0.017139 0.014312 -964507.000000 0 0 1
24.642873 14.414865 -34.233113 44.575392 0.529280 2.446481 0.014361 0.015621 -879715.000000 0 0 1
25.446073 15.170265 33.988081 45.086908 0.537601 0.716917 0.008698 0.013190 -141905.000000 0 0 1
24.968873 16.466565 33.797174 45.131379 0.583013 0.724453 0.010420 0.011330 -255595.000000 0 0 1
25.568373 17.618765 -34.452426 46.380300 0.603362 2.408076 -0.000826 0.005274 25640.000000 0 0 1
25.166773 17.413265 -33.101056 45.080685 0.605279 2.395376 0.003983 -0.000157 154510.000000 0 0 1
26.254973 16.999365 -32.337026 44.988724 0.574596 2.372843 -0.005823 0.000693 -890640.000000 0 0 1
25.740173 16.598565 -30.969916 43.556912 0.572747 2.361747 -0.005313 0.003528 262749.000000 0 0 1
25.044873 15.344265 -31.085496 42.766812 0.549684 2.384536 0.002963 0.011491 -117782.000000 0 0 1
24.244673 15.018665 -30.019266 41.406772 0.554607 2.381808 0.021783 -0.007384 -144400.000000 0 0 1
23.461073 13.681365 -30.173796 40.596301 0.527939 2.408733 0.034641 -0.007632 -474516.000000 0 0 1
22.486273 13.694265 -31.193446 40.819070 0.547015 2.440578 0.032272 -0.004903 344833.000000 0 0 1
21.822373 12.447565 -31.332936 40.161060 0.518373 2.465753 0.032994 0.010679 588698.000000 0 0 1
20.940273 11.830665 -30.132276 38.554036 0.514265 2.467958 0.037582 0.012572 94034.600000 0 0 1
19.751773 12.583465 -29.975146 38.039263 0.567239 2.478359 0.051741 0.009081 99070.800000 0 0 1
18.741973 11.877365 -29.292716 36.747742 0.564853 2.493323 0.052804 0.007758 -617760.000000 0 0 1
17.479373 12.678465 -29.095956 36.233225 0.627530 2.503140 0.044221 0.001660 -690922.000000 0 0 1
16.601873 12.739665 -30.190286 36.733835 0.654521 2.535475 0.021491 0.003919 405074.000000 0 0 1
15.450773 13.512965 -29.886696 36.256602 0.718593 2.539779 0.023136 -0.004874 -213729.000000 0 0 1
14.518173 13.951165 -31.073166 37.026396 0.765484 2.566637 0.014746 -0.000749 51765.100000 0 0 1
13.857373 12.914065 -31.735836 36.958939 0.750177 2.603481 0.001472 -0.000395 -322854.000000 0 0 1
12.683173 12.581365 -31.022316 35.798571 0.781368 2.619104 0.009617 0.002303 -322867.000000 0 0 1
11.614373 11.851065 -31.911706 35.968019 0.795485 2.662090 0.005647 0.003683 392161.000000 0 0 1
11.254973 12.763465 -32.983796 37.114839 0.848121 2.665289 0.018213 0.003585 -835103.000000 0 0 1
10.283673 12.205465 -33.746386 37.330227 0.870645 2.699822 0.027526 0.003963 -908674.000000 0 0 1
9.894673 13.017765 34.101963 37.819447 0.920869 0.447101 0.034563 0.005025 55894.900000 0 0 1
10.870473 13.051365 33.095312 37.199529 0.876314 0.474174 0.023393 0.015647 311591.000000 0 0 1
10.192873 13.427765 31.908993 36.088549 0.921503 0.486048 0.033979 -0.005752 456449.000000 0 0 1
11.094673 13.286365 30.584243 35.142783 0.875050 0.515015 0.029412 -0.002997 -51347.900000 0 0 1
11.404573 11.921165 30.254243 34.460088 0.807541 0.499233 0.018152 0.002869 248610.000000 0 0 1
11.757373 11.799565 28.878313 33.338004 0.787189 0.523193 0.015912 0.005152 -490573.000000 0 0 1
12.279173 10.397665 28.586983 32.804041 0.702617 0.512652 0.016737 0.006733 -670412.000000 0 0 1
11.344473 9.369065 28.708943 32.259570 0.690318 0.473592 0.021213 0.005254 -357498.000000 0 0 1
11.790873 8.112265 28.321823 31.732620 0.602635 0.467906 0.018816 -0.002890 -868969.000000 0 0 1
10.808273 6.953865 28.637873 31.389533 0.571710 0.421837 0.009212 -0.001479 251978.000000 0 0 1
9.764773 6.919565 27.650363 30.129284 0.616491 0.408484 0.001894 0.000644 281927.000000 0 0 1
8.887773 5.779165 27.810813 29.762940 0.576542 0.364195 0.001019 -0.005284 30546.000000 0 0 1
9.278273 4.441965 27.243263 29.120659 0.446503 0.361039 0.002138 -0.002437 -259356.000000 0 0 1
10.337573 3.791065 27.918893 30.011701 0.351498 0.375657 -0.002876 0.000222 387075.000000 0 0 1
10.282573 2.408765 27.654693 29.602626 0.230108 0.364794 0.000478 0.001275 -481180.000000 0 0 1
10.960173 1.543865 28.700773 30.761068 0.139941 0.368072 -0.016929 -0.001318 38995.000000 0 0 1
10.123373 1.476965 29.848923 31.553483 0.144874 0.330196 -0.016609 0.004862 277188.000000 0 0 1
10.305973 0.269065 30.517133 32.211502 0.026102 0.325789 -0.012176 0.001430 9504.370000 0 0 1
9.337573 0.176165 31.707723 33.054516 0.018864 0.286441 -0.005618 0.000331 -34201.400000 0 0 1
9.595073 1.149665 32.687123 34.085703 0.119250 0.287454 -0.011681 -0.001948 -89172.400000 0 0 1
8.442873 1.459965 33.436335 34.516693 0.171229 0.250855 -0.012064 -0.002988 -100890.000000 0 0 1
8.682373 2.741665 34.338015 35.524634 0.305864 0.259192 0.001647 -0.007048 -160833.000000 0 0 1
8.630473 4.052465 33.782282 35.101996 0.438995 0.275080 -0.005581 -0.001432 -192202.000000 0 0 1
9.588373 4.344465 32.810613 34.457910 0.425427 0.310457 -0.009185 0.000433 -466220.000000 0 0 1
9.331573 5.682465 32.054163 33.864997 0.546975 0.328498 -0.002850 -0.001859 30010.300000 0 0 1
9.626573 6.797065 32.866543 34.915335 0.614790 0.344273 -0.003188 -0.001862 57616.800000 0 0 1
9.580773 8.017165 32.123183 34.466868 0.696779 0.370899 0.000659 0.003913 -280083.000000 0 0 1
9.805173 9.352365 32.923683 35.603048 0.761767 0.390436 0.021741 -0.000317 206965.000000 0 0 1
8.762973 9.884965 33.749126 36.242319 0.845493 0.373084 0.022863 -0.006855 163482.000000 0 0 1
8.248673 9.003865 -34.359117 36.464491 0.829143 2.800119 0.016527 -0.002593 -171250.000000 0 0 1
6.894673 9.311765 -33.681116 35.618297 0.933451 2.810270 0.012610 0.001349 -45687.600000 0 0 1
6.467273 8.253765 -32.917126 34.546888 0.906164 2.833207 0.013372 0.002013 1154610.000000 0 0 1
5.143673 8.577465 -32.386816 33.895960 1.030617 2.842069 0.007845 -0.002505 1325570.000000 0 0 1
4.697273 7.717365 -31.213666 32.494846 1.024031 2.859852 0.002819 -0.001188 112115.000000 0 0 1
5.469173 7.973265 -30.013506 31.532449 0.969570 2.829944 0.007218 0.006892 607297.000000 0 0 1
4.918873 7.337865 -28.853526 30.175579 0.980254 2.844488 0.007406 0.004113 1370360.000000 0 0 1
3.467073 7.659665 -28.269406 29.493226 1.145749 2.852507 -0.004864 0.006980 1606980.000000 0 0 1
2.433573 7.108865 -29.084166 30.039090 1.240971 2.888772 -0.001574 -0.000651 258015.000000 0 0 1
1.134373 7.444965 -28.625196 29.599259 1.419591 2.884336 0.011854 0.011702 288034.000000 0 0 1
0.056373 6.970165 -29.637116 30.445772 1.562709 2.910599 0.009558 -0.000653 -100971.000000 0 0 1
0.123673 7.613965 -30.880206 31.805265 1.554555 2.899819 0.011353 -0.002367 335323.000000 0 0 1
-0.428327 6.805865 -31.929256 32.649359 -1.507944 2.931178 0.027699 -0.004193 -367506.000000 0 0 1
-0.297327 7.534665 -33.305456 34.148396 -1.531356 2.918941 0.033557 -0.013383 -475940.000000 0 0 1
0.942673 7.674465 -33.938996 34.808641 1.448576 2.917591 0.020092 -0.017502 -194010.000000 0 0 1
1.604473 6.524565 -34.418630 35.068310 1.329668 2.948805 0.031561 -0.021227 -160572.000000 0 0 1
1.411673 6.334265 33.137351 33.766844 1.351517 0.193394 0.044594 -0.023938 -309994.000000 0 0 1
0.273573 5.623965 32.706173 33.187310 1.522190 0.170486 0.042034 -0.021034 -428925.000000 0 0 1
0.159573 5.631865 31.283813 31.787109 1.542470 0.178187 0.057019 -0.021906 309344.000000 0 0 1
0.920373 4.507565 30.462843 30.808278 1.369381 0.149890 0.054760 -0.024904 187005.000000 0 0 1
0.756373 4.676565 29.101753 29.484816 1.410448 0.161370 0.048992 -0.020891 -110836.000000 0 0 1
1.462073 3.724965 28.364083 28.644968 1.196766 0.140156 0.028863 -0.012717 -221737.000000 0 0 1
1.453673 4.120365 26.859753 27.212808 1.231627 0.161258 0.027475 -0.011889 358019.000000 0 0 1
2.394573 5.142765 26.492973 27.093535 1.135029 0.210944 0.030008 -0.004537 340613.000000 0 0 1
2.153973 5.594065 25.192483 25.895837 1.203247 0.233601 0.028898 -0.008909 -191406.000000 0 0 1
2.783473 7.023165 24.903683 26.024334 1.193460 0.294531 0.035566 -0.003685 448777.000000 0 0 1
4.193773 6.890565 24.812133 26.090411 1.024059 0.314323 0.027443 0.005100 4757.760000 0 0 1
4.717673 6.890065 23.477653 24.918459 0.970408 0.341722 0.025378 -0.009649 114286.000000 0 1 0
6.266573 6.809165 23.590053 25.340191 0.826870 0.373833 0.024660 -0.005729 411307.000000 0 0 1
7.013673 5.834865 24.338833 25.992615 0.693908 0.358640 0.019801 -0.008976 230421.000000 0 0 1
6.704173 4.417465 24.223773 25.519622 0.582615 0.320044 0.020389 -0.009389 -1028100.000000 0 0 1
6.821473 3.731165 22.803853 24.092941 0.500517 0.328600 0.019706 -0.007410 -79813.500000 0 1 0
5.822173 3.982765 21.854953 22.965171 0.599953 0.312212 0.008300 -0.007029 488872.000000 0 1 0
4.512873 3.517165 22.256553 22.980222 0.662030 0.251625 0.008583 -0.002010 407284.000000 0 1 0
3.381373 3.934865 21.305253 21.927851 0.860907 0.238866 0.002341 -0.002333 -97753.600000 0 1 0
3.173773 5.309765 21.313953 22.193491 1.032052 0.282471 0.014725 -0.011270 -435615.000000 0 1 0
2.059873 5.722165 20.584753 21.464349 1.225257 0.287271 0.017509 -0.008568 -272214.000000 0 1 0
1.709573 7.215365 20.645953 21.937172 1.338151 0.344809 0.020331 0.000475 -120302.000000 0 1 0
2.565773 7.998165 19.880953 21.582542 1.260372 0.399748 0.018902 -0.005208 -421911.000000 0 1 0
2.141473 9.297065 20.078753 22.230106 1.344406 0.443574 0.026574 -0.008005 595482.000000 0 1 0
3.121573 10.371265 19.455753 22.267323 1.278438 0.507966 0.030994 -0.014583 -256182.000000 0 1 0
3.135873 10.609665 18.044453 21.166033 1.283411 0.550010 0.010392 -0.015030 537093.000000 0 1 0
4.267773 11.422965 17.675953 21.474108 1.213242 0.603898 0.007759 -0.014742 1553120.000000 0 1 0
5.756873 11.022265 17.915953 21.808560 1.089472 0.606742 0.016166 -0.009846 174947.000000 0 1 0
5.955273 9.724365 17.419953 20.820262 1.021304 0.579598 0.008475 -0.006834 -591874.000000 0 1 0
7.285873 9.354465 17.622653 21.240241 0.909076 0.592258 0.017189 -0.003868 -324422.000000 0 1 0
7.492273 7.864365 17.967653 20.995689 0.809623 0.543743 0.027098 -0.007413 -294540.000000 0 1 0
6.965973 7.623965 19.239653 21.836068 0.830467 0.492624 0.022812 -0.010856 -212019.000000 0 1 0
7.183973 6.357765 19.803953 22.005163 0.724462 0.451099 0.029622 -0.013594 -135468.000000 0 1 0
8.604373 5.912265 20.209553 22.746783 0.602031 0.476823 0.040984 -0.005451 -393361.000000 0 1 0
9.398773 5.769665 19.057753 22.018717 0.550559 0.524598 0.035115 -0.002919 -453002.000000 0 1 0
10.673573 5.223365 19.364953 22.720258 0.455110 0.550389 0.052287 -0.007115 345814.000000 0 1 0
10.715073 3.654465 19.300353 22.375690 0.328687 0.530491 0.057368 -0.007061 -141232.000000 0 1 0
10.016073 3.057365 20.386453 22.918915 0.296263 0.474539 0.043412 -0.007849 -69055.000000 0 1 0
9.970273 1.670665 20.306353 22.683594 0.166022 0.461917 0.030518 -0.013086 252156.000000 0 1 0
8.971173 0.938465 21.250653 23.085773 0.104230 0.401416 0.028427 -0.011915 132802.000000 0 1 0
9.292273 1.116265 22.616353 24.476352 0.119555 0.392362 0.028859 -0.009434 -264912.000000 0 1 0
8.582773 0.210865 23.412753 24.937230 0.024563 0.351471 0.010991 -0.009118 -397960.000000 0 1 0
8.928873 0.083465 24.938293 26.488680 0.009347 0.343832 0.005921 -0.001844 -59658.200000 0 0 1
10.157573 -0.537635 25.282903 27.252349 -0.052880 0.382504 0.002448 -0.008964 208977.000000 0 0 1
10.266573 -1.935435 25.160903 27.243705 -0.186331 0.393561 -0.000819 -0.010364 322194.000000 0 0 1
11.741973 -2.420935 25.326463 28.020788 -0.203329 0.442123 -0.003179 -0.007709 358592.000000 0 0 1
11.847073 -3.784735 25.038533 27.957208 -0.309218 0.461014 0.003631 0.001360 -193648.000000 0 0 1
13.088373 -4.349535 25.387273 28.891826 -0.320839 0.497662 0.004013 0.009519 -116298.000000 0 0 1
12.983973 -5.885835 25.538663 29.248075 -0.425608 0.509119 0.009746 0.004222 -211988.000000 0 0 1
12.845773 -6.611935 24.325793 28.292681 -0.475352 0.535936 0.017513 -0.000346 85070.800000 0 0 1
12.700373 -7.973135 24.599193 28.809558 -0.560601 0.547449 0.026225 -0.010082 -15540.900000 0 0 1
12.677773 -8.827335 23.356453 28.003065 -0.608228 0.584356 0.048226 -0.005167 17428.700000 0 0 1
11.973373 -10.021935 23.528953 28.238493 -0.696909 0.585886 0.032626 0.007852 -654388.000000 0 0 1
11.976873 -10.809935 22.339853 27.556655 -0.734232 0.625470 0.034164 0.003121 216582.000000 0 0 1
11.279173 -12.189235 22.449653 27.924615 -0.824157 0.636909 0.023464 0.015159 1524430.000000 0 0 1
9.846573 -12.090235 22.681553 27.524201 -0.887322 0.602258 0.013911 0.021816 1217780.000000 0 0 1
9.199973 -13.384935 22.479553 27.733126 -0.968619 0.625677 0.015569 0.021292 801531.000000 0 0 1
7.693273 -13.314835 22.895053 27.579970 -1.046863 0.591450 0.005315 0.025244 237230.000000 0 0 1
7.005773 -12.463235 22.071053 26.297233 -1.058699 0.574817 0.010698 0.022777 -708362.000000 0 0 1
5.666673 -12.326135 22.491453 26.266143 -1.139882 0.542752 -0.001569 0.022458 8171.250000 0 0 1
4.897573 -11.209635 21.854553 25.045232 -1.158883 0.510289 -0.010974 0.028096 -117555.000000 0 0 1
5.376173 -9.926135 22.281153 24.977613 -1.074411 0.468947 -0.017627 0.019921 -124068.000000 0 1 0
4.650373 -8.879235 21.679253 23.884237 -1.088341 0.433073 -0.017743 0.024610 -420648.000000 0 1 0
5.249073 -7.539135 21.986953 23.828920 -0.962596 0.395769 -0.020076 0.012387 -134606.000000 0 1 0
4.539473 -6.476535 21.370453 22.787027 -0.959459 0.354460 -0.027523 0.009411 70553.000000 0 1 0
5.091173 -5.201735 21.726453 22.913246 -0.796139 0.323260 -0.010115 -0.003637 -93732.500000 0 1 0
-7.852427 -15.570335 -20.460776 26.883811 1.103699 2.435775 0.018459 0.008887 36441.500000 0 0 1
-7.666427 -14.887035 -19.233676 25.501612 1.095242 2.425253 0.036369 0.000268 54077.700000 0 0 1
-7.002627 -13.641735 -19.542976 24.840726 1.096547 2.476292 0.032286 -0.006156 -220881.000000 0 1 0
-6.116627 -13.224435 -18.405476 23.474675 1.137576 2.471971 0.034459 -0.007932 628026.000000 0 1 0
-5.013827 -14.168135 -18.225576 23.623000 1.230669 2.452020 0.027902 0.007329 126850.000000 0 1 0
-4.113027 -13.704135 -17.319176 22.464954 1.279220 2.451115 0.019142 0.012034 -462344.000000 0 1 0
-3.194727 -14.743335 -16.635376 22.456802 1.357406 2.405016 0.019280 0.017559 75384.100000 0 1 0
-2.029127 -14.995735 -17.398276 23.058392 1.436300 2.425736 0.015036 0.016117 -588213.000000 0 1 0
-1.250027 -15.858335 -16.587476 22.982466 1.492134 2.377116 0.014640 0.019294 -615749.000000 0 1 0
0.094573 -16.133335 -17.264376 23.629476 -1.564934 2.390039 0.007527 0.021501 -435500.000000 0 1 0
0.198973 -16.915935 -18.440276 25.024633 -1.559034 2.399247 0.022952 0.013944 -393912.000000 0 0 1
-0.170527 -18.254435 -18.291476 25.842438 1.561455 2.357186 0.017613 0.017507 -282501.000000 0 0 1
-0.520427 -18.947735 -19.537776 27.221540 1.543337 2.371336 0.030804 0.007716 -124953.000000 0 0 1
-1.847727 -18.707735 -19.954176 27.414642 1.472348 2.386001 0.037831 0.006112 -151208.000000 0 0 1
-2.073927 -18.994435 -21.334276 28.639851 1.462041 2.411205 0.038734 -0.001374 213069.000000 0 0 1
-3.210927 -18.070135 -21.863676 28.545756 1.394939 2.443263 0.040848 -0.005052 242936.000000 0 0 1
-2.940827 -16.663035 -21.917176 27.688767 1.396107 2.484145 0.039418 -0.001504 -391160.000000 0 0 1
-3.415927 -15.934535 -20.861676 26.472391 1.359620 2.478438 0.039215 -0.001915 215397.000000 0 0 1
-2.563827 -14.613235 -20.746676 25.505772 1.397118 2.520789 0.033343 0.003075 287131.000000 0 0 1
-2.691227 -13.638135 -21.757876 25.819501 1.375968 2.573059 0.034487 -0.007014 -5487.910000 0 0 1
-1.857327 -12.503335 -21.534976 24.970748 1.423328 2.610804 0.025222 0.007352 173576.000000 0 1 0
-1.938527 -11.485435 -22.693876 25.508530 1.403591 2.667393 0.032520 0.007872 -425162.000000 0 0 1
-3.125027 -10.768835 -22.709276 25.326761 1.288362 2.682944 0.036589 -0.001004 -437777.000000 0 0 1
-3.229927 -10.114335 -23.979976 26.225397 1.261691 2.724770 0.032901 0.000407 -70410.200000 0 0 1
-4.295227 -8.988635 -23.987676 25.974086 1.125025 2.747964 0.029121 0.000664 -366509.000000 0 0 1
-5.584027 -9.556235 -24.007576 26.436087 1.041976 2.709608 0.003664 0.001116 -96374.000000 0 0 1
-6.482727 -8.469335 -23.887076 26.160042 0.917490 2.721652 0.019128 0.001391 304376.000000 0 0 1
-8.018027 -8.791135 -23.958276 26.750174 0.831359 2.680643 -0.005724 0.003018 1008120.000000 0 0 1
-8.569927 -8.973035 -25.305636 28.183936 0.808372 2.685714 -0.025251 -0.004558 272577.000000 0 0 1
-8.628927 -7.804235 -26.153406 28.624555 0.735256 2.723021 -0.031366 0.000635 -356442.000000 0 0 1
-9.253927 -8.088635 -27.507016 30.128012 0.718306 2.721386 -0.039804 0.006587 54737.300000 0 0 1
-9.838027 -6.992635 -28.207736 30.681592 0.617922 2.737272 -0.029668 -0.001820 278662.000000 0 0 1
-10.279227 -7.348835 -29.530016 32.119927 0.620670 2.737266 -0.006237 -0.010984 -33733.000000 0 0 1
-11.050027 -6.236835 -30.299366 32.848939 0.513845 2.745006 0.010854 -0.016739 110643.000000 0 0 1
-10.184527 -5.224735 -30.756346 32.817301 0.473999 2.785308 -0.024862 -0.006510 1166.310000 0 0 1
-10.825927 -4.566835 -31.791896 33.893677 0.399193 2.787579 0.024897 -0.022902 388672.000000 0 0 1
-9.800827 -3.532635 -32.424466 34.057036 0.345947 2.830709 0.001071 -0.023518 -173172.000000 0 0 1
-8.895827 -4.229635 -33.190356 34.621168 0.443826 2.853095 -0.027939 -0.007214 -1030000.000000 0 0 1
-8.103727 -3.274635 -33.812686 34.924080 0.384027 2.888637 -0.019473 -0.002935 -181810.000000 0 0 1
-7.156327 -3.901435 34.221554 35.178814 0.499130 0.233819 -0.016968 -0.003247 -386124.000000 0 0 1
-6.302027 -4.897835 -34.397713 35.311570 0.660673 2.913592 -0.026884 -0.002852 -255827.000000 0 0 1
-5.201027 -5.123135 33.859443 34.637538 0.777854 0.212361 -0.028443 0.006077 46800.200000 0 0 1
-3.919527 -4.329335 34.182450 34.677741 0.835038 0.169215 -0.023053 0.011480 -551387.000000 0 0 1
-4.075227 -2.878435 34.100570 34.463630 0.614958 0.145280 -0.008471 0.006153 -289068.000000 0 0 1
-2.851827 -2.235335 34.361706 34.552228 0.664801 0.105063 -0.014583 0.005627 -94913.200000 0 0 1
-2.949327 -0.826935 -34.156505 34.293574 0.273362 3.052155 -0.004191 0.003852 -519130.000000 0 0 1
-3.262427 -0.738235 -32.758866 32.929193 0.222536 3.039838 -0.001355 0.004509 242630.000000 0 0 1
-3.322027 0.573265 -32.263616 32.439257 -0.170882 3.037483 0.008909 0.002800 -710403.000000 0 0 1
-3.522427 0.451165 -30.703816 30.908500 -0.127390 3.026444 0.028709 0.002257 709945.000000 0 0 1
-4.717927 -0.223935 -30.301076 30.666989 0.047429 2.986960 0.001583 -0.001328 335096.000000 0 0 1
-5.929727 0.476665 -30.418216 30.994463 -0.080213 2.948461 -0.000713 -0.005342 -469302.000000 0 0 1
-7.164827 -0.427835 -30.353586 31.190671 0.059642 2.909392 -0.008005 -0.003583 -186807.000000 0 0 1
-7.402927 -1.169035 -29.149966 30.098015 0.156622 2.889936 -0.026067 -0.004804 283353.000000 0 0 1
-8.474827 -2.087035 -29.377836 30.646952 0.241458 2.852803 -0.021804 -0.001570 282847.000000 0 0 1
-8.972727 -2.867235 -28.133136 29.668236 0.309295 2.818499 -0.028077 0.002408 -248476.000000 0 0 1
-9.702127 -2.018635 -27.294506 29.037841 0.205134 2.793319 -0.022421 -0.001175 -13598.400000 0 0 1
-9.770127 -2.556135 -25.978976 27.872861 0.255892 2.770834 -0.028883 0.003196 351279.000000 0 0 1
-10.896427 -1.857835 -25.133786 27.457073 0.168876 2.727259 -0.023150 0.006909 553237.000000 0 0 1
-10.586027 -0.494035 -24.905176 27.066138 0.046635 2.739285 -0.003428 0.000323 505769.000000 0 0 1
-11.566527 0.116065 -24.054176 26.690849 -0.010034 2.693360 0.003508 -0.003576 294817.000000 0 0 1
-11.001827 1.300365 -23.283176 25.784442 -0.117649 2.697482 -0.001918 0.003280 48644.800000 0 0 1
-10.550627 2.263365 -24.199176 26.496012 -0.211321 2.722145 -0.007263 0.000936 235790.000000 0 0 1
-9.644427 3.210965 -23.626276 25.720151 -0.321392 2.735294 -0.004158 0.006515 83059.900000 0 0 1
-9.491027 4.462965 -24.583376 26.727140 -0.439549 2.738343 0.002312 0.004708 -367895.000000 0 0 1
-10.654427 5.222765 -24.725976 27.425681 -0.455774 2.694165 0.006726 0.005136 -459537.000000 0 0 1
-11.422927 4.826065 -25.839966 28.661438 -0.399742 2.694155 -0.000078 0.000899 -556726.000000 0 0 1
-12.758027 5.521265 -26.041376 29.519568 -0.408432 2.651254 0.002029 0.003032 -400686.000000 0 0 1
-12.719327 6.859365 -26.458696 30.147882 -0.494581 2.641692 0.009807 0.001500 348268.000000 0 0 1
-14.043627 7.340565 -26.696136 31.044984 -0.481640 2.605905 0.021962 -0.001843 315379.000000 0 0 1
-14.159727 8.872665 -26.959156 31.717789 -0.559758 2.586724 0.030022 -0.001116 -400882.000000 0 0 1
-14.008427 9.567265 -25.738906 30.826285 -0.599201 2.558868 0.040208 -0.009969 101860.000000 0 0 1
-14.463627 10.904865 -25.845606 31.561178 -0.646025 2.530297 0.033734 -0.015815 -201670.000000 0 0 1
-14.231627 11.632665 -24.487376 30.618453 -0.685250 2.497690 0.024467 -0.017188 600656.000000 0 0 1
-15.124627 11.260265 -23.416576 30.064663 -0.639971 2.463664 0.043299 -0.014533 375514.000000 0 0 1
-14.679927 12.045465 -22.343176 29.322534 -0.687140 2.437161 0.035302 -0.013466 60458.500000 0 0 1
-15.589327 11.995665 -21.093576 28.842019 -0.655852 2.391094 0.032948 -0.011508 -30887.500000 0 0 1
-16.773927 12.726265 -21.307676 29.955625 -0.649042 2.362154 0.028067 -0.012265 -3774.420000 0 0 1
-17.413327 13.200465 -20.121476 29.704377 -0.648644 2.315006 0.030531 -0.002657 899038.000000 0 0 1
-18.928827 13.567065 -20.330376 30.914235 -0.621873 2.288475 0.034009 -0.005921 798804.000000 0 0 1
-19.132027 14.573765 -21.348876 32.159036 -0.650977 2.296756 0.018551 -0.004304 128746.000000 0 0 1
-20.495727 14.849165 -21.599376 33.273196 -0.626981 2.277266 0.014154 0.002233 149752.000000 0 0 1
-20.764127 16.209465 -22.293676 34.509473 -0.662829 2.273150 0.005856 -0.002158 -273099.000000 0 0 1
-20.455027 16.214065 -23.664476 35.232250 -0.670255 2.307258 0.009481 -0.004461 209122.000000 0 0 1
-20.457627 17.551865 -24.135776 36.181738 -0.709098 2.301066 -0.003216 0.002689 -74682.700000 0 0 1
-20.260527 17.685865 -25.651006 37.165210 -0.717652 2.332546 -0.007196 -0.000708 -164134.000000 0 0 1
-18.926527 17.358865 -25.966756 36.521446 -0.742221 2.361716 -0.003455 -0.006955 62325.100000 0 0 1
-18.756927 17.045965 -27.355786 37.292442 -0.737646 2.394324 -0.010353 -0.007472 39637.400000 0 0 1
-18.018227 18.075565 -28.216686 38.046865 -0.786987 2.406293 -0.019848 0.006356 -470206.000000 0 0 1
-18.882027 19.159665 -28.394226 39.113371 -0.792696 2.383206 -0.031486 -0.003866 298136.000000 0 0 1
-18.230627 20.428165 -28.490006 39.513872 -0.842182 2.376059 -0.045529 0.004689 -1047390.000000 0 0 1
-19.150527 21.640265 -28.571696 40.637243 -0.846359 2.350532 -0.013208 -0.005131 -234114.000000 0 0 1
-19.932527 21.937065 -27.436936 40.389676 -0.833237 2.317612 -0.004066 0.003323 350439.000000 0 0 1
-21.101027 21.150365 -27.279396 40.456850 -0.786566 2.310791 0.026014 -0.013961 -487067.000000 0 0 1
-22.052527 21.586565 -26.159756 40.455241 -0.774721 2.273960 0.018689 0.002949 -23529.700000 0 0 1
-21.599627 21.264665 -24.861476 39.202332 -0.777584 2.257748 -0.004937 0.010217 825305.000000 0 0 1
-22.606527 21.720565 -23.901876 39.422553 -0.765414 2.222195 -0.009814 0.002734 803175.000000 0 0 1
-22.483827 21.093865 -22.462676 38.145058 -0.753513 2.200463 0.005425 0.016299 -144284.000000 0 0 1
-21.375127 21.650365 -21.767976 37.409613 -0.791795 2.191837 0.009614 0.014062 782752.000000 0 0 1
-20.353827 20.640165 -21.541376 36.115448 -0.792383 2.209878 0.011455 0.017708 432140.000000 0 0 1
-20.594627 19.914265 -20.226476 35.068888 -0.768604 2.185558 0.022120 0.007879 -1087670.000000 0 0 1
-21.642927 18.992965 -20.350876 35.260561 -0.720278 2.186039 0.037892 0.004551 -67991.600000 0 0 1
-22.059027 18.421865 -19.103876 34.509764 -0.695790 2.157452 0.026157 0.006668 -194472.000000 0 0 1
-23.078127 19.296065 -18.364276 35.244641 -0.696380 2.118879 0.016612 0.004293 -387458.000000 0 0 1
-24.370327 19.332965 -18.945076 36.422414 -0.670642 2.117822 0.001991 0.002030 378026.000000 0 0 1
-25.163927 20.396565 -18.484776 37.295174 -0.681139 2.089362 -0.004087 -0.006131 -203652.000000 0 0 1
-26.607307 20.516865 -19.078976 38.638036 -0.656868 2.087236 -0.035226 0.017528 935860.000000 0 0 1
-27.554657 19.505965 -18.747076 38.615989 -0.616009 2.077702 -0.031449 0.013861 331572.000000 0 0 1
-27.809467 19.298765 -17.331276 38.028698 -0.606663 2.044002 -0.041670 0.010968 -1428730.000000 0 0 1
-28.843787 18.206965 -17.105476 38.158288 -0.563064 2.035633 -0.052889 0.018168 -492569.000000 0 0 1
-28.530067 16.848065 -17.396976 37.422945 -0.533432 2.054289 -0.030298 0.014328 -136672.000000 0 0 1
-29.373277 15.975365 -16.701476 37.375674 -0.498128 2.034042 -0.042568 0.013051 -63723.200000 0 0 1
-28.504897 14.817965 -16.126476 35.946689 -0.479393 2.036019 -0.007697 0.012169 -245083.000000 0 0 1
-27.739367 15.131565 -14.994376 34.975249 -0.499375 2.013865 -0.010873 0.009362 62941.500000 0 0 1
-28.400397 15.244065 -13.701676 35.024277 -0.492618 1.972737 -0.040261 0.013067 52004.500000 0 0 1
-27.450177 15.900265 -12.656576 34.154349 -0.525016 1.950419 -0.039337 0.002360 24523.500000 0 0 1
-27.225097 17.317665 -12.786776 34.707478 -0.566536 1.948100 -0.031751 0.003315 16564.200000 0 0 1
-28.351227 18.127165 -12.496876 35.896491 -0.568872 1.926379 -0.043619 0.010264 -185049.000000 0 0 1
-28.158647 19.673665 -12.754476 36.642041 -0.609834 1.926322 -0.003748 -0.000277 67317.800000 0 0 1
-27.223377 20.201765 -11.828476 35.904546 -0.638409 1.906509 -0.042656 -0.018014 198808.000000 0 0 1
-26.411077 21.248865 -12.332976 36.071617 -0.677505 1.919737 -0.034462 -0.019326 552135.000000 0 0 1
-25.517447 21.964865 -11.256576 35.500787 -0.710718 1.893445 -0.020208 -0.009717 175663.000000 0 0 1
-26.228277 22.862165 -10.446976 36.328231 -0.716936 1.862487 -0.030148 -0.014498 -171687.000000 0 0 1
-25.880347 24.226965 -10.555076 36.988482 -0.752413 1.860180 -0.013227 -0.010869 -466259.000000 0 0 1
-26.283157 25.102565 -9.377176 37.534977 -0.762427 1.823296 0.001058 -0.000892 -72879.600000 0 0 1
-25.558467 24.919565 -8.175176 36.620396 -0.772742 1.795935 0.002472 -0.004412 409604.000000 0 0 1
-26.251027 25.638365 -7.122876 37.378838 -0.773592 1.762528 0.013569 -0.007583 88256.800000 0 0 1
-26.037687 25.038565 -5.763376 36.580150 -0.765839 1.729010 0.024127 -0.008457 -21430.200000 0 0 1
-26.661107 23.778165 -5.762576 36.185951 -0.728304 1.730726 0.018900 -0.013769 -151662.000000 0 0 1
-26.332627 22.979565 -4.666176 35.259620 -0.717506 1.703523 0.015670 -0.010787 106258.000000 0 0 1
-26.913797 21.559165 -4.920976 34.833404 -0.675378 1.712542 -0.011697 -0.007253 202189.000000 0 0 1
-26.166007 20.740265 -5.844276 33.896520 -0.670238 1.744077 -0.013714 -0.014698 313563.000000 0 0 1
-26.167377 21.145065 -7.217276 34.408348 -0.679642 1.782119 -0.015622 -0.015199 -196378.000000 0 0 1
-26.998807 20.188665 -8.117376 34.675778 -0.642067 1.807082 -0.032029 -0.014911 -237810.000000 0 0 1
-26.407357 18.919065 -8.198976 33.503772 -0.621669 1.818025 -0.040064 -0.008796 -48923.100000 0 0 1
-26.975007 18.145865 -9.188076 33.783785 -0.592162 1.846233 -0.046570 -0.002875 -621606.000000 0 0 1
-26.494177 16.688265 -9.342176 32.675921 -0.562104 1.860746 -0.035627 -0.002760 -307569.000000 0 0 1
-26.816217 15.724265 -8.424876 32.207771 -0.530338 1.835454 -0.054772 0.006289 -85078.500000 0 0 1
-26.522147 14.414365 -8.903776 31.471819 -0.497827 1.857626 -0.037397 -0.003637 -10979.200000 0 0 1
-27.149877 13.351165 -7.945676 31.281035 -0.457032 1.827620 -0.027209 -0.004237 400356.000000 0 0 1
-28.528557 13.193665 -8.266476 32.500553 -0.433177 1.827971 -0.022119 0.000629 -16537.500000 0 0 1
-29.110367 12.311965 -7.342676 32.448618 -0.400125 1.799060 -0.018998 0.000418 -354612.000000 0 0 1
-29.913617 11.132465 -7.852676 32.869755 -0.356273 1.812032 -0.010557 0.004188 -91561.300000 0 0 1
-29.083587 10.072265 -8.358776 31.893176 -0.333394 1.835980 0.005618 0.008744 441903.000000 0 0 1
-29.866617 8.888965 -8.614876 32.330243 -0.289274 1.840520 -0.000253 0.010908 -78727.700000 0 0 1
-29.015657 7.647665 -9.015976 31.331820 -0.257709 1.862681 0.035961 0.002557 -107728.000000 0 0 1
-28.490377 7.731465 -10.348476 31.282073 -0.264989 1.907960 0.037133 -0.008464 525453.000000 0 0 1
-27.655897 6.608765 -10.642376 30.360905 -0.234565 1.928932 0.055765 -0.013734 -18140.500000 0 0 1
-26.659157 6.701765 -11.807876 29.917390 -0.246284 1.976519 0.055621 -0.021977 -772559.000000 0 0 1
-25.534197 7.494965 -11.641976 29.046606 -0.285507 1.983190 0.062052 -0.017876 -335541.000000 0 0 1
-24.913027 7.559365 -12.874676 29.044108 -0.294601 2.030051 0.053543 -0.008176 -532814.000000 0 0 1
-31.011547 26.494965 -34.291238 53.287787 -0.707019 2.269872 0.009300 0.000447 -138573.000000 0 0 1
-31.346617 27.860065 -34.446067 54.270850 -0.726578 2.258425 0.012135 -0.005402 215100.000000 0 0 1
-31.294047 28.257965 33.298077 53.727012 -0.734460 0.902354 0.011306 -0.011092 -254448.000000 0 0 1
-31.619037 29.729165 32.928763 54.478346 -0.754602 0.921737 0.018621 -0.014323 -43035.300000 0 0 1
-31.621677 30.077765 31.539633 53.845620 -0.760380 0.945001 0.041393 -0.016009 134560.000000 0 0 1
-31.884527 31.443665 31.410763 54.698840 -0.778437 0.959110 0.053108 -0.022889 -216318.000000 0 0 1
-31.522397 32.081765 30.036033 54.083864 -0.794192 0.982000 0.057931 -0.027866 -205921.000000 0 0 1
-30.121977 31.965965 29.926753 53.148536 -0.815089 0.972691 0.041075 -0.024423 -95519.600000 0 0 1
-29.723007 32.696965 28.797913 52.743421 -0.833006 0.993214 0.027530 -0.017264 -195698.000000 0 0 1
-28.302117 32.527265 28.243943 51.543701 -0.854746 0.990871 0.028219 -0.016509 -618883.000000 0 0 1
-28.087617 31.317165 27.532023 50.276150 -0.839710 0.991284 0.044456 -0.021616 1396080.000000 0 0 1
-26.839057 31.224165 26.780963 49.117241 -0.860778 0.994114 0.015874 -0.007838 868682.000000 0 0 1
-26.875557 31.986665 25.431733 48.910278 -0.872013 1.023984 0.009789 -0.015440 -375780.000000 0 0 1
-26.754727 33.395265 25.555173 49.841007 -0.895353 1.032430 -0.002050 -0.016862 871951.000000 0 0 1
-27.848817 33.988065 24.825293 50.468211 -0.884355 1.056526 0.001856 -0.013724 433511.000000 0 0 1
-28.141657 -33.919009 25.265753 50.801676 0.878223 1.050265 0.007845 -0.012124 -50895.300000 0 0 1
-28.842637 -33.987109 26.522243 51.869554 0.867095 1.034069 0.019020 -0.025882 407973.000000 0 0 1
-28.854747 -32.708109 27.126283 51.363918 0.847909 1.014412 0.020562 -0.024502 -255225.000000 0 0 1
-29.208277 -32.746109 28.584303 52.368821 0.842440 0.993421 0.034954 -0.026695 118911.000000 0 0 1
-30.504127 -33.275909 28.821723 53.558189 0.828829 1.002569 0.036168 -0.029133 7856.640000 0 0 1
-30.738717 -33.303409 30.197733 54.459975 0.825424 0.983041 0.028086 -0.029628 178835.000000 0 0 1
-32.235757 -33.579009 30.468833 55.633116 0.805805 0.991214 0.052003 -0.030892 298020.000000 0 0 1
-32.635237 -33.698109 31.855483 56.704436 0.801420 0.974259 0.041246 -0.035160 -1025990.000000 0 0 1
-34.010177 -33.694409 31.973643 57.570124 0.780734 0.981969 0.035537 -0.033717 -714655.000000 0 0 1
-34.552699 -34.015109 33.404752 58.879488 0.777558 0.967523 0.030635 -0.018895 8494.170000 0 0 1
-34.233590 34.035765 33.782630 58.920608 -0.782500 0.960197 0.021546 -0.021278 -411612.000000 0 0 1
35.067641 33.553765 -34.346674 59.458293 0.763340 2.186655 0.019214 -0.015630 -286496.000000 0 0 1
-34.685056 32.115065 -33.932556 58.188047 -0.746944 2.193401 0.014526 -0.017861 596989.000000 0 0 1
-33.610697 31.992865 -33.008096 56.945208 -0.760742 2.189091 0.008340 -0.020681 -111215.000000 0 0 1
-33.320517 30.636465 -32.734886 55.860743 -0.743456 2.196921 0.007624 -0.010540 452292.000000 0 0 1
-32.418047 30.289065 -31.503666 54.413584 -0.751460 2.188257 0.002976 -0.003047 289182.000000 0 0 1
-32.937457 30.587665 -30.221676 54.164850 -0.748425 2.162719 0.003016 -0.017654 -404600.000000 0 0 1
-32.981947 31.970865 -29.876816 54.795704 -0.769833 2.147472 -0.003856 0.002745 232179.000000 0 0 1
-33.945907 32.147365 -28.666456 54.841074 -0.758193 2.120833 -0.006988 0.005345 541164.000000 0 0 1
-33.472307 31.612765 -27.459476 53.607696 -0.756835 2.108576 -0.019687 -0.007714 1167870.000000 0 0 1
-34.701536 31.403765 -26.703356 53.883785 -0.735553 2.089291 0.014722 -0.009491 1235110.000000 0 0 1
-34.421926 31.130865 -25.238096 52.829549 -0.735236 2.068862 0.019890 -0.012987 -88986.200000 0 0 1
-34.093209 32.401665 -24.619176 53.087838 -0.759965 2.053013 0.016164 -0.014326 344214.000000 0 0 1
-33.539797 32.378565 -23.295076 52.114777 -0.767784 2.034200 0.015809 -0.018197 309981.000000 0 0 1
-34.642038 32.185365 -22.219976 52.246491 -0.748653 2.010080 0.017008 -0.018030 624891.000000 0 0 1
34.497387 33.159165 -21.956876 52.646978 0.765621 2.001003 0.021718 -0.023529 408543.000000 0 0 1
34.919483 34.328565 -21.243476 53.377017 0.776865 1.980120 0.025260 -0.023892 -141678.000000 0 0 1
-34.889270 34.114165 -19.740276 52.637590 -0.774166 1.955217 0.013001 -0.015674 -57496.800000 0 0 1
-33.735247 33.363765 -19.502276 51.298601 -0.779862 1.960778 0.009975 -0.015342 -486338.000000 0 0 1
-33.749107 32.994665 -18.122676 50.557705 -0.774095 1.937409 0.007262 0.001712 -102641.000000 0 0 1
-32.571967 32.112665 -17.666476 49.033260 -0.778298 1.939381 0.006809 0.004647 -12401.700000 0 0 1
-32.595177 31.650765 -16.301276 48.269536 -0.770699 1.915283 -0.003803 0.007129 -136555.000000 0 0 1
-31.452547 30.832465 -16.146676 46.910753 -0.775443 1.922183 -0.004807 0.005865 -304130.000000 0 0 1
-31.095137 30.519665 -14.681476 45.977203 -0.776059 1.895809 -0.003474 0.003127 -768536.000000 0 0 1
-31.995417 29.754865 -13.936476 45.861575 -0.749130 1.879560 -0.007914 0.005762 -349752.000000 0 0 1
-31.599277 29.620165 -12.593676 45.105090 -0.753081 1.853765 -0.004407 0.004266 -417819.000000 0 0 1
-32.432217 28.639065 -11.750176 44.834265 -0.723368 1.835974 -0.000671 -0.000213 -177880.000000 0 0 1
-31.943447 28.336065 -10.491676 43.970349 -0.725625 1.811728 0.004535 -0.001439 96933.200000 0 0 1
-32.797127 27.346765 -9.995176 43.856591 -0.695023 1.800723 0.013591 -0.004201 -60312.700000 0 0 1
-32.066267 26.453365 -8.945276 42.521100 -0.689776 1.782752 0.012551 -0.004616 265299.000000 0 0 1
-31.673017 27.032065 -7.708576 42.347782 -0.706507 1.753847 0.019701 -0.015379 475879.000000 0 0 1
-30.428217 27.718165 -7.770776 41.887444 -0.738824 1.757393 0.028463 -0.021020 -130954.000000 0 0 1
-29.913827 28.352665 -6.420776 41.712552 -0.758611 1.725340 0.032594 -0.015901 44254.700000 0 0 1
-29.333007 27.355965 -5.562576 40.493411 -0.750537 1.708602 0.040532 -0.021627 404322.000000 0 0 1
-29.294147 27.835165 -4.252276 40.632810 -0.759865 1.675640 0.039770 -0.021570 396522.000000 0 0 1
-28.415117 26.960265 -3.269076 39.305999 -0.759132 1.654062 0.041435 -0.017056 525970.000000 0 0 1
-29.127597 25.794465 -2.952476 39.019078 -0.724784 1.646536 0.025331 -0.009118 434264.000000 0 0 1
-28.286487 24.962765 -2.202976 37.790449 -0.723061 1.629124 0.017149 -0.006456 679965.000000 0 0 1
-29.160447 23.710965 -1.784376 37.626128 -0.682690 1.618238 0.015480 -0.010212 648229.000000 0 0 1
-29.593257 22.893265 -2.848176 37.522987 -0.658433 1.646774 -0.001219 -0.005346 639110.000000 0 0 1
-30.581297 21.910165 -2.455576 37.700144 -0.621685 1.635977 0.008023 -0.002524 487199.000000 0 0 1
-30.960637 20.999865 -3.614876 37.584873 -0.595997 1.667124 -0.008649 0.000156 7359.390000 0 0 1
-29.879997 20.167965 -4.038276 36.274904 -0.593726 1.682352 -0.027227 0.001101 390502.000000 0 0 1
-30.199167 19.410665 -5.189576 36.272514 -0.571265 1.714361 -0.027917 -0.000719 39082.000000 0 0 1
-28.972107 18.580565 -5.652176 34.879327 -0.570253 1.733564 -0.034620 0.002215 53013.100000 0 0 1
-28.883647 17.417265 -4.857376 34.076682 -0.542633 1.713826 -0.042140 0.008861 100019.000000 0 0 1
-28.169967 16.406165 -5.545376 33.067514 -0.527377 1.739291 -0.052545 0.004840 -308730.000000 0 0 1
-27.779407 15.183365 -4.730776 32.009534 -0.500205 1.719132 -0.043331 0.015520 -602626.000000 0 0 1
-28.842197 14.479665 -4.168176 32.540847 -0.465271 1.699240 -0.010116 0.015188 -274302.000000 0 0 1
-28.445357 13.371665 -3.379576 31.612676 -0.439428 1.677907 0.004014 0.002081 -291212.000000 0 0 1
-29.603367 12.564465 -2.760076 32.277595 -0.401385 1.656411 0.010880 -0.009446 -282080.000000 0 0 1
-30.370387 11.876865 -3.741776 32.824095 -0.372782 1.685039 -0.016327 0.005684 467403.000000 0 0 1
-31.273887 10.992965 -3.074076 33.291909 -0.338016 1.663265 -0.019453 0.010568 -990215.000000 0 0 1
-32.458347 10.583665 -3.886176 34.360742 -0.315199 1.684138 -0.015009 0.016478 -1077190.000000 0 0 1
-32.169767 9.827265 -5.033476 34.011835 -0.296478 1.719334 -0.011815 0.006028 -55578.200000 0 0 1
-33.320067 9.443965 -5.743076 35.105530 -0.276188 1.735130 -0.009639 0.012188 -241734.000000 0 0 1
-33.042627 8.515165 -6.964976 34.825768 -0.252215 1.772149 -0.007696 0.004917 -403794.000000 0 0 1
-32.654917 7.230165 -6.517576 34.074883 -0.217896 1.763254 -0.013919 0.008549 333705.000000 0 0 1
-32.453707 6.350165 -7.569076 33.924307 -0.193227 1.795807 -0.000377 0.010560 -506342.000000 0 0 1
-31.502837 5.227165 -7.108176 32.715106 -0.164429 1.789818 0.010010 0.012351 -218333.000000 0 0 1
-30.206457 5.660265 -6.745476 31.463790 -0.185238 1.786862 0.011618 0.006085 199749.000000 0 0 1
-29.434927 4.530265 -6.359876 30.453017 -0.152710 1.781187 0.004864 0.006138 1274310.000000 0 0 1
-27.871017 4.818665 -6.282776 28.973891 -0.171199 1.789375 0.062696 -0.003777 1129520.000000 0 0 1
-27.226477 5.048965 -7.483876 28.684168 -0.183360 1.834757 0.064390 -0.009943 -591870.000000 0 0 1
-25.859627 4.857665 -7.248876 27.292186 -0.185684 1.839625 0.098607 -0.020601 -387840.000000 0 0 1
-24.938127 5.211365 -8.447776 26.840891 -0.206007 1.890974 0.093165 -0.019443 -156218.000000 0 0 1
-24.891327 4.298265 -9.482976 26.981106 -0.170995 1.929934 0.080026 -0.027021 250834.000000 0 0 1
-23.889327 4.467165 -10.455176 26.456874 -0.184859 1.977058 0.076497 -0.030505 -473045.000000 0 0 1
-24.131427 3.640665 -11.693576 27.061410 -0.149739 2.017630 0.071521 -0.040437 -640275.000000 0 0 1
-25.313937 3.901665 -12.369476 28.443318 -0.152928 2.020703 0.067916 -0.012875 -295836.000000 0 0 1
-25.265187 3.369565 -13.726976 28.950190 -0.132585 2.064804 0.071837 -0.013576 522446.000000 0 0 1
-26.219287 4.118465 -14.734876 30.356702 -0.155805 2.077607 0.054509 -0.011603 -182619.000000 0 0 1
-25.630447 5.277365 -15.249976 30.287492 -0.203064 2.098450 0.049063 -0.013327 69346.600000 0 0 1
-26.340697 6.192765 -16.088876 31.480702 -0.230909 2.107227 0.069946 -0.007652 -135670.000000 0 0 1
-27.043837 5.554265 -17.384776 32.625901 -0.202563 2.132764 0.029486 0.000573 404105.000000 0 0 1
-28.323487 5.044365 -17.008876 33.421062 -0.176250 2.104734 0.031460 -0.016396 373418.000000 0 0 1
-28.919887 4.547565 -18.214176 34.478927 -0.155970 2.127358 0.039150 -0.012846 135649.000000 0 0 1
-30.265317 3.804465 -18.033976 35.435683 -0.125048 2.104728 0.023792 -0.017009 -61507.200000 0 0 1
-30.245577 2.589965 -17.356076 34.967645 -0.085423 2.090182 0.033733 -0.023866 144367.000000 0 0 1
-29.937687 1.413565 -18.115176 35.020321 -0.047182 2.114461 0.050650 -0.022941 -974.068000 0 0 1
-29.968057 0.212765 -17.104376 34.506367 -0.007100 2.089423 0.052842 -0.019634 -227754.000000 0 0 1
-29.613307 -1.025035 -17.661776 34.495463 0.034600 2.108311 0.051813 -0.018036 322869.000000 0 0 1
-29.912277 -1.943535 -16.656976 34.292514 0.064883 2.077997 0.054306 -0.026279 -106252.000000 0 0 1
-29.729047 -3.355435 -17.135076 34.477326 0.112392 2.090929 0.041997 -0.015634 -327166.000000 0 0 1
-30.708347 -3.654635 -18.080576 35.822705 0.118454 2.099858 0.046152 -0.014788 -261690.000000 0 0 1
-30.464497 -4.811935 -18.891176 36.167898 0.156658 2.120364 0.035351 -0.012507 339762.000000 0 0 1
-31.669587 -5.198035 -19.812476 37.716263 0.162683 2.123868 0.041473 -0.010311 357884.000000 0 0 1
-31.508587 -6.487635 -20.297376 38.037665 0.203063 2.133663 0.040149 -0.010813 31556.500000 0 0 1
-32.525457 -6.811035 -21.220276 39.428361 0.206423 2.139094 0.040513 -0.006600 -433857.000000 0 0 1
-32.083877 -7.831135 -22.279976 39.838413 0.239402 2.164288 0.032534 -0.012196 -376948.000000 0 0 1
-31.018187 -7.422035 -23.083376 39.370760 0.234864 2.197290 0.032174 -0.016970 -331686.000000 0 0 1
-30.852867 -8.351435 -24.140976 40.055369 0.264351 2.217664 0.020253 -0.011855 890633.000000 0 0 1
-29.400137 -8.287535 -24.778776 39.332417 0.274758 2.252328 0.017861 -0.011570 790325.000000 0 0 1
-29.097727 -7.065335 -25.465196 39.307415 0.238204 2.275551 0.017245 -0.010915 153927.000000 0 0 1
-28.836007 -7.115435 -26.896856 40.069759 0.241922 2.306691 0.014392 -0.004124 -53744.400000 0 0 1
-30.105707 -7.190135 -27.772486 41.585606 0.234438 2.302098 0.011781 -0.006740 -24483.800000 0 0 1
-30.913187 -8.327635 -27.523086 42.219603 0.263141 2.280888 0.015819 -0.013089 335070.000000 0 0 1
-32.105587 -8.245135 -28.331506 43.605335 0.251381 2.278020 0.018778 -0.011760 1345410.000000 0 0 1
-33.173167 -9.369835 -27.996666 44.407951 0.275281 2.252920 0.022329 -0.009747 -66628.100000 0 0 1
-32.727057 -10.676635 -28.216526 44.510933 0.315346 2.257412 0.017827 -0.009446 88240.000000 0 0 1
-33.611317 -11.734535 -27.796036 45.166797 0.335895 2.233701 -0.005587 -0.006432 1020040.000000 0 0 1
-35.007010 -11.950535 -28.516546 46.706525 0.328971 2.227548 -0.011463 0.002238 858859.000000 0 0 1
34.216813 -10.939935 -28.145616 45.636040 -0.309453 2.235392 -0.018115 0.002781 -83460.900000 0 0 1
33.299866 -10.692035 -29.203736 45.563789 -0.310685 2.266521 -0.016574 0.001493 350587.000000 0 0 1
32.274266 -9.577535 -28.791616 44.298020 -0.288477 2.278318 -0.014813 0.010509 273229.000000 0 0 1
31.257436 -10.030935 -27.919696 43.094737 -0.310531 2.275578 -0.033473 0.018511 -502490.000000 0 0 1
30.482516 -8.944035 -27.542846 42.045070 -0.285405 2.285084 -0.030687 0.016312 94137.300000 0 0 1
29.410566 -9.405435 -26.490106 40.683772 -0.309520 2.279858 -0.040652 0.020816 -120237.000000 0 0 1
29.888366 -9.572735 -25.146446 40.215612 -0.309960 2.246300 -0.044031 0.018936 48512.200000 0 0 1
28.890686 -10.032235 -24.262576 39.038315 -0.334221 2.241461 -0.051971 0.022901 -189338.000000 0 0 1
29.400426 -10.363635 -22.843376 38.647248 -0.338900 2.203186 -0.056635 0.021557 -161650.000000 0 0 1
30.195166 -11.513335 -22.751676 39.521433 -0.364280 2.184231 -0.072447 0.023171 -4925.140000 0 0 1
30.445016 -11.688035 -21.341676 38.974046 -0.366556 2.150274 -0.052474 0.021119 114190.000000 0 0 1
31.476916 -12.824635 -20.978676 39.942113 -0.386895 2.123778 -0.036352 0.018224 -369989.000000 0 0 1
32.713596 -12.448535 -21.490676 41.073039 -0.363611 2.121434 -0.038187 0.018994 -493163.000000 0 0 1
33.702536 -13.363335 -21.001276 41.898607 -0.377493 2.095828 -0.030359 0.022903 950298.000000 0 0 1
-34.998896 -13.248435 -21.591076 43.204379 0.361869 2.094098 -0.023023 0.008479 116937.000000 0 0 1
-34.326247 -12.018635 -21.435876 42.216532 0.336790 2.103379 -0.011674 0.013595 314538.000000 0 0 1
-34.785872 -10.900835 -22.233376 42.699041 0.303677 2.118467 -0.001760 0.006079 -667600.000000 0 0 1
-34.384355 -10.894935 -23.736576 43.178797 0.306850 2.152834 -0.004254 -0.001284 270501.000000 0 0 1
-34.983749 -11.949335 -24.484376 44.341109 0.329144 2.155776 -0.013291 0.005768 680929.000000 0 0 1
33.747956 -11.948635 -24.619376 43.448914 -0.340283 2.173204 -0.012025 0.011375 195069.000000 0 0 1
33.231206 -13.111635 -25.496986 43.889911 -0.375806 2.190668 -0.033226 0.002461 -332563.000000 0 0 1
33.453266 -14.410135 -25.011776 44.185540 -0.406734 2.172518 -0.032754 0.003670 147597.000000 0 0 1
32.516476 -14.777435 -24.035276 43.050996 -0.426557 2.163129 -0.040851 0.005836 -422065.000000 0 0 1
-28.816067 8.259065 -19.710676 35.876017 -0.279131 2.152455 -0.003200 0.004173 444458.000000 0 0 1
-27.709247 7.619965 -20.347176 35.211842 -0.268364 2.186889 -0.001896 -0.002601 660860.000000 0 0 1
-26.559547 8.464965 -20.384276 34.533808 -0.308538 2.202190 0.012431 -0.001294 333221.000000 0 0 1
-25.326187 7.801865 -21.014276 33.821364 -0.298830 2.241237 0.012280 0.005881 -715657.000000 0 0 1
-24.868227 6.691065 -20.313176 32.799759 -0.262836 2.238658 0.026347 0.012777 -64002.900000 0 0 1
-23.610127 6.146665 -20.628576 31.949299 -0.254687 2.272691 0.034140 -0.000921 -481202.000000 0 0 1
-22.427227 6.894365 -20.065176 30.872707 -0.298241 2.278292 0.012751 0.001637 -1148730.000000 0 0 1
-22.003727 7.993865 -20.795076 31.312954 -0.348470 2.297092 0.007776 -0.000601 -129105.000000 0 0 1
-20.901827 8.580765 -20.125676 30.258201 -0.389548 2.298466 -0.004599 -0.000124 129255.000000 0 0 1
-20.200527 9.739965 -20.855576 30.624880 -0.449277 2.319925 0.004023 0.002718 -574611.000000 0 0 1
-19.512127 9.326765 -21.994476 30.845885 -0.445892 2.364627 0.029523 -0.008772 -170058.000000 0 0 1
-18.823127 10.359565 -22.649876 31.219346 -0.503122 2.382568 0.026895 -0.009299 -239973.000000 0 0 1
-17.825727 9.756265 -23.657676 31.186966 -0.500778 2.431921 0.034703 -0.010445 -712530.000000 0 0 1
-18.417427 9.008565 -24.662276 32.071541 -0.454916 2.448036 0.028240 -0.010374 -684175.000000 0 0 1
-17.514927 8.369665 -25.508316 32.054612 -0.445778 2.491086 0.018784 0.000897 -883439.000000 0 0 1
-18.096227 7.371265 -26.535276 32.953450 -0.386815 2.506868 0.009472 0.006787 -344645.000000 0 0 1
-18.473727 6.140265 -25.969976 32.456449 -0.320891 2.498339 0.019332 0.003479 377726.000000 0 0 1
-19.203027 5.356565 -26.937946 33.512714 -0.272029 2.504473 0.011538 0.000570 -333313.000000 0 0 1
-19.692327 4.006965 -26.286276 33.087941 -0.200738 2.488876 0.005088 0.008690 248352.000000 0 0 1
-18.679627 3.013365 -26.156926 32.283024 -0.159940 2.515354 0.017507 0.007331 769160.000000 0 0 1
-17.556227 3.393865 -25.354536 31.025666 -0.190959 2.527353 0.012468 0.006327 -36851.100000 0 0 1
-16.766827 2.196665 -24.753776 29.978346 -0.130271 2.542277 0.013841 0.004027 3756.730000 0 0 1
-17.423527 1.483365 -23.728876 29.476079 -0.084931 2.506508 0.015382 0.003649 559050.000000 0 0 1
-18.431027 0.548265 -24.153576 30.387474 -0.029738 2.489562 0.019800 0.001789 241533.000000 0 0 1
-19.056327 -0.201235 -22.950676 29.831487 0.010560 2.448610 0.011461 0.006864 -58998.700000 0 0 1
-18.245327 -1.212535 -22.463176 28.964745 0.066360 2.458359 0.017069 0.006594 173156.000000 0 0 1
-19.001427 -1.756135 -21.406976 28.677463 0.092159 2.413543 0.004813 0.001957 -135482.000000 0 0 1
-18.599027 -3.118835 -20.882576 28.137749 0.166142 2.407077 0.010335 -0.009372 -256545.000000 0 0 1
-18.767927 -4.202735 -21.781476 29.057370 0.220297 2.418258 0.008728 -0.017442 294970.000000 0 0 1
-18.689827 -5.449835 -21.126176 28.728482 0.283727 2.397015 0.012353 -0.015564 -269721.000000 0 0 1
-18.785227 -6.569535 -22.214176 29.824707 0.336424 2.411068 0.004714 -0.015376 -268161.000000 0 0 1
-17.573627 -6.629635 -22.916976 29.630596 0.360741 2.455019 0.008356 -0.008454 -94246.300000 0 0 1
-17.549727 -7.611435 -23.915676 30.624931 0.409222 2.466937 0.010121 -0.011727 -283678.000000 0 0 1
-16.274727 -7.565635 -24.746276 30.569327 0.435151 2.514119 0.023273 -0.013579 -813000.000000 0 0 1
-16.214427 -8.578435 -25.745016 31.611755 0.486626 2.522513 0.020282 -0.018819 670855.000000 0 0 1
-14.899427 -8.593735 -26.316276 31.438696 0.523173 2.562695 0.020393 -0.014138 1175960.000000 0 0 1
-13.772227 -9.404835 -25.571596 30.529194 0.599146 2.563692 0.024524 -0.018249 -154268.000000 0 0 1
-13.408527 -8.730235 -24.386176 29.166611 0.577145 2.560930 0.002898 -0.003307 46657.000000 0 0 1
-12.466627 -9.601135 -23.760076 28.498067 0.656271 2.556649 -0.012728 0.000035 120305.000000 0 0 1
-11.564427 -9.006135 -22.671176 26.996827 0.661667 2.567659 -0.008193 0.005453 -298496.000000 0 0 1
-12.202927 -8.761135 -21.441776 26.180502 0.622674 2.530459 -0.006276 0.004606 251323.000000 0 0 1
-11.413027 -7.913435 -20.581776 24.829200 0.606262 2.547996 -0.005539 0.009150 -878444.000000 0 1 0
-12.054827 -7.585035 -19.222276 23.923786 0.561622 2.503914 -0.004957 0.005354 -182970.000000 0 1 0
-13.064327 -6.605435 -19.224276 24.163634 0.468124 2.490772 -0.011322 0.002989 -125204.000000 0 1 0
-14.297627 -7.050535 -19.744876 25.377004 0.458134 2.462371 -0.003101 -0.004496 -902265.000000 0 0 1
-15.392227 -5.978135 -19.634176 25.654622 0.370455 2.442346 0.003529 0.001182 -324117.000000 0 0 1
-15.686727 -5.661435 -18.270576 24.737405 0.346357 2.401759 0.007913 0.001070 134765.000000 0 1 0
-15.158327 -4.387835 -18.008476 23.944377 0.281766 2.422033 0.004358 0.005604 -404898.000000 0 1 0
-14.857227 -4.046535 -16.496576 22.566539 0.265911 2.390611 0.005131 0.010775 -18598.300000 0 1 0
-15.942927 -3.882435 -15.603576 22.643361 0.238871 2.331045 0.009466 0.005506 44078.800000 0 1 0
-16.596827 -2.601735 -15.775976 23.045718 0.155496 2.324784 -0.009059 0.002513 226747.000000 0 1 0
-17.865627 -2.424435 -14.919576 23.401971 0.134880 2.262091 -0.001739 -0.001105 128398.000000 0 1 0
-17.519427 -2.451135 -13.514776 22.261796 0.139007 2.223182 0.006891 -0.009641 141780.000000 0 1 0
-18.522827 -1.835435 -12.799076 22.589384 0.098768 2.173166 0.003315 -0.009858 -512183.000000 0 1 0
-18.019227 -0.551135 -12.111976 21.718569 0.030576 2.162383 0.008444 -0.006201 134568.000000 0 1 0
-17.627827 0.524365 -12.980276 21.897553 -0.029738 2.205294 0.013838 -0.006831 834738.000000 0 1 0
-16.741427 1.504965 -12.445176 20.914653 -0.089654 2.208119 0.023914 -0.003045 -462157.000000 0 1 0
-16.234627 2.587565 -13.384876 21.199375 -0.158056 2.254129 0.030466 -0.003229 -33982.000000 0 1 0
-15.412127 2.324365 -14.497376 21.286386 -0.149686 2.320010 0.016838 -0.006950 924433.000000 0 1 0
-14.113327 1.810865 -14.163376 20.076515 -0.127612 2.353882 0.013857 -0.007980 -128363.000000 0 1 0
-13.621827 0.717465 -15.185576 20.412512 -0.052622 2.409736 0.010954 -0.012737 -106269.000000 0 1 0
-13.221127 1.291565 -16.399776 21.104952 -0.097380 2.460775 0.005460 -0.010805 172248.000000 0 1 0
-12.998127 0.305465 -17.364776 21.692857 -0.023496 2.498898 0.004121 -0.001713 -80447.500000 0 1 0
-12.319327 0.903865 -18.612776 22.338716 -0.073238 2.555679 0.008339 -0.001429 -881171.000000 0 1 0
-11.011727 1.324265 -18.434976 21.514185 -0.119685 2.599974 -0.012257 -0.001286 -949885.000000 0 1 0
-10.629327 2.129065 -19.531076 22.337825 -0.197685 2.634891 -0.012170 0.000113 -436830.000000 0 1 0
-9.294427 2.796065 -19.203376 21.516831 -0.292220 2.673613 -0.008377 -0.006297 -1496650.000000 0 1 0
-8.325027 1.788465 -19.275076 21.072096 -0.211614 2.725612 -0.002221 -0.001608 -1115980.000000 0 1 0
-7.014927 2.213265 -19.036576 20.408306 -0.305623 2.772862 -0.003407 -0.002134 108505.000000 0 1 0
-6.367227 3.268965 -19.992376 21.234943 -0.474314 2.797805 -0.000246 0.004850 -1018210.000000 0 1 0
-6.143227 2.799465 -21.276576 22.321938 -0.427583 2.834343 -0.008209 0.002276 96748.000000 0 1 0
-5.724527 3.840265 -22.163776 23.211006 -0.590889 2.840059 -0.005560 0.000743 -147656.000000 0 1 0
-5.398327 3.394265 -23.620876 24.466482 -0.561300 2.877916 0.007677 0.000528 122753.000000 0 1 0
-4.109227 2.814065 -23.715276 24.232603 -0.600463 2.934591 0.022393 -0.006536 -97128.300000 0 1 0
-3.805827 2.228565 -24.975076 25.361491 -0.529739 2.966806 0.018892 -0.004570 -423197.000000 0 0 1
-2.407527 1.613965 -24.994376 25.161874 -0.590571 3.026144 0.014223 -0.005384 -301052.000000 0 0 1
-1.393727 2.628465 -24.872676 25.049976 -1.083247 3.022545 0.016309 -0.007054 877932.000000 0 0 1
-0.043727 2.156565 -24.932176 25.025309 -1.550523 3.055293 0.016829 -0.004758 834674.000000 0 0 1
0.611973 1.282365 -23.843776 23.886076 1.125536 3.082071 0.017977 -0.004019 -646936.000000 0 1 0
0.086773 -0.020435 -23.716576 23.716744 -0.231290 3.137834 0.026389 -0.009333 -272784.000000 0 1 0
0.737573 -0.698435 -22.690476 22.713202 -0.758150 3.096855 0.028016 -0.009586 -617856.000000 0 1 0
0.437773 -2.276435 -22.661576 22.779834 -1.380809 3.039653 0.040426 -0.018061 529975.000000 0 1 0
-0.810527 -2.815035 -22.201076 22.393507 1.290451 3.010402 0.037172 -0.009908 1080160.000000 0 1 0
-1.965927 -2.767835 -23.043276 23.292023 0.953207 2.995315 0.034366 -0.007300 739509.000000 0 1 0
-2.838727 -1.496535 -22.955476 23.178694 0.485159 3.002698 0.028365 -0.005299 -1385480.000000 0 1 0
-3.235627 -1.199635 -21.634676 21.908163 0.355047 2.983419 0.019052 -0.007420 264532.000000 0 1 0
-4.167727 -0.149635 -21.497676 21.898457 0.035888 2.949979 0.012525 -0.009451 819200.000000 0 1 0
-5.579427 -0.342235 -22.133576 22.828542 0.061262 2.894212 0.004706 -0.006007 -394691.000000 0 1 0
-6.369727 -1.333735 -21.527976 22.490132 0.206405 2.848029 0.006312 0.001617 110854.000000 0 1 0
-7.733827 -1.139735 -21.878776 23.233422 0.146317 2.798426 -0.013642 0.014112 364823.000000 0 1 0
-8.674527 -2.217735 -21.325376 23.128714 0.250299 2.744089 -0.008602 0.000811 -416873.000000 0 1 0
-8.804427 -3.191735 -22.332776 24.216895 0.347780 2.744523 0.016946 -0.002931 59684.900000 0 1 0
-9.127127 -4.477735 -21.824876 24.076540 0.456096 2.705665 -0.009170 0.001563 -895552.000000 0 1 0
-9.798227 -5.386135 -22.877676 25.463774 0.502617 2.687000 -0.018890 0.009007 851088.000000 0 0 1
-11.199227 -5.063335 -22.829776 25.927953 0.424611 2.647730 -0.013899 0.010580 416112.000000 0 0 1
-11.948227 -5.427835 -23.952676 27.312126 0.426407 2.640374 -0.020602 0.004966 152741.000000 0 0 1
-13.456427 -5.176035 -23.713376 27.752315 0.367205 2.595316 0.014494 -0.005025 55128.200000 0 0 1
-13.882127 -3.889335 -24.094076 28.077836 0.273165 2.602388 0.006617 -0.003059 -1243460.000000 0 0 1
-15.237927 -3.716535 -23.993476 28.665204 0.239230 2.562619 0.019764 0.001339 -1035380.000000 0 0 1
-15.671927 -2.388435 -24.604576 29.269422 0.151238 2.569230 0.016158 -0.008511 -240107.000000 0 0 1
-15.298927 -2.285735 -25.951236 30.211726 0.148308 2.604068 0.024266 -0.009254 126812.000000 0 0 1
-15.580527 -1.025135 -26.566436 30.815244 0.065701 2.610235 0.016802 -0.008234 500966.000000 0 0 1
-17.057927 -0.910735 -27.095256 32.030536 0.053340 2.579083 0.026912 -0.006067 349019.000000 0 0 1
-17.292227 -1.520835 -28.360086 33.250993 0.087723 2.592330 0.033585 -0.016334 192217.000000 0 0 1
-16.856927 -0.714235 -29.456336 33.946161 0.042345 2.621427 0.024904 -0.009585 -250434.000000 0 0 1
-16.838227 -1.444935 -30.771826 35.107250 0.085603 2.639358 0.029436 -0.013446 1526810.000000 0 0 1
-18.211727 -1.681335 -31.201586 36.166737 0.092061 2.611411 0.020678 -0.010127 1590500.000000 0 0 1
-18.214327 -2.507435 -32.362356 37.220573 0.136803 2.624935 0.022191 -0.013059 -851008.000000 0 0 1
-19.545927 -3.148235 -32.705956 38.231325 0.159697 2.597264 -0.000377 -0.007640 937497.000000 0 0 1
-20.703627 -2.299935 -33.063206 39.078197 0.110635 2.579381 0.004442 -0.007655 2160410.000000 0 0 1
-21.394227 -1.741235 -31.917876 38.464213 0.081209 2.549558 -0.000894 0.005483 -272404.000000 0 0 1
-22.391927 -0.615735 -32.216396 39.238676 0.027491 2.534021 0.008656 0.000681 -525510.000000 0 0 1
-21.857627 0.526465 -32.806836 39.424884 -0.024081 2.553743 0.011211 -0.005958 932531.000000 0 0 1
-22.871327 1.251765 -33.569406 40.639507 -0.054676 2.542822 0.003219 -0.003944 721715.000000 0 0 1
-22.361627 2.656265 -34.066629 40.836666 -0.118233 2.557507 0.001284 -0.002800 -655915.000000 0 0 1
-21.983027 3.599365 -33.069476 39.872285 -0.162294 2.548802 -0.010962 -0.005570 568151.000000 0 0 1
-22.937727 4.376065 -32.321016 39.874018 -0.188515 2.515935 -0.029160 -0.000130 -691327.000000 0 0 1
-24.083227 5.109365 -33.010206 41.179863 -0.209055 2.500780 -0.029370 -0.001629 -904845.000000 0 0 1
-25.217027 4.305665 -33.097536 41.831616 -0.169113 2.483579 -0.001445 -0.013065 224525.000000 0 0 1
-26.246477 4.898865 -33.911556 43.160978 -0.184525 2.474622 0.008874 -0.016892 213376.000000 0 0 1
-27.492067 4.034765 -34.139220 44.017944 -0.145721 2.458422 0.026980 -0.015127 -323477.000000 0 0 1
-27.311807 2.982465 34.066379 43.764690 -0.108770 0.678685 0.037126 -0.013555 -91493.200000 0 0 1
-28.537087 2.399365 33.757374 44.268302 -0.083882 0.703530 0.037513 -0.010775 -526793.000000 0 0 1
-28.416047 0.898465 33.400170 43.861718 -0.031608 0.705191 0.032211 0.000932 -472823.000000 0 0 1
-28.376907 0.101665 -34.526370 44.691492 -0.003583 2.453642 0.021218 0.005405 218835.000000 0 0 1
-28.371987 -1.297835 34.299235 44.531916 0.045712 0.691615 0.006112 0.007830 -1087410.000000 0 0 1
-28.061747 -2.202035 -33.610376 43.840255 0.078311 2.444412 -0.025259 0.014722 1202180.000000 0 0 1
-26.693157 -2.182135 -33.116326 42.590814 0.081567 2.461551 -0.000901 0.007350 1604130.000000 0 0 1
-26.076067 -0.930535 -32.825986 41.932953 0.035670 2.469982 -0.000589 0.011218 -1166700.000000 0 0 1
-26.305987 -0.391435 -31.419536 40.979817 0.014879 2.444493 0.010784 0.011289 -483687.000000 0 0 1
-25.606507 -1.058435 -30.398226 39.760101 0.041311 2.441125 0.007890 0.004600 398774.000000 0 0 1
-26.023747 -0.634835 -29.136076 39.071081 0.024390 2.412411 0.006215 -0.002655 -135638.000000 0 0 1
-25.066027 -1.194235 -28.064506 37.647688 0.047608 2.412008 0.004548 -0.005408 -35575.400000 0 0 1
-25.143367 -2.582035 -27.750216 37.535720 0.102334 2.402829 -0.009516 0.004165 280389.000000 0 0 1
-24.039527 -2.980035 -26.953926 36.239393 0.123335 2.409495 -0.001121 -0.001979 72603.400000 0 0 1
-24.302227 -4.221035 -26.115946 35.922946 0.171974 2.384738 -0.005419 -0.005046 -130837.000000 0 0 1
-25.373367 -4.170835 -25.207756 36.008813 0.162922 2.346256 0.007283 -0.002155 -242884.000000 0 0 1
-25.574627 -5.459635 -24.614676 35.913110 0.210322 2.325943 0.002660 -0.009113 526210.000000 0 0 1
-26.763027 -5.336535 -23.606376 36.083226 0.196818 2.283947 0.016770 -0.016673 373539.000000 0 0 1
-26.952617 -6.480835 -22.753476 35.863149 0.235973 2.258097 0.005515 -0.015531 274015.000000 0 0 1
-27.987627 -6.229135 -21.786176 36.010372 0.218998 2.220559 0.020323 -0.012317 459954.000000 0 0 1
-28.338607 -7.501035 -20.964276 36.039465 0.258759 2.191618 0.021055 -0.017680 196660.000000 0 0 1
-27.376877 -7.673835 -19.921576 34.716715 0.273290 2.181974 0.012587 -0.016371 625013.000000 0 0 1
-27.855057 -8.615635 -18.926476 34.761255 0.299969 2.146554 0.027024 -0.008674 296101.000000 0 0 1
-28.550707 -8.069035 -17.640976 34.517477 0.275438 2.107230 0.025411 -0.010462 -327001.000000 0 0 1
-27.705227 -7.539835 -16.685176 33.208791 0.265710 2.097206 0.030800 -0.023744 -833.110000 0 0 1
-28.424017 -6.857035 -15.639176 33.159124 0.236718 2.061946 0.025464 -0.017494 159351.000000 0 0 1
-27.458457 -6.076035 -14.769676 31.765207 0.217772 2.054390 0.028861 -0.015321 161285.000000 0 0 1
-26.689237 -4.984035 -15.277276 31.153670 0.184617 2.083327 0.029815 -0.012046 203557.000000 0 0 1
-25.832287 -4.487035 -14.305376 29.867781 0.171983 2.070262 0.025928 -0.016101 -637989.000000 0 0 1
-13.990727 21.936365 -5.056576 26.504971 -1.003055 1.762751 0.001799 -0.006379 -32036.000000 0 0 1
-13.769627 21.052165 -6.067476 25.876834 -0.991564 1.807475 0.015631 -0.010215 566581.000000 0 0 1
-14.779927 20.029265 -5.915176 25.585288 -0.935074 1.804102 0.029798 -0.019501 423711.000000 0 0 1
-15.005227 19.328865 -7.288376 25.531985 -0.910667 1.860283 0.046439 -0.022133 -686117.000000 0 0 1
-13.854727 18.790665 -7.905176 24.648212 -0.935460 1.897286 0.032236 -0.017245 77151.300000 0 1 0
-14.159527 17.779765 -8.880076 24.402213 -0.898264 1.943253 0.027170 -0.016305 -360843.000000 0 1 0
-14.672327 16.391465 -8.368176 23.536857 -0.840684 1.934283 0.028449 -0.006873 1185130.000000 0 1 0
-15.995027 16.462665 -7.772576 24.233719 -0.799805 1.897301 0.040091 0.005663 1124380.000000 0 1 0
-16.311927 15.209465 -7.278276 23.460181 -0.750437 1.886241 0.055004 -0.002330 -141936.000000 0 1 0
-17.797027 15.008965 -6.940276 24.293427 -0.700616 1.860518 0.067846 -0.014203 -61474.800000 0 1 0
-18.707027 14.976365 -7.994576 25.261781 -0.675091 1.892801 0.064430 -0.003270 847881.000000 0 0 1
-20.085427 15.153565 -7.630476 26.292186 -0.646347 1.865251 0.037560 -0.006689 843506.000000 0 0 1
-21.137327 14.497365 -8.522276 27.010912 -0.601177 1.891793 0.039488 0.000047 -404577.000000 0 0 1
-21.438927 13.241065 -7.987676 26.434000 -0.553273 1.877769 0.068122 -0.005159 -283137.000000 0 0 1
-22.010127 12.518065 -8.975776 26.864701 -0.517118 1.911458 0.052126 -0.005530 -457781.000000 0 0 1
-22.286227 11.078665 -8.522876 26.306884 -0.461331 1.900729 0.039933 -0.010206 -462032.000000 0 0 1
-21.232827 10.182965 -8.369076 24.991341 -0.447183 1.912273 0.050196 -0.009164 -338346.000000 0 1 0
-21.711327 9.065065 -7.571376 24.716044 -0.395524 1.882136 0.058156 -0.017981 69505.500000 0 1 0
-20.604627 8.080265 -7.192076 23.271598 -0.373728 1.884990 0.051356 -0.009064 -363387.000000 0 1 0
-20.280727 7.124565 -8.147376 22.987976 -0.337830 1.933089 0.045031 -0.009313 50323.800000 0 1 0
-19.437627 6.129065 -7.653376 21.770644 -0.305452 1.930018 0.047609 0.001736 -295925.000000 0 1 0
-19.132127 5.020165 -8.577876 21.559691 -0.256610 1.979986 0.024494 -0.010983 -444369.000000 0 1 0
-20.247927 4.144365 -8.566076 22.372572 -0.201892 1.963711 0.044133 -0.006313 811757.000000 0 1 0
-20.120927 3.266365 -9.624176 22.542085 -0.160933 2.011905 0.030371 -0.001700 -217708.000000 0 1 0
-21.103127 2.121265 -9.487776 23.234879 -0.100182 1.991433 0.030811 -0.007136 -218809.000000 0 1 0
-20.590827 1.276765 -8.463476 22.298940 -0.061927 1.960102 0.015863 -0.009079 133280.000000 0 1 0
-21.459127 0.297465 -8.037076 22.916745 -0.013861 1.929123 0.034760 -0.007941 -546184.000000 0 1 0
-21.588527 -0.922235 -8.982976 23.401044 0.042693 1.964781 0.011928 -0.013126 -6187.290000 0 1 0
-20.377727 -1.658035 -8.932976 22.311407 0.081186 1.982725 0.000041 -0.001536 352134.000000 0 1 0
-20.332627 -3.016835 -9.468776 22.631278 0.147299 2.002472 -0.018039 0.002055 -687961.000000 0 1 0
-21.080627 -4.160135 -8.774776 23.209831 0.194840 1.958499 -0.029538 0.000994 -176734.000000 0 1 0
-20.795127 -4.361235 -7.406176 22.501314 0.206728 1.906193 -0.031088 0.004286 403950.000000 0 1 0
-21.890127 -5.060935 -6.826076 23.481611 0.227205 1.865753 -0.003142 0.005020 -143616.000000 0 1 0
-21.913727 -6.599535 -7.005976 23.934264 0.292521 1.867864 -0.014787 -0.003352 -277326.000000 0 1 0
-20.940627 -7.355935 -6.301376 23.072212 0.337811 1.847426 -0.024517 -0.002679 506701.000000 0 1 0
-21.000827 -8.694235 -6.668676 23.687459 0.392512 1.856182 -0.023965 0.002038 -474210.000000 0 1 0
-20.099227 -9.679535 -5.889876 23.072992 0.448809 1.828925 -0.016843 0.002820 -275770.000000 0 1 0
-18.754227 -9.544435 -6.278276 21.959828 0.470760 1.860740 -0.018624 0.002965 -221677.000000 0 1 0
-17.877827 -10.413035 -5.612776 21.437147 0.527419 1.835709 -0.007099 0.003468 -281126.000000 0 1 0
-17.439427 -11.731035 -6.360176 21.959113 0.592149 1.864644 0.002976 0.012483 -452314.000000 0 1 0
-16.344527 -11.551935 -7.232576 21.281469 0.615260 1.917557 0.000621 0.006385 142379.000000 0 1 0
-16.624727 -10.768735 -8.346776 21.494555 0.574795 1.969605 -0.000597 -0.003686 -282921.000000 0 1 0
-15.573827 -11.015735 -9.455676 21.290851 0.615624 2.030987 0.008992 -0.003033 189570.000000 0 1 0
-15.783727 -12.233635 -10.160476 22.405873 0.659359 2.041455 0.016584 -0.003451 406738.000000 0 1 0
-14.709027 -12.733235 -10.976376 22.337672 0.713524 2.084475 0.016151 0.006057 480773.000000 0 1 0
-15.075027 -14.117235 -11.689476 23.731764 0.752600 2.085833 0.033154 0.003314 602240.000000 0 1 0
-15.877427 -14.069235 -12.898876 24.827748 0.725091 2.117103 0.024648 0.003226 513514.000000 0 1 0
-16.023527 -15.394435 -13.376076 25.935718 0.765378 2.112667 0.021712 0.008959 -109124.000000 0 0 1
-16.254127 -15.389135 -14.937276 26.909930 0.758069 2.159260 0.025216 0.011765 28260.800000 0 0 1
-16.322727 -16.689735 -15.516976 28.031326 0.796515 2.157427 0.027851 0.012337 97806.200000 0 0 1
-16.377427 -16.633235 -16.904476 28.820929 0.793147 2.197570 0.017432 0.010007 -177773.000000 0 0 1
-16.754427 -17.951735 -17.625876 30.226596 0.819883 2.193366 0.018792 0.002824 12202.400000 0 0 1
-18.067527 -18.356335 -17.304276 31.029479 0.793327 2.162375 0.012059 0.005487 364073.000000 0 0 1
-18.967027 -18.338635 -18.451176 32.194713 0.768555 2.181095 0.008104 0.004967 1191370.000000 0 0 1
-20.472527 -18.167535 -18.063576 32.794458 0.725816 2.154133 0.000919 0.003643 491270.000000 0 0 1
-20.727427 -16.905535 -17.484476 31.955129 0.684188 2.149760 -0.007318 0.012230 56741.000000 0 0 1
-20.698927 -16.872135 -16.062076 31.162555 0.683893 2.112304 -0.010029 0.007622 -162246.000000 0 0 1
-20.665527 -15.410935 -15.532676 30.096926 0.640764 2.113074 -0.000341 0.002603 469562.000000 0 0 1
-21.869127 -14.668335 -15.726376 30.671447 0.590812 2.109166 0.002942 0.006646 704872.000000 0 0 1
-21.667727 -13.409535 -15.098476 29.618744 0.554180 2.105703 0.010692 0.006236 -281542.000000 0 0 1
-23.020127 -12.754235 -14.792676 30.189734 0.505945 2.082875 0.018513 -0.003569 -604424.000000 0 0 1
-23.642127 -13.301735 -13.704876 30.392597 0.512487 2.038601 0.015895 0.006157 193541.000000 0 0 1
-24.698127 -12.427735 -13.296876 30.679847 0.466193 2.019067 0.031050 0.001866 74755.800000 0 0 1
-25.540207 -12.862435 -12.091676 31.047593 0.466536 1.970837 0.028347 0.002760 -725132.000000 0 0 1
-26.360387 -11.924335 -11.544176 31.150085 0.424813 1.950450 0.023114 -0.010347 -266342.000000 0 0 1
-26.882047 -12.404935 -10.262576 31.334443 0.432341 1.904471 0.004345 -0.003016 681580.000000 0 0 1
-27.803387 -11.385235 -9.478576 31.503894 0.388661 1.876401 0.025496 -0.012201 306969.000000 0 0 1
-27.058757 -10.269935 -8.998076 30.308634 0.362747 1.872222 0.027495 -0.016318 -167203.000000 0 0 1
-27.821097 -9.238635 -8.455976 30.510152 0.320616 1.851626 0.047611 -0.021803 -400224.000000 0 0 1
-26.983177 -8.045735 -7.879676 29.238929 0.289783 1.843662 0.033679 -0.010054 -45898.500000 0 0 1
-26.237487 -8.461935 -6.763076 28.385723 0.311981 1.811366 0.007384 -0.013563 55752.900000 0 0 1
-25.413717 -7.484835 -6.083476 27.182503 0.286421 1.796509 0.004336 -0.010933 -32606.800000 0 0 1
-26.069907 -6.401235 -5.207676 27.344757 0.240778 1.762412 0.014333 -0.018216 -785400.000000 0 0 1
-26.695557 -6.845235 -4.008976 27.849271 0.251010 1.715251 0.005755 -0.014773 -276603.000000 0 0 1
-25.890857 -6.997035 -2.881576 26.974033 0.263946 1.677828 0.021795 -0.002375 -511562.000000 0 0 1
-25.580377 -5.699535 -2.113576 26.292729 0.219228 1.651269 0.019545 -0.004508 -1239690.000000 0 0 1
-26.629537 -5.119735 -1.478476 27.157500 0.189940 1.625264 0.018346 -0.007612 -955057.000000 0 0 1
-26.332627 -3.858735 -0.903476 26.629182 0.145503 1.604731 0.004816 -0.005895 -1088700.000000 0 0 1
-27.559717 -3.132435 -0.370776 27.739640 0.113174 1.584163 0.004584 -0.005542 -629550.000000 0 0 1
-28.237547 -3.670935 0.776624 28.485750 0.129277 1.543529 0.008149 -0.002392 -19224.000000 0 0 1
-27.497007 -3.684335 1.967424 27.812416 0.133197 1.499998 0.001358 -0.003130 -525290.000000 0 0 1
-28.323797 -4.007435 3.215124 28.786004 0.140554 1.458872 -0.012179 -0.003370 -281653.000000 0 0 1
-28.610927 -5.389935 3.342524 29.305443 0.186205 1.456489 -0.001857 -0.010374 555904.000000 0 0 1
-29.670657 -5.571035 4.297624 30.493506 0.185601 1.429390 0.013783 -0.014167 316811.000000 0 0 1
-30.449967 -6.894835 4.142024 31.494374 0.222677 1.438898 0.010678 -0.012382 -111119.000000 0 0 1
-29.701737 -8.068735 4.407724 31.092213 0.265257 1.428554 0.008075 -0.003947 94067.000000 0 0 1
-30.345397 -9.216935 3.921924 31.955852 0.294879 1.447757 0.037234 -0.011831 -198895.000000 0 0 1
-29.547677 -10.430435 4.362324 31.636831 0.339348 1.432468 0.027843 -0.005473 -140896.000000 0 0 1
-29.699627 -10.570735 5.725724 32.040478 0.341940 1.391128 0.005109 0.003076 606729.000000 0 0 1
-28.647457 -11.347735 6.278924 31.446347 0.377154 1.369774 -0.010985 0.013200 -175549.000000 0 0 1
-29.052807 -11.744435 7.726424 32.275300 0.384160 1.329058 -0.002183 0.003480 -86341.300000 0 0 1
-28.884617 -10.646935 8.612924 31.966557 0.353150 1.297990 0.013819 0.001610 508993.000000 0 0 1
-29.058237 -11.080735 9.932824 32.646973 0.364307 1.261646 0.019932 -0.000299 -214911.000000 0 0 1
-29.345407 -9.860635 10.904124 32.822019 0.324166 1.232140 0.005557 -0.000232 685722.000000 0 0 1
-28.179367 -8.991535 10.955824 31.542899 0.308870 1.216073 0.020495 -0.000614 1275810.000000 0 0 1
-28.358877 -7.849835 11.786424 31.698038 0.270042 1.189812 0.008608 -0.008488 40890.000000 0 0 1
-27.185777 -6.837935 11.736724 30.390369 0.246415 1.174289 0.016988 -0.007131 163401.000000 0 0 1
-27.349517 -5.982335 10.650024 29.953421 0.215345 1.207291 -0.003589 -0.015477 152722.000000 0 0 1
-26.303507 -5.049035 10.548224 28.785973 0.189646 1.195620 0.000619 -0.014714 -446016.000000 0 0 1
-26.494037 -4.065235 9.279824 28.365036 0.152252 1.237503 0.004771 -0.015970 -155952.000000 0 0 1
-26.133047 -4.774335 8.063124 27.762283 0.180701 1.276115 -0.008259 -0.004862 142396.000000 0 0 1
-26.459737 -4.040535 6.934524 27.650158 0.151534 1.317295 -0.013627 -0.011276 -689281.000000 0 0 1
-25.692737 -4.553435 5.701724 26.708803 0.175405 1.355663 -0.014743 -0.002718 1059070.000000 0 0 1
-24.289127 -4.170535 5.772124 25.311509 0.170046 1.340729 0.017597 -0.009043 1621850.000000 0 0 1
-23.654027 -4.441135 4.526824 24.489361 0.185593 1.384879 0.030261 -0.005019 558840.000000 0 1 0
-22.147327 -4.023135 4.487224 22.952666 0.179694 1.374030 0.037354 -0.001659 649827.000000 0 1 0
-22.003627 -2.583535 4.430924 22.593524 0.116879 1.373402 0.022623 0.000016 458165.000000 0 1 0
-20.685427 -2.149735 4.725124 21.326862 0.103553 1.347385 0.026806 0.001012 -199710.000000 0 1 0
-20.469227 -0.631935 5.044924 21.091227 0.030863 1.329259 0.021397 -0.006059 -358153.000000 0 1 0
-20.515327 0.347565 3.971824 20.899158 -0.016940 1.379586 0.022376 -0.005307 296638.000000 0 1 0
-21.826627 0.733465 3.664524 22.144262 -0.033591 1.404547 0.014086 -0.013238 -453408.000000 0 1 0
-21.835727 1.760765 2.552724 22.054833 -0.080463 1.454792 0.032019 -0.003756 -289705.000000 0 1 0
-21.639127 3.111265 3.094024 22.079510 -0.142801 1.430203 0.031842 -0.002897 259075.000000 0 1 0
-21.809227 4.122065 2.092124 22.293738 -0.186802 1.476814 0.045469 -0.002354 552207.000000 0 1 0
-20.553627 4.289065 1.150524 21.027871 -0.205725 1.516055 0.041921 0.000286 287866.000000 0 1 0
-20.720927 5.003465 -0.063976 21.316556 -0.236934 1.573798 0.046262 0.008433 154419.000000 0 1 0
-21.477227 4.396665 -1.099676 21.950199 -0.201923 1.620916 0.059395 -0.003577 -221000.000000 0 1 0
-21.072327 3.096665 -1.811076 21.375507 -0.145910 1.655625 0.061334 -0.003739 -406692.000000 0 1 0
-20.972127 1.952165 -0.971676 21.085189 -0.092816 1.616896 0.036703 -0.001497 557566.000000 0 1 0
-20.273627 0.918765 -1.638676 20.360485 -0.045287 1.651367 0.015766 -0.000320 -701290.000000 0 1 0
-19.515727 0.072465 -0.622976 19.525802 -0.003713 1.602707 0.019025 -0.002719 -794899.000000 0 1 0
-20.320927 -0.709135 0.211124 20.334392 0.034883 1.560414 0.023109 -0.002018 643175.000000 0 1 0
-19.570827 -1.548935 1.113224 19.663564 0.078980 1.514153 0.012841 -0.004285 153328.000000 0 1 0
-18.650827 -2.665535 0.473724 18.846295 0.141957 1.545657 -0.012039 -0.004550 387194.000000 0 1 0
-17.764327 -3.282635 1.418024 18.120646 0.182727 1.492462 -0.016570 -0.002412 886958.000000 0 1 0
-17.151327 -4.531835 1.007524 17.768530 0.258323 1.514063 -0.015783 0.001639 -153447.000000 0 1 0
-18.105827 -5.673235 0.554124 18.981929 0.303648 1.541600 -0.023555 -0.001904 66992.400000 0 1 0
-19.001627 -6.037335 1.607724 20.002400 0.307640 1.490333 0.018146 -0.000507 486236.000000 0 1 0
-19.869427 -7.073435 1.227224 21.126611 0.342006 1.512675 -0.008399 -0.003048 -310249.000000 0 1 0
-20.777427 -7.505435 2.395724 22.220993 0.346644 1.462773 0.014793 0.009950 -270454.000000 0 1 0
-20.116527 -8.160135 3.438624 21.979231 0.385362 1.413702 0.021366 0.007429 584906.000000 0 1 0
-21.069427 -8.732135 4.326824 23.214055 0.392897 1.383312 0.050589 -0.000663 731310.000000 0 1 0
-20.319127 -9.432635 5.526524 23.073448 0.434620 1.328926 0.032191 0.012784 634819.000000 0 1 0
-19.590127 -10.586235 5.090924 22.842044 0.495432 1.346034 0.020190 0.012553 327301.000000 0 1 0
-18.648727 -11.066835 6.014624 22.503901 0.535579 1.300237 0.024492 0.014019 139415.000000 0 1 0
-17.803627 -12.303635 5.585224 22.350465 0.604711 1.318227 -0.000691 0.012291 84431.200000 0 1 0
-18.569927 -13.484935 5.457824 23.589691 0.628075 1.337316 0.011029 0.016110 -337379.000000 0 1 0
-17.781427 -14.598435 5.128424 23.571046 0.687411 1.351469 -0.007944 0.009973 -713841.000000 0 1 0
-18.440027 -16.011135 5.171424 24.962666 0.715012 1.362119 0.004241 0.010167 -822052.000000 0 1 0
-17.670227 -17.077435 4.878924 25.053535 0.768340 1.374804 0.003668 0.000309 -831677.000000 0 0 1
-18.297127 -18.226435 5.363824 26.377233 0.783463 1.366018 0.016752 -0.000109 -139235.000000 0 0 1
-17.513527 -19.524635 5.119024 26.723387 0.839643 1.378049 0.014428 0.001121 -496960.000000 0 0 1
-17.372127 -20.031235 3.838524 26.791332 0.856372 1.427027 0.012080 -0.002426 183757.000000 0 0 1
-16.652927 -21.256935 3.787524 27.267611 0.906253 1.431444 0.010401 -0.007489 699494.000000 0 0 1
-15.099627 -21.198435 3.909824 26.318418 0.951864 1.421686 0.007408 -0.004413 449947.000000 0 0 1
-14.496627 -22.494835 4.088224 27.071819 0.998338 1.419202 0.005226 -0.003826 894823.000000 0 0 1
-13.061927 -22.501235 4.175024 26.350529 1.044840 1.411684 0.003831 0.000050 787458.000000 0 0 1
-12.367727 -23.874135 4.183324 27.210939 1.092822 1.416447 -0.000724 -0.002140 -431520.000000 0 0 1
-12.382627 -24.584535 2.928824 27.682248 1.104213 1.464796 0.008621 -0.001763 66480.000000 0 0 1
-12.051827 -25.935315 3.220224 28.779454 1.135795 1.458668 0.007372 -0.001747 -376785.000000 0 0 1
17.221573 19.496065 -24.657176 35.842090 0.847265 2.329442 0.024658 -0.000851 270412.000000 0 0 1
16.484173 19.999265 -25.750946 36.535049 0.881449 2.352978 0.016191 -0.006966 552668.000000 0 0 1
17.362973 19.823965 -26.862856 37.630778 0.851481 2.365782 0.015933 -0.004150 271428.000000 0 0 1
16.716173 20.108365 -28.179536 38.442984 0.877257 2.393550 0.009780 -0.001915 -287439.000000 0 0 1
16.432673 21.434565 -28.480606 39.250710 0.916728 2.382713 0.001897 0.004329 324999.000000 0 0 1
15.656273 21.473965 -29.669866 39.831533 0.940818 2.411157 -0.014863 0.010101 -73817.500000 0 0 1
15.199373 22.919365 -30.071076 40.750311 0.985220 2.400802 0.014556 0.002971 -413290.000000 0 0 1
14.387873 23.457765 -29.066486 40.026719 1.020617 2.383541 0.014541 -0.003094 69125.600000 0 0 1
14.132473 24.783765 -29.343246 40.926616 1.052553 2.370245 0.017111 -0.003873 -72846.400000 0 0 1
13.374473 25.527765 -28.196626 40.318644 1.088197 2.345277 0.015015 -0.006066 1188200.000000 0 0 1
11.976873 25.161765 -28.089256 39.567236 1.126537 2.360170 0.020695 -0.015727 720958.000000 0 0 1
11.437873 25.950465 -27.070966 39.205724 1.155655 2.332956 0.010000 -0.001533 52099.900000 0 0 1
9.995073 25.507765 -26.586726 38.175929 1.197340 2.341202 0.016361 -0.001446 1304700.000000 0 0 1
9.274573 26.415365 -25.775766 38.054951 1.233137 2.314924 0.008616 -0.004621 -2457.240000 0 0 1
9.005373 27.655965 -26.378696 39.265567 1.256003 2.307436 0.020231 -0.010781 -813726.000000 0 0 1
8.504673 28.720065 -25.335676 39.230958 1.282900 2.272878 0.022515 -0.005549 -70872.900000 0 0 1
9.433273 28.899265 -24.268076 38.898505 1.255281 2.244496 0.009787 -0.003392 76027.400000 0 0 1
8.843073 29.664965 -23.188976 38.677367 1.281085 2.213734 0.012709 0.002159 -93641.000000 0 0 1
9.779373 30.220465 -22.085976 38.687245 1.257830 2.178380 -0.009180 0.004477 549052.000000 0 0 1
10.713573 31.217765 -22.575776 39.987437 1.240203 2.170711 -0.004504 0.003280 518812.000000 0 0 1
11.618073 31.681565 -21.602576 40.067099 1.219310 2.140236 -0.019544 0.009764 -56095.800000 0 0 1
12.808173 32.451465 -22.208876 41.356753 1.194878 2.137682 -0.027261 0.035421 98213.800000 0 0 1
13.849873 31.617865 -22.695976 41.311205 1.157933 2.152431 -0.025954 0.027608 -437648.000000 0 0 1
14.701173 32.398465 -23.497076 42.636810 1.144819 2.154476 -0.008928 0.033655 -112449.000000 0 0 1
15.959273 31.594865 -23.894676 42.707018 1.103059 2.164582 -0.004965 0.028826 -409839.000000 0 0 1
16.688173 31.160365 -22.810276 42.068660 1.079109 2.143868 -0.005276 0.026167 -408023.000000 0 0 1
17.920673 30.720165 -23.360076 42.550819 1.042708 2.151955 0.004403 0.022537 -197858.000000 0 0 1
18.964973 30.118765 -22.437776 42.074505 1.008844 2.133278 0.003144 0.022459 -186852.000000 0 0 1
19.612073 31.004765 -21.558776 42.552434 1.006786 2.102080 0.004496 0.028423 -273834.000000 0 0 1
20.680473 30.359065 -20.939076 42.282380 0.972802 2.088884 0.013698 0.026706 -163560.000000 0 0 1
21.297473 31.049565 -19.696576 42.492504 0.969584 2.052772 0.014408 0.017331 323340.000000 0 0 1
22.259573 32.063465 -20.035376 43.874487 0.963950 2.045025 0.007617 0.019462 412219.000000 0 0 1
22.711973 32.667465 -18.791876 44.001495 0.963267 2.012050 0.014402 0.014300 -186925.000000 0 0 1
24.036973 33.423465 -18.895876 45.298545 0.947324 2.001094 0.019349 0.010797 -143718.000000 0 0 1
25.182273 32.632065 -19.067676 45.415579 0.913549 2.004075 0.026074 0.009433 -350277.000000 0 0 1
26.376273 33.358465 -18.844476 46.514613 0.901757 1.987918 0.033608 0.001167 292309.000000 0 0 1
27.610373 32.588165 -19.363176 46.896202 0.867900 1.996426 0.023457 -0.004422 5025.650000 0 0 1
27.891773 31.420465 -18.651876 45.968349 0.844822 1.988601 0.022916 0.009072 -829152.000000 0 0 1
29.100873 30.869965 -19.046276 46.503507 0.814889 1.992775 0.018328 0.009122 -865681.000000 0 0 1
29.460573 29.597365 -18.255776 45.576339 0.787714 1.982918 0.010597 0.000330 -456594.000000 0 0 1
30.132173 29.867765 -17.059776 45.728188 0.780991 1.953111 0.015716 0.002678 20647.900000 0 0 1
30.374473 28.673665 -16.270576 44.827662 0.756602 1.942237 0.011882 -0.003447 -325278.000000 0 0 1
30.742973 28.993165 -14.799076 44.774397 0.756114 1.907657 0.010662 -0.006026 869405.000000 0 0 1
32.061873 29.519965 -14.546276 45.945469 0.744145 1.892938 -0.021681 0.000273 677471.000000 0 0 1
32.127173 30.903265 -14.910976 47.005364 0.765983 1.893592 -0.014750 -0.002049 -822727.000000 0 0 1
33.531973 31.475265 -14.993776 48.372501 0.753771 1.885952 -0.008702 -0.005652 -184145.000000 0 0 1
34.197273 31.593365 -13.709476 48.533946 0.745840 1.857166 -0.010714 -0.002281 -811277.000000 0 0 1
-34.727280 32.188065 -13.911476 49.351642 -0.747470 1.856554 -0.010109 -0.007605 -804504.000000 0 0 1
-33.969480 32.307165 -12.540976 48.527874 -0.760322 1.832191 -0.012803 0.001409 -234349.000000 0 0 1
-34.506580 33.353565 -11.738476 49.406033 -0.768409 1.810682 -0.000395 -0.004189 513284.000000 0 0 1
-33.589180 33.752365 -10.725976 48.810876 -0.787821 1.792350 -0.011035 -0.004244 163862.000000 0 0 1
-34.106080 -34.399709 -9.895776 49.441794 0.789684 1.772307 -0.015215 0.000974 46398.200000 0 0 1
-33.100780 -33.843209 -9.078376 48.202088 0.796488 1.760268 -0.014946 0.002171 -177927.000000 0 0 1
-32.851480 -34.402709 -7.808076 48.205105 0.808459 1.733489 -0.013807 -0.004207 -15138.700000 0 0 1
-32.467280 -33.361309 -6.718576 47.034460 0.798978 1.714130 -0.010470 0.001680 -881124.000000 0 0 1
-33.461680 -32.414809 -6.535376 47.043756 0.769508 1.710168 -0.013171 0.001374 -591063.000000 0 0 1
-33.054580 -31.457409 -5.606576 45.973987 0.760645 1.693052 -0.006303 0.000254 159670.000000 0 0 1
-34.282580 -30.569009 -5.239076 46.229941 0.728198 1.684367 -0.009451 0.001444 626918.000000 0 0 1
34.883773 -31.365109 -4.582976 47.134397 -0.732335 1.668182 -0.016199 0.002916 -334022.000000 0 0 1
33.586073 -30.856009 -4.669376 45.846708 -0.743059 1.672821 -0.023043 0.009989 -539659.000000 0 0 1
33.076173 -30.096509 -3.406476 44.849049 -0.738266 1.646824 -0.007867 0.007674 -836488.000000 0 0 1
33.571973 -28.785209 -3.346776 44.349369 -0.708785 1.646332 0.015873 -0.002721 140620.000000 0 0 1
33.078173 -28.121409 -2.201476 43.472125 -0.704581 1.621459 0.006254 -0.009004 -131573.000000 0 0 1
33.287273 -26.622409 -2.142476 42.677692 -0.674605 1.621019 0.031894 -0.021777 -233220.000000 0 0 1
32.597173 -25.972409 -3.166676 41.799157 -0.672768 1.646628 0.019084 -0.013828 171019.000000 0 0 1
33.053973 -24.669209 -3.333876 41.379339 -0.641149 1.651452 0.013731 -0.022870 -165279.000000 0 0 1
32.576673 -24.052509 -4.663676 40.761657 -0.635994 1.685461 0.021828 -0.031590 -599248.000000 0 0 1
33.454073 -24.401809 -5.700876 41.798604 -0.630194 1.707612 0.037499 -0.032932 309585.000000 0 0 1
32.940573 -23.971609 -6.951476 41.328470 -0.629091 1.739800 0.031846 -0.030369 392378.000000 0 0 1
34.105273 -23.776509 -7.983376 42.334694 -0.608811 1.760510 0.021615 -0.016886 54570.000000 0 0 1
34.735273 -24.900109 -8.451876 43.565914 -0.621948 1.766036 0.015329 -0.019553 -621587.000000 0 0 1
-34.533580 -24.541209 -9.467376 43.410486 0.617836 1.790653 0.011363 -0.004411 44769.700000 0 0 1
-33.850580 -25.774709 -10.129076 43.735518 0.650774 1.804517 -0.001552 -0.005330 144743.000000 0 0 1
-33.095780 -26.644209 -9.298776 43.493813 0.677821 1.786255 -0.003294 -0.006427 52443.600000 0 0 1
-33.823680 -27.765209 -8.897776 44.655554 0.687344 1.771392 -0.003333 -0.003487 -476657.000000 0 0 1
-32.903080 -28.885809 -8.448876 44.591323 0.720473 1.761422 -0.011296 0.000387 -269752.000000 0 0 1
-32.154180 -29.463709 -9.513076 44.637428 0.741762 1.785562 -0.014471 -0.004486 -10883.600000 0 0 1
-31.706380 -30.701609 -9.047476 45.052637 0.769300 1.772991 -0.015981 -0.000021 -285866.000000 0 0 1
-31.195280 -31.575809 -10.223476 45.548838 0.791460 1.797176 -0.011519 0.004133 -857501.000000 0 0 1
-29.837880 -31.380109 -10.478676 44.551240 0.810585 1.808226 -0.012487 0.015631 -527138.000000 0 0 1
-29.449980 -32.051009 -11.684376 45.067650 0.827665 1.833055 -0.021660 0.010372 -419085.000000 0 0 1
-29.750080 -31.412709 -13.026276 45.183065 0.812575 1.863247 -0.025628 0.008629 -413178.000000 0 0 1
-29.051180 -30.205909 -13.269476 43.959606 0.804882 1.877435 -0.026996 0.013704 -98276.500000 0 0 1
-29.267780 -29.810209 -14.601876 44.254562 0.794579 1.907049 -0.034926 0.024353 -298318.000000 0 0 1
-28.529480 -28.564209 -15.107276 43.105394 0.786006 1.928872 -0.040938 0.017419 -412092.000000 0 0 1
-27.209880 -28.969009 -15.346776 42.604044 0.816701 1.939299 -0.031547 0.010924 -735982.000000 0 0 1
-26.443880 -27.965109 -15.995076 41.679354 0.813350 1.964666 -0.024360 0.024632 -284613.000000 0 0 1
-25.195180 -28.582409 -16.617776 41.568036 0.848301 1.982065 -0.012744 0.016151 -787546.000000 0 0 1
-25.355780 -29.580209 -17.643776 42.769231 0.862144 1.996031 -0.029969 0.021807 94049.900000 0 0 1
-25.864580 -29.120809 -18.918276 43.300106 0.844549 2.022958 -0.023099 0.024813 404545.000000 0 0 1
-24.714680 -28.445109 -19.716776 42.528706 0.855457 2.052863 -0.004789 0.022955 461287.000000 0 0 1
-24.302980 -27.222509 -19.168076 41.220322 0.841999 2.054448 -0.003177 0.019986 -573987.000000 0 0 1
-23.117280 -26.675409 -19.647476 40.398136 0.856736 2.078699 0.044893 0.012553 -338659.000000 0 0 1
-22.596480 -25.471009 -18.889776 38.938372 0.845129 2.077297 0.028378 0.005102 -185855.000000 0 0 1
-22.260480 -25.816609 -17.571376 38.350743 0.859231 2.046738 0.030913 0.012712 192816.000000 0 0 1
-21.922680 -24.606209 -16.891976 37.032530 0.843009 2.044448 0.029731 0.011594 -223943.000000 0 0 1
-22.041080 -24.657609 -15.329676 36.452789 0.841370 2.004831 0.014237 0.012621 -694477.000000 0 0 1
-23.342880 -24.649409 -14.835976 37.048476 0.812615 1.982802 -0.023639 0.029839 -482806.000000 0 0 1
-23.352980 -24.670109 -13.430176 36.528695 0.812818 1.947289 -0.034333 0.029933 246340.000000 0 0 1
-24.786580 -24.832509 -12.875476 37.373867 0.786324 1.922508 -0.044509 0.033933 -277830.000000 0 0 1
-25.541080 -25.965309 -13.278076 38.766626 0.793634 1.920387 -0.031245 0.027550 12503.600000 0 0 1
-26.790880 -26.114409 -12.662176 39.497396 0.772612 1.897141 -0.030954 0.022491 -406846.000000 0 0 1
-27.941780 -25.209309 -13.118876 39.854199 0.734034 1.906223 -0.039876 0.021100 -1199350.000000 0 0 1
-28.118280 -23.937709 -12.459776 38.973036 0.705261 1.896212 -0.040077 0.027426 176125.000000 0 0 1
-28.604280 -24.035109 -11.094576 38.974105 0.698814 1.859454 -0.009176 0.015547 619864.000000 0 0 1
-30.145280 -24.301209 -10.920576 40.231152 0.678471 1.845691 -0.023508 0.012402 1114570.000000 0 0 1
-31.121980 -23.381109 -11.420876 40.567108 0.644315 1.856185 -0.004425 0.007782 509889.000000 0 0 1
-31.296180 -23.354809 -12.847976 41.109226 0.641098 1.888654 -0.007594 0.013690 -1823330.000000 0 0 1
-32.650880 -22.839309 -13.220676 41.982142 0.610391 1.891160 -0.021595 0.004674 -1038230.000000 0 0 1
-33.595680 -23.860509 -13.006376 43.210640 0.617556 1.876537 -0.007062 0.009625 -156190.000000 0 0 1
-34.915780 -23.510709 -13.381476 44.169322 0.592619 1.878592 0.011626 0.000509 -313957.000000 0 0 1
34.228273 -24.566409 -13.019776 44.097593 -0.622522 1.870513 0.005011 0.008430 -692465.000000 0 0 1
34.373873 -25.737609 -13.745076 45.087856 -0.642704 1.880578 -0.007671 0.018425 -38491.000000 0 0 1
33.431973 -26.697709 -13.323976 44.810633 -0.673867 1.872701 -0.022474 0.011557 93462.100000 0 0 1
33.357673 -27.967909 -14.192776 45.786168 -0.697736 1.885968 -0.017307 0.007402 238169.000000 0 0 1
32.540073 -27.828709 -15.343976 45.483305 -0.707513 1.914901 -0.018567 0.000754 -85553.800000 0 0 1
32.703673 -28.921809 -16.263076 46.588506 -0.724107 1.927385 -0.018297 0.001972 99184.300000 0 0 1
31.804473 -28.807909 -17.523976 46.352021 -0.736000 1.958499 -0.014054 -0.000745 -219154.000000 0 0 1
30.427573 -28.791709 -17.276276 45.313016 -0.757781 1.961961 0.028061 -0.002737 -344033.000000 0 0 1
29.714573 -28.609709 -18.512376 45.212602 -0.766457 1.992649 0.015258 -0.010516 -239867.000000 0 0 1
28.230973 -28.900509 -18.308076 44.355528 -0.797117 1.996276 0.021237 -0.010771 -432932.000000 0 0 1
27.628873 -27.958909 -17.466976 43.013375 -0.791335 1.988959 0.020258 -0.016010 -937451.000000 0 0 1
26.233573 -28.012609 -17.456376 42.161970 -0.818182 1.997675 0.043829 -0.017032 -275345.000000 0 0 1
25.719373 -27.134709 -16.261276 40.770181 -0.812170 1.981061 0.033162 -0.021315 -149045.000000 0 0 1
25.777973 -25.747809 -16.620076 40.045980 -0.784813 1.998766 0.028475 -0.022243 -154832.000000 0 0 1
25.619773 -24.996109 -15.472376 38.994521 -0.773077 1.978806 0.027259 -0.009527 -510729.000000 0 0 1
25.103973 -23.579309 -15.729576 37.863080 -0.754090 1.999215 0.028004 -0.015221 -192551.000000 0 0 1
23.723873 -23.490709 -15.985776 37.015951 -0.780460 2.017352 0.030789 -0.017702 -234544.000000 0 0 1
23.559173 -22.185809 -16.487276 36.319072 -0.755385 2.041997 0.029821 -0.027238 353471.000000 0 0 1
22.120573 -21.588609 -16.463576 35.020524 -0.773228 2.060214 0.026988 -0.018173 277586.000000 0 0 1
21.778773 -20.787809 -15.313176 33.777823 -0.762122 2.041317 0.034086 -0.013543 -852276.000000 0 0 1
20.664073 -19.999009 -15.382776 32.612790 -0.769044 2.061991 0.032122 -0.017812 -832788.000000 0 0 1
20.562673 -18.794409 -14.349076 31.336071 -0.740500 2.046438 0.039459 -0.008915 -63791.900000 0 0 1
19.902273 -19.067709 -13.138476 30.533548 -0.763986 2.015617 0.026900 -0.013278 -18772.600000 0 0 1
19.715673 -17.953209 -12.337076 29.380758 -0.738644 2.004135 0.020143 -0.017073 81679.000000 0 0 1
18.819473 -18.196909 -11.074576 28.424396 -0.768581 1.971010 0.027402 -0.010106 408439.000000 0 0 1
19.473373 -18.932209 -10.031576 28.952950 -0.771308 1.924611 0.025165 -0.018414 458624.000000 0 0 1
18.549273 -19.103209 -8.975976 28.099400 -0.800109 1.895931 0.030317 -0.024332 251990.000000 0 0 1
19.150073 -19.973609 -7.832376 28.757894 -0.806445 1.846637 0.035831 -0.024445 -47624.200000 0 0 1
20.066373 -19.257309 -7.027476 28.686037 -0.764827 1.818294 0.036178 -0.023763 -29334.500000 0 0 1
20.558773 -20.033009 -5.942676 29.313819 -0.772446 1.774937 0.026552 -0.007602 -132710.000000 0 0 1
21.834573 -19.333709 -5.404576 29.660585 -0.724725 1.754034 0.018987 -0.010271 -279537.000000 0 0 1
22.858073 -19.260609 -6.352076 30.558328 -0.700192 1.780190 0.012381 -0.024679 -326896.000000 0 0 1
23.797673 -18.309709 -5.863276 30.593344 -0.655796 1.763641 0.014080 -0.031312 -117626.000000 0 0 1
24.825273 -17.926809 -6.959776 31.402279 -0.625417 1.794285 0.029968 -0.039886 91905.700000 0 0 1
25.837773 -18.875509 -7.264276 32.812270 -0.630929 1.794035 0.034800 -0.044104 294456.000000 0 0 1
25.474673 -19.836709 -8.222576 33.317634 -0.661607 1.820166 0.036089 -0.047535 -356296.000000 0 0 1
26.385273 -21.095309 -8.314476 34.789728 -0.674443 1.812124 0.026885 -0.048050 1380510.000000 0 0 1
27.778873 -20.816109 -8.629876 35.769413 -0.643085 1.814465 0.030978 -0.040592 1346500.000000 0 0 1
28.522773 -21.994709 -8.323676 36.967545 -0.656886 1.797905 0.022383 -0.037154 -184569.000000 0 0 1
-29.309667 30.809465 4.062924 42.717526 -0.810340 1.475541 0.008470 0.010736 349090.000000 0 0 1
-28.226617 31.291465 3.289524 42.269595 -0.836847 1.492895 -0.003906 0.017123 638972.000000 0 0 1
-27.217417 31.980865 4.084724 42.192991 -0.865691 1.473834 0.001846 0.020621 981027.000000 0 0 1
-26.635197 33.130565 3.190224 42.629163 -0.893654 1.495890 0.004135 0.018198 -241668.000000 0 0 1
-25.859977 32.759065 2.044924 41.786079 -0.902553 1.521839 0.012836 0.015536 362069.000000 0 0 1
-25.316447 33.947165 1.447224 42.372478 -0.930014 1.536635 0.017654 0.000334 68889.500000 0 0 1
-24.000427 34.518365 2.047724 42.091937 -0.963235 1.522128 0.027387 -0.003951 -176303.000000 0 0 1
-22.772027 34.000165 1.581624 40.952142 -0.980654 1.532165 0.026739 -0.003809 -8810.990000 0 0 1
-21.741427 34.660865 2.330524 40.981661 -1.010572 1.513898 0.029640 -0.003131 732080.000000 0 0 1
-20.304827 34.237565 1.902424 39.851174 -1.035498 1.523040 0.034358 -0.010111 387040.000000 0 0 1
-20.043027 34.585765 0.558924 39.977624 -1.045574 1.556815 0.046886 -0.024910 122829.000000 0 0 1
-18.663927 34.362565 0.328924 39.105450 -1.073230 1.562385 0.038909 -0.017761 -439698.000000 0 0 1
-18.075827 -34.339809 -0.934376 38.817922 1.086267 1.594869 0.049025 -0.016613 -139948.000000 0 0 1
-17.898627 -32.941509 -1.006776 37.503566 1.073076 1.597644 0.051787 -0.017961 258139.000000 0 0 1
-17.090327 -32.401909 0.009524 36.632814 1.085432 1.570536 0.042646 -0.010928 -525479.000000 0 0 1
-17.061127 -30.905409 0.054324 35.301973 1.066386 1.569257 0.047105 -0.015609 -292540.000000 0 0 1
-16.252627 -30.354809 -0.954676 34.445228 1.079214 1.598516 0.042691 -0.008709 15455.900000 0 0 1
-16.204027 -28.922509 -0.872276 33.163879 1.060113 1.597101 0.031721 -0.004588 -129917.000000 0 0 1
-15.320127 -28.161409 -1.881476 32.114034 1.072563 1.629417 0.030599 0.002805 -403039.000000 0 0 1
-15.795427 -28.317609 -3.211876 32.583717 1.061988 1.669530 0.033881 -0.002131 -238877.000000 0 0 1
-14.958127 -27.817909 -4.199776 31.862513 1.077433 1.702990 0.034163 0.006680 -513879.000000 0 0 1
-15.574727 -27.888409 -5.597776 32.429471 1.061477 1.744279 0.038287 -0.004698 169349.000000 0 0 1
-16.705127 -27.038809 -5.727976 32.295018 1.017377 1.749104 0.026685 -0.000301 -84101.700000 0 0 1
-16.989427 -26.818809 -7.114476 32.534672 1.006116 1.791251 0.036722 -0.007818 189911.000000 0 0 1
-17.792127 -25.538809 -7.388276 31.990267 0.962309 1.803854 0.014592 -0.002603 235199.000000 0 0 1
-16.929827 -24.403809 -7.341976 30.595254 0.964286 1.813132 0.015223 0.007016 172240.000000 0 0 1
-17.550927 -23.190509 -7.663676 30.076015 0.922948 1.828448 -0.003028 0.007595 -214373.000000 0 0 1
-16.578327 -22.034209 -7.412276 28.553268 0.925767 1.833399 0.010020 0.010943 184229.000000 0 0 1
-15.499627 -21.965709 -8.326576 28.143608 0.956303 1.871152 0.026808 0.002422 -1804710.000000 0 0 1
-14.575727 -21.159709 -7.824976 26.859176 0.967597 1.866417 0.032962 -0.007734 -1350440.000000 0 0 1
-13.435127 -20.974709 -8.820676 26.424333 1.001101 1.911138 0.042955 -0.008906 -395545.000000 0 0 1
-13.852427 -20.297209 -9.916176 26.498999 0.971926 1.954340 0.040012 -0.003104 -117534.000000 0 0 1
-12.923427 -20.384609 -11.005176 26.526612 1.005766 1.998600 0.042237 0.001297 256067.000000 0 0 1
-13.484227 -19.592509 -12.173876 26.718796 0.968011 2.043876 0.048732 -0.001327 -511954.000000 0 0 1
-14.567627 -20.188009 -12.870176 28.025219 0.945722 2.047931 0.036704 0.016646 -260413.000000 0 0 1
-15.042027 -19.275109 -13.821876 28.086236 0.908130 2.085323 0.036584 -0.003172 -29756.500000 0 0 1
-16.235127 -19.778109 -14.653376 29.486851 0.883463 2.090872 0.052263 -0.001446 -3305.090000 0 0 1
-17.474927 -19.773909 -13.992576 29.869261 0.847040 2.058344 0.050886 0.000432 -155226.000000 0 0 1
-18.521927 -20.143009 -14.871176 31.144092 0.827300 2.068599 0.031631 0.008893 -934432.000000 0 0 1
-19.852827 -20.254009 -14.186776 31.711579 0.795401 2.034618 0.010262 0.016179 -268003.000000 0 0 1
-20.876927 -20.663909 -15.124476 33.039264 0.780270 2.046285 0.024382 0.012142 417052.000000 0 0 1
-22.179127 -20.364509 -14.660076 33.489472 0.742771 2.023893 -0.004130 0.018178 -48996.600000 0 0 1
-23.217027 -20.915509 -15.655376 34.951104 0.733295 2.035236 -0.004663 0.012538 -433553.000000 0 0 1
-23.336827 -20.192109 -16.856376 35.163421 0.713279 2.070736 -0.007784 -0.002356 71068.300000 0 0 1
-23.956527 -20.958409 -17.840676 36.489174 0.718746 2.081660 -0.002870 -0.004219 -230660.000000 0 0 1
-23.989827 -20.285209 -19.235676 36.837654 0.701920 2.120195 0.003775 -0.003482 390186.000000 0 0 1
-22.752927 -20.104509 -19.924676 36.316383 0.723681 2.151535 0.011425 -0.011347 757848.000000 0 0 1
-23.064727 -19.575209 -21.221676 36.953078 0.703743 2.182529 0.011267 -0.020013 322142.000000 0 0 1
-21.800927 -18.985909 -21.910576 36.274213 0.716490 2.219340 0.009380 -0.010707 661010.000000 0 0 1
-20.730627 -19.926809 -22.104876 36.269300 0.765630 2.226182 0.010544 -0.012685 667392.000000 0 0 1
-19.634627 -19.135609 -22.604176 35.533630 0.772528 2.260275 0.010552 -0.012909 203117.000000 0 0 1
-18.347227 -19.947809 -22.807876 35.422239 0.827170 2.270362 0.030048 -0.013327 -524736.000000 0 0 1
-18.422027 -21.047909 -23.726776 36.678951 0.851829 2.274279 0.023200 -0.009036 -465608.000000 0 0 1
-17.114027 -21.547809 -23.714576 36.326011 0.899580 2.282106 0.025460 -0.003265 -320908.000000 0 0 1
-16.901127 -22.927309 -24.497376 37.569017 0.935563 2.281099 0.023707 0.000798 -269963.000000 0 0 1
-16.735827 -22.734509 -25.923536 38.327216 0.936223 2.313625 0.028033 -0.005045 181459.000000 0 0 1
-16.897927 -24.002209 -26.573926 39.595701 0.957380 2.306530 0.037758 -0.001565 -78561.400000 0 0 1
-16.651527 -24.035409 -28.092096 40.547997 0.964925 2.336176 0.058732 0.004690 378931.000000 0 0 1
-15.323327 -23.731909 -28.505196 40.131709 0.997461 2.360708 0.020474 0.000275 306117.000000 0 0 1
-15.169527 -23.598209 -29.890866 40.993340 0.999481 2.387896 0.058267 -0.008678 -711506.000000 0 0 1
-13.720727 -23.590709 -30.359566 40.822581 1.044004 2.409378 0.009443 -0.002664 -656058.000000 0 0 1
-13.242227 -24.908709 -30.261826 41.371228 1.082166 2.391272 0.028151 0.000250 734661.000000 0 0 1
-11.838527 -24.795509 -30.584196 41.114000 1.125354 2.409665 0.043358 -0.002850 819987.000000 0 0 1
-11.087627 -26.129509 -30.366386 41.566863 1.169490 2.389913 0.012255 0.007367 -828452.000000 0 0 1
-11.390227 -27.151909 -31.328096 42.993174 1.173593 2.387183 0.020933 0.018817 -123184.000000 0 0 1
-10.582027 -28.278509 -31.232556 43.441063 1.212721 2.373107 0.014507 0.020850 -724342.000000 0 0 1
-9.236727 -28.093109 -31.897306 43.496874 1.253141 2.393995 0.015567 0.012045 -297615.000000 0 0 1
-8.337527 -27.142309 -31.266936 42.235537 1.272767 2.404312 -0.002003 0.017255 509145.000000 0 0 1
-7.239227 -26.739809 -32.077696 42.383987 1.306406 2.429254 0.011130 0.014396 136893.000000 0 0 1
-6.488727 -25.497209 -31.461566 41.012698 1.321598 2.445132 -0.003361 0.014794 -708964.000000 0 0 1
-7.066827 -24.209909 -31.347156 40.233120 1.286789 2.464086 0.009127 0.010211 -192814.000000 0 0 1
-7.914327 -24.088609 -30.230836 39.456319 1.253356 2.443680 0.005316 0.005904 -287695.000000 0 0 1
-8.503227 -22.707409 -29.928706 38.518291 1.212491 2.460682 0.000390 0.001142 627077.000000 0 0 1
-9.409227 -22.290409 -31.001886 39.325727 1.171368 2.478896 0.003361 -0.003961 687103.000000 0 0 1
-9.835127 -20.899509 -30.967426 38.632896 1.130951 2.500733 0.002723 -0.001159 349282.000000 0 0 1
-10.601727 -20.403209 -32.209516 39.574493 1.091583 2.521623 0.001299 -0.000247 39776.800000 0 0 1
-11.172827 -19.123309 -32.140826 39.032880 1.042037 2.538225 0.007707 -0.000357 38736.200000 0 0 1
-11.556927 -18.648009 -33.365716 39.932215 1.015988 2.559946 0.021143 -0.001555 -509084.000000 0 0 1
-12.619127 -17.543909 -33.273486 39.675635 0.947242 2.565574 0.021602 0.001145 -491302.000000 0 0 1
-12.185527 -16.224009 -33.260166 38.960803 0.926604 2.593813 0.039565 -0.001518 -273358.000000 0 0 1
-11.275427 -15.839709 -32.251476 37.658855 0.952164 2.599075 0.020479 0.005522 185798.000000 0 0 1
-10.966027 -14.291709 -32.248896 36.939112 0.916315 2.632175 0.021583 0.004115 -190668.000000 0 0 1
-10.228727 -13.692109 -33.295666 37.425955 0.929184 2.667355 0.025227 -0.001764 8723.610000 0 0 1
-10.741627 -13.838809 34.447032 38.645740 0.910740 0.470473 0.035003 -0.002065 35384.600000 0 0 1
-11.429227 -12.622509 33.774674 37.824378 0.834971 0.466975 0.044837 -0.007524 753427.000000 0 0 1
-12.673027 -12.182409 34.319466 38.559596 0.765662 0.473370 0.046212 -0.004961 46977.300000 0 0 1
-13.341727 -11.251109 33.554295 37.821685 0.700593 0.479619 0.032495 -0.010593 694979.000000 0 0 1
-14.466927 -10.499209 34.306248 38.683899 0.627792 0.480345 0.040081 -0.007257 729289.000000 0 0 1
-13.765727 -9.540609 -34.003986 37.905007 0.606060 2.683922 0.045042 -0.013413 474667.000000 0 0 1
-14.568627 -8.920109 -32.998456 37.157924 0.549402 2.663904 0.043990 -0.011375 420485.000000 0 0 1
-13.764127 -7.872809 -32.157806 35.854662 0.519562 2.683490 0.039744 -0.022181 -152811.000000 0 0 1
-13.625627 -6.667809 -32.922876 36.249595 0.455098 2.709825 0.037192 -0.028988 367364.000000 0 0 1
-14.687727 -5.704909 -32.828116 36.413741 0.370478 2.694091 0.035631 -0.021021 362840.000000 0 0 1
-15.007027 -5.046609 -31.446606 35.207501 0.324403 2.675162 0.036368 -0.022458 128058.000000 0 0 1
-15.548127 -5.938109 -30.420006 34.675383 0.364822 2.640961 0.029068 -0.022532 -1279.910000 0 0 1
-15.798027 -5.350109 -29.156576 33.590285 0.326534 2.621969 0.038832 -0.020944 -465742.000000 0 0 1
-14.695927 -4.718009 -28.313506 32.247240 0.310648 2.642492 0.031202 -0.016784 -259015.000000 0 0 1
-14.273827 -3.512009 -28.982416 32.497027 0.241253 2.672211 0.029688 -0.019127 -580612.000000 0 0 1
-13.090727 -2.980009 -28.482256 31.487879 0.223828 2.701112 0.021279 -0.016806 -453915.000000 0 0 1
-12.617727 -1.746009 -29.238046 31.892302 0.137504 2.730724 0.006125 -0.011562 -104502.000000 0 0 1
-12.467927 -2.051009 -30.637096 33.140421 0.163043 2.750421 0.008901 -0.012692 249606.000000 0 0 1
-12.453727 -0.843009 -31.370826 33.762919 0.067588 2.762904 0.007683 -0.016132 -180165.000000 0 0 1
-12.571827 -0.984009 -32.939826 35.271111 0.078112 2.775977 0.002510 -0.013790 -695567.000000 0 0 1
-13.819527 -1.449009 -33.390306 36.166165 0.104471 2.747244 0.011132 -0.018500 33603.900000 0 0 1
-13.920227 -1.467009 34.316470 37.061367 0.104999 0.387289 -0.004090 -0.017579 188422.000000 0 0 1
-15.333327 -1.749009 33.711001 37.075619 0.113575 0.429318 0.003507 -0.016860 525484.000000 0 0 1
-15.239527 -1.920009 32.311773 35.776812 0.125328 0.443749 0.002521 -0.021470 -911316.000000 0 0 1
-16.511727 -2.031009 31.819883 35.906365 0.122389 0.481739 0.009265 -0.019587 -1090770.000000 0 0 1
-16.643827 -2.052009 30.303773 34.634468 0.122670 0.505443 0.013246 -0.012642 -426037.000000 0 0 1
-16.391727 -0.762009 29.819513 34.036344 0.046454 0.503067 0.005475 -0.000975 -40543.400000 0 0 1
-16.523027 -0.626009 28.442903 32.899864 0.037869 0.526583 0.007616 -0.001695 -384612.000000 0 0 1
-15.874027 0.630991 27.933903 32.135429 -0.039729 0.517102 -0.004236 0.001989 -228224.000000 0 0 1
-16.460127 1.868991 28.302893 32.794552 -0.113062 0.529546 0.001026 0.001390 -54403.600000 0 0 1
-17.750627 2.220991 27.846473 33.097486 -0.124475 0.571026 0.008692 -0.003497 -17816.600000 0 0 1
-17.867627 2.799991 26.426223 32.022450 -0.155443 0.600168 0.010409 -0.012029 -711998.000000 0 0 1
-17.343327 4.080991 26.447133 31.888812 -0.231102 0.592845 0.007621 -0.004780 43886.800000 0 0 1
-17.888227 4.825991 25.378633 31.422187 -0.263512 0.630613 0.004683 -0.005426 -418781.000000 0 0 1
-18.040327 6.328991 25.669473 32.006739 -0.337409 0.640157 0.011430 0.003975 62457.400000 0 0 1
-16.920427 7.206991 25.739903 31.635173 -0.402662 0.620396 -0.000255 0.006601 280257.000000 0 0 1
-16.279127 7.338991 24.457093 30.282341 -0.423537 0.630665 0.004584 0.010179 -247975.000000 0 0 1
-15.121427 8.323991 24.287713 29.796634 -0.503209 0.617867 -0.001076 0.003364 -411979.000000 0 0 1
-13.952127 8.033991 24.983953 29.722126 -0.522454 0.572435 -0.022435 0.005079 -725560.000000 0 0 1
-12.848027 8.396991 24.202673 28.659215 -0.578876 0.565168 -0.004272 0.009542 72960.400000 0 0 1
-11.454727 8.205991 24.851493 28.568265 -0.621638 0.515800 -0.008344 0.013705 -18901.700000 0 0 1
-10.355527 8.718991 24.126203 27.664624 -0.699811 0.511327 -0.007986 0.004034 518982.000000 0 0 1
-9.139327 8.697991 24.866063 27.883748 -0.760661 0.469541 -0.006076 -0.003274 129898.000000 0 0 1
-8.918927 9.937991 25.779273 29.032427 -0.839388 0.477933 -0.011278 -0.006381 -1177980.000000 0 0 1
-9.932527 10.126991 26.731103 30.261575 -0.795092 0.487867 -0.023645 -0.003548 76395.600000 0 0 1
-9.817327 11.357991 27.374133 31.220619 -0.858028 0.501637 -0.031064 0.002027 -308772.000000 0 0 1
-10.414627 12.553991 26.545393 31.156460 -0.878273 0.550997 -0.036796 0.000042 -409809.000000 0 0 1
-11.806927 12.639991 26.464303 31.615380 -0.819461 0.578890 -0.020646 -0.005273 -74991.400000 0 0 1
-12.399927 11.863991 25.370723 30.629823 -0.763314 0.594727 -0.015430 -0.000364 -679416.000000 0 0 1
-13.903127 11.992991 25.254903 31.224011 -0.711770 0.628637 -0.016994 -0.000959 -848243.000000 0 0 1
-14.294627 13.261991 24.713413 31.479669 -0.747942 0.668004 -0.001450 -0.010258 18885.900000 0 0 1
-15.586527 13.359991 24.146673 31.693706 -0.708630 0.704592 0.010204 0.004314 165728.000000 0 0 1
-15.765827 12.633991 22.784853 30.452070 -0.675565 0.725421 0.008378 0.013158 -274872.000000 0 0 1
-15.933027 11.195991 22.760753 29.954356 -0.612530 0.707717 0.006005 0.009714 120256.000000 0 0 1
-16.159527 10.836991 21.397753 28.921178 -0.590738 0.737927 -0.005803 0.021153 -323276.000000 0 0 1
-16.338727 9.328991 21.169453 28.321896 -0.518804 0.726568 -0.004815 0.014577 -528777.000000 0 0 1
-17.600327 8.880991 21.538053 29.198137 -0.467315 0.741211 -0.004693 0.020833 -662198.000000 0 0 1
-17.682427 7.515991 21.226553 28.630838 -0.401917 0.735660 -0.014508 0.016943 874099.000000 0 0 1
-19.178627 7.146991 21.541253 29.714050 -0.356712 0.759832 -0.010318 0.011291 759776.000000 0 0 1
-19.463927 7.374991 22.898653 30.944842 -0.362190 0.737751 -0.013818 0.001794 139336.000000 0 0 1
-20.873627 7.374991 23.109853 32.002564 -0.339626 0.763927 -0.025831 0.004624 262058.000000 0 0 1
-21.324027 8.256991 24.280593 33.353249 -0.369437 0.755421 -0.003265 0.001500 -931084.000000 0 0 1
-21.158027 9.660991 24.124393 33.510941 -0.428338 0.767144 -0.001181 -0.003693 -127958.000000 0 0 1
-19.882227 10.235991 23.928953 32.751691 -0.475442 0.751571 -0.001654 0.001188 222820.000000 0 0 1
-18.866427 9.960991 25.105663 32.946285 -0.485776 0.704373 0.008627 -0.006411 -666329.000000 0 0 1
-18.970127 10.690991 26.318853 34.159113 -0.513202 0.691205 0.022601 -0.006041 39703.200000 0 0 1
-18.346027 10.039991 27.406563 34.474597 -0.500735 0.651824 0.024612 -0.006741 -24001.400000 0 0 1
-29.609797 -14.349635 21.416053 39.259387 0.451272 0.993809 -0.002611 -0.001171 -22918.300000 0 0 1
-29.213577 -15.702235 21.615753 39.588307 0.493194 0.993198 0.008330 0.004767 135165.000000 0 0 1
-29.766907 -16.639035 20.681753 39.883094 0.509710 1.025631 0.003979 0.007067 -99069.300000 0 0 1
-29.372177 -16.565135 19.235153 38.821638 0.513508 1.052415 -0.010765 0.005806 132112.000000 0 0 1
-30.035347 -15.535335 18.488853 38.539673 0.477340 1.070443 0.002237 -0.009566 348563.000000 0 0 1
-29.432157 -15.520435 17.164553 37.440054 0.485271 1.094541 0.002620 -0.008351 -1290950.000000 0 0 1
-29.930137 -14.440235 16.209153 36.973911 0.449521 1.116985 -0.005848 0.001963 87933.100000 0 0 1
-31.260867 -14.532935 15.712053 37.885573 0.435169 1.143157 0.006170 0.005662 480972.000000 0 0 1
-32.321047 -14.479435 16.624553 39.123904 0.421179 1.131922 0.013657 -0.000690 -971865.000000 0 0 1
-32.731647 -13.065535 17.165353 39.200998 0.379792 1.117557 -0.002807 -0.004651 -758929.000000 0 0 1
-33.861897 -12.998835 17.982353 40.484106 0.366531 1.110534 -0.010122 -0.001339 -372091.000000 0 0 1
-34.406289 -11.724335 18.112453 40.611743 0.328421 1.108516 -0.003931 0.003444 130270.000000 0 0 1
34.539021 -11.818635 19.079953 41.190639 -0.329693 1.089182 0.002741 0.027729 -227298.000000 0 0 1
34.929487 -12.306135 20.337953 42.250945 -0.338734 1.068590 -0.005513 0.025302 -188086.000000 0 0 1
34.057416 -11.892935 21.347053 41.917134 -0.335964 1.036462 -0.005529 0.023295 -1352320.000000 0 0 1
34.515605 -12.462435 22.755053 43.179066 -0.346500 1.015738 -0.013784 0.013062 -11019.500000 0 0 1
-34.451020 -11.901335 23.261753 43.239145 0.332622 1.002759 -0.013078 0.015848 516205.000000 0 0 1
-33.279257 -12.447035 22.637853 42.129681 0.357909 1.003520 -0.018752 0.011184 138751.000000 0 0 1
-31.976047 -11.604335 22.768653 40.933357 0.348127 0.980945 -0.004475 0.010922 429884.000000 0 0 1
-32.071147 -10.382935 22.053853 40.283200 0.313098 0.991458 0.001201 0.013320 714266.000000 0 0 1
-30.829497 -9.703135 22.286453 39.259326 0.304920 0.967120 0.005505 0.009109 477108.000000 0 0 1
-30.820737 -8.335735 21.568353 38.530457 0.264139 0.976683 0.006361 0.010318 54454.700000 0 0 1
-30.839487 -8.447435 20.154153 37.797129 0.267358 1.008395 0.006124 0.010071 -238469.000000 0 0 1
-32.152007 -8.408035 19.672953 38.619576 0.255781 1.036305 -0.000813 0.009017 -607380.000000 0 0 1
-32.221007 -8.199735 18.159053 37.883772 0.249195 1.070898 0.002339 -0.001375 -594182.000000 0 0 1
-33.546087 -8.453335 17.808353 38.909334 0.246852 1.095403 0.006850 0.001436 -352833.000000 0 0 1
-33.754867 -8.152235 16.429653 38.415927 0.236975 1.128874 0.002363 0.004902 348434.000000 0 0 1
34.886040 -8.189735 16.078753 39.276378 -0.230581 1.149028 -0.008203 0.008394 296356.000000 0 0 1
34.301360 -9.475435 16.101753 39.059360 -0.269519 1.145887 -0.021949 0.021277 -637634.000000 0 0 1
32.948316 -9.309135 15.824953 37.718439 -0.275360 1.137841 -0.014435 0.019465 -475841.000000 0 0 1
32.044186 -10.551935 15.778053 37.244062 -0.318110 1.133337 -0.014582 0.023551 -22025.400000 0 0 1
32.067016 -11.262435 17.010453 38.006466 -0.337757 1.106753 -0.019041 0.020408 100068.000000 0 0 1
31.066356 -12.235035 16.778653 37.367603 -0.375181 1.105133 -0.022057 0.017034 -126448.000000 0 0 1
30.578416 -12.857435 18.072953 37.775452 -0.398031 1.071929 -0.022438 0.018103 -539753.000000 0 0 1
31.446656 -13.774935 18.633553 39.062134 -0.412865 1.073531 -0.011626 0.012746 -386478.000000 0 0 1
31.434966 -13.786435 20.043553 39.748797 -0.413308 1.042277 -0.011903 0.018676 -240426.000000 0 0 1
31.992826 -15.084635 20.629553 40.947107 -0.440589 1.042793 -0.016284 0.022986 -51448.000000 0 0 1
32.194856 -14.960135 22.063253 41.798343 -0.434990 1.014729 -0.019049 0.015163 -114951.000000 0 0 1
32.496906 -16.188535 22.631653 42.782114 -0.462171 1.013377 -0.020009 0.034905 24558.700000 0 0 1
32.782406 -16.109735 24.163053 43.795694 -0.456755 0.986369 -0.009601 0.017116 398482.000000 0 0 1
33.985956 -15.427835 24.489173 44.640597 -0.426132 0.990125 -0.001300 0.019496 238518.000000 0 0 1
34.059516 -15.140635 25.812113 45.338225 -0.418300 0.965114 -0.004156 0.022793 -132152.000000 0 0 1
-34.874059 -14.277435 26.234613 45.916229 0.388583 0.962637 0.000383 0.016891 -305921.000000 0 0 1
-33.682297 -15.014635 26.286053 45.286786 0.419333 0.951533 -0.010998 0.022207 -264024.000000 0 0 1
-32.615837 -14.147135 26.649603 44.431246 0.409259 0.927552 -0.008597 0.011885 -1140230.000000 0 0 1
-31.316697 -14.824635 26.423363 43.574068 0.442124 0.919270 0.002155 0.003712 -1864690.000000 0 0 1
-30.905947 -14.939835 25.021383 42.478769 0.450277 0.940935 -0.008684 0.007597 -61062.400000 0 0 1
-29.546617 -15.271435 24.898883 41.547246 0.477044 0.928181 0.006974 -0.003217 -139619.000000 0 0 1
-29.124827 -16.713735 25.354913 42.077026 0.520981 0.924062 0.012148 0.002672 -774423.000000 0 0 1
-28.926067 -16.809235 26.754593 42.837787 0.526414 0.896234 0.014319 -0.003030 100822.000000 0 0 1
-28.767287 -18.171735 27.092743 43.494660 0.563389 0.898354 0.019537 -0.009185 -293221.000000 0 0 1
-28.465157 -18.389635 28.585053 44.334514 0.573586 0.870089 0.018378 -0.017225 -593688.000000 0 0 1
-27.294967 -17.758335 28.962263 43.579655 0.576803 0.843862 0.022564 -0.010727 -631307.000000 0 0 1
-26.843127 -18.117435 30.263333 44.324533 0.593707 0.819253 0.031188 -0.011938 63835.700000 0 0 1
-25.654677 -17.202535 30.642263 43.509056 0.590681 0.789397 0.021326 -0.011748 -183754.000000 0 0 1
-26.087617 -15.942835 31.013733 43.549849 0.548561 0.778250 0.032329 -0.015934 301865.000000 0 0 1
-24.978627 -15.041635 30.952233 42.523209 0.542021 0.755556 0.018423 -0.009335 117536.000000 0 0 1
-25.094117 -13.735135 31.691613 42.693407 0.500802 0.734290 0.024039 -0.004506 -210629.000000 0 0 1
-24.786027 -13.830635 33.060005 43.572899 0.508965 0.709437 0.030885 -0.003615 203563.000000 0 0 1
-24.166427 -12.649635 33.535001 43.227604 0.482222 0.682850 0.022846 0.000149 159723.000000 0 0 1
-23.262327 -12.760535 -34.299884 43.364146 0.501729 2.483195 0.024013 0.000029 98063.000000 0 0 1
-21.952227 -13.263535 -34.433602 42.935936 0.543502 2.501393 -0.001259 -0.002310 -46647.100000 0 0 1
-21.775527 -14.675835 -34.321369 43.214698 0.593035 2.488496 0.000866 -0.010846 -307127.000000 0 0 1
-21.648627 -15.413535 -32.945306 42.327690 0.618726 2.462813 0.006316 -0.008283 35739.300000 0 0 1
-20.594427 -14.965635 -32.080946 40.954704 0.628411 2.470797 -0.002303 -0.004550 391330.000000 0 0 1
-20.586827 -15.833235 -30.947746 40.401383 0.655611 2.443403 0.016145 -0.013711 -179584.000000 0 0 1
-19.380427 -15.693435 -30.004686 39.014947 0.680662 2.448160 0.014441 -0.009854 3410.430000 0 0 1
-19.116727 -14.445835 -29.314716 37.861379 0.647117 2.456348 0.007805 -0.003395 359627.000000 0 0 1
-20.055927 -14.193935 -28.264866 37.451444 0.615887 2.426004 0.013273 -0.002050 213866.000000 0 0 1
-19.676427 -12.925135 -27.420216 36.139855 0.581200 2.432150 0.010723 -0.000441 -715524.000000 0 0 1
-18.508527 -13.000535 -26.678876 34.976305 0.612340 2.438382 0.022578 -0.007256 -595361.000000 0 0 1
-18.082727 -11.778835 -26.167356 33.918380 0.577349 2.451961 0.011915 -0.008127 -133783.000000 0 0 1
-16.709527 -11.930935 -25.498016 32.736896 0.620073 2.463670 0.016575 -0.011380 -1211810.000000 0 0 1
-16.731427 -12.783735 -24.371776 32.207887 0.652436 2.429050 0.013340 -0.006788 375858.000000 0 0 1
-15.504727 -12.903335 -23.659076 31.090907 0.694081 2.435595 0.018075 -0.008822 316669.000000 0 0 1
-14.254627 -13.457835 -24.369876 31.276166 0.756654 2.464159 0.006646 -0.006469 -546118.000000 0 0 1
-13.634427 -12.502835 -25.237176 31.291110 0.742131 2.509053 0.016546 -0.013820 -239333.000000 0 0 1
-12.780827 -13.119235 -26.158536 31.933257 0.798463 2.530746 0.011121 -0.000219 50601.300000 0 0 1
-12.151427 -12.164735 -27.189356 32.169847 0.785945 2.577701 0.010101 0.011847 225816.000000 0 0 1
-13.214627 -11.642335 -27.971026 33.053724 0.722229 2.579664 0.020654 -0.002391 586149.000000 0 0 1
-12.670627 -10.662035 -28.854226 33.268456 0.699525 2.620579 0.024260 -0.013135 637288.000000 0 0 1
-11.754727 -11.150735 -30.034326 34.125844 0.759035 2.646880 0.015718 -0.009455 401627.000000 0 0 1
-11.119727 -10.143635 -30.771876 34.255657 0.739526 2.686683 0.026843 -0.015515 1360.150000 0 0 1
-10.622327 -10.621335 -32.001076 35.351315 0.785351 2.702717 0.034496 -0.016878 -12203.600000 0 0 1
-10.064127 -9.501435 -32.929846 35.720284 0.756647 2.743703 0.025987 -0.016576 -236380.000000 0 0 1
-8.848327 -8.994435 -32.459576 34.825520 0.793587 2.770862 -0.005153 -0.015762 -568240.000000 0 0 1
-8.638827 -7.686435 -32.933496 34.904524 0.727126 2.803928 -0.012847 -0.008118 7081.120000 0 0 1
-7.119927 -7.395535 -32.783426 34.353171 0.804383 2.838124 -0.005553 -0.003689 -13814.400000 0 0 1
-6.672027 -7.352835 -31.430986 32.961903 0.833903 2.835622 -0.027008 0.000853 -274282.000000 0 0 1
-7.024627 -6.259835 -30.620956 32.033949 0.727891 2.843474 -0.038537 0.007434 -676754.000000 0 0 1
-6.315727 -4.878835 -30.882426 31.896954 0.657740 2.888703 -0.040297 0.010338 13800.000000 0 0 1
-4.977527 -4.795735 -30.440926 31.215779 0.766799 2.918318 -0.027558 0.012149 -206629.000000 0 0 1
-4.523127 -3.569735 -30.882226 31.415181 0.668132 2.957131 -0.013777 0.006123 -572418.000000 0 0 1
-3.015527 -3.391135 -30.658276 30.992307 0.843959 2.994642 -0.012309 0.015810 -727111.000000 0 0 1
-2.318227 -4.215135 -31.653076 32.016539 1.067971 2.990769 -0.021158 0.014397 1971880.000000 0 0 1
-0.860827 -4.102035 -31.548716 31.825920 1.363944 3.009512 -0.005135 0.011625 2031330.000000 0 0 1
-0.121227 -2.754435 -31.744146 31.863654 1.526813 3.054956 -0.006122 0.012975 -916247.000000 0 0 1
-0.125227 -1.835335 -30.663996 30.719128 1.502671 3.081672 -0.008196 0.012026 -24109.300000 0 0 1
0.475673 -0.610535 -31.010296 31.019953 -0.908925 3.116640 -0.001069 0.011755 76300.100000 0 0 1
0.741873 0.409465 -29.811736 29.823777 0.504326 3.113176 0.004460 -0.000209 622765.000000 0 0 1
-0.397427 1.172165 -29.429246 29.455262 -1.243906 3.099560 0.006115 0.003329 386266.000000 0 0 1
0.081773 2.383065 -28.815536 28.914024 1.536496 3.059031 0.024948 -0.002175 551877.000000 0 0 1
-1.144227 3.167565 -28.264046 28.463995 -1.224150 3.022994 0.015380 -0.003599 515222.000000 0 0 1
-1.997227 3.520565 -29.331566 29.609527 -1.054766 3.004463 -0.000020 -0.000501 -322682.000000 0 0 1
-3.192527 4.156765 -28.977776 29.447961 -0.915854 2.962655 0.035263 -0.007955 -761943.000000 0 0 1
-4.189027 4.136465 -30.102796 30.673060 -0.779085 2.948463 0.032178 -0.010327 -910040.000000 0 0 1
-3.837227 4.851865 -31.256626 31.862856 -0.901643 2.946212 0.033312 -0.009697 137572.000000 0 0 1
-4.930127 5.012765 -32.145976 32.905892 -0.793709 2.926265 0.037288 -0.012993 -403315.000000 0 0 1
-4.591527 5.774765 -33.487816 34.290871 -0.899049 2.924748 0.043349 -0.013408 322247.000000 0 0 1
-3.843627 5.097565 -34.526648 35.111936 -0.924732 2.958750 0.054439 -0.008910 1555400.000000 0 0 1
-2.566827 4.507265 -34.155118 34.546724 -1.053115 2.990881 0.040737 -0.011307 528369.000000 0 0 1
-2.044927 3.691965 33.754625 34.017452 -1.064975 0.124388 0.030385 -0.010945 228238.000000 0 0 1
-2.986527 2.624665 33.407642 33.643406 -0.720998 0.118456 0.029406 -0.010675 691652.000000 0 0 1
-2.762327 1.930865 32.172953 32.348997 -0.610054 0.104374 0.036483 -0.009176 -206088.000000 0 0 1
-2.548127 2.786065 30.908673 31.138419 -0.829975 0.121551 0.052616 -0.015605 284857.000000 0 0 1
-3.716527 3.554865 30.615083 31.044048 -0.763169 0.166433 0.039457 -0.011498 405857.000000 0 0 1
-3.587727 4.411065 29.517993 30.060625 -0.887970 0.190294 0.036103 -0.017077 176843.000000 0 0 1
-4.922627 5.164865 29.330543 30.185904 -0.809407 0.238626 0.037660 -0.006388 248255.000000 0 0 1
-4.805327 5.877765 28.098063 29.105677 -0.885449 0.263897 0.033929 0.000220 -111487.000000 0 0 1
-5.957127 6.661365 27.855043 29.253454 -0.841150 0.310448 0.022067 0.003099 -91377.600000 0 0 1
-5.962027 7.392565 26.419283 28.074442 -0.892111 0.345093 0.021803 -0.007369 -551678.000000 0 0 1
-5.185527 8.523565 26.411053 28.232686 -1.024241 0.361187 0.031793 -0.003656 -330909.000000 0 0 1
-5.230627 9.169765 25.124573 27.252306 -1.052410 0.397776 0.030441 -0.006168 -145173.000000 0 0 1
-4.776227 10.617965 25.369533 27.913558 -1.148088 0.430252 0.036636 -0.007765 -302284.000000 0 0 1
-4.649627 11.265565 24.142163 27.043964 -1.179365 0.467494 0.038594 -0.005373 295059.000000 0 0 1
-4.171727 12.602365 24.296303 27.686337 -1.251123 0.500056 0.033765 0.005153 -1337160.000000 0 0 1
-2.675627 12.831165 24.295003 27.605161 -1.365217 0.494746 0.032284 0.007364 -817352.000000 0 0 1
-1.896827 12.421365 25.422193 28.358000 -1.419260 0.459051 0.036148 0.008816 330253.000000 0 0 1
-2.210927 13.109465 26.604513 29.741324 -1.403717 0.463417 0.025851 0.009908 -833547.000000 0 0 1
-1.297527 12.777265 27.821083 30.642368 -1.469594 0.432481 0.022537 0.009721 532436.000000 0 0 1
0.056473 13.173965 27.629133 30.609239 1.566510 0.444931 0.018119 0.010459 7843.140000 0 0 1
0.865673 12.567365 28.602793 31.253925 1.502022 0.414856 0.028064 0.001340 -414655.000000 0 0 1
2.363773 12.823165 28.454983 31.300272 1.388506 0.429685 0.019345 -0.000234 -260866.000000 0 0 1
2.681373 14.202865 28.836473 32.256058 1.384202 0.464633 0.013241 0.001366 -476088.000000 0 0 1
3.952873 14.600265 28.451653 32.222500 1.306395 0.488634 0.024232 -0.004050 -802867.000000 0 0 1
4.194173 16.071665 28.746533 33.200190 1.315523 0.523941 0.011858 -0.003832 -563295.000000 0 0 1
4.047173 16.454765 30.070783 34.516530 1.329626 0.513156 0.006752 0.003879 773575.000000 0 0 1
2.803773 17.052565 30.464383 35.024702 1.407835 0.516005 -0.002058 0.004697 106157.000000 0 0 1
2.621673 18.545465 30.001163 35.367742 1.430362 0.558099 -0.003256 0.008046 -401729.000000 0 0 1
3.522373 19.476365 30.531413 36.385479 1.391877 0.575152 -0.009785 0.009415 60547.300000 0 0 1
4.626573 19.758165 29.676653 35.951272 1.340780 0.599764 -0.004817 0.007887 -100405.000000 0 0 1
5.725273 20.518265 30.416793 37.134340 1.298685 0.610953 -0.002737 0.003212 -516664.000000 0 0 1
5.505873 21.909765 30.495413 37.951583 1.324597 0.637587 -0.017586 0.005988 170880.000000 0 0 1
6.554273 22.553765 31.206263 39.057159 1.287979 0.645183 -0.028716 -0.004226 -101951.000000 0 0 1
6.721373 24.083665 30.883593 39.736583 1.298637 0.680580 -0.033770 -0.001067 -583192.000000 0 0 1
7.234973 24.356065 29.609073 39.016149 1.282048 0.709185 -0.047529 0.006898 80332.300000 0 0 1
7.399573 25.712065 29.262993 39.650810 1.290582 0.740669 -0.060414 0.015345 -210211.000000 0 0 1
8.120573 25.778965 27.884613 38.833624 1.265628 0.769795 -0.053743 0.015964 102448.000000 0 0 1
7.305373 25.088465 26.940103 37.530903 1.287447 0.770143 -0.033217 0.004636 357739.000000 0 0 1
7.831673 25.175165 25.640973 36.777486 1.269199 0.799323 -0.015435 0.002376 -565328.000000 0 0 1
28.215936 2.423065 6.988024 29.169209 0.085666 1.328875 0.010660 0.015861 -114128.000000 0 0 1
28.382796 3.201865 8.153524 29.703787 0.112335 1.292732 0.008533 0.014187 363789.000000 0 0 1
27.259496 3.264165 9.024324 28.899365 0.119177 1.253218 0.006181 0.021148 -432108.000000 0 0 1
27.414726 4.148365 10.268224 29.567085 0.150180 1.216121 -0.001974 0.024677 -121399.000000 0 0 1
27.502636 5.588165 10.088024 29.822656 0.200458 1.225721 0.007021 0.023616 -21420.300000 0 0 1
28.588016 6.061965 9.342524 30.680691 0.208951 1.261374 0.027433 0.009718 -508697.000000 0 0 1
28.449946 7.546065 8.878824 30.743715 0.259270 1.277822 0.041444 0.001336 182409.000000 0 0 1
27.513146 7.745265 7.836024 29.637233 0.274410 1.303217 0.036942 -0.005359 121608.000000 0 0 1
27.749606 9.017765 7.284224 30.073587 0.314204 1.326150 0.049863 -0.015340 532291.000000 0 0 1
26.845816 9.418765 6.041524 29.084549 0.337429 1.361550 0.039315 -0.015091 1397910.000000 0 0 1
25.476706 9.782265 6.294224 28.006651 0.366611 1.344120 0.039481 -0.012306 1077870.000000 0 0 1
24.735926 9.893365 5.092024 27.123300 0.380471 1.381940 0.043066 -0.011365 416840.000000 0 0 1
23.257926 10.353665 5.231724 25.990391 0.418828 1.368117 0.002387 -0.011137 148233.000000 0 0 1
23.074726 11.700165 5.642124 26.479622 0.469276 1.356076 0.006545 0.000416 -246732.000000 0 0 1
21.837226 11.875165 6.269124 25.635637 0.498074 1.323744 0.000691 0.003187 -697873.000000 0 0 1
21.676826 13.273965 6.847224 26.324274 0.549456 1.307660 -0.013550 0.013798 -213015.000000 0 0 1
21.527226 14.284265 5.865324 26.492710 0.585838 1.347553 -0.018143 0.028898 349644.000000 0 0 1
21.365426 15.536065 6.482824 27.200694 0.628722 1.330147 0.001685 0.007221 -433496.000000 0 0 1
21.264126 16.598765 5.351824 27.501346 0.662799 1.374944 0.009265 0.010356 1004.760000 0 0 1
20.065126 16.479765 4.600024 26.369530 0.687603 1.395455 0.016990 0.010558 433593.000000 0 0 1
19.907826 17.464065 3.579624 26.723188 0.720101 1.436440 0.024566 0.009817 -1169060.000000 0 0 1
18.515726 17.418465 2.957524 25.592615 0.754872 1.454976 0.006800 0.008470 -630731.000000 0 0 1
17.698926 17.988465 3.978524 25.547319 0.793511 1.414428 0.012071 0.004881 216865.000000 0 0 1
16.332626 18.025365 3.604724 24.589885 0.834626 1.423672 -0.004887 -0.004742 -325413.000000 0 1 0
15.429026 18.897665 4.421124 24.793606 0.886104 1.391520 0.006154 -0.015406 866227.000000 0 1 0
14.023126 18.652065 4.176624 23.706365 0.926127 1.393690 0.001454 -0.017808 1239710.000000 0 1 0
13.224326 19.814465 4.246324 24.197667 0.982281 1.394398 -0.007066 -0.021526 519973.000000 0 1 0
11.702026 19.592565 3.993024 23.167871 1.032388 1.397580 0.004571 -0.022271 580817.000000 0 1 0
11.053326 19.072465 5.116524 22.629930 1.045554 1.342729 -0.000215 -0.022961 594652.000000 0 1 0
9.624526 18.989565 5.117824 21.895826 1.101698 1.334879 0.010132 -0.018209 919368.000000 0 1 0
9.092726 18.364665 6.451824 21.484055 1.111060 1.265781 0.006650 -0.014719 -1079870.000000 0 1 0
9.343126 19.320365 7.476724 22.726018 1.120363 1.235558 0.015145 -0.020030 -98428.400000 0 1 0
8.748926 18.859965 8.652824 22.519177 1.136453 1.176409 0.012808 -0.007467 -539378.000000 0 1 0
7.559126 19.687265 9.141724 22.984775 1.204193 1.161755 0.007834 -0.012884 -42640.500000 0 1 0
6.419026 19.745265 8.314324 22.365316 1.256481 1.189902 0.007644 -0.024911 -145003.000000 0 1 0
6.401326 20.924465 7.482724 23.125772 1.273912 1.241300 0.005018 -0.020848 -822748.000000 0 1 0
5.148426 21.369265 6.692224 22.976893 1.334375 1.275254 0.009429 -0.005584 -349234.000000 0 1 0
4.051726 21.767965 7.467524 23.367171 1.386770 1.245517 0.015163 0.000976 -450433.000000 0 1 0
4.079426 23.006265 8.059724 24.716170 1.395302 1.238631 0.004817 -0.013028 -816318.000000 0 1 0
3.988626 24.249265 7.147324 25.593363 1.407772 1.287768 0.000778 -0.010852 -1132820.000000 0 0 1
2.782326 24.351665 6.503624 25.358273 1.457034 1.311429 0.022496 -0.017568 -832922.000000 0 0 1
2.866126 25.293665 5.455424 26.033551 1.457964 1.359678 0.018193 -0.012916 738742.000000 0 0 1
1.512426 25.409765 4.649824 25.875943 1.511345 1.390118 0.017282 -0.015559 1121370.000000 0 0 1
0.506426 26.194965 5.310324 26.732605 1.551466 1.370820 0.029525 -0.015290 -183039.000000 0 0 1
-0.612774 26.269665 4.486724 26.657109 -1.547474 1.401679 0.021777 -0.013746 -390368.000000 0 0 1
-1.744974 27.202465 4.980324 27.709613 -1.506736 1.390082 0.022841 -0.011770 185958.000000 0 0 1
-2.734674 27.239265 3.969224 27.662442 -1.470737 1.426812 0.033469 -0.013221 -599430.000000 0 0 1
-3.861674 27.945565 4.352324 28.544874 -1.433480 1.417726 0.025276 -0.013922 -374992.000000 0 0 1
-4.775674 28.413265 3.183624 28.987172 -1.404274 1.460746 0.022792 -0.015058 118217.000000 0 0 1
-4.222674 29.476465 2.454124 29.878348 -1.428509 1.488566 0.019788 -0.017678 168793.000000 0 0 1
-5.057874 29.850365 1.392224 30.307831 -1.402950 1.524844 0.022633 -0.016629 -106586.000000 0 0 1
-4.379274 31.003165 0.595024 31.316582 -1.430472 1.551795 0.006225 -0.010183 -100648.000000 0 0 1
-4.309874 32.209365 1.334324 32.523816 -1.437778 1.529759 0.000215 -0.002190 435864.000000 0 0 1
-3.178274 32.348565 2.207924 32.579226 -1.472860 1.502973 0.004217 -0.017334 9755.900000 0 0 1
-2.356274 33.656165 1.969224 33.795966 -1.500900 1.512495 -0.001623 -0.016601 -970560.000000 0 0 1
-1.723374 33.727865 0.740224 33.779976 -1.519744 1.548881 -0.022454 -0.004892 41353.300000 0 0 1
-0.807274 -34.539409 0.580224 34.553713 1.547428 1.554004 -0.022658 -0.002116 943005.000000 0 0 1
0.519626 -34.585909 1.435524 34.619587 -1.555773 1.529319 -0.021804 -0.002661 -287488.000000 0 0 1
0.290926 -34.423209 2.817424 34.539540 -1.562345 1.489135 -0.017996 -0.006287 -435018.000000 0 0 1
1.419326 -34.668209 3.610824 34.884628 -1.529879 1.467103 -0.014502 -0.003462 -144391.000000 0 0 1
1.089926 -34.578409 5.138124 34.975057 -1.539286 1.423354 -0.004137 -0.003563 -236017.000000 0 0 1
0.212526 33.793365 5.546124 34.246111 1.564507 1.408131 0.000300 -0.014571 -565509.000000 0 0 1
-0.300774 33.936965 6.886024 34.629833 -1.561934 1.370615 0.014878 -0.014668 504897.000000 0 0 1
0.715026 33.862565 8.102424 34.825764 1.549684 1.335989 0.012726 -0.000039 408036.000000 0 0 1
1.165426 32.544965 8.258224 33.596595 1.535002 1.322446 0.009451 -0.004939 151589.000000 0 0 1
2.333426 32.492365 9.072624 33.815841 1.499105 1.299174 0.012836 0.003912 110936.000000 0 0 1
2.862026 31.060965 9.211224 32.524166 1.478914 1.283655 0.007875 -0.006592 -46388.100000 0 0 1
2.104626 30.234265 10.064924 31.934979 1.501298 1.250161 0.019116 -0.013978 320082.000000 0 0 1
2.513826 28.902365 9.777824 30.614896 1.484038 1.245720 0.013426 -0.015099 43216.300000 0 0 1
2.041126 27.920165 10.870024 30.030971 1.497820 1.200426 0.009069 -0.016898 -186106.000000 0 0 1
2.793526 28.055465 12.083924 30.674649 1.471552 1.165884 0.006969 0.000514 16513.400000 0 0 1
2.689626 27.063165 13.110624 30.191678 1.471738 1.121595 0.006569 0.008439 -406780.000000 0 0 1
1.288726 26.905765 13.786824 30.259833 1.522935 1.097734 -0.002223 0.005672 445149.000000 0 0 1
0.766226 28.016565 14.555624 31.581342 1.543454 1.091795 -0.002826 0.005984 69030.900000 0 0 1
0.171526 28.864165 13.603324 31.909557 1.564854 1.130388 -0.000927 -0.000165 -1041290.000000 0 0 1
-0.550774 30.110165 14.117224 33.259906 -1.552506 1.132440 -0.006266 0.004320 -3768.280000 0 0 1
-1.637174 29.961265 15.005224 33.548688 -1.516208 1.107089 -0.010286 0.012336 -55009.400000 0 0 1
-2.196474 31.218065 15.298824 34.834553 -1.500553 1.116105 -0.021182 0.013890 332604.000000 0 0 1
-3.557174 31.035465 16.057424 35.123986 -1.456678 1.095992 -0.013063 0.027919 623931.000000 0 0 1
-4.572574 30.482965 15.224324 34.378767 -1.421902 1.112032 -0.016527 0.023987 260997.000000 0 0 1
-5.792074 30.407165 15.920924 34.808327 -1.382567 1.095740 -0.006998 0.023038 85622.100000 0 0 1
-7.038374 29.920865 15.121724 34.255852 -1.339764 1.113599 -0.004355 0.013057 1038650.000000 0 0 1
-8.252274 29.770665 15.869624 34.730929 -1.300391 1.096255 0.000283 0.014995 1050910.000000 0 0 1
-9.293674 29.143465 15.115024 34.120051 -1.262097 1.111859 0.012450 0.009531 1138660.000000 0 0 1
-10.469974 28.534565 15.977124 34.338174 -1.219126 1.086837 0.010163 0.013031 96134.400000 0 0 1
-11.308274 29.350865 16.735924 35.629222 -1.203044 1.081817 0.008119 0.003243 173009.000000 0 0 1
-10.673874 29.952965 17.834024 36.457703 -1.228472 1.059658 0.009438 0.000017 -635316.000000 0 0 1
-11.542274 31.044865 18.454224 37.915249 -1.214840 1.062462 0.017661 0.005705 653870.000000 0 0 1
-12.577974 30.532565 19.333524 38.265233 -1.180029 1.041124 0.005494 -0.001269 1073130.000000 0 0 1
-13.636174 31.469065 19.506224 39.455545 -1.161900 1.053669 0.021583 -0.010535 561609.000000 0 0 1
-14.646674 31.117965 20.652724 40.117176 -1.130877 1.030010 0.014554 -0.011613 9018.260000 0 0 1
-14.088774 31.154665 21.962324 40.638041 -1.146097 0.999839 0.018743 -0.007484 -399745.000000 0 0 1
-14.905674 30.560765 22.912624 41.001558 -1.117006 0.977830 0.014498 -0.007695 -591766.000000 0 0 1
-14.363274 30.561965 24.358624 41.637482 -1.131458 0.945896 0.012411 -0.006769 214990.000000 0 0 1
-13.197174 29.687765 24.478424 40.678274 -1.152499 0.925098 0.010523 -0.012024 1229780.000000 0 0 1
-12.877874 29.345265 25.788624 41.134381 -1.157262 0.893182 0.015488 -0.007285 -81897.800000 0 0 1
-12.357074 30.490865 26.731424 42.390555 -1.185754 0.888472 0.020184 -0.008851 56358.300000 0 0 1
-13.422974 31.384765 27.049624 43.552977 -1.166649 0.900684 0.022699 -0.005039 702120.000000 0 0 1
-12.808574 32.544865 27.575824 44.538229 -1.195848 0.903137 0.022638 -0.003237 -196681.000000 0 0 1
-13.786574 33.679865 27.998824 45.916631 -1.182263 0.915019 0.025547 -0.006301 845086.000000 0 0 1
-14.689574 33.373565 29.121024 46.664895 -1.156159 0.896887 -0.010815 0.000084 1109040.000000 0 0 1
-13.977874 33.134265 30.345524 47.054344 -1.171592 0.869899 0.007103 0.005742 -96272.900000 0 0 1
-14.872174 32.512765 31.460424 47.623730 -1.141784 0.849173 -0.003521 0.011015 91919.600000 0 0 1
-15.917874 33.374465 31.851624 48.803274 -1.125760 0.859715 -0.012269 0.009847 -145858.000000 0 0 1
-16.769174 32.696465 32.808024 49.260841 -1.096902 0.841954 -0.025383 0.017967 800260.000000 0 0 1
-18.017074 33.612665 33.058424 50.470641 -1.078749 0.856610 -0.007356 0.013921 395806.000000 0 0 1
-17.848374 -34.569709 33.789424 51.530131 1.094193 0.855658 -0.003494 0.014147 -146757.000000 0 0 1
-19.143174 -34.128109 34.145924 51.933930 1.059607 0.853317 0.001088 0.000438 263982.000000 0 0 1
-19.169774 -32.579209 34.544624 51.207579 1.038946 0.830374 0.003635 0.011138 156607.000000 0 0 1
-18.631374 -32.359609 -33.239905 49.991636 1.048391 2.298169 0.001474 0.020155 -270281.000000 0 0 1
-19.641674 -32.569709 -32.294605 49.895118 1.028126 2.274767 0.012812 0.016440 -99248.800000 0 0 1
-19.382374 -31.816909 -30.971205 48.447989 1.023651 2.264341 0.025268 0.016953 -174206.000000 0 0 1
-19.522074 -30.457809 -31.274705 47.821509 1.000806 2.283641 0.036581 0.013860 -103881.000000 0 0 1
-19.042774 -29.594409 -30.298905 46.437915 0.999033 2.281623 0.046481 0.009200 -337680.000000 0 0 1
-19.495474 -28.176009 -30.469105 45.851143 0.965515 2.297651 0.048465 -0.003251 846185.000000 0 0 1
-20.854074 -27.934609 -30.049405 46.023923 0.929519 2.282214 0.041205 0.002854 799285.000000 0 0 1
-21.090474 -26.518509 -30.087905 45.313590 0.898921 2.296943 0.045103 0.000900 -61891.900000 0 0 1
-22.366774 -26.143009 -29.317905 45.202534 0.863086 2.276527 0.042787 0.001746 -518374.000000 0 0 1
-22.410374 -26.246909 -27.902905 44.381271 0.864083 2.250688 0.047440 0.000290 21286.300000 0 0 1
-21.616974 -25.304109 -27.208805 42.987330 0.863819 2.256153 0.055911 -0.009661 -239184.000000 0 0 1
-21.585274 -25.595009 -25.666605 42.187713 0.870182 2.224827 0.068244 0.001651 -870210.000000 0 0 1
-22.787074 -25.282809 -25.076205 42.276320 0.837270 2.205762 0.050098 -0.001953 -895969.000000 0 0 1
-22.950574 -25.929209 -23.834805 42.037491 0.846261 2.173643 0.053479 0.010621 -584802.000000 0 0 1
-24.402874 -25.822809 -23.303705 42.489768 0.813662 2.151311 0.038643 0.012910 687582.000000 0 0 1
-25.320974 -26.799709 -23.855405 43.914195 0.813762 2.145073 -0.002024 0.021824 -111367.000000 0 0 1
-25.085474 -28.103709 -23.469905 44.383960 0.842083 2.127974 0.016229 0.030257 -1457880.000000 0 0 1
-26.338074 -29.048509 -23.570305 45.750074 0.834296 2.112034 -0.027989 0.035027 896763.000000 0 0 1
-27.305974 -28.881109 -22.552005 45.698223 0.813425 2.086904 -0.034466 0.041650 -89644.000000 0 0 1
-27.959274 -27.643909 -22.537505 45.319376 0.779727 2.091285 -0.037329 0.044365 -1371070.000000 0 0 1
-28.473774 -27.208709 -21.180005 44.717583 0.762683 2.064215 -0.044530 0.048825 347456.000000 0 0 1
-29.346374 -28.134509 -20.510005 45.534828 0.764318 2.038037 -0.055394 0.048049 544340.000000 0 0 1
-29.631574 -27.753609 -19.187605 44.904980 0.752684 2.012293 -0.051628 0.042219 -1099880.000000 0 0 1
-30.141874 -28.854409 -18.281205 45.555592 0.763579 1.983726 -0.051023 0.032070 -467996.000000 0 0 1
-31.431074 -29.301709 -18.639705 46.839526 0.750351 1.980076 -0.051301 0.027672 1509020.000000 0 0 1
-32.613274 -28.449209 -18.478105 47.057662 0.717310 1.974329 -0.047774 0.032699 759296.000000 0 0 1
-32.882374 -27.995709 -16.997005 46.410219 0.705300 1.945755 -0.041279 0.033676 -915957.000000 0 0 1
-32.124074 -26.910009 -16.530805 45.048554 0.697304 1.946530 -0.041052 0.030664 467736.000000 0 0 1
-32.713774 -26.321309 -15.319505 44.695521 0.677536 1.920642 -0.038026 0.020872 318978.000000 0 0 1
-32.548874 -27.059909 -13.966305 44.572700 0.693574 1.889502 -0.004571 0.019534 -32813.500000 0 0 1
-33.340974 -28.225209 -13.840605 45.824069 0.702495 1.877626 0.001443 0.020230 199446.000000 0 0 1
-33.097774 -28.892409 -12.645905 45.718190 0.717663 1.851056 -0.012737 0.006055 -155513.000000 0 0 1
-33.872474 -30.199009 -12.568105 47.088023 0.728127 1.840978 -0.008235 0.005332 -144135.000000 0 0 1
-33.369874 -31.108009 -13.501605 47.576781 0.750333 1.858536 -0.024985 0.008790 217695.000000 0 0 1
-33.769174 -32.399709 -13.102605 48.598112 0.764705 1.843786 -0.023731 -0.000643 -216264.000000 0 0 1
-33.443574 -33.596209 -14.068205 49.447875 0.787675 1.859287 -0.025707 0.011261 769091.000000 0 0 1
-32.008974 -33.662309 -14.190105 48.570408 0.810569 1.867276 -0.020567 0.010899 901742.000000 0 0 1
-31.630674 -34.613409 -15.122605 49.267442 0.830394 1.882782 0.001875 -0.002778 1096610.000000 0 0 1
-30.062474 -34.674309 -15.339305 48.387543 0.856518 1.893371 -0.011004 0.005718 1334070.000000 0 0 1
-29.697074 33.768865 -16.342605 47.846977 -0.849467 1.919372 0.002488 0.005655 -331065.000000 0 0 1
-28.333374 33.400165 -16.314105 46.738647 -0.867290 1.927353 -0.001230 0.003563 -274516.000000 0 0 1
9.401973 20.332965 -9.199776 24.216986 1.137678 1.960473 0.023205 -0.013996 604247.000000 0 1 0
7.980173 20.087965 -9.196476 23.490097 1.192653 1.973062 0.024488 -0.021340 825842.000000 0 1 0
7.442773 20.267765 -10.476476 23.998619 1.218862 2.022551 0.027820 -0.020053 180269.000000 0 1 0
7.272673 19.023365 -11.383276 23.331506 1.205639 2.080471 0.035876 -0.015209 -373000.000000 0 1 0
8.498273 18.681065 -11.966976 23.757343 1.143864 2.098692 0.039283 -0.012382 -463268.000000 0 1 0
8.500273 17.401165 -12.499776 23.049937 1.116400 2.143958 0.043997 -0.023465 316340.000000 0 1 0
9.835773 17.029865 -13.229876 23.702075 1.047040 2.162979 0.048395 -0.018454 445897.000000 0 1 0
9.783573 15.827965 -13.956876 23.260205 1.017160 2.214338 0.054906 -0.029785 -92008.600000 0 1 0
10.935773 15.519265 -14.699776 24.010875 0.956951 2.229653 0.042438 -0.025499 -481625.000000 0 1 0
10.690673 14.200665 -15.423976 23.533984 0.925487 2.285497 0.036543 -0.031999 -392242.000000 0 1 0
10.501473 13.084165 -14.587776 22.232398 0.894466 2.286501 0.046831 -0.039062 874722.000000 0 1 0
11.724773 12.465465 -14.176976 22.222618 0.816008 2.262633 0.044436 -0.032304 373987.000000 0 1 0
12.586573 11.692865 -15.229876 22.958529 0.748605 2.296103 0.038750 -0.027204 -116138.000000 0 1 0
13.286273 12.523465 -16.144176 24.372046 0.755852 2.294821 0.033419 -0.017157 175409.000000 0 1 0
14.162073 11.857565 -16.998476 25.102078 0.697061 2.314712 0.030304 -0.019339 -38186.800000 0 0 1
14.692773 12.650865 -18.245276 26.623525 0.710861 2.325821 0.014144 -0.012583 447937.000000 0 0 1
15.547373 13.788065 -17.934876 27.449796 0.725498 2.282824 -0.005207 0.001510 347288.000000 0 0 1
16.077373 14.390665 -19.087376 28.808004 0.730095 2.295044 -0.001970 0.000120 13235.100000 0 0 1
17.258973 15.333765 -18.739976 29.735218 0.726398 2.252644 -0.011363 0.014494 -253587.000000 0 0 1
16.965273 16.604465 -18.151376 29.883126 0.774651 2.223595 -0.007452 0.018753 203064.000000 0 0 1
16.474573 17.567165 -19.073476 30.721561 0.817483 2.240623 0.000262 0.013663 -344880.000000 0 0 1
16.306073 18.994865 -18.447876 31.096898 0.861419 2.205872 -0.010115 0.022229 424220.000000 0 0 1
17.534773 19.726165 -18.427576 32.189523 0.844143 2.180313 -0.006989 0.023197 701863.000000 0 0 1
17.318473 20.956865 -17.697576 32.439542 0.880172 2.147848 -0.005020 0.027839 -26798.000000 0 0 1
18.377273 22.029665 -17.944576 33.838412 0.875543 2.129753 0.008599 0.021899 178162.000000 0 0 1
19.568873 22.060365 -17.185076 34.131032 0.845176 2.098445 -0.000324 0.022882 -111503.000000 0 0 1
19.645173 23.240265 -16.452576 34.593785 0.869033 2.066435 0.002470 0.020868 1023870.000000 0 0 1
20.975173 23.529765 -15.622876 35.180704 0.842735 2.030938 -0.009405 0.019681 214605.000000 0 0 1
21.163973 22.780865 -14.430276 34.279942 0.822175 2.005293 -0.004488 0.021361 253782.000000 0 0 1
22.315173 23.151665 -13.646976 34.931454 0.803794 1.972165 -0.008948 0.017723 236563.000000 0 0 1
23.599073 22.514565 -14.195376 35.571485 0.761884 1.981294 0.011975 0.019846 -752403.000000 0 0 1
24.002873 23.106465 -15.436576 36.719675 0.766372 2.004671 0.021264 0.020039 121687.000000 0 0 1
24.982673 24.145065 -15.331176 37.975822 0.768350 1.986363 0.015579 0.014449 -194240.000000 0 0 1
25.337573 24.738665 -16.734976 39.166996 0.773439 2.012270 0.019270 0.009994 -240343.000000 0 0 1
26.080773 23.811865 -17.489776 39.409439 0.739954 2.030627 0.026348 -0.001119 172897.000000 0 0 1
26.098773 24.296965 -18.812276 40.316128 0.749660 2.056261 0.015498 0.007550 -432122.000000 0 0 1
26.446273 23.241965 -19.892276 40.438805 0.720999 2.085079 0.008548 -0.001163 634338.000000 0 0 1
27.848873 22.987765 -20.003776 41.281329 0.690066 2.076670 0.016665 0.002481 402374.000000 0 0 1
28.126173 22.214665 -21.153176 41.617662 0.668504 2.103976 0.029033 -0.006945 -1097940.000000 0 0 1
29.558773 22.201665 -21.574176 42.802804 0.644206 2.099062 0.043442 -0.016974 -1269960.000000 0 0 1
29.943373 23.511065 -22.030076 43.985225 0.665641 2.095379 0.030178 -0.000901 -668429.000000 0 0 1
31.310573 23.589365 -22.270876 45.086606 0.645673 2.087432 0.057650 -0.012134 -659763.000000 0 0 1
31.717373 25.032465 -22.685476 46.338395 0.668142 2.082383 0.051842 -0.011559 -141501.000000 0 0 1
31.561673 25.291265 -24.103076 47.082327 0.675550 2.108232 0.049419 -0.011170 -104891.000000 0 0 1
30.235473 25.327165 -24.562076 46.464445 0.697289 2.127771 0.037653 -0.010701 -517133.000000 0 0 1
30.195673 25.530365 -26.093466 47.375597 0.701874 2.154093 0.037652 -0.017212 -128330.000000 0 0 1
30.445873 26.890065 -26.368546 48.428576 0.723460 2.146569 0.036411 -0.012557 -392084.000000 0 0 1
29.396573 27.462365 -27.105276 48.508102 0.751394 2.163708 0.023430 -0.000398 38720.800000 0 0 1
29.188973 27.008965 -28.575446 48.969750 0.746626 2.193868 0.023330 0.000656 -187894.000000 0 0 1
28.602873 25.765365 -28.647796 47.986192 0.733255 2.210554 0.015020 -0.011657 -386841.000000 0 0 1
28.498273 25.412565 -30.029956 48.577240 0.728223 2.237234 0.014933 -0.011594 -283154.000000 0 0 1
27.734473 24.078865 -30.185546 47.541139 0.714961 2.258721 0.005806 -0.009013 -648803.000000 0 0 1
26.415973 24.329165 -29.802626 46.668066 0.744298 2.263485 0.002383 -0.009363 -661182.000000 0 0 1
25.728373 23.087365 -29.938486 45.730608 0.731349 2.284543 0.014741 -0.011777 269665.000000 0 0 1
24.266573 23.092665 -29.404386 44.573037 0.760616 2.291203 0.002370 0.000043 350183.000000 0 0 1
24.211773 23.266565 -27.983546 43.710660 0.765493 2.265554 -0.003596 0.005257 1531200.000000 0 0 1
22.842573 23.201165 -27.475156 42.602364 0.793186 2.271716 0.006679 -0.000667 1237160.000000 0 0 1
22.817573 23.386365 -25.963956 41.733568 0.797708 2.242264 0.013135 0.000978 -263582.000000 0 0 1
23.274373 22.278365 -25.183766 40.893081 0.763537 2.234253 0.006370 -0.003546 301564.000000 0 0 1
23.575973 22.679865 -23.871776 40.497709 0.766028 2.201186 0.007930 0.003018 -185994.000000 0 0 1
23.980273 21.511865 -22.952476 39.555404 0.731191 2.189846 0.015633 0.000356 796477.000000 0 0 1
25.277773 20.932265 -23.166276 40.172153 0.691636 2.185449 0.007306 -0.004696 763715.000000 0 0 1
25.291173 19.750265 -22.468176 39.173145 0.662995 2.181642 0.035020 -0.016607 892764.000000 0 0 1
26.494273 18.831665 -22.958776 39.795521 0.617926 2.185747 0.035807 -0.021448 2265640.000000 0 0 1
27.815073 19.120865 -22.405176 40.512685 0.602239 2.156806 0.055514 -0.030936 1334590.000000 0 0 1
28.808873 18.422065 -23.146576 41.292707 0.568929 2.165845 0.052105 -0.032273 -116313.000000 0 0 1
30.170973 18.370065 -22.483776 41.872032 0.546913 2.137631 0.063986 -0.032886 -518049.000000 0 0 1
30.880473 19.593965 -22.326676 42.848658 0.565409 2.118887 0.062056 -0.033565 614989.000000 0 0 1
32.261573 19.363565 -22.009376 43.590932 0.540570 2.100071 0.053903 -0.026042 836088.000000 0 0 1
32.871473 20.362965 -21.057076 44.029360 0.554614 2.069458 0.059284 -0.033323 -189447.000000 0 0 1
32.331073 20.210965 -19.754076 42.941878 0.558689 2.048813 0.057815 -0.022642 128564.000000 0 0 1
32.470473 21.361665 -18.922776 43.228738 0.581895 2.023875 0.027279 -0.004875 -196482.000000 0 0 1
31.786973 21.152265 -17.554376 42.023637 0.587152 2.001738 0.038633 -0.008222 -146921.000000 0 0 1
32.401373 20.196865 -16.747176 41.692088 0.557400 1.984155 0.038376 -0.018928 77210.000000 0 0 1
31.816473 20.197865 -15.461276 40.734417 0.565633 1.960120 0.043298 -0.013821 -358889.000000 0 0 1
32.265473 18.957665 -14.623076 40.178205 0.531217 1.943307 0.025186 0.003089 -342218.000000 0 0 1
33.631273 19.067365 -14.274876 41.211637 0.515766 1.924506 0.006171 -0.004533 130904.000000 0 0 1
34.082473 17.985365 -13.399476 40.799930 0.485562 1.905426 0.001595 0.004424 212082.000000 0 0 1
33.915473 18.321465 -11.895176 40.341425 0.495296 1.870108 -0.000076 0.001841 -102.188000 0 0 1
34.836373 19.339665 -11.449876 41.457149 0.506794 1.850620 -0.001947 0.004994 454136.000000 0 0 1
34.567373 19.687265 -10.118476 41.047232 0.517716 1.819872 -0.008563 0.000572 92745.000000 0 0 1
33.297273 20.532565 -9.811676 40.330678 0.552568 1.816543 -0.001000 -0.009550 -148204.000000 0 0 1
32.079773 19.862465 -9.920876 39.013499 0.554388 1.827913 0.029574 -0.016348 -1332540.000000 0 0 1
31.085273 20.815765 -9.938276 38.708650 0.590054 1.830450 0.021626 -0.010147 -57232.200000 0 0 1
29.684673 20.426565 -10.509076 37.534851 0.602707 1.854572 0.024794 -0.007327 481241.000000 0 0 1
29.681473 20.079265 -11.851676 37.744257 0.594774 1.890199 0.035066 -0.009616 -495739.000000 0 0 1
28.415073 19.660465 -12.245276 36.659201 0.605271 1.911372 0.028542 -0.006558 -678893.000000 0 0 1
28.419373 19.148865 -13.686776 36.900781 0.592922 1.950782 0.058277 -0.009299 125273.000000 0 0 1
29.227673 17.977665 -13.899076 37.022123 0.551442 1.955653 0.060694 -0.005454 188300.000000 0 0 1
28.768373 17.158565 -14.945876 36.679897 0.537797 1.990476 0.050258 -0.003889 -79362.300000 0 0 1
29.921073 16.347865 -15.568076 37.481839 0.500049 1.999124 0.049133 -0.018630 -131530.000000 0 0 1
30.493973 15.337865 -14.761976 37.189359 0.466029 1.978978 0.033098 -0.015825 -220082.000000 0 0 1
31.651773 14.889065 -15.407376 38.221803 0.439690 1.985703 0.024875 -0.011447 -502026.000000 0 0 1
32.457573 14.004965 -14.429076 38.181557 0.407351 1.958331 0.006792 -0.016541 -677408.000000 0 0 1
33.228873 14.687565 -13.501976 38.758043 0.416191 1.926623 0.006936 -0.002061 -210085.000000 0 0 1
33.977173 13.753565 -12.760876 38.812998 0.384627 1.905806 -0.002609 0.009732 -331207.000000 0 0 1
34.895673 14.408965 -11.718776 39.530444 0.391591 1.871769 0.009911 0.017130 139949.000000 0 0 1
-34.034880 14.821465 -12.332976 39.117146 -0.410713 1.891551 -0.017669 0.009680 355484.000000 0 0 1
-33.102480 15.084865 -11.271976 38.083917 -0.427586 1.871275 -0.033457 0.011685 -13504.800000 0 0 1
-31.645580 15.184765 -11.825176 37.038555 -0.447389 1.895752 -0.014345 -0.001598 -41704.000000 0 0 1
-31.083580 14.015165 -12.332076 36.258707 -0.423591 1.917834 -0.018347 -0.000329 154808.000000 0 0 1
-30.792580 12.990065 -11.361676 35.298901 -0.399205 1.898501 -0.002407 0.006244 -583695.000000 0 0 1
-29.743880 11.959065 -11.873576 34.186246 -0.382288 1.925508 0.016011 -0.003199 -76291.300000 0 0 1
-30.193480 11.058065 -12.857276 34.629995 -0.351069 1.951179 -0.006996 0.008026 302688.000000 0 0 1
-29.305080 9.957365 -12.946776 33.549304 -0.327544 1.966983 0.017901 -0.005842 -247840.000000 0 0 1
-29.362580 9.194665 -14.319476 33.937447 -0.303470 2.006377 0.014419 -0.007016 979446.000000 0 0 1
-30.668280 8.683365 -14.716676 35.107332 -0.275916 2.003350 -0.005486 -0.001149 1336430.000000 0 0 1
-30.592180 7.700265 -15.750376 35.259749 -0.246585 2.033865 0.010702 -0.014249 -88151.400000 0 0 1
-31.871780 7.540265 -16.613476 36.724290 -0.232310 2.040233 0.011215 -0.015416 -394129.000000 0 0 1
-32.976480 7.079565 -15.911976 37.292887 -0.211475 2.011610 0.019975 -0.019010 -470426.000000 0 0 1
-33.583580 6.054565 -16.600276 37.948435 -0.178368 2.023549 -0.011417 -0.016684 -579440.000000 0 0 1
-34.722080 5.436165 -15.792576 38.530250 -0.155301 1.993113 -0.033877 -0.006597 -232012.000000 0 0 1
34.691773 4.319265 -16.289276 38.568325 0.123867 2.006831 -0.023707 -0.005022 331448.000000 0 0 1
33.687273 4.112065 -15.300776 37.227076 0.121465 1.994360 -0.010885 0.000457 -181324.000000 0 0 1
32.876973 2.820765 -15.377376 36.404887 0.085588 2.006886 -0.001526 0.004539 -886161.000000 0 0 1
33.684173 1.714165 -15.399176 37.076900 0.050845 1.999103 -0.005798 -0.007667 -195513.000000 0 0 1
32.917973 0.512865 -15.312276 36.308701 0.015579 2.006143 -0.008795 -0.000793 155874.000000 0 0 1
32.433873 0.008065 -13.948076 35.305878 0.000249 1.976934 -0.006247 -0.011324 -68164.300000 0 0 1
33.514973 -0.177535 -13.051076 35.966867 -0.005297 1.942136 0.010004 -0.011685 198871.000000 0 0 1
33.215473 0.000365 -11.683476 35.210386 0.000011 1.909028 0.002720 -0.007008 -366075.000000 0 0 1
33.075873 1.413365 -11.092976 34.915113 0.042705 1.894113 0.005129 -0.014231 -4963.490000 0 0 1
32.057873 2.212365 -11.678076 34.190339 0.068902 1.919373 0.007606 -0.009630 484652.000000 0 0 1
32.063873 3.503565 -11.128376 34.120488 0.108837 1.903024 0.012653 -0.001051 -436379.000000 0 0 1
31.041373 4.466465 -11.777576 33.499663 0.142907 1.930047 0.010087 0.006508 -362045.000000 0 0 1
31.290373 4.946765 -13.080576 34.273304 0.156795 1.962382 0.004927 0.004572 448023.000000 0 0 1
30.276673 5.830465 -13.540776 33.675271 0.190244 1.984604 0.011594 0.003333 -102727.000000 0 0 1
30.625473 6.510865 -14.866276 34.660022 0.209478 2.014090 -0.008420 0.004817 -465322.000000 0 0 1
30.633473 5.555365 -15.916976 34.966010 0.179400 2.043408 -0.009914 0.007347 205933.000000 0 0 1
30.963473 6.136565 -17.170876 35.933732 0.195652 2.069000 -0.010448 0.008621 -1038610.000000 0 0 1
30.016373 7.123465 -17.873376 35.653667 0.233009 2.095903 0.001106 0.008573 405245.000000 0 0 1
28.762573 6.692565 -18.388576 34.788156 0.228615 2.127732 -0.007976 0.008122 1099520.000000 0 0 1
27.779873 6.221165 -17.447376 33.389148 0.220310 2.120631 -0.004787 0.011504 285254.000000 0 0 1
26.345973 6.065065 -18.055476 32.509930 0.226266 2.159620 -0.000888 0.008029 421126.000000 0 0 1
26.214873 4.994665 -19.017176 32.769181 0.188271 2.189939 0.005100 0.005639 844603.000000 0 0 1
25.013373 5.082265 -19.807976 32.308732 0.200453 2.230755 -0.001253 0.004134 585847.000000 0 0 1
24.731673 3.939765 -20.779276 32.541600 0.157973 2.263402 0.009746 0.006914 -207471.000000 0 0 1
24.533073 2.743065 -20.026276 31.787542 0.111348 2.252355 0.006934 -0.001141 214341.000000 0 0 1
24.100773 1.657565 -20.836976 31.902576 0.068668 2.282525 0.003857 -0.001672 -389147.000000 0 0 1
23.080973 0.841865 -20.000576 30.552628 0.036458 2.284485 0.005227 -0.005871 799946.000000 0 0 1
21.819673 1.546465 -19.875176 29.555242 0.070756 2.308345 0.006059 -0.008595 680847.000000 0 0 1
20.952773 0.807965 -19.052176 28.331201 0.038542 2.308351 0.007529 -0.006062 -1179950.000000 0 0 1
19.684673 1.550565 -18.764076 27.239331 0.078608 2.330711 0.016486 -0.015273 -1684130.000000 0 0 1
18.855173 1.564365 -19.940476 27.487950 0.082778 2.382450 0.021240 -0.017008 452907.000000 0 0 1
17.800073 2.513765 -19.901476 26.818471 0.140294 2.406966 0.009152 -0.014411 576535.000000 0 0 1
16.549473 2.148165 -19.043776 25.321238 0.129081 2.422019 0.020016 -0.012125 -548404.000000 0 0 1
16.861473 2.156165 -17.637376 24.495619 0.127185 2.374630 0.018424 -0.013500 187705.000000 0 1 0
15.732573 2.082265 -16.785576 23.099897 0.131589 2.384232 0.008817 -0.005031 410176.000000 0 1 0
14.776573 3.299765 -16.709276 22.548514 0.219706 2.405409 0.015225 -0.002482 224441.000000 0 1 0
14.066373 3.672065 -17.888676 23.051066 0.255354 2.459167 0.017879 0.004530 1171590.000000 0 1 0
12.952773 4.571065 -17.701376 22.405528 0.339258 2.481679 0.010878 -0.000372 660687.000000 0 1 0
-19.375127 -22.037735 -17.847076 34.344948 0.849604 2.117228 0.040977 -0.006645 69392.800000 0 0 1
-19.235727 -22.882335 -18.994676 35.417682 0.871763 2.136849 0.059474 -0.018911 -200670.000000 0 0 1
-20.120127 -22.420635 -19.939476 36.125989 0.839423 2.155488 0.053910 -0.012953 -447014.000000 0 0 1
-20.007927 -23.231435 -21.277976 37.319820 0.859811 2.177487 0.063633 -0.005874 29151.300000 0 0 1
-20.314727 -24.589435 -21.109176 38.248213 0.880308 2.155437 0.058053 -0.000258 449846.000000 0 0 1
-19.633727 -25.255875 -22.168776 38.920395 0.909993 2.176807 0.062394 -0.001238 208866.000000 0 0 1
-19.348727 -26.758595 -21.979476 39.667279 0.944745 2.158073 0.060495 0.013970 291034.000000 0 0 1
-20.575127 -27.453005 -22.058676 40.787112 0.927636 2.142214 0.055585 0.018723 237987.000000 0 0 1
-20.297127 -28.802155 -21.767876 41.417121 0.956917 2.124189 0.090736 0.007987 134038.000000 0 0 1
-21.527027 -29.731585 -21.837476 42.711303 0.944114 2.107471 0.063146 0.012091 202548.000000 0 0 1
-22.229727 -29.888155 -23.059276 43.808593 0.931298 2.125115 0.032185 0.021061 299948.000000 0 0 1
-21.409127 -30.428925 -24.094476 44.326222 0.957673 2.145483 0.037313 0.015270 -126245.000000 0 0 1
-21.820427 -30.032475 -25.529196 45.053529 0.942466 2.173220 0.026799 0.026670 -106273.000000 0 0 1
-23.071627 -30.557225 -25.914176 46.234062 0.924084 2.165785 0.014683 0.025194 41019.700000 0 0 1
-23.594827 -29.843115 -27.020146 46.662787 0.901796 2.188361 0.020638 0.027790 121192.000000 0 0 1
-22.939027 -30.104195 -28.444946 47.345290 0.919667 2.215295 0.029848 0.013326 -225056.000000 0 0 1
-23.447727 -31.276525 -29.019676 48.684274 0.927493 2.209405 0.014380 0.021429 137002.000000 0 0 1
-23.021927 -31.387375 -30.374566 49.373988 0.937954 2.233428 0.040718 0.018468 -144062.000000 0 0 1
-23.530927 -32.671435 -31.112626 50.883423 0.946622 2.228687 0.010087 0.013916 -47971.100000 0 0 1
-23.018227 -33.852275 -30.607376 51.113861 0.973646 2.212808 0.005825 0.007179 -371039.000000 0 0 1
-23.782827 34.422792 -31.086726 52.124236 -0.966202 2.209801 0.009763 0.008393 -37720.000000 0 0 1
-23.096227 33.046788 -31.130026 50.937260 -0.960813 2.228302 0.022584 0.012694 -250118.000000 0 0 1
-22.071227 32.822578 -32.043876 50.904525 -0.978807 2.251693 0.019423 -0.001744 -371872.000000 0 0 1
-21.790527 31.430198 -32.251426 50.028381 -0.964582 2.271378 0.030925 0.006083 -600625.000000 0 0 1
-20.611527 31.235628 -33.169486 50.007143 -0.987512 2.296009 0.026282 0.008417 -670241.000000 0 0 1
-20.970127 30.954008 -34.502211 50.875332 -0.975358 2.316068 0.020166 0.004359 173923.000000 0 0 1
-20.314727 29.846068 33.968083 49.571227 -0.973175 0.815866 0.008295 0.002672 30599.100000 0 0 1
-20.487527 29.757288 32.450163 48.561796 -0.967839 0.838977 0.004414 -0.005477 -169368.000000 0 0 1
-19.710427 30.716298 31.798693 48.406082 -1.000283 0.854076 -0.002892 0.003446 105279.000000 0 0 1
-19.699627 30.626348 30.396173 47.433910 -0.999199 0.875242 0.005202 0.005323 -405776.000000 0 0 1
-19.251327 31.929908 29.760103 47.705307 -1.028229 0.897160 -0.007899 -0.000993 -552238.000000 0 0 1
-20.011427 33.013198 30.154103 48.985696 -1.025856 0.907688 0.002149 -0.002931 -311652.000000 0 0 1
-19.554827 34.254686 29.606843 49.318758 -1.052075 0.926900 -0.014129 -0.004567 -173547.000000 0 0 1
-20.578227 -33.974665 29.884713 49.707518 1.026201 0.925780 -0.013801 -0.013374 44432.800000 0 0 1
-20.713327 -33.575525 31.228673 50.314887 1.018030 0.901206 -0.012654 -0.005830 -77730.800000 0 0 1
-21.700427 -32.559545 31.347723 50.136935 0.982920 0.895355 0.007412 -0.011761 65407.800000 0 0 1
-21.291027 -31.104155 30.905153 48.743254 0.970544 0.884030 0.000893 -0.006556 -390874.000000 0 0 1
-21.149527 -30.976535 29.449043 47.687465 0.971735 0.905182 -0.000434 -0.008169 -68921.200000 0 0 1
-21.031927 -29.628365 29.063993 46.528461 0.953485 0.896113 -0.001504 -0.008539 -578329.000000 0 0 1
-22.373327 -29.036925 28.615253 46.503134 0.914296 0.907979 -0.005035 -0.005997 -1075080.000000 0 0 1
-23.350127 -29.071235 29.608613 47.613392 0.894105 0.899688 -0.003173 -0.005377 358107.000000 0 0 1
-24.414527 -30.025205 29.443543 48.626169 0.888098 0.920392 -0.009711 -0.008690 1012310.000000 0 0 1
-25.482017 -29.805075 28.262283 48.336656 0.863432 0.946290 -0.023019 -0.003624 541243.000000 0 0 1
-24.976327 -29.960385 26.971243 47.422458 0.875874 0.965818 -0.020171 -0.005253 69760.000000 0 0 1
-26.164877 -30.060145 26.233523 47.711747 0.854568 0.988631 -0.011807 -0.005570 118564.000000 0 0 1
-25.827027 -30.400495 24.792913 46.967158 0.866558 1.014697 -0.006685 -0.009496 -504254.000000 0 0 1
-25.242227 -29.276995 24.119813 45.563997 0.859270 1.012949 -0.034045 -0.005497 394841.000000 0 0 1
-24.730427 -29.567635 22.838253 44.804295 0.874250 1.035921 -0.018241 -0.004619 -194946.000000 0 0 1
-23.467727 -30.438175 22.679053 44.626855 0.913992 1.037711 -0.030431 -0.002630 -552408.000000 0 0 1
-23.644727 -31.867195 22.746653 45.738403 0.932450 1.050289 -0.020211 -0.012163 860938.000000 0 0 1
-22.462227 -32.436635 22.157153 45.250706 0.965125 1.059104 -0.015070 0.000649 584021.000000 0 0 1
-21.527127 -33.173385 23.128553 45.812887 0.995175 1.041590 -0.014818 -0.002807 -306912.000000 0 0 1
-20.864427 -32.338445 24.065003 45.389687 0.997810 1.011976 -0.012376 -0.008735 40541.700000 0 0 1
-20.018427 -33.153515 24.829253 46.004182 1.027580 1.000695 -0.002562 -0.013602 -501760.000000 0 0 1
-19.393027 -32.447385 26.042243 45.903385 1.032087 0.967540 0.007351 -0.010819 -876707.000000 0 0 1
-18.516927 -31.400855 25.692543 44.598173 1.037989 0.956860 0.018141 -0.013223 277181.000000 0 0 1
-17.741727 -30.792765 26.732203 44.469922 1.048087 0.925882 0.023846 -0.008594 -12956.400000 0 0 1
-16.724227 -31.556415 27.548623 45.104698 1.083454 0.913763 0.018345 -0.017044 -1036480.000000 0 0 1
-17.249327 -32.751175 28.121333 46.486430 1.086035 0.921110 0.001997 -0.013999 -485719.000000 0 0 1
-16.614927 -33.110795 29.299513 47.231790 1.105711 0.901627 0.001617 -0.005968 -650143.000000 0 0 1
-17.083527 -32.463325 30.607213 47.775683 1.086377 0.875459 0.002936 -0.001053 -215395.000000 0 0 1
-16.785227 -31.094915 30.757873 46.847458 1.075813 0.854556 0.015376 -0.004393 161158.000000 0 0 1
-17.221227 -30.573365 32.004463 47.493020 1.057818 0.831352 0.013921 0.002938 10848.400000 0 0 1
-16.775427 -29.074735 32.069983 46.424552 1.047478 0.808204 0.032537 -0.007398 200542.000000 0 0 1
-17.629527 -28.101675 31.465793 45.723085 1.010510 0.811816 0.023104 -0.002458 25064.700000 0 0 1
-17.744827 -28.161275 30.059563 44.849901 1.008528 0.836283 0.018544 -0.004869 -240308.000000 0 0 1
-16.500427 -27.957425 29.155963 43.634297 1.037615 0.839024 0.022439 -0.003021 -9342.000000 0 0 1
-16.288127 -26.537865 29.006623 42.555206 1.020314 0.820817 0.031664 -0.000593 976118.000000 0 0 1
-15.111127 -26.258105 28.210493 41.396451 1.048598 0.821025 0.046313 -0.006702 769825.000000 0 0 1
-15.180727 -24.791835 27.693503 40.149965 1.021362 0.809650 0.036279 -0.006644 -20853.700000 0 0 1
-16.066827 -24.709535 26.582153 39.690237 0.994261 0.836937 0.031006 -0.003415 185115.000000 0 0 1
-15.889227 -23.656935 25.673043 38.356528 0.979350 0.837494 0.018763 0.003965 -141835.000000 0 0 1
-16.353327 -22.268235 26.188113 38.067346 0.937368 0.812147 0.023297 0.008609 -511335.000000 0 0 1
-16.122627 -21.120635 25.388723 36.750613 0.918800 0.808149 0.010788 0.006989 -7257.970000 0 0 1
-16.563627 -19.899435 25.943873 36.652774 0.876629 0.784377 0.021540 0.009866 -257999.000000 0 0 1
-16.307727 -18.707735 25.026983 35.245868 0.853833 0.781201 0.004266 0.002795 1725.420000 0 0 1
-14.932827 -18.394435 24.970643 34.422051 0.888894 0.759144 0.008309 -0.001394 -303415.000000 0 0 1
-14.656127 -17.326935 24.110423 33.110984 0.868712 0.755148 0.011490 0.002668 407903.000000 0 0 1
-13.250127 -16.687735 24.350173 32.357029 0.899722 0.718876 0.015583 -0.003452 622212.000000 0 0 1
-12.203627 -17.576935 23.956953 32.121842 0.963908 0.729039 0.002567 -0.000129 963953.000000 0 0 1
-10.861527 -17.063235 23.934753 31.336866 1.003938 0.701633 0.013861 -0.007261 723407.000000 0 0 1
-10.562927 -16.167135 22.670653 29.781037 0.992064 0.705566 0.009454 -0.004481 -462581.000000 0 0 1
-10.128127 -16.807435 21.478953 29.093199 1.028469 0.740278 0.019047 0.001978 35812.200000 0 0 1
-8.768727 -17.184335 21.574853 28.942464 1.098963 0.729603 0.024999 0.001341 -553561.000000 0 0 1
-8.512627 -18.437435 20.675053 28.980367 1.138253 0.776436 0.028071 -0.000811 -185560.000000 0 0 1
-8.325627 -18.163535 19.282653 27.767801 1.141003 0.803176 0.030209 -0.004778 -208117.000000 0 0 1
-7.917127 -19.352635 18.703753 28.054158 1.182471 0.841022 0.031028 -0.003162 -83679.900000 0 0 1
-7.541427 -19.162335 17.263553 26.871890 1.195859 0.873119 0.018548 -0.008162 243556.000000 0 0 1
-6.448727 -18.307835 16.947153 25.767594 1.232129 0.853045 0.019909 -0.004950 80490.700000 0 0 1
-6.409727 -18.094035 15.587853 24.727715 1.230345 0.888754 0.030231 -0.009553 101973.000000 0 1 0
-5.514227 -16.901835 15.259153 23.429052 1.255434 0.861511 0.012121 -0.010493 26591.400000 0 1 0
-6.133327 -15.669335 15.630953 22.966769 1.197706 0.822229 0.019149 -0.016604 -277158.000000 0 1 0
-5.305127 -14.561235 15.549553 21.953645 1.221411 0.783723 0.016631 -0.014357 -720457.000000 0 1 0
-5.583027 -13.413235 16.575753 22.041793 1.176375 0.719683 0.007462 -0.006886 -46498.200000 0 1 0
-5.099727 -13.786935 17.911053 23.170943 1.216508 0.687246 0.010196 -0.003335 37133.400000 0 1 0
-5.792527 -14.714335 18.735053 24.516673 1.195763 0.701033 0.017239 -0.004186 462028.000000 0 1 0
-7.132227 -14.295435 19.438353 25.161035 1.108016 0.687937 0.036085 -0.010410 760846.000000 0 0 1
-6.902727 -13.223535 20.354353 25.235079 1.089702 0.632437 0.036446 -0.011515 -269321.000000 0 0 1
-8.086127 -12.916735 21.036253 25.975978 1.011464 0.626926 0.039973 -0.008886 159801.000000 0 0 1
-7.769627 -12.050035 22.311953 26.521570 0.998099 0.571158 0.038464 -0.001260 -394557.000000 0 0 1
-7.560627 -10.612135 22.132153 25.682926 0.951763 0.532096 0.040471 -0.000487 391527.000000 0 0 1
-6.868427 -9.971335 23.212753 26.180808 0.967615 0.480784 0.024626 0.001058 -163796.000000 0 0 1
-5.410427 -10.356435 23.476853 26.223865 1.089373 0.461810 0.032376 -0.003904 -729959.000000 0 0 1
-5.138727 -11.563235 24.131913 27.248195 1.152607 0.482940 0.039662 0.002114 -844438.000000 0 0 1
-3.849027 -11.668135 24.617983 27.513732 1.252161 0.462920 0.031934 0.000652 -927786.000000 0 0 1
-3.560827 -12.852235 25.593793 28.860036 1.300517 0.480368 0.039582 -0.002802 -694655.000000 0 0 1
-2.200127 -13.050735 25.843833 29.035598 1.403784 0.473289 0.021331 -0.004922 -389687.000000 0 0 1
-2.020027 -13.966235 26.887633 30.365787 1.427156 0.483317 0.026156 -0.015081 -199069.000000 0 0 1
-2.129627 -15.474535 26.464703 30.730718 1.434034 0.533208 0.026369 -0.021770 60509.100000 0 0 1
-1.043227 -15.997935 25.708983 30.298087 1.505678 0.557586 0.005519 -0.018253 57069.900000 0 0 1
-1.380427 -17.323835 25.239673 30.644118 1.491281 0.602999 0.012460 -0.016667 -1789.080000 0 0 1
-0.126827 -18.251435 24.944293 30.908716 1.563848 0.631689 0.006988 -0.017989 1625680.000000 0 0 1
0.661873 -18.770935 26.083783 32.142648 -1.535550 0.624081 0.014588 -0.020002 988051.000000 0 0 1
1.270573 -17.752835 26.884623 32.242216 -1.499348 0.584781 0.002520 -0.019561 -757234.000000 0 0 1
1.858573 -18.115735 28.245283 33.606996 -1.468560 0.572668 0.007829 -0.017165 -542317.000000 0 0 1
3.117873 -18.747335 28.076463 33.903857 -1.405995 0.595051 0.011883 -0.022295 203849.000000 0 0 1
3.835473 -18.779835 29.304473 35.016356 -1.369333 0.579239 0.022394 -0.022487 126434.000000 0 0 1
4.504773 -17.456135 29.838533 34.861837 -1.318244 0.543492 0.017436 -0.019064 -1138560.000000 0 0 1
3.663273 -16.421135 30.274593 34.635592 -1.351307 0.507239 0.011889 -0.023261 -108675.000000 0 0 1
4.351873 -15.284435 30.784333 34.644306 -1.293411 0.476550 0.009315 -0.012449 -13038.800000 0 0 1
3.316973 -14.314735 31.378453 34.648539 -1.343097 0.437954 0.003308 -0.014026 -160638.000000 0 0 1
2.625573 -14.862435 32.518293 35.850035 -1.395942 0.434538 0.017538 -0.020741 62464.000000 0 0 1
1.714173 -14.048235 33.192788 36.083964 -1.449376 0.403031 0.016491 -0.013689 -325496.000000 0 0 1
0.969173 -14.736435 34.328381 37.370303 -1.505124 0.406272 0.008970 -0.009624 313163.000000 0 0 1
1.788573 -14.956535 -33.617006 36.837482 -1.451777 2.720337 0.025060 -0.006800 586087.000000 0 0 1
0.964173 -15.609635 -32.638466 36.191986 -1.509107 2.694747 0.021651 -0.008806 497936.000000 0 0 1
1.691673 -15.693935 -31.299086 35.054160 -1.463419 2.674493 0.020013 -0.004260 12243.000000 0 0 1
0.894673 -16.139335 -30.207006 34.259915 -1.515419 2.650252 0.037944 -0.006785 -527568.000000 0 0 1
1.576173 -16.118435 -28.988336 33.205601 -1.473319 2.632107 0.021308 -0.003746 -206280.000000 0 0 1
1.146773 -17.232235 -28.011126 32.907267 -1.504346 2.589090 0.039971 -0.009694 -119371.000000 0 0 1
1.608573 -18.477435 -28.455936 33.966799 -1.483959 2.563959 0.043842 -0.012654 150114.000000 0 0 1
1.302073 -19.518635 -27.530796 33.773026 -1.504186 2.523821 0.034398 -0.008458 -1048040.000000 0 0 1
2.051873 -20.799135 -27.981956 34.925694 -1.472463 2.500070 0.029545 -0.003809 628065.000000 0 0 1
3.438373 -20.806935 -27.628896 34.757832 -1.407025 2.489634 0.026492 -0.003973 547626.000000 0 0 1
3.603373 -21.056435 -26.235346 33.832694 -1.401309 2.458214 0.023789 -0.004930 -588005.000000 0 0 1
5.089073 -21.364335 -25.838646 33.911195 -1.336950 2.437116 0.018105 -0.006386 552309.000000 0 0 1
5.431673 -22.762035 -25.947756 34.941371 -1.336548 2.407753 0.014735 -0.000994 54728.100000 0 0 1
5.682673 -23.169835 -27.296686 36.252491 -1.330282 2.423345 0.008288 0.001087 -1215370.000000 0 0 1
5.034873 -24.481435 -27.615806 37.246790 -1.367964 2.405992 0.000402 0.003532 -482768.000000 0 0 1
5.486473 -25.633125 -26.894556 37.556300 -1.359939 2.369014 0.006431 0.009410 -162735.000000 0 0 1
5.005473 -26.799055 -27.495626 38.720196 -1.386146 2.360452 0.001632 0.010112 -42657.100000 0 0 1
5.125873 -28.050115 -26.587246 38.986731 -1.390051 2.321230 -0.001833 0.006352 8184.590000 0 0 1
6.488473 -28.394825 -26.507766 39.383094 -1.346144 2.309155 0.005582 0.008076 -166214.000000 0 0 1
6.622673 -29.601225 -25.731586 39.776964 -1.350691 2.274304 0.003326 0.011414 38341.600000 0 0 1
8.058973 -30.160795 -25.788426 40.492759 -1.309696 2.261222 0.011241 0.010480 15898.800000 0 0 1
8.518373 -30.442295 -27.085186 41.628156 -1.297954 2.279231 0.022790 0.004201 -290194.000000 0 0 1
9.925673 -30.498115 -27.073416 41.971703 -1.256156 2.271872 0.066507 0.006778 115800.000000 0 0 1
10.519973 -30.538075 -28.519006 43.088021 -1.239041 2.294117 0.073070 -0.014579 87519.100000 0 0 1
10.133073 -31.705185 -29.222076 44.292524 -1.261454 2.291285 0.090104 -0.023461 -18934.000000 0 0 1
10.157073 -31.633255 -30.601886 45.169729 -1.260106 2.315136 0.078431 -0.011875 105552.000000 0 0 1
-33.926507 -4.664535 -6.113276 34.787036 0.136633 1.747448 0.065723 -0.020409 -134141.000000 0 0 1
-33.823477 -3.960135 -4.887676 34.403483 0.116552 1.713348 0.058693 -0.016722 349872.000000 0 0 1
-32.911307 -2.888935 -4.925776 33.403044 0.087555 1.718801 0.053389 -0.022366 -29235.200000 0 0 1
-33.571887 -1.517935 -5.344276 34.028473 0.045184 1.728502 0.041970 -0.009183 -54648.900000 0 0 1
-34.374723 -0.891835 -4.384776 34.664726 0.025939 1.697627 0.016810 -0.000125 324388.000000 0 0 1
-35.064036 0.242165 -4.930776 35.409855 -0.006906 1.710499 0.019939 -0.004690 153587.000000 0 0 1
34.334496 1.096765 -3.889176 34.571465 0.031933 1.683532 0.028040 -0.003488 188126.000000 0 0 1
-34.887507 1.766965 -3.034276 35.063758 -0.050604 1.657441 0.011907 0.003273 404117.000000 0 0 1
34.682299 2.742465 -2.247376 34.863070 0.078910 1.635304 0.022984 -0.005217 -153286.000000 0 0 1
-34.660178 4.065365 -2.281276 34.972265 -0.116759 1.636074 0.009275 -0.012256 -329892.000000 0 0 1
-34.657777 4.763765 -3.491176 35.157407 -0.136596 1.670262 0.012326 -0.012620 276650.000000 0 0 1
-33.573507 5.630965 -3.776076 34.251232 -0.166174 1.681267 -0.004906 0.001815 -131611.000000 0 0 1
-33.333447 6.843265 -2.817176 34.145065 -0.202484 1.653396 -0.000442 0.001353 -464397.000000 0 0 1
-32.823447 6.451765 -1.578476 33.488737 -0.194085 1.617948 -0.000075 -0.007618 358413.000000 0 0 1
-32.565457 7.619165 -0.796776 33.454379 -0.229831 1.594615 0.006159 -0.018316 -149179.000000 0 0 1
-31.780737 7.441765 0.538424 32.644831 -0.230015 1.554302 0.006229 -0.010834 -140151.000000 0 0 1
-30.405357 7.175765 0.291224 31.241993 -0.231763 1.561475 0.004603 -0.010064 660573.000000 0 0 1
-29.463317 7.568265 1.271424 30.446382 -0.251435 1.529025 0.006521 -0.010195 241734.000000 0 0 1
-29.221427 9.163165 1.252424 30.650023 -0.303866 1.529923 0.013404 -0.014758 -890846.000000 0 0 1
-30.424017 9.867965 1.469224 32.018060 -0.313642 1.524893 0.011847 -0.012483 306636.000000 0 0 1
-30.209797 11.259265 1.617624 32.280328 -0.356755 1.520664 0.028032 -0.003149 486906.000000 0 0 1
-31.587017 12.007365 1.588724 33.829580 -0.363266 1.523816 0.029979 -0.004709 -150497.000000 0 0 1
-32.069337 12.151865 0.265324 34.295489 -0.362207 1.563060 0.013737 0.002391 1644550.000000 0 0 1
-33.403027 12.737165 0.205024 35.749680 -0.364298 1.565061 0.006512 0.014951 1002450.000000 0 0 1
-34.559922 11.764665 0.408124 36.509753 -0.328109 1.559618 0.007737 -0.009460 -916217.000000 0 0 1
-34.849774 10.950365 -0.697376 36.536332 -0.304448 1.589885 0.006870 -0.003099 181651.000000 0 0 1
33.993816 10.421165 -0.598476 35.560348 0.297465 1.587627 0.021008 -0.009011 272667.000000 0 0 1
33.847686 9.228265 -1.587076 35.119019 0.266172 1.616003 0.016114 -0.020840 -176416.000000 0 0 1
33.633116 9.626565 -2.909776 35.104473 0.278770 1.653781 0.021120 -0.017629 320039.000000 0 0 1
33.258686 8.491265 -3.677776 34.521990 0.249970 1.677533 0.002621 -0.010021 -41719.300000 0 0 1
32.666766 8.840065 -5.100476 34.223956 0.264283 1.720386 0.005069 -0.001110 -304881.000000 0 0 1
31.338266 9.259765 -5.075476 33.069481 0.287303 1.724885 0.018817 -0.007522 -436121.000000 0 0 1
30.855006 9.602765 -6.347776 32.932336 0.301720 1.764762 0.013523 -0.003926 1541150.000000 0 0 1
29.404626 10.301265 -6.319476 31.791254 0.336967 1.770910 0.020217 0.002225 1585940.000000 0 0 1
28.367546 9.404265 -5.958576 30.473964 0.320113 1.767594 0.004313 0.005676 238281.000000 0 0 1
27.113606 10.036565 -6.117776 29.551775 0.354527 1.779323 -0.000289 0.012243 340440.000000 0 0 1
25.957656 8.976565 -6.150376 28.146150 0.332942 1.791089 -0.000108 0.018652 308824.000000 0 0 1
26.249616 8.193065 -7.246576 28.437326 0.302540 1.828464 0.002856 0.023332 900916.000000 0 0 1
25.191786 7.226765 -7.288476 27.202465 0.279368 1.842045 -0.007786 0.013281 202059.000000 0 0 1
25.224836 6.233065 -8.492576 27.336190 0.242248 1.886696 -0.012195 0.008834 -123991.000000 0 0 1
26.241016 5.237665 -8.474676 28.068562 0.197009 1.877510 -0.002736 0.008624 664175.000000 0 0 1
26.145886 4.356565 -9.596776 28.190160 0.165108 1.918171 -0.003745 0.004723 -522539.000000 0 0 1
27.170586 3.207665 -9.662876 29.015531 0.117513 1.910305 0.009073 0.003965 -324444.000000 0 0 1
28.512686 3.677265 -9.734776 30.352288 0.128261 1.897292 0.039894 0.004496 970606.000000 0 0 1
29.384236 3.234665 -8.680676 30.809909 0.109640 1.856413 0.031887 -0.005437 68275.900000 0 0 1
29.554136 1.680265 -8.380276 30.765228 0.056793 1.846677 0.034821 -0.008014 -481169.000000 0 0 1
28.365986 1.146465 -7.770676 29.433432 0.040395 1.837972 0.032846 -0.008727 862295.000000 0 0 1
28.448156 -0.201335 -7.322576 29.376151 -0.007077 1.822722 0.029071 -0.007438 -287390.000000 0 0 1
28.497556 -1.360335 -8.385976 29.736943 -0.047699 1.856680 0.024659 -0.006106 151830.000000 0 0 1
29.675446 -1.492035 -9.188276 31.101168 -0.050236 1.870704 0.038618 -0.016427 704200.000000 0 0 1
29.550426 -2.637835 -10.003776 31.309126 -0.089030 1.896015 0.025592 -0.020228 -458521.000000 0 0 1
30.540356 -2.704835 -11.150976 32.624741 -0.088335 1.919623 0.023341 -0.015834 -1513030.000000 0 0 1
31.792766 -3.095835 -10.752776 33.704397 -0.097069 1.895504 0.025058 -0.017499 -1103970.000000 0 0 1
32.588936 -3.385635 -11.862876 34.845790 -0.103518 1.918180 0.003557 -0.023388 666350.000000 0 0 1
34.089266 -3.754135 -11.579476 36.197456 -0.109685 1.896418 0.010208 -0.021210 684372.000000 0 0 1
34.042276 -4.930435 -10.846276 36.066985 -0.143833 1.876250 0.011440 -0.014680 381638.000000 0 0 1
-34.848426 -5.262935 -10.291476 36.715470 0.149891 1.854907 0.033870 -0.016672 20733.100000 0 0 1
-34.863837 -6.623035 -9.547876 36.749335 0.187732 1.833623 0.040516 -0.020155 -159023.000000 0 0 1
34.792159 -6.592535 -8.232176 36.355530 -0.187263 1.799213 0.042207 -0.017528 432781.000000 0 0 1
34.513691 -7.868635 -7.719076 36.231125 -0.224155 1.785493 0.041194 -0.010879 -248879.000000 0 0 1
34.241590 -7.825435 -6.186676 35.665093 -0.224677 1.745144 0.044305 -0.006250 -584414.000000 0 0 1
-34.743925 -8.090735 -5.465176 36.089728 0.228790 1.722814 0.047363 -0.005964 91800.900000 0 0 1
-34.960076 -8.624635 -4.154576 36.247093 0.241870 1.685667 0.056084 -0.009627 -590461.000000 0 0 1
-34.761776 -10.114335 -4.067176 36.431069 0.283144 1.682670 0.059262 -0.015572 -388089.000000 0 0 1
34.536334 -10.878235 -4.866376 36.534586 -0.305142 1.704393 0.046495 -0.018053 -125296.000000 0 0 1
-34.875434 -11.780435 -5.665776 37.244806 0.325753 1.723512 0.029331 -0.013679 -65258.200000 0 0 1
34.519136 -12.312535 -6.900576 37.293260 -0.342620 1.756904 0.020426 0.002322 -81125.600000 0 0 1
34.459794 -11.455035 -7.990276 37.182519 -0.320926 1.787379 0.043452 0.001379 115502.000000 0 0 1
34.051926 -12.197735 -9.107176 37.299585 -0.343970 1.817453 0.029659 0.011493 -81734.900000 0 0 1
34.287653 -11.455335 -10.394576 37.615357 -0.322436 1.850779 0.004605 0.004635 65499.900000 0 0 1
33.432506 -10.340235 -10.581176 36.559735 -0.299955 1.864419 0.002872 0.006220 325692.000000 0 0 1
33.548016 -9.879635 -11.942276 36.955304 -0.286396 1.899857 0.006311 -0.000504 -287906.000000 0 0 1
32.804876 -8.591935 -12.227376 36.048439 -0.256157 1.916855 0.005075 0.005671 -383409.000000 0 0 1
32.790636 -8.230235 -13.615276 36.446376 -0.245913 1.953651 0.003608 0.004065 468340.000000 0 0 1
31.928696 -7.136335 -13.912676 35.551814 -0.219894 1.972878 -0.002973 -0.003197 -165401.000000 0 0 1
32.357386 -6.320835 -15.157776 36.286520 -0.192915 2.001736 -0.013295 -0.001376 -64423.100000 0 0 1
33.468096 -5.472535 -15.017576 37.088943 -0.162081 1.987674 -0.015311 0.008261 94151.200000 0 0 1
33.153356 -4.228335 -15.630976 36.896494 -0.126854 2.008261 -0.005909 0.001796 178334.000000 0 0 1
34.337373 -3.218735 -15.648976 37.872231 -0.093465 1.996767 -0.007876 -0.003314 392737.000000 0 0 1
35.058157 -3.283335 -16.926976 39.068878 -0.093382 2.018903 -0.000632 -0.007488 122188.000000 0 0 1
-33.845777 -2.646335 -16.915676 37.929933 0.078029 2.033056 0.020816 -0.010007 -410454.000000 0 0 1
-33.731377 -1.135335 -16.781476 37.692343 0.033645 2.032219 0.012174 -0.004571 -780992.000000 0 0 1
-34.148422 -0.219735 -17.763976 38.493140 0.006435 2.050464 -0.004931 -0.001597 203900.000000 0 0 1
-33.847437 1.110265 -17.291376 38.024641 -0.032790 2.042878 0.005743 -0.008659 -103373.000000 0 0 1
-34.138790 2.296165 -18.307576 38.805885 -0.067159 2.062097 -0.012263 -0.011309 -226970.000000 0 0 1
-33.373907 2.193465 -19.486976 38.708800 -0.065630 2.098354 -0.003055 -0.011946 387044.000000 0 0 1
-33.559647 3.412365 -20.231176 39.334395 -0.101332 2.111032 -0.004100 -0.010290 100854.000000 0 0 1
-32.632077 3.402965 -21.507376 39.230088 -0.103907 2.151051 0.005158 -0.006035 468943.000000 0 0 1
-31.260927 3.565265 -21.189276 37.933390 -0.113558 2.163483 0.010530 -0.016722 386095.000000 0 0 1
-30.456657 3.967665 -22.273576 37.940249 -0.129543 2.198231 0.010798 -0.009908 -325319.000000 0 0 1
-29.015157 4.383965 -22.035576 36.696936 -0.149958 2.214891 0.022258 -0.016793 -105218.000000 0 0 1
-28.136797 3.344165 -21.620476 35.641377 -0.118299 2.222588 0.031666 -0.013910 -197268.000000 0 0 1
-26.847177 3.797665 -21.356676 34.515225 -0.140523 2.237961 0.019786 -0.000518 -623681.000000 0 0 1
-26.002927 2.734865 -20.663676 33.325954 -0.104790 2.239600 0.027855 -0.011811 -265237.000000 0 0 1
-26.275887 2.668865 -19.286776 32.703590 -0.101224 2.201539 0.033256 -0.011707 232647.000000 0 0 1
-25.351267 1.807665 -18.656776 31.528236 -0.071184 2.204022 0.029714 -0.009817 590743.000000 0 0 1
-24.395227 2.501265 -17.582876 30.175171 -0.102174 2.192835 0.031263 -0.013149 802240.000000 0 0 1
-23.326627 3.335665 -18.016276 29.662171 -0.142035 2.223558 0.016841 -0.006548 218868.000000 0 0 1
-22.779327 3.914365 -16.827676 28.590045 -0.170176 2.200104 0.027054 -0.008353 -159451.000000 0 0 1
-21.661327 4.920565 -17.177276 28.079955 -0.223368 2.229039 0.026326 -0.007671 655545.000000 0 0 1
-20.461227 4.277265 -17.638776 27.351110 -0.206075 2.271691 0.043206 -0.007539 162979.000000 0 0 1
-19.330127 5.105865 -17.483876 26.559548 -0.258242 2.289341 0.037383 -0.005236 -430556.000000 0 0 1
-18.085727 4.371665 -17.957776 25.858977 -0.237170 2.338452 0.033145 -0.009341 -675242.000000 0 0 1
-17.944427 3.132765 -17.319776 25.135459 -0.172840 2.330984 0.047698 -0.009680 305695.000000 0 0 1
-16.999727 2.234465 -17.948976 24.822355 -0.130692 2.379072 0.028166 -0.004227 -241636.000000 0 1 0
-17.037527 0.707265 -17.547976 24.468531 -0.041488 2.370522 0.021113 -0.006997 -402608.000000 0 1 0
-17.977727 -0.097335 -18.180276 25.568156 0.005414 2.361789 0.020169 -0.009711 915053.000000 0 0 1
-19.316327 0.162165 -17.684876 26.189724 -0.008395 2.312114 0.015855 -0.019033 -14670.500000 0 0 1
-20.391527 -0.828735 -18.047276 27.243446 0.040619 2.294874 0.002993 -0.016527 -848854.000000 0 0 1
-20.219527 -2.202935 -17.582076 26.885156 0.108523 2.283616 -0.007556 -0.011857 71826.400000 0 0 1
-21.277027 -3.058435 -17.905776 27.976467 0.142766 2.265334 0.003844 -0.003265 -465027.000000 0 0 1
-21.430727 -4.084735 -16.782476 27.524764 0.188343 2.226507 0.009248 -0.008801 -26240.300000 0 0 1
-21.645527 -3.546735 -15.492676 26.853886 0.162412 2.185755 0.008986 -0.014842 314709.000000 0 0 1
-21.986627 -4.582235 -14.577676 26.775311 0.205469 2.146523 0.013926 -0.021657 -40419.700000 0 0 1
-22.141927 -4.106335 -13.094276 26.049702 0.183372 2.097475 0.011853 -0.018646 -442536.000000 0 0 1
-23.172627 -3.178335 -13.013376 26.766031 0.136309 2.078521 0.008514 -0.021403 -51426.400000 0 0 1
-23.389427 -2.592635 -11.751476 26.303693 0.110396 2.033938 0.012282 -0.024802 -291281.000000 0 0 1
-24.316727 -1.352435 -11.701676 27.019650 0.055560 2.018704 0.043397 -0.030127 23972.700000 0 0 1
-24.797627 -1.082035 -10.361776 26.897203 0.043607 1.966260 0.050012 -0.026550 647406.000000 0 0 1
-25.316877 0.238365 -10.272076 27.322456 -0.009415 1.956226 0.060186 -0.024435 -652614.000000 0 0 1
-25.764197 0.510965 -8.827376 27.239264 -0.019830 1.900823 0.086480 -0.016534 -477649.000000 0 0 1
-24.778527 0.578365 -7.820576 25.989831 -0.023337 1.876442 0.069329 -0.013056 165744.000000 0 0 1
-25.320517 0.888965 -6.551476 26.169461 -0.035094 1.823836 0.066508 -0.016450 -305520.000000 0 0 1
-24.254727 1.332065 -5.552576 24.917810 -0.054865 1.795519 0.053048 -0.011105 -145682.000000 0 1 0
-23.883227 2.715265 -5.682776 24.699699 -0.113203 1.802951 0.075493 -0.014408 428613.000000 0 1 0
-22.528227 2.950465 -5.359276 23.344123 -0.130226 1.802439 0.064801 -0.006480 6816.300000 0 1 0
-22.039327 4.441665 -5.320976 23.103530 -0.198870 1.803193 0.075174 -0.014455 -321954.000000 0 1 0
-22.699627 5.212065 -4.373676 23.697420 -0.225698 1.756424 0.085047 -0.012370 413689.000000 0 1 0
-22.352127 6.583765 -4.569976 23.745488 -0.286447 1.764461 0.083279 -0.013757 -511473.000000 0 1 0
-22.940127 7.591965 -3.548576 24.422935 -0.319601 1.716609 0.077861 -0.005657 -463025.000000 0 1 0
-22.400727 7.576765 -2.229976 23.752320 -0.326158 1.664819 0.073204 -0.003236 916485.000000 0 1 0
-21.013227 7.872265 -2.074076 22.535085 -0.358450 1.662964 0.074773 -0.001820 403393.000000 0 1 0
-20.563927 9.338565 -2.369676 22.709012 -0.426278 1.675336 0.062020 -0.001956 -612962.000000 0 1 0
-20.409727 9.647565 -3.757176 22.885559 -0.441566 1.735715 0.056846 -0.004036 447514.000000 0 1 0
-19.994827 10.989565 -3.898076 23.146460 -0.502552 1.740012 0.073754 0.000092 -391688.000000 0 1 0
-19.680027 11.417165 -5.336676 23.369536 -0.525688 1.801190 0.073208 -0.008393 94903.000000 0 1 0
-18.489327 10.869165 -5.907276 22.246120 -0.531446 1.839562 0.045317 -0.002831 523252.000000 0 1 0
-18.376027 11.348665 -7.253276 22.783340 -0.553246 1.894794 0.044817 -0.001689 -38907.200000 0 1 0
-17.047327 11.034265 -7.991476 21.822696 -0.574455 1.945719 0.032087 0.000551 11917.000000 0 1 0
-16.822827 9.729065 -8.518276 21.218464 -0.524330 1.983902 0.025790 0.000724 268804.000000 0 1 0
-17.649727 9.276165 -9.603276 22.131042 -0.483894 2.019644 0.034465 0.005629 -46109.400000 0 1 0
-17.741927 9.965565 -11.006076 23.134869 -0.511778 2.066596 0.035470 0.006228 62260.500000 0 1 0
-16.577727 9.851065 -11.805676 22.610584 -0.536170 2.120143 0.023498 0.006902 95702.500000 0 1 0
-16.737027 10.572365 -12.987876 23.676737 -0.563385 2.151425 0.030443 0.002222 336500.000000 0 1 0
-15.570827 10.321065 -13.997176 23.343007 -0.585353 2.213835 0.012457 0.002828 99362.600000 0 1 0
-15.660627 9.102665 -14.727876 23.345751 -0.526515 2.253456 0.016434 -0.005224 91716.200000 0 1 0
-15.407127 7.940065 -13.954076 22.251751 -0.475852 2.248621 0.006472 -0.000228 -480409.000000 0 1 0
-15.287427 6.574665 -14.680176 22.190971 -0.406157 2.293664 0.006968 0.000091 -129575.000000 0 1 0
-14.395527 6.424865 -15.776376 22.302559 -0.419781 2.356580 0.019703 -0.003227 450036.000000 0 1 0
-14.528327 5.102665 -16.275876 22.405660 -0.337763 2.383892 0.008938 -0.005110 1556.910000 0 1 0
31.339356 -16.041835 28.515013 45.305647 -0.473102 0.890026 -0.002499 0.006839 -177603.000000 0 0 1
30.493896 -14.948935 28.808773 44.534186 -0.455799 0.867296 -0.007212 0.002313 -6167.080000 0 0 1
29.551266 -15.126135 29.865663 44.654620 -0.473091 0.838183 -0.003002 -0.002529 225559.000000 0 0 1
30.049576 -15.089835 31.315913 45.949609 -0.465378 0.820949 -0.008737 -0.006981 -210216.000000 0 0 1
30.376426 -13.758735 31.716493 46.021364 -0.425297 0.810455 -0.014085 -0.004370 -35752.000000 0 0 1
30.842776 -13.728635 33.045405 47.241412 -0.418786 0.796098 -0.026245 -0.009682 -288583.000000 0 0 1
31.079026 -12.231035 33.478812 47.289903 -0.374930 0.784207 -0.021539 -0.008713 49006.800000 0 0 1
30.980616 -12.147635 -34.195167 47.714495 -0.373681 2.369801 -0.035420 -0.013670 15287.500000 0 0 1
30.906416 -10.819635 -33.735496 47.014410 -0.336744 2.371084 -0.014237 -0.005847 -195509.000000 0 0 1
30.564236 -10.583335 -32.259216 45.681906 -0.333344 2.354871 -0.014078 0.002994 768560.000000 0 0 1
29.191106 -10.889335 -31.976456 44.645179 -0.357048 2.369189 0.015225 0.001584 735824.000000 0 0 1
28.769956 -10.242435 -30.801726 43.374695 -0.342020 2.360481 -0.002740 0.011917 856015.000000 0 0 1
27.388156 -10.648935 -30.136716 42.091954 -0.370827 2.368814 -0.003147 0.018603 893013.000000 0 0 1
27.195176 -10.206435 -28.858276 40.945684 -0.359036 2.352929 -0.009763 0.021095 -71613.200000 0 0 1
26.339436 -11.081135 -28.169056 40.125468 -0.398227 2.349032 0.010374 0.019231 -1126560.000000 0 0 1
25.782046 -10.650035 -26.772306 38.663853 -0.391731 2.335659 0.003532 0.020793 -869393.000000 0 0 1
24.871026 -9.578935 -26.665256 37.700926 -0.367635 2.356445 0.002724 0.020239 843095.000000 0 0 1
23.658826 -9.614735 -27.433436 37.480349 -0.386004 2.391964 0.011196 0.011426 904872.000000 0 0 1
22.748826 -10.912035 -27.426016 37.266177 -0.447256 2.397864 0.018917 0.015384 -1099390.000000 0 0 1
23.301726 -11.896435 -28.230776 38.489899 -0.472043 2.394194 0.011646 0.008266 -108919.000000 0 0 1
22.875426 -13.204135 -27.861806 38.391595 -0.523500 2.382886 0.029325 -0.000982 358486.000000 0 0 1
23.828426 -14.186435 -28.618636 39.850661 -0.536999 2.371932 0.000666 0.008952 391622.000000 0 0 1
23.632626 -14.184435 -30.017806 40.752520 -0.540571 2.398808 0.006405 -0.003280 1014100.000000 0 0 1
24.731426 -14.916435 -30.622096 42.093423 -0.542723 2.385437 0.001110 0.008291 820284.000000 0 0 1
24.464026 -15.039435 -32.117526 43.083740 -0.551200 2.412032 0.017408 -0.013366 -622027.000000 0 0 1
23.266426 -15.666435 -32.448716 42.891525 -0.592615 2.428787 0.020731 -0.013275 -272760.000000 0 0 1
23.144426 -15.901035 -33.866486 43.993707 -0.601972 2.449329 0.020298 -0.014277 -28508.600000 0 0 1
23.262026 -14.744135 34.160285 43.879795 -0.564923 0.678529 0.017441 -0.020113 -124847.000000 0 0 1
22.194926 -13.815635 34.132424 42.994289 -0.556777 0.653628 0.016802 -0.020221 -64302.200000 0 0 1
22.431326 -12.729135 33.225862 42.061302 -0.516158 0.660087 0.023675 -0.022477 -350221.000000 0 0 1
21.349626 -11.606135 33.408496 41.311457 -0.497934 0.628861 0.038086 -0.025621 886610.000000 0 0 1
20.005726 -11.987435 33.108622 40.498253 -0.539831 0.613684 0.038811 -0.024564 653297.000000 0 0 1
19.723226 -12.304435 31.765513 39.363086 -0.557776 0.631763 0.025672 -0.015191 -1078520.000000 0 0 1
18.238326 -12.552235 31.447643 38.459711 -0.602786 0.613431 0.021721 -0.011646 639409.000000 0 0 1
17.250426 -11.513835 31.527413 37.737559 -0.588546 0.581866 0.031328 -0.012681 549365.000000 0 0 1
16.587626 -11.553735 32.777943 38.510150 -0.608392 0.552623 0.014335 -0.000456 -247003.000000 0 0 1
15.729726 -10.317135 33.091778 38.064857 -0.580512 0.516906 0.023430 0.001054 74004.100000 0 0 1
14.606826 -10.176935 32.192143 36.786729 -0.608524 0.505150 0.009089 0.008863 521906.000000 0 0 1
13.983626 -8.906635 32.342053 36.343890 -0.567135 0.473693 0.023151 0.003539 557569.000000 0 0 1
12.807026 -8.868535 33.393015 36.847853 -0.605657 0.436492 0.017587 0.004835 -297765.000000 0 0 1
11.815326 -9.769235 32.956143 36.347589 -0.690886 0.435417 0.003137 0.019213 699144.000000 0 0 1
10.518226 -9.601535 33.556143 36.453220 -0.739868 0.401371 -0.015114 0.026378 1483660.000000 0 0 1
9.583726 -8.476435 32.909593 35.309192 -0.724164 0.370793 -0.033171 0.018578 52152.400000 0 0 1
10.016826 -7.159635 33.234344 35.441766 -0.620564 0.354797 0.008844 0.006074 359045.000000 0 0 1
9.192926 -6.218435 32.586123 34.424326 -0.594736 0.328270 -0.004649 0.007912 -210329.000000 0 0 1
9.798326 -4.828435 32.643463 34.422618 -0.457856 0.322915 0.013509 0.005735 -119534.000000 0 0 1
9.841326 -4.385035 33.943007 35.611908 -0.419167 0.307357 0.019878 -0.007013 366072.000000 0 0 1
10.509426 -3.121135 33.991627 35.715826 -0.288688 0.311990 0.012104 -0.008192 -673220.000000 0 0 1
10.177826 -2.238135 -33.872926 35.439702 -0.216458 2.843132 0.004208 -0.018281 61913.400000 0 0 1
8.815026 -1.831835 -33.822016 34.999844 -0.204892 2.881428 0.002547 -0.007810 68157.500000 0 0 1
8.466426 -1.373435 -32.540006 33.651429 -0.160820 2.883868 0.000475 -0.010632 -689551.000000 0 0 1
6.980026 -1.117435 -32.363306 33.126319 -0.158743 2.926547 -0.000258 -0.009037 -761573.000000 0 0 1
6.430826 -0.148135 -33.242166 33.858811 -0.023031 2.950450 0.012925 -0.003197 -412256.000000 0 0 1
5.168826 0.205665 -32.752076 33.158069 0.039768 2.984945 0.018304 0.000915 -603884.000000 0 0 1
4.470526 1.266865 -33.561226 33.881358 0.276142 3.004017 0.020306 -0.000318 -925176.000000 0 0 1
5.093626 2.496165 -33.542306 34.018556 0.455661 2.974067 0.009478 -0.010354 -364267.000000 0 0 1
4.573326 3.384765 -34.489048 34.955205 0.637141 2.978096 0.008019 -0.004872 -374340.000000 0 0 1
5.255226 4.753665 -34.460692 35.181729 0.735328 2.938787 0.004142 -0.003834 -24653.500000 0 0 1
4.994726 5.529365 33.484021 34.303073 0.836156 0.218964 0.013102 -0.013995 -140107.000000 0 0 1
5.791126 6.655165 33.428919 34.573414 0.854708 0.258022 0.012453 -0.014465 -343719.000000 0 0 1
5.261126 7.460365 32.196813 33.465971 0.956582 0.276282 0.026949 -0.015456 -198258.000000 0 0 1
3.946726 7.926365 32.351033 33.540919 1.108811 0.267161 0.028261 -0.012911 -370549.000000 0 0 1
3.754126 9.289265 31.865113 33.403133 1.186730 0.304637 0.037607 -0.017302 -169246.000000 0 0 1
3.511926 9.354165 30.375633 31.976759 1.211640 0.317789 0.041527 -0.015636 -578349.000000 0 0 1
2.278626 8.901965 29.903883 31.283851 1.320208 0.298125 0.047662 -0.016987 -636309.000000 0 0 1
2.145726 8.785865 28.503493 29.903924 1.331261 0.307250 0.041061 -0.008839 -189253.000000 0 0 1
0.808726 8.160065 28.075643 29.248631 1.472011 0.284165 0.041011 -0.009683 107368.000000 0 0 1
-0.327074 8.842065 28.571823 29.910502 -1.533822 0.300313 0.040942 -0.007823 -207864.000000 0 0 1
-1.503974 8.354665 27.950533 29.211208 -1.392688 0.294860 0.049745 -0.007190 110869.000000 0 0 1
-2.800174 8.591965 28.716653 30.104966 -1.255745 0.304876 0.036408 -0.002419 -408271.000000 0 0 1
-3.062874 9.962765 28.794863 30.623227 -1.272535 0.347301 0.038210 0.003085 -431118.000000 0 0 1
-4.328074 10.196865 29.339143 31.360701 -1.169390 0.361016 0.015687 0.013000 -447125.000000 0 0 1
-4.475974 11.609965 29.858013 32.346971 -1.202827 0.394850 0.001387 0.013242 -274943.000000 0 0 1
-4.615274 12.738765 28.997243 32.006515 -1.223205 0.437109 0.005708 0.009381 -147927.000000 0 0 1
-5.807574 12.865365 28.275583 31.603071 -1.146769 0.463015 -0.003909 0.003153 -409454.000000 0 0 1
-6.071974 14.270565 27.718473 31.762110 -1.168511 0.510112 -0.012762 0.009113 551167.000000 0 0 1
-5.131474 14.620565 26.678883 30.852159 -1.233252 0.526178 -0.001083 0.011836 384629.000000 0 0 1
-5.370574 15.933965 26.304373 31.219454 -1.245703 0.568771 -0.016636 0.019965 64149.100000 0 0 1
-4.246474 16.579865 25.464943 30.682043 -1.320064 0.591756 0.016805 0.020139 -71861.300000 0 0 1
-4.106474 16.095265 24.200463 29.352735 -1.320990 0.601531 0.019013 0.017133 -347022.000000 0 0 1
-3.089274 16.747565 23.505253 29.026220 -1.388386 0.626996 0.024565 0.014879 -301356.000000 0 0 1
-2.886674 16.311665 22.062853 27.589360 -1.395640 0.644023 0.025336 0.008078 -314931.000000 0 0 1
-2.162874 15.147465 21.822353 26.652182 -1.428967 0.611508 0.027159 -0.001244 -39922.000000 0 0 1
-1.791074 15.189565 20.440553 25.529336 -1.453424 0.642385 0.029328 -0.004957 193815.000000 0 0 1
-0.962174 13.944765 20.004653 24.404270 -1.501907 0.609875 0.031435 -0.013182 -369617.000000 0 1 0
-1.674074 12.729565 20.010953 23.775672 -1.440036 0.570453 0.039092 -0.014388 -52530.200000 0 1 0
-1.028774 11.652665 19.359453 22.619270 -1.482738 0.543540 0.040965 -0.016798 -962291.000000 0 1 0
-1.830774 10.407365 19.385053 22.078162 -1.396666 0.499088 0.030871 -0.012419 -1164260.000000 0 1 0
-1.958274 9.849865 20.675053 22.985049 -1.374543 0.452172 0.042980 -0.011074 240028.000000 0 1 0
-3.057274 10.333165 21.420253 23.978083 -1.283133 0.466103 0.049900 -0.009606 211099.000000 0 1 0
-4.529374 10.174965 20.942753 23.720119 -1.151984 0.488770 0.040866 -0.005017 -394629.000000 0 1 0
-5.022674 8.921865 21.036153 23.395441 -1.058056 0.452959 0.027115 -0.009380 -122150.000000 0 1 0
-6.437174 8.987065 21.044353 23.771187 -0.949233 0.483683 0.016826 -0.004944 390053.000000 0 1 0
-7.208774 7.643365 21.013853 23.494030 -0.814651 0.463633 0.018305 -0.012357 143570.000000 0 1 0
-6.931074 6.909765 22.181153 24.244343 -0.783859 0.415536 0.015981 -0.015982 -98535.200000 0 1 0
-7.743174 5.798665 22.168753 24.187494 -0.642780 0.411460 0.019306 -0.011452 -196195.000000 0 1 0
-7.699574 4.989465 23.517753 25.244067 -0.574981 0.371965 0.015595 -0.007636 -251001.000000 0 0 1
-8.479874 5.556965 24.548313 26.559514 -0.580101 0.391663 -0.005015 -0.006601 119381.000000 0 0 1
-8.496774 4.759765 25.696023 27.479740 -0.510629 0.362284 -0.000526 0.008143 -72212.800000 0 0 1
-9.564674 5.172765 26.743013 28.869174 -0.495768 0.386187 -0.014562 0.007853 -167082.000000 0 0 1
-9.237174 6.354265 27.480123 29.679273 -0.602560 0.387378 -0.018132 0.011496 -694396.000000 0 0 1
-10.242674 6.817265 28.293963 30.853457 -0.587246 0.410194 -0.023185 0.017120 -608827.000000 0 0 1
-9.793874 8.012365 29.254143 31.873544 -0.685680 0.408245 -0.007524 0.008618 465498.000000 0 0 1
-8.771674 7.622365 30.188163 32.347610 -0.715407 0.367461 -0.008233 0.005543 346179.000000 0 0 1
-8.326074 8.738865 30.887063 33.161754 -0.809583 0.372539 -0.003772 0.004396 335171.000000 0 0 1
-7.245774 8.352065 31.946653 33.806018 -0.856205 0.333205 0.005835 0.002689 1103480.000000 0 0 1
-5.954374 7.943165 31.461413 32.990437 -0.927537 0.305647 0.014116 0.000600 207047.000000 0 0 1
-5.178974 7.586165 32.551383 33.822540 -0.971785 0.275031 0.035656 -0.000925 463101.000000 0 0 1
-3.629074 7.438665 32.427893 33.467479 -1.116903 0.249899 0.021279 -0.002297 679691.000000 0 0 1
-3.053074 8.662665 32.092893 33.381384 -1.231949 0.278747 0.006660 -0.001162 -254849.000000 0 0 1
-1.642374 8.636765 32.241273 33.418420 -1.382879 0.266208 0.024442 -0.012799 353838.000000 0 0 1
-0.959374 9.950565 31.770893 33.306512 -1.474679 0.304842 0.022909 -0.006844 -7809.520000 0 0 1
-1.231474 11.081765 32.634823 34.487008 -1.460124 0.329225 0.007526 -0.012181 125701.000000 0 0 1
-1.384174 12.231365 31.847013 34.143146 -1.458110 0.368830 0.005321 -0.004238 -373716.000000 0 0 1
-1.695074 13.467265 32.636393 35.346494 -1.445588 0.394139 -0.012945 -0.018600 -373309.000000 0 0 1
-0.575474 13.952165 33.354005 36.159144 -1.529573 0.396489 0.002173 -0.012638 -18124.300000 0 0 1
-0.860774 14.917065 34.339116 37.449094 -1.513156 0.410417 0.001211 -0.011049 -79249.100000 0 0 1
0.458626 15.260665 -34.050786 37.316943 1.540753 2.720090 -0.017586 -0.011115 -627569.000000 0 0 1
1.330426 15.967065 34.282008 37.841422 1.487665 0.437205 -0.008843 -0.004207 -85444.100000 0 0 1
2.474826 16.378865 -34.064636 37.878640 1.420832 2.688985 0.001112 -0.004743 513562.000000 0 0 1
3.391726 17.402365 34.296681 38.608398 1.378309 0.477119 0.016304 -0.000705 -513647.000000 0 0 1
2.925826 18.711865 34.407085 39.275206 1.415690 0.503185 0.001234 0.003561 195801.000000 0 0 1
3.751126 19.597165 33.668973 39.137189 1.381672 0.534976 -0.014050 0.013313 -102482.000000 0 0 1
3.190126 21.023665 33.685566 39.835772 1.420205 0.563088 -0.008903 0.004922 -318440.000000 0 0 1
3.551426 21.714265 -34.188463 40.656770 1.408679 2.569749 -0.004369 0.001715 462652.000000 0 0 1
2.803826 22.918565 -33.959366 41.065321 1.449063 2.544475 -0.007076 0.002691 115623.000000 0 0 1
3.319026 23.604365 -32.706896 40.471262 1.431101 2.511803 -0.003520 0.001193 -134913.000000 0 0 1
2.916326 24.948065 -32.502446 41.076999 1.454429 2.483658 -0.002666 -0.003099 45230.600000 0 0 1
3.055426 25.181165 -31.118566 40.147127 1.450049 2.457690 0.010677 -0.001685 -216411.000000 0 0 1
2.458226 26.496765 -30.579956 40.537083 1.478287 2.425490 -0.004854 -0.001141 -319840.000000 0 0 1
3.181326 27.671865 -30.810556 41.534844 1.456333 2.406547 -0.010793 -0.000271 64155.900000 0 0 1
2.403326 28.775465 -30.423966 41.945453 1.487470 2.382299 -0.014652 -0.002861 299271.000000 0 0 1
3.348226 30.011865 -30.343436 42.809424 1.459692 2.358596 -0.021349 -0.007539 833117.000000 0 0 1
4.341426 29.988665 -29.294706 42.146741 1.427026 2.339306 0.015953 -0.018382 485082.000000 0 0 1
4.964026 31.262765 -29.154436 43.034674 1.413327 2.315106 0.040998 -0.024993 -679703.000000 0 0 1
6.194926 31.150965 -28.257146 42.511481 1.374490 2.297881 0.055053 -0.030632 161248.000000 0 0 1
7.349026 30.494265 -28.809476 42.589838 1.334309 2.313715 0.060948 -0.035404 767932.000000 0 0 1
8.464226 31.242565 -29.273776 43.642811 1.306227 2.306027 0.071388 -0.036703 393117.000000 0 0 1
8.230126 32.387765 -30.320866 45.122690 1.321951 2.307655 0.079063 -0.035810 -819482.000000 0 0 1
7.676926 33.583465 -29.710306 45.491610 1.346065 2.282460 0.064173 -0.032215 257188.000000 0 0 1
7.342426 -34.665209 -30.559466 46.791761 -1.362072 2.282461 0.072233 -0.035447 323590.000000 0 0 1
5.935426 34.503165 -31.212606 46.903352 1.400438 2.298915 0.021617 -0.014050 185768.000000 0 0 1
6.014226 33.595565 -32.294426 46.986837 1.393654 2.328573 0.018893 -0.019590 -439959.000000 0 0 1
4.754426 33.286765 -32.782156 46.960441 1.428924 2.343509 0.001563 -0.002868 -532838.000000 0 0 1
4.907726 32.692265 -34.174416 47.547457 1.421790 2.372789 -0.010080 -0.006215 74135.800000 0 0 1
5.364626 33.643165 34.011299 48.139487 1.412671 0.786234 -0.000260 -0.019497 136494.000000 0 0 1
5.673526 32.933865 32.817823 46.838423 1.400200 0.794474 -0.007059 -0.014863 -27533.800000 0 0 1
5.104526 33.624665 31.486083 46.347035 1.420138 0.823913 -0.028475 -0.015796 364743.000000 0 0 1
5.685626 -34.441409 31.218833 46.831106 -1.407191 0.841123 -0.020237 -0.011399 177556.000000 0 0 1
5.287726 -34.008809 29.970883 45.637846 -1.416550 0.854347 -0.031334 -0.011330 92490.400000 0 0 1
17.453973 -22.744435 28.552113 40.462003 -0.916255 0.787453 0.005225 0.018861 -347638.000000 0 0 1
16.672573 -21.714935 29.043013 39.912526 -0.916005 0.755882 -0.014269 0.019970 132236.000000 0 0 1
15.297473 -21.979035 29.268423 39.670282 -0.962758 0.741003 -0.011543 0.020645 290098.000000 0 0 1
14.867773 -22.160935 30.731543 40.701173 -0.979869 0.715061 -0.014700 0.010544 -419801.000000 0 0 1
15.462273 -23.297735 31.334413 41.996569 -0.984863 0.728583 0.002789 0.003804 -196429.000000 0 0 1
14.929673 -23.628135 32.537713 42.893900 -1.007279 0.709692 0.017985 -0.003817 -397438.000000 0 0 1
15.774373 -24.562435 33.432871 44.383566 -0.999913 0.717774 0.026098 -0.008509 -247045.000000 0 0 1
15.773673 -25.910385 33.057807 44.866195 -1.023947 0.742458 0.034273 -0.014881 -108476.000000 0 0 1
16.433173 -26.623395 34.076118 46.260525 -1.017793 0.742747 0.027776 -0.017106 -162718.000000 0 0 1
16.086973 -28.119925 34.046989 46.997004 -1.051156 0.760560 0.021975 -0.008086 -120308.000000 0 0 1
16.508673 -28.797865 32.857093 46.705909 -1.050270 0.790501 0.012945 -0.014259 -74931.300000 0 0 1
16.064873 -30.089145 32.798553 47.319995 -1.080391 0.804984 0.017403 -0.006923 -586899.000000 0 0 1
16.488973 -30.911125 31.599143 47.179336 -1.080762 0.836902 0.039408 -0.018050 78100.400000 0 0 1
17.683173 -31.649335 31.840383 48.251270 -1.061282 0.850128 0.025886 -0.018302 82132.400000 0 0 1
18.203373 -31.992725 30.588173 47.859519 -1.053494 0.877437 0.016926 -0.018426 -261462.000000 0 0 1
19.521973 -32.804635 30.614313 48.933503 -1.033989 0.894856 -0.004385 -0.011488 326009.000000 0 0 1
20.608273 -31.970555 31.017443 49.080537 -0.998225 0.886703 -0.015741 -0.012536 436286.000000 0 0 1
21.779573 -32.708745 31.288883 50.231524 -0.983350 0.898361 -0.013186 -0.005688 611837.000000 0 0 1
23.091273 -31.924955 31.636023 50.529671 -0.944604 0.894270 -0.020292 -0.011277 567155.000000 0 0 1
23.400773 -31.021815 30.598323 49.459140 -0.924528 0.903762 -0.024054 -0.003102 325442.000000 0 0 1
24.331173 -29.960755 30.942253 49.467928 -0.888720 0.895022 -0.029302 0.002177 807007.000000 0 0 1
25.366873 -29.730695 29.781323 49.135727 -0.864435 0.919644 -0.019409 0.004115 466627.000000 0 0 1
26.438873 -30.672135 29.931733 50.355760 -0.859386 0.934270 -0.025487 0.010959 -473889.000000 0 0 1
27.328573 -30.573055 28.893843 50.163899 -0.841374 0.956983 -0.026196 -0.009568 -679779.000000 0 0 1
28.513773 -31.521055 29.154973 51.542455 -0.835449 0.969575 -0.011708 -0.006339 -128058.000000 0 0 1
28.147273 -32.901935 29.138263 52.190466 -0.863124 0.978453 -0.020637 -0.005557 216024.000000 0 0 1
29.287273 -33.728095 29.258263 53.398265 -0.855754 0.990914 -0.004238 -0.014647 -358213.000000 0 0 1
28.833173 34.250099 29.807273 53.785636 0.871057 0.983411 -0.020554 -0.002794 -269101.000000 0 0 1
28.405273 34.130165 31.171453 54.252992 0.876690 0.958733 -0.013099 -0.006274 -69147.600000 0 0 1
27.354973 -34.468164 31.666773 54.213775 -0.899952 0.947014 -0.022987 -0.004283 491863.000000 0 0 1
25.888973 34.672500 31.113413 53.296019 0.929429 0.947414 -0.031084 -0.005301 982428.000000 0 0 1
25.290873 33.365305 31.436173 52.355561 0.922195 0.926750 -0.036518 -0.003147 -459860.000000 0 0 1
23.936273 33.376848 31.122863 51.532434 0.948651 0.922352 -0.037049 -0.004858 -555353.000000 0 0 1
23.407573 31.928238 31.188023 50.398607 0.938179 0.903548 -0.019024 -0.005944 -358900.000000 0 0 1
23.515873 31.125618 30.016223 49.221682 0.923775 0.914967 -0.020688 -0.007904 290389.000000 0 0 1
22.658573 29.995618 30.087703 48.149952 0.923851 0.895825 0.013327 -0.018803 -105748.000000 0 0 1
22.382573 29.326138 28.726513 46.756973 0.918882 0.909197 0.026229 -0.023943 -617605.000000 0 0 1
21.187473 29.744408 28.127653 46.095593 0.951851 0.914480 0.045300 -0.029483 -273423.000000 0 0 1
20.966273 29.339358 26.778733 44.916401 0.950330 0.932049 0.041468 -0.027609 325701.000000 0 0 1
19.636673 29.931308 26.235573 44.382287 0.990174 0.938341 0.070415 -0.028493 271177.000000 0 0 1
19.728173 31.329468 25.980843 45.229864 1.008824 0.958903 0.056739 -0.029256 123084.000000 0 0 1
18.443773 31.793878 25.632233 44.811101 1.045134 0.961847 0.076098 -0.027981 -290596.000000 0 0 1
18.374073 33.269858 25.184723 45.593424 1.066209 0.985584 0.087003 -0.027520 -226828.000000 0 0 1
18.881873 33.654526 23.921353 45.402460 1.059509 1.015878 0.084538 -0.026425 -630486.000000 0 0 1
20.162873 34.170857 24.008953 46.374764 1.037717 1.026617 0.070505 -0.023717 -549512.000000 0 0 1
20.978873 34.326776 22.677753 46.181394 1.022217 1.057492 0.061362 -0.025703 251474.000000 0 0 1
20.338673 -34.143941 21.738153 45.299201 -1.033563 1.070279 0.072432 -0.018489 715072.000000 0 0 1
21.052773 -34.155765 20.478853 45.046853 -1.018423 1.098859 0.082268 -0.018748 299221.000000 0 0 1
20.716473 -32.991255 19.580053 43.600157 -1.010087 1.105058 0.073579 -0.016541 -378440.000000 0 0 1
21.245573 -31.796225 20.044053 43.175669 -0.981747 1.088015 0.071708 -0.014198 -4375.070000 0 0 1
20.668273 -30.562615 19.551453 41.755362 -0.976182 1.083501 0.084246 -0.027688 -29417.000000 0 0 1
21.376473 -29.847695 18.356753 41.046424 -0.949290 1.107142 0.059616 -0.025841 -151813.000000 0 0 1
21.182973 -30.532035 17.182453 40.940936 -0.964247 1.137694 0.052678 -0.020336 147473.000000 0 0 1
21.761073 -29.788695 16.158253 40.274059 -0.939883 1.157962 0.033930 -0.013656 -342430.000000 0 0 1
21.446573 -30.312855 14.753553 39.956126 -0.955050 1.192601 0.027171 -0.014319 -13440.400000 0 0 1
22.183873 -31.515855 14.434853 41.155053 -0.957461 1.212432 0.044590 -0.009108 330299.000000 0 0 1
22.286373 -31.768105 13.027953 40.934368 -0.959042 1.246898 0.027367 -0.008805 228532.000000 0 0 1
20.944173 -31.999415 12.230753 40.152363 -0.991252 1.261269 0.025365 -0.010284 470868.000000 0 0 1
20.289873 -33.145795 12.702653 40.886185 -1.021498 1.254885 0.027604 -0.015290 -280313.000000 0 0 1
19.076273 -33.396475 12.055753 40.305954 -1.051818 1.267041 0.026867 -0.007747 191286.000000 0 0 1
17.996673 -34.220013 12.831053 40.737274 -1.086636 1.250370 0.032687 -0.007594 237439.000000 0 0 1
17.619373 -33.619805 14.023653 40.464756 -1.088073 1.216890 0.037470 -0.008563 469169.000000 0 0 1
18.442873 -34.046521 15.140453 41.575696 -1.074351 1.198059 0.044708 -0.012890 -292050.000000 0 0 1
18.300273 -33.032535 16.349553 41.150410 -1.064882 1.162210 0.046824 -0.014432 1426990.000000 0 0 1
16.950673 -32.555855 16.695853 40.323201 -1.090754 1.143897 0.056115 -0.016415 2112350.000000 0 0 1
15.976673 -33.534545 17.132653 40.906572 -1.126187 1.138646 0.055749 -0.008097 62377.300000 0 0 1
16.292973 -34.282195 18.414753 42.188067 -1.127135 1.119100 0.040165 -0.014558 -365316.000000 0 0 1
17.201573 33.993536 18.213853 42.227942 1.102340 1.124838 0.031130 -0.009352 108174.000000 0 0 1
17.473073 33.395369 19.452853 42.414295 1.088747 1.094333 0.035488 -0.014549 82747.500000 0 0 1
18.322573 32.120078 19.430553 41.772748 1.052396 1.086993 0.035267 -0.011155 396358.000000 0 0 1
17.558073 30.972678 19.025053 40.367628 1.055079 1.080038 0.027220 -0.013480 247502.000000 0 0 1
18.462373 29.928688 18.763053 39.857719 1.018058 1.080655 0.019648 -0.018510 145145.000000 0 0 1
17.746973 28.563658 18.558653 38.409129 1.014853 1.066509 0.017498 -0.010552 65915.300000 0 0 1
17.268873 27.882458 19.705953 38.261861 1.016274 1.029755 0.019225 -0.012593 -277481.000000 0 0 1
16.752373 26.624288 19.412653 36.964115 1.009173 1.017875 0.018039 -0.014037 -513612.000000 0 0 1
16.600673 25.714248 20.644653 36.918919 0.997533 0.977389 0.027593 -0.013386 -585242.000000 0 0 1
15.497473 26.042948 21.429653 37.116531 1.034007 0.955303 0.017141 -0.007920 -102525.000000 0 0 1
14.449673 25.070078 21.340553 35.954430 1.047932 0.935340 0.014972 -0.007353 666744.000000 0 0 1
13.146873 25.489728 22.080253 36.195360 1.094611 0.914698 0.007804 -0.013208 387657.000000 0 0 1
12.413273 26.490788 21.428053 36.263103 1.132592 0.938616 0.016783 -0.016829 141333.000000 0 0 1
11.036473 26.541238 21.774453 36.060614 1.176724 0.922500 0.008178 -0.014427 220001.000000 0 0 1
10.281773 27.739948 21.170953 36.378961 1.215846 0.949665 0.010384 -0.014568 -345962.000000 0 0 1
10.742773 29.006148 21.509453 37.675196 1.216098 0.963173 0.009867 -0.013598 -238670.000000 0 0 1
10.463873 29.929788 20.463053 37.736208 1.234465 0.997665 0.019922 -0.014339 -162600.000000 0 0 1
11.137273 31.286858 20.642353 39.102597 1.228810 1.014667 0.031597 -0.020133 -71719.200000 0 0 1
10.516773 32.201578 21.573453 40.161649 1.255125 1.003723 0.018098 -0.015469 30060.400000 0 0 1
10.999673 32.024188 22.906353 40.880832 1.239942 0.976024 0.000437 -0.008392 -289120.000000 0 0 1
10.325273 32.920838 23.875653 41.957593 1.266874 0.965455 -0.020481 -0.007998 -119015.000000 0 0 1
8.991773 32.566418 24.168753 41.539766 1.301402 0.949829 -0.016656 -0.007668 -149201.000000 0 0 1
8.488073 33.395388 25.231353 42.707382 1.321898 0.938751 -0.013902 0.000156 657103.000000 0 0 1
7.140273 32.975438 25.943123 42.560647 1.357555 0.915295 0.010515 -0.007744 916585.000000 0 0 1
5.924073 33.483393 25.400353 42.443023 1.395683 0.929222 0.007272 -0.010963 535709.000000 0 0 1
5.393473 32.878468 24.227123 41.195105 1.408202 0.942080 0.007715 -0.013930 -13900.200000 0 0 1
4.607873 31.544498 24.373343 40.129138 1.425747 0.918047 0.006694 -0.017414 207997.000000 0 0 1
5.454073 30.568338 25.024163 39.879555 1.394232 0.892466 -0.015479 -0.007980 288536.000000 0 0 1
5.015373 29.243148 24.724523 38.621467 1.400943 0.876069 -0.014615 -0.007007 -699617.000000 0 0 1
6.093973 28.195018 25.061343 38.212124 1.357934 0.855491 -0.036833 0.001400 872649.000000 0 0 1
7.205673 28.090188 24.092483 37.701832 1.319691 0.877564 -0.046724 0.002260 1836450.000000 0 0 1
8.181673 29.161598 24.165343 38.746643 1.297265 0.897360 -0.028383 0.002988 7099.220000 0 0 1
9.272473 29.043578 25.267043 39.597117 1.261764 0.878764 -0.023430 -0.002290 -567263.000000 0 0 1
8.883473 28.942188 26.623993 40.316291 1.272986 0.849474 -0.039109 0.004339 112061.000000 0 0 1
10.004573 29.159798 27.474813 41.294681 1.240286 0.842853 -0.022512 0.003105 747707.000000 0 0 1
10.604673 30.658178 27.559343 42.566423 1.237778 0.866572 -0.006093 -0.011346 270987.000000 0 0 1
9.722573 31.435458 28.333843 43.422610 1.270841 0.859900 -0.012296 0.000841 287528.000000 0 0 1
10.138873 32.807168 28.403463 44.563031 1.271063 0.879707 -0.037006 0.014525 18456.900000 0 0 1
9.430673 33.567576 29.570873 45.718227 1.296911 0.867406 -0.017626 0.018147 -96936.700000 0 0 1
9.821773 33.343639 30.887263 46.500414 1.284336 0.844325 0.012473 -0.010223 31457.500000 0 0 1
9.218073 32.209678 31.562343 46.028445 1.292057 0.815212 0.007330 -0.000035 -26860.200000 0 0 1
9.616573 32.119788 33.037023 47.070204 1.279893 0.792781 0.037682 -0.020695 -99701.100000 0 0 1
9.574373 30.802508 33.557560 46.546460 1.269433 0.765628 0.021084 -0.023971 -93919.500000 0 0 1
9.936473 30.777618 -34.197306 47.068578 1.258513 2.384072 0.062971 -0.023237 -149696.000000 0 0 1
9.987773 29.329788 -33.708886 45.785162 1.242580 2.398294 0.051458 -0.018023 -281217.000000 0 0 1
11.177273 28.665298 -34.055896 45.895913 1.199007 2.406882 0.058510 -0.006447 -72611.100000 0 0 1
11.042773 27.288868 -33.921016 44.913923 1.186277 2.426824 0.056004 -0.016861 143305.000000 0 0 1
12.296873 26.590818 -34.515250 45.272367 1.137639 2.437796 0.053305 -0.018438 271686.000000 0 0 1
12.343773 25.132408 -34.359571 44.323660 1.114254 2.457823 0.039609 -0.018243 -93524.200000 0 0 1
12.654973 24.675618 -33.063686 43.153700 1.096919 2.443679 0.038219 -0.017841 -319044.000000 0 0 1
12.692373 23.114338 -33.024236 42.260728 1.068635 2.467767 0.018250 -0.026738 -394414.000000 0 0 1
13.883473 22.584238 -33.533686 42.747009 1.019608 2.472635 0.014005 -0.008621 -142372.000000 0 0 1
13.790573 21.138738 -33.630786 42.048257 0.992747 2.497782 0.009757 -0.006348 441122.000000 0 0 1
15.158173 20.471538 -34.005886 42.488285 0.933435 2.498690 0.016976 -0.011259 383016.000000 0 0 1
16.086773 20.548538 -32.972426 42.050060 0.906590 2.472078 0.008380 -0.007645 -1348080.000000 0 0 1
17.288673 19.978538 -33.266136 42.481478 0.857451 2.470389 0.022239 -0.017348 -1562970.000000 0 0 1
18.412373 20.261938 -32.303446 42.344707 0.833186 2.438535 0.012756 -0.005393 -637948.000000 0 0 1
18.721173 21.655238 -32.436906 43.261814 0.857938 2.418528 0.005195 -0.000516 -613080.000000 0 0 1
19.774273 22.079338 -31.640316 43.354684 0.840417 2.388828 -0.001887 0.012466 -363704.000000 0 0 1
19.480573 22.621338 -30.160496 42.436696 0.859859 2.361314 0.003571 0.001600 413491.000000 0 0 1
18.724473 23.873138 -30.176826 42.792212 0.905682 2.353494 -0.000266 0.019428 509212.000000 0 0 1
18.353473 24.362188 -28.898436 42.017684 0.925149 2.329207 0.005549 0.021868 481341.000000 0 0 1
19.602373 24.952548 -28.146286 42.415753 0.904906 2.296392 0.006008 0.013548 745010.000000 0 0 1
20.332573 26.020938 -28.698536 43.750528 0.907505 2.286248 0.010539 0.018416 -434379.000000 0 0 1
19.623073 27.232528 -28.754886 44.198632 0.946395 2.279148 0.005360 0.018141 -431480.000000 0 0 1
20.367773 28.367268 -29.492156 45.709248 0.948090 2.272097 0.001476 0.018611 -234913.000000 0 0 1
20.372973 28.373498 -30.924586 46.652368 0.948073 2.295445 0.006681 0.019244 -139799.000000 0 0 1
20.748073 27.243138 -31.713996 46.673854 0.919919 2.317851 0.008100 0.024377 581240.000000 0 0 1
22.163173 26.607768 -31.434566 46.768702 0.876279 2.307876 0.021236 0.016683 80671.700000 0 0 1
23.184373 27.537638 -31.581876 47.887906 0.871014 2.290944 0.013772 0.014542 -1270730.000000 0 0 1
24.393273 26.894288 -31.330676 47.957750 0.834124 2.282728 0.015073 0.003574 -465895.000000 0 0 1
25.614673 27.825388 -31.529346 49.238840 0.826743 2.265730 0.005998 0.007220 -91262.400000 0 0 1
25.758973 28.852868 -30.614396 49.328024 0.841990 2.240341 0.002488 0.003767 -524844.000000 0 0 1
26.838073 29.682188 -30.887706 50.550617 0.835676 2.228151 0.003185 -0.007965 -322588.000000 0 0 1
26.928973 30.930268 -30.076726 50.857256 0.854444 2.203584 -0.008117 0.005277 -111882.000000 0 0 1
27.450373 30.742688 -28.764556 50.259681 0.841914 2.180127 0.003867 -0.000319 318951.000000 0 0 1
26.679473 31.519278 -27.846116 49.806278 0.868367 2.164082 -0.004058 0.004218 -62432.300000 0 0 1
27.195973 31.327598 -26.391766 49.168737 0.855879 2.137388 0.008818 0.006406 -528447.000000 0 0 1
27.174973 30.002468 -25.843066 48.025944 0.834809 2.138985 -0.001606 0.021844 668100.000000 0 0 1
25.940673 29.304968 -25.595016 46.763282 0.846220 2.149969 0.000480 0.014434 365492.000000 0 0 1
25.100373 29.545598 -24.349776 45.780811 0.866565 2.131612 -0.000838 0.017939 -172282.000000 0 0 1
24.697873 30.896528 -24.373176 46.461081 0.896437 2.123034 0.025897 0.018787 128376.000000 0 0 1
24.140173 31.312798 -23.110676 45.796753 0.914030 2.099756 0.007478 0.030881 245124.000000 0 0 1
3.157873 -26.324185 -20.024076 33.224968 -1.451406 2.217654 0.004825 0.023342 -315114.000000 0 0 1
3.022173 -27.255965 -19.041976 33.385896 -1.460366 2.177740 0.015088 0.025842 75196.300000 0 0 1
3.073773 -26.646395 -17.751476 32.165096 -1.455950 2.155421 0.029572 0.021092 -135805.000000 0 0 1
2.968773 -27.663785 -16.577476 32.386901 -1.463889 2.108142 0.025863 -0.003095 -279823.000000 0 0 1
4.081373 -28.500015 -16.431076 33.149491 -1.428557 2.089398 0.019291 -0.001189 -289998.000000 0 0 1
3.922073 -29.099475 -15.136676 33.034544 -1.436822 2.046774 0.017798 -0.013950 690722.000000 0 0 1
5.173773 -29.992295 -14.825476 33.854105 -1.399974 2.024083 0.031912 0.008401 1100910.000000 0 0 1
6.387573 -29.304825 -14.538576 33.330828 -1.356183 2.022157 0.011143 0.011951 1014080.000000 0 0 1
7.610473 -30.074945 -14.562776 34.270922 -1.322949 2.009682 0.013291 0.013174 1124750.000000 0 0 1
7.871573 -31.119645 -13.407176 34.787158 -1.323047 1.966444 0.013380 0.004116 -699724.000000 0 0 1
7.926373 -30.437195 -12.107876 33.702387 -1.316037 1.938270 0.007509 0.003573 -61007.800000 0 0 1
8.100473 -31.295075 -10.943176 34.128471 -1.317513 1.897208 0.011027 0.004123 -344708.000000 0 0 1
9.303873 -32.241035 -10.863476 35.271256 -1.289856 1.883884 0.023006 -0.003115 -153116.000000 0 0 1
10.474273 -31.595325 -10.424376 34.880404 -1.250685 1.874295 0.016979 -0.008908 -48635.100000 0 0 1
11.516673 -32.460955 -9.995476 35.864424 -1.229865 1.853238 0.028789 -0.009588 272031.000000 0 0 1
12.591873 -31.723055 -9.185276 35.345110 -1.192938 1.833688 0.039868 -0.004807 514074.000000 0 0 1
13.735973 -31.227005 -9.910476 35.524926 -1.156394 1.853520 0.034631 -0.020487 880186.000000 0 0 1
14.637973 -30.668035 -8.966776 35.145437 -1.125470 1.828782 0.038682 -0.013045 223970.000000 0 0 1
15.829873 -29.885105 -9.585476 35.150900 -1.083679 1.846989 0.056552 -0.021869 133205.000000 0 0 1
15.659573 -28.520155 -9.865676 33.999310 -1.068667 1.865204 0.047754 -0.023284 -296861.000000 0 0 1
14.794173 -28.252205 -10.916376 33.707891 -1.088411 1.900595 0.030986 -0.016598 -394955.000000 0 0 1
14.521773 -26.726285 -11.150676 32.396200 -1.073072 1.922180 0.028118 -0.010656 -1392460.000000 0 0 1
13.668673 -26.197185 -10.190576 31.256567 -1.089892 1.902897 0.025427 -0.006998 -297450.000000 0 0 1
13.367073 -24.882135 -10.393876 30.097042 -1.077821 1.923403 0.006315 0.002968 3801.040000 0 0 1
12.663973 -24.520135 -11.751476 29.995174 -1.094058 1.973361 -0.005606 0.006970 -1145370.000000 0 0 1
13.522273 -24.185735 -12.753676 30.503408 -1.060993 2.002156 0.005582 0.008825 -822693.000000 0 0 1
12.842873 -24.155535 -13.963676 30.715038 -1.082132 2.042742 0.003590 0.007176 -199010.000000 0 0 1
13.682673 -23.518035 -15.057676 31.097382 -1.043870 2.076257 0.010137 0.010698 262588.000000 0 0 1
14.679073 -24.352335 -15.652876 32.458034 -1.028336 2.074017 0.012817 0.012777 247939.000000 0 0 1
15.029873 -23.853835 -16.936276 32.889816 -1.008551 2.111734 0.015014 0.004584 -361343.000000 0 0 1
16.008973 -24.790635 -17.723576 34.423654 -0.997403 2.111648 0.026482 0.004696 1285120.000000 0 0 1
17.306773 -25.020855 -17.147276 34.922724 -0.965667 2.084041 0.034095 0.001343 796987.000000 0 0 1
18.230373 -23.934535 -17.391476 34.751575 -0.919864 2.094916 0.033069 -0.003991 275698.000000 0 0 1
19.627573 -24.326935 -16.810576 35.491363 -0.891908 2.064230 0.033410 -0.002032 328849.000000 0 0 1
20.286073 -25.343285 -17.571176 36.912777 -0.895780 2.066918 0.053730 0.002781 -461631.000000 0 0 1
21.474973 -25.686315 -16.891676 37.500533 -0.874459 2.038053 0.059842 0.003316 -46394.100000 0 0 1
22.262073 -26.689155 -17.761676 39.030604 -0.875591 2.043248 0.051021 -0.001873 -415522.000000 0 0 1
22.809073 -26.115875 -18.902676 39.491821 -0.852885 2.069910 0.049666 -0.002159 -411333.000000 0 0 1
23.298373 -27.121445 -19.767676 40.855208 -0.861078 2.075842 0.041627 -0.013382 79356.900000 0 0 1
24.319573 -26.595775 -20.826876 41.623739 -0.830074 2.094811 0.025805 -0.018034 -44953.400000 0 0 1
23.862873 -25.499305 -21.608276 41.067857 -0.818538 2.124875 0.035519 -0.009542 -100229.000000 0 0 1
24.171073 -24.244835 -21.040076 40.183798 -0.786922 2.121863 0.039054 -0.008462 -188578.000000 0 0 1
23.271773 -23.105235 -21.624876 39.281835 -0.781807 2.153766 0.063251 -0.001737 -164306.000000 0 0 1
23.485073 -22.494535 -22.901076 39.774515 -0.763859 2.184345 0.042698 0.006169 -63677.200000 0 0 1
23.143173 -23.358135 -23.982676 40.698620 -0.790021 2.200957 0.020344 -0.003369 -580108.000000 0 0 1
22.424873 -22.543335 -25.077226 40.496224 -0.788033 2.238582 0.024305 -0.004499 -671729.000000 0 0 1
23.164373 -21.675035 -25.853806 40.924499 -0.752195 2.254597 0.013731 0.004012 -680776.000000 0 0 1
22.403673 -20.796435 -26.626496 40.538705 -0.748211 2.287386 0.012149 0.013827 -475874.000000 0 0 1
23.222673 -19.945435 -27.592236 41.212188 -0.709625 2.304354 0.009141 0.012218 152761.000000 0 0 1
22.378473 -18.982635 -28.271886 40.748448 -0.703480 2.337569 0.007591 0.012661 563752.000000 0 0 1
22.920573 -18.494735 -29.484206 41.674049 -0.678937 2.356745 0.007495 0.011501 77027.500000 0 0 1
21.886673 -17.591235 -30.202756 41.239356 -0.677018 2.392603 0.026977 0.008157 513023.000000 0 0 1
20.729973 -18.171135 -30.806536 41.339625 -0.719715 2.411640 0.025419 -0.001407 630782.000000 0 0 1
19.924073 -17.153235 -31.381496 40.938985 -0.710805 2.444237 0.036070 -0.003606 418048.000000 0 0 1
18.623373 -17.689535 -32.057456 41.078342 -0.759687 2.466098 0.023403 0.004623 415902.000000 0 0 1
18.906073 -18.440135 -33.208016 42.429359 -0.772923 2.469734 0.018110 0.009194 738102.000000 0 0 1
17.688473 -18.993135 -33.712966 42.546273 -0.820950 2.485503 0.005474 0.006428 457103.000000 0 0 1
17.940573 -19.715335 34.026839 43.224812 -0.832494 0.664531 0.007969 0.011522 293339.000000 0 0 1
18.809973 -20.855035 34.140212 44.207484 -0.836911 0.688386 0.008202 0.015855 364376.000000 0 0 1
18.765073 -21.567735 32.915353 43.597198 -0.854775 0.715161 0.000879 0.006899 99844.900000 0 0 1
19.555773 -22.911835 32.892473 44.601516 -0.864261 0.741473 -0.007271 0.014758 -141531.000000 0 0 1
19.063273 -23.921935 33.706888 45.517268 -0.897951 0.736938 -0.000245 0.008949 -313238.000000 0 0 1
19.183073 -23.636335 -33.956346 45.603729 -0.889027 2.410725 0.002347 0.002054 -488945.000000 0 0 1
18.236973 -24.280535 -32.934416 44.797403 -0.926595 2.396737 0.010240 0.001417 -506516.000000 0 0 1
18.330673 -25.663375 -32.607126 45.363500 -0.950555 2.372866 0.010021 -0.007748 -831249.000000 0 0 1
19.466173 -25.970595 -31.893216 45.503637 -0.927585 2.347446 0.010270 -0.003240 -782811.000000 0 0 1
19.676973 -27.520435 -31.876956 46.483308 -0.950077 2.326460 0.011408 -0.008978 -269104.000000 0 0 1
18.709973 -28.295865 -31.226256 46.106379 -0.986570 2.314836 0.005414 -0.011381 -340842.000000 0 0 1
19.044473 -29.641955 -31.255906 47.098505 -0.999723 2.296455 -0.002009 -0.009330 -336224.000000 0 0 1
18.026273 -30.611515 -30.646056 46.916864 -1.038599 2.282598 0.011003 -0.009084 737828.000000 0 0 1
16.819673 -30.860335 -31.398076 47.128557 -1.071780 2.299927 0.007324 -0.010741 569352.000000 0 0 1
16.930073 -31.671575 -32.581986 48.490225 -1.079891 2.307607 0.010967 -0.011854 -62547.700000 0 0 1
15.553473 -32.186475 -33.105766 48.722392 -1.120654 2.317846 0.033534 -0.018340 558554.000000 0 0 1
14.744473 -31.178625 -33.658946 48.191605 -1.129060 2.344012 0.038848 -0.016843 188008.000000 0 0 1
13.472573 -31.648945 -34.099492 48.434919 -1.168343 2.351849 0.036879 -0.022102 430865.000000 0 0 1
12.491673 -30.633485 34.419030 47.740150 -1.183602 0.765601 0.039466 -0.010573 -243889.000000 0 0 1
11.895873 -29.802025 -33.751036 46.570430 -1.191012 2.381440 0.041894 -0.018344 -489713.000000 0 0 1
10.940473 -29.024845 -34.408501 46.325809 -1.210331 2.407965 0.018591 -0.001316 -178422.000000 0 0 1
10.074873 -28.107675 -33.508136 44.881396 -1.226624 2.413722 0.026051 -0.000984 540235.000000 0 0 1
9.040473 -28.818125 -32.830076 44.609734 -1.266811 2.397850 0.037880 -0.007327 -402769.000000 0 0 1
8.212373 -28.020755 -32.066786 43.369166 -1.285699 2.402962 0.014027 -0.008698 206196.000000 0 0 1
6.936673 -28.740235 -31.553086 43.240211 -1.333968 2.388703 -0.002649 -0.000972 72055.600000 0 0 1
5.960773 -29.349715 -32.382836 44.108782 -1.370427 2.395223 -0.014042 0.006641 -122029.000000 0 0 1
6.340973 -30.519065 -33.090136 45.459635 -1.365940 2.386053 -0.000213 0.004557 -460959.000000 0 0 1
5.201873 -31.389835 -33.625896 46.293435 -1.406570 2.383814 0.010367 -0.005724 314595.000000 0 0 1
4.371773 -31.939645 -32.604476 45.850902 -1.434766 2.361855 0.003507 -0.012934 119404.000000 0 0 1
3.212873 -32.610805 -33.015506 46.516780 -1.472592 2.359946 0.003879 -0.019340 -136498.000000 0 0 1
2.180073 -32.941685 -31.920696 45.922088 -1.504713 2.339363 -0.016472 -0.005926 -436021.000000 0 0 1
1.396473 -31.834555 -31.656306 44.916709 -1.526958 2.352906 -0.040903 0.008344 -353731.000000 0 0 1
0.443373 -32.147475 -30.666956 44.431058 -1.557005 2.332582 -0.047083 0.012844 106420.000000 0 0 1
-0.595527 -31.048255 -30.350826 43.422592 1.551618 2.344744 -0.040185 0.006248 94018.600000 0 0 1
-1.519527 -31.330715 -29.313436 42.932508 1.522335 2.322357 -0.034213 0.011962 -228596.000000 0 0 1
-2.218227 -30.219485 -28.977916 41.926811 1.497524 2.333882 -0.035518 0.017660 -375593.000000 0 0 1
-2.888727 -30.199145 -27.568286 40.991993 1.475431 2.308416 -0.027650 0.016571 -74767.400000 0 0 1
-1.903927 -30.055135 -26.552426 40.149314 1.507533 2.293403 -0.023841 0.020531 197731.000000 0 0 1
-2.399627 -30.423545 -25.303216 39.643449 1.492085 2.263045 -0.012244 0.016005 -166185.000000 0 0 1
-1.305227 -30.491165 -24.240176 38.974362 1.528016 2.242029 -0.018374 0.019483 -349643.000000 0 0 1
-1.823627 -30.575405 -22.938576 38.266948 1.511223 2.213592 0.014121 0.005388 -204997.000000 0 0 1
-0.976727 -31.175365 -21.963876 38.147992 1.539476 2.184323 0.012850 0.007464 120602.000000 0 0 1
-1.674527 -31.164295 -20.595676 37.392502 1.517116 2.154115 -0.003148 0.020683 37728.000000 0 0 1
-1.660427 -29.952455 -19.851076 35.971820 1.515418 2.155378 -0.010537 0.003551 -1936.720000 0 0 1
-0.434627 -29.551305 -19.252876 35.272394 1.556090 2.148181 -0.002372 0.002551 -112514.000000 0 0 1
-0.372827 -28.135995 -18.670776 33.769381 1.557546 2.156626 0.006266 0.000060 -546925.000000 0 0 1
-1.204427 -28.063165 -17.582976 33.138391 1.527904 2.130096 0.007019 -0.001734 -381048.000000 0 0 1
-1.128727 -26.754815 -17.028176 31.734098 1.528634 2.137186 0.010568 -0.006836 211124.000000 0 0 1
-2.254227 -26.483595 -15.983976 31.015317 1.485883 2.112221 0.007544 -0.011060 -230553.000000 0 0 1
-2.270427 -25.162395 -15.519676 29.650655 1.480809 2.121653 0.006310 -0.008526 167149.000000 0 0 1
-3.178927 -25.025275 -14.453376 29.073529 1.444444 2.091086 0.004237 -0.008722 -229903.000000 0 0 1
-2.861927 -23.744935 -13.699476 27.562442 1.450847 2.090974 0.004493 -0.008081 -493321.000000 0 0 1
-1.760027 -23.903735 -12.860376 27.200653 1.497299 2.063258 0.009129 -0.006706 -464478.000000 0 0 1
-1.420627 -22.738635 -12.208276 25.847741 1.508401 2.062712 0.002206 0.000874 226648.000000 0 0 1
-0.254627 -22.890235 -11.198276 25.483899 1.559673 2.025755 -0.006700 0.005026 257844.000000 0 0 1
0.063673 -21.665735 -10.597376 24.118717 -1.567857 2.025709 -0.009268 0.008456 342173.000000 0 1 0
1.240673 -21.696535 -9.762376 23.823999 -1.513676 1.992999 -0.014501 0.006257 787039.000000 0 1 0
1.753273 -20.267635 -9.456676 22.433897 -1.484505 2.005934 -0.007332 0.007818 -568351.000000 0 1 0
2.299773 -19.572235 -10.598276 22.375987 -1.453831 2.064221 -0.008933 0.013235 4230.670000 0 1 0
3.049673 -18.395235 -10.314576 21.309051 -1.406505 2.076070 -0.009006 0.004416 976756.000000 0 1 0
4.475273 -18.652635 -9.697576 21.493996 -1.335320 2.038879 0.000337 -0.012313 327701.000000 0 1 0
4.332873 -19.073035 -8.342976 21.264048 -1.347415 1.973983 0.004277 -0.013435 109806.000000 0 1 0
5.448973 -19.791835 -7.832576 21.971739 -1.302138 1.935298 0.012206 -0.014603 301541.000000 0 1 0
4.923773 -21.061935 -7.027376 22.742750 -1.341145 1.884932 0.016045 -0.005105 358525.000000 0 1 0
4.114473 -21.948335 -7.782276 23.647878 -1.385485 1.906136 -0.002446 -0.008856 136207.000000 0 1 0
3.922273 -23.114135 -6.980176 24.461610 -1.402706 1.860170 0.005955 -0.008239 -309942.000000 0 1 0
3.093773 -24.168635 -7.700776 25.553793 -1.443481 1.876910 0.006799 -0.001889 -481969.000000 0 0 1
3.706473 -24.861635 -8.753476 26.616953 -1.422802 1.905901 0.006387 -0.002214 -21834.900000 0 0 1
2.827873 -25.759485 -9.490176 27.597308 -1.461454 1.921843 -0.002714 -0.000805 505446.000000 0 0 1
3.551073 -26.672535 -10.507376 28.886662 -1.438439 1.943081 -0.010627 0.002601 -36849.500000 0 0 1
4.006673 -27.954045 -10.046276 29.973484 -1.428435 1.912584 0.002662 0.001459 -352367.000000 0 0 1
4.740373 -28.521145 -11.069576 30.959044 -1.406096 1.936445 0.018170 0.010459 -100665.000000 0 0 1
4.658473 -30.073235 -11.009376 32.362126 -1.417113 1.917919 0.013149 0.005122 -69080.100000 0 0 1
3.362573 -30.525345 -11.331376 32.733831 -1.461082 1.924279 0.014932 0.006778 -171603.000000 0 0 1
3.314773 -31.937735 -11.146476 33.988978 -1.467378 1.904923 0.025226 0.005487 372333.000000 0 0 1
1.961973 -32.611295 -11.529776 34.645081 -1.510706 1.910064 0.026109 -0.001370 337830.000000 0 0 1
1.739773 -32.696945 -12.931576 35.204300 -1.517637 1.946932 0.024045 -0.003498 -296474.000000 0 0 1
0.827773 -33.689895 -13.245176 36.209515 -1.546231 1.945281 0.019582 -0.007402 -622716.000000 0 0 1
0.359173 -33.707095 -14.705776 36.777128 -1.560141 1.982163 0.024588 -0.000287 -76845.900000 0 0 1
-0.609227 -32.712675 -14.955476 35.974388 1.552175 1.999537 0.019564 0.001002 -315012.000000 0 0 1
-0.867527 -32.760645 -16.328476 36.614637 1.544322 2.033037 -0.000810 0.005090 -601901.000000 0 0 1
-1.826727 -31.743385 -16.887776 36.002450 1.513313 2.059037 -0.003703 0.006448 811344.000000 0 0 1
-3.147427 -31.979815 -16.312676 36.037734 1.472693 2.040537 -0.006529 0.004204 640365.000000 0 0 1
-4.117927 -31.257455 -17.037976 35.836831 1.439808 2.066251 -0.007354 0.008544 111485.000000 0 0 1
-5.472327 -31.189345 -16.308976 35.618876 1.397109 2.046399 -0.015902 0.001779 -327457.000000 0 0 1
-5.530927 -30.347275 -15.198276 34.388019 1.390521 2.028584 -0.022490 0.002504 133085.000000 0 0 1
-6.877127 -30.086075 -14.778976 34.218196 1.346075 2.017399 -0.011915 -0.001179 593026.000000 0 0 1
-7.467627 -31.170405 -13.818576 34.904336 1.335654 1.977842 -0.016658 0.000174 -53997.000000 0 0 1
-7.709727 -32.376945 -14.463776 36.289217 1.337026 1.980753 -0.011990 0.005515 -439791.000000 0 0 1
-8.298427 -33.283115 -13.580876 36.892680 1.326450 1.947781 0.011482 0.002884 172640.000000 0 0 1
-8.783127 -34.607221 -14.214176 38.429753 1.322249 1.949670 0.029032 -0.002309 -208927.000000 0 0 1
-7.660427 33.948369 -14.580776 37.732916 -1.348864 1.967544 0.017716 0.003340 316348.000000 0 0 1
-8.119227 32.788608 -15.207776 37.044448 -1.328056 1.993829 0.028868 0.000609 -127406.000000 0 0 1
-7.167627 -22.470535 -3.431876 23.834379 1.262020 1.715287 0.028404 0.007201 276374.000000 0 1 0
-7.072527 -21.366235 -4.288676 22.911338 1.251134 1.759093 0.015606 0.008265 -424006.000000 0 1 0
-5.938927 -21.443635 -5.106376 22.829267 1.300613 1.796381 0.000254 0.010804 -31416.000000 0 1 0
-5.934727 -20.283535 -6.192376 22.022450 1.286153 1.855825 -0.007326 0.009177 -162847.000000 0 1 0
-6.912027 -20.523035 -7.144176 22.803735 1.245935 1.889452 0.004160 -0.000013 -939013.000000 0 1 0
-7.100027 -19.388135 -7.997576 22.142073 1.219759 1.940344 -0.000513 -0.005263 244295.000000 0 1 0
-8.097127 -19.653035 -9.156776 23.144153 1.179985 1.977562 0.013414 -0.012681 356559.000000 0 1 0
-7.495827 -20.420735 -10.176576 24.015756 1.218997 2.008373 0.019581 -0.005075 -374964.000000 0 1 0
-8.376427 -20.546335 -11.234976 24.870487 1.183683 2.039510 0.019198 -0.006340 -250729.000000 0 1 0
-7.723127 -21.464035 -12.316976 25.924109 1.225403 2.065893 0.010013 -0.007913 -437479.000000 0 0 1
-6.670227 -20.881235 -13.018676 25.495173 1.261605 2.106717 0.018662 -0.004758 -479945.000000 0 0 1
-6.199327 -21.781235 -14.030576 26.640400 1.293511 2.125469 0.007686 -0.007160 225475.000000 0 0 1
-5.202427 -21.174935 -15.066376 26.503562 1.329880 2.175436 0.009834 0.004247 -583171.000000 0 0 1
-3.944027 -20.957235 -14.517276 25.797526 1.384778 2.168492 0.014210 0.002196 -103961.000000 0 0 1
-2.992327 -20.323235 -15.416776 25.683943 1.424610 2.214609 0.019285 0.009509 514215.000000 0 0 1
-3.140327 -18.830835 -15.571976 24.636324 1.405552 2.255023 0.031304 0.012646 37783.100000 0 1 0
-4.304627 -18.477135 -16.351976 25.046386 1.341909 2.282160 0.028814 0.013281 520579.000000 0 0 1
-4.235627 -18.641235 -17.801076 26.121151 1.347372 2.320581 0.033702 0.005060 -826352.000000 0 0 1
-5.552727 -18.351535 -18.519376 26.656686 1.276978 2.338850 0.035779 0.009884 -155614.000000 0 0 1
-6.499927 -19.314835 -18.112476 27.264880 1.246176 2.297374 0.019312 0.009598 -650604.000000 0 0 1
-7.730927 -19.245235 -18.777076 27.977221 1.188820 2.306563 0.015354 0.007331 25805.800000 0 0 1
-8.738427 -20.204335 -18.086176 28.490087 1.162588 2.258576 0.022881 -0.003737 -52196.500000 0 0 1
-8.263927 -21.530635 -18.227976 29.395916 1.204314 2.239648 0.016805 -0.002755 269312.000000 0 0 1
-9.113527 -22.516035 -17.705776 30.058655 1.186196 2.200668 0.027888 -0.008405 -279540.000000 0 0 1
-8.598727 -23.837735 -18.159876 31.176222 1.224604 2.192587 0.021557 -0.016557 -568785.000000 0 0 1
-8.579127 -23.911435 -19.595076 32.083098 1.226314 2.227817 0.014067 -0.022687 637982.000000 0 0 1
-7.719827 -24.946035 -20.126476 32.969311 1.270682 2.227439 0.015998 -0.032305 875849.000000 0 0 1
-6.172927 -24.767335 -20.004976 32.430310 1.326536 2.235544 0.023213 -0.022705 -22056.800000 0 0 1
-5.657627 -23.675035 -20.756376 31.989736 1.336225 2.276862 0.013228 -0.019876 -57852.700000 0 0 1
-5.509727 -22.439935 -20.042276 30.587589 1.330027 2.285299 0.023016 -0.014982 330231.000000 0 0 1
-4.460227 -22.421335 -18.834776 29.620241 1.374432 2.259938 0.024244 0.001579 449386.000000 0 0 1
-3.182527 -22.754735 -19.299276 30.006141 1.431836 2.269437 0.024103 -0.010645 171670.000000 0 0 1
-2.127227 -22.753435 -18.319276 29.288902 1.477577 2.246528 0.019791 -0.001715 210892.000000 0 0 1
-0.761327 -23.174935 -18.803876 29.853693 1.537957 2.252179 0.026577 0.001519 -330323.000000 0 0 1
-0.124227 -22.254735 -19.694876 29.718291 1.565214 2.295240 0.037442 0.000051 738327.000000 0 0 1
1.284073 -22.526635 -19.857776 30.057103 -1.513856 2.292505 0.025635 0.005338 1139270.000000 0 0 1
1.769573 -21.692035 -21.034876 30.267834 -1.489399 2.339158 0.029529 0.010704 -52165.100000 0 0 1
1.314573 -22.204235 -22.250176 31.461508 -1.511662 2.356353 0.025834 -0.000249 -284361.000000 0 0 1
0.861073 -21.123635 -23.042876 31.271769 -1.530055 2.399208 0.039873 -0.006075 -327033.000000 0 0 1
0.301973 -21.592435 -24.407776 32.589323 -1.556812 2.417272 0.037626 -0.007278 70350.000000 0 0 1
-0.261427 -20.572635 -25.237656 32.561341 1.558090 2.457639 0.032604 -0.004191 -213125.000000 0 0 1
-1.586027 -20.222835 -24.925376 32.136473 1.492529 2.458478 0.039282 -0.009899 -468772.000000 0 0 1
-2.050227 -18.936035 -25.602026 31.909883 1.462945 2.501973 0.029817 -0.005325 205846.000000 0 0 1
-1.433127 -17.751535 -25.032576 30.721340 1.490238 2.523227 0.044686 -0.008672 345237.000000 0 0 1
-1.982827 -16.580135 -25.645436 30.602629 1.451771 2.564430 0.031533 -0.001266 -91499.800000 0 0 1
-1.363927 -15.269735 -25.237196 29.528650 1.481711 2.595708 0.033234 0.002702 -64259.400000 0 0 1
-0.000727 -15.102035 -25.565176 29.692587 1.570748 2.608020 0.044280 -0.012972 -225344.000000 0 0 1
0.590473 -13.826035 -25.281846 28.821514 -1.528115 2.640767 0.037014 -0.009098 391137.000000 0 0 1
0.096873 -12.501935 -26.043896 28.889311 -1.563048 2.694034 0.041074 -0.003287 -149692.000000 0 0 1
0.774473 -11.323035 -25.722416 28.115007 -1.502505 2.726056 0.026090 -0.005079 -123042.000000 0 0 1
0.388273 -10.272035 -26.601486 28.518495 -1.533015 2.772847 0.019094 -0.001972 -332014.000000 0 0 1
1.265973 -9.002235 -26.456616 27.974908 -1.431084 2.810620 0.020920 -0.005020 1101940.000000 0 0 1
2.627373 -8.973635 -26.916546 28.494380 -1.285969 2.807251 0.041995 -0.004447 436650.000000 0 0 1
2.850773 -9.299235 -28.253306 29.880629 -1.273332 2.810043 0.027247 -0.002403 -323507.000000 0 0 1
4.245573 -8.792135 -28.744456 30.357376 -1.120936 2.814153 0.022985 -0.003570 245054.000000 0 0 1
4.366073 -7.398135 -28.809306 30.062786 -1.037645 2.851805 0.016743 -0.008234 559651.000000 0 0 1
5.582773 -6.817435 -29.324596 30.619875 -0.884639 2.849690 0.012100 -0.013338 -13124.300000 0 0 1
6.786073 -6.687535 -28.387416 29.943602 -0.778085 2.817781 0.017587 -0.016418 -44356.100000 0 0 1
7.375873 -7.915935 -27.930366 29.952811 -0.820701 2.772012 0.009506 -0.010112 723326.000000 0 0 1
8.168773 -8.682535 -28.867146 31.231833 -0.815877 2.749957 0.001186 -0.010962 -201260.000000 0 0 1
8.470673 -10.100435 -28.253326 31.177260 -0.872932 2.705043 0.017782 -0.012204 -79576.300000 0 0 1
7.341073 -10.940135 -28.299706 31.216202 -0.979784 2.705884 0.005450 -0.015427 -43574.800000 0 0 1
7.394273 -12.123335 -27.509516 30.958424 -1.023114 2.665070 0.021249 -0.016875 598384.000000 0 0 1
8.580973 -13.139135 -27.807086 31.929673 -0.992255 2.627797 0.015772 -0.019601 640819.000000 0 0 1
8.245673 -13.979935 -28.890146 33.137143 -1.037894 2.629734 0.018777 -0.017015 -448090.000000 0 0 1
9.140173 -15.006535 -29.131056 34.019954 -1.023727 2.598846 0.013064 -0.011063 -517462.000000 0 0 1
8.609973 -15.927535 -30.265296 35.267636 -1.075221 2.602472 0.015328 -0.008279 -57838.200000 0 0 1
8.525673 -15.297035 -31.501586 36.042146 -1.062334 2.634213 0.006991 -0.003982 170297.000000 0 0 1
7.964473 -16.124135 -32.492736 37.137562 -1.112003 2.636086 0.015251 -0.005540 -257609.000000 0 0 1
6.850773 -15.559535 -33.376386 37.456847 -1.156043 2.670477 0.001772 0.000938 -136295.000000 0 0 1
7.275673 -14.589435 -34.293793 37.971717 -1.108194 2.697825 0.004677 0.004336 517204.000000 0 0 1
6.144673 -13.935735 34.215015 37.451689 -1.155511 0.418801 -0.025818 0.000149 666240.000000 0 0 1
6.556273 -12.635535 33.409552 36.315832 -1.092162 0.402787 -0.005351 0.007342 -2345.500000 0 0 1
7.165273 -12.899535 32.180043 35.401897 -1.063765 0.429937 -0.016970 0.007856 -7404.130000 0 0 1
7.467173 -11.713935 31.504423 34.431143 -1.003287 0.415294 -0.015154 0.008677 -187863.000000 0 0 1
7.772773 -11.966335 30.073343 33.286861 -0.994735 0.443023 -0.029080 0.018276 745714.000000 0 0 1
6.735273 -12.700335 29.367153 32.696974 -1.083186 0.455227 -0.019235 0.005891 762359.000000 0 0 1
7.070573 -12.551735 28.024653 31.510637 -1.057788 0.474828 -0.024782 0.010882 -322039.000000 0 0 1
6.061073 -13.020735 26.992683 30.575825 -1.135133 0.488983 -0.019357 -0.002856 -566126.000000 0 0 1
6.081573 -14.439935 26.902533 31.132676 -1.172180 0.527387 -0.007890 0.002854 -190563.000000 0 0 1
5.619173 -14.940635 25.659823 30.219600 -1.211062 0.556495 -0.014836 0.001612 1534790.000000 0 0 1
4.044073 -15.186835 25.694253 30.119580 -1.310547 0.548946 -0.019643 -0.012096 1203920.000000 0 0 1
3.155173 -14.110935 25.625463 29.423425 -1.350817 0.513724 -0.021395 -0.009253 -438867.000000 0 0 1
1.956273 -14.533635 25.031903 29.011200 -1.436997 0.529943 -0.027220 -0.007538 56605.700000 0 0 1
0.978573 -13.390235 24.669913 28.086663 -1.497845 0.498397 -0.022919 -0.006857 -396953.000000 0 0 1
1.542273 -12.494435 23.690753 26.827995 -1.447981 0.488451 -0.036939 0.003450 -142913.000000 0 0 1
0.811573 -11.374635 23.250553 25.896509 -1.499568 0.455989 -0.023870 0.005885 358518.000000 0 0 1
-0.645627 -11.537435 22.724253 25.493547 1.514895 0.470432 -0.000278 -0.003771 184009.000000 0 0 1
-0.633427 -12.406735 21.604853 24.921837 1.519786 0.521838 -0.004276 0.001994 1202010.000000 0 1 0
-1.968627 -12.947535 21.337353 25.035910 1.419906 0.550487 0.008753 -0.002664 1514450.000000 0 0 1
-2.200527 -13.731135 20.004553 24.363262 1.411889 0.607470 0.010828 -0.005122 -17060.300000 0 1 0
-1.680227 -15.050435 19.976853 25.068175 1.459617 0.648649 0.010557 -0.007059 -179340.000000 0 0 1
-1.761327 -15.639335 18.654553 24.406627 1.458647 0.700805 0.011081 -0.007549 -30703.800000 0 1 0
-2.645727 -16.888135 18.658253 25.304928 1.415398 0.741677 0.003110 -0.006484 -56739.100000 0 0 1
-2.470327 -17.635035 17.491553 24.960998 1.431621 0.794341 -0.007672 -0.007755 -13354.500000 0 1 0
-3.144927 -18.902235 17.709453 26.092332 1.405928 0.824775 -0.003259 0.002216 -141255.000000 0 0 1
-2.600527 -19.999535 16.868053 26.292116 1.441492 0.874262 -0.008149 -0.001010 1086600.000000 0 0 1
-1.326027 -20.596535 17.235053 26.889081 1.506504 0.875037 -0.015606 -0.005631 990130.000000 0 0 1
-1.525027 -21.529235 18.288053 28.289337 1.500079 0.867855 -0.014444 0.005734 -596966.000000 0 0 1
-0.299227 -22.359135 18.612153 29.093517 1.557414 0.876642 -0.015072 -0.000223 -647109.000000 0 0 1
-0.027227 -23.374335 17.662853 29.297383 1.569632 0.923688 -0.018852 0.003952 -8081.030000 0 0 1
0.994873 -24.237135 18.183353 30.316049 -1.529772 0.927554 -0.008910 0.006701 321476.000000 0 0 1
2.341473 -24.167235 17.438753 29.893944 -1.474212 0.947944 -0.002724 0.001201 -51035.200000 0 0 1
3.025473 -22.959635 17.717053 29.158057 -1.439778 0.917734 0.000110 0.002309 -971797.000000 0 0 1
3.991373 -22.731035 16.777153 28.532506 -1.396977 0.942211 0.003307 0.000944 -584420.000000 0 0 1
4.589573 -21.314035 16.940553 27.610408 -1.358704 0.910239 0.020971 -0.005271 -130326.000000 0 0 1
5.489473 -21.237635 18.036753 28.398872 -1.317854 0.882630 0.019482 -0.004868 139652.000000 0 0 1
6.076973 -19.979635 18.404153 27.835737 -1.275529 0.848419 0.028449 -0.005587 230824.000000 0 0 1
7.033973 -19.275935 17.433753 26.925345 -1.220901 0.866517 0.036702 -0.005647 -836662.000000 0 0 1
6.474673 -18.576335 16.364453 25.589001 -1.235419 0.876934 0.028718 -0.005418 -749355.000000 0 0 1
7.421273 -17.997135 15.543653 24.911389 -1.179682 0.896999 0.031923 -0.003467 -560485.000000 0 1 0
6.850673 -16.937935 14.589753 23.381323 -1.186453 0.896956 0.021822 -0.005048 -106353.000000 0 1 0
5.941373 -17.459235 13.654653 22.947208 -1.242789 0.933473 0.023621 -0.007449 -97084.700000 0 1 0
5.452673 -16.460635 12.756953 21.527285 -1.250917 0.936520 0.017638 -0.013114 169049.000000 0 1 0
6.065073 -16.564435 11.313853 20.956357 -1.219807 1.000505 0.014189 -0.012322 -700035.000000 0 1 0
7.414673 -16.276335 11.285653 21.148580 -1.143337 1.007902 0.021531 -0.002679 -920793.000000 0 1 0
7.919473 -16.462335 9.965553 20.809584 -1.122410 1.071404 0.019990 -0.005234 606928.000000 0 1 0
9.369973 -15.950935 9.730153 20.902263 -1.039675 1.086589 0.017070 -0.005314 650730.000000 0 1 0
10.006173 -16.395135 8.563253 21.029818 -1.022828 1.151415 0.015192 -0.008585 -462403.000000 0 1 0
11.356973 -15.994535 8.512753 21.383942 -0.953355 1.161362 0.007475 -0.007317 338218.000000 0 1 0
12.287773 -17.030735 7.808753 22.405623 -0.945782 1.214807 -0.001754 -0.006937 78822.700000 0 1 0
12.615673 -18.194235 8.548353 23.733094 -0.964521 1.202328 0.005969 -0.002846 308843.000000 0 1 0
13.500973 -19.010235 7.769453 24.577016 -0.953261 1.249152 0.006472 -0.003735 242562.000000 0 1 0
13.789773 -20.444935 8.378753 26.045282 -0.977402 1.243273 -0.005245 0.001677 389661.000000 0 0 1
12.660173 -21.288535 8.623053 26.226680 -1.034287 1.235775 0.003034 0.000570 307936.000000 0 0 1
13.140173 -22.542335 9.039753 27.614094 -1.043037 1.237288 0.004105 0.000324 316940.000000 0 0 1
12.131473 -23.320835 9.913553 28.094707 -1.091120 1.210168 0.015837 0.000103 157803.000000 0 0 1
12.208073 -22.841735 11.248753 28.236791 -1.079960 1.161055 0.032930 -0.003126 -328789.000000 0 0 1
11.292073 -23.398135 12.186153 28.696445 -1.121161 1.132213 0.034645 -0.002753 -98175.400000 0 0 1
11.406673 -24.867435 12.589653 30.116456 -1.140732 1.139518 0.016409 -0.003437 -233248.000000 0 0 1
12.458173 -25.174585 13.459353 31.146750 -1.111260 1.123946 -0.000649 -0.005512 -472353.000000 0 0 1
12.508873 -26.467785 13.923753 32.417379 -1.129302 1.126841 0.000699 -0.012921 16165.500000 0 0 1
13.711973 -26.699925 14.848753 33.487157 -1.096361 1.111390 0.016437 -0.009420 15527.800000 0 0 1
13.536373 -25.931405 16.036853 33.359434 -1.089699 1.069310 0.021244 -0.014776 103601.000000 0 0 1
13.986773 -26.624575 17.196553 34.644181 -1.087088 1.051377 0.018076 -0.015428 -392453.000000 0 0 1
13.661873 -25.845955 18.519353 34.606742 -1.084540 1.006126 0.012211 -0.018188 -378986.000000 0 0 1
14.153273 -24.549535 18.767753 33.988577 -1.047821 0.985822 0.002762 -0.020298 702346.000000 0 0 1
15.550573 -24.558735 19.119153 34.792152 -1.006323 0.989001 0.013880 -0.018938 668745.000000 0 0 1
16.014173 -23.181035 19.620053 34.333083 -0.966251 0.962510 -0.009595 -0.012052 -369245.000000 0 0 1
16.228773 -22.142835 18.660853 33.194964 -0.938321 0.973802 -0.008571 -0.014961 242105.000000 0 0 1
15.044173 -21.449935 18.330253 31.975382 -0.959157 0.960316 -0.010629 -0.007360 -477945.000000 0 0 1
15.333273 -20.432535 17.190653 30.791497 -0.927017 0.978470 -0.008981 -0.005170 279559.000000 0 0 1
16.155173 -19.297235 17.464653 30.633103 -0.873795 0.964140 -0.004118 -0.007099 104393.000000 0 0 1
17.520073 -19.550635 17.668553 31.644242 -0.840119 0.978401 0.002705 -0.003759 -784311.000000 0 0 1
18.384373 -18.346335 17.953053 31.573491 -0.784363 0.965979 0.008723 -0.004832 -497439.000000 0 0 1
18.190173 -17.878035 19.248453 31.953239 -0.776744 0.924299 -0.002372 0.005039 263080.000000 0 0 1
18.813973 -16.605535 19.346953 31.686180 -0.723128 0.914003 0.009901 0.003175 -168969.000000 0 0 1
19.397073 -16.342835 20.738953 32.763377 -0.700148 0.885384 0.016363 0.005977 1030700.000000 0 0 1
20.606173 -17.109535 21.033053 34.054954 -0.692952 0.905082 0.024514 0.004264 989779.000000 0 0 1
21.047273 -16.924335 22.350653 35.056704 -0.677242 0.879473 0.026092 0.004966 -36641.300000 0 0 1
32.537136 -0.261635 -7.556976 33.404215 -0.008041 1.799000 0.043931 -0.018963 -908723.000000 0 0 1
33.810196 -0.233435 -8.105776 34.769059 -0.006904 1.806093 0.021787 -0.019986 -374742.000000 0 0 1
34.417469 -1.539535 -8.266976 35.429863 -0.044701 1.806301 0.035710 -0.023782 -87882.100000 0 0 1
-34.373851 -1.277735 -8.938576 35.540011 0.037155 1.825034 0.009794 -0.015633 -127532.000000 0 0 1
-33.547827 -2.442435 -8.779976 34.763633 0.072676 1.826124 0.037339 -0.010911 20757.900000 0 0 1
-32.300727 -2.272435 -9.415776 33.721770 0.070237 1.853778 0.071187 -0.018499 -87360.900000 0 0 1
-31.320697 -3.376635 -8.964276 32.752801 0.107394 1.848029 0.075976 -0.015807 -343738.000000 0 0 1
-30.796227 -3.278935 -7.655476 31.902434 0.106072 1.813126 0.064500 -0.014279 -20742.200000 0 0 1
-29.686637 -4.116735 -7.516876 30.898986 0.137794 1.816535 0.058298 -0.020286 -297840.000000 0 0 1
-29.287347 -4.349735 -6.068776 30.224145 0.147441 1.772963 0.054347 -0.028438 -196945.000000 0 0 1
-28.847077 -3.189535 -5.400076 29.520972 0.110120 1.754756 0.048269 -0.020772 370479.000000 0 0 1
-29.033727 -3.186735 -3.998776 29.480549 0.109322 1.706857 0.046829 -0.020068 -211977.000000 0 0 1
-29.089657 -1.775835 -3.387676 29.340042 0.060971 1.686517 0.037467 -0.010177 -414377.000000 0 0 1
-27.883297 -1.065135 -3.464676 28.117908 0.038181 1.694330 0.046627 -0.003306 34758.000000 0 0 1
-27.932507 0.169765 -2.752176 28.068278 -0.006078 1.669007 0.053359 -0.013861 919921.000000 0 0 1
-26.517667 0.733565 -2.282476 26.625823 -0.027656 1.656626 0.085709 -0.005530 1168710.000000 0 0 1
-25.932677 -0.160435 -1.339776 25.967758 0.006187 1.622413 0.045992 -0.009711 1501700.000000 0 0 1
-24.507027 -0.013335 -1.183876 24.535609 0.000544 1.619066 0.049449 -0.008977 1210470.000000 0 1 0
-23.739727 -0.818635 -0.087476 23.753999 0.034470 1.574479 0.022370 -0.008154 126759.000000 0 1 0
-23.819327 -2.237935 -0.253376 23.925570 0.093680 1.581387 0.024226 -0.012834 189612.000000 0 1 0
-22.978927 -2.820735 0.711424 23.162335 0.122142 1.540077 0.009525 -0.008365 -466822.000000 0 1 0
-22.944727 -4.362635 0.699424 23.366264 0.187894 1.540859 0.003930 0.001784 -834260.000000 0 1 0
-24.047627 -4.931035 1.313424 24.583095 0.202249 1.517343 -0.008743 0.003231 -349376.000000 0 1 0
-24.204727 -6.309035 1.143424 25.039572 0.254980 1.525116 -0.015665 0.007896 -212905.000000 0 0 1
-25.483967 -6.920135 1.751024 26.464824 0.265155 1.504584 -0.017959 0.008097 -12829.000000 0 0 1
-25.286217 -7.451335 3.039924 26.535944 0.286569 1.455986 -0.021673 0.013498 605713.000000 0 0 1
-26.458197 -8.159435 3.448924 27.901750 0.299136 1.446870 -0.009491 0.009803 219887.000000 0 0 1
-26.484067 -8.248435 4.951924 28.177367 0.301927 1.394138 -0.016818 -0.007112 514507.000000 0 0 1
-25.598787 -9.297435 5.484524 27.781652 0.348384 1.372076 -0.008319 0.003962 841387.000000 0 0 1
-25.779057 -9.472335 6.924824 28.323808 0.352129 1.323805 -0.014807 0.009442 -410442.000000 0 0 1
-25.425437 -8.362935 7.923624 27.913712 0.317773 1.282978 -0.006534 0.011885 -374052.000000 0 0 1
-24.054827 -8.094835 7.981624 26.605777 0.324612 1.266108 0.007978 0.001887 -247708.000000 0 0 1
-23.912127 -6.727935 8.419224 26.228577 0.274270 1.244017 0.002631 0.002541 373463.000000 0 0 1
-22.511827 -6.162135 7.939524 24.653403 0.267184 1.242907 0.037875 0.003562 1385530.000000 0 1 0
-21.434627 -6.693935 8.738124 24.095784 0.302698 1.199696 0.035574 -0.004348 720138.000000 0 1 0
-20.184527 -6.411935 8.112024 22.678910 0.307584 1.205003 0.032453 -0.002182 -558907.000000 0 1 0
-19.010427 -6.713935 8.964024 22.064156 0.339497 1.152427 0.059780 -0.014374 -1134310.000000 0 1 0
-18.778327 -5.727735 9.928524 22.000184 0.296054 1.102583 0.044073 -0.013757 -318057.000000 0 1 0
-17.740127 -6.079735 10.772124 21.626695 0.330167 1.049397 0.041795 -0.020226 -849703.000000 0 1 0
-17.583027 -4.899335 11.785124 21.726837 0.271747 0.997478 0.038476 -0.014801 41393.900000 0 1 0
-18.645327 -4.854535 12.721724 23.088027 0.254707 0.987223 0.035203 -0.014718 414605.000000 0 1 0
-18.716127 -3.670235 13.423524 23.322843 0.193643 0.957517 0.032116 -0.005327 -76089.300000 0 1 0
-19.899027 -3.730835 14.397824 24.843263 0.185337 0.952624 0.027076 -0.007147 -327919.000000 0 1 0
-19.702527 -4.635835 15.465724 25.472910 0.231088 0.918335 0.021791 -0.013184 -324345.000000 0 0 1
-20.838127 -4.766435 16.247524 26.850111 0.224868 0.920880 0.007018 0.002241 -886635.000000 0 0 1
-20.572027 -5.437235 17.564724 27.591509 0.258394 0.880716 0.000843 0.003894 -552720.000000 0 0 1
-21.431027 -5.052635 18.597424 28.821558 0.231535 0.869432 -0.003116 0.006196 11441.700000 0 0 1
-21.237227 -5.884535 19.708624 29.564800 0.270304 0.841125 0.004975 0.006484 -786710.000000 0 0 1
-21.949227 -5.416035 20.963824 30.831541 0.241920 0.823106 -0.013293 0.007934 -550710.000000 0 0 1
-21.556727 -4.116235 21.309124 30.589453 0.188678 0.800125 -0.017788 0.005875 133301.000000 0 0 1
-22.222827 -3.722235 22.463324 31.816819 0.165956 0.786933 -0.017880 0.000832 -269291.000000 0 0 1
-22.140327 -2.229335 22.937124 31.957404 0.100353 0.770244 -0.017867 0.011082 -341026.000000 0 0 1
-22.935227 -1.403835 22.130224 31.902072 0.061132 0.804193 -0.019239 0.013721 -127711.000000 0 0 1
-22.747327 -0.006535 22.307824 31.860319 0.000287 0.795153 -0.013127 0.010877 -943025.000000 0 0 1
-23.927727 0.761065 21.745924 32.341932 -0.031796 0.833383 -0.012565 0.012943 214256.000000 0 0 1
-24.982627 0.635665 22.738224 33.787017 -0.025439 0.832557 -0.015173 0.010664 -350689.000000 0 0 1
-26.173177 1.220665 22.345324 34.436009 -0.046604 0.864666 -0.010031 0.015869 -730332.000000 0 0 1
-27.224277 1.198765 23.453624 35.953731 -0.044005 0.860144 -0.003576 0.017929 -609855.000000 0 0 1
-26.926177 2.078565 24.489224 36.456296 -0.077042 0.834239 0.000574 0.013492 427904.000000 0 0 1
-27.958447 2.035765 25.480024 37.882063 -0.072686 0.833060 -0.004393 0.010246 73008.000000 0 0 1
-27.697467 2.848265 26.787224 38.636998 -0.102475 0.804731 0.011890 0.008042 -356781.000000 0 0 1
-26.695457 2.281565 27.576924 38.449183 -0.085259 0.770977 0.011172 0.003805 -63092.600000 0 0 1
-26.425347 3.166665 28.608024 39.073594 -0.119266 0.749312 0.018663 -0.002387 -344116.000000 0 0 1
-25.221197 2.785965 29.469824 38.888827 -0.110015 0.710867 0.034180 -0.007312 -274809.000000 0 0 1
-25.577027 1.796265 30.380224 39.753854 -0.070114 0.700983 0.032783 -0.009536 698914.000000 0 0 1
-24.515227 1.579665 31.319824 39.804812 -0.064347 0.665132 0.038215 -0.015256 544412.000000 0 0 1
-24.801427 0.351065 32.160524 40.614447 -0.014154 0.656965 0.031095 -0.021235 -68749.400000 0 0 1
-24.843827 -0.759035 31.293324 39.963283 0.030543 0.671239 0.030869 -0.023787 89231.800000 0 0 1
-25.228327 -1.916235 32.022124 40.811234 0.075810 0.668681 0.043447 -0.014229 -552921.000000 0 0 1
-26.117517 -2.943535 31.269924 40.848467 0.112230 0.698962 0.036559 -0.012149 -942580.000000 0 0 1
-27.397987 -2.619035 30.897524 41.378328 0.095303 0.727698 0.034062 -0.007442 -941940.000000 0 0 1
-27.480727 -1.586935 29.935224 40.667264 0.057683 0.743504 0.031239 -0.007925 -1647990.000000 0 0 1
-28.858697 -1.064435 29.594424 41.349575 0.036868 0.773152 -0.004116 -0.007836 -460455.000000 0 0 1
-29.486417 -0.458935 30.719424 42.583358 0.015563 0.764982 0.006301 0.001544 -574764.000000 0 0 1
-30.848927 -0.233035 30.476724 43.365208 0.007554 0.791482 -0.010840 -0.000271 -448398.000000 0 0 1
-31.582677 0.086665 31.795724 44.815634 -0.002744 0.782039 -0.021215 0.010802 -517670.000000 0 0 1
-31.799507 -1.065935 32.549124 45.516923 0.033508 0.774030 -0.023928 0.006154 -84446.800000 0 0 1
-32.438947 -0.872135 33.772224 46.835980 0.026879 0.765445 -0.001992 0.002454 -140914.000000 0 0 1
-32.539517 -2.100135 -34.443305 47.429653 0.064452 2.383571 -0.001212 -0.002056 45499.500000 0 0 1
-33.407177 -3.007235 33.998824 47.759847 0.089776 0.778638 -0.008341 0.000012 205476.000000 0 0 1
-33.298937 -4.290035 -34.459705 48.111276 0.128128 2.369210 -0.005287 -0.001856 -152258.000000 0 0 1
-34.431521 -5.212035 34.148924 48.773394 0.150233 0.795182 -0.006160 -0.005499 185673.000000 0 0 1
34.477651 -4.823035 -34.378505 48.927004 -0.138987 2.349910 0.006540 -0.012954 13333.800000 0 0 1
33.414206 -5.367835 33.942424 47.931315 -0.159284 0.783926 0.006425 -0.010263 -112971.000000 0 0 1
32.049346 -4.866935 34.501524 47.341343 -0.150706 0.754255 0.038544 -0.018425 -2088.600000 0 0 1
31.627186 -5.499335 -33.360805 46.297569 -0.172159 2.375426 0.048863 -0.023854 231978.000000 0 0 1
31.332016 -6.893035 -33.436305 46.337843 -0.216550 2.376873 0.043455 -0.019633 -642672.000000 0 0 1
29.923606 -7.238335 -34.004705 45.870858 -0.237335 2.405822 0.035841 -0.019759 -237771.000000 0 0 1
28.939486 -7.008635 -33.032905 44.472324 -0.237608 2.408001 0.035556 -0.021264 -1414210.000000 0 0 1
27.721956 -7.110935 -33.656905 44.179854 -0.251095 2.436908 0.038686 -0.016135 -640151.000000 0 0 1
26.517896 -6.633735 -32.758105 42.664959 -0.245130 2.446195 0.045143 -0.020907 1085430.000000 0 0 1
25.253266 -7.185035 -33.163405 42.298506 -0.277194 2.471932 0.032382 -0.017633 -36351.600000 0 0 1
24.252826 -6.850735 -32.264505 40.940572 -0.275299 2.478482 0.034344 -0.013298 -555781.000000 0 0 1
22.913626 -7.396135 -32.831805 40.714426 -0.312226 2.508823 0.037230 -0.021952 -136554.000000 0 0 1
22.791926 -8.842735 -32.916305 41.001817 -0.370099 2.502775 0.043687 -0.030665 136475.000000 0 0 1
22.880726 -9.563735 -31.716605 40.260846 -0.395911 2.477989 0.040762 -0.018854 -386784.000000 0 0 1
22.697526 -11.102835 -31.791305 40.609577 -0.454942 2.470033 0.047198 -0.024222 678186.000000 0 0 1
21.351926 -11.434135 -32.166805 40.265960 -0.491649 2.496191 0.057864 -0.029801 703246.000000 0 0 1
21.141426 -12.826035 -31.995005 40.436956 -0.545315 2.483617 0.048606 -0.020955 -689342.000000 0 0 1
19.884626 -13.378435 -32.686705 40.531489 -0.592239 2.508924 0.052299 -0.018605 -21810.000000 0 0 1
18.628926 -12.911035 -32.258605 39.425237 -0.606056 2.529108 0.066513 -0.018809 -185534.000000 0 0 1
18.291926 -11.711735 -32.859605 39.389249 -0.569503 2.557527 0.064637 -0.024676 -418717.000000 0 0 1
16.890926 -11.223135 -32.383205 38.209084 -0.586465 2.582103 0.047676 -0.025691 1026240.000000 0 0 1
15.770826 -11.897235 -32.973205 38.438203 -0.646300 2.601817 0.038561 -0.015446 604907.000000 0 0 1
14.511026 -11.501235 -32.478905 37.386195 -0.670204 2.623450 0.039062 -0.013050 730753.000000 0 0 1
13.255626 -11.620135 -33.385205 37.753292 -0.719746 2.655787 0.005656 -0.000086 -475768.000000 0 0 1
12.852326 -12.949935 -33.644305 38.272998 -0.789181 2.644685 0.006855 0.002865 773319.000000 0 0 1
11.636026 -13.024435 -34.434805 38.610735 -0.841640 2.672205 -0.013440 0.011930 1396430.000000 0 0 1
10.385926 -13.026235 -33.488505 37.403613 -0.897699 2.679964 -0.019124 0.020829 -367357.000000 0 0 1
10.297326 -11.818435 -32.689605 36.253560 -0.854069 2.694467 -0.000994 0.013526 -12288.100000 0 0 1
9.321226 -11.914935 -31.651005 35.080437 -0.906933 2.695734 -0.000208 0.000380 1005350.000000 0 0 1
7.971426 -11.170935 -31.935605 34.759406 -0.951010 2.735728 -0.016068 0.014989 562753.000000 0 0 1
8.294426 -9.789835 -32.057505 34.530016 -0.867902 2.760867 -0.017651 0.008758 -240792.000000 0 0 1
7.228126 -9.062035 -32.538205 34.541295 -0.897504 2.799363 -0.019705 0.009164 -657451.000000 0 0 1
7.682026 -7.639635 -32.948705 34.684214 -0.782631 2.823912 -0.006782 0.005501 9977.420000 0 0 1
8.016026 -6.844035 -31.797205 33.498653 -0.706693 2.821507 -0.011905 -0.008337 375881.000000 0 0 1
8.686226 -5.665035 -32.206105 33.834544 -0.577910 2.830078 0.010051 -0.009996 -267947.000000 0 0 1
9.046426 -4.711735 -31.060105 32.692024 -0.480180 2.824295 0.018569 -0.016123 46012.300000 0 0 1
7.889826 -4.228135 -30.394605 31.685304 -0.491951 2.855185 0.029230 -0.018966 386666.000000 0 0 1
8.217726 -3.280535 -29.384705 30.688008 -0.379819 2.849108 0.028321 -0.016284 703113.000000 0 0 1
6.880226 -2.756135 -28.736005 29.676452 -0.381013 2.889169 0.026451 -0.008008 92559.500000 0 0 1
6.102926 -2.030335 -29.666805 30.356009 -0.321165 2.928096 0.021294 -0.002153 -661007.000000 0 0 1
4.819726 -1.754835 -29.225105 29.671804 -0.349176 2.967854 0.023633 0.000575 -31709.100000 0 0 1
3.769226 -2.919735 -29.202605 29.589256 -0.659076 2.979754 0.014232 -0.000777 -371750.000000 0 0 1
3.911226 -3.747435 -28.055605 28.573728 -0.764015 2.950868 0.014925 -0.003660 -560087.000000 0 0 1
2.906126 -4.690535 -27.914605 28.454734 -1.016110 2.946439 0.035502 -0.007499 -532374.000000 0 0 1
3.026426 -5.627835 -26.706205 27.460029 -1.077399 2.906739 0.035566 -0.017752 -309388.000000 0 0 1
2.805226 -4.981835 -25.481805 26.115328 -1.057958 2.920878 0.051805 -0.021920 -6037.950000 0 0 1
2.799426 -5.920935 -24.397805 25.261575 -1.129143 2.879334 0.044587 -0.027710 -226968.000000 0 0 1
2.864226 -5.263935 -23.008505 23.776125 -1.072477 2.886796 0.045386 -0.032117 321096.000000 0 1 0
4.065326 -4.607435 -22.657205 23.475610 -0.847824 2.876767 0.035064 -0.028521 -34330.200000 0 1 0
3.751826 -3.747335 -21.592405 22.233998 -0.784799 2.900776 0.031686 -0.022663 427872.000000 0 1 0
4.861926 -2.682035 -21.309005 22.020566 -0.504102 2.886685 0.043907 -0.020934 459654.000000 0 1 0
6.062026 -3.209535 -20.770805 21.874086 -0.486929 2.822633 0.034939 -0.030036 -338949.000000 0 1 0
6.925026 -2.105935 -20.522605 21.761624 -0.295219 2.802522 0.046225 -0.011761 -183164.000000 0 1 0
8.384726 -2.558435 -20.401205 22.204918 -0.296157 2.735749 0.030859 -0.008468 -1459970.000000 0 1 0
9.126726 -2.499635 -21.628105 23.607631 -0.267325 2.729161 0.036868 -0.011555 517873.000000 0 1 0
10.348026 -3.235235 -21.550805 24.124377 -0.303015 2.675477 0.029119 -0.013966 518168.000000 0 1 0
11.486526 -2.556035 -20.776305 23.877363 -0.218957 2.626253 0.009043 -0.009074 -1160650.000000 0 1 0
11.180126 -2.441535 -19.389505 22.514645 -0.215006 2.608413 0.019570 -0.003071 -228238.000000 0 1 0
12.166326 -1.741335 -18.675605 22.356877 -0.142162 2.559548 0.015865 -0.009934 -288672.000000 0 1 0
12.106726 -0.210535 -18.757305 22.326075 -0.017388 2.568360 0.006087 -0.007772 -38061.000000 0 1 0
12.464226 0.430065 -20.030905 23.596166 0.034490 2.584707 -0.004623 -0.004643 221651.000000 0 1 0
12.316926 1.858265 -19.954105 23.522885 0.149741 2.583534 0.002954 -0.010201 -183575.000000 0 1 0
12.550026 2.583765 -21.316405 24.871030 0.203040 2.600367 0.011240 -0.009087 243099.000000 0 1 0
13.905326 2.459665 -21.755805 25.936906 0.175076 2.565867 0.014520 -0.004265 513216.000000 0 0 1
14.281226 3.684565 -22.365805 26.791018 0.252494 2.558611 0.027917 -0.016242 -50383.000000 0 0 1
15.795726 3.719365 -22.695005 27.899855 0.231254 2.520848 0.023219 -0.019787 205795.000000 0 0 1
16.140326 2.878565 -23.762705 28.869749 0.176491 2.537646 0.012105 -0.015113 35313.800000 0 0 1
16.793926 1.705165 -23.256805 28.737128 0.101188 2.513747 0.006622 -0.010583 -298549.000000 0 0 1
8.796973 26.869765 2.826824 28.414115 1.254402 1.471145 -0.021770 0.014338 165545.000000 0 0 1
8.702073 27.396865 4.109224 29.037906 1.263244 1.428807 -0.029023 0.014778 421736.000000 0 0 1
9.946173 27.991365 4.466124 30.039792 1.229381 1.421570 -0.011982 0.007154 -130657.000000 0 0 1
9.955973 28.679565 5.835424 30.914252 1.236667 1.380895 -0.018370 0.009795 -258414.000000 0 0 1
10.030673 27.698365 6.822224 30.238329 1.223348 1.343222 -0.026533 0.014055 158123.000000 0 0 1
9.972873 28.313065 8.074324 31.085085 1.232131 1.308034 -0.024491 0.013967 -546604.000000 0 0 1
9.859973 27.356565 9.382224 30.555308 1.224865 1.258697 -0.025439 0.004989 658592.000000 0 0 1
11.093473 26.752265 9.810024 30.577531 1.177704 1.244196 -0.002976 0.000452 770797.000000 0 0 1
11.698973 25.808265 8.898224 29.700352 1.145199 1.266523 -0.005853 0.001617 99685.400000 0 0 1
12.966573 25.214465 9.566324 29.923499 1.095813 1.245391 0.009382 -0.000461 -430613.000000 0 0 1
14.039473 26.071365 9.763724 31.179371 1.076824 1.252292 0.017462 -0.004648 -37329.700000 0 0 1
15.026173 25.345665 10.534124 31.291474 1.035651 1.227444 0.022021 -0.002273 677015.000000 0 0 1
16.147573 26.316165 11.028524 32.785865 1.020437 1.227726 0.027061 -0.008620 -205764.000000 0 0 1
16.820773 27.056165 9.992324 33.388935 1.014575 1.266868 0.038370 -0.018164 -104819.000000 0 0 1
18.214573 27.066465 9.954324 34.109423 0.978451 1.274652 0.057379 -0.025114 -145841.000000 0 0 1
18.924973 27.756265 11.178124 35.405018 0.972371 1.249579 0.053967 -0.024242 -718101.000000 0 0 1
19.006173 29.169965 11.119824 36.548214 0.993321 1.261644 0.053707 -0.036501 856238.000000 0 0 1
17.773673 29.842065 11.453024 36.573543 1.033625 1.252288 0.036988 -0.020963 778177.000000 0 0 1
18.034273 31.416865 11.518024 38.012094 1.049690 1.262947 0.028417 -0.010571 -990838.000000 0 0 1
18.476973 32.048465 10.363624 38.417539 1.047811 1.297650 0.041279 -0.024165 -570980.000000 0 0 1
17.696573 32.106965 9.224324 37.803625 1.067051 1.324301 0.040813 -0.022680 -480138.000000 0 0 1
16.312273 32.772265 9.432624 37.803253 1.108953 1.318613 0.034422 -0.015678 -310457.000000 0 0 1
16.372073 34.175565 9.733224 39.124796 1.124042 1.319382 0.022252 -0.016194 430905.000000 0 0 1
15.085373 -34.602609 9.968524 39.042035 -1.159679 1.312609 0.026995 -0.010349 658109.000000 0 0 1
15.247173 -33.029009 10.285924 37.804655 -1.138313 1.295241 0.034586 -0.006978 161.774000 0 0 1
15.717673 -32.354009 9.166524 37.119433 -1.118571 1.321268 0.032229 -0.008636 -87224.900000 0 0 1
15.844173 -31.016109 9.391024 36.072540 -1.098517 1.307425 0.018043 -0.005340 40055.700000 0 0 1
16.502373 -30.332309 8.124124 35.473633 -1.072531 1.339727 0.012681 -0.004241 15119.800000 0 0 1
15.631073 -30.305609 7.039724 34.818358 -1.094603 1.367209 0.014156 -0.008588 -305906.000000 0 0 1
16.315273 -29.772109 5.950724 34.467053 -1.069486 1.397277 0.009315 -0.002995 192091.000000 0 0 1
15.561573 -29.863109 4.569924 33.983114 -1.090414 1.435911 0.016132 -0.010969 -45143.700000 0 0 1
15.804773 -31.150509 3.971724 35.155649 -1.101272 1.457579 0.013177 -0.007957 25468.800000 0 0 1
15.482073 -31.232409 2.605824 34.956377 -1.110590 1.496182 0.020614 0.003326 -42738.100000 0 0 1
15.864373 -32.689109 2.095724 36.395717 -1.118969 1.513183 0.003018 0.003589 365334.000000 0 0 1
17.244573 -33.028609 1.992224 37.312642 -1.089617 1.517378 0.019494 0.000338 475115.000000 0 0 1
17.425573 -34.367609 1.640124 38.567773 -1.101537 1.528258 0.035127 0.000518 432574.000000 0 0 1
18.910073 34.472765 1.667724 39.354081 1.069066 1.528406 0.045683 -0.000435 756068.000000 0 0 1
19.344273 34.109765 2.978524 39.326181 1.054905 1.494985 0.048256 -0.028838 692635.000000 0 0 1
20.724473 33.728565 2.957724 39.697204 1.019820 1.496220 0.046388 -0.022242 276538.000000 0 0 1
21.064173 33.171565 4.328724 39.532138 1.005033 1.461077 0.052269 -0.030429 -201772.000000 0 0 1
20.635973 31.806865 4.513524 38.182351 0.995272 1.452310 0.059280 -0.035729 -96227.100000 0 0 1
21.549373 31.056465 5.221324 38.159425 0.964191 1.433537 0.045983 -0.042992 -200850.000000 0 0 1
20.809173 30.384465 6.427224 37.383774 0.970302 1.398012 0.049085 -0.036201 522199.000000 0 0 1
19.891473 29.422465 5.906624 36.003338 0.976316 1.405994 0.054633 -0.032745 456315.000000 0 0 1
18.967073 28.973965 6.908124 35.312358 0.991177 1.373897 0.055630 -0.037960 353433.000000 0 0 1
17.484973 29.217665 6.547024 34.673617 1.031526 1.380837 0.069053 -0.035938 -173296.000000 0 0 1
17.112673 30.581665 6.520124 35.645390 1.060633 1.386844 0.060636 -0.038365 137461.000000 0 0 1
17.137773 31.132165 5.196424 35.915425 1.067581 1.425602 0.058650 -0.033268 -469891.000000 0 0 1
17.017873 32.706365 5.186424 37.231885 1.091023 1.431041 0.047194 -0.024841 -1851.250000 0 0 1
15.782973 33.258265 5.599724 37.236693 1.127709 1.419842 0.036032 -0.017374 -192165.000000 0 0 1
15.881573 34.625065 5.732924 38.522537 1.140754 1.421421 0.034072 -0.019699 340022.000000 0 0 1
14.527673 -33.953909 6.003124 37.416022 -1.166502 1.409657 0.023736 -0.015944 671658.000000 0 0 1
13.668073 -34.063009 4.914324 37.030465 -1.189205 1.437693 0.020573 -0.007210 -143168.000000 0 0 1
12.609373 -33.116409 4.924524 35.776302 -1.206986 1.432710 0.011696 -0.006782 274975.000000 0 0 1
11.883373 -32.827809 3.622224 35.099859 -1.223479 1.467415 0.007639 -0.005050 576601.000000 0 0 1
10.799373 -31.867509 3.680424 33.848340 -1.244059 1.461848 0.016136 -0.017826 518371.000000 0 0 1
10.329373 -31.718209 2.398324 33.443874 -1.255967 1.499023 0.014675 -0.005187 -300012.000000 0 0 1
9.499973 -30.437909 2.085924 31.954137 -1.268267 1.505471 0.030995 -0.004617 90103.600000 0 0 1
8.916073 -30.375209 0.788124 31.666557 -1.285285 1.545906 0.031319 -0.000659 677512.000000 0 0 1
7.771073 -31.181309 0.445124 32.138166 -1.326550 1.556946 0.027676 -0.003078 351789.000000 0 0 1
7.951273 -31.767209 -0.953776 32.761074 -1.325537 1.599914 0.042059 -0.006141 -529957.000000 0 0 1
9.006173 -32.650709 -1.051276 33.886356 -1.301655 1.601825 0.034498 -0.008661 -693202.000000 0 0 1
9.058073 -33.237209 -2.313376 34.526981 -1.304730 1.637849 0.033249 0.002854 470232.000000 0 0 1
10.242673 -34.263309 -2.388176 35.841178 -1.280312 1.637478 0.019658 0.008499 457972.000000 0 0 1
10.272273 34.301365 -1.258376 35.828574 1.279825 1.605926 0.016541 0.007016 -297062.000000 0 0 1
11.528373 33.690365 -1.093076 35.624975 1.241100 1.601484 0.021376 0.003761 -260012.000000 0 0 1
11.672873 32.822765 0.172324 34.837043 1.229112 1.565850 0.015751 -0.005019 -415982.000000 0 0 1
11.959573 33.492965 1.442224 35.593399 1.227831 1.530266 0.012507 -0.004471 -237480.000000 0 0 1
13.234973 34.049265 1.652624 36.568403 1.200069 1.525588 0.018923 0.001417 323279.000000 0 0 1
14.364373 32.959765 1.912824 36.004725 1.159801 1.517644 0.034064 -0.007007 56226.900000 0 0 1
14.806373 32.248965 0.753224 35.493545 1.140378 1.549573 0.037247 -0.007293 -27033.600000 0 0 1
15.692073 31.191465 1.056824 34.932299 1.104681 1.540538 0.053120 -0.009956 -219603.000000 0 0 1
16.141073 30.423265 -0.173176 34.440373 1.083008 1.575825 0.055416 -0.002663 83582.300000 0 0 1
17.140773 31.123465 -0.930276 35.543516 1.067389 1.596972 0.029646 0.003639 376837.000000 0 0 1
16.686773 32.074065 -1.934176 36.206837 1.091074 1.624242 0.044263 -0.005843 3294.520000 0 0 1
17.904373 32.698365 -2.682676 37.375746 1.069827 1.642634 0.031598 -0.002336 403194.000000 0 0 1
18.775873 33.383065 -1.803676 38.343391 1.058455 1.617854 0.035392 0.008642 -97734.400000 0 0 1
19.686973 34.124065 -2.589576 39.480813 1.047518 1.636434 0.048251 0.009630 -360763.000000 0 0 1
20.719273 -34.407209 -1.746276 40.201913 -1.028777 1.614248 0.047749 0.011023 -182212.000000 0 0 1
21.718773 34.333465 -0.933476 40.636969 1.006762 1.593769 0.039796 0.005038 1038250.000000 0 0 1
22.693473 33.518365 -1.614076 40.510242 0.975642 1.610651 0.043748 0.005843 617881.000000 0 0 1
23.689473 34.214565 -2.609276 41.696953 0.965203 1.633414 0.030730 0.004455 -216359.000000 0 0 1
22.984873 -34.627509 -3.753076 41.730736 -0.984798 1.660854 0.029590 -0.002387 114257.000000 0 0 1
23.862773 -33.989209 -4.632676 41.787079 -0.958683 1.681889 0.028752 -0.001602 -181973.000000 0 0 1
23.175473 -33.481809 -5.896076 41.144839 -0.965337 1.714592 0.024153 -0.011363 -151934.000000 0 0 1
22.314973 -32.368209 -5.879576 39.752087 -0.967213 1.719247 0.030127 -0.005888 263368.000000 0 0 1
21.611573 -32.223109 -7.106076 39.444710 -0.980017 1.751938 0.030776 -0.014177 -304286.000000 0 0 1
20.645073 -31.045409 -7.165676 37.965555 -0.983951 1.760677 0.041073 -0.007837 -217595.000000 0 0 1
19.428273 -31.325009 -6.506876 37.430648 -1.015645 1.745522 0.036903 -0.002242 -177491.000000 0 0 1
18.538973 -30.230009 -6.613476 36.073328 -1.020681 1.755173 0.039372 -0.007743 308200.000000 0 0 1
17.413473 -30.050709 -5.580876 35.176986 -1.045609 1.730121 0.026455 0.005018 398946.000000 0 0 1
16.241873 -30.794909 -5.885376 35.309524 -1.085454 1.738257 0.030871 -0.000149 224513.000000 0 0 1
15.268473 -30.540709 -4.847076 34.487031 -1.107198 1.711811 0.012574 0.004887 542589.000000 0 0 1
13.980073 -31.364409 -5.044376 34.707554 -1.151499 1.716652 0.006912 0.002239 26721.700000 0 0 1
14.181673 -32.744809 -4.890176 36.017443 -1.162088 1.706989 0.013655 0.009316 -199996.000000 0 0 1
12.949473 -33.410009 -5.027776 36.182815 -1.201032 1.710202 0.023396 0.009947 -55955.600000 0 0 1
13.138573 34.413665 -5.192076 37.200539 1.206092 1.710823 0.029691 0.004874 75940.000000 0 0 1
13.491873 33.735765 -3.978376 36.550786 1.190352 1.679858 0.031946 -0.001858 -13134.300000 0 0 1
13.903773 32.371565 -4.059976 35.464299 1.165115 1.685529 0.035814 0.000621 -122797.000000 0 0 1
12.829673 31.334365 -4.540076 34.162190 1.182175 1.704088 0.029991 -0.001587 195939.000000 0 0 1
11.851573 31.001265 -3.587676 33.382774 1.205647 1.678475 0.019702 -0.001670 -111289.000000 0 0 1
12.266873 30.001165 -2.702976 32.524639 1.182658 1.653998 0.026678 -0.002401 86380.300000 0 0 1
11.063273 29.230165 -2.076776 31.322700 1.208971 1.637148 0.022485 0.006960 654872.000000 0 0 1
10.311073 29.913565 -1.074176 31.659018 1.238855 1.604732 0.006781 0.002786 -230595.000000 0 0 1
9.341473 29.086565 -0.481776 30.553616 1.260040 1.586565 -0.004398 0.013766 -900894.000000 0 0 1
8.156873 29.912265 -0.040176 31.004512 1.304576 1.572092 -0.002137 0.013555 -358076.000000 0 0 1
7.186673 29.035565 0.539724 29.916610 1.328160 1.552754 -0.015663 0.011141 -649842.000000 0 0 1
6.082973 29.734965 0.982124 30.366680 1.369007 1.538449 -0.013125 0.013415 -769021.000000 0 0 1
5.075773 28.861565 1.756724 29.357102 1.396710 1.510921 -0.019008 0.008347 -17320.300000 0 0 1
4.294073 28.124065 0.821824 28.461860 1.419283 1.541918 -0.016641 -0.001887 707564.000000 0 0 1
3.165073 27.545365 1.539324 27.769305 1.456394 1.515335 -0.004688 -0.006343 779237.000000 0 0 1
2.643273 26.336565 0.805924 26.481145 1.470766 1.540358 0.000461 -0.004966 -75473.300000 0 0 1
1.505373 25.772365 1.429824 25.855857 1.512452 1.515468 0.008909 -0.006102 -16740.100000 0 0 1
1.193873 24.589265 0.689924 24.627896 1.522282 1.542779 0.006529 -0.006223 -100958.000000 0 1 0
-0.178327 24.029965 1.104624 24.056001 -1.563375 1.524861 0.004537 0.000508 798600.000000 0 1 0
-1.323227 24.862365 0.800624 24.910422 -1.517624 1.538651 0.005222 -0.004886 414716.000000 0 1 0
-2.481927 24.263365 1.313724 24.425329 -1.468860 1.516985 0.008798 0.000186 -660074.000000 0 1 0
-3.670527 25.188765 1.541524 25.501430 -1.426094 1.510311 0.017172 -0.008795 -914152.000000 0 0 1
-4.742227 24.387465 1.945824 24.920341 -1.378740 1.492635 0.013708 -0.010450 -163522.000000 0 1 0
-6.025927 24.918265 2.188624 25.729784 -1.333524 1.485632 0.013673 -0.011338 539844.000000 0 0 1
-6.879727 25.309265 0.959724 26.245201 -1.305383 1.534221 0.012419 -0.009137 -501266.000000 0 0 1
-6.298527 26.406065 0.333324 27.148900 -1.336646 1.558518 0.013564 -0.009807 39709.000000 0 0 1
-7.163627 26.884565 -0.688476 27.831122 -1.310388 1.595536 0.006612 -0.008249 -198996.000000 0 0 1
-6.659927 28.089665 -1.513776 28.908051 -1.338000 1.623185 0.007619 -0.005276 -220249.000000 0 0 1
-7.135027 29.354765 -1.116076 30.230059 -1.332358 1.607724 0.010256 -0.009508 -53923.700000 0 0 1
-6.896627 30.413265 -2.089176 31.255316 -1.347804 1.637688 -0.005705 -0.001530 -244668.000000 0 0 1
-7.325727 31.810165 -1.596676 32.681833 -1.344448 1.619671 -0.013492 0.000384 -790877.000000 0 0 1
-7.261127 32.862465 -2.572676 33.753284 -1.353335 1.647090 -0.020162 0.016052 822142.000000 0 0 1
-6.023027 33.177965 -3.252776 33.876758 -1.391215 1.666962 -0.019124 0.020546 537163.000000 0 0 1
-4.867327 33.710265 -2.397876 34.144145 -1.427400 1.641082 -0.015745 0.011227 -788709.000000 0 0 1
-4.904127 -34.269109 -2.034376 34.677961 1.428655 1.629495 -0.022552 0.020933 -298068.000000 0 0 1
-4.005227 -33.973909 -1.014776 34.224233 1.453447 1.600451 -0.020996 0.016170 -431138.000000 0 0 1
-3.711727 -32.436909 -0.965576 32.662858 1.456863 1.600363 -0.024671 0.009460 682951.000000 0 0 1
-4.957627 -31.823809 -0.625276 32.213721 1.416255 1.590208 -0.007426 0.005598 469567.000000 0 0 1
-5.043127 -30.588509 -1.273376 31.027592 1.407396 1.611848 0.002229 0.005716 -450466.000000 0 0 1
-6.471927 -30.056209 -1.288576 30.772097 1.358707 1.612683 0.028056 0.000488 -432517.000000 0 0 1
-6.889827 -29.632409 0.016724 30.422847 1.342346 1.570247 0.030970 -0.002307 238158.000000 0 0 1
-7.859827 -28.591809 -0.164476 29.652917 1.302525 1.576343 0.019477 0.001278 202082.000000 0 0 1
-8.342227 -27.919409 1.093124 29.159579 1.280444 1.533300 0.016983 0.004022 933417.000000 0 0 1
-7.242227 -27.128309 1.650424 28.126836 1.309918 1.512085 0.035026 -0.008642 822371.000000 0 0 1
-7.303927 -26.839209 3.089824 27.986380 1.305094 1.460166 0.025067 0.001834 122012.000000 0 0 1
-8.281327 -25.708009 3.515624 27.236771 1.259162 1.441359 0.014344 0.000488 -55618.400000 0 0 1
-7.777227 -24.418309 3.360324 25.846293 1.262455 1.440415 0.014705 -0.004861 -633494.000000 0 0 1
-8.666527 -23.396009 3.760124 25.231339 1.216040 1.421213 0.012839 -0.005780 -428182.000000 0 0 1
-8.062227 -22.020809 3.877024 23.768610 1.219835 1.406949 -0.003120 0.008504 -100023.000000 0 1 0
-7.370027 -21.864409 5.096924 23.629395 1.245679 1.353385 -0.004407 -0.002517 -304518.000000 0 1 0
-6.904227 -20.553209 5.315024 22.323804 1.246720 1.330400 -0.009037 -0.004697 169665.000000 0 1 0
-7.891327 -19.562809 6.016624 21.935731 1.187376 1.292951 0.001492 0.001215 -87387.100000 0 1 0
-8.092027 -20.087709 7.269324 22.843818 1.187849 1.246947 0.004206 -0.002826 -77001.700000 0 1 0
-8.903027 -19.301909 8.112324 22.751645 1.138625 1.206213 0.000110 0.004033 -638335.000000 0 1 0
-26.117477 29.523365 -5.973176 39.867662 -0.846534 1.721188 0.042299 0.007347 -570297.000000 0 0 1
-25.315937 30.376065 -5.253776 39.889900 -0.876009 1.702887 0.036675 0.001045 -68089.800000 0 0 1
-24.513727 29.537965 -4.384376 38.634659 -0.878084 1.684524 0.017822 -0.000511 189905.000000 0 0 1
-23.686127 30.372965 -3.374076 38.664376 -0.908468 1.658173 0.014598 -0.003073 -394043.000000 0 0 1
-24.332127 30.813365 -2.170076 39.322068 -0.902391 1.626012 0.009410 -0.005686 506612.000000 0 0 1
-23.612327 31.885165 -1.479276 39.703828 -0.933375 1.608063 0.015622 -0.006407 1884410.000000 0 0 1
-22.189827 31.521965 -0.839076 38.558095 -0.957426 1.592559 0.013619 0.000561 1429900.000000 0 0 1
-21.225527 31.036365 -1.749376 37.640925 -0.970963 1.617288 0.014305 -0.007162 -514528.000000 0 0 1
-19.991727 30.884365 -1.113576 36.806972 -0.996315 1.601055 0.010684 -0.002831 -576767.000000 0 0 1
-18.828927 30.316065 -1.953576 35.740855 -1.015015 1.625483 0.023126 -0.006227 -447144.000000 0 0 1
-17.764227 30.135965 -1.061576 34.998158 -1.038156 1.601133 0.016436 -0.003253 -574747.000000 0 0 1
-16.681327 29.547365 -1.742576 33.975727 -1.056842 1.622108 0.006190 -0.004147 63619.000000 0 0 1
-15.277227 29.932565 -1.211176 33.627653 -1.098873 1.606821 0.009045 -0.007433 58288.300000 0 0 1
-14.905027 29.336065 0.016424 32.905391 -1.100707 1.570297 -0.001121 -0.008162 -313388.000000 0 0 1
-13.876327 30.076065 0.600424 33.128275 -1.138524 1.552671 0.005731 -0.009153 -357725.000000 0 0 1
-13.369427 29.288665 1.791824 32.245590 -1.142574 1.515200 0.003548 -0.011101 -144225.000000 0 0 1
-14.372327 29.280765 2.809824 32.738694 -1.114499 1.484865 -0.011678 -0.003716 193941.000000 0 0 1
-13.966827 28.647165 4.022724 32.123428 -1.117161 1.445240 -0.009565 -0.010353 411033.000000 0 0 1
-12.907027 29.345965 4.927924 32.435496 -1.156438 1.418276 0.011036 -0.006349 156382.000000 0 0 1
-13.340127 30.472665 5.710324 33.751297 -1.158156 1.400790 0.002208 -0.005291 -305662.000000 0 0 1
-13.547527 31.706765 4.932524 34.830794 -1.167000 1.428705 -0.001055 -0.002514 -16049.200000 0 0 1
-13.163727 32.922965 5.754624 35.921038 -1.190433 1.409901 0.012833 0.003440 193192.000000 0 0 1
-14.080927 33.212565 6.796824 36.708906 -1.169804 1.384567 0.012347 0.004319 117374.000000 0 0 1
-13.686427 34.466965 7.366924 37.809542 -1.192803 1.374699 0.019696 0.007124 408719.000000 0 0 1
-14.770627 -34.343109 8.333824 38.302391 1.164622 1.351462 0.003211 0.013698 215710.000000 0 0 1
-14.977627 34.099065 9.397024 38.410670 -1.156927 1.323642 -0.007105 0.012272 294311.000000 0 0 1
-16.127427 34.488865 10.142124 39.400994 -1.133393 1.310458 0.004020 0.010837 -253989.000000 0 0 1
-16.387027 33.699865 11.430324 39.177389 -1.118198 1.274732 0.000546 0.012423 34376.700000 0 0 1
-15.579727 34.058565 12.533224 39.494245 -1.141773 1.247870 0.010778 0.005233 536538.000000 0 0 1
-14.256027 33.522565 12.490724 38.509931 -1.168700 1.240471 0.016291 0.004352 52174.300000 0 0 1
-13.456427 33.733365 13.799524 38.851540 -1.191234 1.207683 0.035077 0.000140 -228839.000000 0 0 1
-13.760527 32.830165 14.882624 38.583213 -1.173897 1.174800 0.020836 0.007067 -171406.000000 0 0 1
-12.936127 31.712165 14.897124 37.348749 -1.183478 1.160517 0.015373 0.010586 -670199.000000 0 0 1
-13.520127 30.351865 14.401424 36.213679 -1.151736 1.161810 0.007041 0.007845 -251176.000000 0 0 1
-13.595927 30.241365 12.993524 35.612091 -1.148291 1.197311 0.007660 0.012714 -251901.000000 0 0 1
-14.848027 29.844665 12.541124 35.615273 -1.109142 1.210953 -0.007501 0.005911 -660568.000000 0 0 1
-14.924227 29.798665 10.981724 35.089759 -1.106481 1.252487 -0.011812 0.012034 -47835.300000 0 0 1
-14.169827 28.785265 10.369924 33.718107 -1.113360 1.258182 -0.004918 0.011471 57256.800000 0 0 1
-14.297127 28.837965 8.980324 33.416796 -1.110535 1.298715 -0.009692 0.015486 -485610.000000 0 0 1
-13.666727 27.653565 8.224824 31.924078 -1.111790 1.310220 -0.000286 0.008462 -1052220.000000 0 0 1
-12.293327 27.669465 8.345524 31.406575 -1.152699 1.301840 0.009604 0.005058 -1016880.000000 0 0 1
-11.715827 26.420565 8.080324 30.009973 -1.153414 1.298177 0.007659 -0.000855 156706.000000 0 0 1
-10.489927 26.542365 7.122324 29.415356 -1.194422 1.326236 0.019509 -0.001676 228384.000000 0 0 1
-10.790727 26.790465 5.712624 29.441516 -1.187894 1.375525 0.022988 -0.008621 600828.000000 0 0 1
-9.559827 26.645965 5.018924 28.750432 -1.226328 1.395329 0.034721 -0.010885 246796.000000 0 0 1
-9.734027 26.729165 3.448824 28.654736 -1.221552 1.450146 0.025456 -0.012101 -54449.200000 0 0 1
-9.684627 28.104365 3.037124 29.880954 -1.238945 1.468980 0.027575 -0.013098 28892.200000 0 0 1
-9.864327 28.308265 1.629224 30.021945 -1.235493 1.516502 0.019779 -0.013980 -118114.000000 0 0 1
-9.511427 29.806265 1.233924 31.311391 -1.261902 1.531378 0.030098 -0.015465 -251515.000000 0 0 1
-10.282727 30.730865 1.877824 32.459925 -1.247901 1.512913 0.017486 -0.021260 -352538.000000 0 0 1
-9.736027 32.004365 1.635424 33.492450 -1.275482 1.521947 0.017763 -0.019560 88030.200000 0 0 1
-10.344227 33.033265 2.640224 34.715564 -1.267323 1.494670 0.012679 -0.007839 899225.000000 0 0 1
-11.641027 33.548965 2.310024 35.586272 -1.236809 1.505837 0.022284 -0.003700 272552.000000 0 0 1
-11.607127 34.503565 1.244024 36.424840 -1.246285 1.536637 0.018766 0.001331 -43453.400000 0 0 1
-12.921527 -34.264109 0.655724 36.625469 1.210172 1.552892 0.019339 0.001582 294969.000000 0 0 1
-13.827027 34.210365 0.026424 36.899003 -1.186695 1.570080 0.009515 -0.003225 -38012.400000 0 0 1
-13.907027 34.216665 -1.399876 36.961401 -1.184750 1.608679 0.020315 -0.000527 294006.000000 0 0 1
-12.632627 33.719665 -2.155576 36.072781 -1.212344 1.630588 0.013742 0.004026 361269.000000 0 0 1
-12.574127 32.349565 -2.347976 34.786721 -1.200073 1.638344 0.007891 0.002024 -176575.000000 0 0 1
-11.222227 31.977565 -2.452876 33.978223 -1.233284 1.643049 -0.002553 0.011437 -83740.000000 0 0 1
-10.938027 30.428665 -2.598676 32.439130 -1.225715 1.650992 -0.005667 0.005151 -105189.000000 0 0 1
-11.225827 29.856565 -3.887476 32.133255 -1.211156 1.692073 -0.004458 0.007912 -504979.000000 0 0 1
-10.200227 30.021065 -4.833976 32.072984 -1.243265 1.722091 -0.018861 0.015698 -194673.000000 0 0 1
-10.551027 29.368965 -6.201876 31.817032 -1.225898 1.766975 -0.006286 0.009345 -215144.000000 0 0 1
-10.718827 27.920365 -6.156776 30.534340 -1.204240 1.773823 -0.004147 0.006859 48915.500000 0 0 1
-10.708227 27.371465 -7.451176 30.321333 -1.197883 1.819080 -0.004457 0.004543 60326.500000 0 0 1
-11.183127 25.892765 -7.408076 29.161227 -1.163095 1.827650 0.016942 -0.003720 696341.000000 0 0 1
-10.309427 25.009365 -6.630076 27.851580 -1.179798 1.811154 -0.001752 0.000998 613784.000000 0 0 1
-10.604627 23.683165 -6.940776 26.861213 -1.149798 1.832156 0.025883 -0.006082 -403395.000000 0 0 1
-9.991327 22.609665 -6.021776 25.441803 -1.154694 1.809752 0.004381 -0.004706 124616.000000 0 0 1
-8.597927 22.350865 -6.053176 24.700738 -1.203566 1.818378 0.003275 -0.013115 393800.000000 0 1 0
-8.136627 21.160865 -5.323276 23.287854 -1.203712 1.801421 0.013662 -0.012109 -369311.000000 0 1 0
-8.173727 21.137665 -3.737676 22.969129 -1.201816 1.734249 0.008001 -0.015795 -419358.000000 0 1 0
-9.448327 21.241565 -3.174676 23.463877 -1.152272 1.706513 0.005835 -0.011838 -723256.000000 0 1 0
-10.224527 20.086265 -3.322076 22.782343 -1.099950 1.717136 0.016452 -0.011135 -936462.000000 0 1 0
-11.472827 20.159565 -2.448676 23.324447 -1.053407 1.675973 0.021592 -0.008201 -720022.000000 0 1 0
-11.359227 19.945465 -1.077176 22.978553 -1.053094 1.617691 0.019978 -0.015012 96190.700000 0 1 0
-11.326027 18.590465 -0.638576 21.778247 -1.023611 1.600122 0.025836 -0.016286 -652925.000000 0 1 0
-10.903027 18.408765 0.822324 21.411091 -1.036077 1.532380 0.017352 -0.018335 -707448.000000 0 1 0
-11.868727 18.630465 1.778524 22.161318 -1.003571 1.490456 0.023432 -0.016613 -372339.000000 0 1 0
-11.290927 18.738965 3.045224 22.088622 -1.028513 1.432492 0.006843 -0.008315 -688600.000000 0 1 0
-12.336027 18.801365 4.134224 22.863960 -0.990128 1.388978 0.026050 -0.012258 171832.000000 0 1 0
-13.134727 17.598065 4.202824 22.357922 -0.929620 1.381692 0.006890 -0.015654 255495.000000 0 1 0
-14.401227 17.829065 4.764324 23.408752 -0.891354 1.365837 0.013449 -0.018504 -447923.000000 0 1 0
-15.144727 16.539265 5.144524 23.008176 -0.829384 1.345295 0.010335 -0.011347 -434797.000000 0 1 0
-14.642827 15.716265 6.189824 22.354581 -0.820741 1.290237 0.020217 -0.015657 -24434.700000 0 1 0
-14.964527 16.174665 7.491424 23.273983 -0.824241 1.243082 0.010871 -0.013978 -856113.000000 0 1 0
-13.885527 15.826765 8.555724 22.726521 -0.850640 1.184819 0.004760 -0.006535 -199287.000000 0 1 0
-12.699927 16.505665 8.566424 22.519075 -0.914977 1.180559 0.014952 -0.022120 -944891.000000 0 1 0
-11.870027 16.476965 7.443224 21.628442 -0.946509 1.219473 0.014962 -0.015050 -646837.000000 0 1 0
-10.717827 17.532565 7.519724 21.881702 -1.022102 1.219992 0.020171 -0.018598 347055.000000 0 1 0
-9.810527 17.427965 8.579524 21.762091 -1.058089 1.165554 0.021594 -0.011399 -621245.000000 0 1 0
-8.893027 18.435265 8.602424 22.202401 -1.121334 1.172927 0.016658 -0.020670 -845072.000000 0 1 0
-7.651627 18.255165 9.464024 21.940059 -1.173892 1.124799 0.019793 -0.025395 -1143440.000000 0 1 0
-6.707627 17.377565 8.933024 20.658435 -1.202423 1.123627 0.016067 -0.021782 14437.500000 0 1 0
-5.391727 17.597965 9.414924 20.673652 -1.273493 1.097967 0.018630 -0.025545 437808.000000 0 1 0
-4.497727 18.746765 8.930824 21.246890 -1.335327 1.136981 0.013953 -0.021494 -1383870.000000 0 1 0
-4.802527 20.057365 9.458524 22.689773 -1.335781 1.140805 0.013756 -0.022475 68229.800000 0 1 0
-4.298827 21.085465 8.587024 23.169241 -1.369676 1.191118 0.022438 -0.023095 1887370.000000 0 1 0
-2.767127 21.535665 8.776424 23.419382 -1.443006 1.186669 0.022158 -0.019523 2382950.000000 0 1 0
-1.749527 20.596265 8.353824 22.294693 -1.486056 1.186723 0.014335 -0.013796 140544.000000 0 1 0
-0.530627 21.231365 8.119424 22.737138 -1.545809 1.205635 0.013427 -0.022765 -164637.000000 0 1 0
0.697773 20.325365 7.915524 21.823447 1.536480 1.199625 0.011349 -0.023679 73903.700000 0 1 0
1.165773 19.664365 9.064124 21.684202 1.511582 1.139547 0.005544 -0.028355 886892.000000 0 1 0
2.606073 19.895765 9.091924 22.029438 1.440552 1.145361 0.008327 -0.008108 1099240.000000 0 1 0
3.195273 19.700465 10.523124 22.562230 1.410004 1.085575 -0.006986 -0.011488 -473518.000000 0 1 0
3.537473 18.343865 10.641224 21.499924 1.380293 1.053028 -0.003999 -0.015076 33248.400000 0 1 0
4.197673 18.034665 11.854624 21.986398 1.342112 1.001333 -0.019050 -0.011021 108129.000000 0 1 0
5.702073 18.316865 12.000024 22.627897 1.269003 1.011818 0.000604 -0.010902 112498.000000 0 1 0
6.685773 17.543065 11.284024 21.904061 1.206683 1.029606 -0.007093 -0.010856 454560.000000 0 1 0
7.415773 16.819965 12.263524 22.097487 1.155543 0.982465 -0.007019 0.001316 -1008330.000000 0 1 0
8.723073 16.232565 11.780624 21.871700 1.077693 1.001993 -0.007535 -0.000483 -592732.000000 0 1 0
9.758773 17.119565 11.484124 22.807855 1.052700 1.043133 0.001060 -0.003269 -1017510.000000 0 1 0
10.843473 16.485265 10.931324 22.557453 0.988980 1.064891 0.000028 -0.000202 -313617.000000 0 1 0
11.788773 17.458365 10.165324 23.390243 0.976874 1.121206 0.000947 -0.006702 -174627.000000 0 1 0
12.875073 16.889565 9.507524 23.268389 0.919464 1.149874 0.007195 -0.003823 -164629.000000 0 1 0
13.622573 17.897165 8.778624 24.144300 0.920192 1.198678 0.008985 0.005661 184083.000000 0 1 0
14.448073 17.353865 7.619524 23.831923 0.876517 1.245363 0.000456 -0.001315 -890447.000000 0 1 0
15.645373 16.857565 8.104624 24.385244 0.822676 1.231994 0.008718 0.006454 -689332.000000 0 1 0
16.486173 16.442165 7.042524 24.325621 0.784062 1.277081 0.020095 -0.000645 -217185.000000 0 1 0
17.908073 16.070465 7.506324 25.205234 0.731369 1.268401 0.011496 0.009745 -501566.000000 0 0 1
18.034873 14.934365 8.310024 24.846497 0.691631 1.229770 0.006747 0.009473 73067.800000 0 1 0
18.832773 15.436165 9.341324 26.080814 0.686605 1.204491 0.002700 0.016133 -516075.000000 0 0 1
19.171273 14.417265 10.400124 26.144938 0.644795 1.161692 0.002564 0.010894 -314693.000000 0 0 1
19.893573 13.314165 9.878124 25.895918 0.589803 1.179427 0.000406 0.009799 356859.000000 0 0 1
20.239773 12.359865 10.866224 26.086193 0.548230 1.141148 0.012356 0.004433 -640039.000000 0 0 1
21.175173 11.295665 10.373024 26.145356 0.490040 1.162829 0.013052 0.003217 -739234.000000 0 0 1
22.519073 11.736365 10.120224 27.336237 0.480443 1.191558 0.023205 -0.006766 1111280.000000 0 0 1
23.293673 10.776065 9.434624 27.344669 0.433297 1.218530 0.029179 -0.005920 -363907.000000 0 0 1
23.438573 9.311165 10.001924 27.131218 0.378140 1.193240 0.032667 -0.009971 -1844490.000000 0 0 1
22.369773 8.446165 9.886224 25.874348 0.361022 1.178744 0.020572 -0.008387 -158813.000000 0 0 1
22.680873 7.086965 10.229424 25.870605 0.302852 1.164285 0.020235 -0.004870 -116888.000000 0 0 1
23.635873 6.153965 9.391624 26.167315 0.254710 1.203700 0.038388 -0.003956 282659.000000 0 0 1
23.298973 5.922965 8.054124 25.353354 0.248942 1.247520 0.034945 -0.000448 397501.000000 0 0 1
24.437073 5.425165 7.370324 26.094533 0.218462 1.284452 0.034298 0.002728 24848.100000 0 0 1
24.237373 5.141265 5.846024 25.457000 0.209023 1.339085 0.038147 -0.006470 -620631.000000 0 0 1
23.425173 4.039165 5.662524 24.435993 0.170749 1.336942 0.048881 -0.010995 240565.000000 0 1 0
23.187373 3.707165 4.317524 23.875476 0.158537 1.388961 0.040445 -0.017121 -393332.000000 0 1 0
22.175173 2.565565 4.210724 22.716748 0.115183 1.384360 0.042615 -0.013244 -267986.000000 0 1 0
22.727973 1.331765 4.622024 23.231390 0.058529 1.370504 0.040413 -0.010902 352386.000000 0 1 0
21.869273 0.302965 4.223824 22.275493 0.013853 1.380024 0.022644 -0.011315 -430876.000000 0 1 0
22.434673 -1.089735 4.437124 22.895199 -0.048536 1.375761 0.022700 -0.006433 -657930.000000 0 1 0
22.334873 -1.393135 5.833624 23.126144 -0.062294 1.315789 0.021724 -0.007122 740747.000000 0 1 0
22.254273 -2.752935 6.015224 23.216680 -0.123078 1.308716 0.005211 -0.007529 -934938.000000 0 1 0
21.898173 -3.235635 7.475624 23.364166 -0.146697 1.245108 0.015088 -0.005168 -206825.000000 0 1 0
21.882373 -4.623135 7.573324 23.612854 -0.208210 1.244297 0.004402 -0.008446 557063.000000 0 1 0
21.494273 -4.997535 8.893524 23.792308 -0.228447 1.187696 0.000406 -0.006367 -86561.200000 0 1 0
21.611973 -6.494235 9.089724 24.328493 -0.291909 1.187883 0.011630 -0.010330 -236119.000000 0 1 0
20.585473 -7.183635 8.456524 23.385447 -0.335754 1.200797 0.021809 -0.011462 -110180.000000 0 1 0
20.407673 -8.439135 9.121224 23.893281 -0.392113 1.179109 0.024822 0.000961 -139704.000000 0 1 0
-26.025877 -32.698409 5.360924 42.133973 0.898538 1.443215 -0.006667 -0.007432 -365572.000000 0 0 1
-26.222187 -33.992209 5.833824 43.325591 0.913728 1.435735 0.015946 -0.006770 128591.000000 0 0 1
-26.328087 -33.932309 7.239224 43.554289 0.910924 1.403810 0.019537 0.004351 -142376.000000 0 0 1
-26.970527 34.120565 7.865624 44.198306 -0.901907 1.391881 0.019388 0.013710 -367798.000000 0 0 1
-28.316857 33.975165 7.532324 44.865266 -0.875985 1.402110 0.013721 0.003095 -700903.000000 0 0 1
-28.815237 32.688265 7.834524 44.274375 -0.848288 1.392906 0.016048 0.009141 -667539.000000 0 0 1
-30.328147 32.689265 7.754724 45.260582 -0.822848 1.398612 0.007456 0.006809 -972110.000000 0 0 1
-30.946297 32.677965 6.522924 45.476051 -0.812609 1.426863 -0.004773 0.003992 540085.000000 0 0 1
-32.368877 32.764765 6.676424 46.538679 -0.791476 1.426840 -0.007523 0.009972 537312.000000 0 0 1
-33.118277 32.790865 5.366924 46.913377 -0.780431 1.456145 -0.000526 0.012392 -559566.000000 0 0 1
-32.766107 31.696265 4.569624 45.816508 -0.768803 1.470893 -0.006477 0.009803 250596.000000 0 0 1
-33.468857 31.723365 3.351424 46.236006 -0.758630 1.498248 0.006072 0.014786 -152308.000000 0 0 1
-33.185777 30.493865 2.483124 45.136875 -0.743151 1.515755 0.004372 0.006197 -100987.000000 0 0 1
-33.530567 29.321165 3.162124 44.654548 -0.718525 1.499924 0.013286 -0.000821 102376.000000 0 0 1
-33.122727 28.144665 2.539424 43.539475 -0.704325 1.512439 0.008636 -0.002043 -447003.000000 0 0 1
-33.420327 26.815565 3.240424 42.970840 -0.676186 1.495315 0.026368 -0.003688 43698.200000 0 0 1
-34.775595 26.396465 3.321324 43.785232 -0.649269 1.494869 0.026883 -0.003994 -27658.500000 0 0 1
-34.953428 25.402365 4.297824 43.422270 -0.628454 1.471657 0.030047 -0.004596 505943.000000 0 0 1
33.700326 24.969765 4.273124 42.159942 0.637674 1.469267 0.034664 -0.010776 -223373.000000 0 0 1
33.305156 24.254765 3.142624 41.320734 0.629441 1.494668 0.023942 -0.007848 -87524.900000 0 0 1
33.735996 22.923365 2.984324 40.896262 0.596830 1.497758 0.019764 -0.002207 -1154530.000000 0 0 1
32.879386 22.145165 2.024724 39.693347 0.592737 1.519765 0.016829 -0.006440 444045.000000 0 0 1
31.520316 21.865465 2.418724 38.437990 0.606481 1.507829 0.020190 -0.014693 1125790.000000 0 0 1
31.303036 20.935865 3.519524 37.822976 0.589487 1.477609 0.008104 -0.001266 -886908.000000 0 0 1
31.709746 19.527165 3.402324 37.395106 0.551963 1.479687 0.006032 -0.006064 -582212.000000 0 0 1
31.263346 18.922665 2.225824 36.611724 0.544283 1.509963 0.009680 -0.006654 185633.000000 0 0 1
31.570366 17.568665 2.010524 36.185469 0.507814 1.515206 -0.005970 -0.005001 -538065.000000 0 0 1
31.021626 16.484965 2.984224 35.256218 0.488453 1.486051 -0.003898 0.000484 -114113.000000 0 0 1
29.617596 16.406465 2.879424 33.980364 0.505866 1.485957 0.006003 0.004464 36993.300000 0 0 1
29.002716 15.554565 3.827424 33.132328 0.492275 1.455019 0.025998 -0.005444 1165260.000000 0 0 1
27.423946 15.676565 3.850724 31.822249 0.519304 1.449492 0.004128 0.008460 1306680.000000 0 0 1
26.829686 15.160065 2.655924 30.930786 0.514323 1.484824 0.008612 0.006995 117794.000000 0 0 1
25.424226 15.185765 2.613824 29.729292 0.538428 1.482762 -0.004004 0.009752 -188289.000000 0 0 1
24.876526 14.462065 1.364024 28.807176 0.526596 1.523428 0.002291 -0.002369 -840948.000000 0 0 1
25.240976 14.985465 0.074024 29.354327 0.535771 1.568275 0.014850 -0.001749 203618.000000 0 0 1
26.491026 14.579965 -0.418276 30.241111 0.503130 1.584628 0.029685 -0.005900 -868350.000000 0 0 1
27.079976 15.362865 -1.583376 31.174505 0.516039 1.621609 0.033804 -0.006390 -184515.000000 0 0 1
27.406926 16.726065 -1.503676 32.142835 0.547948 1.617594 0.026508 -0.011628 560310.000000 0 0 1
28.255446 17.115665 -0.406076 33.037571 0.544635 1.583088 0.015540 -0.010852 -212814.000000 0 0 1
28.916236 18.478265 -0.638576 34.322044 0.568623 1.589403 0.034337 -0.011055 -404744.000000 0 0 1
29.921056 18.392665 -1.626576 35.159713 0.551163 1.617075 0.018723 -0.008664 -116446.000000 0 0 1
30.618796 19.599965 -1.694676 36.394247 0.569404 1.617378 0.014083 0.000503 -116369.000000 0 0 1
29.940756 20.774065 -2.498276 36.527414 0.606579 1.639244 0.015311 0.000875 -594264.000000 0 0 1
30.809766 21.840365 -2.631976 37.857238 0.616660 1.640376 -0.018611 0.010242 -59905.600000 0 0 1
30.387176 22.907765 -3.509476 38.215999 0.645969 1.662759 0.004567 0.006597 430190.000000 0 0 1
31.382746 24.163265 -3.467276 39.758799 0.656150 1.658115 -0.013180 0.012232 456828.000000 0 0 1
31.521996 25.003565 -2.319076 40.301273 0.670587 1.628372 -0.005765 0.017802 164351.000000 0 0 1
32.338346 24.520665 -1.275676 40.603681 0.648762 1.602219 -0.001161 0.020559 -193377.000000 0 0 1
32.052736 25.331565 0.026824 40.854213 0.668804 1.570140 0.001315 0.002997 -121233.000000 0 0 1
32.368716 26.698965 0.033124 41.959142 0.689704 1.570007 0.011320 0.001461 -361274.000000 0 0 1
33.664836 26.909565 0.527824 43.101328 0.674337 1.558550 0.021344 -0.000668 -212756.000000 0 0 1
34.207440 28.358265 0.199524 44.433995 0.692181 1.566306 0.018554 -0.007805 -313399.000000 0 0 1
34.753393 28.483465 -1.102176 44.947979 0.686571 1.595320 0.004025 0.001970 -140566.000000 0 0 1
33.867776 28.572165 -2.197076 44.364648 0.700789 1.620340 0.000068 0.002396 -498741.000000 0 0 1
34.433054 28.083165 -3.513176 44.571759 0.684173 1.649699 0.003390 -0.000011 -96992.900000 0 0 1
-34.667559 28.895065 -4.004076 45.307803 -0.694831 1.659287 -0.004572 0.000905 175445.000000 0 0 1
-34.045927 28.261365 -5.123576 44.543023 -0.692824 1.686077 0.007274 -0.004784 287829.000000 0 0 1
-34.837020 28.186065 -6.513976 45.282492 -0.680255 1.715149 -0.002367 -0.007540 812188.000000 0 0 1
34.126585 27.383965 -6.465176 44.230123 0.676217 1.717493 -0.011949 0.005429 446380.000000 0 0 1
33.321276 27.507065 -7.618776 43.874728 0.690104 1.745329 -0.020864 0.003241 1175630.000000 0 0 1
32.020046 26.583665 -7.620276 42.308902 0.692898 1.751895 -0.023308 0.018830 621593.000000 0 0 1
32.128386 25.165865 -7.736976 41.538112 0.664469 1.758153 -0.018117 0.013817 -714269.000000 0 0 1
33.041646 24.584265 -6.872776 41.753700 0.639675 1.736152 -0.013184 0.007653 -447026.000000 0 0 1
32.999446 23.005665 -6.924276 40.818741 0.608813 1.741255 -0.015044 0.009851 134336.000000 0 0 1
31.940036 22.335065 -6.263576 39.474718 0.610243 1.730143 -0.014533 0.014468 228279.000000 0 0 1
32.196466 20.990665 -6.332776 38.952849 0.577749 1.734097 0.005769 -0.001188 -467768.000000 0 0 1
31.034826 20.166065 -5.800376 37.462981 0.576226 1.726251 0.016515 -0.006234 -1030730.000000 0 0 1
29.893756 20.147965 -6.583476 36.645863 0.593053 1.751428 0.015000 -0.005997 -870082.000000 0 0 1
29.119846 19.089465 -6.119776 35.352860 0.580266 1.744778 0.050122 -0.016398 -766643.000000 0 0 1
27.833986 18.826965 -6.893376 34.303119 0.594712 1.773129 0.042239 -0.021198 -326565.000000 0 0 1
28.000966 18.065165 -8.070976 34.286220 0.572967 1.808426 0.033554 -0.023004 219701.000000 0 0 1
26.801266 18.120265 -8.831676 33.535807 0.594503 1.837290 0.040695 -0.020991 26981.300000 0 0 1
26.798696 16.978665 -9.863576 33.222512 0.564733 1.872235 0.044114 -0.018249 237276.000000 0 0 1
25.705426 16.837065 -10.777176 32.563832 0.579882 1.908112 0.038206 -0.015735 349354.000000 0 0 1
25.817026 15.670465 -11.503076 32.317225 0.545537 1.934719 0.035474 -0.007718 198269.000000 0 0 1
24.991926 15.588765 -12.825876 32.126454 0.557701 1.981474 0.029544 -0.005252 323610.000000 0 0 1
23.574926 15.642165 -12.678776 31.003319 0.585813 1.992098 0.029296 0.002875 630278.000000 0 0 1
22.827626 15.725965 -13.885576 31.003479 0.603238 2.035180 0.030544 0.005075 28958.900000 0 0 1
22.860326 14.473465 -14.830176 30.854656 0.564421 2.072188 0.024056 0.004117 187994.000000 0 0 1
24.147326 14.058765 -15.328476 31.870117 0.527234 2.072554 0.032943 -0.003951 978152.000000 0 0 1
24.652226 14.666365 -16.550076 33.117058 0.536684 2.094100 0.043860 -0.013432 401207.000000 0 0 1
26.065596 14.247665 -17.056076 34.253773 0.500235 2.092010 0.057383 -0.013540 433795.000000 0 0 1
26.082636 12.884465 -17.460876 33.929272 0.458825 2.111367 0.048736 -0.014351 -443089.000000 0 0 1
27.343946 12.354665 -17.741676 34.858230 0.424370 2.104780 0.048719 -0.007704 -407229.000000 0 0 1
27.417266 10.855665 -18.194676 34.649649 0.377004 2.123634 0.019613 -0.003723 -328238.000000 0 0 1
26.609656 10.606965 -19.328176 34.556618 0.379310 2.164360 0.029085 -0.011709 23986.400000 0 0 1
26.704516 9.346665 -19.984976 34.639437 0.336678 2.185777 0.002627 0.005129 31617.000000 0 0 1
28.055046 9.060065 -20.697576 36.021660 0.312367 2.182896 0.004612 0.003966 -341867.000000 0 0 1
28.353976 10.024665 -21.748776 37.114028 0.339838 2.196908 0.007167 -0.001780 111257.000000 0 0 1
28.972536 9.502865 -22.880476 38.121234 0.316939 2.214551 -0.006727 0.002808 -1900990.000000 0 0 1
30.371446 8.987965 -22.853376 39.057458 0.287723 2.195827 -0.007078 0.005584 -1893780.000000 0 0 1
31.281676 10.046965 -22.802776 39.993141 0.310771 2.177506 0.000775 0.008979 -732038.000000 0 0 1
32.578266 9.539565 -22.984476 40.995522 0.284857 2.165977 -0.007071 0.012737 -201391.000000 0 0 1
33.649196 10.651465 -22.860376 42.051384 0.306565 2.145552 0.014649 0.007416 -125928.000000 0 0 1
33.770396 11.110965 -21.535676 41.565352 0.317859 2.115443 0.010409 0.000687 -177495.000000 0 0 1
34.761647 12.062065 -21.351276 42.541068 0.333994 2.096588 -0.007786 0.003896 -484701.000000 0 0 1
34.639291 12.810765 -20.005576 42.002610 0.354233 2.067231 -0.026080 0.001919 -224935.000000 0 0 1
34.967296 12.051365 -18.853276 41.513771 0.331898 2.042209 -0.028184 0.001700 246828.000000 0 0 1
34.789314 12.788965 -17.676576 41.064770 0.352278 2.015794 -0.030965 0.003428 -346155.000000 0 0 1
-34.948735 12.130865 -16.364776 40.452167 -0.334093 1.987279 -0.043769 0.008598 -399185.000000 0 0 1
34.308888 11.087965 -16.014076 39.452419 0.312585 1.988769 -0.043671 0.003544 734625.000000 0 0 1
35.035845 10.084265 -15.337976 39.553209 0.280252 1.969019 -0.042080 -0.000639 299697.000000 0 0 1
34.118222 8.854765 -15.236976 38.400851 0.253929 1.978811 0.004064 -0.000711 240745.000000 0 0 1
33.002276 8.848865 -14.354376 37.060771 0.261967 1.968519 0.015216 0.003075 681890.000000 0 0 1
33.361576 8.652765 -12.973276 36.826227 0.253771 1.930806 -0.001950 0.008587 -495021.000000 0 0 1
32.307306 9.207665 -12.028176 35.682210 0.277642 1.914622 0.008589 0.013408 -358099.000000 0 0 1
32.502976 10.568565 -11.932976 36.201297 0.314374 1.906706 0.014080 0.004169 712955.000000 0 0 1
31.607716 11.318065 -11.066476 35.349868 0.343854 1.889205 0.007628 0.017718 257390.000000 0 0 1
31.856406 11.072865 -9.519976 35.043814 0.334523 1.845913 0.014670 0.018501 248180.000000 0 0 1
32.983706 11.732065 -8.956476 36.135642 0.341737 1.821264 0.009953 0.012445 349562.000000 0 0 1
32.690396 13.044365 -8.521776 36.213783 0.379668 1.808343 0.022554 0.002822 -527401.000000 0 0 1
32.405266 13.169165 -7.009276 35.674334 0.386003 1.768562 0.022056 0.000800 -171481.000000 0 0 1
33.612926 13.088365 -6.295276 36.616452 0.371322 1.743580 0.025787 0.000983 422930.000000 0 0 1
33.331956 13.371965 -4.954876 36.254372 0.381519 1.707895 0.018037 0.002980 822670.000000 0 0 1
34.706187 13.280965 -4.198576 37.396945 0.365477 1.683304 0.011455 0.003093 748614.000000 0 0 1
-34.568038 14.345965 -4.418076 37.686541 -0.393376 1.688299 0.010780 0.005257 403708.000000 0 0 1
-33.311687 14.114765 -3.769176 36.374466 -0.400784 1.674604 -0.003765 0.004701 596078.000000 0 0 1
-32.329477 15.284065 -3.716276 35.952864 -0.441619 1.674347 0.001702 0.001788 6716.460000 0 0 1
-32.763187 16.282765 -2.785676 36.692163 -0.461232 1.646790 0.015306 0.004361 573069.000000 0 0 1
-31.842607 17.361765 -2.654076 36.365184 -0.499179 1.643845 0.009293 0.002480 -56438.000000 0 0 1
-32.251687 18.234365 -1.444276 37.077612 -0.514572 1.609759 0.012575 0.007195 -499090.000000 0 0 1
-33.417477 18.962365 -1.622676 38.456886 -0.516133 1.613004 -0.007543 0.008833 -320028.000000 0 0 1
-33.820647 19.678965 -0.468276 39.132047 -0.526976 1.582763 -0.020137 0.011103 494191.000000 0 0 1
35.013119 20.515465 -0.631176 40.585726 0.530015 1.586349 -0.015736 0.016778 551050.000000 0 0 1
-34.983529 21.736965 -1.320876 41.207859 -0.555969 1.602856 -0.004776 0.015275 -8127.040000 0 0 1
-35.058563 21.603265 -2.764376 41.272820 -0.552250 1.637825 -0.024184 0.021259 -92748.800000 0 0 1
-34.857342 22.930765 -3.508976 41.870839 -0.581871 1.654700 0.004280 -0.016559 -486391.000000 0 0 1
-33.516617 23.285065 -3.660176 40.975050 -0.607182 1.660242 0.006505 -0.001975 -683729.000000 0 0 1
-33.301827 24.401365 -4.521476 41.531699 -0.632359 1.679881 0.008289 -0.012746 -1099930.000000 0 0 1
-31.864067 24.699365 -4.809476 40.601828 -0.659402 1.689530 0.003077 -0.017755 -1176320.000000 0 0 1
-31.381337 23.714165 -5.733776 39.749542 -0.647125 1.715549 -0.018899 -0.007185 191990.000000 0 0 1
-30.084247 24.167465 -6.140076 39.074657 -0.676766 1.728587 -0.005809 0.000347 426015.000000 0 0 1
-29.451307 23.307665 -7.286176 38.258529 -0.669473 1.762413 -0.005796 -0.019466 -465347.000000 0 0 1
-30.176837 23.297665 -8.492776 39.058289 -0.657457 1.789986 -0.009738 -0.027186 -110951.000000 0 0 1
-29.461017 22.836965 -9.639076 38.501821 -0.659409 1.823842 -0.026526 -0.026173 -485030.000000 0 0 1
-30.330047 22.655965 -10.871876 39.387843 -0.641566 1.850448 -0.033463 0.001431 -615393.000000 0 0 1
-30.974847 23.816865 -11.282876 40.669245 -0.655494 1.851915 -0.026678 0.001984 -41969.900000 0 0 1
-31.422277 23.630065 -12.618576 41.291257 -0.644790 1.881364 -0.053144 0.009117 -222382.000000 0 0 1
-32.191847 24.864965 -13.148076 42.748724 -0.657683 1.883431 -0.019810 0.002964 257446.000000 0 0 1
-31.330347 25.960865 -13.459276 42.856846 -0.691949 1.890254 -0.028555 -0.002513 -309277.000000 0 0 1
-30.579827 25.786265 -14.620776 42.589017 -0.700559 1.921224 -0.037735 -0.001679 -450789.000000 0 0 1
-29.284937 26.626965 -14.554276 42.171433 -0.737895 1.923165 -0.026028 0.001512 76491.700000 0 0 1
-28.280907 26.126665 -13.651976 40.850811 -0.745824 1.911543 -0.007848 -0.006472 246284.000000 0 0 1
-28.464637 26.074565 -12.254476 40.500502 -0.741603 1.878190 -0.010992 -0.002798 -1154120.000000 0 0 1
-28.661377 27.397365 -11.425476 41.262957 -0.762854 1.851357 -0.004212 0.008121 -263554.000000 0 0 1
-27.502907 28.152565 -11.191176 40.917224 -0.797070 1.847834 0.001103 0.002080 -259423.000000 0 0 1
-27.771637 29.127765 -10.233876 41.526169 -0.809227 1.819806 -0.009146 -0.000160 604166.000000 0 0 1
-26.509127 30.010965 -9.972176 41.265435 -0.847276 1.814872 0.000577 -0.000134 583189.000000 0 0 1
-26.791257 31.130065 -9.134276 42.074783 -0.860167 1.789635 0.003616 -0.002519 -29321.400000 0 0 1
-25.644617 31.927165 -8.887176 41.904321 -0.894094 1.784502 0.015769 0.007628 -287222.000000 0 0 1
33.289476 -25.642065 34.210875 54.185687 -0.656352 0.887486 0.011436 -0.001006 -232083.000000 0 0 1
33.013346 -24.278035 34.440371 53.529834 -0.634092 0.871883 0.011934 -0.009733 53754.900000 0 0 1
31.962616 -24.300235 -33.718036 52.431061 -0.650042 2.269326 0.000365 -0.002650 -61002.000000 0 0 1
31.610586 -22.899635 -33.203226 51.245260 -0.626934 2.275657 -0.000474 -0.010043 -162128.000000 0 0 1
30.951426 -22.115235 -34.133313 51.109270 -0.620401 2.302112 -0.011620 -0.004481 -116907.000000 0 0 1
30.539856 -20.857535 -33.656996 50.005129 -0.599199 2.309150 -0.017333 0.003217 218665.000000 0 0 1
30.084846 -19.965035 34.263166 49.776150 -0.585893 0.811591 -0.018348 0.015125 -402864.000000 0 0 1
31.165596 -19.581535 33.493478 49.764887 -0.560973 0.832493 -0.004904 0.000628 -454429.000000 0 0 1
30.751066 -18.881735 32.344553 48.459448 -0.550664 0.840009 -0.004414 0.007025 -1180160.000000 0 0 1
31.816706 -18.804635 31.310743 48.438411 -0.533798 0.867935 -0.006947 0.014935 -662337.000000 0 0 1
32.876746 -17.968235 31.755173 49.113429 -0.500178 0.867719 -0.012226 0.002532 127774.000000 0 0 1
33.807066 -17.711835 30.751383 49.013002 -0.482592 0.892570 0.013772 0.004144 650328.000000 0 0 1
-35.044301 -16.877835 31.118113 49.812662 0.448831 0.896045 0.011199 0.000223 363897.000000 0 0 1
-34.148242 -16.631735 30.071363 48.445886 0.453230 0.901135 0.023497 0.001540 1017480.000000 0 0 1
-33.024637 -15.780835 30.392723 47.574983 0.445771 0.877809 0.014941 -0.004431 1047160.000000 0 0 1
-31.856807 -16.353535 31.240143 47.520951 0.474267 0.853437 0.034325 -0.008974 -522366.000000 0 0 1
-30.933347 -15.357735 31.605693 46.815081 0.460826 0.829672 0.026387 -0.008334 777830.000000 0 0 1
-29.685787 -15.999335 31.987693 46.480503 0.494325 0.811797 0.028051 -0.010219 629991.000000 0 0 1
-28.663197 -15.062935 32.592273 45.942650 0.483851 0.782133 0.031248 -0.013941 -604583.000000 0 0 1
-29.213557 -14.211535 33.587298 46.728003 0.452766 0.768746 0.034599 -0.013035 163606.000000 0 0 1
-28.213417 -13.371135 34.162797 46.280459 0.442574 0.740444 0.031066 -0.012217 86133.700000 0 0 1
-28.485977 -12.822035 -33.579806 45.863481 0.422952 2.392297 0.020893 -0.007635 -237462.000000 0 0 1
-28.553227 -13.738435 -32.504086 45.393248 0.448456 2.368931 0.039870 -0.006672 68220.800000 0 0 1
-28.713777 -12.980235 -31.296276 44.411985 0.424562 2.352770 0.048273 -0.005220 -289113.000000 0 0 1
-28.948447 -13.846935 -30.060326 43.970142 0.446163 2.323553 0.045239 -0.008922 -132619.000000 0 0 1
-30.158127 -14.549535 -30.161536 45.065728 0.449502 2.304034 0.028543 -0.006702 -341664.000000 0 0 1
-30.339517 -15.324335 -28.987356 44.672009 0.467715 2.276925 0.016581 -0.000624 598412.000000 0 0 1
-31.505747 -16.347835 -29.097086 45.896669 0.478641 2.257472 0.013660 -0.004549 661880.000000 0 0 1
-31.071957 -17.460435 -29.877866 46.508281 0.511961 2.268449 0.010171 0.001583 113197.000000 0 0 1
-32.176007 -18.317435 -29.956576 47.625837 0.517531 2.251061 -0.001740 -0.000807 -55915.100000 0 0 1
-31.747937 -19.707135 -30.466966 48.213470 0.555528 2.254822 0.003394 -0.002615 563236.000000 0 0 1
-32.817297 -20.692635 -30.573156 49.395121 0.562574 2.238203 -0.003571 -0.005570 691537.000000 0 0 1
-32.490777 -21.939035 -31.139306 50.066239 0.593914 2.242042 0.003229 -0.010917 -219369.000000 0 0 1
-33.792477 -22.681035 -31.488066 51.457353 0.591125 2.229289 0.009724 -0.010683 381274.000000 0 0 1
-34.633978 -23.043135 -30.389636 51.517264 0.587079 2.201722 -0.006393 -0.008047 238203.000000 0 0 1
34.498892 -24.002835 -30.614136 51.995528 -0.607872 2.200350 0.004163 -0.010427 -100351.000000 0 0 1
34.899037 -25.487665 -30.763536 53.046763 -0.630790 2.189442 -0.003133 -0.008212 71537.800000 0 0 1
-34.647557 -25.719175 -32.063796 53.758871 0.638560 2.209851 0.010292 -0.006231 -136972.000000 0 0 1
-34.043807 -26.992335 -32.022996 53.972579 0.670379 2.205973 0.009195 -0.004049 1125.870000 0 0 1
-34.160147 -27.864445 -33.286206 55.238704 0.684241 2.217537 0.018510 -0.014590 530757.000000 0 0 1
34.683974 -28.424365 -33.413646 55.923111 -0.686533 2.211167 0.006015 -0.004299 146161.000000 0 0 1
34.622836 -29.611355 -34.226913 56.982933 -0.707537 2.215113 0.007704 -0.009320 20951.600000 0 0 1
-34.871451 -30.873785 -33.581956 57.419130 0.724668 2.195500 0.009780 -0.023578 -49644.200000 0 0 1
34.615033 -31.362825 -32.428996 56.863583 -0.736146 2.177661 0.017704 -0.020292 -197204.000000 0 0 1
-34.739508 -32.308915 -31.797466 57.111980 0.749163 2.161272 0.018183 -0.026923 -433524.000000 0 0 1
34.866084 -32.816015 -30.445776 56.740461 -0.755118 2.137175 0.008108 -0.027716 -77714.900000 0 0 1
34.066936 -33.984985 -30.523746 56.984510 -0.784194 2.136073 0.018060 -0.024591 -74047.100000 0 0 1
33.580226 -34.224335 -29.242276 56.160906 -0.794897 2.118452 0.014035 -0.020546 232863.000000 0 0 1
32.333136 34.185795 -29.308406 55.435394 0.813243 2.127859 0.013532 -0.029274 877847.000000 0 0 1
31.213716 -34.637125 -30.047876 55.469824 -0.837339 2.143252 0.011631 -0.023876 833725.000000 0 0 1
30.044106 33.955058 -29.695036 54.197688 0.846432 2.150651 0.010280 -0.023418 974975.000000 0 0 1
28.739876 34.323132 -30.460516 54.147030 0.873702 2.168266 -0.008514 -0.013705 223340.000000 0 0 1
28.533986 33.999384 -31.808916 54.607267 0.872576 2.192601 -0.003381 -0.011577 -109051.000000 0 0 1
27.254176 34.404024 -32.257446 54.469898 0.900842 2.204591 -0.001146 -0.001768 -1168.450000 0 0 1
26.920836 33.858089 -33.648856 54.802802 0.899045 2.231913 -0.000706 -0.011776 -46041.200000 0 0 1
26.805716 32.467498 -33.603406 53.869042 0.880629 2.244389 -0.013063 -0.011552 55283.300000 0 0 1
26.585646 32.017428 34.145018 53.831167 0.877822 0.883696 -0.006260 -0.006856 -105059.000000 0 0 1
26.552346 30.475538 34.149423 52.914729 0.854084 0.869293 0.000122 -0.013008 -1156490.000000 0 0 1
27.867776 30.005318 34.172344 53.335552 0.822316 0.875380 0.001479 -0.006704 -574616.000000 0 0 1
27.852496 28.621818 34.531709 52.795918 0.799020 0.857857 0.011419 -0.014583 390095.000000 0 0 1
29.272906 28.058508 -34.325841 53.126700 0.764219 2.273277 0.027634 -0.012600 511982.000000 0 0 1
29.839386 28.345458 -33.002706 52.754455 0.759728 2.246685 0.026786 -0.014315 1130760.000000 0 0 1
31.075016 27.589708 -32.829056 52.958432 0.726057 2.239415 0.037889 -0.014903 1277270.000000 0 0 1
31.937186 27.794158 -31.576246 52.816270 0.716148 2.211614 0.037393 -0.017003 -171545.000000 0 0 1
32.602426 29.069788 -31.378176 53.782531 0.728180 2.193738 0.023239 -0.017423 604053.000000 0 0 1
31.813326 30.303138 -31.374066 53.987961 0.761091 2.190914 0.028027 -0.014281 45151.100000 0 0 1
30.854836 30.390078 -30.192836 52.793798 0.777810 2.179618 0.029493 -0.010983 -255003.000000 0 0 1
31.487096 30.459418 -28.918216 52.492633 0.768810 2.154239 0.016471 -0.005320 20145.500000 0 0 1
30.553936 30.765378 -27.904356 51.562628 0.788846 2.142629 0.018137 -0.003485 -157052.000000 0 0 1
31.317096 31.202408 -26.637306 51.612952 0.783564 2.113085 0.022877 -0.005231 109445.000000 0 0 1
31.851836 32.512148 -26.793556 52.815470 0.795657 2.102851 0.019864 -0.009663 168607.000000 0 0 1
32.342036 32.941088 -25.507356 52.742277 0.794574 2.075585 0.016448 -0.014195 -138372.000000 0 0 1
32.475116 34.463573 -25.290366 53.684017 0.815095 2.061330 0.016992 -0.019630 66283.500000 0 0 1
31.231386 -34.230264 -25.106586 52.701529 -0.831177 2.067343 0.017454 -0.015214 235800.000000 0 0 1
31.302466 -32.849015 -24.792976 51.706807 -0.809501 2.070872 0.012093 -0.024091 -489611.000000 0 0 1
31.693196 -31.922055 -26.033066 51.973039 -0.788996 2.095430 0.008454 -0.022447 540831.000000 0 0 1
33.047536 -31.986595 -26.431556 53.046292 -0.769086 2.092403 0.008951 -0.026826 910942.000000 0 0 1
34.123451 -31.344645 -25.695076 52.982390 -0.742978 2.077130 0.006424 -0.022700 1201990.000000 0 0 1
-34.631079 -31.866945 -26.176126 53.851680 0.743855 2.078393 -0.006550 -0.018140 48292.700000 0 0 1
-34.259094 -33.216685 -25.923566 54.305294 0.769951 2.068452 -0.002354 -0.021853 -147139.000000 0 0 1
-34.031707 -33.542285 -24.570776 53.730485 0.778156 2.045749 0.010475 -0.019849 -911390.000000 0 0 1
-32.689237 -33.203285 -23.967276 52.397278 0.793199 2.045882 -0.012753 0.001942 -725751.000000 0 0 1
-32.522747 -31.815415 -23.815876 51.353147 0.774405 2.053038 -0.023084 0.001974 -263602.000000 0 0 1
-32.315967 -31.413815 -22.464876 50.356928 0.771243 2.033214 -0.019472 0.003608 -26478.200000 0 0 1
-31.960727 -29.936455 -22.110776 49.056761 0.752706 2.038366 -0.029164 0.019892 -194216.000000 0 0 1
-32.992527 -29.063795 -22.452176 49.369133 0.722173 2.042923 -0.029324 0.017003 -688158.000000 0 0 1
-32.747737 -28.563785 -23.761976 49.527120 0.717263 2.071197 -0.039202 0.014056 887044.000000 0 0 1
-33.972047 -27.811345 -24.436476 50.246515 0.686012 2.078683 -0.032313 0.011512 848564.000000 0 0 1
-34.221139 -26.506925 -23.888376 49.440449 0.659046 2.075074 -0.034035 0.017709 53888.500000 0 0 1
-35.071302 -25.672435 -24.735476 50.009138 0.631886 2.088193 -0.027930 0.010976 320014.000000 0 0 1
-34.609177 -25.308375 -26.168546 50.230487 0.631401 2.118783 -0.019458 0.000780 -770118.000000 0 0 1
-33.535067 -24.437035 -26.081256 49.010217 0.629730 2.131946 -0.027189 0.002621 -763540.000000 0 0 1
-33.410517 -23.847135 -27.313366 49.304852 0.619902 2.157921 -0.017580 0.002406 712346.000000 0 0 1
-32.255467 -22.754635 -27.292446 47.990272 0.614375 2.175730 -0.011152 -0.012302 629801.000000 0 0 1
-32.559497 -21.625435 -26.439666 47.189366 0.586281 2.165531 -0.027539 0.000569 290934.000000 0 0 1
-33.640157 -20.738335 -26.772496 47.733691 0.552446 2.166235 -0.030615 -0.006195 -17752.300000 0 0 1
-34.732935 -20.838035 -25.719086 47.979911 0.540383 2.136534 -0.033229 -0.004569 -974457.000000 0 0 1
-34.512241 -20.233935 -24.464176 46.893526 0.530272 2.119634 -0.037498 -0.003840 -336999.000000 0 0 1
-33.692497 -20.953435 -23.565576 46.147234 0.556369 2.106749 -0.044007 -0.004570 -423449.000000 0 0 1
-34.282432 -22.230235 -22.903176 46.840410 0.575281 2.081696 -0.035059 0.006216 -539290.000000 0 0 1
34.876876 -21.801735 -22.045576 46.666043 -0.558675 2.062821 -0.032460 0.005959 -668479.000000 0 0 1
34.459217 -22.848635 -21.181976 46.456150 -0.585504 2.044243 -0.018556 0.011628 804651.000000 0 0 1
33.293446 -22.418935 -20.163476 44.918014 -0.592632 2.036325 -0.019832 0.008860 585670.000000 0 0 1
32.189606 -21.903835 -20.872276 44.176924 -0.597493 2.062888 0.006971 0.002276 -561411.000000 0 0 1
31.129216 -21.677635 -19.968876 42.868450 -0.608290 2.055355 0.013430 0.002888 -165606.000000 0 0 1
29.921856 -21.076135 -20.707076 42.051206 -0.613655 2.085670 0.002398 0.003274 -769651.000000 0 0 1
29.405866 -21.924335 -21.742876 42.639584 -0.640664 2.105891 0.000760 0.002289 414045.000000 0 0 1
28.172376 -21.454335 -22.272676 41.833520 -0.650845 2.132244 0.018792 0.005452 254147.000000 0 0 1
28.244996 -20.137835 -23.141976 41.699679 -0.619378 2.159120 0.010230 -0.008793 -539002.000000 0 0 1
28.579176 -19.035835 -22.336276 40.963905 -0.587592 2.147504 0.011940 0.000372 -157920.000000 0 0 1
28.752736 -17.894635 -23.096276 40.992387 -0.556701 2.169326 -0.002910 -0.004093 -166264.000000 0 0 1
29.394256 -16.707035 -22.291576 40.497675 -0.516843 2.153689 -0.006513 -0.009958 -447999.000000 0 0 1
28.782186 -16.410935 -21.064376 39.261189 -0.518202 2.137103 -0.007196 -0.013008 -285386.000000 0 0 1
29.573956 -15.930235 -20.006176 39.097805 -0.494093 2.107954 -0.018629 -0.013583 45655.800000 0 0 1
30.634526 -16.909935 -19.373676 39.996993 -0.504369 2.076449 -0.003171 -0.016851 723926.000000 0 0 1
31.797576 -17.140335 -20.167776 41.371683 -0.494394 2.079995 -0.015899 -0.007642 438389.000000 0 0 1
32.519966 -18.307235 -19.709276 42.203775 -0.512734 2.056694 -0.011924 -0.005764 82974.200000 0 0 1
33.567266 -18.696535 -20.776176 43.680330 -0.508192 2.066489 -0.032738 -0.002640 -256436.000000 0 0 1
34.503508 -17.651835 -20.868476 44.017867 -0.472881 2.064728 -0.035439 0.000674 -110628.000000 0 0 1
-34.592342 -18.050135 -21.738476 44.665410 0.480932 2.079100 -0.038538 0.010661 -54957.300000 0 0 1
-33.752747 -16.882935 -22.163976 43.766691 0.463803 2.101815 -0.032742 0.011961 -316268.000000 0 0 1
-32.995247 -16.244035 -21.158876 42.429389 0.457480 2.092877 -0.023153 0.010778 77138.400000 0 0 1
-32.141687 -15.202735 -21.664276 41.635947 0.441808 2.118029 -0.010321 0.001167 167758.000000 0 0 1
-31.057567 -14.755835 -20.594476 40.080414 0.443540 2.110438 -0.006256 -0.000108 1056350.000000 0 0 1
-29.995107 -15.694835 -20.281776 39.463714 0.482071 2.110562 -0.006445 -0.005219 666866.000000 0 0 1
-30.353627 -16.990935 -19.922676 40.086751 0.510310 2.090922 -0.017474 0.000045 -1119830.000000 0 0 1
-29.154827 -17.908535 -19.710476 39.486991 0.550836 2.093430 -0.025934 -0.005903 -32831.800000 0 0 1
-29.653207 -19.199135 -19.370676 40.288244 0.574584 2.072366 -0.033033 -0.002528 -465771.000000 0 0 1
-28.635957 -20.081335 -19.167676 39.883303 0.611573 2.072128 -0.030623 -0.002731 -854547.000000 0 0 1
-29.144347 -21.507035 -18.774076 40.797199 0.635744 2.048995 -0.040765 0.016192 -388018.000000 0 0 1
-29.853267 -22.087535 -19.841376 42.104121 0.636986 2.061499 -0.045738 0.024562 28539.900000 0 0 1
-30.279127 -23.371435 -19.504276 42.935607 0.657349 2.042347 -0.052643 0.039930 -312715.000000 0 0 1
-31.330327 -23.947435 -20.447376 44.420313 0.652624 2.049147 -0.056787 0.034002 73636.600000 0 0 1
-30.700357 -24.203935 -21.730176 44.727430 0.667623 2.078115 -0.055603 0.030457 283456.000000 0 0 1
-31.518097 -24.951035 -22.560976 46.097096 0.669624 2.082224 -0.040820 0.031090 -521563.000000 0 0 1
-31.165237 -24.959735 -24.044476 46.608982 0.675280 2.112827 -0.026384 0.028879 -30300.500000 0 0 1
-29.893417 -25.551655 -24.286976 46.220782 0.707250 2.124047 -0.034175 0.028674 -40046.800000 0 0 1
-29.685717 -25.755735 -25.660646 46.936856 0.714631 2.149221 -0.019128 0.029679 234954.000000 0 0 1
-28.263617 -26.039345 -26.194226 46.508247 0.744461 2.169070 -0.015649 0.028635 404263.000000 0 0 1
-27.392117 -24.933835 -26.344366 45.453821 0.738453 2.189016 -0.010874 0.017393 219878.000000 0 0 1
-26.055437 -25.286685 -26.644886 45.036121 0.770426 2.203880 -0.004151 0.017847 209273.000000 0 0 1
-25.085717 -24.165935 -26.964626 44.049707 0.766725 2.229561 0.010741 0.016555 -487325.000000 0 0 1
-25.369177 -23.571935 -28.212556 44.667433 0.748692 2.254429 0.004357 0.006865 -26452.900000 0 0 1
-24.410727 -22.559435 -28.406146 43.723230 0.746004 2.277961 0.030988 -0.014038 17017.300000 0 0 1
-24.419627 -22.120035 -29.915086 44.503107 0.736027 2.307976 0.007276 -0.005002 120549.000000 0 0 1
-23.616227 -23.052835 -30.632976 45.028198 0.773327 2.318977 0.015510 -0.009426 302323.000000 0 0 1
-23.639127 -22.723235 -32.019586 45.830204 0.765646 2.344315 0.006819 -0.011622 -8025.880000 0 0 1
-22.999027 -23.850435 -32.870066 46.671616 0.803569 2.352210 0.014947 -0.009222 176720.000000 0 0 1
-23.833227 -24.974335 -32.840126 47.646763 0.808774 2.331238 0.001190 -0.009771 -74466.500000 0 0 1
-23.147027 -26.083455 -33.349646 48.252776 0.844974 2.333868 0.011556 -0.001424 43480.700000 0 0 1
-19.481627 -14.803835 -12.143776 27.315904 0.649799 2.031488 -0.012137 0.025998 29292.000000 0 0 1
-19.807327 -14.407135 -10.837676 26.783409 0.628856 1.987383 -0.015131 0.024847 -159120.000000 0 0 1
-18.732427 -14.667635 -9.977676 25.799174 0.664294 1.967895 -0.020909 0.013785 -198468.000000 0 0 1
-19.059127 -14.231835 -8.538976 25.272704 0.641399 1.915453 -0.006927 0.003639 284112.000000 0 0 1
-20.281827 -14.712535 -7.987676 26.298558 0.627574 1.879402 0.014280 -0.003075 252943.000000 0 0 1
-20.407827 -14.273235 -6.660976 25.779318 0.610323 1.832146 -0.000822 -0.009146 759682.000000 0 0 1
-21.766327 -14.618135 -5.915876 26.878625 0.591406 1.792709 0.013645 -0.016120 695089.000000 0 0 1
-21.892327 -15.961835 -5.512276 27.648496 0.629995 1.771511 0.007873 -0.017318 252626.000000 0 0 1
-21.255227 -15.995235 -4.260576 26.940392 0.645120 1.729611 0.003869 -0.019527 -507936.000000 0 0 1
-20.926827 -17.403235 -3.690076 27.466732 0.693728 1.705551 -0.004707 -0.014405 323886.000000 0 0 1
-22.038327 -18.216235 -3.278276 28.779614 0.690734 1.684954 -0.001412 -0.017615 406725.000000 0 0 1
-21.625927 -19.269935 -2.441276 29.068384 0.727852 1.654879 -0.007468 -0.003996 -373631.000000 0 0 1
-22.684027 -20.333735 -2.194076 30.542427 0.730817 1.642695 -0.009929 -0.013005 -328218.000000 0 0 1
-22.990127 -21.036335 -3.373176 31.344085 0.741050 1.678623 -0.021804 -0.016934 138307.000000 0 0 1
-23.894927 -22.115035 -3.106076 32.706116 0.746733 1.665909 -0.014974 -0.015932 189919.000000 0 0 1
-24.041427 -23.238935 -4.162076 33.695121 0.768427 1.694634 -0.019707 -0.005037 -702103.000000 0 0 1
-22.903027 -24.033935 -4.203576 33.464141 0.809488 1.696743 -0.015891 -0.002189 -956560.000000 0 0 1
-22.848527 -24.800035 -5.380676 34.147454 0.826332 1.729028 -0.009139 -0.002781 -308477.000000 0 0 1
-21.397427 -24.806035 -5.877976 33.282726 0.859039 1.748335 -0.009625 -0.001553 -167179.000000 0 0 1
-20.984327 -23.562335 -6.419476 32.198374 0.843206 1.771514 -0.016801 0.003796 25374.800000 0 0 1
-20.723027 -22.482035 -5.510676 31.068526 0.826089 1.749111 -0.023532 0.007455 -950773.000000 0 0 1
-20.873927 -21.048335 -6.111976 30.267301 0.789558 1.774128 -0.017634 0.009618 -979850.000000 0 0 1
-19.802527 -20.757835 -6.926476 29.512775 0.808947 1.807700 -0.023484 0.011870 -699276.000000 0 0 1
-19.905027 -19.489635 -7.550176 28.862799 0.774854 1.835464 -0.025004 0.011201 87527.600000 0 0 1
-18.661927 -19.043035 -8.372176 27.946342 0.795505 1.875049 -0.012199 0.010622 52150.800000 0 0 1
-18.495527 -19.789235 -9.573976 28.729068 0.819177 1.910545 -0.014862 0.007627 389383.000000 0 0 1
-17.257127 -19.754235 -10.307776 28.183124 0.852765 1.945227 0.007368 0.010012 372342.000000 0 0 1
-17.057427 -18.394835 -11.045176 27.410248 0.823104 1.985543 0.014988 0.012222 -245726.000000 0 0 1
-16.702927 -17.262335 -10.249976 26.115857 0.801867 1.974124 0.009005 0.003647 183257.000000 0 0 1
-15.405627 -17.307635 -9.672976 25.108844 0.843475 1.966266 0.024756 0.000554 -38695.500000 0 0 1
-15.189627 -16.148735 -8.673376 23.806173 0.815994 1.943713 0.015186 0.001389 227699.000000 0 1 0
-15.927627 -16.450535 -7.479676 24.088482 0.801547 1.886524 -0.005213 0.004769 333845.000000 0 1 0
-15.992427 -15.350735 -6.634076 23.139010 0.764928 1.861582 -0.007068 0.003047 161033.000000 0 1 0
-16.872227 -15.621335 -5.353676 23.608473 0.746921 1.799556 0.004284 0.000038 156686.000000 0 1 0
-17.221727 -14.471735 -4.672676 22.975050 0.698847 1.775606 -0.006729 0.004921 270177.000000 0 1 0
-17.707627 -14.802535 -3.371076 23.324649 0.696275 1.715833 0.001715 0.000723 -56963.900000 0 1 0
-18.464527 -13.657435 -2.640076 23.117835 0.636849 1.685247 -0.000215 0.000409 -1025500.000000 0 1 0
-19.719527 -13.361535 -3.102676 24.021177 0.595519 1.700322 0.009326 -0.010532 -980113.000000 0 1 0
-20.296027 -12.338835 -2.335476 23.866923 0.546240 1.668807 0.000800 -0.006491 -1492910.000000 0 1 0
-21.769527 -12.200535 -2.553676 25.085586 0.510824 1.672772 -0.006543 -0.004659 -1452820.000000 0 0 1
-22.153227 -11.523835 -3.736676 25.249297 0.479667 1.719333 -0.000262 -0.011572 498167.000000 0 0 1
-23.506927 -11.870535 -4.014676 26.638372 0.467624 1.722083 -0.008355 -0.000080 437661.000000 0 0 1
-24.084827 -11.059935 -5.231176 27.014186 0.430485 1.765673 -0.001271 -0.008476 306513.000000 0 0 1
-23.367427 -11.456335 -6.393476 26.798522 0.455833 1.811695 -0.003637 -0.012257 552802.000000 0 0 1
-24.013927 -10.928435 -7.525476 27.435965 0.427077 1.848650 0.004289 -0.011273 60021.600000 0 0 1
-23.251527 -11.299335 -8.819776 27.314775 0.452353 1.899582 0.028437 -0.013440 -13508.400000 0 0 1
-22.035627 -10.637535 -9.049676 26.088746 0.449747 1.925039 0.019861 -0.008690 -88085.500000 0 0 1
-21.279527 -11.304135 -10.036076 26.102195 0.488311 1.965453 0.004820 -0.003569 -1056520.000000 0 0 1
-19.931727 -10.672635 -10.219976 24.811828 0.491611 1.995334 -0.003406 0.003883 -1193720.000000 0 1 0
-19.944027 -9.469835 -10.912276 24.627622 0.443302 2.029840 0.006600 -0.001525 516460.000000 0 1 0
-19.120527 -8.521935 -10.212676 23.291988 0.419269 2.024684 -0.001270 0.002039 158823.000000 0 1 0
-19.174827 -7.138235 -10.875076 23.171009 0.356376 2.059339 -0.005917 0.000955 43322.700000 0 1 0
-18.495727 -7.197335 -12.126676 23.258328 0.371105 2.119276 0.000951 -0.001167 435155.000000 0 1 0
-18.319527 -5.945435 -12.740976 23.092980 0.313817 2.155228 0.006818 -0.009865 39811.800000 0 1 0
-17.693327 -6.128235 -14.157276 23.474189 0.333427 2.218178 0.009190 -0.002398 496261.000000 0 1 0
-18.655427 -6.695335 -15.040276 24.880964 0.344577 2.219921 0.023723 -0.014595 707854.000000 0 1 0
-18.039727 -6.688935 -16.291876 25.211085 0.355074 2.273416 0.031032 -0.017390 -136058.000000 0 0 1
-18.685427 -7.551835 -17.377276 26.610996 0.384084 2.282350 0.023403 -0.019745 -268539.000000 0 0 1
-20.004927 -7.224335 -17.735776 27.693788 0.346554 2.265847 0.022182 -0.020569 86876.300000 0 0 1
-20.498927 -8.110735 -18.698576 28.907210 0.376765 2.274241 0.030779 -0.022707 411319.000000 0 0 1
-21.851927 -7.938535 -19.467376 30.323354 0.348463 2.267891 0.017586 -0.019597 -218097.000000 0 0 1
-21.870727 -6.895835 -20.372176 30.674204 0.305434 2.297148 0.019262 -0.018581 -25398.300000 0 0 1
-23.077027 -6.579035 -21.013176 31.896496 0.277723 2.290009 0.007054 -0.017037 385629.000000 0 0 1
-24.294827 -6.096735 -20.153076 32.148954 0.245871 2.248320 0.027504 -0.022991 -64259.800000 0 0 1
-24.164027 -4.824235 -19.554276 31.457005 0.197055 2.241604 0.022825 -0.017212 38061.800000 0 0 1
-25.231017 -4.506735 -18.689176 31.720659 0.176755 2.200840 0.031198 -0.016709 -194118.000000 0 0 1
-25.025627 -3.007135 -18.263876 31.127063 0.119589 2.197839 0.003393 -0.015194 6583.990000 0 0 1
-25.411397 -1.996435 -19.245276 31.939090 0.078404 2.217504 0.019624 -0.018116 334369.000000 0 0 1
-26.790687 -1.970735 -19.590176 33.247552 0.073428 2.200891 0.049456 -0.016398 137046.000000 0 0 1
-27.208907 -0.768735 -20.416576 34.025757 0.028246 2.214339 0.046247 -0.013526 -287432.000000 0 0 1
-26.763777 -0.726035 -21.790676 34.520435 0.027121 2.253947 0.034847 -0.015545 186081.000000 0 0 1
-27.326627 -1.612435 -22.756976 35.598096 0.058938 2.264352 0.038075 -0.009432 -350342.000000 0 0 1
-26.603407 -1.439435 -24.096376 35.922814 0.054054 2.306059 0.035072 -0.008462 -839020.000000 0 0 1
-26.793857 -0.288535 -24.862576 36.553272 0.010768 2.318796 0.024433 -0.004407 -4454.680000 0 0 1
-26.486327 0.974465 -24.360176 35.998518 -0.036775 2.314067 0.024774 -0.003684 157138.000000 0 0 1
-24.968527 1.191365 -24.051376 34.688837 -0.047678 2.336919 0.016560 -0.009412 164769.000000 0 0 1
-24.149327 0.987965 -25.166536 34.892988 -0.040888 2.376400 0.010049 0.001919 -366696.000000 0 0 1
-22.787627 0.941665 -24.812576 33.702027 -0.041300 2.398285 0.010332 -0.002825 10929.200000 0 0 1
-21.840327 0.439565 -25.916936 33.895142 -0.020124 2.441249 0.011384 -0.003380 -212217.000000 0 0 1
-21.646527 1.235965 -27.048836 34.666111 -0.057036 2.465890 -0.005061 0.002971 -125038.000000 0 0 1
-20.711927 0.584865 -27.862206 34.722162 -0.028231 2.502157 -0.009389 -0.003386 -214820.000000 0 0 1
-20.484127 1.202565 -29.251076 35.730534 -0.058640 2.529866 -0.015344 0.014391 -46698.300000 0 0 1
-19.751627 2.437665 -29.335826 35.449396 -0.122795 2.545510 -0.003133 0.015000 447759.000000 0 0 1
-19.731027 2.992365 -30.630806 36.558364 -0.150511 2.564148 -0.013855 0.011932 -238192.000000 0 0 1
-19.128327 2.214965 -31.822476 37.195012 -0.115282 2.597423 -0.006588 0.010457 63061.100000 0 0 1
-17.707827 2.312265 -31.837866 36.504293 -0.129844 2.630412 -0.015356 0.010628 337969.000000 0 0 1
-17.159127 1.782365 -33.044776 37.276932 -0.103502 2.660451 -0.014237 0.012589 465183.000000 0 0 1
-15.607327 1.721565 -33.039786 36.581141 -0.109861 2.697945 -0.008405 -0.000731 -66572.900000 0 0 1
-14.979527 2.927465 -33.047796 36.402103 -0.192998 2.708934 -0.005939 0.005683 -690207.000000 0 0 1
-13.613427 2.788865 -33.346746 36.126287 -0.202066 2.746759 0.001523 -0.005609 -565252.000000 0 0 1
-13.140327 4.136965 -33.819946 36.518097 -0.305006 2.754776 0.011227 0.006666 -652576.000000 0 0 1
-12.770927 4.927365 -32.721456 35.469271 -0.368229 2.745381 0.029803 -0.003350 116817.000000 0 0 1
-12.243527 6.118265 -33.235386 35.943400 -0.463419 2.750935 0.021887 -0.001603 -148749.000000 0 0 1
-11.923527 7.142265 -32.050166 34.934161 -0.539688 2.732406 0.031369 -0.002797 -490505.000000 0 0 1
-10.840827 6.843065 -31.233106 33.761783 -0.563067 2.752101 0.049247 -0.015227 17756.200000 0 0 1
-11.245027 6.006265 -30.138286 32.723724 -0.490574 2.741415 0.051466 -0.017408 516777.000000 0 0 1
-9.964727 5.329765 -29.490796 31.581786 -0.491148 2.775662 0.053619 -0.015925 767413.000000 0 0 1
-9.204927 4.516365 -30.413156 32.094989 -0.456137 2.816428 0.035956 -0.014546 647860.000000 0 0 1
-9.920527 3.372665 -30.916416 32.643782 -0.327710 2.814824 0.036481 -0.012710 -516251.000000 0 0 1
-9.246127 2.564365 -32.007476 33.414748 -0.270545 2.850339 0.024125 -0.005554 -726595.000000 0 0 1
-9.989727 1.463165 -32.334576 33.874183 -0.145433 2.838940 0.020918 -0.005192 -59232.300000 0 0 1
-9.501027 0.720765 -33.451126 34.781703 -0.075717 2.864098 0.007647 -0.002630 -1035290.000000 0 0 1
-9.883927 1.207565 34.273060 35.690235 -0.121572 0.282748 0.009820 -0.005695 438253.000000 0 0 1
-11.303727 1.167365 34.014659 35.862711 -0.102908 0.322428 0.010678 -0.003987 842969.000000 0 0 1
-11.514127 1.325465 32.617263 34.615283 -0.114612 0.341423 -0.002571 0.011695 -1471900.000000 0 0 1
-12.871727 1.076265 32.101833 34.602997 -0.083421 0.382543 -0.010736 0.008672 -1184000.000000 0 0 1
-13.714927 2.219665 31.948553 34.838716 -0.160452 0.410199 -0.021160 0.012850 1355800.000000 0 0 1
-15.058427 1.845565 31.550933 35.008909 -0.121952 0.448206 -0.023596 0.011613 1282750.000000 0 0 1
-16.029527 3.021765 31.322323 35.315219 -0.186326 0.480129 -0.010797 0.010300 -129777.000000 0 0 1
-16.701227 3.574565 32.448553 36.669021 -0.210849 0.484509 -0.010526 0.007733 338895.000000 0 0 1
-16.057327 4.663165 33.085693 37.070823 -0.282633 0.467940 -0.001116 0.012489 -360234.000000 0 0 1
-16.765227 5.101265 34.381716 38.590130 -0.295376 0.471373 0.005043 0.011680 399852.000000 0 0 1
-18.002827 5.783965 34.161429 39.045605 -0.310864 0.505544 -0.003797 0.008056 323349.000000 0 0 1
-18.890427 5.505465 -33.885366 39.183879 -0.283587 2.615505 -0.014322 0.012629 209295.000000 0 0 1
-20.301827 6.153665 -33.972976 40.052402 -0.294307 2.583399 -0.018401 0.011291 -118141.000000 0 0 1
-20.445727 7.543465 -33.670866 40.108089 -0.353457 2.567164 -0.018866 0.008921 276263.000000 0 0 1
-19.863027 8.372165 34.399149 40.594759 -0.398898 0.559767 -0.006368 0.005922 -113103.000000 0 0 1
-19.785127 9.902165 -34.361311 40.868127 -0.464036 2.569528 -0.004518 0.010312 23412.500000 0 0 1
-18.862727 10.191165 -33.278376 39.586773 -0.495350 2.569267 0.000859 0.011440 756559.000000 0 0 1
-18.630627 11.589965 -32.938356 39.577302 -0.556505 2.553957 -0.003933 0.005248 142957.000000 0 0 1
-17.847827 12.413265 -34.027786 40.379751 -0.607703 2.573064 -0.011802 -0.000431 -263690.000000 0 0 1
-18.520627 12.487965 33.824148 40.534379 -0.593250 0.583652 0.001053 0.003320 -323755.000000 0 0 1
-17.713327 12.730465 32.738863 39.340308 -0.623163 0.587739 -0.000841 0.009341 -550988.000000 0 0 1
-18.249827 12.075565 31.440243 38.306192 -0.584543 0.608054 0.023752 0.000722 -246999.000000 0 0 1
-18.228427 10.632065 31.487053 37.904496 -0.528026 0.590443 0.020793 0.000439 62392.000000 0 0 1
-17.074027 10.026465 30.959793 36.749982 -0.530981 0.568993 0.014249 -0.000487 10870.000000 0 0 1
-17.275427 8.521465 31.030093 36.522902 -0.458250 0.555558 0.011483 0.004117 195095.000000 0 0 1
-18.267927 7.994165 30.172383 36.166234 -0.412500 0.583990 0.019564 -0.006032 218605.000000 0 0 1
-18.317827 6.604565 30.459603 36.151770 -0.346046 0.568800 0.015610 -0.005809 -231581.000000 0 0 1
-18.971327 5.855365 29.311833 35.403108 -0.299367 0.595363 0.019967 -0.004889 223855.000000 0 0 1
-20.367327 6.118965 29.192253 36.117272 -0.291852 0.629600 0.035532 -0.010441 499113.000000 0 0 1
-20.898027 5.130565 28.255753 35.516726 -0.240743 0.650862 0.022790 -0.010514 -903367.000000 0 0 1
-22.384027 5.250265 28.046623 36.266003 -0.230389 0.686675 0.015963 -0.002767 -1203710.000000 0 0 1
-22.743627 5.993565 26.921293 35.748446 -0.257669 0.718072 0.012513 -0.008900 -312306.000000 0 0 1
-24.130727 6.139465 26.958653 36.698147 -0.249139 0.745712 0.009858 -0.007775 -727746.000000 0 0 1
-24.741027 7.033265 25.841093 36.460215 -0.276969 0.783075 0.013704 -0.010209 -316017.000000 0 0 1
-24.728727 6.484465 24.552393 35.445426 -0.256450 0.805596 -0.000946 -0.005396 580394.000000 0 0 1
-25.711527 5.478665 24.297003 35.797245 -0.209942 0.824752 -0.004309 0.002781 -126348.000000 0 0 1
-25.737547 4.871465 22.907353 34.797978 -0.187062 0.852244 -0.008369 0.016694 -64266.700000 0 0 1
-26.301917 5.733065 21.907053 34.707029 -0.214614 0.887698 -0.017050 0.016709 100324.000000 0 0 1
-26.499637 5.045865 20.696653 34.000632 -0.188160 0.916358 -0.001950 0.022565 -265479.000000 0 0 1
-27.275167 5.921665 19.723753 34.176414 -0.213790 0.955604 0.004057 0.012321 -37072.700000 0 0 1
-28.655597 5.965265 20.014753 35.458679 -0.205240 0.971026 0.020599 0.010759 -26708.200000 0 0 1
-29.490677 6.353265 18.927953 35.613641 -0.212190 1.010449 0.034749 0.017968 184464.000000 0 0 1
-30.932877 6.498965 19.465153 37.121040 -0.207087 1.018821 0.027017 0.021296 -98375.300000 0 0 1
-31.082367 7.552565 20.416053 37.946936 -0.238366 1.002715 0.023495 -0.009299 646293.000000 0 0 1
-32.443307 7.598465 20.860053 39.312169 -0.230061 1.011458 0.018196 -0.009082 622038.000000 0 0 1
-32.634467 8.469765 22.115553 40.321744 -0.253932 0.990254 0.038303 -0.007619 -184318.000000 0 0 1
-32.265517 7.988765 23.385453 40.641892 -0.242713 0.957700 0.020870 -0.011877 120958.000000 0 0 1
-32.401147 9.023465 24.312063 41.501008 -0.271610 0.944907 0.040246 0.002241 -425310.000000 0 0 1
-0.283427 33.308765 12.027924 35.415040 -1.562287 1.224275 -0.008989 0.001097 -146618.000000 0 0 1
-0.738427 33.592165 13.375424 36.164634 -1.548818 1.191951 -0.020908 0.003105 230142.000000 0 0 1
-0.293127 -34.495209 13.922124 37.199878 1.562299 1.187206 -0.027669 0.009432 -238363.000000 0 0 1
-0.021827 -34.521309 15.409024 37.804223 1.570164 1.150971 -0.034993 0.010842 392355.000000 0 0 1
-1.200227 34.643065 16.223524 38.272512 -1.536165 1.133055 -0.032079 0.005235 364778.000000 0 0 1
-0.915827 34.389665 17.561024 38.624828 -1.544172 1.098810 -0.033594 0.003270 -34729.900000 0 0 1
-2.106627 34.609565 18.512124 39.305961 -1.510003 1.080401 -0.027735 0.011037 -217940.000000 0 0 1
-3.039527 33.546665 18.510124 38.434907 -1.480437 1.068321 -0.038335 0.011890 -549539.000000 0 0 1
-4.040527 33.909665 19.398524 39.274597 -1.452200 1.054204 -0.030230 0.009445 22988.900000 0 0 1
-5.382227 33.097665 19.413024 38.746474 -1.409591 1.046011 -0.023978 0.010308 390837.000000 0 0 1
-6.103427 33.351265 18.244724 38.502320 -1.389795 1.077127 -0.010091 0.003449 555305.000000 0 0 1
-7.358927 32.643765 18.319324 38.149270 -1.349071 1.069912 0.005890 0.000448 949958.000000 0 0 1
-8.393027 32.993965 17.205224 38.145305 -1.321699 1.102861 0.021358 -0.006530 15791.800000 0 0 1
-9.294227 34.037765 17.421624 39.350541 -1.304238 1.112156 0.031407 -0.005142 3425.390000 0 0 1
-10.166227 34.201965 16.279224 39.219124 -1.281873 1.142761 0.033152 -0.008625 601013.000000 0 0 1
-11.262027 -34.085109 16.572524 39.538291 1.251680 1.138286 0.040435 -0.009020 445242.000000 0 0 1
-12.188027 -34.510309 17.574024 40.599947 1.231300 1.123135 0.041715 -0.008306 775875.000000 0 0 1
-13.462027 -33.852409 17.466724 40.401710 1.192302 1.123725 0.036995 -0.002371 959603.000000 0 0 1
-14.519027 -34.425309 18.417424 41.654598 1.171678 1.112806 0.030883 0.000501 37560.700000 0 0 1
-14.233327 -33.968209 19.725424 41.779411 1.174002 1.079088 0.035509 -0.002309 140930.000000 0 0 1
-15.284927 -34.312309 20.607824 42.844439 1.151720 1.069011 0.034267 -0.000458 -50391.100000 0 0 1
-15.046527 -33.932809 22.066424 43.182873 1.153427 1.034449 0.032358 -0.006976 -279311.000000 0 0 1
-15.125727 -32.550109 22.140224 42.172108 1.135793 1.018085 0.035651 -0.002282 99794.200000 0 0 1
-14.989827 -32.042809 23.463424 42.449603 1.133234 0.985153 0.039682 -0.009010 46721.200000 0 0 1
-15.107127 -30.524209 23.469424 41.361413 1.111219 0.967423 0.044621 -0.013829 19635.900000 0 0 1
-15.128627 -29.923209 24.798124 41.703965 1.102693 0.934000 0.052021 -0.023198 -284964.000000 0 0 1
-14.976827 -28.499309 24.879124 40.687673 1.086945 0.912884 0.042142 -0.010654 -771496.000000 0 0 1
-16.182927 -27.640709 24.575824 40.371612 1.041126 0.916325 0.044139 -0.002789 -794942.000000 0 0 1
-17.064027 -27.667009 25.670524 41.420046 1.018141 0.902358 0.052110 -0.012543 -375103.000000 0 0 1
-18.216027 -26.927909 25.339024 41.218952 0.976035 0.908737 0.035346 -0.001651 -310874.000000 0 0 1
-19.378827 -26.976309 26.387224 42.421053 0.947851 0.899462 0.020107 0.000466 -69559.100000 0 0 1
-20.065227 -28.200309 26.523424 43.604619 0.952377 0.916916 0.008209 -0.001787 -32324.900000 0 0 1
-20.813927 -28.724709 25.454224 43.660577 0.943750 0.948377 0.001341 -0.004199 283450.000000 0 0 1
-22.144527 -27.938209 25.094324 43.596430 0.900568 0.957452 0.005706 0.001248 272182.000000 0 0 1
-21.962727 -26.609709 24.605024 42.377414 0.880779 0.951311 0.008442 0.001529 -128323.000000 0 0 1
-23.163627 -26.237409 23.993124 42.433775 0.847539 0.969848 0.004101 0.006774 -763895.000000 0 0 1
-23.438327 -24.743809 23.913124 41.634706 0.812486 0.958980 0.007212 0.015707 -412763.000000 0 0 1
-23.845327 -24.157009 25.116924 42.225828 0.791891 0.933750 0.003151 0.011798 144501.000000 0 0 1
-24.304127 -22.854409 24.768924 41.551344 0.754666 0.932156 -0.005874 0.014250 101675.000000 0 0 1
-24.921327 -22.091509 25.985624 42.241685 0.725278 0.908201 0.000927 0.013413 -284461.000000 0 0 1
-26.028067 -22.728309 26.545924 43.574331 0.717823 0.915732 -0.007943 0.011898 -312861.000000 0 0 1
-26.275787 -22.113709 27.763724 44.161719 0.699597 0.890938 -0.001740 0.007211 -24282.800000 0 0 1
-27.676767 -22.465009 28.419424 45.588855 0.681830 0.897732 0.000486 0.003213 378482.000000 0 0 1
-28.822827 -22.018309 27.768624 45.679949 0.652350 0.917389 0.004456 0.004608 -112933.000000 0 0 1
-29.169067 -22.863309 26.683124 45.667871 0.664797 0.946796 -0.002025 0.009949 -1575980.000000 0 0 1
-30.683117 -22.955309 26.460224 46.567621 0.642311 0.966466 -0.004213 0.011913 -236600.000000 0 0 1
-31.197287 -23.587309 25.277724 46.568178 0.647374 0.997016 -0.016516 0.010730 178270.000000 0 0 1
-30.686727 -24.880009 25.076424 46.792276 0.681276 1.005212 -0.023237 0.011291 -967438.000000 0 0 1
-31.047217 -25.488509 23.736324 46.658406 0.687391 1.037092 -0.029237 0.020686 590224.000000 0 0 1
-32.402807 -25.958309 23.742124 47.827441 0.675419 1.051335 -0.013814 0.017076 559282.000000 0 0 1
-32.764867 -26.241709 22.380024 47.571307 0.675296 1.080993 -0.015359 0.023381 215682.000000 0 0 1
-34.101285 -27.013809 22.233624 48.856704 0.669945 1.098336 -0.002020 0.009687 -260805.000000 0 0 1
-34.199608 -28.244409 22.910924 49.922643 0.690317 1.094007 0.001682 0.007113 100105.000000 0 0 1
-33.272897 -29.301309 22.696724 49.807566 0.722013 1.097651 -0.015501 0.009907 -290085.000000 0 0 1
-33.683417 -30.265509 21.577824 50.161500 0.732002 1.126119 0.000381 0.007729 -159999.000000 0 0 1
-33.674267 -29.839809 20.265124 49.346182 0.725100 1.147605 -0.005472 0.008485 393330.000000 0 0 1
-34.172189 -30.822909 19.378724 49.933207 0.733912 1.172235 -0.011057 0.017621 -432384.000000 0 0 1
-34.277858 -30.340609 17.896424 49.150850 0.724543 1.198117 -0.007559 0.023392 -1068240.000000 0 0 1
-33.051657 -30.315909 17.240524 48.048954 0.742252 1.203802 0.002737 0.011540 -381358.000000 0 0 1
-33.127857 -29.639109 15.954024 47.227773 0.729873 1.226207 -0.005126 0.015121 471459.000000 0 0 1
-34.003967 -30.277209 14.770524 47.865933 0.727487 1.257095 0.002136 0.018105 606430.000000 0 0 1
-33.465427 -31.512909 14.251724 48.125979 0.755358 1.270154 0.014577 0.006146 384148.000000 0 0 1
-34.257659 -32.183009 13.238324 48.832228 0.754183 1.296263 0.019236 0.009733 330753.000000 0 0 1
-34.291205 -31.480609 11.842724 48.032963 0.742692 1.321673 0.020681 0.009081 24972.100000 0 0 1
-35.061557 -30.301709 11.897724 47.844145 0.712705 1.319483 0.021887 0.010542 96204.200000 0 0 1
34.799327 -29.704609 10.642824 46.974745 -0.706579 1.342247 0.015543 0.009255 88303.000000 0 0 1
33.879436 -28.473109 10.792324 45.552260 -0.698909 1.331600 0.031705 0.015373 44849.100000 0 0 1
34.181126 -27.584809 9.818224 45.007428 -0.679006 1.350881 0.037020 -0.027231 -41085.700000 0 0 1
32.999876 -27.020809 9.318524 43.657196 -0.686109 1.355694 0.033365 -0.026097 -317241.000000 0 0 1
33.207536 -26.056509 8.146024 42.988833 -0.665315 1.380152 0.031107 -0.022234 312671.000000 0 0 1
33.923086 -24.885709 8.572424 42.936706 -0.632917 1.369793 0.048894 -0.029114 215149.000000 0 0 1
34.004766 -24.033409 7.428724 42.297929 -0.615252 1.394252 0.048707 -0.029802 -248738.000000 0 0 1
34.772497 -22.731609 7.662624 42.244152 -0.578989 1.388398 0.067910 -0.034331 -1056490.000000 0 0 1
34.023216 -21.891309 8.460724 41.332705 -0.571738 1.364641 0.060264 -0.030661 -355984.000000 0 0 1
34.327878 -20.524409 8.177424 40.823092 -0.538869 1.369118 0.062366 -0.022319 -193944.000000 0 0 1
33.496356 -19.595709 9.047824 39.847971 -0.529325 1.341740 0.064798 -0.011374 -68620.800000 0 0 1
33.792866 -19.806709 10.381824 40.522164 -0.530152 1.311706 0.061072 -0.027804 -139013.000000 0 0 1
32.868676 -19.078309 11.134224 39.601801 -0.525913 1.285799 0.055394 -0.012562 -44785.400000 0 0 1
33.279116 -19.068409 12.635524 40.382672 -0.520318 1.252557 0.046610 -0.028563 1443840.000000 0 0 1
34.523410 -18.332309 12.879724 41.156125 -0.488148 1.252501 0.006378 -0.005685 1391120.000000 0 0 1
34.916579 -18.384009 14.245924 41.953374 -0.484632 1.224341 0.018580 -0.005181 -464708.000000 0 0 1
-34.050827 -17.464909 14.563824 40.946145 0.473920 1.207152 0.031103 -0.008944 6798.580000 0 0 1
-32.850507 -18.000009 13.998824 39.989038 0.501258 1.213154 0.025822 -0.009267 330107.000000 0 0 1
-31.752127 -17.466009 14.723224 39.115628 0.502900 1.184886 0.006932 -0.008084 -475324.000000 0 0 1
-30.397047 -17.691209 14.053924 37.874425 0.527082 1.190639 0.012238 -0.001986 -475272.000000 0 0 1
-30.005217 -19.055909 13.958324 38.187374 0.565820 1.196603 -0.009581 0.003322 -96210.800000 0 0 1
-28.812937 -19.073509 13.208924 36.992698 0.584749 1.205669 -0.046938 0.021262 -180584.000000 0 0 1
-28.109817 -20.425109 13.115824 37.139894 0.628368 1.209864 -0.059468 0.017725 5622.210000 0 0 1
-28.658037 -21.194909 12.039624 37.622597 0.636799 1.245056 -0.048725 0.019766 186324.000000 0 0 1
-27.635027 -21.800309 11.273224 36.959894 0.667914 1.260845 -0.053728 0.029235 -41581.800000 0 0 1
-28.263537 -22.541209 10.069524 37.527709 0.673237 1.299145 -0.026398 0.018308 570569.000000 0 0 1
-28.998607 -23.748909 10.306224 38.873489 0.686200 1.302466 -0.014752 0.008040 -316622.000000 0 0 1
-30.362317 -23.493509 10.483624 39.796000 0.658542 1.304216 0.001731 -0.003927 -572939.000000 0 0 1
-31.218507 -24.776809 10.693824 41.265522 0.670862 1.308658 0.032310 -0.012381 -74456.600000 0 0 1
-31.408287 -25.633709 9.575924 41.656522 0.684508 1.338844 0.044793 -0.002987 16230.500000 0 0 1
-32.091857 -26.835809 9.913524 42.992161 0.696439 1.338113 0.050487 -0.001269 128994.000000 0 0 1
-32.281457 -27.736809 8.721724 43.445270 0.709821 1.368671 0.053476 -0.001745 266968.000000 0 0 1
-31.061317 -28.101209 8.106224 42.663734 0.735406 1.379631 0.036530 -0.005431 64610.400000 0 0 1
-31.367977 -28.710609 6.889724 43.078038 0.741195 1.410171 0.032568 -0.001529 879639.000000 0 0 1
-30.102137 -28.990909 5.981124 42.218305 0.766596 1.428647 0.037414 -0.000966 705692.000000 0 0 1
-29.542047 -27.864009 5.375224 40.963747 0.756175 1.439198 0.035831 0.003693 -480849.000000 0 0 1
-28.465957 -28.265409 4.578324 40.375798 0.781863 1.457159 0.024742 -0.004041 -397042.000000 0 0 1
-27.701927 -27.082309 3.935524 38.940166 0.774088 1.469558 0.012251 -0.000123 47975.700000 0 0 1
-28.299547 -26.633209 2.734824 38.957303 0.755073 1.500538 0.025585 -0.001141 -179718.000000 0 0 1
-27.721167 -25.435509 2.362024 37.696251 0.742426 1.508096 0.013959 -0.005164 -221001.000000 0 0 1
-28.205177 -24.903509 1.023124 37.639919 0.723310 1.543611 0.023690 -0.007007 -293632.000000 0 0 1
-27.573397 -25.596309 -0.014276 37.622645 0.748231 1.571176 0.020934 -0.007294 -241959.000000 0 0 1
-27.742537 -25.085509 -1.299276 37.424848 0.735145 1.605520 0.019210 -0.012050 683686.000000 0 0 1
-29.153857 -24.996409 -2.015476 38.455558 0.708772 1.623231 0.043991 -0.011661 535624.000000 0 0 1
-29.910917 -23.967809 -1.487576 38.357942 0.675537 1.609587 0.044858 -0.011528 -760612.000000 0 0 1
-31.131197 -23.824609 -2.162776 39.261190 0.653219 1.625911 0.057823 -0.018401 15178.300000 0 0 1
-31.865767 -22.467609 -1.896476 39.036101 0.614121 1.619398 0.047417 -0.020309 165397.000000 0 0 1
-32.092527 -22.093509 -0.537676 38.965915 0.602920 1.584595 0.053257 -0.021275 89403.100000 0 0 1
-32.788247 -20.889909 -0.352676 38.879066 0.567264 1.579868 0.048036 -0.017090 -303604.000000 0 0 1
-32.932027 -20.440609 1.115824 38.776049 0.555495 1.542016 0.047598 -0.022193 -346513.000000 0 0 1
-33.790607 -21.371509 1.735924 40.019494 0.563952 1.527406 0.051837 -0.025642 23551.600000 0 0 1
-33.841107 -21.086709 3.103924 39.993801 0.557239 1.493108 0.044464 -0.023472 -1885200.000000 0 0 1
-34.967659 -21.889409 3.759124 41.424804 0.559311 1.479926 0.072816 -0.010320 94753.900000 0 0 1
33.940326 -21.602709 3.161124 40.356108 -0.566820 1.492385 0.046652 -0.014494 -415720.000000 0 0 1
33.410146 -20.302809 3.235924 39.228983 -0.546050 1.488214 0.043426 -0.026124 -461738.000000 0 0 1
32.017696 -20.239909 2.459524 37.958346 -0.563723 1.505956 0.019272 -0.008044 1173130.000000 0 0 1
31.061286 -21.004609 3.136124 37.627548 -0.594595 1.487353 0.014316 0.002387 -178908.000000 0 0 1
29.766206 -21.012609 2.553024 36.524987 -0.614689 1.500841 -0.002658 -0.002296 474248.000000 0 0 1
28.827116 -22.107909 3.048624 36.456225 -0.654238 1.487074 -0.021367 0.022125 -119490.000000 0 0 1
28.681806 -23.217409 2.138724 36.963065 -0.680496 1.512903 -0.031551 0.009870 -441929.000000 0 0 1
27.475796 -23.797509 2.532824 36.437014 -0.713782 1.501228 -0.039843 0.024467 -545689.000000 0 0 1
27.117256 -25.001709 1.619924 36.919577 -0.744830 1.526905 -0.040128 0.024152 -53425.900000 0 0 1
26.879606 -24.598609 0.280624 36.437392 -0.741117 1.563095 -0.044816 0.017279 163460.000000 0 0 1
26.044726 -25.594509 -0.311376 36.517168 -0.776680 1.579323 -0.038464 0.010401 25495.600000 0 0 1
25.251226 -24.987509 -1.518376 35.557073 -0.780149 1.613512 -0.026129 0.003995 279812.000000 0 0 1
26.126026 -24.573609 -2.569976 35.958813 -0.754788 1.642327 -0.031990 -0.002706 46598.300000 0 0 1
26.398916 -25.633309 -3.488976 36.961361 -0.770685 1.665332 -0.026430 -0.006910 -583238.000000 0 0 1
25.355036 -26.294709 -4.445776 36.797479 -0.803589 1.691910 -0.014268 -0.013329 59341.500000 0 0 1
24.990926 -25.433509 -5.560476 36.087791 -0.794175 1.725495 0.003009 -0.025615 468905.000000 0 0 1
24.177726 -24.301509 -5.331876 34.692285 -0.787951 1.725098 0.004613 -0.021698 -688503.000000 0 0 1
23.963826 -23.447009 -6.550476 34.160444 -0.774498 1.763748 0.021997 -0.026500 -361999.000000 0 0 1
23.181426 -23.981209 -7.584976 34.205391 -0.802355 1.794403 0.031280 -0.025274 335084.000000 0 0 1
22.056326 -23.228509 -8.011776 33.018687 -0.811277 1.815886 0.020966 -0.028763 -82295.100000 0 0 1
22.118326 -21.860809 -8.700276 32.292570 -0.779543 1.843587 0.016913 -0.029182 -567385.000000 0 0 1
22.767326 -21.911309 -10.016276 33.147886 -0.766241 1.877764 0.021293 -0.027886 694970.000000 0 0 1
22.438626 -20.776509 -10.777976 32.424065 -0.746956 1.909651 0.020178 -0.022542 -150121.000000 0 0 1
23.011626 -20.797909 -12.214576 33.335924 -0.734911 1.945943 0.019292 -0.014418 -1684520.000000 0 0 1
24.356726 -20.609009 -12.247576 34.175788 -0.702244 1.937318 0.030151 -0.015288 -1527000.000000 0 0 1
24.783426 -20.198709 -13.545876 34.723145 -0.683826 1.971548 0.022170 -0.007818 -1259060.000000 0 0 1
26.278316 -20.226909 -13.695376 35.878142 -0.656002 1.962452 0.031645 -0.023648 -1145110.000000 0 0 1
26.738656 -21.555409 -13.821576 37.021984 -0.678481 1.953397 0.016947 -0.013269 -86247.200000 0 0 1
27.538726 -21.903409 -12.731276 37.419596 -0.671910 1.917958 0.021987 -0.032602 -497605.000000 0 0 1
27.772376 -23.387009 -12.632976 38.442803 -0.699887 1.905636 0.010708 -0.004337 3932.110000 0 0 1
28.521876 -23.880909 -13.760876 39.663042 -0.697065 1.925108 0.022844 -0.017162 521241.000000 0 0 1
28.710436 -25.257109 -13.596776 40.584270 -0.721496 1.912429 0.008045 -0.002341 -310430.000000 0 0 1
-4.293727 -9.129535 -27.777006 29.552438 1.131180 2.793200 0.017333 0.007686 68030.300000 0 0 1
-4.358427 -7.949435 -27.037206 28.516660 1.069283 2.818064 0.003100 0.010138 261632.000000 0 0 1
-5.191627 -6.985435 -27.661386 28.998303 0.931657 2.836758 -0.014801 0.005933 -123283.000000 0 0 1
-5.024727 -5.563735 -27.047346 28.067098 0.836260 2.871205 -0.023198 0.003901 229771.000000 0 0 1
-5.775727 -5.457435 -25.842286 27.036390 0.757071 2.843279 -0.012588 0.005267 511175.000000 0 0 1
-5.328427 -4.315335 -25.125446 26.044237 0.680731 2.875181 -0.003501 0.002682 175809.000000 0 0 1
-5.871227 -4.274135 -23.677676 24.766346 0.629259 2.843991 -0.007216 -0.001962 -54617.400000 0 1 0
-5.301827 -5.294835 -22.851276 24.048399 0.784738 2.824738 0.005083 -0.004267 525958.000000 0 1 0
-5.609827 -5.009535 -21.511176 22.788074 0.728930 2.805245 0.003778 -0.005054 -458980.000000 0 1 0
-4.984527 -6.034635 -20.570576 22.009337 0.880410 2.778012 0.012153 -0.011375 -141567.000000 0 1 0
-5.579027 -7.346735 -20.647076 22.614195 0.921314 2.721409 0.010017 -0.007975 709584.000000 0 1 0
-4.721127 -8.348335 -20.074076 22.247523 1.056118 2.695886 0.018267 -0.007872 -852240.000000 0 1 0
-5.359127 -9.764935 -20.110876 22.989596 1.068865 2.635781 0.020381 -0.003451 324251.000000 0 1 0
-6.463527 -10.015935 -19.279676 22.667202 0.997715 2.587834 0.020884 0.000451 -177196.000000 0 1 0
-7.585027 -9.191835 -19.381376 22.752147 0.880882 2.590300 0.003567 0.001280 -1560790.000000 0 1 0
-8.651827 -9.364635 -18.298876 22.302452 0.824942 2.533059 -0.002247 0.006734 -336066.000000 0 1 0
-9.321327 -10.602135 -18.485076 23.259201 0.849596 2.489380 0.026877 0.006557 -304605.000000 0 1 0
-10.095227 -10.956235 -17.387976 22.897476 0.826276 2.433162 0.022285 0.004749 -238767.000000 0 1 0
-10.967727 -12.222535 -17.576576 24.054468 0.839455 2.390142 0.012021 0.014787 -324684.000000 0 1 0
-11.998027 -11.996135 -18.495176 25.098435 0.785319 2.399278 0.015133 0.012868 -435833.000000 0 0 1
-11.713427 -12.274235 -19.885276 26.139729 0.808773 2.435233 0.006931 0.006013 -882093.000000 0 0 1
-12.944727 -12.136935 -20.798576 27.339567 0.753203 2.435264 0.003294 -0.000515 490562.000000 0 0 1
-13.936527 -13.170835 -20.800076 28.290296 0.757159 2.396813 -0.005133 0.010101 391824.000000 0 0 1
-14.703927 -13.273035 -19.575976 27.849556 0.734297 2.350289 -0.001845 0.009086 -530436.000000 0 0 1
-15.828227 -14.296235 -19.758476 29.074258 0.734587 2.317995 -0.001105 0.010827 -188881.000000 0 0 1
-15.217327 -15.545935 -19.892676 29.478156 0.796080 2.311528 -0.000564 0.008532 248935.000000 0 0 1
-15.825627 -16.211235 -21.028376 30.910309 0.797434 2.318972 0.005614 -0.000640 290366.000000 0 0 1
-15.289227 -17.605035 -21.381076 31.636184 0.855684 2.312903 0.002022 -0.007084 -465076.000000 0 0 1
-15.839127 -18.626735 -20.627876 31.989725 0.866103 2.271595 0.018097 -0.000894 -138787.000000 0 0 1
-15.253027 -19.854835 -20.972376 32.660525 0.915731 2.268073 0.010820 -0.004136 -664858.000000 0 0 1
-15.899027 -21.083235 -20.327976 33.324293 0.924672 2.226863 0.023687 -0.011243 -553699.000000 0 0 1
-15.427827 -22.341935 -20.763276 34.180309 0.966453 2.223659 0.023146 -0.006364 -169837.000000 0 0 1
-16.153527 -23.428335 -20.248976 34.926270 0.967161 2.189235 0.048361 -0.001221 -273271.000000 0 0 1
-15.718927 -24.844335 -20.627776 35.914215 1.006682 2.182621 0.048837 0.004835 45252.100000 0 0 1
-15.988327 -25.145945 -22.009976 37.045704 1.004453 2.206980 0.042899 0.002859 318140.000000 0 0 1
-15.149227 -26.261215 -22.263776 37.614176 1.047560 2.204209 0.044730 0.009176 126147.000000 0 0 1
-15.161527 -26.812695 -23.721276 38.877905 1.056161 2.227044 0.053703 0.012400 -780023.000000 0 0 1
-16.254327 -27.580155 -24.080876 40.059415 1.038246 2.215709 0.071469 0.014574 -866842.000000 0 0 1
-16.077027 -28.951535 -24.076376 40.943059 1.063887 2.199436 0.073627 0.024280 -182122.000000 0 0 1
-17.146627 -29.739795 -24.890976 42.403101 1.047794 2.198155 0.076024 0.015152 154313.000000 0 0 1
-17.058227 -29.687355 -26.318396 43.185416 1.049266 2.226135 0.072706 0.017812 15375.100000 0 0 1
-17.327427 -28.387485 -26.843726 42.739615 1.022772 2.249875 0.100723 0.009353 -578518.000000 0 0 1
-16.331927 -27.813755 -27.836816 42.605459 1.039850 2.282814 0.088376 0.000650 -618658.000000 0 0 1
-16.375927 -28.222915 -29.173016 43.769496 1.045037 2.300320 0.078631 0.005496 -89872.300000 0 0 1
-15.176227 -27.962995 -29.864906 43.636677 1.073555 2.324576 0.058250 0.008697 -138160.000000 0 0 1
-15.273027 -28.225675 -31.322886 44.845036 1.074809 2.344053 0.058527 0.001916 -53581.500000 0 0 1
-15.158527 -29.564715 -31.700436 45.921357 1.097022 2.332728 0.040161 0.002036 18386.500000 0 0 1
-15.746627 -29.888315 -32.917586 47.168158 1.085901 2.343226 0.044226 0.004650 -104141.000000 0 0 1
-15.736527 -31.371895 -33.272296 48.361966 1.105860 2.329505 0.032554 0.006726 -612998.000000 0 0 1
-14.692627 -31.697525 -34.128859 48.840408 1.136751 2.344491 0.027012 0.007733 -564349.000000 0 0 1
-14.985227 -32.927595 34.263450 49.827378 1.143712 0.812559 0.008657 0.017175 365563.000000 0 0 1
-13.818927 -33.502335 33.388522 49.276390 1.179581 0.826334 0.011223 0.004731 94325.200000 0 0 1
-12.881227 -34.245852 34.103980 50.017855 1.211027 0.820527 0.011602 0.016871 -238035.000000 0 0 1
-11.796227 -34.496451 33.204425 49.312168 1.241307 0.832064 0.013710 0.014894 -62036.100000 0 0 1
-10.676527 34.001124 33.791585 49.111464 -1.266541 0.811985 0.025517 0.007963 -756442.000000 0 0 1
-10.072327 34.660209 -34.257361 49.762924 -1.287984 2.330093 0.025711 0.004993 -634676.000000 0 0 1
-9.455527 33.678807 -33.440816 48.393772 -1.297087 2.333688 0.021958 0.003744 -366947.000000 0 0 1
-8.657527 34.372567 -32.343126 47.984414 -1.324055 2.310453 0.014181 0.006722 -356114.000000 0 0 1
-9.384527 -34.172183 -31.427046 47.365248 1.302779 2.296289 0.009447 0.016057 -328242.000000 0 0 1
-8.619427 -33.242105 -30.679496 46.049577 1.317091 2.299935 -0.002390 0.018979 120562.000000 0 0 1
-9.528627 -32.409995 -29.675336 44.964743 1.284851 2.291574 0.005230 0.027223 594923.000000 0 0 1
-9.692727 -32.871085 -28.344106 44.472976 1.284052 2.261829 0.008816 0.033325 -231616.000000 0 0 1
-10.389527 -34.085299 -28.195476 45.439353 1.274933 2.240186 0.025959 0.021925 -251142.000000 0 0 1
-10.713727 -34.401116 -26.733906 44.865605 1.268882 2.209140 0.026286 0.014699 -207387.000000 0 0 1
-9.585827 -34.561506 -25.932186 44.259056 1.300241 2.196809 0.018033 0.019781 -438474.000000 0 0 1
-10.004827 34.670948 -24.554076 43.647152 -1.289863 2.168273 0.024611 0.009316 1061940.000000 0 0 1
-8.821627 34.386366 -23.526176 42.587841 -1.319668 2.156055 0.030904 0.012767 898081.000000 0 0 1
-8.164627 33.109398 -23.636476 41.491883 -1.329025 2.176895 0.018376 0.004867 316015.000000 0 0 1
-7.441127 32.830958 -22.405676 40.438305 -1.347912 2.158042 0.032539 0.010365 -40120.800000 0 0 1
-6.511727 31.619218 -22.571576 39.391034 -1.367694 2.180974 0.021373 -0.000662 -650261.000000 0 0 1
-5.406727 31.952028 -23.359076 39.947606 -1.403170 2.195359 0.007150 -0.006812 -481479.000000 0 0 1
-4.347327 31.065848 -22.998176 38.896044 -1.431760 2.203433 0.004513 -0.002160 1085850.000000 0 0 1
-2.929227 31.568138 -23.494176 39.460157 -1.478271 2.208547 -0.000110 -0.002619 814688.000000 0 0 1
-2.598027 31.360758 -24.874876 40.112421 -1.488142 2.239703 -0.013589 0.000072 23529.200000 0 0 1
-3.216727 32.312078 -25.736876 41.434340 -1.471571 2.241004 -0.011383 -0.000798 -301059.000000 0 0 1
-2.443227 32.583678 -27.063996 42.427884 -1.495953 2.262542 -0.025799 0.008470 -208253.000000 0 0 1
-1.437127 33.597611 -26.959826 43.101010 -1.528048 2.246573 -0.018975 0.003999 -235791.000000 0 0 1
-1.815427 -34.402826 -26.712956 43.593948 1.518076 2.230354 -0.016948 0.012278 -129790.000000 0 0 1
-0.754027 -33.290875 -27.016196 42.880366 1.548151 2.252397 -0.039749 0.018193 57526.300000 0 0 1
0.415973 -33.317155 -26.232866 42.407183 -1.558312 2.237749 -0.019246 0.016955 -444618.000000 0 0 1
1.183973 -32.261935 -26.755496 41.929594 -1.534114 2.262831 -0.024992 0.021347 91770.400000 0 0 1
2.379473 -31.858475 -25.829746 41.082845 -1.496246 2.250707 -0.021351 0.014519 -121108.000000 0 0 1
1.975773 -31.253585 -24.611676 39.829950 -1.507663 2.236889 -0.016554 0.014547 -34420.300000 0 0 1
2.931073 -30.354495 -24.124476 38.884148 -1.474533 2.240074 -0.032132 0.021440 -371789.000000 0 0 1
2.813973 -29.892915 -22.633776 37.600434 -1.476938 2.216744 -0.025414 0.031039 -251103.000000 0 0 1
2.931773 -30.940055 -21.685576 37.896524 -1.476322 2.180020 -0.019588 0.028129 307426.000000 0 0 1
2.981073 -30.390725 -20.390576 36.718641 -1.473018 2.159543 -0.006104 0.022602 -604499.000000 0 0 1
3.011273 -31.475945 -19.240576 37.013547 -1.475418 2.117443 0.000436 0.017191 177929.000000 0 0 1
1.732973 -32.096895 -19.003976 37.341197 -1.516857 2.104735 0.013782 0.005197 779795.000000 0 0 1
1.518673 -33.380725 -19.536476 38.707274 -1.525332 2.099858 0.015290 0.014799 -300858.000000 0 0 1
2.159073 -34.558811 -18.801276 39.401282 -1.508402 2.068233 0.009519 0.007350 856181.000000 0 0 1
3.571873 34.609802 -18.997876 39.642351 1.467956 2.070576 0.002805 0.010592 567948.000000 0 0 1
4.089473 33.719299 -18.005276 38.443529 1.450106 2.058226 0.013203 -0.004272 119340.000000 0 0 1
5.218573 32.905048 -18.642776 38.177595 1.413511 2.080957 0.017298 0.001523 -627818.000000 0 0 1
6.331473 33.605113 -19.073976 39.156197 1.384571 2.079591 0.043140 0.003285 -736198.000000 0 0 1
7.338773 32.681748 -19.528776 38.772765 1.349908 2.098641 0.021691 -0.009209 418709.000000 0 0 1
8.640973 33.509405 -19.744276 39.841976 1.318427 2.089281 0.002948 -0.003028 107328.000000 0 0 1
9.356273 33.815469 -18.533276 39.680072 1.300863 2.056768 -0.003640 0.002704 -454154.000000 0 0 1
10.589573 34.383466 -18.852376 40.617408 1.272031 2.053466 -0.006059 0.018609 -222397.000000 0 0 1
11.418773 -34.620914 -17.591176 40.477717 -1.252208 2.020378 -0.014082 0.020674 -159622.000000 0 0 1
12.082873 33.612407 -17.000376 39.557585 1.225704 2.015026 -0.008872 0.010025 434539.000000 0 0 1
13.022373 34.022970 -15.971976 39.777490 1.205246 1.983986 -0.022412 -0.000787 -33262.100000 0 0 1
14.145473 33.009228 -15.744976 39.212343 1.165939 1.983984 -0.014752 0.004305 -166698.000000 0 0 1
13.798873 31.706578 -15.313276 37.818149 1.160313 1.987686 -0.003849 0.006594 -428287.000000 0 0 1
14.983273 30.973238 -15.102476 37.575587 1.120234 1.984412 -0.004207 0.001449 83522.200000 0 0 1
14.691873 29.556648 -14.461076 36.035667 1.109491 1.983731 0.003665 0.003106 -419659.000000 0 0 1
14.845573 29.475528 -13.039376 35.485534 1.104227 1.947069 0.012320 -0.001871 -122427.000000 0 0 1
13.649473 29.610968 -12.287676 34.844003 1.138865 1.931196 0.010124 -0.001718 348487.000000 0 0 1
13.049973 28.216448 -11.856176 33.272190 1.137600 1.935143 0.003501 0.004654 77302.700000 0 0 1
12.371673 27.444258 -12.871576 32.740236 1.147283 1.974843 0.007649 0.000794 364952.000000 0 0 1
11.876073 26.170508 -12.490576 31.336099 1.144790 1.980786 0.025758 -0.002605 328819.000000 0 0 1
10.944273 25.927318 -11.285076 30.320882 1.171373 1.952162 0.032058 -0.007122 355255.000000 0 0 1
9.674273 26.582668 -11.289876 30.458022 1.221765 1.950527 0.020868 0.003327 453570.000000 0 0 1
9.183973 26.826678 -9.999776 30.066785 1.240958 1.909840 0.007440 0.011305 -446957.000000 0 0 1
7.996573 27.764748 -10.059276 30.594370 1.290374 1.905824 0.007977 0.010704 -248607.000000 0 0 1
8.437673 29.037098 -10.502576 32.010178 1.288002 1.905089 0.012928 0.008896 98564.000000 0 0 1
7.385973 29.977628 -10.475176 32.602762 1.329225 1.897895 0.004132 0.006904 106944.000000 0 0 1
7.902073 31.415668 -10.753476 34.132451 1.324375 1.891307 0.035536 -0.005315 -125523.000000 0 0 1
8.772173 31.826048 -9.711176 34.411558 1.301846 1.856890 0.022140 -0.000821 -235119.000000 0 0 1
9.233473 33.178818 -9.750776 35.793416 1.299370 1.846702 0.039223 -0.007621 129686.000000 0 0 1
10.116073 33.622020 -11.003976 36.794873 1.278536 1.874507 0.019481 0.000767 -746654.000000 0 0 1
11.379673 33.062038 -10.855976 36.612123 1.239305 1.871836 0.017454 -0.002594 -975796.000000 0 0 1
12.207873 33.539298 -11.896776 37.622466 1.221716 1.892533 0.024100 -0.005975 -465578.000000 0 0 1
13.691073 33.301798 -11.613576 37.832927 1.180740 1.882804 0.026316 -0.006816 -332098.000000 0 0 1
14.172573 34.096860 -10.545276 38.401309 1.176866 1.848978 0.032425 -0.008616 -74137.200000 0 0 1
15.588473 34.036224 -10.543776 38.892625 1.141312 1.845332 0.019699 -0.012585 236872.000000 0 0 1
16.302773 -34.352477 -9.540776 39.203310 -1.127696 1.816632 0.047481 -0.027750 181320.000000 0 0 1
16.275473 34.575159 -8.183676 39.080752 1.130840 1.781762 0.041732 -0.021854 -100164.000000 0 0 1
16.796273 -33.770525 -7.363976 38.429043 -1.109259 1.763614 0.037623 -0.015265 -670067.000000 0 0 1
17.141973 -34.336495 -5.972476 38.839576 -1.107761 1.725182 0.030773 -0.006554 879478.000000 0 0 1
18.194373 34.038784 -5.836076 39.035033 1.079916 1.720868 0.023712 -0.011509 252829.000000 0 0 1
19.500573 34.468975 -6.106876 40.070894 1.055947 1.723794 0.028179 -0.009086 -1107730.000000 0 0 1
20.278573 33.575973 -7.083476 39.859028 1.027470 1.749459 0.021258 -0.005197 -66244.000000 0 0 1
20.524873 32.229998 -6.627376 38.780992 1.003739 1.742532 0.033611 0.003046 -78943.700000 0 0 1
21.670973 32.260488 -5.799176 39.293773 0.979283 1.718923 0.038464 0.001117 -543694.000000 0 0 1
22.014573 30.918788 -5.217376 38.312320 0.952053 1.707401 0.019517 -0.002717 -220518.000000 0 0 1
22.424573 29.955298 -6.154676 37.921780 0.928191 1.733817 0.013309 0.000949 27747.100000 0 0 1
22.533573 28.642508 -5.633076 36.876642 0.904207 1.724151 0.009878 0.015326 -189302.000000 0 0 1
23.381473 27.818508 -6.616876 36.937051 0.871843 1.750908 -0.008681 0.022931 539863.000000 0 0 1
24.751373 28.191388 -6.839576 38.133511 0.850283 1.751131 0.006930 0.013287 443463.000000 0 0 1
25.502273 27.052248 -7.155576 37.860168 0.814882 1.760940 -0.005928 0.020375 33407.700000 0 0 1
26.278073 26.412768 -5.967876 37.733102 0.787954 1.729623 -0.003246 0.013539 -892207.000000 0 0 1
27.265473 27.222888 -5.426376 38.909346 0.784617 1.710714 -0.004790 0.008487 -268049.000000 0 0 1
27.953273 26.432088 -4.443676 38.727084 0.757435 1.685793 -0.005829 0.016999 -665830.000000 0 0 1
29.192873 27.032348 -3.860076 39.973389 0.746991 1.667513 -0.005521 0.014184 -862068.000000 0 0 1
28.915973 28.103918 -3.018376 40.436052 0.771158 1.645511 0.004472 -0.000106 143617.000000 0 0 1
29.954873 28.197938 -2.048076 41.189959 0.755195 1.620540 0.008667 -0.006037 164481.000000 0 0 1
30.036673 29.506688 -1.270076 42.124333 0.776498 1.600952 0.017906 -0.012913 -100898.000000 0 0 1
30.642473 30.470448 -2.055776 43.262404 0.782583 1.618333 -0.003011 -0.001751 -78668.500000 0 0 1
30.331273 31.736698 -1.495576 43.925401 0.808038 1.604851 0.013581 -0.006323 -309125.000000 0 0 1
32.408866 23.457265 19.312253 44.424554 0.626516 1.121069 0.020280 0.002714 -56728.300000 0 0 1
32.617906 23.202965 20.682753 45.056427 0.618307 1.093881 0.007888 0.004101 -153668.000000 0 0 1
33.354496 24.263865 21.203153 46.377055 0.628915 1.095963 0.007326 -0.006495 -177354.000000 0 0 1
33.481306 24.165465 22.738653 47.138242 0.625181 1.067424 0.003434 -0.001360 -484909.000000 0 0 1
32.289456 24.611765 23.279353 46.800387 0.651278 1.050176 -0.002123 -0.002554 -498641.000000 0 0 1
32.419946 24.844865 24.651613 47.707674 0.653880 1.027778 -0.007713 -0.006005 965137.000000 0 0 1
31.074906 25.219865 25.414553 47.408763 0.681764 1.005018 0.016808 -0.008306 1088450.000000 0 0 1
30.724476 26.613465 25.263453 47.859293 0.713823 1.014706 0.005070 -0.016125 -79594.900000 0 0 1
29.483986 26.957465 25.804843 47.559439 0.740664 0.997290 -0.001721 -0.016788 -291382.000000 0 0 1
29.190556 28.453565 25.967043 48.331989 0.772614 1.003606 -0.004346 -0.014184 -189937.000000 0 0 1
29.134606 29.220465 24.759923 48.121872 0.786869 1.030342 0.000460 -0.018526 278344.000000 0 0 1
28.684646 30.506665 25.062123 48.801388 0.816170 1.031475 0.000324 -0.011454 -461736.000000 0 0 1
28.747596 31.464165 23.856553 48.842124 0.830485 1.060493 0.012589 -0.018056 105341.000000 0 0 1
30.103006 31.746265 23.544053 49.682378 0.811961 1.077092 -0.004506 -0.021509 161762.000000 0 0 1
30.199116 32.495665 22.350053 49.673732 0.822012 1.104101 -0.001679 -0.012707 -800998.000000 0 0 1
31.625026 32.833265 22.015453 50.624556 0.804140 1.120895 -0.013881 -0.019547 -470470.000000 0 0 1
32.347136 33.636465 22.953653 52.005953 0.804936 1.113676 -0.012044 -0.003989 966587.000000 0 0 1
33.763636 33.727665 22.753553 52.870243 0.784865 1.125898 -0.001667 -0.002002 892297.000000 0 0 1
34.394191 -34.399609 23.515953 54.030487 -0.785477 1.120497 0.006443 0.004997 -159274.000000 0 0 1
33.857706 -33.160209 23.090653 52.717378 -0.774991 1.117414 -0.002221 0.003762 16420.500000 0 0 1
34.249094 -32.207209 24.035443 52.801584 -0.754683 1.098196 0.011066 -0.004721 -784172.000000 0 0 1
33.366936 -30.877809 23.945453 51.382645 -0.746673 1.086007 0.001110 0.000152 1747010.000000 0 0 1
31.960696 -31.082209 24.262763 50.756984 -0.771464 1.072399 -0.009649 0.007465 1255830.000000 0 0 1
31.325846 -31.568209 23.107753 50.118147 -0.789252 1.091601 -0.013926 0.016750 -1282070.000000 0 0 1
30.301156 -32.706609 23.183553 50.252954 -0.823557 1.091295 -0.020409 0.012062 359806.000000 0 0 1
29.259626 -32.510809 24.131973 49.954284 -0.837983 1.066626 -0.013041 0.005708 471553.000000 0 0 1
28.332906 -33.571009 24.204003 50.155757 -0.869814 1.067202 -0.014798 0.003377 86041.000000 0 0 1
27.560646 -33.696109 25.536573 50.469134 -0.885225 1.040274 -0.029745 0.007667 -209722.000000 0 0 1
27.254476 34.294765 25.745573 50.811139 0.899288 1.039453 -0.022781 -0.004966 43925.000000 0 0 1
26.602476 34.083765 26.970833 50.959009 0.908057 1.013062 -0.033719 0.001109 -737719.000000 0 0 1
26.407086 32.534365 27.099443 49.901892 0.888981 0.996726 -0.032715 -0.006647 541546.000000 0 0 1
25.653526 31.895965 26.048623 48.517901 0.893447 1.004054 -0.034757 -0.003640 825092.000000 0 0 1
24.266326 32.196565 25.932583 47.937169 0.924936 0.999206 -0.028433 -0.005237 225566.000000 0 0 1
23.626826 31.964265 24.491483 46.688048 0.934267 1.018578 0.001533 -0.015225 117619.000000 0 0 1
23.888826 32.869865 23.461953 46.920861 0.942329 1.047160 -0.000740 -0.017306 2050060.000000 0 0 1
25.309606 32.917665 23.062453 47.497637 0.915324 1.063805 -0.019844 -0.009400 1691240.000000 0 0 1
25.392476 33.724565 21.779853 47.502485 0.925418 1.094491 -0.011645 -0.008922 289228.000000 0 0 1
26.697666 33.732665 21.211953 47.964622 0.901292 1.112700 0.000668 -0.008043 433903.000000 0 0 1
26.719846 34.416065 19.970953 47.929684 0.910626 1.141015 -0.003700 -0.007351 644442.000000 0 0 1
28.151236 -34.528709 19.429553 48.602791 -0.886796 1.159539 0.002914 -0.004138 894418.000000 0 0 1
28.906846 33.703265 19.065353 48.321873 0.861857 1.165219 0.011612 -0.016751 282277.000000 0 0 1
29.988396 34.047165 18.175353 48.875932 0.848697 1.189777 0.009561 -0.002083 673169.000000 0 0 1
30.844506 32.850265 17.692353 48.410152 0.816878 1.196661 -0.003150 -0.011142 465982.000000 0 0 1
31.703946 32.272565 18.691453 48.949249 0.794286 1.178995 -0.001002 -0.012918 510839.000000 0 0 1
32.533556 31.211465 18.232453 48.631370 0.764661 1.186495 0.003475 -0.017237 222840.000000 0 0 1
33.549796 30.689765 19.242653 49.373375 0.740906 1.170450 0.025016 -0.035639 403183.000000 0 0 1
34.637005 31.574065 19.587753 50.796887 0.739171 1.174928 0.039248 -0.025223 692588.000000 0 0 1
-34.717953 30.979865 20.582353 50.879480 -0.728561 1.154330 0.041462 -0.030641 -87087.300000 0 0 1
-33.662857 31.894165 21.235053 51.003462 -0.758425 1.141374 0.034097 -0.025525 231089.000000 0 0 1
-32.700837 32.372965 20.268253 50.280768 -0.780360 1.155893 0.030114 -0.022209 344167.000000 0 0 1
-31.774417 33.344365 20.776353 50.528379 -0.809502 1.147046 0.021284 -0.011881 7941.500000 0 0 1
-32.152997 -34.630709 21.436453 51.890488 0.822482 1.144930 0.007441 -0.010146 -555808.000000 0 0 1
-32.322347 34.612165 22.835453 52.575602 -0.819595 1.121496 0.024046 -0.011218 184688.000000 0 0 1
-32.111057 -33.551909 23.576353 52.083538 0.807338 1.101045 0.015557 -0.005360 -198214.000000 0 0 1
-32.013617 -33.864209 25.118023 52.939318 0.813482 1.076437 0.021060 -0.010979 239243.000000 0 0 1
-33.326587 -34.042709 25.636663 54.099962 0.796028 1.077109 0.026915 -0.003861 146749.000000 0 0 1
-33.320247 34.630465 26.895413 55.071510 -0.804678 1.060573 0.033986 -0.009790 432842.000000 0 0 1
-34.723314 34.608265 27.546403 56.233840 -0.783739 1.058873 0.029737 -0.017760 393832.000000 0 0 1
-34.632280 33.838865 28.736773 56.305112 -0.773811 1.035174 0.051287 -0.021656 233158.000000 0 0 1
34.216343 33.539965 29.227693 56.124374 0.775416 1.023048 0.046441 -0.025567 314518.000000 0 0 1
34.223409 32.379665 30.301253 56.016518 0.757723 0.999249 0.046101 -0.019389 -108597.000000 0 0 1
34.111662 31.029465 29.849503 54.931102 0.738118 0.996316 0.035373 -0.016805 44498.500000 0 0 1
-34.875365 30.522965 29.254963 54.806891 -0.718944 1.007729 0.034485 -0.017278 -548261.000000 0 0 1
-35.052009 29.079065 28.750513 53.859329 -0.692530 1.007699 0.030973 -0.010021 -91951.600000 0 0 1
34.120849 29.000865 27.693193 52.651642 0.704462 1.016941 0.028131 -0.016542 763599.000000 0 0 1
33.839546 27.658065 27.273523 51.516293 0.685219 1.012885 0.027748 -0.010802 147293.000000 0 0 1
33.330246 26.577665 28.298893 51.167420 0.673156 0.984758 0.021265 -0.011886 523284.000000 0 0 1
34.415165 25.990265 29.066713 52.007415 0.646820 0.977743 0.008075 -0.008285 985515.000000 0 0 1
34.035936 24.636665 29.516823 51.348350 0.626549 0.958394 0.003331 -0.006677 129408.000000 0 0 1
34.521746 23.474065 28.635993 50.624132 0.597162 0.969564 -0.003737 0.003541 -345317.000000 0 0 1
33.944126 23.315265 27.312603 49.414406 0.601861 0.985165 -0.012253 0.005080 388886.000000 0 0 1
34.603331 22.344265 26.486733 48.971458 0.573365 0.999336 -0.017752 -0.003217 -360409.000000 0 0 1
34.320028 20.906665 26.914373 48.366687 0.547133 0.980671 -0.017240 0.002061 -391440.000000 0 0 1
32.969246 20.522665 26.720833 47.139727 0.556784 0.968127 0.000769 0.005550 422534.000000 0 0 1
32.572406 19.433265 27.526733 46.865066 0.537929 0.943002 0.003438 0.003221 -436765.000000 0 0 1
32.434626 19.712765 29.065313 47.805758 0.546113 0.917273 0.001860 0.007605 -540303.000000 0 0 1
31.305036 20.401965 29.538923 47.631853 0.577580 0.901862 0.004399 0.011518 123058.000000 0 0 1
31.232886 21.837065 29.272113 48.054210 0.610168 0.915811 0.002212 0.000119 -933881.000000 0 0 1
30.226806 22.637765 30.187693 48.346923 0.642816 0.896437 0.012592 -0.005926 -366855.000000 0 0 1
28.871876 22.645765 29.875263 47.317515 0.665127 0.887467 0.018062 -0.022385 -455895.000000 0 0 1
28.495646 23.059565 28.581263 46.482620 0.680344 0.908562 0.019212 -0.026252 -1107760.000000 0 0 1
28.283766 24.603165 28.583733 47.141456 0.715916 0.919347 0.015579 -0.020957 158499.000000 0 0 1
29.506706 25.348965 28.696193 48.339292 0.709749 0.935220 0.010574 -0.007576 543950.000000 0 0 1
29.359806 26.517665 29.426723 49.306356 0.734578 0.931272 0.005165 -0.005341 -41654.900000 0 0 1
29.672796 26.367965 30.985793 50.357360 0.726494 0.908007 0.009602 -0.009668 649740.000000 0 0 1
30.972386 25.816965 31.247313 51.011753 0.694865 0.911512 0.027937 -0.009471 501929.000000 0 0 1
31.330176 25.613465 32.612873 51.973349 0.685341 0.892468 0.035389 -0.007694 29287.900000 0 0 1
30.555126 24.583965 33.481453 51.565441 0.677526 0.864132 0.037223 -0.006726 -116362.000000 0 0 1
31.184066 24.464065 -34.349784 52.448490 0.665221 2.284879 0.021343 -0.014827 371817.000000 0 0 1
30.377586 23.670965 -33.539456 51.068654 0.661944 2.287300 0.007353 -0.017025 -291518.000000 0 0 1
31.141606 23.216065 -32.264906 50.495638 0.640615 2.263947 0.003507 -0.019507 -189961.000000 0 0 1
31.501036 24.245865 -31.365626 50.635755 0.655981 2.238821 0.011562 -0.021594 448688.000000 0 0 1
32.168406 23.680865 -30.208976 50.081653 0.634580 2.218297 0.025864 -0.029083 146432.000000 0 0 1
32.844736 24.701665 -29.223606 50.427850 0.644827 2.188928 0.029150 -0.012419 148127.000000 0 0 1
33.234596 23.900765 -28.123176 49.665863 0.623465 2.172742 0.039166 -0.023302 -24966.400000 0 0 1
34.342221 24.466465 -27.431506 50.303912 0.619020 2.147562 0.050007 -0.014063 92237.800000 0 0 1
34.875592 23.461865 -26.420896 49.647052 0.592189 2.131963 0.051731 -0.017868 208060.000000 0 0 1
-34.298482 22.565865 -26.990736 49.133532 -0.581927 2.152364 0.036785 -0.021794 526166.000000 0 0 1
-34.535477 21.221665 -26.596636 48.481329 -0.551005 2.151480 0.025393 -0.007480 413645.000000 0 0 1
-33.379257 20.335465 -27.236726 47.639743 -0.547175 2.179400 0.033395 0.003204 1010310.000000 0 0 1
-32.178667 20.703265 -26.550506 46.572751 -0.571711 2.177408 0.027214 -0.006712 210161.000000 0 0 1
-31.146917 19.756265 -26.873406 45.635736 -0.565254 2.200453 -0.002788 0.007715 216679.000000 0 0 1
-29.816257 20.039365 -26.183216 44.453865 -0.591751 2.200614 -0.020320 0.002952 -343790.000000 0 0 1
-29.969477 19.765165 -24.819176 43.644275 -0.583031 2.175684 -0.031637 0.006754 252086.000000 0 0 1
-28.744997 19.774665 -24.113376 42.411875 -0.602582 2.175542 -0.050498 0.015657 34049.700000 0 0 1
-29.055367 20.079565 -22.614276 41.938154 -0.604714 2.140318 -0.051777 0.009462 64937.200000 0 0 1
-29.959617 19.159565 -22.050776 41.843808 -0.568968 2.125837 -0.058440 0.018579 -53467.900000 0 0 1
-30.160037 19.538465 -20.712676 41.477637 -0.574846 2.093667 -0.057928 0.021113 -1244020.000000 0 0 1
-31.256627 18.683865 -20.093976 41.591242 -0.538769 2.075022 -0.055537 0.024566 -307653.000000 0 0 1
-31.866577 19.216365 -18.927576 41.749258 -0.542641 2.041331 -0.047912 0.009204 422489.000000 0 0 1
-32.693347 20.379365 -19.165076 43.028753 -0.557411 2.032419 -0.055703 0.008450 -806417.000000 0 0 1
-33.900707 20.403565 -18.241576 43.569697 -0.541788 2.002783 -0.029410 0.002456 -562726.000000 0 0 1
-33.630337 20.970965 -16.974276 43.115043 -0.557572 1.975447 -0.037775 0.000396 -377132.000000 0 0 1
-34.742882 20.817965 -16.149076 43.603304 -0.539832 1.950197 -0.021592 0.013032 -1309110.000000 0 0 1
-34.656109 21.542565 -14.802276 43.407780 -0.556157 1.918782 -0.020363 0.018289 -626899.000000 0 0 1
-34.722843 22.955265 -14.890576 44.208022 -0.584139 1.914344 -0.016008 0.005671 412040.000000 0 0 1
34.101380 23.443765 -14.950776 44.000454 0.602269 1.917487 -0.004118 0.005691 48046.400000 0 0 1
34.002556 24.942465 -15.343876 44.874657 0.632888 1.919764 -0.014274 0.000789 57692.000000 0 0 1
34.643962 25.790865 -14.411976 45.531065 0.639943 1.892866 -0.013655 0.000424 42234.700000 0 0 1
34.183752 27.122865 -14.441976 45.964653 0.670730 1.890407 -0.013760 0.005671 318866.000000 0 0 1
-35.035848 28.095365 -15.268676 47.434087 -0.675900 1.898524 -0.006798 0.009234 480733.000000 0 0 1
-34.957026 27.777865 -16.631076 47.646575 -0.671457 1.927354 -0.000016 0.010444 524352.000000 0 0 1
-33.979267 28.546165 -17.359276 47.653106 -0.698722 1.943660 0.009884 0.006216 -483859.000000 0 0 1
-33.813667 28.036865 -18.795176 47.777489 -0.692269 1.975112 0.007377 0.002507 -117746.000000 0 0 1
-33.230477 26.765565 -18.972076 46.696892 -0.678057 1.989177 -0.001741 -0.000521 318315.000000 0 0 1
-31.920497 26.552065 -18.463576 45.440443 -0.693844 1.989225 -0.007189 0.007581 -3008.510000 0 0 1
-31.359287 25.128765 -18.768676 44.352259 -0.675544 2.007741 -0.020071 -0.002218 -429670.000000 0 0 1
-30.887907 24.969965 -20.103976 44.516646 -0.679845 2.039361 -0.016967 -0.000979 158996.000000 0 0 1
-30.538447 23.629565 -20.376876 43.659708 -0.658538 2.056375 -0.027510 -0.002408 -761248.000000 0 0 1
-30.114597 23.502865 -21.828676 43.997326 -0.662705 2.089940 -0.025242 -0.000166 -833444.000000 0 0 1
-31.022727 23.868965 -22.795076 45.296275 -0.655804 2.098145 0.006391 -0.007878 -405239.000000 0 0 1
-30.560907 23.509765 -24.061276 45.449126 -0.655724 2.128703 0.025773 -0.011184 788600.000000 0 0 1
-31.611217 24.036165 -25.149096 47.005141 -0.650104 2.135338 0.006100 0.004593 793409.000000 0 0 1
-31.596067 25.495265 -25.252236 47.812084 -0.678942 2.127224 -0.009898 0.006226 16446.500000 0 0 1
-32.533507 25.911765 -26.232696 49.173194 -0.672581 2.133501 0.003754 -0.000896 1540.590000 0 0 1
-32.319687 27.424565 -26.471006 49.973824 -0.703646 2.129040 -0.006278 0.016955 1040420.000000 0 0 1
-31.139827 27.702165 -27.266976 49.805489 -0.727043 2.150133 -0.025021 0.008607 410732.000000 0 0 1
-30.871057 29.078665 -27.298916 50.436313 -0.755509 2.142725 -0.019045 -0.000629 390653.000000 0 0 1
-29.559037 29.355765 -28.078226 50.238276 -0.781948 2.163856 -0.015935 0.008702 646490.000000 0 0 1
-28.420997 28.637765 -27.565706 48.864535 -0.789197 2.170169 -0.047217 0.011369 1058580.000000 0 0 1
-27.179497 28.992165 -28.200536 48.729261 -0.817657 2.187953 -0.011837 0.012095 1240110.000000 0 0 1
-26.425967 30.301465 -27.805886 48.884331 -0.853610 2.175854 -0.019696 0.005589 -425890.000000 0 0 1
-25.854217 30.481465 -26.537016 47.976801 -0.867351 2.156903 -0.023912 0.005329 329912.000000 0 0 1
-26.761397 30.469365 -25.421446 47.862349 -0.850098 2.130738 -0.027350 0.009999 191197.000000 0 0 1
-26.069717 30.943565 -24.132276 47.111581 -0.870677 2.108583 -0.043095 0.008288 115992.000000 0 0 1
-25.861147 32.333865 -24.098076 47.906106 -0.896168 2.097894 -0.025092 0.011468 -591033.000000 0 0 1
-24.557327 32.589065 -23.664276 47.171044 -0.925030 2.096324 -0.019343 0.017404 -526854.000000 0 0 1
-24.039127 34.007765 -23.906376 48.020022 -0.955473 2.091905 -0.023362 0.022017 -398458.000000 0 0 1
-24.537827 -34.438309 -22.992876 48.132883 0.951720 2.068826 -0.025936 0.017446 -4147.210000 0 0 1
-24.226727 -33.098409 -23.384776 47.215323 0.938941 2.088953 -0.018144 0.022562 79517.200000 0 0 1
15.803673 8.844265 -25.943026 31.638864 0.510209 2.532161 0.023127 -0.011868 473034.000000 0 0 1
14.707173 8.178165 -25.295846 30.381954 0.507489 2.554572 0.030970 -0.014884 671291.000000 0 0 1
14.834273 6.767565 -25.421186 30.200866 0.428007 2.571289 0.032544 -0.014920 76115.600000 0 0 1
13.388073 6.254365 -25.509076 29.480002 0.437032 2.616547 0.026299 -0.015488 79861.100000 0 0 1
12.649973 6.464365 -24.326376 28.170595 0.472423 2.613040 0.031931 -0.028161 280637.000000 0 0 1
11.373873 5.829865 -24.391176 27.536917 0.473650 2.658931 0.019861 -0.020899 499189.000000 0 0 1
10.585073 6.042965 -23.052476 26.076385 0.518744 2.655225 0.028382 -0.024847 162936.000000 0 0 1
11.088173 5.114265 -22.049276 25.204640 0.432158 2.635840 0.019586 -0.013168 409986.000000 0 0 1
10.594673 5.378365 -20.709376 23.875765 0.469747 2.620711 0.021270 -0.011222 -262484.000000 0 1 0
11.076673 6.697165 -20.056176 23.870377 0.543809 2.568470 0.022354 -0.020390 -159901.000000 0 1 0
10.744973 6.837365 -18.680976 22.609354 0.566706 2.543214 0.015883 -0.010534 -207393.000000 0 1 0
11.011573 8.162865 -18.175976 22.765175 0.637909 2.495449 0.018527 -0.012399 -692651.000000 0 1 0
12.410673 8.545565 -17.746176 23.280426 0.603011 2.437623 0.014720 -0.012754 -696022.000000 0 1 0
12.861573 7.859865 -16.568876 22.399223 0.548550 2.403432 0.014406 -0.012708 131688.000000 0 1 0
14.247673 8.121365 -16.486376 23.254104 0.518079 2.358828 0.013089 -0.000888 -356487.000000 0 1 0
14.909973 7.616865 -15.169676 22.592986 0.472295 2.306937 0.031374 -0.004678 17396.300000 0 1 0
16.301673 7.916765 -15.274976 23.701152 0.452095 2.271143 0.025390 -0.000968 749054.000000 0 1 0
16.865373 7.958365 -13.954876 23.291950 0.440896 2.213209 0.027235 0.001515 95849.100000 0 1 0
17.291873 9.409765 -13.629276 23.943887 0.498358 2.176350 0.028415 -0.001939 -834425.000000 0 1 0
16.180573 10.124365 -13.228076 23.222741 0.559111 2.176837 0.030714 -0.004856 -150093.000000 0 1 0
16.466973 11.526665 -13.245976 24.072413 0.610717 2.153466 0.024366 0.001493 383897.000000 0 1 0
15.298673 12.520965 -12.901276 23.606501 0.685881 2.148992 0.025433 0.000106 339926.000000 0 1 0
14.758973 12.677765 -11.576876 22.640165 0.709688 2.107542 0.041609 -0.001174 554654.000000 0 1 0
15.443673 13.661965 -10.771876 23.263483 0.724259 2.052216 0.041453 0.002868 43449.400000 0 1 0
15.070673 15.149565 -10.992476 24.030585 0.788009 2.045907 0.034467 -0.000484 782203.000000 0 1 0
13.759073 15.466665 -10.490776 23.207460 0.843759 2.039851 0.048672 -0.007422 869143.000000 0 1 0
13.341973 16.768865 -10.837876 24.013801 0.898720 2.039039 0.035091 -0.006006 -49350.800000 0 1 0
12.169573 17.242165 -9.999376 23.353335 0.956186 2.013272 0.032165 -0.011756 -116277.000000 0 1 0
12.658573 17.447665 -8.710276 23.249288 0.943149 1.954812 0.038943 0.005513 452306.000000 0 1 0
11.575273 17.424565 -7.799376 22.325606 0.984429 1.927670 0.035709 0.000165 231580.000000 0 1 0
11.998373 17.151765 -6.333876 21.869201 0.960378 1.864632 0.033294 -0.003381 294040.000000 0 1 0
12.845173 18.150765 -5.769676 22.972546 0.954926 1.824670 0.035884 0.002798 225082.000000 0 1 0
13.118973 17.899465 -4.422576 22.628687 0.938313 1.767504 0.021859 0.005734 -683396.000000 0 1 0
14.037373 18.964065 -3.927476 23.918793 0.933591 1.735744 0.014630 0.004879 -1130410.000000 0 1 0
15.258773 19.010465 -4.591876 24.805508 0.894441 1.756985 0.019894 -0.002199 75522.900000 0 1 0
16.054073 20.091765 -4.054076 26.035510 0.896643 1.727146 0.017446 -0.007183 970818.000000 0 0 1
17.424373 20.443065 -4.760376 27.279825 0.864947 1.746196 0.011923 -0.009640 980014.000000 0 0 1
18.540373 19.620565 -4.504676 27.367939 0.813697 1.736146 0.016880 -0.018127 123228.000000 0 0 1
18.575773 18.391265 -5.235176 26.659052 0.780407 1.768456 0.009603 -0.010225 -311684.000000 0 0 1
19.505373 17.374365 -4.533476 26.511894 0.727680 1.742639 0.033898 -0.023610 402332.000000 0 0 1
20.892273 17.585665 -4.757676 27.719635 0.699674 1.743286 0.043003 -0.027250 92779.900000 0 0 1
21.598373 16.670965 -3.966676 27.570733 0.657347 1.715170 0.049341 -0.031435 802990.000000 0 0 1
23.153073 16.640765 -4.221076 28.823555 0.623185 1.717770 0.052960 -0.028309 1082090.000000 0 0 1
23.928673 17.765865 -3.840576 30.049249 0.638652 1.698956 0.052654 -0.025863 946121.000000 0 0 1
25.342173 17.530965 -3.929076 31.064418 0.605181 1.697618 0.042834 -0.018155 348071.000000 0 0 1
26.034073 18.819465 -3.530476 32.317325 0.625916 1.680259 0.049221 -0.017083 -718971.000000 0 0 1
25.787173 20.003865 -4.281176 32.915974 0.659766 1.701230 0.046816 -0.019829 278623.000000 0 0 1
26.101073 21.193965 -3.569376 33.811102 0.682013 1.676562 0.056605 0.009160 -355301.000000 0 0 1
25.889673 22.550465 -4.317576 34.604047 0.716572 1.695893 0.031534 0.010573 213664.000000 0 0 1
26.904973 23.081165 -5.171676 35.824070 0.709049 1.715666 0.019458 0.020022 278643.000000 0 0 1
27.283273 22.327365 -6.317276 35.816144 0.685832 1.748105 0.027481 0.011561 27396.100000 0 0 1
28.273973 23.020865 -7.255076 37.175447 0.683344 1.767215 0.015569 0.014193 -91270.000000 0 0 1
27.609473 24.060565 -7.938676 37.472875 0.716822 1.784265 0.004604 0.010412 829103.000000 0 0 1
28.512073 25.075565 -8.467776 38.902770 0.721357 1.790218 -0.001389 0.005902 442359.000000 0 0 1
29.565573 24.726165 -9.537176 39.704711 0.696496 1.813371 0.005394 -0.001707 -16639.600000 0 0 1
29.023573 24.314765 -10.779376 39.367125 0.697345 1.848155 0.007776 0.004354 213549.000000 0 0 1
30.112073 24.175965 -11.665476 40.339776 0.676486 1.864167 0.003185 0.003246 285289.000000 0 0 1
29.691573 23.519265 -13.066276 40.068353 0.669917 1.902971 -0.002134 0.001853 172074.000000 0 0 1
29.564473 24.429765 -14.134876 40.873784 0.690586 1.923906 0.021846 0.005270 227787.000000 0 0 1
29.122073 23.753265 -15.348676 40.594268 0.684208 1.958539 0.021396 0.003775 98744.800000 0 0 1
29.154273 24.583365 -16.648376 41.611079 0.700543 1.982417 0.021224 0.003010 -499474.000000 0 0 1
30.438973 25.056365 -16.970576 42.922639 0.688709 1.977273 0.013278 0.007760 -263431.000000 0 0 1
30.510773 25.410965 -18.314176 43.726805 0.694454 2.002955 0.019264 0.001284 855088.000000 0 0 1
31.920073 25.863265 -18.869076 45.208866 0.680960 2.001352 0.015271 -0.006869 714633.000000 0 0 1
32.827473 24.805865 -18.964976 45.306117 0.647103 2.002696 0.022686 -0.005152 -1013130.000000 0 0 1
34.129273 25.274965 -19.160376 46.591320 0.637436 1.994614 0.016540 -0.012462 -1115780.000000 0 0 1
35.058073 24.075265 -19.182576 46.654668 0.601761 1.994524 0.002194 -0.018052 -796457.000000 0 0 1
35.005473 23.259565 -20.367976 46.703800 0.586470 2.022067 0.009979 -0.011015 88756.100000 0 0 1
-34.150280 23.633765 -21.296576 46.672696 -0.605372 2.044625 0.029739 -0.016941 -269843.000000 0 0 1
-34.113480 22.716865 -22.518076 46.763759 -0.587486 2.073194 0.038434 -0.022064 -264548.000000 0 0 1
-33.869280 21.375765 -22.196376 45.790070 -0.562992 2.076865 0.012706 -0.021879 230218.000000 0 0 1
-33.573080 20.605965 -23.319776 45.777390 -0.550479 2.105303 0.012104 -0.014773 27337.700000 0 0 1
-33.228480 19.175965 -22.961776 44.711214 -0.523407 2.110122 -0.005037 -0.002106 1984.950000 0 0 1
-34.392880 18.397365 -22.713876 45.135943 -0.491190 2.098132 0.007581 -0.014643 318765.000000 0 0 1
-34.242580 17.020365 -22.951976 44.598658 -0.461287 2.111377 0.001734 -0.006020 380478.000000 0 0 1
34.629773 16.160465 -22.587076 44.390965 0.436625 2.104612 0.009036 -0.013008 203335.000000 0 0 1
33.593873 16.396465 -23.487476 44.148091 0.454065 2.131776 0.041995 -0.018858 214714.000000 0 0 1
32.453473 15.543165 -23.280276 42.857778 0.446656 2.145038 0.037246 -0.010877 354400.000000 0 0 1
32.551273 14.086765 -23.821276 42.725584 0.408422 2.162217 0.012097 -0.011167 -887940.000000 0 0 1
32.640673 14.213465 -25.197236 43.615786 0.410691 2.186716 0.016133 -0.000119 715612.000000 0 0 1
33.356773 13.068065 -25.742586 44.114956 0.373388 2.193870 0.009631 0.007877 183952.000000 0 0 1
33.258573 12.979565 -27.307416 44.947711 0.372084 2.223753 0.029071 0.007358 741319.000000 0 0 1
31.912973 12.665465 -27.743396 44.142359 0.377810 2.250417 0.018728 0.005907 1231450.000000 0 0 1
31.340373 13.689565 -28.528236 44.536316 0.411825 2.266025 0.019966 0.005529 -289291.000000 0 0 1
31.725373 13.691665 -30.038456 45.785039 0.407421 2.286404 0.019894 0.001143 -93148.600000 0 0 1
33.038973 14.194265 -30.211226 46.965616 0.405779 2.269548 0.015222 0.009316 339079.000000 0 0 1
33.542973 13.978365 -31.551386 48.125001 0.394845 2.285791 0.007558 0.006283 603329.000000 0 0 1
35.063473 14.356765 -31.652246 49.370320 0.388627 2.266752 0.015365 -0.000303 1234690.000000 0 0 1
-34.106580 13.430465 -31.132436 48.092252 -0.375132 2.274897 0.017328 0.003072 581305.000000 0 0 1
-34.017480 13.292365 -29.750746 47.106080 -0.372508 2.254372 0.019667 0.004438 -150645.000000 0 0 1
-32.919180 12.228565 -29.370166 45.780092 -0.355674 2.267312 0.015269 0.006307 353044.000000 0 0 1
-33.094980 10.919665 -29.968026 45.963021 -0.318702 2.281019 0.017667 -0.002488 73080.600000 0 0 1
-32.104580 9.995665 -29.602066 44.798434 -0.301834 2.292658 0.018081 -0.003284 -240789.000000 0 0 1
-32.384180 8.511265 -30.182036 45.079175 -0.257009 2.304377 0.035871 -0.009019 -403864.000000 0 0 1
-32.327080 8.345665 -31.640786 45.998147 -0.252647 2.329348 0.013303 -0.005106 247164.000000 0 0 1
-32.807380 7.099565 -32.201926 46.515503 -0.213115 2.335445 0.016706 -0.007459 -563805.000000 0 0 1
-34.228180 6.636365 -31.905346 47.260562 -0.191510 2.311889 0.027567 0.004359 -805012.000000 0 0 1
-34.256480 5.939665 -30.701896 46.383105 -0.171681 2.294173 0.034818 -0.002292 582069.000000 0 0 1
34.599273 5.443465 -30.378296 46.363584 0.156050 2.285269 0.033206 0.004802 261261.000000 0 0 1
34.681573 4.649765 -29.035566 45.469725 0.133275 2.263434 0.036349 -0.006688 300113.000000 0 0 1
-34.633380 3.489565 -29.079036 45.356790 -0.100418 2.266750 0.035641 -0.005055 751597.000000 0 0 1
35.062473 2.591865 -28.068616 44.988243 0.073787 2.244532 0.025938 0.001123 21450.800000 0 0 1
-34.197780 1.323565 -28.017286 44.229043 -0.038684 2.256812 0.050527 0.002468 269045.000000 0 0 1
-33.040880 1.454265 -27.200556 42.821547 -0.043986 2.259073 0.049080 -0.000041 250909.000000 0 0 1
-32.278480 0.258265 -27.201166 42.212207 -0.008001 2.271023 0.047608 -0.001728 173634.000000 0 0 1
-31.100080 0.248565 -26.203956 40.668465 -0.007992 2.270945 0.037004 -0.001382 128767.000000 0 0 1
-31.486180 0.069165 -24.878376 40.128766 -0.002197 2.239493 0.032595 -0.009748 251072.000000 0 0 1
-30.378880 0.368165 -24.045876 38.745529 -0.012119 2.240317 0.052230 -0.013658 155722.000000 0 0 1
-30.723080 0.278265 -22.525576 38.097069 -0.009057 2.203426 0.044856 -0.009663 -243896.000000 0 0 1
-30.872480 -1.045135 -21.993376 37.919796 0.033840 2.189522 0.049445 -0.018289 163426.000000 0 0 1
-31.368980 -1.159435 -20.655176 37.576502 0.036944 2.152781 0.035556 -0.013645 108920.000000 0 0 1
-32.879480 -0.978635 -20.371676 38.691383 0.029756 2.125295 0.021840 -0.008454 -4354.590000 0 0 1
-33.633780 -2.094935 -20.856076 39.630743 0.062206 2.124993 0.008324 -0.005062 924277.000000 0 0 1
-35.008580 -1.960135 -20.439376 40.585846 0.055932 2.098567 -0.001025 -0.000355 995558.000000 0 0 1
34.416973 -3.372835 -20.339276 40.119699 -0.097687 2.102456 -0.010762 0.001019 -140047.000000 0 0 1
34.003673 -4.049535 -21.485876 40.426370 -0.118533 2.131145 -0.009479 0.002392 -117258.000000 0 0 1
35.058173 -4.721735 -22.193776 41.760436 -0.133877 2.131113 -0.012263 -0.001620 -125072.000000 0 0 1
34.559373 -5.579235 -23.356776 42.083454 -0.160058 2.159172 -0.003236 -0.002044 -950038.000000 0 0 1
34.011173 -6.794335 -22.977376 41.603878 -0.197172 2.155904 -0.005162 0.007033 198669.000000 0 0 1
33.435273 -7.526235 -24.084676 41.888344 -0.221408 2.183368 -0.004458 0.006014 -25246.000000 0 0 1
32.029473 -7.121135 -24.515776 40.958772 -0.218772 2.212483 -0.025652 0.018104 -791607.000000 0 0 1
32.064073 -5.932335 -25.246056 41.239068 -0.182946 2.229621 -0.015653 0.010908 -803304.000000 0 0 1
30.767073 -5.575135 -25.578406 40.397398 -0.179259 2.256438 -0.024478 0.011850 -658265.000000 0 0 1
30.467773 -4.309635 -26.367006 40.522551 -0.140517 2.279269 0.009448 -0.022151 -70980.700000 0 0 1
30.692173 -4.607435 -27.771046 41.646956 -0.149005 2.300730 0.019404 -0.017921 241653.000000 0 0 1
30.142173 -3.573035 -28.533556 41.659105 -0.117989 2.325303 0.028551 -0.025321 -32234.200000 0 0 1
29.959773 -3.940935 -30.031026 42.602600 -0.130790 2.353093 0.039162 -0.020932 43321.700000 0 0 1
29.405173 -2.860235 -30.762076 42.651500 -0.096965 2.376391 0.038087 -0.033640 -86205.800000 0 0 1
29.082373 -3.275835 -32.045156 43.398244 -0.112167 2.401487 0.054754 -0.037075 -801279.000000 0 0 1
28.502873 -2.135135 -32.909956 43.589423 -0.074770 2.426448 0.058998 -0.044059 1838160.000000 0 0 1
27.268773 -1.482935 -32.361126 42.344156 -0.054329 2.440659 0.050757 -0.040670 2341080.000000 0 0 1
26.090573 -2.266035 -32.182666 41.491890 -0.086635 2.458521 0.063420 -0.038019 219530.000000 0 0 1
25.255373 -2.803035 -33.403646 41.970161 -0.110535 2.491273 0.055637 -0.038343 -199018.000000 0 0 1
25.979073 -3.711535 -34.227975 43.130523 -0.141906 2.487484 0.066130 -0.041574 284118.000000 0 0 1
25.340473 -3.843235 33.619345 42.274938 -0.150517 0.651369 0.048932 -0.037608 -147872.000000 0 0 1
26.034173 -4.984235 32.809223 42.178974 -0.189161 0.679547 0.035997 -0.038429 741403.000000 0 0 1
27.375473 -4.754935 32.370103 42.659694 -0.171977 0.709330 0.046101 -0.033270 496259.000000 0 0 1
27.607273 -3.806335 31.328993 41.930365 -0.137011 0.727007 0.058531 -0.038125 -410252.000000 0 0 1
28.299873 -2.509335 31.824733 42.661378 -0.088438 0.728784 0.047378 -0.035110 -643171.000000 0 0 1
29.613773 -2.624935 32.252563 43.864492 -0.088408 0.744721 0.036394 -0.029536 -558318.000000 0 0 1
30.217573 -1.366935 32.520193 44.413210 -0.045206 0.749222 0.028207 -0.023001 340575.000000 0 0 1
31.677573 -1.435035 33.053488 45.804596 -0.045270 0.764658 0.020489 -0.021713 548967.000000 0 0 1
32.582673 -1.788435 32.004993 45.707206 -0.054834 0.795094 0.029541 -0.015770 138302.000000 0 0 1
33.915573 -1.874835 32.487353 47.002226 -0.055223 0.807665 0.020030 -0.009921 244901.000000 0 0 1
34.891173 -2.398235 31.420163 47.014595 -0.068627 0.838866 -0.014396 -0.004619 -76386.300000 0 0 1
34.992673 -1.571235 30.279783 46.301417 -0.044872 0.857975 -0.018152 0.004473 68242.500000 0 0 1
-34.071580 -1.910335 29.437823 45.067808 0.056010 0.859007 -0.019344 0.004399 28657.900000 0 0 1
-34.149280 -1.321135 27.970773 44.162007 0.038668 0.884899 -0.017376 0.011512 292589.000000 0 0 1
34.941873 -1.781835 27.111293 44.262079 -0.050950 0.911555 -0.008774 -0.003807 101527.000000 0 0 1
-34.832080 -1.669235 25.763813 43.357054 0.047886 0.934496 -0.001742 0.002378 -455694.000000 0 0 1
-26.186797 15.713265 12.448724 32.979171 -0.540453 1.183731 0.018927 0.009264 267091.000000 0 0 1
-27.296057 15.047065 13.061024 33.794663 -0.503806 1.173982 -0.019986 0.012568 459885.000000 0 0 1
-27.995617 15.883765 13.932624 35.073730 -0.516078 1.162291 -0.008009 0.000488 350783.000000 0 0 1
-29.444997 15.344765 14.201224 36.112940 -0.480411 1.166638 -0.005008 0.002652 674312.000000 0 0 1
-30.261627 16.090365 15.040224 37.428254 -0.488691 1.157269 0.000792 -0.005255 -367003.000000 0 0 1
-31.550157 15.549565 15.221024 38.325982 -0.457913 1.162391 -0.002292 0.014080 -246554.000000 0 0 1
-32.435477 16.354065 16.205524 39.776056 -0.467004 1.151170 0.021411 0.003758 -201155.000000 0 0 1
-31.896487 16.348065 17.521024 39.895255 -0.473625 1.116115 0.018306 0.007776 104169.000000 0 0 1
-32.808977 16.745365 18.525324 41.231345 -0.471925 1.104812 0.015806 0.001931 -379713.000000 0 0 1
-32.184577 16.965865 19.877024 41.458215 -0.485125 1.070772 0.007355 0.001431 -309672.000000 0 0 1
-31.641107 15.817565 20.532324 40.901483 -0.463572 1.044893 0.002446 -0.000974 1131210.000000 0 0 1
-30.315267 16.098665 21.062124 40.271522 -0.488171 1.020426 0.003645 -0.003535 1259810.000000 0 0 1
-30.278617 16.770565 22.416224 41.237526 -0.505813 0.996090 0.013494 -0.009160 -621549.000000 0 0 1
-30.780997 18.127565 22.430624 42.180698 -0.532233 1.010102 0.003426 0.000507 329499.000000 0 0 1
-31.096017 18.659165 23.706224 43.325648 -0.540456 0.991824 0.000107 -0.009970 -1365050.000000 0 0 1
-31.973587 17.883765 24.699124 44.183549 -0.509978 0.977603 -0.011108 -0.004641 -559718.000000 0 0 1
-33.207597 17.466465 24.191524 44.643608 -0.484213 0.998123 0.006025 -0.004824 -284883.000000 0 0 1
-34.186625 18.451465 23.952724 45.638962 -0.494922 1.018280 -0.000977 -0.007681 -963847.000000 0 0 1
34.614379 17.819865 23.552124 45.501707 0.475426 1.026741 -0.026050 -0.005024 -59212.100000 0 0 1
34.099461 17.213765 24.694924 45.485450 0.467489 0.996887 -0.011188 -0.003299 904092.000000 0 0 1
32.985086 16.277665 24.467224 44.177181 0.458423 0.983824 0.007942 -0.004044 1389490.000000 0 0 1
32.440836 15.441265 25.670724 44.156840 0.444250 0.950405 0.010077 -0.000495 18435.400000 0 0 1
31.601396 16.236365 26.502924 44.324629 0.474616 0.929883 0.012628 0.001881 216527.000000 0 0 1
31.570046 15.904065 27.826324 44.987902 0.466660 0.903927 0.001863 0.012729 -2905.730000 0 0 1
30.660316 14.715365 28.256824 44.215891 0.447478 0.877514 0.003994 0.017127 114219.000000 0 0 1
31.157926 13.504165 27.682924 43.812362 0.408973 0.886856 -0.006532 0.005230 627220.000000 0 0 1
30.152776 12.493765 27.796824 42.871289 0.392814 0.865344 -0.006989 0.009613 96024.100000 0 0 1
30.593306 11.148165 27.214624 42.436631 0.349444 0.874605 -0.001624 0.013669 853125.000000 0 0 1
31.615196 10.522165 28.055924 43.558827 0.321288 0.870960 -0.007356 0.011742 863094.000000 0 0 1
32.121946 9.313565 27.612324 43.370524 0.282206 0.880636 -0.013595 0.008735 -23328.100000 0 0 1
33.093596 8.523365 28.554224 44.532881 0.252075 0.874743 -0.012635 0.014531 371357.000000 0 0 1
34.312645 9.244165 28.724824 45.693847 0.263162 0.890998 -0.006506 0.009742 -926037.000000 0 0 1
-35.008157 8.330665 29.266024 46.383954 -0.233619 0.888017 -0.018321 0.006177 -879070.000000 0 0 1
-33.589397 8.858765 29.589124 45.631585 -0.257865 0.865269 -0.014941 0.003858 6617.630000 0 0 1
-32.935827 9.260565 28.415524 44.474361 -0.274093 0.877704 -0.010371 0.003234 -831825.000000 0 0 1
-31.742057 9.867165 28.759524 43.954856 -0.301385 0.857544 0.003849 -0.000171 -1017970.000000 0 0 1
-30.998917 10.587165 27.671924 42.880721 -0.329112 0.869350 0.010114 -0.003644 -405507.000000 0 0 1
-30.360307 9.723965 26.755424 41.619183 -0.309962 0.872566 0.012460 -0.004847 65842.600000 0 0 1
-29.506067 10.457465 25.896924 40.627789 -0.340605 0.879652 0.009039 -0.007024 -171289.000000 0 0 1
-28.698647 9.443565 25.028524 39.232898 -0.317899 0.878966 0.003864 -0.013636 -111084.000000 0 0 1
-27.801547 10.001765 24.079524 38.115414 -0.345339 0.886984 -0.004460 -0.021164 610492.000000 0 0 1
-27.061827 8.913565 23.462724 36.909261 -0.318186 0.881899 -0.015657 -0.005424 674826.000000 0 0 1
-25.900747 9.267465 22.481624 35.526863 -0.343613 0.885624 -0.016770 0.000847 -676030.000000 0 0 1
-24.719127 9.748165 23.030524 35.163432 -0.375632 0.856671 -0.012440 -0.010792 77131.400000 0 0 1
-23.825727 10.393665 22.122124 34.133296 -0.411350 0.865697 -0.020972 0.001251 337648.000000 0 0 1
-23.165327 9.639065 20.948024 32.685832 -0.394307 0.875139 -0.030400 0.014817 -990488.000000 0 0 1
-24.102527 9.336865 19.948324 32.650336 -0.369581 0.913513 -0.025590 0.014978 161962.000000 0 0 1
-23.632627 8.543765 18.857524 31.418198 -0.346904 0.927032 -0.019228 0.020530 -397202.000000 0 0 1
-23.607527 6.999865 19.107124 31.167220 -0.288252 0.910879 -0.023871 0.029952 -468386.000000 0 0 1
-22.510327 6.667065 19.947724 30.807081 -0.287947 0.866491 -0.025427 0.023105 719881.000000 0 0 1
-22.371627 5.305765 20.351124 30.705196 -0.232863 0.846257 -0.016657 0.018476 -260065.000000 0 0 1
-22.200327 4.234365 19.241824 29.682186 -0.188471 0.865497 -0.008163 0.018142 -368854.000000 0 0 1
-23.404627 4.117165 18.491124 30.110617 -0.174131 0.909543 0.000376 0.024315 723622.000000 0 0 1
-23.443627 3.284065 17.292524 29.315868 -0.139178 0.939900 0.001531 0.021913 -383467.000000 0 0 1
-23.518627 1.716165 17.487224 29.357691 -0.072841 0.932708 -0.001998 0.021222 -350284.000000 0 0 1
-22.335527 1.035465 17.847624 28.609188 -0.046326 0.897147 -0.025660 0.027872 165550.000000 0 0 1
-22.509227 -0.252935 18.404524 29.076722 0.011236 0.885420 -0.016273 0.022960 -357033.000000 0 0 1
-21.188227 -0.997135 18.671624 28.258888 0.047026 0.848999 -0.008115 0.021157 -12222.300000 0 0 1
-20.383927 -0.547235 19.759124 28.394135 0.026840 0.801141 -0.019672 0.023926 -213543.000000 0 0 1
-19.504327 -1.538735 20.156024 28.090065 0.078729 0.770518 -0.022327 0.014655 -744427.000000 0 0 1
-18.508827 -1.179935 21.231224 28.191023 0.063664 0.718005 -0.025562 0.014088 -335810.000000 0 0 1
-19.093927 -0.883535 22.445124 29.481219 0.046240 0.705425 -0.026374 0.009055 -1040870.000000 0 0 1
-18.146027 -0.864635 23.431524 29.648983 0.047613 0.659502 -0.012682 0.001719 -617081.000000 0 0 1
-18.726627 -0.768435 24.866724 31.138899 0.041011 0.645874 -0.005808 0.002193 103035.000000 0 0 1
-19.386327 0.422565 25.230124 31.820864 -0.021794 0.655276 0.008165 -0.009711 -1083020.000000 0 0 1
-20.625827 0.075565 25.719724 32.968692 -0.003664 0.675930 0.000620 -0.009193 -1043110.000000 0 0 1
-21.198827 1.326865 26.553124 34.003224 -0.062510 0.674691 0.014387 -0.016720 -316191.000000 0 0 1
-21.359527 2.551465 25.881124 33.653706 -0.118890 0.693455 0.008714 -0.011163 936442.000000 0 0 1
-22.500927 2.568665 24.995024 33.728934 -0.113666 0.736155 0.005083 0.000278 5231.110000 0 0 1
-22.352927 3.632965 23.813824 32.862592 -0.161119 0.760272 -0.004707 -0.001533 -81696.700000 0 0 1
-21.737327 3.195865 22.588724 31.511512 -0.145976 0.771536 -0.021201 0.007079 2005950.000000 0 0 1
-20.306327 2.930965 22.745224 30.631400 -0.143348 0.733933 -0.017603 0.009145 1264690.000000 0 0 1
-19.575327 2.152365 21.591824 29.223842 -0.109513 0.739445 -0.019983 0.013721 -75079.800000 0 0 1
-19.201227 2.914065 20.463624 28.212387 -0.150615 0.759266 -0.020419 0.022273 204999.000000 0 0 1
-18.780427 2.161965 19.359124 27.058348 -0.114613 0.773516 -0.015017 0.010394 -125422.000000 0 0 1
-18.336527 3.091765 18.208824 26.025920 -0.167041 0.795900 -0.016531 0.014504 1056300.000000 0 0 1
-17.011327 3.684165 18.237724 25.210571 -0.213278 0.762059 -0.013628 0.004081 1010510.000000 0 0 1
-16.804327 4.412765 17.014424 24.317658 -0.256799 0.795856 -0.008371 0.013648 -500331.000000 0 1 0
-15.451827 5.056565 16.737424 23.333863 -0.316263 0.770874 0.006680 0.014674 -234807.000000 0 1 0
-14.924227 6.107665 17.631424 23.893581 -0.388451 0.740821 -0.000094 0.016785 192966.000000 0 1 0
-15.569427 7.325665 17.597324 24.611750 -0.439783 0.774177 -0.004045 0.009892 -224309.000000 0 1 0
-14.946127 8.311665 16.501924 23.765184 -0.507521 0.803247 -0.007361 0.020521 387929.000000 0 1 0
-15.411927 8.016565 15.195324 23.080092 -0.479640 0.852140 -0.005586 0.022030 1039400.000000 0 1 0
-16.789327 8.332465 14.902724 23.945827 -0.460679 0.899053 -0.004848 0.026741 590817.000000 0 1 0
-17.186127 7.539265 13.720424 23.247656 -0.413403 0.939508 -0.007523 0.026821 -364893.000000 0 1 0
-17.163227 6.100065 13.818824 22.863662 -0.341491 0.921782 0.003846 0.017552 324384.000000 0 1 0
-17.519727 5.436265 12.657024 22.286634 -0.300874 0.966820 -0.000558 0.009595 -315427.000000 0 1 0
-17.062627 4.006965 12.720824 21.656601 -0.230659 0.942969 -0.007219 0.011783 -41224.900000 0 1 0
-17.825427 3.236765 13.670624 22.696001 -0.179624 0.924372 -0.005995 0.011932 732736.000000 0 1 0
-17.427627 1.860265 13.607824 22.189088 -0.106340 0.910607 -0.003501 0.004132 -616691.000000 0 1 0
-18.232327 0.953465 14.510624 23.321343 -0.052248 0.899242 -0.000385 0.003260 384460.000000 0 1 0
-19.584727 0.816065 14.100524 24.146475 -0.041644 0.947201 0.012585 0.008749 882325.000000 0 1 0
-20.553527 0.334365 14.995324 25.444430 -0.016267 0.940559 0.005570 0.011974 -445080.000000 0 0 1
-21.944827 0.014865 14.504124 26.304852 -0.000677 0.986772 0.011150 0.011271 -739297.000000 0 0 1
-22.008727 -1.169235 13.826624 26.017815 0.053076 1.010510 0.026355 0.000884 407114.000000 0 0 1
-23.273327 -1.393735 13.240824 26.812491 0.059814 1.054307 0.023958 -0.006522 -80380.100000 0 0 1
-23.277527 -2.665535 12.388924 26.503467 0.114014 1.084398 0.027664 -0.012678 -218726.000000 0 0 1
-22.972027 -3.890335 13.042624 26.701288 0.167759 1.060467 0.038627 -0.015377 223706.000000 0 0 1
-22.658227 -4.906135 12.138924 26.169044 0.213236 1.088442 0.046712 -0.022895 -314130.000000 0 0 1
-22.670127 -6.208035 12.900324 26.812175 0.267289 1.068845 0.049850 -0.025960 590133.000000 0 0 1
-23.923027 -6.672135 13.431624 28.235388 0.271989 1.075035 0.030638 -0.022199 849277.000000 0 0 1
-23.781727 -8.007135 13.878324 28.675645 0.324771 1.065604 0.041815 -0.028838 29607.100000 0 0 1
-24.719427 -8.291935 15.081824 30.120884 0.323647 1.046378 0.042271 -0.019495 932047.000000 0 0 1
-26.086367 -7.925135 14.835824 31.038814 0.294943 1.072447 0.026460 -0.020080 1411570.000000 0 0 1
-26.948327 -8.048635 15.994324 32.354463 0.290235 1.053713 0.022983 -0.015315 200602.000000 0 0 1
-28.411247 -7.584835 15.797824 33.381131 0.260882 1.077813 0.017633 -0.017480 -33964.500000 0 0 1
-29.189127 -8.217935 14.806624 33.745751 0.274437 1.116567 0.009969 -0.010344 483392.000000 0 0 1
-29.519857 -9.633435 14.818624 34.406637 0.315441 1.125538 0.012519 -0.011435 -358753.000000 0 0 1
-29.979367 -10.381235 16.121324 35.586930 0.333356 1.100655 0.011964 -0.010967 -419028.000000 0 0 1
-28.970997 -10.366735 17.106324 35.205315 0.343635 1.063402 0.018054 -0.003828 59268.900000 0 0 1
-29.301737 -11.138335 18.224724 36.260100 0.363257 1.044180 0.022460 0.006673 -69959.700000 0 0 1
-28.125427 -11.399035 19.190624 35.906235 0.385061 1.006922 0.028254 0.013088 468681.000000 0 0 1
-27.057737 -12.197635 18.669324 35.063472 0.423519 1.009311 0.041467 0.005871 446897.000000 0 0 1
-25.907047 -11.944335 19.461124 34.533716 0.432002 0.972132 0.034568 0.002479 -298528.000000 0 0 1
-24.750327 -12.902735 19.263624 33.913809 0.480554 0.966702 0.049977 0.003305 -389177.000000 0 0 1
-23.963227 -12.523935 18.139024 32.559321 0.481588 0.979898 0.039956 0.007085 620714.000000 0 0 1
-22.891027 -13.455835 17.881024 32.012336 0.531417 0.978140 0.037421 0.000413 536343.000000 0 0 1
-22.493427 -13.275135 16.368024 30.823622 0.533166 1.010990 0.045179 -0.008232 -172552.000000 0 0 1
-21.871627 -12.039535 16.096224 29.705335 0.503199 0.998144 0.046376 -0.013729 -131735.000000 0 0 1
-21.678527 -11.903635 14.705024 28.773126 0.502150 1.034369 0.060389 -0.017873 155656.000000 0 0 1
-20.486627 -11.067935 14.187224 27.266800 0.495328 1.023581 0.041929 -0.019449 -250381.000000 0 0 1
-20.694127 -9.685335 14.090524 26.843909 0.437741 1.018192 0.035082 -0.021379 -219212.000000 0 0 1
-19.563827 -8.964635 13.687624 25.504099 0.429673 1.004295 0.033328 -0.019776 -532465.000000 0 0 1
-19.139027 -9.079335 12.221124 24.455931 0.442949 1.047521 0.038428 -0.008308 -510371.000000 0 1 0
-18.478827 -10.258535 11.882924 24.246824 0.506789 1.058613 0.017385 -0.010767 104465.000000 0 1 0
-18.449527 -10.460435 10.499224 23.665153 0.515783 1.111121 0.039059 0.001432 -737553.000000 0 1 0
-17.862927 -11.886035 10.117424 23.721810 0.587127 1.130173 0.030624 0.007933 2294130.000000 0 1 0
-16.412927 -12.106735 10.056424 22.739588 0.635540 1.112698 0.027517 -0.004610 1881680.000000 0 1 0
-15.678327 -11.805735 11.220624 22.607249 0.645417 1.051432 0.017143 -0.008573 -430956.000000 0 1 0
-14.200227 -12.250935 11.042224 21.763790 0.711837 1.038670 0.018951 -0.011500 165722.000000 0 1 0
-13.909827 -13.606435 10.871524 22.289199 0.774373 1.061288 0.008745 -0.013286 668060.000000 0 1 0
-12.501227 -13.843335 10.740124 21.523682 0.836299 1.048362 0.020312 -0.017477 826317.000000 0 1 0
-12.270627 -15.342535 10.708324 22.374760 0.896191 1.071749 0.022965 -0.013711 -38749.700000 0 1 0
-12.626027 -15.976135 9.474124 22.459129 0.901995 1.135324 0.006418 -0.011053 188747.000000 0 1 0
-12.411527 -17.369835 9.630024 23.419960 0.950375 1.147039 -0.002292 -0.008001 32759.500000 0 1 0
-12.722927 -18.090935 8.307524 23.625617 0.957875 1.211482 -0.008030 -0.006215 -813071.000000 0 1 0
-11.768627 -17.835535 7.338224 22.593283 0.987534 1.240000 -0.004495 -0.011030 -460900.000000 0 1 0
-12.042127 -18.594235 6.214524 23.008232 0.996091 1.297299 -0.015675 -0.001878 -350257.000000 0 1 0
-11.129827 -18.439735 4.977024 22.105829 1.027750 1.343704 -0.004783 -0.001873 -479966.000000 0 1 0
-11.488327 -19.247235 3.824124 22.738990 1.032673 1.401819 -0.000883 -0.004584 245717.000000 0 1 0
-10.648927 -19.130935 2.689024 22.059537 1.062874 1.448594 0.005204 -0.010987 -193443.000000 0 1 0
-11.159727 -20.054335 1.606024 23.006416 1.062996 1.500932 0.015223 -0.004285 -14593.800000 0 1 0
-10.771327 -21.389435 1.778024 24.014387 1.104288 1.496689 0.001895 -0.009359 -56185.800000 0 1 0
-11.320427 -22.338235 0.862824 25.057799 1.101745 1.536356 0.015958 -0.010275 -524134.000000 0 0 1
-10.433227 -22.633835 -0.310476 24.924669 1.138868 1.583253 0.032675 -0.005959 -458566.000000 0 1 0
-10.133827 -21.649735 -1.214276 23.934911 1.133009 1.621551 0.022184 -0.009196 -294907.000000 0 1 0
-10.972627 -21.489735 -2.318076 24.240065 1.098706 1.666573 0.026464 -0.005863 864465.000000 0 1 0
-12.151327 -20.407635 -2.272476 23.859809 1.033744 1.666184 0.025020 -0.005846 806107.000000 0 1 0
-13.069527 -20.649135 -1.249076 24.469563 1.006512 1.621865 0.023938 0.000739 -258847.000000 0 1 0
-14.090727 -19.666335 -1.311876 24.228792 0.949089 1.624968 0.028372 0.006881 222179.000000 0 1 0
26.158973 -21.007335 -4.377676 33.834362 -0.676607 1.700546 0.017881 0.008218 -740560.000000 0 0 1
24.929073 -20.702935 -3.797076 32.626492 -0.693048 1.687441 0.027736 0.008913 -436042.000000 0 0 1
24.636373 -21.434635 -2.644676 32.762613 -0.716014 1.651607 -0.003517 0.001509 -813332.000000 0 0 1
23.149473 -21.511235 -2.343276 31.687889 -0.748733 1.644813 -0.010281 0.002491 -697490.000000 0 0 1
22.410773 -22.335135 -3.196676 31.801254 -0.783708 1.671487 0.003842 0.002217 -685982.000000 0 0 1
21.408473 -23.007235 -2.511976 31.527220 -0.821378 1.650557 0.009639 0.009717 27089.500000 0 0 1
20.328873 -23.751635 -3.383776 31.446036 -0.862891 1.678611 0.014144 0.000640 313158.000000 0 0 1
19.620473 -22.790635 -4.098276 30.350814 -0.860008 1.706240 0.021743 0.000800 -890341.000000 0 0 1
18.677173 -23.379835 -4.946376 30.330185 -0.896752 1.734612 0.030917 -0.005387 -699230.000000 0 0 1
17.741873 -22.354835 -5.543976 29.073156 -0.899941 1.762662 0.022895 0.010347 -868105.000000 0 0 1
16.740273 -21.814335 -4.725276 27.900362 -0.916253 1.740979 0.017668 0.016290 -152490.000000 0 0 1
17.171773 -21.027635 -3.674376 27.395844 -0.885998 1.705323 0.012213 0.005659 -788646.000000 0 0 1
16.103573 -20.494635 -2.679476 26.201808 -0.904808 1.673238 0.018444 0.014241 -166248.000000 0 0 1
15.766673 -21.455635 -1.740876 26.682633 -0.937062 1.636086 0.017995 0.008883 -229624.000000 0 0 1
15.020473 -20.768735 -0.783676 25.643111 -0.944652 1.601362 0.022979 0.014084 -219555.000000 0 0 1
14.552373 -21.521935 0.504924 25.985000 -0.976247 1.551364 0.015369 0.007380 -404449.000000 0 0 1
13.541973 -22.461535 0.340724 26.230168 -1.028250 1.557806 0.019329 0.001583 -604102.000000 0 0 1
12.854973 -22.682135 1.514024 26.115548 -1.055188 1.512790 0.021301 -0.005008 -282413.000000 0 0 1
11.905773 -23.872035 1.611524 26.724867 -1.108163 1.510459 0.023683 -0.007878 132593.000000 0 0 1
12.576073 -25.094645 1.852624 28.130607 -1.106233 1.504891 0.013237 -0.009643 127105.000000 0 0 1
11.673473 -26.130955 1.574424 28.663140 -1.150665 1.515840 0.015524 -0.003581 138057.000000 0 0 1
12.043873 -27.559405 2.094124 30.148981 -1.158793 1.501281 0.011453 -0.008993 -77255.700000 0 0 1
11.756373 -27.619125 3.454924 30.215309 -1.168366 1.456202 0.033330 -0.016101 77760.000000 0 0 1
12.114373 -28.814535 4.086924 31.523617 -1.172806 1.440784 0.032677 -0.016252 -481731.000000 0 0 1
11.487073 -29.048065 5.482824 31.714418 -1.194218 1.397042 0.029675 -0.015404 -224273.000000 0 0 1
12.155373 -30.033165 6.262224 32.999387 -1.186218 1.379871 0.018973 -0.012199 -248021.000000 0 0 1
11.560773 -30.314015 7.507324 33.300915 -1.206455 1.343403 0.010327 -0.012839 -828555.000000 0 0 1
12.381373 -31.266415 8.315624 34.641546 -1.193746 1.328381 0.012350 -0.004940 -515913.000000 0 0 1
11.917273 -31.697805 9.628424 35.206233 -1.211180 1.293781 0.015069 -0.004747 -108574.000000 0 0 1
11.058673 -32.821685 9.472424 35.906602 -1.245811 1.303829 0.014539 -0.001830 355577.000000 0 0 1
10.629173 -33.361635 10.905424 36.672964 -1.262360 1.268860 0.011029 -0.000828 -413760.000000 0 0 1
11.747273 -33.861405 11.581424 37.665934 -1.236866 1.258255 0.012945 -0.003436 -221218.000000 0 0 1
11.630873 -34.195675 13.013424 38.392325 -1.242944 1.224986 0.020646 0.001910 116186.000000 0 0 1
10.549773 34.089049 13.363724 38.104463 1.270668 1.212464 0.016594 0.003415 300298.000000 0 0 1
10.921173 32.793948 12.787024 36.854077 1.249324 1.216465 0.019889 0.005537 402539.000000 0 0 1
9.894673 31.832968 12.974924 35.771372 1.269433 1.199613 0.011260 0.013240 18890.600000 0 0 1
9.870273 30.733268 11.859824 34.389119 1.260042 1.218695 0.004505 0.015574 -169522.000000 0 0 1
9.574573 31.069778 10.469024 34.155585 1.271867 1.259272 0.001769 0.009476 192498.000000 0 0 1
10.569173 31.778608 9.740624 34.877888 1.249717 1.287754 -0.001921 0.005635 101611.000000 0 0 1
10.038873 32.230428 8.338724 34.772313 1.268848 1.328627 -0.007288 0.009741 -357488.000000 0 0 1
8.988773 33.119028 8.523524 35.359843 1.305773 1.327348 -0.001286 0.005553 -739526.000000 0 0 1
8.425773 33.467180 7.289224 35.272916 1.324160 1.362644 -0.009194 0.000842 -265135.000000 0 0 1
8.910273 -34.624211 6.481024 36.335006 -1.318919 1.391468 -0.004771 0.008589 13965.700000 0 0 1
8.260573 -33.439875 6.935924 35.136439 -1.328617 1.372092 0.001097 0.007390 211691.000000 0 0 1
8.696473 -32.340805 6.198324 34.058414 -1.308109 1.387785 0.014919 -0.009636 -293977.000000 0 0 1
8.007273 -31.032205 6.577624 32.716652 -1.318273 1.368368 0.013785 -0.008753 -390834.000000 0 0 1
8.141473 -30.588565 7.912824 32.627545 -1.310666 1.325834 0.021088 -0.009873 -46743.700000 0 0 1
7.540073 -29.308375 8.151724 31.341413 -1.318990 1.307676 0.031181 -0.008239 -302753.000000 0 0 1
8.273673 -28.092285 7.600324 30.255497 -1.284377 1.316872 0.039686 -0.012220 -396978.000000 0 0 1
9.241973 -27.659655 8.529424 30.384563 -1.248327 1.286257 0.032518 -0.011351 -26447.600000 0 0 1
10.113073 -26.581315 8.194624 29.597169 -1.207249 1.290259 0.028851 -0.016370 284013.000000 0 0 1
9.584773 -25.292925 7.487524 28.065334 -1.208566 1.300737 0.035229 -0.016037 -286634.000000 0 0 1
9.328873 -25.519195 6.110624 27.849541 -1.220325 1.349581 0.041768 -0.018007 252323.000000 0 0 1
8.387073 -24.574235 5.532624 26.548935 -1.241897 1.360864 0.032672 -0.015228 885162.000000 0 0 1
7.947473 -24.933535 4.093224 26.487695 -1.262231 1.415642 0.041623 -0.010286 392094.000000 0 0 1
7.194073 -26.154975 3.893224 27.404281 -1.302378 1.428248 0.025085 -0.005907 -219045.000000 0 0 1
7.856773 -27.359285 4.100124 28.758832 -1.291151 1.427740 0.035632 -0.004086 -261109.000000 0 0 1
6.990073 -28.557795 3.690724 29.631575 -1.330747 1.445918 0.035111 -0.005649 255156.000000 0 0 1
5.806373 -28.756115 4.467924 29.674745 -1.371557 1.419658 0.023295 0.003997 -120013.000000 0 0 1
4.817473 -29.433835 3.766424 30.062346 -1.408564 1.445179 0.010753 0.010939 -167865.000000 0 0 1
4.749973 -30.943845 4.067424 31.569412 -1.418482 1.441597 0.016055 0.004272 -501947.000000 0 0 1
5.819073 -31.702155 3.605324 32.432802 -1.389263 1.459403 0.013565 0.006240 -480467.000000 0 0 1
5.555973 -33.091365 3.845624 33.774193 -1.404450 1.456686 0.001754 0.006290 -326690.000000 0 0 1
6.565373 -34.068853 3.294724 34.851773 -1.380421 1.476120 -0.002536 0.000932 -400193.000000 0 0 1
6.522573 -34.102131 1.878524 34.771083 -1.381813 1.516745 0.005970 0.002731 -36334.800000 0 0 1
7.482773 34.319840 1.412724 35.154503 1.356125 1.530599 0.001269 0.000770 -368472.000000 0 0 1
7.151373 33.654506 0.056724 34.405975 1.361417 1.569148 0.015778 0.004437 1048660.000000 0 0 1
5.980873 32.801518 0.041724 33.342348 1.390442 1.569545 -0.001842 0.005600 1162120.000000 0 0 1
4.726973 33.497721 -0.067276 33.829663 1.430609 1.572785 -0.002163 0.002527 476315.000000 0 0 1
3.521073 32.533048 0.040024 32.723062 1.462985 1.569573 -0.002944 0.003931 -17960.600000 0 0 1
3.434273 31.663998 -1.065776 31.867521 1.462759 1.604247 -0.004393 0.003720 255616.000000 0 0 1
2.464773 30.672778 -0.679676 30.779155 1.490612 1.592880 -0.010563 -0.002575 324069.000000 0 0 1
2.337873 29.533668 -1.676176 29.673435 1.491801 1.627314 -0.008382 0.001050 -48367.200000 0 0 1
1.858673 30.012768 -2.930776 30.212752 1.508946 1.667954 -0.001490 -0.007845 7121.120000 0 0 1
1.799173 29.033078 -3.960576 29.357159 1.508906 1.706119 0.003274 -0.013288 -162388.000000 0 0 1
1.688273 29.578538 -5.359876 30.107614 1.513781 1.749774 0.002449 -0.013764 619356.000000 0 0 1
0.400973 30.182788 -5.549876 30.691409 1.557512 1.752625 0.005972 -0.010770 512380.000000 0 0 1
0.293973 30.979708 -6.764976 31.711096 1.561307 1.785780 0.002832 -0.005331 62781.600000 0 0 1
0.235973 30.240068 -8.139876 31.317327 1.562993 1.833732 0.012735 -0.010226 -252144.000000 0 0 1
-0.961827 29.467568 -8.237976 30.612529 -1.538168 1.843260 0.021084 -0.004151 519891.000000 0 0 1
-1.376927 29.161238 -9.582476 30.726171 -1.523614 1.887954 0.030259 -0.014329 -23183.300000 0 0 1
-1.514827 30.314428 -10.642176 32.163880 -1.520867 1.908025 0.014786 -0.017666 -465954.000000 0 0 1
-0.359027 31.048948 -11.043276 32.956335 -1.559234 1.912495 0.013847 -0.017942 -200329.000000 0 0 1
-0.526927 32.222308 -11.795776 34.317563 -1.554445 1.921676 0.001814 -0.017971 -442098.000000 0 0 1
-0.795327 33.452565 -10.922676 35.199595 -1.547026 1.886312 -0.006215 -0.007856 -52309.700000 0 0 1
0.229873 33.773271 -9.994776 35.221900 1.563990 1.858516 -0.004999 -0.017044 -178382.000000 0 0 1
-0.221827 34.443711 -8.831676 35.558641 -1.564356 1.821793 -0.002303 -0.005592 -163322.000000 0 0 1
0.826373 34.666400 -7.696176 35.520041 1.546963 1.789200 0.010508 -0.013579 300347.000000 0 0 1
1.680573 -33.586345 -7.971876 34.560349 -1.520801 1.803558 0.020409 -0.006780 -623456.000000 0 0 1
2.609873 -33.366585 -6.966376 34.185828 -1.492737 1.776013 0.013367 -0.016786 -880385.000000 0 0 1
3.859273 -32.602585 -7.501976 33.676434 -1.452971 1.795448 -0.005057 -0.009436 319416.000000 0 0 1
4.737673 -33.361665 -8.309476 34.705816 -1.429730 1.812571 0.002980 -0.006131 -183233.000000 0 0 1
5.549373 -34.215995 -7.551976 35.476221 -1.410010 1.785312 0.019853 0.000912 -1056270.000000 0 0 1
6.112673 33.928757 -8.412776 35.486619 1.392546 1.810144 0.026147 0.005242 -529108.000000 0 0 1
5.235473 32.890778 -8.736676 34.431715 1.412943 1.827340 0.022781 0.002079 -1024680.000000 0 0 1
4.282273 33.163518 -9.698976 34.817049 1.442381 1.853101 0.031588 -0.005357 -457814.000000 0 0 1
3.356273 31.958138 -9.887876 33.620786 1.466159 1.869310 0.020688 -0.013823 -136884.000000 0 0 1
3.976473 30.806238 -10.418576 32.762530 1.442426 1.894419 0.011225 -0.009788 -95667.800000 0 0 1
3.098173 29.708528 -10.378676 31.621389 1.466886 1.905212 0.011697 -0.012712 111439.000000 0 0 1
3.697473 28.623238 -11.300676 30.994618 1.442330 1.944001 0.011074 -0.008506 194331.000000 0 0 1
3.644673 28.964588 -12.682376 31.828818 1.445622 1.980629 0.015547 -0.009269 250241.000000 0 0 1
4.979173 29.032528 -13.177476 32.269579 1.400946 1.991449 0.012845 -0.003969 365645.000000 0 0 1
4.915373 29.537958 -14.625676 33.325100 1.405899 2.025147 0.017956 -0.006824 -251281.000000 0 0 1
4.226073 28.664478 -15.487376 32.853779 1.424418 2.061677 0.019805 -0.010225 -236542.000000 0 0 1
4.077573 29.258118 -16.784976 33.976455 1.432323 2.087501 0.027915 -0.010746 -88831.500000 0 0 1
3.022073 28.633758 -17.691276 33.793583 1.465643 2.121762 0.021945 -0.009969 49496.100000 0 0 1
3.496073 27.383868 -18.177376 33.053226 1.443814 2.153092 0.025080 -0.008005 -237059.000000 0 0 1
2.695873 26.940328 -19.237476 33.213393 1.471060 2.188554 0.029797 -0.013036 147672.000000 0 0 1
3.259373 25.705808 -20.046076 32.760605 1.444674 2.229252 0.037050 -0.013738 239483.000000 0 0 1
3.233773 24.482738 -19.457976 31.440016 1.439473 2.238128 0.039617 -0.016325 73000.100000 0 0 1
4.094773 23.499638 -20.050376 31.161157 1.398280 2.269782 0.036970 -0.009479 444517.000000 0 0 1
4.446373 22.383938 -19.029676 29.714298 1.374708 2.265843 0.043331 -0.018265 186579.000000 0 0 1
3.372573 21.470138 -18.862076 28.777057 1.414987 2.285582 0.053739 -0.013426 97773.200000 0 0 1
3.804373 20.512038 -17.913176 27.497251 1.387410 2.280295 0.045003 -0.010062 249813.000000 0 0 1
2.827073 19.330938 -17.765076 26.405974 1.425580 2.308739 0.042780 -0.016429 -602989.000000 0 0 1
1.773473 19.512138 -16.910576 25.881196 1.480155 2.282853 0.049456 -0.010230 -1148320.000000 0 0 1
1.079573 18.323938 -16.530876 24.702268 1.511948 2.303934 0.034391 -0.008736 -309102.000000 0 1 0
1.666873 17.274038 -15.599276 23.334701 1.474598 2.302988 0.039952 -0.004411 829490.000000 0 1 0
2.829173 16.464738 -15.991376 23.126088 1.400626 2.334341 0.039242 -0.020441 880396.000000 0 1 0
2.607273 15.452638 -16.991276 23.114614 1.403644 2.396593 0.036464 -0.019499 -133942.000000 0 1 0
2.669573 15.817238 -18.491576 24.479584 1.403596 2.427042 0.027438 -0.017420 583758.000000 0 1 0
4.029773 15.961238 -18.924276 25.082432 1.323492 2.425663 0.035623 -0.020026 346572.000000 0 0 1
4.037373 16.426838 -20.279476 26.408304 1.329794 2.446385 0.027219 -0.012343 -499079.000000 0 0 1
4.273573 15.381238 -21.431876 26.723982 1.299789 2.501385 0.016701 -0.012708 -57590.900000 0 0 1
3.293373 14.418538 -21.715176 26.273359 1.346236 2.543674 0.014469 -0.006001 -817774.000000 0 0 1
2.056573 14.924338 -22.117176 26.760696 1.433859 2.543622 0.012844 -0.009948 -571727.000000 0 0 1
1.200073 13.760838 -22.695776 26.568762 1.483807 2.594860 0.011714 0.001162 -138250.000000 0 0 1
0.695273 12.879138 -21.752576 25.288934 1.516864 2.606383 0.013749 0.003043 74899.900000 0 0 1
-0.113527 11.899238 -22.411076 25.374418 -1.561256 2.653471 0.012430 0.007690 -170851.000000 0 0 1
-0.551227 10.872238 -21.358476 23.972774 -1.520139 2.670223 0.015455 -0.003722 -1114960.000000 0 1 0
-1.399327 11.489738 -20.434976 23.485324 -1.449604 2.626236 0.010281 -0.004442 45716.900000 0 1 0
-1.899327 10.601438 -19.370476 22.163332 -1.393520 2.634145 0.004633 -0.005592 465552.000000 0 1 0
-3.010627 9.610238 -19.797276 22.211544 -1.267207 2.671013 -0.001924 -0.007108 -519196.000000 0 1 0
-2.510027 8.591738 -20.633976 22.491758 -1.286562 2.732298 0.003341 -0.005611 -276354.000000 0 1 0
-3.491027 7.836138 -21.326776 22.987468 -1.151688 2.759152 -0.001456 0.012409 190637.000000 0 1 0
-2.835827 6.659638 -22.077276 23.233571 -1.168229 2.824775 -0.001127 0.009173 227133.000000 0 1 0
-2.419727 5.604138 -21.248376 22.107802 -1.163201 2.861847 0.011798 0.004033 -282462.000000 0 1 0
-2.070927 4.459238 -21.979676 22.522871 -1.136022 2.921524 0.017661 -0.000032 -705014.000000 0 1 0
-1.400027 3.399538 -21.145776 21.463010 -1.180135 2.969447 0.021501 -0.001732 -539177.000000 0 1 0
-0.015327 3.489038 -20.987776 21.275817 -1.566403 2.976856 0.009443 0.000489 -536819.000000 0 1 0
0.486673 2.386838 -20.220276 20.366478 1.369655 3.021700 0.013650 0.002766 -226974.000000 0 1 0
2.005873 2.328438 -20.111876 20.345336 0.859682 2.989956 0.007748 -0.004567 -193217.000000 0 1 0
2.680573 1.792538 -21.233176 21.476649 0.589419 2.990874 0.016674 -0.007714 -1352530.000000 0 1 0
4.028773 2.071238 -21.172676 21.651865 0.474873 2.930815 0.020384 -0.004869 -889179.000000 0 1 0
4.836473 1.079538 -22.044276 22.594402 0.219608 2.920471 0.024926 -0.010803 -1411650.000000 0 1 0
6.178173 1.312338 -22.031176 22.918656 0.209304 2.862395 0.010145 -0.006934 -1403090.000000 0 1 0
6.814973 0.436838 -22.987676 23.980574 0.064012 2.852826 0.012138 -0.010103 713589.000000 0 1 0
8.293373 0.799038 -23.315676 24.759629 0.096050 2.798388 0.009133 -0.006927 549092.000000 0 1 0
8.346173 1.947938 -24.070876 25.551128 0.229288 2.799537 0.007162 -0.002699 -1087880.000000 0 0 1
9.678973 2.236038 -24.213676 26.172209 0.227037 2.752273 -0.001309 -0.004644 -1208880.000000 0 0 1
13.436973 -22.057635 21.855253 33.834060 -1.023657 0.868524 -0.005461 0.013341 -199345.000000 0 0 1
12.234773 -22.684935 22.260453 34.056185 -1.076178 0.858413 -0.011902 0.022794 771533.000000 0 0 1
10.951673 -22.059035 22.148053 33.122144 -1.109976 0.838367 -0.011274 0.015086 1173570.000000 0 0 1
10.480373 -21.705635 20.700353 31.772275 -1.120970 0.861207 0.008244 0.001308 -608260.000000 0 0 1
11.073473 -20.591435 20.090253 30.826081 -1.077391 0.860934 0.000258 0.000912 -113392.000000 0 0 1
10.470173 -20.360035 18.806753 29.628525 -1.095813 0.883109 0.032581 -0.012610 225826.000000 0 0 1
10.919473 -19.094735 18.018953 28.434600 -1.051327 0.884472 0.039367 -0.013440 34076.900000 0 0 1
10.437773 -17.898035 18.598853 27.842487 -1.042836 0.839275 0.037480 -0.012471 -193264.000000 0 0 1
10.748573 -16.725235 17.867653 26.730476 -0.999601 0.838690 0.036768 -0.008016 -28360.200000 0 0 1
9.914073 -15.509335 18.415553 26.037683 -1.002028 0.785174 0.045745 0.009805 1691570.000000 0 0 1
8.498473 -15.783735 18.260453 25.588952 -1.076878 0.776163 0.034648 0.008685 548785.000000 0 0 1
7.734773 -14.709135 18.780753 25.077920 -1.086685 0.724402 0.016993 0.014414 1145890.000000 0 0 1
6.202773 -14.938835 18.467553 24.549821 -1.177246 0.719329 0.002204 0.014769 846203.000000 0 1 0
5.859473 -14.817035 17.077653 23.356459 -1.194214 0.750754 0.009102 0.006746 445562.000000 0 1 0
4.456473 -14.970835 16.838653 22.967941 -1.281472 0.747873 -0.006804 0.009302 526497.000000 0 1 0
3.792873 -16.381135 16.912253 23.848517 -1.343267 0.782500 -0.018213 0.009989 -854356.000000 0 1 0
2.541873 -16.285635 16.287653 23.172628 -1.415965 0.791353 -0.021839 0.005785 -922219.000000 0 1 0
2.007273 -17.548035 16.372553 24.083670 -1.456904 0.823280 -0.018583 0.001100 -789292.000000 0 1 0
0.531373 -17.642335 16.048053 23.855279 -1.540686 0.832910 -0.023967 0.009847 -725770.000000 0 1 0
0.219373 -17.344135 14.668653 22.716438 -1.558149 0.868819 -0.019426 -0.000385 -396385.000000 0 1 0
-1.132927 -17.705135 14.527453 22.930378 1.506895 0.884668 -0.011435 0.008825 -365442.000000 0 1 0
-1.655627 -17.672335 13.050453 22.031043 1.477384 0.936803 -0.010888 -0.017857 1032390.000000 0 1 0
-2.888427 -18.402835 12.792253 22.597546 1.415111 0.969041 -0.004405 -0.010795 840353.000000 0 1 0
-2.703927 -19.773635 12.696053 23.653702 1.434895 1.004219 0.000088 -0.005580 -19207.700000 0 1 0
-3.965227 -20.672635 12.577753 24.521027 1.381288 1.032193 0.002542 0.003227 514329.000000 0 1 0
-4.821927 -20.716135 13.709453 25.305303 1.342106 0.998264 0.006384 -0.005664 -516605.000000 0 0 1
-5.885527 -21.567835 13.471953 26.101810 1.304398 1.028469 -0.002410 -0.001909 -633688.000000 0 0 1
-6.544727 -22.147835 14.723553 27.388740 1.283471 1.003236 0.002997 -0.002288 -1011510.000000 0 0 1
-7.810927 -21.663635 14.934853 27.447650 1.224750 0.995455 0.008223 0.000983 -809177.000000 0 0 1
-8.596927 -22.565935 15.749953 28.830359 1.206803 0.992859 0.016533 -0.005462 795992.000000 0 0 1
-10.082827 -22.155635 15.933453 29.093135 1.143717 0.991219 0.018522 0.000300 353562.000000 0 0 1
-10.160827 -20.880135 16.528653 28.502962 1.117905 0.952200 0.013998 -0.000712 172853.000000 0 0 1
-11.488427 -20.382835 16.745953 28.772745 1.057547 0.949601 0.011057 -0.006229 486962.000000 0 0 1
-11.667027 -19.240635 17.729753 28.647263 1.025703 0.903457 0.009154 -0.000670 -739564.000000 0 0 1
-11.648827 -19.707435 19.045053 29.779057 1.036956 0.876890 0.008423 0.001142 -32993.200000 0 0 1
-12.122627 -18.673835 19.871953 29.842331 0.995000 0.842099 0.001944 0.002361 -313835.000000 0 0 1
-12.700727 -19.272735 21.185253 31.329886 0.988120 0.828205 0.004143 0.000778 -896773.000000 0 0 1
-13.824227 -20.024135 20.964653 32.118405 0.966557 0.859614 0.004819 0.006396 -858965.000000 0 0 1
-14.281627 -20.634935 22.157353 33.477062 0.965386 0.847490 0.007567 0.018672 721217.000000 0 0 1
-15.606927 -21.472335 21.970053 34.457518 0.942284 0.879420 0.008849 0.014843 -148136.000000 0 0 1
-15.470527 -22.633035 21.193353 34.651835 0.971205 0.912704 0.009841 0.016012 325707.000000 0 0 1
-16.696827 -23.019335 20.579953 35.102825 0.943266 0.944342 0.010974 0.026075 725535.000000 0 0 1
-17.776827 -23.664235 21.535153 36.602929 0.926521 0.941786 0.005818 0.015668 -363856.000000 0 0 1
-18.295327 -22.661435 22.372153 36.725643 0.891600 0.915783 0.013596 0.016278 -67398.900000 0 0 1
-19.290127 -23.236435 23.227653 38.099407 0.877929 0.915166 0.010926 0.014917 265767.000000 0 0 1
-19.885827 -22.393735 24.359643 38.604633 0.844646 0.887951 0.009992 0.019397 79889.200000 0 0 1
-20.719327 -21.338435 23.886853 38.147098 0.800118 0.894156 0.008880 0.024154 251278.000000 0 0 1
-20.721027 -20.222735 24.770463 38.103751 0.773229 0.863107 0.014854 0.016760 -119425.000000 0 0 1
-21.618027 -19.087235 24.290293 37.705172 0.723305 0.870798 0.017629 0.015893 -103627.000000 0 0 1
-21.162427 -18.488535 23.052553 36.346863 0.718064 0.883774 0.024084 0.017728 155957.000000 0 0 1
-22.050827 -17.479035 22.552753 36.060814 0.670256 0.895141 0.028942 0.015413 -51476.500000 0 0 1
-21.642927 -16.768935 21.235353 34.649007 0.659185 0.911108 0.031302 0.020724 -4662.720000 0 0 1
-20.748927 -15.665235 21.150753 33.515249 0.646687 0.887854 0.035596 0.016509 -67167.700000 0 0 1
-20.178227 -15.551035 19.843753 32.291951 0.656608 0.909031 0.032426 0.013829 475529.000000 0 0 1
-19.174227 -14.396835 19.544953 30.934205 0.644040 0.886893 0.019061 0.005483 259793.000000 0 0 1
-18.894227 -14.286635 18.159853 29.847613 0.647418 0.916729 0.020805 0.004777 -24042.200000 0 0 1
-18.349527 -13.038035 17.748453 28.665364 0.617763 0.903124 0.023695 -0.008362 -181147.000000 0 0 1
-17.866727 -13.197535 16.252253 27.523274 0.636207 0.939129 0.007913 -0.013043 165974.000000 0 0 1
-17.474127 -12.016835 15.550853 26.297880 0.602418 0.938083 0.008802 -0.013845 316466.000000 0 0 1
-16.203627 -11.495835 15.902953 25.448294 0.617047 0.895777 -0.019028 -0.017075 -59038.800000 0 0 1
-15.864627 -10.198235 15.127353 24.176997 0.571317 0.894778 -0.002220 -0.025931 -75736.500000 0 1 0
-16.598027 -9.061135 15.500553 24.451295 0.499703 0.884165 0.005443 -0.019092 153121.000000 0 1 0
-16.149527 -7.908135 14.785553 23.280000 0.455359 0.882635 0.000356 -0.017911 -795967.000000 0 1 0
-16.501427 -6.540735 15.509153 23.571426 0.377377 0.852684 0.009639 -0.013788 514807.000000 0 1 0
-15.791427 -6.338835 16.743653 23.872577 0.381721 0.793470 0.008141 -0.005704 353146.000000 0 1 0
-14.381927 -6.314435 16.668453 22.903040 0.413714 0.755712 0.013281 -0.007247 -304565.000000 0 1 0
-13.642927 -6.320635 18.042553 23.486456 0.433851 0.694754 0.015668 0.001540 78955.600000 0 1 0
-13.581527 -7.507235 18.797953 24.375797 0.504955 0.690115 0.005377 -0.012673 -155078.000000 0 1 0
-13.043327 -8.669135 18.242853 24.043377 0.586599 0.709408 0.000298 -0.006062 -612883.000000 0 1 0
-13.035627 -9.951535 19.156353 25.217583 0.652029 0.708033 -0.004284 -0.008465 -216571.000000 0 0 1
-14.307527 -10.488735 19.386253 26.278236 0.632592 0.741094 0.001038 -0.007851 -226662.000000 0 0 1
-15.098027 -9.738635 20.321453 27.124765 0.572871 0.723966 0.001629 -0.009007 -1383580.000000 0 0 1
-16.477327 -10.345535 20.553553 28.301607 0.560657 0.757970 0.005040 -0.006230 366857.000000 0 0 1
-17.506627 -10.243635 19.544553 28.167421 0.529413 0.803946 0.011298 -0.013278 771435.000000 0 0 1
-17.816927 -8.928335 19.108653 27.609757 0.464539 0.806405 0.009619 -0.015435 -1564420.000000 0 0 1
-18.877427 -8.818435 18.065553 27.576915 0.437017 0.856485 0.031594 -0.019372 -104734.000000 0 0 1
-20.195527 -9.043535 18.569353 28.887120 0.421022 0.872616 0.024539 -0.016332 -347081.000000 0 0 1
-21.098627 -9.127835 17.558053 28.926712 0.408313 0.918536 0.040593 -0.021253 -525005.000000 0 0 1
-22.560527 -9.343635 18.013753 30.344294 0.392652 0.935215 0.041044 -0.010486 83412.100000 0 0 1
-23.108027 -8.322835 18.832053 30.949906 0.345707 0.916667 0.035985 -0.007031 379396.000000 0 0 1
-24.505727 -8.486635 18.983753 32.139330 0.333386 0.938907 0.030415 0.001116 34589.200000 0 0 1
-25.104367 -7.472335 20.020553 32.967978 0.289300 0.918173 0.026172 -0.001422 -128408.000000 0 0 1
-24.748727 -7.615235 21.400953 33.593036 0.298508 0.880112 0.031742 -0.003825 364691.000000 0 0 1
-25.410157 -6.617635 22.145053 34.349273 0.254773 0.870163 0.026439 -0.004318 -692702.000000 0 0 1
-25.313107 -6.809235 23.663453 35.313993 0.262780 0.836470 0.029010 -0.003941 347411.000000 0 0 1
-24.105927 -6.380735 24.277913 34.802680 0.258761 0.798772 0.007450 -0.002929 888350.000000 0 0 1
-22.932327 -7.176635 24.056833 34.001866 0.303293 0.784821 0.013147 -0.001268 263603.000000 0 0 1
-21.785527 -6.972235 25.084113 33.947518 0.309739 0.739347 0.017169 -0.000037 -135942.000000 0 0 1
-21.260027 -5.712035 24.930703 33.258924 0.262476 0.723347 0.008337 -0.000698 440400.000000 0 0 1
-20.443227 -5.341235 26.085103 33.569136 0.255559 0.680821 0.023578 -0.008115 611160.000000 0 0 1
-19.783227 -3.936235 26.072453 32.964266 0.196403 0.658468 0.003884 -0.011776 77182.400000 0 0 1
-18.863327 -3.621035 27.115593 33.229390 0.189655 0.616318 0.018755 -0.012694 -458499.000000 0 0 1
-19.286427 -3.579835 28.461923 34.566784 0.183526 0.603438 0.026438 -0.018974 -799081.000000 0 0 1
-20.245827 -2.487635 28.908103 35.380224 0.122259 0.614487 0.031531 -0.024901 -950529.000000 0 0 1
-21.448527 -2.594135 28.238673 35.555471 0.120362 0.653082 0.022865 -0.028882 -765862.000000 0 0 1
-22.432027 -1.810735 28.953923 36.671573 0.080546 0.660726 0.031381 -0.015420 850656.000000 0 0 1
-23.766827 -1.575235 28.200783 36.913786 0.066182 0.701363 0.025134 -0.018767 -259944.000000 0 0 1
-23.642827 -0.726535 27.077723 35.954335 0.030720 0.718013 0.011271 -0.017875 101766.000000 0 0 1
-24.814427 -0.272235 26.422823 36.249075 0.010970 0.754047 0.008725 -0.006045 -242849.000000 0 0 1
-25.609717 -1.290435 25.572113 36.214027 0.050346 0.786767 0.007534 -0.006817 353961.000000 0 0 1
-26.654947 -1.973335 26.305813 37.501680 0.073898 0.793357 0.018993 -0.009249 770585.000000 0 0 1
-26.870507 -3.365735 26.050823 37.576558 0.124609 0.804775 0.015717 -0.005668 -215972.000000 0 0 1
-25.687527 -4.327335 26.308933 37.023436 0.166894 0.780443 0.029240 -0.017751 59121.400000 0 0 1
-25.268477 -4.542435 27.687373 37.758711 0.177867 0.747676 0.032777 -0.020630 -107827.000000 0 0 1
-24.449627 -5.685735 27.669313 37.359105 0.228488 0.736787 0.038133 -0.022830 -305831.000000 0 0 1
-24.069727 -6.296035 29.017243 38.222928 0.255843 0.708778 0.027987 -0.018050 -113621.000000 0 0 1
-25.205347 -6.635535 29.789503 39.582248 0.257418 0.718798 0.033509 -0.012524 -107769.000000 0 0 1
-24.953227 -7.329035 31.002543 40.466479 0.285677 0.698000 0.031064 -0.006596 -648991.000000 0 0 1
-26.209387 -7.754335 31.794793 41.928159 0.287655 0.710070 0.000082 -0.005119 236067.000000 0 0 1
-27.002737 -8.710935 31.023873 42.041752 0.312055 0.740798 -0.009643 -0.005620 705821.000000 0 0 1
-28.201527 -9.039735 31.728583 43.402142 0.310193 0.750955 -0.000320 -0.002224 423420.000000 0 0 1
-29.128367 -9.850235 30.784473 43.510604 0.326094 0.784818 -0.009801 -0.007339 -36751.500000 0 0 1
-28.627467 -11.191335 30.719073 43.456177 0.372663 0.785694 0.007329 -0.007049 -176610.000000 0 0 1
-29.475247 -11.947735 29.959483 43.693354 0.385108 0.815264 -0.006075 0.000897 -782884.000000 0 0 1
-28.877047 -13.217535 29.344823 43.240094 0.429253 0.824875 0.006173 -0.001293 -732175.000000 0 0 1
-28.068307 -12.930135 28.292883 41.898753 0.431689 0.829468 0.014246 -0.000444 -665926.000000 0 0 1
-27.081197 -13.934735 28.078783 41.424463 0.475223 0.825988 0.018314 -0.002078 -290138.000000 0 0 1
-25.861017 -13.305535 27.386943 39.948393 0.475181 0.815426 0.022794 -0.002395 -306488.000000 0 0 1
-25.047027 -12.491835 28.275793 39.785927 0.462635 0.780306 0.013901 -0.006175 291323.000000 0 0 1
-25.541727 -11.242235 28.730183 40.052354 0.414634 0.770854 0.018395 -0.009887 -854576.000000 0 0 1
-25.749197 -10.175535 27.642713 39.123934 0.376343 0.786196 0.020211 -0.009972 588172.000000 0 0 1
-24.560827 -9.565235 27.095793 37.800925 0.371379 0.771591 0.017403 -0.007354 418538.000000 0 0 1
-23.924327 -10.276535 26.056293 36.836273 0.405713 0.785048 0.014978 -0.003619 -513702.000000 0 0 1
-24.589127 -10.345835 24.661803 36.329960 0.398264 0.824631 0.023915 0.002287 -718809.000000 0 0 1
-25.805547 -11.029735 24.768193 37.430532 0.403916 0.847698 0.019978 0.003402 -471207.000000 0 0 1
-26.443797 -11.028735 23.468553 37.036204 0.395129 0.884514 0.032116 0.010591 -581393.000000 0 0 1
-27.721187 -11.867535 23.337553 38.130617 0.404496 0.912156 0.033515 0.002568 -583244.000000 0 0 1
-28.823037 -11.443035 24.064923 39.253421 0.377926 0.910861 0.025086 -0.000276 -549568.000000 0 0 1
-28.711387 -11.565035 25.453683 40.074727 0.382920 0.882587 0.030754 -0.003535 -849866.000000 0 0 1
-29.985237 -11.056635 26.190393 41.319491 0.353268 0.884274 -0.003913 0.004134 -71626.200000 0 0 1
-30.136977 -9.715735 26.045953 41.000299 0.311866 0.882448 -0.005012 -0.006374 520891.000000 0 0 1
-31.425407 -9.275135 26.512433 42.148469 0.286999 0.890498 -0.006369 0.004088 886122.000000 0 0 1
-31.940727 -9.467335 27.976223 43.502983 0.288154 0.872273 -0.021966 0.009402 -326125.000000 0 0 1
-32.392257 -10.782635 28.205053 44.283728 0.321340 0.880304 -0.018579 0.005627 -198550.000000 0 0 1
-33.102777 -10.777635 29.402003 45.567851 0.314757 0.869465 -0.008548 0.005179 -1031920.000000 0 0 1
-33.532347 -12.193335 29.858773 46.525714 0.348765 0.873993 -0.002279 0.001874 369292.000000 0 0 1
-34.724816 -12.749735 29.308903 47.195131 0.351884 0.900759 -0.009400 0.004603 826535.000000 0 0 1
34.236095 -12.150735 29.823083 47.001775 -0.341042 0.883422 -0.001772 0.012457 448632.000000 0 0 1
32.952956 -12.609035 29.045653 45.700493 -0.365450 0.882056 0.000390 0.006570 525193.000000 0 0 1
32.913086 -11.990635 27.771903 44.702630 -0.349368 0.900448 0.000627 0.014576 -73033.100000 0 0 1
31.772896 -12.460835 27.080443 43.567645 -0.373751 0.900048 0.000824 0.017586 -230004.000000 0 0 1
31.744386 -12.189835 25.582403 42.552996 -0.366637 0.925808 0.000653 0.024417 -180264.000000 0 0 1
31.350356 -10.883935 25.268803 41.711117 -0.334152 0.920019 0.007300 0.009470 -2803.160000 0 0 1
31.294896 -10.609435 23.852653 40.753891 -0.326855 0.945564 0.009777 0.013261 -189145.000000 0 0 1
31.097476 -9.102835 23.519853 40.038707 -0.284764 0.942919 0.003619 0.029377 1056630.000000 0 0 1
29.711146 -8.701735 23.669753 38.970881 -0.284910 0.918050 0.005861 0.022557 729047.000000 0 0 1
29.560246 -7.319835 23.392553 38.400516 -0.242741 0.915779 0.011128 0.025634 18564.000000 0 0 1
28.069146 -6.865535 23.450153 37.214543 -0.239884 0.889070 0.017409 0.022883 594464.000000 0 0 1
27.190126 -7.393835 22.475453 36.043276 -0.265511 0.897497 0.008625 0.027226 181767.000000 0 0 1
26.756676 -8.701235 22.844553 36.242307 -0.314412 0.888820 -0.010448 0.025397 -867745.000000 0 0 1
14.437673 -17.546435 26.593193 34.978875 -0.882291 0.707076 -0.022507 0.016319 201184.000000 0 0 1
13.620873 -18.678735 26.263453 34.988460 -0.940729 0.721778 -0.038001 0.019103 676570.000000 0 0 1
14.394173 -19.855935 26.423223 36.050480 -0.943534 0.748147 -0.028229 0.024119 -430405.000000 0 0 1
13.595973 -21.096235 25.982333 36.124552 -0.998316 0.768084 -0.047759 0.015983 374767.000000 0 0 1
12.921473 -21.770135 27.074663 37.066705 -1.035139 0.751844 -0.034596 0.011957 1475030.000000 0 0 1
11.713573 -21.139635 27.605163 36.689740 -1.064807 0.719106 -0.029462 0.008059 603363.000000 0 0 1
11.286073 -21.674535 28.956483 37.889825 -1.090721 0.700952 -0.026253 0.007670 -136441.000000 0 0 1
11.917973 -21.184935 30.148383 38.726794 -1.058355 0.678541 -0.022668 0.013597 98936.700000 0 0 1
11.304773 -19.993735 30.717723 38.355258 -1.056195 0.642043 -0.019507 0.018892 164414.000000 0 0 1
11.285273 -18.659335 29.916493 37.020599 -1.026851 0.629870 -0.026317 0.010671 1109630.000000 0 0 1
12.557973 -17.985135 29.899983 37.083376 -0.961251 0.632942 -0.028366 0.028106 798902.000000 0 0 1
12.260973 -16.695735 29.446143 36.002144 -0.937369 0.613045 -0.034858 0.024279 495218.000000 0 0 1
12.939873 -15.528235 30.256343 36.386985 -0.876070 0.588966 -0.034408 0.012225 -141600.000000 0 0 1
12.450473 -14.281035 29.842873 35.349106 -0.853771 0.565664 -0.017979 0.015735 19141.000000 0 0 1
12.991973 -13.209035 30.607643 35.778454 -0.793682 0.544325 -0.015875 0.020873 460886.000000 0 0 1
12.251573 -11.794635 30.335313 34.777086 -0.766398 0.510953 -0.008651 0.020838 513921.000000 0 0 1
12.491273 -11.306735 29.055863 33.587458 -0.735665 0.525485 0.005475 0.020307 965257.000000 0 0 1
13.871573 -10.886135 28.954143 33.900898 -0.665391 0.547013 0.015244 0.020872 786365.000000 0 0 1
14.130573 -10.031435 27.620313 32.606510 -0.617346 0.560330 0.021074 0.013701 168688.000000 0 0 1
14.282973 -8.623635 27.843373 32.459572 -0.543187 0.539849 0.023553 0.010288 156514.000000 0 0 1
15.653073 -8.385935 28.100143 33.240948 -0.491827 0.563582 0.025476 0.004770 -199211.000000 0 0 1
15.918273 -6.828135 27.992743 32.918209 -0.405211 0.554103 0.018991 0.001591 10673.800000 0 0 1
17.309173 -6.586935 28.074173 33.632639 -0.363624 0.583154 0.022837 -0.003423 3536.260000 0 0 1
17.604073 -5.325235 27.688283 33.240074 -0.293749 0.586326 0.020831 -0.007157 676510.000000 0 0 1
19.127573 -5.021635 27.446363 33.828741 -0.256740 0.624368 0.032806 -0.012733 21312.700000 0 0 1
19.622773 -5.843135 26.371473 33.386375 -0.289413 0.660171 0.029104 -0.004397 355236.000000 0 0 1
20.981573 -5.726235 25.986843 33.887050 -0.266429 0.696852 0.032441 -0.000468 419842.000000 0 0 1
22.069873 -6.083235 27.023193 35.416635 -0.268957 0.702842 0.039087 -0.016681 -854171.000000 0 0 1
22.212573 -5.107535 28.070763 36.158720 -0.226010 0.681989 0.043172 -0.020200 59974.000000 0 0 1
23.199173 -5.483935 29.030863 37.564161 -0.232124 0.687501 0.041321 -0.027573 134778.000000 0 0 1
23.891673 -4.260035 29.669353 38.330542 -0.176452 0.685600 0.057434 -0.036131 -176659.000000 0 0 1
24.636973 -3.542635 28.701093 37.990570 -0.142815 0.714411 0.041787 -0.022093 112102.000000 0 0 1
24.794673 -2.201035 29.099933 38.293948 -0.088538 0.707623 0.040955 -0.029690 -542894.000000 0 0 1
25.734173 -1.370135 28.189813 38.194116 -0.053192 0.740595 0.043797 -0.024530 606252.000000 0 0 1
27.102173 -1.456435 28.579823 39.413897 -0.053687 0.759587 0.041649 -0.016903 815660.000000 0 0 1
28.036773 -0.699735 27.789233 39.481537 -0.024953 0.789988 0.037564 0.000464 105971.000000 0 0 1
29.485473 -0.756535 28.223403 40.823105 -0.025652 0.807429 0.024910 -0.005448 -412531.000000 0 0 1
29.868373 0.176365 29.273903 41.822389 0.005905 0.795458 0.006920 0.009553 467120.000000 0 0 1
31.263773 0.263665 29.553743 43.022282 0.008433 0.813526 0.014398 0.000882 584210.000000 0 0 1
31.429673 1.498065 30.475603 43.804462 0.047628 0.801376 0.005301 -0.005718 -191742.000000 0 0 1
31.433273 2.739465 29.772743 43.381696 0.086932 0.814410 -0.002587 0.004059 161685.000000 0 0 1
32.093773 3.694165 30.579733 44.483448 0.114601 0.812837 -0.012261 0.006975 -274460.000000 0 0 1
32.116173 5.098065 29.925383 44.192391 0.157425 0.826898 -0.012582 0.009330 -52393.000000 0 0 1
32.067073 6.209565 30.822933 44.910011 0.191276 0.814370 -0.015064 0.016789 392151.000000 0 0 1
30.805473 6.424465 31.456533 44.494543 0.205603 0.785584 -0.016618 0.018404 -59593.600000 0 0 1
30.876973 7.153565 32.831183 45.633842 0.227663 0.767789 -0.008203 0.008733 -301007.000000 0 0 1
31.468973 6.410865 33.908530 46.703146 0.200970 0.758245 -0.010375 0.010989 195381.000000 0 0 1
31.358273 7.194765 -34.001776 46.810541 0.225534 2.383822 -0.004192 0.001679 -240173.000000 0 0 1
31.651373 6.542465 -32.646366 45.939074 0.203833 2.361211 0.013099 -0.001413 18806.200000 0 0 1
30.766973 5.518665 -32.189796 44.869202 0.177482 2.370880 0.007954 -0.000253 464207.000000 0 0 1
31.081473 4.292565 -32.782186 45.377922 0.137239 2.378101 0.021776 -0.014343 -43494.900000 0 0 1
30.670373 3.157665 -31.854046 44.331962 0.102593 2.372489 0.022105 -0.020688 -324975.000000 0 0 1
31.130073 1.953465 -32.337626 44.929050 0.062670 2.374237 0.019402 -0.020286 -23430.900000 0 0 1
31.349573 1.006365 -31.316766 44.323226 0.032090 2.355413 0.015605 -0.028669 3408.020000 0 0 1
31.652973 -0.393935 -31.913526 44.950406 -0.012445 2.360255 0.023187 -0.039974 609012.000000 0 0 1
32.876573 -0.288435 -32.728146 46.390557 -0.008773 2.353913 0.025370 -0.032182 1243050.000000 0 0 1
33.579673 -1.511635 -32.822176 46.980578 -0.044986 2.344281 0.032860 -0.020273 259314.000000 0 0 1
34.503573 -1.799235 -31.607476 46.826983 -0.052099 2.311740 0.032656 -0.024301 -776614.000000 0 0 1
33.812173 -2.188735 -30.431246 45.542446 -0.064642 2.302577 0.022267 -0.028164 16640.700000 0 0 1
34.621973 -2.070435 -29.294516 45.399740 -0.059730 2.272156 0.028109 -0.029158 -395958.000000 0 0 1
33.758673 -1.767235 -28.041436 43.921444 -0.052301 2.263273 0.026258 -0.030538 277620.000000 0 0 1
33.147073 -0.467335 -28.049326 43.424780 -0.014098 2.273036 0.012333 -0.024232 734862.000000 0 0 1
32.226573 -0.317235 -26.972716 42.025945 -0.009844 2.267654 0.017332 -0.018621 380108.000000 0 0 1
31.600973 1.093965 -26.719886 41.397712 0.034604 2.272400 0.005226 -0.013992 167013.000000 0 0 1
30.801773 1.725065 -27.686886 41.452246 0.055947 2.302210 0.021909 -0.031093 390705.000000 0 0 1
30.107173 2.867965 -27.172486 40.657239 0.094972 2.302759 0.008130 -0.013148 134432.000000 0 0 1
29.377573 3.436065 -28.403576 41.007456 0.116433 2.335945 0.020128 -0.017840 -942485.000000 0 0 1
28.403773 4.348765 -28.124096 40.207597 0.151925 2.345455 0.010432 -0.011273 -431878.000000 0 0 1
27.758873 4.791565 -29.314726 40.655471 0.170929 2.376116 0.004724 -0.011655 42708.600000 0 0 1
26.535273 5.682365 -28.985826 39.706273 0.210958 2.389127 -0.006993 -0.005598 359147.000000 0 0 1
25.373873 5.000765 -28.516946 38.497497 0.194589 2.404980 -0.000275 -0.004467 568893.000000 0 0 1
24.414073 5.895865 -27.999066 37.613241 0.236958 2.410423 -0.000074 -0.001749 1809580.000000 0 0 1
22.915673 5.303365 -27.909526 36.499252 0.227426 2.441310 0.018705 0.004001 1724160.000000 0 0 1
22.230873 5.116965 -29.139346 37.006709 0.226233 2.477388 0.015870 -0.004227 -236051.000000 0 0 1
20.949673 4.611965 -28.919716 36.007069 0.216689 2.503390 0.026091 -0.001143 -235222.000000 0 0 1
20.175173 4.273565 -30.268346 36.626135 0.208738 2.543505 0.021512 -0.000495 253705.000000 0 0 1
20.464373 2.970765 -30.792886 37.092019 0.144161 2.550219 0.013573 -0.009296 373546.000000 0 0 1
19.886273 2.744965 -32.149716 37.902545 0.137166 2.583413 -0.011111 -0.011989 -220973.000000 0 0 1
20.374373 3.587465 -33.325636 39.224775 0.174291 2.586036 -0.003441 -0.011632 -62577.800000 0 0 1
21.678173 3.267365 -33.769116 40.261297 0.149595 2.565778 -0.005061 -0.017661 -10074.000000 0 0 1
21.970473 3.798765 34.044056 40.695578 0.171210 0.579833 0.006247 -0.029039 682546.000000 0 0 1
23.360373 3.248365 33.526197 40.991033 0.138168 0.613060 0.018012 -0.014684 968398.000000 0 0 1
23.320673 1.864365 33.398082 40.776973 0.079775 0.611056 0.033651 -0.030988 1119860.000000 0 0 1
24.661873 1.333965 33.277685 41.441426 0.054037 0.638475 0.036998 -0.036857 381725.000000 0 0 1
24.680573 -0.212735 33.133258 41.315720 -0.008619 0.640239 0.031145 -0.034656 -676922.000000 0 0 1
24.209273 -0.702935 31.876233 40.033452 -0.029028 0.649742 0.035331 -0.039396 52524.400000 0 0 1
22.832873 -0.637235 31.608133 38.997695 -0.027901 0.625769 0.041360 -0.039172 -507701.000000 0 0 1
21.943973 -1.655835 32.381723 39.151701 -0.075315 0.596898 0.029979 -0.037133 -751746.000000 0 0 1
22.061273 -3.076935 32.154933 39.116582 -0.138578 0.605833 0.037707 -0.043787 148873.000000 0 0 1
21.145773 -3.894735 32.868703 39.276766 -0.182144 0.579296 0.044409 -0.037126 -239968.000000 0 0 1
21.202673 -5.395635 32.410353 39.103673 -0.249190 0.593780 0.048179 -0.039700 586217.000000 0 0 1
22.452773 -5.988835 32.820913 40.214494 -0.260662 0.616086 0.050614 -0.029978 721126.000000 0 0 1
22.493773 -7.364035 32.497083 40.202727 -0.316384 0.629486 0.048550 -0.025387 118639.000000 0 0 1
23.929073 -7.993735 32.624593 41.241537 -0.322404 0.658254 0.036372 -0.021814 450941.000000 0 0 1
24.514673 -7.683635 31.366063 40.544264 -0.303732 0.686254 0.043818 -0.023697 -400542.000000 0 0 1
25.760273 -8.313835 31.195473 41.302168 -0.312185 0.714687 0.038269 -0.027189 215984.000000 0 0 1
26.388873 -8.184435 29.756793 40.605718 -0.300740 0.748335 0.029994 -0.016600 249136.000000 0 0 1
25.424473 -8.639235 28.808053 39.382028 -0.327559 0.750273 0.019084 -0.004935 133074.000000 0 0 1
25.845773 -8.503435 27.454233 38.652908 -0.317852 0.780906 0.015162 0.008808 -112436.000000 0 0 1
25.169173 -9.423635 26.443943 37.703770 -0.358255 0.793492 -0.002453 0.006423 88415.300000 0 0 1
23.903873 -9.058135 25.920803 36.405123 -0.362220 0.778440 -0.000612 0.000776 101739.000000 0 0 1
23.498273 -9.998335 24.955613 35.705996 -0.402288 0.796911 0.001112 0.003554 -82973.400000 0 0 1
22.087973 -9.732335 24.385123 34.310802 -0.415024 0.780286 0.012505 0.013730 -32628.500000 0 0 1
21.055273 -9.877535 25.335413 34.391472 -0.438643 0.742653 0.016868 0.007621 -268105.000000 0 0 1
19.824173 -9.548835 24.723503 33.097276 -0.448882 0.727266 0.020243 0.005860 -207313.000000 0 0 1
18.730773 -9.157835 25.724233 33.112595 -0.454744 0.681114 0.033506 0.005922 -230927.000000 0 0 1
17.993873 -10.214835 26.293413 33.458420 -0.516319 0.666721 0.026308 0.004710 -53190.600000 0 0 1
18.751973 -11.038735 27.113223 34.765170 -0.532047 0.676296 0.016001 0.005477 -334461.000000 0 0 1
17.796373 -11.998435 27.867903 35.175181 -0.593205 0.656292 0.012824 0.000876 506929.000000 0 0 1
17.053073 -12.928435 27.087593 34.520855 -0.648684 0.668627 0.001582 0.001837 -144533.000000 0 0 1
16.257473 -13.807135 27.827173 35.061289 -0.704076 0.653974 -0.007894 0.004950 -236711.000000 0 0 1
16.931773 -14.837835 28.871483 36.611594 -0.719583 0.662286 -0.012185 0.013121 -261033.000000 0 0 1
16.076873 -15.688935 29.595773 37.155327 -0.773186 0.649243 -0.021261 0.015244 -253880.000000 0 0 1
16.791573 -16.680135 30.292773 38.442632 -0.782069 0.663243 -0.014645 0.010860 -663481.000000 0 0 1
16.900873 -18.015535 29.489913 38.468870 -0.817311 0.697280 -0.019909 0.022288 -583778.000000 0 0 1
17.738673 -17.855335 28.414213 37.958412 -0.788676 0.724906 -0.017150 0.014308 -186233.000000 0 0 1
18.036673 -19.151035 27.814903 38.285148 -0.815355 0.757553 -0.019272 0.016808 -183895.000000 0 0 1
19.000273 -19.031135 26.613193 37.834594 -0.786210 0.790614 0.000264 0.009482 119546.000000 0 0 1
20.293273 -18.597535 27.007213 38.562609 -0.741823 0.794913 0.017254 -0.003923 22157.100000 0 0 1
21.011773 -18.161235 25.867143 37.953052 -0.712758 0.820909 0.008979 -0.003115 502740.000000 0 0 1
22.484673 -17.821735 26.228803 38.873190 -0.670223 0.830201 0.015437 -0.006000 50822.100000 0 0 1
23.362773 -18.832735 26.632463 40.122053 -0.678450 0.844927 0.019299 -0.015506 -1184580.000000 0 0 1
24.561273 -18.328035 27.044243 40.872535 -0.641075 0.847749 0.023132 -0.013227 -1007260.000000 0 0 1
25.607873 -19.457535 27.227383 42.138928 -0.649760 0.868289 0.013521 -0.005393 -232097.000000 0 0 1
25.302573 -20.312735 28.325373 43.071501 -0.676442 0.853120 0.006678 -0.001750 -6937.190000 0 0 1
26.140873 -21.431835 28.353233 44.120003 -0.686733 0.872859 0.014657 0.005411 -385588.000000 0 0 1
25.658773 -22.587235 29.209433 44.963839 -0.721820 0.863711 0.014411 0.011652 -93427.600000 0 0 1
25.644873 -22.287035 30.615053 45.734592 -0.715458 0.837386 0.009092 0.004423 170336.000000 0 0 1
25.013673 -23.333935 31.361843 46.408206 -0.750669 0.828771 0.002452 0.006352 50567.800000 0 0 1
24.649473 -23.114035 32.865673 47.138176 -0.753263 0.799284 0.005258 0.001581 45756.200000 0 0 1
24.514873 -24.352435 33.509547 48.134290 -0.782074 0.800751 -0.006068 0.004249 41453.700000 0 0 1
24.040773 -24.161235 -34.265414 48.330556 -0.787897 2.358848 0.005372 0.006818 -491719.000000 0 0 1
23.429873 -25.476385 -33.738916 48.335490 -0.827219 2.343419 -0.002365 0.005548 729515.000000 0 0 1
22.057773 -25.748915 -34.059836 48.058552 -0.862455 2.358472 -0.010479 0.002316 593041.000000 0 0 1
21.732573 -26.061935 33.691131 47.818631 -0.875734 0.788992 -0.011018 -0.009845 -381515.000000 0 0 1
20.472873 -26.922205 33.564227 47.649774 -0.920643 0.789227 -0.003371 -0.018886 -73055.500000 0 0 1
20.812773 -28.307255 33.713969 48.693983 -0.936805 0.806036 -0.001553 -0.009972 -245525.000000 0 0 1
19.691873 -29.110935 33.929323 48.850951 -0.976056 0.803005 0.012807 -0.005591 -760390.000000 0 0 1
19.905273 -30.653355 34.026332 49.936353 -0.994866 0.821131 0.001218 -0.008509 -147706.000000 0 0 1
20.564173 -31.063125 -33.881056 50.356022 -0.986023 2.308824 -0.005138 -0.011027 245637.000000 0 0 1
21.083373 -32.343715 -33.925616 51.396225 -0.993119 2.291721 -0.036838 0.001857 -229964.000000 0 0 1
21.808173 -32.747345 -32.637996 51.119701 -0.983288 2.263295 -0.022903 0.001659 -1005750.000000 0 0 1
22.747473 -33.757015 -32.760696 52.251764 -0.977831 2.248464 -0.026479 0.005916 59493.800000 0 0 1
23.291273 -34.301569 -31.582246 52.120239 -0.974294 2.221756 -0.024266 0.011583 127360.000000 0 0 1
24.263673 -33.432405 -30.745676 51.495128 -0.942995 2.210627 -0.018396 0.005235 -634797.000000 0 0 1
24.582373 -33.981575 -29.507406 51.280869 -0.944536 2.183899 -0.012101 0.007627 -840764.000000 0 0 1
25.499173 -33.155055 -28.921726 50.852058 -0.915190 2.175773 -0.011962 0.005030 -1059020.000000 0 0 1
26.023573 -33.548265 -27.602666 50.642074 -0.911046 2.147250 -0.015124 0.007066 299799.000000 0 0 1
27.087073 -34.512396 -27.710676 51.891200 -0.905361 2.134139 -0.014037 0.017074 173075.000000 0 0 1
28.009673 -34.232110 -26.675876 51.652508 -0.885039 2.113495 -0.009568 0.005523 91498.100000 0 0 1
-25.685837 -30.780309 9.065124 41.101899 0.875376 1.348416 0.015022 -0.004083 -91950.600000 0 0 1
-26.039707 -31.907809 9.825724 42.340518 0.886320 1.336597 0.023803 -0.007192 986204.000000 0 0 1
-24.917827 -32.250609 10.703624 42.137483 0.912968 1.313965 0.012795 -0.009304 1130630.000000 0 0 1
-25.125277 -33.540109 11.459824 43.445897 0.927864 1.303865 0.006165 -0.004309 -52574.600000 0 0 1
-24.928227 34.637365 10.713624 43.999378 -0.946976 1.324829 0.003396 0.000441 93820.100000 0 0 1
-25.148167 33.549565 11.637324 43.513571 -0.927562 1.300060 -0.005524 0.004257 35856.900000 0 0 1
-25.029527 32.173965 11.021324 42.226897 -0.909650 1.306736 0.005584 0.004498 42009.500000 0 0 1
-26.044377 31.897365 10.078624 42.394930 -0.886072 1.330766 0.009190 -0.000934 -117209.000000 0 0 1
-26.215587 30.613365 9.526824 41.414918 -0.862630 1.338684 0.011810 0.001196 36186.500000 0 0 1
-25.284037 30.342465 8.294424 40.357715 -0.876084 1.363799 0.011228 0.006607 637445.000000 0 0 1
-23.912927 30.040465 8.513524 39.328586 -0.898485 1.352597 0.009260 0.012535 334109.000000 0 0 1
-23.313127 29.847965 7.268724 38.564715 -0.907710 1.381181 0.004407 0.018435 991992.000000 0 0 1
-21.883627 29.146265 7.246824 37.160656 -0.926770 1.374525 0.021245 0.022339 978607.000000 0 0 1
-21.848227 27.713265 7.332924 36.043610 -0.903189 1.365920 0.013406 0.009389 145794.000000 0 0 1
-22.152527 26.970865 6.166224 35.442690 -0.883172 1.395929 0.007417 0.005378 -734978.000000 0 0 1
-22.563127 25.489765 6.480624 34.652868 -0.846228 1.382673 0.002719 0.008022 363545.000000 0 0 1
-23.818827 25.199765 7.129124 35.400410 -0.813562 1.368024 0.006406 0.001850 951709.000000 0 0 1
-24.212927 23.888865 7.239524 34.775773 -0.778661 1.361085 0.002652 -0.012134 -248437.000000 0 0 1
-24.787527 23.081365 6.049424 34.405907 -0.749771 1.394052 -0.011548 -0.021667 -311766.000000 0 0 1
-26.035667 23.543565 5.558924 35.539513 -0.735175 1.413736 -0.004510 -0.023157 253174.000000 0 0 1
-26.342917 22.996565 4.310624 35.233120 -0.717679 1.448143 -0.002731 -0.022306 -13865.800000 0 0 1
-25.878157 23.950265 3.157924 35.401506 -0.746727 1.481475 -0.012560 -0.017817 236938.000000 0 0 1
-24.466727 24.127465 3.119924 34.503466 -0.778417 1.480249 -0.004272 -0.017315 435596.000000 0 0 1
-24.178627 24.871765 1.971124 34.743287 -0.799528 1.514032 -0.002286 -0.016313 -471491.000000 0 0 1
-22.823127 25.567965 2.050124 34.333933 -0.842059 1.511049 0.009780 -0.009168 -324677.000000 0 0 1
-22.424927 26.099265 0.783224 34.418925 -0.860976 1.548039 0.003626 -0.006198 -455490.000000 0 0 1
-21.272527 26.893465 0.925424 34.302117 -0.901572 1.543814 0.012002 -0.008675 -725758.000000 0 0 1
-20.862727 27.486065 -0.451276 34.510010 -0.921542 1.583873 0.014488 -0.005553 100681.000000 0 0 1
-20.421127 26.548165 -1.450676 33.525094 -0.915113 1.614081 0.004168 -0.012728 594370.000000 0 0 1
-19.188527 25.895565 -1.131976 32.249980 -0.933082 1.605904 0.006677 -0.021868 -242563.000000 0 0 1
-18.829427 24.816065 -2.159876 31.225782 -0.921713 1.640021 0.007516 -0.027077 -761292.000000 0 0 1
-19.655427 23.701865 -2.289676 30.876477 -0.878456 1.645020 0.011457 -0.025125 -476773.000000 0 0 1
-19.239427 22.646765 -3.141876 29.881481 -0.866567 1.676136 0.011186 -0.025233 -391385.000000 0 0 1
-20.415427 21.945065 -3.915976 30.227643 -0.821492 1.700711 -0.004795 -0.010847 347389.000000 0 0 1
-20.921627 22.737265 -4.995476 31.299400 -0.826961 1.731085 -0.016837 -0.002368 62067.600000 0 0 1
-21.982527 22.062365 -5.639676 31.650993 -0.787211 1.749936 -0.010787 -0.000178 71890.700000 0 0 1
-22.654927 22.906165 -6.718976 32.910222 -0.790912 1.776403 -0.008797 0.008694 -40807.200000 0 0 1
-21.908827 22.832665 -7.905176 32.616239 -0.806044 1.815604 -0.009607 -0.001494 429058.000000 0 0 1
-22.537127 23.608065 -8.938076 33.840095 -0.808602 1.838095 -0.000107 -0.004841 564413.000000 0 0 1
-21.703927 23.326165 -10.267076 33.475114 -0.821408 1.882528 -0.002665 -0.008075 394824.000000 0 0 1
-21.779327 22.010965 -10.821476 32.801311 -0.790688 1.907004 0.006840 -0.008405 77395.000000 0 0 1
-21.071327 21.771465 -12.070476 32.614320 -0.801739 1.949910 -0.001353 0.000806 286307.000000 0 0 1
-21.898727 22.066065 -13.357676 33.836267 -0.789204 1.976618 0.003264 0.003525 310588.000000 0 0 1
-23.061027 21.246365 -13.505376 34.141092 -0.744465 1.977491 -0.012284 -0.003434 461858.000000 0 0 1
-22.814427 20.015165 -14.223176 33.517214 -0.720133 2.009045 0.020445 -0.004765 342822.000000 0 0 1
-24.146227 19.214565 -14.376376 34.042913 -0.672149 2.006779 0.023164 -0.010170 428616.000000 0 0 1
-23.857927 18.009065 -15.023876 33.455103 -0.646595 2.036527 0.018382 -0.001929 403409.000000 0 0 1
-24.986927 17.141765 -15.078976 33.846154 -0.601288 2.032546 0.021044 0.003258 -78937.300000 0 0 1
-24.925427 16.310465 -16.332576 33.971476 -0.579442 2.072333 0.027019 0.005921 -534807.000000 0 0 1
-23.842527 15.451665 -16.248176 32.729547 -0.575018 2.090286 0.047976 0.008666 -465128.000000 0 0 1
-23.570227 14.866065 -17.498076 32.904987 -0.562697 2.131492 0.036346 0.000482 264428.000000 0 0 1
-22.650727 13.610265 -17.433076 31.657651 -0.541063 2.153969 0.031200 0.006024 95932.000000 0 0 1
-21.320727 13.770065 -17.015476 30.556742 -0.573455 2.161383 0.037806 -0.001930 26038.200000 0 0 1
-20.671227 12.487865 -16.922476 29.489262 -0.543442 2.181998 0.030798 0.002990 246444.000000 0 0 1
-19.323727 12.700865 -16.193876 28.230480 -0.581467 2.181728 0.032725 -0.000887 -133651.000000 0 0 1
-18.299427 13.468365 -16.780776 28.246421 -0.634480 2.206924 0.025793 -0.000465 -270867.000000 0 0 1
-17.348327 13.701865 -15.795476 27.169884 -0.668496 2.191195 0.033282 0.006531 -564813.000000 0 0 1
-16.358427 14.812765 -16.167576 27.357022 -0.735853 2.203075 0.019502 0.012482 -410919.000000 0 0 1
-15.679327 14.614165 -17.382276 27.596352 -0.750251 2.252190 0.028009 0.003549 214282.000000 0 0 1
-14.880227 15.769665 -17.653176 27.959580 -0.814409 2.254130 0.012849 0.008057 -65448.700000 0 0 1
-14.017127 15.643265 -18.947976 28.288114 -0.840169 2.304764 0.013369 0.009187 402080.000000 0 0 1
-13.030127 14.628765 -18.838576 27.178611 -0.843132 2.336632 0.011276 0.007189 -192859.000000 0 0 1
-12.294327 14.442665 -19.996376 27.560771 -0.865577 2.382612 0.022531 -0.001108 -326776.000000 0 0 1
-11.318227 13.275065 -19.942776 26.496111 -0.864799 2.422901 0.019278 -0.008457 -179687.000000 0 0 1
-11.888127 12.007365 -20.087276 26.248867 -0.790388 2.442245 0.026343 -0.013866 -219185.000000 0 0 1
-10.865827 11.067365 -20.192276 25.461358 -0.794587 2.486605 0.002843 0.008896 -259405.000000 0 0 1
-11.246027 9.792165 -20.986476 25.744743 -0.716402 2.523828 0.003778 0.002299 -44807.900000 0 0 1
-11.198627 10.053565 -22.397676 26.984056 -0.731570 2.549964 0.011412 -0.000878 -102257.000000 0 0 1
-11.055227 8.881365 -23.173176 27.167863 -0.676788 2.592432 0.002897 0.018373 -209585.000000 0 0 1
-11.050827 8.978565 -24.706676 28.515877 -0.682304 2.618780 0.005536 0.000783 -792357.000000 0 0 1
-10.033027 9.691365 -25.323906 28.911665 -0.768078 2.638107 0.010453 -0.008512 -542703.000000 0 0 1
-10.042427 9.371065 -26.742016 30.063310 -0.750830 2.667097 0.012524 -0.007800 -290654.000000 0 0 1
-9.350427 10.411165 -27.661956 31.000107 -0.839023 2.673251 0.024805 -0.017708 -1089340.000000 0 0 1
-7.995727 10.570765 -27.556086 30.577943 -0.923212 2.693270 0.028827 -0.018035 -1209630.000000 0 0 1
-7.579727 11.368565 -26.502826 29.817718 -0.982752 2.665578 0.009574 -0.003323 -1095240.000000 0 0 1
-6.090227 11.663365 -26.632566 29.705530 -1.089573 2.682720 0.002350 -0.000993 -549023.000000 0 0 1
-5.723327 12.420065 -27.801996 30.983309 -1.138987 2.684460 0.003608 -0.012897 943610.000000 0 0 1
-4.324127 12.707565 -27.938626 30.995921 -1.242807 2.693707 0.009847 -0.007792 819773.000000 0 0 1
-3.851727 12.927465 -29.432276 32.376133 -1.281222 2.711851 0.003946 -0.002770 617270.000000 0 0 1
-2.434127 13.099365 -29.474876 32.346354 -1.387072 2.717050 0.000910 -0.007255 561165.000000 0 0 1
-1.876027 13.007265 -30.809406 33.495192 -1.427555 2.738407 -0.002447 -0.002984 -245584.000000 0 0 1
-0.389027 12.703065 -30.779286 33.299905 -1.540181 2.750008 0.006185 -0.005853 -777039.000000 0 0 1
-0.106827 11.392265 -30.354536 32.422106 -1.561419 2.782539 -0.015491 0.012509 1772590.000000 0 0 1
1.306273 10.980365 -30.373486 32.323728 1.452388 2.792447 0.002864 0.002475 1944510.000000 0 0 1
1.770173 10.389065 -31.750746 33.454089 1.402029 2.821112 0.008297 -0.006364 -416711.000000 0 0 1
1.702373 11.338665 -32.810506 34.756189 1.421771 2.805405 0.014304 -0.007069 277446.000000 0 0 1
1.674673 10.712365 -34.054616 35.739001 1.415721 2.833355 0.014501 -0.008014 -131619.000000 0 0 1
1.680373 11.770465 33.899179 35.923834 1.428993 0.337334 0.022423 -0.013700 89301.500000 0 0 1
2.994873 12.246365 33.619157 35.905298 1.330952 0.358772 0.020527 -0.016298 415618.000000 0 0 1
2.912473 13.121665 32.504643 35.174030 1.352378 0.392099 0.028459 -0.015486 -112717.000000 0 0 1
4.327573 13.437765 32.012593 34.987248 1.259239 0.415341 0.045104 -0.014358 -290456.000000 0 0 1
5.022173 12.288365 31.582023 34.258580 1.182818 0.397912 0.047128 -0.012914 -119995.000000 0 0 1
6.350773 12.643665 31.258223 34.311384 1.105319 0.425055 0.048428 -0.009604 2024.400000 0 0 1
7.218073 11.456165 30.809593 33.653756 1.008567 0.414078 0.027798 0.000282 -73262.900000 0 0 1
6.832173 10.926165 29.529393 32.218701 1.011979 0.411481 0.026343 -0.002582 -239184.000000 0 0 1
7.757473 9.999565 29.102013 31.734789 0.910998 0.410207 0.018916 -0.003175 -194478.000000 0 0 1
7.171473 9.138565 27.943783 30.262161 0.905425 0.393976 0.012273 0.000722 543990.000000 0 0 1
6.146773 8.285265 28.457033 30.269310 0.932504 0.347790 0.015174 -0.003498 124286.000000 0 0 1
5.601873 7.428365 27.485373 29.017362 0.924664 0.326395 0.022619 -0.005965 -225746.000000 0 0 1
4.830073 6.279865 28.217163 29.308268 0.915160 0.273722 0.022909 -0.011547 -157455.000000 0 0 1
5.650273 5.342965 28.854613 29.884135 0.757451 0.263249 0.006798 -0.007511 -105066.000000 0 0 1
4.874073 4.701665 29.840903 30.599701 0.767395 0.223162 -0.002344 -0.003655 75699.300000 0 0 1
5.556873 3.460165 30.595973 31.288419 0.556931 0.210776 -0.005414 0.002916 304288.000000 0 0 1
5.661673 2.193765 29.925373 30.535145 0.369664 0.200182 -0.008999 0.001926 -88885.800000 0 0 1
6.772273 2.142265 29.051033 29.906780 0.306369 0.239797 0.004568 0.001211 -220411.000000 0 0 1
6.837773 0.789465 28.218133 29.045506 0.114947 0.239256 -0.003936 0.001794 -113615.000000 0 0 1
7.135273 -0.298135 29.078013 29.942142 -0.041759 0.240831 -0.015355 0.007475 83959.800000 0 0 1
7.248673 -1.475435 28.254703 29.206992 -0.200802 0.256061 -0.004424 0.007302 -362993.000000 0 0 1
7.620173 -2.639135 29.222043 30.314351 -0.333406 0.269263 -0.007181 0.006676 761292.000000 0 0 1
9.007373 -2.543635 29.583813 31.029097 -0.275228 0.306413 -0.008826 -0.002022 447168.000000 0 0 1
9.785073 -3.505635 28.934773 30.745052 -0.344018 0.344869 -0.005961 0.008799 -790221.000000 0 0 1
11.273673 -3.404935 29.286723 31.565827 -0.293314 0.382329 -0.004955 0.007711 67352.000000 0 0 1
12.168773 -4.296935 28.627953 31.402267 -0.339444 0.423509 0.003849 0.001379 283090.000000 0 0 1
12.341473 -5.435935 29.392333 32.338376 -0.414893 0.430159 0.007616 0.002562 -295605.000000 0 0 1
11.659673 -6.794735 28.927413 31.920395 -0.527643 0.436502 0.007255 0.010989 241526.000000 0 0 1
10.249273 -6.723835 28.996243 31.480782 -0.580603 0.399957 0.001182 0.016790 -133788.000000 0 0 1
9.654473 -7.986935 28.812613 31.419208 -0.691154 0.410207 -0.005725 0.017840 379164.000000 0 0 1
8.101873 -7.971435 28.821713 30.981854 -0.777283 0.375629 -0.004909 0.020992 286814.000000 0 0 1
7.610573 -7.398835 30.015853 31.837321 -0.771292 0.339899 -0.004661 0.022651 425217.000000 0 0 1
6.197773 -7.216435 29.873933 31.351893 -0.861192 0.308273 -0.015186 0.015756 677606.000000 0 0 1
5.480573 -6.480235 31.042503 32.181782 -0.868783 0.266879 -0.021038 0.018509 -138.697000 0 0 1
5.393473 -7.274935 32.154433 33.405416 -0.932837 0.274534 -0.028227 0.018171 89450.200000 0 0 1
4.856873 -6.575435 33.307675 34.296163 -0.934606 0.240673 -0.024042 0.013580 226896.000000 0 0 1
5.685573 -5.423835 33.965178 34.862258 -0.761843 0.227347 -0.012187 0.007986 -102146.000000 0 0 1
5.707073 -4.308535 33.049758 33.814504 -0.646659 0.213081 -0.008157 0.010665 -36310.000000 0 0 1
6.404173 -3.253235 33.687557 34.444861 -0.470017 0.210081 -0.004902 0.006960 -333560.000000 0 0 1
6.337573 -1.930635 32.932393 33.592182 -0.295702 0.198523 -0.006192 0.007130 -413647.000000 0 0 1
5.061873 -1.390835 32.733313 33.151572 -0.268150 0.159017 -0.008893 0.008385 -632257.000000 0 0 1
5.143273 -0.172835 32.061753 32.472128 -0.033592 0.159151 -0.010447 0.006488 -276560.000000 0 0 1
3.770873 0.374865 31.628563 31.854764 0.099085 0.119243 0.005225 0.001869 340187.000000 0 0 1
3.057673 0.738065 32.850323 33.000573 0.236850 0.095461 0.004709 -0.001618 247143.000000 0 0 1
1.698273 1.119665 32.713323 32.776505 0.582882 0.062101 0.009029 0.002507 464921.000000 0 0 1
1.010273 1.425665 34.068426 34.113206 0.954300 0.051244 0.007864 -0.004468 -370433.000000 0 0 1
1.439873 2.558865 -34.375844 34.501010 1.058255 3.056386 0.013738 -0.003406 -570577.000000 0 0 1
0.807773 2.724665 -33.153826 33.275404 1.282584 3.056084 -0.002422 0.004215 -396742.000000 0 0 1
1.509173 3.685965 -32.166966 32.412616 1.182181 3.018398 0.003815 0.006763 -384283.000000 0 0 1
2.544673 3.196665 -31.379116 31.644003 0.898475 3.012112 0.005535 0.010695 -184032.000000 0 0 1
3.083073 4.213965 -30.516406 30.959875 0.939154 2.972133 -0.001040 0.014292 136985.000000 0 0 1
4.091673 3.703665 -29.468416 29.980768 0.735665 2.956453 0.007736 0.007333 17984.700000 0 0 1
3.462073 2.913965 -28.470496 28.827873 0.699645 2.983969 0.010699 -0.005198 626151.000000 0 0 1
4.457173 2.324465 -27.648046 28.101316 0.480708 2.961740 0.013167 -0.008385 376637.000000 0 0 1
3.772273 1.481465 -26.555256 26.862733 0.374219 2.990146 0.007421 -0.007544 169403.000000 0 0 1
3.072873 0.332065 -26.966416 27.142963 0.107646 3.027475 0.020287 -0.001657 -267547.000000 0 0 1
2.861273 -0.510035 -25.863786 26.026572 -0.176402 3.029690 0.014844 0.006263 -364912.000000 0 0 1
3.702273 -1.782535 -25.714256 26.040492 -0.448714 2.983136 0.026890 -0.000289 224003.000000 0 0 1
5.036573 -1.593035 -25.257126 25.803629 -0.306337 2.935416 0.026129 -0.008240 -66947.700000 0 0 1
5.539773 -2.913335 -25.143106 25.910469 -0.484148 2.897612 0.032456 -0.016656 581666.000000 0 0 1
7.018973 -2.957435 -24.635476 25.786025 -0.398774 2.841743 0.034277 -0.018465 988246.000000 0 0 1
7.999273 -2.382735 -25.467276 26.800148 -0.289501 2.824886 0.026086 -0.011772 -596619.000000 0 0 1
9.309873 -2.585735 -25.037076 26.836821 -0.270913 2.773284 0.017638 -0.009777 -134611.000000 0 0 1
-28.389927 -4.161235 17.687253 33.706717 0.145538 1.018387 0.017287 -0.002586 257309.000000 0 0 1
-29.726947 -3.911735 18.106953 35.026487 0.130837 1.027512 0.011523 0.013111 227785.000000 0 0 1
-30.198337 -4.861335 19.089853 36.055438 0.159611 1.012834 0.011608 0.010791 1238390.000000 0 0 1
-31.737227 -4.633835 19.338153 37.452479 0.144982 1.028227 0.009033 0.010986 1307320.000000 0 0 1
-32.653987 -4.694335 18.232653 37.692828 0.142782 1.065900 0.005450 0.009235 -393607.000000 0 0 1
-33.933607 -4.428535 18.685853 38.990546 0.129772 1.071007 0.018972 0.014876 -1223580.000000 0 0 1
-34.963000 -4.532035 17.564853 39.388764 0.128905 1.108577 0.010001 0.013126 -456428.000000 0 0 1
33.929826 -4.829835 18.113453 38.764127 -0.141398 1.084592 0.016922 0.015774 -929020.000000 0 0 1
32.931476 -4.703135 17.170653 37.435717 -0.141857 1.094298 0.011572 0.010420 -543646.000000 0 0 1
31.548446 -5.187135 17.631253 36.511257 -0.162960 1.066834 0.010708 0.018422 -203457.000000 0 0 1
30.969036 -4.496735 18.714653 36.462858 -0.144193 1.031826 0.022630 0.012539 -178366.000000 0 0 1
30.007246 -5.363535 19.263753 36.059596 -0.176874 1.007212 0.021386 0.012976 -42745.700000 0 0 1
29.332336 -4.734335 20.543253 36.122363 -0.160023 0.965856 0.027990 0.012062 317211.000000 0 0 1
28.401156 -3.685235 20.362053 35.140003 -0.129036 0.952736 0.034585 0.007731 213711.000000 0 0 1
29.059236 -2.489835 20.094253 35.417756 -0.085473 0.967512 0.038924 0.011959 163828.000000 0 0 1
28.104646 -1.264135 20.303053 34.694137 -0.044949 0.945668 0.044220 0.011454 260444.000000 0 0 1
28.704416 -0.003535 20.055353 35.016577 -0.000123 0.960953 0.036349 0.010186 522279.000000 0 0 1
27.807536 1.070865 20.449453 34.533837 0.038491 0.937063 0.042536 0.013915 543273.000000 0 0 1
28.210506 2.451865 19.977053 34.654392 0.086695 0.956400 0.014729 0.020011 -61046.900000 0 0 1
28.157876 2.600565 18.592153 33.842238 0.092095 0.989178 0.006729 0.017218 80615.500000 0 0 1
28.092116 3.906065 18.074053 33.631766 0.138159 1.003433 -0.004070 0.026620 110101.000000 0 0 1
28.303896 3.822865 16.548753 33.008878 0.134253 1.045647 -0.012239 0.023187 709.266000 0 0 1
27.953946 5.043165 15.889053 32.547175 0.178490 1.060787 -0.016945 0.031144 231741.000000 0 0 1
27.538666 4.752865 14.592653 31.526391 0.170905 1.089565 -0.000679 0.027944 -448496.000000 0 0 1
27.096626 5.933565 13.775553 30.970957 0.215575 1.109857 0.000277 0.029485 -392149.000000 0 0 1
25.829626 6.375565 14.166253 30.141336 0.241994 1.081512 -0.004464 0.019127 -473619.000000 0 0 1
25.427306 7.567065 13.577653 29.802030 0.289250 1.097756 0.010998 0.003424 -460053.000000 0 0 1
24.259926 8.284665 14.343353 29.375354 0.329079 1.060680 0.013731 -0.004323 764038.000000 0 0 1
22.942826 7.781565 14.207453 28.085187 0.326996 1.040406 0.004639 0.000800 576513.000000 0 0 1
22.825826 6.527765 14.846553 28.000896 0.278547 1.011940 0.010141 0.000554 -2138400.000000 0 0 1
21.512026 5.826765 14.669153 26.681501 0.264514 0.988687 0.030203 0.002412 -1210710.000000 0 0 1
21.192826 5.652765 13.283453 25.642538 0.260662 1.026257 0.039318 0.003659 860197.000000 0 0 1
19.959426 4.987765 13.015153 24.344418 0.244880 1.006731 0.047091 0.004235 31959.000000 0 1 0
19.690226 4.867865 11.507053 23.319806 0.242363 1.054750 0.054622 0.000437 -187839.000000 0 1 0
20.671226 4.218165 10.713453 23.661584 0.201296 1.100917 0.047224 -0.002538 608567.000000 0 1 0
20.170726 3.934465 9.408453 22.602150 0.192639 1.141464 0.047821 -0.008602 -400484.000000 0 1 0
21.177726 3.275765 8.494253 23.051660 0.153464 1.193415 0.038676 -0.001176 -1007150.000000 0 1 0
21.396226 1.863165 8.638353 23.149320 0.086860 1.188386 0.032546 -0.002439 324109.000000 0 1 0
22.330126 1.257465 7.799653 23.686501 0.056253 1.235248 0.026671 -0.002157 829415.000000 0 1 0
23.883426 1.550465 7.998053 25.234715 0.064827 1.248288 0.039844 -0.001111 931843.000000 0 0 1
24.529526 0.971465 9.125753 26.190089 0.039583 1.214887 0.013628 0.009515 461001.000000 0 0 1
24.204026 1.552765 10.374353 26.379408 0.064065 1.166606 0.013400 0.009661 -975647.000000 0 0 1
24.824026 0.977865 11.607553 27.421228 0.039372 1.133706 -0.006583 0.012526 201013.000000 0 0 1
26.250786 1.045265 11.649453 28.738582 0.039797 1.153424 -0.016673 0.019985 540642.000000 0 0 1
26.825476 0.269965 12.637753 29.654541 0.010063 1.130546 0.002449 0.010045 -82164.100000 0 0 1
28.369336 0.371365 12.633853 31.057549 0.013090 1.151861 0.010767 0.015578 224789.000000 0 0 1
28.871306 1.679165 12.881653 31.659262 0.058095 1.151756 0.000413 0.029950 904214.000000 0 0 1
30.293206 1.639665 13.095253 33.043191 0.054074 1.163305 0.004286 0.030140 805957.000000 0 0 1
30.875526 3.031365 13.390153 33.790286 0.097867 1.163343 0.001858 0.027511 -747235.000000 0 0 1
30.751636 3.871565 12.265553 33.333105 0.125239 1.193972 -0.002941 0.021877 126705.000000 0 0 1
31.433076 5.106765 12.281553 34.131420 0.161057 1.202709 -0.002525 0.016951 798354.000000 0 0 1
32.981186 4.996365 12.056953 35.469598 0.150348 1.223961 -0.007511 0.022197 620731.000000 0 0 1
33.753246 4.151665 12.925953 36.381289 0.122386 1.207571 -0.009124 0.022750 655894.000000 0 0 1
-35.014005 4.261665 12.610353 37.458822 -0.121117 1.227444 -0.004412 0.021488 371086.000000 0 0 1
-34.176739 3.117465 13.259553 36.791083 -0.090964 1.202098 0.010314 0.021800 -749224.000000 0 0 1
-34.332432 1.825665 12.694353 36.649632 -0.053126 1.217097 0.013811 0.026507 507474.000000 0 0 1
34.659918 1.056465 13.017253 37.038830 0.030471 1.211678 0.023367 0.027937 251788.000000 0 0 1
34.288685 0.892665 14.490753 37.235637 0.026028 1.171073 0.009779 0.034888 -79916.900000 0 0 1
-34.871380 0.093765 15.162753 38.025399 -0.002689 1.160639 0.019951 0.027108 555315.000000 0 0 1
35.061817 0.027865 16.591553 38.789321 0.000795 1.128811 0.030343 0.020670 -222235.000000 0 0 1
-34.052027 -0.755635 17.429753 38.261048 0.022187 1.097808 0.020272 0.018442 341258.000000 0 0 1
-32.832527 0.001465 17.558453 37.232702 -0.000045 1.079707 0.018374 0.023952 740099.000000 0 0 1
-31.844247 -0.707635 18.326853 36.748202 0.022218 1.048682 0.022454 0.016119 314729.000000 0 0 1
-31.858477 -0.760435 19.863353 37.551213 0.023865 1.013413 0.011781 0.011118 -572157.000000 0 0 1
-32.884197 -1.553935 20.381553 38.719411 0.047220 1.016446 0.015378 0.006733 -134552.000000 0 0 1
-32.835467 -1.496935 21.777853 39.429476 0.045557 0.985647 0.007140 0.001665 -104729.000000 0 0 1
-33.533537 -2.657335 22.452753 40.443611 0.079079 0.982239 0.004084 -0.001344 -577991.000000 0 0 1
-32.852437 -3.912335 22.343153 39.922493 0.118530 0.976817 0.012006 0.000863 206751.000000 0 0 1
-33.438087 -5.075135 22.978353 40.888475 0.150627 0.974023 0.014954 -0.000192 -17528.600000 0 0 1
-33.697837 -5.004635 24.511663 41.969182 0.147437 0.947100 0.004476 -0.008837 -359768.000000 0 0 1
-32.488897 -4.973835 25.203793 41.418578 0.151914 0.916609 0.003284 -0.010884 -764046.000000 0 0 1
-32.707097 -4.934635 26.573313 42.429303 0.149744 0.894003 0.001600 -0.013682 -177325.000000 0 0 1
-31.600417 -4.353935 27.503333 42.118599 0.136919 0.859261 0.003648 -0.014074 2891.860000 0 0 1
-31.475337 -2.947635 27.400673 41.835180 0.093377 0.856657 -0.002331 -0.000129 -339692.000000 0 0 1
-30.777177 -2.549535 26.241813 40.526133 0.082650 0.866460 0.001737 0.001301 -689883.000000 0 0 1
-30.702767 -1.042935 26.037153 40.270100 0.033956 0.867726 0.002464 0.000145 539328.000000 0 0 1
-31.909377 -0.336035 25.739273 40.997944 0.010531 0.892049 0.008443 -0.012218 170693.000000 0 0 1
-31.566247 1.010265 25.621323 40.668179 -0.031994 0.889231 -0.006941 0.008380 -90245.700000 0 0 1
-32.777037 1.919365 25.341393 41.475346 -0.058491 0.913474 0.001435 0.000120 -147510.000000 0 0 1
-33.551687 1.467565 24.274703 41.438275 -0.043713 0.944925 0.009712 0.014933 -76386.400000 0 0 1
-34.617715 2.312365 23.851953 42.102837 -0.066698 0.968524 0.008911 0.019889 356862.000000 0 0 1
-34.238489 3.556465 23.046753 41.425540 -0.103502 0.980820 0.011436 0.019191 -394127.000000 0 0 1
-33.636887 3.333165 21.819253 40.232200 -0.098770 0.997585 0.005352 0.002918 -107570.000000 0 0 1
-34.464544 3.644865 20.682853 40.359264 -0.105365 1.032739 0.011464 0.015572 -26856.500000 0 0 1
-33.963427 3.109165 19.360753 39.217598 -0.091290 1.054486 0.008309 0.017581 -66824.900000 0 0 1
-32.824677 3.697865 18.763753 37.989631 -0.112182 1.054207 0.003741 0.020781 254158.000000 0 0 1
-32.477877 3.042865 17.555653 37.044196 -0.093418 1.077069 0.011406 0.028165 17599.000000 0 0 1
-31.531427 3.905065 16.688853 35.888692 -0.123219 1.087142 0.016765 0.025853 30314.200000 0 0 1
-32.133617 5.098365 16.230153 36.359050 -0.157350 1.108074 0.010750 0.019992 189357.000000 0 0 1
-31.417597 5.631765 15.138153 35.326277 -0.177371 1.127938 0.015591 0.020843 -71541.600000 0 0 1
-31.836367 7.068565 14.787153 35.807524 -0.218484 1.145092 0.019178 0.003431 394288.000000 0 0 1
-31.066207 7.615665 13.715353 34.802564 -0.240402 1.165718 0.021185 0.006666 397192.000000 0 0 1
-31.465917 8.995065 13.584553 35.433814 -0.278441 1.177345 0.008715 -0.001750 -62537.700000 0 0 1
-30.986867 9.578465 12.228753 34.662304 -0.299797 1.210238 0.002277 0.004164 -258475.000000 0 0 1
-31.114277 11.024165 12.180753 35.185241 -0.340511 1.217290 0.001884 0.002682 128858.000000 0 0 1
-30.828627 11.640065 10.941453 34.721906 -0.361025 1.250217 -0.009072 -0.002192 -321643.000000 0 0 1
-30.631807 13.162265 11.113453 35.143444 -0.405839 1.249042 -0.009296 0.002760 135520.000000 0 0 1
-30.024087 13.880565 10.015653 34.560515 -0.433047 1.276778 -0.003865 -0.002099 387886.000000 0 0 1
-29.684707 15.181665 10.448553 34.940478 -0.472750 1.267111 -0.003716 0.003995 29361.600000 0 0 1
-28.941267 16.016465 9.398753 34.386925 -0.505460 1.293950 0.019532 -0.000839 1159770.000000 0 0 1
-27.556877 15.747665 9.047253 33.003381 -0.519170 1.293110 0.014457 0.004520 1393020.000000 0 0 1
-27.068057 16.754065 8.176353 32.866870 -0.554245 1.319384 0.002197 -0.005504 -938244.000000 0 0 1
-25.648497 17.164365 8.460253 32.000573 -0.589765 1.303237 0.006182 0.002061 -1205970.000000 0 0 1
-25.440017 17.889665 9.676053 32.570854 -0.612877 1.269166 0.002078 0.007326 26012.000000 0 0 1
-26.039847 19.129965 9.863653 33.783440 -0.633599 1.274513 0.004032 -0.008258 -621155.000000 0 0 1
-26.123607 19.471865 11.339153 34.498880 -0.640534 1.235889 0.010843 0.002566 -104397.000000 0 0 1
-24.873627 19.634865 11.972753 33.875833 -0.668235 1.209561 0.008753 0.004773 147507.000000 0 0 1
-24.992227 20.004165 13.347153 34.683202 -0.674994 1.175772 0.009861 -0.002053 -2238.570000 0 0 1
-25.549517 18.969565 14.338853 34.903079 -0.638660 1.147444 0.013867 0.002000 -116910.000000 0 0 1
-24.630327 17.946765 14.646753 33.812228 -0.629693 1.122779 0.026269 0.004063 123933.000000 0 0 1
-25.060527 17.132465 15.732853 34.191724 -0.599664 1.092648 0.030015 0.004177 -823853.000000 0 0 1
-24.125327 16.013265 16.216253 33.187692 -0.585983 1.060286 0.032302 0.007391 -251886.000000 0 0 1
-23.024627 16.552365 16.908553 33.015351 -0.623297 1.033119 0.032670 0.006324 977655.000000 0 0 1
-21.902527 15.656065 17.221153 31.959367 -0.620594 1.001731 0.011914 -0.010183 1142580.000000 0 0 1
-22.124227 14.433465 18.193953 32.075321 -0.578048 0.967663 0.018673 0.001947 -502505.000000 0 0 1
-22.314527 14.720865 19.605253 33.151288 -0.583163 0.938018 0.014861 0.001778 185721.000000 0 0 1
-22.453327 13.544765 20.382053 33.212055 -0.542799 0.910065 0.010717 -0.000343 -600261.000000 0 0 1
-22.197127 13.689165 21.875353 34.038753 -0.552615 0.872831 0.007102 -0.004554 428990.000000 0 0 1
-20.828727 13.898365 22.238753 33.489738 -0.588420 0.844578 0.010686 -0.000625 633335.000000 0 0 1
-20.378127 15.246765 22.188453 33.764765 -0.642343 0.853767 0.021342 0.012319 -305499.000000 0 0 1
-18.882027 15.350765 22.617153 33.222169 -0.682607 0.821963 0.042558 -0.001940 732420.000000 0 0 1
-17.961127 14.844965 21.658553 31.813016 -0.690695 0.821931 0.024341 0.003408 -116599.000000 0 0 1
-17.607327 15.807465 20.718853 31.450990 -0.731586 0.851619 0.029238 -0.001867 -1217180.000000 0 0 1
-16.387027 15.299365 19.905753 29.980731 -0.751086 0.844705 0.020257 0.010048 1612220.000000 0 0 1
-15.186627 15.000265 20.686053 29.724642 -0.779225 0.801092 0.019738 0.011167 1017910.000000 0 0 1
-14.471927 16.116365 21.197653 30.307002 -0.839107 0.796195 0.012128 0.005154 -1395760.000000 0 0 1
-13.347227 15.640865 22.046853 30.147120 -0.864357 0.750557 -0.022135 0.010920 -1480380.000000 0 0 1
-12.355527 14.902865 21.424253 28.874782 -0.878579 0.734791 -0.006965 0.011719 -702639.000000 0 0 1
-11.610627 14.295165 22.471853 29.054132 -0.888657 0.686534 0.006564 0.005252 -618189.000000 0 0 1
-10.447227 13.483165 21.986853 27.827360 -0.911589 0.659797 -0.002224 0.007706 -1739180.000000 0 0 1
-9.900827 12.593665 22.958853 27.995280 -0.904542 0.609215 0.009018 0.005529 498939.000000 0 0 1
-8.698527 11.928965 22.608053 27.001641 -0.940745 0.578499 0.010073 0.015201 -20108.300000 0 0 1
-7.408027 12.737565 22.567953 26.952494 -1.044024 0.578428 0.003312 0.011770 -1261990.000000 0 0 1
-7.336627 13.689465 21.574353 26.583458 -1.078818 0.623961 -0.001450 0.008928 224994.000000 0 0 1
-6.374627 14.760165 21.726753 27.028691 -1.163112 0.637073 0.003522 0.010331 418161.000000 0 0 1
-6.990727 15.998665 22.409353 28.407862 -1.158842 0.661872 -0.006393 0.011149 -45597.700000 0 0 1
-7.962427 16.670565 21.644453 28.456815 -1.125201 0.706549 -0.032309 0.007698 -212039.000000 0 0 1
-7.386027 17.577765 20.704053 28.145852 -1.173006 0.744246 -0.013758 0.011192 -1300050.000000 0 0 1
-8.447927 17.917565 19.652153 27.903650 -1.130217 0.789379 -0.005086 0.011212 938622.000000 0 0 1
-9.482927 18.857265 20.026153 29.095861 -1.104848 0.811678 -0.023818 0.018494 433135.000000 0 0 1
-10.420427 18.368765 20.950353 29.747506 -1.054775 0.789398 -0.027095 0.015961 -79876.100000 0 0 1
-11.814227 19.093765 21.056453 30.781845 -1.016706 0.817490 -0.023907 0.006671 1002410.000000 0 0 1
-12.658327 18.932065 19.921553 30.257637 -0.981444 0.852109 -0.011749 0.008304 147403.000000 0 0 1
-13.823427 19.735165 20.057453 31.350682 -0.959771 0.876588 -0.004746 0.000188 126726.000000 0 0 1
-14.659027 19.749965 18.780853 30.946221 -0.932286 0.918659 0.011256 0.003406 -156241.000000 0 0 1
-15.170527 18.451565 18.372653 30.135685 -0.882676 0.915159 0.029698 0.002722 407321.000000 0 0 1
-15.821927 18.551165 17.076153 29.766996 -0.864632 0.959828 0.040260 -0.006541 -308939.000000 0 0 1
-16.780927 17.365965 16.761553 29.396018 -0.802529 0.964049 0.038028 -0.005536 1366250.000000 0 0 1
-17.945827 17.218165 17.610753 30.473866 -0.764708 0.954647 0.035485 -0.005054 560448.000000 0 0 1
-18.996827 18.120065 17.474353 31.536791 -0.761781 0.983522 0.038999 -0.007535 -610400.000000 0 0 1
33.183246 -9.378235 12.074024 36.535752 -0.275436 1.233993 -0.003472 0.014006 15588.600000 0 0 1
31.999056 -10.039635 11.653524 35.504063 -0.304021 1.236366 -0.003946 0.015490 233195.000000 0 0 1
31.910956 -11.244935 12.296524 35.999475 -0.338798 1.222204 -0.008671 0.013237 -401065.000000 0 0 1
30.506926 -11.849435 12.151724 34.910543 -0.370482 1.215272 -0.004258 0.027879 -718418.000000 0 0 1
29.562456 -11.021135 12.800624 34.047910 -0.356848 1.185365 -0.014305 0.027847 742889.000000 0 0 1
28.259886 -11.641535 12.870324 33.163108 -0.390762 1.172236 -0.012967 0.024213 760693.000000 0 0 1
28.102396 -12.612335 14.042524 33.852742 -0.421855 1.143060 -0.020839 0.026136 -1403550.000000 0 0 1
28.138316 -11.947135 15.320824 34.193954 -0.401520 1.106206 -0.015166 0.021808 253203.000000 0 0 1
27.032676 -12.278735 16.138424 33.793219 -0.426356 1.072916 -0.011539 0.017415 -539405.000000 0 0 1
25.709176 -11.658535 15.768124 32.334454 -0.425742 1.061392 -0.010542 0.005566 -1367610.000000 0 0 1
25.551496 -10.369935 16.352124 32.059421 -0.385535 1.035546 -0.024882 0.030281 263913.000000 0 0 1
24.656026 -9.588035 15.540824 30.681709 -0.370877 1.039655 0.000990 0.017366 208359.000000 0 0 1
24.379226 -8.151835 16.131024 30.348130 -0.322689 1.010387 0.025885 0.003101 -174520.000000 0 0 1
25.481216 -7.267235 16.060024 30.984342 -0.277824 1.025903 0.009273 0.001391 -128320.000000 0 0 1
25.307136 -5.975735 16.610624 30.855686 -0.231881 1.002339 0.007127 0.015181 -701535.000000 0 0 1
26.495136 -5.061635 16.408724 31.573068 -0.188766 1.024289 0.014036 0.009228 -463546.000000 0 0 1
26.658236 -4.609735 15.043724 30.955207 -0.171227 1.063308 0.022862 0.006042 1350920.000000 0 0 1
27.940596 -3.932835 14.933324 31.924101 -0.139838 1.084024 0.029338 0.013940 1020170.000000 0 0 1
28.006996 -3.350835 13.533124 31.285226 -0.119077 1.123452 0.028579 0.011555 -119885.000000 0 0 1
28.428876 -4.201135 12.486024 31.332911 -0.146715 1.160920 0.008617 0.011637 400876.000000 0 0 1
28.708436 -3.440235 11.330524 31.054634 -0.119265 1.197316 0.012445 0.007666 -219012.000000 0 0 1
29.182206 -4.290535 10.150624 31.193669 -0.145980 1.239355 0.020595 0.011100 -114438.000000 0 0 1
30.458366 -4.872235 10.308024 32.522394 -0.158620 1.248283 0.019668 0.007918 67205.900000 0 0 1
30.799056 -5.667135 9.211824 32.642855 -0.181968 1.284709 0.017380 0.006472 1100550.000000 0 0 1
32.276016 -6.222835 9.353024 34.175195 -0.190464 1.293581 0.017573 0.004492 909592.000000 0 0 1
33.357606 -5.442635 8.931224 34.958817 -0.161735 1.312454 0.031282 0.006866 306560.000000 0 0 1
34.447231 -6.314735 8.556624 36.051399 -0.181303 1.331164 0.029885 -0.010382 777727.000000 0 0 1
-34.377227 -5.644235 8.157124 35.779740 0.162733 1.340792 0.040802 -0.009799 -8466.640000 0 0 1
-34.545935 -4.921135 6.988724 35.587659 0.141500 1.373131 0.052501 -0.010355 231673.000000 0 0 1
-33.389867 -4.167235 6.707624 34.310950 0.124163 1.374034 0.033864 0.004750 -267485.000000 0 0 1
-33.610487 -3.484135 5.304624 34.204430 0.103293 1.415082 0.046280 -0.006823 -224604.000000 0 0 1
-33.294467 -4.322835 4.197624 33.835314 0.129114 1.446415 0.037104 -0.013288 286967.000000 0 0 1
-33.160787 -3.498135 3.045724 33.483596 0.105101 1.479709 0.035662 -0.006783 -3348.220000 0 0 1
-32.348047 -4.147735 1.891324 32.667674 0.127526 1.512868 0.037309 -0.009171 312494.000000 0 0 1
-33.069177 -5.238835 1.305724 33.507026 0.157115 1.531818 0.045178 -0.005816 1283770.000000 0 0 1
-34.123711 -4.867535 0.353124 34.470933 0.141688 1.560552 0.034922 -0.000576 515006.000000 0 0 1
-33.672317 -4.863735 -1.120976 34.040233 0.143451 1.603733 0.056622 -0.001705 -479370.000000 0 0 1
-33.435197 -6.244135 -1.517076 34.047072 0.184627 1.615369 0.056312 -0.017612 856064.000000 0 0 1
-32.495177 -6.461035 -2.597676 33.232957 0.196271 1.649042 0.050650 -0.013989 -165120.000000 0 0 1
-31.010707 -6.324835 -2.308676 31.733223 0.201197 1.643613 0.051238 -0.018194 -892953.000000 0 0 1
-30.499247 -7.375635 -1.555476 31.416931 0.237275 1.620327 0.053532 -0.015830 -192431.000000 0 0 1
-29.612737 -6.889235 -0.570276 30.408896 0.228578 1.589551 0.032258 -0.017319 -22038.100000 0 0 1
-29.183877 -7.938535 0.469024 30.247959 0.265592 1.555290 0.013901 -0.012546 -277500.000000 0 0 1
-28.394617 -8.881535 -0.180476 29.751782 0.303149 1.576862 0.009487 -0.002558 157333.000000 0 0 1
-28.030487 -9.949835 0.761324 29.753773 0.341091 1.545206 0.013307 0.000761 40057.900000 0 0 1
-27.564747 -11.295735 0.157024 29.789823 0.388917 1.565525 0.001363 -0.001969 661852.000000 0 0 1
-26.275267 -11.288435 -0.489676 28.601717 0.405779 1.587918 -0.009252 0.002232 1140020.000000 0 0 1
-25.805937 -12.618335 -0.945776 28.741316 0.454785 1.603709 -0.018603 0.003337 -34388.700000 0 0 1
-26.523377 -13.454035 -2.064776 29.812143 0.469432 1.640111 -0.014178 0.002368 -409655.000000 0 0 1
-27.594497 -14.176835 -1.501276 31.059503 0.474592 1.619151 -0.002035 -0.003694 -25763.800000 0 0 1
-28.175557 -15.032535 -2.435276 32.027640 0.490111 1.646906 -0.004294 -0.008269 -894119.000000 0 0 1
-29.078967 -16.072135 -1.889076 33.278649 0.504919 1.627592 0.008626 -0.012724 -578680.000000 0 0 1
-28.410067 -17.071135 -1.103876 33.162842 0.541069 1.604089 -0.004811 -0.008426 -30232.200000 0 0 1
-29.023817 -17.364335 0.101924 33.821775 0.539153 1.567783 -0.003200 -0.000124 -561251.000000 0 0 1
-29.351107 -18.863435 0.187824 34.890571 0.571214 1.565413 0.011826 -0.010877 -712441.000000 0 0 1
-28.320267 -19.791835 0.310624 34.552145 0.609959 1.561806 0.016431 -0.016762 -292578.000000 0 0 1
-28.766997 -21.156435 0.311624 35.710390 0.634118 1.562070 0.027910 -0.021796 27671.900000 0 0 1
-29.544347 -21.706735 1.518224 36.692721 0.633648 1.529408 0.034211 -0.013177 -190304.000000 0 0 1
-28.756207 -21.664535 2.679924 36.103373 0.645665 1.496499 0.033901 -0.011746 268783.000000 0 0 1
-29.523957 -22.272335 3.728824 37.170218 0.646300 1.470310 0.032045 -0.009121 440301.000000 0 0 1
-28.740757 -22.327035 5.060124 36.744149 0.660460 1.432645 0.019464 -0.003189 -143453.000000 0 0 1
-28.365237 -21.033835 5.528124 35.743098 0.638062 1.415510 -0.001718 0.000004 272970.000000 0 0 1
-27.529167 -21.126335 6.681024 35.338551 0.654555 1.380594 -0.015127 0.005419 170631.000000 0 0 1
-27.439087 -19.747935 7.386224 34.604057 0.623826 1.355692 -0.021457 0.012749 -100975.000000 0 0 1
-26.400807 -19.804735 8.320324 34.036127 0.643601 1.323838 -0.019745 0.008047 -278370.000000 0 0 1
-26.260127 -18.470235 8.872724 33.308694 0.612975 1.301162 -0.020488 0.007278 113698.000000 0 0 1
-25.108147 -18.504835 9.897024 32.723066 0.635132 1.263536 -0.018285 0.014706 178499.000000 0 0 1
-25.546287 -19.252635 11.004824 33.828729 0.645825 1.239457 -0.017325 0.016758 495950.000000 0 0 1
-24.468427 -19.443435 11.922224 33.449821 0.671460 1.206362 -0.009514 0.039274 298844.000000 0 0 1
-24.211027 -18.220435 12.838224 32.908632 0.645142 1.170037 -0.009476 0.020897 -523281.000000 0 0 1
-23.375427 -17.216135 12.276024 31.519941 0.634809 1.170742 -0.003879 0.008110 42331.000000 0 0 1
-23.117327 -16.111335 13.172024 31.104471 0.608668 1.133516 0.009145 0.012545 277595.000000 0 0 1
-22.243327 -16.463335 14.426124 31.207692 0.637165 1.090252 0.026545 0.014661 103478.000000 0 0 1
-22.993027 -17.127435 15.468824 32.577797 0.640227 1.076029 0.013123 0.002455 297239.000000 0 0 1
-22.111727 -17.457235 16.566524 32.682308 0.668306 1.039217 0.028184 0.003612 56414.500000 0 0 1
-22.689527 -18.356435 17.683624 34.124535 0.680221 1.026041 0.010531 0.031831 27191.700000 0 0 1
-23.627927 -17.655835 18.481524 34.807674 0.641735 1.011062 0.019855 0.018080 -76147.200000 0 0 1
-24.296927 -18.506135 19.363024 36.162749 0.650925 1.005766 -0.004899 0.029649 90537.000000 0 0 1
-25.428657 -17.743635 20.121324 36.963778 0.609235 0.995179 0.011207 0.019369 -139866.000000 0 0 1
-24.914027 -16.896835 21.102424 36.763080 0.595949 0.959400 0.033267 0.012390 -605467.000000 0 0 1
-25.867807 -16.099735 21.702624 37.407871 0.556717 0.951869 0.035904 0.002956 -666708.000000 0 0 1
-25.359547 -15.133535 22.829524 37.327171 0.538033 0.912707 0.034179 0.005785 79774.400000 0 0 1
-24.398227 -14.205735 22.374324 36.023420 0.527262 0.900645 0.033866 0.005699 130865.000000 0 0 1
-23.508627 -13.773135 23.377924 35.901004 0.529969 0.861661 0.029874 0.004758 306819.000000 0 0 1
-22.274927 -12.972435 22.891824 34.474513 0.527362 0.844612 0.035903 0.007493 321699.000000 0 0 1
-22.768527 -11.863035 22.062724 33.851163 0.480328 0.860898 0.043786 0.004509 1244430.000000 0 0 1
-21.718127 -11.115735 21.403624 32.455381 0.473058 0.850672 0.043702 0.000353 127709.000000 0 0 1
-21.351027 -9.782635 22.031924 32.202049 0.429636 0.817321 0.042522 -0.001041 72157.800000 0 0 1
-20.810027 -9.760635 23.342124 32.759456 0.438570 0.777698 0.043664 -0.002808 714040.000000 0 0 1
-19.423627 -10.112335 23.395824 32.045299 0.480007 0.752349 0.023392 -0.000342 362747.000000 0 0 1
-18.860227 -10.232635 24.846024 32.828949 0.497106 0.712343 0.019056 0.000288 337237.000000 0 0 1
-19.178327 -11.483135 25.549524 33.947736 0.539504 0.718774 0.025968 0.004928 418369.000000 0 0 1
-18.393427 -11.478135 26.754024 34.436079 0.557905 0.681040 0.028438 0.008279 -348536.000000 0 0 1
-18.318227 -12.847735 27.506924 35.457758 0.611640 0.682868 0.033732 -0.007636 984948.000000 0 0 1
-19.465027 -13.199335 28.343824 36.830450 0.595880 0.692620 0.037970 -0.003843 763557.000000 0 0 1
-20.673027 -13.369535 27.633424 37.009791 0.574062 0.727782 0.024282 0.002944 1128960.000000 0 0 1
-21.996827 -13.569335 28.525924 38.493059 0.552737 0.736139 0.012614 0.004250 1251740.000000 0 0 1
-21.952427 -14.792135 29.265224 39.460989 0.592943 0.735308 0.008853 0.002541 190376.000000 0 0 1
-20.924527 -14.943135 30.261424 39.710035 0.620156 0.704308 0.006367 0.001168 194599.000000 0 0 1
-21.310527 -15.816835 31.437124 41.141264 0.638495 0.701110 -0.000171 0.000508 -522793.000000 0 0 1
-21.375327 -17.189335 31.115024 41.479182 0.677277 0.722529 0.002512 0.001871 79749.500000 0 0 1
-21.507927 -18.020535 32.265824 42.759958 0.697401 0.715782 0.011530 -0.000920 924888.000000 0 0 1
-22.958827 -18.146335 32.894724 44.027947 0.668851 0.727058 0.014807 -0.003985 793459.000000 0 0 1
-23.401727 -17.107235 33.750924 44.490709 0.631246 0.709625 0.020718 -0.007712 996148.000000 0 0 1
-24.705527 -17.432535 34.317724 45.737977 0.614483 0.722263 0.029398 -0.018512 1180320.000000 0 0 1
-25.375537 -16.234635 -34.076105 45.482548 0.569154 2.417669 0.032976 -0.010683 -280754.000000 0 0 1
-24.870827 -16.068335 -32.799105 44.187450 0.573609 2.407251 0.040517 -0.018515 -201923.000000 0 0 1
-25.344157 -14.871035 -32.283205 43.654087 0.530630 2.403158 0.039379 -0.012701 -282180.000000 0 0 1
-24.819627 -14.629835 -30.841005 42.204426 0.532623 2.390220 0.031900 -0.007690 105521.000000 0 0 1
-25.425097 -15.459035 -29.845605 42.144721 0.546298 2.357699 0.034808 -0.003427 248154.000000 0 0 1
-24.951727 -15.064235 -28.542705 40.794680 0.543161 2.345728 0.049209 -0.007808 125155.000000 0 0 1
-25.712937 -15.761935 -27.415705 40.758001 0.549921 2.308575 0.038130 -0.006649 196041.000000 0 0 1
-26.892117 -15.329935 -26.761505 40.919079 0.518109 2.283670 0.051525 -0.005327 289564.000000 0 0 1
-26.827727 -14.149235 -25.985705 39.939763 0.485335 2.279200 0.030519 -0.005559 -48593.600000 0 0 1
-25.797667 -14.145135 -24.792005 38.473991 0.501545 2.271013 0.024436 -0.016528 -323960.000000 0 0 1
-24.481827 -13.807335 -25.151305 37.717244 0.513515 2.300754 0.017653 -0.016514 190111.000000 0 0 1
-23.574827 -14.179935 -24.106105 36.577962 0.541512 2.290329 0.012181 -0.017440 -4073.090000 0 0 1
-22.999427 -15.576735 -24.191105 36.835009 0.595305 2.287287 0.016807 -0.015876 -1121440.000000 0 0 1
-22.242727 -15.816135 -25.346105 37.246665 0.618117 2.319232 0.019774 -0.011508 62906.400000 0 0 1
-21.862927 -17.184435 -25.488705 37.722228 0.666151 2.312703 0.029825 -0.012295 67707.100000 0 0 1
-20.973127 -17.473135 -26.723105 38.200875 0.694612 2.345552 0.028573 -0.013409 -316.586000 0 0 1
-21.608127 -17.443635 -27.970905 39.415265 0.679159 2.359793 0.035762 -0.013472 -166128.000000 0 0 1
-22.608327 -18.369935 -28.270405 40.593186 0.682334 2.341210 0.050599 -0.014238 -271695.000000 0 0 1
-23.075127 -18.410035 -29.733205 41.898143 0.673417 2.359804 0.028959 -0.016485 -588506.000000 0 0 1
-22.144127 -18.902635 -30.628305 42.258313 0.706591 2.381523 0.038404 -0.018251 -219577.000000 0 0 1
-22.650327 -18.924535 -31.959505 43.503854 0.696020 2.395927 0.028209 -0.012305 -70188.200000 0 0 1
-21.623527 -19.477635 -32.980805 43.985096 0.733236 2.418583 0.030486 -0.019097 130876.000000 0 0 1
-20.505727 -18.601235 -33.245805 43.264008 0.736737 2.447197 0.021783 -0.008553 1859730.000000 0 0 1
-19.198527 -19.033235 -32.782605 42.491725 0.781075 2.452001 0.026261 -0.015566 1071540.000000 0 0 1
-18.648227 -20.170335 -33.663805 43.449402 0.824589 2.457166 0.029895 -0.013574 -1319150.000000 0 0 1
-18.535127 -19.751835 34.097824 43.547073 0.817166 0.671305 0.035093 -0.015392 230926.000000 0 0 1
-18.351827 -20.821935 33.220024 43.288711 0.848370 0.696011 0.030621 -0.016390 -519361.000000 0 0 1
-19.637727 -21.310035 32.564824 43.591578 0.826216 0.727192 0.017549 -0.003815 -35267.200000 0 0 1
-20.457527 -22.126135 33.413924 44.995184 0.824562 0.733836 0.019729 -0.005531 1033930.000000 0 0 1
-21.715527 -22.611935 32.902624 45.447182 0.805618 0.761249 0.013516 0.002481 764390.000000 0 0 1
-21.676327 -23.807335 31.902824 45.325959 0.832216 0.789989 0.009809 0.009169 -565793.000000 0 0 1
-21.150327 -24.872635 32.601524 46.139394 0.866102 0.786132 0.011291 0.008912 -52872.000000 0 0 1
-21.235427 -26.023805 31.794224 46.249913 0.886375 0.812833 0.008440 0.013330 -176161.000000 0 0 1
-20.754227 -27.340075 32.481924 47.257730 0.921488 0.812982 0.018046 0.010210 -412543.000000 0 0 1
-21.600427 -27.918115 33.408124 48.601464 0.912295 0.812908 0.007813 0.009772 -369723.000000 0 0 1
-20.839927 -28.700085 34.314024 49.350275 0.942749 0.801937 0.017068 0.002101 -415092.000000 0 0 1
-21.673427 -29.632895 -33.830405 49.923364 0.939307 2.315354 0.013098 -0.003569 -567777.000000 0 0 1
-22.487627 -30.570555 -34.475505 51.271948 0.936577 2.308249 0.017338 -0.001486 1069270.000000 0 0 1
-23.719727 -30.041715 34.080424 51.250419 0.902454 0.843331 0.008909 0.000177 1282220.000000 0 0 1
-24.872927 -29.386475 -34.126205 51.447306 0.868392 2.296048 0.013201 0.004399 424525.000000 0 0 1
-26.037197 -28.972435 34.292424 51.897090 0.838706 0.848942 0.008030 0.004792 281624.000000 0 0 1
-26.779587 -28.127595 -33.915405 51.561251 0.809944 2.288650 0.001227 0.006293 203165.000000 0 0 1
-27.851097 -27.282085 34.438724 52.019434 0.775078 0.847265 -0.000146 -0.008089 253565.000000 0 0 1
-29.050867 -27.963315 34.147924 52.839195 0.766325 0.868121 0.012623 -0.004968 -372196.000000 0 0 1
-30.089817 -27.073735 33.870324 52.778623 0.732685 0.874027 0.017130 -0.012897 -496067.000000 0 0 1
