# x y z rho theta phi s1 s2 stress_xx np intf bulk
-0.840530 -10.771246 -14.405144 18.006510 1.492920 2.498086 -0.012668 0.009905 -724978.000000 1 0 0
1.971570 -13.404746 -13.083444 18.834830 -1.424763 2.338717 -0.017371 0.015417 1358730.000000 1 0 0
2.046370 -11.169646 -14.765044 18.626732 -1.389598 2.485989 -0.017036 0.012628 950198.000000 1 0 0
-5.670330 -6.270046 -16.238344 18.307100 0.835582 2.661597 0.006442 -0.003533 -27538.600000 1 0 0
4.340270 -14.087446 -11.474344 18.680328 -1.271930 2.232228 -0.016683 0.005343 415010.000000 1 0 0
14.017170 -10.696846 -8.127544 19.415472 -0.651848 2.002712 0.019857 -0.000947 422162.000000 1 0 0
6.984270 10.844354 -10.831244 16.843274 0.998618 2.269284 0.015279 -0.007991 524069.000000 1 0 0
5.633770 -4.249446 -12.672144 14.504495 -0.646235 2.633492 -0.005616 0.000596 3339420.000000 1 0 0
13.474970 0.516254 -10.154844 16.880823 0.038293 2.216250 -0.003141 0.005574 167205.000000 1 0 0
14.073670 5.045054 -10.374544 18.197580 0.344205 2.177431 0.003520 -0.004778 -920104.000000 1 0 0
4.022770 4.353754 -13.430244 14.680235 0.824891 2.725938 -0.006902 0.007216 955437.000000 1 0 0
10.104470 -5.050746 -13.753844 17.798274 -0.463530 2.453979 0.013244 -0.004005 -1537400.000000 1 0 0
2.449570 -7.629446 -12.034544 14.458184 -1.260125 2.554165 -0.011947 0.005242 2675710.000000 1 0 0
-5.644030 -1.936846 -15.197944 16.327398 0.330575 2.767459 0.001284 0.000120 188774.000000 1 0 0
10.512070 0.097454 -9.686144 14.294562 0.009270 2.315305 0.006883 -0.000442 2141500.000000 1 0 0
-1.811830 -9.572346 -16.977344 19.574032 1.383732 2.620629 -0.000510 0.005677 -28930.400000 1 0 0
8.397270 1.499454 -18.055544 19.969105 0.176702 2.700238 -0.009264 0.016561 -527827.000000 1 0 0
16.278870 -5.958346 -9.052444 19.556335 -0.350872 2.052050 0.010881 0.003266 -832899.000000 1 0 0
10.085570 7.551954 -9.984144 16.075878 0.642725 2.240895 0.010509 -0.005447 65535.600000 1 0 0
13.636070 -2.329446 -10.770444 17.532005 -0.169196 2.232333 0.007273 0.004206 -983825.000000 1 0 0
7.076170 -1.822146 -13.695844 15.523161 -0.252029 2.651490 0.000635 0.000100 139440.000000 1 0 0
-2.753730 6.783554 -13.775144 15.599814 -1.185178 2.653081 -0.009835 0.001422 205169.000000 1 0 0
10.952570 1.819154 -14.033544 17.894370 0.164591 2.472272 -0.005256 0.007575 220002.000000 1 0 0
-2.393230 10.824054 -12.910044 17.016372 -1.353194 2.432086 -0.003216 0.000122 -1362630.000000 1 0 0
2.681870 -1.174346 -15.280244 15.558193 -0.412732 2.952286 -0.002573 -0.001809 1223760.000000 1 0 0
-9.190030 0.547254 -15.239944 17.804831 -0.059478 2.598171 0.003477 0.005574 -1177320.000000 1 0 0
2.252470 -1.762246 -18.109544 18.333977 -0.663893 2.984963 0.003545 -0.005452 596324.000000 1 0 0
1.043670 7.943854 -13.104844 15.360045 1.440164 2.592843 -0.004722 -0.000072 -66405.800000 1 0 0
9.370770 -9.171746 -9.993644 16.486515 -0.774665 2.222033 0.015805 -0.000742 -869147.000000 1 0 0
3.878970 7.298454 -13.484444 15.815943 1.082284 2.591709 -0.008546 0.004223 200245.000000 1 0 0
-2.702330 9.227754 -15.479944 18.223136 -1.285914 2.585770 -0.012836 -0.000154 195259.000000 1 0 0
5.369970 -7.636246 -15.412744 18.019476 -0.957912 2.596999 0.001132 -0.000233 961150.000000 1 0 0
4.113870 7.289154 -16.476544 18.480589 1.056978 2.671573 -0.006444 0.007469 -1533660.000000 1 0 0
-0.223930 5.181454 -13.461744 14.426231 -1.527606 2.773856 -0.006661 0.001642 1060520.000000 1 0 0
8.543270 4.110354 -16.695644 19.199661 0.448431 2.625148 -0.007986 0.006585 -165855.000000 1 0 0
5.158470 0.295854 -14.333644 15.236492 0.057290 2.795615 -0.005581 0.003066 270525.000000 1 0 0
6.257170 7.984854 -11.597244 15.407989 0.906117 2.422915 0.001036 -0.001400 -788082.000000 1 0 0
2.559170 -8.292646 -15.112444 17.427085 -1.271462 2.620310 -0.009740 0.001049 -150120.000000 1 0 0
3.955470 11.586354 -13.811144 18.456355 1.241812 2.416313 -0.000030 -0.006575 -1033950.000000 1 0 0
0.432070 -4.546146 -13.718244 14.458366 -1.476040 2.820243 -0.006762 0.000848 951226.000000 1 0 0
8.342170 -0.126546 -11.655644 14.333940 -0.015168 2.520340 -0.000371 0.001240 -107829.000000 1 0 0
-1.106730 -5.062146 -16.276944 17.081834 1.355555 2.833390 -0.004483 -0.003383 1459710.000000 1 0 0
4.295570 0.911454 -11.610244 12.412914 0.209084 2.780004 -0.005222 0.002676 1172730.000000 1 0 0
-2.995730 -7.287546 -15.555244 17.436982 1.180779 2.672732 -0.005951 0.003084 2148760.000000 1 0 0
11.253770 -3.808346 -11.442344 16.494789 -0.326309 2.337402 0.012379 -0.002022 -74746.700000 1 0 0
6.345570 -7.089846 -12.735444 15.897286 -0.840738 2.499941 -0.000853 0.003427 -295826.000000 1 0 0
3.206470 -4.032946 -14.704744 15.581258 -0.899069 2.804577 -0.000544 -0.003025 5162420.000000 1 0 0
-0.699630 -1.564446 -18.400144 18.479780 1.150268 3.048722 0.009225 -0.004659 348054.000000 1 0 0
14.833470 2.849954 -8.576144 17.369638 0.189817 2.087186 -0.002878 -0.001974 -1130600.000000 1 0 0
6.830270 4.330454 -14.220644 16.359466 0.565052 2.624502 -0.003900 0.004086 3085230.000000 1 0 0
9.921470 -9.712346 -14.230044 19.881131 -0.774747 2.368503 0.019714 -0.004709 -598328.000000 1 0 0
8.877770 -3.103646 -15.608344 18.222728 -0.336316 2.599308 0.006939 -0.009730 228548.000000 1 0 0
-5.308130 -2.092346 -18.052244 18.932450 0.375477 2.835466 -0.007922 0.011819 -444700.000000 1 0 0
4.887170 -9.097946 -11.188244 15.226091 -1.077854 2.396179 -0.011192 0.006514 443936.000000 1 0 0
-2.508330 4.134954 -17.320044 17.982588 -1.025526 2.869298 -0.003683 0.011056 1093460.000000 1 0 0
9.465570 9.247054 -14.480144 19.615799 0.773721 2.401176 0.024223 -0.008260 -1521000.000000 1 0 0
9.789170 10.037354 -11.632744 18.218042 0.797915 2.263381 0.018337 -0.006214 632158.000000 1 0 0
11.937670 -5.949646 -9.818644 16.562368 -0.462361 2.205363 0.019412 -0.003773 -443342.000000 1 0 0
8.070170 6.892554 -13.661144 17.299185 0.706857 2.481114 0.001093 0.004365 210704.000000 1 0 0
3.845270 -4.184946 -17.597944 18.492904 -0.827673 2.829214 0.008022 -0.010248 638249.000000 1 0 0
9.209870 -7.552046 -12.504844 17.269228 -0.686815 2.380541 0.015468 -0.003691 274209.000000 1 0 0
11.908070 -8.705346 -8.981744 17.270116 -0.631260 2.117734 0.018703 -0.002913 735875.000000 1 0 0
-3.086030 -2.474846 -13.862644 14.416009 0.675930 2.863623 -0.001353 -0.000352 -1641210.000000 1 0 0
-0.434730 6.218654 -17.603544 18.674726 -1.501003 2.801249 -0.003119 0.006027 133667.000000 1 0 0
0.911370 -8.475346 -17.442244 19.413757 -1.463676 2.687017 -0.006189 -0.001129 437963.000000 1 0 0
0.074170 8.577854 -15.839844 18.013487 1.562150 2.645255 -0.007252 -0.002145 -1427300.000000 1 0 0
1.698570 3.454154 -14.955244 15.442656 1.113773 2.889679 -0.004758 0.006900 1249290.000000 1 0 0
-2.020030 -0.444846 -15.852144 15.986521 0.216758 3.011843 0.001555 0.002184 815267.000000 1 0 0
14.035370 -4.289446 -8.621744 17.021323 -0.296602 2.101947 0.011481 0.002688 -558990.000000 1 0 0
0.475470 0.622854 -14.583844 14.604880 0.918791 3.087914 -0.002326 0.005052 875063.000000 1 0 0
8.596970 2.679154 -12.535044 15.434153 0.302101 2.518646 -0.001295 0.002783 626109.000000 1 0 0
5.812470 0.837454 -17.090244 18.071042 0.143094 2.810616 -0.001221 0.007161 -1225790.000000 1 0 0
15.106570 1.588454 -12.464944 19.649592 0.104765 2.257979 -0.002897 0.002566 -748133.000000 1 0 0
8.691070 -11.320546 -12.021344 18.660176 -0.916047 2.270805 0.017052 0.002170 871911.000000 1 0 0
-4.669830 0.809854 -15.144044 15.868372 -0.171715 2.838286 0.000999 0.002524 1122990.000000 1 0 0
2.281070 5.113254 -17.341444 18.222906 1.151183 2.829291 -0.009451 0.008371 3222390.000000 1 0 0
5.836670 -11.741246 -12.412344 18.055189 -1.109465 2.328791 -0.002549 0.007294 1292810.000000 1 0 0
12.797770 7.160154 -8.667444 17.034533 0.510096 2.104605 0.007060 -0.003089 345631.000000 1 0 0
-4.974630 3.708354 -15.704944 16.886210 -0.640585 2.765333 -0.001133 0.004490 208775.000000 1 0 0
-0.681430 -4.431246 -19.076144 19.595906 1.418213 2.910759 0.011122 -0.009094 -995673.000000 1 0 0
9.661570 4.434854 -10.301844 14.803440 0.430330 2.340481 -0.000082 0.000239 260027.000000 1 0 0
13.026570 3.589854 -12.798844 18.611528 0.268905 2.329090 -0.006026 -0.004439 -604765.000000 1 0 0
-6.096030 6.104254 -17.038344 19.097870 -0.786072 2.672899 -0.008646 0.003565 -1551840.000000 1 0 0
-10.136230 3.393954 -15.430044 18.770943 -0.323101 2.535741 -0.000724 0.006202 -1430220.000000 1 0 0
10.788370 13.503954 -8.255844 19.154755 0.896724 2.016405 0.019141 -0.002421 1110960.000000 1 0 0
7.311270 13.544054 -12.111044 19.585031 1.075807 2.237479 0.026169 -0.015238 1393240.000000 1 0 0
5.155370 15.230254 -11.086244 19.530573 1.244407 2.174427 0.013280 -0.013111 -1095350.000000 1 0 0
14.106170 9.342054 -10.071044 19.689691 0.584951 2.107712 0.019635 -0.005245 -1391210.000000 1 0 0
8.305370 -17.199646 -2.328744 19.241363 -1.120938 1.692122 0.015345 0.003196 -255260.000000 1 0 0
0.617370 -16.063046 -0.018244 16.074916 -1.532381 1.571931 0.018832 -0.005038 3086900.000000 1 0 0
-9.124830 -11.725146 7.645256 16.709025 0.909473 1.095556 0.002352 -0.005941 297291.000000 1 0 0
1.960170 -15.993846 -2.644444 16.329068 -1.448847 1.733460 0.014982 -0.011616 2302840.000000 1 0 0
-1.345930 -11.007746 -9.391644 14.532205 1.449129 2.273475 -0.000450 0.005787 510515.000000 1 0 0
-4.896330 -12.832446 -13.002944 18.913547 1.206288 2.328828 0.014783 0.008317 218415.000000 1 0 0
-8.140330 -18.060446 -1.836444 19.895155 1.147338 1.663234 -0.021606 0.002284 -850429.000000 1 0 0
-11.409430 -7.048146 -8.815344 16.048730 0.553367 2.152306 0.005009 0.002257 3408580.000000 1 0 0
-13.563530 -11.479046 -4.644844 18.366067 0.702352 1.826477 -0.011506 0.004443 -383031.000000 1 0 0
-5.652530 -13.446346 9.709856 17.522461 1.172848 0.983470 0.006209 -0.014416 164564.000000 1 0 0
0.035770 -14.082946 -3.694844 14.559620 -1.568256 1.827376 0.015021 -0.005800 1474850.000000 1 0 0
-14.673230 -11.622546 2.011956 18.826450 0.669900 1.463723 -0.010265 0.007377 1358870.000000 1 0 0
-4.096130 -16.552046 -7.434744 18.601718 1.328201 1.981965 -0.002073 -0.004462 -909297.000000 1 0 0
0.304570 -15.271446 -9.289444 17.877460 -1.550855 2.117200 -0.005661 0.005057 70110.100000 1 0 0
4.456670 -14.279346 -2.696344 15.199734 -1.268270 1.749134 0.006025 -0.004063 656894.000000 1 0 0
-3.632530 -18.132046 -2.460244 18.655272 1.373076 1.703061 -0.002236 -0.010150 1584040.000000 1 0 0
-0.948230 -13.537346 0.633156 13.585278 1.500865 1.524173 0.007673 -0.001044 3910420.000000 1 0 0
-8.578630 -11.420946 -10.525044 17.742814 0.926572 2.205825 0.016566 -0.003202 685914.000000 1 0 0
-3.834630 -14.209946 -0.367244 14.722833 1.307219 1.595743 -0.003523 0.003022 5639870.000000 1 0 0
-1.658130 -14.977446 -7.220644 16.709607 1.460537 2.017644 -0.000161 -0.000528 1202750.000000 1 0 0
-14.278330 -7.929846 -1.772444 16.428473 0.506962 1.678895 -0.007108 0.005537 2129440.000000 1 0 0
-10.777430 -7.332046 -11.693144 17.511182 0.597392 2.301982 0.007732 0.002529 -306995.000000 1 0 0
-9.389930 -14.769146 6.889156 18.808480 1.004483 1.195789 -0.002626 -0.002591 1307260.000000 1 0 0
-2.553630 -14.480346 -12.344844 19.198870 1.396240 2.269203 0.009563 0.012289 128976.000000 1 0 0
2.352070 -17.805046 -4.885844 18.612452 -1.439455 1.836413 0.014584 -0.010575 -111101.000000 1 0 0
-6.705830 -9.688746 -9.239744 14.973738 0.965375 2.235802 0.009971 -0.003342 -338313.000000 1 0 0
-10.914630 -15.534846 0.352256 18.989067 0.958334 1.552245 -0.016431 0.007577 -443613.000000 1 0 0
-12.501830 -11.152246 4.114656 17.251050 0.728405 1.329959 0.002954 0.008510 2487780.000000 1 0 0
-17.103230 -8.898246 -1.383844 19.329104 0.479729 1.642451 -0.007888 0.007043 1705000.000000 1 0 0
-1.504230 -19.258846 -4.022644 19.731891 1.492849 1.776101 -0.001426 -0.005483 -631582.000000 1 0 0
3.017070 -14.379046 -8.753244 17.102016 -1.363973 2.108104 -0.013865 0.004161 737140.000000 1 0 0
-4.313530 -8.209546 -13.017644 15.983186 1.087013 2.522592 0.001621 0.004992 1431920.000000 1 0 0
5.616770 -16.604446 1.251156 17.573307 -1.244610 1.499540 0.018421 -0.000791 2542650.000000 1 0 0
-2.966530 -13.846746 -3.185244 14.514767 1.359747 1.792045 0.003273 -0.003163 286994.000000 1 0 0
-0.438530 -14.028846 3.675756 14.509032 1.539547 1.314662 0.005259 0.000028 -2965210.000000 1 0 0
1.293070 -16.232246 7.055056 17.746314 -1.491304 1.161951 0.015694 -0.006229 1367080.000000 1 0 0
-5.614530 -10.521646 -14.571544 18.829707 1.080618 2.455708 0.012427 0.004932 864946.000000 1 0 0
-0.380330 -17.341046 -5.891744 18.318547 1.548868 1.898244 0.003121 -0.007431 166798.000000 1 0 0
-6.665530 -13.470346 -1.246344 15.080878 1.111293 1.653535 -0.001611 -0.000646 2532160.000000 1 0 0
-1.800330 -17.727346 -0.116644 17.818911 1.469587 1.577342 0.003450 -0.002514 780122.000000 1 0 0
-9.528930 -9.820246 -4.854444 14.519069 0.800453 1.911711 0.009853 -0.003194 1341730.000000 1 0 0
-0.844330 -16.705346 4.943556 17.441910 1.520297 1.283428 0.014620 -0.007900 2206540.000000 1 0 0
-6.907830 -9.872946 -6.293844 13.594324 0.960290 2.052146 0.014275 -0.002279 2862670.000000 1 0 0
-6.105930 -14.592046 -8.512844 17.963260 1.174493 2.064514 0.007486 -0.006718 781134.000000 1 0 0
-5.852430 -12.263846 -10.310244 17.057373 1.125546 2.219865 0.013245 -0.001022 1693980.000000 1 0 0
-10.789330 -12.194146 -8.744744 18.481812 0.846445 2.063664 0.005644 -0.016184 -317164.000000 1 0 0
4.073670 -17.072746 6.622756 18.759913 -1.336569 1.209992 0.016022 -0.008492 1058650.000000 1 0 0
-6.856930 -14.448446 -4.101044 16.510410 1.127692 1.821816 0.002238 -0.007426 79234.500000 1 0 0
-2.945630 -12.262646 -7.108244 14.476752 1.335051 2.084046 0.008994 0.000395 2398730.000000 1 0 0
-7.003730 -12.814146 4.445556 15.264912 1.070596 1.275287 -0.005771 0.001764 -697538.000000 1 0 0
2.624270 -16.423646 2.251256 16.783656 -1.412350 1.436257 0.017440 -0.002698 3765540.000000 1 0 0
-6.202830 -11.963546 7.282456 15.317823 1.092476 1.075351 -0.002785 -0.005311 2020880.000000 1 0 0
-11.220930 -12.909746 -1.002544 17.134057 0.855271 1.629342 -0.011252 0.009397 -334875.000000 1 0 0
-14.157630 -8.847646 4.700356 17.343952 0.558555 1.296356 0.003423 -0.001370 -566103.000000 1 0 0
-7.859630 -15.538546 4.417656 17.964851 1.102508 1.322343 -0.013657 0.003190 -765330.000000 1 0 0
-16.383430 -9.177046 1.410556 18.831479 0.510596 1.495822 -0.009875 0.007338 113037.000000 1 0 0
-6.581930 -17.188746 2.383656 18.559542 1.205099 1.442008 -0.018383 0.008841 1580370.000000 1 0 0
-11.741830 -14.921946 -4.751844 19.573325 0.904105 1.816018 0.004804 -0.002436 -125706.000000 1 0 0
-10.206530 -10.044446 -12.506944 19.012832 0.777395 2.288712 0.015054 0.001413 -335971.000000 1 0 0
-4.546630 -16.044246 -4.524244 17.278844 1.294655 1.835722 0.000022 -0.005525 -1139190.000000 1 0 0
-11.850030 -8.285146 0.087356 14.459408 0.610166 1.564755 -0.006952 0.004458 1073290.000000 1 0 0
-9.548730 -11.218746 3.485356 15.138897 0.865640 1.338487 -0.008807 0.006833 1956290.000000 1 0 0
-14.117230 -12.900646 -0.526144 19.131118 0.740400 1.598302 -0.014715 0.015098 -234214.000000 1 0 0
5.486970 -14.902646 -7.186044 17.430861 -1.218011 1.995729 -0.000837 -0.013545 1245260.000000 1 0 0
-7.509030 -10.608546 -1.266244 13.058719 0.954836 1.667914 -0.003165 0.002073 2465490.000000 1 0 0
-11.698030 -8.156146 -5.979444 15.463517 0.608860 1.967826 0.002678 0.001118 -49421.900000 1 0 0
-14.469330 -6.561846 -9.205144 18.361754 0.425761 2.095922 -0.011884 0.004849 1664460.000000 1 0 0
-3.895630 -16.459946 1.518256 16.982664 1.338399 1.481276 -0.001737 -0.001038 101494.000000 1 0 0
-7.920730 -15.833246 0.092256 17.704185 1.106941 1.565585 -0.017540 0.004777 1555670.000000 1 0 0
1.131570 -18.559046 3.739156 18.965757 -1.509900 1.372343 0.023380 -0.009234 1003950.000000 1 0 0
-14.101930 -8.719446 -4.535344 17.189023 0.553778 1.837809 -0.011944 0.003724 -826835.000000 1 0 0
-3.318930 -14.500446 11.111056 18.567009 1.345787 0.929256 0.003150 -0.013370 -1185820.000000 1 0 0
-10.909530 -12.146346 -3.835444 16.770873 0.838991 1.801535 -0.001124 -0.002641 934194.000000 1 0 0
-10.009430 -10.744246 0.594456 14.696288 0.820790 1.530336 -0.006469 0.008060 1154710.000000 1 0 0
-0.216630 -13.163746 -11.184544 17.274986 1.554341 2.275019 -0.001686 0.004764 471323.000000 1 0 0
-5.983230 -12.658746 -6.329644 15.365783 1.129262 1.995369 0.004793 -0.008143 2990870.000000 1 0 0
1.817570 -15.866346 9.962956 18.822991 -1.456738 1.013024 0.011526 -0.008347 -162418.000000 1 0 0
-9.127530 -15.754046 -5.439044 19.002236 1.045679 1.861088 -0.000055 -0.006878 364072.000000 1 0 0
-3.311330 -15.543046 5.994256 16.984767 1.360892 1.210107 -0.000760 -0.003651 -365830.000000 1 0 0
-17.364430 -5.339346 -6.424244 19.269223 0.298312 1.910698 -0.019136 0.006323 624663.000000 1 0 0
18.889470 5.541154 -3.000744 19.912833 0.285341 1.722067 -0.005154 0.008461 -699459.000000 1 0 0
12.678170 -12.483046 -6.103944 18.810119 -0.777643 1.901283 0.013973 0.001991 -366863.000000 1 0 0
10.866870 -13.582446 -1.817744 17.489308 -0.896014 1.674919 0.010968 0.005520 2076320.000000 1 0 0
18.794570 -2.935746 4.430556 19.531623 -0.154950 1.341964 0.015274 -0.002775 -493349.000000 1 0 0
8.901070 -16.708046 4.827456 19.536944 -1.081300 1.321116 0.010377 -0.016145 789372.000000 1 0 0
18.271170 -1.076646 6.586956 19.452065 -0.058858 1.225341 0.029786 -0.002251 153793.000000 1 0 0
17.866470 -4.206646 -5.096644 19.049473 -0.231238 1.841643 0.015490 -0.002140 -989609.000000 1 0 0
5.554270 -11.686346 14.786156 19.648181 -1.127121 0.718877 -0.006920 0.004919 -250315.000000 1 0 0
15.854970 -8.885046 -1.068344 18.206194 -0.510789 1.629510 0.006747 0.001838 124620.000000 1 0 0
13.718170 -12.615346 -1.643444 18.709251 -0.743544 1.658751 0.014896 0.008827 491506.000000 1 0 0
10.944070 -1.995946 13.653856 17.612049 -0.180394 0.683675 -0.008723 -0.003364 -174375.000000 1 0 0
16.851970 -6.128346 -1.566244 17.999962 -0.348790 1.657920 0.008089 -0.000863 258515.000000 1 0 0
17.798670 3.582354 -1.067744 18.186973 0.198617 1.629539 0.001047 0.003576 1149580.000000 1 0 0
9.669670 -11.098946 9.445056 17.489946 -0.854109 1.000326 -0.006301 -0.000042 881001.000000 1 0 0
9.034870 -11.160746 4.172356 14.953250 -0.890276 1.288016 -0.005307 0.000122 -96049.000000 1 0 0
13.949370 -10.107946 6.639056 18.461652 -0.627057 1.202943 0.006825 -0.003436 -228682.000000 1 0 0
16.118870 -0.506146 -4.682344 16.792811 -0.031391 1.853372 -0.001114 -0.002028 -741051.000000 1 0 0
15.647470 -0.498446 -1.718644 15.749461 -0.031844 1.680138 0.002877 -0.004957 1049970.000000 1 0 0
12.809570 -5.183446 -0.415944 13.824840 -0.384512 1.600888 0.005212 -0.004786 1415550.000000 1 0 0
14.147270 -7.586046 0.904156 16.078273 -0.492202 1.514532 0.007828 -0.000488 1655160.000000 1 0 0
15.520770 2.332654 3.461756 16.072316 0.149176 1.353709 0.013470 -0.003883 2334210.000000 1 0 0
15.794070 -7.154646 4.845956 18.003469 -0.425342 1.298267 0.013815 -0.002235 -1608370.000000 1 0 0
13.602370 -12.232646 3.248156 18.579899 -0.732430 1.395072 0.004147 0.003654 332755.000000 1 0 0
14.058370 -0.866946 9.083256 16.759920 -0.061590 0.998025 0.014845 -0.006314 1226290.000000 1 0 0
14.101170 -2.822946 -1.570444 14.466455 -0.197580 1.679568 0.005650 -0.005594 -134776.000000 1 0 0
15.102770 1.888254 9.105656 17.736182 0.124382 1.031661 0.024623 -0.002007 -1742740.000000 1 0 0
14.187970 -10.066546 -3.178744 17.684407 -0.617082 1.751527 0.008064 0.002853 -109035.000000 1 0 0
7.325770 -12.655046 6.023156 15.814409 -1.046050 1.180065 -0.011017 -0.005233 49515.800000 1 0 0
12.385070 -4.649946 6.936856 14.937602 -0.359163 1.087852 0.007283 -0.004400 1352940.000000 1 0 0
14.877970 -9.046446 -5.829044 18.362188 -0.546313 1.893834 0.015223 -0.000399 -947226.000000 1 0 0
14.279870 -4.537446 4.612856 15.677422 -0.307662 1.272141 0.006752 -0.003916 1711990.000000 1 0 0
17.131970 -4.312746 0.773856 17.683411 -0.246613 1.527021 0.008030 -0.009088 -663691.000000 1 0 0
10.161870 -14.517046 0.945856 17.745503 -0.960073 1.517470 0.009802 0.004393 1026570.000000 1 0 0
16.413470 -2.620946 8.418856 18.631922 -0.158346 1.101957 0.021494 -0.005459 1080230.000000 1 0 0
16.098270 -2.646646 3.108656 16.607913 -0.162948 1.382506 0.007938 -0.006584 1864140.000000 1 0 0
7.795370 -15.182346 2.596456 17.263054 -1.096447 1.419818 0.000540 -0.004094 2029050.000000 1 0 0
16.566170 -7.062446 7.726856 19.596440 -0.402986 1.165491 0.014203 0.000459 -363264.000000 1 0 0
10.224970 -8.614746 5.008556 14.277588 -0.700136 1.212373 -0.002246 -0.002782 2806450.000000 1 0 0
10.869570 -11.933846 1.987256 16.263869 -0.832036 1.448302 0.001516 0.001954 503483.000000 1 0 0
12.324770 -7.313946 11.832156 18.584771 -0.535578 0.880639 -0.005684 0.000474 -1031560.000000 1 0 0
15.078170 -9.894246 4.129656 18.501389 -0.580719 1.345692 0.006628 0.003857 -20312.600000 1 0 0
7.293670 -10.291946 7.725156 14.791884 -0.954270 1.021302 -0.009093 0.000868 223831.000000 1 0 0
15.129770 -3.310346 -4.437344 16.110815 -0.215402 1.849830 0.006372 -0.003557 1149790.000000 1 0 0
11.766470 -9.085246 9.649256 17.722857 -0.657515 0.995060 -0.007500 -0.002249 -1500920.000000 1 0 0
16.778970 -6.706346 2.233356 18.207054 -0.380237 1.447822 0.005064 -0.002999 1521380.000000 1 0 0
17.578070 3.922354 1.938956 18.114441 0.219542 1.463552 0.009676 0.000518 -156135.000000 1 0 0
14.732670 -4.912946 8.681456 17.792029 -0.321876 1.061067 0.014815 -0.002969 427500.000000 1 0 0
12.691870 -12.674446 6.055756 18.931385 -0.784711 1.245194 -0.003203 0.001179 -717712.000000 1 0 0
18.101170 0.670154 -0.871244 18.134512 0.037006 1.618858 0.004428 -0.004611 -2400590.000000 1 0 0
11.741470 -2.148946 10.751556 16.064746 -0.181018 0.837578 0.003050 -0.001600 2104010.000000 1 0 0
5.937370 -12.427546 10.534756 17.340051 -1.125099 0.917838 -0.002208 0.001695 -796002.000000 1 0 0
10.767270 -5.045146 10.827856 16.081980 -0.438183 0.832145 -0.005931 -0.001497 1371540.000000 1 0 0
17.830370 1.151654 4.922956 18.533319 0.064500 1.301942 0.016528 -0.002744 -1933270.000000 1 0 0
12.194970 -7.715946 7.041856 16.057424 -0.564128 1.116821 0.003265 -0.004232 -1017010.000000 1 0 0
10.720370 -7.806946 14.188256 19.421158 -0.629425 0.751660 -0.006023 -0.001674 607947.000000 1 0 0
14.134870 -0.300146 3.574056 14.582816 -0.021231 1.323187 0.007802 -0.004314 2451480.000000 1 0 0
11.631570 -7.690346 2.478756 14.162595 -0.584182 1.394869 0.002164 -0.001218 955554.000000 1 0 0
9.277770 6.115754 3.400256 11.620723 0.582804 1.273849 0.001900 -0.001468 1673320.000000 1 0 0
-3.885530 14.911854 -9.856844 18.292569 -1.315898 2.139861 0.006750 -0.002726 384038.000000 1 0 0
8.819970 -6.426546 9.093556 14.205110 -0.629687 0.876089 -0.008070 -0.001184 -770591.000000 1 0 0
5.699870 -10.587746 -8.661944 14.819519 -1.076945 2.195055 -0.006998 -0.000029 -301164.000000 1 0 0
5.344270 1.084554 0.522456 5.478179 0.200219 1.475281 0.001012 0.002017 3164750.000000 1 0 0
-0.447630 9.944354 11.051056 14.873345 -1.525813 0.733239 0.005623 -0.000002 -481945.000000 1 0 0
-6.247130 -5.201546 1.120356 8.205968 0.694323 1.433839 0.000979 0.001245 3595660.000000 1 0 0
-1.056230 4.086254 -10.809044 11.603815 -1.317849 2.769333 -0.001597 -0.000519 339146.000000 1 0 0
10.893970 5.803354 1.147556 12.396547 0.489474 1.478093 0.004186 -0.000856 1533990.000000 1 0 0
-10.214230 -1.607646 -13.505144 17.008936 0.156112 2.488162 0.002832 -0.000913 985494.000000 1 0 0
7.480670 10.827854 -6.096744 14.504245 0.966222 2.004619 0.007595 -0.005392 350588.000000 1 0 0
-12.497230 -2.812446 -9.553344 15.979893 0.221358 2.211594 -0.001184 0.003372 -98099.300000 1 0 0
-3.938630 -8.648946 2.462656 9.817421 1.143470 1.317243 0.002705 0.001533 -703149.000000 1 0 0
7.956170 -6.660346 -5.975144 11.973437 -0.696975 2.093279 -0.001104 -0.002217 1497470.000000 1 0 0
14.347570 3.151654 -4.333244 15.315440 0.216230 1.857647 0.007556 -0.001778 356406.000000 1 0 0
-2.466830 -5.020346 9.804856 11.288239 1.114079 0.518446 0.001479 -0.000357 3452760.000000 1 0 0
3.382570 -1.874146 -4.557844 5.977302 -0.505955 2.438004 -0.005502 0.000815 -2643760.000000 1 0 0
-4.030530 8.495554 -3.408044 10.001718 -1.127815 1.918506 -0.004199 0.000141 -112539.000000 1 0 0
5.912570 0.063554 11.756656 13.159844 0.010749 0.465998 -0.005057 -0.002344 2394040.000000 1 0 0
7.254270 4.775254 12.429956 15.163486 0.582166 0.609858 0.007374 0.000093 1209530.000000 1 0 0
1.219470 -14.458046 12.488456 19.143765 -1.486650 0.860114 -0.002189 -0.003311 513250.000000 1 0 0
2.951870 8.744654 -9.043244 12.921407 1.245244 2.346005 0.000918 -0.003040 -289033.000000 1 0 0
-4.501930 -8.960446 -4.557444 11.014865 1.105213 1.997370 0.011608 -0.000725 2762050.000000 1 0 0
5.692970 -6.661846 -4.109044 9.678551 -0.863659 2.009263 -0.005602 -0.001635 2047310.000000 1 0 0
-3.187130 3.519754 8.744956 9.950916 -0.834952 0.497435 -0.003067 0.003167 2377250.000000 1 0 0
-3.758830 3.205754 -11.107244 12.156337 -0.706152 2.723094 -0.003941 -0.003039 -100160.000000 1 0 0
3.089270 -6.101946 8.563456 10.959476 -1.102140 0.673931 -0.008255 0.003873 403197.000000 1 0 0
-5.074330 -8.708246 10.508556 14.560636 1.043192 0.764527 0.005665 -0.006061 2563120.000000 1 0 0
-13.195130 -2.508146 6.638156 14.982235 0.187840 1.111778 0.007362 -0.004735 -418906.000000 1 0 0
3.802470 -5.916746 -8.388244 10.946657 -0.999597 2.443833 -0.008504 0.000781 3201780.000000 1 0 0
3.000270 -0.542846 12.436456 12.804755 -0.178996 0.240423 -0.000132 -0.002672 1056710.000000 1 0 0
1.416270 -1.372046 -7.590344 7.842299 -0.769539 2.887423 -0.007722 -0.000898 -62943.300000 1 0 0
3.561470 -3.535146 3.418056 6.071609 -0.781689 0.972837 -0.001943 0.002615 919714.000000 1 0 0
1.354670 0.512954 -11.843644 11.931896 0.361972 3.019892 -0.003250 -0.000278 209145.000000 1 0 0
3.977470 3.573854 -10.516544 11.797898 0.731999 2.671202 -0.007537 0.001895 1205170.000000 1 0 0
2.772470 3.258154 3.336456 5.425320 0.865761 0.908437 -0.003327 0.002733 -136098.000000 1 0 0
-5.247430 0.883554 2.615756 5.929449 -0.166814 1.113920 -0.010046 0.003078 605921.000000 1 0 0
-9.405030 -9.340246 5.712456 14.433535 0.781942 1.163883 -0.002772 0.001183 -1118520.000000 1 0 0
-3.133630 3.887154 -0.553344 5.023524 -0.892317 1.681171 -0.009202 0.000415 1200620.000000 1 0 0
-15.750730 -6.621846 5.194656 17.858298 0.397981 1.275648 0.012889 -0.007790 463962.000000 1 0 0
0.932470 6.754954 -7.982944 10.498871 1.433621 2.434667 0.000594 -0.003578 -1324900.000000 1 0 0
-1.669330 6.584754 -9.396844 11.595099 -1.322513 2.515657 -0.003266 -0.000849 -4689.110000 1 0 0
1.997270 -0.344546 5.272956 5.649059 -0.170827 0.366961 -0.000164 0.002943 3210320.000000 1 0 0
-3.433430 -0.527846 -6.322544 7.213988 0.152543 2.639191 -0.000784 -0.002815 219551.000000 1 0 0
1.756970 -1.160746 -2.501844 3.270091 -0.583827 2.441944 0.001576 0.003034 581121.000000 1 0 0
2.335670 -8.643046 -7.681844 11.796962 -1.306864 2.279923 -0.009559 0.003022 2674000.000000 1 0 0
-2.444130 13.992054 -5.565044 15.255197 -1.397861 1.944211 0.002227 -0.003249 2123760.000000 1 0 0
6.735970 -5.095746 -8.258044 11.812502 -0.647647 2.344925 -0.002279 -0.002292 3856980.000000 1 0 0
-14.091530 -4.990746 -2.092844 15.094991 0.340382 1.709889 -0.009270 0.002830 310474.000000 1 0 0
-2.774030 6.960354 -6.718444 10.063759 -1.191543 2.301761 -0.003884 -0.002047 -2351630.000000 1 0 0
-5.654930 -1.086946 -8.133544 9.965652 0.189896 2.525526 0.006955 -0.005865 -376146.000000 1 0 0
-5.653630 -10.646046 3.461056 12.541162 1.082615 1.291192 -0.001698 0.002996 -3599500.000000 1 0 0
8.035470 -7.625846 6.519056 12.853809 -0.759249 1.038899 -0.004971 -0.000307 1891290.000000 1 0 0
8.859370 -5.899246 13.006756 16.806703 -0.587455 0.685815 -0.011993 0.001741 -282936.000000 1 0 0
-4.825330 9.609454 -0.700844 10.775741 -1.105435 1.635881 -0.004147 0.002413 805990.000000 1 0 0
2.851570 6.628154 12.231456 14.201141 1.164512 0.532972 0.006960 -0.001314 -159139.000000 1 0 0
6.153370 -2.865546 10.923056 12.860345 -0.435823 0.556026 -0.006435 0.000565 119995.000000 1 0 0
-9.741130 -6.534146 -1.082344 11.779480 0.590844 1.662810 -0.002595 -0.000076 -806437.000000 1 0 0
0.854670 -13.432646 6.268556 14.847937 -1.507256 1.134943 0.005848 -0.001471 65883.000000 1 0 0
-0.447230 -3.207146 8.728556 9.309860 1.432242 0.355248 -0.000803 0.001412 2049680.000000 1 0 0
4.205070 0.733154 3.441056 5.482791 0.172615 0.892316 -0.001607 0.003749 2435130.000000 1 0 0
-10.098730 5.646654 8.423256 14.311544 -0.509837 0.941515 -0.006594 -0.004599 692889.000000 1 0 0
9.301770 7.922854 -0.074444 12.218841 0.705514 1.576889 0.003108 -0.001476 -273243.000000 1 0 0
4.265770 2.811254 8.308356 9.753396 0.582694 0.551304 -0.000249 0.002748 2507660.000000 1 0 0
1.228170 2.689054 -9.694844 10.135551 1.142360 2.845619 -0.003488 -0.000646 1782090.000000 1 0 0
-1.433430 -10.249846 3.006656 10.777479 1.431849 1.288069 0.002102 0.001687 -2622930.000000 1 0 0
-9.917030 9.561254 9.111556 16.516220 -0.767135 0.986427 0.004314 -0.008700 1720180.000000 1 0 0
9.666870 -2.020346 -7.727144 12.539495 -0.206031 2.234736 0.006640 0.000464 1018430.000000 1 0 0
-5.184930 -1.926646 6.756956 8.732235 0.355774 0.685986 -0.005807 0.001420 1142250.000000 1 0 0
3.126570 -7.858046 -4.992044 9.820633 -1.192118 2.104031 -0.010159 -0.000064 1876080.000000 1 0 0
-5.051830 4.937854 -13.068144 14.855294 -0.773989 2.646019 -0.006256 -0.002058 3068330.000000 1 0 0
-5.554530 9.619454 5.604156 12.441594 -1.047140 1.103541 0.000903 0.001050 1474430.000000 1 0 0
-0.498330 -1.813846 -9.444744 9.630241 1.302675 2.945001 -0.006272 -0.003727 -171678.000000 1 0 0
-16.710030 0.130554 6.468056 17.918647 -0.007813 1.201491 0.014445 -0.005958 -363526.000000 1 0 0
-5.976630 -2.912346 4.141756 7.833008 0.453427 1.013661 -0.008238 0.001037 1703500.000000 1 0 0
0.958070 -5.758946 -5.112744 7.760381 -1.405944 2.290054 -0.004232 0.000935 810939.000000 1 0 0
-6.983330 1.439754 -8.460044 11.064001 -0.203321 2.441288 0.000666 -0.002214 322427.000000 1 0 0
8.033270 1.959454 4.662756 9.492849 0.239246 1.057345 0.000040 -0.000640 705127.000000 1 0 0
0.539670 -8.215646 -0.531344 8.250479 -1.505202 1.635242 0.000510 0.001255 1023360.000000 1 0 0
5.519070 5.555854 -3.402844 8.538559 0.788719 1.980706 0.003111 -0.003236 -1072430.000000 1 0 0
-0.817530 -0.360046 -1.134044 1.443621 0.414848 2.474388 -0.000879 0.001138 -97276.300000 1 0 0
9.045970 6.352554 -6.325844 12.735808 0.612236 2.090586 0.004512 -0.004985 -321537.000000 1 0 0
-14.873430 -7.171146 2.651856 16.723534 0.449262 1.411554 -0.008439 -0.002012 155810.000000 1 0 0
-6.332830 6.965254 9.016556 13.035252 -0.832920 0.806948 0.002367 -0.001619 -767381.000000 1 0 0
-9.479630 -3.109846 -9.683244 13.903227 0.316993 2.341269 0.006938 0.001980 1984870.000000 1 0 0
14.890770 3.421254 -1.396144 15.342400 0.225837 1.661921 0.003430 -0.001926 2521300.000000 1 0 0
12.048670 1.649054 -5.874344 13.505471 0.136021 2.020791 0.008931 -0.001228 66629.200000 1 0 0
1.768670 -9.463446 12.695356 15.932893 -1.386033 0.648813 -0.005437 -0.002627 1959010.000000 1 0 0
-3.572930 6.419654 8.034056 10.886866 -1.062930 0.740756 -0.001471 0.001290 154141.000000 1 0 0
-4.080930 13.205854 -12.339544 18.528705 -1.271081 2.299588 -0.000491 -0.001702 437497.000000 1 0 0
-10.148930 7.776954 6.532156 14.357954 -0.653841 1.098480 -0.006701 -0.003340 479616.000000 1 0 0
7.932770 -9.322246 -7.317444 14.261069 -0.865751 2.109596 0.003441 -0.002505 -1198840.000000 1 0 0
5.803870 -3.877446 -0.351344 6.988773 -0.588980 1.621090 -0.000709 0.001150 -1269220.000000 1 0 0
-1.623930 -4.477646 4.213956 6.359551 1.222875 0.846487 -0.002620 0.002777 1039290.000000 1 0 0
9.792970 -2.068846 -2.698044 10.366380 -0.208197 1.834097 0.003948 -0.001834 -1313490.000000 1 0 0
13.522670 7.003354 1.307156 15.284575 0.477863 1.485170 0.005661 -0.002540 -1443600.000000 1 0 0
5.365670 -3.761246 -3.327844 7.349281 -0.611386 2.040713 -0.002690 -0.000236 -1220510.000000 1 0 0
-12.225030 -6.001946 2.021956 13.768189 0.456386 1.423406 -0.006895 0.000294 1802890.000000 1 0 0
3.671370 -5.761846 -0.366144 6.841922 -1.003482 1.624337 -0.002690 0.001502 -292904.000000 1 0 0
-5.205430 3.826954 -8.688844 10.827653 -0.633952 2.502216 -0.003843 -0.002573 1189670.000000 1 0 0
-1.682230 -9.344646 7.223456 11.930240 1.392683 0.920434 -0.000974 -0.001907 1366240.000000 1 0 0
-7.423530 -7.473646 2.585556 10.846625 0.788762 1.330105 -0.000869 0.000922 -4803960.000000 1 0 0
-5.687830 13.146154 -8.478044 16.644819 -1.162455 2.105226 0.005011 -0.006982 1101830.000000 1 0 0
9.107070 -13.946246 -4.340544 17.212694 -0.992306 1.825720 0.007365 0.001872 1436360.000000 1 0 0
-6.520330 -5.197646 -6.740744 10.722306 0.672997 2.250632 0.008465 0.000455 -288288.000000 1 0 0
3.393070 0.429454 -6.282544 7.153161 0.125898 2.643068 -0.005928 -0.001954 667260.000000 1 0 0
-3.536330 5.739854 5.082956 8.443222 -1.018622 0.924773 -0.005479 0.005959 -1189310.000000 1 0 0
-2.735030 -10.912846 -2.861744 11.608625 1.325230 1.819883 0.010254 -0.000787 1651410.000000 1 0 0
-12.499630 -0.426746 1.982756 12.663103 0.034127 1.413572 -0.007257 -0.000290 700263.000000 1 0 0
8.181570 -12.038646 -6.223944 15.830495 -0.973887 1.974864 0.003641 -0.004275 -1358970.000000 1 0 0
6.078970 3.975454 1.011356 7.333550 0.579160 1.432447 0.000563 0.001377 -650499.000000 1 0 0
3.334870 -4.826246 -11.052844 12.513168 -0.966145 2.653645 -0.005400 -0.000624 -456875.000000 1 0 0
-7.466730 4.367254 8.730156 12.289857 -0.529239 0.780794 -0.002398 0.000973 2176240.000000 1 0 0
8.242470 8.761254 4.036956 12.688377 0.815899 1.247006 0.003706 -0.001969 3360670.000000 1 0 0
0.232270 10.669954 -6.276744 12.381412 1.549031 2.102438 0.002888 -0.002695 1631680.000000 1 0 0
5.395670 8.094254 3.306156 10.274282 0.982836 1.243177 -0.001806 0.000783 3790490.000000 1 0 0
8.098170 6.764454 -3.713444 11.186057 0.695902 1.909188 0.004247 -0.004388 739726.000000 1 0 0
10.379270 2.530154 -8.236944 13.489928 0.239107 2.227614 0.000031 -0.000868 1863930.000000 1 0 0
3.272370 -12.525246 -0.341644 12.950171 -1.315247 1.597181 0.000890 -0.001356 -1414560.000000 1 0 0
0.627570 2.121854 5.300756 5.744051 1.283229 0.395445 -0.003698 0.003869 870086.000000 1 0 0
-4.877130 13.526054 1.468456 14.453266 -1.224734 1.469020 -0.003273 0.004521 1113130.000000 1 0 0
8.081870 4.126654 -8.028244 12.116047 0.472097 2.295098 -0.001954 -0.001398 695189.000000 1 0 0
-13.732630 -0.506246 -3.469544 14.173184 0.036848 1.818106 -0.010863 0.002669 -257928.000000 1 0 0
-8.448330 0.013954 -0.452744 8.460464 -0.001652 1.624335 -0.011407 0.001514 -834085.000000 1 0 0
1.806570 -3.813446 -1.231544 4.395767 -1.128379 1.854763 -0.002525 0.003211 -1538330.000000 1 0 0
7.993870 -5.696246 -0.380844 9.823147 -0.619117 1.609576 -0.001801 0.000168 1471080.000000 1 0 0
-2.297330 -1.260246 7.466056 7.912518 0.501745 0.337531 -0.001661 0.002538 302502.000000 1 0 0
-5.841930 8.935654 -11.675544 15.820631 -0.991770 2.400890 -0.003439 0.000248 -663030.000000 1 0 0
-6.191630 9.266854 -8.807344 14.204934 -0.981769 2.239565 -0.003361 -0.003302 304869.000000 1 0 0
-1.458530 14.007054 -8.410444 16.403061 -1.467042 2.109165 0.012198 -0.003538 -874589.000000 1 0 0
-1.363330 7.256554 9.799456 12.269702 -1.385086 0.645713 -0.004033 -0.000447 1043250.000000 1 0 0
9.975070 2.303154 -4.083644 11.021919 0.226914 1.950346 0.003713 -0.002913 -1570210.000000 1 0 0
-3.021930 -7.470746 -6.925644 10.625848 1.186415 2.280717 0.006161 0.000674 1363530.000000 1 0 0
-5.627630 -5.046646 -1.629344 7.732633 0.731023 1.783098 0.002285 0.002174 2002900.000000 1 0 0
5.636170 7.417854 -8.791544 12.809458 0.921045 2.327230 0.000045 -0.002208 101861.000000 1 0 0
-9.527730 5.323554 -7.492344 13.238318 -0.509531 2.172392 -0.006144 0.003269 673103.000000 1 0 0
-0.459030 6.188854 -5.270044 8.141620 -1.496761 2.274829 0.000982 -0.002103 -1480610.000000 1 0 0
-8.235730 2.846854 -6.342344 10.777622 -0.332813 2.199966 -0.004779 0.000694 427926.000000 1 0 0
3.594670 1.456854 -2.018844 4.372620 0.385051 2.050708 -0.001633 0.000020 2601060.000000 1 0 0
-6.712230 12.495854 -3.514044 14.613312 -1.077867 1.813645 0.001400 -0.000798 1543040.000000 1 0 0
-6.593330 3.150954 -2.333044 7.670958 -0.445812 1.879832 -0.011046 0.004251 -1924350.000000 1 0 0
12.084470 4.007054 -0.946244 12.766608 0.320178 1.644983 0.006328 -0.004204 919798.000000 1 0 0
2.279570 12.392954 -5.411544 13.713736 1.388889 1.976437 0.005153 -0.003750 -152749.000000 1 0 0
-9.176130 -1.432646 -4.172744 10.181632 0.154877 1.993065 -0.005265 0.002747 -783300.000000 1 0 0
-1.104730 5.750254 3.529856 6.837085 -1.380991 1.028294 -0.007793 0.005125 -228322.000000 1 0 0
11.616070 2.600854 11.879656 16.817365 0.220268 0.786408 0.014837 -0.002054 748362.000000 1 0 0
-7.070030 -2.329046 -5.789844 9.430380 0.318229 2.231860 0.002455 0.000248 -684234.000000 1 0 0
7.450370 -7.305346 10.747856 14.979737 -0.775570 0.770600 -0.011368 0.002650 -109765.000000 1 0 0
-5.545830 -1.905446 -10.941144 12.413524 0.330946 2.649591 0.006533 -0.003391 129172.000000 1 0 0
0.788770 -6.222246 4.450956 7.690872 -1.444703 0.953623 -0.003573 0.003220 687503.000000 1 0 0
-4.783030 -9.330946 7.446856 12.860778 1.097121 0.953250 -0.001106 -0.004917 3469720.000000 1 0 0
-8.707530 9.427154 1.750856 12.952135 -0.825060 1.435202 -0.001375 0.002941 943625.000000 1 0 0
-8.092130 7.269054 -9.088544 14.174743 -0.731868 2.266830 -0.003458 -0.000937 -964754.000000 1 0 0
-1.262030 -10.632346 -0.121144 10.707669 1.452652 1.582110 0.003807 0.001345 -637357.000000 1 0 0
-3.831030 10.313854 7.894656 13.541712 -1.215146 0.948395 0.004023 0.000384 2986670.000000 1 0 0
-7.462930 12.146854 2.026856 14.399636 -1.019862 1.429570 -0.001048 0.001623 1103670.000000 1 0 0
-8.227030 -8.283446 -2.823544 12.011324 0.788815 1.808090 0.006374 -0.001481 1507790.000000 1 0 0
5.302570 4.652754 -7.965744 10.640415 0.720217 2.416791 -0.000491 -0.000128 -449203.000000 1 0 0
-8.938330 -0.083646 -10.186144 13.552057 0.009358 2.421327 0.003545 -0.003124 -1160820.000000 1 0 0
-15.111130 -2.229846 -1.445944 15.343051 0.146506 1.665177 -0.010182 0.000443 -708966.000000 1 0 0
-7.158130 -5.900146 8.828756 12.806150 0.689358 0.810115 -0.001854 -0.002798 -1802810.000000 1 0 0
8.113770 3.461054 -0.961644 8.873383 0.403196 1.679384 0.003250 -0.000141 1059210.000000 1 0 0
11.863170 7.180754 -5.853844 15.052093 0.544306 1.970240 0.003698 -0.005627 2224310.000000 1 0 0
3.793270 13.321254 -9.386344 16.731651 1.293385 2.166381 -0.001078 -0.006401 484815.000000 1 0 0
-9.652730 5.500654 -0.410644 11.117599 -0.517959 1.607741 -0.010170 0.004963 1809830.000000 1 0 0
11.257670 -1.279346 -5.275544 12.498129 -0.113157 2.006564 0.008814 -0.003915 -95014.600000 1 0 0
10.520670 1.723254 -1.243444 10.733138 0.162355 1.686908 0.004484 -0.002106 -802556.000000 1 0 0
14.584670 4.951954 4.690356 16.100742 0.327318 1.275197 0.007383 -0.004189 2065960.000000 1 0 0
0.938470 -0.862246 10.364356 10.442417 -0.743094 0.122349 0.001967 -0.000264 2096420.000000 1 0 0
-7.986730 1.500154 -12.554344 14.954927 -0.185667 2.567120 0.001943 -0.004269 -536765.000000 1 0 0
3.023270 -11.625046 -7.784844 14.313827 -1.316367 2.145837 -0.009891 0.001640 813601.000000 1 0 0
2.837470 5.079254 -6.714244 8.884319 1.061345 2.427581 0.000135 -0.000895 -2748750.000000 1 0 0
6.501870 8.070654 0.576756 10.379905 0.892639 1.515203 0.003256 -0.003348 473929.000000 1 0 0
-9.002330 -5.489746 6.829656 12.562781 0.547604 0.996026 -0.005398 -0.000951 -2244810.000000 1 0 0
-0.400030 -6.898046 -11.869944 13.734578 1.512869 2.614430 -0.008512 0.004543 890301.000000 1 0 0
6.307870 -13.514646 -4.797244 15.666794 -1.134106 1.882000 -0.001090 -0.004983 2511290.000000 1 0 0
-3.106030 -0.351046 10.118556 10.590365 0.112543 0.299618 -0.001030 0.004259 -55001.000000 1 0 0
8.695370 8.463654 6.919256 13.968501 0.771895 1.052562 -0.001592 0.001671 5043.140000 1 0 0
-7.835930 5.726554 -2.625544 10.054287 -0.631104 1.834996 -0.008736 0.002806 153751.000000 1 0 0
-5.384330 5.885954 -6.416144 10.237302 -0.829877 2.248161 -0.006175 0.000937 -1737330.000000 1 0 0
3.239370 -13.721446 2.484956 14.315957 -1.338960 1.396333 0.008887 -0.006372 -2078110.000000 1 0 0
-11.224130 -7.099646 6.601956 14.831449 0.563999 1.109474 0.004596 -0.004850 -1264740.000000 1 0 0
-12.860130 -3.672746 -6.660344 14.940956 0.278186 2.032839 -0.000243 0.003319 -104594.000000 1 0 0
6.033670 0.305354 -7.279144 9.459617 0.050565 2.448849 -0.001940 -0.000038 -910027.000000 1 0 0
-1.507730 2.250554 -2.423944 3.635071 -0.980533 2.300732 -0.002726 -0.000709 2352050.000000 1 0 0
7.476570 0.908554 -4.969644 9.023410 0.120927 2.154059 0.001413 0.000088 421977.000000 1 0 0
3.798770 -4.428546 10.853756 12.322610 -0.861796 0.493247 -0.007414 0.000299 -237175.000000 1 0 0
5.944970 -2.586446 1.998256 6.784203 -0.410364 1.271816 0.000726 0.000635 -1436680.000000 1 0 0
-6.246730 7.826954 1.301056 10.098296 -0.897212 1.441598 -0.006658 0.003669 1487830.000000 1 0 0
6.100470 -3.370446 7.885056 10.523771 -0.504753 0.723850 -0.002221 -0.003616 -759179.000000 1 0 0
6.569970 -2.334446 -7.867644 10.512562 -0.341407 2.416449 -0.002323 -0.000725 2551910.000000 1 0 0
11.981870 -8.208846 -6.102844 15.754208 -0.600660 1.968583 0.011656 -0.001887 -43031.100000 1 0 0
5.619570 -9.612346 9.914956 14.909163 -1.041762 0.843270 -0.010466 0.002667 2033270.000000 1 0 0
-6.589830 7.589954 -4.440144 10.988545 -0.855813 1.986758 -0.007104 0.001644 1908510.000000 1 0 0
-1.238530 -7.614446 9.688056 12.384352 1.409553 0.672475 0.001802 -0.003319 -1073400.000000 1 0 0
9.984570 -9.321046 0.672756 13.675750 -0.751042 1.521583 -0.000292 -0.001187 1795620.000000 1 0 0
11.135770 6.030454 9.644956 15.918446 0.496324 0.919902 0.003279 -0.000968 849339.000000 1 0 0
-15.234630 -4.161746 -4.827944 16.514331 0.266670 1.867478 -0.015457 0.005545 1300240.000000 1 0 0
-4.722330 -4.733046 7.915556 10.361378 0.786532 0.701387 0.000068 -0.001828 -1103460.000000 1 0 0
2.961470 10.965454 -11.062444 15.855256 1.307017 2.342999 -0.002677 -0.001495 -1033950.000000 1 0 0
9.871670 -1.496446 1.406556 10.083037 -0.150445 1.430843 0.002641 -0.000193 -576347.000000 1 0 0
-1.680330 -2.651646 0.719156 3.220547 1.005970 1.345595 -0.001842 0.000674 615064.000000 1 0 0
1.544570 2.971854 0.856656 3.457090 1.091487 1.320391 -0.003770 0.001561 -1809910.000000 1 0 0
-8.920930 -2.402646 4.426356 10.244429 0.263084 1.124005 -0.009148 0.001059 4326310.000000 1 0 0
9.908670 4.910354 -2.775244 11.401548 0.460090 1.816676 0.002877 -0.003003 1814620.000000 1 0 0
2.527670 8.441054 2.546056 9.171854 1.279845 1.289507 -0.004936 0.000960 -91865.000000 1 0 0
-7.997430 -0.085746 2.551456 8.395008 0.010721 1.261986 -0.012353 0.001410 -490516.000000 1 0 0
6.982870 2.109954 13.711856 15.531497 0.293439 0.488917 0.002784 -0.002507 -685075.000000 1 0 0
6.779970 4.392854 3.758256 8.910087 0.574909 1.135369 -0.001041 0.000759 460117.000000 1 0 0
-0.302430 3.383354 7.834856 8.539527 -1.481646 0.409095 -0.006572 0.003190 763878.000000 1 0 0
2.773170 -10.303446 9.247556 14.119801 -1.307877 0.856699 -0.007364 0.001060 110321.000000 1 0 0
1.429570 -4.554346 6.823156 8.327137 -1.266644 0.610454 -0.003262 0.002000 379499.000000 1 0 0
-0.180630 10.798254 -1.925244 10.970026 -1.554070 1.747210 0.002080 -0.001863 3290940.000000 1 0 0
8.774470 5.469454 7.960356 13.048890 0.557403 0.914684 -0.001076 0.000631 710373.000000 1 0 0
2.673370 11.382054 -2.858244 12.036096 1.340102 1.810560 0.009395 -0.006493 1559590.000000 1 0 0
1.455070 2.512954 -6.684044 7.287565 1.045940 2.731753 -0.003686 -0.002152 1753570.000000 1 0 0
-13.512130 -2.267546 3.747656 14.204378 0.166266 1.303797 -0.002603 -0.002430 1254240.000000 1 0 0
-1.010530 -10.729646 -5.284944 12.003212 1.476892 2.026723 0.004020 0.000118 2184540.000000 1 0 0
-5.705530 2.817254 0.452956 6.379276 -0.458656 1.499732 -0.009165 0.002988 582472.000000 1 0 0
3.698870 7.289754 -4.937344 9.549844 1.101241 2.114148 0.004870 -0.004063 -1511680.000000 1 0 0
2.910170 9.833854 -6.435244 12.107276 1.283074 2.131189 0.003076 -0.002961 1228260.000000 1 0 0
-12.100430 1.723054 -2.428144 12.461348 -0.141445 1.766905 -0.008023 0.001663 205363.000000 1 0 0
-2.543130 9.713954 -5.669144 11.531158 -1.314741 2.084765 -0.003230 -0.001839 -364330.000000 1 0 0
-1.319630 3.375854 1.769656 4.033546 -1.198157 1.116606 -0.007802 0.002489 -95489.200000 1 0 0
12.899470 3.720154 9.526556 16.461809 0.280777 0.953655 0.013101 -0.000118 1153870.000000 1 0 0
-2.454530 -9.581846 11.551856 15.207954 1.320024 0.708109 -0.000868 -0.006158 171570.000000 1 0 0
-0.537730 -8.922446 -7.467844 11.647656 1.510602 2.266786 -0.000994 0.003041 1473540.000000 1 0 0
2.329970 7.591654 -0.435244 7.953075 1.273010 1.625550 0.002268 -0.001887 727469.000000 1 0 0
-11.735330 -1.321646 -5.512144 13.032591 0.112149 2.007495 -0.001963 0.003362 -395024.000000 1 0 0
-6.225130 -7.134646 -10.979044 14.498097 0.853372 2.429927 0.007328 0.001014 1968310.000000 1 0 0
-4.793630 -2.317946 -1.371444 5.498420 0.450399 1.822883 -0.003483 0.002162 -1564870.000000 1 0 0
-10.344630 3.702554 4.567956 11.899012 -0.343713 1.176787 -0.005814 0.000488 3347660.000000 1 0 0
6.775470 9.365154 -3.615944 12.111488 0.944487 1.873974 0.007670 -0.004675 1332090.000000 1 0 0
1.215370 -2.631046 -11.566244 11.923821 -1.138062 2.896074 -0.006189 -0.000604 -557756.000000 1 0 0
1.421470 8.775854 7.550656 11.663987 1.410216 0.866697 -0.005877 0.007643 371322.000000 1 0 0
10.431370 0.417354 10.267556 14.642759 0.039988 0.793712 0.004819 0.000811 661742.000000 1 0 0
-5.195930 -0.837846 -3.979444 6.598155 0.159874 2.218196 -0.003312 0.000012 -330211.000000 1 0 0
11.697270 5.621654 5.276056 14.009493 0.448004 1.184667 0.001263 -0.001095 2223380.000000 1 0 0
9.943270 -3.513346 3.573456 11.134712 -0.339646 1.244086 0.005442 -0.005093 -1256990.000000 1 0 0
7.165270 -1.687546 -3.471444 8.138786 -0.231302 2.011450 0.000892 0.000179 -3370030.000000 1 0 0
2.421870 9.257354 10.484256 14.194495 1.314915 0.739784 -0.001877 0.003663 1549950.000000 1 0 0
2.413870 -10.971246 6.384456 12.921157 -1.354229 1.053987 -0.005356 0.001399 1565420.000000 1 0 0
5.802670 -7.571346 -1.326044 9.630922 -0.916882 1.708921 -0.005242 -0.002067 709162.000000 1 0 0
-0.223130 -5.613446 -2.311944 6.075002 1.531068 1.961205 0.001002 0.002810 1793940.000000 1 0 0
7.698770 -5.079046 2.608956 9.585115 -0.583179 1.295130 -0.000603 -0.001697 683385.000000 1 0 0
-2.758430 -12.569646 4.707956 13.702912 1.354769 1.220077 -0.001798 0.002328 -1201680.000000 1 0 0
4.860970 -10.336846 -1.162444 11.481755 -1.131225 1.672213 -0.005160 -0.000728 -140669.000000 1 0 0
0.925470 0.163754 1.111156 1.455328 0.175129 0.702066 -0.003875 0.002720 -1916790.000000 1 0 0
-1.537830 8.554154 2.534956 9.053423 -1.392921 1.287002 -0.005657 0.004116 -395392.000000 1 0 0
-7.518630 0.598454 -3.034144 8.129820 -0.079429 1.953265 -0.010232 0.003069 -118502.000000 1 0 0
4.480170 -6.344446 12.819956 14.989170 -0.955951 0.544703 -0.008787 -0.000934 -699822.000000 1 0 0
-5.004430 13.030554 8.602056 16.396189 -1.204112 1.018507 0.012221 -0.006363 522067.000000 1 0 0
0.715070 6.152454 8.220156 10.292472 1.455090 0.645736 -0.004903 0.005141 825973.000000 1 0 0
7.893670 -0.540646 -0.817244 7.954258 -0.068384 1.673721 0.001346 -0.000143 4591900.000000 1 0 0
2.455870 -9.319146 -2.456444 9.945446 -1.313125 1.820371 -0.006773 0.000205 2068150.000000 1 0 0
-7.038430 12.171654 4.961456 14.909886 -1.046512 1.231564 0.001098 -0.000160 1881280.000000 1 0 0
-14.840030 0.242154 0.309756 14.845237 -0.016316 1.549929 -0.003256 -0.002384 391188.000000 1 0 0
6.831070 -0.503246 3.847256 7.856091 -0.073537 1.059032 0.001030 0.001431 1612220.000000 1 0 0
-4.135630 -5.107746 5.108756 8.324175 0.890182 0.910026 -0.001786 0.000996 -1040840.000000 1 0 0
2.936270 5.073754 6.920156 9.069356 1.046173 0.702814 -0.004834 0.004634 -887538.000000 1 0 0
2.042870 -7.169646 1.762656 7.660555 -1.293219 1.338621 -0.004795 0.002193 1785310.000000 1 0 0
-2.564030 6.488054 -1.705244 7.181709 -1.194441 1.810529 -0.002917 0.001717 1321400.000000 1 0 0
2.553470 -3.796746 -6.517244 7.963037 -0.978737 2.529482 -0.007196 -0.000051 -1230830.000000 1 0 0
-5.140430 0.974154 -12.217844 13.290925 -0.187287 2.736998 -0.000083 -0.001332 377660.000000 1 0 0
-7.435630 6.468554 -11.901844 15.452659 -0.715957 2.449972 -0.003655 -0.001740 1492080.000000 1 0 0
-0.983930 11.250454 -8.942344 14.405080 -1.483561 2.240530 0.001539 -0.002695 669673.000000 1 0 0
4.647470 5.909354 -0.641344 7.545248 0.904366 1.655899 0.000788 -0.001538 19381.500000 1 0 0
-2.578630 13.488554 3.465156 14.163253 -1.381904 1.323629 -0.005919 0.006611 422156.000000 1 0 0
1.483970 -7.946246 10.264856 13.065691 -1.386172 0.667075 -0.004459 -0.000409 284143.000000 1 0 0
12.870570 -0.286746 -1.221544 12.931588 -0.022276 1.665399 0.006841 -0.005082 -790879.000000 1 0 0
-1.062930 3.171554 -5.348044 6.307943 -1.247416 2.582670 -0.001674 -0.004079 133046.000000 1 0 0
6.625470 1.116154 7.237456 9.875395 0.166897 0.748254 0.000473 0.000128 2089910.000000 1 0 0
5.449470 -6.128546 6.841556 10.680014 -0.843983 0.875524 -0.006275 0.001457 1222800.000000 1 0 0
12.213570 -4.929446 2.568956 13.419027 -0.383609 1.378166 0.005193 -0.002622 -1100060.000000 1 0 0
4.518670 -9.147446 13.857856 17.208554 -1.111975 0.634634 -0.008968 0.002280 622780.000000 1 0 0
-2.804430 -4.360746 -1.444144 5.382052 0.999282 1.842451 0.000668 0.000996 2664910.000000 1 0 0
-9.305130 -5.096446 -7.516844 13.002390 0.501078 2.187210 0.012153 0.000893 408945.000000 1 0 0
-10.476830 -3.181746 7.978956 13.548107 0.294842 0.941056 -0.001896 -0.001467 -81408.800000 1 0 0
12.028070 -0.706646 1.535756 12.146290 -0.058682 1.444019 0.004825 -0.003624 113163.000000 1 0 0
-7.493230 4.777754 4.409856 9.920799 -0.567615 1.110173 -0.005658 0.001337 2299480.000000 1 0 0
-0.951730 10.634154 6.999056 12.766276 -1.481537 0.990531 -0.005066 0.006483 1870500.000000 1 0 0
7.265870 -10.110646 1.832256 12.584721 -0.947672 1.424683 -0.004264 -0.002476 3729870.000000 1 0 0
-4.364230 -1.708346 1.653256 4.969729 0.373108 1.231668 -0.008085 0.003708 2386510.000000 1 0 0
6.648670 -15.027346 -1.040144 16.465353 -1.154249 1.634010 0.008849 0.000160 -1386370.000000 1 0 0
-10.327530 1.619454 2.561956 10.763091 -0.155543 1.330458 -0.010891 0.002886 217984.000000 1 0 0
-3.009830 8.413954 -11.315144 14.418258 -1.227262 2.473135 -0.006779 -0.001324 -701116.000000 1 0 0
-1.225030 -5.137446 -6.929244 8.712547 1.336716 2.490328 -0.002589 -0.000031 -982941.000000 1 0 0
12.819270 -0.392946 6.299656 14.288939 -0.030643 1.114221 0.009188 -0.006515 2252240.000000 1 0 0
5.862570 -13.325946 3.638956 15.006418 -1.156343 1.325861 -0.001958 -0.003665 985401.000000 1 0 0
-5.624430 3.513054 -5.030544 8.323588 -0.558316 2.219774 -0.009576 0.001885 1451010.000000 1 0 0
-4.355930 8.065554 3.531456 9.823363 -1.075612 1.203069 -0.003928 0.003376 146489.000000 1 0 0
14.081870 6.121054 -4.119644 15.897730 0.410038 1.832922 0.007586 -0.003078 1029520.000000 1 0 0
-6.693330 -8.517546 5.346956 12.080530 0.904757 1.112290 0.001141 -0.001532 314682.000000 1 0 0
1.741670 11.363854 2.681556 11.805140 1.418716 1.341645 -0.002115 0.000940 1846200.000000 1 0 0
-7.297230 7.258854 6.136456 11.983181 -0.782762 1.033181 -0.000090 -0.002434 -155451.000000 1 0 0
-17.346530 -4.207046 5.343056 18.631951 0.237935 1.279944 0.021221 -0.011980 -1381560.000000 1 0 0
7.370470 -13.074846 -8.689044 17.342863 -1.057485 2.095568 0.005665 -0.004345 -1387470.000000 1 0 0
-2.308930 12.815654 -2.768844 13.313100 -1.392544 1.780305 -0.004329 -0.000714 1768460.000000 1 0 0
-5.427230 13.916254 -5.728744 15.997983 -1.198947 1.937020 0.008616 -0.002021 790700.000000 1 0 0
-5.577430 2.433354 7.517856 9.671975 -0.411391 0.680461 -0.006309 0.002733 523899.000000 1 0 0
-7.363230 5.132954 1.458456 9.093485 -0.608781 1.409716 -0.006835 0.003121 1599380.000000 1 0 0
10.698270 -5.763046 -5.143044 13.195324 -0.494118 1.971170 0.006574 -0.003689 3627360.000000 1 0 0
-9.487630 -0.820846 6.902656 11.761614 0.086303 0.943596 -0.007718 0.001141 145467.000000 1 0 0
-11.260530 -4.520146 -2.529744 12.394791 0.381726 1.776338 -0.000133 0.001832 110642.000000 1 0 0
6.548670 -4.321546 13.504056 15.617951 -0.583312 0.526344 -0.011035 -0.000688 -820807.000000 1 0 0
0.210870 10.367154 -11.596244 15.556195 1.550459 2.411994 -0.005032 0.000995 -1290100.000000 1 0 0
-11.733230 -3.188446 1.527656 12.254330 0.265338 1.445809 -0.011506 -0.000004 3407190.000000 1 0 0
5.177070 5.990454 5.413356 9.591247 0.858105 0.971083 -0.004157 0.002995 -5265950.000000 1 0 0
-7.105130 -0.046146 8.175556 10.831654 0.006495 0.715472 -0.008140 0.004204 977382.000000 1 0 0
1.751870 2.049054 9.709156 10.076477 0.863427 0.270839 -0.000783 0.000950 3189410.000000 1 0 0
10.378170 -5.008246 -2.151544 11.722546 -0.449611 1.755382 0.002269 -0.002604 3311930.000000 1 0 0
-9.610830 -2.391646 -1.552244 10.024843 0.243895 1.726262 -0.006352 0.001673 -1396880.000000 1 0 0
-2.024030 -5.171746 -9.937844 11.384392 1.197758 2.631985 0.000584 -0.001018 6277.060000 1 0 0
7.683270 -1.540046 6.487756 10.173267 -0.197820 0.879254 0.001297 -0.003468 1501590.000000 1 0 0
1.450970 -11.896946 -2.649544 12.274474 -1.449434 1.788367 0.003804 -0.001616 -3459590.000000 1 0 0
-0.850230 -1.484946 4.826656 5.120993 1.050793 0.340692 -0.001105 0.003515 719293.000000 1 0 0
7.692070 1.531154 9.846756 12.588526 0.196488 0.672606 0.002334 -0.000526 234781.000000 1 0 0
-3.826930 10.760654 -7.956444 13.919126 -1.229105 2.179275 0.000358 -0.001944 2820920.000000 1 0 0
-9.457430 12.676754 6.454256 17.082169 -0.929831 1.183339 -0.000245 -0.001183 2526250.000000 1 0 0
-2.563430 -2.392546 -11.116344 11.656266 0.750932 2.836036 -0.000291 -0.003576 -2065590.000000 1 0 0
1.172470 -11.946046 11.067256 16.326876 -1.472963 0.825955 -0.003582 -0.001277 1041980.000000 1 0 0
1.298170 3.502054 -1.947544 4.212191 1.215811 2.051450 0.000033 -0.000198 3167340.000000 1 0 0
-1.890930 -9.479046 -12.028844 15.431170 1.373896 2.464689 -0.007143 0.005838 1150720.000000 1 0 0
1.272570 -2.683546 1.508756 3.331246 -1.127991 1.100769 0.000303 0.002426 3609930.000000 1 0 0
-1.064530 -2.208846 -6.629744 7.068644 1.121701 2.787348 -0.005100 -0.002961 -376008.000000 1 0 0
1.841370 5.865054 4.098256 7.388180 1.266585 0.982789 -0.006047 0.003936 -967387.000000 1 0 0
-10.986230 8.648354 3.712856 14.466395 -0.666887 1.311238 -0.009641 -0.001575 3409910.000000 1 0 0
-16.267030 -1.624846 4.120356 16.859232 0.099556 1.323898 0.008492 -0.006036 -233529.000000 1 0 0
-12.166330 0.263454 6.921256 13.999742 -0.021651 1.053670 0.000715 -0.000875 703142.000000 1 0 0
-5.087530 2.993854 4.742556 7.572183 -0.531898 0.893982 -0.009102 0.004297 683823.000000 1 0 0
5.196070 -6.010446 3.907556 8.854016 -0.857940 1.113714 -0.006782 0.001858 1702260.000000 1 0 0
9.950270 3.407154 6.168456 12.192884 0.329905 1.040364 0.000736 -0.000362 232681.000000 1 0 0
-12.079430 5.837654 3.271056 13.809078 -0.450176 1.331646 -0.008862 0.001120 1626500.000000 1 0 0
-4.926830 12.394954 -1.244644 13.396181 -1.192458 1.663841 -0.003647 0.002825 1125730.000000 1 0 0
-1.739330 -12.231546 10.336756 16.108523 1.429543 0.874090 0.006066 -0.007525 2120040.000000 1 0 0
5.262270 6.376754 13.933756 16.201977 0.880861 0.535520 0.011088 -0.003088 367086.000000 1 0 0
12.861470 -3.721346 -6.078044 14.704028 -0.281649 1.996936 0.006186 -0.004425 2080360.000000 1 0 0
3.570170 -2.460746 6.369556 7.705364 -0.603476 0.597687 -0.003437 0.002916 1891660.000000 1 0 0
7.221370 -11.899546 -0.778444 13.941067 -1.025347 1.626664 -0.000427 0.000743 -1465220.000000 1 0 0
-6.123430 -6.617946 -4.107744 9.907934 0.824191 1.998290 0.008865 0.000586 948872.000000 1 0 0
0.351770 -8.998146 4.957256 10.279337 -1.531723 1.067570 -0.002970 0.003047 2952050.000000 1 0 0
-10.133930 2.519154 -0.249144 10.445321 -0.243647 1.594651 -0.013050 0.004729 -1904760.000000 1 0 0
-1.954430 9.005254 -0.262044 9.218626 -1.357079 1.599226 -0.002478 0.002209 1287700.000000 1 0 0
-3.530330 2.329854 -6.663644 7.892756 -0.583341 2.576004 -0.001431 -0.003584 475421.000000 1 0 0
-12.569630 3.045154 6.505956 14.477432 -0.237683 1.104718 -0.002271 -0.003513 1376930.000000 1 0 0
11.377770 1.645554 7.812656 13.899608 0.143633 0.973901 0.007695 -0.001900 -2652770.000000 1 0 0
6.004270 2.676454 -3.246544 7.331760 0.419321 2.029522 -0.000752 0.000380 1832810.000000 1 0 0
10.511370 -2.339646 6.282156 12.467090 -0.219012 1.042689 0.007919 -0.006640 3817190.000000 1 0 0
-0.859730 11.071054 4.064256 11.824785 -1.493296 1.219935 -0.001912 0.005559 1080170.000000 1 0 0
-1.643130 -12.345846 7.455556 14.515685 1.438482 1.031397 -0.000181 -0.002214 -178673.000000 1 0 0
8.052470 8.607954 -7.819444 14.145064 0.818727 2.156521 0.008292 -0.006549 2378310.000000 1 0 0
-4.684130 -5.950146 -8.752044 11.573400 0.903891 2.428314 0.006801 0.000111 -189530.000000 1 0 0
-8.611830 -5.278146 -11.704244 15.460005 0.549847 2.429607 0.013640 0.000095 2670970.000000 1 0 0
5.901470 -0.711246 -9.965344 11.603504 -0.119942 2.603762 -0.002491 0.001678 -595715.000000 1 0 0
-11.152930 -5.385246 -5.335744 13.485506 0.449838 1.977588 0.001522 0.001481 -544695.000000 1 0 0
3.870370 8.916954 -2.676044 10.082313 1.161288 1.839435 0.007449 -0.004913 3078290.000000 1 0 0
11.525070 -10.424646 -4.197744 16.097253 -0.735306 1.834620 0.008774 0.001181 226514.000000 1 0 0
3.845370 -11.343546 3.882056 12.591000 -1.243962 1.257370 -0.001932 -0.001360 681909.000000 1 0 0
-1.023230 0.860254 3.256256 3.519978 -0.699084 0.389553 -0.005247 0.003229 -1236240.000000 1 0 0
-10.548830 -5.134046 4.584156 12.595663 0.452946 1.198294 -0.004193 -0.001739 3464060.000000 1 0 0
4.507170 -8.682446 2.748356 10.161344 -1.091976 1.296913 -0.007103 0.001582 4643900.000000 1 0 0
-3.695930 -5.721546 2.639056 7.304834 0.997262 1.201161 0.000146 0.001051 876004.000000 1 0 0
10.115770 5.022254 12.216656 16.637264 0.460826 0.746169 0.010934 -0.000463 359156.000000 1 0 0
1.584470 -12.481346 -5.291044 13.648798 -1.444525 1.968884 -0.000162 -0.002730 2537780.000000 1 0 0
9.752070 -10.800446 -1.894344 14.674503 -0.836364 1.700248 -0.000103 -0.000426 561161.000000 1 0 0
9.568070 -4.503146 -9.284744 14.072411 -0.439887 2.291327 0.009102 -0.000201 2575520.000000 1 0 0
-7.522930 -2.974046 -13.067644 15.368888 0.376475 2.587287 0.004622 0.001431 1774470.000000 1 0 0
0.363970 6.303054 -2.455544 6.774264 1.513115 1.941725 0.000960 -0.001114 2482290.000000 1 0 0
-5.997830 -9.566046 0.935356 11.329523 1.010766 1.488143 -0.001065 0.002940 426397.000000 1 0 0
-8.898930 -4.111646 0.700656 9.827894 0.432820 1.499443 -0.008693 0.001312 4605160.000000 1 0 0
1.927270 3.814554 12.171456 12.899982 1.102964 0.337682 0.002485 -0.004172 642490.000000 1 0 0
6.665070 4.275954 9.664556 12.494423 0.570410 0.686436 -0.002148 0.001757 2918860.000000 1 0 0
-8.243230 9.926354 -3.536544 13.378732 -0.877769 1.838317 -0.005240 0.004285 1681900.000000 1 0 0
16.418170 2.074554 -6.079444 17.630080 0.125691 1.922858 0.006246 0.002157 -1475180.000000 1 0 0
-10.857630 2.602554 -4.962344 12.218276 -0.235260 1.989023 -0.005857 0.003967 779359.000000 1 0 0
-13.665330 3.994954 1.608856 14.327921 -0.284417 1.458271 -0.006392 0.004031 -437486.000000 1 0 0
-17.224430 10.554454 3.292156 20.467432 -0.549750 1.409246 -0.002476 0.001191 -842197.000000 1 0 0
-14.254830 2.868854 -1.101844 14.582337 -0.198602 1.646429 -0.009381 0.003077 1166850.000000 1 0 0
-14.286230 5.074854 5.191156 16.024937 -0.341324 1.240903 -0.005262 0.001596 722412.000000 1 0 0
-17.171930 7.610254 3.200856 19.053520 -0.417168 1.402003 -0.008847 0.005991 -1907090.000000 1 0 0
-14.856430 12.646454 -3.299144 19.787133 -0.705216 1.738310 0.018764 -0.006569 -1181580.000000 1 0 0
-8.489030 12.572354 -9.529744 17.914902 -0.976900 2.131692 -0.000871 -0.008755 1470080.000000 1 0 0
-12.370430 8.906154 -9.797744 18.120234 -0.623993 2.142074 -0.004041 0.001158 -1960860.000000 1 0 0
-13.900930 -3.432746 -12.130044 18.765861 0.242100 2.273638 -0.009274 0.009673 -573375.000000 1 0 0
-14.784630 5.820954 -7.657944 17.638392 -0.375078 2.019906 0.002224 0.002903 -1705900.000000 1 0 0
-10.878530 13.607554 -8.386444 19.334952 -0.896392 2.019442 0.004899 -0.007972 -725681.000000 1 0 0
-10.850130 13.623354 4.027456 17.875723 -0.898232 1.343542 0.000716 0.003670 -966402.000000 1 0 0
-15.100630 3.225154 3.172356 15.763708 -0.210416 1.368168 -0.001689 0.001825 -295186.000000 1 0 0
-11.093430 9.510054 -12.406544 19.168402 -0.708699 2.274754 -0.002507 -0.003990 905141.000000 1 0 0
-13.019630 11.694854 -9.189044 19.766610 -0.731846 2.054292 0.005139 -0.005362 423996.000000 1 0 0
-8.876630 14.648754 -3.554144 17.493212 -1.026002 1.775393 0.005706 -0.004202 1586900.000000 1 0 0
-16.606030 8.193354 -4.107944 18.967511 -0.458351 1.789104 0.009757 0.003756 -532710.000000 1 0 0
-16.718330 6.827654 0.347756 18.062124 -0.387721 1.551542 -0.001366 0.007014 263298.000000 1 0 0
-10.506530 2.955754 -12.544544 16.627965 -0.274237 2.425573 0.002992 -0.005159 583741.000000 1 0 0
-16.692630 0.807954 2.520056 16.901105 -0.048364 1.421132 0.001869 -0.001930 886831.000000 1 0 0
-12.525730 1.257154 -6.875644 14.343947 -0.100031 2.070700 -0.004903 -0.002418 2878970.000000 1 0 0
-12.287930 9.024254 -5.384144 16.168469 -0.633442 1.910283 0.004129 0.001127 122503.000000 1 0 0
-9.658230 13.944754 1.287356 17.011609 -0.965050 1.495049 0.010918 -0.003931 1228430.000000 1 0 0
-12.173930 11.203254 2.954056 16.806068 -0.743900 1.394105 -0.004555 0.003234 -823135.000000 1 0 0
-12.504330 6.861054 -3.624444 14.716281 -0.501840 1.819645 -0.006516 0.005531 537142.000000 1 0 0
-15.811730 3.701854 -9.433544 18.780476 -0.229979 2.097060 0.003804 -0.003355 -1997270.000000 1 0 0
-14.976930 5.810554 -4.678444 16.731969 -0.370090 1.854185 0.000534 0.006928 549025.000000 1 0 0
-17.794830 5.211954 7.506356 20.004145 -0.284923 1.186141 0.007571 -0.000642 296598.000000 1 0 0
-15.792030 10.206154 -2.110844 18.921137 -0.573759 1.682589 0.011417 0.003859 -934938.000000 1 0 0
-8.798930 10.013854 -8.376144 15.743513 -0.849888 2.131802 -0.001232 -0.000285 187896.000000 1 0 0
-16.909830 4.231954 -1.128844 17.467858 -0.245229 1.635465 0.001889 0.003557 259000.000000 1 0 0
-10.143930 5.437654 -4.541344 12.373002 -0.492070 1.946617 -0.006468 0.003557 35744.100000 1 0 0
-18.222630 2.694554 6.133356 19.415018 -0.146805 1.249383 0.017412 -0.003705 586462.000000 1 0 0
-10.312830 10.144954 -5.710944 15.552795 -0.777192 1.946790 -0.002390 0.000273 2838780.000000 1 0 0
-15.220330 0.593954 -5.718844 16.270107 -0.039004 1.929963 -0.009098 0.001072 -1628270.000000 1 0 0
-16.341230 -3.947246 -8.773444 18.962855 0.237011 2.051795 -0.019726 -0.002368 -1513300.000000 1 0 0
-9.952630 9.673054 -0.969144 13.912658 -0.771154 1.640512 -0.005193 0.004133 2246750.000000 1 0 0
-17.309030 -2.950046 -3.069444 17.824892 0.168812 1.743859 -0.008933 0.004721 -71091.100000 1 0 0
-12.020130 5.166554 -11.577044 17.470110 -0.405950 2.295184 0.001870 -0.003375 -175397.000000 1 0 0
-16.125430 7.070654 5.941456 18.582910 -0.413231 1.245355 -0.004563 0.003274 -491285.000000 1 0 0
-12.072830 6.059754 -8.795044 16.119138 -0.465193 2.147934 -0.001795 -0.001648 1802470.000000 1 0 0
-14.475230 8.519954 -0.105744 16.796817 -0.531986 1.577092 0.000605 0.004933 603973.000000 1 0 0
-14.825130 12.042854 4.008656 19.516253 -0.682212 1.363923 -0.008164 0.004238 -49086.800000 1 0 0
-17.157730 4.107154 -3.975744 18.084882 -0.234955 1.792445 0.005650 -0.000197 -735717.000000 1 0 0
-13.923130 13.391554 -0.674544 19.329828 -0.765939 1.605700 0.012822 -0.007228 -1690280.000000 1 0 0
-10.019330 6.897054 -13.117844 17.889498 -0.602881 2.393916 -0.006407 -0.005937 2833290.000000 1 0 0
-15.751230 -0.958446 -8.165744 17.767927 0.060774 2.048316 -0.012229 -0.004820 -745340.000000 1 0 0
-11.576430 11.849354 0.055956 16.565749 -0.797048 1.567418 0.005532 -0.003030 811474.000000 1 0 0
-11.929330 7.403154 -0.882944 14.067522 -0.555418 1.633602 -0.010572 0.007599 2179350.000000 1 0 0
-11.509730 0.332254 -11.641344 16.373917 -0.028859 2.361671 -0.001922 -0.004348 466508.000000 1 0 0
-18.979730 -1.141046 -4.680044 19.581495 0.060047 1.812136 0.001328 0.002311 -191827.000000 1 0 0
-17.793630 1.484554 -5.085244 18.565475 -0.083239 1.848251 -0.007436 0.001425 -145295.000000 1 0 0
-13.331730 0.027854 -9.446744 16.339423 -0.002089 2.187264 -0.004073 -0.003045 376548.000000 1 0 0
-6.154030 11.337954 -13.225444 18.475217 -1.073512 2.368634 -0.009700 -0.000317 -2171920.000000 1 0 0
16.358770 5.706854 6.862956 18.635389 0.335655 1.193643 0.014278 -0.006183 604474.000000 1 0 0
14.825470 10.152454 -5.513944 18.795490 0.600450 1.868541 0.012121 -0.002808 45113.300000 1 0 0
2.415370 16.867454 4.420456 17.603563 1.428566 1.316968 0.007698 -0.002753 2635630.000000 1 0 0
-3.966430 18.231654 -5.925244 19.576370 -1.356577 1.878293 0.002451 -0.006460 476733.000000 1 0 0
5.440070 14.559354 5.715256 16.559991 1.213212 1.218425 -0.001616 -0.002890 -2233330.000000 1 0 0
10.142870 5.877354 15.041756 19.070279 0.525177 0.662017 0.022491 -0.001910 -1431400.000000 1 0 0
4.649870 12.828454 -1.084644 13.688206 1.223060 1.650119 0.008117 -0.005315 1133870.000000 1 0 0
3.607470 13.716254 12.929756 19.191875 1.313614 0.831579 -0.007814 -0.001185 -172241.000000 1 0 0
-0.628630 12.409154 9.261556 15.497055 -1.520181 0.930250 -0.001146 0.000193 675612.000000 1 0 0
-7.631130 13.977754 8.422256 18.015164 -1.071069 1.084325 0.016325 -0.010662 2953320.000000 1 0 0
11.564070 12.717954 -4.194844 17.693806 0.832883 1.810155 0.020228 0.001542 1738740.000000 1 0 0
-5.792930 16.297054 0.835556 17.316182 -1.229267 1.522525 -0.004861 0.005183 596524.000000 1 0 0
3.340170 10.617254 6.805256 13.045855 1.266001 1.022023 -0.003699 0.007072 1058660.000000 1 0 0
-1.163230 15.696054 2.393756 15.920090 -1.496822 1.419863 -0.004145 0.004318 -3362050.000000 1 0 0
10.072670 8.829954 9.423456 16.377677 0.719750 0.957723 0.000107 0.002327 259821.000000 1 0 0
7.235770 12.248654 6.189956 15.514556 1.037213 1.160395 0.000128 0.000317 -441922.000000 1 0 0
11.895770 13.973254 -1.583944 18.419285 0.865534 1.656896 0.010674 0.005064 -895621.000000 1 0 0
9.786270 15.971254 -1.292844 18.775609 1.021060 1.639708 0.013553 0.002934 1079130.000000 1 0 0
10.123370 13.829254 2.980856 17.395873 0.938898 1.398592 0.006982 -0.000073 3162720.000000 1 0 0
-5.872130 14.535954 6.331256 16.907415 -1.186870 1.186975 -0.000285 -0.004075 306937.000000 1 0 0
-0.996130 18.304054 -6.253644 19.368498 -1.516429 1.899564 0.011264 -0.002801 1515700.000000 1 0 0
-3.467030 15.782554 5.365456 17.026374 -1.354556 1.250207 -0.005327 0.002964 2970450.000000 1 0 0
7.120970 12.269554 10.618056 17.719856 1.044930 0.928272 -0.002523 0.003830 1321720.000000 1 0 0
1.521870 14.604054 6.206656 15.941050 1.466962 1.170870 -0.001012 0.002326 957929.000000 1 0 0
17.440570 7.663154 -1.536444 19.111726 0.413993 1.651276 0.002856 0.004598 618938.000000 1 0 0
2.112970 16.347154 -3.324244 16.815013 1.442253 1.769802 -0.000289 -0.003504 2867730.000000 1 0 0
6.707470 11.224754 0.631556 13.091376 1.032172 1.522535 0.007367 -0.003458 1802570.000000 1 0 0
12.675770 9.220454 3.101256 15.978414 0.628885 1.375466 0.006458 -0.003483 -713574.000000 1 0 0
6.118970 14.246654 -3.397744 15.873046 1.165118 1.786523 0.004997 -0.004795 601040.000000 1 0 0
3.060870 16.572854 1.546556 16.923955 1.388163 1.479286 0.011378 -0.007601 -1430020.000000 1 0 0
2.677970 19.111454 -2.596444 19.472049 1.431579 1.704537 0.005447 -0.002317 -283256.000000 1 0 0
4.057770 11.914854 10.644756 16.484541 1.242552 0.868802 -0.005757 0.000682 2637550.000000 1 0 0
8.016170 11.608954 3.378956 14.506693 0.966464 1.335713 0.003695 -0.000734 -906726.000000 1 0 0
0.833870 12.567454 0.209056 12.596823 1.504542 1.554200 0.004112 -0.003527 -1693520.000000 1 0 0
12.017470 9.758654 -4.593644 16.147832 0.682039 1.859254 0.010443 -0.002584 422432.000000 1 0 0
-1.114730 16.475654 9.993456 19.301787 -1.503240 1.026580 -0.005617 -0.000143 537012.000000 1 0 0
8.167070 14.684954 -8.035244 18.625629 1.063242 2.016849 0.018022 -0.006910 463398.000000 1 0 0
14.526070 7.621354 -1.451444 16.468104 0.483186 1.659047 0.009830 -0.002857 -247008.000000 1 0 0
12.502970 8.252254 5.912956 16.105496 0.583389 1.194865 0.002685 0.000114 -2111860.000000 1 0 0
-2.890330 14.218354 10.370856 17.834524 -1.370247 0.950220 0.003222 -0.007445 2211450.000000 1 0 0
-4.500630 17.151154 -3.196344 18.017612 -1.314172 1.749141 -0.002414 -0.011312 -226181.000000 1 0 0
-7.074530 16.586154 -1.836344 18.125166 -1.167629 1.672285 0.004659 -0.002895 663782.000000 1 0 0
8.355170 11.252454 -1.908044 14.144512 0.932100 1.706105 0.008577 -0.005038 577614.000000 1 0 0
8.621570 12.928254 -4.169544 16.089012 0.982647 1.832943 0.014477 -0.001611 3115970.000000 1 0 0
2.557770 14.855254 -7.214344 16.711299 1.400289 2.017178 0.000279 -0.006184 -584781.000000 1 0 0
11.492470 11.358754 9.573156 18.781467 0.779547 1.035945 -0.000039 0.000753 1020800.000000 1 0 0
8.607270 15.761754 1.444056 18.016750 1.070963 1.490559 0.014666 0.000007 170827.000000 1 0 0
6.189270 9.897754 7.762356 14.018801 1.011966 0.983983 -0.001208 0.006535 2795490.000000 1 0 0
14.437170 11.404154 2.500356 18.567132 0.668562 1.435720 0.009373 -0.002023 1374460.000000 1 0 0
12.082270 12.640954 1.125056 17.522577 0.807992 1.506546 0.012638 -0.003127 2613370.000000 1 0 0
5.330270 15.950454 8.289656 18.749591 1.248287 1.112830 0.008652 0.000655 -644962.000000 1 0 0
11.578170 15.074354 5.087956 19.676826 0.915830 1.309248 0.006754 0.000905 -644535.000000 1 0 0
5.959370 16.802154 1.762256 17.914575 1.229959 1.472267 0.012103 -0.011651 1437640.000000 1 0 0
-0.622430 16.165254 -4.244944 16.724903 -1.532311 1.827413 0.003753 -0.007284 -123621.000000 1 0 0
16.041370 6.389954 2.471656 17.443227 0.379076 1.428621 0.005197 -0.005693 -477545.000000 1 0 0
7.761170 16.721454 -3.219644 18.713869 1.136242 1.743702 0.016732 -0.000776 -373275.000000 1 0 0
14.833670 8.059154 7.389856 18.428177 0.497686 1.158179 0.012143 -0.003372 -810315.000000 1 0 0
2.192770 12.943354 8.613656 15.701393 1.402977 0.990117 -0.001307 0.003255 785446.000000 1 0 0
16.052170 7.471354 -5.950944 18.679053 0.435621 1.895037 0.008043 0.003898 -1108990.000000 1 0 0
-2.940330 17.165654 0.615256 17.426524 -1.401151 1.535483 -0.007306 0.002503 343072.000000 1 0 0
-2.902730 18.639854 4.570656 19.410330 -1.416310 1.333089 -0.005774 0.001878 1418020.000000 1 0 0
-0.757630 19.116654 0.882556 19.152007 -1.531185 1.524698 -0.003969 -0.004597 -355898.000000 1 0 0
7.018470 16.733754 -6.109444 19.146873 1.173662 1.895558 0.014331 -0.003816 117126.000000 1 0 0
10.941570 10.009454 0.792956 14.850451 0.740937 1.517375 0.010756 -0.002950 -1870850.000000 1 0 0
9.242570 8.570054 14.328456 19.083385 0.747661 0.721472 0.012310 -0.006699 639757.000000 1 0 0
6.376170 12.326854 -8.343844 16.193412 1.093437 2.112109 0.011408 -0.007005 549200.000000 1 0 0
6.522570 8.878054 13.255956 17.236129 0.937169 0.693396 0.008114 -0.007867 334227.000000 1 0 0
16.601670 9.424054 2.844856 19.300815 0.516298 1.422862 0.009699 -0.006306 -2287070.000000 1 0 0
2.585870 14.768754 -0.764744 15.012916 1.397463 1.621757 0.005509 -0.004364 -154826.000000 1 0 0
9.156370 12.833854 8.233056 17.785672 0.951097 1.089528 -0.001479 -0.002389 1806860.000000 1 0 0
7.413770 9.334354 10.526256 15.902711 0.899574 0.847425 0.002296 0.001366 1903590.000000 1 0 0
4.380670 15.803954 -5.275544 17.227495 1.300397 1.882025 0.003893 -0.006461 2051240.000000 1 0 0
0.319570 16.413054 -8.088444 18.300639 1.551328 2.028597 0.007347 -0.004684 -238233.000000 1 0 0
-2.441430 15.681154 -2.012044 15.997109 -1.416344 1.696906 -0.004936 -0.004393 -761796.000000 1 0 0
13.392470 10.447654 7.491056 18.564150 0.662497 1.155433 0.006022 -0.001387 1765540.000000 1 0 0
-0.919930 15.954754 7.048956 17.466775 -1.513201 1.155388 -0.004190 0.000870 1949360.000000 1 0 0
13.308270 13.223954 6.430656 19.832709 0.782220 1.240583 0.004128 -0.010250 -1411790.000000 1 0 0
5.429970 17.352154 4.551456 18.742934 1.267522 1.325508 0.008755 -0.010229 1413590.000000 1 0 0
10.819970 9.428154 -1.852644 14.470457 0.716768 1.699178 0.009975 -0.003839 45633.400000 1 0 0
3.265870 12.751654 4.796256 14.009806 1.320072 1.221379 -0.002386 0.002455 1814210.000000 1 0 0
-0.158930 18.099954 3.589956 18.453221 -1.562016 1.375004 0.000408 -0.002073 1199230.000000 1 0 0
-7.567430 15.952454 -5.765344 18.573798 -1.127859 1.886412 0.010562 -0.010365 1092720.000000 1 0 0
-12.409930 -9.139446 8.355256 17.531290 0.634781 1.074023 0.017807 -0.005984 1051720.000000 1 0 0
-13.158030 -11.743646 6.890956 18.934948 0.728660 1.198315 0.014564 0.000361 -510147.000000 1 0 0
-6.425130 -12.324946 12.193656 18.489777 1.090246 0.850668 0.012381 -0.014170 -462685.000000 1 0 0
-1.738930 -10.651246 14.309556 17.923067 1.408963 0.646183 0.004228 -0.010225 112916.000000 1 0 0
-8.719730 3.007654 11.126056 14.452294 -0.332147 0.692195 -0.003009 0.002002 1442000.000000 1 0 0
0.606170 9.943654 15.290556 18.249515 1.509911 0.577443 0.009349 -0.006472 236426.000000 1 0 0
1.156470 -6.861146 16.545056 17.948583 -1.403812 0.398090 -0.006363 -0.012803 3039990.000000 1 0 0
6.038870 2.394354 17.818056 18.965337 0.377477 0.349610 0.018418 -0.009405 994012.000000 1 0 0
-4.962130 -3.046746 17.685156 18.619080 0.550650 0.318071 0.019497 -0.009250 745217.000000 1 0 0
-4.231930 8.219354 13.138856 16.065384 -1.095321 0.613155 0.005133 -0.003013 752116.000000 1 0 0
0.254370 -4.876446 18.497056 19.130748 -1.518681 0.258104 0.005509 -0.016571 627534.000000 1 0 0
-11.496730 2.100154 11.267256 16.233808 -0.180682 0.803681 0.003920 -0.002116 1339130.000000 1 0 0
-3.244430 -6.200746 14.399756 16.010264 1.088736 0.452384 0.012510 -0.010081 1145010.000000 1 0 0
-7.355430 -2.302446 14.601456 16.510788 0.303365 0.485678 0.009266 -0.001669 2044550.000000 1 0 0
-5.987830 -1.117046 10.639956 12.260121 0.184433 0.519936 -0.000215 0.003701 977861.000000 1 0 0
-3.912630 2.378154 11.194856 12.095003 -0.546146 0.388239 -0.001356 0.006695 1021650.000000 1 0 0
-6.425830 6.456654 13.677256 16.433107 -0.787791 0.587554 0.000787 -0.000243 788660.000000 1 0 0
-8.953830 5.606154 12.678156 16.502596 -0.559403 0.694690 0.000112 -0.002786 -1227060.000000 1 0 0
-12.137530 -2.222646 15.937756 20.156187 0.181115 0.658824 0.008773 0.003984 2163100.000000 1 0 0
-3.335530 -7.717146 16.975556 18.943327 1.162823 0.459840 0.015619 -0.012350 -691854.000000 1 0 0
-0.420930 -5.310446 14.391756 15.346031 1.491697 0.354511 0.003978 -0.008863 2173530.000000 1 0 0
-14.126430 -2.264246 13.777156 19.861845 0.158933 0.804253 0.010890 0.002462 -1019250.000000 1 0 0
-6.446430 1.462054 12.240256 13.911072 -0.223028 0.495159 -0.000689 0.002656 824814.000000 1 0 0
2.309070 -2.209346 14.641656 14.986364 -0.763331 0.214896 -0.003536 -0.003316 -301113.000000 1 0 0
-12.417830 4.009754 9.257956 15.999699 -0.312334 0.953745 -0.002760 -0.001115 -1255410.000000 1 0 0
-8.948830 -3.130246 12.623656 15.787232 0.336491 0.644148 -0.002024 0.002199 345795.000000 1 0 0
-7.004530 -7.393146 15.282656 18.365229 0.812383 0.587820 0.019139 -0.007384 -576850.000000 1 0 0
-3.119630 6.056554 19.529156 20.683372 -1.095155 0.335651 0.021917 -0.008904 69990.600000 1 0 0
0.697870 5.471254 16.245356 17.156143 1.443929 0.327306 0.008717 -0.005805 1798870.000000 1 0 0
3.441670 1.501454 16.820256 17.234282 0.411367 0.219637 0.007646 -0.007381 1897980.000000 1 0 0
-11.701730 11.369954 7.920756 18.136833 -0.771019 1.118845 0.000093 -0.008221 485435.000000 1 0 0
0.759470 -9.589946 15.450356 18.200477 -1.491767 0.556899 -0.008804 -0.002662 952415.000000 1 0 0
-2.313230 -3.646246 18.891556 19.378778 1.005456 0.224714 0.024299 -0.016423 1424260.000000 1 0 0
-12.817330 2.305454 13.797756 18.973064 -0.177967 0.756521 0.001062 -0.004747 1048310.000000 1 0 0
-5.357830 -0.640246 15.871956 16.764106 0.118933 0.327709 0.009931 0.001570 332299.000000 1 0 0
-4.424130 -6.093846 11.732856 13.941585 0.942833 0.570608 0.006816 -0.004580 620608.000000 1 0 0
2.420770 1.813754 14.016656 14.339334 0.643019 0.212546 0.002974 -0.004471 -489837.000000 1 0 0
0.097470 3.333354 14.377856 14.759523 1.541564 0.227909 0.006864 -0.004716 305604.000000 1 0 0
-12.974930 7.111454 12.330356 19.260303 -0.501377 0.876044 -0.002832 -0.001568 -362485.000000 1 0 0
0.915470 1.395354 18.327556 18.403381 0.990156 0.090807 0.006950 -0.001731 1370630.000000 1 0 0
-1.966230 6.430254 12.522756 14.213854 -1.274047 0.492772 -0.001812 0.000454 1068970.000000 1 0 0
-13.408530 -2.689046 10.979656 17.537745 0.197922 0.894308 0.016219 -0.004156 408716.000000 1 0 0
-2.528730 3.620054 13.447056 14.153536 -0.961055 0.317289 0.001777 0.001264 -435202.000000 1 0 0
3.629470 6.138354 16.401956 17.885095 1.036815 0.410117 0.017135 -0.007544 1191990.000000 1 0 0
-3.582530 12.338754 12.432056 17.878350 -1.288218 0.801863 0.009407 -0.010700 -622996.000000 1 0 0
3.808770 -1.411246 17.044756 17.522045 -0.354842 0.233940 -0.001850 -0.004789 -150695.000000 1 0 0
-15.742630 0.365354 9.267856 18.271755 -0.023204 1.038837 0.010738 -0.005408 1128480.000000 1 0 0
-4.620130 4.649754 15.258956 16.607274 -0.788594 0.405737 0.008409 -0.003447 3144330.000000 1 0 0
-8.008230 -8.259446 10.505056 15.579037 0.800840 0.830770 0.007765 -0.007481 3559370.000000 1 0 0
-2.598830 -0.465046 14.801956 15.035561 0.177070 0.176506 0.008614 -0.000706 2602550.000000 1 0 0
-1.819230 1.048154 17.260256 17.387486 -0.522700 0.121048 0.006583 -0.003570 2458440.000000 1 0 0
-0.644530 -2.471646 14.520656 14.743606 1.315708 0.174127 0.006584 -0.003103 488454.000000 1 0 0
5.190670 -8.213846 16.474956 19.126801 -1.007221 0.532866 -0.009188 0.000177 416479.000000 1 0 0
-4.459130 10.027654 10.766956 15.374168 -1.152373 0.794940 0.007907 -0.005646 -2295860.000000 1 0 0
-6.207030 2.045454 15.286556 16.624978 -0.318331 0.404007 0.009728 0.001742 52053.400000 1 0 0
-4.791830 6.872054 17.404256 19.315665 -0.961890 0.448627 0.010699 0.003036 -353703.000000 1 0 0
-3.909730 9.174054 15.816456 18.697849 -1.167933 0.562551 0.015990 -0.006635 363761.000000 1 0 0
-4.325730 -10.012846 18.424056 21.410625 1.162996 0.534526 0.023590 -0.008095 -782986.000000 1 0 0
-6.731630 -4.136446 11.150856 13.666259 0.550998 0.616442 0.002875 -0.000371 315073.000000 1 0 0
-2.288130 -0.871246 19.567756 19.720337 0.363818 0.124477 0.017151 -0.004013 203826.000000 1 0 0
-5.596830 -4.597746 15.285156 16.914484 0.687709 0.442527 0.014883 -0.007896 1703550.000000 1 0 0
-12.863430 -0.030946 9.834956 16.192441 0.002406 0.918039 0.006952 -0.000757 863476.000000 1 0 0
-14.384330 8.777154 10.520156 19.865071 -0.547877 1.012690 -0.014304 0.003408 -2478540.000000 1 0 0
-8.408230 10.564054 12.953856 18.710958 -0.898543 0.806106 0.010831 -0.015650 -633344.000000 1 0 0
-10.478130 7.196254 10.875256 16.728672 -0.601804 0.863084 -0.000992 -0.005362 -1373720.000000 1 0 0
-9.756130 -6.604046 14.936456 19.023491 0.595062 0.667844 0.017144 -0.002636 -374677.000000 1 0 0
-0.819830 -13.448146 14.440656 19.749869 1.509909 0.750750 -0.002714 -0.007279 505024.000000 1 0 0
3.969870 -5.662446 16.893856 18.254467 -0.959341 0.388537 -0.007589 -0.009534 958098.000000 1 0 0
-7.310830 9.381254 10.538356 15.890661 -0.908804 0.845738 0.009671 -0.010648 2151260.000000 1 0 0
-10.233930 -6.806946 11.947556 17.140943 0.586942 0.799565 0.009614 -0.007911 1411540.000000 1 0 0
-10.827430 -4.004146 10.807656 15.813661 0.354217 0.818334 0.005502 0.000394 -115644.000000 1 0 0
-10.100930 -10.280546 9.918856 17.495774 0.794211 0.968024 0.015038 -0.007413 3056910.000000 1 0 0
-9.730730 -3.720446 15.337356 18.540856 0.365190 0.596655 0.013032 -0.005856 1509860.000000 1 0 0
5.663870 -3.284446 15.991156 17.279586 -0.525505 0.388611 -0.009676 -0.002158 -998800.000000 1 0 0
-11.247830 0.505854 15.298956 18.995463 -0.044943 0.634445 0.010773 -0.004279 -2186670.000000 1 0 0
-3.089130 3.188154 18.828356 19.344613 -0.801172 0.231547 0.013077 -0.003656 -1534190.000000 1 0 0
0.546870 7.323354 13.969956 15.782594 1.496260 0.483981 0.004078 -0.006170 139906.000000 1 0 0
-13.032030 -7.597546 12.170656 19.382502 0.527818 0.891919 0.007394 -0.004096 253237.000000 1 0 0
-1.384330 -1.117346 12.231056 12.359756 0.679079 0.144436 0.002819 -0.001630 -41326.700000 1 0 0
2.141370 -4.720746 13.124356 14.110976 -1.144946 0.376162 -0.005720 -0.002988 3350240.000000 1 0 0
-14.476830 -4.102546 8.740956 17.401546 0.276147 1.044529 0.011705 -0.011524 -1727390.000000 1 0 0
8.185870 1.056554 16.167956 18.152895 0.128361 0.472014 0.008729 -0.002207 2789520.000000 1 0 0
-1.161230 11.382754 13.486156 17.685925 -1.469131 0.703572 0.007166 -0.005901 -998668.000000 1 0 0
2.770770 -12.238146 -13.816044 18.663667 -1.348146 2.404260 -0.018843 0.016053 -175024.000000 1 0 0
0.680970 -10.671646 -14.070144 17.672484 -1.507072 2.491720 -0.021039 0.013146 -2439080.000000 1 0 0
3.108570 -14.338546 -12.430844 19.229742 -1.357302 2.273703 -0.017536 0.012073 -759863.000000 1 0 0
-5.344930 -10.116646 -16.114544 19.763434 1.084742 2.524167 0.008992 0.003470 -535301.000000 1 0 0
-1.091330 -12.263846 -15.028844 19.428306 1.482043 2.455227 -0.007535 0.011766 9760.480000 1 0 0
5.482370 -15.083946 -11.984744 20.030374 -1.222183 2.212210 -0.008836 0.013258 -159698.000000 1 0 0
1.945770 -11.967746 -16.157344 20.200810 -1.409622 2.497819 -0.015839 0.016085 -469788.000000 1 0 0
1.151570 -14.336646 -14.130144 20.162502 -1.490645 2.347333 -0.011874 0.023707 -189968.000000 1 0 0
-1.345830 -10.709746 -15.918644 19.233126 1.445788 2.545736 -0.004783 0.007062 -33587.600000 1 0 0
-5.823430 -5.500046 -14.863244 16.884278 0.756847 2.647292 0.005504 -0.003832 -143248.000000 1 0 0
-6.654730 -7.520146 -16.071844 18.951047 0.846375 2.583132 0.008445 -0.009846 326664.000000 1 0 0
4.754770 -12.529046 -11.464944 17.636036 -1.208086 2.278494 -0.016419 0.008667 499447.000000 1 0 0
-1.918030 -15.622046 -13.279644 20.593108 1.448631 2.271635 0.002989 0.015050 -155873.000000 1 0 0
15.473770 -7.335546 -8.951144 19.322805 -0.442684 2.052447 -0.006372 0.007769 211374.000000 1 0 0
19.159570 -3.777546 -4.270044 19.989804 -0.194666 1.786066 0.000360 -0.002370 253166.000000 1 0 0
14.759470 -11.707046 -9.203344 20.966603 -0.670574 2.025229 0.019844 -0.000143 655007.000000 1 0 0
17.873670 -3.376946 -6.440144 19.296303 -0.186733 1.911075 0.030857 -0.000023 677554.000000 1 0 0
9.305770 -9.210446 -15.646644 20.402135 -0.780250 2.444812 0.022401 -0.006505 55235.100000 1 0 0
1.241170 1.915554 -15.229544 15.399638 0.995868 2.992826 -0.001910 0.004119 607469.000000 1 0 0
4.671870 -4.481546 -14.013844 15.436918 -0.764608 2.708837 -0.001836 0.000025 3259050.000000 1 0 0
13.020970 -5.504046 -8.716744 16.607884 -0.399926 2.123342 0.013646 0.000405 -686704.000000 1 0 0
2.793270 1.052454 -12.141244 12.502792 0.360332 2.900521 -0.004151 0.001288 -2430750.000000 1 0 0
0.671070 6.401254 -12.941444 14.453627 1.466344 2.680073 -0.000571 0.000996 -460648.000000 1 0 0
2.935370 -1.199846 -16.819144 17.115479 -0.388031 2.955238 0.004501 -0.002565 -412996.000000 1 0 0
13.061370 4.297354 -11.379344 17.848140 0.317857 2.262129 0.000189 -0.005416 690617.000000 1 0 0
-3.796130 9.625454 -16.564344 19.530423 -1.195140 2.583242 -0.010770 0.005018 -454980.000000 1 0 0
-0.304130 -5.101546 -17.688144 18.411645 1.511252 2.860324 -0.001115 -0.005278 497174.000000 1 0 0
-0.651630 -8.680446 -17.574144 19.611866 1.495868 2.681694 -0.000354 0.002671 -2154210.000000 1 0 0
5.439870 -10.224946 -12.184544 16.810854 -1.081862 2.381544 -0.005249 0.004077 566933.000000 1 0 0
1.638770 -9.780746 -17.947444 20.505104 -1.404788 2.636784 -0.004856 0.000130 -620556.000000 1 0 0
10.946670 8.690754 -14.432944 20.091507 0.671021 2.372239 0.027997 -0.012229 -862099.000000 1 0 0
10.941770 -3.959146 -12.983844 17.434947 -0.347182 2.410885 0.013643 -0.003439 -67191.600000 1 0 0
4.956870 7.420154 -12.313944 15.207316 0.981852 2.514502 -0.005975 0.002377 -753526.000000 1 0 0
9.451870 -5.969946 -12.682944 16.906660 -0.563342 2.419122 0.013643 -0.006644 -1668300.000000 1 0 0
-3.384930 0.390554 -15.987944 16.347006 -0.114872 2.931612 -0.000259 0.005517 -1005770.000000 1 0 0
-0.810930 10.883454 -12.705044 16.748890 -1.496423 2.431897 -0.006026 -0.001005 -808210.000000 1 0 0
6.584370 -5.550546 -12.580644 15.245822 -0.700409 2.541328 -0.000525 0.001088 -23540.500000 1 0 0
17.712770 -6.173646 -8.327644 20.523299 -0.335375 1.988612 0.007075 0.004906 586458.000000 1 0 0
12.853470 4.760254 -13.899544 19.520989 0.354686 2.363182 -0.007065 -0.008932 448055.000000 1 0 0
14.060570 0.792354 -11.586344 18.236524 0.056293 2.259242 0.003240 0.003673 -392401.000000 1 0 0
14.934870 6.033554 -11.207944 19.623255 0.383942 2.178710 0.004416 -0.007921 -503421.000000 1 0 0
8.140170 1.447454 -11.629644 14.269061 0.175977 2.523569 -0.002700 0.002123 410591.000000 1 0 0
9.716270 1.262954 -8.914044 13.246174 0.129259 2.308989 0.000250 -0.001543 593681.000000 1 0 0
-0.301130 -5.793246 -13.004244 14.239478 1.518864 2.721995 -0.010847 0.000952 254768.000000 1 0 0
10.514270 -5.777046 -9.168244 15.099034 -0.502419 2.223337 0.012196 -0.004821 -1597690.000000 1 0 0
10.195270 8.563854 -11.237644 17.423196 0.698650 2.271796 0.016333 -0.008050 574072.000000 1 0 0
8.371670 8.086354 -14.680744 18.734946 0.768064 2.471239 0.012629 0.000864 900495.000000 1 0 0
8.550370 10.508254 -10.669844 17.244645 0.887769 2.237926 0.026035 -0.010918 569647.000000 1 0 0
6.831870 1.677454 -17.967244 19.295340 0.240771 2.768406 -0.005854 0.014232 -2379880.000000 1 0 0
11.859870 2.553354 -12.928944 17.729459 0.212057 2.388000 -0.010724 0.002069 -1614050.000000 1 0 0
2.544870 -0.739946 -19.312544 19.493543 -0.282958 3.005214 0.007335 -0.007635 -458388.000000 1 0 0
10.233970 -2.220546 -15.658144 18.837262 -0.213666 2.552117 0.011574 0.000242 574370.000000 1 0 0
8.159970 -0.805446 -13.082844 15.440034 -0.098388 2.581738 0.000878 0.001991 586603.000000 1 0 0
0.475870 4.427754 -14.676844 15.337575 1.463733 2.847001 -0.006353 0.004204 -362374.000000 1 0 0
3.811770 -7.637446 -15.802744 17.960704 -1.107877 2.646345 -0.005057 -0.003107 -889417.000000 1 0 0
11.107470 -5.947946 -14.634744 19.311387 -0.491635 2.430777 0.015382 -0.006299 -456977.000000 1 0 0
-5.839830 4.541154 -16.763744 18.323449 -0.660943 2.726005 -0.002361 0.005334 -165266.000000 1 0 0
11.383570 7.763454 -9.088544 16.506317 0.598535 2.153891 0.011808 -0.006505 -936021.000000 1 0 0
9.463570 6.098254 -13.415044 17.513174 0.572423 2.443388 0.009201 0.000195 146735.000000 1 0 0
11.910270 0.657554 -10.259244 15.733372 0.055153 2.281107 0.005420 0.003358 -1519380.000000 1 0 0
5.315770 -7.306046 -13.903444 16.581359 -0.941796 2.565318 -0.001865 0.003699 -1214060.000000 1 0 0
8.565570 -10.276446 -10.818844 17.205282 -0.875951 2.250817 0.014727 -0.000261 43067.000000 1 0 0
9.833970 4.950254 -16.162844 19.556316 0.466350 2.543617 0.003785 0.012980 478197.000000 1 0 0
9.712270 -0.454846 -10.917744 14.619583 -0.046798 2.414017 0.001371 0.001537 -1012100.000000 1 0 0
-1.653230 5.682254 -13.987144 15.187540 -1.287666 2.741338 -0.009666 0.001879 -568672.000000 1 0 0
1.169270 -0.769946 -14.910544 14.976125 -0.582317 3.047974 -0.001366 0.001107 -403563.000000 1 0 0
11.377670 -10.351046 -14.448444 21.103390 -0.738186 2.324920 0.027484 -0.005524 -52719.300000 1 0 0
9.409470 -7.917646 -10.967144 16.477424 -0.699512 2.299075 0.014595 -0.001067 -333175.000000 1 0 0
13.794570 -1.016446 -9.899744 17.009652 -0.073552 2.191991 -0.003046 0.005268 725503.000000 1 0 0
3.973170 11.216954 -12.284144 17.102816 1.230375 2.372084 0.000816 -0.005439 -702754.000000 1 0 0
-1.390330 2.973954 -17.380544 17.687869 -1.133483 2.954909 -0.003203 0.010736 138294.000000 1 0 0
5.774370 -0.689346 -17.619544 18.554430 -0.118818 2.822798 -0.010618 0.006009 -222929.000000 1 0 0
6.149870 -6.481846 -16.189944 18.491877 -0.811673 2.637300 0.007168 -0.003674 64940.600000 1 0 0
-1.882430 -5.291546 -19.729344 20.513191 1.229015 2.864256 0.008043 -0.011894 -377305.000000 1 0 0
-0.176730 -4.391346 -15.141744 15.766659 1.530573 2.859104 -0.004338 -0.004048 -161679.000000 1 0 0
0.332170 0.784654 -13.035844 13.063661 1.170338 3.076322 -0.003538 0.000165 871706.000000 1 0 0
15.610270 0.601454 -13.628144 20.730861 0.038510 2.288139 0.013818 0.001739 491997.000000 1 0 0
-0.095230 7.070054 -16.292644 17.760770 -1.557328 2.732140 -0.005302 0.002007 -306063.000000 1 0 0
-4.835530 -0.585846 -18.400744 19.034519 0.120567 2.882816 -0.008972 0.011373 -138857.000000 1 0 0
10.207570 -8.428046 -13.361444 18.808366 -0.690196 2.360861 0.015105 -0.008439 282769.000000 1 0 0
4.085770 8.497854 -17.443644 19.828962 1.122626 2.646038 -0.002654 -0.002362 -336985.000000 1 0 0
8.884970 0.168554 -17.316244 19.463386 0.018968 2.667447 -0.003387 0.015568 -1028390.000000 1 0 0
3.280670 4.803354 -18.625944 19.513092 0.971574 2.838895 -0.006430 0.011526 339292.000000 1 0 0
1.186670 -8.124946 -15.902044 17.896869 -1.425769 2.664944 -0.019484 -0.000806 52611.000000 1 0 0
4.280870 7.822754 -14.958844 17.415175 1.070080 2.604021 -0.007008 0.007884 768918.000000 1 0 0
-5.801430 -0.338046 -15.219844 16.291547 0.058204 2.776855 -0.000973 0.002170 15074.700000 1 0 0
2.776770 3.435354 -13.752844 14.444820 0.891019 2.830812 -0.006227 0.004272 -134053.000000 1 0 0
-2.537730 -10.272146 -18.223144 21.072257 1.328596 2.615535 0.012181 0.006712 105931.000000 1 0 0
6.085870 -9.012846 -15.652444 19.059596 -0.976879 2.534372 -0.004130 0.005824 -134234.000000 1 0 0
-1.875530 5.576954 -17.425444 18.392012 -1.246378 2.815953 -0.006236 0.006780 -349896.000000 1 0 0
9.847370 -12.418246 -11.712544 19.707035 -0.900353 2.207233 0.021746 0.005174 363579.000000 1 0 0
10.767970 3.593654 -9.416344 14.748934 0.322112 2.263269 -0.000691 -0.001986 -35080.400000 1 0 0
4.655070 -0.448946 -10.867144 11.830724 -0.096145 2.735200 -0.004351 0.000012 -572797.000000 1 0 0
6.182170 9.598554 -11.488744 16.196996 0.998599 2.359320 0.007201 -0.005402 234328.000000 1 0 0
10.792170 -9.709546 -9.591644 17.399593 -0.732641 2.154666 0.023298 -0.002898 -1193160.000000 1 0 0
3.087370 -2.460746 -14.514744 15.042104 -0.672931 2.876015 0.001480 -0.003498 -105792.000000 1 0 0
9.056270 -4.381346 -14.701144 17.813923 -0.450597 2.541461 0.011817 -0.008570 -502453.000000 1 0 0
-4.143530 -6.660146 -16.473444 18.245567 1.014258 2.697204 -0.009121 0.002482 -774034.000000 1 0 0
5.789170 -7.773546 -11.394644 14.959292 -0.930678 2.436745 -0.002829 0.001240 377083.000000 1 0 0
5.309670 6.328854 -16.864844 18.779508 0.872745 2.686101 -0.002689 -0.004072 -1668800.000000 1 0 0
8.769370 1.307254 -19.622944 21.533014 0.147981 2.717216 -0.004931 0.009306 243373.000000 1 0 0
13.060170 5.799354 -9.418844 17.114765 0.417894 2.153561 -0.001087 -0.004953 674970.000000 1 0 0
-1.660830 -0.829546 -17.352744 17.451768 0.463229 3.035013 0.003057 0.000331 418281.000000 1 0 0
-0.579030 -0.600246 -19.636944 19.654646 0.803387 3.099147 0.008878 -0.002249 -274341.000000 1 0 0
2.755070 6.512954 -16.707944 18.142887 1.170609 2.741202 -0.009649 0.010579 -1421510.000000 1 0 0
7.538470 3.711954 -15.520044 17.648764 0.457550 2.645363 -0.003131 0.004180 -106548.000000 1 0 0
2.928770 -9.871246 -14.976044 18.174187 -1.282372 2.539281 -0.011316 0.007674 173217.000000 1 0 0
8.908970 -10.698646 -13.458144 19.363688 -0.876420 2.339244 0.021913 0.001510 331353.000000 1 0 0
3.660270 -0.006046 -14.769544 15.216341 -0.001652 2.898661 -0.003365 0.000227 -1487480.000000 1 0 0
-1.305830 -2.973746 -18.858544 19.136171 1.157027 2.971045 0.007809 -0.002637 506435.000000 1 0 0
9.171670 10.068654 -13.121344 18.912086 0.831984 2.337559 0.022659 -0.008995 597284.000000 1 0 0
4.566670 2.087254 -10.617444 11.744838 0.428712 2.699853 -0.009674 0.003028 319209.000000 1 0 0
-0.421130 7.223454 -18.867444 20.207327 -1.512562 2.775388 0.002442 0.000896 227928.000000 1 0 0
0.709170 -1.796646 -17.748244 17.853039 -1.194851 3.033189 0.009556 -0.004056 -2849810.000000 1 0 0
-4.617330 -2.197446 -14.067644 14.968203 0.444193 2.792944 0.001923 -0.002021 -4138570.000000 1 0 0
9.998470 6.013054 -10.495344 15.693262 0.541446 2.303363 0.005841 0.000157 362388.000000 1 0 0
7.833270 5.065854 -17.790444 20.087879 0.574059 2.658647 -0.003603 0.001788 -211112.000000 1 0 0
11.142870 0.239154 -13.706444 17.665994 0.021459 2.458883 -0.002163 0.013312 547350.000000 1 0 0
6.657570 12.132554 -11.670244 18.102947 1.068924 2.271375 0.021459 -0.012145 -40117.800000 1 0 0
-0.975830 0.507254 -15.180344 15.220131 -0.479376 3.069270 -0.001458 0.004030 -1672940.000000 1 0 0
-4.515530 -3.043746 -19.126144 19.886271 0.593105 2.864213 -0.000202 0.009868 415258.000000 1 0 0
5.732470 -12.122846 -13.987244 19.376986 -1.129091 2.377266 -0.003593 0.010039 -97327.400000 1 0 0
1.977570 -4.870546 -14.062544 15.012932 -1.185106 2.783866 -0.006552 -0.000502 138412.000000 1 0 0
11.401770 2.199154 -15.526444 19.388324 0.190538 2.499450 -0.004096 0.008826 289895.000000 1 0 0
9.419470 2.186554 -13.796244 16.847664 0.228092 2.530256 -0.002721 0.008263 -773951.000000 1 0 0
-2.438830 -4.171946 -16.441944 17.137402 1.041793 2.855730 -0.004976 -0.002238 -606799.000000 1 0 0
-2.932830 10.213254 -14.230744 17.760239 -1.291161 2.500211 -0.007029 -0.004241 -44785.300000 1 0 0
3.378770 5.800954 -13.649044 15.210639 1.043381 2.684491 -0.005514 0.006521 -250937.000000 1 0 0
-5.159330 -2.544246 -16.564244 17.534709 0.458141 2.807336 -0.002293 0.004244 103848.000000 1 0 0
-4.253630 6.241454 -13.610344 15.565685 -0.972586 2.634956 -0.008754 0.002156 502702.000000 1 0 0
5.737470 -1.110746 -14.015544 15.185117 -0.191229 2.746547 -0.002739 0.001134 -2218910.000000 1 0 0
6.604670 -2.978446 -12.673544 14.598340 -0.423652 2.622258 -0.001975 0.000624 1014710.000000 1 0 0
2.863870 -3.197446 -18.378644 18.873260 -0.840376 2.912147 0.007350 -0.011039 -37406.600000 1 0 0
7.325170 -12.123046 -12.001144 18.564854 -1.027269 2.273711 0.007219 0.006790 -1522180.000000 1 0 0
-6.225930 -5.368146 -17.479244 19.315878 0.711548 2.701978 0.018348 -0.001208 521910.000000 1 0 0
0.523670 8.876554 -11.906144 14.860138 1.511870 2.500117 -0.004659 0.000691 54065.400000 1 0 0
0.319170 8.643354 -14.317244 16.727011 1.533886 2.598154 -0.006322 -0.002947 154609.000000 1 0 0
7.598270 -2.303146 -15.111244 17.070087 -0.294312 2.657821 0.002219 -0.003808 235347.000000 1 0 0
14.088470 1.495854 -9.050544 16.811749 0.105779 2.139270 -0.009129 0.001577 557011.000000 1 0 0
2.712970 10.869054 -14.507944 18.329674 1.326189 2.484056 -0.000788 -0.002570 -627574.000000 1 0 0
6.016770 0.967954 -15.501344 16.656233 0.159509 2.767018 -0.002036 0.006148 544956.000000 1 0 0
16.558670 -5.538546 -10.612544 20.432600 -0.322782 2.116936 0.031780 -0.000676 625749.000000 1 0 0
4.779070 -4.201046 -11.285944 12.956111 -0.721120 2.628214 -0.005512 0.002017 -1025150.000000 1 0 0
8.525970 -3.562146 -17.109144 19.444893 -0.395756 2.646403 -0.000695 -0.013631 371933.000000 1 0 0
13.266370 -9.541046 -8.912744 18.613574 -0.623490 2.070118 0.020586 -0.002971 -179633.000000 1 0 0
2.232970 -7.772246 -13.602644 15.824850 -1.291031 2.605233 -0.009656 0.003126 245257.000000 1 0 0
-6.859730 -2.180046 -18.431344 19.786938 0.307709 2.769285 -0.002601 0.005895 -807389.000000 1 0 0
-1.603230 -6.544646 -15.865944 17.237485 1.330559 2.739982 -0.008760 0.002909 354797.000000 1 0 0
1.394870 -7.243646 -18.356944 19.783666 -1.380560 2.759493 0.004298 -0.010181 -850430.000000 1 0 0
5.261570 10.929954 -14.529244 18.927412 1.122147 2.445931 0.008220 -0.011547 441255.000000 1 0 0
5.329370 -3.602746 -17.351144 18.505247 -0.594448 2.786556 0.008666 -0.010946 -42247.000000 1 0 0
4.000570 13.172454 -14.133044 19.729699 1.275942 2.369330 -0.000783 -0.006143 -9393.630000 1 0 0
9.341370 10.316654 -15.696644 20.978064 0.834970 2.416203 0.035038 -0.017361 242246.000000 1 0 0
2.420570 3.916154 -16.300944 16.938600 1.017175 2.866334 -0.007195 0.008401 347127.000000 1 0 0
16.389870 1.845254 -11.529444 20.123640 0.112113 2.180873 -0.004014 0.003142 15702.500000 1 0 0
9.880870 -3.743646 -10.636944 14.993033 -0.362166 2.359527 0.011639 -0.000988 -345902.000000 1 0 0
14.415170 -2.264646 -12.176444 19.005040 -0.155828 2.266200 0.011723 0.006996 131828.000000 1 0 0
-2.853630 -8.767546 -16.105244 18.557800 1.256134 2.621639 -0.004405 0.011164 -718203.000000 1 0 0
13.972970 8.194154 -8.999044 18.530268 0.530381 2.077892 0.019047 -0.003869 561529.000000 1 0 0
-8.406730 0.184154 -16.578244 18.588845 -0.021902 2.672189 -0.003696 0.008467 -489866.000000 1 0 0
-3.446830 4.056554 -15.972744 16.836413 -0.866480 2.819902 -0.003735 0.007079 -264102.000000 1 0 0
15.033870 3.959854 -9.723644 18.337037 0.257546 2.129719 0.002147 -0.000306 264738.000000 1 0 0
5.247870 1.061154 -12.917644 13.983265 0.199516 2.748668 -0.009255 0.005243 607615.000000 1 0 0
7.717770 -7.873646 -13.011044 17.054194 -0.795395 2.438619 0.011737 0.001108 -1278310.000000 1 0 0
3.093470 -6.168246 -11.875644 13.734909 -1.105937 2.615214 -0.005040 0.001918 -944091.000000 1 0 0
-3.363730 3.887954 -18.633444 19.329668 -0.857563 2.872384 0.005073 0.011477 -626620.000000 1 0 0
0.745470 5.200054 -17.877644 18.633476 1.428408 2.855794 -0.007363 0.006633 239157.000000 1 0 0
6.272070 7.192154 -10.205144 13.971789 0.853628 2.389719 -0.000699 0.001213 57288.500000 1 0 0
9.566470 3.626554 -11.650144 15.504680 0.362352 2.420970 0.000383 0.000815 -89859.300000 1 0 0
4.412370 1.501654 -17.485644 18.096179 0.328033 2.881094 0.001182 0.004866 -672371.000000 1 0 0
2.641070 8.169754 -13.080244 15.646498 1.258126 2.560722 -0.005117 -0.002232 -698701.000000 1 0 0
14.201770 -3.591546 -10.014444 17.744818 -0.247701 2.170453 0.010584 0.004657 -293085.000000 1 0 0
-1.248630 9.380154 -16.131044 18.701789 -1.438460 2.611065 -0.003856 -0.001963 -1844930.000000 1 0 0
-5.208430 2.132254 -15.837644 16.807891 -0.388571 2.800155 -0.001032 0.004021 557356.000000 1 0 0
4.390770 4.282354 -11.861644 13.353502 0.772899 2.664382 -0.009171 0.004892 543136.000000 1 0 0
9.081870 2.820654 -17.421744 19.848264 0.301135 2.641935 -0.002552 0.004015 460208.000000 1 0 0
-4.454630 14.387754 -13.314444 20.102875 -1.270544 2.294701 0.004220 -0.003787 -195875.000000 1 0 0
15.477270 -4.812446 -8.290844 18.205593 -0.301460 2.043619 0.012550 -0.001334 -674503.000000 1 0 0
1.185370 9.414154 -16.674544 19.185197 1.445542 2.624249 -0.005679 0.002209 -154050.000000 1 0 0
0.425670 -3.229646 -12.844244 13.250902 -1.439751 2.893208 -0.008885 0.000594 285687.000000 1 0 0
7.365970 3.618554 -12.901344 15.290393 0.456625 2.575037 -0.005350 0.005812 -454677.000000 1 0 0
-2.931330 7.752854 -15.057544 17.188050 -1.209313 2.638400 -0.012475 0.003252 148668.000000 1 0 0
12.077770 -5.142846 -11.133244 17.212510 -0.402557 2.274192 0.021676 -0.003764 -1250300.000000 1 0 0
0.524770 -4.476446 -20.124844 20.623367 -1.454100 2.921271 0.013785 -0.009697 -514135.000000 1 0 0
3.197270 -4.539446 -16.194744 17.120129 -0.957170 2.811300 -0.000100 -0.007207 451423.000000 1 0 0
-5.620230 4.163454 -14.344044 15.958475 -0.637586 2.687902 -0.003230 -0.000746 779432.000000 1 0 0
12.170270 -7.509246 -10.023244 17.463381 -0.552837 2.182127 0.019531 -0.000339 -86731.300000 1 0 0
-2.210230 -1.811146 -15.040344 15.309386 0.686481 2.953841 -0.000945 0.002487 647059.000000 1 0 0
6.989370 5.920854 -14.243444 16.934683 0.702821 2.570075 -0.006008 0.007952 -606915.000000 1 0 0
4.057070 -5.552746 -18.417544 19.659571 -0.939800 2.784232 0.013585 -0.017630 -49116.900000 1 0 0
7.560570 7.456854 -12.286344 16.239493 0.778492 2.428851 0.001291 -0.001768 -1302210.000000 1 0 0
12.089070 -2.501246 -11.122944 16.616911 -0.204023 2.304163 0.011049 0.001688 -1119820.000000 1 0 0
7.262170 -0.835046 -10.775544 13.021089 -0.114483 2.545518 -0.002616 -0.001048 -1437340.000000 1 0 0
5.241870 4.004754 -14.376344 15.817538 0.652397 2.711402 -0.004448 0.005975 267729.000000 1 0 0
14.447470 2.924754 -13.014044 19.663390 0.199741 2.294069 -0.012227 -0.003587 -367226.000000 1 0 0
-6.314530 6.933854 -15.664244 18.257057 -0.832111 2.602126 -0.007419 0.004451 509138.000000 1 0 0
-11.058630 4.103054 -16.530544 20.307319 -0.355283 2.521835 0.002812 -0.004657 11492.600000 1 0 0
-4.952330 6.813754 -17.945944 19.824472 -0.942300 2.702745 -0.004606 0.014562 141925.000000 1 0 0
-10.076330 1.816054 -15.648444 18.700381 -0.178315 2.562205 0.006897 0.004761 -213552.000000 1 0 0
-7.454630 6.214954 -17.824744 20.295779 -0.694957 2.642984 -0.012375 0.003140 -1223980.000000 1 0 0
-8.672430 3.951554 -15.614444 18.293077 -0.427539 2.593598 -0.008097 0.007123 -1542770.000000 1 0 0
8.905270 13.581854 -11.762344 20.053013 0.990443 2.197604 0.042724 -0.020579 334218.000000 1 0 0
13.566170 8.857654 -11.536344 19.889350 0.578427 2.189557 0.007058 -0.008250 577099.000000 1 0 0
8.343170 15.853554 -9.099144 20.093234 1.086358 2.040751 0.026431 -0.012508 15616.000000 1 0 0
7.101870 13.733754 -13.690044 20.651146 1.093554 2.295508 0.026783 -0.013004 35207.400000 1 0 0
4.572470 16.043954 -12.328844 20.744067 1.293160 2.207230 0.022506 -0.019090 232586.000000 1 0 0
10.955570 11.091354 -11.405244 19.316372 0.791557 2.202406 0.019423 -0.010671 -107035.000000 1 0 0
15.692570 9.516954 -10.201044 20.997392 0.545158 2.078102 0.019822 0.002719 -121725.000000 1 0 0
13.472870 10.744854 -9.563844 19.708811 0.673226 2.077454 0.045130 -0.005692 404139.000000 1 0 0
10.600770 11.908254 -8.218444 17.936712 0.843420 2.046755 0.020228 0.001730 398661.000000 1 0 0
5.183370 16.269654 -9.841244 19.708349 1.262372 2.093638 0.013684 -0.016530 -34840.500000 1 0 0
6.633170 14.748754 -11.334144 19.748101 1.148155 2.182100 0.020131 -0.006573 -1415460.000000 1 0 0
10.921170 13.981854 -9.771044 20.254320 0.907689 2.074209 0.036147 0.000879 -367874.000000 1 0 0
8.181670 -18.560846 -1.565044 20.344387 -1.155617 1.647800 0.022308 0.008786 21536.900000 1 0 0
7.385370 -17.207646 -3.620944 19.072441 -1.165381 1.761808 0.020791 -0.001360 -552732.000000 1 0 0
4.613170 -18.161546 5.588956 19.554016 -1.322049 1.280933 0.015282 -0.000706 204521.000000 1 0 0
9.804870 -17.010546 -2.895644 19.846383 -1.047911 1.717222 0.017072 0.008792 -545217.000000 1 0 0
-9.707430 -12.319346 -9.899444 18.547223 0.903426 2.133817 0.013217 -0.010916 -622924.000000 1 0 0
-5.065030 -7.142646 -12.087744 14.926000 0.953972 2.514684 0.001032 0.001941 218820.000000 1 0 0
-10.893430 -9.429046 -5.561744 15.443663 0.713465 1.939205 0.004353 -0.000427 -1228830.000000 1 0 0
-4.597630 -11.689046 -14.057244 18.851475 1.196055 2.412357 0.011629 0.008481 738544.000000 1 0 0
-2.930430 -15.547346 7.568256 17.538127 1.384498 1.124606 0.001283 -0.004817 115576.000000 1 0 0
-4.880030 -12.178246 -11.575744 17.496348 1.189672 2.293759 0.010988 0.005622 368585.000000 1 0 0
-14.458030 -12.748346 -4.224644 19.733286 0.722639 1.786554 -0.010255 0.002969 131673.000000 1 0 0
-3.408230 -12.323646 -3.266344 13.196866 1.300980 1.820905 0.008249 -0.003213 1004850.000000 1 0 0
-2.546930 -17.398446 -1.505844 17.648239 1.425440 1.656226 -0.002653 -0.005752 -367826.000000 1 0 0
-5.773930 -12.149546 3.763256 13.968244 1.127154 1.298011 -0.006491 0.002843 -1171440.000000 1 0 0
-8.938630 -10.758946 -11.895544 18.361862 0.877550 2.275541 0.017974 0.000428 -372511.000000 1 0 0
-9.983430 -12.036746 -7.403544 17.302155 0.878376 2.012961 0.005665 -0.009078 -4269.040000 1 0 0
-10.789130 -15.293746 6.203356 19.717648 0.956415 1.250751 0.005965 -0.004081 491366.000000 1 0 0
-9.455430 -16.072446 0.470756 18.653426 1.039024 1.545557 -0.014021 0.013900 -2318830.000000 1 0 0
-14.966430 -7.691546 -8.165644 18.703787 0.474721 2.022587 -0.017605 0.006393 -359164.000000 1 0 0
-2.415330 -16.631446 5.240656 17.604071 1.426578 1.268518 0.003761 -0.004711 -125159.000000 1 0 0
4.429870 -15.602146 6.142356 17.342989 -1.294150 1.208771 0.009777 -0.008377 -590515.000000 1 0 0
3.929670 -14.606146 -10.030044 18.148928 -1.307977 2.156339 -0.015665 -0.000359 -99884.000000 1 0 0
-7.709330 -14.278346 -0.337544 16.230184 1.075716 1.591595 -0.006329 0.008184 469958.000000 1 0 0
3.005770 -14.814846 9.610556 17.913043 -1.370624 1.004498 0.007858 -0.009913 187322.000000 1 0 0
2.531570 -17.198446 10.564856 20.342360 -1.424648 1.024703 0.020345 -0.011230 25751.500000 1 0 0
-8.316030 -17.133046 -5.691544 19.876903 1.118913 1.861201 0.002324 -0.008600 -288701.000000 1 0 0
-6.523430 -9.158346 -7.703144 13.629705 0.951867 2.171439 0.015471 -0.002528 264034.000000 1 0 0
-6.246930 -13.142946 -4.819844 15.329451 1.127098 1.890639 0.005091 -0.009131 490594.000000 1 0 0
2.157370 -19.396546 -4.941244 20.131968 -1.460027 1.818773 0.013215 -0.013546 166163.000000 1 0 0
-5.451430 -12.982346 8.212656 16.300525 1.173244 1.042772 0.001809 -0.009713 665482.000000 1 0 0
2.254170 -17.432246 3.476556 17.917894 -1.442200 1.375531 0.021781 -0.009073 748837.000000 1 0 0
-17.716230 -10.111646 -2.232344 20.520564 0.518639 1.679798 -0.002050 0.002082 567190.000000 1 0 0
-3.526230 -15.441346 2.684556 16.064754 1.346283 1.402900 -0.006357 0.000330 17357.000000 1 0 0
-10.196330 -10.406446 -14.068944 20.253257 0.795596 2.338731 0.013681 -0.001227 -316743.000000 1 0 0
5.902170 -14.790246 -5.618944 16.886667 -1.191102 1.910009 -0.003447 -0.008352 292496.000000 1 0 0
-7.382230 -12.414446 -10.801544 18.035774 1.034321 2.212918 0.012871 -0.003787 -1222670.000000 1 0 0
-6.972030 -14.320146 3.945856 16.408704 1.117709 1.327943 -0.014161 0.005705 745047.000000 1 0 0
3.184270 -15.124846 -3.209044 15.786023 -1.363294 1.775507 0.010559 -0.009835 -7056.500000 1 0 0
-7.580530 -11.371046 7.820756 15.745773 0.982804 1.051016 0.001318 -0.008743 -1447920.000000 1 0 0
-12.687230 -12.392846 -0.941144 17.760467 0.773661 1.623812 -0.013592 0.012550 -3442120.000000 1 0 0
-1.922430 -13.693246 4.085156 14.418364 1.431315 1.283532 -0.002727 0.001573 -3126500.000000 1 0 0
-3.161130 -14.031646 5.342656 15.343527 1.349210 1.215143 -0.004278 -0.000129 40541.800000 1 0 0
-14.495430 -10.241146 -4.505444 18.311133 0.615081 1.819399 -0.014009 0.005002 280996.000000 1 0 0
-6.344930 -8.625146 -10.382344 14.914568 0.936555 2.340776 0.009139 -0.001194 172041.000000 1 0 0
0.904770 -19.472046 2.430656 19.644014 -1.524365 1.446743 0.023776 -0.006338 308910.000000 1 0 0
6.152270 -13.882446 -8.171144 17.243559 -1.153638 2.064473 0.003345 -0.011308 -2590700.000000 1 0 0
-4.076930 -16.781146 -5.844544 18.231481 1.332467 1.897132 -0.002220 -0.006994 -72192.500000 1 0 0
-3.766730 -13.911246 -13.160344 19.516805 1.306368 2.310824 0.019235 0.011411 -1928650.000000 1 0 0
-8.407230 -14.730346 -4.467544 17.539201 1.052168 1.828352 0.001104 -0.008351 -231920.000000 1 0 0
-4.465330 -14.428346 10.051156 18.142274 1.270662 0.983613 0.004419 -0.009757 -1785280.000000 1 0 0
-0.359730 -12.145346 -9.919944 15.685794 1.541186 2.255464 0.002652 0.004818 155616.000000 1 0 0
2.476770 -17.266346 6.756556 18.705939 -1.428323 1.201244 0.019220 -0.008824 -145333.000000 1 0 0
-2.968630 -19.200046 -3.471744 19.735945 1.417395 1.747626 -0.005518 -0.006086 -1557000.000000 1 0 0
0.550170 -15.423846 -3.103744 15.742647 -1.535141 1.769252 0.017334 -0.008293 -460583.000000 1 0 0
6.100370 -18.024146 0.650256 19.039622 -1.244443 1.536637 0.022516 0.002667 -62346.800000 1 0 0
-7.032430 -16.797646 3.875456 18.618140 1.174312 1.361108 -0.017890 0.005886 627262.000000 1 0 0
-5.312930 -13.578246 -9.497944 17.401348 1.197828 2.148160 0.010302 -0.003384 319256.000000 1 0 0
5.603570 -15.259946 -2.209944 16.405786 -1.218875 1.705912 0.008011 -0.002687 -1126290.000000 1 0 0
-8.921930 -10.352446 -0.478244 13.674893 0.859481 1.605776 -0.008373 0.004446 317130.000000 1 0 0
-7.355330 -18.364846 -3.178244 20.036708 1.189849 1.730090 -0.008226 -0.007586 -53139.100000 1 0 0
7.898070 -15.987546 -1.352044 17.883209 -1.111949 1.646473 0.007869 0.005142 150896.000000 1 0 0
-8.132730 -10.277246 -9.542944 16.212059 0.901362 2.200162 0.015987 -0.003298 -2232160.000000 1 0 0
-9.197230 -15.102046 -6.945444 18.997369 1.023781 1.945074 0.005490 -0.011843 -462835.000000 1 0 0
-11.593830 -10.554546 -11.849744 19.652780 0.738509 2.217996 0.014092 0.003786 167814.000000 1 0 0
6.612270 -16.260746 2.437456 17.722166 -1.184579 1.432822 0.012567 -0.001566 -122665.000000 1 0 0
-2.327030 -11.251246 -6.042844 12.981586 1.366848 2.054988 0.007837 -0.001168 207510.000000 1 0 0
-12.490430 -15.204046 -3.365244 19.962433 0.883070 1.740184 -0.007838 -0.005541 -493722.000000 1 0 0
-0.524230 -19.762046 -2.818044 19.968842 1.544275 1.712391 0.009431 -0.007725 351307.000000 1 0 0
-6.035130 -15.650646 -4.741544 17.431229 1.202752 1.846282 -0.003725 -0.006945 -3534200.000000 1 0 0
1.875670 -16.037746 -1.036644 16.180299 -1.454372 1.634908 0.018733 -0.007687 980036.000000 1 0 0
-13.114530 -12.045346 5.319956 18.584488 0.742928 1.280477 0.011257 0.005930 379525.000000 1 0 0
1.803070 -15.359746 -8.857144 17.821949 -1.453942 2.090911 -0.008026 0.005691 -3111110.000000 1 0 0
-11.849630 -16.793346 -0.025444 20.553123 0.956312 1.572034 0.001064 0.000644 249098.000000 1 0 0
-7.480030 -16.762346 -1.109044 18.389048 1.151074 1.631143 -0.019030 0.003917 897205.000000 1 0 0
-3.262630 -14.540646 -1.801244 15.010650 1.350072 1.691084 0.000772 -0.002788 273451.000000 1 0 0
-1.863330 -10.628746 -13.138144 17.001560 1.397250 2.453976 -0.004552 0.005472 623873.000000 1 0 0
1.647870 -19.446646 4.978256 20.141265 -1.486260 1.321041 0.026306 -0.009898 73763.800000 1 0 0
-17.349030 -9.419046 2.682556 19.922434 0.497387 1.435736 0.004130 0.003833 188522.000000 1 0 0
-2.851530 -15.723546 -7.981744 17.862513 1.391392 2.034030 0.005091 -0.001338 -510711.000000 1 0 0
-10.458430 -12.231546 0.247856 16.095058 0.863385 1.555396 -0.010144 0.009573 325795.000000 1 0 0
-7.039230 -11.467146 -6.468744 14.929529 1.020247 2.018931 0.007760 -0.006334 286185.000000 1 0 0
-2.347430 -13.640046 -6.692044 15.373507 1.400367 2.021165 0.004044 0.000264 625654.000000 1 0 0
-14.304130 -14.400046 -0.969944 20.320193 0.788740 1.618547 0.003050 0.009316 331687.000000 1 0 0
-9.687730 -11.396746 -4.574444 15.641722 0.866277 1.867586 0.004198 -0.002659 970350.000000 1 0 0
9.273270 -15.195946 -5.364644 18.592733 -1.022877 1.863492 0.008763 0.003640 40964.300000 1 0 0
-5.720930 -10.945046 -9.424544 15.535285 1.089157 2.222641 0.010408 -0.000781 -888110.000000 1 0 0
-10.642430 -16.075846 -4.983744 19.913107 0.986022 1.823760 0.003898 -0.003797 -181759.000000 1 0 0
2.109970 -17.388246 -3.396444 17.842054 -1.450042 1.762327 0.014603 -0.011297 418607.000000 1 0 0
-0.474930 -14.449446 -8.149244 16.595850 1.537940 2.084081 0.000692 0.000913 -372708.000000 1 0 0
-0.708130 -18.315046 -7.125244 19.664981 1.532152 1.941565 -0.002380 -0.005786 48976.400000 1 0 0
-1.746730 -9.933746 -10.502844 14.561597 1.396738 2.376430 -0.003652 0.003468 54761.000000 1 0 0
-5.008530 -17.431946 2.148256 18.263984 1.291014 1.452901 -0.011193 0.001700 -173650.000000 1 0 0
0.219870 -12.883346 -2.679744 13.160926 -1.553732 1.775844 0.006138 -0.003555 -1697160.000000 1 0 0
2.570070 -15.048446 3.013856 15.560987 -1.401642 1.375884 0.016905 -0.003496 -875193.000000 1 0 0
-9.358230 -13.156146 6.929556 17.569274 0.952513 1.165367 -0.000351 -0.003306 -632004.000000 1 0 0
-0.943630 -17.855946 -4.518844 18.443026 1.517999 1.818333 0.002383 -0.011954 -299469.000000 1 0 0
-9.661030 -17.850546 -2.340944 20.431777 1.074721 1.685622 -0.008871 0.002794 -243403.000000 1 0 0
1.269270 -16.314846 1.383156 16.422496 -1.493154 1.486473 0.015713 -0.005302 893744.000000 1 0 0
-0.341830 -17.996546 4.119356 18.465146 1.551804 1.345815 0.021478 -0.011576 1220700.000000 1 0 0
-17.380930 -9.158546 0.154356 19.646870 0.484959 1.562940 -0.007996 0.005448 988088.000000 1 0 0
-14.750930 -7.269746 -10.641544 19.587792 0.457898 2.145129 -0.009164 0.004721 449983.000000 1 0 0
2.629670 -12.804646 -8.784144 15.749137 -1.368244 2.162474 -0.013352 0.001758 417350.000000 1 0 0
-11.389730 -14.860246 1.730356 18.802845 0.916846 1.478640 -0.013041 0.013383 -174012.000000 1 0 0
-2.303230 -15.544046 10.502656 18.900477 1.423692 0.981613 0.009258 -0.008430 -459786.000000 1 0 0
-6.969230 -16.085246 1.354656 17.582389 1.161943 1.493674 -0.014843 0.008383 -1708220.000000 1 0 0
-12.660230 -15.033446 -6.062444 20.567915 0.870885 1.869993 -0.000610 -0.002748 -264306.000000 1 0 0
0.814970 -13.863546 -5.106144 14.796445 -1.512079 1.923134 0.006261 -0.005578 481347.000000 1 0 0
6.042870 -16.275846 -7.683444 18.985646 -1.215292 1.987444 0.007199 -0.018999 45044.600000 1 0 0
-6.606430 -12.879346 5.965956 15.656152 1.096844 1.179852 -0.002662 -0.003677 -260888.000000 1 0 0
-2.603830 -13.571846 0.562356 13.830806 1.381244 1.530125 0.001876 0.001392 3949460.000000 1 0 0
-4.340930 -15.603846 0.224856 16.197970 1.299461 1.556914 -0.008121 0.001632 -205231.000000 1 0 0
-17.799030 -7.552046 -1.902744 19.428312 0.401274 1.668890 -0.009113 0.008530 622751.000000 1 0 0
1.060870 -12.692646 -11.966044 17.476124 -1.487409 2.324999 -0.008928 0.011009 -595220.000000 1 0 0
1.195270 -17.133446 -5.785844 18.123455 -1.501147 1.895730 0.011980 -0.009222 -672995.000000 1 0 0
-12.879630 -6.404846 -9.090444 17.015965 0.461473 2.134393 -0.002457 0.007501 952951.000000 1 0 0
-11.681430 -13.519246 -8.710544 19.877107 0.858197 2.024414 0.009956 -0.016219 141955.000000 1 0 0
-4.287830 -9.847246 3.468356 11.286418 1.160121 1.258438 0.000535 0.003022 -5334740.000000 1 0 0
-7.018330 -14.315946 9.744856 18.685971 1.114983 1.022181 0.006017 -0.013460 -208209.000000 1 0 0
-5.426130 -15.984146 -8.020144 18.688459 1.243533 2.014347 0.001729 -0.007325 -1402910.000000 1 0 0
-0.268230 -13.611046 2.133856 13.779908 1.551092 1.415318 0.006300 -0.002152 827973.000000 1 0 0
-11.063730 -13.490746 -4.684044 18.065066 0.883920 1.833081 0.002960 -0.002420 -1618320.000000 1 0 0
-9.743530 -10.547246 6.714456 15.851331 0.824987 1.133392 0.001248 -0.001283 -568747.000000 1 0 0
-15.524530 -8.105646 -4.782144 18.154377 0.481186 1.837357 -0.009410 0.007919 -1143340.000000 1 0 0
-14.426630 -7.511246 5.619456 17.208276 0.480032 1.238139 0.010448 -0.004877 196349.000000 1 0 0
-1.809230 -19.319746 0.057556 19.404361 1.477422 1.567830 0.006259 -0.002560 -375213.000000 1 0 0
-15.247730 -11.984346 -1.229244 19.432675 0.666131 1.634095 -0.016119 0.011865 655449.000000 1 0 0
-4.510730 -12.153146 -6.791144 14.634387 1.215399 2.053363 0.007793 -0.003023 125722.000000 1 0 0
-7.316530 -18.590346 2.046556 20.082853 1.195849 1.468713 -0.022213 0.008806 202100.000000 1 0 0
-2.510230 -11.856446 -8.628044 14.876818 1.362159 2.189483 0.002502 0.003951 429269.000000 1 0 0
-1.471430 -20.328546 -5.208444 21.036701 1.498540 1.820987 -0.002715 -0.005049 -128619.000000 1 0 0
-5.426430 -9.158646 -13.731944 17.375074 1.035915 2.482134 0.005500 0.001587 1052950.000000 1 0 0
-7.990330 -19.316446 -0.899144 20.923167 1.178575 1.613783 -0.028241 0.012948 33728.900000 1 0 0
-16.932130 -7.412246 5.927456 19.410645 0.412630 1.260468 0.014423 -0.006085 -496893.000000 1 0 0
-3.778430 -14.655646 -4.272244 15.726302 1.318477 1.845916 0.000532 -0.004891 -2583650.000000 1 0 0
-3.026930 -15.155146 -10.934244 18.931414 1.373661 2.186547 0.006123 0.008957 78650.900000 1 0 0
-0.053030 -16.679946 6.327556 17.839882 1.567617 1.208218 0.020078 -0.012190 -669712.000000 1 0 0
-10.999530 -11.693546 3.880556 16.516277 0.815971 1.333626 -0.003295 0.005281 -1102750.000000 1 0 0
-0.294430 -14.728046 -0.218144 14.732604 1.550808 1.585604 0.009596 -0.001292 1085830.000000 1 0 0
-7.274830 -9.534746 -2.427544 12.236319 0.919039 1.770510 0.006033 -0.000158 272166.000000 1 0 0
-10.989930 -14.519346 -0.891844 18.231439 0.922883 1.619734 -0.016150 0.001807 243813.000000 1 0 0
0.236070 -14.604246 -10.709444 18.111651 -1.554633 2.203468 -0.006331 0.006733 -300984.000000 1 0 0
-1.544630 -14.156246 -3.841944 14.749431 1.462113 1.834316 0.001280 -0.003122 -1430870.000000 1 0 0
-11.519530 -8.032546 -7.559744 15.949015 0.608910 2.064618 0.004856 -0.001049 606844.000000 1 0 0
-0.315730 -17.300446 -0.396444 17.307868 1.552549 1.593704 0.014863 -0.007261 -1269480.000000 1 0 0
-12.744030 -9.607946 4.615356 16.613983 0.646004 1.289294 0.004632 0.001315 -188260.000000 1 0 0
4.055370 -16.822446 1.576456 17.376016 -1.334241 1.479945 0.018875 -0.005884 1583650.000000 1 0 0
-3.930030 -18.013946 -8.105144 20.140525 1.355996 1.984966 0.000547 -0.003539 26700.600000 1 0 0
-13.234030 -11.294246 2.675056 17.602712 0.706479 1.418237 -0.011155 0.007585 704159.000000 1 0 0
-8.444630 -12.203646 4.199856 15.423344 0.965476 1.295008 -0.006077 0.001120 -435727.000000 1 0 0
-8.338230 -9.347846 -5.794844 13.801758 0.842422 2.004090 0.011389 -0.002987 -494830.000000 1 0 0
3.775970 -17.310346 -5.396444 18.521005 -1.356027 1.866454 0.003750 -0.009251 -568404.000000 1 0 0
-2.601930 -13.120246 11.363856 17.551300 1.375022 0.866543 0.004025 -0.008945 284443.000000 1 0 0
-0.207430 -16.745946 -9.603244 19.305233 1.558410 2.091444 -0.009740 0.004008 -192277.000000 1 0 0
-7.176030 -10.929746 -14.489544 19.516701 0.989824 2.407468 0.019966 0.010657 -264722.000000 1 0 0
-4.716130 -18.783346 -1.481044 19.422911 1.324801 1.647123 -0.001808 -0.011215 -915251.000000 1 0 0
-2.488430 -17.119146 1.164156 17.338186 1.426448 1.503602 0.003940 -0.006639 -192926.000000 1 0 0
3.884970 -14.780846 -7.441544 16.998323 -1.313772 2.023925 -0.007351 -0.002058 1202680.000000 1 0 0
-1.063230 -15.905646 -6.073444 17.058920 1.504050 1.934810 0.000694 -0.004043 -152760.000000 1 0 0
-9.311130 -15.406546 8.360956 19.848536 1.027176 1.135986 -0.004839 -0.004064 -359473.000000 1 0 0
-7.318230 -12.090546 -1.747044 14.240434 1.026500 1.693788 -0.004426 -0.000433 706857.000000 1 0 0
-7.476630 -15.006846 -9.278044 19.162138 1.108578 2.076229 0.010353 -0.011094 458730.000000 1 0 0
-5.196530 -13.297846 -0.535944 14.287192 1.198264 1.608317 -0.007103 0.002150 3027990.000000 1 0 0
-6.568430 -13.861446 -7.211244 16.949513 1.128276 2.010260 0.005449 -0.008967 334843.000000 1 0 0
5.763970 -15.377946 0.222456 16.424192 -1.212183 1.557251 0.009282 -0.000527 -27941.800000 1 0 0
-14.285930 -12.834846 1.032556 19.232453 0.731945 1.517082 -0.014850 0.004909 1056570.000000 1 0 0
0.892870 -15.250846 11.100956 18.884299 -1.512317 0.942409 0.009900 -0.011122 -91964.600000 1 0 0
-9.246630 -10.877346 1.963356 14.410815 0.866255 1.434129 -0.007412 0.007179 -210685.000000 1 0 0
-9.520830 -9.014846 -3.471544 13.563380 0.758107 1.829626 0.005391 -0.001390 291574.000000 1 0 0
-12.222730 -7.220446 -12.398544 18.848179 0.533582 2.288705 0.000128 0.008981 -416636.000000 1 0 0
-13.315030 -8.334146 -0.513344 15.716600 0.559261 1.603465 -0.008536 0.006286 -426619.000000 1 0 0
-11.238630 -9.705046 0.544356 14.859039 0.712304 1.534153 -0.004275 0.006288 530763.000000 1 0 0
-15.704030 -12.136046 3.118356 20.090404 0.657933 1.414950 0.000437 0.009974 -114457.000000 1 0 0
-10.475330 -12.541446 -2.377444 16.512802 0.874924 1.715274 -0.002734 0.000439 541761.000000 1 0 0
-3.400930 -8.986746 -11.986244 15.362225 1.209015 2.465848 -0.000449 0.003850 -1382040.000000 1 0 0
-0.387530 -15.590746 3.937956 16.085057 1.545945 1.323461 0.013188 -0.003667 -291011.000000 1 0 0
-15.612930 -7.750146 1.369956 17.484425 0.460758 1.492363 -0.012669 -0.000708 414747.000000 1 0 0
-6.284730 -13.548746 -13.366544 20.043224 1.136476 2.300818 0.020727 0.008523 -466600.000000 1 0 0
-15.219130 -10.297046 1.221656 18.415850 0.594838 1.504410 -0.005991 0.004211 1067630.000000 1 0 0
-9.972330 -8.436546 -12.433344 18.033599 0.702165 2.331532 0.015955 -0.000439 -24853.600000 1 0 0
-13.210830 -11.750346 -6.227644 18.745138 0.726955 1.909460 -0.008877 0.001825 -419067.000000 1 0 0
-12.257930 -11.322446 -3.739144 17.100755 0.745747 1.791231 -0.007754 0.003789 -1803280.000000 1 0 0
-11.836830 -10.971946 -8.888544 18.425535 0.747497 2.074193 -0.001270 -0.011991 678662.000000 1 0 0
-13.227030 -8.456946 -5.824444 16.745101 0.568865 1.926052 -0.004525 0.004037 -2417410.000000 1 0 0
-13.461730 -8.244546 -3.118444 16.090848 0.549519 1.765833 -0.005244 0.002101 494381.000000 1 0 0
-4.398630 -17.049546 -3.310644 17.916343 1.318311 1.756648 -0.003407 -0.009437 -56379.500000 1 0 0
-15.500930 -8.924946 -1.718344 17.969034 0.522412 1.666571 -0.013047 0.008486 -136970.000000 1 0 0
-9.237230 -15.493646 3.668556 18.407547 1.033180 1.370157 -0.016350 -0.000387 -2061080.000000 1 0 0
4.847570 -17.315346 8.008356 19.683849 -1.297827 1.151794 0.019142 -0.016429 492638.000000 1 0 0
-8.203730 -15.459046 6.023056 18.508390 1.082911 1.239337 -0.009340 0.000730 247951.000000 1 0 0
1.066770 -16.254146 8.640556 18.438939 -1.505260 1.083087 0.008352 -0.003097 -26282.700000 1 0 0
-10.860430 -7.721646 -10.121344 16.733629 0.618063 2.220374 0.006933 0.001195 759343.000000 1 0 0
-4.842330 -16.058646 5.946956 17.795914 1.277927 1.230066 -0.003054 -0.003086 -62653.600000 1 0 0
-1.531930 -13.280346 -12.056144 18.001805 1.455951 2.304626 -0.004157 0.008011 -865897.000000 1 0 0
-6.522330 -14.384046 -2.559844 15.999824 1.145084 1.731479 -0.002570 -0.003511 218876.000000 1 0 0
-17.484230 -6.807546 -7.112044 20.065446 0.371295 1.933114 -0.025060 0.004072 -206209.000000 1 0 0
-17.239530 -3.666046 -10.065544 20.296710 0.209532 2.089690 -0.015579 -0.006381 225896.000000 1 0 0
-15.270930 -5.165246 -8.989044 18.457626 0.326160 2.079459 -0.021934 0.001413 627317.000000 1 0 0
-16.014930 -5.358946 -5.544344 17.774589 0.322910 1.888015 -0.017145 0.008304 392296.000000 1 0 0
-15.285230 -4.224946 -12.278544 20.056197 0.269674 2.229645 -0.003927 0.006956 -625720.000000 1 0 0
-18.617830 -5.154446 -5.402044 20.059262 0.270090 1.843467 -0.018371 0.007376 -68918.600000 1 0 0
-17.352730 -4.248546 -7.610444 19.418708 0.240111 1.973506 -0.023673 0.000867 75229.100000 1 0 0
12.219370 -7.907446 8.628956 16.920390 -0.574351 1.035642 0.000962 -0.002212 169173.000000 1 0 0
16.095670 -3.404246 1.673556 16.536635 -0.208429 1.469420 0.007112 -0.007097 831999.000000 1 0 0
11.863470 -2.236946 12.367356 17.282863 -0.186369 0.773335 -0.004552 -0.001872 194918.000000 1 0 0
9.656070 -10.094746 5.127956 14.880844 -0.807605 1.218982 -0.004414 -0.001784 3378.870000 1 0 0
17.049370 -2.009446 7.086656 18.572550 -0.117319 1.179306 0.020822 -0.006720 1109890.000000 1 0 0
5.325470 -12.949946 9.096656 16.697632 -1.180642 0.994661 -0.002099 0.005150 62104.200000 1 0 0
14.922170 -8.942246 -2.352744 17.554781 -0.539875 1.705224 0.002423 -0.001830 200068.000000 1 0 0
11.055770 -8.604946 6.374456 15.391844 -0.661382 1.143793 0.001015 -0.002186 -2251620.000000 1 0 0
20.049270 -3.167646 3.483856 20.594768 -0.156698 1.400817 0.014454 -0.009369 14800.600000 1 0 0
13.479170 -8.544346 6.634656 17.283303 -0.564968 1.176805 0.005288 -0.003842 -1939990.000000 1 0 0
8.241170 -11.100346 8.703856 16.336820 -0.932161 1.008919 -0.009618 -0.001567 -1261190.000000 1 0 0
16.683470 0.076854 -0.694244 16.698086 0.004607 1.612385 0.005548 -0.004240 -2661640.000000 1 0 0
12.340170 -12.432846 2.308256 17.668716 -0.789139 1.439781 0.002901 0.002639 -1512410.000000 1 0 0
10.245370 -11.817946 3.434356 16.013315 -0.856553 1.354648 -0.003978 0.002730 -829295.000000 1 0 0
16.382070 2.956954 2.224256 16.794735 0.178577 1.437968 0.010273 -0.002327 -914346.000000 1 0 0
18.313270 -3.361746 0.210856 18.620464 -0.181548 1.559472 0.008554 -0.008274 327080.000000 1 0 0
13.432870 -11.771546 -0.335244 17.864033 -0.719579 1.589564 0.015887 0.005927 -257819.000000 1 0 0
16.827570 -7.631146 -0.962044 18.502082 -0.425753 1.622816 0.012632 -0.000377 -109126.000000 1 0 0
10.178270 -5.708946 9.543256 15.075244 -0.511170 0.885320 -0.005189 -0.003139 -359133.000000 1 0 0
11.173070 -13.133446 6.056556 18.275852 -0.865876 1.233013 -0.007875 -0.002846 -1570440.000000 1 0 0
13.184170 -1.640746 10.197356 16.748148 -0.123812 0.916168 0.012991 -0.002164 975092.000000 1 0 0
15.489770 -2.061946 -1.486844 15.696984 -0.132339 1.665660 0.002110 -0.009196 -684466.000000 1 0 0
10.476870 -12.410146 8.984556 18.560679 -0.869669 1.065503 -0.006231 -0.006846 166735.000000 1 0 0
14.444670 1.190554 3.046456 14.810362 0.082236 1.363620 0.009591 -0.003850 1377740.000000 1 0 0
14.902370 -5.870646 5.130756 16.818733 -0.375272 1.260793 0.012115 -0.004660 -827215.000000 1 0 0
14.239670 -3.349946 -3.070144 14.947111 -0.231053 1.777669 0.003714 -0.004365 1311800.000000 1 0 0
14.166570 0.674354 9.449156 17.042096 0.047566 0.983083 0.020254 -0.004274 -348009.000000 1 0 0
15.466470 -3.495046 4.324556 16.435597 -0.222243 1.304540 0.010024 -0.005209 -49138.200000 1 0 0
18.666170 4.926654 -4.406644 19.801928 0.258050 1.795211 -0.005511 0.005759 549167.000000 1 0 0
17.984770 -5.796946 -5.297344 19.624434 -0.311811 1.844123 0.025384 -0.002500 671222.000000 1 0 0
17.384370 -0.047646 5.810056 18.329631 -0.002741 1.248257 0.020632 -0.004346 878381.000000 1 0 0
16.878670 -6.636346 3.830556 18.536552 -0.374613 1.362648 0.006096 -0.000602 -433676.000000 1 0 0
9.819470 -6.515746 14.045356 18.334366 -0.585844 0.698096 -0.011156 -0.001114 -1509310.000000 1 0 0
8.587370 -12.338746 5.113656 15.878824 -0.962782 1.242910 -0.008274 -0.003416 -1596120.000000 1 0 0
16.720970 -10.255046 -0.844544 19.633392 -0.550145 1.613825 0.007869 0.007856 326724.000000 1 0 0
14.856970 -8.805746 0.143456 17.271112 -0.535036 1.562490 0.015140 -0.000283 -324051.000000 1 0 0
9.931370 -12.951246 1.211256 16.365636 -0.916612 1.496716 0.002043 0.000974 137037.000000 1 0 0
16.758470 -8.286746 8.710756 20.625076 -0.459223 1.134773 0.005022 0.004170 436634.000000 1 0 0
18.945070 -0.293646 -1.816044 19.034178 -0.015499 1.666351 0.002288 -0.004637 -634586.000000 1 0 0
13.452770 -1.138346 7.624056 15.504809 -0.084417 1.056730 0.011672 -0.006781 139379.000000 1 0 0
12.633070 -9.795146 -3.250644 16.312757 -0.659533 1.771409 0.004561 0.001495 -2098530.000000 1 0 0
8.757870 -15.264746 1.317656 17.647917 -1.049916 1.496063 0.009719 0.006081 183235.000000 1 0 0
11.404770 -8.301146 11.011756 17.895156 -0.629184 0.907968 -0.007540 0.000461 -216563.000000 1 0 0
13.891470 -3.985146 -0.526944 14.461397 -0.279374 1.607242 0.007183 -0.006886 -656479.000000 1 0 0
7.319470 -13.274446 10.704256 18.557119 -1.066882 0.955957 0.000680 0.003070 463713.000000 1 0 0
15.237870 -6.723246 1.683856 16.740075 -0.415528 1.470038 0.001199 -0.002517 232418.000000 1 0 0
15.668970 -6.056646 -2.670744 17.009776 -0.368847 1.728461 0.006937 -0.002056 411953.000000 1 0 0
11.192470 -8.571046 3.699756 14.574719 -0.653528 1.314140 0.003836 -0.003452 705148.000000 1 0 0
10.615870 -14.601046 -0.621844 18.063055 -0.942138 1.605229 0.018676 0.005947 504749.000000 1 0 0
13.314170 -12.986046 4.597756 19.158390 -0.772923 1.328444 -0.001312 0.004430 513950.000000 1 0 0
12.715270 -11.126846 6.366056 18.055788 -0.718874 1.210473 -0.002878 -0.004242 530253.000000 1 0 0
10.836370 -10.514046 1.238856 15.149484 -0.770302 1.488929 0.002249 -0.000122 172328.000000 1 0 0
13.866670 -7.670346 11.628856 19.655764 -0.505258 0.937722 0.001636 -0.002370 -876998.000000 1 0 0
15.232670 -1.788146 -4.999844 16.131650 -0.116854 1.885926 0.008716 -0.003931 -366714.000000 1 0 0
12.865770 -11.419446 -7.284244 18.681328 -0.725913 1.971342 0.021317 -0.000001 337694.000000 1 0 0
17.606370 -5.482646 1.705756 18.518998 -0.301884 1.478557 0.009574 -0.002536 61399.500000 1 0 0
10.527470 -9.811846 9.020556 16.984416 -0.750228 1.010889 -0.013591 -0.001016 -1384270.000000 1 0 0
16.423270 1.957654 10.013756 19.334724 0.118640 1.026384 0.023060 0.001087 497560.000000 1 0 0
18.251070 3.683554 0.478356 18.625224 0.199151 1.545110 0.003900 0.000875 1054420.000000 1 0 0
13.229970 -4.066246 5.748256 14.986958 -0.298187 1.177158 0.008615 -0.007688 -1320440.000000 1 0 0
12.001370 -6.160346 6.590956 15.014109 -0.474234 1.116329 0.009023 -0.006296 -237608.000000 1 0 0
16.446570 -10.156946 3.340456 19.616622 -0.553240 1.399675 0.004637 0.001194 -239458.000000 1 0 0
16.125970 -8.074346 -5.651244 18.899168 -0.464211 1.874463 0.013696 -0.001499 37414.000000 1 0 0
13.983870 -0.366946 5.167956 14.912781 -0.026235 1.216911 0.009934 -0.004947 783561.000000 1 0 0
18.367870 -4.314046 5.101656 19.545244 -0.230688 1.306720 0.020710 -0.002584 215466.000000 1 0 0
13.401070 -13.560846 7.235156 20.391977 -0.791324 1.208092 -0.005588 0.007230 257120.000000 1 0 0
14.857670 -13.606846 -1.109744 20.177417 -0.741483 1.625823 0.011937 0.012290 207640.000000 1 0 0
17.810970 -6.063146 7.957256 20.428175 -0.328112 1.170682 0.022465 0.006580 -96110.700000 1 0 0
14.423570 3.376554 9.138256 17.405408 0.229959 1.018053 0.015915 -0.005352 157554.000000 1 0 0
18.744870 3.708854 3.028856 19.346827 0.195337 1.413594 0.012844 -0.002184 171756.000000 1 0 0
14.710470 -10.494246 8.015856 19.768184 -0.619654 1.153278 0.004651 -0.000418 -141390.000000 1 0 0
14.853470 -4.769746 10.264556 18.674506 -0.310719 0.988844 0.011491 -0.003776 -161128.000000 1 0 0
17.639170 -7.963846 1.745456 19.432184 -0.424089 1.480852 0.012658 -0.003160 29254.800000 1 0 0
18.341170 -5.847546 -2.160744 19.371658 -0.308633 1.682570 0.010782 -0.001564 1161520.000000 1 0 0
14.095670 -13.013446 -5.606344 19.986715 -0.745498 1.855115 0.017837 0.002355 -744037.000000 1 0 0
15.524370 -1.508546 9.142356 18.079393 -0.096869 1.040628 0.019542 -0.008555 25494.300000 1 0 0
12.872370 -10.165746 10.105956 19.265790 -0.668450 1.018605 -0.011605 0.000794 -1120270.000000 1 0 0
16.507970 1.878654 4.603956 17.240616 0.113315 1.300475 0.015562 -0.004983 -2301030.000000 1 0 0
14.989170 2.382254 -0.157044 15.178110 0.157613 1.581143 0.005732 -0.001710 -1261390.000000 1 0 0
15.072770 -9.932146 -7.179644 19.426354 -0.582639 1.949356 0.020610 0.000458 1110410.000000 1 0 0
16.129870 -0.024846 -3.160644 16.436636 -0.001540 1.764294 0.001668 -0.001951 -291424.000000 1 0 0
12.031970 2.367454 13.395056 18.160415 0.194282 0.741293 0.025743 -0.006232 -185930.000000 1 0 0
17.614870 -3.159946 9.379056 20.204841 -0.177503 1.088067 0.015223 -0.004564 884544.000000 1 0 0
8.097070 -18.022246 4.352256 20.231313 -1.148540 1.353977 0.020647 -0.009953 -106514.000000 1 0 0
6.844770 -11.258546 6.512856 14.697722 -1.024543 1.111720 -0.008141 -0.001814 -305306.000000 1 0 0
17.982270 2.108454 -1.571044 18.173492 0.116719 1.657351 0.002734 0.001917 487345.000000 1 0 0
17.606570 -2.378646 3.496456 18.107305 -0.134287 1.376479 0.011279 -0.003615 -1120210.000000 1 0 0
12.434270 -13.458246 -2.171044 18.451257 -0.824925 1.688733 0.013659 0.009151 422356.000000 1 0 0
14.901770 -8.288646 4.158556 17.551581 -0.507605 1.331588 0.011628 0.002221 -670619.000000 1 0 0
11.242070 -3.050146 14.855356 18.877742 -0.264937 0.664988 -0.013213 0.002265 178426.000000 1 0 0
11.799270 -13.741946 -6.663444 19.299361 -0.861312 1.923320 0.003991 0.002129 226125.000000 1 0 0
10.489370 -12.082446 -1.367544 16.058723 -0.855859 1.656059 0.007809 -0.000249 -1351050.000000 1 0 0
13.093170 -8.079246 2.011856 15.516214 -0.552868 1.440769 0.006390 0.001298 -1703850.000000 1 0 0
8.706270 -7.815146 9.890956 15.320139 -0.731513 0.868964 -0.010494 -0.000232 -925503.000000 1 0 0
15.531770 -3.793846 7.895856 17.831817 -0.239572 1.112082 0.015361 -0.008168 -1165570.000000 1 0 0
10.483770 -16.966246 5.122456 20.591321 -1.017305 1.319389 0.011070 -0.016180 854941.000000 1 0 0
15.203170 -6.345546 8.156756 18.383009 -0.395401 1.111060 0.016893 0.001002 -318059.000000 1 0 0
16.489870 -4.979946 -0.528144 17.233532 -0.293291 1.601447 0.003569 -0.008717 -937549.000000 1 0 0
13.852970 -10.645046 3.401256 17.798605 -0.655193 1.378517 0.008473 0.001941 470095.000000 1 0 0
14.878970 -10.092846 -4.628044 18.565239 -0.596034 1.822739 0.014045 -0.003678 667667.000000 1 0 0
13.514070 -6.616746 -0.214944 15.048509 -0.455308 1.585080 0.007599 -0.002291 -139160.000000 1 0 0
17.671470 -0.875546 -4.816744 18.337079 -0.049505 1.836593 -0.005539 0.000118 -185954.000000 1 0 0
14.236070 0.256554 -1.719744 14.341863 0.018019 1.690996 0.006040 -0.004277 -2601520.000000 1 0 0
4.948170 -12.748046 11.759656 18.035703 -1.200546 0.860549 -0.002557 0.001723 47384.600000 1 0 0
12.074670 -7.452746 13.380556 19.503343 -0.552986 0.814730 -0.001180 0.000995 689383.000000 1 0 0
12.066270 -5.856346 11.360356 17.576956 -0.451858 0.868043 -0.001781 0.000671 1032530.000000 1 0 0
13.218870 -4.697246 8.298256 16.299194 -0.341428 1.036633 0.012519 -0.006601 -2050620.000000 1 0 0
15.355470 -1.199546 3.062156 15.703700 -0.077960 1.374543 0.008689 -0.005909 433178.000000 1 0 0
15.091370 -10.363146 5.631356 19.153497 -0.601740 1.272375 0.007836 0.000132 -921399.000000 1 0 0
13.566170 -8.196646 -5.958044 16.932934 -0.543500 1.930355 0.009910 -0.000010 -2143160.000000 1 0 0
9.374870 -2.024046 13.291256 16.390316 -0.212637 0.625071 -0.015822 -0.006473 -139425.000000 1 0 0
9.931970 -9.135146 13.677556 19.213810 -0.743632 0.778652 -0.004442 0.008724 102054.000000 1 0 0
20.273870 6.344054 -3.072644 21.464342 0.303265 1.714441 -0.004218 0.004243 -156390.000000 1 0 0
11.291670 -3.635046 10.321856 15.724379 -0.311446 0.854728 0.002700 -0.000726 727766.000000 1 0 0
10.157270 -14.145646 -3.130044 17.693689 -0.948059 1.748634 0.007197 0.003803 340549.000000 1 0 0
14.822670 -12.872346 2.465956 19.786101 -0.715093 1.445841 0.004289 0.010486 -422308.000000 1 0 0
11.326870 -0.613046 14.299556 18.252428 -0.054070 0.670625 0.010903 0.003139 152737.000000 1 0 0
19.235370 -1.913246 5.600756 20.125319 -0.099139 1.288779 0.017824 -0.004870 779047.000000 1 0 0
19.031270 -0.434346 7.829956 20.583637 -0.022819 1.180571 0.025943 -0.001511 231726.000000 1 0 0
18.809070 0.639054 0.556056 18.828136 0.033963 1.541259 0.002675 -0.008695 -74997.300000 1 0 0
18.483570 0.663754 3.501756 18.824060 0.035895 1.383681 0.010095 -0.004926 263697.000000 1 0 0
16.595870 -3.862946 -4.214244 17.552923 -0.228693 1.813253 0.003208 -0.004228 -1490100.000000 1 0 0
11.075070 -7.957446 15.765256 20.845178 -0.623035 0.713154 -0.000975 0.000303 363479.000000 1 0 0
16.454270 -7.607546 6.232956 19.169442 -0.433072 1.239625 0.009334 0.000236 60195.700000 1 0 0
18.745870 2.137654 5.788756 19.735423 0.113543 1.273101 0.013886 -0.004902 123132.000000 1 0 0
15.608570 1.748854 7.605356 17.450714 0.111579 1.119848 0.031226 -0.002071 449577.000000 1 0 0
8.764170 -15.521246 3.792756 18.223742 -1.056770 1.361142 0.002261 -0.014246 265269.000000 1 0 0
11.243670 -15.170646 1.945756 18.983008 -0.932986 1.468116 0.004254 0.009972 -129356.000000 1 0 0
8.205070 -16.117146 6.157156 19.104873 -1.099904 1.242657 0.002346 -0.006406 181614.000000 1 0 0
14.386370 -11.599546 -2.687644 18.674596 -0.678563 1.715218 0.007248 0.005332 606775.000000 1 0 0
13.654570 -4.822346 3.154056 14.820607 -0.339494 1.356341 0.004079 -0.002743 -2482580.000000 1 0 0
-1.118230 10.306954 -5.522844 11.746724 -1.462726 2.060269 0.001143 -0.002720 -2282240.000000 1 0 0
8.125670 -1.852046 -8.049444 11.586636 -0.224097 2.338824 -0.002115 -0.001015 -1197390.000000 1 0 0
3.055470 -10.261246 7.651256 13.159438 -1.281389 0.950314 -0.009326 0.003454 573750.000000 1 0 0
-6.326730 1.315254 8.428756 10.620797 -0.204969 0.654079 -0.007521 0.004772 179799.000000 1 0 0
7.117470 -6.229046 -7.249544 11.917016 -0.718930 2.224758 -0.003829 -0.002364 79499.900000 1 0 0
-11.419630 -4.420146 -4.092444 12.910993 0.369307 1.893333 -0.000322 0.001891 -275865.000000 1 0 0
2.114270 -3.167546 2.814356 4.735408 -0.982232 0.934374 -0.001355 0.002144 891565.000000 1 0 0
-3.601430 -4.309046 8.936156 10.554291 0.874614 0.561073 -0.002185 0.000182 -1741630.000000 1 0 0
-4.849430 -1.191746 -2.463544 5.568328 0.240974 2.029092 -0.005355 0.003708 -333864.000000 1 0 0
4.979570 -5.312846 -3.621844 8.132663 -0.817768 2.032356 -0.003829 -0.000691 -202892.000000 1 0 0
2.675070 14.194654 -8.679044 16.851409 1.384525 2.111843 0.001115 -0.007218 -627587.000000 1 0 0
5.582770 -5.582946 13.644356 15.764044 -0.785414 0.524576 -0.013068 -0.001419 -1333910.000000 1 0 0
-4.614730 -0.821446 9.914456 10.966629 0.176160 0.441628 -0.001931 0.004683 -2726690.000000 1 0 0
-1.013630 11.949454 -2.656244 12.283018 -1.486172 1.788772 -0.003121 -0.002653 -586133.000000 1 0 0
3.031370 9.446054 -10.494644 14.441422 1.260265 2.384308 -0.000271 -0.000669 -649017.000000 1 0 0
-10.564730 2.561654 1.280756 10.946046 -0.237881 1.453521 -0.013128 0.005008 364609.000000 1 0 0
5.567670 -9.011346 -0.725444 10.617419 -1.017354 1.639175 -0.006465 -0.001327 235056.000000 1 0 0
-6.903730 5.613954 9.536556 13.043154 -0.682724 0.750784 -0.000279 -0.002389 -432312.000000 1 0 0
-5.558730 -1.914346 5.255956 7.886018 0.331664 0.841305 -0.007252 0.001529 395198.000000 1 0 0
6.472170 -3.821046 -7.333244 10.500754 -0.533317 2.343892 -0.000665 -0.002191 504531.000000 1 0 0
6.342870 4.859354 11.120256 13.693262 0.653734 0.623060 0.003301 0.000046 334518.000000 1 0 0
3.599170 -9.914646 3.280656 11.046128 -1.222574 1.269251 -0.007586 0.001579 1441010.000000 1 0 0
-6.594230 6.656554 -5.703944 10.969437 -0.790102 2.117630 -0.007740 0.000484 -330371.000000 1 0 0
-10.993530 8.401854 5.295356 14.815183 -0.652562 1.205284 -0.007916 -0.001871 355480.000000 1 0 0
-9.116130 -5.571046 5.187656 11.876538 0.548556 1.118759 -0.006494 -0.000706 -1028800.000000 1 0 0
3.168270 9.866454 -7.957644 13.065563 1.260082 2.225665 0.001868 -0.004043 699444.000000 1 0 0
-8.050130 -8.673146 6.160056 13.340703 0.822635 1.090830 -0.001396 -0.000162 -2341820.000000 1 0 0
-7.825130 -5.635546 -7.490944 12.210908 0.624145 2.231235 0.015075 -0.001140 -2385140.000000 1 0 0
9.241670 -1.551446 6.913456 11.645228 -0.166324 0.935181 0.003987 -0.008248 1450940.000000 1 0 0
-4.017630 -0.389446 -4.867544 6.323448 0.096632 2.449263 -0.003019 -0.002551 -1723820.000000 1 0 0
8.975770 1.151554 -4.548544 10.128167 0.127599 2.036552 0.001588 -0.000664 -2371210.000000 1 0 0
-1.873430 -10.646446 10.557856 15.110423 1.396612 0.797199 -0.000131 -0.006458 132861.000000 1 0 0
-12.734230 0.277954 -2.508644 12.981955 -0.021824 1.765260 -0.011579 0.003366 -746252.000000 1 0 0
-9.793230 -4.981146 -6.034944 12.535538 0.470529 2.073078 0.005415 0.000141 -1488750.000000 1 0 0
-5.713230 8.492854 -0.063644 10.235898 -0.978621 1.577014 -0.006919 0.004403 148717.000000 1 0 0
6.257570 9.696854 0.476956 11.550483 0.997718 1.529491 0.007601 -0.004131 296017.000000 1 0 0
-0.550830 -12.063346 0.113556 12.076449 1.525167 1.561393 0.007337 -0.000769 -476882.000000 1 0 0
6.094370 4.732554 2.372056 8.072488 0.660275 1.272550 -0.001067 0.001068 231950.000000 1 0 0
3.269170 -7.486746 -8.316444 11.657705 -1.159090 2.365115 -0.009724 0.000855 325462.000000 1 0 0
-6.472230 -9.902146 4.621656 12.700471 0.991881 1.198349 -0.001146 0.001861 -2231500.000000 1 0 0
-0.131230 6.566154 -9.103144 11.224920 -1.550813 2.516615 -0.002066 -0.000405 -2906920.000000 1 0 0
-17.219030 -2.844346 4.534256 18.031771 0.163708 1.316609 0.019227 -0.010459 615947.000000 1 0 0
-8.328530 0.946154 -9.124944 12.390489 -0.113119 2.398600 0.000830 -0.002329 118044.000000 1 0 0
-10.077230 -5.892046 -11.972444 16.721429 0.529085 2.368843 0.008123 0.009304 117880.000000 1 0 0
2.305770 9.426254 6.389756 11.618943 1.330896 0.988500 -0.007522 0.006972 269089.000000 1 0 0
-11.230730 1.707254 -1.071244 11.410152 -0.150861 1.664820 -0.008234 0.001111 -1350570.000000 1 0 0
-6.069830 -5.337746 -3.146044 8.673636 0.721311 1.941974 0.007107 0.000441 519986.000000 1 0 0
-6.964730 -8.374446 1.302156 10.969705 0.877044 1.451811 0.000382 0.003051 -465462.000000 1 0 0
0.080370 11.082754 -7.786144 13.544664 1.563545 2.183217 0.001025 -0.001244 200728.000000 1 0 0
-2.923030 9.405054 -4.116944 10.674660 -1.269467 1.966735 -0.003778 -0.000631 -38141.600000 1 0 0
3.572870 -4.779046 9.331356 11.076051 -0.928826 0.568925 -0.006170 -0.000467 -1006040.000000 1 0 0
-8.892230 1.579254 -0.374344 9.039133 -0.175767 1.612222 -0.012837 0.003413 -2433940.000000 1 0 0
2.384470 3.582754 -10.356444 11.215068 0.983573 2.747747 -0.006493 0.001347 -359987.000000 1 0 0
-13.555830 0.511754 1.249756 13.622933 -0.037734 1.478928 -0.008125 0.000120 -172027.000000 1 0 0
9.264270 -12.590446 -5.188044 16.470028 -0.936434 1.891252 0.011045 -0.002233 -1716890.000000 1 0 0
-4.714030 9.483654 -8.246244 13.422455 -1.109496 2.232373 -0.004749 -0.002311 -717103.000000 1 0 0
-2.275730 7.208854 8.445656 11.334709 -1.265012 0.730090 -0.002701 0.002679 -1015310.000000 1 0 0
-10.721730 -1.340546 -4.298344 11.628771 0.124385 1.949407 -0.004667 0.000625 -4023820.000000 1 0 0
2.781770 -7.152346 9.693356 12.363473 -1.199868 0.669661 -0.007945 0.001968 314198.000000 1 0 0
-16.048830 -6.698646 3.638456 17.767250 0.395409 1.364553 0.006286 -0.004081 -293640.000000 1 0 0
-10.790230 -0.189646 6.237256 12.464686 0.017574 1.046742 -0.003033 -0.000507 -1171100.000000 1 0 0
-8.370530 9.872954 9.464456 16.034866 -0.867567 0.939437 0.009725 -0.012202 344293.000000 1 0 0
0.208170 -6.123646 -3.764344 7.191151 -1.536815 2.121713 -0.002515 0.002306 261547.000000 1 0 0
4.851670 1.556054 -2.984244 5.904720 0.310361 2.100641 -0.002206 0.000404 486835.000000 1 0 0
0.319370 5.335454 4.017556 6.686541 1.511010 0.926242 -0.007626 0.005151 -1834730.000000 1 0 0
5.957970 -11.385046 -1.616244 12.951020 -1.088671 1.695919 -0.005440 -0.002580 -2262770.000000 1 0 0
6.263070 -13.496746 5.167456 15.750899 -1.136326 1.236533 -0.005410 -0.005619 -281939.000000 1 0 0
8.059870 -8.249046 -6.132844 13.062161 -0.796997 2.059535 -0.002042 -0.003345 638828.000000 1 0 0
-13.022130 -1.291646 -4.608744 13.873887 0.098865 1.909419 -0.006127 0.003218 -3228800.000000 1 0 0
-6.834030 -1.483746 -7.132244 9.988712 0.213793 2.366034 0.001580 -0.001030 99847.200000 1 0 0
-5.562930 12.847754 -4.570544 14.727554 -1.162179 1.886347 0.002325 0.000107 408669.000000 1 0 0
-4.333630 6.988554 -6.664144 10.584472 -1.015726 2.251854 -0.004634 -0.000684 -3749560.000000 1 0 0
-9.385930 -3.629746 -8.155644 12.953195 0.369008 2.251866 0.006492 0.002729 647760.000000 1 0 0
-2.051230 -6.385046 9.091556 11.297467 1.259955 0.635554 0.002002 -0.001437 66632.400000 1 0 0
7.519070 -5.940346 9.887056 13.768733 -0.668637 0.769756 -0.009453 0.001899 -521424.000000 1 0 0
9.662670 -4.919546 12.002256 16.174773 -0.470924 0.734695 -0.008460 0.004648 71919.300000 1 0 0
-6.424030 2.844454 -9.041244 11.450029 -0.416836 2.480996 -0.000136 -0.003205 -209814.000000 1 0 0
7.441870 5.385754 8.833056 12.744044 0.626462 0.804998 -0.002203 0.001125 -109735.000000 1 0 0
12.735470 3.347154 11.051756 17.191189 0.257009 0.872553 0.016450 -0.001213 -648553.000000 1 0 0
-7.599030 -7.326246 -3.899844 11.252907 0.767124 1.924701 0.009626 -0.003037 1216050.000000 1 0 0
2.298470 1.484554 -5.844844 6.453608 0.573479 2.703755 -0.004991 -0.000989 -240972.000000 1 0 0
12.797670 6.823054 -7.140844 16.165583 0.489813 2.028324 0.004095 -0.004118 924783.000000 1 0 0
0.817670 -7.937646 1.011856 8.043548 -1.468147 1.444665 -0.003603 0.001883 1212150.000000 1 0 0
-10.211930 -6.044246 -8.518444 14.607543 0.534428 2.193402 0.007191 0.004933 552968.000000 1 0 0
-6.609430 0.259354 3.202056 7.348809 -0.039220 1.119953 -0.010198 0.001673 -1459500.000000 1 0 0
10.762470 -7.997346 1.155756 13.458235 -0.639056 1.484813 -0.000101 -0.001141 7532.350000 1 0 0
6.404270 0.921054 10.516956 12.347850 0.142839 0.551530 -0.001963 -0.000272 -935407.000000 1 0 0
-12.881330 5.340454 1.962356 14.081901 -0.393019 1.430988 -0.007319 0.003037 -42956.400000 1 0 0
2.024070 7.409554 3.703156 8.527117 1.304132 1.121557 -0.006839 0.003654 -2017.750000 1 0 0
10.037570 -9.611946 -0.889044 13.925973 -0.763741 1.634680 -0.002396 -0.000032 652950.000000 1 0 0
6.731370 -11.668446 -9.207844 16.317119 -1.047545 2.170388 0.000676 -0.003280 -170458.000000 1 0 0
10.250070 3.485154 11.853556 16.053568 0.327750 0.740138 0.006713 -0.000491 -81461.000000 1 0 0
-10.994430 -3.072746 -1.887344 11.570710 0.272528 1.734642 -0.008306 0.002084 -869247.000000 1 0 0
12.387970 1.104654 6.694356 14.124322 0.088936 1.077014 0.009487 -0.003670 -127315.000000 1 0 0
-9.560830 9.290154 3.135056 13.694707 -0.771040 1.339823 -0.005588 -0.000293 2215290.000000 1 0 0
-6.611730 7.725154 -8.824244 13.463293 -0.862904 2.285548 -0.003132 -0.002660 -1582320.000000 1 0 0
8.617170 5.549554 12.098256 15.856260 0.572154 0.702862 0.011349 0.001309 -1542660.000000 1 0 0
1.222870 4.951454 -2.656544 5.750611 1.328670 2.050998 0.001238 -0.001720 625625.000000 1 0 0
1.329070 0.499854 9.579756 9.684421 0.359728 0.147153 0.001382 0.000105 657037.000000 1 0 0
2.599970 12.567554 -3.867144 13.403658 1.366795 1.863471 0.009589 -0.005843 448942.000000 1 0 0
2.107470 0.553054 13.093656 13.273701 0.256639 0.164893 0.001075 -0.004833 -395290.000000 1 0 0
-12.283930 -1.777446 0.994456 12.451634 0.143700 1.490846 -0.013766 -0.000461 -625737.000000 1 0 0
3.169570 8.700354 -1.212844 9.338807 1.221436 1.701036 0.005415 -0.002555 3215.860000 1 0 0
3.562270 -2.863846 -5.767444 7.358994 -0.677138 2.471441 -0.005973 -0.000059 -1029280.000000 1 0 0
-7.764930 -7.279646 9.322956 14.149378 0.753153 0.851447 0.000609 -0.004692 -217632.000000 1 0 0
-7.010330 10.937054 -3.533144 13.462800 -1.000795 1.836344 -0.001463 0.002837 6485.420000 1 0 0
0.344970 0.431354 2.539456 2.598829 0.896215 0.214165 -0.003315 0.003061 -1619460.000000 1 0 0
-7.074130 4.587154 -1.942844 8.652163 -0.575278 1.797278 -0.007784 0.003096 -1868750.000000 1 0 0
-6.834330 -3.912746 -5.870944 9.822710 0.519964 2.211414 0.005303 0.000405 130235.000000 1 0 0
3.041270 -6.012646 13.424156 15.020293 -1.102510 0.465194 -0.011039 -0.003852 -811411.000000 1 0 0
-5.558430 -0.399746 -11.502444 12.781320 0.071793 2.690432 0.004629 -0.003145 -982486.000000 1 0 0
11.830870 2.421054 -0.759444 12.099907 0.201852 1.633602 0.002622 -0.003657 -1875330.000000 1 0 0
6.246770 -10.865246 10.697256 16.477470 -1.049014 0.864258 -0.005720 0.001092 -337839.000000 1 0 0
-8.069530 6.453654 -10.469444 14.709732 -0.674592 2.362763 -0.004208 -0.003110 363901.000000 1 0 0
2.920870 7.941454 11.244656 14.072685 1.218352 0.645097 0.001519 0.002467 841142.000000 1 0 0
-6.219130 -10.269446 -0.411044 12.012829 1.026273 1.605020 0.002552 0.002111 56976.200000 1 0 0
11.299270 4.256254 6.035256 13.498649 0.360246 1.107275 0.002819 -0.001303 -29786.500000 1 0 0
-7.838030 10.708854 1.435356 13.348202 -0.938967 1.463056 -0.002083 0.004048 363261.000000 1 0 0
4.216170 -2.673046 -3.475444 6.082760 -0.565044 2.178958 -0.004500 -0.000058 -4349330.000000 1 0 0
6.370470 6.518054 6.229556 11.039714 0.796848 0.971228 -0.003347 0.002131 -4577450.000000 1 0 0
-0.388930 10.383954 -10.140344 14.519102 -1.533359 2.343975 -0.003196 -0.001727 -212031.000000 1 0 0
14.146370 6.583254 -2.590244 15.816712 0.435559 1.735304 0.012502 -0.003426 762825.000000 1 0 0
1.352670 9.561254 -6.096044 11.419678 1.430255 2.133907 0.004479 -0.003209 -369815.000000 1 0 0
0.695070 7.381354 7.202156 10.336274 1.476907 0.799891 -0.007921 0.006425 217121.000000 1 0 0
12.228670 6.315554 1.835356 13.885069 0.476725 1.438226 0.005371 -0.002286 -1716540.000000 1 0 0
-6.755530 6.794254 -3.069444 10.060842 -0.788256 1.880827 -0.009929 0.002024 -55649.800000 1 0 0
1.132170 9.833954 11.212856 14.957159 1.456172 0.723241 0.001325 -0.000807 -1286550.000000 1 0 0
-3.701830 13.704054 -10.882344 17.886588 -1.306966 2.224849 0.002494 -0.001461 -214211.000000 1 0 0
-10.021930 -5.462746 -2.239844 11.631748 0.499057 1.764570 0.002552 0.002256 -484003.000000 1 0 0
-3.968430 3.957754 -12.432644 13.637554 -0.784051 2.718072 -0.003687 -0.003984 -175551.000000 1 0 0
-3.109930 8.600154 2.699856 9.535383 -1.223813 1.283729 -0.006218 0.007313 -2300190.000000 1 0 0
7.161670 8.918454 7.072656 13.448078 0.894218 1.016996 -0.002106 0.003846 -1072760.000000 1 0 0
-1.434330 -2.233846 -8.207044 8.625714 1.000002 2.828750 -0.005080 -0.003843 -766209.000000 1 0 0
0.723270 -1.335246 4.944156 5.172106 -1.074367 0.297995 -0.000540 0.002869 -268173.000000 1 0 0
2.605170 -8.838646 -6.110144 11.056330 -1.284165 2.156322 -0.010475 0.000313 117534.000000 1 0 0
5.324770 3.870554 8.881356 11.054992 0.628550 0.637847 0.000875 0.002266 270174.000000 1 0 0
6.092270 -7.543146 -2.857744 10.108487 -0.891404 1.857412 -0.005418 -0.002130 621662.000000 1 0 0
1.680570 2.246754 -8.214444 8.680398 0.928577 2.812454 -0.006047 -0.000385 170439.000000 1 0 0
-5.500730 11.042754 -0.597644 12.351422 -1.108646 1.619202 -0.002343 0.003851 759785.000000 1 0 0
-5.485930 3.337354 -3.481044 7.304178 -0.546535 2.067560 -0.010720 0.006443 406661.000000 1 0 0
2.018070 13.734354 -6.201344 15.204004 1.424904 1.990923 -0.001116 -0.004878 567601.000000 1 0 0
-5.445030 -2.493946 2.623656 6.538478 0.429505 1.157900 -0.012551 0.000851 775743.000000 1 0 0
10.300470 -3.426746 -2.002844 11.038734 -0.321161 1.753245 0.001487 -0.001609 166789.000000 1 0 0
2.461070 -3.392146 6.948556 8.114552 -0.943147 0.542718 -0.003843 0.002327 -2240150.000000 1 0 0
-2.899830 10.005254 -11.660844 15.636156 -1.288695 2.412473 -0.004466 -0.000114 -2567410.000000 1 0 0
0.600770 -2.029946 9.263456 9.502275 -1.283056 0.224672 0.000126 0.000672 1209140.000000 1 0 0
9.473970 2.689154 4.813956 10.961836 0.276572 1.116137 0.001823 -0.003781 401248.000000 1 0 0
13.417870 2.075954 -5.122144 14.511553 0.153499 1.931540 0.007813 -0.002263 -855529.000000 1 0 0
-6.377830 3.825054 7.677156 10.688615 -0.540230 0.769504 -0.004348 0.001321 -45409.300000 1 0 0
10.551970 -0.079746 1.686556 10.686202 -0.007557 1.412308 0.002914 -0.000836 1045890.000000 1 0 0
15.452670 6.732854 -4.697144 17.497985 0.410905 1.842569 0.009676 0.000595 527700.000000 1 0 0
7.998770 -4.916046 -9.288944 13.207282 -0.551086 2.350853 0.001286 0.002102 1990640.000000 1 0 0
4.523670 5.615154 -2.175544 7.531702 0.892639 1.863823 0.001964 -0.002924 -68293.600000 1 0 0
-1.748030 -10.508946 1.433956 10.749409 1.405968 1.436999 0.002701 0.002335 -824289.000000 1 0 0
-2.918130 12.278954 -12.931644 18.069742 -1.337472 2.368353 -0.002261 -0.001558 -384683.000000 1 0 0
8.272270 4.272054 -9.577144 13.356743 0.476706 2.370324 -0.001813 0.000433 -1847500.000000 1 0 0
4.072870 7.676654 -8.972444 12.490958 1.083006 2.372174 0.000604 -0.001617 -1787980.000000 1 0 0
-1.740030 -5.080046 -2.431444 5.894615 1.240799 1.995977 0.001640 0.001873 572168.000000 1 0 0
-3.221530 -9.007146 7.166956 11.952916 1.227310 0.927796 -0.000885 0.000460 -844436.000000 1 0 0
1.017870 7.263054 -1.320344 7.451934 1.431560 1.748918 0.001653 -0.001357 623972.000000 1 0 0
0.257070 -0.865146 -2.159344 2.340369 -1.281965 2.745695 0.002569 0.001678 -2475460.000000 1 0 0
4.165970 -6.765446 7.588156 10.986660 -1.018861 0.808381 -0.007548 0.003357 -303311.000000 1 0 0
-13.892630 3.834154 6.095356 15.647980 -0.269281 1.170675 -0.002131 0.000225 -68212.300000 1 0 0
4.331570 6.430954 12.694656 14.875281 0.978043 0.548311 0.009192 -0.000318 -3068100.000000 1 0 0
8.429670 10.019254 -7.087844 14.889000 0.871347 2.066949 0.016236 -0.005558 552739.000000 1 0 0
12.534770 5.283454 9.337156 16.499025 0.398906 0.969246 0.008743 0.001111 514775.000000 1 0 0
7.469270 4.114454 0.304256 8.532954 0.503496 1.535132 0.003057 0.000102 -2045480.000000 1 0 0
-11.004330 -7.500646 -0.959444 13.351985 0.598276 1.642716 -0.002797 0.003472 -1728710.000000 1 0 0
10.386670 6.793754 0.027556 12.411236 0.579241 1.568576 0.005009 -0.002069 -601794.000000 1 0 0
14.591970 3.508554 4.006556 15.533449 0.235965 1.309916 0.012844 -0.002668 737023.000000 1 0 0
2.225170 5.589954 8.292556 10.245265 1.191958 0.627660 -0.004376 0.004754 37832.300000 1 0 0
4.312970 0.104854 11.820356 12.583065 0.024306 0.349961 -0.000484 -0.001350 -647882.000000 1 0 0
-1.577630 -1.544546 -0.460544 2.255358 0.774802 1.776443 0.000031 0.000370 -1071500.000000 1 0 0
3.025670 -5.184246 -9.544544 11.275167 -1.042502 2.580192 -0.009652 0.000568 358993.000000 1 0 0
-4.024930 -5.396846 -1.393244 6.875110 0.929993 1.774860 0.002769 0.000651 1310770.000000 1 0 0
-1.039630 -8.681946 8.490856 12.188177 1.451618 0.800083 0.001072 -0.000426 -579060.000000 1 0 0
3.812270 8.588554 -5.860744 11.074519 1.153045 2.128465 0.006912 -0.004005 690729.000000 1 0 0
-14.190730 -1.735846 -2.603144 14.531563 0.121718 1.750906 -0.012190 0.003042 -1015710.000000 1 0 0
8.626770 -10.583046 -6.691844 15.205354 -0.886886 2.026504 -0.006305 -0.001728 43118.900000 1 0 0
14.788070 6.132554 1.540156 16.083138 0.393111 1.474887 0.006130 -0.002655 -1692840.000000 1 0 0
-5.750730 0.425054 -8.552544 10.314919 -0.073779 2.548369 0.002065 -0.005271 85558.500000 1 0 0
-8.192330 -4.420846 -13.019444 16.005126 0.494849 2.520864 0.007585 0.002824 548187.000000 1 0 0
0.912270 -10.661546 12.025756 16.097193 -1.485438 0.727150 -0.001111 -0.002464 -223601.000000 1 0 0
0.340870 11.777554 3.298056 12.235364 1.541862 1.297869 -0.002670 0.003250 -1499390.000000 1 0 0
5.063870 -13.273646 -3.775644 14.699930 -1.206341 1.830555 -0.001845 -0.006190 863545.000000 1 0 0
-7.391830 1.663254 -6.976944 10.299675 -0.221326 2.315011 -0.001414 0.000164 287808.000000 1 0 0
1.428370 2.751054 4.054556 5.103721 1.091900 0.652725 -0.005627 0.002878 -1140090.000000 1 0 0
17.253470 5.469654 2.059256 18.216473 0.306995 1.457511 0.003103 -0.003633 -171560.000000 1 0 0
2.599070 -8.214146 -3.565544 9.324187 -1.264350 1.963186 -0.006884 0.001116 384468.000000 1 0 0
-0.484730 -9.403446 -0.691144 9.441263 1.519294 1.644066 0.005436 0.002321 -1469470.000000 1 0 0
0.766770 11.978954 -5.555344 13.226682 1.506874 2.004253 0.005594 -0.004177 -1192640.000000 1 0 0
6.053570 -5.006046 7.761856 11.043216 -0.690964 0.791383 -0.004707 -0.001072 -1513310.000000 1 0 0
-5.927530 -1.960346 -9.414044 11.296140 0.319396 2.556002 0.008132 -0.003385 156320.000000 1 0 0
2.206370 -1.311446 11.267156 11.555811 -0.536285 0.223982 -0.003639 -0.003496 174581.000000 1 0 0
17.988070 2.024954 -5.874344 19.031002 0.112100 1.884593 -0.003907 0.008331 -1539800.000000 1 0 0
-8.766930 4.915554 7.904456 12.786796 -0.511016 0.904380 -0.002687 -0.003867 192331.000000 1 0 0
11.369370 -7.180346 -5.053344 14.365105 -0.563297 1.930267 0.007692 -0.004063 127497.000000 1 0 0
10.814370 0.522254 8.759456 13.926645 0.048255 0.890567 0.007293 -0.001873 -4983.000000 1 0 0
-8.544530 -7.431246 -1.513244 11.424636 0.715825 1.703641 0.001696 -0.000700 -1374830.000000 1 0 0
10.111470 -10.476446 -3.438944 14.960752 -0.803124 1.802735 0.005887 0.000008 476346.000000 1 0 0
7.567270 -13.958046 -3.917444 16.353501 -1.074005 1.812696 0.004705 -0.004343 -1648080.000000 1 0 0
1.643270 -1.053346 -11.643044 11.805522 -0.570027 2.975493 -0.004058 -0.001660 -112323.000000 1 0 0
-11.700230 -2.634246 -6.350344 13.570611 0.221452 2.057764 -0.000504 0.002330 -295867.000000 1 0 0
2.718970 -12.228446 -6.354144 14.046453 -1.352008 2.040213 -0.005252 -0.002523 285299.000000 1 0 0
-5.511230 1.453454 1.182756 5.821090 -0.257855 1.366187 -0.010640 0.002622 38836.600000 1 0 0
0.089670 6.905954 -3.890044 7.926707 1.557813 2.083748 0.003825 -0.002814 1151830.000000 1 0 0
5.335870 -11.835946 3.560556 13.462492 -1.147261 1.303132 -0.005746 -0.006289 -2541270.000000 1 0 0
-4.437230 -9.202846 1.021556 10.267666 1.121524 1.471139 0.004003 0.002356 -203747.000000 1 0 0
7.099270 -6.238446 -4.733844 10.570105 -0.720947 2.035158 -0.000404 -0.001831 -313571.000000 1 0 0
-6.806630 -6.088846 2.279356 9.412743 0.729794 1.326208 -0.001688 0.000908 -725683.000000 1 0 0
-6.207230 -0.777646 7.126456 9.482659 0.124631 0.720425 -0.007533 0.003242 -1178020.000000 1 0 0
4.193370 -4.973246 3.134156 7.220836 -0.870272 1.121820 -0.003556 0.001542 -252308.000000 1 0 0
-2.421430 10.594854 -8.734844 13.943161 -1.346108 2.247801 -0.001706 -0.003119 23587.000000 1 0 0
-2.286930 -4.926246 2.807256 6.113807 1.136169 1.093739 -0.003091 0.002554 75273.400000 1 0 0
15.085870 4.947654 6.221456 17.051958 0.316912 1.197322 0.011012 -0.004621 460085.000000 1 0 0
6.788370 0.400854 0.057856 6.800441 0.058982 1.562288 0.002445 0.001486 4590150.000000 1 0 0
-9.721830 9.292354 0.548856 13.459683 -0.762815 1.530007 -0.007995 0.002185 -1644420.000000 1 0 0
7.154670 10.520054 -2.630644 12.991579 0.973552 1.774695 0.007626 -0.004093 -406631.000000 1 0 0
1.509770 -4.270646 -5.389444 7.040165 -1.230987 2.442658 -0.005684 0.000748 -825397.000000 1 0 0
0.788470 -8.150046 -7.927844 11.397177 -1.474352 2.340047 -0.007611 0.003019 1059650.000000 1 0 0
-10.419530 0.396254 -10.452244 14.763909 -0.038012 2.357401 -0.001003 -0.003315 -2739270.000000 1 0 0
5.819870 -2.511646 0.435456 6.353651 -0.407417 1.502206 0.000567 0.001283 -96827.700000 1 0 0
-3.476630 5.340454 -1.124444 6.470840 -0.993719 1.745454 -0.008147 0.001145 935743.000000 1 0 0
-0.353830 4.602554 -5.119544 6.893361 -1.494070 2.407856 -0.001730 -0.002297 -878171.000000 1 0 0
4.024670 -9.775546 10.068856 14.599354 -1.180238 0.809752 -0.010543 0.002382 -1429530.000000 1 0 0
7.241370 -13.517646 -1.000644 15.367677 -1.079000 1.635956 0.004764 -0.003036 532904.000000 1 0 0
12.922270 -0.160146 0.335056 12.927605 -0.012392 1.544876 0.004199 -0.004579 142849.000000 1 0 0
9.239570 2.427854 -0.554644 9.569314 0.256958 1.628789 0.003380 -0.001384 26230.400000 1 0 0
-0.752430 -5.783746 4.591156 7.422708 1.441429 0.903928 -0.003683 0.004651 -238963.000000 1 0 0
11.446570 -3.737446 3.254756 12.473408 -0.315599 1.306805 0.006377 -0.004719 -2789450.000000 1 0 0
1.720070 -8.174746 11.803656 14.460685 -1.363409 0.615892 -0.004682 -0.000289 107011.000000 1 0 0
9.370870 -5.925846 -6.080444 12.645183 -0.563881 2.072421 0.000123 -0.004515 206032.000000 1 0 0
3.185070 6.272054 -0.175544 7.036629 1.100913 1.595746 -0.000156 0.000118 -1486650.000000 1 0 0
6.522070 -1.408946 11.524956 13.317175 -0.212758 0.524807 -0.006955 0.000866 595922.000000 1 0 0
-4.956030 -7.588346 -3.901844 9.867604 0.992237 1.977321 0.011339 0.000612 -1311770.000000 1 0 0
-3.464230 -8.517246 -5.768144 10.854301 1.184501 2.131067 0.012118 0.001388 558964.000000 1 0 0
9.643770 5.398354 2.019456 11.234889 0.510318 1.390065 0.004966 -0.003337 -213757.000000 1 0 0
8.738270 -1.452446 0.255556 8.861844 -0.164711 1.541954 0.002664 0.000185 733777.000000 1 0 0
-3.850330 9.653654 9.339156 13.972756 -1.191284 0.838763 0.004687 -0.000783 453029.000000 1 0 0
-14.271930 -3.468446 -5.897544 15.827164 0.238404 1.952629 -0.012882 0.005264 -11618.500000 1 0 0
10.568670 6.212354 -6.030744 13.662357 0.531407 2.027969 0.003513 -0.006465 -1474820.000000 1 0 0
-1.764830 4.541254 2.785956 5.612412 -1.200137 1.051359 -0.008086 0.003023 243072.000000 1 0 0
6.856870 -3.720846 2.558956 8.210336 -0.497179 1.253841 -0.000587 -0.000431 -1709280.000000 1 0 0
8.220070 -11.188946 -1.746444 13.993289 -0.937185 1.695928 0.001753 -0.001896 -2519410.000000 1 0 0
4.552270 0.526954 1.829856 4.934493 0.115243 1.190894 -0.000842 0.002674 40269.400000 1 0 0
-10.680230 2.289954 3.963656 11.619887 -0.211213 1.222699 -0.009289 0.002213 40143.500000 1 0 0
-0.914230 -3.021246 4.454156 5.459236 1.276956 0.616523 -0.001299 0.002763 607434.000000 1 0 0
8.551070 -8.735246 -8.656544 14.978687 -0.796052 2.186979 0.007292 -0.001768 -277048.000000 1 0 0
12.052170 -4.837746 0.949856 13.021552 -0.381713 1.497787 0.002278 -0.002176 -11805.300000 1 0 0
2.891470 4.827954 3.487756 6.620739 1.031185 1.015974 -0.004920 0.001548 -541236.000000 1 0 0
6.145070 7.524754 2.017956 9.922498 0.885987 1.365996 -0.001403 -0.000344 -49748.500000 1 0 0
-1.647430 -1.309846 -10.390744 10.601758 0.671737 2.941742 -0.000425 -0.003606 320259.000000 1 0 0
-0.971530 -8.787646 5.881156 10.618597 1.460687 0.983810 -0.005022 0.002090 685342.000000 1 0 0
-4.179730 -0.229746 2.276556 4.765043 0.054911 1.072691 -0.009547 0.003301 194587.000000 1 0 0
-8.353230 6.280454 -7.933344 13.120918 -0.644690 2.220102 -0.004663 -0.000036 -729839.000000 1 0 0
6.363770 11.108254 -9.361844 15.859855 1.050552 2.202209 0.006281 -0.007745 277866.000000 1 0 0
-11.084530 -5.793246 3.187656 12.906961 0.481597 1.321242 -0.008831 0.001148 869101.000000 1 0 0
1.499770 -6.291046 3.020656 7.137993 -1.336767 1.133844 -0.005823 0.002670 491743.000000 1 0 0
10.108470 2.161454 7.110456 12.546380 0.210654 0.968260 0.005244 -0.000598 -2414020.000000 1 0 0
-4.075030 -2.490746 -10.721644 11.737262 0.548630 2.722530 0.004025 -0.006198 -2135530.000000 1 0 0
-8.200430 11.773954 5.979756 15.544469 -0.962431 1.175928 0.004350 -0.002038 452337.000000 1 0 0
6.891270 6.101854 -2.879244 9.644287 0.724716 1.873963 0.005201 -0.003326 -2986670.000000 1 0 0
3.925670 -9.982146 -2.348644 10.980449 -1.196106 1.786355 -0.007926 -0.002140 -1255480.000000 1 0 0
8.434470 -12.900546 -7.548444 17.162266 -0.991749 2.026203 0.009126 -0.006221 422702.000000 1 0 0
-0.991230 9.479854 3.700856 10.224798 -1.466613 1.200438 -0.002596 0.004580 -289005.000000 1 0 0
0.468070 -13.260146 4.729156 14.086003 -1.535512 1.228412 0.004712 -0.002800 -1300880.000000 1 0 0
-11.202830 -6.950946 -5.026344 14.109684 0.555330 1.935030 0.001293 0.001385 301262.000000 1 0 0
3.640870 10.264354 -3.362844 11.398316 1.229932 1.870283 0.010952 -0.006052 -778315.000000 1 0 0
11.481370 -8.106546 -7.566644 15.962207 -0.614782 2.064664 0.016174 -0.001921 -68570.900000 1 0 0
11.663970 -4.825846 -6.010844 13.980960 -0.392294 2.015212 0.006086 -0.003299 784570.000000 1 0 0
1.277870 -10.335046 -2.846244 10.795704 -1.447776 1.837596 -0.004002 0.001214 -734239.000000 1 0 0
2.370970 -12.147546 -3.905944 12.978473 -1.378039 1.876491 0.000583 -0.001802 -1371200.000000 1 0 0
-7.585530 -5.730746 7.304356 11.988967 0.647002 0.915674 -0.002284 -0.000450 -4458030.000000 1 0 0
-7.161830 -0.847846 9.589356 11.998600 0.117836 0.644823 -0.004817 0.004173 155723.000000 1 0 0
16.097570 2.619654 -7.612544 17.998477 0.161322 2.007500 -0.003137 0.001642 -64542.200000 1 0 0
-2.029130 6.349754 -5.461544 8.617726 -1.261492 2.257197 -0.002631 -0.000927 -716901.000000 1 0 0
7.732670 1.271154 8.297856 11.413345 0.162930 0.756808 0.002263 -0.001575 -1420060.000000 1 0 0
8.001870 8.316754 -3.725844 12.127664 0.804692 1.883065 0.007091 -0.002655 466569.000000 1 0 0
8.034470 0.551854 3.866256 8.933375 0.068578 1.123213 0.000411 -0.000812 799159.000000 1 0 0
-6.850830 5.858754 5.415956 10.516247 -0.707499 1.029779 -0.000871 -0.001604 -247221.000000 1 0 0
-6.046630 -1.997646 -4.648144 7.884007 0.319084 2.201318 -0.001345 -0.000087 -1134290.000000 1 0 0
-15.022730 -2.213346 3.254556 15.529760 0.146281 1.359662 0.002451 -0.004264 -939487.000000 1 0 0
0.835670 1.342654 -10.511744 10.630043 1.014068 2.992264 -0.004403 -0.001983 977730.000000 1 0 0
1.601570 -9.311646 9.418556 13.340952 -1.400466 0.786979 -0.004011 0.000187 -1808740.000000 1 0 0
-0.044830 -6.800646 -1.160644 6.899123 1.564204 1.739831 -0.000834 0.002553 733182.000000 1 0 0
-0.505230 -10.204246 -8.349644 13.194637 1.521325 2.255968 -0.002908 0.004127 -877542.000000 1 0 0
-4.293130 6.492954 3.872956 8.694205 -0.986589 1.109104 -0.004954 0.005187 -369853.000000 1 0 0
10.638470 -1.110446 -8.623944 13.739816 -0.104004 2.249341 0.011058 -0.001020 613485.000000 1 0 0
2.971670 -0.999546 6.324256 7.058763 -0.324471 0.460244 -0.000915 0.002877 64719.100000 1 0 0
1.884370 -12.390846 6.799456 14.258910 -1.419875 1.073721 -0.000122 -0.001360 -516620.000000 1 0 0
2.918470 -4.919146 -1.464644 5.904291 -1.035327 1.821478 -0.002461 0.001827 -2194970.000000 1 0 0
-1.118430 9.547854 -1.593944 9.744386 -1.454188 1.735110 -0.000694 -0.001669 983023.000000 1 0 0
4.478070 -2.608446 2.568656 5.784038 -0.527447 1.110634 -0.000539 0.003067 -1946910.000000 1 0 0
17.715970 6.585154 -2.664144 19.087103 0.355881 1.710832 -0.004276 0.004574 217273.000000 1 0 0
-7.161630 3.590654 -5.487644 9.710611 -0.464746 2.171373 -0.008468 0.000486 -1254540.000000 1 0 0
-13.749630 -6.064246 2.537056 15.240212 0.415385 1.403546 -0.003920 -0.004827 128491.000000 1 0 0
6.702870 -6.074146 3.327756 9.638344 -0.736230 1.218278 -0.003726 -0.000492 174547.000000 1 0 0
-4.603730 2.014754 3.562956 6.160213 -0.412524 0.954052 -0.010261 0.002654 566462.000000 1 0 0
6.722770 -12.219646 -5.640544 15.044305 -1.067830 1.955116 -0.002503 -0.003749 -1168750.000000 1 0 0
2.768870 -12.337446 3.229856 13.050333 -1.350026 1.320705 0.003736 -0.003671 5153.450000 1 0 0
3.314270 11.324054 -6.036044 13.253392 1.286073 2.043656 0.003317 -0.003622 -123074.000000 1 0 0
-5.553230 -8.320346 6.442956 11.898664 0.982267 0.998593 0.000833 -0.000074 -571202.000000 1 0 0
-3.977030 6.514254 6.457856 9.997809 -1.022683 0.868559 -0.001107 0.003761 333326.000000 1 0 0
4.232270 4.404254 -6.892444 9.209524 0.805309 2.416449 -0.001834 0.000147 -3209540.000000 1 0 0
-0.344030 -2.885746 1.574056 3.305078 1.452139 1.074407 -0.001645 0.003946 504091.000000 1 0 0
-13.185230 -0.934146 6.737956 14.836542 0.070730 1.099383 0.003725 -0.001801 -494104.000000 1 0 0
-0.604930 -9.296246 -5.895444 11.024626 1.505815 2.135011 0.001050 0.001949 6916.440000 1 0 0
1.943570 -1.700046 -3.977744 4.742369 -0.718662 2.565811 -0.001316 0.001421 -1865000.000000 1 0 0
11.317570 -2.047646 0.950056 11.540488 -0.178990 1.488379 0.002290 -0.003346 717972.000000 1 0 0
0.504570 -4.236346 -2.028644 4.724046 -1.452250 2.014657 -0.000652 0.002608 -1472320.000000 1 0 0
0.984370 -7.449246 -11.335544 13.599809 -1.439414 2.556222 -0.015061 0.003524 -304985.000000 1 0 0
-4.456030 4.211954 -10.034544 11.759627 -0.757247 2.593087 -0.003804 -0.002703 147126.000000 1 0 0
-1.119230 5.871954 -1.991944 6.300822 -1.382450 1.892455 -0.002291 -0.000476 -556212.000000 1 0 0
-11.271530 1.711754 -3.735144 11.997032 -0.150714 1.887398 -0.005932 0.002944 -1049370.000000 1 0 0
-1.893230 -11.269346 4.192456 12.172065 1.404352 1.219162 0.000185 0.000554 193374.000000 1 0 0
-3.557430 -5.423846 -9.741044 11.703048 0.990294 2.554132 0.000635 0.001636 -2040270.000000 1 0 0
-12.912030 -3.608046 -8.234544 15.733602 0.272483 2.121601 -0.003940 0.004113 -246194.000000 1 0 0
11.346170 4.525554 0.373156 12.221107 0.379525 1.540258 0.005519 -0.002178 175492.000000 1 0 0
-8.810630 -2.372546 -2.918444 9.579848 0.263043 1.880361 -0.001862 0.000319 -237645.000000 1 0 0
-2.446630 -6.040346 -6.473844 9.185991 1.185946 2.352870 0.001323 0.000448 -579479.000000 1 0 0
-0.132430 2.804254 -1.862944 3.369263 -1.523607 2.156665 -0.001504 0.000068 -1385510.000000 1 0 0
8.037570 6.025154 -5.149744 11.288263 0.643260 2.044520 0.008212 -0.004569 -766823.000000 1 0 0
-9.643930 -0.917046 -0.880944 9.727405 0.094805 1.661484 -0.009845 0.001289 -955798.000000 1 0 0
6.084570 0.458254 -8.857544 10.755839 0.075172 2.538367 -0.004049 0.000254 453476.000000 1 0 0
-4.101230 2.487554 7.971756 9.303597 -0.545213 0.541674 -0.005887 0.004630 -2854090.000000 1 0 0
-10.095030 -3.344446 1.530156 10.744130 0.319916 1.427893 -0.011455 0.001752 2485190.000000 1 0 0
-1.892130 -8.164246 -7.818344 11.461307 1.343059 2.321497 0.001396 0.000130 -885910.000000 1 0 0
-9.299430 -9.840046 4.197456 14.174785 0.813637 1.270167 -0.005657 0.003569 -824224.000000 1 0 0
-1.209330 -10.846746 7.274856 13.116323 1.459762 0.982864 0.000513 -0.002229 22030.800000 1 0 0
9.412570 3.759754 -3.820544 10.831841 0.380023 1.931266 0.002988 -0.002091 -468635.000000 1 0 0
12.801670 -0.949746 2.900056 13.160361 -0.074054 1.348610 0.007218 -0.003713 164342.000000 1 0 0
6.569470 11.891354 -6.794944 15.189914 1.066068 2.034577 0.008694 -0.004518 -31456.000000 1 0 0
-11.681330 -0.042146 -6.467744 13.352414 0.003608 2.076459 -0.002765 0.000955 715619.000000 1 0 0
-7.595930 -6.557146 -11.585044 15.326694 0.712133 2.427784 0.013651 0.002747 -112794.000000 1 0 0
4.140570 6.024654 6.641356 9.876659 0.968664 0.833310 -0.006138 0.005159 -2578710.000000 1 0 0
-4.288830 -1.351946 -7.390044 8.650697 0.305365 2.594944 0.000442 -0.005102 -1511090.000000 1 0 0
9.546870 9.270154 0.847556 13.334048 0.770694 1.507190 0.008576 -0.003418 -2171810.000000 1 0 0
-8.791030 3.965154 4.969956 10.849199 -0.423723 1.094946 -0.006269 0.000550 1468640.000000 1 0 0
-7.029430 7.989454 -12.136944 16.141551 -0.849232 2.421746 -0.003281 -0.001203 -733777.000000 1 0 0
11.220970 -3.545546 7.150556 13.769950 -0.306048 1.024780 0.002493 -0.005092 453459.000000 1 0 0
11.839170 6.880954 6.324056 15.083341 0.526483 1.138151 0.002209 -0.001857 -240732.000000 1 0 0
-10.084830 -0.680246 -14.783844 17.908896 0.067350 2.541889 0.002626 0.002932 45994.300000 1 0 0
1.772370 -13.043946 12.002156 17.813972 -1.435747 0.831525 -0.002121 -0.000802 161763.000000 1 0 0
2.964370 3.019054 13.088756 13.755643 0.794537 0.312659 0.003942 -0.003737 -706974.000000 1 0 0
-2.488430 -1.426946 11.145256 11.508484 0.520655 0.251909 0.001084 0.000496 -546730.000000 1 0 0
2.449470 -10.150546 -8.224544 13.291975 -1.334009 2.237960 -0.012160 0.004410 -1074180.000000 1 0 0
13.882770 3.541754 -7.536044 16.188492 0.249790 2.055017 0.005044 -0.003440 -3458450.000000 1 0 0
7.443870 -1.533646 4.926856 9.057438 -0.203185 0.995651 0.002148 -0.001572 493102.000000 1 0 0
-1.028230 8.766454 10.182756 13.475775 -1.454038 0.714174 0.000653 -0.001501 100075.000000 1 0 0
-12.184730 -4.702346 1.076356 13.104894 0.368311 1.488570 -0.008295 0.000288 30108.500000 1 0 0
-4.872430 4.875854 -5.281344 8.683727 -0.785749 2.224573 -0.007470 0.001294 -212377.000000 1 0 0
-11.105330 0.296154 2.200856 11.325185 -0.026661 1.375219 -0.013407 0.003232 -2246120.000000 1 0 0
-1.408530 2.357554 -4.018344 4.867145 -1.032251 2.542071 -0.002187 -0.002195 990978.000000 1 0 0
3.306070 -9.882146 13.079056 16.722698 -1.247951 0.672745 -0.007288 -0.000197 363388.000000 1 0 0
8.957770 4.648854 -1.542944 10.209513 0.478712 1.722506 0.006026 -0.004009 -1450870.000000 1 0 0
4.037970 2.326954 3.684856 5.941219 0.522787 0.901775 -0.003462 0.002942 355137.000000 1 0 0
-5.456730 -3.339846 7.486656 9.847868 0.549240 0.707127 -0.002315 0.000600 2229.320000 1 0 0
1.808470 -5.778546 7.696756 9.792968 -1.267490 0.666570 -0.005821 0.003194 -804168.000000 1 0 0
-5.816930 -6.226546 -9.749344 12.948214 0.819397 2.423328 0.014489 -0.001437 -1386170.000000 1 0 0
-11.672330 -5.863346 5.580856 14.204509 0.465509 1.167021 0.000292 -0.003209 -272724.000000 1 0 0
10.485670 6.134454 4.393056 12.918195 0.529341 1.223808 0.003446 -0.001060 -1649340.000000 1 0 0
1.597670 -3.634146 0.311256 3.982016 -1.156602 1.492551 -0.000843 0.001564 -620108.000000 1 0 0
8.832170 4.352854 6.825656 11.980991 0.457904 0.964647 -0.000772 0.000636 46535.300000 1 0 0
-7.802530 12.254554 3.574356 14.960935 -1.003825 1.329550 0.000370 0.002500 -55802.300000 1 0 0
-6.146930 13.193154 -6.943144 16.126106 -1.134784 2.015902 0.008813 -0.006529 591308.000000 1 0 0
4.366470 -6.944046 -1.064544 8.271583 -1.009464 1.699853 -0.004645 -0.001085 -865831.000000 1 0 0
-1.861930 -8.173246 11.031356 13.854947 1.346811 0.649802 -0.000271 -0.004156 -714137.000000 1 0 0
11.525270 8.760154 -5.767244 15.583108 0.649923 1.949909 0.007652 -0.005603 628163.000000 1 0 0
-3.445630 -2.999446 -1.911444 4.952036 0.716280 1.967079 -0.000684 0.000964 -2045730.000000 1 0 0
-2.014530 5.961554 4.802856 7.916179 -1.244923 0.918876 -0.007941 0.005125 -1983750.000000 1 0 0
0.374970 -11.481246 -5.719144 12.832312 -1.538149 2.032733 0.000812 -0.004026 1900070.000000 1 0 0
-8.749130 6.282954 -1.449244 10.868445 -0.622786 1.704539 -0.006907 0.004772 -733935.000000 1 0 0
2.859070 -0.012446 3.956756 4.881635 -0.004353 0.625724 -0.001815 0.003618 282030.000000 1 0 0
-10.004330 4.002054 -0.872444 10.810375 -0.380534 1.651588 -0.007923 0.003632 183492.000000 1 0 0
6.540570 5.482954 13.662956 16.109569 0.697662 0.558357 0.013743 -0.000143 -340955.000000 1 0 0
-8.676430 -1.649946 5.824356 10.579503 0.187920 0.987795 -0.008384 0.000527 -559026.000000 1 0 0
12.817570 -1.875746 -1.496544 13.040252 -0.145310 1.685813 0.005306 -0.005217 -1563670.000000 1 0 0
5.128370 -5.492046 5.416556 9.262928 -0.819628 0.946217 -0.005737 0.001182 118831.000000 1 0 0
-8.876230 -1.190046 3.361856 9.565863 0.133276 1.211684 -0.010655 0.003060 376501.000000 1 0 0
2.048770 5.409354 5.614656 8.061199 1.208746 0.800283 -0.006648 0.004763 -1569640.000000 1 0 0
9.137270 3.135754 -7.425244 12.184289 0.330589 2.226114 0.000555 -0.002869 -798977.000000 1 0 0
2.288170 -2.361846 -1.591144 3.653187 -0.801241 2.021445 -0.002915 0.003433 -309219.000000 1 0 0
-6.197730 0.406054 -3.915044 7.341955 -0.065423 2.133225 -0.010381 0.003870 -616099.000000 1 0 0
-4.020530 4.180854 5.026856 7.675512 -0.804944 0.856718 -0.007345 0.002836 397617.000000 1 0 0
-6.454530 1.865154 -12.408144 14.110343 -0.281305 2.645324 -0.001923 -0.003719 -1676230.000000 1 0 0
-0.101830 3.162754 6.243356 6.999491 -1.538611 0.469106 -0.006117 0.003351 1191260.000000 1 0 0
-8.686030 9.574454 -2.001444 13.081401 -0.834013 1.724399 -0.005591 0.006201 1035800.000000 1 0 0
-1.344030 -3.729846 -6.207144 7.365243 1.224936 2.573189 -0.003823 0.000953 343277.000000 1 0 0
-3.384830 7.098554 -2.917444 8.387969 -1.125853 1.926034 -0.005020 0.001826 734006.000000 1 0 0
6.801670 -0.426446 -4.315744 8.066611 -0.062615 2.135320 -0.000563 -0.000025 -89883.900000 1 0 0
-5.090630 -10.837846 6.957356 13.848402 1.131674 1.044431 -0.002956 -0.003950 655118.000000 1 0 0
9.767070 8.320754 -1.475144 12.915365 0.705607 1.685262 0.006410 -0.003669 -353910.000000 1 0 0
13.781270 4.619154 -4.373544 15.178533 0.323408 1.863080 0.006877 -0.005197 497286.000000 1 0 0
4.704770 1.063554 -6.936144 8.448438 0.222322 2.533952 -0.006039 -0.000377 -1431570.000000 1 0 0
8.920170 -4.761346 3.520956 10.706866 -0.490300 1.235710 0.001950 -0.003319 -833522.000000 1 0 0
-8.749130 -3.288246 -0.624144 9.367464 0.359504 1.637475 -0.007158 0.001695 -160896.000000 1 0 0
-8.687330 -4.275946 -10.456044 14.250693 0.457392 2.394580 0.010075 -0.001125 11506.600000 1 0 0
10.535870 -1.140246 10.441756 14.877332 -0.107806 0.792795 0.002624 -0.000465 576019.000000 1 0 0
2.204170 -11.657046 9.866556 15.430296 -1.383918 0.877043 -0.005898 -0.000505 582050.000000 1 0 0
-6.371830 -10.558546 2.080156 12.506405 1.027825 1.403692 -0.000380 0.003908 -1369930.000000 1 0 0
-3.668230 -1.469746 6.767356 7.836656 0.381083 0.528525 -0.004160 0.003445 -2796130.000000 1 0 0
4.763870 -7.590646 3.900556 9.773777 -1.010331 1.160279 -0.007218 0.002972 248000.000000 1 0 0
11.368670 -9.509146 -5.500644 15.809099 -0.696566 1.926171 0.013170 -0.001898 424352.000000 1 0 0
11.484970 1.165554 11.252356 16.120750 0.101139 0.798189 0.009609 -0.002162 585693.000000 1 0 0
-10.196530 -3.523346 4.493256 11.686425 0.332699 1.176146 -0.003098 0.000236 1602530.000000 1 0 0
2.188470 8.747254 8.956556 12.709200 1.325639 0.788754 -0.002995 0.004760 -762122.000000 1 0 0
6.580170 8.846454 4.083156 11.757149 0.931262 1.216115 -0.000862 0.000535 2781000.000000 1 0 0
-4.333530 3.630454 0.513756 5.676585 -0.697345 1.480168 -0.008975 0.002474 -282395.000000 1 0 0
4.873370 6.944754 4.253256 9.490497 0.958908 1.106091 -0.004340 0.001939 -1356580.000000 1 0 0
-8.278530 13.155754 1.142356 15.585663 -1.009132 1.497435 -0.001297 0.000444 -194162.000000 1 0 0
8.819670 7.998754 -9.140744 15.010658 0.736626 2.225533 0.007109 -0.006890 -1321190.000000 1 0 0
7.091870 1.961954 5.948256 9.461799 0.269898 0.890967 0.001733 -0.000082 -449761.000000 1 0 0
11.505270 -6.254046 3.022656 13.439523 -0.497902 1.343948 0.002847 -0.002012 -178814.000000 1 0 0
11.433670 4.676854 -2.266644 12.559437 0.388277 1.752264 0.006132 -0.003745 763500.000000 1 0 0
-3.935430 14.328754 -5.991544 16.021841 -1.302753 1.954073 0.004334 -0.002535 -2370340.000000 1 0 0
7.113470 -3.004546 6.808156 10.294647 -0.399644 0.848206 -0.001006 -0.004221 -1552770.000000 1 0 0
-7.839030 -0.419146 0.981756 7.911379 0.053418 1.446381 -0.007822 0.002291 54952.300000 1 0 0
-3.145230 1.070054 10.754656 11.256115 -0.327931 0.299615 -0.000722 0.005304 -68234.700000 1 0 0
6.962670 -1.324046 -1.891244 7.335440 -0.187920 1.831564 0.002361 0.001060 -1294820.000000 1 0 0
-7.676630 5.365254 2.985756 9.830124 -0.609992 1.262185 -0.005535 0.003069 701465.000000 1 0 0
9.505270 -2.216446 2.782556 10.149158 -0.229087 1.293074 0.001650 -0.002237 -1338170.000000 1 0 0
0.228670 3.478354 1.538056 3.810099 1.505150 1.155262 -0.004663 0.003539 -4359470.000000 1 0 0
-7.550330 -3.175546 4.083856 9.152566 0.398124 1.108284 -0.009316 0.001032 -451430.000000 1 0 0
-2.313030 8.464654 -6.614344 10.988631 -1.304051 2.216707 -0.006004 -0.001118 -399847.000000 1 0 0
4.590670 9.858254 7.454056 13.184172 1.134990 0.969903 -0.003943 0.005154 867524.000000 1 0 0
-11.744730 -3.096646 6.984256 14.010986 0.257796 1.048947 0.004590 -0.002969 -555640.000000 1 0 0
-4.784330 2.298154 -5.678244 7.772630 -0.447805 2.389914 -0.006416 -0.000457 -478105.000000 1 0 0
-2.838030 2.946354 -1.786344 4.463904 -0.804123 1.982504 -0.008497 0.002127 1542540.000000 1 0 0
2.559170 5.186254 11.551656 12.918489 1.112400 0.464165 0.001982 -0.002157 707577.000000 1 0 0
-0.712630 1.634154 4.590756 4.924769 -1.159574 0.370415 -0.004144 0.003039 68778.300000 1 0 0
5.112270 1.627654 7.629356 9.326931 0.308234 0.612885 -0.000009 0.002027 2003710.000000 1 0 0
3.345070 -8.067146 1.865956 8.930293 -1.177722 1.360298 -0.005215 0.001517 162555.000000 1 0 0
5.092770 6.537254 -4.662244 9.508339 0.908968 2.083267 0.004650 -0.003933 -1526560.000000 1 0 0
-3.982530 3.032954 -7.967744 9.409798 -0.650861 2.580642 0.000725 -0.006819 1050740.000000 1 0 0
-8.749030 -1.948246 -12.930944 15.733737 0.219106 2.535466 0.004303 0.000343 476622.000000 1 0 0
-7.767430 8.213854 1.535556 11.408694 -0.813325 1.435791 -0.005381 0.003789 -1767110.000000 1 0 0
7.335370 0.853754 -6.532444 9.859481 0.115867 2.295020 0.000171 -0.000978 407401.000000 1 0 0
9.049370 8.792054 5.422356 13.732926 0.770977 1.164899 0.002409 -0.000243 443077.000000 1 0 0
9.347270 -1.076246 -1.465644 9.522493 -0.114635 1.725324 0.003552 -0.000598 1145360.000000 1 0 0
5.394770 0.073854 4.339556 6.923926 0.013689 0.893424 -0.002405 0.003272 389387.000000 1 0 0
-4.212130 -7.282546 -7.983144 11.597763 1.046420 2.329987 0.013224 -0.002002 -257028.000000 1 0 0
-2.256230 7.482054 -0.517644 7.831964 -1.277916 1.636938 -0.004181 0.001225 459650.000000 1 0 0
13.302070 -3.363446 -7.540344 15.656137 -0.247660 2.073301 0.006999 -0.000014 1113210.000000 1 0 0
-4.669130 -5.019746 1.542156 7.026868 0.821570 1.349530 0.001702 0.001994 1669160.000000 1 0 0
-8.786630 1.280854 2.649056 9.266226 -0.144753 1.280869 -0.010196 0.002302 -1619620.000000 1 0 0
-0.942930 11.233254 10.279856 15.256165 -1.487052 0.831434 -0.000303 -0.001570 438928.000000 1 0 0
-8.534630 0.273154 7.504456 11.367998 -0.031994 0.849793 -0.008978 0.001971 -209966.000000 1 0 0
-6.177130 12.909954 -2.082144 14.462336 -1.124514 1.715268 -0.000117 0.000347 328678.000000 1 0 0
-12.992830 -0.800246 3.456856 13.468626 0.061514 1.311232 -0.004139 -0.001827 243095.000000 1 0 0
-6.548230 12.848654 8.830356 16.909832 -1.099464 1.021365 0.014978 -0.008544 -1170310.000000 1 0 0
-8.213030 0.951454 -14.031144 16.285948 -0.115333 2.609109 -0.000519 0.001368 -231032.000000 1 0 0
7.274870 2.900054 3.710856 8.666286 0.379333 1.128302 -0.001093 0.001863 -856393.000000 1 0 0
-1.688230 0.721854 -1.963544 2.688251 -0.404054 2.389728 -0.003065 0.000050 740960.000000 1 0 0
-6.223230 9.723654 -10.343444 15.500479 -1.001476 2.301372 -0.003415 -0.000305 -296320.000000 1 0 0
-9.898130 13.708854 5.314756 17.724342 -0.945441 1.266254 -0.005742 -0.001779 -54230.500000 1 0 0
-5.564730 8.436254 2.583256 10.431194 -0.987687 1.320545 -0.004075 0.003534 -1414310.000000 1 0 0
-2.422830 -10.859246 -1.237944 11.194902 1.351279 1.681604 0.006419 0.000856 499212.000000 1 0 0
-2.325830 -12.452446 8.859656 15.458538 1.386147 0.960484 -0.000075 -0.006304 286404.000000 1 0 0
-14.767230 -6.401446 -1.599444 16.174295 0.409040 1.669846 0.001576 0.004206 801613.000000 1 0 0
-2.666430 -9.307846 3.211256 10.200883 1.291797 1.250548 0.002128 0.002376 -138058.000000 1 0 0
4.733470 -2.604646 7.525556 9.264120 -0.503044 0.622654 -0.001001 0.000477 -311919.000000 1 0 0
-14.826730 -1.293246 -0.179044 14.884101 0.087004 1.582826 -0.009658 -0.001365 -311022.000000 1 0 0
5.519370 8.786554 -2.802744 10.748132 1.009927 1.834612 0.006293 -0.004171 1599900.000000 1 0 0
-5.624130 -5.825346 8.590456 11.805144 0.802971 0.755852 0.001305 -0.002261 -3843370.000000 1 0 0
3.433670 3.551154 7.139656 8.681905 0.802216 0.605249 -0.001994 0.003773 -80348.500000 1 0 0
3.353570 2.214954 9.469656 10.287218 0.583705 0.401370 -0.001115 0.001252 857169.000000 1 0 0
9.928470 -3.197946 5.104556 11.612832 -0.311605 1.115686 0.005980 -0.005188 -502733.000000 1 0 0
6.528270 9.959654 -5.105444 12.956796 0.990584 1.975815 0.009537 -0.005729 668322.000000 1 0 0
-4.476330 12.115154 -8.505244 15.464593 -1.216872 2.153139 0.001224 -0.003041 -403253.000000 1 0 0
-3.398330 -7.168946 2.159656 8.222320 1.128136 1.305021 0.001946 0.000996 1005830.000000 1 0 0
-7.338930 -4.029946 1.246956 8.464943 0.502167 1.422950 -0.001548 0.000388 2740720.000000 1 0 0
-2.026930 -3.951046 -11.044144 11.903458 1.096794 2.759294 -0.001551 -0.002111 -781003.000000 1 0 0
-5.196730 8.372154 -4.452144 10.812980 -1.015284 1.995160 -0.005158 -0.000299 -1553070.000000 1 0 0
-11.037530 -3.187646 -10.149544 15.329755 0.281151 2.294389 0.004629 0.006743 1206940.000000 1 0 0
4.594270 -11.371846 -7.869744 14.572545 -1.186843 2.141280 -0.006734 -0.003070 -1993810.000000 1 0 0
-9.294530 -4.004246 7.369556 12.519290 0.406788 0.941401 -0.006000 -0.001349 -992242.000000 1 0 0
-5.823330 -9.727646 -5.099744 12.431639 1.031380 1.993495 0.011991 -0.004506 833596.000000 1 0 0
4.726670 4.440154 -9.426044 11.441445 0.754153 2.538968 -0.004036 0.001836 157645.000000 1 0 0
-3.476330 -7.278646 -14.025044 16.179166 1.125223 2.619662 -0.004929 0.005303 -194884.000000 1 0 0
0.618870 -0.851246 -8.843144 8.905549 -0.942167 3.023138 -0.007118 -0.005013 -132901.000000 1 0 0
-7.677330 2.164354 -2.875244 8.478965 -0.274784 1.916760 -0.010446 0.003752 -1156120.000000 1 0 0
-2.295430 7.573754 -12.484544 14.781562 -1.276519 2.576619 -0.010249 -0.000905 220879.000000 1 0 0
-9.774830 8.897954 7.641656 15.268130 -0.738473 1.046623 -0.001508 -0.007094 -358148.000000 1 0 0
-10.728230 -2.932946 -14.218844 18.051942 0.266865 2.477803 0.004210 0.006892 -389257.000000 1 0 0
-3.184530 4.904954 8.076556 9.971488 -0.994950 0.626704 -0.003603 0.003087 -179745.000000 1 0 0
8.594070 -2.250246 -3.673744 9.613430 -0.256088 1.962915 0.002542 -0.000298 -5384200.000000 1 0 0
1.983870 -8.610646 -1.126644 8.907766 -1.344351 1.697615 -0.003268 0.001501 -100269.000000 1 0 0
-13.552730 -2.927746 5.171956 14.798558 0.212757 1.213769 0.006529 -0.007442 86100.600000 1 0 0
7.060570 2.773754 -2.001044 7.845351 0.374329 1.828707 0.001053 -0.001096 1147500.000000 1 0 0
-10.954930 4.472654 8.997056 14.864795 -0.387622 0.920705 -0.005984 -0.001345 -3054450.000000 1 0 0
-1.715130 -2.560746 8.039456 8.609991 0.980643 0.366086 -0.000342 0.000643 -1080480.000000 1 0 0
3.217170 11.911654 -9.798644 15.755986 1.307004 2.241963 -0.000261 -0.006892 514795.000000 1 0 0
3.497270 -5.000546 -7.105344 9.366017 -0.960488 2.432004 -0.008056 -0.000323 610834.000000 1 0 0
8.014370 -13.994846 -9.834244 18.889103 -1.050718 2.118386 0.012249 0.002095 269427.000000 1 0 0
-6.287730 -5.795746 -0.379644 8.559810 0.744705 1.615163 0.003658 0.000835 -455156.000000 1 0 0
-1.092130 -4.102446 9.872456 10.746544 1.310616 0.406113 -0.000046 0.000697 2318970.000000 1 0 0
2.739370 3.269454 1.783956 4.623416 0.873388 1.174665 -0.003809 0.002668 -1265430.000000 1 0 0
-9.036230 13.330554 7.842956 17.912819 -0.975085 1.117601 0.006933 -0.012256 1742150.000000 1 0 0
3.992170 -11.120946 -0.044444 11.815872 -1.226146 1.574558 -0.002096 0.000075 -7926.410000 1 0 0
-12.595130 -1.298046 -9.078044 15.579894 0.102697 2.192815 -0.002137 0.000640 -333882.000000 1 0 0
-4.277930 0.886254 -13.585844 14.270994 -0.204279 2.830468 -0.000098 0.000155 826550.000000 1 0 0
3.995270 -2.993446 4.887656 6.986565 -0.643019 0.795988 -0.001115 0.003023 214814.000000 1 0 0
1.697970 -1.194046 1.136456 2.366513 -0.612884 1.069886 -0.000894 0.002880 215007.000000 1 0 0
8.091670 -9.042646 7.270656 14.145919 -0.840843 1.030983 -0.006140 -0.000762 -1429070.000000 1 0 0
-0.099930 2.318354 -6.264444 6.680419 -1.527719 2.786839 -0.004729 -0.003802 234203.000000 1 0 0
-3.761530 -9.765046 -3.334544 10.982915 1.203110 1.879278 0.013143 0.001141 812817.000000 1 0 0
-9.395430 2.228454 -5.466444 11.096040 -0.232881 2.085926 -0.005421 0.002550 -1308370.000000 1 0 0
8.859470 -7.708646 5.132756 12.816342 -0.716049 1.158750 -0.004184 -0.000120 1999410.000000 1 0 0
-5.479330 -4.370446 4.685856 8.430961 0.673291 0.981482 -0.004224 0.000335 -740794.000000 1 0 0
-0.154930 -12.513646 10.415156 16.281610 1.558416 0.876704 0.001664 -0.003774 -1077060.000000 1 0 0
-14.104030 -8.373746 3.222756 16.716143 0.535784 1.376789 -0.007161 -0.002512 -2035790.000000 1 0 0
10.836970 -1.338346 -3.708344 11.531821 -0.122876 1.898189 0.009163 -0.000984 178387.000000 1 0 0
-13.562230 2.944954 2.831156 14.164119 -0.213824 1.369559 -0.005542 0.001308 -1379140.000000 1 0 0
-6.260630 6.238854 1.107456 8.907595 -0.783656 1.446147 -0.006887 0.003844 610567.000000 1 0 0
6.975070 -6.916246 -0.461944 9.833588 -0.781164 1.617790 -0.004355 -0.001662 -562138.000000 1 0 0
-6.797030 7.882754 10.188656 14.565237 -0.859224 0.796073 0.005680 -0.004005 435824.000000 1 0 0
-12.533230 -5.140346 -1.866844 13.674433 0.389215 1.707745 -0.007367 0.001376 -3299920.000000 1 0 0
-9.389830 -5.604546 0.210556 10.937284 0.538118 1.551544 -0.003905 0.001213 -534467.000000 1 0 0
-1.750530 1.865954 2.213156 3.382928 -0.817303 0.857654 -0.006477 0.003346 -58154.600000 1 0 0
-7.022930 7.483654 7.679056 12.817743 -0.817147 0.928425 0.002163 -0.004988 -501655.000000 1 0 0
5.526270 7.212554 -0.336844 9.092528 0.917007 1.607851 0.001407 -0.001833 -2049270.000000 1 0 0
0.054970 -4.030446 7.481156 8.497954 -1.557158 0.494201 -0.002332 0.002632 -176925.000000 1 0 0
6.629570 0.676454 13.043256 14.647025 0.101684 0.472341 -0.002897 -0.003139 592642.000000 1 0 0
5.760070 6.170254 -7.885044 11.550946 0.819766 2.322154 -0.000899 -0.001316 -928282.000000 1 0 0
10.018670 5.194254 8.972056 14.417067 0.478304 0.899091 0.002519 0.001441 -1816210.000000 1 0 0
-1.222730 -4.958546 -8.549944 9.959106 1.329029 2.603144 0.001473 -0.000782 769133.000000 1 0 0
9.976570 -3.561546 -8.086344 13.326872 -0.342889 2.222787 0.008148 -0.002173 616558.000000 1 0 0
8.286970 -5.655946 1.226456 10.107809 -0.598892 1.449159 -0.000716 -0.001301 1046340.000000 1 0 0
15.769570 3.096754 -5.022744 16.837375 0.193908 1.873717 0.007690 0.001008 -811448.000000 1 0 0
-6.896630 3.642754 1.132856 7.881403 -0.485947 1.426559 -0.009532 0.002171 93070.100000 1 0 0
-1.804830 3.878254 0.349756 4.291922 -1.135233 1.489214 -0.006488 0.001228 -277079.000000 1 0 0
-2.423130 10.012554 7.127156 12.526737 -1.333352 0.965561 0.000270 0.004083 1035860.000000 1 0 0
5.376270 -5.751046 -8.761344 11.778793 -0.819066 2.409569 -0.005966 0.000054 12979.500000 1 0 0
-1.286030 -1.009946 6.280356 6.489741 0.665726 0.254711 0.000132 0.002108 -194486.000000 1 0 0
-5.576630 5.101354 -7.809344 10.867771 -0.740918 2.372552 -0.005077 -0.000928 -386406.000000 1 0 0
6.648870 -1.281246 2.498356 7.217399 -0.190368 1.217324 -0.000104 0.001633 -1042410.000000 1 0 0
8.825270 7.588554 3.111256 12.047882 0.710194 1.309595 0.004267 -0.001810 -96807.300000 1 0 0
-5.319630 -4.906046 -7.748244 10.602029 0.744975 2.390328 0.006327 -0.003562 548696.000000 1 0 0
-2.247330 7.991054 -9.942444 12.952205 -1.296647 2.445924 -0.006214 -0.000864 842952.000000 1 0 0
-2.871630 -2.323546 1.753356 4.088934 0.680288 1.127626 -0.006393 0.004706 885825.000000 1 0 0
5.700470 -2.076946 -9.180144 11.003822 -0.349398 2.557601 -0.002308 0.000489 1057070.000000 1 0 0
1.153570 -7.633446 5.078556 9.240777 -1.420811 0.988934 -0.006958 0.003441 440658.000000 1 0 0
1.854370 11.860454 1.188356 12.063219 1.415703 1.472126 0.003828 -0.002923 103984.000000 1 0 0
-1.072530 7.035854 2.558456 7.563019 -1.419523 1.225702 -0.004442 0.004337 419284.000000 1 0 0
8.660470 7.847954 -6.599044 13.421680 0.736220 2.084803 0.008936 -0.006755 182455.000000 1 0 0
3.663670 -11.253346 5.451556 13.029956 -1.256056 1.139128 -0.003833 0.000573 140449.000000 1 0 0
7.975770 -7.016246 12.261656 16.223096 -0.721483 0.713899 -0.012378 0.003346 291680.000000 1 0 0
-8.781430 0.046954 -3.793944 9.566071 -0.005347 1.978611 -0.008754 0.000814 -1027950.000000 1 0 0
-3.189830 -5.171946 11.215756 12.756067 1.018147 0.496513 0.004291 -0.003966 1020810.000000 1 0 0
-8.221730 0.261054 -11.550344 14.180107 -0.031741 2.522742 0.000612 -0.002901 -2207760.000000 1 0 0
1.450470 -5.081346 5.302956 7.486340 -1.292741 0.783637 -0.002403 0.003365 -747672.000000 1 0 0
6.562970 3.789154 -7.634644 10.757232 0.523601 2.359900 -0.000768 -0.001068 -822981.000000 1 0 0
16.337670 4.165354 -1.374044 16.916195 0.249636 1.652112 -0.000477 0.003669 434118.000000 1 0 0
7.838670 7.397854 -0.005944 10.778359 0.756475 1.571348 0.005796 -0.005915 -2344410.000000 1 0 0
5.557370 -10.359346 13.875456 18.185948 -1.078408 0.702891 -0.009788 0.002604 -257771.000000 1 0 0
-5.144030 -9.279446 9.003056 13.914891 1.064622 0.867141 -0.000568 -0.005037 444923.000000 1 0 0
-12.446330 -3.185246 2.952656 13.182378 0.250541 1.344895 -0.007587 -0.000653 -147144.000000 1 0 0
-2.122330 -1.317746 -5.923244 6.428495 0.555643 2.742475 -0.001006 -0.003067 -1454520.000000 1 0 0
-2.508030 13.008354 -4.320844 13.934747 -1.380332 1.886070 -0.000545 -0.000895 285016.000000 1 0 0
3.844870 -0.431746 -5.044444 6.357346 -0.111823 2.487307 -0.002274 0.000494 -633228.000000 1 0 0
-8.817230 3.905754 -7.426744 12.171893 -0.416991 2.227053 -0.004799 0.001011 536321.000000 1 0 0
-4.548230 8.069054 -11.287144 14.601220 -1.057524 2.454396 -0.004317 -0.001721 -1972310.000000 1 0 0
-10.069230 -6.507046 7.487956 14.135082 0.573721 1.012499 -0.005765 -0.001974 -1612890.000000 1 0 0
8.001570 5.379854 4.023556 10.447821 0.591927 1.175470 -0.001906 0.001044 -1063460.000000 1 0 0
-6.742530 -7.599346 4.025556 10.927803 0.845070 1.193533 0.000478 0.001457 -642968.000000 1 0 0
-4.041630 11.862354 8.126056 14.935963 -1.242421 0.995528 0.002687 -0.001342 84893.500000 1 0 0
-7.285230 9.989154 -7.844244 14.642060 -0.940666 2.136173 -0.001129 -0.004271 -193015.000000 1 0 0
13.060470 5.435654 4.480756 14.839117 0.394386 1.264053 0.003648 -0.003169 -6694.500000 1 0 0
5.368670 4.015954 -3.777844 7.695623 0.642242 2.083928 0.000346 -0.000747 416545.000000 1 0 0
-2.863130 -4.225746 5.176456 7.269810 0.975301 0.778385 -0.002809 0.003075 -2542960.000000 1 0 0
12.292270 -2.446146 -5.381644 13.639854 -0.196433 1.976378 0.006393 -0.004917 -2121760.000000 1 0 0
-5.129030 9.693154 7.150756 13.091887 -1.084110 0.992978 0.004094 -0.000245 588971.000000 1 0 0
1.636970 3.868754 -0.452244 4.225098 1.170514 1.678039 -0.000845 0.001268 536335.000000 1 0 0
0.159870 9.711354 7.686156 12.385998 1.554336 0.901350 -0.006071 0.007046 -934188.000000 1 0 0
-5.420930 2.055854 5.987356 8.334354 -0.362486 0.769304 -0.009055 0.002937 558655.000000 1 0 0
8.924870 0.809254 10.550156 13.842471 0.090427 0.704156 0.006922 0.001519 -1546080.000000 1 0 0
0.376170 -2.926946 -10.196244 10.614702 -1.442977 2.859868 -0.007559 -0.001065 -1829890.000000 1 0 0
1.273170 10.647054 -2.602144 11.034123 1.451782 1.808866 0.006124 -0.004061 -330764.000000 1 0 0
2.425970 -4.199246 11.642156 12.611852 -1.046924 0.394699 -0.007249 -0.001479 -287346.000000 1 0 0
6.613670 -3.105646 9.396756 11.903138 -0.439017 0.660908 -0.005385 -0.001967 95535.500000 1 0 0
-10.550430 -8.217946 5.690856 14.533824 0.661755 1.168471 -0.002342 -0.001693 -668688.000000 1 0 0
-2.978330 0.897154 -6.952744 7.616822 -0.292582 2.720919 -0.001022 -0.003072 664816.000000 1 0 0
11.055770 2.555054 -5.136244 12.455495 0.227118 1.995848 0.003821 -0.003335 -3360940.000000 1 0 0
-2.106530 -4.038846 -0.005544 4.555192 1.090044 1.572013 -0.002845 0.001595 1244690.000000 1 0 0
-1.309330 -6.433746 -10.620444 12.486042 1.370028 2.587894 -0.002350 0.002569 819401.000000 1 0 0
0.310270 6.905054 -6.512144 9.496528 1.525893 2.326415 0.002274 -0.002544 -2690050.000000 1 0 0
2.006370 3.872954 -6.265544 7.634286 1.092816 2.533451 -0.002669 -0.000860 -2291600.000000 1 0 0
1.620570 -14.767246 6.564656 16.241691 -1.461493 1.154708 0.013056 -0.005929 -309928.000000 1 0 0
-1.783530 5.472254 -10.472844 11.950188 -1.255730 2.639079 -0.005029 0.000198 -217635.000000 1 0 0
13.663070 4.301454 -0.913244 14.353258 0.305000 1.634466 0.005772 -0.003531 -492927.000000 1 0 0
-2.435430 3.360954 -6.074644 7.357216 -0.943734 2.542188 -0.002981 -0.002489 -1297620.000000 1 0 0
5.902070 7.782554 14.205956 17.239831 0.921959 0.602327 0.011498 -0.007653 324063.000000 1 0 0
15.864770 0.602654 -5.807644 16.905113 0.037969 1.921484 0.002623 -0.000678 43727.900000 1 0 0
6.118370 -8.202146 10.458256 14.631636 -0.929894 0.774501 -0.012709 0.005204 1055530.000000 1 0 0
0.034870 -5.939046 -6.346944 8.692363 -1.564925 2.389374 -0.004625 0.000334 -1385570.000000 1 0 0
8.507170 5.520654 -7.512044 12.620632 0.575631 2.208335 0.004159 -0.002268 -703648.000000 1 0 0
-15.892630 -0.751646 5.430556 16.811651 0.047260 1.241874 0.008115 -0.008907 -539289.000000 1 0 0
-0.353730 4.221554 -12.225244 12.938440 -1.487200 2.808017 -0.003859 0.000020 430596.000000 1 0 0
-11.217530 3.694254 5.896056 13.200150 -0.318142 1.107761 -0.005696 -0.000786 168504.000000 1 0 0
5.069170 -9.563046 -9.664044 14.510068 -1.083376 2.299661 -0.013335 0.002413 -19691.400000 1 0 0
1.514270 11.266654 -11.614444 16.251948 1.437194 2.366919 -0.002466 0.000798 -2217760.000000 1 0 0
5.875670 2.413254 1.249456 6.473673 0.389713 1.376572 -0.000235 0.002143 -127365.000000 1 0 0
5.658570 4.536954 4.911056 8.759101 0.675828 0.975589 -0.003123 0.001646 438496.000000 1 0 0
0.328170 -1.408746 -6.409144 6.570341 -1.341926 2.919624 -0.005157 0.000200 -121887.000000 1 0 0
12.688270 6.745254 -4.557244 15.075116 0.488617 1.877903 0.003896 -0.005349 232049.000000 1 0 0
7.469370 3.222854 12.691156 15.074606 0.407343 0.570021 0.006309 -0.000336 -484139.000000 1 0 0
-2.411030 -0.230446 8.691656 9.022808 0.095291 0.271766 -0.002516 0.002590 426711.000000 1 0 0
2.350970 -15.210346 13.296856 20.339324 -1.417446 0.858265 -0.003474 -0.001146 -538278.000000 1 0 0
18.927470 4.360454 -1.940644 19.519959 0.226426 1.670379 0.006455 0.006053 1529910.000000 1 0 0
-0.389630 -13.302846 7.251156 15.155751 1.541515 1.071916 0.000163 -0.004215 -1380220.000000 1 0 0
4.279170 1.603754 -0.557344 4.603689 0.358579 1.692159 -0.000376 0.000315 497376.000000 1 0 0
2.684270 -0.426846 -7.380044 7.864639 -0.157697 2.788718 -0.008892 0.000171 -172367.000000 1 0 0
7.186270 -11.406746 0.804556 13.505690 -1.008608 1.511189 -0.005629 0.000790 118722.000000 1 0 0
-11.837230 -7.412546 1.378656 14.034477 0.559466 1.472404 -0.006354 0.003523 26504.400000 1 0 0
0.184270 -7.082646 10.093356 12.331816 -1.544785 0.612034 -0.002450 -0.002162 -2723900.000000 1 0 0
-4.610030 -7.203646 10.627656 13.641553 1.001513 0.677623 0.005673 -0.003645 -1143620.000000 1 0 0
11.692770 0.710254 -1.714344 11.839101 0.060668 1.716111 0.004751 -0.003329 284647.000000 1 0 0
6.439470 -9.704546 -7.573844 13.892735 -0.984953 2.147383 -0.007136 -0.003468 -2001220.000000 1 0 0
-10.864130 4.809554 3.552956 12.400993 -0.416767 1.280219 -0.008324 0.000088 435364.000000 1 0 0
5.880970 -9.190946 1.998356 11.092914 -1.001578 1.389660 -0.008187 -0.001755 3505790.000000 1 0 0
11.657070 -1.326946 5.750956 13.066047 -0.113344 1.115036 0.005864 -0.006940 -330596.000000 1 0 0
-6.388630 3.664454 4.185256 8.471079 -0.520774 1.054038 -0.008191 0.002488 -2094210.000000 1 0 0
9.543270 6.340754 -3.216444 11.900617 0.586447 1.844475 0.005724 -0.004166 -439790.000000 1 0 0
-2.186730 6.668054 10.971156 13.023479 -1.253906 0.569049 -0.001382 -0.001914 -253688.000000 1 0 0
1.880170 9.833354 2.983656 10.446631 1.381873 1.281154 -0.004431 0.001436 -585875.000000 1 0 0
2.822770 6.142154 -5.553244 8.748291 1.140010 2.258521 0.001220 -0.001752 -2071880.000000 1 0 0
11.969470 0.050754 -5.750444 13.279247 0.004240 2.018659 0.009492 -0.003285 353815.000000 1 0 0
-2.748730 -12.525946 6.308356 14.291613 1.354777 1.113635 -0.004651 -0.001462 119755.000000 1 0 0
10.730470 1.815254 -2.808644 11.239511 0.167582 1.823363 0.003051 -0.002174 221349.000000 1 0 0
-8.878030 5.366254 1.000556 10.421958 -0.543679 1.474644 -0.007739 0.003656 172028.000000 1 0 0
1.204470 -10.214846 5.615856 11.718860 -1.453425 1.071036 -0.004541 0.000528 226303.000000 1 0 0
9.262970 -5.870546 -1.327444 11.046630 -0.564877 1.691255 0.000591 -0.002099 635932.000000 1 0 0
-7.848830 8.623654 -4.400244 12.463293 -0.832401 1.931632 -0.006076 0.002014 528440.000000 1 0 0
-7.354230 -0.088146 -1.592844 7.525265 0.011985 1.784076 -0.010929 0.003715 -1702510.000000 1 0 0
4.063270 8.841654 2.723056 10.104457 1.140021 1.297932 -0.001464 -0.001107 356772.000000 1 0 0
-1.395230 -10.622846 -3.728644 11.344351 1.440201 1.905700 0.008391 -0.000645 -392445.000000 1 0 0
3.179770 7.827654 -3.552344 9.165274 1.184937 1.968809 0.007074 -0.005858 -501408.000000 1 0 0
-4.309730 1.753854 -11.148544 12.080554 -0.386485 2.746213 -0.001047 -0.003676 -713249.000000 1 0 0
1.335670 2.754854 11.096256 11.510871 1.119348 0.269213 0.002005 0.000627 611856.000000 1 0 0
2.020770 5.668254 -7.952544 9.972741 1.228337 2.493817 -0.001906 -0.001819 -935271.000000 1 0 0
15.494470 5.967054 3.907456 17.057331 0.367603 1.339666 0.006510 -0.006996 -252860.000000 1 0 0
-4.318030 8.923554 4.869856 11.044940 -1.120119 1.114181 -0.001073 0.002426 202771.000000 1 0 0
-1.015830 -8.196946 -12.462444 14.951065 1.447497 2.556297 -0.008911 0.004401 -728450.000000 1 0 0
14.217970 -4.216246 -5.383144 15.776744 -0.288283 1.918998 0.002154 -0.003799 418322.000000 1 0 0
-6.061130 -6.251146 -5.653344 10.381446 0.800830 2.146663 0.010552 0.000834 506361.000000 1 0 0
-8.940530 2.766054 -12.259644 15.423456 -0.300043 2.489590 0.000652 -0.005452 37030.900000 1 0 0
10.680270 5.292854 13.688856 18.151233 0.460100 0.716429 0.020865 -0.001782 716640.000000 1 0 0
-0.400930 11.049754 5.584156 12.387115 -1.534528 1.103131 -0.003756 0.006648 798007.000000 1 0 0
0.318970 11.265954 -0.534244 11.283123 1.542491 1.618163 0.003771 -0.001845 331418.000000 1 0 0
-1.567930 -0.499346 3.770956 4.114348 0.308319 0.411460 -0.005029 0.003571 5103.340000 1 0 0
-4.756230 6.851854 8.991056 12.264123 -0.964006 0.747900 0.004104 -0.002561 -1833460.000000 1 0 0
3.355570 -8.857446 -11.459744 14.867412 -1.208662 2.450886 -0.015630 0.006100 -750594.000000 1 0 0
6.748370 -3.917446 11.995656 14.310229 -0.525960 0.576717 -0.007254 0.002278 -1400800.000000 1 0 0
-2.557030 -1.771046 -12.549144 12.928883 0.605755 2.898626 -0.000606 -0.003110 1190810.000000 1 0 0
-15.985430 -5.063546 5.448156 17.631105 0.306761 1.256646 0.013873 -0.011536 528382.000000 1 0 0
-8.848130 7.245354 5.834356 12.838390 -0.686134 1.099046 -0.006484 -0.001124 -3347650.000000 1 0 0
-12.672630 1.508354 6.034956 14.117060 -0.118467 1.129078 -0.001564 -0.003337 314216.000000 1 0 0
-3.442430 3.650954 10.310056 11.466344 -0.814787 0.452954 -0.001192 0.003142 565721.000000 1 0 0
1.959570 -12.234146 -1.176544 12.445823 -1.411973 1.665471 0.006437 -0.001239 -2378560.000000 1 0 0
10.119170 -5.208646 -3.735944 11.978517 -0.475362 1.887975 0.007479 -0.002212 934176.000000 1 0 0
3.081470 -13.512746 0.911156 13.889563 -1.346589 1.505149 0.006486 -0.001020 399687.000000 1 0 0
10.020570 -1.755746 -6.212044 11.919898 -0.173453 2.118993 0.007643 -0.000815 543110.000000 1 0 0
11.902870 -5.385446 -1.741944 13.180126 -0.424889 1.703349 0.005828 -0.003587 497771.000000 1 0 0
1.408470 0.946554 5.971556 6.207998 0.591716 0.276878 -0.001460 0.001847 -100212.000000 1 0 0
-10.715330 11.708254 6.734356 17.241028 -0.829650 1.169512 -0.000220 -0.003337 17964.400000 1 0 0
4.650170 -14.180546 3.047556 15.231532 -1.253920 1.369355 0.002415 -0.004279 -3229560.000000 1 0 0
5.254670 -3.486646 -1.764744 6.548479 -0.585830 1.843659 -0.000986 0.001110 -1996410.000000 1 0 0
1.976470 -2.874346 -7.705444 8.458260 -0.968425 2.716490 -0.008908 0.000017 -443394.000000 1 0 0
-2.648430 14.920954 -8.875044 17.561761 -1.395129 2.100598 0.013036 -0.004077 -2213030.000000 1 0 0
-2.329430 6.159954 -8.031844 10.386616 -1.209261 2.454807 -0.001872 -0.002154 -514772.000000 1 0 0
2.521570 -3.515846 -11.366244 12.161866 -0.948619 2.777875 -0.008376 0.000235 -1621740.000000 1 0 0
14.626070 2.707354 -2.830044 15.141362 0.183033 1.758810 0.008891 0.000498 667725.000000 1 0 0
-3.456230 13.430754 2.133456 14.031476 -1.318924 1.418156 -0.005537 0.004103 -1415150.000000 1 0 0
7.961170 -4.913446 13.915356 16.767806 -0.552954 0.591894 -0.015396 0.002283 -982055.000000 1 0 0
-11.470230 7.309754 2.928756 13.913170 -0.567382 1.358707 -0.011691 0.001472 916161.000000 1 0 0
-2.191230 11.980554 3.932356 12.798382 -1.389897 1.258490 -0.004164 0.006083 560517.000000 1 0 0
1.759070 1.398854 0.682356 2.348772 0.671822 1.276030 -0.004054 0.001766 -1691300.000000 1 0 0
-6.794830 8.649954 5.391356 12.249822 -0.904939 1.115067 -0.000111 -0.000766 -1072180.000000 1 0 0
-1.209130 9.252854 1.149856 9.402099 -1.440856 1.448192 -0.001701 0.003319 528931.000000 1 0 0
5.041570 13.126254 -8.412244 16.385415 1.204086 2.109936 0.003924 -0.009316 -2472730.000000 1 0 0
8.954070 6.891154 7.192956 13.394103 0.655935 1.003891 -0.004393 0.000112 -1303630.000000 1 0 0
7.062170 -13.740846 2.695656 15.682846 -1.096048 1.398053 0.003539 -0.003525 -218359.000000 1 0 0
4.068570 -13.464146 -1.362044 14.131230 -1.277342 1.667332 -0.000544 0.000545 -2472390.000000 1 0 0
11.976470 -11.834846 -4.795244 17.506964 -0.779450 1.848247 0.008324 0.001990 -784820.000000 1 0 0
2.758770 0.059354 -2.100244 3.467760 0.021511 2.221377 0.000057 0.000319 1753920.000000 1 0 0
-13.624830 -3.037546 -10.608844 17.533118 0.219355 2.220656 -0.008274 0.003657 -667740.000000 1 0 0
-6.457030 13.665854 5.139656 15.964488 -1.129395 1.243015 0.001138 0.000000 319584.000000 1 0 0
7.274170 -4.333846 -0.722044 8.498066 -0.537315 1.655865 -0.001359 0.000253 -1444160.000000 1 0 0
11.694170 2.116354 -7.362344 13.979867 0.179037 2.125438 0.006049 -0.001187 -509392.000000 1 0 0
-7.407030 -4.632446 9.795956 13.125716 0.558896 0.728284 0.002190 -0.000438 161161.000000 1 0 0
1.018070 2.818954 8.507156 9.019683 1.224221 0.338732 -0.001019 0.001894 -1446850.000000 1 0 0
1.559770 8.090154 -8.669444 11.960047 1.380335 2.381638 0.000549 -0.004168 -622061.000000 1 0 0
-8.583930 -1.989846 -5.521744 10.398701 0.227787 2.130580 0.000494 0.001178 -1701590.000000 1 0 0
6.688170 -0.451946 7.094556 9.760564 -0.067471 0.757059 0.001546 -0.001234 117939.000000 1 0 0
-10.840630 6.554754 7.316856 14.629437 -0.543829 1.047029 -0.004309 -0.002030 546862.000000 1 0 0
-5.799230 11.085354 5.011556 13.477085 -1.088806 1.189787 0.000313 0.002209 1521930.000000 1 0 0
5.931670 -1.255446 -6.890044 9.177884 -0.208573 2.419951 -0.001824 -0.000173 -794383.000000 1 0 0
4.597870 -5.720746 11.409556 13.566331 -0.893792 0.571630 -0.009657 0.000544 -1813660.000000 1 0 0
-8.964730 -7.379946 2.676956 11.916211 0.688740 1.344214 -0.003439 0.002185 -3721880.000000 1 0 0
-1.184430 12.773354 -9.350144 15.874087 -1.478334 2.200641 0.008388 -0.002176 629971.000000 1 0 0
-4.659830 9.360454 -2.286844 10.703353 -1.108894 1.786113 -0.004894 0.000673 118030.000000 1 0 0
-3.352530 9.740854 -0.071944 10.301886 -1.239323 1.577780 -0.002708 0.003090 -876603.000000 1 0 0
-3.529730 10.737054 -6.405744 12.991415 -1.253183 2.086417 -0.001004 -0.000814 420367.000000 1 0 0
4.872970 -4.975146 0.341056 6.972391 -0.795773 1.521862 -0.001926 0.000615 -812450.000000 1 0 0
-2.213630 3.024154 -10.828744 11.458942 -0.938926 2.808403 -0.002620 -0.000894 -1755640.000000 1 0 0
-3.662830 12.089754 -2.192744 12.821334 -1.276617 1.742664 -0.005175 0.002018 774724.000000 1 0 0
-0.236230 0.372954 0.056356 0.445056 -1.006178 1.443828 -0.005857 0.002797 -1891210.000000 1 0 0
-4.790030 -1.704946 0.130156 5.086076 0.341954 1.545203 -0.006280 0.003700 -85594.400000 1 0 0
2.586570 2.625854 -2.467544 4.435564 0.792935 2.160734 -0.006976 0.000050 2082180.000000 1 0 0
5.970270 -9.717246 8.359256 14.140232 -1.019856 0.938290 -0.010232 0.002450 -1004740.000000 1 0 0
-4.259030 -5.551246 6.577656 9.603189 0.916365 0.816268 -0.002046 -0.001460 172190.000000 1 0 0
-6.279930 5.370154 -12.069644 14.627111 -0.707465 2.541274 -0.004454 -0.000905 866542.000000 1 0 0
-12.780030 3.043354 8.076456 15.421424 -0.233779 1.019588 -0.001006 -0.003536 555052.000000 1 0 0
4.719070 -7.579546 -5.004144 10.235262 -1.013920 2.081639 -0.010231 -0.001245 690460.000000 1 0 0
-5.986030 2.490054 -1.047844 6.567412 -0.394204 1.731033 -0.009436 0.002993 -1082450.000000 1 0 0
-6.947930 -2.631246 -14.545544 16.333096 0.362019 2.669363 0.000107 0.001598 275542.000000 1 0 0
2.551170 -6.126546 0.707756 6.674126 -1.176222 1.464552 -0.003065 0.002416 -86711.600000 1 0 0
4.890570 -7.874246 12.993756 15.961176 -1.015018 0.619644 -0.009805 0.002439 -63250.800000 1 0 0
-9.952330 -1.698646 8.183856 12.996529 0.169049 0.889635 -0.001400 0.000205 -259642.000000 1 0 0
-4.561130 13.390354 -0.089444 14.146147 -1.242495 1.577119 -0.005367 0.003293 503928.000000 1 0 0
6.731970 2.222954 -4.546144 8.421898 0.318936 2.140996 0.000479 -0.000266 -1389930.000000 1 0 0
4.993370 4.554954 0.011656 6.758808 0.739515 1.569072 -0.001624 0.000453 -768292.000000 1 0 0
-5.883730 12.364554 1.933556 13.828923 -1.126651 1.430517 -0.003690 0.004635 -224126.000000 1 0 0
6.448170 -7.319946 6.500056 11.722254 -0.848632 0.983027 -0.007180 0.001223 -312731.000000 1 0 0
-0.263230 4.974354 7.755456 9.217407 -1.517928 0.570942 -0.009507 0.003741 -506194.000000 1 0 0
-5.896130 -3.458146 -1.565544 7.012421 0.530442 1.795947 -0.002872 0.001956 -637010.000000 1 0 0
2.311070 -6.590646 -5.200644 8.707718 -1.233534 2.210858 -0.007984 0.001211 -909813.000000 1 0 0
-14.391530 -4.775746 -3.654844 15.597492 0.320410 1.807318 -0.010573 0.005610 -671058.000000 1 0 0
-12.371030 -5.114446 -6.289644 14.790522 0.392023 2.010032 -0.001090 0.004585 -1512420.000000 1 0 0
-14.670030 -3.778446 -1.184044 15.195012 0.252083 1.648799 -0.009382 0.001503 598106.000000 1 0 0
11.902070 2.873754 8.616856 14.972239 0.236915 0.957554 0.007695 -0.000360 -1191620.000000 1 0 0
8.716770 -6.582146 7.538256 13.271475 -0.646765 0.966717 -0.001563 -0.004051 -39518.600000 1 0 0
-8.834430 -1.628446 -9.864144 13.341676 0.182283 2.402898 0.004398 -0.001784 165119.000000 1 0 0
-8.742130 5.229754 -3.812944 10.877210 -0.539113 1.928949 -0.008276 0.004384 -1512450.000000 1 0 0
-4.057930 -6.325646 4.123656 8.572347 1.000417 1.068954 0.001364 0.000859 -1103020.000000 1 0 0
-0.108130 -9.448746 3.439556 10.055896 1.559353 1.221705 -0.002928 0.001857 608915.000000 1 0 0
7.781170 -10.556846 3.334656 13.531945 -0.935620 1.321803 -0.005216 -0.002505 635920.000000 1 0 0
0.096670 6.561954 9.643856 11.665014 1.556065 0.597520 -0.003042 -0.000882 976634.000000 1 0 0
-0.123430 3.539054 -9.641444 10.271201 -1.535934 2.789599 -0.002165 0.000038 -360678.000000 1 0 0
4.576670 -3.047146 10.985956 12.285042 -0.587402 0.464033 -0.005077 -0.002278 -2260010.000000 1 0 0
8.497970 -9.232746 1.317756 12.617273 -0.826815 1.466165 -0.003279 -0.000636 576324.000000 1 0 0
-0.213930 -0.439446 11.402156 11.412627 1.117751 0.042839 0.005299 -0.001247 -2247930.000000 1 0 0
10.979170 5.908154 11.231356 16.780698 0.493680 0.837527 0.009128 0.001045 -44465.600000 1 0 0
-6.382730 -2.890746 -11.918044 13.825173 0.425264 2.610105 0.007024 -0.001807 489034.000000 1 0 0
-1.699130 2.921154 8.489856 9.137715 -1.043968 0.378823 -0.005354 0.001983 966526.000000 1 0 0
-1.679630 13.505854 -6.904444 15.261081 -1.447068 2.040275 0.007431 -0.003466 680669.000000 1 0 0
7.766870 3.074654 9.870156 12.930497 0.376939 0.702354 0.003213 -0.000380 1407370.000000 1 0 0
6.449770 8.498954 -8.038144 13.358275 0.921630 2.216468 0.007219 -0.004441 338806.000000 1 0 0
6.652370 -3.092646 -3.980644 8.346497 -0.435170 2.067948 -0.000901 0.001041 -1375420.000000 1 0 0
1.989670 8.150354 1.062356 8.456693 1.331359 1.444840 -0.001438 0.001161 792655.000000 1 0 0
-17.425230 6.246754 6.354756 19.571497 -0.344217 1.240108 0.000909 0.003406 -236012.000000 1 0 0
-14.564830 3.152154 -10.271044 18.098748 -0.213135 2.174263 0.001877 -0.003730 -1067370.000000 1 0 0
-18.030230 0.106554 -4.385644 18.556250 -0.005910 1.809397 0.001364 0.000614 -489212.000000 1 0 0
-12.987230 8.016354 0.139956 15.262688 -0.553006 1.561626 -0.010910 0.005847 -995316.000000 1 0 0
-12.827030 -4.436546 -12.859544 18.697152 0.332995 2.329224 0.003273 0.017142 -28758.300000 1 0 0
-17.296430 -0.537146 -8.319144 19.200603 0.031045 2.018920 -0.014721 -0.006520 -159148.000000 1 0 0
-16.609930 -2.080946 -1.910244 16.848416 0.124634 1.684419 -0.006539 0.000903 -920403.000000 1 0 0
-15.252530 4.049554 1.813156 15.884775 -0.259513 1.456403 -0.002035 0.002390 -1087110.000000 1 0 0
-13.059730 5.884654 4.503656 15.015612 -0.423349 1.266175 -0.007803 0.001556 -147321.000000 1 0 0
-10.081230 14.259854 2.800356 17.686623 -0.955411 1.411795 0.015876 -0.002056 211566.000000 1 0 0
-11.700030 2.525254 -6.314044 13.532729 -0.212572 2.056212 -0.006742 0.002531 -76827.900000 1 0 0
-15.714430 10.747954 3.801956 19.414342 -0.599876 1.373690 -0.012322 0.004094 -597662.000000 1 0 0
-12.814330 1.213954 -8.477444 15.412585 -0.094452 2.153201 -0.002900 -0.003491 861356.000000 1 0 0
-12.191330 14.434554 4.356656 19.389825 -0.869449 1.344174 0.005820 0.000392 -222376.000000 1 0 0
-10.541430 11.143554 -0.926744 15.367478 -0.813158 1.631138 0.000244 0.002693 194014.000000 1 0 0
-16.922730 5.511354 8.821856 19.864012 -0.314845 1.110613 0.001315 -0.000645 346576.000000 1 0 0
-11.647130 12.544454 -9.244344 19.454481 -0.822474 2.065963 0.002046 -0.008480 -953922.000000 1 0 0
-16.969930 -0.636646 3.117356 17.265623 0.037499 1.389248 0.002922 -0.003091 195043.000000 1 0 0
-13.180930 14.790554 -0.338444 19.814438 -0.842880 1.587878 0.025357 -0.011257 105922.000000 1 0 0
-16.468430 4.706054 -10.472544 20.075614 -0.278344 2.119586 0.010061 -0.001326 187700.000000 1 0 0
-11.865330 7.641554 -8.927044 16.699446 -0.572162 2.134797 -0.001827 0.000281 137205.000000 1 0 0
-14.755830 13.502454 -1.980344 20.099068 -0.741073 1.669486 0.024257 -0.012059 225911.000000 1 0 0
-11.887030 10.591154 -5.375544 16.803883 -0.727812 1.896419 0.011211 -0.004512 3047820.000000 1 0 0
-17.591030 2.866754 -0.667744 17.835596 -0.161547 1.608244 0.007485 0.001689 -615651.000000 1 0 0
-9.469130 15.381154 0.632756 18.073314 -1.018962 1.535779 0.014985 -0.007098 367266.000000 1 0 0
-8.108830 13.259054 -3.669244 15.969314 -1.021913 1.802636 0.000686 -0.000045 -73383.800000 1 0 0
-17.585130 11.489254 2.077156 21.108158 -0.578727 1.472231 0.012898 0.002325 53002.900000 1 0 0
-7.812430 15.794654 -7.363944 19.097979 -1.111458 1.966641 0.015111 -0.011922 203474.000000 1 0 0
-6.185330 15.282054 -5.360444 17.335912 -1.186206 1.885159 -0.000008 -0.004788 -1013780.000000 1 0 0
-17.255930 5.371654 -0.045544 18.072738 -0.301785 1.573316 0.007285 0.006271 595594.000000 1 0 0
-5.399930 12.326654 -12.252744 18.199873 -1.157908 2.309368 -0.010993 -0.001517 -968549.000000 1 0 0
-11.210130 3.817954 -11.393644 16.433469 -0.328259 2.336882 0.006979 -0.006774 48573.600000 1 0 0
-11.829430 11.004854 1.378656 16.215514 -0.749303 1.485673 -0.004727 0.003314 -4002.550000 1 0 0
-12.950530 0.425854 -10.926844 16.949734 -0.032871 2.271377 -0.000419 -0.004420 739484.000000 1 0 0
-14.092130 -2.084446 -13.001144 19.286336 0.146851 2.310558 -0.009658 0.007652 180717.000000 1 0 0
-18.628330 -2.166346 -3.508344 19.079209 0.115773 1.755732 -0.002698 0.002607 926573.000000 1 0 0
-18.176930 4.705854 -5.071244 19.448993 -0.253330 1.834591 0.018284 -0.004062 231214.000000 1 0 0
-8.197730 15.550154 -2.364244 17.736959 -1.085642 1.704489 0.010101 -0.005909 1000130.000000 1 0 0
-16.023630 9.079754 -5.317844 19.169718 -0.515535 1.851892 0.011758 0.000554 21521.400000 1 0 0
-18.110430 1.571954 2.372156 18.332644 -0.086581 1.441037 0.009498 -0.001584 163595.000000 1 0 0
-15.608630 -2.545846 -8.391244 17.903174 0.161681 2.058617 -0.018689 -0.005302 -652922.000000 1 0 0
-9.784530 10.495454 -7.175044 16.042843 -0.820439 2.034476 -0.001260 -0.004965 401387.000000 1 0 0
-14.017130 12.232254 -8.032144 20.263842 -0.717506 1.978365 0.011902 -0.000590 255121.000000 1 0 0
-10.939030 6.569154 -3.784244 13.309269 -0.540805 1.859105 -0.005722 0.004516 -891681.000000 1 0 0
-13.196130 5.027654 -12.650144 18.958937 -0.364016 2.301292 0.008819 -0.008393 244390.000000 1 0 0
-17.524730 9.086454 2.767956 19.933424 -0.478333 1.431486 0.004617 0.003440 729573.000000 1 0 0
-13.363530 8.726754 -6.534144 17.246309 -0.578501 1.959373 -0.000865 0.001729 -441286.000000 1 0 0
-15.665830 6.943354 -3.797244 17.551280 -0.417198 1.788872 -0.002712 0.006315 -1156270.000000 1 0 0
-14.945030 -0.118246 -9.305344 17.605605 0.007912 2.127681 -0.002501 -0.003394 1074780.000000 1 0 0
-10.064330 5.835954 -6.075144 13.124651 -0.525483 2.052038 -0.007419 0.003097 357782.000000 1 0 0
-12.961230 12.153754 -0.680144 17.781164 -0.753258 1.609056 0.010982 -0.003812 -843003.000000 1 0 0
-10.768630 3.556454 -13.969844 17.993562 -0.318983 2.459698 0.005646 -0.001186 336670.000000 1 0 0
-11.052730 6.403754 -11.968144 17.504495 -0.525121 2.323642 0.000610 -0.002706 408150.000000 1 0 0
-5.797930 11.699254 -14.745844 19.695899 -1.110690 2.416859 -0.007429 -0.005071 -374516.000000 1 0 0
-15.533730 13.377954 3.470956 20.792161 -0.710972 1.403075 -0.004659 -0.003445 159263.000000 1 0 0
-15.015530 11.035454 -3.200844 18.907479 -0.633790 1.740905 0.019537 -0.000560 838141.000000 1 0 0
-18.088330 7.653254 -4.474944 20.144108 -0.400264 1.794812 0.015582 0.003034 442660.000000 1 0 0
-3.908130 16.371254 -10.550144 19.864465 -1.336463 2.130702 0.015563 0.001037 82434.200000 1 0 0
-15.648930 4.418354 -4.366144 16.836688 -0.275179 1.833118 0.002068 0.003447 -610532.000000 1 0 0
-18.636330 -1.859946 -6.099144 19.696998 0.099473 1.885620 -0.004812 0.000242 507885.000000 1 0 0
-10.746530 8.619854 -5.745144 14.926368 -0.676024 1.965895 -0.002602 0.003398 1199840.000000 1 0 0
-11.418130 13.670854 -6.866744 19.089738 -0.874947 1.938752 0.006199 -0.001211 409814.000000 1 0 0
-9.441930 10.537954 -4.389644 14.814435 -0.840200 1.871622 -0.007454 0.002985 -655858.000000 1 0 0
-11.030230 6.274454 -0.152444 12.690862 -0.517194 1.582809 -0.011122 0.005330 -53857.200000 1 0 0
-14.598630 9.515754 -1.345144 17.477957 -0.577657 1.647835 0.005796 0.008008 249772.000000 1 0 0
-18.466130 3.453354 4.781656 19.385248 -0.184875 1.321559 0.001428 0.001179 285619.000000 1 0 0
-14.914630 13.109254 0.542456 19.864364 -0.721064 1.543485 0.011228 -0.005748 -233912.000000 1 0 0
-16.804230 2.473354 -9.119444 19.278586 -0.146137 2.063529 0.004360 -0.004962 51823.500000 1 0 0
-9.105230 8.546254 -8.949144 15.363295 -0.753741 2.192599 0.000560 0.001446 -2115730.000000 1 0 0
-17.449030 4.747754 -2.509544 18.256714 -0.265661 1.708692 0.001324 0.006748 436186.000000 1 0 0
-13.421230 5.765854 -4.385244 15.251388 -0.405766 1.862444 -0.004090 0.008004 -1177680.000000 1 0 0
-12.178430 9.719254 3.566856 15.984383 -0.673564 1.345755 -0.014614 0.003140 877263.000000 1 0 0
-17.542430 2.517254 -3.897444 18.145619 -0.142522 1.787270 0.016178 0.001699 1133330.000000 1 0 0
-11.220830 1.549854 -12.598844 16.942253 -0.137254 2.409286 0.000838 -0.004077 -615128.000000 1 0 0
-11.102830 12.078854 3.744056 16.828235 -0.827477 1.346432 -0.002424 0.003553 -94224.200000 1 0 0
-16.121430 13.175054 -4.131444 21.226195 -0.685164 1.766686 0.017799 -0.006568 555553.000000 1 0 0
-10.943830 4.079954 -4.409544 12.484290 -0.356848 1.931794 -0.005671 0.004024 -227469.000000 1 0 0
-11.051130 15.109654 -9.035844 20.786428 -0.939309 2.020501 0.003191 -0.006655 308541.000000 1 0 0
-15.354430 7.219054 -0.380544 16.971095 -0.439493 1.593221 -0.001455 0.007337 -1079610.000000 1 0 0
-12.781130 8.372554 -3.999644 15.794115 -0.579932 1.826820 -0.001313 0.003451 629919.000000 1 0 0
-19.038130 1.923754 -6.031244 20.063078 -0.100706 1.876133 0.011714 -0.003343 834640.000000 1 0 0
-12.593630 10.211054 -8.876044 18.483757 -0.681298 2.071688 0.001019 -0.004078 774184.000000 1 0 0
-16.801130 10.997754 -1.093644 20.110311 -0.579591 1.625205 0.018450 0.004007 1299440.000000 1 0 0
-10.721430 6.555954 -14.544344 19.221538 -0.548819 2.429000 0.001885 -0.007741 257893.000000 1 0 0
-13.494530 12.867754 -4.092944 19.090144 -0.761627 1.786875 0.013693 -0.009448 32794.300000 1 0 0
-17.845430 7.889354 -0.165644 19.512271 -0.416260 1.579286 0.008664 0.009559 626482.000000 1 0 0
-12.722630 6.696054 -2.062744 14.524371 -0.484474 1.713298 -0.010084 0.007609 324238.000000 1 0 0
-13.753730 8.528754 -10.462344 19.270842 -0.555071 2.144695 -0.001426 -0.007120 -1287160.000000 1 0 0
-14.897930 1.383954 -0.822644 14.984672 -0.092630 1.625723 -0.003587 0.002630 -416683.000000 1 0 0
-13.233630 2.831054 -2.347244 13.735115 -0.210752 1.742533 -0.010801 0.004697 -142609.000000 1 0 0
-11.239430 9.256654 -10.861144 18.165210 -0.688959 2.211686 0.000225 -0.004020 -180121.000000 1 0 0
-15.351530 4.402954 -8.074044 17.895409 -0.279311 2.038883 0.002211 -0.001457 640319.000000 1 0 0
-18.104530 10.970054 4.563956 21.655156 -0.544767 1.358448 -0.003933 0.004415 60402.200000 1 0 0
-15.268030 6.272554 -6.192044 17.629494 -0.389807 1.929683 0.003898 0.005951 715374.000000 1 0 0
-7.719830 11.437254 -13.000044 18.958050 -0.977066 2.326398 -0.010814 0.004540 -1363870.000000 1 0 0
-16.696230 9.099054 -2.789744 19.218208 -0.498978 1.716473 0.005100 0.005210 736404.000000 1 0 0
-20.544630 -0.703146 -4.743344 21.096813 0.034212 1.797572 0.011353 0.000245 1225930.000000 1 0 0
-15.349530 4.432254 4.222856 16.525297 -0.281109 1.312391 -0.001170 0.002945 -536817.000000 1 0 0
-6.884030 12.659554 -9.387344 17.198151 -1.072740 2.148181 0.001498 -0.005082 6319.220000 1 0 0
-17.309130 1.425254 5.773256 18.302126 -0.082156 1.249874 0.018590 -0.005415 76341.400000 1 0 0
-10.421530 14.417254 -3.150044 18.066219 -0.944898 1.746053 0.020598 -0.011079 399807.000000 1 0 0
-9.971430 8.501154 -12.980844 18.444547 -0.705973 2.351496 -0.010990 -0.002112 421927.000000 1 0 0
-13.643130 11.745554 3.019456 18.254045 -0.710796 1.404620 -0.009568 0.001959 -2331500.000000 1 0 0
-16.511330 6.845854 1.976256 17.983195 -0.393042 1.460679 -0.008797 0.004716 397224.000000 1 0 0
-9.338230 13.287654 -8.403744 18.286257 -0.958210 2.048303 0.009639 -0.012233 -1397980.000000 1 0 0
-5.684930 9.864054 -12.953744 17.245795 -1.047965 2.420560 -0.000998 0.000790 -233832.000000 1 0 0
-15.769630 1.828654 3.405156 16.236388 -0.115445 1.359504 -0.000411 0.000054 -460366.000000 1 0 0
-18.478530 -5.051046 4.619956 19.705662 0.266829 1.334145 0.015858 -0.005966 -379713.000000 1 0 0
-5.151630 14.602854 -8.938944 17.879803 -1.231645 2.094333 0.001127 -0.008540 -186224.000000 1 0 0
-15.357730 -0.688846 -6.634544 16.743701 0.044823 1.978216 -0.005907 -0.000045 573845.000000 1 0 0
-8.891330 11.027254 -9.587444 17.104828 -0.892223 2.165799 -0.004470 -0.004820 268340.000000 1 0 0
-16.486430 1.493054 -5.981444 17.601399 -0.090316 1.917530 -0.008736 -0.002413 -1568980.000000 1 0 0
-11.056130 8.623954 -1.447644 14.096321 -0.662436 1.673674 -0.007408 0.003229 -755883.000000 1 0 0
-10.659030 11.043454 -12.640144 19.883310 -0.803110 2.259732 -0.003473 -0.004047 -385699.000000 1 0 0
-13.715830 11.716054 -10.630844 20.938117 -0.706927 2.103340 0.001960 -0.007369 -110260.000000 1 0 0
-13.232730 5.732354 -7.720844 16.357764 -0.408791 2.062353 -0.000338 0.005452 -1367770.000000 1 0 0
-8.879030 15.335654 -4.957144 18.400889 -1.045976 1.843563 0.012162 -0.012267 2098650.000000 1 0 0
-8.604330 6.115754 -12.916944 16.681857 -0.617922 2.456422 -0.004983 -0.005452 440464.000000 1 0 0
-16.203930 7.615554 4.438856 18.446340 -0.439346 1.327775 -0.003915 0.008143 -258255.000000 1 0 0
-12.665830 5.479254 -10.174244 17.145282 -0.408291 2.206090 -0.002599 -0.002393 469730.000000 1 0 0
-12.515830 9.236254 -13.124944 20.352359 -0.635755 2.271670 0.016798 -0.011055 -390902.000000 1 0 0
-10.695430 5.298254 -8.568844 14.693155 -0.459941 2.193442 -0.006692 0.002867 -1025520.000000 1 0 0
-17.786630 -4.403246 -2.466744 18.488851 0.242680 1.704613 -0.004873 0.003425 821411.000000 1 0 0
-8.937130 13.241454 -10.938944 19.361531 -0.977091 2.171209 0.005340 -0.009197 52047.100000 1 0 0
-14.885730 6.123154 6.211256 17.252758 -0.390247 1.202512 -0.007062 0.000026 -1059000.000000 1 0 0
-16.313730 -3.105946 -4.312144 17.157484 0.188137 1.824848 -0.015678 0.005642 -536396.000000 1 0 0
-11.286330 -1.008246 -12.460044 16.841926 0.089097 2.403603 -0.000683 0.001105 393368.000000 1 0 0
-15.440830 6.949054 -8.579644 18.982067 -0.422891 2.039788 0.001952 0.002382 296841.000000 1 0 0
-14.795330 9.386254 1.186356 17.561634 -0.565335 1.503191 -0.006482 0.004992 -312113.000000 1 0 0
-19.384530 5.435054 7.790756 21.586933 -0.273362 1.201562 0.018951 0.000772 1096450.000000 1 0 0
-16.173930 0.597154 1.030556 16.217726 -0.036904 1.507208 0.002793 -0.002164 -1292250.000000 1 0 0
-17.478130 3.720954 7.098956 19.228253 -0.209760 1.192655 0.012996 0.001033 649083.000000 1 0 0
-15.323730 4.031354 -1.311644 15.899337 -0.257250 1.653387 -0.002539 0.003783 -1006820.000000 1 0 0
-10.860030 13.203254 0.481856 17.102583 -0.882470 1.542618 0.008260 -0.007470 76484.900000 1 0 0
-13.418430 3.373654 0.172756 13.837111 -0.246314 1.558311 -0.008627 0.003770 -207057.000000 1 0 0
-14.924330 0.266354 -4.183744 15.501944 -0.017845 1.844070 -0.011364 0.001708 -462869.000000 1 0 0
-18.534630 6.839754 3.559856 20.074544 -0.353523 1.392522 0.000116 0.009438 276018.000000 1 0 0
-14.005530 1.444554 -6.197844 15.383591 -0.102778 1.985465 -0.003947 -0.001110 -36773.100000 1 0 0
-14.259030 12.235654 5.491156 19.575085 -0.709177 1.286463 -0.007102 0.002843 -145602.000000 1 0 0
17.644570 5.373454 5.926256 19.373316 0.295615 1.259915 0.010243 -0.005973 276954.000000 1 0 0
18.500970 7.582454 -0.342744 19.997424 0.388961 1.587937 0.003655 0.002606 178216.000000 1 0 0
16.799370 5.045054 8.273756 19.393980 0.291743 1.130050 0.024365 -0.009728 597181.000000 1 0 0
11.851470 12.381254 10.741556 20.227057 0.807257 1.010958 0.000019 0.002766 504214.000000 1 0 0
-2.343130 16.274054 -0.583944 16.452236 -1.427800 1.606297 -0.005601 -0.003681 211277.000000 1 0 0
15.077670 12.544554 3.388356 19.904345 0.693948 1.399731 0.004266 -0.003118 -40368.700000 1 0 0
13.528570 11.645454 6.461456 18.983920 0.710733 1.223492 0.005822 -0.002002 646373.000000 1 0 0
-0.624030 15.853354 8.601456 18.047252 -1.531454 1.074005 -0.005497 0.002096 10772.500000 1 0 0
0.878570 12.906654 9.475656 16.035637 1.502830 0.938607 -0.002714 0.001181 -1343540.000000 1 0 0
0.799670 15.590654 -3.962444 16.106176 1.519550 1.819368 0.001312 -0.004782 -470137.000000 1 0 0
5.535270 10.117954 13.364756 17.653015 1.070202 0.711963 0.006543 -0.013692 -3365.040000 1 0 0
-1.334030 16.417954 -2.860944 16.718667 -1.489720 1.742765 -0.002133 -0.008189 -1078770.000000 1 0 0
8.631870 10.137454 3.413256 13.745089 0.865442 1.319845 0.007074 -0.002869 362540.000000 1 0 0
12.686770 13.573454 -4.916944 19.218978 0.819151 1.829511 0.021270 -0.003557 -937271.000000 1 0 0
2.540370 11.621654 7.769256 14.208366 1.355592 0.992249 0.001632 0.003679 27236.000000 1 0 0
-0.212730 14.975054 -8.509044 17.225020 -1.556592 2.087473 0.008399 -0.005569 -2334000.000000 1 0 0
2.300970 15.976354 0.237656 16.142950 1.427756 1.556074 0.006525 -0.004365 -965434.000000 1 0 0
1.874470 13.350154 5.353456 14.505163 1.431300 1.192785 -0.001762 0.003623 472303.000000 1 0 0
17.546970 9.139554 -2.208444 19.907406 0.480198 1.681961 -0.003507 0.005768 495625.000000 1 0 0
-7.084830 14.965454 7.261856 18.080215 -1.128644 1.157482 0.009294 -0.008669 -884271.000000 1 0 0
8.647170 15.911754 -0.165544 18.110353 1.072999 1.579937 0.013985 -0.001114 92601.700000 1 0 0
15.619670 10.448954 2.056656 18.904618 0.589589 1.461789 0.007077 -0.004558 -328331.000000 1 0 0
14.154070 7.478954 8.680456 18.210513 0.486105 1.073930 0.012003 -0.002448 -1267320.000000 1 0 0
3.966270 18.766054 -1.661344 19.252432 1.362508 1.657196 0.014531 -0.005051 152852.000000 1 0 0
-0.530930 17.645454 -4.890944 18.318440 -1.540717 1.841070 0.007954 -0.003378 434666.000000 1 0 0
1.375870 13.753154 -0.786044 13.844137 1.471088 1.627605 0.005018 -0.005123 -686449.000000 1 0 0
10.301670 14.875354 4.163056 18.566949 0.965100 1.344655 0.007155 -0.002222 -220157.000000 1 0 0
-1.592830 15.311454 -5.186544 16.244321 -1.467141 1.895770 0.004255 -0.005332 738892.000000 1 0 0
15.132370 8.791954 -6.258344 18.586391 0.526334 1.914224 0.008765 -0.000312 1071990.000000 1 0 0
-2.234830 18.500754 0.851256 18.654678 -1.450582 1.525148 -0.009935 -0.003105 -933596.000000 1 0 0
-3.727930 19.543454 3.528356 20.206270 -1.382310 1.395280 -0.002566 0.001068 114848.000000 1 0 0
1.816470 17.769754 -2.679744 18.062246 1.468928 1.719708 -0.001740 -0.002072 -143009.000000 1 0 0
2.980170 12.211154 3.311056 12.998338 1.331423 1.313229 0.000485 0.001238 1238180.000000 1 0 0
-2.508930 16.294954 1.852456 16.590716 -1.418026 1.458907 -0.006871 0.004772 -1531040.000000 1 0 0
11.853270 12.741154 -2.624844 17.599057 0.821484 1.720502 0.009631 0.003628 505528.000000 1 0 0
7.172070 11.687454 4.672656 14.486852 1.020396 1.242380 0.001327 0.000438 -786595.000000 1 0 0
7.079170 15.654954 1.844156 17.279848 1.146114 1.463870 0.016106 -0.005089 -884911.000000 1 0 0
5.600070 12.179354 10.251256 16.875595 1.139822 0.917937 -0.001018 0.006384 -1195250.000000 1 0 0
-1.309830 14.323954 3.122756 14.718795 -1.479607 1.357010 -0.005815 0.005194 -1554860.000000 1 0 0
4.552370 16.109954 1.496056 16.807524 1.295396 1.481667 0.008814 -0.007599 -2797890.000000 1 0 0
7.339670 13.137954 11.952356 19.218101 1.061327 0.899589 0.000007 0.004829 229796.000000 1 0 0
0.850970 17.277954 -9.337344 19.658022 1.521584 2.065748 0.013027 -0.005805 242040.000000 1 0 0
9.996770 9.424154 15.457456 20.680499 0.755922 0.726594 0.021002 -0.009868 -238645.000000 1 0 0
13.513970 7.457154 -0.227544 15.436590 0.504232 1.585537 0.004532 -0.001257 161983.000000 1 0 0
12.361270 13.534154 -0.105044 18.329903 0.830660 1.576527 0.008638 0.000910 612278.000000 1 0 0
9.262070 12.550254 3.500256 15.985825 0.935020 1.350048 0.007283 0.001506 -175658.000000 1 0 0
-0.562430 13.102154 0.736456 13.134882 -1.527896 1.514698 -0.000327 -0.002441 -614489.000000 1 0 0
15.989170 7.314354 -0.932544 17.607469 0.429038 1.623784 0.005950 0.000250 -1284950.000000 1 0 0
-3.916230 18.465254 -2.462444 19.035916 -1.361807 1.700518 -0.015042 -0.010763 -72648.400000 1 0 0
11.602870 9.119054 -3.183544 15.096976 0.666103 1.783264 0.011013 -0.003651 -17697.200000 1 0 0
14.811770 9.670354 7.588656 19.248168 0.578399 1.165541 0.009178 -0.004049 492679.000000 1 0 0
4.428070 13.834754 4.742856 15.280802 1.261031 1.255203 0.000930 0.003549 -1060450.000000 1 0 0
2.266370 15.873254 5.617456 16.989775 1.428976 1.233817 -0.000994 0.001434 -233981.000000 1 0 0
6.264870 18.404154 5.435856 20.186877 1.242695 1.298154 0.009827 -0.016641 -44603.900000 1 0 0
10.871070 17.119654 -0.907444 20.299906 1.005035 1.615513 0.017365 0.000515 -143160.000000 1 0 0
10.114170 13.492854 -4.472344 17.445785 0.927555 1.830047 0.022214 -0.001576 2827350.000000 1 0 0
16.520970 7.923654 2.334656 18.470987 0.447204 1.444061 0.005037 -0.004761 70131.500000 1 0 0
4.047970 14.178954 -0.519344 14.754610 1.292703 1.606002 0.008235 -0.003419 174439.000000 1 0 0
5.583170 13.144554 -2.363144 14.475342 1.169136 1.734783 0.008636 -0.005402 44489.700000 1 0 0
-6.078730 17.021154 -2.979944 18.318043 -1.227786 1.734201 -0.000638 -0.006213 -1092230.000000 1 0 0
18.049070 10.034954 2.601856 20.814391 0.507424 1.445466 0.004676 -0.008506 -586958.000000 1 0 0
8.061570 12.913354 9.457956 17.921958 1.012714 1.014870 -0.000483 0.002660 1259330.000000 1 0 0
-2.466330 15.864754 6.642056 17.374985 -1.416571 1.178537 -0.006235 0.004331 62903.200000 1 0 0
11.221070 16.091854 6.213156 20.578229 0.961876 1.264081 0.003092 0.000630 -26354.400000 1 0 0
13.538670 11.955854 1.321356 18.110329 0.723393 1.497770 0.013425 -0.002580 633089.000000 1 0 0
17.537570 7.827654 -5.545144 19.989676 0.419803 1.851884 0.001737 0.009783 -872251.000000 1 0 0
9.610270 9.312554 7.979056 15.580318 0.769666 1.033140 -0.003016 0.003711 -413058.000000 1 0 0
-2.084430 14.140954 -1.917944 14.421856 -1.424446 1.704180 -0.003917 -0.001982 453574.000000 1 0 0
10.936370 11.581054 0.695456 15.943922 0.814021 1.527164 0.006974 -0.002343 529348.000000 1 0 0
11.760870 9.724154 -0.560144 15.270593 0.690884 1.607486 0.007289 -0.000148 -524627.000000 1 0 0
-0.036830 16.153254 11.106656 19.603234 -1.568516 0.968456 -0.001488 -0.007502 -729862.000000 1 0 0
1.739770 20.254654 -1.981544 20.425580 1.485112 1.667962 0.005405 -0.006019 -387270.000000 1 0 0
9.351470 14.404654 1.715056 17.259359 0.994985 1.471262 0.015355 -0.000691 -521774.000000 1 0 0
8.474270 11.683554 -5.173544 15.332457 0.943281 1.914976 0.015342 -0.004461 -119947.000000 1 0 0
10.735570 10.028754 10.170256 17.867918 0.751371 0.965275 -0.005461 0.003677 384864.000000 1 0 0
-5.028430 15.794354 5.836856 17.573150 -1.262574 1.232218 -0.007815 0.001422 1002090.000000 1 0 0
14.421970 9.128954 -1.924344 17.176557 0.564324 1.683065 0.012850 0.000357 -469755.000000 1 0 0
12.217970 9.499054 6.906356 16.947229 0.660849 1.151058 0.000635 0.001307 -1484250.000000 1 0 0
3.248470 13.005954 9.797756 16.604319 1.326036 0.939647 -0.006930 0.002498 -807726.000000 1 0 0
8.576470 12.622654 -2.643444 15.487899 0.973995 1.742314 0.013656 -0.001713 -959536.000000 1 0 0
9.319070 16.992154 2.199356 19.504244 1.069156 1.457793 0.007416 -0.006098 -212798.000000 1 0 0
9.601370 14.302254 -7.518444 18.795419 0.979580 1.982329 0.018431 -0.007564 -1344340.000000 1 0 0
6.439870 11.398754 7.295956 14.987812 1.056538 1.062382 -0.000166 0.002777 -1259520.000000 1 0 0
5.513870 16.893954 -5.592644 18.630247 1.255316 1.875690 0.011381 -0.005376 -1096760.000000 1 0 0
-4.050330 17.218754 -4.701044 18.302745 -1.339768 1.830557 -0.001589 -0.009734 104608.000000 1 0 0
-0.097930 18.583254 -0.441944 18.588766 -1.565527 1.594573 -0.002586 -0.003935 -752083.000000 1 0 0
6.673170 15.623854 -2.767644 17.213247 1.167136 1.732283 0.014283 0.000674 321046.000000 1 0 0
-0.802930 20.719554 0.729056 20.747919 -1.532063 1.535650 -0.002213 -0.004635 132133.000000 1 0 0
-1.311430 18.914054 4.337056 19.449199 -1.501571 1.345911 0.001071 -0.000753 590602.000000 1 0 0
7.267570 13.736754 -4.404844 16.152976 1.084172 1.846990 0.013317 -0.002883 165104.000000 1 0 0
-0.920130 11.991054 7.739856 14.301657 -1.494212 0.998949 -0.001770 0.006480 550325.000000 1 0 0
7.689870 10.809454 11.000556 17.233416 0.952459 0.878473 0.000822 0.004173 236313.000000 1 0 0
1.565970 16.136554 -7.181644 17.731797 1.474054 1.987792 0.004213 -0.006718 -662899.000000 1 0 0
9.163870 7.101754 14.841756 18.833193 0.659293 0.663139 0.019169 -0.000287 84200.400000 1 0 0
11.420570 11.209454 -4.746844 16.691729 0.776069 1.859159 0.010343 0.000830 -140545.000000 1 0 0
-3.297130 17.075754 4.422756 17.944726 -1.380055 1.321765 -0.005915 0.002533 -851257.000000 1 0 0
3.996470 15.317954 -6.727544 17.200911 1.315584 1.972640 0.003742 -0.011214 -877435.000000 1 0 0
-4.279730 14.021254 9.630856 17.540383 -1.274547 0.989548 0.011536 -0.007065 -754723.000000 1 0 0
6.274970 17.752554 0.510056 18.835832 1.231035 1.543714 0.011511 -0.010384 -189381.000000 1 0 0
9.791970 10.563354 -2.139644 14.561772 0.823276 1.718266 0.011649 -0.003402 -296747.000000 1 0 0
7.504070 18.136254 -2.494244 19.785248 1.178484 1.697198 0.024857 0.000752 181241.000000 1 0 0
3.594870 10.365854 10.426156 15.135348 1.236976 0.810879 -0.003962 0.003831 713078.000000 1 0 0
0.082570 18.739554 2.171456 18.865124 1.566390 1.455436 0.001715 -0.003596 97650.000000 1 0 0
-0.877930 17.228554 -7.428744 18.782440 -1.519883 1.977425 0.013753 -0.003184 -6824.110000 1 0 0
10.197270 8.639854 13.068656 18.692811 0.702908 0.796620 0.007070 -0.001911 -441603.000000 1 0 0
3.825070 11.490354 5.615756 13.349012 1.249441 1.136594 -0.002586 0.003215 400311.000000 1 0 0
13.218770 13.820654 7.910256 20.695857 0.807654 1.178605 0.000968 -0.005724 33312.400000 1 0 0
-0.353730 17.407654 6.786756 18.687204 -1.550479 1.199121 -0.003503 0.000380 -504172.000000 1 0 0
12.045070 13.650954 5.643856 19.060047 0.847812 1.270180 -0.000456 -0.003383 -1518120.000000 1 0 0
4.920870 14.608954 -4.356344 16.019183 1.245894 1.846210 0.006555 -0.003922 -883963.000000 1 0 0
3.833870 17.548354 4.630656 18.549562 1.355701 1.318491 0.008913 -0.010037 -509392.000000 1 0 0
7.095170 11.756954 2.100056 13.891639 1.027817 1.419040 0.007039 -0.002037 252970.000000 1 0 0
6.636670 8.541554 11.696356 15.931362 0.910247 0.746350 0.005442 -0.002944 674580.000000 1 0 0
-5.480530 15.000554 1.752656 16.066257 -1.220508 1.461490 -0.003581 0.007259 315014.000000 1 0 0
6.749570 13.760454 5.975556 16.450351 1.114774 1.199045 0.003230 -0.000125 -1214920.000000 1 0 0
5.905370 15.865354 4.906256 17.625385 1.214467 1.288707 0.001484 -0.006408 797754.000000 1 0 0
1.221670 18.010254 4.373156 18.573805 1.503068 1.333117 0.007156 -0.003490 630046.000000 1 0 0
7.298170 18.025254 -7.039744 20.681660 1.186085 1.918124 0.009665 -0.002781 383484.000000 1 0 0
-2.506730 18.801854 -5.939344 19.876348 -1.438254 1.874247 0.009926 -0.005636 -1329300.000000 1 0 0
13.600070 9.902354 -4.527944 17.421848 0.629344 1.833715 0.006853 -0.003732 -1457280.000000 1 0 0
-1.406030 18.040854 9.913356 20.633079 -1.493018 1.069618 0.000526 -0.004683 -471847.000000 1 0 0
3.447970 11.864354 -1.491244 12.444886 1.287971 1.690913 0.009862 -0.006658 -314272.000000 1 0 0
4.193070 14.049054 -10.722044 18.163699 1.280754 2.202228 0.000071 -0.014142 -419696.000000 1 0 0
11.582370 13.408954 2.415156 17.882514 0.858357 1.435325 0.008857 -0.005021 309244.000000 1 0 0
16.015070 6.436054 -7.150744 18.682569 0.382122 1.963567 0.005162 -0.000846 335172.000000 1 0 0
2.476970 16.083254 2.979056 16.543313 1.417988 1.389732 0.005060 -0.003614 144905.000000 1 0 0
13.451170 10.560354 3.511956 17.458204 0.665582 1.368251 0.005731 -0.001182 388512.000000 1 0 0
-5.061830 19.445854 -5.813044 20.917811 -1.316144 1.852403 0.001558 -0.012185 555149.000000 1 0 0
5.465770 12.113054 0.095956 13.289467 1.146920 1.563576 0.008126 -0.003792 625864.000000 1 0 0
5.020470 15.417654 9.784056 18.937712 1.255994 1.027870 0.006503 0.001125 -109608.000000 1 0 0
7.906570 9.347154 13.897056 18.520565 0.868699 0.722193 0.007803 -0.006369 -1153880.000000 1 0 0
-4.827530 13.665654 7.175056 16.172092 -1.231220 1.111108 -0.000192 0.000826 -738392.000000 1 0 0
-4.518830 17.244654 0.546456 17.835261 -1.314516 1.540152 -0.007966 0.001762 -1161640.000000 1 0 0
-0.689330 16.661654 3.521156 17.043604 -1.529448 1.362701 -0.000165 0.002100 -2124700.000000 1 0 0
7.914970 16.855954 -4.831544 19.238341 1.131792 1.824656 0.016493 -0.000944 -18135.800000 1 0 0
3.172970 16.528554 -4.523044 17.427529 1.381135 1.833336 -0.000098 -0.004942 54103.400000 1 0 0
9.542670 14.347354 8.040256 19.014595 0.983867 1.134212 0.001500 -0.004264 175950.000000 1 0 0
12.877970 10.928854 8.926156 19.103880 0.703708 1.084626 -0.001241 -0.002429 -49705.700000 1 0 0
3.806570 12.314154 12.154956 17.716414 1.270992 0.814703 -0.003804 0.000513 479890.000000 1 0 0
-3.282930 19.188954 6.030056 20.380264 -1.401352 1.270423 0.006501 -0.003276 76157.700000 1 0 0
-2.537130 15.762754 10.315356 19.008104 -1.411208 0.997169 0.003798 -0.007243 665475.000000 1 0 0
2.042170 14.242854 7.676656 16.308292 1.428385 1.080688 0.000131 0.003184 18278.800000 1 0 0
4.545270 17.310554 7.960056 19.587681 1.314020 1.152307 0.010189 -0.003931 -21698.500000 1 0 0
-1.794430 13.413854 9.475256 16.520652 -1.437811 0.959975 -0.001282 -0.002622 -769319.000000 1 0 0
5.939670 17.709054 3.099956 18.934096 1.247184 1.406332 0.009309 -0.012743 659715.000000 1 0 0
7.279470 15.339354 -6.855344 18.310713 1.127706 1.954535 0.009312 -0.005889 -99635.100000 1 0 0
11.109570 7.570354 9.201256 16.290977 0.598151 0.970597 0.000366 -0.002444 578505.000000 1 0 0
9.181070 16.226054 -2.723344 18.841271 1.055886 1.715846 0.016982 -0.003784 -860737.000000 1 0 0
14.529170 11.331254 -6.545444 19.553438 0.662362 1.912132 0.015165 0.001615 446047.000000 1 0 0
11.405970 6.268254 15.927656 20.568845 0.502505 0.685096 0.044093 -0.006566 -260419.000000 1 0 0
8.755770 8.483754 10.175856 15.880354 0.769621 0.875279 0.003210 0.002359 -1135380.000000 1 0 0
16.445270 9.460654 4.452856 19.487915 0.522046 1.340267 0.012610 -0.004427 52426.900000 1 0 0
-3.302730 14.400454 4.550756 15.459317 -1.345346 1.272000 -0.008038 0.006284 -1057810.000000 1 0 0
4.774770 14.811254 12.712956 20.094550 1.258941 0.885817 -0.004700 0.009947 -505279.000000 1 0 0
16.095970 10.554954 -4.633144 19.797811 0.580408 1.807010 0.010729 -0.004076 -284467.000000 1 0 0
14.637070 13.938454 5.858456 21.043903 0.760955 1.288677 -0.001833 -0.004705 -397634.000000 1 0 0
6.363870 9.553054 9.306356 14.777278 0.983144 0.889533 0.001518 0.003911 1002230.000000 1 0 0
10.536670 12.079354 8.483856 18.135822 0.853505 1.084001 -0.002653 -0.000312 269230.000000 1 0 0
7.960170 11.467654 -0.350744 13.964040 0.964013 1.595917 0.008478 -0.004341 207872.000000 1 0 0
7.512070 13.401354 -8.697944 17.654510 1.059893 2.085958 0.017904 -0.006242 -898144.000000 1 0 0
2.743770 15.315654 -2.238144 15.719631 1.393529 1.713661 0.000017 -0.003895 839354.000000 1 0 0
12.199870 13.939654 -7.565844 20.009817 0.851858 1.958547 0.013917 -0.004613 790401.000000 1 0 0
-7.937030 14.801554 9.755856 19.423161 -1.078587 1.044563 0.024054 -0.014314 281785.000000 1 0 0
11.410270 9.627654 2.236556 15.095965 0.700867 1.422093 0.010480 -0.004232 -1293260.000000 1 0 0
12.048970 8.625554 4.418256 15.462822 0.621301 1.281024 0.003158 -0.002050 463848.000000 1 0 0
14.017170 7.861954 6.046756 17.171332 0.511158 1.210937 0.004330 -0.003649 -3382170.000000 1 0 0
16.206770 7.281654 7.095856 19.131991 0.422269 1.190830 0.014644 -0.005385 92459.100000 1 0 0
13.619270 8.244554 2.244456 16.077773 0.544351 1.430739 0.004740 -0.002339 -1699870.000000 1 0 0
-4.277530 17.416354 -7.255044 19.345860 -1.329959 1.955212 0.004458 -0.006200 37448.700000 1 0 0
3.021770 19.575354 -4.100644 20.227230 1.417639 1.774940 -0.002061 -0.009194 191667.000000 1 0 0
-0.081030 14.824054 6.266156 16.094218 -1.565330 1.170879 -0.001573 0.003780 604970.000000 1 0 0
6.899870 16.232254 8.192956 19.447848 1.168865 1.135942 0.010682 -0.000722 -1052150.000000 1 0 0
12.882570 15.127954 -2.137844 19.984644 0.865389 1.677976 0.015063 0.002389 -440431.000000 1 0 0
12.698770 15.735254 4.181856 20.648121 0.891785 1.366856 0.003635 -0.000883 -785106.000000 1 0 0
2.975970 18.136954 1.316856 18.426600 1.408162 1.499270 0.018608 -0.008580 -366245.000000 1 0 0
10.446070 14.555854 -1.401444 17.971013 0.948320 1.648859 0.015354 0.007739 -1842150.000000 1 0 0
-6.337930 15.885454 -0.600744 17.113676 -1.191172 1.605907 -0.003992 -0.000301 57808.700000 1 0 0
-3.876230 15.849954 -2.663344 16.532985 -1.330946 1.732594 -0.006063 -0.005434 -1371870.000000 1 0 0
-6.797130 17.253854 1.545856 18.608765 -1.195518 1.487629 -0.003182 0.005921 -753001.000000 1 0 0
-0.106330 19.559254 -6.494644 20.609612 -1.565360 1.891387 0.008333 -0.006325 -482670.000000 1 0 0
4.899270 14.850054 7.138156 17.189538 1.252125 1.142566 0.005150 0.000868 -432473.000000 1 0 0
8.672070 12.308154 6.825856 16.531418 0.957004 1.145158 -0.000586 0.000165 -1895680.000000 1 0 0
-7.446830 17.572454 -5.533744 19.871304 -1.169961 1.853007 0.009434 -0.011132 34878.600000 1 0 0
-7.787530 17.964854 -1.494544 19.637089 -1.161759 1.646978 0.011703 -0.004423 212270.000000 1 0 0
-13.790130 -9.248446 9.251456 19.007653 0.590760 1.062462 0.027251 -0.009553 1280830.000000 1 0 0
-12.473630 -12.983446 7.647756 19.561429 0.805422 1.169121 0.013319 -0.002916 -188332.000000 1 0 0
-3.982630 -15.133746 12.405756 19.969837 1.313469 0.900492 0.008309 -0.010865 131342.000000 1 0 0
-2.131930 -14.219946 14.949056 20.741897 1.421979 0.765959 0.006783 -0.003080 -546244.000000 1 0 0
-7.020230 -13.777546 12.562956 19.923159 1.099545 0.888508 0.013956 -0.017239 -65986.100000 1 0 0
-9.909130 -11.596346 9.051256 17.736723 0.863693 1.035249 0.008070 -0.008473 628765.000000 1 0 0
-10.666030 -10.713346 11.396656 18.932083 0.787611 0.924823 0.020279 -0.009017 476085.000000 1 0 0
-5.874130 -12.205546 10.704356 17.264530 1.122247 0.902028 0.009903 -0.014781 558977.000000 1 0 0
-12.435130 -10.339346 7.326156 17.754073 0.693633 1.145439 0.011977 -0.006114 -520364.000000 1 0 0
-7.603830 -11.244546 12.422856 18.400690 0.976206 0.829656 0.011814 -0.016264 -147814.000000 1 0 0
-14.712730 -11.658446 7.324256 20.150149 0.670093 1.198791 0.022243 0.003512 308807.000000 1 0 0
-11.132230 -9.196846 9.288156 17.169111 0.690482 0.999194 0.011537 -0.004860 -410952.000000 1 0 0
-5.280230 -11.859146 13.236956 18.540151 1.151903 0.775656 0.015455 -0.015852 -471164.000000 1 0 0
4.104470 -12.378346 14.857756 19.769245 -1.250620 0.720374 -0.012233 0.003748 -476984.000000 1 0 0
6.686370 -12.672546 14.266956 20.219966 -1.085293 0.787544 0.003785 0.006589 -269459.000000 1 0 0
6.732370 -8.456646 16.028956 19.333058 -0.898435 0.593308 -0.012283 0.003491 178821.000000 1 0 0
0.794070 -1.758046 14.588956 14.715941 -1.146548 0.131465 0.003588 -0.004262 -1395200.000000 1 0 0
0.092670 -6.374546 15.450556 16.714159 -1.556260 0.391339 0.004845 -0.012666 -25636.700000 1 0 0
-1.333530 -4.719446 18.289756 18.935857 1.295415 0.261978 0.015656 -0.021613 -1028400.000000 1 0 0
-5.050230 12.624954 12.952856 18.779531 -1.190273 0.809676 0.020226 -0.012235 -740532.000000 1 0 0
-4.023730 8.837054 11.692056 15.198293 -1.143523 0.693051 0.004368 -0.002337 -18555.600000 1 0 0
-0.581230 -3.927746 15.133456 15.645655 1.423882 0.256584 0.004154 -0.007825 211484.000000 1 0 0
-4.226230 9.327854 14.256056 17.552921 -1.145387 0.622924 0.008173 -0.007383 413536.000000 1 0 0
-13.302130 -2.516746 17.042556 21.765326 0.186988 0.671299 0.003334 0.007867 -45354.200000 1 0 0
-0.201230 0.851054 17.291156 17.313257 -1.338613 0.050533 0.007660 -0.002539 952285.000000 1 0 0
-3.137130 -7.389546 15.440756 17.402986 1.169319 0.479453 0.012294 -0.013835 362210.000000 1 0 0
-7.417230 5.839754 12.633456 15.770930 -0.666963 0.641733 0.002188 -0.000398 -2978000.000000 1 0 0
-9.848830 10.065654 13.534756 19.532191 -0.796285 0.805229 0.013671 -0.012495 809576.000000 1 0 0
-5.508730 2.213454 11.186356 12.664125 -0.382064 0.487918 -0.000881 0.005845 -1160690.000000 1 0 0
-6.996730 -7.702446 16.842956 19.798159 0.833372 0.553417 0.016209 -0.007225 -110574.000000 1 0 0
-4.648230 3.015454 18.653956 19.459422 -0.575483 0.288724 0.011858 -0.002689 -1593170.000000 1 0 0
1.132770 -8.436046 16.437356 18.510449 -1.437317 0.477810 -0.007582 -0.009387 478637.000000 1 0 0
-14.921930 -3.624046 13.984456 20.769273 0.238254 0.832100 0.015161 -0.007903 95213.100000 1 0 0
-14.215330 1.947254 13.043656 19.390832 -0.136135 0.832983 -0.000204 0.000581 126445.000000 1 0 0
-5.526030 0.910854 16.219356 17.159085 -0.163361 0.332484 0.011149 -0.000112 606907.000000 1 0 0
4.757070 5.769654 15.348456 17.073188 0.881295 0.453361 0.018116 -0.002851 -28726.400000 1 0 0
-1.201830 -12.074246 13.800356 18.376116 1.471586 0.721230 0.006693 -0.007398 -11642.700000 1 0 0
-5.688630 -4.143146 16.789756 18.205002 0.629481 0.396908 0.020284 -0.011063 228146.000000 1 0 0
-12.725730 -1.627246 10.035156 16.287925 0.127180 0.907002 0.006219 -0.001409 -1109240.000000 1 0 0
-14.595130 10.332354 10.347756 20.660383 -0.616029 1.046216 -0.011874 0.010501 527915.000000 1 0 0
-3.406030 -3.371546 17.773556 18.408359 0.780310 0.263380 0.020701 -0.012533 -1888560.000000 1 0 0
-7.875530 9.430854 12.010556 17.181922 -0.875027 0.796766 0.008359 -0.007872 -125748.000000 1 0 0
-3.834430 10.591954 16.529356 20.002799 -1.223459 0.598197 0.010285 -0.007563 288312.000000 1 0 0
-12.498730 12.720354 8.309656 19.674248 -0.794186 1.134747 0.002452 -0.006493 252098.000000 1 0 0
-12.485030 3.223954 10.644556 16.720539 -0.252705 0.880695 0.000539 0.001936 770170.000000 1 0 0
-10.016330 -3.566846 13.748056 17.379825 0.342102 0.658297 0.006296 -0.001096 -729075.000000 1 0 0
-4.212530 -6.567946 17.734156 19.374819 1.000507 0.414495 0.023640 -0.013243 483.573000 1 0 0
0.851670 -3.628046 17.666356 18.055144 -1.340225 0.207899 0.000762 -0.019141 -1027330.000000 1 0 0
-5.946030 1.760654 13.725856 15.061683 -0.287880 0.424343 0.002844 0.003313 -656587.000000 1 0 0
-10.574830 8.710954 10.301756 17.141585 -0.689052 0.926069 0.002698 -0.010726 214066.000000 1 0 0
4.565370 2.558854 17.221856 17.999519 0.510863 0.295023 0.014217 -0.010810 -607862.000000 1 0 0
0.590970 -5.285546 13.194156 14.225752 -1.459450 0.383171 0.000705 -0.004694 950099.000000 1 0 0
-4.139630 5.720354 20.758456 21.926525 -0.944363 0.327877 0.033804 -0.012042 120673.000000 1 0 0
-10.757130 10.870554 9.146556 17.819772 -0.790643 1.031792 0.009272 -0.010846 576772.000000 1 0 0
0.740370 4.191454 13.168956 13.839720 1.395962 0.312612 0.006393 -0.003454 -2043150.000000 1 0 0
-3.132730 7.090654 13.401656 15.482111 -1.154773 0.524405 0.004335 0.000625 -283371.000000 1 0 0
0.711170 8.843054 14.160056 16.709655 1.490548 0.559694 0.005891 -0.004693 239296.000000 1 0 0
-4.045030 -6.740846 13.117356 15.292688 1.030320 0.539913 0.009152 -0.007890 112032.000000 1 0 0
-4.993930 8.235854 16.606956 19.197907 -1.025710 0.525566 0.017589 -0.000228 714507.000000 1 0 0
1.728470 -10.838146 15.693156 19.150148 -1.412648 0.610294 -0.008786 -0.001205 -572451.000000 1 0 0
-14.991830 -1.049046 14.346856 20.777097 0.069861 0.808598 0.000622 0.003980 235668.000000 1 0 0
-13.369430 -5.238746 8.651956 16.764321 0.373457 1.028513 0.013799 -0.006127 -1329260.000000 1 0 0
-13.942230 -1.927246 12.270756 18.672748 0.137360 0.853768 0.010854 0.000288 356823.000000 1 0 0
9.500270 1.407454 17.081256 19.596055 0.147079 0.512201 0.013840 0.000020 682004.000000 1 0 0
5.127670 -6.673246 16.620856 18.630032 -0.915628 0.468705 -0.012546 -0.011003 -470337.000000 1 0 0
-5.997430 -2.668946 11.075656 12.874883 0.418701 0.535031 0.001483 0.001523 550431.000000 1 0 0
0.783070 -6.268546 17.994756 19.071422 -1.446520 0.337620 0.002283 -0.015653 -138160.000000 1 0 0
-8.560030 11.952754 12.143256 19.068327 -0.949310 0.880418 0.018435 -0.013625 219795.000000 1 0 0
-6.591930 -5.862146 15.042156 17.438026 0.726867 0.530396 0.018701 -0.006250 -359568.000000 1 0 0
-4.122230 -9.097446 17.172356 19.865702 1.145351 0.526796 0.020234 -0.010590 312840.000000 1 0 0
2.634370 -6.233346 16.193856 17.550940 -1.170939 0.395828 -0.010833 -0.009838 544932.000000 1 0 0
2.287170 5.286254 16.095756 17.095292 1.162452 0.343649 0.013806 -0.005969 -114816.000000 1 0 0
1.101570 -8.910346 14.021056 16.649257 -1.447792 0.569551 -0.002460 -0.005942 -307187.000000 1 0 0
-9.784330 -2.892046 11.341356 15.255275 0.287396 0.732599 -0.006740 0.000247 -439282.000000 1 0 0
-1.149730 10.143754 12.439056 16.091853 -1.457934 0.687235 0.001419 -0.006033 -809646.000000 1 0 0
-12.319430 -3.803546 11.376156 17.194541 0.299459 0.847827 0.013634 -0.002811 -84871.900000 1 0 0
-1.753630 6.668554 20.075456 21.226605 -1.313648 0.330844 0.021975 -0.011182 -601909.000000 1 0 0
0.094170 -13.298346 15.736856 20.603483 -1.563715 0.701623 -0.011988 -0.008090 -855224.000000 1 0 0
4.160070 -8.732746 15.362156 18.153867 -1.126226 0.561947 -0.006262 -0.001205 -418243.000000 1 0 0
4.498070 -4.376346 16.143356 17.320306 -0.771683 0.370772 -0.012952 -0.003914 -673547.000000 1 0 0
8.098270 1.994754 14.821956 17.007393 0.241511 0.512542 0.007812 -0.003217 -132873.000000 1 0 0
-6.240230 -0.106046 11.877356 13.417277 0.016992 0.483811 0.000574 0.006276 318700.000000 1 0 0
-3.204530 -11.085346 18.204256 21.553396 1.289390 0.564956 0.017488 -0.011861 -986928.000000 1 0 0
3.335570 -1.481146 13.653156 14.132534 -0.417891 0.261203 -0.004152 -0.001617 619192.000000 1 0 0
-2.452930 8.540354 16.066356 18.359802 -1.291108 0.505188 0.015657 -0.006235 -1314370.000000 1 0 0
-3.145830 4.111654 14.839356 15.716502 -0.917701 0.335671 0.006308 -0.001944 581097.000000 1 0 0
-4.108930 -9.202646 19.801556 22.218768 1.150862 0.470794 0.023129 -0.009228 -349227.000000 1 0 0
-5.604530 -3.314046 19.168656 20.244284 0.534009 0.327444 0.024781 -0.010086 -592608.000000 1 0 0
-6.571930 -8.674946 11.103756 15.547937 0.922464 0.775369 0.007894 -0.009369 -78816.100000 1 0 0
-11.569030 2.525054 12.810256 17.444799 -0.214890 0.746116 0.001813 -0.005056 -19442.200000 1 0 0
-11.499430 -7.712846 11.669356 18.107975 0.590800 0.870516 0.011416 -0.005270 -567685.000000 1 0 0
-10.914430 -7.269646 15.864856 20.583153 0.587581 0.690749 0.022767 -0.006860 132055.000000 1 0 0
0.341970 5.846254 17.749856 18.690988 1.512369 0.318686 0.011909 -0.007516 -263559.000000 1 0 0
-2.065030 -0.143846 13.310556 13.470559 0.069546 0.154282 0.004830 0.001002 154330.000000 1 0 0
-5.775930 -10.755146 18.502756 22.167240 1.077959 0.583228 0.018806 0.001479 483486.000000 1 0 0
0.333370 2.569154 19.309256 19.482276 1.441759 0.133372 0.013182 -0.007486 -274707.000000 1 0 0
-0.598930 10.939854 14.900356 18.494857 -1.516103 0.634027 0.014084 -0.005294 327056.000000 1 0 0
-12.685330 -2.377346 14.428556 19.358528 0.185260 0.729762 0.011901 -0.000148 -981106.000000 1 0 0
-13.571830 8.476654 11.819356 19.893351 -0.558295 0.934605 -0.008929 -0.002123 -451049.000000 1 0 0
-17.921430 -0.768546 7.024556 19.264286 0.042858 1.197549 0.021384 -0.007398 -322240.000000 1 0 0
-1.927730 -7.891446 17.699556 19.474737 1.331208 0.430285 0.009743 -0.013728 -1841280.000000 1 0 0
5.681870 2.612654 14.482456 15.775017 0.430993 0.407630 0.012794 -0.004806 -2158800.000000 1 0 0
-13.889930 -6.862946 11.060556 19.035916 0.458913 0.950795 0.011865 -0.010279 277231.000000 1 0 0
3.326070 7.708454 16.448656 18.467304 1.163447 0.471934 0.014729 -0.013469 -119879.000000 1 0 0
1.015970 2.101254 14.668156 14.852686 1.120430 0.157796 0.006707 -0.008482 -2345290.000000 1 0 0
-14.279830 0.612254 9.858756 17.363279 -0.042849 0.966973 0.007403 -0.002087 -2658760.000000 1 0 0
-9.411130 -5.237946 15.687056 19.028641 0.507873 0.601669 0.013031 0.000299 -231903.000000 1 0 0
-2.497430 -0.078446 18.171956 18.342936 0.031400 0.136644 0.013354 -0.004657 279338.000000 1 0 0
6.866970 3.729254 17.645556 19.298401 0.497508 0.416888 0.024250 -0.003864 -285692.000000 1 0 0
-4.170830 -0.819146 14.810956 15.408804 0.193931 0.279473 0.009522 0.002802 -68383.600000 1 0 0
4.768870 -8.840846 17.898256 20.524382 -1.076117 0.511424 -0.012227 0.002977 -246823.000000 1 0 0
1.984470 6.887954 13.517956 15.300888 1.290286 0.487567 0.007744 -0.001442 -2126630.000000 1 0 0
-3.740930 -0.977646 20.277056 20.642417 0.255621 0.188425 0.027178 -0.010326 -65720.700000 1 0 0
-10.516830 1.549454 16.274056 19.438349 -0.146279 0.578628 0.010872 -0.006612 -457329.000000 1 0 0
-3.715330 7.113654 18.547956 20.209761 -1.089483 0.408363 0.019798 -0.001539 -710022.000000 1 0 0
-12.578030 1.119654 14.841656 19.486796 -0.088783 0.704977 0.008445 -0.000361 -1912340.000000 1 0 0
-15.810530 -4.961546 8.573856 18.657460 0.304080 1.093319 0.020276 -0.012349 -1280960.000000 1 0 0
-2.359330 0.784354 15.747956 15.943017 -0.320953 0.156588 0.008394 -0.001905 201425.000000 1 0 0
-13.642230 -9.070146 12.422456 20.559558 0.586749 0.922012 0.006105 -0.007923 453459.000000 1 0 0
6.125570 -3.122946 14.451456 16.003749 -0.471474 0.444084 -0.009818 -0.000445 431907.000000 1 0 0
-15.740930 0.554854 7.656256 17.512938 -0.035235 1.118339 0.014477 -0.005044 435627.000000 1 0 0
-14.081130 5.972254 12.533256 19.774442 -0.401135 0.884326 -0.003679 -0.003333 -159128.000000 1 0 0
0.449970 9.336554 16.773256 19.201975 1.522639 0.508415 0.013840 -0.013807 -393357.000000 1 0 0
-10.319330 -5.539746 10.941856 16.028150 0.492677 0.819393 0.003936 -0.005000 329438.000000 1 0 0
-3.190930 -10.843146 14.911256 18.710997 1.284595 0.648609 0.013450 -0.015193 -1675320.000000 1 0 0
-3.507430 2.666354 12.692256 13.435210 -0.649998 0.334115 0.002777 0.004908 -1881640.000000 1 0 0
-12.347030 -7.801046 7.498656 16.417531 0.563485 1.096461 0.016648 -0.007496 -207206.000000 1 0 0
-8.149130 -1.898746 13.240656 15.662967 0.228916 0.563580 0.002457 0.001361 -217326.000000 1 0 0
-9.689130 6.400254 9.739956 15.156162 -0.583763 0.872857 -0.004178 -0.004859 -825280.000000 1 0 0
-17.953930 -3.930146 6.765856 19.584853 0.215502 1.218063 0.025979 -0.012226 332827.000000 1 0 0
-1.353730 0.007054 20.524456 20.569053 -0.005211 0.065862 0.015282 0.000640 -924310.000000 1 0 0
-2.832230 2.584154 20.285456 20.644591 -0.739629 0.186798 0.024638 -0.003739 -595021.000000 1 0 0
-3.645130 11.247954 11.305056 16.358721 -1.257405 0.807825 0.006753 -0.011212 -1132150.000000 1 0 0
-4.068630 -4.940646 14.945256 16.258057 0.881889 0.404619 0.014959 -0.009898 108471.000000 1 0 0
-0.152430 -14.439646 13.360656 19.673174 1.560240 0.824219 -0.001722 -0.004317 532189.000000 1 0 0
-12.044630 0.397254 8.524056 14.761113 -0.032970 0.955174 0.001694 -0.000716 -245704.000000 1 0 0
-7.795030 2.074554 15.492056 17.466255 -0.260109 0.480052 0.010107 0.001866 -862355.000000 1 0 0
3.613970 -2.252446 18.413256 18.899267 -0.557348 0.227274 -0.000787 -0.006222 -308900.000000 1 0 0
-2.078430 4.844854 12.562756 13.624072 -1.165545 0.397323 -0.002790 0.003434 -178006.000000 1 0 0
-10.319830 -6.324446 13.448556 18.093125 0.549810 0.732812 0.008480 -0.003931 -443626.000000 1 0 0
2.523870 -3.725246 14.281356 14.973461 -0.975328 0.305230 -0.006722 -0.003005 -404955.000000 1 0 0
6.817970 1.236854 17.054756 18.408673 0.179459 0.385921 0.007910 -0.003664 512868.000000 1 0 0
-1.850830 -5.750046 13.846256 15.106536 1.259388 0.411370 0.005916 -0.008679 -2285130.000000 1 0 0
-12.979630 3.738654 14.508556 19.822879 -0.280449 0.749676 0.001265 0.000027 275209.000000 1 0 0
-13.191930 -6.646746 13.430356 19.964486 0.466722 0.832928 0.011799 -0.007624 -503920.000000 1 0 0
-9.629930 7.010354 12.201856 17.051859 -0.629256 0.773352 0.008415 -0.001535 -700218.000000 1 0 0
-0.964630 -2.466846 12.966256 13.234034 1.198040 0.201507 0.003944 -0.001476 314977.000000 1 0 0
0.174370 6.681454 15.372256 16.762413 1.544705 0.410135 0.008767 -0.005689 452686.000000 1 0 0
-16.305530 -1.092446 9.695556 19.001778 0.066899 1.035327 0.016634 -0.001630 -227406.000000 1 0 0
-1.266230 2.786854 13.819256 14.154213 -1.144324 0.217985 0.003070 -0.000558 -2847510.000000 1 0 0
-11.016830 -3.350646 16.188556 19.866221 0.295250 0.618277 0.009267 -0.003833 -506957.000000 1 0 0
-5.157730 -1.516746 17.207956 18.028213 0.286010 0.302813 0.023515 -0.000448 200635.000000 1 0 0
-11.926230 6.713454 11.203456 17.686799 -0.512705 0.884811 -0.001855 -0.001148 -2581310.000000 1 0 0
-2.704930 4.710454 18.732456 19.504101 -1.049534 0.282230 0.018712 -0.005761 201765.000000 1 0 0
5.184970 -1.845446 16.374356 17.274523 -0.341941 0.324248 -0.008420 -0.002452 -695563.000000 1 0 0
-7.895430 -4.231246 12.190456 15.127739 0.491962 0.633713 0.005345 -0.001206 -2397010.000000 1 0 0
-11.541930 -0.784346 16.233356 19.933720 0.067852 0.619159 0.019718 0.001422 284100.000000 1 0 0
2.119370 2.064454 17.540656 17.788432 0.772273 0.167102 0.009149 -0.006767 -926273.000000 1 0 0
-8.855030 -7.612146 11.719556 16.544012 0.710065 0.783587 0.008323 -0.007332 598891.000000 1 0 0
-7.177130 6.980754 15.038056 18.066136 -0.771529 0.587391 -0.000247 -0.000176 -353617.000000 1 0 0
-5.582730 3.432454 15.730356 17.040913 -0.551256 0.394748 0.007717 -0.001679 698712.000000 1 0 0
-9.335430 4.294454 11.830656 15.670259 -0.431153 0.715180 -0.003027 -0.002177 7500.600000 1 0 0
-10.288730 0.119254 14.068656 17.429839 -0.011590 0.631472 0.009349 -0.002811 -218765.000000 1 0 0
8.235370 -0.477146 15.806456 17.829556 -0.057874 0.481003 -0.000560 0.000019 108642.000000 1 0 0
-8.524730 -7.545546 14.847656 18.709869 0.724542 0.654137 0.023491 -0.006300 -2522370.000000 1 0 0
-0.058030 4.140154 15.778256 16.312499 -1.556781 0.256635 0.006097 -0.004536 196587.000000 1 0 0
-7.867230 3.261454 9.800456 12.983810 -0.392996 0.715415 -0.006553 0.002410 -400932.000000 1 0 0
-1.934530 -9.715446 13.053256 16.386574 1.374248 0.649176 0.000556 -0.007624 332819.000000 1 0 0
-5.975530 10.302254 10.597656 15.942199 -1.045196 0.843631 0.015412 -0.012426 -1849470.000000 1 0 0
-8.406430 -2.878046 15.693656 18.034469 0.329855 0.515181 0.013759 -0.003888 261957.000000 1 0 0
4.152670 5.668854 17.838856 19.173038 0.938563 0.375256 0.022985 -0.012636 269284.000000 1 0 0
-6.748930 -1.031546 15.296656 16.751115 0.151672 0.419795 0.009588 0.001957 -1391410.000000 1 0 0
-0.788730 -10.044346 15.468356 18.460256 1.492432 0.577321 -0.004433 -0.007637 147906.000000 1 0 0
-4.327130 5.750954 16.383556 17.894648 -0.925749 0.413908 0.013123 0.000399 84504.500000 1 0 0
3.896770 0.086754 17.465156 17.894805 0.022259 0.219574 0.008477 -0.005956 -457741.000000 1 0 0
1.419770 0.156454 19.234856 19.287818 0.109754 0.074123 0.004857 -0.002544 -280569.000000 1 0 0
-6.225630 6.427854 18.022856 20.122105 -0.801378 0.460851 0.003798 0.003007 -14838.400000 1 0 0
-11.969930 0.591954 11.009256 16.273701 -0.049413 0.827789 0.007407 -0.001988 130759.000000 1 0 0
-5.398930 5.278554 13.981356 15.889931 -0.774125 0.495170 0.003192 0.000473 -440336.000000 1 0 0
-8.633930 -9.609246 10.017656 16.347348 0.838809 0.911197 0.010958 -0.006925 61805.900000 1 0 0
6.851370 -3.583546 17.002256 18.677789 -0.481910 0.426806 -0.014114 0.000026 -976061.000000 1 0 0
-16.642830 1.593454 9.862256 19.411002 -0.095453 1.037847 0.009110 -0.002543 301141.000000 1 0 0
-4.043430 -9.602646 11.438056 15.472210 1.172255 0.738819 0.006895 -0.006876 344156.000000 1 0 0
-10.929330 -3.873246 9.267556 14.843850 0.340580 0.896515 0.002569 -0.001776 -498901.000000 1 0 0
3.919570 -5.400046 18.476656 19.644601 -0.942938 0.346561 -0.007063 -0.008376 64293.700000 1 0 0
2.566670 -1.736746 16.113056 16.408372 -0.594885 0.190011 -0.002223 -0.005623 -685727.000000 1 0 0
-2.811930 -4.226846 20.342356 20.966274 0.983772 0.244569 0.027453 -0.009969 -824375.000000 1 0 0
-6.130830 -3.344046 14.361256 15.969202 0.499341 0.452608 0.008990 -0.002340 818608.000000 1 0 0
-9.488230 5.253954 14.122156 17.806343 -0.505705 0.654919 0.002308 -0.002633 70123.000000 1 0 0
-5.767330 -5.245846 11.832756 14.170219 0.738083 0.582584 0.007536 -0.003193 -320046.000000 1 0 0
5.941770 1.947754 19.361356 20.346019 0.316769 0.312382 0.016570 -0.012495 260436.000000 1 0 0
-2.619530 11.937854 13.645556 18.318720 -1.354789 0.730416 0.011104 -0.012126 -1585140.000000 1 0 0
3.333270 1.362954 15.227656 15.647679 0.388150 0.232222 0.001915 -0.006579 -1310610.000000 1 0 0
-5.740130 7.731354 13.058556 16.224944 -0.932146 0.635383 0.001682 -0.003169 -1174570.000000 1 0 0
-1.793930 -1.750846 15.304356 15.508287 0.773245 0.162350 0.009042 -0.003405 -471027.000000 1 0 0
-7.373830 10.709154 14.139756 19.209166 -0.967794 0.743514 0.029963 -0.015700 -173334.000000 1 0 0
-10.023030 2.210054 10.651956 14.792216 -0.217025 0.766842 -0.005228 0.000705 -663698.000000 1 0 0
-13.523730 5.162454 9.225956 17.165677 -0.364660 1.003368 -0.010700 -0.001750 29946.200000 1 0 0
0.791170 -4.776046 20.012356 20.589584 -1.406633 0.237348 0.008529 -0.017510 -62764.600000 1 0 0
-14.327730 -3.027146 7.561456 16.480991 0.208217 1.094154 0.014697 -0.010327 -426743.000000 1 0 0
-2.259430 2.471854 17.677556 17.991973 -0.830266 0.187224 0.006589 -0.001856 -327900.000000 1 0 0
-6.115030 -8.422946 14.478356 17.831501 0.942835 0.623305 0.014930 -0.010800 -319045.000000 1 0 0
-7.931230 2.002954 12.084956 14.593231 -0.247368 0.595050 -0.003930 0.001816 -477416.000000 1 0 0
-14.567130 -3.372546 10.116756 18.053368 0.227509 0.975951 0.019449 -0.010458 143068.000000 1 0 0
-0.482630 6.887054 12.865356 14.600748 -1.500833 0.492521 0.002059 -0.002677 -1235290.000000 1 0 0
-1.603630 -2.242646 19.200556 19.397486 0.950033 0.142615 0.018666 -0.013809 -311112.000000 1 0 0
-12.769230 10.334154 7.312156 17.980979 -0.680387 1.152000 -0.008047 -0.008607 320082.000000 1 0 0
-19.674730 2.226054 6.735056 20.914380 -0.112664 1.242923 0.031437 -0.007704 1661840.000000 1 0 0
-15.946330 8.326254 6.928356 19.277294 -0.481204 1.203166 -0.005090 0.010967 258260.000000 1 0 0
-12.188130 7.437054 13.680956 19.774449 -0.547877 0.806748 0.000215 -0.004244 -341710.000000 1 0 0
-15.813730 8.127554 10.690756 20.746649 -0.474750 1.029438 -0.014215 0.008776 -1277220.000000 1 0 0
2.026070 10.671554 15.128056 18.623778 1.383172 0.622715 0.003747 -0.011675 -196642.000000 1 0 0
2.205970 14.391854 12.562256 19.230238 1.418701 0.858920 -0.011643 -0.003685 -766654.000000 1 0 0
-2.946230 13.622254 11.831356 18.281878 -1.357796 0.866939 -0.004224 -0.010205 -109684.000000 1 0 0
9.224670 4.776954 15.772756 18.886336 0.477822 0.582407 0.020097 -0.001437 403929.000000 1 0 0
-0.209730 12.538654 12.973756 18.043841 -1.554071 0.768415 0.000537 -0.008319 -561542.000000 1 0 0
3.675170 13.442354 14.497256 20.109058 1.303916 0.765651 -0.008024 0.000244 167034.000000 1 0 0
-3.001330 -4.106146 -13.722644 14.634868 0.939608 2.786654 -0.004282 -0.001578 -253626.000000 1 0 0
5.956670 -11.335846 16.302856 20.730809 -1.086979 0.665825 -0.007544 0.004132 312697.000000 1 0 0
7.934570 -13.555846 7.231956 17.292182 -1.041237 1.139310 -0.011322 -0.006445 2965.960000 1 0 0
-0.092730 15.726754 1.265056 15.777825 -1.564900 1.490531 -0.002925 0.000585 -4212870.000000 1 0 0
-13.627830 8.137254 9.257556 18.374847 -0.538289 1.042785 -0.012420 0.002505 457877.000000 1 0 0
-15.356430 -9.886046 4.960956 18.925246 0.571985 1.305563 0.009480 0.000624 -847144.000000 1 0 0
9.319770 -11.065846 11.023856 18.188911 -0.870842 0.919679 -0.012729 -0.000367 -167518.000000 1 0 0
-4.891630 -10.766046 -16.639244 20.413236 1.144325 2.523733 0.009594 0.005485 36370.800000 1 0 0
-1.802730 -12.696946 -14.571744 19.411285 1.429758 2.419893 0.003942 0.007344 5377.830000 1 0 0
5.115870 -15.956246 -12.070044 20.650905 -1.260532 2.195036 -0.018169 0.015493 290225.000000 1 0 0
2.529570 -11.572846 -16.794344 20.551873 -1.355603 2.527278 -0.014900 0.013357 219544.000000 1 0 0
1.475770 -14.292446 -15.021944 20.787273 -1.467906 2.378426 0.029716 0.035026 340897.000000 1 0 0
-6.526330 -5.859746 -14.335144 16.805533 0.731633 2.592506 0.005734 -0.002134 43939.000000 1 0 0
-6.395830 -8.199146 -16.683644 19.659008 0.908332 2.584227 -0.000698 -0.005094 -18495.000000 1 0 0
-2.452830 -16.401646 -13.373644 21.304570 1.422349 2.249438 0.006582 0.011949 316135.000000 1 0 0
16.003970 -8.112246 -9.085444 20.111710 -0.469144 2.039521 -0.000629 0.003265 -37053.100000 1 0 0
19.085170 -3.039446 -3.676644 19.672307 -0.157931 1.758796 -0.003124 -0.005649 132259.000000 1 0 0
15.702470 -11.605146 -9.149244 21.562830 -0.636466 2.008992 0.019038 0.002522 190044.000000 1 0 0
18.258870 -3.830546 -7.180644 19.990524 -0.206792 1.938209 0.108113 -0.002988 -333688.000000 1 0 0
8.601970 -9.726946 -16.021344 20.622580 -0.846698 2.460497 0.024926 0.000780 210593.000000 1 0 0
-4.631830 9.782954 -16.140944 19.434250 -1.128606 2.550875 -0.006374 -0.001543 444094.000000 1 0 0
1.518270 -9.825446 -18.888644 21.345383 -1.417485 2.657087 -0.001933 0.022063 411647.000000 1 0 0
11.149770 8.074954 -15.127244 20.453747 0.626801 2.403247 0.025628 -0.025709 362969.000000 1 0 0
18.240070 -6.545946 -9.024744 21.377455 -0.344561 2.006625 0.000587 0.015621 -62553.900000 1 0 0
12.953370 5.614354 -13.495844 19.530708 0.408988 2.333677 0.024453 -0.013573 93807.900000 1 0 0
15.570370 6.487654 -10.667244 19.957860 0.394791 2.134699 -0.014117 -0.009233 87934.300000 1 0 0
3.360370 -0.252946 -19.329644 19.621192 -0.075132 2.968990 0.009375 0.001097 163830.000000 1 0 0
10.200470 -1.288446 -15.477744 18.581449 -0.125647 2.555246 0.010282 0.015146 260242.000000 1 0 0
11.909570 -6.256146 -14.229744 19.582207 -0.483685 2.384254 0.016342 0.003172 413198.000000 1 0 0
10.200670 6.476554 -12.950244 17.711810 0.565697 2.390823 0.015435 -0.003009 543807.000000 1 0 0
10.155870 5.513854 -16.856444 20.437318 0.497393 2.540623 -0.012048 0.016513 240129.000000 1 0 0
11.995270 -9.679946 -14.714444 21.309686 -0.678983 2.332983 0.045324 -0.022460 335575.000000 1 0 0
-1.718430 2.087054 -17.470944 17.678876 -0.881963 2.988069 -0.008406 0.002729 273367.000000 1 0 0
6.344470 -1.298546 -17.165244 18.346229 -0.201885 2.780830 0.001806 0.011122 62492.700000 1 0 0
6.043670 -5.621946 -15.800344 17.826471 -0.749263 2.660180 -0.022665 -0.006691 161657.000000 1 0 0
-2.506930 -4.710246 -20.147144 20.841749 1.081699 2.882693 0.018110 -0.021132 170034.000000 1 0 0
15.577470 -0.276046 -13.265444 20.462301 -0.017719 2.276129 -0.001433 0.003826 82221.200000 1 0 0
-3.906030 -0.502246 -18.578544 18.991356 0.127881 2.932710 -0.009882 0.006273 86199.200000 1 0 0
3.258970 8.817354 -17.785244 20.116697 1.216761 2.655368 -0.007789 -0.007438 -252789.000000 1 0 0
9.791370 0.315054 -17.072144 19.683198 0.032166 2.620641 0.011461 -0.005402 -109626.000000 1 0 0
4.206170 4.902854 -18.435944 19.534939 0.861732 2.804566 -0.001435 0.010386 405727.000000 1 0 0
-2.742930 -11.145146 -17.909644 21.271889 1.329482 2.571664 0.018518 -0.006519 85306.900000 1 0 0
5.683170 -9.529646 -16.340444 19.751523 -1.033052 2.545081 -0.002505 0.005404 190839.000000 1 0 0
9.834870 -12.632246 -10.787044 19.304368 -0.909270 2.163720 0.004527 0.006179 209959.000000 1 0 0
6.062070 6.876454 -17.055844 19.363267 0.848258 2.648419 0.002724 -0.003087 250923.000000 1 0 0
8.150070 1.790454 -20.157244 21.816137 0.216250 2.749105 -0.012524 0.005032 206256.000000 1 0 0
-0.788230 -1.024946 -20.460544 20.501358 0.915217 3.078482 0.009291 0.002061 155529.000000 1 0 0
-1.120530 7.127854 -19.503244 20.795153 -1.414868 2.787249 -0.001587 -0.001015 -270748.000000 1 0 0
8.345870 5.724954 -18.243744 20.862953 0.601243 2.635110 -0.003265 0.001715 62145.400000 1 0 0
11.469070 0.050954 -12.834244 17.212204 0.004443 2.412303 -0.033675 0.003425 -176396.000000 1 0 0
-4.643230 -2.733946 -20.015044 20.727663 0.532145 2.878614 0.001810 0.005887 322623.000000 1 0 0
5.505170 -11.299846 -14.403844 19.117116 -1.117449 2.424094 -0.016345 0.004676 85434.800000 1 0 0
11.370970 3.109954 -15.794644 19.708920 0.266971 2.500421 0.014811 0.009078 -254295.000000 1 0 0
-3.101030 -4.403446 -17.082544 17.911449 0.957238 2.836177 -0.005412 -0.003274 378835.000000 1 0 0
-7.069130 -4.974346 -17.288444 19.328916 0.613186 2.677961 0.017269 -0.002496 61585.900000 1 0 0
2.977070 10.237754 -15.166844 18.539355 1.287807 2.528877 -0.007921 -0.012812 87068.100000 1 0 0
16.921470 -6.244946 -11.134044 21.196755 -0.353548 2.123830 0.027377 -0.003248 8798.500000 1 0 0
9.206470 -3.354046 -17.738544 20.264862 -0.349369 2.636925 -0.012683 -0.013419 140193.000000 1 0 0
-7.393230 -1.394146 -18.443944 19.919401 0.186382 2.754283 -0.005819 0.005707 715637.000000 1 0 0
1.683370 -7.503446 -19.223944 20.704962 -1.350104 2.761069 0.008665 -0.012166 247771.000000 1 0 0
5.622570 10.157954 -14.109444 18.272212 1.065259 2.453062 0.005244 -0.009851 392493.000000 1 0 0
6.018870 -3.982146 -17.883344 19.284664 -0.584494 2.758024 0.010971 -0.018595 596984.000000 1 0 0
4.773370 13.443454 -14.614644 20.423010 1.229612 2.368275 0.004051 -0.011796 35246.300000 1 0 0
9.000270 11.178754 -15.489444 21.116161 0.892939 2.394305 0.033577 -0.019568 78347.300000 1 0 0
16.909270 1.049854 -11.528744 20.492378 0.062008 2.168308 0.007761 0.008972 70595.900000 1 0 0
14.861770 -3.022546 -12.535144 19.675818 -0.200641 2.261505 0.014645 0.006483 135518.000000 1 0 0
-8.901330 0.394054 -17.361744 19.514587 -0.044240 2.667441 -0.001724 0.008306 376252.000000 1 0 0
-3.452730 4.564754 -19.294144 20.125166 -0.923219 2.853218 0.011168 0.013215 221200.000000 1 0 0
3.958770 1.942954 -16.777144 17.347031 0.456258 2.884557 -0.003969 0.000230 451632.000000 1 0 0
-5.379430 14.417354 -13.530144 20.490562 -1.213673 2.292029 0.007071 -0.012409 83510.100000 1 0 0
1.100470 9.763554 -17.553844 20.116546 1.458558 2.631311 0.001979 -0.000907 62760.100000 1 0 0
0.654670 -5.345346 -20.486244 21.182245 -1.448928 2.884535 0.003726 0.014085 348968.000000 1 0 0
3.344270 -6.136346 -18.185444 19.482024 -1.071805 2.774702 0.006431 -0.015966 -444049.000000 1 0 0
-6.672630 7.802754 -15.803344 18.845493 -0.863312 2.565457 -0.013293 0.002710 -87279.100000 1 0 0
-11.663730 3.610154 -17.072344 20.989062 -0.300167 2.520757 0.009597 -0.002458 310791.000000 1 0 0
-4.086330 6.931054 -17.573444 19.327791 -1.038082 2.712231 -0.004169 0.020050 373448.000000 1 0 0
-8.098430 5.590154 -17.512344 20.087722 -0.604170 2.629648 -0.007350 -0.003580 353506.000000 1 0 0
-8.202530 4.303154 -14.867444 17.516835 -0.483144 2.584416 -0.021373 -0.015361 437924.000000 1 0 0
9.436470 13.379154 -12.523344 20.612687 0.956515 2.223775 0.039809 -0.030207 383518.000000 1 0 0
14.028970 9.299954 -12.238244 20.810472 0.585398 2.199480 0.031119 -0.008123 83174.600000 1 0 0
8.736470 15.635554 -9.935944 20.482173 1.061255 2.077276 0.017524 -0.010757 83430.600000 1 0 0
7.709270 14.370454 -14.047944 21.524115 1.078403 2.281887 0.042791 -0.023732 99906.900000 1 0 0
4.156870 15.503354 -12.990244 20.648970 1.308831 2.251190 0.008722 -0.019019 144517.000000 1 0 0
10.668670 11.720854 -10.754144 19.153343 0.832358 2.166965 0.015997 -0.023315 61665.300000 1 0 0
15.940570 10.394954 -10.465744 21.718394 0.577855 2.073600 0.024345 -0.002711 284609.000000 1 0 0
13.090670 11.323054 -10.213544 20.097106 0.713122 2.103901 0.024054 -0.009114 -79297.000000 1 0 0
10.829170 11.334154 -7.496844 17.376324 0.808179 2.016885 0.006757 -0.007758 67075.800000 1 0 0
5.608570 17.114654 -9.928644 20.565636 1.254119 2.074621 0.031057 -0.011535 70714.200000 1 0 0
11.790770 14.126354 -10.125244 21.002302 0.875273 2.073848 0.043385 -0.012845 4803.100000 1 0 0
7.899870 -19.250446 -2.154544 20.919601 -1.181380 1.673971 0.017812 0.002717 -141737.000000 1 0 0
7.715070 -17.876946 -4.209044 19.920431 -1.163378 1.783694 0.017917 0.024012 222988.000000 1 0 0
4.045970 -18.336046 4.847156 19.392663 -1.353620 1.318170 0.021919 -0.025734 -215981.000000 1 0 0
10.415770 -17.479846 -2.339744 20.481887 -1.033417 1.685281 0.018500 -0.002336 456217.000000 1 0 0
-2.107630 -15.978646 7.767256 17.891046 1.439651 1.121711 0.005087 -0.007901 72269.800000 1 0 0
-15.389730 -12.581546 -4.143044 20.305268 0.685338 1.776277 -0.013111 0.002434 172880.000000 1 0 0
-9.897330 -12.777246 -6.814744 17.540122 0.911733 1.969825 0.015889 -0.011788 162920.000000 1 0 0
-11.484230 -15.545846 6.799856 20.488995 0.934545 1.232502 0.009807 0.000570 252187.000000 1 0 0
-15.776930 -8.090346 -8.459944 19.645250 0.473832 2.015993 0.060427 0.004174 27436.900000 1 0 0
5.131870 -15.192246 6.633956 17.353669 -1.245035 1.178534 0.008988 -0.012771 163816.000000 1 0 0
2.838770 -14.154746 8.948056 16.984792 -1.372870 1.015933 0.004933 -0.005101 262096.000000 1 0 0
3.444970 -17.411646 10.413756 20.578619 -1.375465 1.040200 0.022983 -0.008120 194958.000000 1 0 0
-7.703030 -16.956246 -6.395444 19.691436 1.144382 1.901579 -0.027219 0.001495 -45281.300000 1 0 0
2.113270 -19.933046 -4.158544 20.471583 -1.465172 1.775357 0.025755 -0.010563 63555.500000 1 0 0
-17.718130 -10.908246 -1.714744 20.877315 0.551851 1.653023 -0.052758 0.010393 72232.300000 1 0 0
-4.268430 -15.078446 3.153656 15.985136 1.294932 1.372207 -0.005722 0.005332 26047.400000 1 0 0
-10.778830 -9.869846 -14.593544 20.653536 0.741405 2.355461 0.009962 0.003836 155589.000000 1 0 0
0.735370 -20.331346 2.798656 20.536233 -1.534643 1.434092 0.024039 -0.002890 177877.000000 1 0 0
6.933870 -18.241646 1.050756 19.543293 -1.207551 1.517005 0.025467 0.002639 253340.000000 1 0 0
-7.904830 -18.918346 -3.720544 20.838248 1.175006 1.750303 0.004736 -0.010654 52197.800000 1 0 0
-9.884130 -15.488146 -7.476144 19.836114 1.002780 1.957239 0.012069 -0.015995 135725.000000 1 0 0
-11.754230 -11.425846 -12.192744 20.429755 0.771232 2.210320 -0.004124 0.009299 266018.000000 1 0 0
-13.439630 -15.242846 -3.365844 20.598469 0.848184 1.734935 -0.004889 0.003162 220420.000000 1 0 0
-0.561930 -20.694346 -2.639644 20.869582 1.543649 1.697619 0.007953 -0.001893 320461.000000 1 0 0
-11.508830 -17.245246 -0.788444 20.747851 0.982312 1.608807 -0.018788 0.016574 33718.900000 1 0 0
1.053070 -19.734346 5.660856 20.557205 -1.517485 1.291821 0.027682 -0.019803 758.815000 1 0 0
-18.158330 -8.925246 2.622856 20.402557 0.456843 1.441884 0.016442 0.004282 -72647.600000 1 0 0
-14.072230 -15.023446 -0.291644 20.586807 0.818079 1.584963 -0.025685 0.003895 -65598.500000 1 0 0
10.124270 -15.617146 -5.395044 19.377889 -0.995632 1.852937 0.016065 0.011161 3808.720000 1 0 0
-0.255830 -19.149246 -7.170044 20.449171 1.557437 1.929037 0.003468 -0.001241 117011.000000 1 0 0
-9.980430 -16.994946 -2.602644 19.879913 1.039798 1.702091 -0.010926 0.002203 606267.000000 1 0 0
-15.037830 -6.680346 -11.329044 19.977752 0.418050 2.173756 0.014598 0.005067 60969.500000 1 0 0
-12.077230 -15.400446 2.101756 19.683765 0.905756 1.463816 -0.003398 0.001562 204446.000000 1 0 0
-2.736830 -16.316646 10.159656 19.414989 1.404611 1.020090 0.009631 -0.015772 186665.000000 1 0 0
-12.671130 -14.167546 -6.452944 20.072802 0.841096 1.898085 0.000202 -0.008446 82722.400000 1 0 0
6.214170 -16.865746 -6.958844 19.274201 -1.217781 1.940184 0.024560 -0.022200 90172.100000 1 0 0
-17.822130 -7.433946 -2.845144 19.518881 0.395176 1.717081 -0.012931 0.009048 -58030.500000 1 0 0
-12.313130 -13.515046 -9.419944 20.567085 0.831900 2.046552 0.013160 -0.020378 106729.000000 1 0 0
-6.966330 -15.027346 9.117356 18.907064 1.136709 1.067610 0.001738 -0.002201 418244.000000 1 0 0
-15.701730 -8.043846 -5.713444 18.544304 0.473432 1.883988 -0.007738 0.009688 289565.000000 1 0 0
-0.995230 -19.688446 -0.264944 19.715364 1.520290 1.584235 0.014953 -0.003032 273168.000000 1 0 0
-14.907530 -11.250746 -1.727844 18.756310 0.646504 1.663048 -0.018609 0.003507 67439.000000 1 0 0
-6.822930 -19.063046 1.386656 20.294702 1.227089 1.502417 -0.023091 -0.002650 87955.700000 1 0 0
-2.291030 -20.773446 -5.389744 21.583193 1.460954 1.823187 -0.008489 0.001873 77351.800000 1 0 0
-8.780630 -19.840446 -0.842144 21.712945 1.154145 1.609591 -0.024294 0.012566 5798.130000 1 0 0
-17.668030 -7.533846 5.339156 19.935514 0.403065 1.299665 0.015309 -0.001911 35013.400000 1 0 0
-2.829930 -16.081646 -10.861444 19.611191 1.396607 2.157764 0.008519 0.014084 126185.000000 1 0 0
-3.024230 -18.248446 -8.269644 20.261756 1.406564 1.991213 -0.001859 0.002874 120636.000000 1 0 0
3.875370 -17.352246 -6.340244 18.876378 -1.351067 1.913338 0.008681 0.012692 261153.000000 1 0 0
0.529870 -17.339446 -9.521844 19.788953 -1.540247 2.072785 -0.009597 0.005387 -80922.700000 1 0 0
-7.769530 -10.189446 -14.441544 19.306698 0.919338 2.415850 0.011990 -0.005197 296790.000000 1 0 0
-5.338130 -19.289446 -1.990244 20.113166 1.300815 1.669911 -0.006720 -0.010187 84426.700000 1 0 0
-10.030830 -16.002146 8.533756 20.724653 1.010873 1.146403 -0.002861 -0.008912 -2436.720000 1 0 0
-7.286130 -15.168046 -10.194644 19.674554 1.122983 2.115499 0.009914 -0.008015 389849.000000 1 0 0
-12.773630 -7.974346 -12.223144 19.394872 0.558083 2.252640 0.000877 0.000902 333638.000000 1 0 0
-15.516830 -12.952946 3.565756 20.524752 0.695584 1.396181 0.000514 0.005614 47558.900000 1 0 0
-6.428530 -14.418746 -13.013044 20.458874 1.151403 2.260176 0.012152 0.011970 493963.000000 1 0 0
-13.921030 -12.129446 -6.732044 19.652963 0.716733 1.920422 -0.012266 0.006037 215658.000000 1 0 0
-12.094730 -10.619846 -8.044744 17.993930 0.720558 2.034296 0.015715 -0.003206 313169.000000 1 0 0
-9.700130 -14.664046 3.678656 17.962719 0.986386 1.364543 -0.015835 -0.005058 552745.000000 1 0 0
5.115470 -18.218146 8.133356 20.596611 -1.297055 1.164850 0.023098 -0.019650 211273.000000 1 0 0
-4.967430 -16.846446 5.431056 18.384082 1.284057 1.270899 -0.003818 0.011232 373655.000000 1 0 0
-18.296230 -7.173046 -6.781044 20.789112 0.373635 1.903059 -0.026661 0.004453 50502.000000 1 0 0
-17.033730 -2.928846 -10.628444 20.290143 0.170279 2.122129 -0.006479 -0.008347 -269939.000000 1 0 0
-15.825230 -3.950146 -13.010244 20.864036 0.244612 2.244101 -0.009304 0.005358 244345.000000 1 0 0
-19.252830 -4.590746 -5.827944 20.632773 0.234074 1.857154 -0.010189 0.008954 -1020080.000000 1 0 0
5.630370 -13.822046 8.875756 17.364593 -1.183972 1.034284 0.010479 0.002121 290843.000000 1 0 0
19.874870 -3.533446 2.624656 20.356437 -0.175946 1.441501 0.015478 -0.007404 -93464.200000 1 0 0
17.970770 -2.561146 -0.168744 18.153141 -0.141564 1.580092 0.007014 -0.013028 291522.000000 1 0 0
14.219270 -11.383546 0.030256 18.214656 -0.675089 1.569135 0.017522 0.008876 129809.000000 1 0 0
10.920270 -13.775646 5.403756 18.390794 -0.900508 1.272566 -0.010751 0.004349 471766.000000 1 0 0
9.944570 -13.182046 8.831756 18.725938 -0.924483 1.079655 -0.003755 -0.004897 153993.000000 1 0 0
17.920670 4.339154 -4.446344 18.967041 0.237559 1.807423 -0.009652 0.008404 -147703.000000 1 0 0
18.446270 -6.341846 -4.670744 20.057411 -0.331142 1.805823 -0.003440 -0.002401 -109880.000000 1 0 0
17.351670 -10.055346 -0.162844 20.055348 -0.525212 1.578916 0.004697 0.007242 223478.000000 1 0 0
16.810170 -9.100246 8.222956 20.808972 -0.496181 1.164550 -0.000002 0.002961 37428.700000 1 0 0
19.707270 0.163654 -2.151444 19.825035 0.008304 1.679532 0.000196 -0.001891 -64286.600000 1 0 0
7.476470 -13.614546 11.577256 19.372309 -1.068604 0.930268 -0.002135 0.009138 266548.000000 1 0 0
15.940170 -6.407846 -3.510744 17.534961 -0.382224 1.772373 0.008284 -0.000366 386369.000000 1 0 0
14.365870 -7.016546 11.153656 19.493953 -0.454339 0.961659 0.003280 -0.026899 404088.000000 1 0 0
16.581470 1.532854 10.848656 19.874309 0.092182 0.993377 0.032566 -0.007823 5333.060000 1 0 0
16.396370 -9.982846 2.407856 19.346730 -0.546898 1.446015 -0.003815 0.000326 346641.000000 1 0 0
15.861770 -7.186146 -5.860544 18.373416 -0.425386 1.895437 0.006229 -0.000402 301450.000000 1 0 0
17.933470 -4.210846 5.940156 19.355259 -0.230626 1.258861 0.038049 -0.004483 -8130.830000 1 0 0
12.954270 -13.423646 8.062256 20.322583 -0.803191 1.162862 -0.008552 -0.001205 237715.000000 1 0 0
15.190070 -14.087746 -1.858544 20.800409 -0.747765 1.660267 0.018104 0.007581 221675.000000 1 0 0
18.605570 -6.432346 8.324456 21.373790 -0.332858 1.170740 0.014729 0.003200 53290.100000 1 0 0
19.607370 3.724754 2.630956 20.130690 0.187730 1.439728 0.009041 -0.002298 245976.000000 1 0 0
15.249870 -11.275346 8.054756 20.605123 -0.636665 1.169176 0.004051 -0.001695 410230.000000 1 0 0
14.148970 -4.295646 10.690456 18.246419 -0.294757 0.944814 0.010753 -0.004806 -69624.800000 1 0 0
18.533770 -7.822146 2.032056 20.219195 -0.399368 1.470125 0.010665 -0.002096 -175944.000000 1 0 0
18.789870 -5.066846 -1.857744 19.549511 -0.263393 1.665968 0.002560 -0.001700 279528.000000 1 0 0
14.339170 -13.820446 -6.044444 20.812300 -0.766979 1.865469 0.018705 0.004811 472982.000000 1 0 0
13.775470 -9.905546 10.244656 19.820101 -0.623411 1.027592 -0.006194 0.009736 601532.000000 1 0 0
14.120370 2.106054 0.110156 14.276990 0.148059 1.563081 0.000031 -0.005381 -343015.000000 1 0 0
12.962870 2.510354 13.519356 18.897378 0.191289 0.773587 0.018808 -0.008430 195175.000000 1 0 0
18.050270 -2.458346 9.848856 20.708831 -0.135362 1.075165 0.000533 0.009947 191477.000000 1 0 0
7.460870 -18.231646 5.025856 20.330193 -1.182362 1.320995 0.010758 -0.013810 299179.000000 1 0 0
12.157170 -3.058046 15.110556 19.633577 -0.246430 0.692538 -0.009395 0.015335 258401.000000 1 0 0
11.190770 -13.508846 -7.354844 19.021461 -0.878975 1.967804 0.005743 -0.000167 212992.000000 1 0 0
10.766270 -17.739246 4.647856 21.264901 -1.025305 1.350448 0.004426 -0.002165 500201.000000 1 0 0
18.197770 -0.419446 -5.462844 19.004669 -0.023045 1.862357 0.001761 -0.000504 121115.000000 1 0 0
4.356870 -13.486746 11.675956 18.363077 -1.258331 0.881702 -0.005561 -0.002804 211269.000000 1 0 0
8.823870 -2.490146 13.908956 16.658949 -0.275053 0.582802 -0.022421 -0.004269 308477.000000 1 0 0
9.160570 -9.302146 14.206256 19.294136 -0.793066 0.743212 -0.003862 0.008310 322636.000000 1 0 0
21.073170 5.851654 -2.927344 22.065577 0.270859 1.703854 0.001596 0.006636 493706.000000 1 0 0
14.562170 -13.571446 1.877856 19.994182 -0.750198 1.476738 0.004189 0.009933 160598.000000 1 0 0
11.044770 -0.402446 15.181956 18.778730 -0.036422 0.629256 0.005282 -0.001041 42072.600000 1 0 0
19.081470 0.509854 7.921756 20.666801 0.026713 1.177421 0.007494 -0.003133 81503.600000 1 0 0
19.684870 0.995954 0.465556 19.715547 0.050552 1.547180 0.000232 -0.009947 -138492.000000 1 0 0
17.913670 0.174354 2.920256 18.150975 0.009733 1.409207 0.008540 -0.004890 -49486.700000 1 0 0
10.352770 -8.158646 16.348556 21.000444 -0.667420 0.678546 0.002260 0.008365 84807.600000 1 0 0
19.095870 2.906354 5.353956 20.044052 0.151039 1.300404 0.020859 -0.006329 64323.000000 1 0 0
15.053470 2.136854 6.939056 16.712977 0.141009 1.142645 0.010271 -0.007888 -2069.970000 1 0 0
11.205370 -16.095046 2.161756 19.730282 -0.962625 1.461011 -0.013400 0.019413 84543.900000 1 0 0
8.711370 -16.379246 6.917056 19.799327 -1.081991 1.213910 -0.000254 0.001807 266962.000000 1 0 0
6.207670 6.731554 7.140856 11.612098 0.825864 0.908474 -0.000818 0.001473 -928162.000000 1 0 0
18.416970 2.120854 -6.716544 19.717879 0.114653 1.918385 -0.013121 0.009971 161663.000000 1 0 0
14.153770 4.427554 -7.325544 16.540739 0.303175 2.029603 0.007622 -0.005520 357105.000000 1 0 0
-10.828030 -3.679946 -13.640344 17.800202 0.327607 2.443863 0.006213 0.001662 -507895.000000 1 0 0
7.405870 -14.660146 -10.133544 19.299106 -1.103021 2.123604 0.000746 0.012389 -36644.000000 1 0 0
2.033870 -15.905846 13.861056 21.195789 -1.443617 0.857998 -0.008581 -0.001601 366725.000000 1 0 0
-9.541230 -8.014546 2.267656 12.665318 0.698654 1.390781 -0.005305 0.005068 498462.000000 1 0 0
-13.801630 3.273054 -9.718544 17.194416 -0.232848 2.171490 0.002931 -0.004404 161300.000000 1 0 0
-13.261230 -5.127946 -13.345244 19.500040 0.368977 2.324536 0.011086 0.017870 124799.000000 1 0 0
-17.449630 0.032054 -9.064144 19.663400 -0.001837 2.049879 -0.006450 -0.005877 346498.000000 1 0 0
-12.145330 15.361754 4.154956 20.018896 -0.901800 1.361725 0.005983 -0.006552 279121.000000 1 0 0
-17.073130 6.376554 9.184256 20.408399 -0.357442 1.104005 -0.008042 0.002827 260386.000000 1 0 0
-13.762730 15.371354 0.137656 20.632746 -0.840557 1.564125 0.023973 -0.025349 184007.000000 1 0 0
-15.798530 5.291954 -10.804744 19.858016 -0.323218 2.146112 0.000997 -0.001865 98579.900000 1 0 0
-17.949030 2.959454 0.207256 18.192553 -0.163411 1.559404 0.018396 0.000763 -2624.980000 1 0 0
-9.896630 15.554754 -0.197744 18.437265 -1.004152 1.581522 0.014616 -0.008817 78195.700000 1 0 0
-18.081730 12.235354 2.392156 21.963043 -0.594896 1.461662 0.020386 -0.011877 -120018.000000 1 0 0
-8.384730 16.421454 -7.790744 20.016581 -1.098708 1.970575 0.029005 -0.016331 58565.000000 1 0 0
-14.920730 -1.625046 -12.932244 19.811912 0.108484 2.282006 -0.013034 -0.004397 97318.000000 1 0 0
-18.903530 5.146954 -4.646844 20.135236 -0.265831 1.803677 0.035111 -0.004679 -13788.400000 1 0 0
-16.590930 9.121354 -6.078744 19.884898 -0.502674 1.881466 0.013369 0.002079 -4954.620000 1 0 0
-18.709530 1.535154 3.108556 19.028040 -0.081869 1.406694 0.006165 -0.012363 512763.000000 1 0 0
-13.695930 11.955554 -7.182044 19.547263 -0.717655 1.947029 0.011293 -0.002470 197234.000000 1 0 0
-12.852030 4.983854 -13.534544 19.318316 -0.369934 2.347044 0.008782 -0.012331 -34911.300000 1 0 0
-13.939530 9.451354 -6.747944 18.143134 -0.595825 1.951882 0.001462 -0.001592 251722.000000 1 0 0
-6.125830 12.536654 -15.051744 20.524338 -1.116283 2.394049 -0.009996 0.007833 45277.500000 1 0 0
-14.950630 14.018854 3.081456 20.725467 -0.753245 1.421563 0.002320 -0.009076 -33066.900000 1 0 0
-18.665930 8.327254 -4.813544 20.998340 -0.419623 1.802087 0.028089 -0.000363 230007.000000 1 0 0
-3.708830 17.077254 -9.946444 20.107704 -1.356938 2.088238 0.012865 0.000182 163979.000000 1 0 0
-18.991030 -1.489746 -6.898944 20.260157 0.078284 1.918264 -0.018653 -0.002161 -384567.000000 1 0 0
-10.751130 13.591354 -6.194944 18.403506 -0.901551 1.914119 0.008776 -0.019039 35663.100000 1 0 0
-19.379630 3.641154 4.601056 20.248402 -0.185720 1.341563 0.025365 0.004855 21547.700000 1 0 0
-15.290430 12.236854 0.556756 19.592034 -0.674921 1.542375 0.010252 -0.005540 158828.000000 1 0 0
-17.503330 2.838154 -8.589744 19.702928 -0.160750 2.021904 0.003658 -0.007258 40013.100000 1 0 0
-16.221230 14.113154 -4.243244 21.916079 -0.716015 1.765640 -0.001211 0.035657 109988.000000 1 0 0
-11.099230 15.757054 -8.342144 21.001643 -0.957125 1.979275 0.027625 -0.011025 54989.800000 1 0 0
-18.817930 1.693254 -6.926144 20.123445 -0.089739 1.922165 0.000726 -0.013098 165017.000000 1 0 0
-17.215630 10.447854 -0.439044 20.142699 -0.545464 1.592595 0.014914 0.006697 15835.800000 1 0 0
-11.656130 6.725454 -14.556344 19.823830 -0.523327 2.395409 0.007315 -0.011697 424579.000000 1 0 0
-13.766530 12.766154 -4.997444 19.428496 -0.747712 1.830943 0.032128 -0.005890 457717.000000 1 0 0
-18.340730 7.572054 -0.911544 19.863265 -0.391539 1.616703 -0.008835 0.013304 -160742.000000 1 0 0
-14.414030 9.209654 -10.409444 20.023449 -0.568559 2.117487 -0.004654 -0.000679 476818.000000 1 0 0
-18.111530 11.881154 4.833056 22.193417 -0.580581 1.351267 -0.022348 0.004016 48332.000000 1 0 0
-8.260630 12.125254 -13.369644 19.849613 -0.972748 2.309793 -0.012585 0.001032 560097.000000 1 0 0
-21.232130 -1.308646 -4.994644 21.850912 0.061557 1.801413 0.015428 -0.006355 430654.000000 1 0 0
-10.486430 13.641354 -2.605844 17.402361 -0.915419 1.721102 0.011865 -0.001016 490386.000000 1 0 0
-18.510330 -5.105646 3.672056 19.549525 0.269135 1.381840 0.007445 -0.007814 -97882.100000 1 0 0
-11.401230 11.636554 -12.637144 20.617828 -0.795613 2.230551 0.004960 -0.007627 314632.000000 1 0 0
-14.664630 11.731754 -10.674244 21.601502 -0.674743 2.087646 0.000346 0.007038 187514.000000 1 0 0
-12.560430 9.433654 -14.053144 21.077217 -0.644180 2.300630 0.020176 -0.009209 420912.000000 1 0 0
-18.317730 -4.883046 -3.091344 19.207805 0.260517 1.732441 -0.014499 0.000319 -324597.000000 1 0 0
-9.655630 12.793154 -11.369444 19.650960 -0.924262 2.187770 0.011177 -0.005694 15178.700000 1 0 0
-15.612530 7.777754 -8.148244 19.251972 -0.462186 2.007817 -0.004902 0.002141 16682.200000 1 0 0
-14.263130 9.106054 1.921656 17.030850 -0.568201 1.457722 -0.006200 0.004059 -149828.000000 1 0 0
-19.761930 6.259654 7.507856 22.047336 -0.306755 1.223312 0.018827 -0.000278 320904.000000 1 0 0
-18.348230 5.980954 3.920756 19.692681 -0.315108 1.370360 -0.014750 0.007681 170529.000000 1 0 0
-14.546630 13.034254 5.917856 20.408754 -0.730619 1.276604 0.000929 0.000725 142358.000000 1 0 0
18.045170 6.132054 5.518456 19.841462 0.327574 1.288952 0.008810 -0.007374 188829.000000 1 0 0
18.400370 8.145754 0.415556 20.127087 0.416763 1.550148 0.016170 0.005979 -78505.700000 1 0 0
16.963870 4.121054 8.126656 19.256130 0.238315 1.135113 0.021010 -0.013747 -112205.000000 1 0 0
12.673370 12.856154 10.702756 20.986758 0.792558 1.035639 0.015154 -0.000084 -204733.000000 1 0 0
15.674570 12.292354 4.082956 20.333830 0.665046 1.368626 0.011917 -0.005711 29921.300000 1 0 0
5.396970 10.334454 14.279356 18.434431 1.089523 0.684710 0.008776 -0.006508 262344.000000 1 0 0
13.303470 12.978254 -5.326744 19.333691 0.773025 1.849923 0.018451 -0.004648 145105.000000 1 0 0
18.166970 9.118854 -2.928044 20.536936 0.465204 1.713858 0.027191 0.003105 -118826.000000 1 0 0
14.694870 7.190954 9.406456 18.871419 0.455092 1.048987 0.017468 -0.007419 -17698.100000 1 0 0
4.550070 19.515154 -1.636644 20.105297 1.341733 1.652290 0.008410 -0.001826 427119.000000 1 0 0
-4.131630 19.101554 2.790556 19.741503 -1.357780 1.428966 -0.017370 -0.009329 269710.000000 1 0 0
8.242470 13.403454 12.082556 19.838827 1.019456 0.915952 0.045399 0.011524 85586.600000 1 0 0
0.486070 17.074654 -10.190544 19.890381 1.542337 2.108698 0.008953 0.002975 61263.100000 1 0 0
10.942870 9.362454 15.517056 21.170286 0.707722 0.748127 0.028296 -0.010666 38073.100000 1 0 0
-1.299830 12.509854 0.825456 12.604260 -1.467263 1.505259 -0.005586 0.002668 523728.000000 1 0 0
-4.491930 19.205654 -2.311244 19.858913 -1.341041 1.687444 -0.005913 -0.002990 4861.670000 1 0 0
6.069170 18.338554 6.363156 20.337825 1.251191 1.252580 0.011989 -0.015150 168853.000000 1 0 0
11.288470 17.567854 -1.633644 20.945831 0.999666 1.648869 0.019536 0.011021 457554.000000 1 0 0
18.325670 10.604054 3.310456 21.429775 0.524569 1.415696 0.000258 -0.002979 176793.000000 1 0 0
11.863170 16.790554 6.259956 21.490569 0.955696 1.275223 0.013575 0.008687 10201.800000 1 0 0
18.195070 7.310354 -5.995344 20.504780 0.382037 1.867519 -0.000893 0.009847 362679.000000 1 0 0
0.718570 15.650454 10.825456 19.043202 1.524915 0.966153 -0.007633 -0.004757 440328.000000 1 0 0
0.930070 20.235154 -2.478144 20.407540 1.524866 1.692530 -0.002682 -0.005959 239705.000000 1 0 0
14.672270 9.735054 -1.237044 17.651546 0.585807 1.640935 0.014553 -0.003971 10844.600000 1 0 0
9.909570 17.493254 1.649256 20.172594 1.055389 1.488948 0.024437 -0.008717 216771.000000 1 0 0
-0.038330 17.640554 -0.543444 17.648964 -1.568624 1.601593 -0.006885 -0.005008 -52799.600000 1 0 0
-0.003430 21.137854 1.026256 21.162752 -1.570634 1.522284 0.003631 0.001321 181758.000000 1 0 0
6.128170 17.365754 -0.345144 18.418550 1.231551 1.589536 0.015993 -0.014581 46374.700000 1 0 0
6.908770 18.796254 -2.829644 20.224667 1.218563 1.711167 0.004468 -0.001816 47215.800000 1 0 0
10.012570 9.363854 12.481956 18.540026 0.751931 0.832209 -0.002602 -0.006318 5157.620000 1 0 0
13.105070 14.763654 7.926256 21.272844 0.844842 1.188987 0.002369 -0.000990 273675.000000 1 0 0
0.528070 17.630654 7.060856 18.999329 1.540853 1.190024 -0.005536 0.000344 323702.000000 1 0 0
6.846370 18.023854 -7.875444 20.826779 1.207780 1.958583 -0.000600 -0.010324 84868.600000 1 0 0
-0.780730 18.503654 9.368056 20.754643 -1.528628 1.102495 0.012088 -0.009561 164791.000000 1 0 0
15.742470 6.883354 -7.943244 18.928842 0.412198 2.003842 0.010548 -0.000273 -439181.000000 1 0 0
-5.315830 19.820654 -6.648244 21.571173 -1.308766 1.884097 0.003975 -0.009081 302525.000000 1 0 0
4.145770 15.458754 10.152456 18.953439 1.308779 1.005516 -0.000603 -0.001506 196472.000000 1 0 0
9.310670 14.771754 7.222556 18.895995 1.008393 1.178591 0.006022 -0.005338 37254.100000 1 0 0
-2.577930 19.364254 6.642256 20.633459 -1.438446 1.243043 0.006206 -0.000750 90855.500000 1 0 0
4.833570 18.097254 8.407956 20.532115 1.309800 1.148887 0.008411 -0.009290 211674.000000 1 0 0
14.761870 11.126754 -7.443444 19.927928 0.645897 1.953595 -0.007891 -0.026426 -46042.300000 1 0 0
12.048070 6.823354 15.500856 20.784386 0.515305 0.729071 0.039637 -0.004258 243818.000000 1 0 0
17.133270 9.240554 5.069856 20.115671 0.494617 1.316014 0.004300 -0.004899 9243.620000 1 0 0
5.667270 14.579254 12.941356 20.301510 1.200050 0.879602 -0.000652 -0.000234 322438.000000 1 0 0
15.954070 10.490054 -3.696044 19.448247 0.581641 1.762004 0.019452 -0.007322 155682.000000 1 0 0
15.407970 13.415354 6.044456 21.305228 0.716376 1.283138 -0.001303 -0.002707 223385.000000 1 0 0
12.678570 14.593354 -8.061944 20.945335 0.855494 1.965900 0.034922 -0.008125 216748.000000 1 0 0
-8.092030 15.729854 9.626256 20.138869 -1.095665 1.072427 0.018528 -0.006046 150581.000000 1 0 0
-4.957530 16.756554 -7.186944 18.894744 -1.283146 1.960990 0.005320 -0.001193 -24793.200000 1 0 0
2.314970 19.603954 -4.734744 20.300047 1.453254 1.806203 -0.006902 -0.013860 15488.100000 1 0 0
7.228070 16.661154 8.974556 20.257880 1.161472 1.111837 0.007487 0.000068 578611.000000 1 0 0
13.607370 15.306254 -1.550244 20.538870 0.844088 1.646347 0.029914 -0.001866 231665.000000 1 0 0
12.521170 16.663554 4.086156 21.240301 0.926393 1.377212 0.002456 -0.008482 437607.000000 1 0 0
2.568670 18.339954 0.482956 18.525259 1.431643 1.544723 0.015765 -0.013773 101620.000000 1 0 0
-6.997630 18.066354 1.096356 19.405204 -1.201260 1.514268 -0.018379 0.022377 200776.000000 1 0 0
0.020470 20.120554 -5.738744 20.922961 1.569779 1.848637 0.003547 0.000930 152272.000000 1 0 0
-8.030730 18.055954 -6.106344 20.683267 -1.152301 1.870494 0.036195 -0.018868 190308.000000 1 0 0
-7.197030 18.708754 -1.474844 20.099499 -1.203559 1.644239 0.001405 -0.008269 -14766.300000 1 0 0
-14.430130 -8.577546 9.044556 19.068480 0.536306 1.076605 0.030840 -0.008485 378007.000000 1 0 0
-13.029930 -13.733246 7.823256 20.483761 0.811671 1.178918 0.014050 0.000011 44056.700000 1 0 0
-4.046830 -16.081346 12.383156 20.696113 1.324268 0.929378 0.030522 -0.009528 223558.000000 1 0 0
-2.036730 -15.135446 15.184156 21.535752 1.437033 0.788278 0.003155 -0.004713 378419.000000 1 0 0
-7.959630 -13.855346 12.444956 20.253475 1.049352 0.909095 0.010877 -0.011405 288130.000000 1 0 0
-9.945230 -10.860846 11.997556 18.994919 0.829377 0.887156 0.019669 -0.006699 -96375.300000 1 0 0
-7.410630 -10.663146 13.148856 18.480058 0.963450 0.779143 0.016551 -0.006233 278252.000000 1 0 0
-15.086930 -12.460446 7.669556 21.016666 0.690341 1.197242 0.012394 0.014297 389099.000000 1 0 0
-4.452830 -12.280046 13.034856 18.453583 1.222935 0.786455 0.012961 -0.020369 255772.000000 1 0 0
3.618970 -12.536546 14.056556 19.179383 -1.289763 0.748223 -0.006252 0.007040 624653.000000 1 0 0
7.243270 -13.128846 14.886856 21.129365 -1.066644 0.788997 0.030032 0.007548 370206.000000 1 0 0
7.268670 -8.706846 16.772156 20.247172 -0.875180 0.594604 -0.010601 0.008721 480075.000000 1 0 0
-5.054630 13.327254 13.592656 19.695819 -1.208287 0.809129 0.012450 -0.003564 413799.000000 1 0 0
-13.412230 -1.792946 17.647956 22.238546 0.132892 0.654134 0.010572 -0.004227 397962.000000 1 0 0
-10.516430 9.939454 12.870656 19.365997 -0.757200 0.843837 0.019288 -0.003724 411950.000000 1 0 0
-7.414030 -8.530046 17.051256 20.456658 0.855280 0.585328 0.018709 -0.007367 65611.400000 1 0 0
-4.882230 2.137854 18.375256 19.132607 -0.412733 0.282306 0.016129 -0.000662 546013.000000 1 0 0
-15.850030 -3.653246 13.783656 21.320385 0.226532 0.867807 0.028192 -0.014814 47763.300000 1 0 0
-14.664130 2.675354 12.630356 19.537659 -0.180457 0.867858 0.005713 0.007030 266494.000000 1 0 0
-13.907730 10.725654 9.823056 20.123544 -0.656932 1.060842 -0.060299 0.025073 -228180.000000 1 0 0
-4.016830 11.333354 15.964056 19.985768 -1.230184 0.645546 0.014751 -0.003950 189270.000000 1 0 0
-13.312430 12.821354 7.829856 20.072732 -0.766610 1.170084 0.005558 -0.024604 105352.000000 1 0 0
-3.741230 -6.352546 18.530356 19.943063 1.038553 0.378654 0.024892 -0.014291 374823.000000 1 0 0
0.324870 -2.841846 17.583456 17.814589 -1.456974 0.161261 -0.002736 -0.021816 -132542.000000 1 0 0
-4.467930 6.477754 21.228556 22.640126 -0.966993 0.354985 0.025235 -0.006871 285811.000000 1 0 0
2.312770 -10.812646 16.441856 19.814057 -1.360077 0.592033 -0.011263 -0.005145 344103.000000 1 0 0
-14.671930 -0.175646 14.153856 20.386957 0.011971 0.803405 -0.023866 0.010224 -135839.000000 1 0 0
-13.537730 -5.731146 7.857156 16.668865 0.400469 1.079956 0.012683 -0.008604 40671.300000 1 0 0
9.947070 2.156754 16.705256 19.561733 0.213518 0.547216 0.009770 0.004509 325258.000000 1 0 0
-7.752730 12.290754 11.773656 18.702578 -1.008053 0.889860 0.025242 -0.017081 156561.000000 1 0 0
-1.837630 7.491154 20.543256 21.943556 -1.330240 0.359177 0.028468 -0.007937 489196.000000 1 0 0
0.782370 -13.936246 15.885056 21.146302 -1.514716 0.720921 -0.015974 0.011029 585805.000000 1 0 0
-3.317530 -11.560246 17.389256 21.143120 1.291329 0.605084 0.015148 -0.025631 426943.000000 1 0 0
-2.120430 8.567454 16.955856 19.115401 -1.328174 0.479933 0.018414 -0.013973 479662.000000 1 0 0
-4.842530 -9.096846 20.395856 22.851557 1.081620 0.467857 0.050713 -0.024977 165212.000000 1 0 0
-6.493630 -2.979246 19.164656 20.453048 0.430144 0.356834 0.021934 -0.011206 324220.000000 1 0 0
-10.722830 -8.123546 16.234656 21.084002 0.648343 0.691957 0.047141 -0.008859 247300.000000 1 0 0
-0.514430 6.255954 17.717056 18.796161 -1.488750 0.340496 0.019826 -0.017505 71652.100000 1 0 0
-5.717130 -11.485746 19.107156 23.015025 1.108943 0.591324 0.019906 0.001317 488918.000000 1 0 0
0.148770 3.458554 19.031056 19.343341 1.527808 0.179933 0.013739 -0.001448 56483.900000 1 0 0
-18.721330 -0.354246 7.326256 20.106907 0.018920 1.197845 0.032567 -0.005617 352957.000000 1 0 0
-1.535530 -8.745146 17.558556 19.675831 1.396982 0.468178 0.004390 -0.011676 264599.000000 1 0 0
5.753870 3.438454 14.946556 16.380767 0.538645 0.421575 0.013628 -0.006530 342339.000000 1 0 0
-13.645330 -5.951946 10.947656 18.478957 0.411310 0.936713 0.018293 -0.009932 49290.300000 1 0 0
3.616770 8.153354 17.236056 19.407211 1.153283 0.477544 0.024776 -0.001159 150790.000000 1 0 0
6.376570 4.385154 17.164156 18.828130 0.602422 0.423581 0.028896 -0.034528 264729.000000 1 0 0
5.423170 -9.395446 18.306656 21.279541 -1.047301 0.534951 -0.002808 0.012997 286213.000000 1 0 0
-4.543930 -0.677446 19.867856 20.392105 0.147998 0.227241 0.024902 -0.006298 955357.000000 1 0 0
-10.947730 1.674854 17.111256 20.382665 -0.151809 0.574433 0.024981 -0.006847 228915.000000 1 0 0
-16.534530 -4.364846 8.723056 19.197246 0.258096 1.099108 0.022415 -0.019066 137340.000000 1 0 0
-12.982830 -9.754046 12.417256 20.442200 0.644335 0.917972 0.005343 -0.008375 111232.000000 1 0 0
-14.507030 6.111254 13.370956 20.653905 -0.398700 0.866653 -0.014931 0.000406 255452.000000 1 0 0
1.228070 8.926954 17.132656 19.357856 1.434086 0.484196 0.012171 -0.023211 190460.000000 1 0 0
-3.720330 -10.107046 14.627756 18.164925 1.218095 0.634657 0.018590 -0.021054 466714.000000 1 0 0
-18.799330 -3.505046 6.850056 20.313134 0.184329 1.226831 0.105614 -0.014241 -236370.000000 1 0 0
-0.546130 -0.335946 20.888556 20.898395 0.551477 0.030686 0.020441 -0.004008 465930.000000 1 0 0
-1.904430 2.468354 20.453656 20.689893 -0.913653 0.151260 0.012556 -0.006034 100692.000000 1 0 0
-7.857830 1.946254 16.431256 18.317194 -0.242797 0.457770 0.004482 0.009021 523635.000000 1 0 0
2.848670 -2.800446 18.541656 18.967088 -0.776862 0.212200 0.000368 -0.011170 -299225.000000 1 0 0
-12.297030 4.350054 14.258056 19.324391 -0.340010 0.740951 -0.017114 -0.002313 199124.000000 1 0 0
-12.909930 -5.746546 13.318256 19.418162 0.418793 0.815003 -0.007439 -0.005910 -88542.500000 1 0 0
-17.251730 -1.142246 9.627656 19.789358 0.066114 1.062709 0.020951 -0.011608 151126.000000 1 0 0
-7.465130 7.883754 14.975056 18.496866 -0.812665 0.627327 0.007042 -0.002206 29626.500000 1 0 0
-9.536830 0.695254 13.994956 16.949729 -0.072773 0.599400 0.013357 -0.003817 170022.000000 1 0 0
7.676070 -0.708346 15.074156 16.930859 -0.092019 0.472713 0.000438 -0.000211 204705.000000 1 0 0
4.168570 6.427154 18.410856 19.941036 0.995415 0.394302 0.029095 -0.007840 76144.600000 1 0 0
1.714770 0.491354 20.073456 20.152556 0.279065 0.088630 0.005076 0.000003 73034.300000 1 0 0
-6.956530 6.707754 17.484356 19.977237 -0.767194 0.504918 0.007132 -0.009264 566796.000000 1 0 0
7.565170 -2.971646 16.865556 18.721898 -0.374290 0.449081 -0.015342 0.010685 417062.000000 1 0 0
-16.441830 2.474154 9.568256 19.183502 -0.149359 1.048611 0.015134 -0.000883 142450.000000 1 0 0
4.068470 -6.151846 19.037956 20.416695 -0.986490 0.369605 -0.008125 -0.011199 81467.200000 1 0 0
-3.672530 -3.953246 20.637356 21.331107 0.822193 0.255737 0.021531 -0.009078 444289.000000 1 0 0
-9.979030 5.953754 14.536756 18.610360 -0.537935 0.674353 0.013742 -0.003400 -37532.400000 1 0 0
6.653570 2.284854 19.892656 21.099961 0.330785 0.339919 0.027214 -0.008828 65558.800000 1 0 0
-7.173730 11.588854 14.437256 19.854428 -1.016509 0.756627 0.020319 -0.017661 241937.000000 1 0 0
-14.375530 4.924754 9.573056 17.959746 -0.330048 1.008620 -0.009675 -0.002584 340892.000000 1 0 0
1.468570 -5.430646 20.135256 20.906391 -1.306691 0.272449 0.012000 -0.021011 334498.000000 1 0 0
-6.148330 -8.414346 13.529056 17.077428 0.939765 0.656360 0.016907 -0.010043 250371.000000 1 0 0
-12.863230 10.229154 6.372756 17.626976 -0.671822 1.200883 -0.018343 -0.008953 178222.000000 1 0 0
-19.680530 2.298554 7.682256 21.251439 -0.116267 1.200927 0.006611 -0.005137 199506.000000 1 0 0
-15.240430 8.882354 6.620256 18.841303 -0.527688 1.211763 -0.031395 0.004946 104359.000000 1 0 0
-12.538830 8.136254 14.219956 20.630755 -0.575591 0.810329 -0.013658 -0.000079 259474.000000 1 0 0
-16.514130 8.693354 10.993756 21.659953 -0.484559 1.038444 -0.013096 0.009130 315901.000000 1 0 0
2.339170 10.764654 14.235956 18.000332 1.356822 0.658564 -0.004733 -0.048785 382232.000000 1 0 0
1.837370 15.001454 13.190656 20.060233 1.448924 0.853231 -0.010896 -0.006727 645788.000000 1 0 0
9.134170 5.041254 16.680756 19.674729 0.504310 0.558923 0.023198 -0.004361 242414.000000 1 0 0
-0.204130 13.297254 13.545556 18.982643 -1.555446 0.776207 -0.000146 0.006279 206576.000000 1 0 0
3.739870 12.496554 14.557756 19.546835 1.280007 0.730617 -0.005982 -0.005917 45126.500000 1 0 0
-3.735530 -4.439346 -13.220144 14.437249 0.871281 2.728035 -0.006263 -0.003443 150315.000000 1 0 0
5.187870 -11.445246 16.850056 21.019802 -1.145220 0.640783 -0.054325 0.018496 287161.000000 1 0 0
8.720170 -14.020646 6.968756 17.921592 -1.014392 1.171417 -0.010122 -0.002410 213802.000000 1 0 0
-0.274930 15.323854 0.424256 15.332191 -1.552857 1.543122 -0.004870 -0.001256 -296988.000000 1 0 0
-14.192730 7.487354 8.856256 18.328320 -0.485443 1.066490 -0.003353 0.003182 116031.000000 1 0 0
-15.590030 -9.861046 5.881456 19.361838 0.563991 1.262154 -0.004457 0.005158 114592.000000 1 0 0
8.557170 -10.542846 11.241656 17.628148 -0.888988 0.879274 -0.033677 0.006048 -251297.000000 1 0 0
-25.164910 5.929054 31.685893 40.895259 -0.231388 0.684388 0.019043 -0.007516 -92213.700000 0 0 1
-24.077630 5.089454 31.384723 39.882774 -0.208311 0.664988 0.022547 -0.010744 -139522.000000 0 0 1
-23.014530 5.232354 32.290173 39.996267 -0.223550 0.631184 0.016731 -0.004955 -174196.000000 0 0 1
-21.703130 4.594754 31.807973 38.779953 -0.208629 0.609006 0.028796 -0.013890 -436233.000000 0 0 1
-21.608830 3.221854 32.014483 38.758857 -0.148009 0.598838 0.024319 -0.016459 -608622.000000 0 0 1
-20.492130 2.693854 31.389003 37.582626 -0.130708 0.582300 0.022837 -0.018400 -393184.000000 0 0 1
-19.844130 1.453454 32.086263 37.754871 -0.073113 0.555081 0.014126 -0.020007 130259.000000 0 0 1
-20.545330 0.240054 31.945713 37.982849 -0.011684 0.571563 0.021195 -0.012956 -223346.000000 0 0 1
-20.126230 -0.719446 32.867793 38.547043 0.035731 0.549727 0.008701 -0.005876 -295367.000000 0 0 1
-20.745030 -2.117846 32.720773 38.800651 0.101737 0.567393 0.015655 -0.020506 -425786.000000 0 0 1
-20.112330 -2.988746 31.800783 37.745572 0.147523 0.568882 0.024386 -0.035131 -22307.000000 0 0 1
-20.386030 -4.358046 32.181403 38.343519 0.210606 0.574817 0.033703 -0.033040 601539.000000 0 0 1
-21.845030 -4.963546 32.046983 39.100527 0.223423 0.610075 0.020420 -0.022472 1376090.000000 0 0 1
-22.825630 -4.366446 32.928063 40.303009 0.189012 0.614586 0.025419 -0.020442 551172.000000 0 0 1
-22.743830 -4.883746 34.262932 41.413540 0.211517 0.596447 0.015486 -0.010028 -650957.000000 0 0 1
-23.935530 -4.477746 -34.012484 41.830716 0.184938 2.520251 0.017955 -0.005175 38944.100000 0 0 1
-23.831630 -4.906446 -32.648944 40.718218 0.203043 2.501142 0.017421 -0.000816 -278416.000000 0 0 1
-25.119680 -4.780146 -32.125144 41.059383 0.188047 2.469318 0.007837 0.001797 -533567.000000 0 0 1
-25.203630 -5.070646 -30.614124 39.976980 0.198537 2.443071 -0.008556 0.008802 -957037.000000 0 0 1
-25.050130 -6.442046 -30.379474 39.898889 0.251712 2.436284 -0.005321 0.005747 476725.000000 0 0 1
-25.301800 -6.757646 -29.013834 39.085156 0.260990 2.407328 -0.027640 -0.000372 -119634.000000 0 0 1
-25.457180 -8.307746 -28.827644 39.346152 0.315445 2.393029 -0.017588 -0.002658 -340589.000000 0 0 1
-26.670280 -8.831946 -29.299044 40.592377 0.319787 2.377177 -0.001409 0.002030 -365979.000000 0 0 1
-26.814430 -10.196146 -28.962044 40.764875 0.363364 2.360956 0.005094 -0.003049 -388261.000000 0 0 1
-28.255710 -10.505746 -28.596084 41.551075 0.355971 2.329822 0.043087 -0.008815 -345783.000000 0 0 1
-28.431410 -11.198546 -27.383544 41.031829 0.375219 2.301472 0.046311 -0.011695 -1321010.000000 0 0 1
-29.766650 -11.462146 -27.168714 41.899561 0.367567 2.276310 0.031329 -0.013556 -1134310.000000 0 0 1
-30.056500 -12.099946 -25.753774 41.389114 0.382723 2.242391 0.016112 -0.003103 194814.000000 0 0 1
-29.485350 -11.420646 -24.599644 40.061945 0.369539 2.231966 0.018729 -0.001243 403878.000000 0 0 1
-29.569880 -12.218846 -23.469844 39.680115 0.391850 2.203685 0.013720 -0.005855 -24157.000000 0 0 1
-28.995810 -11.422346 -22.226944 38.278767 0.375263 2.190335 0.012987 -0.007997 104578.000000 0 0 1
-28.829680 -12.181046 -21.050144 37.717859 0.399766 2.162884 0.012558 -0.008333 871769.000000 0 0 1
-27.704720 -13.096446 -20.983144 37.139746 0.441583 2.171203 0.006573 -0.013456 393510.000000 0 0 1
-27.434960 -13.503046 -19.527244 36.281159 0.457375 2.139120 -0.002992 -0.017693 -227091.000000 0 0 1
-27.036430 -12.485246 -18.700944 35.164971 0.432618 2.131528 0.003120 -0.018939 87948.500000 0 0 1
-26.685850 -12.936046 -17.407344 34.387374 0.451376 2.101585 -0.003578 -0.007288 8848.470000 0 0 1
-26.655100 -11.834246 -16.387744 33.452980 0.417834 2.082741 0.005095 -0.018613 -204809.000000 0 0 1
-25.552630 -10.981846 -16.607444 32.393595 0.405907 2.109096 0.017477 -0.016822 166575.000000 0 0 1
-25.517120 -9.849946 -15.797044 31.586254 0.368391 2.094538 0.032519 -0.019242 -735436.000000 0 0 1
-24.188830 -9.161046 -15.996544 30.412393 0.362037 2.124672 0.031733 -0.016894 504965.000000 0 0 1
-23.047430 -9.652046 -15.247144 29.271512 0.396599 2.118686 0.013245 -0.021214 977346.000000 0 0 1
-21.917830 -8.804446 -15.280344 28.131805 0.381973 2.145004 0.023480 -0.031428 59003.600000 0 0 1
-20.846030 -9.271446 -14.280944 26.915832 0.418486 2.130078 0.015538 -0.001845 -519288.000000 0 0 1
-20.075430 -10.354946 -14.722944 26.963176 0.476209 2.148425 0.013574 -0.002214 -348938.000000 0 0 1
-18.906430 -10.331646 -13.945844 25.664812 0.500123 2.145259 0.017157 0.006150 -626765.000000 0 0 1
-17.994130 -11.462746 -14.384244 25.731104 0.567201 2.164002 0.019927 0.002417 -374008.000000 0 0 1
-17.175030 -11.219746 -15.540344 25.736484 0.578663 2.219088 0.010970 -0.006806 268255.000000 0 0 1
-17.773630 -11.453546 -16.809744 27.012092 0.572437 2.242479 0.009321 -0.009619 -239018.000000 0 0 1
-17.103330 -10.735446 -17.988044 27.043362 0.560525 2.298499 0.008439 -0.001631 -308587.000000 0 0 1
-17.649030 -11.244746 -19.149344 28.365999 0.567275 2.311871 0.004867 -0.005877 -182219.000000 0 0 1
-17.218430 -10.582246 -20.298644 28.644252 0.551077 2.358374 0.005441 -0.004287 -2264.000000 0 0 1
-18.137130 -10.860446 -21.525744 30.170555 0.539534 2.365232 0.005803 0.000711 395775.000000 0 0 1
-19.342830 -10.109046 -21.566444 30.683047 0.481583 2.350232 0.004212 -0.016711 128045.000000 0 0 1
-20.256830 -10.803346 -22.407144 32.080080 0.489946 2.344061 0.015602 -0.008042 795086.000000 0 0 1
-21.342030 -9.771446 -22.938144 32.819534 0.429363 2.344679 0.002122 -0.014373 537002.000000 0 0 1
-20.762430 -8.829546 -23.821144 32.809850 0.402096 2.383337 0.002188 -0.013529 -285571.000000 0 0 1
-21.716630 -8.160546 -24.550444 33.777667 0.359449 2.384484 -0.011061 -0.009140 -411077.000000 0 0 1
-21.094630 -7.389246 -25.768994 34.111954 0.336933 2.427098 -0.008545 -0.007493 -107668.000000 0 0 1
-20.536530 -8.257446 -26.680304 34.666599 0.382303 2.449051 0.003249 -0.015314 -315421.000000 0 0 1
-19.714130 -7.603446 -27.574814 34.739454 0.368105 2.487764 0.004251 -0.019215 -689059.000000 0 0 1
-18.526630 -8.378246 -28.125714 34.705717 0.424705 2.515641 0.033163 -0.017853 -342808.000000 0 0 1
-18.800330 -9.372746 -29.087374 35.880023 0.462480 2.516116 0.036172 -0.016599 671079.000000 0 0 1
-17.545830 -9.850946 -29.577114 35.772936 0.511585 2.544194 0.012436 -0.010824 588841.000000 0 0 1
-17.766530 -11.088846 -30.448944 36.956058 0.557982 2.539095 0.012138 -0.009696 -359757.000000 0 0 1
-18.354630 -10.860346 -31.698924 38.205514 0.534291 2.549357 0.010809 -0.007542 291450.000000 0 0 1
-18.496030 -12.067846 -32.422124 39.229200 0.578100 2.543621 0.002310 -0.007127 -47450.900000 0 0 1
-19.276830 -11.959746 -33.711654 40.633819 0.555300 2.549268 0.000932 -0.005519 -428953.000000 0 0 1
-18.429830 -11.388546 34.470598 40.713385 0.553507 0.561110 -0.002527 -0.003376 399387.000000 0 0 1
-19.032430 -11.409946 33.150459 39.892019 0.540052 0.589885 0.009809 -0.004968 -75808.700000 0 0 1
-18.513230 -12.436446 32.144583 39.123894 0.591520 0.606567 0.013250 0.001329 -63354.400000 0 0 1
-17.144530 -12.236146 31.804023 38.146482 0.619865 0.584960 0.021164 -0.001756 726160.000000 0 0 1
-16.534630 -13.069946 30.826703 37.343046 0.668896 0.599708 0.018006 -0.000596 146345.000000 0 0 1
-16.424830 -14.576546 31.209323 38.161140 0.725849 0.613166 0.019456 0.001162 -941474.000000 0 0 1
-17.614730 -15.306846 30.991363 38.794881 0.715410 0.645412 0.007250 0.001410 81580.500000 0 0 1
-17.634430 -16.633946 31.572893 39.805890 0.756211 0.654797 0.022121 -0.007034 -254604.000000 0 0 1
-17.879730 -16.693446 33.151927 41.199589 0.751099 0.635683 0.004620 -0.008176 142614.000000 0 0 1
-16.771230 -16.308746 33.976900 41.251413 0.771418 0.602971 0.008617 -0.002806 424550.000000 0 0 1
-17.117930 -16.160046 -33.806744 41.195467 0.756622 2.533330 0.004440 -0.003597 205232.000000 0 0 1
-15.901430 -15.620146 -33.014444 39.834632 0.776475 2.547734 0.001600 -0.000110 411094.000000 0 0 1
-15.568230 -14.253846 -33.355834 39.473454 0.741352 2.577398 0.002354 -0.001538 -368545.000000 0 0 1
-14.549630 -13.604846 -32.630454 38.229963 0.751854 2.593521 0.009643 -0.000025 -616869.000000 0 0 1
-14.772430 -13.183746 -31.174824 36.931091 0.728632 2.575746 0.016712 -0.003613 -426120.000000 0 0 1
-14.770630 -14.294546 -30.355004 36.659675 0.769020 2.546366 0.011630 -0.002242 -114517.000000 0 0 1
-15.565230 -14.062046 -29.217884 35.968072 0.734705 2.518930 0.009665 -0.003485 -145221.000000 0 0 1
-15.568030 -15.304546 -28.360284 35.789640 0.776864 2.485556 0.000337 0.009582 1355650.000000 0 0 1
-14.245130 -15.684446 -27.874264 35.012857 0.833451 2.491644 -0.004502 0.000464 1310680.000000 0 0 1
-13.518230 -16.573346 -28.711884 35.802103 0.886579 2.501367 -0.012632 -0.001313 144965.000000 0 0 1
-12.044630 -16.819046 -28.277834 35.036970 0.949326 2.509996 -0.018126 0.002705 187301.000000 0 0 1
-11.322630 -15.629146 -28.379094 34.319748 0.943845 2.544374 -0.015236 0.010000 -1038860.000000 0 0 1
-9.967030 -15.853546 -28.119924 33.784711 1.009545 2.554089 -0.000948 0.006321 -176440.000000 0 0 1
-9.164130 -14.536346 -28.217624 33.038174 1.008303 2.594598 -0.005202 0.010956 -135006.000000 0 0 1
-9.295730 -13.716246 -27.096464 31.761051 0.975183 2.592762 -0.009983 -0.002556 -416603.000000 0 0 1
-8.278630 -12.766746 -26.942124 30.941938 0.995510 2.627484 -0.002101 0.001453 -344360.000000 0 0 1
-8.174330 -11.494246 -27.867234 31.233317 0.952615 2.673051 -0.010436 -0.007531 -57811.500000 0 0 1
-7.560030 -11.801846 -29.135504 32.331334 1.001072 2.693220 0.004339 -0.010924 346768.000000 0 0 1
-7.380130 -10.554846 -29.833374 32.494634 0.960596 2.734060 -0.008993 -0.005657 -10668.400000 0 0 1
-6.331430 -10.619546 -30.993564 33.368589 1.033172 2.762024 -0.007133 0.002797 -328388.000000 0 0 1
-5.019630 -10.831646 -30.449094 32.705788 1.136836 2.767940 0.009120 0.000861 457622.000000 0 0 1
-4.024330 -10.602446 -31.412804 33.397175 1.208028 2.795138 0.014923 0.000108 -442228.000000 0 0 1
-3.910430 -9.130346 -31.928364 33.437630 1.166143 2.839995 -0.006745 0.005623 -2608170.000000 0 0 1
-2.775230 -8.860646 -32.658264 33.952542 1.267266 2.864591 -0.014454 0.007080 -826206.000000 0 0 1
-2.863130 -7.505046 -33.120904 34.081043 1.206345 2.903662 -0.029851 0.005608 -395450.000000 0 0 1
-1.520030 -6.969046 -33.589984 34.338973 1.356048 2.932349 -0.016648 0.005172 -208187.000000 0 0 1
-1.033330 -7.445446 34.295214 35.109317 1.432890 0.215768 -0.007097 -0.007031 272340.000000 0 0 1
0.094070 -6.739346 33.785551 34.451286 -1.556839 0.196909 -0.012529 0.006404 334602.000000 0 0 1
0.664370 -7.287346 32.471273 33.285588 -1.479880 0.221652 -0.015288 0.007495 -299785.000000 0 0 1
0.027070 -6.913446 31.237383 31.993289 -1.566881 0.217810 -0.018775 0.011013 37975.300000 0 0 1
0.639670 -7.356446 30.048223 30.942240 -1.484061 0.240970 -0.010476 0.004340 -271467.000000 0 0 1
0.010670 -6.794746 28.788253 29.579253 -1.569226 0.231783 -0.009511 0.006399 -242303.000000 0 0 1
0.476970 -5.484346 28.586703 29.111942 -1.484045 0.190245 -0.012405 0.008555 217071.000000 0 0 1
0.224570 -5.037846 27.202403 27.665883 -1.526249 0.183302 0.002308 0.015777 -609396.000000 0 0 1
-1.130330 -4.393646 26.943053 27.322333 1.318992 0.166817 0.006541 0.019152 -105120.000000 0 0 1
-2.259630 -5.241446 27.003683 27.600319 1.163763 0.208304 0.024123 0.008157 127353.000000 0 0 1
-3.458830 -4.485346 27.035373 27.622332 0.913902 0.206519 0.014864 0.008367 109828.000000 0 0 1
-4.772630 -5.143546 27.417723 28.301336 0.822786 0.250541 0.007357 0.008805 -55355.900000 0 0 1
-5.426830 -5.942146 26.432083 27.629958 0.830694 0.295537 0.009281 0.006092 -270566.000000 0 0 1
-6.664630 -6.420146 26.892653 28.440295 0.766716 0.331415 -0.002429 0.002519 -75435.300000 0 0 1
-6.815530 -7.936846 26.871693 28.836312 0.861261 0.371263 -0.004533 -0.003001 402603.000000 0 0 1
-5.903930 -8.557346 27.791023 29.671965 0.966864 0.357974 -0.001568 -0.007843 228512.000000 0 0 1
-5.626930 -9.906946 27.529523 29.794036 1.054255 0.392399 -0.001067 -0.011996 32664.500000 0 0 1
-5.172330 -10.440846 28.891613 31.152682 1.110841 0.383342 0.015412 -0.020582 -58857.000000 0 0 1
-4.995230 -11.867546 28.822873 31.568164 1.172391 0.420130 0.024268 -0.026917 30130.600000 0 0 1
-4.493630 -12.327346 30.036333 32.777088 1.221240 0.411850 0.031030 -0.029951 -337554.000000 0 0 1
-4.390130 -13.811246 30.094133 33.401805 1.263030 0.448789 0.038258 -0.031545 -400437.000000 0 0 1
-5.614030 -14.480246 30.009143 33.789696 1.200936 0.477568 0.056862 -0.033495 -639194.000000 0 0 1
-5.495730 -15.900446 30.064003 34.451002 1.238017 0.510174 0.036111 -0.035531 38799.000000 0 0 1
-5.762630 -16.485246 31.482083 36.001289 1.234511 0.506452 0.035899 -0.024771 -78818.500000 0 0 1
-7.097530 -16.349746 31.896073 36.538317 1.161238 0.509582 0.044277 -0.025094 -333480.000000 0 0 1
-7.147430 -16.440346 33.265066 37.788032 1.160697 0.494288 0.039852 -0.006949 305142.000000 0 0 1
-8.529830 -17.022646 33.676479 38.686351 1.106279 0.514578 0.032070 -0.002785 364031.000000 0 0 1
-8.734330 -18.459046 33.352210 39.107478 1.128839 0.549406 0.026163 -0.000545 356493.000000 0 0 1
-9.394930 -18.587146 32.055593 38.227055 1.102796 0.576166 0.033886 -0.011070 -30357.900000 0 0 1
-10.015530 -19.954646 31.840693 38.888668 1.105618 0.611539 0.053511 -0.019560 -219310.000000 0 0 1
-11.021830 -20.316446 32.778553 40.108257 1.073724 0.614170 0.047014 -0.011981 325533.000000 0 0 1
-11.537730 -21.591446 32.566003 40.741310 1.080036 0.644607 0.041481 -0.012190 -356406.000000 0 0 1
-11.033830 -22.626446 33.585335 41.972327 1.117076 0.643204 0.040912 -0.011196 381173.000000 0 0 1
-9.633630 -22.796446 33.314310 41.500940 1.170966 0.638927 0.024338 -0.005935 670909.000000 0 0 1
-8.823430 -23.465546 34.267492 42.458754 1.211135 0.631611 0.011133 -0.002709 237026.000000 0 0 1
-9.084030 -24.958746 34.556467 43.584493 1.221738 0.655306 0.013044 0.002741 -348913.000000 0 0 1
-8.651030 -25.813986 33.515715 43.179918 1.247430 0.682200 0.031319 0.001471 5408.550000 0 0 1
-8.928930 -27.165096 33.828328 44.294740 1.253229 0.701756 0.024710 0.005208 -919950.000000 0 0 1
-8.380530 -28.155916 32.811653 44.040816 1.281499 0.730219 0.036263 -0.002246 829699.000000 0 0 1
-6.990930 -27.987336 32.483733 43.443722 1.326016 0.726175 0.015677 -0.001988 935434.000000 0 0 1
-6.077130 -28.486316 33.459124 44.361185 1.360612 0.716296 0.018487 -0.007461 425953.000000 0 0 1
-4.598130 -27.983156 33.436496 43.842891 1.407934 0.703406 0.005716 -0.005162 798109.000000 0 0 1
-4.376730 -26.619406 33.925534 43.343862 1.407836 0.671793 -0.000218 0.005041 49590.100000 0 0 1
-4.403030 -25.616776 32.914293 41.939916 1.400579 0.668429 0.014288 0.008341 -95980.500000 0 0 1
-4.148530 -24.243746 33.564689 41.611992 1.401320 0.632400 -0.000485 0.003023 1177210.000000 0 0 1
-2.826130 -24.099546 34.148418 41.891402 1.454060 0.617782 -0.014384 0.010361 985522.000000 0 0 1
-2.798930 -22.872946 -34.301611 41.323192 1.449033 2.550050 -0.012859 0.009228 -971.012000 0 0 1
33.247735 -15.545746 2.452856 36.784489 -0.437371 1.504065 0.062102 -0.033677 336618.000000 0 0 1
34.148391 -15.874646 3.536556 37.823593 -0.435153 1.477158 0.054256 -0.036411 788984.000000 0 0 1
33.543275 -16.655146 4.547956 37.725709 -0.460865 1.449949 0.053910 -0.036616 -146470.000000 0 0 1
34.458957 -16.694846 5.764556 38.721670 -0.451159 1.421369 0.053171 -0.017658 92746.600000 0 0 1
-34.454234 -17.459046 5.561156 39.023570 0.469018 1.427802 0.066060 -0.019120 -8364.230000 0 0 1
-33.800990 -17.655446 6.787956 38.733681 0.481356 1.394640 0.053567 -0.010337 346412.000000 0 0 1
-32.519050 -18.537446 6.797156 38.043749 0.518105 1.391165 0.033780 -0.017219 282782.000000 0 0 1
-32.763800 -19.919146 6.936056 38.965983 0.546253 1.391840 0.067457 -0.020365 -680029.000000 0 0 1
-31.541840 -20.553246 7.032056 38.298478 0.577512 1.386137 0.038784 -0.008076 -805468.000000 0 0 1
-31.584840 -22.045046 7.305056 39.203954 0.609357 1.383366 0.028362 -0.002419 -452575.000000 0 0 1
-31.979650 -22.747146 6.156856 39.724521 0.618270 1.415180 0.047959 -0.009564 115201.000000 0 0 1
-32.144100 -24.134246 6.449656 40.709987 0.644022 1.411697 0.064353 -0.007424 -400386.000000 0 0 1
-31.702220 -25.146456 5.382856 40.820952 0.670586 1.438546 0.065988 -0.008998 -143324.000000 0 0 1
-32.183620 -24.917446 4.083156 40.906438 0.658827 1.470813 0.068986 -0.012827 110207.000000 0 0 1
-31.801010 -25.977636 3.167556 41.184648 0.684950 1.493809 0.062172 -0.008593 58427.600000 0 0 1
-32.131630 -25.681456 1.661456 41.167211 0.674288 1.530427 0.060376 -0.014488 32681.800000 0 0 1
-33.512430 -25.785206 1.375756 42.306649 0.655816 1.538272 0.051786 -0.011344 48344.600000 0 0 1
-33.754710 -24.981546 0.264456 41.994381 0.637129 1.564499 0.037516 -0.001659 -820565.000000 0 0 1
-34.881364 -24.023046 0.519156 42.356650 0.603107 1.558539 0.043903 -0.011973 -976811.000000 0 0 1
33.900855 -24.529146 0.369356 41.845948 -0.626361 1.561970 0.031290 -0.005338 -296283.000000 0 0 1
32.967415 -23.581346 0.824656 40.541465 -0.620916 1.550454 0.046859 -0.014128 -364908.000000 0 0 1
31.546485 -23.819046 0.323056 39.530141 -0.646723 1.562624 0.005799 -0.001131 -356456.000000 0 0 1
31.254375 -23.512746 -1.025144 39.124623 -0.644973 1.597001 0.004495 -0.013768 -1282830.000000 0 0 1
29.911575 -23.577046 -1.266944 38.107539 -0.667520 1.604049 -0.008602 0.000430 -1212500.000000 0 0 1
29.728715 -23.338146 -2.758844 37.895604 -0.665550 1.643662 -0.017942 0.010163 -161454.000000 0 0 1
30.184605 -22.066646 -3.241944 37.530753 -0.631267 1.657285 -0.006386 -0.007679 187518.000000 0 0 1
29.982115 -21.776646 -4.627644 37.343870 -0.628174 1.695035 -0.005211 -0.029867 -181000.000000 0 0 1
30.066095 -20.311646 -5.020544 36.629754 -0.594139 1.708291 0.012733 -0.028111 327518.000000 0 0 1
29.101925 -19.591246 -4.249344 35.338306 -0.592508 1.691336 0.011678 -0.029981 74748.700000 0 0 1
29.004395 -18.174946 -4.435244 34.514562 -0.559769 1.699656 0.015893 -0.027879 320116.000000 0 0 1
27.910535 -17.581046 -3.476444 33.168913 -0.562120 1.675799 0.013424 -0.018118 355810.000000 0 0 1
28.330565 -17.384746 -2.107944 33.306061 -0.550388 1.634129 0.007206 -0.011428 589347.000000 0 0 1
29.012495 -18.462546 -1.397544 34.417199 -0.566730 1.611413 0.001568 0.000012 594.260000 0 0 1
28.170395 -19.794846 -1.293344 34.454025 -0.612524 1.608343 -0.012783 0.006389 376123.000000 0 0 1
27.160365 -19.582346 -0.301544 33.484991 -0.624675 1.579802 -0.019615 0.027689 15344.700000 0 0 1
26.553785 -20.808646 0.005356 33.735786 -0.664686 1.570638 -0.028154 0.034090 -576452.000000 0 0 1
25.496865 -20.566846 1.073556 32.775567 -0.678778 1.538036 -0.029156 0.040251 -1206730.000000 0 0 1
25.002165 -21.746346 1.717856 33.180760 -0.715865 1.519001 -0.041352 0.052106 236554.000000 0 0 1
24.214765 -21.499046 2.904456 32.511532 -0.726061 1.481341 -0.040041 0.053249 92748.800000 0 0 1
22.798665 -20.955946 2.705156 31.084541 -0.743308 1.483660 -0.035054 0.040443 -922550.000000 0 0 1
22.726365 -19.634246 2.100856 30.106559 -0.712532 1.500959 -0.015378 0.025792 -84636.200000 0 0 1
22.856265 -18.677146 3.130856 29.682434 -0.685115 1.465121 -0.010933 0.021864 -493085.000000 0 0 1
22.667565 -17.172346 2.706156 28.566261 -0.648331 1.475921 -0.008523 0.027381 1119650.000000 0 0 1
21.346365 -16.878546 2.184656 27.300647 -0.669044 1.490689 0.001611 0.025223 963980.000000 0 0 1
21.405365 -15.558446 1.693156 26.516441 -0.628518 1.506900 0.013598 0.004546 234491.000000 0 0 1
20.070765 -15.020646 1.088556 25.092636 -0.642466 1.527401 0.011171 0.007321 -75123.700000 0 0 1
19.050965 -14.960946 2.043956 24.309400 -0.665720 1.486616 0.011886 0.005428 213546.000000 0 1 0
18.131365 -13.867046 1.900956 22.905349 -0.652912 1.487709 0.022968 0.000418 2173.040000 0 1 0
18.653165 -12.475846 2.309656 22.559295 -0.589501 1.468235 0.028789 0.001588 -346553.000000 0 1 0
19.501965 -11.895446 1.328856 22.882179 -0.547712 1.512690 0.019562 -0.000671 461400.000000 0 1 0
19.949965 -10.611746 1.705856 22.660984 -0.488855 1.495448 0.022223 -0.005960 -36261.700000 0 1 0
20.758265 -9.836246 0.650556 22.980003 -0.442507 1.542483 0.025009 -0.003181 -51811.500000 0 1 0
19.929565 -9.517546 -0.454544 22.090221 -0.445534 1.591374 0.014196 0.002777 788378.000000 0 1 0
20.649465 -8.790046 -1.451344 22.489369 -0.402446 1.635376 0.011141 0.005442 -70402.300000 0 1 0
19.898765 -8.736546 -2.801544 21.912022 -0.413710 1.699001 0.012180 0.005763 -265336.000000 0 1 0
20.460765 -7.926546 -3.824144 22.273237 -0.369599 1.743344 0.000434 0.009756 1484180.000000 0 1 0
21.710965 -8.339646 -4.455744 23.680569 -0.366743 1.760085 0.009549 0.010480 590916.000000 0 1 0
21.709665 -9.498246 -5.497644 24.325918 -0.412421 1.798765 0.023396 0.007364 -285043.000000 0 1 0
20.945065 -9.201746 -6.664244 23.828135 -0.413943 1.854257 0.008578 -0.001469 598620.000000 0 1 0
19.560165 -9.457046 -6.478044 22.671586 -0.450349 1.860569 0.005053 0.010479 -349320.000000 0 1 0
18.736365 -9.654846 -7.731944 22.451066 -0.475812 1.922386 -0.002424 0.015907 -425433.000000 0 1 0
18.947065 -10.993446 -8.211344 23.393873 -0.525748 1.929439 0.006143 0.020272 983763.000000 0 1 0
20.056065 -11.185946 -9.102544 24.702782 -0.508762 1.948172 0.007007 0.015609 187571.000000 0 1 0
20.023665 -12.616646 -9.724544 25.586982 -0.562249 1.960656 0.008248 0.009984 451669.000000 0 0 1
18.919765 -12.777846 -10.641544 25.188753 -0.594004 2.006967 0.017718 0.005308 832971.000000 0 0 1
18.891765 -14.028146 -11.302444 26.104270 -0.638718 2.018585 0.019328 0.007358 52244.200000 0 0 1
17.696565 -14.096746 -12.288044 25.746508 -0.672653 2.068342 0.025902 -0.004441 144082.000000 0 0 1
17.447665 -15.448046 -12.599444 26.491680 -0.724686 2.066442 0.027251 -0.005522 -478190.000000 0 0 1
16.386265 -15.654646 -13.463444 26.359855 -0.762568 2.106860 0.035934 -0.007805 -725768.000000 0 0 1
16.139565 -17.138246 -13.801244 27.288814 -0.815400 2.101044 0.035395 -0.013528 -289907.000000 0 0 1
15.554665 -17.924046 -12.776444 26.952858 -0.856053 2.064658 0.035362 -0.007074 173785.000000 0 0 1
15.571365 -19.294446 -13.153344 28.066947 -0.891778 2.058549 0.022125 -0.005307 -497248.000000 0 0 1
14.696465 -20.172546 -12.248344 27.801792 -0.941173 2.027018 0.016944 -0.001733 150092.000000 0 0 1
13.332465 -19.935646 -12.569144 27.077075 -0.981335 2.053526 0.016992 0.002441 -111371.000000 0 0 1
12.475765 -20.653546 -11.721444 26.825471 -1.027405 2.023004 0.017798 0.005510 706997.000000 0 0 1
10.946265 -20.396846 -11.888144 26.022682 -1.078249 2.045233 0.011454 -0.000766 726170.000000 0 0 1
10.125965 -21.048346 -10.943744 25.794061 -1.122398 2.008956 0.008808 -0.001160 -186232.000000 0 0 1
8.761665 -20.773046 -11.177844 25.164070 -1.171656 2.031076 -0.000444 0.005017 -319743.000000 0 0 1
7.863965 -21.375446 -10.139944 24.931308 -1.218267 1.989652 -0.002175 -0.001985 -636513.000000 0 1 0
7.952765 -22.819446 -10.114844 26.197016 -1.235451 1.967204 0.000852 -0.001183 -221655.000000 0 0 1
7.246465 -23.325546 -9.031644 26.041562 -1.269583 1.924971 -0.000842 -0.023324 -172999.000000 0 0 1
6.971165 -24.786246 -9.112944 27.313017 -1.296628 1.910967 0.011910 -0.014403 114851.000000 0 0 1
8.237465 -25.405986 -9.171044 28.238768 -1.257258 1.901563 0.009080 0.002809 -91427.300000 0 0 1
8.189165 -26.698766 -9.730044 29.572965 -1.273182 1.906060 -0.009741 0.000148 406347.000000 0 0 1
9.600365 -27.328256 -9.617144 30.520322 -1.232966 1.891365 -0.011177 0.009533 474224.000000 0 0 1
10.087465 -27.681146 -8.312044 30.611973 -1.221337 1.845778 0.002206 0.007556 348772.000000 0 0 1
11.400765 -28.233056 -8.404844 31.586774 -1.187011 1.840128 0.023852 0.017027 423692.000000 0 0 1
12.146265 -28.265626 -7.042444 31.560630 -1.164936 1.795831 0.017150 0.003680 -141650.000000 0 0 1
11.786065 -29.271086 -6.129944 32.144735 -1.188006 1.762670 0.037493 0.003771 234691.000000 0 0 1
10.447965 -29.268426 -5.633444 31.583800 -1.227925 1.750121 0.037307 0.000931 229429.000000 0 0 1
10.240565 -30.418846 -4.651944 32.431712 -1.246062 1.714731 0.052512 -0.001867 -8062.760000 0 0 1
10.211465 -31.724426 -5.215044 33.732920 -1.259389 1.726017 0.054235 0.001982 -117486.000000 0 0 1
9.094665 -32.120276 -6.005044 33.918809 -1.294875 1.748776 0.056666 0.002597 225468.000000 0 0 1
9.116465 -33.608906 -6.309544 35.390378 -1.305918 1.750039 0.051639 0.003108 -24531.300000 0 0 1
8.731365 -34.450874 -5.274344 35.929350 -1.322579 1.718126 0.049343 0.002173 -117760.000000 0 0 1
9.062665 33.581887 -5.587244 35.229141 1.307208 1.730066 0.045611 0.000749 3009.490000 0 0 1
8.678065 32.522131 -4.501244 33.959668 1.310036 1.703734 0.016138 0.006098 -1142440.000000 0 0 1
7.388565 32.084251 -4.515544 33.232216 1.344456 1.707096 0.025205 -0.001395 -1833390.000000 0 0 1
7.084365 31.141361 -3.441844 32.121938 1.347113 1.678152 0.006085 0.001643 -94505.900000 0 0 1
5.662765 30.558331 -3.511544 31.276340 1.387565 1.683308 0.007455 -0.005175 -170385.000000 0 0 1
5.346665 29.693541 -4.604044 30.520328 1.392644 1.722226 0.009342 -0.003041 -60617.700000 0 0 1
5.187465 30.409261 -5.840844 31.396631 1.401834 1.757921 0.015772 -0.007114 -713265.000000 0 0 1
5.538265 29.590021 -7.087544 30.926930 1.385770 1.802022 0.030385 -0.010157 -390112.000000 0 0 1
4.705765 28.568871 -7.536244 29.918549 1.407546 1.825431 0.032847 -0.012195 -391004.000000 0 0 1
5.002765 27.296871 -6.886244 28.593132 1.389535 1.814023 0.009176 -0.010089 -90386.500000 0 0 1
4.061365 26.119821 -7.192944 27.394857 1.416542 1.836476 0.012325 -0.011844 118922.000000 0 0 1
2.710865 26.126051 -6.785144 27.128537 1.467405 1.823591 0.012261 -0.016417 79447.300000 0 0 1
1.710065 26.612741 -7.657344 27.745220 1.506627 1.850414 0.031274 -0.020176 241845.000000 0 0 1
1.322365 25.754331 -8.923944 27.288661 1.519496 1.903945 0.044956 -0.025399 -302745.000000 0 0 1
2.318765 25.606651 -9.950244 27.569632 1.480489 1.940043 0.032775 -0.020511 138928.000000 0 0 1
1.995965 24.933961 -11.175944 27.396861 1.490917 1.990980 0.038904 -0.019240 -734367.000000 0 0 1
1.847665 23.414891 -11.020644 25.944664 1.492050 2.009510 0.038917 -0.021133 -672159.000000 0 0 1
0.822165 22.899791 -10.259744 25.106548 1.534909 1.991769 0.057821 -0.022965 -677247.000000 0 0 1
0.786065 21.504791 -10.296444 23.855622 1.534260 2.017079 0.026661 -0.023594 -415125.000000 0 1 0
-0.322935 20.818591 -9.461444 22.870001 -1.555286 1.997317 0.044505 -0.016649 520895.000000 0 1 0
-1.640035 20.941291 -9.961944 23.247962 -1.492640 2.013637 0.063096 -0.016056 636560.000000 0 1 0
-2.669635 20.308491 -9.163944 22.439689 -1.440092 1.991476 0.041132 -0.014768 313988.000000 0 1 0
-4.046635 20.440591 -9.798944 23.026340 -1.375353 2.010370 0.046594 -0.012470 -649917.000000 0 1 0
-5.028535 19.688991 -9.120944 22.274069 -1.320743 1.992688 0.031248 -0.018799 -237877.000000 0 1 0
-6.042535 19.464691 -10.070644 22.733330 -1.269793 2.029728 0.028668 -0.006651 -59694.100000 0 1 0
-7.046935 18.270691 -9.791244 21.893970 -1.202681 2.034442 0.033490 -0.003671 685249.000000 0 1 0
-7.985235 18.553091 -8.769544 22.020129 -1.164361 1.980406 0.030983 -0.008493 -2908.500000 0 1 0
-9.308735 18.606791 -9.266344 22.775653 -1.106919 1.989803 0.037537 -0.017807 491764.000000 0 1 0
-10.350935 18.890391 -8.121444 23.020569 -1.069531 1.931348 0.052626 -0.023747 399649.000000 0 1 0
-10.407835 17.947591 -7.115044 21.933146 -1.045286 1.901170 0.041822 -0.016666 135690.000000 0 1 0
-11.444035 18.290691 -6.193744 22.447222 -1.011711 1.850348 0.040457 -0.019797 -161861.000000 0 1 0
-11.595435 17.177691 -5.199344 21.367273 -0.977027 1.816596 0.024265 -0.023477 -523825.000000 0 1 0
-12.634535 17.476291 -4.317744 21.993070 -0.944831 1.768403 0.039488 -0.026728 -321256.000000 0 1 0
-13.057235 16.333791 -3.655244 21.228399 -0.896421 1.743845 0.043408 -0.022113 -297337.000000 0 1 0
-14.385235 16.628591 -2.912644 22.179462 -0.857606 1.702498 0.040612 -0.022326 212111.000000 0 1 0
-15.475635 16.690691 -3.841844 23.083202 -0.823154 1.738009 0.053250 -0.024751 4158.880000 0 1 0
-16.620735 17.035991 -3.090744 24.000553 -0.797736 1.699933 0.049276 -0.027193 -138709.000000 0 1 0
-17.843435 17.259791 -4.025744 25.149457 -0.768773 1.731561 0.036126 -0.026550 7776.890000 0 0 1
-17.703935 18.321691 -4.930944 25.950489 -0.802544 1.761972 0.028332 -0.024994 735502.000000 0 0 1
-18.964335 18.644991 -5.552944 27.168307 -0.776907 1.776637 0.020253 -0.021312 996789.000000 0 0 1
-18.749635 19.521591 -6.775044 27.902376 -0.805566 1.816060 0.013819 -0.007326 -242698.000000 0 0 1
-18.477035 20.861391 -6.452544 28.604786 -0.845935 1.798330 0.016608 -0.014078 114320.000000 0 0 1
-18.526835 21.729391 -7.576644 29.543453 -0.864785 1.830152 0.007122 -0.004230 44054.100000 0 0 1
-18.429135 23.218991 -7.180344 30.501015 -0.899903 1.808440 0.006590 -0.011854 -53355.500000 0 0 1
-17.148035 23.518891 -6.683444 29.864055 -0.940795 1.796503 0.009731 -0.012753 -233985.000000 0 0 1
-17.134335 24.668601 -5.803544 30.590954 -0.963717 1.761668 0.006343 -0.013766 765592.000000 0 0 1
-15.688535 25.081261 -5.331844 30.060412 -1.011832 1.749111 0.008096 -0.013639 555887.000000 0 0 1
-15.642135 25.976721 -4.248344 30.618865 -1.028790 1.709995 -0.003210 -0.012695 -93203.000000 0 0 1
-14.369935 26.434821 -3.834044 30.331415 -1.072881 1.697540 0.003006 -0.013187 48764.100000 0 0 1
-13.790735 27.607271 -4.650344 31.208517 -1.107523 1.720362 0.016858 -0.012494 15582.600000 0 0 1
-14.583735 28.765081 -4.444644 32.555646 -1.101569 1.707749 0.012046 -0.009110 299740.000000 0 0 1
-14.051635 29.759601 -5.306444 33.335277 -1.129658 1.730660 0.008245 -0.007391 -169752.000000 0 0 1
-14.549335 31.112311 -4.833244 34.684569 -1.133371 1.710600 0.010371 -0.001761 396045.000000 0 0 1
-15.957835 31.303771 -4.828144 35.466739 -1.099360 1.707352 0.031490 -0.006458 220607.000000 0 0 1
-16.302835 32.498501 -4.155544 36.595130 -1.105831 1.684596 0.034563 -0.004929 -118691.000000 0 0 1
12.438570 -8.856646 18.989733 24.367359 -0.618755 0.677232 0.018978 0.014303 -336635.000000 0 1 0
12.935670 -10.024146 19.553933 25.498458 -0.659262 0.696851 0.037883 0.008672 -110543.000000 0 0 1
13.420770 -10.873746 18.538633 25.338436 -0.680940 0.750071 0.038574 0.007907 -131553.000000 0 0 1
13.690370 -12.304246 19.115133 26.536937 -0.732125 0.766530 0.042575 -0.001542 18443.800000 0 0 1
14.925070 -12.412046 19.817433 27.740715 -0.693729 0.775058 0.036696 -0.005248 475416.000000 0 0 1
15.053870 -13.659546 20.478633 28.854404 -0.736876 0.781691 0.031037 -0.008872 -293411.000000 0 0 1
15.585270 -14.839746 19.647933 29.140350 -0.760899 0.830845 0.028634 -0.004285 -907310.000000 0 0 1
14.823870 -15.061046 18.503933 28.088748 -0.793334 0.851618 0.030848 -0.009368 71967.700000 0 0 1
14.988970 -16.338646 18.002533 28.560668 -0.828454 0.888823 0.030805 -0.013469 -420027.000000 0 0 1
14.553170 -16.480346 16.495933 27.486585 -0.847418 0.927114 0.029709 -0.016158 -353904.000000 0 0 1
13.192270 -16.264946 16.220133 26.489190 -0.889332 0.911792 0.043804 -0.017829 -156271.000000 0 0 1
12.840070 -16.255346 14.823833 25.472529 -0.902245 0.949667 0.047256 -0.026925 -225980.000000 0 0 1
12.290170 -17.559446 14.284033 25.756864 -0.960125 0.982948 0.028387 -0.013048 -604058.000000 0 0 1
13.262370 -18.524046 13.980933 26.730081 -0.949443 1.020381 0.025590 -0.011413 -231238.000000 0 0 1
12.734970 -19.705046 13.436333 27.037074 -0.997041 1.050705 0.028405 -0.016370 -390875.000000 0 0 1
13.768370 -20.804046 13.076933 28.167047 -0.986162 1.087993 0.029958 -0.010449 -500684.000000 0 0 1
14.273070 -21.434246 14.194833 29.404774 -0.983324 1.067017 0.031580 -0.012508 -183548.000000 0 0 1
14.958870 -22.584446 13.778233 30.391853 -0.985786 1.100273 0.015620 0.001315 -115289.000000 0 0 1
15.808570 -23.339146 14.867833 31.869721 -0.975440 1.085445 0.023478 -0.003376 -70968.500000 0 0 1
17.103170 -22.851346 15.052333 32.268796 -0.928286 1.085504 -0.011078 -0.007127 -756111.000000 0 0 1
17.692170 -23.468046 16.169033 33.543997 -0.924814 1.067832 0.002793 -0.008780 271233.000000 0 0 1
19.149570 -22.960246 16.338533 34.070906 -0.875646 1.070660 -0.011982 -0.013140 510022.000000 0 0 1
20.133370 -23.707346 15.683533 34.833376 -0.866740 1.103757 0.005536 -0.018749 -714891.000000 0 0 1
21.434070 -23.200946 15.698233 35.272337 -0.824962 1.109557 -0.000789 -0.007958 82724.800000 0 0 1
22.470170 -24.226246 15.149633 36.350116 -0.822987 1.140907 -0.011494 -0.017825 -88288.600000 0 0 1
22.649670 -25.279286 16.044333 37.542915 -0.840208 1.129226 -0.002061 -0.017784 732673.000000 0 0 1
23.601270 -26.192506 15.431133 38.486195 -0.837391 1.158240 -0.003071 -0.024746 166631.000000 0 0 1
24.075870 -27.303556 16.333633 39.898863 -0.848136 1.149026 0.000412 -0.026599 -411032.000000 0 0 1
24.881970 -26.840566 17.380933 40.516975 -0.823247 1.127434 -0.016188 -0.011791 -40152.800000 0 0 1
25.397470 -27.740106 18.341833 41.844567 -0.829456 1.117054 -0.000195 -0.007610 143372.000000 0 0 1
25.696370 -27.085356 19.700933 42.214295 -0.811708 1.085253 -0.001755 -0.009106 914911.000000 0 0 1
24.479670 -26.598726 20.317133 41.467245 -0.826861 1.058757 0.014359 -0.004090 966665.000000 0 0 1
24.722670 -26.146476 21.610833 41.974716 -0.813380 1.029959 0.014446 0.001736 514440.000000 0 0 1
23.424270 -26.309126 22.487933 41.792029 -0.843340 1.002625 0.023454 -0.001122 672982.000000 0 0 1
23.070170 -27.627086 22.633633 42.517878 -0.875042 1.009443 0.025357 0.002161 690762.000000 0 0 1
21.763470 -27.786046 23.220833 42.248315 -0.906351 0.988878 0.027540 -0.000246 831035.000000 0 0 1
21.298770 -29.244566 23.146733 42.949430 -0.941330 1.001630 0.056948 0.005114 126303.000000 0 0 1
22.130370 -30.119286 23.941033 44.385783 -0.937122 1.001090 0.040462 -0.001219 634524.000000 0 0 1
22.069170 -31.495876 23.576233 45.109614 -0.959601 1.020848 0.048003 -0.006719 -689053.000000 0 0 1
23.112870 -32.330756 24.268173 46.566370 -0.950148 1.022596 0.011876 -0.002986 -613997.000000 0 0 1
22.934370 -32.469906 25.609753 47.287838 -0.955837 0.998491 0.011174 -0.002957 1116500.000000 0 0 1
24.136170 -32.941356 26.264923 48.554442 -0.938459 0.999245 0.020200 -0.004351 73537.400000 0 0 1
23.812870 -33.248796 27.755093 49.425504 -0.949279 0.974534 0.014130 -0.012307 28215.300000 0 0 1
23.220170 -34.486628 28.048853 50.152188 -0.978209 0.977286 0.000067 -0.007842 759413.000000 0 0 1
21.863270 -34.609302 27.594393 49.368582 -1.007382 0.977682 0.005929 -0.004778 256098.000000 0 0 1
21.112270 33.459287 28.183093 48.575082 1.007906 0.951826 0.043692 -0.020500 29447.600000 0 0 1
20.546670 33.746345 29.453863 49.279930 1.023890 0.930186 0.033784 -0.027032 80539.000000 0 0 1
19.677870 32.712061 29.828953 48.446506 1.029239 0.907511 0.036838 -0.032761 -319896.000000 0 0 1
19.295970 32.851951 31.248583 49.275340 1.039722 0.883871 0.025637 -0.034490 -400095.000000 0 0 1
20.346070 32.686521 32.182603 50.180586 1.014025 0.874558 0.003301 -0.015459 21109.700000 0 0 1
20.004470 33.065061 33.485666 51.134792 1.026706 0.856811 -0.009858 -0.011404 -285375.000000 0 0 1
21.284870 33.169561 34.366615 52.290819 1.000279 0.853671 -0.024709 -0.007126 246546.000000 0 0 1
21.733970 31.886691 -34.456106 51.733449 0.972526 2.299672 -0.024920 -0.007139 -722045.000000 0 0 1
22.951270 32.022951 -33.807494 51.915093 0.948941 2.279971 -0.029977 -0.007435 -452327.000000 0 0 1
23.618570 30.641051 -33.444504 51.139473 0.914106 2.283638 -0.017202 0.009319 47953.100000 0 0 1
23.905070 29.797911 -34.547800 51.506489 0.894691 2.306011 -0.006759 0.006833 -212903.000000 0 0 1
22.898170 28.847311 34.562717 50.508168 0.899865 0.817154 -0.002323 -0.001368 -455317.000000 0 0 1
22.972770 27.956421 33.286723 49.166204 0.882942 0.827084 0.029799 -0.009296 111248.000000 0 0 1
24.218070 27.286431 33.134409 49.284413 0.844902 0.833471 0.023130 -0.015694 661986.000000 0 0 1
24.430870 26.617571 31.885503 48.187632 0.828208 0.847719 0.035592 -0.027213 -227836.000000 0 0 1
25.819370 25.952641 31.960813 48.597048 0.787972 0.853075 0.031427 -0.017733 -291274.000000 0 0 1
25.859270 24.849191 32.878833 48.653898 0.765481 0.828788 0.040516 -0.015264 31463.400000 0 0 1
26.707270 25.091131 33.949874 49.954350 0.754208 0.823555 0.041093 -0.026455 -1142010.000000 0 0 1
26.716770 23.923491 -34.163845 49.530673 0.730295 2.331942 0.038726 -0.022361 -862670.000000 0 0 1
25.755470 23.881691 -33.175294 48.314382 0.747667 2.327674 0.035959 -0.016066 -14661.800000 0 0 1
24.430270 23.624691 -33.612844 47.799450 0.768636 2.350693 0.026036 -0.011429 -329006.000000 0 0 1
23.966770 22.149791 -33.648034 46.874401 0.746019 2.371482 0.014232 -0.007128 -389310.000000 0 0 1
23.798770 21.569691 -32.364194 45.596865 0.736305 2.359996 0.003725 -0.005343 190931.000000 0 0 1
23.327670 20.270491 -32.538754 44.875868 0.715391 2.381952 -0.001738 0.002642 -351888.000000 0 0 1
23.249770 19.506191 -31.238594 43.553336 0.698064 2.370643 0.002769 -0.001229 -164124.000000 0 0 1
22.312370 20.043991 -30.314414 42.644661 0.731895 2.361518 0.000802 -0.003701 196531.000000 0 0 1
22.391470 19.378791 -29.057964 41.488321 0.713398 2.346739 0.009657 -0.003627 233425.000000 0 0 1
21.157970 19.677291 -28.128334 40.324418 0.749154 2.342770 0.023542 -0.010823 532716.000000 0 0 1
21.072470 18.944191 -26.952094 39.106863 0.732263 2.331168 0.023014 -0.004864 -22329.800000 0 0 1
21.630170 19.638391 -25.856164 39.013740 0.737172 2.295275 0.022962 -0.001254 48258.400000 0 0 1
21.635870 18.780491 -24.587044 37.753681 0.714866 2.280025 0.029326 0.001093 31425.300000 0 0 1
22.591470 17.751291 -24.713644 37.897850 0.665993 2.281163 0.041896 -0.016617 181995.000000 0 0 1
22.527570 16.877791 -23.613344 36.741547 0.642993 2.268798 0.042290 -0.016795 -408257.000000 0 0 1
23.493770 15.672391 -23.668844 36.848273 0.588294 2.268334 0.050135 -0.028843 174705.000000 0 0 1
24.854570 16.089491 -23.501344 37.801251 0.574507 2.241718 0.054917 -0.035836 821648.000000 0 0 1
25.819870 15.036791 -23.596144 38.072940 0.527358 2.239235 0.050484 -0.037774 177585.000000 0 0 1
25.923370 14.028291 -22.445444 37.048779 0.496019 2.221611 0.052443 -0.034140 -908050.000000 0 0 1
24.782070 13.219191 -22.340344 35.888563 0.490023 2.242719 0.043415 -0.028272 -146581.000000 0 0 1
24.737370 12.655291 -21.059244 34.865250 0.472873 2.219330 0.035739 -0.029663 843079.000000 0 0 1
23.296670 12.002491 -20.851844 33.490208 0.475735 2.242889 0.027118 -0.017708 852847.000000 0 0 1
22.375770 13.038391 -20.891644 33.273646 0.527603 2.249614 0.041438 -0.019946 -430048.000000 0 0 1
21.090270 12.606691 -21.325544 32.534704 0.538763 2.285602 0.034478 -0.017667 231040.000000 0 0 1
20.043570 13.717791 -21.309344 32.311153 0.600178 2.290955 0.039419 -0.013675 -705402.000000 0 0 1
20.284170 14.860791 -22.145644 33.507017 0.632291 2.292848 0.036703 -0.008882 -256098.000000 0 0 1
19.251670 15.793091 -22.164944 33.336665 0.687026 2.298132 0.026896 -0.002717 -403544.000000 0 0 1
18.019470 15.499991 -23.065644 33.120612 0.710375 2.341184 0.031265 0.016821 -435362.000000 0 0 1
17.051670 14.806591 -22.316544 31.749374 0.715044 2.350259 0.020620 0.002699 -373352.000000 0 0 1
15.935870 14.643091 -23.173344 31.707664 0.743147 2.390353 0.023206 -0.009285 -598844.000000 0 0 1
14.734870 14.079091 -22.424744 30.301920 0.762643 2.403932 0.012460 -0.016701 -302929.000000 0 0 1
13.579770 14.193691 -23.221044 30.415258 0.807499 2.439461 0.018000 -0.015606 -10319.200000 0 0 1
12.412170 13.533791 -22.735844 29.225743 0.828600 2.462175 0.035165 -0.016581 631664.000000 0 0 1
11.135270 13.940791 -23.518944 29.520850 0.896815 2.492594 0.028158 -0.010828 -94875.100000 0 0 1
10.858870 15.275991 -23.385644 29.969306 0.952829 2.465973 -0.001207 -0.002152 -77619.700000 0 0 1
10.392070 15.795591 -24.601944 31.028236 0.988881 2.486332 -0.004459 -0.004045 -706097.000000 0 0 1
10.322370 17.314691 -24.532844 31.752327 1.033203 2.453772 -0.013764 0.002581 -502075.000000 0 0 1
11.491970 18.074091 -24.425044 32.485703 1.004450 2.421691 -0.015613 0.005828 373085.000000 0 0 1
12.553570 17.945791 -25.418154 33.551842 0.960388 2.430392 -0.005199 0.001193 875871.000000 0 0 1
12.141470 18.202091 -26.936954 34.703471 0.982537 2.459418 0.001808 -0.008044 -870630.000000 0 0 1
13.227570 17.971291 -27.750524 35.609374 0.936290 2.464351 0.004849 -0.010961 -528145.000000 0 0 1
12.792470 17.823791 -29.083514 36.430559 0.948277 2.495309 0.004600 -0.012482 -327114.000000 0 0 1
13.859070 18.109391 -30.135844 37.791440 0.917577 2.493812 0.014115 -0.003119 -283818.000000 0 0 1
14.932470 17.189891 -30.221504 37.839269 0.855559 2.495896 0.006046 -0.004504 55871.900000 0 0 1
15.786570 17.600691 -31.278504 39.208990 0.839681 2.494331 0.010724 0.007196 739436.000000 0 0 1
16.981970 16.604391 -31.571614 39.507720 0.774157 2.496635 0.014032 -0.000469 156716.000000 0 0 1
17.878670 16.400791 -30.479674 38.956942 0.742312 2.469297 0.018281 -0.000870 105032.000000 0 0 1
18.888070 15.499591 -30.837484 39.343957 0.687178 2.471545 0.021480 -0.000345 -471506.000000 0 0 1
20.158870 16.064591 -31.438574 40.655074 0.672847 2.454826 0.016036 0.001470 -1144810.000000 0 0 1
19.952970 16.602891 -32.733334 41.776167 0.694011 2.471141 0.007694 0.003526 695051.000000 0 0 1
21.120870 17.246591 -33.279444 43.023917 0.684761 2.455158 0.009392 0.004729 432805.000000 0 0 1
20.798870 17.947891 34.537586 44.131221 0.711951 0.671947 0.016105 0.019466 561588.000000 0 0 1
21.904470 18.742891 34.040909 44.608130 0.707774 0.702685 0.013860 0.015567 909962.000000 0 0 1
21.913770 18.994891 32.638023 43.660735 0.714168 0.726450 0.022093 0.011463 -340533.000000 0 0 1
22.761270 20.245691 32.337673 44.426215 0.726972 0.755548 0.029917 0.003104 431071.000000 0 0 1
24.174170 20.070591 32.289073 45.053339 0.692916 0.771758 0.019720 0.003769 125705.000000 0 0 1
24.815070 21.285091 32.130733 45.839141 0.708975 0.794074 0.028347 -0.003135 -562529.000000 0 0 1
26.316770 21.167191 31.898413 46.455690 0.677372 0.813937 0.016783 -0.001003 -614924.000000 0 0 1
27.048970 20.631491 32.945413 47.357211 0.651609 0.801432 0.020764 0.000137 -979421.000000 0 0 1
28.413270 20.713491 32.654443 47.986199 0.629930 0.822356 0.012543 0.004540 -650970.000000 0 0 1
29.182570 20.150491 33.858536 49.031267 0.604320 0.808547 0.005118 0.005968 -272783.000000 0 0 1
28.974870 20.821691 -34.069833 49.333958 0.623108 2.333109 0.002899 -0.002818 -72631.400000 0 0 1
27.861770 20.378791 -33.334864 47.987358 0.631507 2.338742 0.009730 -0.009267 -96241.200000 0 0 1
28.067370 20.616091 -31.805984 47.163769 0.633521 2.310912 0.013851 -0.012050 -941329.000000 0 0 1
29.198670 19.963091 -31.422994 47.312703 0.599701 2.297160 0.012833 -0.019775 -1027010.000000 0 0 1
29.550570 20.304591 -30.102484 46.815298 0.602025 2.269212 -0.004960 -0.012977 262457.000000 0 0 1
30.953970 19.821791 -29.622664 47.207562 0.569571 2.249132 0.027465 -0.002742 46684.900000 0 0 1
31.962670 20.504091 -30.306054 48.584843 0.570377 2.244361 -0.010526 -0.002409 925912.000000 0 0 1
33.252370 20.194391 -29.660954 48.921424 0.545775 2.222193 0.022637 0.001233 1977050.000000 0 0 1
34.463970 20.994491 -30.274604 50.448841 0.547136 2.214429 0.021147 -0.002320 328408.000000 0 0 1
-35.034924 20.413891 -31.440924 51.309887 -0.527581 2.230352 0.009214 0.000793 182915.000000 0 0 1
-33.994624 21.273491 -31.892194 51.237759 -0.559167 2.242647 0.012967 -0.010210 -187050.000000 0 0 1
-33.269424 20.791991 -33.137274 51.354069 -0.558569 2.272174 -0.004365 -0.005663 20620.700000 0 0 1
-32.148224 19.993891 -32.768144 50.070103 -0.556387 2.284245 0.013323 -0.006854 531976.000000 0 0 1
-31.504624 19.367791 -33.876984 50.152794 -0.551202 2.312406 0.018104 -0.001294 523125.000000 0 0 1
-30.559124 18.158691 -33.575224 48.896767 -0.536155 2.327675 0.007156 -0.000548 380683.000000 0 0 1
-31.322124 16.985591 -33.286714 48.760548 -0.496903 2.322188 0.007002 0.000475 75834.500000 0 0 1
-30.697224 15.784491 -33.645564 48.202632 -0.474942 2.343401 -0.000834 0.005384 -883679.000000 0 0 1
-31.576124 14.528091 -33.588494 48.335328 -0.431219 2.339085 -0.010307 0.010513 -449382.000000 0 0 1
-31.113024 13.253091 -34.020954 47.969678 -0.402689 2.359185 -0.009073 0.006042 -471967.000000 0 0 1
-32.166324 12.362791 -33.889964 48.332604 -0.366934 2.347851 -0.003294 0.001808 -433474.000000 0 0 1
-31.653424 10.932991 -33.710054 47.516705 -0.332568 2.359494 -0.007584 0.005234 -59837.900000 0 0 1
-31.031724 10.472991 34.289231 47.417326 -0.325490 0.762463 -0.019924 0.003852 -100101.000000 0 0 1
-31.641324 9.270791 33.972035 47.341527 -0.285019 0.770454 0.002167 -0.001602 -387808.000000 0 0 1
-30.881824 8.461991 32.902223 45.911313 -0.267447 0.771813 0.014215 -0.001484 -99057.400000 0 0 1
-29.600724 8.194091 33.401157 45.376021 -0.270058 0.743510 0.006990 0.004938 -1157890.000000 0 0 1
-28.721824 7.677191 32.501543 44.048073 -0.261189 0.740894 0.010687 0.003624 -585852.000000 0 0 1
19.178270 -4.084546 -31.682584 37.259571 -0.209843 2.587391 0.001872 -0.015716 -334939.000000 0 0 1
20.286870 -4.371346 -32.495664 38.556892 -0.212232 2.573257 0.017956 -0.024305 -371756.000000 0 0 1
21.414270 -3.563346 -32.395944 38.996994 -0.164890 2.551213 0.009647 -0.024772 -229581.000000 0 0 1
21.330370 -2.106646 -32.960524 39.316902 -0.098444 2.565008 0.007169 -0.023731 -646488.000000 0 0 1
22.483070 -1.366946 -32.652804 39.668156 -0.060724 2.537731 0.000678 -0.024059 -180727.000000 0 0 1
22.231370 0.034154 -32.820804 39.641394 0.001536 2.546226 -0.011984 -0.022813 79057.600000 0 0 1
23.236470 0.893854 -32.014934 39.568782 0.038449 2.513408 0.004992 -0.025962 136155.000000 0 0 1
24.570570 0.948854 -32.482454 40.739699 0.038598 2.493633 0.016703 -0.036105 -274445.000000 0 0 1
25.268670 1.758754 -31.571684 40.476785 0.069490 2.465454 0.023197 -0.029712 -1017400.000000 0 0 1
26.781470 1.695754 -31.644724 41.491099 0.063234 2.438254 0.011445 -0.031294 -759541.000000 0 0 1
27.413070 2.324754 -32.712294 42.743129 0.084602 2.442339 0.027309 -0.027623 -184191.000000 0 0 1
27.698370 1.355354 -33.685014 43.631604 0.048894 2.452829 0.014616 -0.019603 -238671.000000 0 0 1
28.495570 1.964554 34.291737 44.629365 0.068834 0.694510 0.005049 -0.024615 309310.000000 0 0 1
27.640770 2.808054 33.499167 43.521162 0.101244 0.692392 0.000624 -0.016101 529466.000000 0 0 1
28.118970 4.136454 33.482754 43.919034 0.146058 0.703822 0.010673 -0.006375 410224.000000 0 0 1
27.091470 5.147554 32.839583 42.882202 0.187768 0.698498 0.008801 0.001431 434527.000000 0 0 1
27.503170 6.495954 33.007953 43.452811 0.231939 0.708056 0.014862 -0.002683 353661.000000 0 0 1
26.707670 7.450554 32.236083 42.520295 0.272050 0.710349 0.010005 0.001560 332372.000000 0 0 1
27.151470 8.911054 32.445863 43.235902 0.317122 0.722072 0.008447 0.007185 1493260.000000 0 0 1
28.460770 9.254754 31.892373 43.735448 0.314391 0.753628 0.001380 0.003152 1096620.000000 0 0 1
28.656370 10.638954 31.669793 44.015346 0.355487 0.767690 0.006890 0.003266 -31250.600000 0 0 1
30.014370 11.030654 31.037833 44.563268 0.352190 0.800303 -0.010631 0.008670 918670.000000 0 0 1
31.122770 10.698954 31.946733 45.865981 0.331110 0.800255 -0.013320 0.004829 1874210.000000 0 0 1
32.433270 11.042654 31.455093 46.511075 0.328162 0.828078 -0.022616 0.007441 808226.000000 0 0 1
32.846170 12.516154 31.611603 47.273867 0.364067 0.838350 -0.010348 0.006472 -887323.000000 0 0 1
33.040370 12.770754 33.014033 48.421943 0.368832 0.820577 -0.001930 -0.002049 -103515.000000 0 0 1
33.233270 14.106854 33.413405 49.192573 0.401430 0.824074 0.002886 0.008515 60374.000000 0 0 1
32.061270 15.137254 33.324797 48.658027 0.441108 0.816361 0.015984 0.005438 -693168.000000 0 0 1
31.780370 15.418054 31.979243 47.648508 0.451692 0.835039 0.004550 -0.000344 -36970.200000 0 0 1
30.786870 16.400254 31.793653 47.197840 0.489466 0.831693 -0.000030 0.004818 304414.000000 0 0 1
29.326070 15.885054 31.960903 46.193643 0.496425 0.806693 0.006127 0.011699 -310104.000000 0 0 1
29.092970 14.926154 30.959773 45.029974 0.474033 0.812705 0.011454 0.016311 1014460.000000 0 0 1
27.694070 14.561754 31.051253 44.081589 0.484080 0.789213 0.008549 0.017767 1203890.000000 0 0 1
27.063170 13.965454 29.752923 42.575645 0.476391 0.797043 0.009084 0.013132 96273.000000 0 0 1
27.405670 12.614954 29.464723 42.170816 0.431390 0.797218 -0.006360 0.002381 -454758.000000 0 0 1
26.435970 12.125454 28.609193 40.796729 0.430043 0.793630 -0.006483 -0.004742 -401920.000000 0 0 1
26.387570 10.543154 28.607793 40.322051 0.380118 0.782033 -0.006619 0.009038 491003.000000 0 0 1
27.441170 9.943454 27.835873 40.332691 0.347639 0.809091 -0.007941 0.011427 518809.000000 0 0 1
27.080470 8.637554 27.567783 39.597246 0.308758 0.800700 0.003968 0.011185 310745.000000 0 0 1
28.248770 7.846154 26.918943 39.801817 0.270923 0.828035 0.007825 0.004457 214353.000000 0 0 1
28.650470 8.368554 25.679183 39.373882 0.284185 0.860329 0.000444 0.009681 -29399.500000 0 0 1
29.782370 7.693154 25.185743 39.755451 0.252787 0.884706 0.007811 0.018558 69817.100000 0 0 1
30.127470 8.016854 23.699833 39.161416 0.260071 0.920800 0.011265 0.017832 149121.000000 0 0 1
30.737170 9.311854 23.440133 39.760836 0.294162 0.940322 0.000571 0.008814 563216.000000 0 0 1
29.799570 10.388454 23.280433 39.216233 0.335437 0.935218 -0.004146 0.005895 -77953.800000 0 0 1
29.433370 10.404954 21.788733 38.070136 0.339797 0.961450 -0.006792 0.023652 68407.300000 0 0 1
30.477870 10.815454 20.915233 38.513914 0.341000 0.996723 -0.012967 0.011897 514750.000000 0 0 1
30.062470 10.609554 19.582233 37.413615 0.339271 1.019962 -0.016147 0.011304 -1427280.000000 0 0 1
30.911070 11.375654 18.568633 37.811293 0.352630 1.057459 -0.007242 -0.007274 561081.000000 0 0 1
32.106570 10.683154 18.171933 38.408082 0.321217 1.077959 -0.002454 -0.002743 809632.000000 0 0 1
33.146570 10.663354 19.144033 39.735327 0.311247 1.068101 0.007947 0.006419 -653207.000000 0 0 1
34.389570 9.846154 18.717633 40.372504 0.278852 1.088716 0.019094 -0.012543 -79229.400000 0 0 1
34.146670 8.476554 18.548633 39.773092 0.243321 1.085623 0.024076 -0.012891 739319.000000 0 0 1
-34.759024 7.873654 18.008433 39.931039 -0.222762 1.102924 0.018850 -0.002935 188673.000000 0 0 1
-35.030724 6.391254 17.560933 39.703730 -0.180462 1.112636 0.011689 0.002298 -428745.000000 0 0 1
34.127270 6.254854 16.504333 38.421176 0.181268 1.126787 -0.013301 0.015099 135518.000000 0 0 1
33.930470 4.893154 16.128533 37.886005 0.143224 1.131048 -0.005361 0.020258 315944.000000 0 0 1
32.679070 4.247654 16.819033 36.997893 0.129256 1.098880 -0.009249 0.021767 -25301.900000 0 0 1
32.965570 3.380654 17.918833 37.672831 0.102194 1.075101 0.011163 0.027422 -495087.000000 0 0 1
31.912370 2.630654 18.459733 36.960539 0.082248 1.047839 0.003251 0.024342 -543539.000000 0 0 1
32.136970 1.892454 19.770433 37.778781 0.058819 1.020053 0.008020 0.010057 15488.200000 0 0 1
32.928170 0.723754 19.591433 38.322480 0.021976 1.034186 0.015421 0.012707 56279.200000 0 0 1
33.007070 -0.008846 20.781733 39.004451 -0.000268 1.008886 0.020276 0.000998 199936.000000 0 0 1
33.209870 -1.508946 20.554633 39.085360 -0.045405 1.017034 0.036141 -0.001960 134985.000000 0 0 1
32.863670 -2.299946 21.692633 39.444656 -0.069871 0.988491 0.044002 0.004837 73516.500000 0 0 1
33.081370 -3.698546 21.554633 39.656759 -0.111339 0.996160 0.017690 0.003683 -269688.000000 0 0 1
32.464870 -4.505346 22.717133 39.878993 -0.137895 0.964714 0.007825 0.007771 199737.000000 0 0 1
33.149370 -4.256346 23.982133 41.135629 -0.127700 0.948378 0.013496 0.004905 175125.000000 0 0 1
32.331270 -4.499546 25.095973 41.174808 -0.138282 0.915369 0.010134 0.000993 -198494.000000 0 0 1
32.852470 -4.146946 26.460253 42.386637 -0.125565 0.896613 0.000962 0.006169 16393.700000 0 0 1
31.943270 -4.608946 27.447593 42.367266 -0.143296 0.866039 0.001181 0.005077 127102.000000 0 0 1
32.321670 -4.066046 28.729283 43.434949 -0.125142 0.848069 0.000913 0.008406 947440.000000 0 0 1
31.231170 -4.369346 29.858693 43.428317 -0.139001 0.812701 0.009279 -0.000137 767111.000000 0 0 1
31.250070 -5.768646 30.144853 43.801328 -0.182541 0.811767 0.008649 -0.005848 476734.000000 0 0 1
30.221470 -6.165446 31.068353 43.778905 -0.201247 0.781774 0.031296 -0.020365 -2755.120000 0 0 1
30.102470 -7.712146 31.416533 44.188624 -0.250802 0.779928 0.023391 -0.017172 -86816.500000 0 0 1
31.074170 -8.191546 32.339783 45.591305 -0.257749 0.782233 0.007134 -0.021605 679635.000000 0 0 1
32.194870 -8.696446 31.566073 45.919003 -0.263823 0.812853 0.005575 -0.012831 1819840.000000 0 0 1
33.624270 -8.673246 32.267533 47.402642 -0.252443 0.822063 0.002395 -0.012860 1220100.000000 0 0 1
33.530570 -9.373446 33.502692 48.317606 -0.272591 0.804620 0.000049 -0.012365 -579281.000000 0 0 1
34.744670 -9.658346 34.108413 49.637280 -0.271135 0.813233 -0.013096 -0.011986 -885176.000000 0 0 1
34.548270 -10.092646 -33.559984 49.210944 -0.284223 2.321238 0.003048 -0.015682 -247628.000000 0 0 1
34.095270 -9.059746 -32.650294 48.068785 -0.259717 2.317524 0.008288 -0.012570 513772.000000 0 0 1
34.911170 -7.906746 -32.542434 48.376817 -0.222724 2.308630 0.013234 -0.010276 -228576.000000 0 0 1
34.282670 -6.850946 -31.615964 47.136038 -0.197239 2.306001 0.020949 -0.017640 -398498.000000 0 0 1
34.343070 -7.182246 -30.237264 46.317634 -0.206161 2.282103 0.014800 -0.012640 130809.000000 0 0 1
33.709170 -6.129046 -29.543364 45.240288 -0.179857 2.282378 0.022806 -0.018909 -179228.000000 0 0 1
34.068970 -5.968646 -28.049574 44.531989 -0.173433 2.252188 0.019181 -0.014747 -230820.000000 0 0 1
-34.660124 -5.618246 -27.914494 44.856525 0.160698 2.242482 0.020260 -0.015239 -332061.000000 0 0 1
-34.399024 -5.128246 -26.628914 43.802863 0.147991 2.224243 0.016928 -0.016098 -210867.000000 0 0 1
-32.927424 -4.982246 -26.235474 42.395025 0.150171 2.238054 0.022393 -0.015923 -826749.000000 0 0 1
-32.724024 -4.225646 -25.074514 41.442117 0.128419 2.220624 0.025346 -0.015654 262733.000000 0 0 1
-31.458924 -4.322646 -24.424544 40.061297 0.136551 2.226452 0.034756 -0.016518 333097.000000 0 0 1
-30.377224 -3.398046 -25.007244 39.492844 0.111399 2.256489 0.032283 -0.010443 -518642.000000 0 0 1
-30.015224 -3.720246 -26.305594 40.084139 0.123316 2.286647 0.032549 -0.006828 14134.800000 0 0 1
-28.840524 -3.071746 -26.772104 39.470964 0.106108 2.316207 0.032556 -0.007703 121828.000000 0 0 1
-28.352124 -3.776046 -28.034414 40.050341 0.132405 2.346165 0.028987 -0.002234 -275200.000000 0 0 1
-29.029624 -3.486046 -29.223834 41.338893 0.119514 2.355949 0.040186 -0.005321 -408611.000000 0 0 1
-28.600324 -4.374646 -30.236214 41.849070 0.151782 2.378217 0.037566 -0.007405 -996562.000000 0 0 1
-29.678224 -4.799846 -31.299144 43.398985 0.160341 2.376323 0.013808 -0.005204 382784.000000 0 0 1
-30.783124 -5.609646 -30.887544 43.967138 0.180253 2.349721 0.011204 -0.010290 624332.000000 0 0 1
-31.686424 -5.000546 -29.979074 43.906489 0.156523 2.322376 0.022444 -0.016060 -602524.000000 0 0 1
-32.835724 -4.191246 -30.649714 45.112706 0.126956 2.317745 0.039721 -0.017719 -469124.000000 0 0 1
-32.459324 -2.985946 -31.265544 45.166999 0.091732 2.335358 0.036293 -0.008394 31462.300000 0 0 1
-31.876424 -1.990246 -30.415324 44.103961 0.062355 2.331771 0.034221 -0.002641 18702.900000 0 0 1
-31.624024 -0.636046 -31.156574 44.398373 0.020110 2.348648 0.038298 -0.002451 613673.000000 0 0 1
-32.813624 0.138754 -31.398024 45.415736 -0.004229 2.334148 0.046217 -0.000798 256046.000000 0 0 1
-32.662024 1.384754 -32.046574 45.778906 -0.042371 2.346235 0.054415 0.001965 826497.000000 0 0 1
-34.030424 2.117954 -32.364384 47.010731 -0.062157 2.330142 0.041653 0.001767 876796.000000 0 0 1
-34.602624 1.737754 -33.593484 48.258507 -0.050178 2.340769 0.032378 -0.000841 -58235.800000 0 0 1
34.315870 2.497654 -33.859024 48.272670 0.072656 2.348173 0.010701 -0.002346 -369291.000000 0 0 1
33.426970 1.949054 34.204227 47.865335 0.058242 0.774754 0.001301 -0.006397 -494299.000000 0 0 1
33.758570 2.221754 32.861033 47.163808 0.065718 0.799950 -0.003612 0.002369 -536060.000000 0 0 1
34.901870 1.610454 32.372383 47.630928 0.046110 0.823510 -0.023038 0.005952 -812244.000000 0 0 1
-34.949524 1.743854 30.850563 46.650482 -0.049855 0.848229 -0.014229 0.005137 -320503.000000 0 0 1
-34.717824 3.021854 30.403383 46.247428 -0.086822 0.853424 -0.011072 0.008860 -42647.900000 0 0 1
-34.175824 3.056154 29.109193 44.996357 -0.089187 0.867254 -0.008526 0.007494 10752.300000 0 0 1
-33.798024 4.478854 28.658103 44.538225 -0.131751 0.871800 -0.011115 0.007297 -94465.000000 0 0 1
-33.137724 4.589154 27.414103 43.251614 -0.137612 0.884303 -0.011673 0.011503 325399.000000 0 0 1
-32.525124 5.872354 27.265563 42.845994 -0.178624 0.881023 -0.012277 0.016952 -3768.580000 0 0 1
-31.748224 6.069554 25.911023 41.426686 -0.188898 0.895066 -0.005931 0.013803 -60042.200000 0 0 1
-30.488924 5.431654 25.927813 40.389712 -0.176302 0.873769 -0.007275 0.016108 446363.000000 0 0 1
-29.657524 5.799054 24.783003 39.081901 -0.193098 0.883914 -0.005318 0.006750 362667.000000 0 0 1
-30.005224 5.349954 23.319333 38.376123 -0.176447 0.917695 0.008915 0.001058 -303986.000000 0 0 1
-29.805224 3.994254 23.064733 37.898382 -0.133218 0.916509 0.002164 0.015160 -20737.600000 0 0 1
-30.498324 3.581054 21.897333 37.715579 -0.116883 0.951342 0.020904 0.007830 -436173.000000 0 0 1
-30.378824 2.137954 21.433833 37.240475 -0.070261 0.957517 0.020541 0.019483 -309193.000000 0 0 1
-29.160924 1.786254 20.826233 35.878715 -0.061179 0.951500 0.012139 0.029792 -25064.600000 0 0 1
-29.139624 2.095054 19.457333 35.101207 -0.071774 0.983250 0.023615 0.019646 -348374.000000 0 0 1
-27.983124 1.384154 18.753133 33.714257 -0.049424 0.980945 0.019051 0.020010 -283122.000000 0 0 1
-28.224224 -0.013646 18.653733 33.831476 0.000483 0.986788 0.025601 0.014784 582098.000000 0 0 1
-27.175224 -0.702046 17.962033 32.582515 0.025828 0.986901 0.025331 0.013838 383736.000000 0 0 1
-26.992824 -0.429246 16.444133 31.610225 0.015901 1.023693 0.030936 0.016298 83257.300000 0 0 1
-26.636724 0.934054 16.049733 31.112401 -0.035052 1.028782 0.033800 0.019972 389867.000000 0 0 1
-26.896724 0.995254 14.648033 30.642930 -0.036986 1.072394 0.032640 0.019621 73970.200000 0 0 1
-26.489224 2.367954 14.049333 30.077732 -0.089156 1.084787 0.033519 0.018188 562913.000000 0 0 1
-25.065624 2.453754 13.934733 28.783384 -0.097582 1.065434 0.029474 0.014058 670013.000000 0 0 1
-24.671724 3.734154 13.452233 28.347847 -0.150213 1.076353 0.027172 0.015037 -550382.000000 0 0 1
-23.164424 3.805854 13.255333 26.958838 -0.162843 1.056769 0.026019 0.014399 -534173.000000 0 0 1
-22.451424 4.046754 14.462233 27.011088 -0.178330 1.005793 0.022439 0.021051 860686.000000 0 0 1
-21.058424 4.318054 14.260733 25.796731 -0.202248 0.985062 0.002873 0.017271 951589.000000 0 0 1
-20.320624 4.950354 15.514833 26.041195 -0.238958 0.932559 -0.010935 0.016295 -73850.100000 0 0 1
-20.636224 6.313854 15.717033 26.697259 -0.296915 0.941330 -0.006617 0.026455 477276.000000 0 0 1
-20.152324 6.696354 17.002233 27.203552 -0.320808 0.895664 -0.010362 0.025072 -239674.000000 0 0 1
-20.315224 8.205054 17.190233 27.848435 -0.383853 0.905518 -0.010905 0.022623 -255479.000000 0 0 1
-19.297924 8.993054 16.565633 26.976010 -0.436089 0.909567 -0.021301 0.018667 617380.000000 0 0 1
-19.633624 10.343154 16.462333 27.630933 -0.484863 0.932543 -0.011742 0.018977 -215193.000000 0 0 1
-19.320424 11.195854 17.721633 28.507582 -0.525197 0.899954 -0.000053 0.014909 -422782.000000 0 0 1
-20.108124 10.822754 18.796733 29.576779 -0.493760 0.882110 0.004052 0.009287 228517.000000 0 0 1
-19.658524 11.441054 19.976433 30.272317 -0.527071 0.850122 0.013726 0.011644 -265472.000000 0 0 1
-12.653930 -33.393284 -22.317244 42.110482 1.208579 2.129360 0.052498 0.012934 -23928.300000 0 0 1
-13.232430 -34.087884 -21.229644 42.282133 1.200516 2.096816 0.075202 0.004182 -272677.000000 0 0 1
-14.343430 -33.460384 -20.659844 41.858815 1.165822 2.086975 0.062458 -0.008245 -505876.000000 0 0 1
-14.944830 -34.325784 -19.585444 42.251591 1.160165 2.052786 0.059061 -0.008101 -962308.000000 0 0 1
-15.445530 33.806854 -20.045344 42.228942 -1.142239 2.065400 0.050584 -0.014557 -80605.300000 0 0 1
-16.039830 32.904254 -19.135644 41.305434 -1.117223 2.052480 0.048244 -0.017192 27519.000000 0 0 1
-17.415730 33.266754 -18.557444 41.885120 -1.088512 2.029801 0.041388 -0.017630 -806792.000000 0 0 1
-17.386630 34.367454 -17.693244 42.384757 -1.102437 2.001427 0.048702 -0.014867 522784.000000 0 0 1
-18.700830 -34.609484 -17.235244 42.948702 1.075401 1.983730 0.022864 -0.013867 603468.000000 0 0 1
-18.997530 34.094954 -15.892444 42.141924 -1.062446 1.957478 0.024230 -0.018846 -462739.000000 0 0 1
-19.009630 32.644654 -15.711344 40.913149 -1.043478 1.964939 0.029103 -0.023343 35078.000000 0 0 1
-19.451130 32.239254 -14.427044 40.321899 -1.027927 1.936704 0.026244 -0.019094 -120555.000000 0 0 1
-19.510530 30.715054 -14.202344 39.061258 -1.004888 1.942917 0.019530 -0.017666 683946.000000 0 0 1
-18.293230 30.061054 -13.794244 37.796698 -1.024124 1.944385 0.021068 -0.027360 389192.000000 0 0 1
-18.484530 28.700254 -13.782844 36.815067 -0.998612 1.954525 0.022632 -0.027235 -186369.000000 0 0 1
-17.222730 27.942254 -13.317744 35.422511 -1.018428 1.956238 0.030769 -0.021679 58094.300000 0 0 1
-16.142130 28.180554 -14.202644 35.446115 -1.050609 1.983058 0.040790 -0.028833 -204818.000000 0 0 1
-15.071030 27.291454 -13.961144 34.159522 -1.066246 1.991830 0.043878 -0.034469 359550.000000 0 0 1
-13.758530 27.662554 -14.706744 34.216989 -1.109255 2.015077 0.047990 -0.035179 90597.800000 0 0 1
-13.959230 27.746554 -16.106344 34.987793 -1.104674 2.049177 0.034919 -0.033180 -231828.000000 0 0 1
-12.800630 28.246754 -16.708744 35.226657 -1.145308 2.064989 0.049992 -0.026136 -423706.000000 0 0 1
-12.828630 28.356854 -18.207844 36.058431 -1.145949 2.100125 0.070669 -0.027324 -212031.000000 0 0 1
-12.752630 27.056354 -18.853744 35.357312 -1.130342 2.133216 0.042273 -0.024665 307538.000000 0 0 1
-12.898530 27.171854 -20.258644 36.264230 -1.127591 2.163541 0.042523 -0.025962 33495.200000 0 0 1
-12.234330 25.909154 -21.021544 35.536859 -1.129634 2.203766 0.025178 -0.017916 287916.000000 0 0 1
-10.926930 26.277454 -21.425744 35.622533 -1.176719 2.216131 0.027227 -0.020266 -68316.000000 0 0 1
-10.107030 25.200754 -21.817844 34.831715 -1.189376 2.247695 0.031140 -0.017290 600455.000000 0 0 1
-8.895730 25.733254 -22.654744 35.419935 -1.237966 2.264780 0.033247 -0.021308 200464.000000 0 0 1
-9.194730 25.888754 -23.991244 36.473969 -1.229529 2.288642 0.036223 -0.023778 -131494.000000 0 0 1
-8.106130 26.268554 -24.801344 37.025031 -1.271480 2.304808 0.020748 -0.021868 -358380.000000 0 0 1
-8.613230 27.074754 -26.017734 38.524700 -1.262793 2.312238 0.017255 -0.012094 -428281.000000 0 0 1
-9.540230 26.442554 -26.810914 38.846489 -1.224541 2.332529 0.014548 -0.014815 -603411.000000 0 0 1
-9.677530 27.185054 -27.985004 40.197539 -1.228798 2.340868 0.034649 -0.012299 352305.000000 0 0 1
-11.085330 26.854254 -28.589894 40.760489 -1.179308 2.348173 0.013894 -0.007313 391944.000000 0 0 1
-11.348530 27.487254 -29.843164 42.130187 -1.179249 2.357962 0.016619 -0.007809 288244.000000 0 0 1
-12.602630 26.953054 -30.272794 42.446854 -1.133422 2.364839 0.013844 -0.006673 299153.000000 0 0 1
-12.680330 27.194954 -31.805754 43.725990 -1.134491 2.385304 0.002172 -0.009704 44036.100000 0 0 1
-11.835630 26.474354 -32.723884 43.724434 -1.150390 2.416461 -0.003926 -0.007897 238722.000000 0 0 1
-11.981630 25.063054 -32.682924 42.893934 -1.124855 2.437111 -0.002963 -0.014595 33514.100000 0 0 1
-11.214830 24.416054 -33.852034 43.218934 -1.140217 2.470703 -0.016052 -0.002743 2415.870000 0 0 1
-11.826830 24.584454 34.058827 43.637977 -1.122408 0.675354 -0.006476 -0.004090 -811947.000000 0 0 1
-11.114230 23.968454 33.095785 42.347891 -1.136606 0.673696 -0.007115 -0.002566 -1028730.000000 0 0 1
-11.507930 24.224154 31.618303 41.460332 -1.127299 0.703449 -0.001302 0.002635 -974793.000000 0 0 1
-12.663830 23.441754 31.435423 41.207696 -1.075489 0.703082 0.016206 -0.004740 -411542.000000 0 0 1
-12.989230 23.315354 30.072933 40.208297 -1.062510 0.725860 0.028186 -0.002807 29333.100000 0 0 1
-14.324030 22.590754 29.787733 40.035347 -1.005704 0.731706 0.016569 -0.001551 278281.000000 0 0 1
-14.200530 21.176754 29.988293 39.362516 -0.980095 0.704634 -0.012109 -0.001265 53646.800000 0 0 1
-15.478030 20.606054 29.748593 39.359340 -0.926566 0.713890 -0.006578 -0.012138 261750.000000 0 0 1
-15.450330 19.069054 29.964403 38.732505 -0.889848 0.686255 -0.005621 -0.013624 -38942.800000 0 0 1
-14.935230 18.426754 28.822393 37.327425 -0.889674 0.688578 -0.002674 0.000085 -6661.540000 0 0 1
-14.500330 17.164354 29.221003 36.861113 -0.869333 0.655518 -0.013599 -0.004333 -58429.700000 0 0 1
-13.974130 16.311854 28.012083 35.299146 -0.862434 0.654155 -0.000681 0.000797 759918.000000 0 0 1
-12.863830 16.993454 27.371243 34.690640 -0.922838 0.661601 -0.021457 0.003552 573072.000000 0 0 1
-12.503830 16.250354 26.244103 33.304245 -0.914963 0.663225 -0.036391 0.010797 320346.000000 0 0 1
-11.405130 16.965754 25.376363 32.586402 -0.978942 0.678140 -0.025931 0.010137 287146.000000 0 0 1
-11.822830 18.034254 24.492483 32.632734 -0.990511 0.721903 -0.026820 0.007522 -202013.000000 0 0 1
-12.073730 19.337354 25.048283 33.869229 -1.012648 0.738382 -0.018094 0.004941 161388.000000 0 0 1
-11.001730 20.210554 25.832813 34.595358 -1.072297 0.727689 -0.033988 0.007260 485647.000000 0 0 1
-10.664230 19.819954 27.205913 35.308895 -1.077170 0.691153 -0.026107 0.009597 -254471.000000 0 0 1
-11.606330 20.212254 28.164543 36.557948 -1.049547 0.691315 -0.002638 0.003145 -433863.000000 0 0 1
-11.345330 19.730354 29.595153 37.334655 -1.048948 0.655572 -0.007926 0.006504 -258699.000000 0 0 1
-10.246030 20.386954 30.172753 37.828614 -1.105089 0.647462 -0.020343 0.010769 -307740.000000 0 0 1
-10.044130 19.977654 31.557093 38.676108 -1.104937 0.616456 -0.029014 0.010554 193045.000000 0 0 1
-8.925730 20.761054 32.301123 39.421473 -1.164760 0.610470 -0.039738 0.007047 -88176.900000 0 0 1
-7.629230 20.324754 32.064633 38.722622 -1.211704 0.595159 -0.035234 0.012263 -1131960.000000 0 0 1
-6.664230 21.108354 32.681473 39.472183 -1.264985 0.595332 -0.044285 0.016198 -35832.900000 0 0 1
-5.502030 20.234754 33.202851 39.270178 -1.305305 0.563300 -0.025679 0.019365 -81886.500000 0 0 1
-5.966930 19.480954 34.300743 39.895523 -1.273574 0.535989 -0.024272 0.016500 632229.000000 0 0 1
-4.886530 19.010054 -34.033994 39.288332 -1.319194 2.618467 -0.030476 0.019060 886704.000000 0 0 1
-4.043230 17.830354 34.508969 39.053017 -1.347806 0.487206 -0.035755 0.013677 49495.700000 0 0 1
-4.756930 16.606454 34.495785 38.579293 -1.291816 0.464261 -0.028412 0.010551 269187.000000 0 0 1
-4.575430 16.014254 33.209011 37.151437 -1.292501 0.464865 -0.037196 0.014651 -312581.000000 0 0 1
-5.307630 14.687554 33.034263 36.539810 -1.224029 0.441616 -0.020980 0.007359 -479649.000000 0 0 1
-4.747830 13.579354 33.755944 36.693385 -1.234446 0.402853 -0.019616 0.009704 -526091.000000 0 0 1
-5.310830 12.329754 33.555870 36.141723 -1.164080 0.380572 -0.003154 0.004544 -427042.000000 0 0 1
-4.517330 11.051054 33.955317 35.992994 -1.182753 0.338099 0.006395 -0.007574 81745.100000 0 0 1
-4.309330 10.988854 -33.816154 35.817000 -1.197071 2.805762 0.011063 -0.003998 -88312.500000 0 0 1
-3.382130 9.970254 -33.463034 35.080185 -1.243755 2.836774 0.010996 -0.007842 76335.900000 0 0 1
-3.357930 9.752454 -31.913584 33.538975 -1.239194 2.828993 0.011845 -0.004365 898759.000000 0 0 1
-4.477530 9.027254 -31.311544 32.893044 -1.110353 2.830240 0.022377 -0.003467 759081.000000 0 0 1
-4.248030 8.558754 -29.988374 31.473808 -1.110083 2.833139 0.021436 -0.002930 -239020.000000 0 0 1
-5.511030 7.823954 -29.555254 31.066038 -0.957137 2.828445 0.027544 -0.005070 -211590.000000 0 0 1
-5.380830 6.955254 -28.433174 29.761960 -0.912339 2.841648 0.024058 -0.006255 -154674.000000 0 0 1
-6.554930 6.193354 -28.323764 29.724742 -0.757043 2.833350 0.033802 -0.014100 -778137.000000 0 0 1
-6.808430 5.521454 -26.919944 28.311209 -0.681396 2.826792 0.023542 -0.012811 -189026.000000 0 0 1
-7.224130 6.230554 -25.762504 27.472067 -0.711686 2.786951 0.000712 -0.003612 318935.000000 0 0 1
-6.380430 7.336354 -25.375604 27.174496 -0.854976 2.775693 0.012070 -0.003023 178654.000000 0 0 1
-6.856030 8.001654 -24.100644 26.303472 -0.862352 2.729422 0.005436 -0.002807 132798.000000 0 0 1
-6.809730 7.107254 -22.966544 24.986949 -0.806773 2.736692 0.000919 -0.000328 218720.000000 0 1 0
-7.945830 7.240154 -22.130644 24.603281 -0.738963 2.689419 -0.003071 -0.006363 -308655.000000 0 1 0
-7.533530 7.653954 -20.742544 23.357872 -0.793327 2.663844 -0.010995 -0.000380 -30596.900000 0 1 0
-7.107630 9.033654 -20.655844 23.638722 -0.904160 2.633788 -0.020231 0.008077 -39100.000000 0 1 0
-6.825930 9.432954 -19.349144 22.582367 -0.944389 2.599877 -0.014243 0.015774 -433303.000000 0 1 0
-8.029630 9.663054 -18.422644 22.298954 -0.877459 2.543065 -0.019251 0.016462 -453714.000000 0 1 0
-7.601630 9.571454 -17.040744 20.971038 -0.899603 2.519369 -0.030872 0.009450 37639.900000 0 1 0
-8.579130 9.923754 -16.095744 20.764280 -0.857942 2.457773 -0.022755 0.001383 -84441.500000 0 1 0
-9.217330 11.344054 -16.183944 21.807493 -0.888465 2.407036 -0.015821 -0.000332 -200863.000000 0 1 0
-8.313730 12.398054 -15.927444 21.829185 -0.980098 2.388592 -0.028925 0.004219 -254926.000000 0 1 0
-8.782830 13.660454 -16.344244 23.040842 -0.999401 2.359386 -0.017975 0.007336 28553.200000 0 1 0
-7.734230 14.765254 -16.040044 23.132532 -1.088280 2.336990 -0.006665 0.008484 2873.960000 0 1 0
-7.382430 14.937854 -14.685244 22.210271 -1.111792 2.293202 -0.002010 0.007727 435902.000000 0 1 0
-8.329630 15.696354 -13.946244 22.588846 -1.082913 2.236223 -0.008660 0.005169 -167132.000000 0 1 0
-7.596830 16.207954 -12.663944 21.926811 -1.132493 2.186527 -0.004775 -0.004698 751010.000000 0 1 0
-6.999830 17.550654 -12.768244 22.804629 -1.191294 2.165058 0.002689 -0.008189 1199310.000000 0 1 0
-5.912730 17.754554 -13.720544 23.204264 -1.249322 2.203459 0.010683 -0.006147 571530.000000 0 1 0
-5.794130 19.215554 -14.211544 24.592223 -1.277933 2.186934 0.026310 -0.001649 71057.700000 0 1 0
-5.229930 20.105954 -13.261044 24.646639 -1.316317 2.138914 0.028903 -0.007617 -2378.760000 0 1 0
-5.206730 21.482254 -13.686044 25.998174 -1.333008 2.125185 0.040690 -0.009285 -81561.100000 0 0 1
-4.832330 22.558954 -12.586944 26.280962 -1.359776 2.070241 0.055425 -0.005753 -686455.000000 0 0 1
-4.861830 23.945854 -13.031044 27.692046 -1.370485 2.060733 0.043148 -0.013801 302686.000000 0 0 1
-6.125430 24.492654 -13.396344 28.580990 -1.325731 2.058632 0.038707 -0.018307 830949.000000 0 0 1
-7.238330 24.661054 -12.295944 28.491248 -1.285302 2.017028 0.021648 -0.017543 215193.000000 0 0 1
-7.654830 23.389754 -11.868844 27.323002 -1.254510 2.020157 0.025995 -0.015562 -71743.700000 0 0 1
-8.547630 23.351054 -10.729644 27.082447 -1.219896 1.978154 0.023237 -0.008301 363083.000000 0 0 1
-7.899230 23.472054 -9.354544 26.473432 -1.246165 1.931952 0.022677 -0.007988 -105829.000000 0 0 1
-7.782330 24.856154 -9.009144 27.560075 -1.267370 1.903808 0.014496 -0.011714 -145179.000000 0 0 1
-6.946330 24.997354 -7.877244 27.114021 -1.299752 1.865570 0.012935 -0.013329 136454.000000 0 0 1
-6.777630 26.450754 -7.468844 28.308343 -1.319957 1.837796 0.005033 -0.008212 -51819.400000 0 0 1
-6.023930 27.309054 -8.328544 29.179390 -1.353689 1.860247 0.001407 -0.013160 -246864.000000 0 0 1
-6.458230 27.528854 -9.652944 29.878518 -1.340365 1.899771 0.006082 -0.013652 139958.000000 0 0 1
-5.545530 28.450854 -10.526044 30.838313 -1.378294 1.919128 -0.000243 -0.010159 382825.000000 0 0 1
-5.977830 29.814754 -10.498444 32.169416 -1.372921 1.903234 -0.005137 -0.008789 111754.000000 0 0 1
-6.932430 30.143154 -11.490644 32.995503 -1.344744 1.926499 0.001894 -0.014204 388308.000000 0 0 1
-7.928330 31.317754 -11.199144 34.191826 -1.322848 1.904494 -0.001671 -0.014781 1007660.000000 0 0 1
-9.065330 30.975654 -10.372644 33.900783 -1.286087 1.881754 0.011112 -0.011679 892281.000000 0 0 1
-10.054330 32.011654 -10.423544 35.135250 -1.266470 1.871999 0.012868 -0.008951 533954.000000 0 0 1
-11.321030 31.690754 -9.593344 34.992883 -1.227691 1.848503 0.017185 -0.002036 199078.000000 0 0 1
-11.918330 30.493754 -10.039944 34.244942 -1.198207 1.868348 0.020731 -0.018870 143045.000000 0 0 1
-13.258630 30.393054 -9.559444 34.509592 -1.159445 1.851475 0.035374 -0.013887 624445.000000 0 0 1
-13.986830 29.132554 -10.066044 33.847634 -1.123187 1.872757 0.045378 -0.018635 -229575.000000 0 0 1
-13.757030 27.944254 -9.406944 32.536561 -1.113326 1.864103 0.022671 -0.016864 131630.000000 0 0 1
-14.777930 27.029054 -9.802344 32.327123 -1.070458 1.878870 0.036570 -0.016766 319962.000000 0 0 1
-14.906830 25.723554 -9.007944 31.065380 -1.045586 1.864989 0.028404 -0.014639 -701295.000000 0 0 1
-13.830830 24.911554 -9.281844 29.967148 -1.063972 1.885710 0.018456 -0.004644 -540132.000000 0 0 1
-14.263530 23.555254 -9.041044 28.983422 -1.026317 1.888029 0.027955 -0.008468 264541.000000 0 0 1
-13.279130 22.352954 -9.198744 27.579099 -1.034751 1.910853 0.020867 0.003894 -154165.000000 0 0 1
-13.098930 21.920054 -10.561344 27.633543 -1.032160 1.962965 0.010107 0.001394 153983.000000 0 0 1
-12.588930 20.602854 -10.617344 26.375874 -1.022307 1.985086 0.016837 -0.004142 -71297.100000 0 0 1
-12.290330 20.187054 -12.071044 26.538264 -1.023915 2.043005 0.010569 0.000068 183875.000000 0 0 1
-13.512830 19.832854 -12.696944 27.150525 -0.972707 2.057427 0.006371 0.012186 18171.100000 0 0 1
-13.500330 19.347254 -13.997844 27.432002 -0.961555 2.106300 0.003612 0.012626 38204.400000 0 0 1
-14.900630 18.895154 -14.496344 28.092696 -0.903048 2.112992 0.001465 0.020244 112939.000000 0 0 1
-15.681630 19.995554 -14.863344 29.438999 -0.905729 2.100046 -0.012632 0.019569 -1222600.000000 0 0 1
-16.934730 19.518554 -15.210644 29.985375 -0.856160 2.102809 -0.009331 0.020786 -939002.000000 0 0 1
-17.695430 20.613854 -16.021544 31.539643 -0.861432 2.103636 -0.004145 0.015551 -45549.500000 0 0 1
-18.020430 21.798354 -15.304544 32.157941 -0.879993 2.066804 -0.004704 0.003530 257320.000000 0 0 1
-18.623830 22.761054 -16.114044 33.534684 -0.885037 2.072042 0.007084 -0.004645 -97961.400000 0 0 1
-18.814730 24.132654 -15.440644 34.275246 -0.908595 2.038110 0.005932 -0.002670 245566.000000 0 0 1
-19.933930 24.037854 -14.569644 34.459461 -0.878459 2.007335 -0.005067 -0.001485 388275.000000 0 0 1
-20.411130 25.295554 -14.067444 35.417118 -0.891859 1.979253 -0.004350 -0.014638 54949.600000 0 0 1
-25.206340 -0.886946 3.672256 25.487874 0.035173 1.426215 0.017827 -0.016205 -288455.000000 0 0 1
-25.552920 0.092854 4.641256 25.971168 -0.003634 1.391123 0.010786 -0.016856 250367.000000 0 0 1
-26.625220 -0.410446 5.415456 27.173479 0.015414 1.370161 0.007699 -0.007105 71403.300000 0 0 1
-27.031810 0.422354 6.717756 27.857232 -0.015623 1.327246 0.005662 -0.001622 133624.000000 0 0 1
-27.826990 1.609754 6.538556 28.630148 -0.057784 1.340383 0.019864 -0.001144 524431.000000 0 0 1
-28.197630 2.243754 7.755556 29.330691 -0.079405 1.303196 0.019637 0.009633 -337594.000000 0 0 1
-27.024020 2.828054 8.546556 28.484016 -0.104270 1.266054 0.025835 0.007845 -172780.000000 0 0 1
-26.230850 1.955054 9.296056 27.897964 -0.074395 1.231084 0.023639 0.000361 -1169950.000000 0 0 1
-25.079860 2.543354 9.703456 27.011573 -0.101065 1.203350 0.023967 -0.004251 -1064710.000000 0 0 1
-24.136930 1.531754 10.434856 26.340537 -0.063376 1.163474 0.015550 0.000428 -239424.000000 0 0 1
-23.549030 0.518854 9.643056 25.452201 -0.022029 1.182222 0.012628 -0.008197 637282.000000 0 0 1
-24.412030 -0.565546 9.289656 26.125940 0.023163 1.207270 0.013350 -0.009590 -381706.000000 0 0 1
-23.607530 -1.552846 8.447456 25.121431 0.065683 1.227848 0.032311 -0.011985 -145932.000000 0 0 1
-22.553230 -2.055346 9.216856 24.450420 0.090882 1.184283 0.013858 -0.016926 25045.600000 0 1 0
-21.514230 -2.693446 8.490756 23.285396 0.124546 1.197552 0.026967 -0.012855 492113.000000 0 1 0
-20.154030 -2.774546 9.244856 22.346149 0.136807 1.144269 0.029302 -0.009951 315316.000000 0 1 0
-19.566730 -1.490546 9.553756 21.825510 0.076031 1.117720 0.023930 -0.010690 539996.000000 0 1 0
-20.205130 -0.824846 10.652856 22.856312 0.040801 1.085942 0.015645 -0.007793 -364486.000000 0 1 0
-19.747330 0.653354 10.857456 22.544806 -0.033074 1.068323 0.003827 -0.001023 -432287.000000 0 1 0
-20.141830 1.575454 9.883856 22.491465 -0.078059 1.115811 0.004561 -0.005464 210815.000000 0 1 0
-20.206330 2.835154 10.536756 22.964257 -0.139400 1.094115 0.003688 0.003880 -416175.000000 0 1 0
-21.282430 3.760354 9.948056 23.791719 -0.174883 1.139409 0.014053 0.000809 -679050.000000 0 1 0
-21.379830 4.983754 10.616956 24.385543 -0.229016 1.120337 0.007961 0.009565 606529.000000 0 1 0
-22.293030 5.904254 10.039456 25.152139 -0.258903 1.160208 0.026786 0.005749 -34548.200000 0 0 1
-22.466330 7.179754 10.832756 25.954450 -0.309320 1.140241 0.027311 0.016198 -208327.000000 0 0 1
-23.158130 6.942554 12.034556 27.006084 -0.291263 1.108925 0.015071 0.022053 158987.000000 0 0 1
-23.114130 8.029254 12.909256 27.665517 -0.334334 1.085332 0.011850 0.026238 -358189.000000 0 0 1
-24.027830 7.838354 14.110456 28.946181 -0.315335 1.061604 0.020821 0.021991 -113321.000000 0 0 1
-25.386120 7.716554 13.766756 29.891869 -0.295093 1.092179 0.037409 0.020284 20515.400000 0 0 1
-26.217720 7.213854 14.798956 30.958321 -0.268507 1.072388 0.040660 0.018384 -91058.500000 0 0 1
-27.586630 6.726954 14.316956 31.800146 -0.239181 1.103788 0.036483 0.025328 -491918.000000 0 0 1
-27.581720 5.501954 13.592756 31.237570 -0.196894 1.120601 0.038375 0.031173 -205859.000000 0 0 1
-28.537120 5.500354 12.575756 31.666556 -0.190409 1.162408 0.009606 0.011045 -238076.000000 0 0 1
-28.995930 4.171854 11.929756 31.630482 -0.142897 1.184068 0.018487 0.013020 -103063.000000 0 0 1
-29.720380 3.230454 12.680256 32.473462 -0.108270 1.169643 0.008271 0.007562 67892.600000 0 0 1
-30.135770 2.127054 11.891456 32.466840 -0.070466 1.195805 0.004088 0.009892 -256796.000000 0 0 1
-31.080090 1.182254 12.646456 33.575327 -0.038021 1.184609 0.015939 0.017392 -169754.000000 0 0 1
-30.458740 0.138954 13.359456 33.260024 -0.004562 1.157460 0.025898 0.015916 234393.000000 0 0 1
-31.439120 -0.325546 14.280156 34.531827 0.010354 1.144462 0.032539 0.023504 444354.000000 0 0 1
-31.098720 -1.663246 14.924456 34.534565 0.053432 1.123910 0.031809 0.016974 -40363.200000 0 0 1
-31.080470 -2.815246 14.105256 34.247328 0.090333 1.146297 0.016894 0.009069 113069.000000 0 0 1
-31.058330 -3.891946 14.962156 34.693417 0.124661 1.124899 0.014781 0.013026 -192165.000000 0 0 1
-31.122970 -5.232546 14.246756 34.626418 0.166567 1.146761 0.016807 0.006878 474030.000000 0 0 1
-32.356620 -5.570646 13.602756 35.538963 0.170493 1.178019 0.004603 -0.002463 299049.000000 0 0 1
-32.253100 -6.888546 13.027656 35.460321 0.210416 1.194598 0.007455 0.000038 -658951.000000 0 0 1
-33.401410 -7.286346 12.051956 36.249064 0.214780 1.231868 0.012300 0.012919 1926120.000000 0 0 1
-34.741618 -7.276246 12.654856 37.683805 0.206455 1.228324 0.003260 0.013707 1522700.000000 0 0 1
34.845237 -5.962046 12.896056 37.630371 -0.169460 1.221003 0.015196 0.006996 -1657550.000000 0 0 1
33.336175 -5.810546 12.844656 36.194588 -0.172568 1.208013 0.026126 0.004750 -774627.000000 0 0 1
32.557075 -6.500746 13.756156 35.936815 -0.197080 1.177985 0.013196 0.012926 -446956.000000 0 0 1
31.202935 -6.182746 13.515056 34.561630 -0.195613 1.169033 0.013812 0.016191 105446.000000 0 0 1
30.202905 -7.329446 13.815756 34.011930 -0.238071 1.152501 -0.008865 0.007725 -38939.500000 0 0 1
29.897215 -7.516646 15.178956 34.361958 -0.246311 1.113262 0.007445 0.007124 -269392.000000 0 0 1
29.127445 -8.680446 15.276956 34.016813 -0.289636 1.105038 0.003185 0.014575 -365454.000000 0 0 1
28.457035 -8.801646 16.661156 34.130132 -0.299963 1.060810 -0.010630 0.020904 2394.270000 0 0 1
29.393195 -8.951146 17.725056 35.471968 -0.295609 1.047553 -0.022438 0.030189 226066.000000 0 0 1
28.784315 -8.846046 19.008956 35.610809 -0.298160 1.007711 -0.019023 0.027390 -272891.000000 0 0 1
29.688965 -9.408646 20.147156 37.092656 -0.306895 0.996603 -0.029227 0.028255 1202250.000000 0 0 1
30.858985 -8.667346 20.545856 38.072721 -0.273815 1.000778 -0.020884 0.026912 395630.000000 0 0 1
31.984195 -8.720346 19.713056 38.569907 -0.266176 1.034333 -0.026924 0.028553 -903961.000000 0 0 1
33.115255 -8.000146 20.440656 39.729622 -0.237043 1.030379 -0.005709 0.016350 -521488.000000 0 0 1
33.462295 -8.619446 21.647656 40.775496 -0.252106 1.011136 -0.003683 0.014546 -21317.300000 0 0 1
34.751166 -8.175046 22.034056 41.952051 -0.231044 1.017823 -0.015091 0.017311 -72849.900000 0 0 1
-34.886398 -8.621546 23.382156 42.873267 0.242278 0.993956 -0.011052 0.016694 -158783.000000 0 0 1
34.605888 -7.943146 24.509356 43.143593 -0.225624 0.966616 -0.008555 0.007795 118134.000000 0 0 1
34.407035 -8.903446 25.550456 43.771466 -0.253214 0.947489 -0.000327 0.006955 -349158.000000 0 0 1
34.049333 -8.209946 26.887356 44.155297 -0.236603 0.916089 0.002336 0.000499 -413197.000000 0 0 1
-34.943746 -7.712346 27.595956 45.189407 0.217225 0.913886 -0.022831 -0.007629 -617475.000000 0 0 1
34.828031 -7.191546 28.838856 45.786348 -0.203625 0.889427 -0.026634 -0.003919 -700939.000000 0 0 1
-34.052920 -6.747946 29.627956 45.639368 0.195626 0.864296 -0.017898 -0.000335 -427480.000000 0 0 1
-33.759510 -7.604546 30.747656 46.292030 0.221558 0.844359 -0.014998 0.004560 316159.000000 0 0 1
-32.490880 -7.230646 31.281756 45.678089 0.218975 0.816425 -0.015625 -0.006091 403675.000000 0 0 1
-32.090190 -8.052746 32.515556 46.388451 0.245864 0.794081 -0.016086 -0.000355 -261516.000000 0 0 1
-32.093080 -9.453646 32.311856 46.512292 0.286467 0.802801 -0.015301 -0.004761 289045.000000 0 0 1
-31.707780 -10.107446 33.499556 47.220377 0.308586 0.782107 -0.022801 -0.006037 -335793.000000 0 0 1
-31.811050 -11.614046 33.481756 47.622022 0.350058 0.791087 -0.011103 -0.008533 237039.000000 0 0 1
-33.168820 -12.036346 33.576056 48.707246 0.348104 0.810213 -0.022913 -0.007627 297246.000000 0 0 1
-33.313650 -13.475246 33.680356 49.251882 0.384376 0.817785 -0.016524 -0.013372 444998.000000 0 0 1
-34.817104 -13.756046 33.944556 50.534072 0.376270 0.834273 -0.010777 -0.010002 305752.000000 0 0 1
35.005753 -15.088246 34.270856 51.259628 -0.406960 0.838507 -0.010843 -0.009654 54955.700000 0 0 1
33.690705 -15.349346 -34.428420 50.556722 -0.427498 2.319905 -0.025952 -0.009577 -115812.000000 0 0 1
33.442315 -16.905346 -34.405820 50.871796 -0.468044 2.313557 -0.025340 -0.000074 -69309.700000 0 0 1
33.981055 -17.444346 -33.192520 50.603959 -0.474274 2.286207 -0.025568 -0.006593 311422.000000 0 0 1
33.911445 -18.857946 -33.193020 51.062558 -0.507510 2.278442 -0.018297 -0.014041 -270491.000000 0 0 1
34.446086 -19.457746 -31.865620 50.799158 -0.514192 2.248860 -0.008501 -0.017705 -560725.000000 0 0 1
33.533905 -19.340846 -30.841020 49.495046 -0.523152 2.243513 -0.020871 -0.013013 -611941.000000 0 0 1
33.884655 -20.230446 -29.798620 49.450971 -0.538239 2.217538 -0.026620 -0.008029 -1079570.000000 0 0 1
32.814705 -20.293646 -28.710520 48.092940 -0.553862 2.210528 -0.031217 -0.004246 365951.000000 0 0 1
31.567085 -20.841946 -29.136320 47.747175 -0.583542 2.227136 -0.023680 -0.008239 566552.000000 0 0 1
30.721685 -19.957346 -29.846420 47.253850 -0.576106 2.254436 -0.032569 -0.001522 -1666350.000000 0 0 1
29.345495 -20.489246 -30.151220 46.798113 -0.609522 2.270881 -0.033030 0.003737 -1141820.000000 0 0 1
28.547735 -19.593646 -30.843120 46.370057 -0.601504 2.298493 -0.039641 0.013727 -399678.000000 0 0 1
27.224885 -20.088046 -30.742020 45.714284 -0.635684 2.308353 -0.027425 0.007926 -83385.300000 0 0 1
26.270005 -19.402346 -31.710120 45.520280 -0.636148 2.341465 -0.021257 0.018227 -159469.000000 0 0 1
26.740255 -19.696546 -32.975320 46.801356 -0.634862 2.352628 -0.019836 0.005207 86842.000000 0 0 1
25.744595 -19.376946 -33.916920 46.782557 -0.645202 2.381817 0.001035 0.004105 -117321.000000 0 0 1
26.038235 -19.849646 33.816856 47.069926 -0.651344 0.769241 0.000707 0.000044 119402.000000 0 0 1
26.976795 -19.070246 33.074256 46.747494 -0.615350 0.784830 -0.006693 -0.003074 349141.000000 0 0 1
27.092795 -19.351746 31.712256 45.980179 -0.620243 0.809730 -0.005242 -0.009513 50199.000000 0 0 1
26.076725 -18.544146 30.808456 44.418937 -0.618162 0.804338 0.002534 -0.010913 294078.000000 0 0 1
26.163975 -17.136646 30.936556 43.991917 -0.579862 0.790862 0.009967 -0.013076 -126999.000000 0 0 1
25.016665 -16.581546 30.392756 42.714176 -0.585335 0.779112 0.028302 -0.018948 -465618.000000 0 0 1
24.818065 -15.118546 30.872556 42.398367 -0.547139 0.755171 0.036490 -0.015238 -120226.000000 0 0 1
25.898125 -14.275946 30.532956 42.506199 -0.503791 0.769415 0.030082 -0.016340 86292.100000 0 0 1
25.784425 -12.973146 31.051656 42.395099 -0.466156 0.748905 0.044420 -0.013815 -79963.300000 0 0 1
27.126105 -12.212546 31.091956 43.031170 -0.423032 0.763320 0.028048 -0.008919 241782.000000 0 0 1
27.639835 -11.674946 29.862256 42.332248 -0.399663 0.787773 0.022669 -0.010435 79929.200000 0 0 1
28.941715 -11.153746 30.027356 43.170256 -0.367845 0.801602 0.016251 -0.008345 72485.000000 0 0 1
29.368285 -10.464046 28.722456 42.390706 -0.342280 0.826350 0.007403 -0.009995 -210747.000000 0 0 1
29.257435 -9.072746 28.694456 41.972420 -0.300697 0.818044 0.016936 -0.005576 64677.000000 0 0 1
29.902385 -8.655846 27.510056 41.543706 -0.281769 0.847051 0.011553 0.011663 -72780.800000 0 0 1
29.880195 -7.137146 27.299856 41.098018 -0.234466 0.844290 0.014252 0.003263 838085.000000 0 0 1
28.553575 -6.575246 27.185956 39.970198 -0.226332 0.822821 0.023853 0.004839 532236.000000 0 0 1
28.546245 -5.194246 27.400856 39.908335 -0.179990 0.814001 0.029587 0.002486 -804670.000000 0 0 1
27.182625 -4.615946 27.131556 38.682340 -0.168208 0.793445 0.029402 0.001606 -863773.000000 0 0 1
26.745695 -4.864946 25.764256 37.453929 -0.179929 0.812216 0.019233 0.009581 -142380.000000 0 0 1
25.356305 -4.672946 25.733356 36.427795 -0.182246 0.786368 0.028470 0.001969 -259212.000000 0 0 1
24.580765 -5.101246 24.461656 35.051524 -0.204625 0.798367 0.032068 0.008569 -52702.000000 0 0 1
24.729165 -4.200546 23.357356 34.274514 -0.168256 0.821015 0.035738 0.013403 174972.000000 0 0 1
24.625065 -4.816246 22.066756 33.414544 -0.193145 0.849453 0.034085 0.013528 62427.600000 0 0 1
24.949365 -3.884946 20.929356 32.796365 -0.154473 0.878689 0.037760 0.013363 -57759.600000 0 0 1
23.946065 -2.900846 20.769756 31.830987 -0.120553 0.859916 0.035561 0.019169 132364.000000 0 0 1
24.332265 -1.900546 19.839356 31.452683 -0.077950 0.888253 0.041245 0.015514 -442844.000000 0 0 1
23.172765 -1.023046 19.346156 30.204262 -0.044120 0.875633 -0.006758 0.014061 114613.000000 0 0 1
22.371765 -1.708546 18.379256 29.003656 -0.076223 0.884486 0.019515 0.009749 -102341.000000 0 0 1
21.083265 -1.143946 18.275256 27.924857 -0.054205 0.857349 0.017272 0.013974 -331808.000000 0 0 1
20.212665 -2.038846 17.436956 26.772302 -0.100530 0.861492 0.007281 0.009482 -698550.000000 0 0 1
20.601565 -2.209046 16.087756 26.232047 -0.106819 0.910582 0.011065 -0.005251 -208346.000000 0 0 1
19.712165 -3.116646 15.511656 25.276361 -0.156810 0.910080 0.026524 -0.010172 -322110.000000 0 0 1
19.870865 -3.340246 13.993156 24.531958 -0.166541 0.963797 0.012618 -0.021416 -197960.000000 0 1 0
19.016765 -4.338746 13.439956 23.687433 -0.224314 0.967466 0.016834 -0.013570 650863.000000 0 1 0
19.262965 -4.563646 12.084556 23.193214 -0.232624 1.022729 0.009768 -0.011502 -320193.000000 0 1 0
18.367765 -5.658346 11.497056 22.395847 -0.298833 1.031705 0.009105 -0.007372 -114885.000000 0 1 0
18.572665 -6.880346 12.151056 23.236420 -0.354781 1.020510 0.018808 -0.007528 798528.000000 0 1 0
17.371365 -7.636446 11.971156 22.436315 -0.414171 1.007990 0.009549 0.004257 278461.000000 0 1 0
17.464665 -9.149246 12.314056 23.245628 -0.482562 1.012507 0.019361 -0.007506 -391463.000000 0 1 0
18.153765 -9.946146 11.376656 23.620189 -0.501217 1.068260 0.010821 -0.010608 583140.000000 0 1 0
17.581865 -11.255546 11.350356 23.762152 -0.569440 1.072801 0.007295 -0.011286 152740.000000 0 1 0
18.349165 -12.151546 10.375356 24.331049 -0.584932 1.130260 0.006890 -0.001847 -89341.000000 0 1 0
17.893465 -11.857046 9.061856 23.299847 -0.585214 1.171334 0.015985 0.002806 488322.000000 0 1 0
18.734465 -12.209246 7.946656 23.731734 -0.577569 1.229346 0.032355 -0.018449 -168377.000000 0 1 0
18.443065 -11.496146 6.600756 22.712948 -0.557399 1.275925 0.028135 -0.005773 -171259.000000 0 1 0
18.879965 -10.153746 6.598756 22.429784 -0.493433 1.272182 0.027483 0.002650 670482.000000 0 1 0
19.281865 -9.728946 5.311756 22.240896 -0.467293 1.329637 0.006505 -0.004273 -250654.000000 0 1 0
19.584965 -8.236646 5.278056 21.892260 -0.398104 1.327305 0.000843 0.002122 -757942.000000 0 1 0
20.112665 -7.975846 3.978756 21.999180 -0.377536 1.388936 0.006605 -0.006235 676149.000000 0 1 0
20.449065 -6.609146 3.848556 21.832463 -0.312603 1.393594 0.011090 -0.007928 -867691.000000 0 1 0
21.320965 -6.273046 2.661656 22.383455 -0.286145 1.451603 0.025177 -0.011888 -668593.000000 0 1 0
20.579665 -5.814746 1.589256 21.444338 -0.275370 1.496618 0.019281 -0.023897 425136.000000 0 1 0
21.429965 -5.403546 0.513456 22.106681 -0.247000 1.547568 0.047739 -0.011330 307303.000000 0 1 0
-25.231880 -16.097646 0.200756 29.930290 0.567885 1.564089 0.009668 -0.003389 -775592.000000 0 0 1
-24.395030 -15.497646 -0.797444 28.912461 0.565957 1.598381 0.001800 -0.002417 9186.720000 0 0 1
-23.021430 -15.784446 -0.754344 27.923180 0.601024 1.597815 -0.002611 0.000036 -268251.000000 0 0 1
-22.231230 -15.192146 0.371256 26.928920 0.599477 1.557009 -0.008396 -0.003354 -1210870.000000 0 0 1
-22.604130 -15.691646 1.608556 27.563779 0.606819 1.512406 -0.004529 0.002370 -360623.000000 0 0 1
-21.714930 -15.243346 2.606356 26.658786 0.612050 1.472873 0.002913 0.015576 -10108.900000 0 0 1
-22.046730 -15.687846 4.042656 27.358909 0.618451 1.422489 0.004432 0.019681 -611773.000000 0 0 1
-21.925630 -17.112846 4.170356 28.124271 0.662734 1.421964 0.018873 0.013252 149299.000000 0 0 1
-22.176930 -17.636346 5.447156 28.853569 0.671842 1.380870 0.014260 0.004827 -579848.000000 0 0 1
-22.160330 -19.147746 5.313256 29.764863 0.712597 1.391327 0.009263 0.002672 -120984.000000 0 0 1
-22.560930 -19.721246 6.533656 30.669395 0.718339 1.356116 -0.007052 0.005032 2533.210000 0 0 1
-22.702530 -21.128746 6.399956 31.666831 0.749508 1.367292 0.004706 0.008078 106871.000000 0 0 1
-23.660430 -21.759946 7.453656 32.998003 0.743580 1.342948 0.006225 0.013350 -44328.500000 0 0 1
-23.082430 -22.046446 8.716156 33.088000 0.762446 1.304227 0.008254 0.019654 -412401.000000 0 0 1
-23.937730 -22.856146 9.486256 34.429746 0.762288 1.291661 0.017358 0.024454 16315.000000 0 0 1
-23.246930 -23.447246 10.738656 34.720482 0.789688 1.256351 -0.016454 0.020090 40306.100000 0 0 1
-23.080530 -22.580846 11.785556 34.373024 0.774455 1.220824 0.014518 0.020502 557770.000000 0 0 1
-22.113130 -22.963646 12.784756 34.347774 0.804264 1.189402 0.020739 0.020639 465670.000000 0 0 1
-22.309830 -22.156246 14.109956 34.463294 0.781944 1.148978 0.007201 0.029857 4115.420000 0 0 1
-23.419130 -22.681346 14.796056 35.802547 0.769396 1.144756 0.002411 0.030760 -216957.000000 0 0 1
-23.728430 -22.008946 16.008956 36.107046 0.747821 1.111436 0.009006 0.037717 -335746.000000 0 0 1
-25.034830 -22.561846 16.582956 37.560272 0.733488 1.113524 -0.025137 0.033523 903392.000000 0 0 1
-26.257400 -22.386246 15.806656 37.953201 0.705984 1.141229 -0.026963 0.029535 1155100.000000 0 0 1
-26.506750 -23.393946 14.830856 38.338477 0.723099 1.173594 -0.028682 0.025807 -111781.000000 0 0 1
-27.501290 -24.562546 15.138556 39.859949 0.729013 1.181223 -0.021396 0.026532 -87538.800000 0 0 1
-27.019020 -25.519926 16.060256 40.487355 0.756873 1.162906 -0.023426 0.035878 -124753.000000 0 0 1
-27.988500 -26.487116 16.398056 41.878631 0.757844 1.168468 -0.034383 0.027996 -371736.000000 0 0 1
-27.979820 -27.762436 15.504656 42.355844 0.781498 1.196028 -0.021860 0.022641 17346.100000 0 0 1
-28.527000 -27.696576 14.196956 42.218996 0.770629 1.227844 -0.016434 0.008948 -1388080.000000 0 0 1
-29.878140 -27.894256 14.240356 43.284876 0.751072 1.235561 0.006874 -0.008940 -1657380.000000 0 0 1
-30.277700 -28.228926 12.776956 43.322765 0.750395 1.271420 0.022703 -0.017643 55028.500000 0 0 1
-29.693070 -29.521696 12.447556 43.682383 0.782504 1.281836 0.035503 -0.016853 440538.000000 0 0 1
-30.067740 -29.948506 11.165856 43.882324 0.783411 1.313517 0.031106 -0.006246 -108805.000000 0 0 1
-29.227190 -31.115306 10.639456 43.995329 0.816678 1.326543 0.039253 -0.017827 -342565.000000 0 0 1
-29.555200 -32.335066 11.236056 45.225162 0.830284 1.319720 0.027971 -0.006412 -298268.000000 0 0 1
-28.856330 -33.432786 10.753256 45.454059 0.858738 1.331958 0.045087 -0.011214 -473234.000000 0 0 1
-29.090510 34.537205 11.461156 46.587921 -0.870793 1.322233 0.027825 -0.005768 -704993.000000 0 0 1
-30.364440 33.995587 11.428056 46.992549 -0.841758 1.325144 0.017007 0.001632 -1042430.000000 0 0 1
-30.399650 32.704141 11.992456 46.233306 -0.821901 1.308406 0.009802 -0.002301 -820234.000000 0 0 1
-31.770930 32.349821 12.561756 47.049980 -0.794426 1.300531 0.015899 -0.004053 19601.400000 0 0 1
-32.899610 32.220381 11.704156 47.513415 -0.774968 1.321901 -0.009357 -0.005928 410879.000000 0 0 1
-33.363680 33.468045 11.149456 48.554666 -0.786960 1.339102 -0.002360 0.000540 -932299.000000 0 0 1
-34.751349 33.305238 10.510856 49.268380 -0.764153 1.355805 -0.011587 0.015666 -96592.800000 0 0 1
-34.732973 32.593641 9.308456 48.532177 -0.753633 1.377801 -0.022601 0.014047 1271460.000000 0 0 1
34.014515 32.701461 8.733256 47.985858 0.765719 1.387780 -0.025249 0.019889 1212640.000000 0 0 1
33.830525 32.224791 7.248156 47.280835 0.761094 1.416889 -0.020396 0.008199 -115982.000000 0 0 1
33.955065 30.826721 7.055956 46.400643 0.737145 1.418138 -0.003529 -0.000349 -52607.200000 0 0 1
33.750095 30.431771 5.730556 45.803940 0.733742 1.445357 0.010100 -0.000938 -152712.000000 0 0 1
34.073490 28.968861 5.359256 45.043526 0.704603 1.451534 -0.002173 0.003840 -182293.000000 0 0 1
33.275055 27.931711 5.871656 43.839322 0.698319 1.436457 0.006937 0.004067 -187440.000000 0 0 1
33.715055 27.530941 7.157056 44.112142 0.684768 1.407829 -0.007085 0.000718 70500.100000 0 0 1
32.787975 26.505761 7.883156 42.892317 0.679841 1.385956 0.002871 -0.002747 -26427.300000 0 0 1
32.823355 25.261401 7.310756 42.058985 0.655938 1.396087 0.007244 -0.003612 190309.000000 0 0 1
31.602045 24.575061 7.532556 40.735271 0.660958 1.384811 0.011182 0.000009 -230815.000000 0 0 1
31.516815 23.246791 6.712056 39.733797 0.635518 1.401057 0.010718 0.002441 219655.000000 0 0 1
32.357695 22.162691 7.073156 39.852664 0.600539 1.392368 0.021373 0.001107 497381.000000 0 0 1
33.768345 22.355291 6.953956 41.090360 0.584778 1.400742 0.033421 -0.005304 918098.000000 0 0 1
34.638292 21.019291 7.104956 41.135171 0.545421 1.397204 0.019650 -0.003395 386348.000000 0 0 1
34.483806 20.146791 5.996456 40.385437 0.528750 1.421765 0.040877 -0.010329 -36099.500000 0 0 1
-34.856100 18.990291 6.263256 40.184664 -0.498857 1.414296 0.046005 -0.009744 -37897.500000 0 0 1
34.868511 17.789191 5.348056 39.507848 0.471758 1.435013 0.045703 -0.007741 48564.300000 0 0 1
-34.611227 17.891891 4.045656 39.171726 -0.477107 1.467332 0.042895 -0.007051 361451.000000 0 0 1
34.972446 16.848991 3.256356 38.955928 0.448965 1.487108 0.029770 -0.007912 -968093.000000 0 0 1
-34.148080 16.406291 2.155456 37.946064 -0.447882 1.513963 0.031320 0.008829 -25458.900000 0 0 1
-33.098370 15.528191 2.484056 36.644199 -0.438667 1.502956 0.039182 0.005715 371359.000000 0 0 1
-31.947720 16.176291 3.000956 35.935149 -0.468704 1.487189 0.048286 0.003242 579653.000000 0 0 1
-30.643240 15.273791 3.121356 34.380804 -0.462398 1.479883 0.035917 -0.003464 843671.000000 0 0 1
-30.673970 14.451691 4.304856 34.180047 -0.440293 1.444514 0.039156 -0.008584 197300.000000 0 0 1
-29.341590 14.114191 4.603356 32.883585 -0.448357 1.430346 0.019781 -0.004247 -312564.000000 0 0 1
-29.130770 13.458791 5.981356 32.642265 -0.432799 1.386515 0.026272 -0.012489 -276597.000000 0 0 1
-29.238620 12.069691 6.148156 32.223814 -0.391492 1.378824 0.020425 -0.001256 279008.000000 0 0 1
-29.079220 11.686891 7.479856 32.220067 -0.382142 1.336510 -0.002677 0.000607 -59068.100000 0 0 1
-28.907030 10.178591 7.689756 31.596716 -0.338558 1.324955 -0.006018 0.006892 -379963.000000 0 0 1
-30.141230 9.534191 7.688556 32.534727 -0.306359 1.332221 -0.013035 0.000257 -413849.000000 0 0 1
-29.949730 8.125391 7.641256 31.959304 -0.264924 1.329364 -0.020931 0.001574 18790.000000 0 0 1
-31.248030 7.327991 7.454656 32.950125 -0.230348 1.342580 -0.025376 0.007110 247857.000000 0 0 1
-32.157370 7.353491 8.565856 34.081434 -0.224807 1.316737 -0.027136 0.004415 639217.000000 0 0 1
-33.347240 6.620791 8.232156 34.980590 -0.195992 1.333233 -0.000176 0.004190 856929.000000 0 0 1
-34.068377 6.079991 9.509756 35.889498 -0.176605 1.302620 0.003359 0.002394 520157.000000 0 0 1
-34.830464 7.003791 10.322456 36.996857 -0.198436 1.288034 -0.004075 0.010725 649893.000000 0 0 1
-33.973400 7.915091 11.004856 36.577964 -0.228896 1.265202 -0.005097 0.003660 126337.000000 0 0 1
-34.790982 8.920291 11.852456 37.821485 -0.250990 1.252047 0.010309 -0.006758 -576620.000000 0 0 1
34.580313 8.425391 12.945756 37.873181 0.238991 1.221945 -0.006167 -0.005675 390338.000000 0 0 1
34.140964 9.534491 13.790456 38.035360 0.272330 1.199773 0.007736 -0.005471 -218953.000000 0 0 1
33.429515 9.120191 15.114556 37.804235 0.266337 1.159485 -0.008846 -0.002642 876465.000000 0 0 1
32.018575 8.837691 14.987256 36.440524 0.269312 1.146939 -0.005862 -0.000506 1036580.000000 0 0 1
31.680005 8.201491 16.158756 36.496473 0.253324 1.112135 -0.017872 0.005573 -501777.000000 0 0 1
30.213895 7.757891 16.327456 35.208666 0.251336 1.088591 -0.019255 0.018862 -997419.000000 0 0 1
29.346025 8.840791 16.437656 34.778518 0.292613 1.078514 -0.034988 0.011935 -709970.000000 0 0 1
28.010625 8.433691 16.513556 33.591960 0.292456 1.056879 -0.026303 0.017512 -311108.000000 0 0 1
27.467905 7.720791 17.765056 33.610916 0.274014 1.013905 -0.026275 0.017984 -947995.000000 0 0 1
27.286565 8.605991 18.858656 34.267603 0.305518 0.988031 -0.009906 0.008566 201803.000000 0 0 1
26.569385 8.052591 19.967356 34.197540 0.294278 0.947293 -0.003586 0.010651 -53069.400000 0 0 1
27.094955 6.834391 20.762556 34.812774 0.247084 0.931780 -0.005094 0.013458 -332443.000000 0 0 1
26.283635 6.623091 21.874356 34.830766 0.246846 0.891792 -0.006207 0.011350 20758.500000 0 0 1
26.802665 5.585191 22.657456 35.537832 0.205442 0.879471 0.003589 0.011659 -653847.000000 0 0 1
26.234785 5.510391 24.096956 36.045688 0.207032 0.838591 0.006774 0.007272 527540.000000 0 0 1
24.901065 5.042191 24.294956 35.152975 0.199788 0.807757 -0.008950 0.010088 -1873.000000 0 0 1
23.983865 6.075591 24.145156 34.570611 0.248101 0.797595 -0.012087 0.016339 -88397.800000 0 0 1
22.488365 5.629691 24.286556 33.574645 0.245297 0.762140 -0.010045 0.009107 581969.000000 0 0 1
21.984065 4.845791 23.253856 32.365454 0.216954 0.769185 -0.017141 0.019367 -1575000.000000 0 0 1
20.620965 4.858791 23.252456 31.456458 0.231403 0.738922 0.003354 0.008134 -2396240.000000 0 0 1
19.980665 4.082891 22.039156 30.027011 0.201567 0.746636 0.002493 0.016733 341597.000000 0 0 1
18.646665 4.375091 21.664756 28.917144 0.230463 0.723941 0.014370 0.008783 720338.000000 0 0 1
17.660265 3.911591 22.584456 28.935155 0.217972 0.675300 0.021249 0.003533 -77486.000000 0 0 1
16.206165 3.800391 22.077156 27.649296 0.230341 0.646045 0.028070 0.007954 -131473.000000 0 0 1
16.127865 2.870491 21.055156 26.677094 0.176139 0.661194 0.013996 0.006189 548285.000000 0 0 1
14.864965 2.629891 20.435056 25.406201 0.175107 0.636244 0.017067 -0.005211 889460.000000 0 0 1
13.807565 1.694891 21.223856 25.376635 0.122140 0.580198 0.014775 -0.004785 556781.000000 0 0 1
14.174665 0.301691 21.203756 25.507086 0.021281 0.589374 -0.001748 -0.000528 514382.000000 0 0 1
13.216265 -0.490009 21.911356 25.593306 -0.037059 0.543051 -0.014152 -0.005400 196054.000000 0 0 1
13.502565 -1.993409 22.083056 25.960630 -0.146573 0.553602 -0.030225 0.000258 -125955.000000 0 0 1
13.482865 -2.679309 20.864056 24.985500 -0.196164 0.582579 -0.005336 0.009685 247055.000000 0 1 0
13.500965 -4.084109 21.081756 25.365261 -0.293753 0.589665 -0.000284 0.023547 -68976.900000 0 0 1
13.176265 -4.881109 19.802156 24.280951 -0.354773 0.617130 -0.000154 0.021814 -199224.000000 0 1 0
11.815265 -4.921509 19.473556 23.303243 -0.394682 0.581465 -0.018113 0.020446 -500480.000000 0 1 0
11.625565 -5.216709 18.060956 22.103528 -0.421795 0.614421 -0.011510 0.018451 770568.000000 0 1 0
10.128365 -5.441709 17.655656 21.069366 -0.493020 0.577230 -0.005166 0.013515 696700.000000 0 1 0
9.539165 -6.434209 18.416756 21.715700 -0.593409 0.558436 -0.002091 0.017132 -662766.000000 0 1 0
8.144665 -6.274309 18.459856 21.129809 -0.656404 0.508162 -0.011308 0.010651 -113472.000000 0 1 0
7.433165 -7.241109 19.447456 22.042894 -0.772311 0.490165 -0.024907 0.006798 -474233.000000 0 1 0
7.550665 -8.636109 19.098656 22.278994 -0.852355 0.540892 -0.023850 0.008752 277050.000000 0 1 0
8.785065 -9.211609 19.533356 23.314869 -0.809095 0.577543 0.002607 0.002471 273374.000000 0 1 0
9.086465 -10.563309 18.917556 23.495133 -0.860415 0.634836 0.011120 -0.004072 65441.500000 0 1 0
9.517365 -10.538809 17.555156 22.579421 -0.836283 0.680140 0.021155 0.002603 172082.000000 0 1 0
9.981065 -11.758909 17.012356 22.963316 -0.866994 0.736462 0.022874 -0.002500 160144.000000 0 1 0
9.989965 -11.825509 15.479856 21.892191 -0.869340 0.785415 0.020689 -0.003818 61125.300000 0 1 0
10.461765 -12.988009 14.877756 22.349150 -0.892714 0.842369 0.013713 -0.006469 -46857.700000 0 1 0
10.062365 -13.000109 13.521856 21.286019 -0.912098 0.882469 0.000702 -0.006675 -700294.000000 0 1 0
10.560965 -14.201609 12.731356 21.801539 -0.931374 0.947191 0.002071 -0.011230 1277310.000000 0 1 0
11.987565 -14.260009 12.470756 22.418058 -0.871760 0.980892 -0.001985 -0.006486 1228130.000000 0 1 0
12.344265 -13.294109 11.421256 21.437334 -0.822429 1.008921 -0.011289 -0.004325 -686088.000000 0 1 0
13.844965 -13.423409 11.094356 22.247600 -0.769940 1.048725 -0.004204 -0.001634 42142.300000 0 1 0
14.153665 -14.605909 10.397456 22.842195 -0.801122 1.098215 -0.004010 -0.005678 -419186.000000 0 1 0
15.397265 -14.549209 9.759956 23.324064 -0.757087 1.139058 0.000172 -0.008102 -350407.000000 0 1 0
15.982165 -15.901309 9.310856 24.392074 -0.782862 1.179144 -0.000433 -0.009829 11438.200000 0 1 0
16.453765 -16.745409 10.393456 25.674092 -0.794183 1.154011 0.007361 -0.006807 61665.900000 0 0 1
15.477465 -17.222609 11.303256 25.766912 -0.838716 1.116675 0.008067 -0.002588 -200821.000000 0 0 1
16.041865 -17.660209 12.666956 27.012519 -0.833380 1.082718 0.011691 -0.004981 -809818.000000 0 0 1
16.980965 -18.652109 12.469456 28.137904 -0.832262 1.111681 0.023908 -0.006285 -611951.000000 0 0 1
17.125665 -19.343809 13.708156 29.246964 -0.846145 1.082974 0.008072 -0.008647 -1327340.000000 0 0 1
18.424365 -20.085809 13.660756 30.487919 -0.828514 1.106190 -0.010315 -0.007033 -1516810.000000 0 0 1
19.479665 -19.206009 13.450356 30.483441 -0.778324 1.113822 -0.001639 -0.001752 -1271820.000000 0 0 1
20.705865 -19.889309 13.567956 31.755423 -0.765286 1.129332 -0.012302 -0.003208 -258836.000000 0 0 1
21.619765 -19.237809 12.507656 31.526956 -0.727165 1.162846 -0.011723 0.008151 -958650.000000 0 0 1
21.328965 -19.514809 11.159756 30.988589 -0.741010 1.202395 -0.015339 0.013199 340595.000000 0 0 1
20.093765 -19.104709 10.566856 29.671665 -0.760172 1.206677 -0.004028 0.007958 314009.000000 0 0 1
19.849965 -17.584609 10.431656 28.496649 -0.724957 1.196018 0.028156 0.006572 577156.000000 0 0 1
20.909665 -16.884209 9.723256 28.580278 -0.679287 1.223658 0.016425 0.004332 835433.000000 0 0 1
20.597665 -15.524109 9.592056 27.518526 -0.645854 1.214754 0.025123 -0.012823 17012.500000 0 0 1
-33.502220 25.485754 8.126056 42.871379 -0.650326 1.380098 0.005017 0.002379 -920357.000000 0 0 1
-32.759480 24.844454 9.030856 42.094973 -0.648849 1.354580 0.007633 -0.004969 -1047680.000000 0 0 1
-31.692660 25.601754 9.479256 41.829783 -0.679487 1.342195 0.001671 -0.004747 -1114580.000000 0 0 1
-30.568930 24.782854 10.138956 40.638009 -0.681244 1.318638 0.005954 -0.016507 -217342.000000 0 0 1
-29.817200 24.113154 9.116656 39.416025 -0.680023 1.337390 0.005392 -0.013394 -65871.100000 0 0 1
-29.011600 23.132654 9.701656 38.352506 -0.673128 1.315058 0.004895 -0.009415 -387198.000000 0 0 1
-28.234260 22.328154 8.731956 37.040072 -0.669117 1.332813 0.011519 -0.017490 -202768.000000 0 0 1
-29.099020 21.455154 8.065656 37.042292 -0.635333 1.351296 0.023864 -0.021783 -76013.500000 0 0 1
-28.332460 20.618054 7.277456 35.788179 -0.629088 1.366020 0.023170 -0.019573 2371.390000 0 0 1
-29.191380 19.681354 6.388856 35.781417 -0.593212 1.391281 0.031973 -0.012904 186451.000000 0 0 1
-29.840940 18.564054 7.012756 35.836916 -0.556511 1.373840 0.038693 -0.011284 372500.000000 0 0 1
-30.664100 17.929054 6.073356 36.036421 -0.529088 1.401454 0.041730 -0.007758 -352581.000000 0 0 1
-31.456320 16.717754 6.556556 36.221151 -0.488497 1.388778 0.045730 -0.006417 100276.000000 0 0 1
-32.482250 17.073454 7.509356 37.456506 -0.483936 1.368946 0.039177 -0.008079 498425.000000 0 0 1
-33.087470 15.880054 7.929556 37.547765 -0.447473 1.358008 0.044630 -0.012472 -314682.000000 0 0 1
-34.111292 16.085254 9.057956 38.786108 -0.440631 1.335084 0.031300 -0.013089 285927.000000 0 0 1
34.961234 17.026654 8.691456 39.846408 0.453206 1.350905 0.042806 -0.012340 346836.000000 0 0 1
34.243642 17.497954 9.838456 39.693836 0.472396 1.320327 0.037309 -0.007300 585175.000000 0 0 1
33.323005 18.749954 9.620956 39.427734 0.512521 1.324293 0.030213 -0.009935 -63740.100000 0 0 1
32.133335 18.542154 8.916056 38.155717 0.523365 1.334940 0.015067 -0.007388 -447344.000000 0 0 1
31.444435 19.763954 9.008556 38.216756 0.561138 1.332834 0.006067 -0.004884 -738796.000000 0 0 1
30.114855 19.756154 8.284456 36.957304 0.580600 1.344712 -0.009637 -0.007578 -324653.000000 0 0 1
29.333405 20.976254 8.419056 37.031505 0.620787 1.341442 -0.017657 -0.003505 135786.000000 0 0 1
28.051995 20.986154 7.847856 35.901559 0.642294 1.350423 -0.022627 -0.003188 -277343.000000 0 0 1
27.892555 20.824454 6.304556 35.375131 0.641319 1.391619 -0.036260 0.009612 -695737.000000 0 0 1
28.020215 19.548354 5.788156 34.652176 0.609148 1.402974 -0.029576 0.007970 -17662.700000 0 0 1
27.799745 19.365754 4.363556 34.159901 0.608451 1.442707 -0.029412 0.008470 740414.000000 0 0 1
26.350375 19.528154 3.736256 33.009857 0.637778 1.457367 -0.009856 0.020619 524497.000000 0 0 1
25.423375 18.592654 4.338856 31.794031 0.631439 1.433902 0.001912 0.013300 860491.000000 0 0 1
24.039365 18.765854 4.088256 30.769501 0.662818 1.437535 0.022631 0.006242 402316.000000 0 0 1
23.387665 20.083154 4.579356 31.165469 0.709527 1.423326 0.029562 -0.000848 -1095750.000000 0 0 1
23.790965 21.256254 3.870856 32.137546 0.729190 1.450057 0.010146 -0.000788 181888.000000 0 0 1
23.421065 22.533754 4.405256 32.798211 0.766092 1.436075 0.012472 0.002745 149616.000000 0 0 1
24.408465 23.647754 3.888956 34.206920 0.769570 1.456861 0.000941 0.013793 661625.000000 0 0 1
25.707305 23.544554 4.456956 35.143648 0.741514 1.443633 -0.008110 0.005543 169813.000000 0 0 1
26.460375 24.705654 4.241356 36.448729 0.751117 1.454167 0.003872 -0.000533 -647601.000000 0 0 1
27.766205 24.797454 5.116856 37.577361 0.728979 1.434203 -0.006767 0.002333 16945.600000 0 0 1
28.724175 23.810854 4.815556 37.619471 0.692145 1.442437 -0.016752 -0.001814 1835.910000 0 0 1
29.314905 23.872454 3.513056 37.968398 0.683427 1.478138 -0.003863 -0.013912 -1111800.000000 0 0 1
30.157105 25.111854 3.120156 39.367392 0.694365 1.491456 0.014402 -0.020503 -657416.000000 0 0 1
29.504985 26.369654 3.126856 39.694836 0.729343 1.491942 0.004745 -0.018602 -601973.000000 0 0 1
30.237955 27.325354 2.421356 40.827342 0.734843 1.511454 0.025015 -0.014334 -439920.000000 0 0 1
29.604325 28.770454 2.496156 41.356811 0.771114 1.510403 0.019811 -0.012179 2031840.000000 0 0 1
28.261305 29.058554 2.002856 40.584632 0.799306 1.521426 0.046474 -0.019836 1872930.000000 0 0 1
27.163475 28.336154 2.600456 39.338967 0.806525 1.504644 0.028263 -0.010714 -157028.000000 0 0 1
25.849885 29.044454 2.273656 38.948252 0.843527 1.512387 -0.004214 -0.006791 -770785.000000 0 0 1
25.855065 30.420554 2.555556 40.005316 0.866348 1.506872 0.003315 -0.009112 -7530.730000 0 0 1
24.693965 31.078554 2.097556 39.750071 0.899378 1.518003 0.007342 -0.001718 23553.600000 0 0 1
24.552565 32.521854 2.619656 40.833344 0.924131 1.506597 0.020614 -0.015375 -224928.000000 0 0 1
24.314965 32.749354 4.010556 40.985635 0.932141 1.472787 0.015722 -0.031851 -684878.000000 0 0 1
25.461535 32.661254 4.763656 41.686205 0.908641 1.456272 0.006519 -0.024896 -944311.000000 0 0 1
25.246615 32.454654 6.282956 41.595332 0.909674 1.419166 0.013875 -0.034891 59205.500000 0 0 1
24.673765 31.202054 6.696456 40.338634 0.901707 1.404018 0.017162 -0.024761 461246.000000 0 0 1
25.637055 30.156154 6.620356 40.130803 0.866219 1.405069 0.015570 -0.021721 52635.200000 0 0 1
25.252705 28.761254 7.195456 38.944620 0.850263 1.384967 0.021875 -0.013911 38991.800000 0 0 1
24.191465 28.218454 6.406756 37.716769 0.862084 1.400104 0.016725 -0.018808 145235.000000 0 0 1
23.727065 26.989954 6.921256 36.596926 0.849645 1.380529 0.031583 -0.011322 -376201.000000 0 0 1
22.381065 26.532454 6.321056 35.282275 0.870067 1.390667 0.047544 0.001862 -212708.000000 0 0 1
22.356565 26.202954 4.941956 34.797036 0.864443 1.428292 0.019530 -0.006087 166155.000000 0 0 1
22.443665 27.420754 4.148756 35.676715 0.884881 1.454245 0.027854 -0.010051 -446115.000000 0 0 1
22.535765 27.330154 2.595356 35.518078 0.881249 1.497660 0.024139 -0.002114 301029.000000 0 0 1
23.638465 26.548254 2.099056 35.608887 0.843313 1.511815 0.001205 0.016410 590782.000000 0 0 1
23.472765 26.391554 0.742656 35.327558 0.843866 1.549773 0.011424 0.013637 -780593.000000 0 0 1
24.644165 25.791754 0.021656 35.672817 0.808148 1.570189 0.025467 0.008414 -1929700.000000 0 0 1
25.796215 26.565954 0.040156 37.029667 0.800097 1.569712 0.016573 0.008582 5339.030000 0 0 1
26.715635 26.329354 -1.057244 37.524362 0.778116 1.598975 0.008260 0.012817 118436.000000 0 0 1
27.737105 25.231954 -0.779744 37.504753 0.738139 1.591588 0.012060 -0.000089 -1141310.000000 0 0 1
27.085985 24.074654 -0.386744 36.240711 0.726606 1.581468 0.015404 -0.002656 -283263.000000 0 0 1
27.933095 23.100054 0.130556 36.247584 0.690976 1.567195 0.019386 -0.007252 -86734.600000 0 0 1
27.052665 22.023354 0.796856 34.892833 0.683275 1.547957 0.020025 -0.000258 640644.000000 0 0 1
26.330615 21.141254 -0.102344 33.767801 0.676516 1.573827 0.032994 -0.018550 953862.000000 0 0 1
25.171425 20.639254 0.559456 32.555989 0.686786 1.553611 0.032878 -0.000072 535192.000000 0 0 1
24.444865 19.421554 -0.163444 31.221385 0.671381 1.576031 0.035752 -0.008204 214656.000000 0 0 1
23.169265 19.028154 0.289456 29.982816 0.687575 1.561142 0.036081 -0.000436 216317.000000 0 0 1
22.896065 17.721154 -0.124444 28.953144 0.658674 1.575094 0.041675 -0.014013 -4470.680000 0 0 1
21.474865 17.377854 0.379756 27.627954 0.680337 1.557051 0.033393 0.001365 -619593.000000 0 0 1
21.041265 16.161654 -0.303744 26.533491 0.654981 1.582244 0.041510 -0.004181 219304.000000 0 0 1
19.689765 15.795054 -0.210044 25.243112 0.676079 1.579117 0.044328 0.000566 648761.000000 0 0 1
18.578065 16.775754 -0.802544 25.044251 0.734463 1.602847 0.028346 0.001357 -57345.300000 0 0 1
18.434965 17.967154 -0.094044 25.742482 0.772548 1.574450 0.007457 0.010318 32637.200000 0 0 1
17.428565 18.816854 -0.627844 25.655858 0.823682 1.595271 -0.003177 0.011305 99886.500000 0 0 1
17.456865 20.244954 -0.061444 26.732079 0.859215 1.573095 -0.005074 0.011577 -216088.000000 0 0 1
17.099765 20.310154 1.340256 26.583841 0.871005 1.520359 0.004359 0.007498 315062.000000 0 0 1
17.338665 21.634354 1.927956 27.791934 0.895177 1.501369 0.011820 0.004386 -395522.000000 0 0 1
16.401465 22.777154 1.506556 28.108299 0.946718 1.517172 0.004321 0.003136 -315196.000000 0 0 1
15.081165 22.586154 1.965356 27.229368 0.982067 1.498556 -0.002611 0.002768 -158840.000000 0 0 1
14.199965 23.482454 1.309256 27.473238 1.026924 1.523123 -0.017190 -0.007165 265132.000000 0 0 1
12.736965 23.359054 1.807556 26.667263 1.071593 1.502962 -0.017485 -0.003829 113216.000000 0 0 1
12.496565 23.631354 3.165756 26.918897 1.084365 1.452920 -0.019421 -0.005600 -1124220.000000 0 0 1
11.170365 23.386154 3.427756 26.142662 1.125189 1.439300 -0.022366 -0.009079 -964582.000000 0 0 1
10.925965 23.510554 4.958156 26.395192 1.135764 1.381831 -0.022862 -0.002422 -246400.000000 0 0 1
11.695165 22.629654 5.745756 26.113059 1.093794 1.348947 -0.021098 -0.020804 151134.000000 0 0 1
11.038265 22.397454 6.983056 25.927829 1.112897 1.298103 -0.023137 -0.011657 -848392.000000 0 0 1
11.776165 21.433854 7.875356 25.692594 1.068399 1.259259 -0.016105 -0.006403 337032.000000 0 0 1
12.983465 21.965454 8.437156 26.874470 1.036957 1.251449 -0.000463 0.000238 274717.000000 0 0 1
14.141465 21.868154 7.639256 27.139554 0.996766 1.285460 -0.008526 -0.003047 -1178350.000000 0 0 1
15.326965 22.185054 8.532656 28.282480 0.966225 1.264327 0.009667 -0.001823 -842795.000000 0 0 1
15.678765 21.068054 9.343956 27.874649 0.931020 1.228965 0.018850 -0.002102 949227.000000 0 0 1
16.849265 21.246554 10.191056 28.968455 0.900317 1.211305 0.027639 -0.004896 787263.000000 0 0 1
16.765265 22.118854 11.524656 30.052213 0.922219 1.177226 0.015065 0.005576 -302164.000000 0 0 1
15.973465 21.458754 12.494856 29.525432 0.930902 1.133833 0.006409 0.005887 -170033.000000 0 0 1
16.225065 21.927654 13.747856 30.546330 0.933767 1.103957 0.005857 0.008268 -584419.000000 0 0 1
17.272465 21.116454 14.523356 30.905834 0.885198 1.081593 0.024386 0.011428 -364778.000000 0 0 1
18.550265 21.352254 13.993956 31.557279 0.855504 1.111356 0.037750 0.007435 -846654.000000 0 0 1
19.575465 20.898754 14.860356 32.261229 0.818081 1.092096 0.018247 0.009365 -58145.800000 0 0 1
20.849165 21.660054 14.456756 33.359308 0.804471 1.122573 0.017923 0.008386 -495536.000000 0 0 1
21.494565 21.158854 13.283356 32.956956 0.777528 1.155947 0.025127 0.006628 -685251.000000 0 0 1
22.723765 21.803654 13.235156 34.160477 0.764737 1.172943 0.029535 0.002996 68448.800000 0 0 1
23.735165 21.269754 12.127356 34.100341 0.730672 1.207200 0.027865 0.010861 518971.000000 0 0 1
23.517565 21.870854 10.812956 33.887020 0.749134 1.246029 0.021281 0.005585 621710.000000 0 0 1
24.496465 21.379354 9.886556 33.983784 0.717556 1.275608 0.043903 -0.007979 241890.000000 0 0 1
24.290265 21.978854 8.457956 33.832292 0.735484 1.318120 0.023470 -0.007159 -77358.300000 0 0 1
24.360965 23.364154 8.431056 34.791134 0.764515 1.326026 0.025378 -0.004368 930910.000000 0 0 1
25.698905 23.816354 8.179856 35.980029 0.747397 1.341447 0.004497 -0.009257 338206.000000 0 0 1
26.121685 25.034954 9.085756 37.304722 0.764158 1.324767 0.007870 -0.008711 -156975.000000 0 0 1
27.386395 25.511454 8.656656 38.415968 0.749968 1.343504 -0.005366 -0.004773 374000.000000 0 0 1
27.770705 26.621754 9.481956 39.621173 0.764278 1.329136 -0.001765 -0.002370 206462.000000 0 0 1
29.009555 27.333354 8.896656 40.838915 0.755657 1.351188 0.003550 -0.005645 69408.300000 0 0 1
28.639235 28.105954 7.803156 40.878352 0.776001 1.378730 0.010569 -0.005033 -184409.000000 0 0 1
29.766295 28.388254 7.029156 41.729298 0.761706 1.401543 0.018036 0.001508 -407410.000000 0 0 1
29.622675 29.546954 6.043956 42.273570 0.784118 1.427332 0.030100 0.002585 -18325.600000 0 0 1
29.618715 30.851654 6.651256 43.282006 0.805784 1.416512 0.024070 -0.007828 90398.500000 0 0 1
29.723975 31.790254 5.577456 43.877590 0.818976 1.443337 0.017772 -0.004986 28985.100000 0 0 1
29.674295 33.269254 6.074556 44.992302 0.842450 1.435370 -0.002682 -0.003052 -16425.200000 0 0 1
28.438585 33.617154 6.646856 44.531414 0.868656 1.420974 -0.001371 -0.013109 -18920.500000 0 0 1
28.466675 -34.335084 6.990556 45.145514 -0.878571 1.415326 -0.008956 -0.006198 595895.000000 0 0 1
27.081395 -33.763784 7.463956 43.921586 -0.894786 1.400029 0.010186 -0.018102 1450320.000000 0 0 1
26.070425 -33.755784 6.431556 43.133339 -0.913160 1.421129 0.018958 -0.026208 257948.000000 0 0 1
24.864565 -33.108784 6.759356 41.953868 -0.926658 1.408977 0.009397 -0.033477 -117992.000000 0 0 1
23.794165 -33.376884 5.698656 41.384216 -0.951469 1.432656 0.035319 -0.024926 -419060.000000 0 0 1
24.054265 -32.639284 4.503156 40.794717 -0.935685 1.460185 0.013703 0.000281 -224136.000000 0 0 1
23.154565 -32.947484 3.480056 40.420061 -0.958212 1.484592 0.021904 -0.009019 -449420.000000 0 0 1
23.554865 -32.402484 2.108756 40.114828 -0.942214 1.518204 0.024423 0.006170 -155147.000000 0 0 1
23.501565 -30.998484 2.030556 38.953212 -0.922098 1.518645 0.019653 0.016001 256002.000000 0 0 1
24.165265 -30.518984 0.837256 38.936736 -0.901069 1.549292 0.013201 0.012412 110783.000000 0 0 1
24.561765 -29.002284 1.074756 38.020624 -0.868110 1.542525 -0.003779 0.023822 667815.000000 0 0 1
23.463565 -28.062884 1.045756 36.594507 -0.874424 1.542216 -0.020573 0.029363 575110.000000 0 0 1
22.965565 -27.780184 -0.256144 36.044714 -0.879992 1.577903 -0.012878 0.030019 37221.700000 0 0 1
21.771565 -26.789084 -0.247644 34.521260 -0.888358 1.577970 -0.013755 0.026180 -305065.000000 0 0 1
22.079865 -25.422784 0.009756 33.672518 -0.855656 1.570507 -0.021058 0.025916 -218595.000000 0 0 1
22.257265 -24.908184 1.337456 33.430409 -0.841544 1.530778 -0.032666 0.032197 491579.000000 0 0 1
20.993965 -24.825584 2.273756 32.591811 -0.868828 1.500975 -0.027994 0.030303 124120.000000 0 0 1
21.228065 -24.042384 3.412456 32.253865 -0.847485 1.464798 -0.033041 0.033146 -399881.000000 0 0 1
20.125165 -23.983884 4.270656 31.598852 -0.872657 1.435229 -0.023309 0.025825 -467205.000000 0 0 1
20.335065 -22.992084 5.465656 31.177302 -0.846646 1.394577 -0.020963 0.023328 -20074.100000 0 0 1
20.329965 -21.616884 5.133756 30.115653 -0.816068 1.399492 -0.005916 0.024414 -279618.000000 0 0 1
19.055765 -21.095684 4.903356 28.847755 -0.836160 1.399993 -0.002182 0.018630 -1084620.000000 0 0 1
18.916565 -19.548584 5.173556 27.690237 -0.801828 1.382855 0.001073 0.011698 44073.200000 0 0 1
18.852765 -19.143584 6.515556 27.646989 -0.793052 1.332889 0.016329 0.005357 -308038.000000 0 0 1
17.628265 -19.378484 7.154856 27.156460 -0.832658 1.304181 0.014523 0.010718 -204333.000000 0 0 1
18.224670 -26.364206 -12.559544 34.423133 -0.965956 1.944276 0.062387 -0.014284 -6514.700000 0 0 1
18.402170 -25.021146 -12.604044 33.519540 -0.936663 1.956294 0.060264 -0.010531 242750.000000 0 0 1
17.367170 -24.480046 -13.441544 32.887176 -0.953762 1.991844 0.046062 0.001050 558692.000000 0 0 1
17.447570 -22.973446 -13.759844 31.961387 -0.921264 2.015859 0.036068 -0.004598 27410.600000 0 0 1
17.397870 -22.073346 -12.674544 30.831195 -0.903302 1.994451 0.035921 -0.006616 -196610.000000 0 0 1
18.603270 -21.905646 -11.950744 31.124898 -0.866740 1.964879 0.035949 -0.015381 -556229.000000 0 0 1
18.753070 -22.722046 -10.571644 31.300618 -0.880803 1.915317 0.039439 -0.008455 -193144.000000 0 0 1
17.845370 -22.431546 -9.551544 30.213631 -0.898776 1.892448 0.038571 -0.012876 -222412.000000 0 0 1
16.506670 -22.787546 -9.805244 29.797403 -0.943900 1.906108 0.045230 -0.000278 -428770.000000 0 0 1
15.451970 -22.223946 -8.813644 28.466603 -0.963242 1.885583 0.034445 -0.003720 -1112790.000000 0 0 1
15.364670 -20.835446 -8.856144 27.360924 -0.935389 1.900411 0.018248 -0.006332 186146.000000 0 0 1
14.521670 -20.255546 -7.871744 26.136763 -0.948803 1.876721 0.006577 -0.004939 16901.800000 0 0 1
13.016470 -20.518546 -8.028744 25.591013 -1.005483 1.889918 0.012946 0.004131 -735709.000000 0 0 1
12.606770 -21.872946 -7.792444 26.421177 -1.047938 1.870180 0.013048 0.003239 11187.000000 0 0 1
11.321670 -22.211946 -8.309144 26.279129 -1.099410 1.892505 0.007961 0.008766 221849.000000 0 0 1
10.776170 -23.558446 -7.923744 27.090809 -1.141787 1.867624 0.003957 0.006042 -338287.000000 0 0 1
10.377070 -23.626346 -6.565144 26.626846 -1.156946 1.819926 0.010272 0.007346 176750.000000 0 0 1
9.925970 -24.934446 -6.213944 27.547497 -1.191944 1.798326 0.008552 0.011020 -324585.000000 0 0 1
10.404670 -25.341146 -4.828744 27.816319 -1.181199 1.745274 0.025681 0.004257 -193842.000000 0 0 1
9.784570 -26.398976 -4.125744 28.454622 -1.215852 1.716303 0.035869 -0.003695 -124868.000000 0 0 1
10.525370 -26.627316 -2.909244 28.779525 -1.194361 1.672057 0.037377 -0.005894 283950.000000 0 0 1
9.695470 -27.240516 -1.741944 28.966916 -1.228856 1.630968 0.046394 -0.002232 367031.000000 0 0 1
8.665470 -26.367246 -1.305844 27.785379 -1.253271 1.617811 0.031041 0.003377 -65923.600000 0 0 1
7.816370 -27.010446 -0.375644 28.121183 -1.289108 1.584155 0.034163 -0.002132 271179.000000 0 0 1
6.961470 -26.045406 0.470056 26.963794 -1.309619 1.553363 0.029606 -0.003403 -126626.000000 0 0 1
5.689470 -25.707106 0.000856 26.329174 -1.352988 1.570764 0.040521 -0.003056 -411458.000000 0 0 1
4.898870 -25.189846 1.061856 25.683746 -1.378716 1.529441 0.047650 -0.002579 930934.000000 0 0 1
3.380770 -24.971346 0.764056 25.210742 -1.436229 1.540485 0.019124 -0.001937 911518.000000 0 0 1
2.674670 -26.142566 0.382456 26.281817 -1.468840 1.556244 0.005917 -0.001634 1648810.000000 0 0 1
1.222570 -25.981316 0.333856 26.012207 -1.523775 1.557961 0.002261 0.006273 2148970.000000 0 0 1
0.354570 -27.213316 -0.074644 27.215728 -1.557768 1.573539 0.003229 0.004687 117442.000000 0 0 1
0.192170 -28.072326 1.052156 28.092694 -1.563951 1.533335 0.004607 0.007406 -113386.000000 0 0 1
0.670470 -29.367646 0.858756 29.387848 -1.547970 1.541571 -0.002863 0.016531 -258593.000000 0 0 1
0.116470 -30.293156 2.015456 30.360351 -1.566952 1.504363 -0.000605 0.007278 118129.000000 0 0 1
0.649470 -30.103486 3.329256 30.293987 -1.549225 1.460676 -0.003310 0.006779 -30158.400000 0 0 1
0.075070 -30.985066 4.255556 31.276025 -1.568374 1.434308 -0.003053 0.003708 -326377.000000 0 0 1
0.489770 -30.716096 5.726756 31.249227 -1.554853 1.386494 -0.003798 -0.001856 -274776.000000 0 0 1
1.865270 -30.712216 6.020256 31.352240 -1.510137 1.377576 -0.021080 0.008015 -282456.000000 0 0 1
2.046170 -30.505396 7.393556 31.455217 -1.503821 1.333526 -0.008678 0.009227 261453.000000 0 0 1
3.371070 -31.195326 7.780656 32.327250 -1.463151 1.327726 0.005544 -0.000387 130617.000000 0 0 1
3.384570 -32.581066 7.597856 33.626011 -1.467286 1.342876 -0.000097 0.004841 24706.600000 0 0 1
4.703170 -33.081146 7.747656 34.300266 -1.429572 1.342953 0.001095 0.004752 119274.000000 0 0 1
4.745970 -34.627216 7.426856 35.731310 -1.434586 1.361417 -0.015676 0.017732 -120358.000000 0 0 1
4.669570 34.161866 6.124756 35.019290 1.434949 1.394996 -0.008791 0.013839 76707.900000 0 0 1
4.544370 32.800891 6.114856 33.674044 1.433129 1.388194 -0.017083 0.011890 -357684.000000 0 0 1
4.716970 32.254501 4.638356 32.925932 1.425583 1.429454 -0.007086 0.010532 -416153.000000 0 0 1
5.992470 32.242131 4.087056 33.047977 1.387035 1.446808 -0.005654 0.018392 153138.000000 0 0 1
6.823570 31.078521 4.414856 32.123614 1.354667 1.432927 -0.014865 0.017611 242048.000000 0 0 1
8.247970 31.004291 3.858356 32.313805 1.310791 1.451108 -0.016160 0.019110 244599.000000 0 0 1
9.206770 31.700861 4.679756 33.340806 1.288146 1.429970 -0.016307 0.010765 154136.000000 0 0 1
10.385470 32.012391 3.973556 33.888646 1.257089 1.453273 -0.013150 0.007601 741546.000000 0 0 1
11.636870 32.382811 4.876956 34.754107 1.225813 1.430004 -0.002489 -0.003268 643461.000000 0 0 1
12.030170 31.237171 5.581456 33.935800 1.203180 1.405575 0.004512 -0.001487 414732.000000 0 0 1
13.161070 31.667121 6.371556 34.880038 1.176909 1.387094 0.024437 -0.004679 299102.000000 0 0 1
13.851870 30.601141 7.234756 34.360528 1.145734 1.358654 0.027394 -0.006245 -698279.000000 0 0 1
13.080570 30.104701 8.287456 33.853749 1.160905 1.323481 0.012810 0.009219 -138569.000000 0 0 1
13.846470 29.314681 9.170156 33.692240 1.129521 1.295145 0.007423 0.006419 13975.900000 0 0 1
13.426970 29.464161 10.640956 34.082991 1.143208 1.253281 -0.000591 0.018857 121101.000000 0 0 1
14.190270 30.493921 11.247356 35.464715 1.135253 1.248082 0.026391 0.008929 382821.000000 0 0 1
13.828670 30.604701 12.634556 35.881916 1.146407 1.210967 0.012955 0.017581 -73919.700000 0 0 1
14.629670 31.654891 13.409056 37.361239 1.137875 1.203704 0.027440 0.012125 220073.000000 0 0 1
15.840370 31.164341 13.961156 37.643690 1.100543 1.190844 0.030042 0.008186 131984.000000 0 0 1
16.369870 32.066871 14.873756 38.954917 1.098791 1.179032 0.042994 0.002378 -77348.700000 0 0 1
17.498670 31.537561 15.795456 39.374074 1.064236 1.158009 0.031245 -0.001712 1585920.000000 0 0 1
18.738070 31.180551 15.092556 39.384354 1.029676 1.177525 0.023596 0.003267 1398280.000000 0 0 1
18.883570 29.748371 14.999656 38.295490 1.005198 1.168337 0.017446 0.006699 -750125.000000 0 0 1
20.200870 29.314601 14.388156 38.398438 0.967419 1.186716 0.028181 0.003581 -1180040.000000 0 0 1
21.258570 29.599881 15.234756 39.499083 0.947961 1.174831 0.020890 0.003498 -548249.000000 0 0 1
22.484170 29.268351 14.590656 39.687045 0.915744 1.194323 0.015264 0.003112 791675.000000 0 0 1
23.745970 29.438161 15.511056 40.878715 0.892020 1.181604 0.021103 -0.002994 320151.000000 0 0 1
23.632370 28.515691 16.568456 40.572741 0.878769 1.150135 0.015524 -0.000943 -55674.000000 0 0 1
24.554270 28.691171 17.623956 41.673725 0.862937 1.134149 0.013373 -0.009830 -185074.000000 0 0 1
25.423870 27.414381 17.885056 41.446311 0.823052 1.124615 -0.000351 -0.003058 49406.200000 0 0 1
24.688770 26.360901 18.477356 40.569018 0.818141 1.097913 0.003628 0.001877 241637.000000 0 0 1
24.435370 26.458521 19.904356 41.150019 0.825130 1.065917 0.031896 -0.004619 -182259.000000 0 0 1
23.924370 25.091641 20.494356 40.273870 0.809208 1.036919 0.037480 -0.006107 -164567.000000 0 0 1
24.881170 24.049891 20.465256 40.203192 0.768411 1.036721 0.030819 -0.004235 -54269.100000 0 0 1
24.347270 22.813791 20.765056 39.299443 0.752894 1.014105 0.038699 -0.006019 6398.170000 0 0 1
25.465170 21.733691 20.740656 39.382776 0.706504 1.016150 0.018699 -0.002083 184189.000000 0 0 1
24.878270 20.518091 21.041456 38.505367 0.689645 0.992671 0.007535 0.014431 -237668.000000 0 0 1
25.774970 19.460291 21.122956 38.590560 0.646698 0.991589 0.004626 0.010821 -264164.000000 0 0 1
26.341370 19.074091 22.524256 39.560471 0.626726 0.965066 0.002706 0.013820 195343.000000 0 0 1
25.340170 18.504791 23.345356 39.109554 0.630744 0.931137 -0.015132 0.022476 188001.000000 0 0 1
25.907770 18.047191 24.535256 39.986154 0.608436 0.910192 -0.004197 0.025952 -612140.000000 0 0 1
24.982870 17.249791 25.400756 39.584057 0.604298 0.874095 -0.008311 0.023447 -429687.000000 0 0 1
24.503170 16.042091 24.804656 38.380008 0.579668 0.868082 -0.013455 0.013175 372348.000000 0 0 1
23.617870 15.328791 25.626256 38.072046 0.575696 0.832405 -0.006975 0.020609 -121016.000000 0 0 1
23.245070 13.972791 24.921456 36.832746 0.541234 0.827645 -0.013321 0.022798 -16410.300000 0 0 1
22.153870 13.353091 25.581456 36.380076 0.542434 0.790947 -0.004708 0.010227 42469.400000 0 0 1
21.687870 12.310891 24.815156 35.181156 0.516285 0.787874 -0.003451 0.017997 -52938.300000 0 0 1
20.435870 11.582191 25.373856 34.577515 0.515618 0.746860 0.001855 0.011785 -48326.900000 0 0 1
19.258570 12.335591 25.281256 34.091073 0.569685 0.735374 0.010324 0.010902 -802024.000000 0 0 1
18.103470 11.570991 25.190556 33.108724 0.568716 0.706184 0.008568 0.009099 239136.000000 0 0 1
16.824170 12.484891 25.303656 32.851183 0.638413 0.691562 0.007638 -0.000875 476192.000000 0 0 1
16.655770 13.034491 26.622156 34.000763 0.664029 0.671343 0.018625 0.012465 94126.900000 0 0 1
15.470470 13.783091 26.746656 33.833307 0.727781 0.659103 0.025837 0.010057 -233778.000000 0 0 1
15.245870 14.358691 28.182856 35.112419 0.755439 0.639077 0.019658 0.016491 -310284.000000 0 0 1
14.722670 13.352591 29.054656 35.202582 0.736637 0.599964 0.019302 0.017948 -1708.810000 0 0 1
14.877570 13.465791 30.480556 36.492930 0.735629 0.582217 0.014622 0.018514 -502816.000000 0 0 1
16.326670 13.411791 31.018656 37.531232 0.687693 0.597978 0.019154 0.019637 -523321.000000 0 0 1
17.020370 14.520391 30.619056 37.921780 0.706302 0.631019 0.029913 0.010608 -602337.000000 0 0 1
18.383370 14.170791 30.476956 38.309327 0.656711 0.650883 0.022139 0.021739 -329197.000000 0 0 1
19.125970 15.356391 29.811956 38.605365 0.676511 0.688464 0.031183 0.017641 -551362.000000 0 0 1
18.747770 15.693991 28.496756 37.547908 0.696964 0.709107 0.035754 0.009206 327520.000000 0 0 1
19.342070 14.931691 27.474956 36.768795 0.657421 0.726904 0.034809 0.003792 -314852.000000 0 0 1
19.200070 15.600091 26.101356 35.962291 0.682318 0.758603 0.018071 0.001511 -542441.000000 0 0 1
20.071370 16.672091 25.923756 36.781241 0.693147 0.788642 0.023383 0.007204 61862.500000 0 0 1
20.123770 17.161791 24.601456 36.120976 0.706124 0.821553 0.022017 0.001698 -357417.000000 0 0 1
21.060070 18.332591 24.373756 37.063331 0.716270 0.853135 0.011450 0.008925 -563143.000000 0 0 1
21.047970 18.786491 23.113156 36.471459 0.728687 0.884427 0.009705 0.004767 -152541.000000 0 0 1
22.215870 19.483491 22.736556 37.284076 0.719966 0.914964 0.015060 0.010354 -168266.000000 0 0 1
22.409670 20.865091 23.424856 38.552163 0.749721 0.917743 0.033031 -0.005504 -49784.900000 0 0 1
21.359470 21.764891 23.058356 38.231208 0.794799 0.923378 0.032938 -0.003217 439903.000000 0 0 1
21.475370 23.058291 23.650756 39.398409 0.820928 0.926924 0.037138 -0.004614 -241697.000000 0 0 1
20.495270 24.117491 23.137056 39.205011 0.866413 0.939545 0.023197 -0.014404 -210734.000000 0 0 1
20.947270 24.845671 22.016556 39.253335 0.870324 0.975343 0.038617 -0.007333 141781.000000 0 0 1
20.086170 25.935391 21.783656 39.377994 0.911818 0.984603 0.033815 -0.011617 -289606.000000 0 0 1
20.637370 26.801141 20.623556 39.617336 0.914606 1.023279 0.030397 -0.011066 -236609.000000 0 0 1
20.631970 26.074771 19.419456 38.505677 0.901406 1.042194 0.021181 -0.007490 162391.000000 0 0 1
20.985070 26.914041 18.292956 38.721713 0.908552 1.078761 0.025595 -0.009998 -176741.000000 0 0 1
21.169070 26.150071 16.935456 37.666503 0.890276 1.104461 0.026998 0.001179 1068680.000000 0 0 1
19.906170 25.833091 16.287356 36.453837 0.914261 1.107618 0.028958 -0.002617 812299.000000 0 0 1
20.095770 25.561581 14.919256 35.774553 0.904545 1.140615 0.031813 0.001196 -371777.000000 0 0 1
18.968570 24.736551 14.182056 34.246669 0.916615 1.143826 0.030797 0.007263 2434580.000000 0 0 1
17.690170 25.448191 13.986456 34.002552 0.963337 1.146878 0.019806 0.012425 1194010.000000 0 0 1
16.958570 25.823941 15.082156 34.379361 0.989726 1.116647 0.016685 -0.000733 -850467.000000 0 0 1
15.530570 26.440141 14.755956 34.029663 1.039703 1.122290 0.004870 0.007072 843839.000000 0 0 1
14.553470 25.448831 14.423856 32.672529 1.051316 1.113563 0.010518 0.010168 413376.000000 0 0 1
14.097670 24.601081 15.457056 32.293623 1.050428 1.071690 0.019835 0.003912 -936322.000000 0 0 1
13.201670 25.242501 16.517756 32.928775 1.088923 1.045325 0.015654 -0.005480 -933194.000000 0 0 1
13.861370 26.197651 17.306856 34.321740 1.084135 1.042279 0.010668 -0.005447 142198.000000 0 0 1
13.045970 26.803791 18.309256 34.983845 1.117828 1.020003 0.010703 -0.007421 -314242.000000 0 0 1
13.707370 28.001191 18.982056 36.500372 1.115561 1.023886 0.016489 -0.013297 -1109700.000000 0 0 1
13.759070 29.104741 18.084256 36.924766 1.129191 1.058982 0.018206 -0.017212 359776.000000 0 0 1
14.301870 30.231651 18.759556 38.346019 1.128919 1.059604 0.023156 -0.013912 -662612.000000 0 0 1
14.190070 31.500011 17.921556 38.920316 1.147545 1.092274 0.029705 -0.018719 -345936.000000 0 0 1
12.916770 32.080161 17.766456 38.879644 1.188016 1.096221 0.024694 -0.010424 -174884.000000 0 0 1
12.916970 33.305708 17.181556 39.639932 1.200825 1.122489 0.034544 -0.011088 269209.000000 0 0 1
11.496470 33.851293 16.806256 39.503533 1.243401 1.131352 0.031817 -0.012835 263939.000000 0 0 1
11.412770 -34.123367 16.295656 39.499417 -1.248036 1.145540 0.027878 -0.008851 -249536.000000 0 0 1
11.925670 -32.961046 16.896056 38.911809 -1.223638 1.121631 0.032384 -0.015165 -364142.000000 0 0 1
11.489270 -32.700976 18.358456 39.222316 -1.232925 1.083700 0.038565 -0.017250 400616.000000 0 0 1
12.311270 -33.476206 19.291856 40.551196 -1.218387 1.074990 0.052238 -0.019490 758777.000000 0 0 1
12.004470 -33.246006 20.604356 40.913858 -1.224285 1.043032 0.043735 -0.017058 -535318.000000 0 0 1
12.988170 -33.962126 21.530456 42.257297 -1.205527 1.036183 0.066482 -0.014960 -507073.000000 0 0 1
14.238770 -33.349676 21.431356 42.121806 -1.167272 1.037012 0.066773 -0.022633 -238033.000000 0 0 1
15.171770 -33.767696 22.425856 43.282317 -1.148526 1.026133 0.064769 -0.016948 719443.000000 0 0 1
16.648770 -33.318706 22.276356 43.399928 -1.107403 1.031793 0.085495 -0.019077 485186.000000 0 0 1
16.803470 -31.918716 22.465056 42.495174 -1.086217 1.013787 0.089038 -0.015170 -171996.000000 0 0 1
18.003770 -31.481666 21.886156 42.358410 -1.051309 1.027816 0.088208 -0.008278 -260082.000000 0 0 1
-4.704030 13.145954 18.542433 23.211330 -1.227162 0.645411 0.025577 0.001323 -31068.100000 0 1 0
-4.441030 14.374554 17.886433 23.372527 -1.271148 0.699326 0.024775 -0.001175 -394401.000000 0 1 0
-5.649030 14.983254 17.578933 23.778737 -1.210253 0.738809 0.018929 0.000863 -563179.000000 0 1 0
-5.453730 16.413554 17.194333 24.388379 -1.250003 0.788343 0.022450 -0.009683 -33116.700000 0 1 0
-5.069630 17.080354 18.377733 25.596498 -1.282268 0.769903 0.025549 0.003859 -32902.600000 0 0 1
-4.627230 18.343154 18.107633 26.187190 -1.323692 0.807276 0.014465 0.011187 -414046.000000 0 0 1
-3.996530 18.911554 19.417833 27.398382 -1.362533 0.783111 0.009318 0.012201 309618.000000 0 0 1
-4.955930 19.321254 20.375233 28.513544 -1.319708 0.774772 -0.000230 0.012836 160059.000000 0 0 1
-4.235430 19.897954 21.412133 29.535519 -1.361069 0.759817 -0.005655 0.019331 -144690.000000 0 0 1
-5.114130 20.313954 22.581633 30.801643 -1.324167 0.747882 -0.023536 0.021839 -2073.720000 0 0 1
-5.666730 19.255054 23.352233 30.792787 -1.284579 0.709992 -0.019983 0.016694 -64253.800000 0 0 1
-6.323030 19.445054 24.582153 31.974569 -1.256407 0.693829 -0.031532 0.016398 162946.000000 0 0 1
-5.497430 20.046054 25.762133 33.102168 -1.303137 0.678904 -0.042757 0.016954 -715847.000000 0 0 1
-5.233330 21.416354 25.685603 33.849640 -1.331132 0.709305 -0.036165 0.011664 -54981.300000 0 0 1
-4.321230 21.950554 26.639133 34.787113 -1.376420 0.698549 -0.020671 0.018473 1254010.000000 0 0 1
-2.814130 21.630854 26.292543 34.163006 -1.441425 0.692550 -0.013081 0.018638 428486.000000 0 0 1
-2.560930 20.276954 26.610403 33.553342 -1.445164 0.654951 -0.008580 0.025467 228457.000000 0 0 1
-1.136430 20.115854 26.562323 33.339107 -1.514362 0.648929 -0.005933 0.019954 803454.000000 0 0 1
-0.715430 18.745554 27.105493 32.963850 -1.532650 0.605392 -0.018563 0.028276 -129986.000000 0 0 1
-0.839230 17.695254 26.144663 31.581161 -1.523405 0.595521 -0.003373 0.023757 -242723.000000 0 0 1
-0.425430 16.492254 26.738373 31.418403 -1.545006 0.552830 -0.004549 0.017157 707236.000000 0 0 1
1.085470 16.157154 26.397093 30.968345 1.503715 0.550258 0.002069 0.016635 739256.000000 0 0 1
1.442070 15.853254 25.075653 29.701744 1.480082 0.565635 0.006143 0.023157 -179387.000000 0 0 1
0.832770 14.634654 24.744963 28.760734 1.513954 0.534795 0.019066 0.016043 -263775.000000 0 0 1
1.059770 14.343554 23.236033 27.327164 1.497046 0.554259 0.031066 0.005174 2192310.000000 0 0 1
2.491470 14.225354 22.896533 27.070636 1.397412 0.562720 0.027256 0.001093 1793630.000000 0 0 1
2.603570 13.763754 21.595533 25.740757 1.383844 0.575422 0.023389 -0.005881 -737198.000000 0 0 1
4.038070 13.859154 21.151633 25.608080 1.287280 0.598867 0.012252 -0.001526 -670237.000000 0 0 1
4.505670 14.996254 20.425933 25.737277 1.278924 0.654040 0.004989 0.005327 992525.000000 0 0 1
5.929570 14.884654 20.187033 25.772641 1.191698 0.670882 0.013113 0.003873 1095830.000000 0 0 1
6.406170 15.972454 19.209133 25.790485 1.189363 0.730539 0.013626 -0.002266 -203177.000000 0 0 1
6.249170 15.631154 17.847733 24.534194 1.190471 0.756178 0.011836 -0.013543 155968.000000 0 1 0
6.658570 16.613254 16.905733 24.619922 1.189602 0.813900 0.006371 -0.004992 -188744.000000 0 1 0
6.421970 16.078554 15.493833 23.234037 1.190797 0.840810 -0.000535 -0.002412 711003.000000 0 1 0
7.327070 15.053754 14.953333 22.447798 1.117823 0.841778 -0.005993 -0.005492 732356.000000 0 1 0
7.508970 13.893954 15.760033 22.311549 1.075316 0.786451 0.000749 -0.002965 -188089.000000 0 1 0
8.492070 12.844954 15.180933 21.623340 0.986643 0.792507 -0.005055 -0.004993 -285171.000000 0 1 0
9.791470 13.329854 15.123633 22.411653 0.937255 0.830088 -0.003192 -0.011169 -1124970.000000 0 1 0
10.705870 12.506154 14.490733 21.931732 0.862801 0.849019 -0.011650 0.000854 -18408.500000 0 1 0
12.058070 13.252554 14.325633 22.940161 0.832556 0.896333 -0.006047 0.002072 -631698.000000 0 1 0
12.684870 13.489454 15.566933 24.190922 0.816128 0.871730 0.006187 0.000594 132034.000000 0 1 0
13.959070 14.101454 15.495233 25.175561 0.790472 0.907792 0.011927 0.003312 243196.000000 0 0 1
15.101870 13.104654 15.136733 25.078260 0.714709 0.922813 -0.003874 0.006466 -954297.000000 0 0 1
16.370970 13.686854 15.275533 26.242724 0.696336 0.949504 -0.000024 -0.006195 398036.000000 0 0 1
17.334070 12.889354 14.560433 26.050176 0.639383 0.977692 0.006214 -0.003343 -26511.900000 0 0 1
18.719970 13.469854 14.318633 27.145856 0.623723 1.015176 0.010050 -0.001262 -389846.000000 0 0 1
19.599370 13.336954 15.398133 28.268572 0.597504 0.994755 0.002739 -0.001543 -378560.000000 0 0 1
20.905070 13.715254 15.042033 29.178638 0.580633 1.029187 0.011469 0.000128 -271668.000000 0 0 1
21.877570 13.554954 16.237333 30.430508 0.554694 1.007960 0.013403 0.011515 -158891.000000 0 0 1
22.171670 12.221454 16.488033 30.212615 0.503779 0.993532 0.011527 0.011100 -116507.000000 0 0 1
23.094670 12.142954 17.522033 31.429871 0.484066 0.979430 -0.010405 0.019109 -545866.000000 0 0 1
23.397270 10.619354 17.693933 31.197407 0.426069 0.967742 0.000248 0.019639 -39632.800000 0 0 1
22.360270 9.887254 18.342533 30.564489 0.416331 0.927138 -0.018140 0.022273 643225.000000 0 0 1
22.341770 8.573554 17.964133 29.922744 0.366416 0.926857 -0.011614 0.021143 37489.000000 0 0 1
21.178070 7.803654 18.647033 29.276604 0.353041 0.880292 0.006247 0.012421 36629.800000 0 0 1
21.156970 6.439654 18.349733 28.736723 0.295466 0.878188 0.004311 0.012777 271089.000000 0 0 1
19.926370 6.015954 18.883933 28.104357 0.293207 0.833996 0.000045 0.018820 -200534.000000 0 0 1
19.679570 4.565354 18.423333 27.341308 0.227952 0.831419 0.018295 0.009948 -628386.000000 0 0 1
19.479370 4.555954 17.032933 26.274006 0.229756 0.865472 0.031469 -0.004428 310191.000000 0 0 1
19.649270 3.300854 16.427333 25.823376 0.166435 0.881309 0.014996 -0.000399 -204532.000000 0 0 1
18.580770 2.221054 16.764933 25.124512 0.118971 0.840254 0.043292 0.003696 -100569.000000 0 0 1
18.601570 1.554654 18.024533 25.948394 0.083383 0.802891 0.025038 0.002941 -562601.000000 0 0 1
17.302770 1.215654 18.394933 25.283141 0.070142 0.756042 0.031747 0.000127 -821027.000000 0 0 1
17.258870 0.181854 19.577433 26.099379 0.010536 0.722566 0.016517 -0.002742 -415133.000000 0 0 1
17.698670 -1.058446 19.123233 26.077985 -0.059733 0.747619 0.021171 -0.002087 -187846.000000 0 0 1
17.085470 -2.085246 19.812433 26.244886 -0.121447 0.715285 0.022092 0.010368 -184368.000000 0 0 1
17.262170 -3.488846 19.198433 26.052532 -0.199423 0.742305 0.012300 0.008188 -71003.200000 0 0 1
16.775470 -3.544746 17.868033 24.763849 -0.208242 0.764777 0.007021 0.002908 352921.000000 0 1 0
16.743170 -4.892346 17.349833 24.602551 -0.284285 0.788085 0.021044 0.009125 -161891.000000 0 1 0
16.365470 -4.908546 15.849733 23.305289 -0.291395 0.822909 0.003925 0.001924 1177210.000000 0 1 0
15.049470 -4.289846 15.643933 22.127403 -0.277685 0.785558 -0.005152 0.001194 1642960.000000 0 1 0
14.569070 -4.551746 14.312133 20.923990 -0.302817 0.817556 -0.012357 0.000624 202866.000000 0 1 0
15.183770 -3.580146 13.315133 20.509927 -0.231558 0.864258 -0.004524 -0.001233 -107621.000000 0 1 0
14.757570 -2.279646 13.679733 20.251364 -0.153262 0.829158 0.003040 0.002006 514068.000000 0 1 0
15.507870 -1.233346 13.057633 20.310514 -0.079363 0.872518 0.011607 -0.002395 503361.000000 0 1 0
14.701670 0.092754 13.224233 19.774429 0.006309 0.838264 0.019931 0.002022 274022.000000 0 1 0
15.427470 1.234754 12.821833 20.098031 0.079866 0.878944 0.032840 -0.003157 286535.000000 0 1 0
16.250070 1.820254 13.802933 21.398576 0.111550 0.869721 0.037290 -0.005646 -290859.000000 0 1 0
16.434470 3.291354 13.450333 21.490377 0.197656 0.894541 0.042779 -0.001748 -932053.000000 0 1 0
15.356270 4.142354 13.589833 20.920270 0.263479 0.863737 0.048235 -0.001338 -336020.000000 0 1 0
15.553770 5.392854 13.019233 20.988165 0.333753 0.901655 0.046709 -0.004484 -56695.800000 0 1 0
14.284570 6.280154 12.975333 20.294052 0.414210 0.877122 0.040567 -0.005781 -64446.900000 0 1 0
14.418070 7.453854 12.158233 20.279628 0.477139 0.927883 0.020693 -0.012611 -113047.000000 0 1 0
13.412570 8.403254 12.326333 20.061162 0.559692 0.909123 0.011351 -0.006083 -709270.000000 0 1 0
13.571570 9.374054 13.539933 21.339873 0.604466 0.883448 0.009654 -0.007422 -224399.000000 0 1 0
13.164870 8.889454 14.800233 21.711359 0.593915 0.820738 0.013495 -0.006383 142480.000000 0 1 0
13.925470 9.379554 15.851433 23.090316 0.592755 0.814136 0.035929 -0.010885 -502961.000000 0 1 0
13.395970 8.793754 17.139633 23.463784 0.580895 0.751784 0.038025 -0.012726 720247.000000 0 1 0
12.070470 9.227754 17.518833 23.189593 0.652710 0.714439 0.029792 -0.013237 1025740.000000 0 1 0
11.461970 8.435854 18.579733 23.403993 0.634472 0.653649 0.035959 -0.016484 193637.000000 0 1 0
11.891870 8.797054 20.057433 24.921985 0.636911 0.635443 0.035046 -0.002092 -298048.000000 0 1 0
13.261670 8.590654 20.282033 25.710544 0.574813 0.661844 0.035529 0.000172 -344718.000000 0 0 1
13.697970 8.829254 21.614433 27.069796 0.572546 0.646046 0.036578 0.007034 50560.500000 0 0 1
15.207270 8.485354 21.700933 27.824320 0.508949 0.676247 0.036024 0.007718 204771.000000 0 0 1
15.888370 9.379854 20.821833 27.820329 0.533301 0.725090 0.034525 0.015035 -615678.000000 0 0 1
17.069470 8.843054 20.318833 27.971796 0.477993 0.757721 0.039272 0.004837 -524700.000000 0 0 1
17.986370 9.863854 19.631833 28.393908 0.501619 0.807357 0.037592 0.004915 -24613.200000 0 0 1
18.640370 10.744754 20.546733 29.750317 0.522904 0.808424 0.019817 0.006005 381321.000000 0 0 1
19.580170 11.583054 19.897733 30.223666 0.534198 0.852173 0.013808 0.012241 -62788.100000 0 0 1
20.397270 12.536454 20.744533 31.678809 0.551096 0.856826 -0.003682 0.020528 -682838.000000 0 0 1
19.707270 13.645454 21.267933 32.045279 0.605612 0.845063 0.006199 0.008952 421571.000000 0 0 1
20.529570 14.476354 22.111733 33.465756 0.614172 0.849009 -0.019450 0.026451 445108.000000 0 0 1
21.733070 15.225054 21.444433 34.117332 0.611093 0.891109 -0.023074 0.026376 -310614.000000 0 0 1
22.834270 14.385154 21.316533 34.390858 0.562173 0.902269 -0.026224 0.030189 -598552.000000 0 0 1
23.994470 15.213954 21.380633 35.557425 0.565088 0.925671 -0.029427 0.033482 353210.000000 0 0 1
25.316470 14.396654 21.266633 36.061850 0.517062 0.940076 -0.024906 0.030142 55516.700000 0 0 1
25.545870 13.915354 19.948433 35.272773 0.498781 0.969699 -0.030931 0.025336 104060.000000 0 0 1
26.709170 13.122854 19.924033 35.812793 0.456683 0.980824 -0.020216 0.016315 -82346.500000 0 0 1
26.969970 12.331154 18.594733 35.002868 0.428840 1.010739 -0.013985 0.015654 -302550.000000 0 0 1
27.501070 13.207354 17.580933 35.211252 0.447722 1.048007 -0.005794 0.011631 110951.000000 0 0 1
27.675070 12.531054 16.322533 34.487127 0.425173 1.077771 -0.001377 0.004324 -780082.000000 0 0 1
26.531570 11.900554 15.537933 32.969300 0.421642 1.080049 0.005669 -0.004696 -658671.000000 0 0 1
25.768970 12.908054 14.924633 32.456161 0.464379 1.092982 0.021305 -0.008018 11728.200000 0 0 1
24.916270 12.427954 13.903233 31.121929 0.462678 1.107685 0.017144 -0.000955 34354.500000 0 0 1
24.494070 13.360154 12.766633 30.682896 0.499339 1.141663 0.015262 -0.002638 579026.000000 0 0 1
23.498270 14.320054 13.198333 30.519316 0.547309 1.123579 0.009383 0.005001 789731.000000 0 0 1
23.009170 15.058554 12.081133 30.035575 0.579503 1.156848 -0.006746 0.000921 -14663.300000 0 0 1
22.316570 16.375554 12.519133 30.379545 0.633042 1.146049 0.007811 0.007838 1386840.000000 0 0 1
20.967570 16.163354 13.086233 29.532059 0.656727 1.111721 0.018996 0.006961 1877780.000000 0 0 1
20.362970 17.367354 13.518833 29.983902 0.706169 1.103057 0.016732 0.011185 -674897.000000 0 0 1
19.856270 18.339354 12.417733 29.745646 0.745705 1.140144 0.028511 0.010210 461754.000000 0 0 1
18.727970 17.848554 11.638933 28.368513 0.761360 1.148039 0.017117 0.013849 1058020.000000 0 0 1
17.501970 17.911354 12.357133 27.925513 0.796958 1.112408 -0.001090 0.012620 -329486.000000 0 0 1
16.339070 17.235554 11.585633 26.424542 0.812093 1.116932 -0.001390 0.015629 -157415.000000 0 0 1
16.366370 15.819154 11.720133 25.602055 0.768398 1.095299 -0.000513 0.017307 633570.000000 0 0 1
15.100970 15.240654 11.403833 24.297412 0.790002 1.082249 -0.003170 0.014337 287584.000000 0 1 0
15.203270 13.980654 10.617333 23.223391 0.743529 1.095971 0.003129 0.010439 -486064.000000 0 1 0
15.716770 12.888954 11.322933 23.266947 0.686863 1.062542 0.015037 0.010963 496245.000000 0 1 0
15.984370 11.805354 10.441633 22.447587 0.636137 1.086985 0.007229 0.007784 -89296.100000 0 1 0
16.517670 10.529654 11.147733 22.538389 0.567522 1.053409 0.020052 -0.002759 -630639.000000 0 1 0
17.059470 9.579554 10.210733 22.069265 0.511659 1.089794 0.018143 -0.007903 552608.000000 0 1 0
17.613470 8.373354 10.707033 22.248325 0.443770 1.068715 0.023148 -0.013972 27734.800000 0 1 0
18.963270 8.524954 11.420233 23.721344 0.422480 1.068508 0.024809 -0.016170 -518021.000000 0 1 0
18.736770 9.190554 12.677333 24.418182 0.456026 1.024910 0.021214 -0.011324 -465834.000000 0 1 0
19.938470 9.251854 13.365733 25.725128 0.434452 1.024461 0.033359 -0.022659 -1009270.000000 0 0 1
19.800270 9.553154 14.883433 26.548635 0.449530 0.975674 0.030486 -0.004923 3073.520000 0 0 1
19.232470 8.487454 15.681133 26.226374 0.415603 0.929899 0.042769 -0.004233 301811.000000 0 0 1
17.830070 8.436854 15.747633 25.240441 0.441963 0.897067 0.050955 -0.009942 -466412.000000 0 0 1
17.359370 6.947754 16.004233 24.612080 0.380705 0.862871 0.047438 -0.006905 3798.740000 0 1 0
16.040970 6.873354 16.519133 24.029929 0.404821 0.812838 0.041467 -0.009735 197083.000000 0 1 0
15.836270 5.502654 16.739633 23.691390 0.334421 0.786157 0.055157 -0.006334 798067.000000 0 1 0
14.450370 5.246654 17.489733 23.285861 0.348280 0.721088 0.051665 -0.014326 1089650.000000 0 1 0
14.117170 3.872454 17.677533 22.951810 0.267723 0.691638 0.064343 -0.010509 333603.000000 0 1 0
13.739770 3.158654 16.521433 21.719027 0.225965 0.706422 0.068978 -0.007547 -364916.000000 0 1 0
13.285470 1.672754 16.763133 21.454707 0.125249 0.674008 0.036801 -0.002510 -172158.000000 0 1 0
14.377870 0.855054 17.095433 22.354152 0.059400 0.700136 0.018772 0.004477 -57917.500000 0 1 0
14.153970 -0.541846 16.961833 22.098241 -0.038264 0.695763 0.009521 0.021238 -390081.000000 0 1 0
13.099670 -1.197346 17.846333 22.170399 -0.091149 0.635185 0.005055 0.015896 -252574.000000 0 1 0
11.785970 -1.100046 17.363533 21.014554 -0.093066 0.598357 0.007806 0.000400 -701930.000000 0 1 0
10.896170 -1.539746 18.353133 21.399412 -0.140381 0.540121 -0.001816 -0.003621 -158701.000000 0 1 0
-25.184920 14.116354 29.173583 41.044483 -0.510875 0.780190 0.040985 -0.003157 -796752.000000 0 0 1
-24.325930 14.021354 30.234603 41.261125 -0.522882 0.748424 0.047801 -0.002645 114040.000000 0 0 1
-23.595030 12.769154 30.248153 40.431763 -0.496046 0.725559 0.043742 -0.001260 65682.200000 0 0 1
-22.386830 12.842254 31.210073 40.498917 -0.520821 0.690952 0.059222 -0.012159 -420452.000000 0 0 1
-22.697530 13.060254 32.557903 41.782354 -0.522138 0.677366 0.057737 -0.013173 1091170.000000 0 0 1
-21.525530 13.127754 33.425255 41.868055 -0.547645 0.646250 0.032062 -0.004423 824582.000000 0 0 1
-22.016530 13.176554 -34.260625 42.803499 -0.539304 2.498786 0.026386 0.007066 423275.000000 0 0 1
-22.761030 12.061854 -33.745044 42.453277 -0.487307 2.489598 0.013796 0.002617 303152.000000 0 0 1
-23.409530 12.434554 -32.539354 41.969438 -0.488275 2.458003 -0.009213 0.003117 103430.000000 0 0 1
-24.419430 11.372854 -32.072944 41.884652 -0.435857 2.442995 -0.023620 -0.002505 -108825.000000 0 0 1
-23.773130 10.312154 -31.396444 40.709199 -0.409278 2.451579 -0.030469 -0.001552 167641.000000 0 0 1
-23.467730 9.208054 -32.234014 40.921317 -0.373912 2.477875 -0.028497 -0.001987 4936.600000 0 0 1
-22.575630 8.216554 -31.424554 39.555953 -0.349054 2.488870 -0.039012 0.007443 173935.000000 0 0 1
-23.228430 7.625454 -30.327314 38.954505 -0.317197 2.463119 -0.037129 0.003415 -75596.400000 0 0 1
-22.232830 7.189354 -29.448594 37.592621 -0.312754 2.470851 -0.039560 0.008292 -181288.000000 0 0 1
-22.708330 6.150754 -28.384924 36.867383 -0.264512 2.449512 -0.039235 0.007731 -197092.000000 0 0 1
-23.108130 4.932354 -28.931454 37.354287 -0.210291 2.456744 -0.029402 0.001251 10437.100000 0 0 1
-23.382230 4.014354 -27.960054 36.668901 -0.170026 2.437965 0.002418 0.009829 -762641.000000 0 0 1
-24.088130 2.751454 -28.471104 37.395350 -0.113732 2.436195 0.001895 0.011474 1539470.000000 0 0 1
-25.522300 2.818254 -28.720694 38.525428 -0.109978 2.412081 0.011310 0.002110 1405940.000000 0 0 1
-25.905530 3.669954 -29.775044 39.637334 -0.140730 2.420655 0.000967 0.000829 -1590570.000000 0 0 1
-27.303260 3.471154 -30.323174 40.951334 -0.126455 2.404564 0.026701 -0.007532 -850392.000000 0 0 1
-28.332870 3.977754 -29.497094 41.093218 -0.139482 2.371447 0.024278 -0.003936 635879.000000 0 0 1
-29.556590 4.128654 -30.251304 42.494460 -0.138788 2.362979 0.038752 -0.012715 870008.000000 0 0 1
-29.879540 5.512554 -30.908244 43.341604 -0.182441 2.364751 0.039749 -0.027653 -240129.000000 0 0 1
-28.946290 5.873754 -31.930974 43.496848 -0.200201 2.395135 0.021521 -0.017899 357452.000000 0 0 1
-29.111500 7.191954 -32.460914 44.191792 -0.242199 2.395794 0.020614 -0.019809 -231088.000000 0 0 1
-28.408540 8.311154 -31.596544 43.295057 -0.284616 2.388819 0.007077 -0.022369 -754308.000000 0 0 1
-27.022080 8.226954 -31.561914 42.355991 -0.295537 2.411568 -0.033282 -0.019828 -469309.000000 0 0 1
-26.416830 7.698154 -30.382754 40.990513 -0.283558 2.405674 -0.021935 -0.025347 -561526.000000 0 0 1
-26.588220 8.545254 -29.061984 40.305752 -0.310966 2.376096 -0.019030 -0.015501 1606430.000000 0 0 1
-27.972760 8.652054 -28.555014 40.898926 -0.299970 2.343655 -0.020418 -0.011859 2048740.000000 0 0 1
-28.483400 7.464054 -27.901084 40.564598 -0.256287 2.329276 -0.016838 -0.008910 -1006190.000000 0 0 1
-29.905470 7.629554 -27.427244 41.289235 -0.249794 2.297315 -0.000515 -0.013283 -793728.000000 0 0 1
-30.069530 8.410454 -26.218544 40.771612 -0.272731 2.269282 -0.023843 -0.004320 -43564.500000 0 0 1
-29.991950 7.641554 -25.033244 39.806704 -0.249479 2.250895 -0.018819 -0.010934 -137351.000000 0 0 1
-29.442960 8.517954 -23.886544 38.858852 -0.281615 2.232802 -0.022026 -0.000424 -399145.000000 0 0 1
-30.334560 9.433454 -23.275344 39.381686 -0.301500 2.203118 -0.023948 -0.003522 19247.200000 0 0 1
-29.634960 10.257754 -22.356044 38.512920 -0.333229 2.190116 -0.032472 -0.002222 16946.600000 0 0 1
-30.449360 11.421654 -21.691044 39.091163 -0.358861 2.159019 -0.037703 0.009379 69602.500000 0 0 1
-31.036140 10.974154 -20.474544 38.767009 -0.339872 2.127209 -0.041452 -0.004813 -35952.400000 0 0 1
-31.580740 11.939854 -19.611244 39.044899 -0.361463 2.097023 -0.043821 0.001021 -31429.100000 0 0 1
-30.606510 12.738354 -18.690344 38.057234 -0.394391 2.084162 -0.047869 0.005994 -307630.000000 0 0 1
-30.167030 11.975954 -17.566344 36.905956 -0.377907 2.066870 -0.022480 0.008825 613699.000000 0 0 1
-31.171180 11.738954 -16.551444 37.194029 -0.360170 2.031974 -0.023410 0.017979 247438.000000 0 0 1
-31.602280 12.974554 -15.681844 37.589405 -0.389574 2.001145 -0.036254 0.015449 -776573.000000 0 0 1
-32.253990 13.912454 -16.448344 38.786908 -0.407229 2.008730 -0.040186 0.008895 -163388.000000 0 0 1
-32.867130 14.811354 -15.543844 39.258572 -0.423389 1.977882 -0.046590 0.011831 -143766.000000 0 0 1
-33.363700 16.095154 -16.269744 40.458559 -0.449481 1.984642 -0.041972 0.009141 -371671.000000 0 0 1
-34.272278 15.793754 -17.278144 41.503806 -0.431825 2.000171 -0.034590 -0.001257 -107116.000000 0 0 1
-34.974432 16.992454 -17.551444 42.661546 -0.452267 1.994798 -0.026032 -0.004219 -1094720.000000 0 0 1
34.630057 17.064554 -19.038244 43.045262 0.457845 2.028940 -0.022370 -0.006691 101305.000000 0 0 1
33.509115 16.255154 -19.352644 41.971605 0.451654 2.050018 0.004411 -0.009277 -97786.500000 0 0 1
32.335555 16.854454 -18.863644 41.054814 0.480492 2.048200 0.047310 -0.026949 -1019660.000000 0 0 1
31.109065 15.903354 -19.072344 39.805086 0.472578 2.070475 0.055101 -0.030750 35951.000000 0 0 1
30.730295 15.684254 -20.409944 40.086315 0.471920 2.104993 0.044464 -0.029215 263774.000000 0 0 1
29.725405 14.687154 -20.561644 39.014015 0.458912 2.125901 0.026456 -0.027310 93658.200000 0 0 1
30.166295 13.177654 -20.497344 38.778821 0.411851 2.127712 0.011634 0.008089 -142595.000000 0 0 1
30.563745 12.716154 -19.227344 38.282291 0.394269 2.096997 0.022702 0.005270 144769.000000 0 0 1
31.109925 11.423754 -19.388144 38.395699 0.351920 2.100127 0.001645 0.024750 -118228.000000 0 0 1
31.474435 10.812154 -18.006644 37.838894 0.330892 2.066757 -0.012969 0.031524 -405597.000000 0 0 1
30.369295 10.294254 -17.317044 36.443734 0.326814 2.065956 0.006190 0.028680 -82122.200000 0 0 1
30.759335 9.986754 -15.983144 36.073991 0.313937 2.029812 -0.029490 0.028547 -358104.000000 0 0 1
30.434325 10.992754 -14.840544 35.599586 0.346614 2.000800 -0.008064 0.019872 -343671.000000 0 0 1
29.087335 11.008554 -14.442844 34.290772 0.361805 2.005551 0.005752 0.024921 -22287.000000 0 0 1
28.855985 12.002054 -13.457044 34.026595 0.394163 1.977393 -0.007997 0.019803 -620686.000000 0 0 1
27.418135 12.516654 -13.487044 33.020010 0.428254 1.991552 0.037026 0.014699 -291392.000000 0 0 1
26.486085 11.546754 -12.996044 31.681814 0.411113 1.993475 0.012094 0.026909 971896.000000 0 0 1
25.134995 11.700854 -13.459844 30.819561 0.435686 2.022757 0.017723 0.025138 627689.000000 0 0 1
24.804265 10.930954 -14.806544 30.886422 0.415084 2.070752 0.017343 0.020761 -568491.000000 0 0 1
24.833265 9.553654 -14.770944 30.432616 0.367258 2.077578 0.010808 0.023931 -236155.000000 0 0 1
26.125985 9.027154 -14.794444 31.351749 0.332682 2.062225 0.006483 0.015191 -556011.000000 0 0 1
26.402325 7.771354 -13.885244 30.826558 0.286259 2.038045 -0.004143 0.017247 -194569.000000 0 0 1
25.943575 6.534754 -14.407844 30.386807 0.246750 2.064792 0.010341 0.006258 421368.000000 0 0 1
26.023945 5.570654 -13.330144 29.765258 0.210876 2.035147 0.001713 0.000146 -464374.000000 0 0 1
25.086625 4.423754 -13.626044 28.889053 0.174545 2.061978 0.009766 0.000909 -543200.000000 0 0 1
24.805665 3.751854 -12.420844 27.994192 0.150112 2.030512 -0.008003 -0.003013 14467.900000 0 0 1
24.096665 2.562454 -12.653044 27.337062 0.105942 2.052007 -0.007431 -0.003340 -394040.000000 0 0 1
23.156765 2.252954 -11.459744 25.935252 0.096986 2.028467 -0.011850 -0.000687 -248904.000000 0 0 1
23.828865 2.032654 -10.226644 26.010204 0.085096 1.974882 -0.014393 0.001409 101176.000000 0 0 1
23.001465 2.246354 -9.121244 24.845735 0.097353 1.946702 -0.016864 0.005316 -875157.000000 0 1 0
23.566965 1.757454 -7.732944 24.865416 0.074435 1.887033 -0.022923 0.012698 -95684.400000 0 1 0
23.585865 0.368754 -7.501944 24.752942 0.015633 1.878712 -0.035572 0.010147 980514.000000 0 1 0
24.590065 -0.276846 -8.317544 25.960151 -0.011258 1.896944 -0.014622 0.002694 11199.300000 0 0 1
24.623865 -1.780546 -7.942944 25.934445 -0.072184 1.882069 -0.004153 0.001013 -355108.000000 0 0 1
25.510845 -2.096446 -6.898044 26.510022 -0.081994 1.834031 0.004142 -0.000580 360886.000000 0 0 1
25.545545 -3.472546 -6.714444 26.640518 -0.135107 1.825583 0.009495 0.000717 -30225.900000 0 0 1
26.718405 -3.970046 -5.799944 27.627410 -0.147509 1.782304 0.008390 -0.002605 66453.000000 0 0 1
27.936765 -3.950946 -6.503844 28.954668 -0.140493 1.797351 0.013644 -0.002620 791035.000000 0 0 1
28.985275 -4.633646 -5.775844 29.916170 -0.158521 1.765084 0.018234 0.006291 1309920.000000 0 0 1
30.358615 -4.827246 -6.517944 31.423421 -0.157687 1.779736 0.014964 -0.000882 773227.000000 0 0 1
30.247005 -5.850346 -7.470144 31.700330 -0.191060 1.808682 -0.001458 -0.001055 439127.000000 0 0 1
31.245865 -5.571146 -8.441844 32.842145 -0.176446 1.830757 0.001174 -0.010961 -175350.000000 0 0 1
31.027055 -6.375346 -9.751344 33.142297 -0.202656 1.869442 -0.005485 -0.004300 975818.000000 0 0 1
29.786665 -6.216546 -10.485744 32.184494 -0.205749 1.902655 0.009681 -0.002203 1731850.000000 0 0 1
28.694155 -7.046146 -10.012544 31.197015 -0.240796 1.897524 0.006092 -0.010137 607190.000000 0 0 1
27.396195 -6.299246 -9.629344 29.714580 -0.226003 1.900816 -0.000328 -0.004193 -920171.000000 0 0 1
26.778885 -5.742146 -10.818944 29.447079 -0.211229 1.947011 -0.015132 -0.002068 633294.000000 0 0 1
25.538845 -5.093946 -10.569044 28.104903 -0.196875 1.956333 0.011199 0.005520 1084190.000000 0 0 1
24.311465 -6.013546 -10.165544 27.028658 -0.242487 1.956383 0.023349 0.009052 -651738.000000 0 0 1
24.370465 -6.677746 -8.889044 26.786693 -0.267445 1.909056 0.014009 0.008840 764588.000000 0 0 1
23.084965 -7.094846 -8.411644 25.573584 -0.298174 1.905955 0.014337 0.001737 388047.000000 0 0 1
22.196765 -5.981346 -7.710144 24.247045 -0.263217 1.894397 0.025984 0.008878 -75079.500000 0 1 0
21.569465 -5.232046 -8.712844 23.843862 -0.237971 1.944872 0.013763 0.008336 349403.000000 0 1 0
21.090765 -3.983346 -8.191244 22.973547 -0.186668 1.935370 -0.008056 0.004391 -263767.000000 0 1 0
20.995865 -3.093646 -9.397944 23.210306 -0.146293 1.987670 -0.007838 0.009187 -379700.000000 0 1 0
22.205765 -3.009146 -10.115544 24.586077 -0.134691 1.994823 -0.007013 0.006668 485168.000000 0 1 0
22.047865 -2.252846 -11.302944 24.878509 -0.101826 2.042411 -0.006073 0.010912 -213296.000000 0 1 0
23.398765 -2.197246 -12.045344 26.408718 -0.093630 2.044418 -0.000271 -0.002080 121368.000000 0 0 1
24.309965 -1.387646 -11.321844 26.853009 -0.057019 2.006031 -0.003505 -0.004767 407164.000000 0 0 1
25.611695 -1.349846 -11.851244 28.253017 -0.052656 2.003656 0.002246 -0.005406 -324545.000000 0 0 1
26.525955 -0.174446 -11.541544 28.928601 -0.006576 1.981186 -0.000215 -0.005714 143642.000000 0 0 1
27.805925 -0.459646 -12.132444 30.341010 -0.016529 1.982171 0.001396 -0.010961 690497.000000 0 0 1
28.778555 0.546354 -11.970944 31.173822 0.018982 1.964928 0.014207 -0.011749 -50645.400000 0 0 1
28.627365 1.740054 -12.989144 31.484467 0.060708 1.996056 0.010224 -0.011279 -398632.000000 0 0 1
28.961625 1.419254 -14.346144 32.351226 0.048965 2.030240 0.011065 -0.005264 402415.000000 0 0 1
28.905575 2.586054 -15.156444 32.740460 0.089228 2.052091 -0.002028 -0.000709 -226133.000000 0 0 1
29.162685 2.240154 -16.641744 33.651569 0.076665 2.088091 -0.006436 -0.002431 -117195.000000 0 0 1
28.111045 1.514054 -17.236744 33.009522 0.053808 2.120195 -0.000498 0.004960 -349220.000000 0 0 1
28.396325 1.336954 -18.614144 33.979774 0.047047 2.150529 -0.010222 0.004289 -39891.100000 0 0 1
27.353445 0.602854 -19.523944 33.611884 0.022036 2.190586 -0.010330 0.005374 -47719.200000 0 0 1
27.217525 -0.759746 -19.281744 33.364000 -0.027907 2.186975 -0.008742 0.012702 225020.000000 0 0 1
26.808215 -1.410746 -20.484244 33.767955 -0.052575 2.222596 -0.013321 0.008891 -34973.200000 0 0 1
26.555705 -2.966646 -20.423544 33.632240 -0.111253 2.223405 -0.020817 0.011926 511617.000000 0 0 1
25.346975 -3.350746 -19.752144 32.308572 -0.131433 2.228573 -0.002798 0.015556 666013.000000 0 0 1
25.139135 -4.758446 -19.701344 32.291823 -0.187071 2.226987 -0.003899 0.014509 -166104.000000 0 0 1
25.937645 -5.455246 -18.597944 32.379077 -0.207300 2.182645 -0.025999 0.014290 -808369.000000 0 0 1
27.314965 -5.396346 -18.718444 33.550082 -0.195048 2.162680 -0.025676 0.015376 -914489.000000 0 0 1
28.017065 -5.884446 -17.603444 33.607497 -0.207022 2.122096 -0.035372 0.006744 1138240.000000 0 0 1
29.575095 -5.640946 -17.706944 34.929105 -0.188469 2.102427 -0.027916 0.016372 1078890.000000 0 0 1
30.274385 -6.437146 -18.650144 36.135897 -0.209507 2.113101 -0.030143 0.011688 -357967.000000 0 0 1
31.558125 -5.998446 -18.974244 37.308424 -0.187835 2.104329 -0.018844 0.009896 -441453.000000 0 0 1
32.145765 -7.091246 -19.942744 38.488297 -0.217119 2.115484 -0.016430 0.008270 -310357.000000 0 0 1
32.439405 -8.260046 -19.169644 38.574844 -0.249332 2.090873 -0.016856 0.013894 -39588.800000 0 0 1
33.101095 -9.230446 -19.925644 39.722977 -0.271948 2.096261 -0.018120 0.022656 -292745.000000 0 0 1
33.852425 -10.139746 -18.913744 40.081552 -0.291024 2.062220 -0.012856 0.016356 -44594.300000 0 0 1
32.940285 -10.854046 -18.057844 39.101898 -0.318303 2.050837 -0.026712 0.010160 696855.000000 0 0 1
33.612315 -11.598146 -17.060244 39.438010 -0.332264 2.018153 0.002145 0.016028 -142671.000000 0 0 1
34.611901 -10.886546 -16.048444 39.674338 -0.304735 1.987233 0.011735 0.015736 180878.000000 0 0 1
35.015741 -11.666746 -14.942844 39.818383 -0.321618 1.955490 0.003627 0.009647 305518.000000 0 0 1
-34.254016 -12.801246 -15.172944 39.590753 0.357644 1.964103 0.005115 0.005989 371049.000000 0 0 1
-32.760300 -12.649646 -15.612844 38.431910 0.368490 1.989139 -0.007256 0.005105 44994.900000 0 0 1
-32.584410 -12.304446 -16.933144 38.728213 0.361064 2.023313 0.004455 0.002796 168827.000000 0 0 1
-31.222190 -12.222946 -17.342044 37.748802 0.373142 2.048123 -0.005548 0.002588 355444.000000 0 0 1
-31.002860 -11.220446 -18.485044 37.799108 0.347251 2.081778 0.005672 0.004154 7787.560000 0 0 1
-31.181920 -9.871746 -18.125144 37.393640 0.306603 2.076830 0.023731 0.000771 926806.000000 0 0 1
-32.431880 -9.387146 -18.697844 38.594750 0.281743 2.076549 0.020889 -0.002088 938220.000000 0 0 1
-32.996040 -8.120146 -17.960444 38.435048 0.241300 2.057023 0.025729 -0.011353 310670.000000 0 0 1
-34.119975 -7.586946 -18.671344 39.627686 0.218801 2.061412 0.019642 -0.010307 156756.000000 0 0 1
-34.719982 -6.568346 -17.917544 39.618918 0.186971 2.040080 0.017064 -0.011739 -190431.000000 0 0 1
23.636570 27.164854 -27.642884 45.395438 0.854739 2.225514 0.013908 0.020486 42087.600000 0 0 1
24.154170 26.307354 -26.661504 44.568336 0.828042 2.212070 0.010719 0.010940 -336810.000000 0 0 1
25.475170 25.948054 -26.946924 45.259502 0.794594 2.208544 -0.000999 0.009863 -274594.000000 0 0 1
26.254470 25.223354 -25.787804 44.615307 0.765371 2.187076 -0.005748 0.001612 -186445.000000 0 0 1
26.400170 26.051854 -24.645344 44.531573 0.778758 2.157279 -0.003253 0.011553 221286.000000 0 0 1
26.815770 25.287354 -23.517544 43.721970 0.756072 2.138727 0.000631 0.005675 -414617.000000 0 0 1
27.375270 26.203254 -22.435544 44.038274 0.763527 2.105348 -0.006260 0.005118 -164167.000000 0 0 1
26.419370 27.099254 -21.878244 43.715103 0.798101 2.094942 0.006085 0.004889 248170.000000 0 0 1
26.992170 27.991854 -20.920444 44.156382 0.803578 2.064375 -0.011139 0.003661 357070.000000 0 0 1
25.910170 28.853854 -20.163344 43.708606 0.839099 2.050271 -0.002041 0.013562 375407.000000 0 0 1
25.268270 28.203054 -19.083244 42.403631 0.840228 2.037604 0.016443 0.006010 -256770.000000 0 0 1
24.452570 29.204854 -18.502444 42.346099 0.873735 2.022983 0.022676 0.000200 -107494.000000 0 0 1
23.459770 28.540754 -17.514644 40.886406 0.882799 2.013488 0.032501 -0.003796 392825.000000 0 0 1
22.462970 27.711954 -18.115544 40.008878 0.889633 2.040686 0.044537 -0.000309 329842.000000 0 0 1
21.282270 27.538554 -17.372744 38.898833 0.912851 2.033773 0.024579 0.004677 -398647.000000 0 0 1
20.309470 26.636454 -18.076744 38.062369 0.919363 2.065674 0.014801 -0.000168 -583980.000000 0 0 1
19.610670 27.180854 -19.204044 38.628649 0.945794 2.091102 0.016760 0.011911 -153253.000000 0 0 1
18.932870 26.097854 -19.795344 37.833942 0.943189 2.121417 0.018592 0.010758 200406.000000 0 0 1
17.918970 26.447654 -20.914044 38.183309 0.975313 2.150442 0.006404 0.018934 121752.000000 0 0 1
16.842570 27.244154 -20.505944 38.031695 1.017096 2.140260 -0.017571 0.018989 -935129.000000 0 0 1
15.961370 27.381154 -21.575444 38.340484 1.043021 2.168484 -0.013625 0.012599 -140714.000000 0 0 1
14.782970 28.355454 -21.274844 38.408162 1.090219 2.157855 -0.013836 0.018890 99140.100000 0 0 1
14.198370 27.904154 -20.057744 37.182638 1.100113 2.140566 -0.006569 0.017839 -392669.000000 0 0 1
13.465270 28.933854 -19.473144 37.385622 1.135225 2.118669 -0.028323 0.015908 -408122.000000 0 0 1
13.373570 28.697954 -17.934644 36.387860 1.134707 2.086186 -0.020794 0.010988 -465496.000000 0 0 1
12.453870 27.666354 -17.731544 35.141623 1.147822 2.099685 -0.024597 0.016010 -364831.000000 0 0 1
11.981370 27.663754 -16.395844 34.317054 1.162079 2.068917 -0.012482 0.018873 -236176.000000 0 0 1
11.126770 26.442054 -16.157644 32.925016 1.172490 2.083736 0.011062 0.005369 99383.600000 0 0 1
11.899870 25.229654 -16.180744 32.248392 1.130075 2.096421 0.000662 0.002820 156214.000000 0 0 1
11.090870 24.148754 -15.800844 30.916603 1.140258 2.107237 0.029514 -0.005860 152560.000000 0 0 1
11.858970 22.839754 -15.942844 30.273153 1.091887 2.125431 0.018015 -0.002747 209288.000000 0 0 1
12.239270 22.701654 -17.329744 31.072252 1.076333 2.162438 0.011727 -0.000668 -94978.100000 0 0 1
13.281770 21.806654 -17.603844 31.013398 1.023735 2.174409 0.014858 0.003456 -70455.400000 0 0 1
12.687770 20.425854 -17.890844 29.971275 1.014961 2.210469 0.035279 -0.002241 325816.000000 0 0 1
12.049570 19.730154 -16.810244 28.584181 1.022533 2.199499 0.037695 -0.009582 103201.000000 0 0 1
11.532970 18.460854 -17.139844 27.705356 1.012394 2.237816 0.034319 -0.012322 -83361.800000 0 0 1
12.582770 17.334854 -17.307844 27.538786 0.942921 2.250406 0.027248 -0.005663 -800.220000 0 0 1
13.258870 17.047554 -16.098444 26.936529 0.909766 2.211355 0.032675 -0.006402 -599010.000000 0 0 1
14.181070 16.066854 -16.354744 26.957822 0.847662 2.222673 0.024799 0.001592 -1246320.000000 0 0 1
14.743370 15.488654 -15.055244 26.151974 0.810045 2.184235 0.030870 0.009028 -263923.000000 0 0 1
15.568370 16.293054 -14.216344 26.644740 0.808139 2.133591 0.000916 0.020324 1823300.000000 0 0 1
16.964170 16.532354 -14.541144 27.794723 0.772507 2.121353 -0.015067 0.022480 2078920.000000 0 0 1
17.980670 15.284154 -14.712044 27.809245 0.704513 2.128258 -0.018026 0.019971 356321.000000 0 0 1
18.250070 14.417354 -13.638944 26.961935 0.668607 2.101174 0.001076 0.012135 354642.000000 0 0 1
19.028770 15.057454 -12.637644 27.359295 0.669413 2.050948 -0.008252 0.015240 -165714.000000 0 0 1
19.860570 14.059154 -11.760144 27.025970 0.616003 2.020993 0.015088 0.012360 104150.000000 0 0 1
19.048670 13.180254 -10.942144 25.618381 0.605286 2.012102 0.039005 0.005491 525999.000000 0 0 1
19.692770 12.116554 -10.278944 25.303612 0.551579 1.989115 0.050920 0.008647 -477009.000000 0 0 1
20.089870 10.946754 -11.187044 25.467317 0.498911 2.025583 0.043258 0.006134 -1177360.000000 0 0 1
21.223670 11.163954 -11.943644 26.790458 0.484242 2.032883 0.030041 0.011186 -192817.000000 0 0 1
21.566670 10.065054 -12.802244 27.024508 0.436650 2.064315 0.017911 0.012392 218008.000000 0 0 1
22.293070 8.820654 -12.113744 26.861268 0.376766 2.038653 0.019033 0.020649 -221883.000000 0 0 1
21.444970 8.171554 -11.181644 25.528223 0.364062 2.024181 0.015106 0.015357 564405.000000 0 0 1
22.040570 7.096654 -10.513744 25.430062 0.311499 1.997023 0.001622 0.019424 -1170210.000000 0 0 1
22.185270 5.743654 -11.266144 25.536283 0.253333 2.027711 0.003160 0.012576 -976578.000000 0 0 1
21.014870 5.079954 -11.542044 24.508151 0.237181 2.061160 0.012965 0.002484 228339.000000 0 1 0
20.086370 5.695754 -12.464744 24.316120 0.276310 2.109021 -0.015060 -0.004832 -684096.000000 0 1 0
18.965970 4.802554 -12.904044 23.436870 0.248006 2.153864 -0.018210 -0.011639 -596373.000000 0 1 0
19.360170 3.855354 -13.859544 24.119844 0.196567 2.182926 -0.017161 -0.003951 507419.000000 0 1 0
18.338870 2.889854 -13.902144 23.193426 0.156296 2.213548 -0.005833 -0.000474 -678219.000000 0 1 0
18.838170 1.532654 -14.512044 23.829081 0.081180 2.225603 0.000237 -0.000501 35130.700000 0 1 0
19.916770 0.898854 -13.837544 24.268566 0.045100 2.177526 -0.005585 -0.000986 1070860.000000 0 1 0
21.166270 0.967854 -14.537044 25.695785 0.045694 2.172122 -0.001583 0.006005 624071.000000 0 0 1
21.736170 -0.395346 -15.110344 26.475269 -0.018186 2.178196 0.005984 0.001939 -18076.100000 0 0 1
20.944570 -0.961646 -16.127644 26.451856 -0.045882 2.226476 0.005132 0.004852 201160.000000 0 0 1
21.761670 -1.922446 -16.765844 27.538330 -0.088112 2.225367 0.002173 0.004178 -167785.000000 0 0 1
21.081370 -2.843446 -17.770644 27.718318 -0.134070 2.266747 0.013994 0.002093 -215877.000000 0 0 1
20.124870 -3.688746 -17.171044 26.710709 -0.181281 2.269013 0.022994 -0.001589 525319.000000 0 0 1
19.441870 -4.473146 -18.204444 27.007353 -0.226142 2.310481 0.031682 -0.000803 622550.000000 0 0 1
18.419370 -5.485846 -17.651044 26.094579 -0.289465 2.313695 0.031773 -0.005174 566567.000000 0 0 1
19.174270 -6.584446 -17.145144 26.551149 -0.330783 2.272789 0.040578 -0.003141 716202.000000 0 0 1
18.235970 -7.542946 -16.728444 25.870591 -0.392201 2.273942 0.046243 -0.001391 -41276.500000 0 0 1
18.807070 -8.835146 -16.105644 26.289874 -0.439179 2.230165 0.042545 0.001117 -50659.300000 0 0 1
19.677470 -9.555446 -16.941244 27.667944 -0.452064 2.229770 0.056655 -0.005448 250343.000000 0 0 1
20.337570 -10.567746 -16.235144 28.086899 -0.479218 2.187112 0.056513 -0.012972 -377663.000000 0 0 1
20.936270 -11.671246 -17.095144 29.441286 -0.508557 2.190326 0.054624 -0.015364 -825355.000000 0 0 1
22.173270 -11.379446 -17.654944 30.542474 -0.474156 2.187128 0.047464 -0.012206 -404961.000000 0 0 1
22.576470 -12.359046 -18.630444 31.773203 -0.500868 2.197351 0.053097 -0.017971 -251101.000000 0 0 1
21.910770 -12.212746 -20.045544 32.110074 -0.508496 2.245001 0.064065 -0.013045 824941.000000 0 0 1
20.528270 -12.551746 -20.170444 31.397500 -0.548787 2.268451 0.045670 -0.014177 576082.000000 0 0 1
20.196370 -13.970746 -20.222444 31.812299 -0.605164 2.259685 0.041587 -0.010509 300234.000000 0 0 1
18.679570 -14.331046 -20.144544 30.985607 -0.654421 2.278546 0.037670 -0.005728 442401.000000 0 0 1
18.050670 -13.914146 -21.319044 31.207880 -0.656705 2.322837 0.032797 0.001668 -580538.000000 0 0 1
16.639770 -14.021046 -21.212044 30.387867 -0.700195 2.343457 0.024299 0.005139 8993.740000 0 0 1
16.101270 -13.257446 -22.443044 30.638228 -0.688835 2.392809 0.023579 0.004020 -596047.000000 0 0 1
16.202470 -14.040746 -23.593244 31.879519 -0.714042 2.403979 0.021776 0.009190 275810.000000 0 0 1
15.845870 -13.250246 -24.715244 32.210307 -0.696425 2.445430 0.035043 -0.000224 -119629.000000 0 0 1
15.723370 -13.979246 -25.996624 33.443507 -0.726746 2.461206 0.038361 -0.005453 234884.000000 0 0 1
14.654470 -14.955146 -25.953444 33.346531 -0.795552 2.462742 0.033171 -0.006419 542687.000000 0 0 1
14.469670 -15.853746 -27.050404 34.531680 -0.831010 2.470834 0.043501 -0.001944 -400940.000000 0 0 1
15.458770 -17.072046 -27.156354 35.607526 -0.834950 2.438209 0.042686 -0.003243 13086.600000 0 0 1
16.787770 -16.635246 -27.350844 36.147328 -0.780835 2.428969 0.053346 -0.004882 -222521.000000 0 0 1
17.566170 -17.808646 -27.572284 37.228336 -0.792253 2.404798 0.045822 -0.000144 229690.000000 0 0 1
19.095670 -17.591146 -27.501304 37.820824 -0.744411 2.384953 0.034494 0.004121 170102.000000 0 0 1
19.542370 -17.123546 -26.251794 36.936117 -0.719524 2.361339 0.037713 0.002420 411913.000000 0 0 1
20.964570 -16.963346 -26.254694 37.637445 -0.680291 2.342795 0.026276 0.008606 543468.000000 0 0 1
21.532270 -16.448046 -24.922644 36.814604 -0.652325 2.314444 0.033433 0.010555 -3331.970000 0 0 1
21.349170 -15.087446 -24.487344 35.819661 -0.615208 2.323519 0.040152 0.008372 -1449.790000 0 0 1
19.968470 -14.788046 -24.362244 34.798635 -0.637438 2.346323 0.050575 0.008220 190064.000000 0 0 1
19.812070 -13.398546 -23.695344 33.667618 -0.594630 2.351532 0.048105 0.008512 -290332.000000 0 0 1
20.348270 -12.350046 -24.417044 34.099381 -0.545502 2.368931 0.049223 -0.001360 -37136.500000 0 0 1
19.929370 -11.169346 -23.846644 33.024181 -0.510828 2.377624 0.054492 -0.008145 24891.900000 0 0 1
20.161170 -9.955746 -24.781744 33.462284 -0.458682 2.404740 0.056947 -0.007398 34206.000000 0 0 1
19.511670 -8.819646 -24.249244 32.349919 -0.424532 2.418242 0.057013 -0.004821 190274.000000 0 0 1
19.531870 -7.659946 -25.062744 32.685009 -0.373744 2.444631 0.044337 -0.003822 -490707.000000 0 0 1
19.108870 -6.475046 -24.232944 31.532693 -0.326708 2.447293 0.036119 -0.006589 -122090.000000 0 0 1
17.740770 -6.555746 -23.848044 30.437508 -0.353966 2.471088 0.042952 -0.005868 144698.000000 0 0 1
17.389470 -5.597446 -22.892344 29.287958 -0.311414 2.468071 0.027797 -0.009145 -13089.200000 0 0 1
17.876070 -5.903646 -21.452444 28.541448 -0.318977 2.421317 0.032042 -0.012327 -66184.100000 0 0 1
17.282370 -7.011746 -20.685944 27.852346 -0.385425 2.407890 0.040434 -0.015919 349252.000000 0 0 1
17.520270 -8.333646 -21.102244 28.665558 -0.443985 2.398165 0.052249 -0.010461 -230948.000000 0 0 1
17.054170 -9.406946 -20.068844 27.965941 -0.504065 2.371171 0.046612 -0.018416 818560.000000 0 0 1
15.670870 -9.295246 -19.708544 26.840351 -0.535371 2.395413 0.024400 -0.017307 472323.000000 0 0 1
15.347870 -10.381646 -18.852544 26.433957 -0.594726 2.364841 0.032114 -0.011013 -329247.000000 0 0 1
13.875370 -10.409546 -18.382444 25.274469 -0.643640 2.385195 0.030271 -0.008136 -96872.100000 0 0 1
13.503870 -9.529746 -17.345444 23.959027 -0.614544 2.380326 0.034836 -0.011126 139141.000000 0 1 0
13.694070 -8.156946 -17.627944 23.765684 -0.537219 2.406456 0.039584 -0.028239 -494231.000000 0 1 0
12.427770 -7.329446 -17.341344 22.558645 -0.532859 2.447638 0.031030 -0.014404 55796.100000 0 1 0
11.386870 -7.312646 -18.299844 22.760050 -0.570872 2.504845 0.023181 -0.026473 150145.000000 0 1 0
10.327870 -6.516746 -17.803744 21.589492 -0.562893 2.540377 0.005155 -0.018442 -324293.000000 0 1 0
8.962870 -6.740046 -18.442044 21.584027 -0.644778 2.595249 0.009093 -0.011341 -313888.000000 0 1 0
8.772270 -6.326446 -19.756444 22.523182 -0.624804 2.640713 0.012179 -0.017815 -1620510.000000 0 1 0
7.435270 -6.244246 -19.993044 22.226013 -0.698551 2.689497 0.014305 -0.014706 -1479980.000000 0 1 0
7.126570 -5.987046 -21.513744 23.440859 -0.698720 2.733270 0.019884 -0.016981 -5830.560000 0 1 0
7.293170 -7.107846 -22.371244 24.580162 -0.772530 2.714404 0.030392 -0.018954 143211.000000 0 1 0
6.633470 -6.803646 -23.593944 25.435540 -0.798062 2.758726 0.031978 -0.016157 -209497.000000 0 0 1
6.448170 -7.971846 -24.530244 26.586878 -0.890671 2.745679 0.039515 -0.014541 -573942.000000 0 0 1
5.567670 -8.954446 -24.135744 26.338473 -1.014518 2.729709 0.030686 -0.010541 -335870.000000 0 0 1
5.425870 -9.803846 -25.251254 27.625736 -1.065314 2.723951 0.017131 0.006222 -54176.600000 0 0 1
4.733670 -11.162546 -24.892644 27.688513 -1.169716 2.688332 0.029712 -0.002518 15745.300000 0 0 1
5.464870 -12.079746 -24.151844 27.551708 -1.145949 2.639548 0.021941 -0.003798 -132318.000000 0 0 1
4.695170 -13.268746 -24.013844 27.834671 -1.230694 2.611443 0.028482 -0.005596 -255502.000000 0 0 1
5.410270 -14.267446 -23.100144 27.684791 -1.208345 2.557837 0.031135 -0.006022 1294.840000 0 0 1
6.605770 -14.923646 -23.508544 28.618229 -1.154082 2.534751 0.025628 -0.003945 253635.000000 0 0 1
7.764970 -14.109546 -23.493344 28.483526 -1.067696 2.540653 0.036092 -0.006531 -101860.000000 0 0 1
8.383670 -13.525246 -22.210744 27.322799 -1.015906 2.519913 0.021050 0.001358 -557939.000000 0 0 1
8.823970 -14.443646 -21.185244 27.116340 -1.022383 2.467498 0.021633 0.010541 -224859.000000 0 0 1
7.823170 -15.183246 -20.565744 26.733551 -1.095023 2.448519 0.021730 0.009738 -562359.000000 0 0 1
8.219470 -15.860546 -19.244644 26.257816 -1.092668 2.393387 0.008542 0.020506 717067.000000 0 0 1
9.319170 -16.796846 -19.271344 27.209661 -1.064263 2.357818 0.016553 0.020615 318656.000000 0 0 1
9.826870 -17.222846 -18.023844 26.796506 -1.052296 2.308539 0.016509 0.018937 91085.600000 0 0 1
8.875470 -18.194746 -17.220444 26.577555 -1.116953 2.275662 0.007716 0.015397 -106542.000000 0 0 1
8.518370 -19.499446 -17.681844 27.666561 -1.158930 2.264131 0.004257 0.017593 -78813.000000 0 0 1
7.678670 -19.498746 -18.797644 28.151634 -1.195643 2.301949 0.006248 0.023576 1006440.000000 0 0 1
6.124570 -19.334046 -18.491744 27.445588 -1.264020 2.310082 0.004792 0.018560 953266.000000 0 0 1
5.795670 -18.032946 -18.045644 26.161464 -1.259830 2.331981 0.002476 0.019967 362238.000000 0 0 1
4.380070 -17.846646 -17.951744 25.689548 -1.330125 2.344509 -0.007248 0.019177 801002.000000 0 0 1
4.077270 -16.368946 -17.656644 24.419738 -1.326678 2.379001 -0.024627 0.025128 -10106.100000 0 1 0
4.449070 -16.118946 -16.279244 23.337275 -1.301487 2.342788 -0.028896 0.025444 184401.000000 0 1 0
4.351870 -14.753646 -15.985444 22.184302 -1.283961 2.375427 -0.023561 0.025951 -963.593000 0 1 0
10.248670 30.267454 -18.075844 36.713623 1.244310 2.085581 0.006546 -0.003674 -1666350.000000 0 0 1
9.326870 29.829154 -18.930544 36.539491 1.267751 2.115406 0.015682 -0.006597 -1294450.000000 0 0 1
8.458270 28.903154 -18.323544 35.251764 1.286104 2.117402 0.018822 -0.009346 -232406.000000 0 0 1
7.348570 28.478554 -19.279944 35.167396 1.318266 2.151047 0.012046 -0.006266 -217629.000000 0 0 1
6.302870 29.395454 -19.532144 35.851409 1.359578 2.146957 0.020112 -0.022991 -36599.000000 0 0 1
5.577970 28.989854 -20.673144 36.040314 1.380708 2.181705 0.007950 -0.020950 259123.000000 0 0 1
4.597770 30.051654 -21.264444 37.100107 1.418978 2.181158 0.011942 -0.016525 -126267.000000 0 0 1
3.530970 30.393854 -20.443544 36.799356 1.455141 2.159810 0.013393 -0.018807 -288654.000000 0 0 1
2.621670 31.291054 -21.116444 37.840552 1.487208 2.162815 0.004991 -0.013721 572884.000000 0 0 1
1.132570 31.021854 -20.692444 37.307042 1.534304 2.158742 0.004364 -0.011816 569494.000000 0 0 1
0.858670 29.650954 -20.959444 36.320995 1.541845 2.185922 0.001113 -0.020971 138726.000000 0 0 1
0.461470 29.329254 -22.294244 36.843607 1.555063 2.220694 0.002336 -0.017517 -559882.000000 0 0 1
0.191870 27.845554 -22.550544 35.832090 1.563906 2.251499 0.003921 -0.018366 -156634.000000 0 0 1
-0.891630 27.383354 -21.792244 35.007784 -1.538247 2.242726 0.010500 -0.021007 -107459.000000 0 0 1
-1.500930 26.201754 -22.293944 34.435514 -1.513575 2.274979 0.016769 -0.032324 -279271.000000 0 0 1
-2.612530 25.744954 -21.372444 33.562022 -1.469665 2.261143 0.016084 -0.025318 -957544.000000 0 0 1
-3.749130 26.531254 -21.207344 34.171843 -1.430416 2.240315 0.019983 -0.022543 -245566.000000 0 0 1
-4.625130 25.885654 -20.309644 33.225600 -1.393987 2.228454 0.025190 -0.022928 -385449.000000 0 0 1
-5.879530 26.720854 -20.063944 33.928376 -1.354212 2.203543 0.027492 -0.024154 -134171.000000 0 0 1
-6.955930 26.050654 -19.406244 33.220834 -1.309868 2.194640 0.040289 -0.037179 -336490.000000 0 0 1
-7.793230 27.028054 -18.884344 33.880209 -1.290072 2.162030 0.031053 -0.034755 46314.400000 0 0 1
-9.171630 26.570654 -18.344844 33.565633 -1.238423 2.149019 0.033098 -0.033026 208084.000000 0 0 1
-9.156730 25.645254 -17.250844 32.235328 -1.227852 2.135486 0.036203 -0.034006 -1159650.000000 0 0 1
-10.433730 25.494054 -16.749044 32.238796 -1.182332 2.117098 0.014705 -0.031229 -743018.000000 0 0 1
-10.228030 24.751754 -15.426844 30.907109 -1.178942 2.093397 0.021447 -0.028637 127463.000000 0 0 1
-9.803430 23.400654 -15.571044 29.768360 -1.174071 2.121250 0.024460 -0.025839 -238807.000000 0 0 1
-9.707830 22.744554 -14.289744 28.561398 -1.167385 2.094761 0.033902 -0.017594 -219270.000000 0 0 1
-9.063230 21.355154 -14.249044 27.225355 -1.169430 2.121602 0.041021 -0.008330 151494.000000 0 0 1
-9.901430 20.270954 -14.685344 26.918566 -1.116428 2.147838 0.015259 -0.001052 110456.000000 0 0 1
-10.381430 20.228854 -16.006544 27.806295 -1.096645 2.184189 0.024476 -0.006936 316687.000000 0 0 1
-9.251830 20.177554 -17.090244 28.014397 -1.140879 2.226923 0.016767 0.000646 219265.000000 0 0 1
-8.537930 18.994654 -17.147444 26.976433 -1.148366 2.259640 0.008912 -0.000555 -249319.000000 0 0 1
-7.543130 19.070654 -18.164544 27.395972 -1.194144 2.295665 0.018349 -0.002046 134726.000000 0 0 1
-6.829930 17.726254 -18.306544 26.381766 -1.203026 2.337700 0.011112 0.003021 -513592.000000 0 0 1
-7.669830 16.705454 -18.708244 26.227788 -1.140383 2.364990 -0.001536 0.000680 -602313.000000 0 0 1
-7.350830 16.113654 -19.946944 26.675177 -1.142810 2.415496 -0.000821 -0.002614 320419.000000 0 0 1
-6.264130 14.989454 -19.798144 25.610340 -1.174953 2.454436 0.004414 -0.001173 196096.000000 0 0 1
-6.662830 13.770354 -19.168444 24.524379 -1.120149 2.468035 -0.003998 0.001607 150331.000000 0 1 0
-5.551530 12.912454 -18.934644 23.581172 -1.164752 2.503035 0.001787 0.002675 530153.000000 0 1 0
-4.703030 13.142654 -17.659044 22.509768 -1.227150 2.472695 0.007520 0.000281 -113296.000000 0 1 0
-3.918130 14.294054 -17.666544 23.060323 -1.303259 2.443549 -0.004776 -0.008006 -526413.000000 0 1 0
-3.756630 14.857254 -16.382644 22.433040 -1.323139 2.389544 0.012275 0.000871 170025.000000 0 1 0
-2.966630 16.195654 -16.410544 23.246635 -1.389630 2.354534 0.026580 -0.005223 276608.000000 0 1 0
-3.734530 17.318754 -16.798344 24.414551 -1.358413 2.329590 0.012245 -0.004078 -586950.000000 0 1 0
-2.961130 18.469354 -16.730544 25.095745 -1.411823 2.300526 0.023103 -0.009452 -512406.000000 0 0 1
-3.393430 19.761054 -17.337144 26.506436 -1.400732 2.283753 0.038398 -0.019823 -166990.000000 0 0 1
-3.265630 19.768254 -18.789244 27.467870 -1.407079 2.324089 0.032966 -0.017997 -151054.000000 0 0 1
-3.955630 20.835154 -19.353444 28.710737 -1.383176 2.310520 0.035015 -0.018896 -171392.000000 0 0 1
-3.061630 22.075254 -19.509744 29.619597 -1.432985 2.289855 0.029508 -0.024579 977871.000000 0 0 1
-1.896930 21.920854 -20.384244 29.993992 -1.484476 2.318028 0.043508 -0.021368 1282260.000000 0 0 1
-0.889130 22.902454 -20.175944 30.534925 -1.531993 2.292613 0.034706 -0.023373 592999.000000 0 0 1
0.127770 22.617454 -19.026544 29.556301 1.565147 2.270171 0.035851 -0.018146 -248418.000000 0 0 1
-0.323330 22.914454 -17.741044 28.981397 -1.556687 2.229577 0.034249 -0.017834 -373484.000000 0 0 1
0.584270 22.339754 -16.833944 27.978342 1.544648 2.216396 0.031716 -0.018344 -85578.500000 0 0 1
0.153470 22.480054 -15.337744 27.214385 1.563969 2.169521 0.044976 -0.018505 -360684.000000 0 0 1
-0.649630 21.408554 -14.967644 26.130032 -1.540461 2.180731 0.042647 -0.007567 -265404.000000 0 0 1
-0.771430 21.243354 -13.578444 25.223983 -1.534498 2.139233 0.056681 -0.012443 -19089.100000 0 0 1
-1.633930 20.012454 -13.217144 24.038738 -1.489331 2.152953 0.044070 -0.007560 68583.800000 0 1 0
-1.025930 18.706854 -13.394844 23.030865 -1.516009 2.191495 0.031690 -0.004081 231308.000000 0 1 0
-1.823530 17.642854 -12.846144 21.900204 -1.467804 2.197621 0.024846 -0.005645 -71734.600000 0 1 0
-1.352330 16.225354 -12.913244 20.780827 -1.487642 2.241327 0.012314 -0.001534 -502136.000000 0 1 0
-0.331330 15.782854 -12.019644 19.841373 -1.549806 2.221551 0.008868 -0.006469 408637.000000 0 1 0
0.112470 14.463454 -11.976144 18.778503 1.563020 2.262381 0.014513 -0.005775 -69237.300000 0 1 0
0.696470 13.900754 -13.288244 19.243010 1.520735 2.333044 -0.000189 -0.006003 -195674.000000 0 1 0
-0.177430 13.833754 -14.431144 19.991551 -1.557971 2.377286 0.000659 -0.008404 704302.000000 0 1 0
0.465870 12.932754 -15.324244 20.057557 1.534789 2.440307 0.002072 -0.011172 188368.000000 0 1 0
-0.310230 12.913754 -16.684444 21.100520 -1.546778 2.482768 0.006419 -0.009341 234979.000000 0 1 0
-0.132630 14.080854 -17.410544 22.392299 -1.561377 2.461515 0.008248 -0.014176 20072.500000 0 1 0
-0.591630 13.854954 -18.747944 23.319416 -1.528121 2.504726 0.014031 -0.012736 -17883.600000 0 1 0
-1.283930 15.103454 -19.341044 24.573131 -1.485991 2.476859 0.019504 -0.007288 -449105.000000 0 1 0
-0.376730 16.145954 -19.379144 25.226671 -1.547468 2.446822 0.012495 -0.010530 -565629.000000 0 0 1
-1.019530 17.337154 -19.645844 26.221661 -1.512058 2.417683 0.034349 -0.016441 -736709.000000 0 0 1
-0.097430 18.502954 -19.889444 27.165396 -1.565531 2.392286 0.039265 -0.021081 -557547.000000 0 0 1
0.444670 18.330554 -21.168344 28.005458 1.546543 2.427770 0.039545 -0.021188 -115189.000000 0 0 1
1.394370 19.342654 -21.414444 28.890499 1.498833 2.405694 0.040817 -0.020874 -3429.670000 0 0 1
1.874970 19.399054 -22.889444 30.062692 1.474443 2.436251 0.046465 -0.023382 -61187.400000 0 0 1
2.928170 18.515754 -23.194044 29.822323 1.413950 2.461860 0.028738 -0.017420 -96549.500000 0 0 1
3.394870 18.778654 -24.508244 31.061503 1.391945 2.480014 0.031472 -0.025771 250272.000000 0 0 1
4.231070 17.632354 -25.110634 30.973307 1.335289 2.516175 0.012807 -0.002164 -457689.000000 0 0 1
5.488170 17.404854 -24.528744 30.572998 1.265341 2.501936 0.002128 0.002650 -27824.000000 0 0 1
6.243870 16.282854 -24.978344 30.463665 1.204627 2.532101 0.002230 0.001411 419395.000000 0 0 1
6.801170 16.477154 -26.435144 31.883684 1.179335 2.548314 -0.006784 -0.001929 -1264490.000000 0 0 1
7.882070 17.389754 -26.528074 32.684389 1.145235 2.517757 -0.023510 -0.000472 65066.700000 0 0 1
8.371070 17.479654 -27.838494 33.920419 1.124168 2.533432 -0.010523 -0.006741 11769.800000 0 0 1
8.924170 16.217954 -28.581114 34.052061 1.067750 2.566857 -0.013859 -0.005778 -719739.000000 0 0 1
10.057970 15.712754 -27.918204 33.577961 1.001402 2.552498 0.005111 -0.004989 -137143.000000 0 0 1
10.304270 14.319654 -28.165444 33.234360 0.947044 2.582015 0.007711 -0.003725 -225836.000000 0 0 1
9.645970 13.430454 -27.132014 31.773700 0.947949 2.594257 0.008460 -0.004291 -432913.000000 0 0 1
8.276070 13.234254 -27.343654 31.485143 1.011944 2.622888 0.008786 0.002614 -557419.000000 0 0 1
7.644270 12.634754 -26.232194 30.103153 1.026694 2.628866 0.027164 0.004496 630008.000000 0 0 1
6.142770 12.253754 -26.377404 29.726344 1.106112 2.662343 -0.000069 -0.001591 581774.000000 0 0 1
5.251170 13.342854 -26.372384 30.018480 1.195857 2.643590 -0.001944 0.004371 -597629.000000 0 0 1
3.936770 12.892354 -26.215524 29.478206 1.274432 2.666650 -0.007348 0.001572 612751.000000 0 0 1
2.825070 13.837054 -26.879724 30.363870 1.369397 2.657835 -0.002389 0.013499 -263393.000000 0 0 1
2.652470 13.962654 -28.280454 31.650835 1.383064 2.675906 0.010841 0.007866 -394956.000000 0 0 1
3.569570 14.823154 -28.822524 32.606833 1.334485 2.655021 0.015983 -0.004296 -582778.000000 0 0 1
3.569570 14.772154 -30.380514 33.969604 1.333700 2.677759 0.034211 -0.007805 -183895.000000 0 0 1
4.219870 13.599254 -30.849074 33.976644 1.269916 2.709161 0.030388 -0.007738 28730.400000 0 0 1
4.208870 13.393054 -32.273884 35.195057 1.266311 2.731291 0.027663 -0.007786 230728.000000 0 0 1
5.360170 12.339554 -32.700044 35.359424 1.161000 2.751280 0.020005 0.000537 1947180.000000 0 0 1
6.730170 12.780654 -32.569424 35.628748 1.086103 2.724161 0.026645 -0.000425 1074850.000000 0 0 1
7.225270 13.115554 -31.279084 34.678572 1.067268 2.695110 0.017352 -0.003685 -823462.000000 0 0 1
7.344770 11.921154 -30.334874 33.410539 1.018614 2.709146 0.020871 -0.001391 -421670.000000 0 0 1
8.364970 11.024354 -30.712474 33.686275 0.921705 2.718250 0.017136 0.002802 -109402.000000 0 0 1
8.372870 9.877654 -29.885414 32.570093 0.867664 2.732727 0.015419 0.004574 126459.000000 0 0 1
9.464870 8.806454 -30.170334 32.823565 0.749378 2.736756 0.000196 0.006005 23156.900000 0 0 1
10.637570 8.988554 -29.426464 32.555626 0.701574 2.699557 0.018139 -0.001896 -766049.000000 0 0 1
11.421170 7.854354 -29.512364 32.605423 0.602424 2.702497 -0.004757 0.006973 -790437.000000 0 0 1
12.683370 7.915554 -28.621314 32.290919 0.557944 2.660215 0.009517 0.010355 346014.000000 0 0 1
13.468470 6.752954 -28.466304 32.207647 0.464759 2.654798 0.012819 0.001341 224746.000000 0 0 1
14.050870 6.095554 -29.568354 33.299704 0.409318 2.663657 0.007144 -0.001881 -454834.000000 0 0 1
14.847270 4.779354 -29.221634 33.123821 0.311427 2.651298 0.012721 -0.009651 437300.000000 0 0 1
15.941870 4.977454 -28.341694 32.896350 0.302635 2.609102 0.003508 -0.020377 251206.000000 0 0 1
16.589570 3.792254 -28.015704 32.779181 0.224731 2.595730 0.005908 -0.015333 -58522.600000 0 0 1
17.498070 3.928354 -26.764994 32.217686 0.220841 2.551258 0.007868 -0.015529 341248.000000 0 0 1
18.564070 4.863854 -26.828694 32.985763 0.256244 2.520669 0.028966 -0.027896 376968.000000 0 0 1
19.175370 5.133154 -25.563694 32.365823 0.261562 2.481338 0.034463 -0.021087 -261286.000000 0 0 1
20.225670 6.195054 -25.717184 33.299098 0.297223 2.453264 0.031894 -0.016857 -700382.000000 0 0 1
19.597470 7.457654 -25.941724 33.356416 0.363620 2.461816 0.042834 -0.019305 904974.000000 0 0 1
20.506670 8.386654 -26.551484 34.580931 0.388217 2.446208 0.054721 -0.030354 31686.400000 0 0 1
20.635670 8.236654 -28.095374 35.819316 0.379770 2.472466 0.035961 -0.028475 -220302.000000 0 0 1
19.452170 8.625254 -28.753154 35.770459 0.417359 2.504492 0.037618 -0.012841 614886.000000 0 0 1
18.508270 7.533154 -28.958384 35.183696 0.386540 2.537579 0.033472 -0.012827 799248.000000 0 0 1
17.078170 8.097354 -29.276354 34.847323 0.442742 2.568323 0.029049 -0.002299 152990.000000 0 0 1
16.934870 8.492154 -30.624624 36.010749 0.464815 2.587599 0.021559 0.000433 374611.000000 0 0 1
15.757570 9.230654 -30.909164 35.901008 0.529907 2.607941 0.009893 0.006962 17233.100000 0 0 1
15.164570 9.135754 -32.340204 36.868889 0.542212 2.640728 0.003899 0.011891 -32270.200000 0 0 1
14.477770 7.931954 -32.495514 36.448321 0.501207 2.671553 -0.002743 0.013025 595395.000000 0 0 1
13.201670 8.133654 -33.135604 36.584268 0.552179 2.703904 -0.008420 0.019536 965707.000000 0 0 1
12.705470 6.814054 -33.784844 36.732492 0.492271 2.738249 -0.008142 0.014980 115039.000000 0 0 1
12.406770 5.818254 -32.878004 35.619421 0.438507 2.746695 -0.000477 0.012559 54382.200000 0 0 1
11.674670 4.712654 -33.386874 35.681793 0.383662 2.780988 -0.001896 0.002898 -76404.700000 0 0 1
11.506370 3.538654 -32.358424 34.525153 0.298359 2.785431 0.000683 -0.000568 1078190.000000 0 0 1
12.719870 2.795454 -31.977204 34.527543 0.216332 2.754833 0.006660 -0.008606 1186890.000000 0 0 1
12.493770 1.820254 -31.033884 33.503874 0.144675 2.755208 0.011089 -0.005723 73908.500000 0 0 1
11.808470 0.454154 -31.486164 33.630711 0.038441 2.782547 0.010799 -0.005074 -44278.200000 0 0 1
12.546170 -0.540446 -32.138624 34.504921 -0.043050 2.769096 0.014123 0.001098 86300.200000 0 0 1
13.455770 -1.296646 -31.329594 34.121584 -0.096067 2.734246 0.011790 -0.005006 270240.000000 0 0 1
13.991470 -2.595946 -31.968164 34.992337 -0.183452 2.722789 0.016357 -0.002209 -487957.000000 0 0 1
13.143370 -3.692146 -31.956584 34.750588 -0.273855 2.737853 0.031902 -0.002598 -391192.000000 0 0 1
13.542170 -4.773146 -32.808584 35.813077 -0.338869 2.729055 0.015598 -0.006421 -476895.000000 0 0 1
12.582270 -5.947846 -32.731374 35.567305 -0.441584 2.739555 0.022927 -0.009959 -376978.000000 0 0 1
12.494070 -6.576946 -31.436484 34.461725 -0.484548 2.719453 0.026756 -0.011776 58095.800000 0 0 1
12.033470 -7.888646 -31.484014 34.616156 -0.580273 2.712919 0.047137 -0.019908 -92188.900000 0 0 1
11.707870 -8.434946 -30.094134 33.374832 -0.624320 2.694485 0.055438 -0.018030 198524.000000 0 0 1
12.890570 -8.392446 -29.279824 33.074280 -0.577115 2.657881 0.034626 -0.015248 735125.000000 0 0 1
12.855670 -9.146946 -28.102894 32.228986 -0.618410 2.630020 0.041491 -0.024060 -253219.000000 0 0 1
13.075270 -10.648046 -28.371454 33.004287 -0.683439 2.605340 0.045590 -0.021253 -246897.000000 0 0 1
11.929570 -11.361146 -28.821714 33.197612 -0.760997 2.622332 0.034290 -0.017340 140593.000000 0 0 1
12.190070 -12.610346 -29.405704 34.239072 -0.802343 2.603787 0.019660 -0.011702 -170894.000000 0 0 1
-10.056330 -3.507846 -17.726744 20.680237 0.335623 2.600571 -0.002749 0.018710 329342.000000 0 1 0
-10.754030 -2.804546 -18.762544 21.807056 0.255108 2.606828 -0.007271 0.012328 268630.000000 0 1 0
-11.839330 -3.540946 -19.286444 22.905784 0.290616 2.571758 -0.004749 0.013960 -4032.500000 0 1 0
-12.599930 -2.930646 -20.535144 24.270126 0.228529 2.579436 -0.006656 0.003416 181533.000000 0 1 0
-13.332830 -1.769946 -20.232244 24.294871 0.131979 2.554904 -0.010081 0.005491 -126147.000000 0 1 0
-14.066330 -1.416946 -21.388644 25.638710 0.100395 2.557536 -0.003541 0.005497 128590.000000 0 0 1
-14.880030 -0.116746 -21.379344 26.048133 0.007846 2.533542 -0.009443 0.015299 298911.000000 0 0 1
-14.072330 1.055654 -21.509644 25.725661 -0.074876 2.560961 -0.010075 0.012138 114546.000000 0 0 1
-14.825130 2.239954 -21.309844 26.055926 -0.149957 2.528461 -0.011716 0.022343 -19590.800000 0 0 1
-14.244130 3.520554 -21.961844 26.412348 -0.242302 2.552597 0.002780 0.001918 22957.400000 0 0 1
-13.055630 3.964154 -21.346244 25.334287 -0.294789 2.572858 -0.002357 0.002036 103036.000000 0 0 1
-12.641030 5.186854 -21.918044 25.828274 -0.389370 2.584142 -0.002974 -0.003633 988326.000000 0 0 1
-11.435830 5.813954 -21.045844 24.647673 -0.470343 2.594167 -0.019658 -0.006547 1037550.000000 0 1 0
-11.910330 6.483254 -19.908544 24.088143 -0.498486 2.543635 0.002950 -0.014423 684288.000000 0 1 0
-10.836330 6.643654 -18.982144 22.844823 -0.549990 2.551549 -0.003661 -0.012307 87936.600000 0 1 0
-11.204430 7.319954 -17.696944 22.187897 -0.578698 2.494093 0.010621 -0.006095 -33766.300000 0 1 0
-11.695130 8.642954 -17.823944 23.003688 -0.636438 2.457242 0.011489 -0.007665 562164.000000 0 1 0
-12.908330 8.791454 -17.089544 23.150964 -0.597907 2.401163 0.031366 -0.000844 94329.000000 0 1 0
-13.438330 10.243854 -17.026244 23.987876 -0.651318 2.359990 0.035426 0.001701 -328959.000000 0 1 0
-12.781530 11.007354 -16.092844 23.313278 -0.710956 2.332681 0.013789 0.001763 156345.000000 0 1 0
-13.277630 12.332154 -16.257644 24.345193 -0.748496 2.302041 0.015812 -0.004716 312074.000000 0 1 0
-12.434930 13.366954 -15.418944 23.896585 -0.821505 2.272129 0.018543 0.004733 138077.000000 0 1 0
-12.858230 13.536954 -14.073644 23.380561 -0.811106 2.216722 0.024347 0.003907 267342.000000 0 1 0
-12.205230 14.699754 -13.526844 23.409953 -0.877850 2.186857 0.017281 0.004275 -429006.000000 0 1 0
-12.728130 15.043154 -12.109244 23.128674 -0.868566 2.121820 0.007858 0.002489 563945.000000 0 1 0
-14.090930 15.340554 -11.860744 23.970067 -0.827831 2.088418 0.000168 0.003815 39836.000000 0 1 0
-15.014830 14.315654 -12.083044 24.007978 -0.761565 2.098202 0.004666 0.000859 -254441.000000 0 1 0
-16.457630 14.736854 -11.657944 24.978713 -0.730291 2.056369 -0.013220 0.004580 118215.000000 0 1 0
-17.483630 13.957354 -12.149644 25.457786 -0.673710 2.068315 -0.006689 0.003273 39215.000000 0 0 1
-18.724430 14.061454 -11.463444 26.071810 -0.644121 2.026047 0.021648 -0.005016 450017.000000 0 0 1
-19.929630 13.528154 -12.283744 27.038703 -0.596353 2.042385 0.016450 -0.006792 -248163.000000 0 0 1
-19.926130 12.084154 -12.460444 26.426125 -0.545147 2.061810 0.017064 -0.007053 2329.460000 0 0 1
-21.181930 11.683754 -12.933344 27.430925 -0.504064 2.061773 0.033657 -0.001867 -723366.000000 0 0 1
-21.697030 10.500754 -12.155844 26.996138 -0.450743 2.037876 0.031088 -0.014222 -172978.000000 0 0 1
-20.957030 9.322454 -12.437944 26.092292 -0.418552 2.067682 0.026524 -0.015858 495804.000000 0 0 1
-21.413030 8.322654 -11.521544 25.700785 -0.370703 2.035654 0.024422 -0.016880 -789508.000000 0 0 1
-20.553330 7.134054 -11.479144 24.598879 -0.334089 2.056299 0.038292 -0.015340 -863883.000000 0 1 0
-20.395030 6.376354 -12.601844 24.807692 -0.303015 2.103636 0.046991 -0.009756 421392.000000 0 1 0
-19.184830 5.646154 -12.638544 23.657336 -0.286222 2.134397 0.033780 -0.015994 7011.190000 0 1 0
-19.210530 4.632254 -13.822444 24.115600 -0.236614 2.181171 0.034505 -0.014784 -371751.000000 0 1 0
-20.014230 3.495854 -13.612044 24.455636 -0.172924 2.161086 0.025409 -0.018703 177944.000000 0 1 0
-19.886030 2.545654 -14.595744 24.798594 -0.127320 2.200087 0.023348 -0.022387 -99177.200000 0 1 0
-20.682730 1.221554 -14.391944 25.226881 -0.058993 2.177911 0.022432 -0.014976 -394949.000000 0 0 1
-21.950330 1.076154 -14.933044 26.570112 -0.048988 2.167627 0.027030 -0.022777 -419462.000000 0 0 1
-22.330230 -0.294346 -14.786944 26.783941 0.013181 2.155656 0.017696 -0.025830 486435.000000 0 0 1
-23.659530 -0.644646 -15.540844 28.314426 0.027240 2.151804 0.030164 -0.017911 1168040.000000 0 0 1
-24.862730 -0.216446 -14.926344 28.999964 0.008705 2.111457 0.053204 -0.025075 612662.000000 0 0 1
-26.123250 -0.542746 -15.489044 30.374812 0.020773 2.105900 0.034649 -0.020760 423748.000000 0 0 1
-27.270250 -0.008846 -14.628444 30.946049 0.000324 2.063158 0.039416 -0.019926 -329148.000000 0 0 1
-27.498330 -0.759346 -13.437744 30.615481 0.027607 2.025193 0.049694 -0.017693 -673724.000000 0 0 1
-28.550210 -0.270646 -12.704644 31.250531 0.009479 1.989462 0.061927 -0.013185 -614126.000000 0 0 1
-28.660150 -0.844146 -11.271444 30.808476 0.029445 1.945348 0.052522 -0.012657 -410935.000000 0 0 1
-28.956930 -2.225846 -11.120244 31.098521 0.076717 1.936473 0.055325 -0.010868 -55312.600000 0 0 1
-28.162560 -3.187046 -11.733344 30.675045 0.112687 1.963302 0.064824 -0.016461 -728850.000000 0 0 1
-28.423950 -4.642346 -11.268144 30.926418 0.161896 1.943735 0.047375 -0.012846 462936.000000 0 0 1
-29.701530 -5.131346 -11.718844 32.339494 0.171075 1.941605 0.050252 -0.011188 589689.000000 0 0 1
-30.022920 -6.442846 -11.361144 32.740824 0.211391 1.925169 0.054159 -0.010861 -268177.000000 0 0 1
-29.211100 -7.620446 -11.948044 32.467142 0.255187 1.947658 0.042438 -0.012766 -8310.150000 0 0 1
-27.908790 -7.727746 -11.411644 31.126262 0.270125 1.946174 0.033311 -0.009915 -58359.800000 0 0 1
-27.091470 -8.667246 -12.076644 30.901686 0.309635 1.972306 0.033509 -0.011673 258654.000000 0 0 1
-25.595150 -8.508446 -11.685344 29.394772 0.320932 1.979621 0.040723 -0.018464 -313362.000000 0 0 1
-24.997230 -7.315846 -12.140844 28.736443 0.284715 2.006986 0.030884 -0.012689 897919.000000 0 0 1
-23.613730 -7.239646 -11.764144 27.357189 0.297488 2.015311 0.028032 -0.018598 592735.000000 0 0 1
-23.276130 -6.922546 -10.305244 26.379877 0.289079 1.972132 0.012242 -0.016703 -747027.000000 0 0 1
-23.460030 -5.610046 -9.781544 26.029295 0.234724 1.956045 0.009411 -0.008511 733854.000000 0 0 1
-24.834230 -5.356846 -9.470744 27.113276 0.212449 1.927623 0.017180 -0.013288 227240.000000 0 0 1
-25.127860 -4.052846 -8.717944 26.904227 0.159912 1.900789 0.027231 -0.024548 -305955.000000 0 0 1
-25.092960 -4.122046 -7.313244 26.459997 0.162817 1.850831 0.018266 -0.014634 327749.000000 0 0 1
-25.335520 -2.842446 -6.763444 26.376357 0.111725 1.830114 0.050189 -0.015139 -92063.000000 0 0 1
-25.117890 -2.762746 -5.234644 25.805865 0.109551 1.775061 0.040980 -0.006464 517094.000000 0 0 1
-23.738030 -3.054646 -5.004744 24.451429 0.127978 1.776934 0.004400 -0.001482 664193.000000 0 1 0
-23.444530 -2.854546 -3.639144 23.896397 0.121161 1.723680 -0.021527 0.003951 -849336.000000 0 1 0
-22.244330 -3.641746 -3.199744 22.766442 0.162276 1.711810 -0.022788 0.001684 -910184.000000 0 1 0
-22.432630 -5.017046 -3.055144 23.188953 0.220029 1.702930 -0.000461 0.002832 1030020.000000 0 1 0
-21.230630 -5.739746 -2.707644 22.158873 0.264040 1.693295 -0.005324 -0.007403 652020.000000 0 1 0
-21.575830 -7.209846 -2.603644 22.897102 0.322497 1.684753 0.014785 0.001160 107924.000000 0 1 0
-22.043730 -7.682446 -1.350244 23.383096 0.335346 1.628573 0.014851 0.015957 510588.000000 0 1 0
-22.747730 -8.916246 -1.440544 24.475167 0.373558 1.629688 0.012807 0.004672 141407.000000 0 1 0
-22.919630 -9.711746 -0.184344 24.892999 0.400795 1.578202 -0.009054 -0.003578 -429957.000000 0 1 0
-21.712130 -10.278546 0.212756 24.023121 0.442143 1.561940 -0.019409 0.008530 -363428.000000 0 1 0
-21.789630 -11.034446 1.439256 24.466680 0.468761 1.511937 -0.037704 0.009562 690393.000000 0 1 0
-20.370630 -11.468446 1.968956 23.459851 0.512761 1.486769 -0.034781 0.003308 776153.000000 0 1 0
-19.794230 -12.368246 1.002156 23.362135 0.558485 1.527887 -0.023542 0.011913 912630.000000 0 1 0
-18.672930 -13.024546 1.628256 22.824731 0.609053 1.499398 -0.039286 0.013120 173788.000000 0 1 0
-18.005530 -14.201146 0.914056 22.950101 0.667819 1.530958 -0.024199 0.022594 -35948.600000 0 1 0
-18.766130 -15.412546 0.723856 24.294818 0.687592 1.540997 -0.017132 0.024820 486578.000000 0 1 0
-18.008830 -16.421246 0.035156 24.371633 0.739320 1.569354 -0.022865 0.016526 713963.000000 0 1 0
-16.914130 -17.192246 0.862856 24.133082 0.793552 1.535035 -0.007698 0.019772 533687.000000 0 1 0
-15.697830 -16.482446 1.032256 22.785049 0.809775 1.525477 -0.008757 0.016479 704542.000000 0 1 0
-14.634630 -17.088446 1.759856 22.567332 0.862596 1.492735 0.007973 0.008682 378223.000000 0 1 0
-14.688830 -16.949546 3.302756 22.670621 0.856732 1.424592 0.005799 0.006629 -187589.000000 0 1 0
-14.626530 -15.590846 3.719056 21.698876 0.817300 1.398552 0.002304 0.006911 2523.390000 0 1 0
-13.908630 -15.420046 4.943656 21.346371 0.836886 1.337082 -0.005053 0.005607 -124078.000000 0 1 0
-14.505130 -15.784246 6.333056 22.352826 0.827603 1.283540 0.014406 0.003823 -910430.000000 0 1 0
-15.463530 -14.963046 6.927356 22.605348 0.768951 1.259337 0.011883 0.010154 12995.800000 0 1 0
-15.680030 -15.295646 8.312756 23.429085 0.772990 1.208091 0.013584 0.008942 -97040.800000 0 1 0
-16.481730 -16.537846 8.756956 24.936561 0.787098 1.211977 0.005921 0.015263 -401213.000000 0 1 0
-15.873530 -17.725546 8.328956 25.209828 0.840463 1.234085 0.008002 0.008777 53112.500000 0 0 1
-16.507630 -18.887446 8.861856 26.603946 0.852533 1.231204 0.012149 0.005281 -5720.990000 0 0 1
-16.147330 -19.283446 10.358756 27.200945 0.873682 1.180110 0.014695 0.004476 -97638.400000 0 0 1
-14.786930 -19.542246 10.604456 26.702194 0.923043 1.162400 0.008551 0.005357 -256706.000000 0 0 1
-14.612030 -19.883846 11.961356 27.421758 0.937049 1.119426 0.007316 0.004360 17746.500000 0 0 1
-13.182830 -20.268846 12.368056 27.158460 0.994141 1.097971 -0.001331 0.005947 24495.300000 0 0 1
-12.140030 -19.331046 12.325956 25.942222 1.010038 1.075683 0.000547 0.002292 -158173.000000 0 0 1
-10.944930 -19.912546 12.825556 26.092065 1.068222 1.056928 0.002375 0.004124 350552.000000 0 0 1
-9.797730 -18.910746 13.012656 24.958787 1.092771 1.022346 -0.000690 -0.007826 -318232.000000 0 1 0
-9.102430 -18.624646 11.863456 23.884582 1.116205 1.051005 -0.007400 -0.000806 -258318.000000 0 1 0
-8.216730 -17.526846 12.154956 22.857120 1.132412 1.010095 0.006558 -0.011755 569200.000000 0 1 0
-7.283630 -17.099046 10.985056 21.589352 1.168107 1.036985 0.001443 -0.009198 336566.000000 0 1 0
-6.344330 -18.082646 10.592456 21.895953 1.233363 1.065847 0.003647 -0.007846 205329.000000 0 1 0
-5.671230 -17.611546 9.407756 20.756572 1.259264 1.100397 0.004364 -0.005162 251367.000000 0 1 0
-4.600430 -18.502746 8.692756 20.954226 1.327103 1.143024 0.002120 -0.002749 694044.000000 0 1 0
-3.353130 -18.587446 9.361856 21.080346 1.392318 1.110623 0.010622 -0.004782 -192657.000000 0 1 0
-2.346130 -19.011046 8.497456 20.955452 1.448008 1.153269 0.013612 -0.011125 110823.000000 0 1 0
-0.918230 -19.061546 9.109056 21.146172 1.522662 1.125455 0.013994 -0.021133 60235.600000 0 1 0
-0.030230 -19.764946 8.283356 21.430539 1.569267 1.173940 0.023145 -0.005024 -781419.000000 0 1 0
1.161370 -19.921546 9.008256 21.894416 -1.512565 1.146762 0.023544 -0.009669 108089.000000 0 1 0
2.315670 -20.532646 8.128656 22.204210 -1.458491 1.195996 0.024977 -0.015811 28081.500000 0 1 0
2.280470 -21.887146 7.655956 23.299386 -1.466979 1.235986 0.026061 -0.007599 -220579.000000 0 1 0
2.305870 -22.813946 8.722456 24.533129 -1.470066 1.207307 0.025663 -0.013324 -130046.000000 0 1 0
2.043070 -24.221346 8.199556 25.653079 -1.486646 1.245455 0.021468 -0.009209 -45530.200000 0 0 1
2.050570 -25.213806 9.219856 26.924833 -1.489648 1.221295 0.014258 -0.012665 -195749.000000 0 0 1
1.496370 -26.396116 8.739856 27.845631 -1.514168 1.251532 0.018923 -0.009390 -853049.000000 0 0 1
1.565870 -27.471216 9.822256 29.216372 -1.513858 1.227928 0.018515 -0.009453 290398.000000 0 0 1
0.763270 -27.259596 10.972056 29.394799 -1.542804 1.188270 0.006228 -0.011276 -766557.000000 0 0 1
-0.600830 -27.412276 10.753556 29.452213 1.548882 1.197036 -0.002701 0.000445 -774262.000000 0 0 1
-1.434330 -27.609266 12.052556 30.159460 1.518892 1.159686 -0.008965 -0.002693 22041.900000 0 0 1
-1.143330 -28.852616 12.707556 31.547784 1.531190 1.156219 -0.021895 -0.006033 99713.900000 0 0 1
-1.313230 -28.684926 14.095856 31.988165 1.525047 1.114464 -0.036633 -0.000040 -558334.000000 0 0 1
-0.938230 -30.070126 14.748756 33.505501 1.539605 1.114987 -0.055235 0.011460 129228.000000 0 0 1
-0.951430 -29.903076 16.132656 33.990613 1.538990 1.076263 -0.049728 0.011653 70884.900000 0 0 1
-0.701230 -31.181166 16.761656 35.407767 1.548311 1.077662 -0.063651 0.016010 104763.000000 0 0 1
-0.823930 -31.094746 18.284956 36.081875 1.544305 1.039371 -0.046342 0.016451 -228480.000000 0 0 1
-2.157230 -30.875356 18.656056 36.138480 1.501041 1.028344 -0.057527 0.016555 -174789.000000 0 0 1
-2.279330 -30.829596 20.038456 36.840183 1.496997 0.995684 -0.038720 0.013005 -233739.000000 0 0 1
-3.760230 -30.674946 20.431856 37.047974 1.448822 0.986638 -0.018422 0.004135 -197325.000000 0 0 1
-4.394530 -29.481666 20.003656 35.897448 1.422826 0.979733 -0.020511 0.001136 71801.900000 0 0 1
-5.726130 -29.387546 20.463356 36.265209 1.378359 0.971248 -0.006394 -0.002008 229584.000000 0 0 1
-5.841330 -28.413536 21.671056 36.208906 1.368039 0.929168 0.009703 -0.007472 -187035.000000 0 0 1
-5.041130 -28.834596 22.770256 37.085462 1.397716 0.909685 0.003305 -0.003268 132517.000000 0 0 1
-4.992730 -27.763826 23.746756 36.873647 1.392869 0.871076 0.013273 -0.009491 -124605.000000 0 0 1
-4.023230 -27.898146 24.960656 37.650064 1.427572 0.846025 0.021801 -0.007069 9578.690000 0 0 1
-4.303730 -29.091316 25.723656 39.070875 1.423923 0.852126 0.014651 -0.000676 324743.000000 0 0 1
-3.723930 -30.296406 25.215856 39.592667 1.448493 0.880349 0.000999 0.001665 -51926.000000 0 0 1
-4.015530 -31.575846 26.058156 41.136189 1.444304 0.884779 0.007724 0.002452 143936.000000 0 0 1
-3.399830 -31.538366 27.342556 41.878906 1.463411 0.859395 0.012178 -0.012561 276674.000000 0 0 1
-3.822230 -32.588746 28.203056 43.267172 1.454043 0.860795 0.026421 -0.015999 -128269.000000 0 0 1
-3.297530 -32.461266 29.689256 44.114164 1.469560 0.832526 0.035653 -0.020960 -828904.000000 0 0 1
-2.007330 -32.968116 29.808056 44.490969 1.509984 0.836615 0.028216 -0.025577 -450036.000000 0 0 1
-1.571030 -32.887826 31.118456 45.303814 1.523063 0.813604 0.027783 -0.030535 -377490.000000 0 0 1
-28.385960 3.225854 -10.349944 30.385690 -0.113157 1.918372 0.048124 -0.008602 56696.200000 0 0 1
-29.115840 2.827654 -11.494644 31.430154 -0.096814 1.945203 0.036979 -0.016331 -57656.600000 0 0 1
-29.850620 3.864654 -12.041244 32.418923 -0.128750 1.951341 0.013413 -0.012633 -336295.000000 0 0 1
-30.605540 3.518154 -13.344244 33.572985 -0.114449 1.979554 0.029515 -0.007155 343290.000000 0 0 1
-31.663130 2.604754 -13.058644 34.349188 -0.082080 1.960780 0.035753 -0.005417 127071.000000 0 0 1
-32.591010 2.457254 -14.098844 35.594795 -0.075254 1.978054 0.041592 -0.007178 -119480.000000 0 0 1
-33.415490 1.208254 -13.820844 36.181080 -0.036143 1.962746 0.009263 -0.002473 92924.900000 0 0 1
-32.557960 0.072054 -13.801844 35.362647 -0.002213 1.971748 0.033562 -0.005726 461938.000000 0 0 1
-33.034540 -0.884746 -12.848344 35.456220 0.026776 1.941608 0.028209 -0.001447 130769.000000 0 0 1
-32.110680 -2.111946 -12.871044 34.658618 0.065676 1.951276 0.003495 -0.004834 -153635.000000 0 0 1
-32.450520 -2.996346 -13.875544 35.419557 0.092075 1.973327 0.022882 -0.004628 -184050.000000 0 0 1
-32.046240 -4.303446 -13.598844 35.077196 0.133490 1.968913 0.033834 -0.004425 -394854.000000 0 0 1
-32.950870 -5.390646 -14.191144 36.279573 0.162160 1.972689 0.031465 -0.011625 -36893.200000 0 0 1
-32.796250 -6.602646 -13.472844 36.065308 0.198668 1.953649 0.035488 -0.016581 91548.800000 0 0 1
-33.455890 -7.644946 -14.134644 37.115090 0.224651 1.961493 0.037904 -0.006071 -641647.000000 0 0 1
-33.149540 -8.950346 -13.344844 36.838642 0.263711 1.941478 0.031682 -0.005953 936219.000000 0 0 1
-31.803790 -9.477446 -13.225244 35.724083 0.289619 1.950026 0.026113 -0.006341 994243.000000 0 0 1
-31.073870 -9.686446 -14.380244 35.583761 0.302177 1.986817 0.016892 -0.011168 -400524.000000 0 0 1
-29.817450 -10.548646 -14.055744 34.610954 0.340033 1.988986 0.011599 -0.009980 44416.500000 0 0 1
-30.125570 -11.915146 -14.043544 35.309231 0.376635 1.979838 0.000106 -0.003978 1102910.000000 0 0 1
-28.958280 -12.745746 -13.752444 34.498778 0.414626 1.980825 -0.006720 -0.005885 788824.000000 0 0 1
-29.290960 -14.174446 -14.175944 35.494121 0.450700 1.981646 -0.009942 -0.003483 -107293.000000 0 0 1
-29.318950 -14.273046 -15.574144 36.136887 0.453048 2.016371 -0.013096 -0.002344 46110.600000 0 0 1
-29.493810 -15.553146 -16.146944 37.047388 0.485276 2.021774 -0.015173 0.000307 -774249.000000 0 0 1
-28.400850 -16.621446 -16.005744 36.593231 0.529499 2.023498 -0.022689 0.003528 393579.000000 0 0 1
-27.183520 -16.287546 -16.689544 35.815761 0.539809 2.055542 -0.014457 -0.006308 192718.000000 0 0 1
-26.191380 -17.276446 -16.500944 35.450601 0.583111 2.054954 -0.002463 -0.009345 199465.000000 0 0 1
-24.815830 -16.779046 -16.984044 34.435730 0.594534 2.086572 0.005450 -0.018791 -6893.790000 0 0 1
-24.856230 -16.506146 -18.328444 35.017379 0.586199 2.121644 0.010681 -0.019542 1106300.000000 0 0 1
-23.549630 -16.102546 -18.834344 34.184932 0.599751 2.154304 0.005246 -0.014031 1003090.000000 0 0 1
-23.639930 -15.464146 -20.309544 34.791718 0.579290 2.194132 0.018903 -0.018174 -91496.900000 0 0 1
-24.114230 -16.362846 -21.279444 36.083979 0.596188 2.201508 0.020381 -0.025320 -331806.000000 0 0 1
-25.499080 -16.237046 -21.414144 37.046056 0.567018 2.187122 0.023478 -0.029072 -930195.000000 0 0 1
-26.185470 -17.429546 -22.061144 38.420853 0.587277 2.182419 0.028642 -0.025627 -210027.000000 0 0 1
-25.711490 -17.582246 -23.388844 38.951946 0.599790 2.214865 0.030067 -0.013587 52863.200000 0 0 1
-26.209130 -18.744246 -23.978244 40.164928 0.620841 2.210546 0.016264 -0.002301 -490885.000000 0 0 1
-25.671970 -19.095446 -25.395624 40.848792 0.639537 2.241705 0.026609 -0.002884 515029.000000 0 0 1
-24.310630 -19.500546 -25.453854 40.238995 0.676045 2.255659 0.039619 -0.015027 219799.000000 0 0 1
-24.119030 -20.880646 -25.179224 40.641386 0.713557 2.238961 0.032470 -0.009006 343096.000000 0 0 1
-22.622830 -21.336846 -25.072384 39.945937 0.756153 2.249337 0.041008 -0.004640 651961.000000 0 0 1
-21.906330 -21.218746 -26.285564 40.262306 0.769456 2.282148 0.044001 -0.016274 -953251.000000 0 0 1
-20.568830 -21.436246 -25.954574 39.449072 0.806046 2.288858 0.042782 -0.012171 -532647.000000 0 0 1
-19.673230 -21.506346 -27.213114 39.876214 0.829884 2.321892 0.040165 -0.019081 -230749.000000 0 0 1
-19.939430 -22.672446 -28.010614 41.185133 0.849448 2.318715 0.068768 -0.017604 -60231.300000 0 0 1
-20.469730 -22.328446 -29.314204 42.153195 0.828801 2.339801 0.060254 -0.023892 -512696.000000 0 0 1
-19.430530 -22.132846 -30.387684 42.318077 0.850324 2.371833 0.062017 -0.031667 -381292.000000 0 0 1
-18.941530 -23.393946 -30.756094 43.034818 0.890183 2.366962 0.073275 -0.029444 -270916.000000 0 0 1
-18.417030 -23.435246 -32.055694 43.771740 0.904732 2.392545 0.066715 -0.029824 8049.890000 0 0 1
-17.939530 -24.886246 -32.405334 44.623510 0.946206 2.383566 0.059978 -0.024786 -224013.000000 0 0 1
-17.385930 -25.089046 -33.683014 45.456311 0.964805 2.405351 0.045093 -0.014750 -53446.900000 0 0 1
-18.245430 -24.990446 34.325078 46.212867 0.940156 0.733613 0.049335 -0.009608 143071.000000 0 0 1
-17.453230 -25.069166 32.967463 44.943653 0.962623 0.747297 0.038284 -0.003997 242466.000000 0 0 1
-16.935030 -23.814746 32.517813 43.718938 0.952649 0.732070 0.041019 -0.008324 168659.000000 0 0 1
-16.207430 -23.872646 31.273313 42.551194 0.974364 0.745193 0.036098 -0.004638 857925.000000 0 0 1
-15.281930 -22.628946 31.024963 41.329831 0.976822 0.721724 0.022845 0.000043 220418.000000 0 0 1
-16.144830 -21.536946 30.826233 40.923737 0.927529 0.717791 0.021651 -0.003572 -58969.000000 0 0 1
-15.565730 -20.265646 30.654913 39.908797 0.915821 0.694890 0.020884 -0.009263 -393121.000000 0 0 1
-14.771630 -19.631446 31.827763 40.206980 0.925731 0.657377 0.027439 -0.011003 111315.000000 0 0 1
-14.366630 -18.351846 31.383113 39.090793 0.906604 0.638776 0.031169 -0.017063 -144323.000000 0 0 1
-13.872730 -17.604346 32.478583 39.461678 0.903398 0.604052 0.030521 -0.010555 5312.740000 0 0 1
-13.365830 -16.197646 32.059963 38.325584 0.880894 0.579903 0.032732 -0.006723 -1260570.000000 0 0 1
-12.134830 -16.237246 31.460083 37.425113 0.928996 0.572380 0.041900 -0.014667 -1111560.000000 0 0 1
-11.780630 -14.966646 30.943003 36.335288 0.903955 0.551773 0.041543 -0.016562 -677797.000000 0 0 1
-10.281930 -14.748246 30.953613 35.796019 0.961977 0.526199 0.045462 -0.023456 -687494.000000 0 0 1
-9.895930 -13.459946 30.518213 34.791679 0.936826 0.500860 0.055004 -0.020436 -444216.000000 0 0 1
-8.544930 -13.202946 30.781813 34.566655 0.996393 0.472340 0.045271 -0.023977 -371566.000000 0 0 1
-8.374330 -11.649746 30.669663 33.859625 0.947536 0.437559 0.039619 -0.025017 -44037.100000 0 0 1
-8.905930 -10.849946 31.762933 34.726371 0.883484 0.416122 0.033852 -0.023179 252344.000000 0 0 1
-8.625830 -9.449446 31.580473 34.073791 0.830933 0.384927 0.018173 -0.017856 -284648.000000 0 0 1
-9.403230 -8.482146 32.495903 34.876228 0.733944 0.371595 0.006754 -0.013842 159330.000000 0 0 1
-10.768430 -8.319346 32.141173 34.903089 0.657789 0.400493 0.012413 -0.015196 292319.000000 0 0 1
-11.637430 -7.590446 33.013313 35.817921 0.577951 0.398361 0.020694 -0.017199 319889.000000 0 0 1
-11.263530 -6.152346 33.373624 35.756360 0.499935 0.367128 0.002890 -0.010087 -513997.000000 0 0 1
-11.478830 -5.137546 32.394193 34.749700 0.420829 0.370310 0.011292 -0.012486 53436.900000 0 0 1
-11.517730 -3.922846 33.089403 35.255573 0.328269 0.352368 0.005604 -0.012464 -234758.000000 0 0 1
-11.147930 -2.671046 32.263673 34.239676 0.235167 0.341393 0.003556 -0.008269 -425517.000000 0 0 1
-9.770430 -2.569346 32.045523 33.600274 0.257150 0.305396 0.000275 -0.003930 -433559.000000 0 0 1
-9.478330 -1.516346 31.162693 32.607537 0.158636 0.298802 -0.004753 0.005954 321243.000000 0 0 1
-7.992230 -1.117446 31.399483 32.419932 0.138916 0.251565 -0.008462 0.010015 382941.000000 0 0 1
-7.747430 -0.633946 32.708163 33.619168 0.081645 0.233328 -0.003153 -0.003995 653841.000000 0 0 1
-6.333030 -0.454046 32.892763 33.499959 0.071572 0.190685 0.001448 -0.005276 925848.000000 0 0 1
-6.080130 0.380754 34.202734 34.741042 -0.062541 0.176267 0.013600 -0.011759 -434271.000000 0 0 1
-6.601530 1.700754 34.263710 34.935291 -0.252147 0.196395 0.025909 -0.009121 -1656.810000 0 0 1
-6.175230 2.657954 33.294462 33.966445 -0.406454 0.199245 0.033702 -0.005965 -214093.000000 0 0 1
-7.053630 3.939654 33.419063 34.381802 -0.509367 0.237205 0.029716 -0.000666 204716.000000 0 0 1
-8.377430 3.713754 32.990793 34.239827 -0.417272 0.270935 0.000585 0.006658 -342487.000000 0 0 1
-9.079930 4.926754 33.160702 34.732552 -0.497143 0.301998 -0.011581 0.015053 831289.000000 0 0 1
-10.523830 4.908454 32.511483 34.523042 -0.436419 0.343051 -0.024477 0.018915 1092660.000000 0 0 1
-11.271530 6.054654 32.853613 35.257143 -0.492935 0.371377 -0.017502 0.019232 433005.000000 0 0 1
-12.373030 6.332754 31.984703 34.874301 -0.473058 0.409946 -0.024289 0.019979 352605.000000 0 0 1
-13.089230 7.680954 32.182773 35.581679 -0.530668 0.440647 -0.014195 0.012012 -42739.400000 0 0 1
-13.838230 7.682354 33.391503 36.952776 -0.506792 0.442635 -0.001593 0.015086 397862.000000 0 0 1
-14.468530 8.969654 33.580490 37.648936 -0.554954 0.469185 0.004545 0.016822 148048.000000 0 0 1
-15.319430 9.200854 -34.300416 38.676338 -0.540861 2.661296 0.022946 0.015744 -99883.600000 0 0 1
-14.581930 9.154154 -33.130864 37.337452 -0.560591 2.662332 0.024532 0.007984 -584282.000000 0 0 1
-15.309430 9.670854 -32.043934 36.806490 -0.563398 2.627228 0.031794 0.005492 -1255320.000000 0 0 1
-14.624130 9.967954 -30.658084 35.399765 -0.598277 2.618050 0.049964 -0.003528 628954.000000 0 0 1
-13.697430 11.079054 -30.554874 35.269892 -0.680109 2.618575 0.046210 -0.007022 1044530.000000 0 0 1
-12.502830 10.888654 -31.348204 35.462563 -0.716500 2.655105 0.055475 -0.015500 327105.000000 0 0 1
-11.651930 12.207254 -31.395064 35.643155 -0.808669 2.648379 0.046930 -0.014346 145901.000000 0 0 1
-11.998130 13.163754 -32.379454 36.954953 -0.831690 2.638690 0.033933 -0.011208 -82299.300000 0 0 1
-11.222530 14.361054 -32.397234 37.172110 -0.907466 2.629145 0.028440 -0.015959 -143440.000000 0 0 1
-11.661530 15.453054 -31.362604 36.856493 -0.924331 2.588565 0.038031 -0.018885 804834.000000 0 0 1
-12.934130 16.035854 -31.714124 37.818328 -0.892059 2.565489 0.030815 -0.012311 860300.000000 0 0 1
-13.118430 17.201254 -30.846044 37.675652 -0.919252 2.529985 -0.003434 -0.002609 -61154.500000 0 0 1
-14.396130 18.035454 -31.044404 38.681793 -0.897146 2.502368 -0.020381 -0.004889 -282157.000000 0 0 1
-14.288030 18.763954 -32.270404 39.970148 -0.920000 2.510465 -0.013058 -0.009490 824097.000000 0 0 1
-15.523730 19.390554 -32.699894 41.064130 -0.895701 2.491971 -0.016639 -0.009785 1010920.000000 0 0 1
-16.062830 20.537154 -31.830934 41.146051 -0.907044 2.455312 -0.024209 -0.015741 -316365.000000 0 0 1
-15.277330 21.698954 -32.056214 41.615409 -0.957352 2.450103 -0.015015 -0.015936 148006.000000 0 0 1
-15.746330 22.857054 -31.378564 41.892792 -0.967556 2.417379 -0.023519 -0.008381 1436560.000000 0 0 1
-17.152630 23.514054 -31.813704 43.118849 -0.940569 2.400623 -0.007961 -0.015863 1217030.000000 0 0 1
-18.231930 22.736354 -31.388844 42.832284 -0.894907 2.393270 0.000980 -0.012737 -290618.000000 0 0 1
-19.366230 22.930254 -32.224854 44.037354 -0.869462 2.391700 0.025573 -0.017567 -241609.000000 0 0 1
-20.594230 22.071254 -31.800504 43.846717 -0.820003 2.382216 0.024212 -0.024285 -408429.000000 0 0 1
-21.573430 22.617154 -30.943604 43.982441 -0.809012 2.351169 0.038342 -0.026420 412955.000000 0 0 1
-22.419130 23.572854 -31.591674 45.346782 -0.810478 2.341539 0.042153 -0.022355 -1007370.000000 0 0 1
-23.636130 22.918154 -32.219144 46.064972 -0.769977 2.345394 0.045951 -0.031516 -1625530.000000 0 0 1
-23.381230 22.115654 -33.347994 46.345148 -0.757589 2.373961 0.063063 -0.026994 -154586.000000 0 0 1
-24.558530 21.705454 -34.007644 47.231006 -0.723807 2.374639 0.076389 -0.031202 -206605.000000 0 0 1
-24.395630 20.721854 34.026849 46.715826 -0.704151 0.754842 0.082576 -0.022081 -128656.000000 0 0 1
-24.095030 19.382654 34.476791 46.313139 -0.677434 0.731119 0.077815 -0.024156 268970.000000 0 0 1
-23.661830 18.535354 33.420445 44.948500 -0.664502 0.732466 0.072378 -0.023668 -388830.000000 0 0 1
-23.371830 17.124354 34.007723 44.676740 -0.632332 0.705642 0.054396 -0.011846 -341450.000000 0 0 1
-24.358030 16.129054 34.221390 44.995150 -0.584880 0.706625 0.055718 -0.008046 149290.000000 0 0 1
-24.846830 15.574854 33.015843 44.158656 -0.559918 0.726259 0.061451 -0.009399 -561928.000000 0 0 1
-25.724640 14.334154 33.243677 44.411340 -0.508366 0.724938 0.040521 -0.005064 -458199.000000 0 0 1
-26.900520 14.730354 33.929308 45.736410 -0.500988 0.734979 0.034328 -0.004771 -434358.000000 0 0 1
-27.952410 13.828254 33.681342 45.901967 -0.459404 0.746946 0.011172 0.005455 -238247.000000 0 0 1
-28.021710 12.428454 34.428005 46.097399 -0.417460 0.727479 -0.005773 0.004634 -850389.000000 0 0 1
-26.959160 11.537454 34.278928 45.110465 -0.404375 0.707655 -0.000289 -0.004479 -678594.000000 0 0 1
-27.367380 10.188554 34.526913 45.220436 -0.356391 0.702043 -0.001893 0.005434 -327552.000000 0 0 1
-26.207130 9.155254 34.513414 44.292303 -0.336089 0.677377 -0.004942 -0.004018 -272911.000000 0 0 1
-25.515780 8.914454 33.317825 42.902214 -0.336114 0.681547 0.003386 -0.004144 82825.000000 0 0 1
-24.473730 9.860354 33.133883 42.356159 -0.383000 0.672497 0.000971 -0.008482 -431613.000000 0 0 1
-23.192730 9.314254 32.477723 40.981222 -0.381887 0.655895 0.012486 -0.010084 -144362.000000 0 0 1
-23.115030 9.448954 31.043023 39.840389 -0.388052 0.677432 0.026114 -0.003563 140090.000000 0 0 1
-21.848130 9.088354 30.535413 38.630951 -0.394205 0.659271 0.035125 -0.006152 253196.000000 0 0 1
-21.863730 9.145854 29.019063 37.466990 -0.396192 0.684835 0.049254 -0.011773 131423.000000 0 0 1
-22.123530 10.446454 28.468093 37.536799 -0.441151 0.709934 0.051403 -0.011239 248217.000000 0 0 1
-22.342630 10.456054 27.118743 36.659902 -0.437711 0.738115 0.035807 -0.012017 -831088.000000 0 0 1
-22.721430 11.859554 26.589393 36.931128 -0.481057 0.767034 0.028317 -0.009919 914991.000000 0 0 1
-24.063430 12.306454 26.810123 38.069412 -0.472740 0.789440 0.029822 -0.005311 754534.000000 0 0 1
-25.108000 11.662954 26.097493 38.046226 -0.434856 0.814899 0.025841 -0.003341 467535.000000 0 0 1
-26.461420 12.455154 26.223313 39.281035 -0.439927 0.839840 0.011856 0.002758 441096.000000 0 0 1
-26.474440 13.703954 25.530503 39.249215 -0.477652 0.862591 0.022388 -0.001336 429701.000000 0 0 1
-27.698540 14.398154 25.789183 40.491949 -0.479375 0.880330 0.011530 -0.003465 411243.000000 0 0 1
-27.738890 15.774254 25.006503 40.541316 -0.517064 0.906106 0.006899 -0.003692 136447.000000 0 0 1
-26.826130 16.756454 25.512893 40.636532 -0.558335 0.892032 0.021714 -0.004922 318934.000000 0 0 1
-26.818760 17.940054 24.756513 40.669108 -0.589573 0.916337 0.016111 -0.009827 -420748.000000 0 0 1
-22.027230 -9.268846 32.589963 40.413068 0.398300 0.632721 0.017491 -0.004495 551144.000000 0 0 1
-21.004330 -8.841446 31.672603 39.019313 0.398422 0.623712 0.018000 -0.014154 624265.000000 0 0 1
-21.545330 -8.975146 30.382283 38.312369 0.394709 0.655054 0.019538 -0.014637 298434.000000 0 0 1
-20.460930 -8.863946 29.269393 36.795605 0.408807 0.651032 0.020009 -0.011533 -262132.000000 0 0 1
-20.071130 -7.538046 28.939053 36.015846 0.359267 0.637630 0.020509 -0.016981 898598.000000 0 0 1
-18.733130 -7.179246 29.350673 35.551846 0.365973 0.599578 0.014770 -0.019547 1116510.000000 0 0 1
-17.495730 -7.812046 28.666063 34.480020 0.419949 0.589207 0.020507 -0.015357 -780159.000000 0 0 1
-17.174330 -9.152646 28.966763 34.897018 0.489640 0.591574 0.019307 -0.009104 152060.000000 0 0 1
-16.684930 -9.572046 30.231873 35.832626 0.520852 0.566663 0.025191 -0.011970 -170484.000000 0 0 1
-15.309730 -8.996246 30.662373 35.433055 0.531264 0.524927 0.026838 -0.010275 -397974.000000 0 0 1
-14.311230 -9.345346 29.779253 34.335852 0.578487 0.521057 0.026680 -0.002348 -1644970.000000 0 0 1
-13.030430 -8.961546 30.082723 33.986345 0.602450 0.483998 0.022152 -0.013109 -397765.000000 0 0 1
-11.877730 -9.871346 29.565653 33.356435 0.693407 0.481383 0.025256 -0.012658 176019.000000 0 0 1
-11.757630 -9.882446 28.155013 32.071940 0.698961 0.499399 0.032696 -0.012287 -384463.000000 0 0 1
-10.703530 -10.736146 27.809043 31.672911 0.786919 0.499114 0.034118 -0.014403 -483098.000000 0 0 1
-10.127430 -10.513346 26.425883 30.189776 0.804093 0.504688 0.027571 -0.012362 38516.900000 0 0 1
-11.019130 -10.731346 25.304783 29.612752 0.772168 0.546164 0.025248 -0.009147 316302.000000 0 0 1
-10.565830 -10.247546 24.037733 28.186195 0.770107 0.549436 0.019631 -0.012310 2060.190000 0 0 1
-11.642130 -10.571746 22.977833 27.843883 0.737250 0.600173 0.020832 -0.009631 -357844.000000 0 0 1
-11.624030 -11.957146 22.672933 28.145218 0.799524 0.634160 0.028618 -0.005084 764757.000000 0 0 1
-12.872030 -12.504546 22.228133 28.568212 0.770918 0.679205 0.019937 0.001964 1677100.000000 0 0 1
-14.125230 -12.447246 23.210633 29.886277 0.722334 0.681495 0.011856 -0.000815 -31490.400000 0 0 1
-15.323530 -12.965346 22.719933 30.316763 0.702230 0.723613 0.005700 0.012324 -654794.000000 0 0 1
-16.251430 -12.962246 23.753933 31.565458 0.673280 0.718902 0.004407 0.014257 -838721.000000 0 0 1
-17.445030 -13.874446 23.581633 32.448771 0.671883 0.757241 0.015760 0.010016 -841525.000000 0 0 1
-17.099730 -15.247846 23.639933 32.920267 0.728211 0.769733 0.006313 0.010683 605104.000000 0 0 1
-18.266830 -16.055646 23.448733 33.783190 0.721063 0.803635 0.018166 0.014774 169602.000000 0 0 1
-19.153730 -16.125846 24.691063 35.164711 0.699783 0.792377 0.011198 0.011178 -778916.000000 0 0 1
-18.777030 -16.957846 25.805573 36.139632 0.734534 0.775527 0.010608 0.011320 -440976.000000 0 0 1
-19.736830 -16.973346 26.801643 37.362615 0.710261 0.770822 0.015279 0.010251 -597808.000000 0 0 1
-19.277430 -17.757046 28.032283 38.376306 0.744368 0.751804 0.011731 0.006380 -133747.000000 0 0 1
-19.172530 -19.153446 27.828953 38.844447 0.784900 0.772138 0.014951 0.006795 40188.600000 0 0 1
-19.074630 -19.718046 29.069043 39.970641 0.801983 0.756475 0.004706 0.004944 -303538.000000 0 0 1
-18.955430 -21.228346 28.912593 40.569558 0.841901 0.777503 0.018580 0.006854 -176873.000000 0 0 1
-20.099630 -21.881646 28.412983 41.110816 0.827821 0.807743 0.006180 0.011015 51431.000000 0 0 1
-19.762530 -23.201846 28.067473 41.432672 0.865278 0.826542 0.018839 0.011576 435105.000000 0 0 1
-20.997630 -23.994046 27.546913 42.136055 0.851899 0.858252 0.022421 0.013563 -5392.070000 0 0 1
-21.900230 -24.340346 28.532453 43.430098 0.838119 0.853998 0.007400 0.017865 186761.000000 0 0 1
-23.188030 -24.633246 27.965883 43.892735 0.815610 0.880013 -0.000886 0.020709 408316.000000 0 0 1
-23.968530 -25.647196 28.731253 45.362473 0.819219 0.884895 -0.006564 0.022900 -368354.000000 0 0 1
-24.482030 -25.218736 30.003583 46.212222 0.800220 0.864190 -0.009505 0.021203 292900.000000 0 0 1
-25.222560 -26.243926 30.655563 47.588704 0.805241 0.870849 -0.008261 0.012548 -768889.000000 0 0 1
-26.090710 -25.729876 31.728433 48.471075 0.778435 0.857163 0.014470 -0.001168 -811131.000000 0 0 1
-27.178390 -25.037666 31.182673 48.351925 0.744424 0.869890 0.002455 0.005364 -909757.000000 0 0 1
-28.219060 -24.956546 32.085883 49.483820 0.724121 0.865300 0.012921 -0.007112 -232131.000000 0 0 1
-29.434920 -24.145946 31.509633 49.419613 0.687007 0.879426 0.014111 -0.004314 -9787.570000 0 0 1
-29.975640 -24.856146 30.391033 49.396173 0.692301 0.908092 0.011603 -0.004192 193229.000000 0 0 1
-31.192450 -24.402546 29.822363 49.576471 0.663868 0.925365 0.002539 0.000824 566544.000000 0 0 1
-32.456570 -24.905046 30.566873 51.068816 0.654503 0.929115 -0.003636 -0.002871 -284748.000000 0 0 1
-32.585610 -26.322566 30.537223 51.838417 0.679477 0.940871 0.009051 -0.010971 -487834.000000 0 0 1
-33.662770 -26.792316 31.283793 53.194793 0.672238 0.942090 0.011114 -0.012281 -201429.000000 0 0 1
-33.695180 -28.297696 31.400803 54.056777 0.698551 0.950980 0.023960 -0.018184 599624.000000 0 0 1
-32.612600 -28.663866 32.270633 54.097991 0.721046 0.931636 0.019409 -0.019420 483525.000000 0 0 1
-32.380640 -30.078156 32.217903 54.691815 0.748551 0.940875 0.023660 -0.025958 41277.300000 0 0 1
-31.388280 -30.536606 33.308572 55.019718 0.771646 0.920536 0.035136 -0.024788 82559.400000 0 0 1
-31.928540 -30.533696 -34.507950 56.058334 0.763071 2.233908 0.031356 -0.022603 -17870.500000 0 0 1
-30.881940 -30.789806 -33.605594 55.054902 0.783904 2.227364 0.021904 -0.022620 74466.900000 0 0 1
-31.279980 -30.502756 -32.072034 54.198437 0.772819 2.204027 0.019107 -0.023747 -83060.600000 0 0 1
-31.324120 -29.157516 -31.623424 53.210921 0.749591 2.207195 0.017552 -0.012723 -285242.000000 0 0 1
-30.074530 -28.591346 -31.327474 51.993779 0.760122 2.217456 0.026298 -0.011309 -296902.000000 0 0 1
-30.206220 -27.046916 -31.275404 51.206467 0.730273 2.227830 0.012358 -0.009643 47874.600000 0 0 1
-30.990060 -26.539836 -30.203354 50.764055 0.708197 2.208031 0.001054 -0.011553 13813.700000 0 0 1
-30.984690 -25.103706 -30.197454 50.021328 0.680928 2.218920 0.012045 -0.002103 75683.100000 0 0 1
-29.777730 -24.488646 -29.435564 48.506282 0.688240 2.222875 0.004492 -0.003757 -24884.000000 0 0 1
-29.631820 -23.066646 -29.509074 47.758772 0.661457 2.236837 0.015707 -0.006053 242183.000000 0 0 1
-28.627530 -22.648046 -28.581524 46.361330 0.669308 2.235080 0.010597 0.000268 76819.700000 0 0 1
-28.435990 -21.092846 -28.603794 45.515829 0.638210 2.250337 0.028882 -0.011862 123522.000000 0 0 1
-27.818110 -20.651546 -29.834774 45.721410 0.638605 2.281720 0.026461 -0.005247 477572.000000 0 0 1
-27.715740 -19.211746 -29.956804 45.107244 0.606128 2.297118 0.030437 -0.013514 -114192.000000 0 0 1
-26.974620 -18.775246 -31.263444 45.360146 0.608059 2.331218 0.040180 -0.008175 -118837.000000 0 0 1
-27.712260 -18.490646 -32.400774 46.472395 0.588397 2.342287 0.038886 -0.013512 -156896.000000 0 0 1
-28.593860 -17.365546 -32.300274 46.502459 0.545783 2.338650 0.041964 -0.013841 -388916.000000 0 0 1
-29.173960 -17.087946 -33.721374 47.751951 0.529858 2.354882 0.045800 -0.017937 423163.000000 0 0 1
-30.241630 -17.933446 -34.159566 49.020818 0.535260 2.341776 0.037960 -0.017790 784696.000000 0 0 1
-31.526280 -17.645146 -33.632944 49.360231 0.510257 2.320439 0.033490 -0.021427 730433.000000 0 0 1
-32.718130 -18.058446 34.552782 50.896741 0.504331 0.824560 0.030712 -0.015189 606892.000000 0 0 1
-32.988790 -19.488946 -34.529472 51.578713 0.533609 2.304267 0.024205 -0.015822 220572.000000 0 0 1
-33.849140 -19.954346 33.590535 51.693948 0.532669 0.863480 0.030591 -0.014071 -62067.400000 0 0 1
-34.394167 -21.346546 33.903314 52.802163 0.555461 0.873585 0.021652 -0.016583 8393.120000 0 0 1
-33.494460 -22.385346 33.579503 52.445835 0.589153 0.875946 0.036941 -0.020987 63930.200000 0 0 1
-33.917550 -23.572046 34.240361 53.651131 0.607349 0.878633 0.031932 -0.021409 -620248.000000 0 0 1
-32.804090 -24.682346 34.338026 53.520338 0.645046 0.874229 0.026898 -0.017703 1158560.000000 0 0 1
-31.665300 -24.515346 -33.970954 52.513989 0.658811 2.274300 0.015455 -0.023957 903880.000000 0 0 1
-30.796030 -23.404346 -34.261933 51.672419 0.649857 2.295696 0.020569 -0.028752 -672106.000000 0 0 1
-29.535170 -23.358646 -33.394664 50.330469 0.669152 2.296294 0.012566 -0.024660 -439571.000000 0 0 1
-28.525370 -24.272546 -33.831894 50.472272 0.705023 2.305418 0.013048 -0.017222 1210160.000000 0 0 1
-27.197130 -24.044046 -33.324864 49.278256 0.723941 2.313469 0.019802 -0.013825 1023560.000000 0 0 1
-27.017640 -24.358646 -31.818594 48.329281 0.733689 2.289449 0.022055 -0.007314 -1001590.000000 0 0 1
-26.836010 -25.725616 -31.611994 48.798534 0.764276 2.275498 0.030314 -0.006879 146414.000000 0 0 1
-26.177640 -26.007326 -30.373974 47.793599 0.782135 2.259483 0.016069 0.000321 127811.000000 0 0 1
-25.726010 -27.532896 -30.254304 48.324019 0.819312 2.247302 0.019452 0.002942 154771.000000 0 0 1
-26.820630 -28.467416 -30.075704 49.338503 0.815175 2.226325 -0.006363 0.010737 374177.000000 0 0 1
-26.605560 -29.718646 -29.444804 49.578727 0.840613 2.206694 -0.001814 0.009417 -913985.000000 0 0 1
-27.310310 -30.917256 -30.045384 51.033860 0.847265 2.200288 -0.002266 0.013308 -322140.000000 0 0 1
-26.985790 -31.121256 -31.402524 51.796563 0.856448 2.222154 0.027769 -0.006816 348792.000000 0 0 1
-27.594210 -32.326286 -31.797484 53.080214 0.864207 2.213105 0.036461 0.000872 -155863.000000 0 0 1
-27.151690 -32.684146 -33.235274 53.944889 0.877597 2.234574 0.030695 -0.016760 1022190.000000 0 0 1
-25.737560 -32.978656 -33.275644 53.453552 0.908102 2.242749 0.018586 -0.011654 625912.000000 0 0 1
-25.404490 -33.632076 -34.454342 54.439014 0.923871 2.256087 0.031297 -0.013557 301083.000000 0 0 1
-23.897930 -33.779556 34.341207 53.772558 0.955076 0.878069 0.022279 -0.011844 320099.000000 0 0 1
-23.822330 -34.517524 33.149639 53.458970 0.966711 0.901933 0.026656 -0.002429 -397718.000000 0 0 1
-22.821330 33.855203 33.120541 52.573359 -0.977675 0.889260 0.010982 0.006050 -738560.000000 0 0 1
-22.771030 33.125201 31.777353 51.240598 -0.968561 0.901850 0.012204 -0.000977 -430680.000000 0 0 1
-23.938730 32.378321 31.535713 51.146062 -0.934150 0.906403 0.017020 -0.016119 -87615.500000 0 0 1
-23.894330 31.708391 30.288963 49.937785 -0.925018 0.919102 0.005120 -0.007753 -1370300.000000 0 0 1
-25.207670 31.060111 30.091743 50.056669 -0.889036 0.925853 0.017563 -0.009208 -1419480.000000 0 0 1
-25.476080 29.870251 30.826603 49.915348 -0.864626 0.905137 0.018402 -0.010925 581794.000000 0 0 1
-26.783080 29.420471 30.445553 50.098196 -0.832289 0.917613 0.020500 -0.014090 799092.000000 0 0 1
-27.273920 28.300931 31.385563 50.297743 -0.803876 0.896951 0.028486 -0.029361 -68178.500000 0 0 1
-26.427290 27.178741 31.150563 49.065703 -0.799415 0.882950 0.028946 -0.024653 544838.000000 0 0 1
-27.055480 25.907261 31.466683 48.921747 -0.763722 0.872120 0.030205 -0.025316 679915.000000 0 0 1
-28.302580 25.579731 30.605333 48.908538 -0.734908 0.894682 0.035496 -0.029726 185841.000000 0 0 1
-27.894190 25.253861 29.285253 47.680912 -0.735760 0.909434 0.038559 -0.032363 -334459.000000 0 0 1
-28.640030 24.184991 28.757873 47.245956 -0.701261 0.916395 0.018463 -0.015899 -333012.000000 0 0 1
-28.080710 23.680091 27.418873 45.837404 -0.700584 0.929572 0.031558 -0.024748 -342192.000000 0 0 1
-26.853610 23.020591 27.636023 44.886677 -0.708695 0.907542 0.034960 -0.027386 -314288.000000 0 0 1
-26.306540 22.509091 26.478103 43.586502 -0.707763 0.917907 0.024300 -0.016563 80095.000000 0 0 1
-24.901730 21.865691 26.528023 42.449271 -0.720571 0.895748 0.029265 -0.017278 142131.000000 0 0 1
-25.043930 20.696591 27.301833 42.437453 -0.690639 0.871940 0.049300 -0.023644 460199.000000 0 0 1
-23.767630 20.185691 27.643703 41.671773 -0.704084 0.845486 0.053038 -0.019824 3161.420000 0 0 1
-23.780330 19.048291 28.638963 41.815448 -0.675357 0.816344 0.066119 -0.017234 -1311540.000000 0 0 1
-22.590930 18.403791 28.827273 40.988551 -0.683613 0.790767 0.055547 -0.009121 -971077.000000 0 0 1
-22.687730 17.179791 29.491753 40.983433 -0.648111 0.767568 0.059351 -0.006027 -96275.400000 0 0 1
-21.358730 16.395691 29.572263 39.994159 -0.654692 0.738596 0.046587 -0.005553 -193295.000000 0 0 1
-20.404430 16.915991 30.453453 40.372074 -0.692196 0.716179 0.065108 -0.004176 -957220.000000 0 0 1
-19.294630 16.100791 30.392783 39.436525 -0.695409 0.690895 0.037338 -0.002640 -15078.600000 0 0 1
-18.037630 16.550491 31.221623 39.674483 -0.742429 0.664955 0.026371 -0.009191 575708.000000 0 0 1
-18.269630 16.309891 32.583693 40.761366 -0.728785 0.644539 0.014059 -0.002660 945709.000000 0 0 1
-17.076630 16.613591 33.342699 40.979974 -0.771655 0.620421 0.004428 0.000600 288946.000000 0 0 1
-17.282830 16.295191 -34.313593 41.733106 -0.755993 2.536088 -0.011161 -0.006501 278885.000000 0 0 1
-18.173130 17.161491 -33.605014 41.881695 -0.756776 2.502068 0.017793 -0.005143 -166254.000000 0 0 1
-19.515730 16.812991 -33.804294 42.500243 -0.711138 2.490448 0.029587 -0.002522 -871196.000000 0 0 1
-20.436830 17.766591 -33.003794 42.691523 -0.715616 2.454473 0.041794 -0.011159 -197521.000000 0 0 1
-20.532930 17.407491 -31.626634 41.531505 -0.703206 2.436435 0.033606 -0.011069 -223256.000000 0 0 1
-21.449030 18.274791 -31.046924 41.927799 -0.705660 2.404589 0.031736 -0.014352 -699641.000000 0 0 1
-21.746330 17.763191 -29.624204 40.816997 -0.684923 2.382965 0.028990 -0.018543 14508.400000 0 0 1
-22.423530 16.551391 -29.425764 40.529481 -0.635858 2.383333 0.025381 -0.018411 638239.000000 0 0 1
-23.788130 16.482291 -29.880904 41.598190 -0.605931 2.372184 0.035001 -0.015989 621441.000000 0 0 1
-24.728930 15.626491 -29.000974 41.191791 -0.563554 2.351877 0.022710 -0.009393 -174431.000000 0 0 1
-24.378430 14.269291 -28.912204 40.420738 -0.529559 2.367823 -0.004731 -0.005117 -436755.000000 0 0 1
-25.195890 13.517891 -28.059394 40.061151 -0.492429 2.346774 -0.029702 0.000160 -197827.000000 0 0 1
-24.949530 12.033891 -28.049424 39.421615 -0.449411 2.362461 -0.014875 -0.003920 -115222.000000 0 0 1
-23.883530 11.618491 -27.238734 38.044197 -0.452761 2.368818 -0.021311 -0.011137 -279387.000000 0 0 1
-23.113530 10.620691 -27.899524 37.754705 -0.430727 2.402334 -0.029813 -0.000661 310555.000000 0 0 1
-22.042230 9.918691 -27.020234 36.253736 -0.422842 2.411794 -0.008979 0.000556 373868.000000 0 0 1
-22.572930 9.020591 -26.058674 35.636536 -0.380179 2.390927 -0.021200 0.001359 131258.000000 0 0 1
-21.474730 8.526591 -25.309644 34.270174 -0.377963 2.401688 0.008113 0.009815 109142.000000 0 0 1
-21.890530 7.447391 -24.324044 33.560662 -0.327927 2.381509 0.005080 0.012752 -78682.000000 0 0 1
-22.309630 6.237791 -24.898444 34.008265 -0.272639 2.392239 0.005625 -0.008280 -55140.700000 0 0 1
-22.080130 5.162191 -24.090944 33.084043 -0.229668 2.386450 0.020090 0.005592 -208955.000000 0 0 1
33.405085 25.121654 -10.728544 43.152043 0.644800 1.822054 -0.013401 0.004460 -263327.000000 0 0 1
34.441514 24.823854 -9.825044 43.577208 0.624519 1.798214 -0.013020 0.001533 -430739.000000 0 0 1
-34.875506 23.811754 -10.370644 43.483914 -0.599065 1.811611 -0.012037 -0.000792 107669.000000 0 0 1
-33.735670 23.258454 -9.444244 42.050503 -0.603598 1.797322 -0.010101 -0.005416 378522.000000 0 0 1
-34.186939 22.382554 -8.410644 41.718874 -0.579680 1.773790 -0.014598 -0.006959 -268860.000000 0 0 1
-33.067260 21.858054 -7.753944 40.389873 -0.584082 1.763973 -0.022243 0.000417 -515625.000000 0 0 1
-33.315870 20.921954 -6.531344 39.878989 -0.560745 1.735317 -0.028636 0.009012 -278465.000000 0 0 1
-34.038020 19.732754 -6.826144 39.932000 -0.525379 1.742584 -0.021918 0.004578 414288.000000 0 0 1
-34.271290 18.999754 -5.664544 39.592916 -0.506209 1.714359 -0.012213 -0.002545 -234389.000000 0 0 1
-35.015249 17.721454 -6.122844 39.719099 -0.468521 1.725567 -0.009170 0.004644 279125.000000 0 0 1
33.757545 17.995354 -6.606144 38.820687 0.489757 1.741799 0.000727 0.000537 219693.000000 0 0 1
33.430935 16.972054 -7.523644 38.239812 0.469769 1.768837 0.007748 0.009074 201583.000000 0 0 1
32.131295 17.224954 -8.333444 37.397399 0.492094 1.795518 0.004058 0.002276 44352.900000 0 0 1
31.991005 16.412754 -9.487544 37.186239 0.474027 1.828785 0.006601 0.008781 303182.000000 0 0 1
30.877445 16.861554 -10.248344 36.643651 0.499829 1.854253 0.031959 -0.000180 -353780.000000 0 0 1
30.275515 15.827954 -11.207244 35.954599 0.481719 1.887784 0.028330 0.018259 124498.000000 0 0 1
29.214715 14.967254 -10.769344 34.547026 0.473454 1.887810 0.026523 0.020509 518008.000000 0 0 1
29.375765 14.280954 -9.560744 34.033645 0.452504 1.855549 0.011558 0.013286 -1472820.000000 0 0 1
28.296795 13.282454 -9.266844 32.603781 0.438868 1.858995 0.009045 0.025524 -714204.000000 0 0 1
28.443805 12.091454 -10.022244 32.491517 0.401955 1.884367 0.009642 0.027888 -650149.000000 0 0 1
27.455205 11.235554 -9.707844 31.213269 0.388440 1.887059 0.009202 0.022001 -1395170.000000 0 0 1
27.612905 9.854754 -10.414444 31.113491 0.342799 1.912109 0.002604 0.020360 873501.000000 0 0 1
28.779445 9.143454 -9.895544 31.777051 0.307622 1.887468 -0.004026 0.025530 1591680.000000 0 0 1
28.567825 7.781454 -10.016244 31.256948 0.265934 1.896999 -0.005611 0.020702 -270383.000000 0 0 1
29.617995 7.004754 -9.211144 31.798386 0.232236 1.864682 0.010314 0.003208 -657255.000000 0 0 1
30.917955 7.075954 -9.708244 33.169851 0.224988 1.867828 0.013652 0.004391 -806541.000000 0 0 1
31.771105 6.794354 -8.667944 33.625877 0.210680 1.831516 0.017941 0.001086 -974346.000000 0 0 1
33.250525 7.052354 -8.966744 35.153031 0.209000 1.828724 0.011391 0.000800 -302066.000000 0 0 1
33.669515 6.167654 -10.020644 35.666363 0.181173 1.855585 0.000351 0.005002 -1097990.000000 0 0 1
35.016162 6.298454 -10.232944 37.020470 0.177970 1.850856 -0.001214 -0.000016 -2227150.000000 0 0 1
-34.639867 5.491554 -11.510744 36.913070 -0.157224 1.887919 0.001370 0.002053 527915.000000 0 0 1
-33.232220 5.364354 -11.758444 35.656945 -0.160040 1.906852 0.012092 0.001113 1057280.000000 0 0 1
-32.591760 6.497254 -12.281944 35.429977 -0.196773 1.924798 0.000548 0.004040 -820087.000000 0 0 1
-31.905440 7.490354 -11.350144 34.682679 -0.230591 1.904195 -0.004102 0.010906 -1089030.000000 0 0 1
-32.712130 8.263754 -10.473544 35.328008 -0.247443 1.871786 0.002975 0.001047 202561.000000 0 0 1
-33.189480 9.478354 -11.069144 36.247851 -0.278178 1.881127 -0.002300 0.000054 -62758.300000 0 0 1
-34.014830 10.396654 -10.162744 36.991626 -0.296633 1.849106 -0.003930 0.009201 -171378.000000 0 0 1
-33.214640 11.140054 -9.306144 36.247999 -0.323606 1.830439 -0.000305 0.014321 -359636.000000 0 0 1
-33.951710 12.113854 -8.611144 37.062324 -0.342717 1.805281 0.010305 0.009985 -1301390.000000 0 0 1
-33.229060 12.999354 -7.619944 36.485849 -0.372901 1.781192 0.007809 0.006594 -538993.000000 0 0 1
-32.520230 13.981454 -8.352844 36.370543 -0.406040 1.802524 -0.005663 0.003067 28531.000000 0 0 1
-31.713380 14.814554 -7.533544 35.804521 -0.437015 1.782788 -0.021560 0.006258 161872.000000 0 0 1
-30.820860 15.815854 -8.301444 35.622754 -0.474116 1.805997 -0.029385 0.005577 163533.000000 0 0 1
-31.631070 16.798654 -8.939544 36.913883 -0.488202 1.815401 -0.026917 0.006269 -48167.900000 0 0 1
-30.946110 18.011354 -9.093444 36.942676 -0.527096 1.819502 -0.033388 0.008153 -212295.000000 0 0 1
-31.567760 19.100054 -9.944644 38.212975 -0.544124 1.834070 -0.040874 0.003338 -77084.200000 0 0 1
-31.257790 18.848854 -11.259944 38.198364 -0.542632 1.870017 -0.048325 0.005661 -280875.000000 0 0 1
-32.212030 19.451054 -12.074744 39.519081 -0.543241 1.881304 -0.049069 -0.004101 -502711.000000 0 0 1
-31.816920 19.391254 -13.559444 39.650922 -0.547349 1.919809 -0.041177 0.009666 -172957.000000 0 0 1
-30.824120 20.349854 -13.837944 39.442763 -0.583507 1.929260 -0.040868 0.004491 -74110.800000 0 0 1
-30.835870 20.630854 -15.242644 40.110113 -0.589653 1.960614 -0.051297 0.009954 -568453.000000 0 0 1
-29.959710 21.852154 -15.625844 40.240127 -0.630176 1.969599 -0.036739 0.000115 -596222.000000 0 0 1
-28.607360 21.679054 -15.280644 39.011030 -0.648483 1.973275 -0.034273 0.001157 144266.000000 0 0 1
-27.901070 22.929554 -15.192744 39.179760 -0.687903 1.969008 -0.021672 -0.002782 -68629.300000 0 0 1
-27.344980 23.418554 -16.563944 39.630049 -0.708204 2.002000 -0.027537 -0.004439 -925778.000000 0 0 1
-28.296200 24.105254 -17.382044 41.035029 -0.705590 2.008202 -0.027930 0.005651 470988.000000 0 0 1
-27.613670 24.801454 -18.406044 41.429570 -0.731797 2.031159 -0.025509 0.008072 195030.000000 0 0 1
-26.945760 26.201454 -18.093344 41.712819 -0.771394 2.019458 -0.014781 0.002877 734207.000000 0 0 1
-27.917270 27.197954 -17.802444 42.848916 -0.772348 1.999256 -0.015483 0.001785 305129.000000 0 0 1
-27.291620 28.450454 -17.849444 43.276593 -0.806184 1.995938 -0.006253 0.003657 -53098.200000 0 0 1
-28.026390 29.554154 -17.114444 44.179528 -0.811925 1.968589 -0.007715 0.001934 -742243.000000 0 0 1
-28.066190 29.473054 -15.712344 43.626250 -0.809844 1.939234 -0.010595 0.001432 -1160830.000000 0 0 1
-26.914430 29.606154 -14.999344 42.730448 -0.832986 1.929459 -0.006524 0.002029 -1340190.000000 0 0 1
-27.180030 30.377354 -13.683044 42.997248 -0.840891 1.894659 -0.004259 -0.003181 -142745.000000 0 0 1
-27.010560 31.805754 -13.751144 43.934841 -0.866747 1.889135 0.004870 0.001240 145259.000000 0 0 1
-27.422600 32.516854 -12.584044 44.358797 -0.870184 1.858434 -0.000250 -0.004047 116036.000000 0 0 1
-26.738830 33.913454 -12.486844 44.955630 -0.903142 1.852257 -0.008260 -0.005072 -15571.500000 0 0 1
-27.085910 -34.609784 -13.557344 45.992230 0.906750 1.870016 -0.014784 -0.015736 -289251.000000 0 0 1
-26.285400 -33.458284 -13.726144 44.707785 0.904887 1.882856 -0.000115 -0.015572 -142099.000000 0 0 1
-26.366460 -32.806984 -15.087244 44.711445 0.893813 1.914988 -0.006781 -0.014768 255659.000000 0 0 1
-25.887690 -33.578784 -16.212444 45.393287 0.914019 1.936017 -0.011865 -0.016198 17926.500000 0 0 1
-26.345410 -32.864184 -17.347244 45.552849 0.895053 1.961475 -0.014191 0.003907 -56143.000000 0 0 1
-25.678940 -33.368884 -18.624344 46.040814 0.914902 1.987248 -0.015435 0.009278 -406417.000000 0 0 1
-25.999550 -34.640984 -19.081744 47.329560 0.926948 1.985772 -0.015579 0.019740 -328830.000000 0 0 1
-25.398630 33.713954 -18.320044 46.014618 -0.925150 1.980280 -0.021277 0.007050 -892971.000000 0 0 1
-25.321570 32.325154 -18.991444 45.241269 -0.906297 2.004001 -0.020360 -0.008730 -763398.000000 0 0 1
-26.533960 31.745454 -19.348344 45.674755 -0.874584 2.008225 -0.007029 0.002808 -752635.000000 0 0 1
-26.998270 32.237354 -20.598644 46.823687 -0.873613 2.026305 -0.002356 0.005360 -323080.000000 0 0 1
-28.537070 32.144954 -20.649144 47.686995 -0.844784 2.018630 -0.003465 -0.004042 -42929.700000 0 0 1
-28.928550 30.797754 -20.829244 47.108598 -0.816684 2.028795 -0.010786 -0.007041 -63853.700000 0 0 1
-30.306180 30.573554 -20.997644 47.896845 -0.789790 2.024606 -0.006503 -0.006330 -234732.000000 0 0 1
-30.576230 29.256354 -21.712044 47.563146 -0.763342 2.044841 -0.007633 -0.010699 2778.680000 0 0 1
-31.919280 28.807754 -21.837644 48.224576 -0.734205 2.040736 0.002533 -0.014839 412606.000000 0 0 1
-31.934160 27.531554 -22.451944 47.768889 -0.711497 2.060101 0.004160 -0.016199 -839102.000000 0 0 1
-33.291540 26.845054 -22.526344 48.336525 -0.678609 2.055596 0.040492 -0.011104 -424212.000000 0 0 1
-34.190177 27.609154 -23.311144 49.745783 -0.679308 2.058508 0.017015 -0.010514 -561951.000000 0 0 1
34.829350 26.805754 -23.739244 49.951814 0.655947 2.066036 0.029790 -0.013066 316137.000000 0 0 1
33.821315 27.626954 -24.634244 50.139564 0.684931 2.084393 0.031867 -0.015948 557738.000000 0 0 1
34.375892 27.739754 -25.916594 51.213921 0.678967 2.101390 0.028563 -0.006226 109616.000000 0 0 1
33.376255 28.043754 -26.867114 51.208088 0.698795 2.123118 0.027719 -0.007127 26275.400000 0 0 1
34.005045 28.426554 -28.207164 52.536236 0.696281 2.137565 0.017143 -0.012138 87214.100000 0 0 1
34.644199 27.332554 -28.846434 52.720070 0.667967 2.149767 0.014581 -0.000067 38676.100000 0 0 1
-34.719752 27.824254 -29.974274 53.647995 -0.675591 2.163639 0.002032 0.002875 -793512.000000 0 0 1
-34.256907 26.630254 -30.881674 53.257712 -0.660788 2.189345 -0.004678 0.006502 621669.000000 0 0 1
-33.150540 25.887854 -30.374394 51.882011 -0.662997 2.196233 0.011854 -0.000409 -35962.700000 0 0 1
-31.911090 26.524254 -30.430834 51.457646 -0.693473 2.203561 -0.007170 0.014826 -137765.000000 0 0 1
-30.704920 25.892954 -29.635904 49.915167 -0.700582 2.206477 -0.009815 -0.000451 428307.000000 0 0 1
-30.363570 24.503554 -29.974904 49.202290 -0.678998 2.225870 0.016701 -0.001098 235080.000000 0 0 1
-31.152550 23.512854 -29.345364 48.831199 -0.646544 2.215492 0.010965 -0.000240 -148687.000000 0 0 1
-30.898580 22.123754 -30.046324 48.445477 -0.621392 2.239806 -0.001765 -0.001898 -490544.000000 0 0 1
-29.569220 21.754654 -29.828394 47.300494 -0.634299 2.253141 0.015521 0.007403 -372195.000000 0 0 1
-29.393170 20.376954 -30.256414 46.846870 -0.606185 2.272943 0.013059 0.000608 -115479.000000 0 0 1
-27.985250 19.736954 -30.256584 45.696634 -0.614249 2.294438 0.034355 -0.007373 -560085.000000 0 0 1
-27.225990 20.068454 -31.379444 46.137478 -0.635198 2.318735 0.047794 -0.021150 -308616.000000 0 0 1
-26.102680 19.212154 -31.412754 45.135550 -0.634495 2.340559 0.049962 -0.022891 -168408.000000 0 0 1
-26.308840 17.845754 -32.149004 45.212658 -0.596025 2.361804 0.044654 -0.011973 -274877.000000 0 0 1
-26.971690 16.810854 -31.422114 44.692573 -0.557360 2.350505 0.014286 -0.002142 233097.000000 0 0 1
-27.095260 15.656654 -32.239494 44.929599 -0.523964 2.371083 -0.009197 0.005414 -53141.000000 0 0 1
-27.515780 14.334154 -31.555934 44.253396 -0.480261 2.364669 -0.004271 0.007075 -68181.900000 0 0 1
-28.813610 14.288154 -31.012954 44.678616 -0.460348 2.338013 -0.012310 0.004054 -236656.000000 0 0 1
-29.435820 13.046554 -30.958244 44.666463 -0.417202 2.336575 -0.025799 0.009125 -338006.000000 0 0 1
-29.008020 12.036554 -29.889764 43.355989 -0.393318 2.331461 -0.036442 0.001739 -459105.000000 0 0 1
-29.214090 12.493854 -28.545854 42.713290 -0.404126 2.302735 -0.036263 0.012042 167835.000000 0 0 1
-29.080060 11.402954 -27.693084 41.744270 -0.373697 2.296148 -0.030938 0.006294 -60498.300000 0 0 1
-29.114950 11.930854 -26.212804 40.952859 -0.388913 2.265389 -0.035657 0.012836 -349666.000000 0 0 1
-27.892280 12.516254 -25.882034 40.056404 -0.421802 2.273312 -0.033161 0.001611 -330296.000000 0 0 1
-28.039170 13.311854 -24.733444 39.688080 -0.443252 2.243619 -0.032732 0.003010 367341.000000 0 0 1
-26.678940 13.893354 -24.235644 38.628455 -0.480118 2.249011 -0.034779 0.008379 -43962.900000 0 0 1
-26.046380 14.792154 -25.153694 39.114320 -0.516494 2.269312 -0.029294 0.001247 -65596.200000 0 0 1
-24.703430 15.133154 -24.927344 38.218376 -0.549628 2.281325 -0.007918 -0.003546 -39606.000000 0 0 1
-24.325630 15.796654 -23.596744 37.390866 -0.575941 2.253745 -0.002573 0.001363 -1131610.000000 0 0 1
-24.758730 17.141354 -23.426844 38.152820 -0.605564 2.231948 0.013179 -0.000024 112593.000000 0 0 1
-24.603530 17.533854 -22.059544 37.408464 -0.619170 2.201476 0.010500 0.001182 -330735.000000 0 0 1
-25.995640 17.638054 -21.433144 38.029645 -0.596151 2.169522 -0.008091 0.015879 -226105.000000 0 0 1
-26.665220 16.357154 -21.499544 37.958145 -0.550234 2.172929 -0.011743 0.016336 -541319.000000 0 0 1
-27.807770 16.513754 -20.730744 38.415360 -0.535888 2.140814 -0.019577 0.024794 -2253840.000000 0 0 1
-28.743610 15.345954 -20.744144 38.626583 -0.490391 2.137724 -0.046568 0.016313 -408444.000000 0 0 1
-29.251970 15.041654 -22.045544 39.597160 -0.474951 2.161259 -0.046639 0.023691 -240548.000000 0 0 1
-30.217520 15.908054 -22.511744 40.901629 -0.484584 2.153625 -0.061010 0.019955 -1264440.000000 0 0 1
-30.456670 15.887154 -24.063544 41.941203 -0.480803 2.181867 -0.044840 0.025015 41792.000000 0 0 1
-31.349290 14.847854 -24.481344 42.456718 -0.442327 2.185381 -0.042846 0.022188 171655.000000 0 0 1
-31.808610 15.057254 -25.806384 43.640325 -0.442118 2.203519 -0.013852 0.012233 135338.000000 0 0 1
-33.186520 14.359954 -25.971934 44.520722 -0.408378 2.193665 -0.018609 0.006793 144838.000000 0 0 1
-33.177240 12.981154 -26.178034 44.210056 -0.372955 2.204494 -0.012613 0.010645 37717.000000 0 0 1
-32.934730 12.238054 -24.945544 43.089982 -0.355773 2.188197 -0.021626 0.008066 -272551.000000 0 0 1
-32.878780 10.727654 -25.218404 42.802624 -0.315388 2.200839 -0.008035 0.000326 22567.000000 0 0 1
-34.120509 10.223654 -25.667684 43.904011 -0.291121 2.195223 0.005763 -0.005353 140322.000000 0 0 1
-33.951620 8.941054 -26.235374 43.828641 -0.257500 2.212536 0.002143 -0.003850 1171920.000000 0 0 1
34.746337 8.403154 -26.822074 44.691661 0.237287 2.214495 0.018261 -0.004654 1140950.000000 0 0 1
33.944785 7.932654 -25.767634 43.349122 0.229573 2.207342 0.001296 0.005116 -214074.000000 0 0 1
32.759415 7.358054 -26.290514 42.644007 0.220942 2.235100 0.007612 0.001135 -96566.800000 0 0 1
32.033745 6.407954 -25.390594 41.375173 0.197432 2.231493 0.006112 0.000065 -178411.000000 0 0 1
32.858375 5.325254 -24.974844 41.614588 0.160670 2.214480 0.002677 -0.007367 193113.000000 0 0 1
32.145215 4.311054 -24.232744 40.486120 0.133316 2.212479 0.000385 -0.003927 229572.000000 0 0 1
33.026275 3.419854 -23.302744 40.564123 0.103182 2.182749 -0.011486 0.001263 -53488.700000 0 0 1
33.736285 2.458154 -24.026044 41.490122 0.072735 2.188394 -0.005619 -0.006402 -253091.000000 0 0 1
34.676868 1.750154 -23.284944 41.805942 0.050428 2.161538 -0.001905 -0.006475 -237813.000000 0 0 1
-34.617858 0.704454 -24.059944 42.163648 -0.020347 2.178072 0.010430 -0.006369 -371549.000000 0 0 1
34.701739 -0.437246 -24.202444 42.310284 -0.012599 2.179766 0.008788 -0.014403 -207215.000000 0 0 1
-34.617543 -1.478646 -24.732344 42.570524 0.042688 2.190720 0.014218 -0.015521 42408.900000 0 0 1
-22.269930 29.558454 27.997233 46.405787 -0.925110 0.923147 -0.006561 0.000015 -866916.000000 0 0 1
-23.403130 29.926254 27.232733 46.743009 -0.907111 0.948866 -0.013504 -0.006372 384989.000000 0 0 1
-23.390330 29.521954 25.902903 45.712292 -0.900766 0.968361 -0.016030 0.000993 -575247.000000 0 0 1
-23.594730 28.012254 25.803313 44.801882 -0.870789 0.957040 -0.007362 -0.003758 1456050.000000 0 0 1
-24.991530 27.618854 26.082573 45.471730 -0.835296 0.959903 -0.006697 -0.006202 1970500.000000 0 0 1
-25.378890 27.324454 27.423963 46.290254 -0.822297 0.936718 0.001930 -0.011650 -804562.000000 0 0 1
-24.903430 25.943554 27.974993 45.561486 -0.805851 0.909671 0.019218 -0.011618 220810.000000 0 0 1
-23.551030 25.911254 28.404373 45.087165 -0.833080 0.889259 0.015220 -0.002701 30289.600000 0 0 1
-23.347130 26.604754 29.687943 46.198218 -0.850521 0.872882 0.019599 -0.014371 -71418.800000 0 0 1
-21.958530 26.342854 30.297083 45.760640 -0.875920 0.847209 0.033868 -0.010139 381264.000000 0 0 1
-20.770630 26.839754 29.688213 45.090813 -0.912189 0.852093 0.024547 -0.010544 103756.000000 0 0 1
-19.589030 26.462354 30.319543 44.757803 -0.933558 0.826555 0.032623 -0.010880 -54478.000000 0 0 1
-18.952430 25.084054 29.931813 43.408729 -0.923748 0.809950 0.038989 -0.011073 -106528.000000 0 0 1
-18.303030 25.129254 28.648193 42.275280 -0.941292 0.826223 0.030351 -0.005965 -154574.000000 0 0 1
-18.872030 24.300154 27.699343 41.399331 -0.910474 0.837830 0.037916 -0.007722 -734536.000000 0 0 1
-18.664330 22.789554 27.817843 40.516088 -0.884585 0.814011 0.033605 -0.000612 150057.000000 0 0 1
-19.379730 22.188754 28.894863 41.265335 -0.852871 0.795089 0.034027 0.000218 207846.000000 0 0 1
-19.203930 20.813754 28.787773 40.382411 -0.825604 0.777201 0.042603 -0.000301 138403.000000 0 0 1
-19.622030 20.166354 30.148273 41.238626 -0.799078 0.750909 0.047464 -0.004183 -48686.200000 0 0 1
-18.701830 20.468354 31.145823 41.698612 -0.830466 0.727368 0.041341 -0.012406 -238729.000000 0 0 1
-19.193830 20.051454 32.381593 42.650105 -0.807248 0.708654 0.047237 -0.004933 -160566.000000 0 0 1
-18.383630 20.629954 33.532787 43.451129 -0.842913 0.689230 0.040429 -0.008968 -786752.000000 0 0 1
-18.574230 22.015354 33.786080 44.397939 -0.869974 0.705969 0.027068 -0.017960 -347167.000000 0 0 1
-17.780230 22.914654 33.082703 43.996400 -0.910904 0.719795 0.036007 0.000133 -134242.000000 0 0 1
-16.281330 22.958654 33.493920 43.749562 -0.953950 0.698849 0.023112 -0.000501 266789.000000 0 0 1
-15.547930 21.778454 33.107956 42.569660 -0.950793 0.679740 0.021199 -0.019286 -228386.000000 0 0 1
-14.252330 21.852054 33.665497 42.591159 -0.992863 0.659279 -0.009395 -0.013004 -78331.600000 0 0 1
-13.303730 20.626854 33.454885 41.493200 -0.997964 0.632970 -0.017906 -0.002361 829027.000000 0 0 1
-11.971430 20.629854 33.971042 41.508285 -1.044991 0.612147 -0.026407 -0.000369 552190.000000 0 0 1
-11.918130 20.532154 -33.783914 41.291209 -1.044867 2.529046 -0.011453 -0.003208 -852655.000000 0 0 1
-10.515630 20.411254 -33.201754 40.367737 -1.095072 2.536558 -0.026938 0.000996 -44887.500000 0 0 1
-9.737430 21.604354 -33.317564 40.885519 -1.147347 2.523351 -0.026199 -0.003037 -625685.000000 0 0 1
-8.463130 21.420554 -32.785264 40.066672 -1.194527 2.529187 -0.029876 0.006223 -434598.000000 0 0 1
-7.616330 22.699554 -32.779524 40.592800 -1.247072 2.510733 -0.033070 0.009780 -179224.000000 0 0 1
-7.994530 23.650454 -31.772114 40.406976 -1.244826 2.475598 -0.025041 0.005620 197431.000000 0 0 1
-7.562030 23.352254 -30.449114 39.110875 -1.257628 2.463122 -0.018041 -0.005258 -376691.000000 0 0 1
-7.314330 24.640254 -29.635464 39.228844 -1.282237 2.427138 -0.012841 -0.009904 26580.000000 0 0 1
-6.197930 25.389554 -30.072144 39.841908 -1.331366 2.426125 -0.016255 0.005500 52527.500000 0 0 1
-5.924330 26.601754 -29.400474 40.089136 -1.351668 2.394073 -0.010779 0.004368 -305058.000000 0 0 1
-4.609630 27.244354 -29.855914 40.680205 -1.403188 2.394868 -0.018678 0.008579 -401164.000000 0 0 1
-3.469730 26.717054 -29.195104 39.726491 -1.441650 2.396319 -0.015620 0.009117 -3317.710000 0 0 1
-2.261030 27.152654 -29.767624 40.354557 -1.487717 2.400383 -0.015277 0.012683 18917.000000 0 0 1
-1.707230 28.502654 -29.248404 40.875237 -1.510971 2.368212 -0.021144 0.019513 -528944.000000 0 0 1
-1.198430 28.392254 -27.921594 39.839324 -1.528612 2.347392 -0.018944 0.010412 604497.000000 0 0 1
-0.505630 29.569154 -27.462294 40.357999 -1.553698 2.319196 -0.022227 0.011805 -481126.000000 0 0 1
0.263470 29.291054 -26.172424 39.281433 1.561802 2.300005 -0.010625 -0.004150 110063.000000 0 0 1
1.272270 28.268854 -26.198014 38.562711 1.525821 2.317688 0.000179 -0.015840 335011.000000 0 0 1
2.521870 28.698054 -26.685594 39.269059 1.483145 2.317956 0.003017 -0.016456 -723876.000000 0 0 1
3.524570 28.866354 -25.534344 38.700022 1.449298 2.291351 0.011666 -0.020994 -694648.000000 0 0 1
3.874070 27.593254 -25.026044 37.452623 1.431309 2.302590 0.018904 -0.023241 20546.700000 0 0 1
4.827270 27.715854 -24.002944 36.981244 1.398356 2.277141 0.012076 -0.018424 -416330.000000 0 0 1
5.399370 26.358654 -23.553544 35.758932 1.368749 2.289854 0.019339 -0.025092 599175.000000 0 0 1
6.702570 26.603554 -22.990144 35.794137 1.323990 2.268276 0.004164 -0.026687 743591.000000 0 0 1
7.478070 25.439354 -22.670244 34.885845 1.284893 2.278171 0.003294 -0.013373 717748.000000 0 0 1
8.917570 25.845554 -22.265544 35.260036 1.238553 2.254240 -0.011546 -0.002304 -26121.800000 0 0 1
9.030870 26.168354 -20.844944 34.653298 1.238488 2.216209 -0.004706 -0.003974 470234.000000 0 0 1
10.356070 26.529354 -20.432044 35.050295 1.198625 2.193133 0.003947 -0.003837 1094010.000000 0 0 1
11.263370 25.331354 -19.923144 34.139019 1.152407 2.193937 -0.006647 0.010641 369529.000000 0 0 1
11.658070 24.474454 -20.990744 34.285869 1.126258 2.229671 -0.008564 0.007352 -39558.500000 0 0 1
11.618870 23.157654 -20.608644 33.105759 1.105766 2.242741 -0.012411 0.008914 -726316.000000 0 0 1
11.774970 22.204654 -21.845144 33.300253 1.083209 2.286310 -0.023878 0.015587 -778992.000000 0 0 1
10.961370 22.508554 -22.936844 33.954167 1.117613 2.312471 -0.023055 -0.000557 -167623.000000 0 0 1
11.099070 21.594754 -24.008644 34.145830 1.096035 2.350573 -0.031774 0.002944 -412646.000000 0 0 1
10.308570 21.867454 -25.290334 34.986471 1.130280 2.378729 -0.012200 -0.004698 -271842.000000 0 0 1
8.968270 21.502654 -25.066164 34.221434 1.175655 2.392739 -0.016899 -0.004478 -168431.000000 0 0 1
8.256970 21.406354 -26.306594 34.906252 1.202656 2.424372 -0.023406 -0.003546 509230.000000 0 0 1
6.786470 20.893254 -26.160124 34.160449 1.256731 2.443083 -0.012018 -0.014075 302914.000000 0 0 1
5.800770 21.718954 -25.614484 34.080253 1.309805 2.421270 0.005079 -0.016378 -207761.000000 0 0 1
5.897070 22.053754 -24.245644 33.301572 1.309514 2.386288 0.012501 -0.015084 316272.000000 0 0 1
4.471470 22.323354 -23.630344 32.813401 1.373108 2.374805 0.025815 -0.018709 1026230.000000 0 0 1
3.937170 23.646554 -23.813644 33.789798 1.405809 2.352879 0.017595 -0.025746 999871.000000 0 0 1
2.504470 23.717554 -23.645144 33.584037 1.465591 2.351894 0.025922 -0.023913 885950.000000 0 0 1
2.013570 24.890554 -24.497644 34.981833 1.490075 2.346609 0.013594 -0.011745 166067.000000 0 0 1
0.642270 24.727754 -24.877044 35.081927 1.544829 2.359035 0.020631 -0.032172 719225.000000 0 0 1
0.523570 25.245254 -26.173654 36.368353 1.550060 2.374141 0.011179 -0.027939 129531.000000 0 0 1
-0.969730 25.123754 -26.549864 36.565539 -1.532217 2.383414 0.019222 -0.022173 -9592.230000 0 0 1
-1.356130 23.876454 -26.999714 36.068111 -1.514059 2.416708 0.035636 -0.028143 -1206820.000000 0 0 1
-2.655330 23.922254 -27.442004 36.501898 -1.460251 2.421579 0.037960 -0.015266 -878956.000000 0 0 1
-3.252430 22.522454 -27.804944 35.929850 -1.427379 2.455721 0.034961 -0.018662 -24396.500000 0 0 1
-2.538630 21.933054 -28.906354 36.374177 -1.455565 2.489300 0.047755 -0.013153 157111.000000 0 0 1
-2.974430 20.649454 -29.220894 35.904147 -1.427736 2.521558 0.031480 -0.004232 154858.000000 0 0 1
-4.206030 20.480454 -30.171824 36.708018 -1.368245 2.535607 0.014976 0.003037 141472.000000 0 0 1
-4.076130 20.961954 -31.505774 38.060900 -1.378739 2.545923 0.009059 0.007941 -148271.000000 0 0 1
-3.868130 22.379754 -31.708794 39.003377 -1.399647 2.520040 0.019962 0.001275 -211440.000000 0 0 1
-3.462930 22.712954 -33.172704 40.352180 -1.419497 2.535850 0.002729 0.008454 27698.600000 0 0 1
-2.250030 22.061154 -33.466764 40.146997 -1.469157 2.556400 -0.008844 0.006278 61605.600000 0 0 1
-1.653430 22.513054 34.488919 41.219619 -1.497485 0.579546 -0.020424 0.023403 98638.900000 0 0 1
-0.548330 21.620854 33.924066 40.231881 -1.545441 0.567563 -0.022400 0.024440 41163.900000 0 0 1
-1.116830 20.392154 33.519655 39.251172 -1.516083 0.547212 -0.033054 0.021158 374170.000000 0 0 1
-0.157030 19.688554 32.745153 38.208754 -1.562821 0.541364 -0.021731 0.018061 43713.700000 0 0 1
-0.410630 18.199354 32.431683 37.191386 -1.548237 0.511479 -0.031281 0.027853 -142783.000000 0 0 1
-1.196530 18.027154 31.261193 36.106400 -1.504520 0.524034 -0.042453 0.025615 211254.000000 0 0 1
-1.497430 16.664554 31.053073 35.273829 -1.481180 0.494211 -0.039910 0.024792 7854.780000 0 0 1
-2.482930 16.434654 29.858973 34.173397 -1.420851 0.507938 -0.036580 0.027255 -227064.000000 0 0 1
-3.798930 16.843354 30.028493 34.638719 -1.348963 0.521836 -0.048158 0.024791 -546011.000000 0 0 1
-4.081530 18.164754 29.633453 34.996553 -1.349772 0.560944 -0.046950 0.030138 -938601.000000 0 0 1
-5.545330 18.563954 29.667383 35.433384 -1.280519 0.578521 -0.039483 0.028850 -812293.000000 0 0 1
-6.261330 17.867154 28.729293 34.406565 -1.233731 0.582674 -0.043390 0.031270 -185207.000000 0 0 1
-7.631930 18.261854 28.713093 34.873821 -1.174941 0.603521 -0.042822 0.034089 35424.400000 0 0 1
-8.554830 17.367654 27.854123 33.921567 -1.113108 0.607403 -0.035636 0.023571 -149403.000000 0 0 1
-8.804030 16.031354 28.348513 33.736530 -1.068586 0.572976 -0.024412 0.005297 -141452.000000 0 0 1
-9.421030 16.002754 29.619883 34.959711 -1.038717 0.559995 -0.022198 0.007499 -404645.000000 0 0 1
-10.146530 14.618154 29.870703 34.769259 -0.964038 0.537263 -0.014826 0.002732 649327.000000 0 0 1
-9.270030 13.447954 29.888923 34.060661 -0.967270 0.500130 -0.013720 0.006227 1018690.000000 0 0 1
-8.334530 13.339854 30.988213 34.751769 -1.012352 0.469705 -0.018426 0.006854 -28813.800000 0 0 1
-8.920730 13.144854 32.365743 36.054236 -0.974545 0.456284 0.007183 -0.003924 -780253.000000 0 0 1
-9.259530 11.821254 32.713813 35.995479 -0.906325 0.430323 0.003082 0.002407 102901.000000 0 0 1
-9.545330 11.727154 34.102875 37.304766 -0.887606 0.417342 0.003974 0.009629 -482924.000000 0 0 1
-9.866730 10.335854 34.545917 37.384524 -0.808615 0.392201 0.000244 0.003637 -323419.000000 0 0 1
-8.767930 9.467554 34.361487 36.704536 -0.823745 0.359239 0.004132 -0.003242 54003.500000 0 0 1
-8.558230 8.493854 -33.748874 35.838182 -0.781623 2.798449 0.024113 -0.007373 -39333.200000 0 0 1
-7.739130 8.988754 -32.550874 34.644642 -0.859963 2.792152 0.036067 -0.010184 -237637.000000 0 0 1
-8.429230 9.919454 -31.713644 34.281229 -0.866437 2.752101 0.045743 -0.009768 325310.000000 0 0 1
-7.540530 10.754254 -30.987854 33.656509 -0.959287 2.740690 0.039575 -0.008099 -2933.960000 0 0 1
-6.789830 11.876154 -31.706484 34.531810 -1.051431 2.734263 0.016554 -0.003396 61447.400000 0 0 1
-7.537730 13.078754 -31.992304 35.374831 -1.047960 2.700722 0.036353 -0.009243 364707.000000 0 0 1
-6.660930 14.053154 -32.455044 35.988734 -1.128180 2.694739 0.007412 -0.004636 55531.700000 0 0 1
-7.489230 15.294154 -32.872224 37.021383 -1.115439 2.663611 -0.003875 0.002522 168676.000000 0 0 1
-8.154930 15.251654 -34.121212 38.254057 -1.079782 2.672465 -0.003325 -0.001044 63992.900000 0 0 1
-8.478330 16.603654 -34.407790 39.133865 -1.098681 2.645046 -0.004255 -0.005665 -605002.000000 0 0 1
-9.231330 16.923454 33.404657 38.568016 -1.071433 0.523403 -0.013736 -0.005990 2300020.000000 0 0 1
-10.549130 16.334554 33.082033 38.373463 -0.997367 0.531383 -0.008180 -0.001247 2075190.000000 0 0 1
-11.559030 16.664754 34.042092 39.625613 -0.964364 0.537301 0.000032 -0.017402 -471816.000000 0 0 1
-12.977330 16.553154 33.427883 39.494827 -0.905901 0.561633 0.002925 -0.021263 140037.000000 0 0 1
-13.592130 15.292654 33.096593 38.910098 -0.844203 0.553687 -0.010396 -0.014875 516114.000000 0 0 1
-13.736830 14.259454 34.076228 39.410935 -0.804064 0.526365 0.014146 -0.010469 -347347.000000 0 0 1
-12.970630 12.965254 33.702413 38.369098 -0.785191 0.498347 -0.011564 0.001701 -266074.000000 0 0 1
-13.356030 12.497954 32.422913 37.226706 -0.752221 0.513647 -0.027153 -0.000834 -26719.900000 0 0 1
-12.333930 11.772554 31.795463 36.078668 -0.762115 0.492229 -0.021047 0.003744 -727635.000000 0 0 1
-12.587530 11.367054 30.322663 34.743628 -0.734493 0.509979 -0.011993 0.007717 -271414.000000 0 0 1
-13.213630 10.125754 30.203983 34.487846 -0.653859 0.503734 -0.025468 0.009583 30561.800000 0 0 1
-13.253830 9.786554 28.801853 33.181130 -0.636032 0.519598 -0.037836 0.011357 424940.000000 0 0 1
-14.161830 8.514554 28.503993 32.947423 -0.541325 0.525375 -0.028616 0.013793 733020.000000 0 0 1
-13.547530 7.270154 28.804533 32.651062 -0.492529 0.490297 -0.051019 0.019906 644669.000000 0 0 1
-14.517030 6.249454 28.496313 32.585882 -0.406513 0.506395 -0.031109 0.020144 781130.000000 0 0 1
-13.855330 4.837754 28.422513 31.987705 -0.335928 0.476633 -0.030280 0.019343 -202413.000000 0 0 1
-13.027030 4.627454 27.346983 30.642688 -0.341317 0.468055 -0.031391 0.011664 -285186.000000 0 0 1
-13.727430 4.503754 26.075243 29.810140 -0.317019 0.505958 -0.022428 0.009218 305193.000000 0 0 1
-12.764330 4.396954 24.863983 28.292737 -0.331742 0.497431 -0.017709 0.021646 -187227.000000 0 0 1
-11.960830 3.242954 24.820673 27.742459 -0.264766 0.463078 -0.025641 0.014293 37736.100000 0 0 1
-11.293430 3.066754 23.581433 26.325473 -0.265158 0.460648 -0.015995 0.011089 -56443.000000 0 0 1
-10.536030 1.663654 23.573933 25.874814 -0.156608 0.424909 -0.010330 -0.003047 6970.560000 0 0 1
-9.234630 1.908754 24.038933 25.822317 -0.203825 0.373828 0.003924 -0.008992 -258774.000000 0 0 1
-8.433330 0.737854 24.155043 25.595538 -0.087270 0.337091 0.000313 -0.003427 926815.000000 0 0 1
-6.889730 1.004154 24.194293 25.176190 -0.144727 0.280204 0.022649 -0.007359 186956.000000 0 0 1
-6.435730 1.504654 22.990633 23.921785 -0.229672 0.279929 0.029623 -0.006994 334500.000000 0 1 0
-5.030430 1.795254 22.960033 23.573105 -0.342790 0.228564 0.023829 -0.007177 817694.000000 0 1 0
-4.592530 3.116554 23.619433 24.262767 -0.596228 0.230795 0.043887 -0.005392 -672172.000000 0 1 0
-4.669330 3.074854 25.018643 25.635715 -0.582342 0.219854 0.045967 -0.003993 -36964.000000 0 0 1
-4.243330 4.327954 25.550493 26.259564 -0.795271 0.232915 0.043843 -0.013033 198234.000000 0 0 1
3.611670 -23.828546 13.056256 27.410027 -1.420372 1.074319 0.026511 -0.002104 193306.000000 0 0 1
3.406470 -24.902846 13.904156 28.724229 -1.434850 1.065511 0.025355 -0.009086 -328049.000000 0 0 1
2.126370 -25.425706 13.630956 28.927339 -1.487360 1.080130 0.004783 0.000950 71761.900000 0 0 1
1.979370 -26.763036 14.314456 30.415155 -1.496972 1.080785 -0.002723 0.007819 -83028.600000 0 0 1
1.920470 -26.693436 15.716456 31.036023 -1.498975 1.039799 -0.001205 0.005671 -86869.800000 0 0 1
1.939270 -27.999916 16.319556 32.466660 -1.501647 1.044128 -0.007343 0.011152 -95168.000000 0 0 1
1.538470 -27.974266 17.850556 33.220006 -1.515856 1.003512 -0.032835 0.017724 47326.700000 0 0 1
2.442870 -27.217966 18.632856 33.075197 -1.481284 0.972364 -0.011903 0.010893 126312.000000 0 0 1
2.404170 -27.644186 19.979856 34.193212 -1.484046 0.946752 -0.021243 0.010722 -13549.600000 0 0 1
3.132470 -26.643316 20.899556 34.006913 -1.453763 0.908958 -0.019739 0.018228 265564.000000 0 0 1
2.358570 -25.481486 21.241156 33.257416 -1.478499 0.878003 -0.025064 0.013491 409911.000000 0 0 1
3.125770 -24.610446 22.064056 33.200408 -1.444463 0.843876 -0.001547 -0.004448 287473.000000 0 0 1
2.356570 -23.330246 22.458556 32.469071 -1.470129 0.806969 0.000587 -0.005891 247162.000000 0 0 1
1.952170 -22.375346 21.420556 31.037193 -1.483770 0.809089 -0.006806 -0.001667 405203.000000 0 0 1
3.097870 -21.688446 20.929656 30.299109 -1.428921 0.808246 -0.003327 0.002810 205688.000000 0 0 1
2.745770 -20.448746 20.023756 28.751370 -1.437319 0.800364 -0.006091 -0.000968 10800.500000 0 0 1
2.164370 -19.376146 20.818356 28.522333 -1.459555 0.752626 -0.015655 0.000483 -86763.800000 0 0 1
1.435470 -18.625946 19.907556 27.300133 -1.493880 0.753628 -0.024805 -0.004334 -392104.000000 0 0 1
1.038470 -17.241846 20.403456 26.733139 -1.510639 0.702503 -0.021451 -0.003266 235773.000000 0 0 1
2.114170 -16.337746 20.666056 26.428726 -1.442107 0.673001 -0.039024 0.014092 339070.000000 0 0 1
1.582070 -15.074446 21.050956 25.940020 -1.466229 0.624040 -0.031069 0.011934 363372.000000 0 0 1
2.712070 -14.037246 21.013056 25.415510 -1.379943 0.597436 -0.033519 0.024231 -743054.000000 0 0 1
3.083170 -13.508846 19.736356 24.114697 -1.346406 0.612111 -0.039237 0.020738 329302.000000 0 1 0
2.161670 -12.884546 18.768556 22.867948 -1.404572 0.608098 -0.033896 0.011340 429866.000000 0 1 0
1.380170 -11.657746 19.209256 22.512296 -1.452954 0.548556 -0.024092 0.001075 -504201.000000 0 1 0
2.008570 -10.442646 18.884356 21.672613 -1.380774 0.512856 -0.023153 -0.003173 -244466.000000 0 1 0
1.584470 -9.366946 19.706756 21.877077 -1.403227 0.449200 -0.022973 -0.011264 -338930.000000 0 1 0
0.104170 -9.028846 19.843456 21.801231 -1.559259 0.427032 -0.010652 -0.012957 -766190.000000 0 1 0
-0.091430 -8.022746 20.820856 22.313244 1.559401 0.367812 -0.001137 -0.019020 -630512.000000 0 1 0
-1.447930 -7.723746 20.990256 22.413023 1.385482 0.358225 0.014175 -0.018299 -374016.000000 0 1 0
-1.894730 -7.173546 22.364756 23.563363 1.312566 0.320327 0.018655 -0.009206 -217291.000000 0 1 0
-1.846230 -8.158346 23.380656 24.831880 1.348245 0.343570 0.012568 -0.002821 29557.300000 0 1 0
-2.013330 -7.567246 24.675356 25.888027 1.310762 0.307289 0.018169 0.009798 -51850.700000 0 0 1
-1.994430 -8.513546 25.878956 27.316270 1.340681 0.325839 0.016572 0.005544 921422.000000 0 0 1
-0.724230 -9.143046 26.156656 27.718053 1.491750 0.337249 0.007628 0.004610 768154.000000 0 0 1
-0.910330 -10.302946 26.945656 28.862567 1.482669 0.366507 0.017797 -0.004815 445089.000000 0 0 1
0.404570 -11.019746 27.386856 29.523523 -1.534100 0.382784 0.013316 -0.004863 271575.000000 0 0 1
1.284970 -10.366646 28.240656 30.110682 -1.447473 0.354285 -0.002311 -0.000413 98376.300000 0 0 1
2.437470 -11.205146 28.408056 30.635180 -1.356602 0.383658 -0.007932 -0.000957 741694.000000 0 0 1
3.460770 -10.703646 29.478556 31.552025 -1.258079 0.364550 -0.003744 0.003413 500878.000000 0 0 1
2.908670 -10.772046 30.796056 32.755067 -1.307066 0.347602 -0.008966 0.005000 291823.000000 0 0 1
3.711570 -10.022746 31.678256 33.432666 -1.216140 0.325396 -0.019854 0.010935 -99691.800000 0 0 1
3.101870 -10.044646 33.039956 34.672110 -1.271278 0.308052 -0.020401 0.012325 -268469.000000 0 0 1
3.356470 -11.228646 33.756056 35.732614 -1.280330 0.334164 -0.021241 0.011074 86128.600000 0 0 1
2.838670 -11.288746 -34.083420 36.016293 -1.324444 2.812492 -0.021737 0.010187 -307562.000000 0 0 1
3.483170 -10.358246 -33.008120 34.770127 -1.246405 2.821875 -0.032633 0.017862 -248610.000000 0 0 1
3.241970 -8.977246 -33.125320 34.473006 -1.224239 2.861053 -0.031347 0.011837 42990.900000 0 0 1
3.262870 -8.356046 -31.864220 33.102845 -1.198524 2.867173 -0.017545 0.016365 -482560.000000 0 0 1
2.573670 -6.984846 -31.884420 32.741840 -1.217767 2.912235 -0.032167 0.010085 -112058.000000 0 0 1
3.145270 -5.997946 -32.731620 33.424946 -1.087827 2.937559 -0.003181 0.007893 73551.400000 0 0 1
2.872170 -4.709646 -32.187720 32.656997 -1.023167 2.971861 -0.011891 0.006740 -180290.000000 0 0 1
3.059070 -3.586446 -33.238920 33.571511 -0.864590 3.000715 -0.007894 0.010500 -44269.700000 0 0 1
2.005170 -3.533746 -34.181520 34.422150 -1.054666 3.023282 -0.009187 0.012824 32058.700000 0 0 1
2.162470 -2.410346 34.138556 34.291793 -0.839552 0.094572 0.009672 0.011082 93388.800000 0 0 1
1.833470 -2.729646 32.701156 32.866065 -0.979326 0.100218 -0.003378 0.004974 1224120.000000 0 0 1
0.427470 -2.846146 32.398056 32.525641 -1.421718 0.088602 -0.006148 0.002095 576450.000000 0 0 1
0.111070 -3.514046 31.201956 31.399410 -1.539199 0.112206 0.000069 0.003125 675977.000000 0 0 1
-1.425930 -3.737746 31.016656 31.273583 1.206344 0.128271 -0.000904 0.002587 652848.000000 0 0 1
-2.125030 -2.513746 30.830356 31.005573 0.869000 0.106362 0.003919 0.001392 -307617.000000 0 0 1
-3.498430 -2.824146 30.691756 31.019328 0.679153 0.145457 -0.009010 0.000112 106005.000000 0 0 1
-4.258130 -1.695246 29.981156 30.329446 0.378885 0.151694 0.014557 -0.005685 -224802.000000 0 0 1
-3.942830 -1.605246 28.605056 28.920096 0.386638 0.147738 0.020231 0.001919 314243.000000 0 0 1
-4.960830 -0.986946 27.792756 28.249269 0.196384 0.180022 0.012736 -0.000883 631472.000000 0 0 1
-5.421030 0.491454 27.995156 28.519430 -0.090410 0.192040 0.018069 0.000706 -59994.800000 0 0 1
-6.429230 0.722654 28.934256 29.648751 -0.111932 0.219982 0.009333 0.001112 -542935.000000 0 0 1
-6.603230 2.113354 29.019056 29.835793 -0.309747 0.234522 0.016707 0.000506 306680.000000 0 0 1
-8.089230 2.432854 29.399456 30.588927 -0.292147 0.279787 -0.005842 -0.004231 612826.000000 0 0 1
-9.058630 1.844754 28.556456 30.015548 -0.200899 0.313082 -0.018787 0.010542 1051970.000000 0 0 1
-10.377330 2.298854 28.970956 30.859197 -0.218006 0.351634 -0.035482 0.016331 982771.000000 0 0 1
-11.559730 1.538654 28.374056 30.677058 -0.132327 0.389951 -0.026802 0.017462 -216803.000000 0 0 1
-11.684230 0.229954 28.848356 31.125581 -0.019678 0.384896 -0.018143 0.017472 -46020.200000 0 0 1
-11.790030 -0.622946 27.769156 30.174806 0.052788 0.402010 -0.012379 0.018766 -1240670.000000 0 0 1
-11.639030 -2.144746 28.028256 30.424499 0.182228 0.399541 -0.003671 0.013757 488692.000000 0 0 1
-10.314030 -2.595446 28.382956 30.310192 0.246524 0.358523 -0.013897 0.008781 1221860.000000 0 0 1
-9.254230 -2.266546 27.490756 29.095011 0.240192 0.333625 -0.005284 0.012950 -767974.000000 0 0 1
-9.371430 -2.843146 26.061156 27.840457 0.294559 0.359453 -0.012639 0.011751 -520405.000000 0 0 1
-10.331130 -2.152846 25.232656 27.350575 0.205444 0.396123 -0.012057 0.010692 670792.000000 0 0 1
-10.511030 -2.932746 24.067256 26.425661 0.272096 0.425692 -0.003805 0.008680 -470083.000000 0 0 1
-9.532830 -2.669646 22.894356 24.943003 0.273053 0.408124 0.008081 0.005727 -332057.000000 0 1 0
-8.231430 -3.068046 23.202156 24.809462 0.356773 0.361933 0.015008 0.006609 -1877220.000000 0 1 0
-7.384230 -2.555846 22.303656 23.632865 0.333216 0.336985 0.011962 0.003240 -662580.000000 0 1 0
-5.895630 -2.595746 22.777756 23.671133 0.414744 0.275612 0.027756 0.002931 757236.000000 0 1 0
-5.217530 -3.862246 22.694756 23.604905 0.637228 0.278596 0.026021 0.000951 -120941.000000 0 1 0
-5.711430 -4.831946 23.531656 24.692246 0.702175 0.307815 0.023368 0.002697 -817042.000000 0 1 0
-5.323030 -6.244146 23.084056 24.498932 0.864862 0.341518 0.018649 -0.000710 -311220.000000 0 1 0
-6.020730 -6.946946 22.042356 23.882519 0.856702 0.395123 0.013640 -0.009308 -39771.700000 0 1 0
-5.861030 -6.409846 20.744056 22.488968 0.830094 0.396521 0.026021 -0.013549 -167802.000000 0 1 0
-7.107030 -6.332546 19.824756 21.991634 0.727835 0.447647 0.031585 -0.012594 88107.800000 0 1 0
-8.014830 -5.312346 20.190056 22.362846 0.585331 0.444469 0.027323 -0.010041 -511869.000000 0 1 0
-9.029830 -5.184446 19.236156 21.873409 0.521193 0.496131 0.032364 -0.003642 192465.000000 0 1 0
-9.761830 -3.807246 19.302856 21.963349 0.371868 0.497315 0.023859 -0.007407 289125.000000 0 1 0
-8.932130 -2.750946 18.832356 21.023993 0.298765 0.460669 0.024218 -0.011166 -2394.220000 0 1 0
-9.480030 -1.470446 18.881456 21.178824 0.153884 0.470095 0.016380 -0.007559 -698374.000000 0 1 0
-8.491030 -0.460946 18.347856 20.222608 0.054233 0.433992 0.015478 -0.006685 234962.000000 0 1 0
-7.388930 -0.171446 19.237656 20.608569 0.023199 0.366803 0.020974 0.003055 756352.000000 0 1 0
-7.706130 0.672654 20.380356 21.798987 -0.087067 0.362757 0.030892 0.001795 -329398.000000 0 1 0
-7.687530 2.185054 20.072156 21.604723 -0.276930 0.378924 0.024646 -0.010127 -557626.000000 0 1 0
-8.575330 2.608654 19.110056 21.107715 -0.295310 0.438572 0.010740 -0.015869 -302146.000000 0 1 0
-8.313430 3.948754 18.663356 20.809292 -0.443436 0.458141 0.010018 -0.018524 136463.000000 0 1 0
-9.286230 4.341454 17.512556 20.292164 -0.437324 0.529577 0.011592 -0.013640 -567986.000000 0 1 0
-10.563430 4.599654 17.994556 21.366959 -0.410673 0.569506 0.003502 -0.003161 -533082.000000 0 1 0
-11.499130 5.050254 17.023556 21.155059 -0.413824 0.635620 0.005322 0.005172 185822.000000 0 1 0
-11.665130 6.571054 17.065556 21.690717 -0.513003 0.665242 0.009885 0.011996 17602.200000 0 1 0
-10.369030 7.184554 16.985956 21.157914 -0.605935 0.638789 0.011673 0.009371 701353.000000 0 1 0
-10.443430 8.559954 16.727056 21.497266 -0.686608 0.679159 0.001138 0.000066 -318778.000000 0 1 0
-9.173230 9.411454 16.840956 21.362149 -0.798216 0.662666 0.001643 -0.000033 -317375.000000 0 1 0
-8.921730 9.731954 18.167256 22.457903 -0.828806 0.628437 0.025649 0.015817 105465.000000 0 1 0
-8.018130 10.830454 18.398456 22.805533 -0.933512 0.632158 0.033747 0.006344 361092.000000 0 1 0
-8.429130 12.320454 17.997856 23.383042 -0.970782 0.692430 0.024524 0.011616 -86504.900000 0 1 0
-8.260630 12.552354 16.621756 22.407195 -0.988752 0.735039 0.015501 -0.004051 -23184.200000 0 1 0
-9.051430 13.658254 16.267956 23.089450 -0.985540 0.788990 0.026993 -0.009106 -479079.000000 0 1 0
-8.737930 14.092054 14.849656 22.258699 -1.015757 0.840434 0.022540 -0.011900 -18742.300000 0 1 0
-7.490630 14.719654 14.738456 22.135940 -1.100065 0.842210 0.025227 -0.002249 -395417.000000 0 1 0
-7.203830 15.187854 13.446856 21.526356 -1.127907 0.896088 0.017969 -0.014150 546306.000000 0 1 0
-6.086930 16.312154 13.308856 21.914898 -1.213646 0.918142 -0.005420 -0.013828 1188960.000000 0 1 0
-4.754730 15.860454 13.518756 21.375646 -1.279537 0.886101 -0.004819 -0.021211 -218576.000000 0 1 0
-3.916030 16.986954 13.528356 22.065999 -1.344223 0.910835 -0.003801 -0.020417 1059220.000000 0 1 0
-2.362130 16.705154 13.673256 21.716348 -1.430326 0.889720 0.003918 -0.028717 1124890.000000 0 1 0
-1.850630 16.271454 14.917356 22.152033 -1.457548 0.831987 0.004215 -0.019955 23296.100000 0 1 0
-2.253930 14.949954 15.243056 21.469329 -1.421158 0.781309 0.019152 -0.015258 -594794.000000 0 1 0
-1.280630 14.370754 16.257956 21.736599 -1.481917 0.725823 0.013662 -0.005972 14008.700000 0 1 0
-0.032330 13.995154 15.682856 21.019452 -1.568486 0.728594 -0.004110 -0.020925 -463212.000000 0 1 0
0.975770 13.570554 16.505856 21.390544 1.499016 0.689377 0.001974 -0.005645 -581296.000000 0 1 0
1.855270 14.710054 17.047356 22.592921 1.445336 0.715837 -0.000679 -0.004741 -474857.000000 0 1 0
1.227370 15.596154 17.988256 23.839543 1.492261 0.715820 -0.002868 -0.000285 -273973.000000 0 1 0
2.093270 16.632154 18.356556 24.859073 1.445598 0.740065 0.007916 -0.001550 -395131.000000 0 1 0
1.330770 17.873454 18.941756 26.077221 1.496478 0.757768 0.005871 0.001350 211271.000000 0 0 1
0.693670 18.705954 18.024356 25.985983 1.533730 0.804296 -0.007839 0.005532 265609.000000 0 0 1
-0.520730 18.176354 17.495656 25.233886 -1.542155 0.804683 0.002049 0.005958 -318877.000000 0 0 1
-1.218530 19.053454 16.438056 25.193821 -1.506930 0.859965 -0.006735 0.005295 -250605.000000 0 0 1
-1.717630 20.235654 17.044556 26.513182 -1.486118 0.872556 -0.005918 0.014007 230116.000000 0 0 1
-2.573030 20.993554 16.182456 26.631216 -1.448842 0.917698 -0.007805 0.009081 -409275.000000 0 0 1
-3.153730 22.254754 16.875356 28.106898 -1.430023 0.926796 -0.010116 0.015859 -505527.000000 0 0 1
-4.063930 22.040154 17.933656 28.703657 -1.388457 0.895938 -0.003687 0.013802 -2752.410000 0 0 1
-4.244530 23.270854 18.579356 30.078915 -1.390383 0.904998 -0.006100 0.025328 467415.000000 0 0 1
-5.369830 23.125854 19.707756 30.855078 -1.342639 0.877963 -0.019774 0.031133 740700.000000 0 0 1
-6.697330 23.087654 19.218856 30.777564 -1.288463 0.896377 -0.020871 0.023269 -316179.000000 0 0 1
-7.457930 22.584754 20.302756 31.271293 -1.251851 0.864204 -0.035303 0.016474 -508176.000000 0 0 1
-8.951630 22.760854 20.026356 31.610807 -1.196087 0.884691 -0.030653 0.013969 -580663.000000 0 0 1
-9.441830 24.083154 19.984256 32.688178 -1.197161 0.913018 -0.022047 0.014331 -101593.000000 0 0 1
-10.619930 24.147254 19.204356 32.629436 -1.156458 0.941521 -0.012491 0.007429 194717.000000 0 0 1
-11.325930 25.536354 19.297656 33.952638 -1.153343 0.966273 -0.002367 0.001997 -14824.000000 0 0 1
-12.057930 25.801154 20.482256 35.080137 -1.133616 0.947308 -0.004506 0.002422 8900.530000 0 0 1
-12.466330 27.156254 20.528156 36.252954 -1.140434 0.968850 0.001178 0.003824 -429407.000000 0 0 1
-13.249830 27.315554 21.854156 37.407240 -1.119168 0.946874 0.023083 -0.011792 -14048.000000 0 0 1
-14.622430 26.944054 21.798656 37.616205 -1.073578 0.952679 0.014802 -0.017659 129664.000000 0 0 1
-15.017530 26.778854 23.098556 38.421043 -1.059701 0.925800 0.008841 -0.013184 -1010380.000000 0 0 1
-16.510630 26.560054 23.199756 38.939261 -1.014621 0.932543 0.024704 -0.010435 -822268.000000 0 0 1
-16.800530 25.246254 22.866156 37.980156 -0.983625 0.924724 0.020146 -0.011165 -561210.000000 0 0 1
-18.160930 25.015454 23.088956 38.583574 -0.942841 0.929276 0.029922 -0.007416 -395654.000000 0 0 1
26.074470 24.868754 23.704233 43.130309 0.761735 0.988916 0.045243 -0.020441 -56498.500000 0 0 1
26.118170 24.256154 24.949173 43.508402 0.748451 0.960106 0.052537 -0.020297 221032.000000 0 0 1
25.998870 22.862754 24.709053 42.534504 0.721302 0.950940 0.047616 -0.013419 -126404.000000 0 0 1
25.816670 22.076954 25.976993 42.763261 0.707472 0.917937 0.057295 -0.012688 -745941.000000 0 0 1
24.631470 22.228354 26.664223 42.565125 0.734160 0.893827 0.046999 -0.007290 -661465.000000 0 0 1
24.605070 21.435554 27.808823 42.874504 0.716665 0.865040 0.054524 -0.006060 -245715.000000 0 0 1
23.277770 21.495254 28.564683 42.659602 0.745607 0.837132 0.046647 -0.009156 -273444.000000 0 0 1
22.937070 22.742054 29.141003 43.502968 0.781129 0.836773 0.046349 -0.013053 391700.000000 0 0 1
21.593670 22.739354 29.619133 43.135343 0.811235 0.813917 0.055942 -0.017312 187681.000000 0 0 1
21.263470 24.078254 30.278503 44.143915 0.847398 0.814951 0.050824 -0.025426 -369906.000000 0 0 1
21.035070 25.160154 29.394213 44.040065 0.874459 0.840027 0.047213 -0.023155 -128034.000000 0 0 1
20.576870 26.309954 30.047183 44.927213 0.907069 0.838207 0.042143 -0.021093 -850947.000000 0 0 1
19.167370 26.472654 30.551613 44.739139 0.944115 0.819094 0.058336 -0.021908 -1119630.000000 0 0 1
18.174170 26.707154 29.503863 43.749862 0.973279 0.830677 0.053143 -0.029692 773699.000000 0 0 1
16.990770 27.322154 29.944693 43.953055 1.014452 0.821275 0.048592 -0.028718 278361.000000 0 0 1
15.977470 26.372654 30.687393 43.503017 1.026098 0.787797 0.042618 -0.014197 -573739.000000 0 0 1
16.452670 25.843554 31.929283 44.249958 1.003881 0.764734 0.037662 -0.017225 -155758.000000 0 0 1
15.480070 25.118554 32.641263 44.000300 1.018492 0.734983 0.033410 -0.018122 84363.700000 0 0 1
16.041270 24.697854 34.044004 45.014448 0.994772 0.713172 0.045746 -0.016525 95428.800000 0 0 1
16.187870 25.675754 -34.099882 45.651872 1.008271 2.414266 0.039853 -0.014324 70957.500000 0 0 1
16.532170 25.037854 -32.873474 44.506989 0.987223 2.401808 0.018730 0.012956 -67686.800000 0 0 1
17.037470 26.077954 -31.841184 44.544315 0.992085 2.367164 0.018796 0.031503 431352.000000 0 0 1
15.957070 26.934354 -31.420124 44.354387 1.035952 2.358008 0.037686 0.004244 751430.000000 0 0 1
16.421470 28.141754 -30.930634 44.925795 1.042577 2.330191 0.042842 -0.002569 128909.000000 0 0 1
15.803170 28.565954 -29.516284 44.010963 1.065487 2.305891 0.049937 -0.002102 118138.000000 0 0 1
16.200870 27.629154 -28.538604 42.898604 1.040460 2.298635 0.028261 0.018802 149534.000000 0 0 1
15.876970 28.092154 -27.225484 42.219359 1.056377 2.271634 0.022360 0.019430 18206.700000 0 0 1
16.697470 27.482154 -26.050684 41.384930 1.024826 2.251671 0.014595 0.017963 -604185.000000 0 0 1
18.027670 27.855954 -26.014324 42.162733 0.996410 2.235719 0.033612 0.017586 -1206580.000000 0 0 1
18.672170 27.329954 -24.887844 41.412330 0.971426 2.215519 0.034136 0.013065 1517470.000000 0 0 1
20.237070 27.631854 -24.877144 42.331202 0.938666 2.198983 0.035275 0.010924 1626970.000000 0 0 1
20.898370 27.206254 -23.681144 41.685953 0.915783 2.174973 0.025238 0.013500 -197152.000000 0 0 1
22.246370 26.889854 -23.916144 42.307767 0.879621 2.171581 0.037891 0.016966 -78842.300000 0 0 1
23.000970 26.561354 -22.619844 41.787647 0.857111 2.142784 0.049738 0.015105 -26765.300000 0 0 1
22.485270 25.435454 -22.004644 40.456817 0.846884 2.145879 0.042955 0.013782 409890.000000 0 0 1
23.154470 25.403554 -20.721744 40.135529 0.831683 2.113315 0.037191 0.012325 200476.000000 0 0 1
22.611670 24.322754 -19.732144 38.629541 0.821839 2.106917 0.019667 0.009379 -547229.000000 0 0 1
22.889470 22.979754 -20.033344 38.122589 0.787366 2.124097 0.020965 0.014070 293650.000000 0 0 1
22.474570 22.103254 -18.992344 36.801756 0.777069 2.113055 0.014774 0.014987 -533998.000000 0 0 1
22.832270 20.623754 -19.341344 36.341978 0.734620 2.131998 0.025676 0.003401 587716.000000 0 0 1
21.996770 19.924854 -20.314744 35.965908 0.736015 2.171028 0.023088 0.000978 314996.000000 0 0 1
20.656870 19.766254 -19.894744 34.831191 0.763369 2.178734 0.014985 0.003423 -605148.000000 0 0 1
19.766070 19.717654 -21.148044 35.024608 0.784172 2.219063 0.019984 0.010907 -317746.000000 0 0 1
19.732770 20.736454 -22.178144 36.211225 0.810194 2.229973 0.022255 0.012442 -152097.000000 0 0 1
19.462970 22.072654 -21.832544 36.642451 0.848146 2.209091 0.022909 0.013823 4653.000000 0 0 1
19.154370 22.969154 -23.036844 37.751398 0.875714 2.227141 0.032776 0.019132 765863.000000 0 0 1
17.906070 22.714854 -23.696944 37.391671 0.903232 2.257187 0.024312 0.014789 211286.000000 0 0 1
17.681470 23.468154 -24.849044 38.481991 0.925107 2.272778 0.022367 0.009471 -97638.900000 0 0 1
16.181170 23.622354 -25.126154 38.094218 0.970213 2.291055 0.016420 0.012639 -223346.000000 0 0 1
15.474470 24.431754 -24.242744 37.736990 1.006197 2.268439 0.002933 0.008248 -583684.000000 0 0 1
14.096970 24.472754 -24.445044 37.352382 1.048190 2.284243 -0.004931 0.008750 -208213.000000 0 0 1
13.327670 25.482354 -23.535244 37.160259 1.088906 2.256664 -0.011979 0.011879 150344.000000 0 0 1
13.592270 26.811154 -23.915344 38.412647 1.101594 2.242845 -0.018997 0.017304 583426.000000 0 0 1
12.362470 27.541454 -23.918244 38.515513 1.148884 2.240818 -0.015552 0.015636 482166.000000 0 0 1
12.486870 28.928654 -24.613844 39.982874 1.163312 2.233956 -0.007012 0.007351 -83534.000000 0 0 1
12.541570 28.835254 -26.000124 40.801584 1.160538 2.261699 0.007104 0.000595 -14458.200000 0 0 1
11.930070 29.952054 -26.640164 41.822846 1.191752 2.261366 0.032535 -0.004484 -113684.000000 0 0 1
12.652170 31.351154 -26.556614 42.990999 1.187222 2.236643 0.044936 -0.006198 596246.000000 0 0 1
13.806570 31.241854 -27.418974 43.800399 1.154677 2.247207 0.038654 -0.003818 309875.000000 0 0 1
14.421270 32.500454 -27.562514 44.988273 1.153173 2.230218 0.034238 -0.005056 -36987.500000 0 0 1
15.854970 32.377154 -28.136404 45.730924 1.115426 2.233512 0.037002 0.003834 -132415.000000 0 0 1
16.787670 31.829954 -27.266274 45.148882 1.085456 2.219205 0.013845 0.011357 493775.000000 0 0 1
18.110270 31.933554 -27.838764 46.073100 1.054902 2.219596 0.016578 0.011692 806559.000000 0 0 1
19.193570 30.972654 -27.251884 45.501248 1.016022 2.212956 0.016530 0.019965 -192862.000000 0 0 1
19.666270 31.271354 -25.916844 45.125852 1.009404 2.182574 0.029282 0.008736 377555.000000 0 0 1
20.417470 32.485654 -25.707634 46.185206 1.009679 2.161109 0.028767 0.005805 -929667.000000 0 0 1
21.868670 32.422654 -26.105254 47.020756 0.977399 2.159383 0.010668 0.009198 -1272660.000000 0 0 1
21.907470 32.324754 -27.516224 47.769965 0.975173 2.184642 0.004451 0.018458 -187366.000000 0 0 1
23.210170 32.346754 -28.045574 48.698857 0.948394 2.184498 -0.011359 0.020087 -583930.000000 0 0 1
23.163170 31.651154 -29.432374 49.036646 0.939028 2.214562 -0.013118 0.019074 -415310.000000 0 0 1
22.333870 32.196454 -30.380694 49.582254 0.964328 2.230311 -0.006250 0.012293 -840953.000000 0 0 1
21.025670 31.725754 -30.328444 48.666382 0.985523 2.243612 -0.003273 0.015157 -1116540.000000 0 0 1
19.999270 32.449654 -31.184944 49.248874 1.018465 2.256492 -0.012924 0.011621 -936805.000000 0 0 1
19.613270 33.787454 -30.878444 49.797095 1.044846 2.239648 -0.000936 0.015421 105454.000000 0 0 1
18.739770 34.395254 -31.823614 50.467364 1.071926 2.253094 -0.001951 0.003509 1508920.000000 0 0 1
17.198370 34.020454 -31.574944 49.499013 1.102734 2.262552 0.003245 0.001110 1021800.000000 0 0 1
16.803170 32.695554 -31.901144 48.672669 1.096068 2.285538 0.025431 -0.006742 -787.992000 0 0 1
17.028670 32.179954 -33.217314 49.284023 1.084086 2.310403 0.029363 -0.012581 -966236.000000 0 0 1
16.472470 32.804454 -34.466826 50.353118 1.105437 2.324717 0.047686 -0.019304 -682671.000000 0 0 1
16.989770 34.110654 34.367077 51.315543 1.108687 0.836964 0.028837 -0.009886 21079.800000 0 0 1
16.651270 34.600454 33.101087 50.696530 1.122266 0.859355 0.039104 -0.024512 -156929.000000 0 0 1
15.193370 -34.239884 32.903723 49.858431 -1.153166 0.850053 0.051689 -0.029486 -918468.000000 0 0 1
14.238270 34.067854 32.710313 49.328608 1.174922 0.845830 0.059305 -0.031451 -1157080.000000 0 0 1
12.950970 34.543454 32.753373 49.333166 1.212097 0.844745 0.042986 -0.025353 -784524.000000 0 0 1
12.423270 -34.102684 31.489413 48.051158 -1.221448 0.856176 0.023091 -0.014530 -611408.000000 0 0 1
13.305370 -33.046484 31.054433 47.259716 -1.188028 0.853829 0.036201 -0.018133 223518.000000 0 0 1
12.722370 -32.313684 30.014773 45.901192 -1.195720 0.858069 0.031041 -0.021317 -431093.000000 0 0 1
13.217670 -30.889984 29.673783 44.826681 -1.166476 0.847356 0.019176 -0.017164 -387380.000000 0 0 1
13.012570 -30.062984 30.801473 44.964883 -1.162301 0.816177 -0.004464 -0.000789 260948.000000 0 0 1
13.214870 -28.712884 30.408013 43.860116 -1.139458 0.804745 0.007926 -0.007244 -801755.000000 0 0 1
12.903470 -27.725984 31.552633 43.940851 -1.135216 0.769770 0.005540 -0.009211 122371.000000 0 0 1
11.542670 -27.670584 31.990383 43.843803 -1.175597 0.752995 0.001167 -0.000767 813740.000000 0 0 1
10.677670 -26.909984 31.121333 42.505261 -1.193058 0.749285 -0.015346 -0.002368 -33436.700000 0 0 1
10.904170 -25.373984 31.124983 41.611351 -1.164919 0.725764 -0.033417 0.007097 -229524.000000 0 0 1
10.299170 -24.807184 32.310023 42.016745 -1.177282 0.693553 -0.002995 0.000874 420411.000000 0 0 1
10.931170 -23.590984 32.693483 41.771866 -1.136886 0.671856 -0.007231 0.003050 173666.000000 0 0 1
10.163770 -22.850484 33.802746 42.048454 -1.152280 0.636973 0.001540 0.006333 -246369.000000 0 0 1
10.183070 -23.478284 -34.059814 42.602765 -1.161561 2.497216 0.003701 0.012812 737245.000000 0 0 1
11.425770 -23.576484 -33.334274 42.397790 -1.119524 2.475475 0.000920 0.006669 702815.000000 0 0 1
11.886270 -22.265184 -32.652804 41.270176 -1.080437 2.483559 0.014918 -0.004116 -241911.000000 0 0 1
12.365970 -21.357384 -33.599904 41.689430 -1.045960 2.508087 -0.001563 0.005768 154054.000000 0 0 1
13.406070 -20.508384 -33.113214 41.192250 -0.991833 2.504570 0.006578 0.002480 110901.000000 0 0 1
13.604470 -19.438484 -34.185806 41.612565 -0.960156 2.534879 -0.007102 0.006102 -1048520.000000 0 0 1
14.234470 -19.851184 33.783686 41.689652 -0.948713 0.626028 -0.000148 0.014098 374762.000000 0 0 1
14.156770 -18.878484 32.757473 40.371566 -0.927366 0.624254 -0.025487 0.020392 -233027.000000 0 0 1
14.893770 -17.523284 32.998623 40.221872 -0.866336 0.608660 -0.008914 0.015162 -1040180.000000 0 0 1
14.308070 -16.718784 33.970102 40.474763 -0.862940 0.574819 -0.011099 0.018087 136699.000000 0 0 1
14.796670 -15.384484 33.937667 40.092257 -0.804872 0.561440 0.024649 0.010942 548349.000000 0 0 1
16.268770 -15.014084 34.342126 40.859237 -0.745312 0.572594 0.033819 0.006602 785260.000000 0 0 1
17.185470 -15.681484 33.495015 40.781924 -0.739670 0.607075 0.022743 0.005313 -762207.000000 0 0 1
18.517570 -15.352184 33.735518 41.432778 -0.692211 0.619407 0.040916 0.001844 -197415.000000 0 0 1
19.509170 -16.153384 32.838593 41.471830 -0.691576 0.656999 0.044911 -0.006235 33483.100000 0 0 1
19.446270 -15.649884 31.465243 40.163887 -0.677646 0.670645 0.033265 -0.003542 779268.000000 0 0 1
20.453570 -16.348884 30.693773 40.345288 -0.674324 0.706287 0.025223 -0.007864 356804.000000 0 0 1
20.789970 -15.745684 29.318153 39.239056 -0.648201 0.727006 0.021034 -0.000378 -19744.800000 0 0 1
21.603970 -14.587084 29.475803 39.348920 -0.593890 0.724112 0.028854 -0.009792 345646.000000 0 0 1
21.782870 -13.979384 28.215943 38.289111 -0.570561 0.742296 0.016218 -0.004170 76490.300000 0 0 1
22.449770 -12.562284 28.372233 38.298652 -0.510163 0.736513 0.014888 -0.001846 -295429.000000 0 0 1
21.645770 -11.571284 28.907473 37.921972 -0.490923 0.703955 0.012360 -0.004463 -386750.000000 0 0 1
22.294970 -10.344884 29.145403 38.125278 -0.434436 0.700587 0.025351 -0.009917 -165394.000000 0 0 1
21.327770 -9.143184 29.154713 37.262164 -0.404999 0.672252 0.026604 -0.006649 -451575.000000 0 0 1
20.389270 -9.257884 30.155803 37.560660 -0.426222 0.638726 0.034190 -0.014924 -181782.000000 0 0 1
19.412870 -8.197884 30.000883 36.662212 -0.399574 0.612340 0.032707 -0.013750 646558.000000 0 0 1
18.241670 -8.215784 31.025813 36.916916 -0.423174 0.572734 0.022188 -0.003208 -43689.300000 0 0 1
18.395970 -7.715484 32.376793 38.028899 -0.397128 0.552198 0.023196 -0.006599 45329.800000 0 0 1
19.034370 -8.672584 33.205385 39.244344 -0.427524 0.562135 0.030383 -0.012680 -723542.000000 0 0 1
19.110170 -8.142484 -34.490600 40.262887 -0.402786 2.599508 0.036394 -0.016019 115811.000000 0 0 1
17.856670 -8.134884 -33.828684 39.107759 -0.427473 2.615971 0.031433 -0.019524 344597.000000 0 0 1
18.042170 -7.410084 -32.618614 38.005305 -0.389704 2.602675 0.023762 -0.023504 623.123000 0 0 1
16.721170 -7.085784 -31.902834 36.709626 -0.400821 2.624093 0.017230 -0.018323 -159627.000000 0 0 1
16.909070 -6.358684 -30.700544 35.621242 -0.359692 2.609723 0.009616 -0.011670 -141464.000000 0 0 1
15.693370 -5.918284 -30.178314 34.525911 -0.360628 2.634329 0.005109 -0.004857 -187169.000000 0 0 1
16.056170 -4.791084 -29.137134 33.611421 -0.289984 2.619709 -0.011621 0.001350 -262453.000000 0 0 1
16.727470 -5.140184 -27.972664 32.995449 -0.298131 2.582569 -0.011504 0.004019 -68897.700000 0 0 1
16.191970 -6.102184 -27.043944 32.105941 -0.360405 2.572397 0.008563 -0.003241 872605.000000 0 0 1
14.820670 -5.838784 -26.288614 30.738166 -0.375291 2.596817 0.013868 -0.005130 914849.000000 0 0 1
14.825570 -4.801584 -25.361974 29.767137 -0.313211 2.590614 -0.007824 0.004924 161645.000000 0 0 1
13.521770 -4.697084 -24.788344 28.624515 -0.334332 2.617909 -0.001407 -0.010142 72594.200000 0 0 1
13.435970 -3.458284 -23.852944 27.594346 -0.251922 2.614780 0.002964 -0.005051 -47259.700000 0 0 1
13.498670 -2.263284 -24.567444 28.122870 -0.166122 2.633297 -0.007605 -0.004978 167809.000000 0 0 1
13.130070 -1.051284 -23.844844 27.241155 -0.079896 2.636902 -0.000457 -0.001757 50489.000000 0 0 1
13.657770 0.328716 -24.400544 27.964786 0.024063 2.631185 -0.004125 -0.009055 -611908.000000 0 0 1
12.899470 0.899716 -25.451384 28.547833 0.069636 2.671519 0.003836 -0.007914 85631.800000 0 0 1
13.361470 2.226716 -25.756864 29.101601 0.165134 2.657434 -0.000212 0.003930 -453625.000000 0 0 1
12.700070 2.818716 -27.015024 29.984137 0.218405 2.692813 -0.006607 -0.010600 39892.400000 0 0 1
11.396370 3.292716 -26.728454 29.242597 0.281267 2.723893 0.007277 -0.018322 -82035.700000 0 0 1
10.793070 3.792716 -27.873584 30.129914 0.337924 2.752130 0.002422 -0.018637 -12021.100000 0 0 1
9.485170 4.596716 -27.670944 29.610461 0.451269 2.777645 0.005997 -0.013492 -16142.600000 0 0 1
9.642070 5.812716 -26.955484 29.212245 0.542512 2.745942 0.008534 -0.017065 -196014.000000 0 0 1
8.542670 6.681716 -27.058764 29.151316 0.663766 2.760389 0.013193 -0.017228 -250797.000000 0 0 1
8.205670 5.736854 -31.429484 32.985708 0.610144 2.833195 0.006294 -0.004366 -148682.000000 0 0 1
7.926070 4.613754 -30.622384 31.966227 0.527153 2.850603 -0.000613 0.002336 281762.000000 0 0 1
7.661370 3.492354 -31.467884 32.574850 0.427699 2.880149 -0.001312 0.000344 -201134.000000 0 0 1
7.318670 2.293654 -30.497864 31.447471 0.303702 2.895220 0.007663 -0.007286 -883572.000000 0 0 1
8.372370 2.016554 -29.652324 30.877554 0.236356 2.858943 0.017844 -0.009986 -340190.000000 0 0 1
8.085370 0.887454 -28.866764 29.990846 0.109323 2.866939 0.015031 -0.016517 -480885.000000 0 0 1
9.098770 0.461454 -27.795864 29.250822 0.050673 2.824863 0.010787 -0.015971 379668.000000 0 0 1
10.252670 -0.164546 -28.402754 30.197032 -0.016048 2.795134 0.015831 -0.005594 267193.000000 0 0 1
11.129870 -0.527346 -27.385584 29.565559 -0.047346 2.755178 0.006535 -0.010312 -702283.000000 0 0 1
12.042470 -1.655646 -27.850704 30.387891 -0.136627 2.730055 0.002324 -0.001138 -319452.000000 0 0 1
11.343670 -2.866046 -27.968294 30.316968 -0.247477 2.745380 0.012303 -0.010089 -182185.000000 0 0 1
12.190670 -3.943046 -28.197724 30.972111 -0.312827 2.715102 0.022324 -0.013616 -301607.000000 0 0 1
11.488870 -5.317346 -27.952984 30.686114 -0.433469 2.716335 0.027811 -0.014974 -62019.500000 0 0 1
11.212370 -5.418446 -26.576584 29.349474 -0.450163 2.703404 0.026392 -0.013316 -197905.000000 0 0 1
10.596770 -6.668446 -26.235254 29.069713 -0.561679 2.696323 0.023594 -0.022272 -147301.000000 0 0 1
10.327570 -6.653446 -24.696144 27.583085 -0.572316 2.679983 0.018935 -0.022664 -579545.000000 0 0 1
11.381770 -6.754646 -23.779144 27.214290 -0.535598 2.633706 0.009373 -0.013640 -482144.000000 0 0 1
10.905370 -6.823146 -22.452144 25.876267 -0.559080 2.621299 0.006676 -0.017254 454314.000000 0 0 1
12.058870 -6.761946 -21.379644 25.460350 -0.511055 2.567569 0.016204 -0.021433 534605.000000 0 0 1
12.705270 -5.514746 -21.238544 25.355710 -0.409513 2.563715 0.008344 -0.019616 17421.700000 0 0 1
13.841270 -5.820646 -20.419844 25.346217 -0.398077 2.507546 0.014585 -0.020403 383085.000000 0 0 1
14.420070 -4.635946 -19.670344 24.826454 -0.311056 2.485389 0.019456 -0.014896 77640.000000 0 1 0
15.220570 -3.731746 -20.451144 25.765111 -0.240435 2.487752 0.021629 -0.012838 294226.000000 0 0 1
15.687270 -2.675146 -19.667644 25.299468 -0.168905 2.461308 0.020424 -0.009292 -358503.000000 0 0 1
16.712370 -1.793246 -20.431044 26.456504 -0.106892 2.453172 0.009458 0.003981 -743881.000000 0 0 1
17.865170 -2.479646 -20.737244 27.483563 -0.137917 2.425738 0.016023 0.005850 -1118670.000000 0 0 1
18.564870 -1.673946 -21.632944 28.555923 -0.089924 2.430370 0.008803 -0.000844 -903683.000000 0 0 1
19.926270 -2.190146 -22.022244 29.779728 -0.109473 2.403130 0.014231 0.000918 -905453.000000 0 0 1
20.971970 -2.231946 -21.029344 29.783190 -0.106026 2.354745 0.009030 0.005476 738851.000000 0 0 1
22.110970 -2.929446 -21.491944 30.973865 -0.131721 2.337651 0.003733 0.003584 469683.000000 0 0 1
23.108470 -2.092146 -22.387744 32.242666 -0.090290 2.338315 0.004635 -0.000830 -1073380.000000 0 0 1
22.602570 -1.629446 -23.652644 32.756355 -0.071967 2.377598 0.009390 -0.002384 248226.000000 0 0 1
23.545470 -1.043646 -24.546744 34.029707 -0.044296 2.376521 0.009808 0.006920 24792.300000 0 0 1
24.677170 -1.951746 -25.089704 35.245784 -0.078927 2.362925 0.022099 -0.011596 -1094320.000000 0 0 1
25.603270 -2.263746 -24.044844 35.196683 -0.088187 2.322873 0.016186 -0.003377 394615.000000 0 0 1
26.827270 -2.857946 -24.479044 36.429299 -0.106131 2.307649 0.009236 0.000380 758475.000000 0 0 1
27.798370 -1.941146 -25.247754 37.602746 -0.069716 2.306938 0.014029 -0.018308 -1344180.000000 0 0 1
27.250970 -1.556946 -26.458124 38.014100 -0.057072 2.340619 0.022480 -0.026076 -623628.000000 0 0 1
27.965170 -0.587946 -27.105734 38.950189 -0.021021 2.340479 0.026133 -0.030893 -1037050.000000 0 0 1
27.419170 -0.353346 -28.512544 39.558828 -0.012886 2.375699 0.033165 -0.032279 128043.000000 0 0 1
26.136270 0.225854 -28.670764 38.796499 0.008641 2.402387 0.018358 -0.024752 231377.000000 0 0 1
25.890870 1.510554 -28.093064 38.234005 0.058277 2.396119 0.009581 -0.018191 -1185610.000000 0 0 1
24.403070 1.828654 -28.212684 37.347146 0.074796 2.427087 -0.007733 -0.018903 -660092.000000 0 0 1
23.614070 1.220354 -27.214534 36.051968 0.051633 2.426252 0.005361 -0.017617 -794377.000000 0 0 1
22.285570 1.445154 -27.560054 35.472407 0.064756 2.460592 -0.000175 -0.012910 -954772.000000 0 0 1
21.321570 1.151354 -26.412854 33.964302 0.053947 2.461740 0.005672 -0.007617 -548838.000000 0 0 1
21.351670 2.035654 -25.273374 33.147867 0.095052 2.437877 0.009392 -0.007083 -18641.900000 0 0 1
20.600070 1.520254 -24.226544 31.837077 0.073665 2.435578 0.009447 -0.008820 -410831.000000 0 0 1
20.841070 2.264354 -22.882244 31.033443 0.108224 2.399923 0.015595 -0.008004 -447346.000000 0 0 1
20.522970 3.607054 -22.815044 30.898695 0.173980 2.401464 0.018647 -0.012253 413012.000000 0 0 1
20.611470 4.036154 -21.485644 30.045900 0.193374 2.367555 0.017510 -0.008257 -319080.000000 0 0 1
20.244770 5.522554 -21.418544 29.985052 0.266310 2.366430 0.023573 -0.005803 626104.000000 0 0 1
21.279970 6.475454 -21.823044 31.161095 0.295395 2.346656 0.016462 -0.005847 1026870.000000 0 0 1
20.880670 7.844054 -21.604944 31.053263 0.359350 2.340244 0.011753 -0.013380 -454808.000000 0 0 1
21.044070 8.333654 -20.123144 30.286030 0.377062 2.297536 0.015084 0.000551 134589.000000 0 0 1
22.396370 8.217454 -19.675944 30.923562 0.351659 2.260459 0.013121 -0.000058 566824.000000 0 0 1
22.679470 8.420454 -18.298344 30.333015 0.355506 2.218364 0.017694 -0.001619 -80147.100000 0 0 1
22.544070 9.838654 -17.687244 30.296416 0.411502 2.194206 0.029351 -0.007551 341127.000000 0 0 1
21.193770 10.276654 -17.521744 29.356379 0.451487 2.210382 0.016767 -0.009713 440028.000000 0 0 1
21.043070 11.668254 -17.588744 29.804745 0.506287 2.202019 0.000987 -0.000279 -1168510.000000 0 0 1
19.604770 12.146454 -17.566644 28.990866 0.554682 2.221740 0.005979 -0.005923 -499367.000000 0 0 1
18.900170 11.878354 -18.786144 29.175862 0.561097 2.270372 0.004951 -0.001397 458236.000000 0 0 1
18.278370 10.552054 -18.804744 28.267703 0.523559 2.298609 0.006706 -0.002596 -555029.000000 0 0 1
17.485570 10.369154 -20.081844 28.575251 0.535265 2.350081 0.010950 -0.009812 -657525.000000 0 0 1
18.317070 10.302854 -21.199844 29.851252 0.512369 2.360554 0.029110 -0.018226 169776.000000 0 0 1
17.648370 10.041754 -22.423944 30.251199 0.517306 2.405739 0.027478 -0.019703 -83884.200000 0 0 1
18.624370 10.288054 -23.627644 31.795861 0.504682 2.408494 0.046785 -0.027410 160778.000000 0 0 1
18.848370 11.668854 -23.796944 32.522573 0.554339 2.391617 0.034801 -0.016816 111875.000000 0 0 1
19.507170 11.912954 -25.022544 33.890645 0.548247 2.401390 0.042891 -0.024802 -32887.400000 0 0 1
19.769470 13.435854 -25.273294 34.786398 0.596921 2.384052 0.052850 -0.027369 -158468.000000 0 0 1
20.244170 13.806454 -26.545234 36.126085 0.598541 2.396159 0.059496 -0.032606 149914.000000 0 0 1
20.239070 15.252154 -26.592334 36.734185 0.645801 2.380253 0.059454 -0.020062 489416.000000 0 0 1
18.939170 15.822254 -27.239864 36.756578 0.695971 2.405486 0.048406 -0.016432 763478.000000 0 0 1
17.734470 15.540054 -26.574314 35.527438 0.719545 2.415831 0.044213 -0.015051 -433933.000000 0 0 1
16.565570 15.907454 -27.239264 35.629239 0.765134 2.441093 0.037591 -0.016015 382298.000000 0 0 1
15.245770 15.434754 -26.563104 34.296700 0.791558 2.456735 0.036094 -0.019004 300201.000000 0 0 1
15.031570 14.074854 -26.647124 33.676680 0.752540 2.483669 0.034951 -0.017051 -822156.000000 0 0 1
13.727370 13.677354 -26.410214 32.756833 0.783573 2.508583 0.012425 -0.017811 -899926.000000 0 0 1
13.620570 12.152154 -26.266194 31.986055 0.728484 2.534266 0.014399 -0.019370 -941098.000000 0 0 1
12.307370 11.752654 -26.201114 31.242512 0.762347 2.565572 0.020531 -0.022361 -997440.000000 0 0 1
12.359670 10.413254 -25.775784 30.423483 0.700135 2.581551 0.036013 -0.020882 402299.000000 0 0 1
10.931370 9.818654 -25.561514 29.483755 0.731825 2.619885 0.019096 -0.025443 509300.000000 0 0 1
10.251970 10.443254 -24.493644 28.532491 0.794641 2.603031 0.028004 -0.027047 -312195.000000 0 0 1
9.090170 9.724054 -24.176244 27.598536 0.819077 2.638296 0.019860 -0.022448 -131388.000000 0 0 1
8.380270 10.211354 -22.874144 26.414525 0.883571 2.617880 0.018349 -0.019911 201775.000000 0 0 1
7.668970 11.458654 -23.103344 26.904987 0.980991 2.603526 0.010696 -0.019667 506251.000000 0 0 1
7.047170 12.014854 -21.924444 25.974998 1.040334 2.575605 0.017047 -0.010270 196362.000000 0 0 1
7.968370 12.974954 -21.164244 26.072391 1.020048 2.517937 0.019159 -0.019909 67652.400000 0 0 1
9.012270 12.301454 -20.505244 25.554095 0.938513 2.502144 0.029259 -0.021173 -1023610.000000 0 0 1
9.917070 13.126854 -19.861444 25.790299 0.923797 2.449815 0.028924 -0.019699 -753221.000000 0 0 1
10.900270 12.180554 -19.111844 25.148446 0.840811 2.434050 0.027310 -0.019134 -306783.000000 0 0 1
11.910870 11.654054 -19.956144 25.998720 0.774500 2.445856 0.034059 -0.024352 100117.000000 0 0 1
11.459670 10.655754 -20.909044 26.116225 0.749063 2.499117 0.039869 -0.031575 -1385310.000000 0 0 1
12.527770 10.042454 -21.773044 27.052936 0.675725 2.506187 0.038712 -0.029477 -602276.000000 0 0 1
13.267070 9.066954 -21.098744 26.521346 0.599510 2.490692 0.039854 -0.023326 -849052.000000 0 0 1
14.327170 8.615054 -21.820444 27.488520 0.541381 2.487832 0.045225 -0.029473 -757757.000000 0 0 1
15.099770 7.396154 -21.173944 27.037789 0.455470 2.470470 0.065792 -0.021190 437715.000000 0 0 1
15.674070 7.553654 -19.872444 26.413030 0.449080 2.422453 0.037399 -0.020092 176865.000000 0 0 1
16.071970 6.273954 -19.358244 25.930914 0.372174 2.413630 0.022552 -0.019997 147227.000000 0 0 1
16.942070 6.449554 -18.081144 25.603872 0.363743 2.354896 0.027008 -0.013908 -226398.000000 0 0 1
18.267570 6.953554 -18.231744 26.729244 0.363715 2.321413 0.025531 -0.013342 612700.000000 0 0 1
19.071670 6.933454 -17.080944 26.524706 0.348692 2.270464 0.018207 -0.017287 113184.000000 0 0 1
19.636170 5.557554 -16.665644 26.347851 0.275813 2.255604 0.012447 -0.017873 -535047.000000 0 0 1
20.721370 5.048654 -17.414744 27.534295 0.238988 2.255540 0.011529 -0.014782 384767.000000 0 0 1
21.456670 4.090754 -16.717544 27.506349 0.188391 2.224046 0.018936 -0.012708 488815.000000 0 0 1
22.713070 3.486554 -17.458044 28.858671 0.152315 2.220499 0.002045 -0.005263 709570.000000 0 0 1
23.467570 2.737954 -16.513144 28.825460 0.116145 2.180795 -0.005257 0.000347 -526603.000000 0 0 1
24.653770 2.234254 -17.013844 30.037829 0.090378 2.172944 -0.002624 0.002367 -606533.000000 0 0 1
25.353070 1.315954 -15.980344 29.998021 0.051859 2.132600 0.004762 -0.000370 -461337.000000 0 0 1
24.760070 0.046654 -15.791044 29.366994 0.001884 2.138520 0.006411 -0.001781 -331948.000000 0 0 1
25.773270 -0.925946 -15.809644 30.250019 -0.035911 2.120732 0.000825 0.004049 -573515.000000 0 0 1
25.404470 -2.432246 -15.999344 30.121121 -0.095450 2.130774 -0.008150 0.002262 -538000.000000 0 0 1
24.775170 -3.104946 -14.923244 29.088708 -0.124675 2.109502 -0.001154 -0.001169 375442.000000 0 0 1
24.740470 -4.493146 -15.229344 29.397485 -0.179653 2.115365 -0.003284 0.001941 -917988.000000 0 0 1
24.177170 -5.346446 -14.026644 28.458158 -0.217634 2.086200 0.000010 -0.000396 1131740.000000 0 0 1
22.790870 -5.139046 -13.687044 27.077089 -0.221778 2.100740 0.008004 0.005822 1397630.000000 0 0 1
21.840470 -5.616646 -14.654044 26.894123 -0.251713 2.147041 0.011480 0.008686 -102439.000000 0 0 1
20.387270 -5.554246 -14.126044 25.417229 -0.265982 2.160081 0.027117 0.005916 -56502.300000 0 0 1
19.991070 -6.587746 -13.207244 24.848995 -0.318328 2.131167 0.027859 0.005255 488231.000000 0 1 0
20.393970 -6.378746 -11.854944 24.436491 -0.303136 2.077311 0.034855 0.009473 -520102.000000 0 1 0
20.104070 -7.605146 -10.949844 24.122831 -0.361651 2.041956 0.027767 0.007590 553280.000000 0 1 0
18.734570 -8.030046 -10.795044 23.065098 -0.404934 2.057851 0.026396 0.003615 1312390.000000 0 1 0
18.435970 -9.062946 -11.755544 23.668857 -0.456897 2.090551 0.025247 -0.002165 -758438.000000 0 1 0
17.010470 -9.565746 -11.508344 22.656160 -0.512271 2.103607 0.032538 -0.008172 281719.000000 0 1 0
16.062970 -8.558646 -12.003744 21.802736 -0.489556 2.153833 0.031680 -0.005846 56454.900000 0 1 0
14.870470 -9.178946 -12.355144 21.401717 -0.553014 2.186211 0.030404 -0.007134 -836242.000000 0 1 0
13.807470 -8.222846 -12.897444 20.605957 -0.537131 2.247092 0.029005 -0.003517 -529084.000000 0 1 0
14.089870 -7.531946 -14.177544 21.360183 -0.490915 2.296600 0.035358 -0.001446 933835.000000 0 1 0
15.193270 -6.596246 -14.165744 21.794821 -0.409600 2.278327 0.040404 -0.001546 519190.000000 0 1 0
15.021470 -5.376046 -15.085944 21.957507 -0.343687 2.328220 0.027241 -0.003088 -17679.600000 0 1 0
14.045570 -4.524246 -14.521244 20.702980 -0.311618 2.348168 0.031630 -0.005435 156996.000000 0 1 0
13.552170 -3.479946 -15.364844 20.780995 -0.251351 2.402930 0.023903 -0.017026 -355682.000000 0 1 0
14.441470 -2.247646 -15.477344 21.287464 -0.154400 2.384832 0.016381 -0.012118 313161.000000 0 1 0
15.524870 -2.502546 -16.429244 22.742128 -0.159821 2.378084 0.011738 -0.001699 529951.000000 0 1 0
16.621470 -1.633846 -16.347344 23.370459 -0.097983 2.345476 0.016638 0.008269 -206990.000000 0 1 0
17.696770 -2.094246 -15.373644 23.535302 -0.117793 2.282621 0.024552 0.006055 -1059790.000000 0 1 0
17.321870 -2.009646 -14.033344 22.383489 -0.115501 2.248429 0.017106 0.006932 -238701.000000 0 1 0
18.294970 -2.477946 -13.134344 22.657386 -0.134625 2.189149 0.012658 0.005902 -245317.000000 0 1 0
17.793470 -2.695246 -11.673444 21.450903 -0.150331 2.146224 0.006298 0.011360 -404773.000000 0 1 0
17.772370 -1.516646 -10.866244 20.886182 -0.085131 2.117952 0.011309 0.007838 615289.000000 0 1 0
17.337870 -1.867146 -9.574544 19.893714 -0.107278 2.072916 0.005711 0.006520 -1245820.000000 0 1 0
17.233670 -0.691246 -8.576744 19.262340 -0.040089 2.032261 -0.003726 0.005680 80383.600000 0 1 0
18.433070 -0.170746 -8.009944 20.098916 -0.009263 1.980706 -0.011938 0.008135 593307.000000 0 1 0
19.479070 0.283154 -8.823344 21.386111 0.014535 1.996074 -0.013743 0.009379 -559665.000000 0 1 0
19.267670 1.604454 -9.619944 21.595386 0.083080 2.032488 -0.010748 0.008370 -707523.000000 0 1 0
19.358470 2.795854 -8.842344 21.465186 0.143434 1.995377 -0.003999 0.011440 1062630.000000 0 1 0
18.552970 3.795954 -9.506744 21.189623 0.201816 2.036052 -0.017335 0.001548 -254817.000000 0 1 0
18.656570 5.237654 -9.033744 21.380111 0.273695 2.007032 0.003263 0.002370 -339252.000000 0 1 0
17.748770 6.136554 -9.643344 21.110903 0.332879 2.045185 -0.004937 -0.005305 695390.000000 0 1 0
18.245570 7.446254 -9.505744 21.879367 0.387481 2.020237 0.010907 0.000046 -198731.000000 0 1 0
-24.883530 -29.270446 5.893156 38.867446 0.866230 1.418587 0.025230 0.004073 -95891.100000 0 0 1
-25.151190 -28.325556 6.908056 38.505074 0.844688 1.390413 0.021667 0.003759 21751.800000 0 0 1
-24.135430 -27.329176 6.859856 37.100680 0.847376 1.384828 0.017587 0.007806 -284954.000000 0 0 1
-24.326830 -26.130026 7.801056 36.543527 0.821120 1.355668 0.003757 0.017068 -336641.000000 0 0 1
-25.449450 -25.295596 7.550956 36.668224 0.782366 1.363386 -0.002167 0.013383 1112370.000000 0 0 1
-26.764250 -25.788926 7.897756 37.996952 0.766841 1.361417 -0.000234 0.012168 996207.000000 0 0 1
-27.058220 -26.129946 9.424556 38.778133 0.767947 1.325300 -0.007704 0.011140 -955494.000000 0 0 1
-26.186520 -27.103356 9.856556 38.954813 0.802601 1.314990 -0.007800 0.009407 -865951.000000 0 0 1
-26.341880 -27.425556 11.204756 39.643440 0.805550 1.284253 -0.020408 0.017921 -778606.000000 0 0 1
-25.205280 -28.085486 11.949356 39.583933 0.839393 1.264139 -0.025464 0.019936 40823.800000 0 0 1
-24.202230 -27.194716 12.484156 38.485772 0.843556 1.240436 -0.001773 0.025885 572885.000000 0 0 1
-24.622530 -26.643196 13.727556 38.788847 0.824793 1.209054 -0.005099 0.026797 -205308.000000 0 0 1
-23.431830 -26.037406 14.515056 37.916804 0.838020 1.177957 0.003535 0.027477 -190065.000000 0 0 1
-22.574830 -27.040236 14.930956 38.258735 0.875157 1.169879 0.016998 0.018928 -166444.000000 0 0 1
-21.518530 -26.568316 15.781556 37.656076 0.890029 1.138346 0.021723 0.020438 263089.000000 0 0 1
-20.624430 -27.724706 16.188856 38.158951 0.931210 1.132665 0.024704 0.006779 -635727.000000 0 0 1
-21.293130 -28.525176 17.131656 39.504135 0.929560 1.122237 0.032440 0.011155 227188.000000 0 0 1
-20.617830 -29.705426 17.470356 40.158693 0.964057 1.120721 0.018678 0.012489 -533209.000000 0 0 1
-21.454030 -30.563136 18.394456 41.626154 0.958758 1.113085 0.013111 0.007894 -306488.000000 0 0 1
-22.623230 -31.103086 17.815556 42.386396 0.941941 1.137006 0.014699 0.002196 41215.600000 0 0 1
-23.123730 -32.094466 18.638156 43.728052 0.946451 1.130476 0.004045 0.007946 -520894.000000 0 0 1
-24.364230 -32.766426 18.052056 44.644497 0.931421 1.154527 0.002239 0.005118 -341855.000000 0 0 1
-23.956930 -33.601426 16.965456 44.618573 0.951416 1.180748 0.003342 0.004712 20909.200000 0 0 1
-24.939330 -34.518494 16.554656 45.689750 0.945134 1.200032 0.010349 -0.000495 -629256.000000 0 0 1
-24.627830 34.102799 15.209056 44.730821 -0.945349 1.223866 0.003706 -0.007964 381524.000000 0 0 1
-23.468230 33.289891 15.200156 43.474354 -0.956745 1.213615 -0.010087 -0.009256 444869.000000 0 0 1
-22.223730 33.927368 14.981556 43.236646 -0.990887 1.216958 -0.006939 -0.002940 463922.000000 0 0 1
-21.006330 32.923601 14.953856 41.819221 -1.002880 1.205117 0.004418 -0.008933 550134.000000 0 0 1
-20.984330 32.063111 13.877356 40.754953 -0.991285 1.223340 0.011051 -0.004614 -601487.000000 0 0 1
-19.904630 31.223361 14.011856 39.590715 -1.003265 1.209040 0.004339 -0.004505 -568773.000000 0 0 1
-19.811830 30.198991 12.818656 38.325000 -0.990185 1.229751 0.002135 -0.001377 -848.714000 0 0 1
-19.266830 30.916071 11.726556 38.269130 -1.013494 1.259363 -0.004137 0.006633 -29762.300000 0 0 1
-19.175230 30.157001 10.541056 37.259201 -1.004435 1.283968 -0.006599 0.006622 -23878.500000 0 0 1
-18.673430 30.943631 9.336356 37.327910 -1.027832 1.317995 -0.021098 0.013922 841056.000000 0 0 1
-17.275830 30.811041 9.002756 36.453041 -1.059773 1.321246 -0.014871 0.006499 587327.000000 0 0 1
-17.015830 31.395691 7.715256 36.534273 -1.074132 1.358016 -0.015688 0.008554 4556.220000 0 0 1
-16.766230 30.454511 6.539056 35.374327 -1.067544 1.384874 -0.016428 0.007814 125530.000000 0 0 1
-17.783130 29.463591 6.324256 34.990558 -1.027761 1.389056 -0.025368 0.013599 320049.000000 0 0 1
-17.412030 28.230461 6.876656 33.873679 -1.018129 1.366367 -0.022633 0.015247 546127.000000 0 0 1
-18.367530 27.031131 6.425456 33.306677 -0.973965 1.376661 -0.014642 0.022979 546993.000000 0 0 1
-18.128330 26.697431 5.048756 32.663116 -0.974284 1.415604 -0.010037 0.009533 361691.000000 0 0 1
-19.128130 25.910081 4.425656 32.508523 -0.934857 1.434234 0.004722 0.001482 -572871.000000 0 0 1
-18.628430 25.205011 3.159256 31.500665 -0.934323 1.470336 0.013872 -0.004114 -1127030.000000 0 0 1
-18.278530 25.964971 2.055656 31.819964 -0.957412 1.506149 0.006768 -0.003615 1661920.000000 0 0 1
-16.953530 26.582451 2.112656 31.599244 -1.003066 1.503889 -0.002494 -0.002675 2047060.000000 0 0 1
-15.651730 25.687821 2.271056 30.166182 -1.023563 1.495440 -0.007215 -0.008990 175710.000000 0 0 1
-15.424830 24.649951 1.323856 29.108385 -1.011654 1.525300 0.000944 -0.016877 -98930.000000 0 0 1
-15.185830 24.905081 -0.071644 29.169807 -1.023240 1.573252 0.009347 -0.018881 -102867.000000 0 0 1
-15.065430 23.708591 -1.061144 28.110327 -1.004724 1.608555 0.017949 -0.027220 280845.000000 0 0 1
-16.232830 22.888691 -1.215444 28.086905 -0.953918 1.614084 0.031290 -0.032830 272835.000000 0 0 1
-16.105330 21.788691 -2.107444 27.176645 -0.934269 1.648420 0.033456 -0.029851 -167897.000000 0 0 1
-15.292530 20.505091 -1.764344 25.640459 -0.929994 1.639662 0.036536 -0.030332 352832.000000 0 0 1
-15.962830 19.772691 -0.740844 25.422826 -0.891610 1.599941 0.046311 -0.038559 239025.000000 0 0 1
-15.044830 19.061491 0.039956 24.283512 -0.902627 1.569151 0.061065 -0.037313 10322.700000 0 1 0
-15.766330 17.984991 0.876456 23.933350 -0.851039 1.534167 0.050993 -0.030321 124927.000000 0 1 0
-16.376430 16.983691 0.111156 23.593338 -0.803599 1.566085 0.041381 -0.027650 165058.000000 0 1 0
-17.081130 16.121491 0.958456 23.507150 -0.756504 1.530012 0.039877 -0.038208 -122485.000000 0 1 0
-17.767530 14.923691 0.230056 23.204625 -0.698626 1.560882 0.063106 -0.032092 -867837.000000 0 1 0
-18.765230 15.327291 -0.615644 24.237135 -0.684896 1.596200 0.058557 -0.033319 -554578.000000 0 1 0
-19.334730 14.170791 -1.182444 24.000860 -0.632479 1.620083 0.035092 -0.023612 696262.000000 0 1 0
-20.608930 14.421291 -2.100444 25.241107 -0.610564 1.654108 0.054304 -0.012235 416618.000000 0 0 1
-21.509330 13.380991 -2.456744 25.450693 -0.556512 1.667476 0.040434 -0.011449 1217980.000000 0 0 1
-22.517230 13.085591 -1.482344 26.085545 -0.526434 1.627653 0.026184 -0.007629 392436.000000 0 0 1
-23.750130 14.029491 -1.381444 27.618901 -0.533562 1.620835 0.003446 -0.005135 -526161.000000 0 0 1
-23.356630 15.300791 -0.924844 27.937461 -0.579948 1.603906 -0.012694 -0.015276 -42129.700000 0 0 1
-24.335030 16.033291 -0.253344 29.143169 -0.582576 1.579490 -0.012536 -0.012439 -628729.000000 0 0 1
-23.675830 17.261891 0.450356 29.303935 -0.629986 1.555427 -0.023227 -0.017729 196232.000000 0 0 1
-22.900730 16.878091 1.579556 28.492251 -0.635136 1.515330 -0.024385 -0.016912 731984.000000 0 0 1
-22.117630 17.947691 2.192256 28.567729 -0.681693 1.493982 -0.023555 -0.023749 67805.700000 0 0 1
-22.884530 19.124491 2.837756 29.958317 -0.696131 1.475931 -0.020786 -0.018071 -698894.000000 0 0 1
-23.578930 18.617391 3.956656 30.302282 -0.668353 1.439850 -0.014961 -0.016583 884505.000000 0 0 1
-24.923930 19.101291 4.136656 31.672915 -0.653904 1.439817 -0.012583 -0.018113 1225330.000000 0 0 1
-25.998960 18.389091 3.270156 32.012474 -0.615609 1.468465 0.028391 -0.012065 -435427.000000 0 0 1
-27.319640 18.872991 3.357156 33.373987 -0.604539 1.470034 0.036965 -0.005241 146604.000000 0 0 1
-28.109350 18.217791 2.371156 33.580438 -0.575041 1.500126 0.031126 0.009672 413539.000000 0 0 1
-29.339830 19.078191 1.928056 35.050255 -0.576550 1.515760 0.018928 -0.002309 785706.000000 0 0 1
-30.289730 19.353691 2.965856 36.067013 -0.568570 1.488472 0.060272 -0.004512 1253730.000000 0 0 1
-31.430230 20.140091 2.541856 37.415821 -0.569872 1.502809 0.028719 -0.002857 1245070.000000 0 0 1
-32.307470 20.696591 3.700256 38.546250 -0.569748 1.474653 0.021797 -0.005332 106746.000000 0 0 1
-31.614450 21.763591 4.310056 38.622583 -0.602903 1.458969 0.023347 -0.011252 196471.000000 0 0 1
-32.245790 22.252991 5.440256 39.554810 -0.604054 1.432822 0.003636 -0.013045 -153413.000000 0 0 1
-31.302440 23.266091 6.141956 39.482621 -0.639178 1.414601 0.011630 -0.014257 57035.300000 0 0 1
-31.097770 24.499791 5.468856 39.965228 -0.667277 1.433525 0.003095 -0.008595 603078.000000 0 0 1
-30.177940 25.277351 6.255856 39.859607 -0.697257 1.413197 -0.007424 -0.004066 188801.000000 0 0 1
-30.193500 26.734581 5.810356 40.744883 -0.724713 1.427705 -0.009605 -0.002438 79578.800000 0 0 1
-31.297330 27.362291 6.466156 42.071713 -0.718416 1.416491 -0.011353 -0.001374 430646.000000 0 0 1
-31.444110 28.698071 6.084656 43.003888 -0.739771 1.428829 -0.015499 0.000223 79990.400000 0 0 1
-32.496470 29.368201 6.992256 44.355422 -0.734875 1.412494 -0.016289 0.000301 -187003.000000 0 0 1
-31.891160 29.555511 8.253756 44.257189 -0.747405 1.383203 -0.020901 0.003980 126548.000000 0 0 1
-32.749180 30.121861 9.200356 45.436570 -0.743633 1.366899 -0.013515 0.000926 -770072.000000 0 0 1
-33.901070 29.284541 9.736656 45.843968 -0.712465 1.356779 -0.005852 -0.000164 -453896.000000 0 0 1
-33.468910 28.192601 10.474456 44.996721 -0.700037 1.335858 -0.005648 -0.007446 690560.000000 0 0 1
-34.590124 27.631211 11.162356 45.656968 -0.674020 1.323810 0.010284 -0.013917 618885.000000 0 0 1
-34.107994 26.366411 11.941156 44.734037 -0.658076 1.300583 0.007631 -0.008073 -53892.500000 0 0 1
-33.025710 26.625841 12.808056 44.313421 -0.678519 1.277579 0.006901 -0.016163 65122.800000 0 0 1
-32.758310 25.559391 13.631556 43.728808 -0.662576 1.253784 0.015105 -0.015414 19154.400000 0 0 1
-31.593240 25.913521 14.591156 43.388308 -0.686951 1.227819 0.019912 -0.017307 35448.200000 0 0 1
-31.977460 26.744531 15.637856 44.523819 -0.696519 1.211918 0.009541 -0.014241 764656.000000 0 0 1
-30.832720 27.141561 16.437756 44.243879 -0.721815 1.190144 0.037162 -0.011275 899021.000000 0 0 1
-31.251500 28.284991 17.445056 45.618274 -0.735613 1.178389 0.023241 -0.014867 -656466.000000 0 0 1
-31.601720 29.414491 16.707556 46.292801 -0.749567 1.201552 0.027940 -0.020027 -142412.000000 0 0 1
-31.915250 30.491411 17.528856 47.492843 -0.762587 1.192773 0.018588 -0.016011 -179437.000000 0 0 1
-31.513230 31.787201 16.883656 47.838977 -0.789726 1.210099 0.009203 -0.007927 34133.600000 0 0 1
-30.120830 31.928091 16.677856 46.955493 -0.814516 1.207685 0.002456 -0.001925 -118685.000000 0 0 1
-29.904550 32.999571 15.772856 47.244437 -0.834561 1.230405 -0.001343 0.009894 -463223.000000 0 0 1
-28.444570 33.073821 15.295856 46.226988 -0.860506 1.233554 0.011859 0.001967 -317323.000000 0 0 1
-28.066820 32.153151 14.340856 45.024790 -0.853151 1.246639 0.010480 -0.002745 46917.000000 0 0 1
-27.874900 30.756521 14.740256 44.048255 -0.834507 1.229574 0.001968 -0.006683 -15740.400000 0 0 1
-29.024290 29.775641 14.335856 43.983122 -0.798176 1.238791 0.010811 -0.009942 338602.000000 0 0 1
-28.942950 29.398551 12.988756 43.251323 -0.793207 1.265780 0.011950 -0.020085 -151356.000000 0 0 1
-30.068770 28.790661 12.382256 43.432170 -0.763687 1.281692 0.027088 -0.022828 249594.000000 0 0 1
-29.873090 28.816701 10.841956 42.899322 -0.767401 1.315295 0.019226 -0.014958 334269.000000 0 0 1
-28.829710 27.948721 10.389556 41.475608 -0.769883 1.317602 0.005040 -0.009275 84439.900000 0 0 1
-28.604880 28.110461 9.006056 41.104090 -0.776681 1.349901 -0.001049 -0.009715 589137.000000 0 0 1
-27.455270 27.212831 8.390356 39.556644 -0.780963 1.357063 0.003886 -0.007101 801604.000000 0 0 1
-27.264490 27.628161 7.063856 39.453337 -0.792023 1.390782 0.003711 -0.000693 -429778.000000 0 0 1
-26.321000 26.819181 6.395956 38.117867 -0.794773 1.402205 0.003380 0.002482 -706308.000000 0 0 1
-26.059200 27.264401 4.954056 38.039087 -0.807996 1.440189 0.007286 -0.000816 47844.300000 0 0 1
-25.169000 28.387831 4.876756 38.250886 -0.845427 1.442954 0.010756 0.012070 441195.000000 0 0 1
-25.048630 28.819211 3.535456 38.346841 -0.855281 1.478468 0.015372 0.008907 -278523.000000 0 0 1
-24.046230 29.977731 3.365456 38.577349 -0.894754 1.483446 0.014339 0.005810 1050230.000000 0 0 1
-22.695130 29.451731 3.280156 37.326034 -0.914249 1.482804 0.013016 0.009547 413549.000000 0 0 1
-21.786930 30.474131 3.107056 37.589850 -0.950119 1.488045 0.013800 0.009650 931527.000000 0 0 1
-20.260830 30.073611 3.277356 36.409674 -0.977935 1.480661 -0.004451 0.009146 1140730.000000 0 0 1
-19.347030 31.022311 2.820656 36.669435 -1.013169 1.493799 -0.008370 0.005139 -1334940.000000 0 0 1
-18.066830 30.530581 3.033256 35.605159 -1.036456 1.485501 -0.001997 0.004856 -1083740.000000 0 0 1
-17.007230 31.433181 2.459456 35.823731 -1.074843 1.502088 0.004487 -0.000517 -692737.000000 0 0 1
-16.930430 32.707601 3.064556 36.956977 -1.093145 1.487779 0.002870 0.004093 -198157.000000 0 0 1
-15.955530 33.535294 2.486056 37.220631 -1.126709 1.503954 0.009521 0.005444 -387759.000000 0 0 1
-15.767130 -34.497590 3.249056 38.068917 1.142095 1.485346 0.009024 -0.000314 123117.000000 0 0 1
-16.817730 -33.538086 3.196356 37.654428 1.105988 1.485807 0.010567 -0.004861 232835.000000 0 0 1
-16.553730 -32.546776 4.199656 36.755350 1.100282 1.456287 -0.001894 0.003962 295426.000000 0 0 1
-17.703830 -31.505406 4.364356 36.401426 1.058840 1.450612 -0.004488 0.007981 220714.000000 0 0 1
-17.760830 -30.589086 3.315156 35.526462 1.044744 1.477345 0.013899 -0.001057 337362.000000 0 0 1
-18.760830 -29.600726 3.537756 35.223393 1.005897 1.470189 0.015489 -0.003154 115976.000000 0 0 1
-19.203530 -28.783786 2.276956 34.676598 0.982449 1.505086 0.006493 -0.005433 89213.600000 0 0 1
-18.324330 -27.693826 2.102856 33.273880 0.986257 1.507556 0.004144 0.001374 40821.500000 0 0 1
-18.792230 -26.742556 1.196156 32.706926 0.958255 1.534216 0.002153 0.000294 164976.000000 0 0 1
-17.876530 -25.458626 1.237456 31.132672 0.958609 1.531038 0.003895 -0.000330 128622.000000 0 0 1
-16.562130 -25.801766 0.888056 30.672853 1.000137 1.541840 0.018450 -0.002551 -900693.000000 0 0 1
-15.736530 -24.656846 1.034356 29.268897 1.002746 1.535449 0.012407 0.002437 787330.000000 0 0 1
-14.357030 -24.887646 0.317756 28.733608 1.047555 1.559737 0.019411 -0.004372 269596.000000 0 0 1
-14.441630 -24.986046 -1.111744 28.880775 1.046720 1.609300 0.024246 -0.003658 32852.300000 0 0 1
-14.563530 -23.752046 -1.852044 27.922861 1.020765 1.637172 0.029879 -0.007981 -192317.000000 0 0 1
-14.988930 -24.054146 -3.301044 28.533609 1.013541 1.686746 0.015121 -0.005337 -635568.000000 0 0 1
-14.010230 -24.653446 -4.077244 28.647912 1.054022 1.713604 0.041660 -0.006416 -556103.000000 0 0 1
-14.251130 -24.389746 -5.437144 28.766594 1.041995 1.760949 0.022618 -0.003616 -761704.000000 0 0 1
-13.120330 -24.811646 -6.313144 28.768327 1.084377 1.792045 0.058348 -0.010072 -564242.000000 0 0 1
-12.969630 -26.212156 -6.446444 29.947372 1.111322 1.787753 0.016986 -0.009180 56429.600000 0 0 1
-11.678730 -26.576416 -6.928044 29.844537 1.156759 1.805071 0.034159 -0.014160 524054.000000 0 0 1
22.431870 12.845254 28.737273 38.652558 0.520054 0.732542 0.009668 0.009140 223645.000000 0 0 1
23.249070 11.683954 29.017783 38.975194 0.465690 0.730982 0.003368 0.005065 839351.000000 0 0 1
22.615570 10.751254 29.921683 39.017440 0.443768 0.696831 0.001213 0.003989 -308048.000000 0 0 1
22.693970 11.093854 31.423873 40.318106 0.454685 0.677091 0.021382 -0.004996 199490.000000 0 0 1
21.807370 12.178954 31.656403 40.323891 0.509330 0.668014 0.019944 0.004469 165030.000000 0 0 1
22.093270 12.788554 32.900013 41.642173 0.524718 0.659882 0.020066 0.007843 -99455.000000 0 0 1
21.079670 13.903354 33.344909 41.827487 0.583068 0.648152 0.005095 0.020138 -857367.000000 0 0 1
19.933870 13.350254 33.848404 41.488588 0.590118 0.616601 0.014662 0.023592 -1479410.000000 0 0 1
19.129470 14.364754 34.351955 41.860956 0.644091 0.608300 0.009214 0.022798 -259510.000000 0 0 1
17.856070 13.759854 -34.159008 40.926894 0.656554 2.558266 0.012426 0.026047 -163389.000000 0 0 1
16.830770 13.336154 34.124102 40.318509 0.670070 0.561677 0.007809 0.025874 266010.000000 0 0 1
15.845770 12.718854 -34.178214 39.761891 0.676364 2.605228 0.006687 0.021756 -220116.000000 0 0 1
14.513670 12.434954 34.327845 39.289638 0.708414 0.508014 0.004923 0.026535 -497233.000000 0 0 1
14.618470 11.306154 33.492545 38.252835 0.658319 0.504208 0.003141 0.031408 -972588.000000 0 0 1
13.388370 10.743554 33.235811 37.407106 0.676236 0.476754 0.007035 0.022447 -812636.000000 0 0 1
13.386670 9.705354 32.107813 36.115211 0.627309 0.475556 0.010106 0.018445 -240600.000000 0 0 1
13.905870 8.478954 32.503693 36.355962 0.547550 0.464512 0.001145 0.022680 -156092.000000 0 0 1
14.419970 7.758354 31.426473 35.436574 0.493606 0.480341 0.009094 0.004220 51186.200000 0 0 1
14.903970 6.335654 31.888583 35.765215 0.401954 0.469910 0.027995 -0.002272 27347.300000 0 0 1
13.860570 5.420454 32.126643 35.406467 0.372785 0.433820 0.019948 0.005881 -370000.000000 0 0 1
14.279170 4.184554 32.658693 35.888653 0.285071 0.427511 0.024718 -0.001642 -491895.000000 0 0 1
13.285670 3.053454 32.554713 35.293653 0.225908 0.396559 0.005763 0.002797 -487691.000000 0 0 1
13.786070 1.783054 32.925373 35.739547 0.128623 0.399492 0.016715 -0.011434 44708.400000 0 0 1
12.792470 0.981354 33.573060 35.941073 0.076563 0.365027 0.014160 -0.010803 339595.000000 0 0 1
13.327770 -0.422946 33.918035 36.445047 -0.031724 0.374577 0.003878 -0.007661 9152.190000 0 0 1
13.568470 -1.272546 32.813203 35.530678 -0.093513 0.393644 -0.008929 -0.003031 102210.000000 0 0 1
14.165570 -2.504246 33.227598 36.207843 -0.174976 0.408568 0.001588 -0.004181 -473483.000000 0 0 1
14.096470 -3.646046 32.180843 35.321534 -0.253103 0.424893 0.005224 -0.006829 -1065640.000000 0 0 1
14.483170 -4.943946 32.605013 36.017936 -0.328955 0.438843 0.014691 -0.004156 1871250.000000 0 0 1
15.810870 -5.187446 33.219050 37.153715 -0.317027 0.464384 0.008107 -0.006927 1378570.000000 0 0 1
17.030470 -4.648446 32.501183 36.986104 -0.266458 0.497580 0.011866 -0.012627 -1608280.000000 0 0 1
17.221270 -3.285046 32.754063 37.150940 -0.188491 0.491453 0.014378 -0.012611 17340.300000 0 0 1
18.012770 -2.742846 31.705133 36.567726 -0.151112 0.521596 0.040112 -0.023936 -70742.400000 0 0 1
18.067570 -1.193246 31.881103 36.664229 -0.065948 0.516521 0.048401 -0.028167 -90643.400000 0 0 1
18.722870 -0.735946 33.073693 38.012586 -0.039287 0.515448 0.022271 -0.018813 164817.000000 0 0 1
18.675270 0.684754 33.233818 38.127697 0.036650 0.512248 0.015264 -0.011165 -47466.800000 0 0 1
19.645870 1.537754 32.381843 37.906578 0.078114 0.546682 0.046038 -0.019484 -472739.000000 0 0 1
19.610270 1.434554 30.976093 36.689767 0.073023 0.565594 0.052188 -0.025560 -305030.000000 0 0 1
20.471770 2.288254 30.268193 36.612744 0.111314 0.597558 0.042121 -0.015820 -175916.000000 0 0 1
20.063370 3.787454 30.060063 36.338561 0.186579 0.596651 0.038339 -0.010607 -241945.000000 0 0 1
20.071270 4.420954 31.309823 37.452713 0.216801 0.580875 0.033100 -0.012906 265600.000000 0 0 1
19.430270 5.661754 31.206963 37.194965 0.283538 0.575334 0.039680 -0.008007 -354314.000000 0 0 1
19.302870 6.203354 32.642413 38.426677 0.310945 0.555811 0.040760 -0.008700 -660610.000000 0 0 1
18.311070 5.566054 33.380023 38.477294 0.295097 0.520591 0.036817 -0.009449 -167831.000000 0 0 1
18.135470 6.324254 -34.572581 39.549397 0.335537 2.634504 0.027004 -0.007426 -365926.000000 0 0 1
16.972170 5.857554 -33.709244 38.192651 0.332327 2.652183 0.023194 -0.002984 -282852.000000 0 0 1
17.154370 4.562254 -33.195204 37.643168 0.259936 2.650544 0.005479 -0.012629 -582106.000000 0 0 1
15.932370 4.061754 -32.771874 36.665160 0.249620 2.676578 0.011369 -0.016153 -579761.000000 0 0 1
15.784270 2.587054 -33.205924 36.857420 0.162456 2.692702 0.007462 -0.023193 -23787.000000 0 0 1
16.759170 1.642154 -32.750904 36.826460 0.097674 2.666676 -0.007817 -0.012577 91630.900000 0 0 1
16.424770 0.265754 -32.891364 36.765276 0.016179 2.678401 -0.004639 -0.011318 -721031.000000 0 0 1
17.497470 -0.724746 -32.395224 36.825769 -0.041396 2.646004 -0.018483 -0.009451 -236568.000000 0 0 1
17.591770 -0.916446 -30.968654 35.628188 -0.052048 2.624414 -0.012959 -0.007678 296575.000000 0 0 1
18.030870 0.207854 -30.232654 35.201830 0.011527 2.603792 -0.006833 -0.002854 -486009.000000 0 0 1
17.667170 0.192354 -28.747174 33.742642 0.010887 2.590502 -0.022527 0.015564 1442740.000000 0 0 1
16.263070 0.128554 -28.320874 32.658473 0.007904 2.620314 -0.015652 0.002480 1620360.000000 0 0 1
15.969770 -0.141946 -26.935954 31.314522 -0.008888 2.606408 -0.004773 -0.001432 -545292.000000 0 0 1
16.577770 -1.364246 -26.287154 31.107846 -0.082109 2.577423 -0.000192 0.004691 -236385.000000 0 0 1
17.897870 -1.133146 -25.808394 31.427551 -0.063227 2.534312 0.004395 0.003987 371770.000000 0 0 1
18.635170 -2.313846 -25.469384 31.643529 -0.123533 2.506277 0.000983 0.010680 762102.000000 0 0 1
19.402570 -2.970146 -26.685774 33.127210 -0.151901 2.507407 0.004632 0.008118 -98930.500000 0 0 1
20.398170 -2.158146 -27.259414 34.114785 -0.105409 2.496510 0.012804 0.004498 -183188.000000 0 0 1
20.722870 -2.676546 -28.551254 35.380437 -0.128448 2.509814 0.007342 -0.000289 431127.000000 0 0 1
22.213070 -2.362846 -28.891404 36.520087 -0.105973 2.483418 0.003115 -0.010534 -67209.200000 0 0 1
23.114170 -3.246546 -28.327454 36.704898 -0.139544 2.452404 0.004111 -0.011426 294935.000000 0 0 1
24.426270 -2.729446 -28.659754 37.755450 -0.111281 2.432709 0.010062 -0.020170 1149350.000000 0 0 1
25.645270 -3.663946 -28.390874 38.433658 -0.141910 2.401933 0.029793 -0.012905 101730.000000 0 0 1
25.707070 -4.732346 -29.283254 39.252484 -0.182049 2.412866 0.027679 -0.013745 -76345.200000 0 0 1
26.749470 -5.631746 -29.030974 39.875408 -0.207506 2.386258 0.027577 -0.005212 -259850.000000 0 0 1
26.569170 -6.600046 -27.882104 39.075480 -0.243482 2.365341 0.006441 0.005234 -168601.000000 0 0 1
26.649470 -6.017046 -26.585904 38.120983 -0.222061 2.342572 0.001861 0.013103 264626.000000 0 0 1
26.368870 -7.029346 -25.646214 37.449396 -0.260519 2.325157 -0.014775 0.016037 -197445.000000 0 0 1
26.540670 -6.577446 -24.177444 36.499572 -0.242931 2.294819 -0.021656 0.019036 -656792.000000 0 0 1
27.883670 -6.382046 -23.877344 37.260664 -0.225005 2.266361 -0.022606 0.018335 -475924.000000 0 0 1
27.977770 -6.160346 -22.454844 36.399526 -0.216729 2.235593 -0.022735 0.016321 -100723.000000 0 0 1
29.404470 -5.746846 -22.042644 37.195796 -0.193008 2.205093 -0.020636 0.017421 -250969.000000 0 0 1
29.636470 -4.430346 -22.537944 37.495430 -0.148391 2.215654 -0.010471 0.007585 128372.000000 0 0 1
30.967870 -4.052446 -22.257044 38.351106 -0.130120 2.189954 -0.012613 0.007007 30913.200000 0 0 1
31.459370 -2.727746 -22.965644 39.045529 -0.086491 2.199598 -0.003121 -0.008685 74287.500000 0 0 1
30.763770 -1.635346 -22.416044 38.099382 -0.053108 2.199822 -0.000247 -0.010876 79431.100000 0 0 1
31.271070 -0.382446 -22.825644 38.717388 -0.012229 2.201292 -0.001243 -0.012511 -509854.000000 0 0 1
30.315770 0.775554 -22.619044 37.832110 0.025577 2.211649 0.001790 -0.008370 256110.000000 0 0 1
29.249770 0.716054 -23.623444 37.604905 0.024476 2.250035 0.005652 -0.009874 905113.000000 0 0 1
28.333870 1.755154 -23.406144 36.793156 0.061866 2.260301 0.003924 -0.004414 -1158180.000000 0 0 1
27.054470 1.683254 -24.182744 36.326062 0.062137 2.299246 -0.001334 -0.004290 -898619.000000 0 0 1
26.108970 2.600354 -23.662044 35.331749 0.099269 2.304615 -0.007645 -0.004222 -119179.000000 0 0 1
25.069870 2.788854 -24.586944 35.224904 0.110788 2.343396 0.001975 -0.011879 -95083.400000 0 0 1
24.002870 3.840954 -24.228644 34.320808 0.158675 2.354555 0.006201 -0.008564 88212.400000 0 0 1
24.587770 5.132554 -24.154444 34.847363 0.205789 2.336646 -0.009494 -0.005876 -693000.000000 0 0 1
23.609770 6.015654 -23.870544 34.108829 0.249487 2.345962 0.010766 -0.012392 -1206920.000000 0 0 1
24.103670 7.318354 -23.169744 34.225462 0.294774 2.314440 0.011831 -0.009167 -470661.000000 0 0 1
24.823270 8.138854 -24.041544 35.502556 0.316827 2.314717 0.001829 -0.008350 35661.700000 0 0 1
25.093770 9.395954 -23.440844 35.601326 0.358274 2.289522 0.010908 -0.010754 -285685.000000 0 0 1
25.944270 10.409354 -24.260344 37.013836 0.381557 2.285561 0.030036 -0.011202 -498771.000000 0 0 1
25.393170 10.892754 -25.464234 37.575156 0.405223 2.315410 0.027376 -0.015961 527644.000000 0 0 1
24.180370 11.642454 -25.293004 36.877813 0.448725 2.326581 0.042017 -0.022839 846831.000000 0 0 1
23.514570 12.008354 -26.704224 37.553311 0.472153 2.361860 0.035449 -0.022504 154870.000000 0 0 1
23.131170 10.910254 -27.550014 37.591062 0.440727 2.393353 0.029501 -0.010086 107933.000000 0 0 1
24.096670 9.969854 -27.964094 38.236606 0.392298 2.391086 0.021931 -0.020289 -273148.000000 0 0 1
25.083770 10.261254 -29.109624 39.772592 0.388309 2.391905 0.017953 -0.010876 -1130140.000000 0 0 1
26.100770 11.172354 -28.856494 40.481711 0.404449 2.364318 0.011460 -0.006857 306265.000000 0 0 1
26.960170 11.438454 -29.959774 41.896027 0.401254 2.367561 0.011889 0.001084 95374.500000 0 0 1
27.847870 10.339354 -30.524504 42.592857 0.355505 2.369795 0.006830 0.003039 -1000470.000000 0 0 1
27.210570 9.448854 -31.379974 42.595759 0.334222 2.398962 0.005706 -0.000925 477845.000000 0 0 1
28.173170 8.472254 -31.745814 43.281674 0.292118 2.394209 0.006753 -0.003692 132122.000000 0 0 1
27.503570 7.488354 -32.698804 43.378953 0.265825 2.424614 0.008455 -0.009946 357566.000000 0 0 1
26.353770 6.871854 -32.126454 42.117130 0.255074 2.438410 0.014116 -0.013341 40048.700000 0 0 1
25.758970 6.013354 -33.015404 42.304868 0.229340 2.466127 0.004098 -0.007882 -218133.000000 0 0 1
24.413970 5.361154 -32.572364 41.057798 0.216163 2.487055 0.001742 -0.007549 671616.000000 0 0 1
23.292070 6.171054 -32.916384 40.793268 0.258992 2.509694 0.008676 -0.012395 180725.000000 0 0 1
22.806770 6.899254 -31.780704 39.721047 0.293757 2.498254 0.008952 -0.009939 -291376.000000 0 0 1
21.381470 7.461254 -31.928574 39.144238 0.335747 2.524674 0.024102 -0.010563 -82625.000000 0 0 1
21.151170 8.509154 -32.823024 39.964091 0.382489 2.534505 0.038096 -0.002484 -611585.000000 0 0 1
19.878270 9.088354 -32.713274 39.343387 0.428826 2.552564 0.030428 0.000006 -280046.000000 0 0 1
19.432370 10.054154 -33.887254 40.336695 0.477464 2.568282 0.023132 0.010931 114467.000000 0 0 1
18.898270 9.347354 34.125602 40.113269 0.459330 0.553422 0.031432 0.004963 177557.000000 0 0 1
18.694370 10.215354 33.001853 39.280469 0.500106 0.573219 0.021068 0.010066 -170317.000000 0 0 1
17.774970 9.672554 31.904953 37.781396 0.498354 0.565236 0.012747 0.013843 -253612.000000 0 0 1
18.325570 8.800254 30.930753 37.013274 0.447696 0.581451 0.011293 0.005195 646267.000000 0 0 1
19.329070 9.280954 29.996953 36.872297 0.447646 0.620589 0.016415 0.005576 -388721.000000 0 0 1
18.875470 10.265154 28.918703 36.027047 0.498098 0.638997 0.019746 0.007988 -1016730.000000 0 0 1
17.976370 9.706354 28.068853 34.716332 0.495095 0.629163 0.011292 0.010206 197224.000000 0 0 1
16.620270 10.076254 28.364323 34.384576 0.545012 0.600746 0.000142 0.005872 -57390.600000 0 0 1
15.549870 9.243754 27.697723 33.081858 0.536335 0.578565 0.014798 0.002728 -757816.000000 0 0 1
15.508670 9.413354 26.285563 31.938392 0.545531 0.604109 0.016709 0.000974 -173647.000000 0 0 1
14.369070 8.908154 25.658283 30.727396 0.554962 0.582610 0.029905 0.003411 -358819.000000 0 0 1
14.318570 7.354054 25.444923 30.108930 0.474470 0.564052 0.031687 0.001234 -87198.100000 0 0 1
14.241770 6.666454 26.634863 30.930334 0.437797 0.533319 0.024588 -0.004558 15082.700000 0 0 1
13.928470 5.290954 26.454863 30.362086 0.363030 0.512926 0.022326 -0.004984 -119127.000000 0 0 1
14.125070 4.420354 27.670753 31.380371 0.303289 0.491162 0.023356 -0.005681 -687715.000000 0 0 1
15.490470 4.276554 27.906853 32.203044 0.269367 0.522467 0.025192 -0.001038 -617740.000000 0 0 1
15.694570 3.829154 29.195403 33.366952 0.239304 0.505403 0.035416 -0.004371 -515327.000000 0 0 1
16.276570 2.458854 29.326993 33.631016 0.149933 0.511478 0.044999 -0.005793 -554321.000000 0 0 1
15.481970 1.355454 28.985393 32.888929 0.087328 0.492166 0.025449 -0.012981 -798313.000000 0 0 1
14.566670 1.003254 29.935793 33.306848 0.068765 0.453800 0.008555 -0.006697 -756180.000000 0 0 1
14.330670 -0.486246 29.943213 33.199406 -0.033917 0.446601 0.008635 -0.004105 -217998.000000 0 0 1
13.577170 -0.995346 28.838703 31.890454 -0.073179 0.441047 0.004619 -0.008608 327011.000000 0 0 1
14.335370 -1.255846 27.671983 31.190041 -0.087382 0.479543 0.005115 -0.007689 -390433.000000 0 0 1
15.438370 -2.393446 27.747833 31.843588 -0.153808 0.512790 0.005809 -0.001327 876194.000000 0 0 1
16.680370 -2.108046 28.363943 32.972593 -0.125712 0.535080 0.014593 -0.012489 448996.000000 0 0 1
17.482070 -1.105146 27.725863 32.795847 -0.063132 0.563468 0.014410 -0.013371 -1716070.000000 0 0 1
18.909270 -1.018646 28.164753 33.938937 -0.053818 0.591930 0.057632 -0.011563 -913435.000000 0 0 1
19.743970 -1.875046 27.430513 33.849272 -0.094684 0.626009 0.042033 -0.008762 -122528.000000 0 0 1
21.109970 -1.826046 27.784133 34.941713 -0.086287 0.651531 0.055747 -0.017225 773999.000000 0 0 1
22.122670 -2.188646 26.626103 34.686483 -0.098611 0.695674 0.046717 -0.006672 414975.000000 0 0 1
21.933170 -1.403346 25.433883 33.614219 -0.063896 0.712637 0.046721 0.002445 333738.000000 0 0 1
21.381270 -2.178546 24.374393 32.496397 -0.101540 0.722637 0.044194 0.016197 -208737.000000 0 0 1
21.257570 -1.393546 23.065633 31.398243 -0.065462 0.745697 0.028257 -0.003828 -860665.000000 0 0 1
20.123170 -0.618546 23.105833 30.646437 -0.030728 0.716744 0.005695 0.006843 -1046490.000000 0 0 1
20.094870 0.197354 22.036433 29.823600 0.009821 0.739371 0.022619 0.013292 -79249.600000 0 0 1
-29.280570 -28.032984 -10.268944 41.816876 0.763634 1.818903 -0.017077 0.025606 35244.400000 0 0 1
-29.334550 -26.888584 -9.498644 40.911318 0.741921 1.805111 -0.015519 0.024080 -401809.000000 0 0 1
-30.006860 -27.036984 -8.301744 41.235047 0.733382 1.773509 -0.005573 0.014717 -1055860.000000 0 0 1
-30.210380 -25.726584 -7.505644 40.383893 0.705411 1.757741 0.009451 0.009031 -868975.000000 0 0 1
-29.164990 -24.969684 -7.017344 39.029794 0.708055 1.751574 0.009729 0.003910 -1080970.000000 0 0 1
-28.561860 -25.546084 -5.855744 38.764313 0.729719 1.722437 0.001710 0.005029 -24951.900000 0 0 1
-27.258070 -24.812884 -5.476944 37.264976 0.738474 1.718304 -0.005933 0.008496 -226321.000000 0 0 1
-27.312550 -23.699984 -4.611644 36.454518 0.714699 1.697640 0.003434 0.001197 -194628.000000 0 0 1
-28.095860 -22.580184 -4.995944 36.389579 0.676983 1.708522 0.012636 -0.008892 -195660.000000 0 0 1
-28.103550 -21.370184 -4.040544 35.536182 0.650129 1.684745 0.008809 -0.012911 -13930.300000 0 0 1
-26.971710 -20.488184 -4.032744 34.110142 0.649628 1.689301 0.007524 -0.018918 500211.000000 0 0 1
-27.084410 -19.495184 -3.037344 33.508997 0.623887 1.661564 0.007975 -0.009591 616701.000000 0 0 1
-25.950480 -18.387284 -3.137144 31.958743 0.616443 1.669117 0.012811 -0.012341 573241.000000 0 0 1
-26.141000 -17.559884 -4.257644 31.777805 0.591505 1.705182 0.009160 -0.020531 -94705.600000 0 0 1
-25.226890 -16.490584 -4.345444 30.450258 0.578965 1.713991 0.010420 -0.021276 -325060.000000 0 0 1
-25.387180 -15.490784 -5.479144 30.240607 0.547872 1.752988 -0.000477 -0.029511 -638652.000000 0 0 1
-26.642470 -14.872784 -5.458144 30.996971 0.509144 1.747806 -0.012255 -0.017777 -413017.000000 0 0 1
-26.786140 -13.773784 -6.358744 30.783892 0.474953 1.778855 0.006197 -0.032764 468354.000000 0 0 1
-28.082600 -12.955484 -6.001344 31.503858 0.432240 1.762463 0.012852 -0.019213 113561.000000 0 0 1
-29.207000 -13.643584 -6.434944 32.872553 0.437011 1.767823 0.016582 -0.012415 -426132.000000 0 0 1
-30.389030 -12.896084 -6.169644 33.583725 0.401334 1.755555 0.013872 -0.014914 -711786.000000 0 0 1
-31.596620 -13.430284 -6.870544 35.013187 0.401917 1.768305 -0.007748 -0.007587 -1085580.000000 0 0 1
-32.076150 -14.615784 -6.236044 35.796491 0.427550 1.745898 -0.006229 -0.006655 84367.000000 0 0 1
-31.875930 -15.688184 -7.149544 36.239619 0.457359 1.769384 -0.009624 -0.012688 -795229.000000 0 0 1
-32.603150 -17.016884 -6.881544 37.415175 0.481045 1.755773 -0.014523 -0.008506 1363030.000000 0 0 1
-34.047020 -16.948384 -6.765444 38.629244 0.461881 1.746842 0.001086 -0.008542 1301250.000000 0 0 1
-34.546810 -16.331584 -5.563344 38.615456 0.441601 1.715370 0.005825 -0.007140 -928785.000000 0 0 1
34.016995 -16.483084 -5.486544 38.196206 -0.451215 1.714936 0.025660 -0.014268 -843431.000000 0 0 1
33.302985 -15.807884 -6.494244 37.431981 -0.443178 1.745173 0.021926 -0.009111 462983.000000 0 0 1
31.895935 -15.721884 -6.287244 36.111739 -0.457961 1.745793 0.026969 -0.021059 628906.000000 0 0 1
31.338255 -14.787284 -5.146744 35.031970 -0.440884 1.718246 0.037235 -0.026209 -787988.000000 0 0 1
31.474305 -15.366684 -3.871244 35.238521 -0.454187 1.680877 0.025613 -0.021979 567335.000000 0 0 1
30.923555 -14.562484 -2.789044 34.294474 -0.440113 1.652213 0.041924 -0.024474 -722438.000000 0 0 1
30.827605 -15.293084 -1.391544 34.440616 -0.460510 1.611211 0.047820 -0.021723 -209470.000000 0 0 1
31.985905 -15.790284 -0.767544 35.679410 -0.458566 1.592310 0.065098 -0.020315 34413.300000 0 0 1
32.929655 -16.581684 -1.471744 36.898244 -0.466483 1.610693 0.048715 -0.028517 -601836.000000 0 0 1
32.580595 -18.027984 -1.916744 37.285081 -0.505400 1.622227 0.041252 -0.026164 -987956.000000 0 0 1
32.715155 -18.973184 -0.887044 37.829220 -0.525547 1.594247 0.045598 -0.027531 354322.000000 0 0 1
32.381765 -20.306584 -1.295244 38.244133 -0.560108 1.604671 0.040289 -0.023849 -60757.700000 0 0 1
33.422915 -21.022284 -2.203644 39.545969 -0.561455 1.626549 0.034556 -0.027424 135772.000000 0 0 1
33.559685 -20.269584 -3.380544 39.351449 -0.543345 1.656809 0.015392 -0.029832 -408916.000000 0 0 1
34.532529 -20.835984 -4.210644 40.550749 -0.542896 1.674820 0.023018 -0.023652 -373084.000000 0 0 1
34.698959 -20.282184 -5.622044 40.583150 -0.528958 1.709775 0.040052 -0.022164 373959.000000 0 0 1
33.550205 -20.484084 -6.480344 39.839789 -0.548141 1.734182 0.029412 -0.028262 863736.000000 0 0 1
33.550215 -19.668484 -7.621144 39.630140 -0.530241 1.764309 0.030072 -0.024865 171113.000000 0 0 1
32.387235 -19.862684 -8.637244 38.962304 -0.550132 1.794335 0.034292 -0.029058 148799.000000 0 0 1
32.630225 -21.038884 -9.348344 39.934418 -0.572688 1.807081 0.042054 -0.023830 348085.000000 0 0 1
31.644205 -21.346084 -10.325644 39.542760 -0.593451 1.834985 0.047170 -0.035625 -275385.000000 0 0 1
31.612605 -22.749284 -10.942844 40.455315 -0.623777 1.844700 0.045808 -0.029362 -218368.000000 0 0 1
31.047385 -23.701484 -10.080844 40.340102 -0.652020 1.823370 0.042232 -0.026826 -39975.700000 0 0 1
30.972565 -24.990884 -10.684044 41.206708 -0.678917 1.833072 0.022926 -0.011742 20436.300000 0 0 1
30.078625 -25.906084 -9.785044 40.885155 -0.711006 1.812472 0.010021 -0.007397 717846.000000 0 0 1
28.809725 -25.322684 -9.568244 39.532137 -0.721070 1.815261 0.009818 -0.011255 227392.000000 0 0 1
27.763895 -26.048084 -8.932844 39.104120 -0.753524 1.801269 -0.015217 -0.000077 179087.000000 0 0 1
26.434155 -25.318684 -8.998444 37.693133 -0.763848 1.811853 0.002938 -0.012457 -582046.000000 0 0 1
25.941015 -25.194984 -10.293644 37.598970 -0.770810 1.848112 0.009659 -0.002937 195737.000000 0 0 1
24.647765 -24.603884 -10.302944 36.318233 -0.784507 1.858431 0.019124 -0.023541 366612.000000 0 0 1
23.883965 -24.558884 -11.672944 36.191714 -0.799330 1.899198 0.032518 -0.023097 206215.000000 0 0 1
23.361765 -25.835684 -12.075144 36.865481 -0.835641 1.904502 0.036887 -0.018587 449266.000000 0 0 1
22.413765 -25.651184 -13.111244 36.500203 -0.852652 1.938218 0.047736 -0.002188 149681.000000 0 0 1
21.839565 -27.003384 -13.621944 37.305585 -0.890730 1.944585 0.062589 0.000074 306649.000000 0 0 1
22.847965 -27.727584 -14.325044 38.678874 -0.881582 1.950191 0.047167 0.003691 675573.000000 0 0 1
22.493265 -29.099584 -14.280544 39.454615 -0.912752 1.941154 0.067075 -0.004513 -330746.000000 0 0 1
23.302465 -30.085484 -15.120844 40.948518 -0.911773 1.949014 0.066018 -0.001332 -384911.000000 0 0 1
23.265065 -29.894784 -16.493044 41.315636 -0.909470 1.981436 0.054972 0.001527 428350.000000 0 0 1
23.067465 -31.174184 -17.062044 42.368042 -0.933756 1.985272 0.048905 0.000259 -383551.000000 0 0 1
23.057665 -31.161484 -18.575844 42.985532 -0.933764 2.017663 0.045644 0.013650 -193940.000000 0 0 1
21.896865 -30.586284 -19.122244 42.197792 -0.949476 2.041100 0.053901 0.010922 -232232.000000 0 0 1
21.853965 -30.533584 -20.527944 42.793597 -0.949588 2.071105 0.041638 0.014864 1144910.000000 0 0 1
20.383265 -30.337384 -21.100944 42.202893 -0.979189 2.094381 0.029502 0.021336 1088780.000000 0 0 1
20.333765 -30.315684 -22.504844 42.883221 -0.979983 2.123269 0.015459 0.023603 -677053.000000 0 0 1
19.025165 -30.350984 -22.997144 42.567684 -1.010876 2.141529 0.023854 0.018830 -673933.000000 0 0 1
18.849165 -30.522984 -24.538644 43.463647 -1.017579 2.170719 0.023063 0.023730 -320810.000000 0 0 1
19.399665 -29.439184 -25.289144 43.388401 -0.988138 2.193034 0.023568 0.017322 409597.000000 0 0 1
19.412165 -29.730384 -26.664464 44.404070 -0.992357 2.214917 0.021422 0.012959 -255511.000000 0 0 1
19.975565 -28.501484 -27.430944 44.314946 -0.959493 2.238265 0.010419 0.003047 -150686.000000 0 0 1
19.159665 -27.366084 -27.397624 43.204457 -0.959987 2.257691 0.027293 -0.006023 -501319.000000 0 0 1
18.148965 -27.358384 -28.368164 43.389155 -0.985074 2.283402 0.032168 -0.009026 -518064.000000 0 0 1
17.497365 -25.980684 -28.298764 42.213431 -0.978094 2.305508 0.033260 -0.003849 -340893.000000 0 0 1
16.551465 -25.786584 -27.265494 41.015924 -1.000162 2.297961 0.035582 0.004001 -198017.000000 0 0 1
16.054465 -24.511884 -27.264114 40.023870 -0.990938 2.320192 0.028710 0.005655 -308076.000000 0 0 1
14.995265 -24.323184 -26.168694 38.746300 -1.018332 2.312284 0.031883 0.010399 -92369.600000 0 0 1
13.766265 -24.983084 -26.517194 38.946451 -1.067168 2.319736 0.046424 0.001773 200937.000000 0 0 1
12.640365 -24.483184 -25.818674 37.759886 -1.094204 2.323698 0.040591 -0.000044 158679.000000 0 0 1
12.557965 -24.633184 -24.244744 36.773684 -1.099341 2.290678 0.021506 0.008807 -1182400.000000 0 0 1
13.424965 -23.730584 -23.671544 36.106956 -1.055961 2.285767 0.018143 0.006819 -593293.000000 0 0 1
13.610465 -24.062984 -22.313644 35.527041 -1.056041 2.249873 0.019216 0.007838 -17383.400000 0 0 1
14.855365 -23.452984 -21.652644 35.207404 -1.006172 2.233186 0.004628 0.005337 38368.300000 0 0 1
14.629765 -22.107284 -21.355844 34.041652 -0.986197 2.248935 -0.000755 0.000935 324462.000000 0 0 1
15.879565 -21.455284 -21.273844 34.133066 -0.933646 2.243703 0.006452 0.001831 -152140.000000 0 0 1
15.666465 -20.038284 -20.678944 32.780934 -0.907235 2.253409 0.010720 0.001119 264098.000000 0 0 1
15.129965 -20.082784 -19.341444 31.722633 -0.925136 2.226484 0.014072 0.001760 1227460.000000 0 0 1
13.685565 -20.139784 -19.345444 31.099064 -0.973942 2.242166 0.001551 0.006982 623755.000000 0 0 1
13.035165 -20.061084 -17.921244 29.892032 -0.994580 2.213713 0.009350 0.004772 -68424.800000 0 0 1
13.027765 -18.848684 -17.278744 28.697570 -0.966017 2.216922 0.028194 -0.001709 341937.000000 0 0 1
12.401465 -18.915684 -15.978944 27.693430 -0.990482 2.185840 0.029593 -0.004135 -149799.000000 0 0 1
12.719365 -17.699784 -15.097744 26.514269 -0.947685 2.176596 0.027290 0.002844 -878742.000000 0 0 1
11.875265 -16.638684 -15.363144 25.571349 -0.950925 2.215292 0.026497 -0.002295 -236611.000000 0 0 1
12.063365 -15.481284 -14.605944 24.464842 -0.908854 2.210575 0.027417 -0.005252 -515569.000000 0 1 0
10.797665 -14.675984 -14.329144 23.179698 -0.936486 2.237217 0.029332 -0.003814 -344507.000000 0 1 0
10.177165 -14.096684 -15.463144 23.268003 -0.945487 2.297710 0.027350 0.005114 -178228.000000 0 1 0
8.930365 -13.554684 -15.076444 22.153555 -0.988232 2.319300 0.026362 -0.000428 157501.000000 0 1 0
8.056865 -13.182784 -16.314144 22.468870 -1.022207 2.383397 0.026574 0.010209 -37881.800000 0 1 0
8.339365 -11.961084 -17.041744 22.428409 -0.961947 2.433846 0.022574 0.010823 225494.000000 0 1 0
9.565665 -11.960584 -17.778144 23.465291 -0.896198 2.430479 0.029048 0.005670 451947.000000 0 1 0
9.945665 -10.772284 -18.695644 23.758902 -0.825276 2.476549 0.038066 0.001201 -12987.100000 0 1 0
9.162665 -10.848784 -19.867344 24.420522 -0.869457 2.521030 0.034047 0.007202 369008.000000 0 1 0
9.377765 -9.696384 -20.620444 24.640719 -0.802101 2.562289 0.033612 -0.004196 -48581.300000 0 1 0
8.851065 -9.806084 -22.053644 25.707272 -0.836541 2.601918 0.029356 -0.002613 -8529.880000 0 0 1
9.735065 -10.531084 -22.895144 27.015973 -0.824656 2.581992 0.013886 0.002396 -160027.000000 0 0 1
9.344965 -10.515084 -24.206744 27.997532 -0.844248 2.615156 0.015791 0.001082 224163.000000 0 0 1
10.421865 -11.166884 -25.130044 29.408054 -0.819894 2.595440 0.033794 -0.000650 321681.000000 0 0 1
10.528465 -12.537984 -24.930344 29.825687 -0.872297 2.560509 0.023008 0.001544 -198199.000000 0 0 1
11.537765 -13.201784 -25.659354 31.077476 -0.852558 2.542163 0.028036 -0.007570 -247321.000000 0 0 1
11.557865 -14.736284 -25.386434 31.547001 -0.905694 2.505996 0.017166 -0.002598 -335885.000000 0 0 1
10.529165 -15.568584 -25.907934 32.007267 -0.976148 2.513993 0.019971 -0.004103 -102890.000000 0 0 1
10.571065 -16.785784 -25.177484 32.053325 -1.008779 2.474280 0.016053 -0.008051 -470292.000000 0 0 1
9.456765 -17.751384 -25.459114 32.445469 -1.081306 2.472966 0.019535 -0.009876 -575087.000000 0 0 1
9.449165 -18.383784 -26.721194 33.782723 -1.096016 2.483193 0.017106 -0.015639 474747.000000 0 0 1
8.226565 -19.090384 -26.993914 34.070375 -1.163916 2.485364 0.023441 -0.017237 607229.000000 0 0 1
8.205365 -19.790884 -28.352394 35.536816 -1.177765 2.494486 0.030872 -0.011876 -5064.520000 0 0 1
9.094565 -20.897984 -28.195894 36.255279 -1.160328 2.461802 0.022123 -0.012362 374559.000000 0 0 1
9.203265 -21.591084 -29.387444 37.609797 -1.167865 2.467666 0.029271 -0.013739 -89693.000000 0 0 1
9.847065 -22.930684 -29.005354 38.263448 -1.165182 2.431104 0.027424 -0.006601 -133523.000000 0 0 1
9.884765 -23.861784 -30.080834 39.647823 -1.178065 2.432113 0.034281 -0.008027 71773.800000 0 0 1
10.360465 -25.160384 -29.777034 40.336781 -1.180179 2.401210 0.038212 -0.018489 281417.000000 0 0 1
9.548165 -25.995984 -28.683324 39.870938 -1.218799 2.373741 0.032119 -0.023504 256529.000000 0 0 1
10.111065 -25.950284 -27.387184 39.060321 -1.199260 2.347807 0.028662 -0.006630 -771391.000000 0 0 1
9.370165 -26.412984 -26.291424 38.427655 -1.229891 2.324275 0.018974 0.001423 726025.000000 0 0 1
8.386465 -25.314584 -25.650614 37.001553 -1.250886 2.336758 0.007433 0.006919 955272.000000 0 0 1
9.206465 -24.235984 -25.159704 36.126896 -1.207765 2.341201 0.015727 0.011610 123157.000000 0 0 1
8.584265 -22.987484 -25.218104 35.186173 -1.213401 2.369862 0.001883 0.011668 -569281.000000 0 0 1
9.539965 -21.824684 -25.017444 34.542730 -1.158706 2.380737 0.016068 0.002977 -408765.000000 0 0 1
10.077965 -21.706184 -23.743344 33.711573 -1.136123 2.352245 0.007389 0.002603 107699.000000 0 0 1
11.139165 -20.763884 -23.678644 33.405060 -1.078401 2.358640 0.020714 -0.003377 16212.700000 0 0 1
11.607765 -20.584284 -22.220244 32.437512 -1.057333 2.325423 0.004053 0.000517 -590498.000000 0 0 1
10.704365 -20.003984 -21.332744 31.142073 -1.079456 2.325419 -0.004954 0.008930 -482953.000000 0 0 1
10.504065 -18.586184 -21.340644 30.186167 -1.056393 2.355998 0.004989 0.006781 461525.000000 0 0 1
11.746865 -17.592984 -21.164644 29.923971 -0.982078 2.356440 0.000471 0.006569 633384.000000 0 0 1
12.597065 -17.713384 -22.285244 31.130083 -0.952619 2.368673 0.004889 0.007363 -409055.000000 0 0 1
13.585965 -16.730284 -22.288144 31.003906 -0.888746 2.372989 0.002582 0.009429 166832.000000 0 0 1
14.831065 -16.804484 -23.216044 32.269736 -0.847697 2.373788 0.005570 0.006623 308857.000000 0 0 1
15.921265 -17.528784 -22.682144 32.790617 -0.833419 2.334674 0.013280 0.009322 -364383.000000 0 0 1
17.095265 -17.173084 -23.332844 33.639032 -0.787669 2.337304 0.018036 0.009973 -896186.000000 0 0 1
18.364265 -17.549384 -22.581344 33.987412 -0.762712 2.297491 0.024836 0.008308 -421637.000000 0 0 1
18.641465 -18.935584 -22.647544 34.913776 -0.793225 2.276633 0.026350 0.007039 1041520.000000 0 0 1
19.996365 -19.246384 -22.248644 35.570775 -0.766289 2.246537 0.023733 0.003283 1054650.000000 0 0 1
20.230365 -20.701684 -21.910144 36.302641 -0.796912 2.218731 0.030631 -0.003483 -141929.000000 0 0 1
19.807165 -21.129284 -20.607344 35.544803 -0.817684 2.189227 0.030554 -0.002013 287720.000000 0 0 1
19.890965 -22.501784 -20.530244 36.379550 -0.846907 2.170424 0.034131 0.002571 -222195.000000 0 0 1
-15.638330 13.636254 29.658603 36.195822 -0.717115 0.610445 0.010945 -0.000554 -476702.000000 0 0 1
-16.735430 14.338154 29.146303 36.539899 -0.708402 0.647396 0.032397 -0.005541 -296067.000000 0 0 1
-17.026230 13.864854 27.841863 35.458370 -0.683414 0.667780 0.023207 -0.001305 -158206.000000 0 0 1
-18.345630 14.415054 27.268823 35.887945 -0.665990 0.707741 0.037071 0.002637 -133893.000000 0 0 1
-18.407130 15.804454 27.063643 36.346168 -0.709469 0.730849 0.033850 0.005987 -457657.000000 0 0 1
-19.379030 16.117554 26.116953 36.296247 -0.693774 0.767643 0.037426 0.001572 -656016.000000 0 0 1
-19.491730 17.672254 26.002863 36.991688 -0.736479 0.791276 0.048735 0.006126 383934.000000 0 0 1
-18.396030 18.341254 25.366273 36.307896 -0.783907 0.797297 0.028060 0.000135 481109.000000 0 0 1
-17.293330 18.530154 26.234733 36.478584 -0.819910 0.768172 0.021807 0.006533 -317365.000000 0 0 1
-16.171030 19.440454 25.723873 36.071472 -0.876950 0.776834 0.013072 0.001818 -268780.000000 0 0 1
-16.440630 20.841154 25.579373 36.863971 -0.902889 0.803925 0.024116 -0.003928 -468596.000000 0 0 1
-15.326130 21.569754 25.168473 36.518442 -0.953033 0.810413 0.034668 -0.009011 -354965.000000 0 0 1
-15.515730 23.138454 25.342963 37.661541 -0.980103 0.832656 0.030929 -0.008013 -36127.700000 0 0 1
-15.331930 23.674054 26.640833 38.797717 -0.996092 0.813912 0.027106 -0.003609 22964.000000 0 0 1
-15.573530 25.028854 26.575133 39.688992 -1.014196 0.837147 0.024847 -0.013004 -638958.000000 0 0 1
-15.039530 25.854654 27.725863 40.784483 -1.043945 0.823287 0.012180 -0.009167 691.890000 0 0 1
-13.638830 26.049754 27.690963 40.390553 -1.088472 0.815396 0.009356 -0.010022 -203227.000000 0 0 1
-13.167630 26.788654 28.784303 41.467512 -1.113942 0.803570 0.008822 -0.007711 135428.000000 0 0 1
-11.626530 26.929654 28.870313 41.156742 -1.163233 0.793335 0.019863 -0.006044 381009.000000 0 0 1
-11.061830 27.674854 27.835443 40.780798 -1.190543 0.819533 0.019050 -0.005138 -641968.000000 0 0 1
-9.701330 27.904054 28.071553 40.752474 -1.236201 0.810922 0.005656 -0.008112 -384384.000000 0 0 1
-8.958630 28.630354 26.918503 40.305831 -1.267541 0.839471 0.015989 -0.013684 -142901.000000 0 0 1
-7.564930 28.379254 26.978263 39.880282 -1.310288 0.827822 0.018642 -0.016757 10574.000000 0 0 1
-7.084230 28.837254 25.741773 39.299013 -1.329904 0.856583 0.021411 -0.015974 -551218.000000 0 0 1
-5.602630 28.476354 25.573273 38.681837 -1.376531 0.848488 0.010229 -0.013602 -1061930.000000 0 0 1
-4.787130 28.950754 26.565213 39.582487 -1.406925 0.835057 0.016631 -0.015736 544912.000000 0 0 1
-3.376730 28.772354 26.322683 39.142487 -1.453971 0.833237 -0.003982 -0.010413 1617300.000000 0 0 1
-2.647630 29.860754 25.423873 39.307097 -1.482362 0.867414 -0.014704 -0.003270 -181410.000000 0 0 1
-3.161530 29.799554 24.132193 38.475595 -1.465099 0.892833 -0.018301 0.006652 -264248.000000 0 0 1
-2.739330 30.900254 23.403433 38.859366 -1.482377 0.924467 -0.025901 0.011541 -329680.000000 0 0 1
-2.938730 30.741754 21.805933 37.804633 -1.475492 0.955983 -0.023799 0.015349 -361766.000000 0 0 1
-4.251830 30.464554 21.417733 37.481814 -1.432126 0.962565 -0.020676 0.015489 -562162.000000 0 0 1
-4.513830 29.072654 21.453433 36.412136 -1.416766 0.940748 -0.017745 0.009141 287141.000000 0 0 1
-5.937530 28.656354 20.960733 35.997128 -1.366490 0.949255 -0.002602 0.011216 189207.000000 0 0 1
-6.218830 28.778554 19.596933 35.368330 -1.357976 0.983537 -0.010909 0.021734 -41979.100000 0 0 1
-7.161830 27.832354 19.176733 34.549657 -1.318940 0.982375 -0.013588 0.030050 -1266410.000000 0 0 1
-6.572930 26.503054 18.814533 33.160246 -1.327695 0.967473 -0.035929 0.028856 219249.000000 0 0 1
-5.697630 26.467954 17.664533 32.327253 -1.358767 0.992702 -0.026474 0.028438 -61610.800000 0 0 1
-4.406330 26.897854 17.952433 32.637404 -1.408421 0.988364 -0.021691 0.031745 -1150390.000000 0 0 1
-3.451030 27.053054 16.748933 32.004751 -1.443916 1.020046 -0.015646 0.025769 27552.800000 0 0 1
-3.100030 25.863054 16.095433 30.619776 -1.451502 1.017312 -0.014244 0.022457 -138746.000000 0 0 1
-2.376430 26.220854 14.936733 30.270226 -1.480412 1.054749 -0.012686 0.010086 -294884.000000 0 0 1
-1.865830 24.941454 14.260533 28.790975 -1.496127 1.052602 -0.012442 0.005161 -165599.000000 0 0 1
-0.876630 24.314954 15.057333 28.613087 -1.534759 1.016624 -0.009077 0.004460 -97934.600000 0 0 1
-0.381130 23.087554 14.510333 27.271417 -1.554290 1.009752 -0.005577 -0.012399 -1065450.000000 0 0 1
0.899270 22.816854 15.264133 27.466548 1.531404 0.981549 -0.010859 -0.004911 -1306580.000000 0 0 1
1.888770 23.759454 15.068933 28.198437 1.491468 1.007012 0.001883 -0.015885 -760338.000000 0 0 1
3.026970 23.437154 15.824533 28.440791 1.442355 0.980746 0.002519 -0.011542 -353178.000000 0 0 1
4.243470 24.303454 15.517233 29.145316 1.397935 1.009352 0.011693 -0.009009 -1038920.000000 0 0 1
5.484170 23.757654 15.782133 29.044414 1.343932 0.996339 0.019120 -0.010010 -1037650.000000 0 0 1
6.415570 24.801654 15.649933 30.020026 1.317670 1.022403 0.018750 -0.007992 -470181.000000 0 0 1
7.890870 24.373954 15.818433 30.109438 1.257703 1.017653 0.015934 -0.000558 -67806.800000 0 0 1
8.392270 23.704754 14.671733 29.113662 1.230533 1.042634 0.011612 0.000944 42240.700000 0 0 1
9.219370 24.611154 13.950633 29.754426 1.212375 1.082798 0.009354 -0.001970 -459617.000000 0 0 1
9.843670 23.907354 12.719233 28.813856 1.180208 1.113607 0.012976 -0.002590 51547.800000 0 0 1
10.675570 22.795754 13.022833 28.340931 1.132817 1.093357 0.007809 -0.006504 -289579.000000 0 0 1
11.129470 22.184154 11.877233 27.514913 1.105801 1.124458 0.012342 -0.007458 -20184.300000 0 0 1
12.427670 21.408854 12.222333 27.607453 1.044844 1.112168 0.001730 -0.002798 17974.900000 0 0 1
12.330570 20.403654 13.171833 27.236910 1.027198 1.066031 0.005596 -0.000918 20343.700000 0 0 1
13.502070 19.592854 13.151933 27.187482 0.967401 1.065862 0.002028 0.007549 -110573.000000 0 0 1
13.785370 19.037654 14.538533 27.637613 0.944071 1.016857 0.010352 0.005637 -797605.000000 0 0 1
14.987870 18.333254 14.593933 27.815955 0.885461 1.018480 -0.001323 0.015114 -286502.000000 0 0 1
15.219270 17.863154 15.931833 28.364445 0.865147 0.974377 -0.002664 0.000901 -158660.000000 0 0 1
16.452970 16.946954 15.914333 28.480967 0.800187 0.977893 -0.001575 0.000913 -141763.000000 0 0 1
16.838370 16.634354 17.248733 29.287390 0.779303 0.941041 0.010893 -0.003007 -180870.000000 0 0 1
17.965770 15.806754 17.219133 29.480857 0.721557 0.947052 0.003645 0.000719 -516822.000000 0 0 1
18.366170 15.293554 18.611833 30.292067 0.694366 0.909155 0.018875 0.002834 -178617.000000 0 0 1
18.815170 16.288854 19.528733 31.633982 0.713555 0.905447 0.019748 0.002159 439146.000000 0 0 1
17.861270 17.239554 19.995133 31.875265 0.767688 0.892724 0.012353 0.000223 -205736.000000 0 0 1
18.536570 18.362254 20.832133 33.387941 0.780674 0.897020 0.012242 0.001187 251831.000000 0 0 1
17.646370 19.334954 21.399933 33.811122 0.831027 0.885470 0.014614 0.008254 90897.300000 0 0 1
18.337670 20.271554 22.133133 35.172171 0.835445 0.890170 0.017877 0.005984 -265627.000000 0 0 1
17.429270 21.445654 22.627133 35.716700 0.888348 0.884706 0.024454 0.005205 221993.000000 0 0 1
16.540970 21.126054 23.662333 35.774570 0.906529 0.848074 0.016115 0.008716 -124890.000000 0 0 1
15.915870 22.301554 24.109513 36.495792 0.950957 0.849164 0.024404 -0.009217 223407.000000 0 0 1
15.085070 22.131054 25.415333 36.922649 0.972510 0.811598 0.028504 -0.009729 1411710.000000 0 0 1
13.929370 21.240054 25.395073 35.917642 0.990350 0.785498 0.019690 -0.000531 919187.000000 0 0 1
13.170170 21.227654 26.611113 36.499562 1.015494 0.753819 0.021725 -0.000844 -98000.500000 0 0 1
12.001470 20.266554 26.404973 35.383486 1.036146 0.728384 0.023637 -0.003951 -404841.000000 0 0 1
12.411770 18.905354 26.415233 34.773970 0.989850 0.708058 0.027273 0.004755 -173983.000000 0 0 1
12.944170 18.299054 25.246773 33.761020 0.955142 0.726041 0.028253 -0.003590 -423823.000000 0 0 1
12.173770 18.175254 23.931333 32.422974 0.980628 0.740549 0.029831 -0.002005 -1010120.000000 0 0 1
12.295270 19.292154 23.072933 32.491862 1.003387 0.781136 0.031983 -0.000204 732602.000000 0 0 1
13.543470 19.557354 22.375433 32.658470 0.965122 0.816008 0.027989 0.000512 951075.000000 0 0 1
14.094670 18.396154 21.475533 31.595518 0.917023 0.823440 0.020235 -0.001061 -463882.000000 0 0 1
13.240570 17.914654 20.466333 30.250923 0.934313 0.827726 0.020292 -0.004457 161439.000000 0 0 1
13.923270 16.947954 19.672833 29.463723 0.883064 0.839686 0.028408 -0.009482 335487.000000 0 0 1
12.904470 16.262854 18.730333 27.961244 0.900035 0.836766 0.019668 -0.003261 281448.000000 0 0 1
12.424070 16.971754 17.584433 27.415511 0.938886 0.874469 0.015023 0.002909 929110.000000 0 0 1
11.306970 16.314954 16.938033 26.094487 0.964755 0.864390 0.002671 -0.001450 855191.000000 0 0 1
10.711470 16.860054 15.607433 25.349339 1.004813 0.907530 0.006732 0.003693 274309.000000 0 0 1
10.144470 18.183354 15.733233 26.097495 1.061909 0.923711 0.005527 -0.003836 345118.000000 0 0 1
9.874470 18.770254 14.471833 25.676089 1.086511 0.972022 0.000845 0.008213 -504507.000000 0 0 1
8.937470 19.978454 14.438333 26.219887 1.150144 0.987637 0.007372 0.003173 -389622.000000 0 0 1
7.589670 19.630254 14.668333 25.653654 1.201868 0.962118 0.004899 -0.000859 -431765.000000 0 0 1
6.846270 20.824754 14.612533 26.345169 1.253171 0.982846 0.004254 -0.005311 589304.000000 0 0 1
5.461470 20.659054 15.340333 26.304942 1.312347 0.948167 0.004047 0.002810 1397530.000000 0 0 1
4.422870 19.967254 14.571833 25.111578 1.352810 0.951720 0.000355 -0.003755 208856.000000 0 0 1
3.520570 19.487954 15.524533 25.163185 1.392070 0.905930 -0.005628 -0.000572 -326910.000000 0 0 1
2.311170 18.690454 14.993133 24.072154 1.447766 0.898427 -0.010118 -0.006521 -171660.000000 0 1 0
1.481570 19.603254 14.303333 24.311889 1.495362 0.941808 -0.009021 -0.012269 -718615.000000 0 1 0
0.617370 18.889554 13.505533 23.229202 1.538125 0.950344 -0.007638 -0.020056 -673244.000000 0 1 0
-0.310230 19.668654 12.538633 23.327441 -1.555025 1.003320 0.000013 -0.029665 -404438.000000 0 1 0
-1.367730 20.302554 13.154033 24.230001 -1.503531 0.996931 -0.002188 -0.019720 -913699.000000 0 1 0
-2.363630 20.591654 12.212133 24.056998 -1.456511 1.038361 0.001570 -0.026599 29394.600000 0 1 0
-3.540430 21.428554 12.726233 25.172894 -1.407055 1.040773 -0.000298 -0.010413 79596.100000 0 0 1
-4.349430 20.887554 13.734733 25.374206 -1.365499 0.998829 0.002351 -0.008639 822662.000000 0 0 1
-5.452730 21.759854 14.134733 26.514415 -1.325266 1.008540 -0.000777 0.007795 453280.000000 0 0 1
-6.201830 21.219854 15.393333 26.938812 -1.286450 0.962563 0.003754 0.004536 -739228.000000 0 0 1
-6.959230 20.016754 15.169133 26.061541 -1.236199 0.949548 0.008359 0.001565 307751.000000 0 0 1
-7.614030 19.507954 16.327033 26.553827 -1.198677 0.908581 0.011094 0.019296 381159.000000 0 0 1
-8.845730 20.306354 16.885233 27.851500 -1.159970 0.919448 0.001598 0.021747 -224203.000000 0 0 1
-9.909630 20.306854 15.975533 27.672852 -1.116799 0.955378 -0.000667 0.014832 -470940.000000 0 0 1
-11.080430 19.972854 16.688433 28.287711 -1.064295 0.939795 -0.007927 0.019965 -568799.000000 0 0 1
-12.304530 19.568454 15.889633 28.050067 -1.009473 0.968576 0.004988 0.003845 -231903.000000 0 0 1
-13.104430 20.681854 15.454933 28.953758 -1.006023 1.007732 -0.001680 0.011559 318005.000000 0 0 1
-13.980330 20.284154 14.408433 28.539437 -0.967339 1.041576 0.007534 -0.001119 154348.000000 0 0 1
-14.963730 21.444154 14.012133 29.666561 -0.961548 1.078874 0.008431 -0.009621 25593.800000 0 0 1
-15.950430 21.675754 14.963733 30.792334 -0.936403 1.063339 0.004364 -0.012552 31179.100000 0 0 1
-16.968830 22.630054 14.650133 31.854151 -0.927400 1.092899 0.014077 -0.017508 1179710.000000 0 0 1
-18.230730 22.563254 15.577733 32.926064 -0.891207 1.077976 0.038460 -0.030452 502096.000000 0 0 1
-19.079730 21.392954 15.357933 32.520158 -0.842491 1.078945 0.031807 -0.023689 1633780.000000 0 0 1
-20.290330 21.328254 16.163933 33.583696 -0.810332 1.068656 0.025600 -0.018581 1619730.000000 0 0 1
-21.326230 22.507454 16.132233 34.952003 -0.812340 1.091050 0.025691 -0.016144 -937735.000000 0 0 1
-22.085830 22.569554 14.986133 34.953581 -0.796230 1.127694 0.020842 -0.013232 -483925.000000 0 0 1
-22.770930 23.768854 14.952233 36.153049 -0.806837 1.144412 0.033795 -0.021845 -1107340.000000 0 0 1
-22.107230 24.894854 14.164333 36.181648 -0.844637 1.168559 0.021669 -0.018601 -355252.000000 0 0 1
-20.897730 25.346954 14.713533 35.995433 -0.881313 1.149700 0.018224 -0.027265 -399293.000000 0 0 1
-20.526830 26.625754 14.326633 36.544958 -0.914028 1.167962 0.007432 -0.007711 531837.000000 0 0 1
-19.025930 26.860554 14.701833 36.050232 -0.954507 1.150736 0.012560 -0.014086 1497200.000000 0 0 1
-18.099730 26.245954 13.751833 34.721221 -0.967071 1.163570 0.018034 -0.005969 -63613.300000 0 0 1
-16.755330 26.557754 13.909033 34.344091 -1.007964 1.153828 0.004337 0.000077 -623065.000000 0 0 1
-15.858730 26.073954 12.758133 33.077490 -1.024354 1.174825 0.008702 0.000932 24660.700000 0 0 1
-14.507630 26.370854 13.028433 32.796849 -1.067847 1.162282 0.005685 0.006523 197541.000000 0 0 1
-13.583130 25.904254 12.038133 31.629866 -1.087852 1.180358 0.004624 0.005764 711689.000000 0 0 1
-12.149230 26.443454 12.232033 31.567114 -1.140118 1.172886 -0.003114 0.012171 468117.000000 0 0 1
-11.109530 25.948554 11.379033 30.434051 -1.166272 1.187595 -0.011945 0.015441 1437370.000000 0 0 1
-9.783330 26.444654 11.635033 30.502578 -1.216456 1.179438 0.005858 0.012752 883255.000000 0 0 1
-9.410330 27.804254 11.016733 31.352819 -1.244449 1.211752 0.003442 0.007858 -277848.000000 0 0 1
-8.247330 28.345754 11.623633 31.727103 -1.287659 1.195699 0.021887 -0.001206 141762.000000 0 0 1
-7.924130 29.447254 10.859433 32.370664 -1.307928 1.228691 0.021871 -0.000661 -360898.000000 0 0 1
-6.634730 30.142654 11.346733 32.883850 -1.354140 1.218499 0.017545 -0.002361 352395.000000 0 0 1
-5.459730 29.416554 10.990733 31.873790 -1.387284 1.218749 0.027690 -0.004797 653738.000000 0 0 1
-4.302430 30.015954 11.588533 32.461708 -1.428428 1.205752 0.011890 -0.006256 782042.000000 0 0 1
-2.926730 29.614454 10.990533 31.723389 -1.472288 1.217013 0.017502 -0.010660 231479.000000 0 0 1
-2.726930 30.261354 9.718833 31.900492 -1.480926 1.261214 0.036205 -0.019223 329210.000000 0 0 1
-1.718430 29.652354 8.913833 31.010829 -1.512909 1.279241 0.027108 -0.023998 235890.000000 0 0 1
-1.506630 30.477054 7.603533 31.447328 -1.521402 1.326590 0.017492 -0.024016 412934.000000 0 0 1
-2.499230 30.307254 6.568133 31.111351 -1.488519 1.358079 0.026799 -0.025982 653726.000000 0 0 1
-2.375130 31.230154 5.518333 31.802763 -1.494890 1.396396 0.016302 -0.020098 -41371.300000 0 0 1
10.289170 -34.423584 -27.496604 45.242826 -1.280350 2.224028 0.055444 -0.005079 125563.000000 0 0 1
10.650970 -34.248584 -26.116414 44.367507 -1.269288 2.200170 0.031254 0.001358 543202.000000 0 0 1
11.968470 -33.736684 -25.954864 44.216095 -1.229886 2.198145 0.032231 0.000839 268380.000000 0 0 1
12.458370 -33.794284 -24.491244 43.555546 -1.217602 2.167960 0.018109 0.013597 -716536.000000 0 0 1
12.101870 -32.621384 -23.784944 42.146571 -1.215555 2.170428 0.009309 0.020758 318862.000000 0 0 1
12.631270 -32.464384 -22.476444 41.456914 -1.199738 2.143807 -0.005054 0.025230 625505.000000 0 0 1
14.178970 -32.204784 -22.363744 41.693265 -1.156059 2.136947 -0.009240 0.032597 856701.000000 0 0 1
14.951670 -33.342784 -22.829144 43.086697 -1.149255 2.129211 0.004822 0.022797 1025010.000000 0 0 1
16.342670 -33.074684 -22.554844 43.240473 -1.111868 2.119538 0.000764 0.020286 502216.000000 0 0 1
17.300470 -34.212484 -22.885244 44.649017 -1.102617 2.108958 -0.002528 0.020669 255858.000000 0 0 1
18.639270 -33.942984 -22.438544 44.755299 -1.068618 2.095967 0.010902 0.028425 1079430.000000 0 0 1
19.424170 34.189554 -22.536244 45.322249 1.054139 2.091216 0.014779 0.024390 -162616.000000 0 0 1
20.925570 34.284554 -22.250344 45.917185 1.022801 2.076674 0.019557 0.030028 -19302.000000 0 0 1
21.659670 -34.506084 -23.354244 46.959896 -1.010254 2.091307 0.021230 0.033816 -1073390.000000 0 0 1
23.008570 -34.494584 -23.150144 47.488944 -0.982549 2.080003 0.008318 0.029780 -1178030.000000 0 0 1
23.808470 -33.565084 -24.101144 47.689865 -0.953841 2.100610 0.011323 0.009148 62877.600000 0 0 1
23.877570 -32.190384 -23.850744 46.639223 -0.932589 2.107596 0.015564 0.007416 260129.000000 0 0 1
22.688670 -31.514784 -24.255344 45.785140 -0.946815 2.129119 0.010975 0.014495 167078.000000 0 0 1
22.798970 -29.966184 -24.141744 44.727944 -0.920404 2.140932 0.014075 -0.007305 -852734.000000 0 0 1
23.599370 -29.365684 -25.075664 45.255525 -0.893841 2.158067 0.017176 -0.012476 -620595.000000 0 0 1
23.585170 -27.982884 -24.860344 44.241821 -0.870472 2.167501 0.018028 -0.003451 156854.000000 0 0 1
24.313570 -27.162184 -25.933674 44.738008 -0.840681 2.189131 0.007896 -0.001691 50107.300000 0 0 1
23.553470 -27.120084 -27.110614 45.002781 -0.855666 2.217327 0.007966 -0.003127 29490.100000 0 0 1
24.325070 -26.528584 -28.165744 45.703215 -0.828702 2.234800 0.003798 -0.004450 135474.000000 0 0 1
23.369970 -26.114184 -29.380394 45.730883 -0.840798 2.268504 0.001120 0.000669 655412.000000 0 0 1
22.578670 -24.993984 -29.179674 44.563987 -0.836126 2.284690 0.012670 -0.002588 58798.900000 0 0 1
21.489270 -25.183684 -28.267864 43.532502 -0.864389 2.277527 0.003240 0.000492 -319155.000000 0 0 1
20.654170 -23.886684 -28.044644 42.233523 -0.857845 2.297002 0.008090 0.003900 45517.800000 0 0 1
20.085970 -23.352184 -29.242394 42.472206 -0.860449 2.330224 0.018598 -0.000919 175626.000000 0 0 1
19.613470 -22.064984 -28.874134 41.294882 -0.844150 2.345100 0.019018 0.008102 -114914.000000 0 0 1
18.502970 -21.454684 -29.782844 41.105731 -0.859135 2.381167 0.019671 0.002529 395975.000000 0 0 1
17.309070 -22.225084 -29.693344 40.929854 -0.909112 2.382512 0.027247 0.000298 -128994.000000 0 0 1
16.256770 -21.552984 -30.337404 40.609996 -0.924568 2.414399 0.024484 -0.002965 -1008120.000000 0 0 1
15.104370 -22.519984 -30.425994 40.755770 -0.980000 2.413649 0.020567 -0.008446 -1096920.000000 0 0 1
15.251070 -23.547684 -31.372854 42.087344 -0.996063 2.411965 0.017770 -0.003073 30115.700000 0 0 1
14.428070 -24.640984 -31.036314 42.173452 -1.041083 2.397822 0.026718 -0.012318 1039.530000 0 0 1
14.747570 -25.920484 -31.864484 43.642956 -1.053517 2.389290 0.024069 -0.016333 2296.200000 0 0 1
13.913870 -26.938784 -31.395844 43.646224 -1.094036 2.373627 0.035773 -0.006891 107392.000000 0 0 1
14.513770 -28.219284 -31.559114 44.754387 -1.095758 2.353449 0.031226 -0.010832 12647.300000 0 0 1
13.632870 -29.267084 -30.907574 44.695586 -1.134874 2.334378 0.045122 -0.009865 -267664.000000 0 0 1
13.938870 -29.527484 -29.542814 44.033422 -1.129746 2.306242 0.052865 -0.013917 -141237.000000 0 0 1
13.703270 -28.447684 -28.633514 42.625443 -1.121895 2.307361 0.044785 -0.011846 -449030.000000 0 0 1
14.526170 -28.461884 -27.339644 42.054067 -1.098885 2.278522 0.044065 0.002501 -144021.000000 0 0 1
14.192470 -29.474784 -26.378984 42.024277 -1.122048 2.249402 0.049556 0.006345 557016.000000 0 0 1
15.082970 -29.382984 -25.239684 41.567985 -1.096547 2.223316 0.050138 0.003049 -306742.000000 0 0 1
14.818970 -28.166284 -24.302844 40.044595 -1.086468 2.222944 0.043665 0.004264 1088990.000000 0 0 1
13.682670 -28.210684 -23.411644 39.130080 -1.119207 2.212178 0.024727 0.010153 2282510.000000 0 0 1
12.365570 -28.454684 -24.002844 39.226431 -1.160847 2.229263 0.019528 0.022932 674973.000000 0 0 1
11.150270 -28.394984 -23.083244 38.254931 -1.196612 2.218561 -0.002855 0.026695 -229040.000000 0 0 1
10.976570 -27.089784 -22.647444 36.976319 -1.185822 2.229997 -0.009946 0.025866 298590.000000 0 0 1
9.835270 -26.868484 -21.820344 35.982987 -1.219893 2.222331 -0.005730 0.025808 -282861.000000 0 0 1
9.572070 -25.430284 -21.463744 34.626813 -1.210795 2.239359 -0.003407 0.021661 -352857.000000 0 0 1
10.264470 -24.885184 -20.372344 33.758911 -1.179584 2.218637 -0.016402 0.015142 -49075.300000 0 0 1
10.039170 -23.483284 -20.285144 32.614975 -1.166808 2.242037 -0.017342 0.006118 -342389.000000 0 0 1
10.583070 -22.829084 -19.003644 31.532632 -1.136708 2.217634 -0.018169 0.012440 64149.200000 0 0 1
9.798370 -23.113784 -17.840744 30.798493 -1.169842 2.188633 -0.012587 0.015420 452963.000000 0 0 1
10.083770 -22.249484 -16.727244 29.606125 -1.145273 2.171221 -0.011258 0.012627 -90549.800000 0 0 1
9.170370 -22.593384 -15.526244 28.907108 -1.185225 2.137801 -0.005739 0.010990 303513.000000 0 0 1
9.669270 -23.747184 -14.825444 29.617854 -1.184120 2.095039 -0.006209 0.011776 324423.000000 0 0 1
8.818870 -24.051684 -13.739844 29.069559 -1.219354 2.063096 -0.005889 0.006727 2036.350000 0 0 1
8.745670 -25.587784 -13.468144 30.209474 -1.241453 2.032892 -0.009959 0.010083 1144990.000000 0 0 1
9.991170 -26.206784 -13.015844 30.919754 -1.206563 2.005295 -0.007396 0.004920 1044770.000000 0 0 1
10.093370 -27.583384 -13.341044 32.259923 -1.220008 1.997144 -0.014189 0.001428 -779039.000000 0 0 1
11.356870 -28.303884 -12.858044 33.097094 -1.189215 1.969794 0.003783 0.002663 834899.000000 0 0 1
12.627770 -28.018984 -13.475344 33.557546 -1.147372 1.984015 0.014098 0.004579 925553.000000 0 0 1
12.707370 -28.361784 -14.809344 34.426511 -1.149569 2.015480 0.010820 -0.000181 -1430100.000000 0 0 1
14.042170 -27.944684 -15.394944 34.858172 -1.105152 2.028228 -0.003250 0.006853 -688076.000000 0 0 1
15.141070 -28.720084 -14.981944 35.756871 -1.085631 2.003134 0.035575 0.001155 -422510.000000 0 0 1
16.295870 -28.276684 -15.631444 36.186576 -1.047985 2.017470 0.044841 -0.004052 -605965.000000 0 0 1
17.500970 -29.177384 -15.440844 37.363396 -1.030514 1.996829 0.046524 -0.005018 -306957.000000 0 0 1
17.513770 -30.354384 -16.214744 38.613970 -1.047478 2.004153 0.039566 0.003266 703376.000000 0 0 1
18.845970 -30.897984 -16.245244 39.670694 -1.023099 1.992705 0.056636 0.008203 918871.000000 0 0 1
19.056870 -32.014784 -17.342944 41.096087 -1.033875 2.006457 0.041666 0.010001 343792.000000 0 0 1
18.387870 -33.285884 -17.131344 41.707874 -1.066095 1.994068 0.015433 0.019699 200268.000000 0 0 1
18.836270 -34.186384 -18.076644 43.014869 -1.067195 2.004508 0.005265 0.027754 -304948.000000 0 0 1
18.738670 33.708954 -17.554844 42.374566 1.063438 1.997946 -0.010453 0.026590 436783.000000 0 0 1
19.813370 33.362754 -16.663644 42.229374 1.034891 1.976427 0.012730 0.016684 480636.000000 0 0 1
19.728770 32.010054 -16.236544 40.957213 1.018456 1.978418 -0.000206 0.013845 -224838.000000 0 0 1
20.726470 31.617954 -15.127644 40.720108 0.990544 1.951424 0.004197 0.000995 344109.000000 0 0 1
22.025070 31.289354 -15.661044 41.344838 0.957447 1.959286 0.017189 0.008404 972947.000000 0 0 1
23.009970 30.938354 -14.688344 41.260004 0.931316 1.934775 0.028678 -0.002527 336293.000000 0 0 1
22.821470 29.682554 -13.804244 39.905271 0.915339 1.924021 0.024021 0.001490 -1101570.000000 0 0 1
22.725770 28.426254 -14.470444 39.165116 0.896382 1.949238 0.032834 0.005325 93904.400000 0 0 1
22.537570 27.305654 -13.613744 37.932503 0.880770 1.937879 0.004619 0.011739 -653343.000000 0 0 1
21.097270 27.229854 -13.127944 36.863297 0.911621 1.934914 -0.009265 0.014187 -340572.000000 0 0 1
20.166770 26.884054 -14.197844 36.483280 0.927206 1.970516 -0.009659 0.014455 2022720.000000 0 0 1
18.746970 27.115154 -13.971144 35.803258 0.965877 1.971667 -0.003672 0.008447 1332940.000000 0 0 1
18.264270 28.551854 -14.165944 36.735077 1.001705 1.966681 -0.007581 0.005403 -631569.000000 0 0 1
18.303870 29.115254 -15.467244 37.708955 1.009563 1.993441 -0.004027 0.004710 354361.000000 0 0 1
17.411170 28.509954 -16.427544 37.226744 1.022543 2.027825 -0.014832 0.017243 -19041.700000 0 0 1
17.506470 29.192654 -17.845544 38.433722 1.030607 2.053663 -0.013418 0.021150 -195616.000000 0 0 1
16.838770 30.429654 -17.986144 39.153664 1.065372 2.048086 -0.019485 0.015264 -28623.700000 0 0 1
16.670870 30.880654 -19.351744 40.075213 1.075780 2.074743 -0.018367 0.020271 -200368.000000 0 0 1
15.560470 31.951954 -19.518044 40.546388 1.117606 2.073020 -0.028877 0.022979 -28099.700000 0 0 1
15.873470 33.193754 -18.909844 41.368763 1.124735 2.045533 -0.020595 0.022349 37715.000000 0 0 1
14.993270 34.243754 -19.300944 42.070884 1.158101 2.047409 -0.020584 0.027657 -192172.000000 0 0 1
15.350170 -33.701384 -18.713344 41.492171 -1.143398 2.038692 -0.019426 0.019473 -781413.000000 0 0 1
14.411070 -32.670384 -18.782144 40.346026 -1.155364 2.055026 -0.022962 0.029617 -338793.000000 0 0 1
14.089470 -32.259284 -17.442644 39.286389 -1.159010 2.030840 -0.012060 0.021030 -110955.000000 0 0 1
12.968770 -31.195084 -17.414044 38.007515 -1.176803 2.046736 -0.014876 0.018684 -48083.500000 0 0 1
11.731770 -31.778184 -17.749044 38.242855 -1.217141 2.053430 -0.021580 0.015401 10411.200000 0 0 1
10.654770 -30.827384 -17.745744 37.131700 -1.238023 2.069074 -0.030823 0.025438 1477630.000000 0 0 1
9.272970 -31.489584 -18.130244 37.500501 -1.284414 2.075407 -0.009233 0.020967 -415159.000000 0 0 1
8.673370 -32.225884 -17.111044 37.503636 -1.307883 2.044573 0.003029 0.017572 -17525.200000 0 0 1
7.667470 -33.140984 -17.502144 38.254933 -1.343437 2.045993 0.021593 0.019083 -33833.300000 0 0 1
6.337870 -32.525784 -17.990844 37.706308 -1.378351 2.068183 0.018200 0.025918 -991104.000000 0 0 1
6.427570 -31.942984 -19.301444 37.871013 -1.372228 2.105589 0.008563 0.026734 -126869.000000 0 0 1
6.414670 -32.937984 -20.327644 39.233555 -1.378454 2.115446 0.009686 0.019859 -912231.000000 0 0 1
6.375970 -32.313984 -21.775444 39.484383 -1.375986 2.154952 -0.006198 0.040876 31987.100000 0 0 1
7.527070 -31.579884 -22.258744 39.362387 -1.336812 2.171815 0.009564 0.028418 1289620.000000 0 0 1
8.678170 -32.404384 -22.552744 40.422530 -1.309128 2.162680 0.010210 0.019413 363900.000000 0 0 1
8.512270 -33.529484 -23.665244 41.913348 -1.322175 2.170773 0.009546 0.019070 -579603.000000 0 0 1
7.604270 -34.522884 -23.197244 42.281988 -1.353991 2.151523 0.011972 0.009028 -71049.100000 0 0 1
7.466170 33.690354 -24.110744 42.096456 1.352709 2.180653 0.010649 0.001805 -429238.000000 0 0 1
6.369170 32.656354 -23.686144 40.841611 1.378178 2.189465 0.014773 -0.006340 553411.000000 0 0 1
5.015970 33.032154 -23.807444 41.025328 1.420096 2.189907 0.010881 -0.000378 84258.500000 0 0 1
4.614270 34.067354 -22.919444 41.317998 1.436170 2.158809 0.007041 -0.001808 -1919290.000000 0 0 1
3.279870 34.661754 -23.318344 41.903936 1.476452 2.160929 0.004153 0.005927 -827684.000000 0 0 1
2.235970 33.763754 -23.024244 40.928064 1.504669 2.168268 0.002759 0.000247 665728.000000 0 0 1
0.993370 34.394354 -23.395544 41.609011 1.541923 2.167926 0.000088 0.009675 1370870.000000 0 0 1
-0.354330 33.953654 -22.720644 40.855891 -1.560361 2.160502 -0.001869 0.002509 739552.000000 0 0 1
-0.417730 34.230454 -21.364844 40.352881 -1.558593 2.128749 -0.005956 0.007293 -180178.000000 0 0 1
-1.695030 33.895754 -20.874344 39.843864 -1.520831 2.122224 0.000415 0.002049 152725.000000 0 0 1
-1.881030 34.228754 -19.402244 39.390264 -1.515897 2.085830 0.001684 0.003134 499145.000000 0 0 1
-0.999730 33.375554 -18.638544 38.240324 -1.540851 2.079912 -0.004933 0.001705 279128.000000 0 0 1
-1.538230 33.172954 -17.341744 37.463944 -1.524460 2.052051 -0.014482 -0.000954 -108420.000000 0 0 1
-0.853530 32.114754 -16.457744 36.096305 -1.544225 2.044224 -0.018395 0.001062 561817.000000 0 0 1
0.411370 32.577054 -15.960844 36.279225 1.558169 2.026333 -0.007133 -0.001458 193151.000000 0 0 1
0.995270 31.526254 -15.236444 35.029194 1.539237 2.020795 -0.005319 0.002897 294110.000000 0 0 1
1.982870 32.142854 -14.175044 35.185603 1.509185 1.985441 0.004776 0.000863 -309402.000000 0 0 1
3.211670 32.538654 -14.702844 35.850417 1.472412 1.993378 0.016012 -0.001481 -398292.000000 0 0 1
3.989770 33.198954 -13.692244 36.132621 1.451192 1.959451 0.028930 -0.007233 890374.000000 0 0 1
5.368470 33.673854 -14.296644 36.974896 1.412701 1.967801 0.042772 -0.017493 869681.000000 0 0 1
6.279170 32.596354 -14.402944 36.185564 1.380493 1.980165 0.038286 -0.010377 -222582.000000 0 0 1
7.436870 32.902954 -15.156844 36.981635 1.348507 1.993084 0.028422 -0.001640 -313947.000000 0 0 1
8.301070 31.679454 -15.348944 36.167466 1.314525 2.009079 0.014620 -0.006095 -286278.000000 0 0 1
8.791470 31.258054 -14.079044 35.391741 1.296625 1.979920 0.007358 -0.011652 -161826.000000 0 0 1
9.606970 30.092754 -14.140244 34.609452 1.261778 1.991679 0.001450 -0.006012 330461.000000 0 0 1
8.833570 28.759154 -14.003344 33.184552 1.272787 2.006429 0.008166 -0.006921 175523.000000 0 0 1
8.217770 28.180254 -15.153044 33.034424 1.287050 2.047333 0.009188 -0.010988 280248.000000 0 0 1
7.457370 27.006354 -14.902744 31.734008 1.301376 2.059650 0.013292 -0.009164 -92575.600000 0 0 1
6.788470 26.306854 -16.041244 31.550838 1.318256 2.104151 0.013348 -0.009748 -110400.000000 0 0 1
7.707070 25.541954 -16.790944 31.523422 1.277742 2.132525 0.017884 -0.008711 -74281.800000 0 0 1
7.025370 24.760054 -17.720744 31.248053 1.294325 2.173776 0.012839 -0.007746 -508589.000000 0 0 1
7.900870 23.693854 -18.279544 30.950996 1.248935 2.202594 0.006598 0.006453 -579750.000000 0 0 1
7.351370 22.833254 -19.259344 30.762354 1.259317 2.247297 0.014214 -0.002291 -257090.000000 0 0 1
8.349670 21.984654 -19.779844 30.729208 1.207828 2.270096 0.001913 0.001679 -268442.000000 0 0 1
7.746370 21.171554 -20.918644 30.754359 1.220040 2.318811 0.003224 -0.007027 170029.000000 0 0 1
6.892970 20.163054 -20.420944 29.514009 1.241390 2.334923 0.008465 -0.006942 -45651.800000 0 0 1
6.135870 19.489854 -21.392644 29.582909 1.265796 2.379137 0.006710 -0.002322 15951.200000 0 0 1
24.391370 -13.104946 -9.804644 29.373621 -0.493023 1.911118 0.026856 0.009618 181323.000000 0 0 1
24.959670 -12.220446 -8.806444 29.152665 -0.455299 1.877670 0.025597 0.010478 887308.000000 0 0 1
24.088170 -12.248446 -7.688044 28.095736 -0.470412 1.847969 0.017512 0.017510 -159487.000000 0 0 1
24.775870 -11.695346 -6.388144 28.132423 -0.441035 1.799869 0.006460 0.015742 -157109.000000 0 0 1
24.880970 -10.297646 -6.280644 27.650510 -0.392411 1.799940 0.008817 0.017519 663991.000000 0 0 1
25.716770 -9.601646 -7.209544 28.381709 -0.357333 1.827631 0.005206 0.018086 -609722.000000 0 0 1
25.945070 -8.133946 -6.675944 27.997785 -0.303801 1.811561 0.028621 0.016188 24688.300000 0 0 1
26.615970 -7.951046 -5.386344 28.295613 -0.290293 1.762325 0.033419 0.006206 1332350.000000 0 0 1
27.923570 -8.469346 -5.129444 29.627129 -0.294486 1.744806 0.031416 0.002877 290467.000000 0 0 1
28.223870 -8.216346 -3.613844 29.616804 -0.283284 1.693121 0.029529 -0.004687 -418448.000000 0 0 1
28.462670 -6.842546 -3.250044 29.453469 -0.235927 1.681367 0.033282 -0.004149 414553.000000 0 0 1
29.292970 -6.834646 -2.091644 30.152371 -0.229220 1.640221 0.033943 -0.008302 79221.100000 0 0 1
29.643070 -5.406446 -1.729444 30.181654 -0.180402 1.628129 0.029220 -0.016788 -554269.000000 0 0 1
28.449970 -4.802346 -1.322044 28.882713 -0.167223 1.616585 0.032954 -0.010488 -243542.000000 0 0 1
28.592870 -3.482746 -0.798244 28.815255 -0.121208 1.598502 0.025156 -0.003805 -270042.000000 0 0 1
29.289970 -3.333746 0.577256 29.484732 -0.113331 1.551217 0.028798 -0.015439 -191176.000000 0 0 1
28.553370 -3.791146 1.693756 28.853710 -0.132002 1.512061 0.024945 -0.027941 70817.400000 0 0 1
29.201070 -3.351146 2.843356 29.529940 -0.114261 1.474360 0.016647 -0.013751 -344978.000000 0 0 1
28.630370 -3.860146 4.196856 29.192678 -0.134019 1.426532 0.017274 -0.016433 -280404.000000 0 0 1
28.755170 -5.255646 4.302556 29.546466 -0.180777 1.424657 0.025293 -0.023216 204345.000000 0 0 1
28.598670 -5.652546 5.678756 29.699890 -0.195136 1.378407 0.019027 -0.019852 -346681.000000 0 0 1
29.140970 -7.049646 5.914256 30.559321 -0.237355 1.376034 0.026320 -0.017243 546005.000000 0 0 1
30.563270 -7.070146 5.738856 31.890985 -0.227329 1.389858 0.027909 -0.021254 736322.000000 0 0 1
31.148470 -8.372946 5.702456 32.754411 -0.262600 1.395807 0.021907 -0.018564 1669770.000000 0 0 1
32.738970 -8.369046 5.631456 34.257764 -0.250270 1.405662 0.034473 -0.017520 1499940.000000 0 0 1
33.249070 -7.973346 4.368256 34.469647 -0.235362 1.443727 0.033108 -0.014417 165843.000000 0 0 1
34.648670 -7.755246 4.477656 35.787199 -0.220196 1.445349 0.036982 -0.011900 707050.000000 0 0 1
-34.655424 -7.593546 3.118956 35.614439 0.215707 1.483108 0.035646 -0.009443 13693.100000 0 0 1
-34.291024 -8.720746 2.443556 35.466840 0.249036 1.501845 0.047757 -0.017930 -187858.000000 0 0 1
-33.278624 -8.386946 1.541056 34.353785 0.246881 1.525923 0.059139 -0.021887 -448864.000000 0 0 1
-32.871824 -9.584546 0.679756 34.247371 0.283708 1.550947 0.056351 -0.018702 -420531.000000 0 0 1
-32.261724 -10.532446 1.471156 33.969333 0.315560 1.527474 0.047035 -0.013697 2720.990000 0 0 1
-32.050324 -11.751446 0.791556 34.145956 0.351435 1.547613 0.047873 -0.015591 -424891.000000 0 0 1
-31.921424 -12.943746 1.745056 34.490044 0.385228 1.520179 0.026042 -0.022621 -442858.000000 0 0 1
-30.725524 -13.075746 2.427956 33.480262 0.402350 1.498214 0.028370 -0.022546 -627974.000000 0 0 1
-29.783324 -13.851846 1.722356 32.892044 0.435329 1.518408 0.022820 -0.011932 -233699.000000 0 0 1
-28.496424 -14.199146 2.516056 31.937321 0.462269 1.491934 0.015448 -0.008674 435451.000000 0 0 1
-27.696824 -13.033446 2.813256 30.739213 0.439832 1.479148 0.008187 -0.011691 648178.000000 0 0 1
-26.424224 -13.443946 3.294956 29.830120 0.470642 1.460113 0.015000 -0.013321 -43961.700000 0 0 1
-25.558124 -12.312346 3.836856 28.627488 0.448932 1.436365 -0.008092 -0.000204 -856064.000000 0 0 1
-24.431024 -12.817346 4.457656 27.946914 0.483160 1.410608 -0.010519 0.005052 -806305.000000 0 0 1
-23.666424 -11.784746 5.012456 26.909192 0.462008 1.383429 -0.008500 0.010359 177459.000000 0 0 1
-22.512124 -12.354746 5.901056 26.348775 0.501925 1.344921 -0.001964 0.027371 -71157.600000 0 0 1
-22.955324 -13.153346 6.976156 27.360998 0.520328 1.312983 0.004032 0.012294 -415821.000000 0 0 1
-21.921124 -13.746146 7.738156 27.006875 0.560089 1.280198 0.015380 0.025830 -100961.000000 0 0 1
-21.707724 -12.926446 9.049156 26.836645 0.537087 1.226862 0.026475 0.023023 -150065.000000 0 0 1
-21.270524 -11.604346 8.808956 25.781656 0.499428 1.222097 0.023685 0.009813 546456.000000 0 0 1
-22.270324 -10.633746 9.131356 26.313981 0.445474 1.216409 0.024453 0.004000 -378719.000000 0 0 1
-22.574524 -10.182546 10.603256 26.939236 0.423738 1.166253 0.016497 0.000946 -115844.000000 0 0 1
-23.219524 -11.094046 11.468356 28.173522 0.445722 1.151562 0.013785 -0.014387 -437481.000000 0 0 1
-24.562824 -11.300646 11.162356 29.251242 0.431197 1.179267 0.013583 -0.008029 -587553.000000 0 0 1
-25.549724 -10.891046 12.304356 30.377631 0.402945 1.153767 0.017175 -0.016572 -49544.900000 0 0 1
-25.504924 -11.868446 13.298756 31.116203 0.435537 1.129192 0.023921 -0.014259 -244797.000000 0 0 1
-26.690024 -11.915946 14.028756 32.421492 0.419904 1.123312 0.011480 -0.013455 -601103.000000 0 0 1
-26.572024 -12.852746 15.229056 33.214300 0.450518 1.094480 0.007717 -0.013734 -37499.500000 0 0 1
-26.549324 -14.247046 15.001056 33.658233 0.492517 1.108854 -0.008112 -0.005248 241234.000000 0 0 1
-26.127424 -14.880146 16.193256 34.150880 0.517708 1.076777 -0.012363 0.002441 -407422.000000 0 0 1
-25.741824 -16.355746 16.135256 34.503601 0.566026 1.084178 -0.018482 0.012032 529428.000000 0 0 1
-26.931224 -17.213446 16.049356 35.765562 0.568719 1.105444 -0.037623 0.016992 955976.000000 0 0 1
-26.568524 -18.586746 16.163856 36.230151 0.610442 1.108344 -0.037588 0.024685 -48462.000000 0 0 1
-27.588724 -19.506046 16.898756 37.778188 0.615428 1.107035 -0.052206 0.034786 -60978.900000 0 0 1
-27.691724 -19.291146 18.312156 38.396810 0.608467 1.073651 -0.030996 0.029128 -180729.000000 0 0 1
-28.335324 -20.325746 19.025856 39.724171 0.622262 1.071339 -0.024165 0.024273 -110695.000000 0 0 1
-27.453024 -21.576346 19.279356 39.886098 0.666107 1.066307 -0.032008 0.027035 875667.000000 0 0 1
-26.286624 -21.331946 20.125056 39.383454 0.681722 1.034445 -0.013291 0.026030 997447.000000 0 0 1
-25.609824 -22.582146 20.268256 39.706657 0.722655 1.035089 -0.008376 0.025253 -487793.000000 0 0 1
-24.232524 -22.461746 20.918556 39.106665 0.747494 1.006395 0.012217 0.026666 -490221.000000 0 0 1
-23.251824 -22.151346 19.953756 37.808489 0.761165 1.014837 0.020528 0.025867 -198054.000000 0 0 1
-22.005924 -22.003046 20.619556 37.330428 0.785333 0.985613 0.029023 0.025081 168209.000000 0 0 1
-20.886824 -21.547146 19.665056 35.878314 0.800958 0.990700 0.023014 0.028035 -178895.000000 0 0 1
-20.661024 -22.409846 18.618856 35.717516 0.825979 1.022445 0.017157 0.027038 745289.000000 0 0 1
-19.433024 -22.160446 17.908256 34.488164 0.850878 1.024814 0.016585 0.027401 730608.000000 0 0 1
-19.297324 -23.216746 16.757656 34.528583 0.877329 1.064059 0.013604 0.037184 -361076.000000 0 0 1
-19.126224 -24.622546 17.119056 35.568867 0.910377 1.068667 0.016500 0.023614 -295910.000000 0 0 1
-17.898624 -25.119866 17.564756 35.494916 0.951711 1.053131 0.012824 0.016060 -296868.000000 0 0 1
-16.754824 -25.203866 16.525656 34.482696 0.984107 1.071002 0.011059 0.012823 45174.400000 0 0 1
-16.076424 -24.014246 16.229256 33.143992 0.980867 1.059098 0.008609 0.018493 -36877.700000 0 0 1
-14.929824 -24.161846 15.407456 32.312291 1.017312 1.073752 0.004671 0.019892 632056.000000 0 0 1
-14.095524 -22.791246 15.233656 30.825136 1.016912 1.053887 0.013430 0.020778 500844.000000 0 0 1
-14.836824 -21.663946 14.763756 30.123519 0.970302 1.058583 0.010199 0.018695 -412986.000000 0 0 1
-15.707824 -21.101746 15.698156 30.634157 0.930898 1.032773 0.016864 0.017451 -362339.000000 0 0 1
-15.131224 -20.039546 16.633256 30.119804 0.924059 0.985752 0.014930 0.010167 -361336.000000 0 0 1
-14.753324 -18.839546 15.966656 28.766703 0.906443 0.982386 0.007331 0.006533 30557.400000 0 0 1
-14.705324 -17.751546 16.843656 28.549478 0.878978 0.939761 -0.005240 0.009421 -564642.000000 0 0 1
-13.927324 -16.604346 16.116156 27.007502 0.872855 0.931378 0.000940 0.005426 48737.500000 0 0 1
-14.563424 -15.807946 15.113656 26.275599 0.826352 0.957951 -0.000235 0.004328 31120.400000 0 0 1
-14.795824 -16.430046 13.830256 26.079471 0.837686 1.011828 0.000754 -0.000051 -510349.000000 0 0 1
-15.641624 -15.678246 12.840956 25.599960 0.786567 1.045348 0.006088 0.000738 -1680110.000000 0 0 1
-16.984624 -15.889146 12.977956 26.633997 0.752087 1.061835 -0.001205 -0.006641 -1292700.000000 0 0 1
-17.764024 -14.890246 12.360156 26.268869 0.697618 1.080911 0.004915 -0.003019 57435.000000 0 0 1
-19.312524 -14.944746 12.555556 27.458351 0.658583 1.095887 0.015386 -0.007009 614171.000000 0 0 1
-20.018924 -15.992346 11.888256 28.246117 0.674046 1.136380 0.021091 -0.008124 73442.900000 0 0 1
-19.940824 -16.012146 10.454756 27.628377 0.676557 1.182722 0.020151 0.000805 -383344.000000 0 0 1
-20.860124 -17.150746 9.936056 28.775304 0.688119 1.218240 0.010084 0.008773 455359.000000 0 0 1
-20.224524 -18.395246 10.139156 29.158514 0.738067 1.215652 0.018086 0.015632 81438.200000 0 0 1
-20.962124 -19.392546 9.459356 30.082568 0.746523 1.250923 0.012563 0.013489 31858.400000 0 0 1
-20.340724 -20.832346 9.482856 30.621174 0.797338 1.255937 0.019212 0.025458 393356.000000 0 0 1
-19.182124 -21.001946 8.651956 29.730321 0.830654 1.275509 0.027953 0.019542 131437.000000 0 0 1
-18.820224 -22.339546 8.724256 30.485551 0.870695 1.280562 0.019470 0.020601 621802.000000 0 0 1
-17.604824 -22.551546 7.717256 29.632045 0.907967 1.307322 0.018423 0.011619 935757.000000 0 0 1
-16.390724 -22.081346 8.275956 28.718168 0.932249 1.278472 0.011319 0.005389 16759.400000 0 0 1
-15.245924 -22.461946 7.543656 28.175947 0.974479 1.299756 0.022122 0.011111 221820.000000 0 0 1
-13.904224 -22.005846 8.171356 27.282884 1.007292 1.266623 -0.027758 0.006812 848100.000000 0 0 1
-12.733524 -22.469546 7.489556 26.890827 1.055221 1.288547 -0.006628 0.008476 403047.000000 0 0 1
-11.514524 -21.941146 7.973056 26.030132 1.087513 1.259491 -0.000226 0.005999 32108.400000 0 0 1
-10.329624 -22.643546 7.322956 25.943342 1.142812 1.284640 -0.006147 0.015135 -362707.000000 0 0 1
-10.214724 -23.985646 7.768856 27.203069 1.168191 1.281177 -0.011493 0.017782 -128050.000000 0 0 1
-9.021124 -24.514446 7.231056 27.104002 1.218184 1.300736 0.005281 0.014863 43012.600000 0 0 1
-9.035924 -26.044096 7.284356 28.513238 1.236844 1.312460 -0.007651 0.010702 -307183.000000 0 0 1
-10.081024 -26.635966 6.547856 29.222871 1.208983 1.344812 -0.004047 0.006396 -381997.000000 0 0 1
-10.235024 -28.049786 6.565656 30.572113 1.220921 1.354351 0.012443 0.008113 -76140.700000 0 0 1
-9.122324 -28.824796 5.835656 30.791891 1.264294 1.380124 0.023105 0.004596 57727.300000 0 0 1
-7.853524 -28.598946 6.424556 30.345551 1.302794 1.357469 0.012170 0.001534 -144408.000000 0 0 1
-6.819524 -29.479806 5.972956 30.842197 1.343466 1.375903 0.010245 0.004310 637861.000000 0 0 1
-6.753024 -30.895186 6.585756 32.303066 1.355602 1.365483 0.015582 0.004129 -328637.000000 0 0 1
-6.367224 -30.928696 7.932056 32.558306 1.367765 1.324693 0.013407 0.006394 -34967.700000 0 0 1
-6.644924 -32.172746 8.524156 33.939680 1.367121 1.316922 0.037055 -0.004687 -89918.700000 0 0 1
-6.742224 -32.148366 10.036256 34.346783 1.364070 1.274266 0.020666 -0.000441 -219913.000000 0 0 1
-5.574824 -31.667446 10.651156 33.872599 1.396539 1.250922 0.001212 0.011310 -153284.000000 0 0 1
-5.704024 -31.667396 12.057556 34.361964 1.392584 1.212266 -0.002705 0.003060 -355892.000000 0 0 1
-4.906224 -30.588346 12.843256 33.536058 1.411756 1.177789 -0.017041 0.004254 155068.000000 0 0 1
-5.475824 -29.304996 12.745056 32.422275 1.386070 1.166800 -0.018006 0.002289 125581.000000 0 0 1
-4.750224 -28.459146 13.607556 31.900677 1.405407 1.130110 -0.031257 0.000460 -566890.000000 0 0 1
-5.522024 -28.129266 14.903856 32.309028 1.376952 1.091347 -0.025439 -0.000760 -150660.000000 0 0 1
-5.929024 -29.261636 15.653356 33.710892 1.370882 1.087906 -0.018463 -0.007595 -544639.000000 0 0 1
-4.907224 -29.799956 16.411656 34.372383 1.407589 1.073027 -0.027961 -0.002912 -643775.000000 0 0 1
-5.159124 -31.190436 16.979356 35.885351 1.406873 1.077927 -0.016181 -0.000973 -493576.000000 0 0 1
-5.273424 -32.054496 15.941356 36.186000 1.407743 1.114597 -0.016401 -0.002778 147257.000000 0 0 1
-5.182424 -33.346456 16.474456 37.553314 1.416618 1.116650 -0.013512 -0.003622 -213127.000000 0 0 1
-4.667224 -34.374566 15.435056 37.968866 1.435846 1.152156 -0.019990 0.002015 213584.000000 0 0 1
-5.500224 -34.635885 14.289656 37.869398 1.413310 1.183874 0.016098 -0.010204 341331.000000 0 0 1
-5.125224 33.477877 13.638556 36.510908 -1.418883 1.187966 0.002215 -0.003029 267861.000000 0 0 1
-3.938224 33.673402 12.603256 36.169735 -1.454372 1.214882 0.004871 -0.012382 332269.000000 0 0 1
-4.276224 34.257203 11.376656 36.349283 -1.446612 1.252466 0.007503 -0.010715 -563505.000000 0 0 1
-3.160224 34.595927 10.648856 36.335428 -1.479702 1.273359 0.006396 -0.009448 -1228190.000000 0 0 1
-3.569224 -34.328163 9.182056 35.713755 1.467195 1.310775 0.007114 -0.008968 -432747.000000 0 0 1
-3.893224 33.976686 8.235956 35.176745 -1.456709 1.334472 0.016483 -0.024615 112621.000000 0 0 1
-4.794224 32.925431 8.453056 34.329620 -1.426204 1.322006 0.026735 -0.024387 178066.000000 0 0 1
-6.257824 33.261401 8.847856 34.982363 -1.384829 1.315096 0.039519 -0.017027 181145.000000 0 0 1
-7.010024 33.882234 7.812556 35.470865 -1.366781 1.348723 0.046715 -0.019055 -603244.000000 0 0 1
-8.384724 33.904858 8.089156 35.850767 -1.328359 1.343202 0.047892 -0.013085 -430321.000000 0 0 1
-9.154824 34.134832 6.784356 35.986457 -1.308767 1.381136 0.053252 -0.011643 -351778.000000 0 0 1
-9.163924 -33.796226 6.377556 35.592635 1.306011 1.390641 0.049581 -0.006497 227053.000000 0 0 1
-9.720524 -33.623586 5.054356 35.363550 1.289371 1.427380 0.039092 0.001557 -340403.000000 0 0 1
-9.846524 -32.152506 4.598856 33.939463 1.273621 1.434876 0.025690 0.004804 -52546.100000 0 0 1
-10.850724 -31.368646 5.193156 33.596117 1.237770 1.415598 0.035881 0.000969 -432231.000000 0 0 1
-12.153224 -31.572806 4.703656 34.156512 1.203351 1.432648 0.031945 0.005806 -222812.000000 0 0 1
-13.148624 -30.549866 5.319956 33.682081 1.164362 1.412186 0.005551 0.004311 -122612.000000 0 0 1
-13.389624 -30.918966 6.684656 34.350388 1.162123 1.374945 0.015050 0.014936 -69732.700000 0 0 1
-14.236124 -30.062066 7.420056 34.080086 1.128525 1.351314 0.004089 0.015035 19072.600000 0 0 1
32.569295 -13.519746 -13.043344 37.598821 -0.393462 1.925069 -0.006004 0.010437 -389595.000000 0 0 1
31.472495 -13.568846 -12.178744 36.372425 -0.407054 1.912226 0.003876 0.009557 23096.200000 0 0 1
31.218345 -14.866946 -11.561044 36.459140 -0.444447 1.893462 0.010533 -0.002802 256228.000000 0 0 1
32.147095 -15.183346 -10.323544 37.020876 -0.441250 1.853400 0.004020 0.004561 436938.000000 0 0 1
33.496855 -15.353846 -10.674044 38.362939 -0.429790 1.852756 0.016502 -0.001631 -871487.000000 0 0 1
34.335334 -15.705246 -9.638944 38.967668 -0.428997 1.820748 0.011619 0.001699 290640.000000 0 0 1
-34.281858 -15.782846 -10.179944 39.089324 0.431456 1.834262 -0.004606 0.002176 442439.000000 0 0 1
-33.736830 -14.546946 -10.605744 38.239628 0.407101 1.851831 -0.014727 0.013997 569582.000000 0 0 1
-32.331600 -14.618546 -10.860944 37.107874 0.424636 1.867831 -0.015985 0.007632 674169.000000 0 0 1
-31.813410 -13.261846 -11.342744 36.285361 0.394959 1.888724 -0.006799 -0.003531 -323481.000000 0 0 1
-31.887220 -12.313746 -10.302244 35.700971 0.368524 1.863530 0.011946 -0.006683 316417.000000 0 0 1
-31.384870 -11.026946 -10.622344 34.920449 0.337873 1.879881 0.013085 -0.005978 -291431.000000 0 0 1
-31.937590 -9.867646 -9.702944 34.806999 0.299663 1.853303 0.018175 -0.012362 -14888.800000 0 0 1
-31.323680 -9.796146 -8.431044 33.885393 0.303103 1.822248 0.032916 -0.011350 303612.000000 0 0 1
-31.950950 -8.854146 -7.577344 34.009928 0.270333 1.795480 0.044059 -0.018464 -534598.000000 0 0 1
-31.350970 -8.794146 -6.183244 33.142915 0.273478 1.758459 0.036030 -0.014057 361333.000000 0 0 1
-30.156200 -7.968546 -6.033744 31.769485 0.258338 1.761880 0.042027 -0.023825 1431810.000000 0 0 1
-29.465190 -8.007446 -4.775344 30.905024 0.265351 1.725935 0.040892 -0.017844 -28254.100000 0 0 1
-28.619220 -9.321146 -4.614244 30.450530 0.314861 1.722915 0.031679 -0.011990 -1043040.000000 0 0 1
-29.325230 -10.442946 -4.256644 31.418836 0.342106 1.706695 0.052524 -0.009826 -95198.900000 0 0 1
-29.731400 -10.468346 -2.925444 31.655973 0.338542 1.663342 0.021617 -0.011065 -168068.000000 0 0 1
-30.385500 -11.787046 -2.476244 32.685545 0.370047 1.646629 0.032485 -0.011963 517590.000000 0 0 1
-31.669800 -12.094446 -3.036344 34.036322 0.364799 1.660124 0.041958 -0.018191 796957.000000 0 0 1
-32.192100 -13.331046 -2.591144 34.939406 0.392610 1.645026 0.038744 -0.025342 477302.000000 0 0 1
-33.752800 -13.430146 -2.598944 36.419429 0.378692 1.642218 0.020525 -0.017953 600115.000000 0 0 1
-34.270398 -12.618846 -1.539744 36.552240 0.352808 1.612933 0.026206 -0.024074 -740537.000000 0 0 1
34.454944 -12.810746 -1.382344 36.785449 -0.355972 1.608384 0.059557 -0.020057 -697250.000000 0 0 1
33.746485 -11.838846 -0.349244 35.764584 -0.337403 1.580562 0.057958 -0.019419 54232.800000 0 0 1
34.023245 -12.226046 0.978456 36.166487 -0.344975 1.543739 0.062230 -0.015163 200434.000000 0 0 1
33.891285 -11.154646 1.895256 35.730062 -0.317963 1.517728 0.050695 -0.019018 -99575.700000 0 0 1
34.263313 -11.563146 3.357456 36.317399 -0.325477 1.478217 0.053031 -0.024575 199996.000000 0 0 1
33.238355 -12.322846 3.959356 35.669557 -0.355032 1.459566 0.051755 -0.025789 -74321.700000 0 0 1
33.727215 -12.795446 5.142756 36.437569 -0.362606 1.429185 0.050176 -0.019851 -494671.000000 0 0 1
32.831525 -12.746546 6.393456 35.794689 -0.370328 1.391218 0.045744 -0.008398 -235884.000000 0 0 1
32.621205 -11.406346 6.937356 35.247335 -0.336372 1.372684 0.032345 -0.013411 85980.300000 0 0 1
32.242775 -11.483446 8.297356 35.218066 -0.342148 1.332961 0.002384 0.007746 -92058.100000 0 0 1
31.522535 -10.174746 8.818656 34.277753 -0.312220 1.310600 -0.006613 -0.006528 -150412.000000 0 0 1
30.143375 -10.168946 8.594856 32.953028 -0.325364 1.306923 -0.001676 -0.000795 -242811.000000 0 0 1
29.399105 -9.209346 9.338656 32.192079 -0.303570 1.276474 0.006484 0.004703 900084.000000 0 0 1
27.832025 -9.193146 9.342356 30.763861 -0.319025 1.262244 0.004245 -0.004905 1032790.000000 0 0 1
27.167105 -8.733646 8.183956 29.686787 -0.311044 1.291503 0.022095 -0.008363 125138.000000 0 0 1
26.949525 -9.680046 7.151156 29.514729 -0.344840 1.326070 0.023220 -0.021649 -542365.000000 0 0 1
25.952515 -9.142246 6.111656 28.186274 -0.338694 1.352229 0.029716 -0.024056 694350.000000 0 0 1
24.606365 -9.009246 6.657556 27.036323 -0.350976 1.321992 0.029486 -0.016248 1144400.000000 0 0 1
23.659365 -8.419646 5.807656 25.775664 -0.341894 1.343529 0.026901 -0.016867 -185311.000000 0 0 1
23.903765 -6.973646 5.297756 25.457571 -0.283860 1.361163 0.018163 -0.011599 -1078810.000000 0 0 1
24.672065 -6.891246 4.109956 25.944013 -0.272372 1.411710 0.012209 -0.018360 247025.000000 0 0 1
24.990765 -5.565146 3.723156 25.872207 -0.219113 1.426389 0.016941 -0.025415 675869.000000 0 0 1
25.954385 -5.691846 2.455756 26.684414 -0.215884 1.478636 0.036533 -0.029443 722489.000000 0 0 1
25.158345 -5.907846 1.308456 25.875800 -0.230648 1.520208 0.036238 -0.022146 358442.000000 0 0 1
26.000005 -5.945246 0.186956 26.671729 -0.224798 1.563787 0.029951 -0.018008 -8691.880000 0 0 1
25.174115 -6.168246 -1.141244 25.943896 -0.240289 1.614799 0.041155 -0.015836 570672.000000 0 0 1
24.152265 -5.180746 -1.240744 24.732801 -0.211302 1.620983 0.044115 -0.010151 192008.000000 0 1 0
23.519965 -5.219846 -2.530844 24.224795 -0.218393 1.675461 0.035230 -0.004204 203880.000000 0 1 0
22.278465 -4.307146 -2.725844 22.854140 -0.190976 1.690352 0.007192 0.000836 -170755.000000 0 1 0
22.389665 -2.885446 -2.685644 22.734018 -0.128168 1.689206 -0.012517 -0.000237 -248547.000000 0 1 0
23.116165 -2.327646 -3.719844 23.528966 -0.100355 1.729559 -0.004499 0.001365 -353805.000000 0 1 0
22.311565 -1.499746 -4.797844 22.870821 -0.067117 1.782146 0.001354 0.006014 3078.910000 0 1 0
21.893665 -0.311446 -4.274744 22.309258 -0.014224 1.763602 -0.019806 0.009608 366459.000000 0 1 0
21.057065 0.445254 -5.124944 21.676330 0.021142 1.809487 -0.008643 0.013869 -423526.000000 0 1 0
20.734965 1.806854 -4.454244 21.284825 0.086921 1.781623 -0.013092 0.015889 -659200.000000 0 1 0
21.772565 2.770654 -4.345644 22.374220 0.126574 1.766264 -0.014055 0.013648 327877.000000 0 1 0
22.486465 2.706554 -3.127044 22.863616 0.119787 1.707996 -0.006018 0.002132 134570.000000 0 1 0
23.769565 3.578754 -3.133044 24.240785 0.149438 1.700406 -0.013336 0.002302 -348734.000000 0 1 0
23.462765 4.962354 -3.258344 24.202130 0.208428 1.705837 -0.010341 0.007307 221891.000000 0 1 0
24.563865 5.788654 -3.035644 25.418637 0.231435 1.690508 -0.012831 0.005040 -622410.000000 0 0 1
24.101265 7.258454 -3.015244 25.350499 0.292525 1.690021 -0.014337 -0.002173 180282.000000 0 0 1
23.134165 7.536854 -2.004044 24.413315 0.314945 1.652977 -0.000434 -0.009429 829643.000000 0 1 0
22.594865 8.849454 -2.205144 24.366030 0.373294 1.661421 0.006298 -0.005889 -362778.000000 0 1 0
21.495565 9.222154 -1.192344 23.420698 0.405276 1.621728 0.005635 -0.002067 -464256.000000 0 1 0
21.979465 9.696954 0.018156 24.023491 0.415497 1.570041 -0.003689 -0.003607 629153.000000 0 1 0
20.926465 10.222954 0.792756 23.303523 0.454420 1.536771 -0.003962 -0.000698 8622.810000 0 1 0
21.523965 10.819654 2.118056 24.183303 0.465789 1.483101 0.016014 0.000033 -801180.000000 0 1 0
22.196065 12.022254 1.978756 25.320256 0.496401 1.492567 0.011932 0.000882 -404102.000000 0 0 1
21.535565 13.219154 1.799256 25.333059 0.550526 1.499712 0.013418 0.000792 -1332110.000000 0 0 1
20.561365 13.593054 2.919256 24.820614 0.584137 1.452909 0.012900 0.003508 -1253310.000000 0 1 0
19.317465 13.005254 2.703056 23.443711 0.592538 1.455239 0.052016 -0.006041 110097.000000 0 1 0
18.219765 13.576854 3.420956 22.978114 0.640404 1.421362 0.026326 -0.005423 8712.010000 0 1 0
18.187465 13.411854 4.960156 23.135792 0.635403 1.354726 0.011986 -0.000099 -942503.000000 0 1 0
17.900365 12.070054 5.420956 22.259740 0.593262 1.324791 0.007681 -0.004709 521511.000000 0 1 0
18.127865 11.984954 6.783656 22.765689 0.584163 1.268223 0.007997 -0.004517 -255375.000000 0 1 0
18.255265 10.604254 7.437056 22.383358 0.526248 1.232099 -0.001739 -0.008836 -398636.000000 0 1 0
19.288565 9.855654 6.850856 22.718206 0.472376 1.264470 -0.004807 -0.017581 238538.000000 0 1 0
19.341565 8.544254 7.417456 22.408013 0.415977 1.233414 -0.001090 -0.009270 7026.940000 0 1 0
20.415765 7.770154 6.626156 22.827280 0.363668 1.276284 0.016653 -0.015003 -6629.170000 0 1 0
19.956765 7.548554 5.314756 21.988628 0.361613 1.326674 0.004590 -0.015957 607958.000000 0 1 0
20.961665 7.072254 4.438856 22.563502 0.325397 1.372777 0.007991 -0.016154 -115156.000000 0 1 0
20.552265 6.930054 2.963656 21.890740 0.325219 1.434995 -0.000616 -0.007464 -402427.000000 0 1 0
21.611265 6.269954 2.344356 22.624215 0.282372 1.466988 0.001344 -0.008760 293626.000000 0 1 0
21.404765 6.028954 0.971356 22.258836 0.274551 1.527143 0.014819 0.001516 109027.000000 0 1 0
22.489665 5.028354 0.462956 23.049592 0.219967 1.550710 0.012637 -0.001625 423254.000000 0 1 0
22.232765 3.755654 1.064456 22.572856 0.167344 1.523622 0.010676 -0.005168 1179720.000000 0 1 0
23.251465 2.913854 0.488556 23.438427 0.124669 1.549951 0.001853 -0.005012 387323.000000 0 1 0
22.919365 1.379654 0.572556 22.967990 0.060123 1.545865 0.006041 -0.010874 -307709.000000 0 1 0
21.844365 0.915454 -0.195344 21.864411 0.041884 1.579731 -0.016986 -0.014158 304244.000000 0 1 0
22.056565 -0.424646 -0.635944 22.069816 -0.019250 1.599615 -0.010909 -0.012978 -1243050.000000 0 1 0
21.881365 -1.572246 0.373556 21.940958 -0.071730 1.553770 0.008526 -0.015711 658414.000000 0 1 0
22.942365 -1.826446 1.335956 23.053694 -0.079443 1.512814 0.018208 -0.014278 1094230.000000 0 1 0
24.168465 -2.276046 0.781756 24.287985 -0.093897 1.538604 0.017309 -0.014353 -18159.000000 0 1 0
25.366215 -1.987146 1.732556 25.502850 -0.078179 1.502808 0.026454 -0.014907 -123667.000000 0 0 1
25.584575 -0.590146 1.921456 25.663412 -0.023062 1.495855 0.022866 -0.013750 339122.000000 0 0 1
26.278485 -0.347446 3.128156 26.466296 -0.013221 1.452325 0.022152 -0.005003 32304.600000 0 0 1
25.741735 0.978254 3.742856 26.030806 0.037984 1.426511 0.016841 -0.001379 -189501.000000 0 0 1
25.710685 2.210354 2.985256 25.977620 0.085759 1.455625 0.018671 -0.002773 -171720.000000 0 0 1
26.965915 2.695954 2.578456 27.222732 0.099645 1.475937 0.024643 -0.012860 -119696.000000 0 0 1
26.950945 3.628454 1.360356 27.228104 0.133827 1.520814 0.017514 -0.022309 -234297.000000 0 0 1
26.607675 3.029354 0.118556 26.779832 0.113364 1.566369 0.009256 -0.013902 230470.000000 0 0 1
26.908185 3.842854 -1.033244 27.200837 0.141854 1.608791 0.006609 -0.007884 -1030040.000000 0 0 1
28.321925 3.853554 -1.574444 28.626215 0.135232 1.625824 0.011491 -0.003889 -774252.000000 0 0 1
29.291605 4.471954 -0.734144 29.640099 0.151500 1.595567 0.036286 -0.009785 -288449.000000 0 0 1
30.575305 4.280754 -1.230144 30.898016 0.139103 1.610620 0.013967 -0.005729 -307866.000000 0 0 1
31.671865 4.559054 -0.151244 31.998670 0.142964 1.575523 -0.001162 -0.000069 93037.500000 0 0 1
31.665475 3.542054 0.858056 31.874515 0.111395 1.543873 -0.007462 -0.002347 272963.000000 0 0 1
31.192735 4.005154 2.106056 31.519255 0.127701 1.503928 0.011620 0.009711 -74273.300000 0 0 1
31.290375 3.039754 3.282956 31.608630 0.096843 1.466746 0.017204 0.013480 -436334.000000 0 0 1
30.379145 1.985354 3.218556 30.613611 0.065260 1.465467 0.016097 0.004669 -112805.000000 0 0 1
30.542405 0.932954 4.208956 30.845165 0.030537 1.433915 0.012778 0.009716 -1053000.000000 0 0 1
31.689415 -0.011846 3.985556 31.939064 -0.000374 1.445684 0.024664 0.008756 -608673.000000 0 0 1
32.878105 0.666954 4.383956 33.175800 0.020283 1.438265 0.023044 0.013348 92083.400000 0 0 1
33.982575 -0.215546 4.217056 34.243911 -0.006343 1.447335 0.022451 0.009339 424252.000000 0 0 1
-34.709952 0.457654 4.484456 35.001436 -0.013184 1.442321 0.032644 0.000744 571823.000000 0 0 1
-34.274700 1.504254 3.642256 34.500491 -0.043860 1.465028 0.019475 0.001887 254483.000000 0 0 1
-33.985130 1.286254 2.278356 34.085692 -0.037829 1.503904 0.015369 0.002790 -864313.000000 0 0 1
-34.093132 2.622654 1.421756 34.223403 -0.076775 1.529241 0.005679 -0.000189 -46907.000000 0 0 1
-33.063900 3.531754 1.698556 33.295343 -0.106413 1.519759 0.006206 -0.001002 560355.000000 0 0 1
-31.820090 3.133354 1.095756 31.992760 -0.098154 1.536539 0.016652 -0.000690 73987.800000 0 0 1
-30.579190 3.945654 1.527556 30.870511 -0.128322 1.521293 0.008604 -0.001774 16578.500000 0 0 1
-30.241150 3.757454 2.903956 30.611739 -0.123616 1.475789 0.010423 -0.003371 374347.000000 0 0 1
-29.317820 4.688354 3.482756 29.893892 -0.158572 1.454027 0.000252 0.001635 -207668.000000 0 0 1
-29.339980 4.495454 5.052056 30.109248 -0.152037 1.402208 -0.001721 0.001787 73335.400000 0 0 1
-30.530670 4.826354 5.739856 31.438216 -0.156785 1.387191 -0.005591 0.002333 593336.000000 0 0 1
-31.661070 3.953854 5.590556 32.393064 -0.124237 1.397343 0.005306 0.006091 267153.000000 0 0 1
-31.681740 2.858454 6.671256 32.502447 -0.089980 1.364073 0.008225 0.013467 -680867.000000 0 0 1
-32.000960 3.531754 7.910956 33.152948 -0.109919 1.329852 -0.006301 0.017768 284221.000000 0 0 1
-32.245640 2.656454 9.041856 33.594541 -0.082196 1.298290 0.002798 0.017091 -486063.000000 0 0 1
-33.531260 1.826954 9.060356 34.781794 -0.054431 1.307265 0.007009 0.021078 -812332.000000 0 0 1
-33.580540 0.678054 8.210056 34.576255 -0.020189 1.331059 0.020152 0.009095 -145926.000000 0 0 1
-34.456199 -0.335246 8.638256 35.524097 0.009729 1.325168 0.033668 0.010702 -233996.000000 0 0 1
-34.138972 -1.061346 9.997056 35.588439 0.031079 1.286057 0.031434 0.022814 338172.000000 0 0 1
-32.919910 -1.808346 9.930956 34.432753 0.054877 1.278224 0.026308 0.009011 558863.000000 0 0 1
-32.730810 -2.602446 11.086756 34.655372 0.079344 1.245157 0.022729 0.013856 -56121.400000 0 0 1
-31.448350 -3.447646 10.967756 33.483976 0.109193 1.237084 0.026105 0.007351 -152278.000000 0 0 1
-31.563930 -4.379846 9.962656 33.387411 0.137881 1.267785 0.018065 0.006032 138669.000000 0 0 1
-30.424080 -5.216846 9.998256 32.446960 0.169819 1.257557 0.006739 -0.006025 31530.000000 0 0 1
-30.225010 -6.199746 8.727856 32.064989 0.202314 1.295125 0.006588 -0.003143 -351509.000000 0 0 1
-31.165180 -7.205646 8.768956 33.167520 0.227216 1.303231 0.005783 -0.006163 -580106.000000 0 0 1
-31.058280 -8.181046 7.746356 33.038649 0.257559 1.334130 0.012483 -0.007823 645675.000000 0 0 1
-32.119770 -9.353946 7.949256 34.385558 0.283383 1.337506 0.014224 -0.004828 1037580.000000 0 0 1
-33.448240 -8.912746 7.696556 35.460665 0.260413 1.352010 0.022637 -0.010006 428512.000000 0 0 1
-34.371641 -9.996646 7.906956 36.658731 0.283032 1.353397 0.026230 -0.009058 296058.000000 0 0 1
7.699470 -24.156746 10.720956 27.527607 -1.262246 1.170749 0.042602 -0.011869 -80688.400000 0 0 1
7.081670 -24.584346 9.539156 27.304498 -1.290333 1.213906 0.035881 -0.013448 408417.000000 0 0 1
5.803670 -25.202966 9.760456 27.643057 -1.344465 1.209926 0.043187 -0.020971 894144.000000 0 0 1
5.444870 -26.162616 8.647756 28.087591 -1.365609 1.257827 0.028714 -0.011223 -398575.000000 0 0 1
4.919770 -25.562456 7.464756 27.080729 -1.380660 1.291532 0.034710 -0.005749 -244741.000000 0 0 1
4.676470 -26.606276 6.521556 27.790178 -1.396808 1.333916 0.029804 -0.001124 -477589.000000 0 0 1
3.949070 -26.190906 5.228256 26.998026 -1.421143 1.375912 0.024938 0.004893 -853722.000000 0 0 1
2.579070 -26.177456 5.333956 26.839559 -1.472591 1.370729 0.011444 -0.001309 -1144240.000000 0 0 1
1.892270 -27.389646 4.929956 27.894047 -1.501819 1.393124 0.001876 -0.001530 409114.000000 0 0 1
0.351770 -27.174946 5.003256 27.633929 -1.557852 1.388737 0.011536 -0.001864 257919.000000 0 0 1
-0.182730 -27.099286 6.312656 27.825426 1.564053 1.341937 0.015207 -0.004646 -779142.000000 0 0 1
-1.577630 -27.030346 6.363056 27.813972 1.512497 1.339980 0.003798 -0.006294 -106403.000000 0 0 1
-2.214830 -28.452666 6.626256 29.297900 1.493110 1.342654 0.002012 -0.000322 -435394.000000 0 0 1
-2.057130 -28.935286 7.927056 30.071927 1.499822 1.304041 0.006169 -0.004993 14309.700000 0 0 1
-2.682530 -30.176096 8.131656 31.367445 1.482134 1.308562 -0.000235 -0.000379 -2566.110000 0 0 1
-2.370130 -30.753796 9.495156 32.273387 1.493880 1.272167 -0.008016 0.001595 1452140.000000 0 0 1
-1.008830 -31.250446 9.651656 32.722509 1.538525 1.271388 -0.008414 0.003587 1073560.000000 0 0 1
-0.751630 -31.505046 10.998756 33.378219 1.546943 1.235002 -0.015957 0.006433 603960.000000 0 0 1
0.782670 -31.747646 11.148056 33.657165 -1.546148 1.233196 -0.003600 0.005837 553872.000000 0 0 1
1.223870 -33.065886 10.839056 34.818613 -1.533800 1.254235 -0.003125 0.006906 -98602.600000 0 0 1
2.583370 -33.284146 11.140556 35.194036 -1.493336 1.248710 0.005541 0.007861 248363.000000 0 0 1
3.022070 -33.960956 12.500456 36.314472 -1.482043 1.219380 0.000979 0.014216 -197218.000000 0 0 1
2.725170 -33.216466 13.645956 36.013502 -1.488937 1.182176 -0.010605 0.011723 -251736.000000 0 0 1
3.425370 -33.577536 14.780656 36.846328 -1.469134 1.158032 -0.012205 0.017321 -1006110.000000 0 0 1
3.247270 -32.838506 16.143256 36.735772 -1.472231 1.115818 -0.012177 0.015639 -53494.400000 0 0 1
3.479670 -31.419486 16.045956 35.450881 -1.460497 1.101089 -0.009112 0.010766 1262490.000000 0 0 1
4.868670 -31.075166 15.799656 35.199418 -1.415386 1.105306 -0.006094 0.017387 989963.000000 0 0 1
5.229970 -29.649716 15.208156 33.730495 -1.396200 1.103054 0.007965 0.010830 -5237.570000 0 0 1
5.318770 -29.511106 13.774656 32.999028 -1.392481 1.140185 0.007482 0.012156 -253884.000000 0 0 1
4.145070 -29.729196 13.031256 32.723392 -1.432262 1.161216 0.000456 0.014622 -661965.000000 0 0 1
4.421570 -29.527806 11.508656 31.998294 -1.422158 1.202888 0.009459 -0.001340 84573.800000 0 0 1
5.011970 -30.511386 10.735156 32.730843 -1.407985 1.236629 0.006799 -0.006594 -383658.000000 0 0 1
6.313070 -30.877806 11.128156 33.423489 -1.369122 1.231372 0.000535 0.003126 -449781.000000 0 0 1
6.857070 -32.183356 10.451556 34.525684 -1.360873 1.263253 -0.013811 0.001792 -124205.000000 0 0 1
6.497370 -33.304786 11.232056 35.743303 -1.378128 1.251138 -0.023199 0.009198 432302.000000 0 0 1
6.865070 -34.500957 10.495756 36.709755 -1.374380 1.280838 -0.013955 0.009733 -161147.000000 0 0 1
6.807870 33.513689 11.348856 36.032083 1.370386 1.250376 -0.008618 0.012970 -367895.000000 0 0 1
5.535670 33.044521 11.720056 35.495687 1.404816 1.234299 -0.019167 0.010260 -196652.000000 0 0 1
5.517370 31.738791 12.245256 34.463583 1.398680 1.207551 -0.011393 0.011118 15463.400000 0 0 1
4.177970 31.412811 12.943356 34.230843 1.438570 1.183032 -0.018340 0.013282 252208.000000 0 0 1
4.221270 31.841871 14.280356 35.151849 1.438995 1.152452 -0.007602 0.010237 711672.000000 0 0 1
2.956870 31.597321 14.912856 35.064613 1.477488 1.131507 -0.002132 0.001875 348149.000000 0 0 1
3.080970 31.587361 16.406156 35.726961 1.473566 1.093691 -0.003361 -0.010091 -45149.900000 0 0 1
3.237570 32.797881 17.085956 37.122942 1.472402 1.092516 -0.008289 -0.003134 242044.000000 0 0 1
3.521070 32.533971 18.438856 37.561265 1.462988 1.057673 -0.001347 0.000231 -105425.000000 0 0 1
3.931170 33.773680 19.297956 39.096377 1.454920 1.054572 0.000973 0.006607 -1011180.000000 0 0 1
2.951870 -34.634788 19.573356 39.892335 -1.485773 1.057956 -0.023085 0.009320 -749166.000000 0 0 1
3.392570 -33.539076 20.357856 39.380471 -1.469986 1.027509 -0.016452 0.004771 -410395.000000 0 0 1
2.228570 -32.623926 20.671056 38.685652 -1.502591 1.007077 -0.031799 0.006837 -574476.000000 0 0 1
1.332770 -33.173136 21.586956 39.600883 -1.530642 0.994272 -0.028076 0.007544 -518645.000000 0 0 1
0.381370 -32.204906 21.990056 38.998256 -1.558955 0.971729 -0.025796 0.014413 -664987.000000 0 0 1
-0.692230 -32.958806 22.775956 40.068769 1.549797 0.966210 -0.026680 0.009553 -1625120.000000 0 0 1
-1.527730 -33.690126 21.956956 40.242596 1.525481 0.993674 -0.032514 0.010386 -819911.000000 0 0 1
-2.341930 -34.551325 22.645656 41.377584 1.503119 0.991670 -0.028247 0.009284 -588229.000000 0 0 1
-3.658730 -33.989256 23.214856 41.322940 1.463566 0.974247 -0.009394 0.014113 26962.000000 0 0 1
-4.689230 -33.940666 22.184756 40.818147 1.433506 0.996192 -0.023187 0.008884 582509.000000 0 0 1
-5.897830 -33.437326 22.727856 40.858226 1.396208 0.980916 -0.011165 0.008427 814567.000000 0 0 1
-7.095030 -33.250676 21.734256 40.352507 1.360569 1.002010 -0.003098 -0.000348 658325.000000 0 0 1
-7.806530 -34.393407 21.302156 41.202309 1.347600 1.027438 0.002978 0.010603 -5867.240000 0 0 1
-8.983030 -34.061688 20.612456 40.813806 1.312939 1.041372 0.022939 -0.004635 505227.000000 0 0 1
-10.082730 34.132278 20.741956 41.193478 -1.283564 1.043122 0.051659 -0.006471 426528.000000 0 0 1
-10.404230 34.010569 22.103756 41.875325 -1.273925 1.014733 0.056698 -0.000167 -410654.000000 0 0 1
-11.640730 33.348761 22.200056 41.719168 -1.234959 1.009681 0.040464 -0.000107 -307445.000000 0 0 1
-12.145930 33.341777 23.645556 42.641647 -1.221452 0.983013 0.038062 -0.001869 -159546.000000 0 0 1
-12.376630 34.615817 24.258156 44.044227 -1.227418 0.987512 0.034182 -0.004454 377133.000000 0 0 1
-11.145230 -34.066005 24.541856 43.439746 1.254607 0.970408 0.032663 -0.001876 78689.700000 0 0 1
-11.380930 -32.640986 24.914156 42.610735 1.235307 0.946296 0.028611 0.003359 -280238.000000 0 0 1
-11.886230 -32.383306 26.251156 43.348405 1.219015 0.920295 0.033491 0.002048 78470.400000 0 0 1
-12.229430 -31.006526 26.177256 42.381746 1.195114 0.905040 0.031625 -0.000994 118676.000000 0 0 1
-13.209130 -30.669176 27.344056 43.159899 1.164110 0.884660 0.033929 -0.004006 -129443.000000 0 0 1
-12.492530 -30.539446 28.556956 43.637379 1.182502 0.857388 0.037522 -0.009937 382589.000000 0 0 1
-13.301630 -30.277206 29.686356 44.440098 1.156852 0.839267 0.026636 -0.008118 278924.000000 0 0 1
-12.406930 -29.912546 30.930856 44.781807 1.177619 0.808338 0.031002 0.000136 -49143.600000 0 0 1
-13.198430 -29.577276 32.050656 45.565978 1.151077 0.790641 0.033368 0.002851 477424.000000 0 0 1
-12.508430 -29.163046 33.254156 45.965019 1.165615 0.761986 0.028137 0.001778 -145733.000000 0 0 1
-11.855830 -30.280166 34.093856 47.115180 1.197606 0.761752 0.022129 0.004294 -246632.000000 0 0 1
-10.531030 -30.571106 33.706756 46.708035 1.239051 0.764616 0.009707 0.004515 -122899.000000 0 0 1
-10.174030 -31.675366 34.532956 47.951692 1.260008 0.766761 0.006958 0.011289 -420332.000000 0 0 1
-8.651130 -31.821606 34.545056 47.757906 1.305349 0.762174 0.002958 0.008467 -586148.000000 0 0 1
-7.942730 -30.912406 -33.844320 46.519908 1.319294 2.385502 0.008635 0.004541 -79468.600000 0 0 1
-6.650730 -31.422386 -33.539020 46.437748 1.362219 2.377826 0.009835 -0.000627 456505.000000 0 0 1
-5.886830 -30.472646 -32.527720 44.958753 1.379963 2.379657 -0.000585 0.005437 203714.000000 0 0 1
-6.365930 -30.699556 -31.237920 44.258281 1.366332 2.354362 -0.009227 0.015764 38667.600000 0 0 1
-5.915230 -29.774506 -30.260120 42.862408 1.374682 2.354606 -0.018858 0.023907 82112.400000 0 0 1
-6.610230 -30.166716 -28.929420 42.315922 1.355082 2.323553 -0.008887 0.017986 100367.000000 0 0 1
-6.231330 -31.415866 -28.334120 42.762232 1.374988 2.295077 -0.016754 0.022093 -126566.000000 0 0 1
-7.048030 -31.762126 -27.217020 42.417845 1.352434 2.267432 -0.018717 0.018893 -100750.000000 0 0 1
-6.666430 -33.073846 -26.546020 42.930313 1.371899 2.237440 -0.014375 0.020285 288217.000000 0 0 1
-5.689030 -33.015306 -25.509220 42.108144 1.400157 2.221570 -0.009351 0.012601 9497.620000 0 0 1
-5.532030 -34.221782 -24.828820 42.640404 1.410530 2.192331 -0.013529 0.017618 17558.300000 0 0 1
-4.685030 -34.126498 -23.499420 41.698802 1.434365 2.169475 -0.004277 0.009487 116383.000000 0 0 1
-5.159630 -33.373046 -22.375420 40.509769 1.417406 2.155973 0.004614 0.014274 -103245.000000 0 0 1
-5.090730 -31.981876 -22.674120 39.533172 1.412945 2.181625 0.007108 0.011393 7524.730000 0 0 1
-5.551830 -30.969816 -21.538220 38.129349 1.393415 2.171075 0.017854 0.009421 314252.000000 0 0 1
-6.958730 -30.873536 -21.377420 38.191534 1.349106 2.164871 0.021636 0.011998 69810.500000 0 0 1
-7.457630 -29.778576 -20.659920 37.002867 1.325407 2.163171 0.027349 -0.000047 -58043.100000 0 0 1
-7.578230 -28.472036 -21.473420 36.458115 1.310663 2.200603 0.026025 -0.010743 -351228.000000 0 0 1
-6.339930 -27.904366 -21.859320 36.009419 1.347387 2.223132 0.029716 -0.004752 -196051.000000 0 0 1
-6.422330 -27.017686 -22.946720 36.024348 1.337419 2.261368 0.035953 -0.016034 -214751.000000 0 0 1
-5.335430 -27.405996 -24.005420 36.821402 1.378520 2.280939 0.034242 -0.010094 1158470.000000 0 0 1
-3.979830 -26.992416 -23.857120 36.243506 1.424409 2.289282 0.033843 -0.006917 310519.000000 0 0 1
-3.281730 -27.500566 -22.761420 35.848754 1.452025 2.258713 0.003067 -0.006694 121898.000000 0 0 1
-1.745930 -27.096356 -22.806320 35.459682 1.506451 2.269417 0.007779 -0.004612 1149500.000000 0 0 1
-1.563730 -25.684576 -22.984720 34.502754 1.509989 2.299859 -0.000255 -0.009506 51177.000000 0 0 1
-2.094130 -24.830846 -21.973020 33.223033 1.486660 2.293452 0.020122 -0.008041 -918649.000000 0 0 1
-2.134930 -23.357446 -22.506820 32.506694 1.479647 2.335572 0.018001 -0.008239 -293511.000000 0 0 1
-2.863130 -23.215746 -23.681720 33.286518 1.448089 2.362357 0.015153 -0.014214 -769035.000000 0 0 1
-4.234330 -23.217846 -23.418520 33.247932 1.390405 2.352318 0.024053 -0.015546 -1035420.000000 0 0 1
-5.089130 -23.236046 -24.715420 34.302552 1.355182 2.375338 0.016401 -0.009983 -54977.800000 0 0 1
-4.998130 -22.047146 -25.487320 34.068482 1.347863 2.416021 0.020431 -0.006116 -65277.700000 0 0 1
-5.346730 -22.217346 -26.823220 35.237524 1.334632 2.435976 0.019476 0.002162 50531.200000 0 0 1
-5.578230 -20.861846 -27.620520 35.060325 1.309520 2.478025 0.024626 0.010751 59945.400000 0 0 1
-5.833730 -20.982946 -29.007020 36.272905 1.299622 2.497572 0.021058 0.016944 -450361.000000 0 0 1
-4.717030 -21.319246 -29.775220 36.923223 1.353047 2.508851 0.008219 0.007856 -607619.000000 0 0 1
-4.984630 -21.955246 -31.117320 38.407903 1.347545 2.515256 0.005810 0.011500 -232214.000000 0 0 1
-5.402130 -20.912346 -32.007120 38.613016 1.318000 2.547971 0.016654 0.007298 -175069.000000 0 0 1
-6.167830 -21.480446 -33.033520 39.883144 1.291182 2.546787 0.009884 0.011726 -45181.200000 0 0 1
-6.372930 -20.525946 -34.229820 40.417933 1.269751 2.580919 0.008883 0.009319 1222720.000000 0 0 1
-5.125330 -20.419946 34.185956 40.148759 1.324880 0.551991 0.009183 0.006785 748343.000000 0 0 1
-5.371930 -20.018246 32.855356 38.846651 1.308621 0.562788 0.009311 0.007082 967640.000000 0 0 1
-4.253430 -20.480846 31.826456 38.085168 1.366029 0.581453 0.001093 0.003526 -276365.000000 0 0 1
-4.203730 -21.874446 31.532356 38.606376 1.380936 0.615014 0.001694 0.000494 66135.400000 0 0 1
-3.133930 -22.277546 30.692656 38.054563 1.431037 0.632515 -0.000193 -0.006172 880399.000000 0 0 1
-1.670030 -22.145346 31.270756 38.354473 1.495527 0.617533 -0.003050 -0.006996 169859.000000 0 0 1
-1.207030 -20.794846 31.032756 37.375320 1.512817 0.591149 -0.005189 -0.007405 -157306.000000 0 0 1
-0.194230 -20.375946 31.942856 37.888824 1.561264 0.567834 -0.000768 -0.003782 32842.200000 0 0 1
-0.660330 -20.011946 33.407656 38.948498 1.537812 0.539941 -0.007392 -0.002287 341976.000000 0 0 1
-1.487130 -18.811446 33.450656 38.406100 1.491906 0.513618 -0.006771 -0.008181 328049.000000 0 0 1
-1.960330 -18.549346 -34.391520 39.124133 1.465505 2.644633 -0.001670 -0.005502 372575.000000 0 0 1
-2.968630 -17.372346 -34.293720 38.557365 1.401549 2.666873 -0.003512 -0.000377 528022.000000 0 0 1
-2.380630 -16.069346 -34.493420 38.127252 1.423719 2.701453 0.004678 -0.007514 -147876.000000 0 0 1
-3.309430 -15.104646 -34.129120 37.468647 1.355105 2.716187 0.011084 -0.007889 -155500.000000 0 0 1
-2.913830 -13.679446 -34.513120 37.239403 1.360925 2.756571 0.017547 -0.016399 215338.000000 0 0 1
-1.729130 -13.168146 -33.890220 36.399684 1.440232 2.768098 0.021226 -0.005920 286711.000000 0 0 1
-1.488730 -11.790846 -34.106720 36.117983 1.445199 2.806300 0.011234 -0.003596 -43949.300000 0 0 1
-0.893630 -11.353346 33.699056 35.571385 1.492248 0.325896 0.008420 -0.005188 -342198.000000 0 0 1
-1.785430 -11.515546 32.582256 34.603454 1.416976 0.343476 0.010897 -0.012924 540829.000000 0 0 1
-1.221330 -11.119346 31.295056 33.234200 1.461397 0.343291 0.009288 -0.004628 -170025.000000 0 0 1
-0.271630 -12.166646 30.701956 33.025917 1.548474 0.377383 0.004865 -0.008411 -278228.000000 0 0 1
-0.870730 -13.360546 30.195756 33.030987 1.505717 0.417354 0.018331 -0.023302 153727.000000 0 0 1
0.078370 -14.304446 29.698556 32.964035 -1.565318 0.448870 0.006282 -0.018244 81430.800000 0 0 1
-0.096530 -15.717046 30.187356 34.033973 1.564655 0.480039 0.003454 -0.020354 -827168.000000 0 0 1
-1.123030 -16.367146 29.570656 33.816688 1.502289 0.506517 0.001576 -0.022413 -572184.000000 0 0 1
-1.534230 -17.556746 30.272056 35.028426 1.483631 0.527210 0.007281 -0.012421 207620.000000 0 0 1
-2.264930 -18.593346 29.321456 34.793537 1.449580 0.568467 0.008211 -0.016885 933588.000000 0 0 1
-3.418730 -18.066646 28.604856 34.004841 1.383779 0.571299 0.022525 -0.018247 1397500.000000 0 0 1
-4.178830 -19.122746 27.894056 34.076684 1.355652 0.611884 0.027290 -0.015133 519959.000000 0 0 1
-3.596630 -19.605546 26.571056 33.216475 1.389364 0.643608 0.026551 -0.019656 -519674.000000 0 0 1
-4.471830 -20.406146 25.796856 33.194666 1.355065 0.680690 0.042233 -0.014949 -168724.000000 0 0 1
-4.435830 -21.780446 26.053656 34.247006 1.369883 0.706317 0.029320 -0.018360 -79623.300000 0 0 1
-28.307720 -34.515284 -0.637844 44.643461 0.883889 1.585084 0.004433 -0.000459 -178488.000000 0 0 1
-27.824700 -33.212084 -0.273944 43.328183 0.873435 1.577119 0.013477 0.001084 76546.600000 0 0 1
-28.200290 -32.892784 1.038156 43.339005 0.862057 1.546840 -0.003546 0.006328 -407006.000000 0 0 1
-27.654530 -31.540584 1.586256 41.977347 0.850952 1.532999 0.011286 -0.001052 -42536.800000 0 0 1
-26.251720 -31.437784 1.528656 40.985654 0.875053 1.533490 0.018650 -0.009305 -478178.000000 0 0 1
-25.778790 -30.171084 1.978856 39.733565 0.863742 1.520973 0.028197 -0.012023 152245.000000 0 0 1
-24.239830 -30.189084 2.005656 38.768193 0.894269 1.519039 0.030176 -0.000928 35706.100000 0 0 1
-23.712430 -31.000184 3.083656 39.150985 0.917819 1.491951 0.027535 -0.002647 184551.000000 0 0 1
-22.322230 -30.823784 3.301956 38.200661 0.944020 1.484251 0.022780 0.005740 128199.000000 0 0 1
-21.911830 -31.678884 4.560056 38.787550 0.965672 1.452959 0.025473 0.000131 -294994.000000 0 0 1
-22.283330 -31.104484 5.785456 38.697638 0.949147 1.420730 0.015625 0.002840 -273945.000000 0 0 1
-21.745530 -31.724184 6.920556 39.079227 0.969898 1.392767 0.002441 0.007650 -222472.000000 0 0 1
-22.229830 -31.156484 8.290956 39.161611 0.951074 1.357471 0.002140 0.023302 10138.500000 0 0 1
-21.569730 -29.913484 8.631956 37.875855 0.946069 1.340875 0.008208 0.018661 345357.000000 0 0 1
-22.114830 -29.385784 9.855656 38.075241 0.925653 1.308968 -0.000281 0.016921 -193164.000000 0 0 1
-21.480530 -28.114984 10.471056 36.898624 0.918380 1.283063 0.006898 0.015382 194512.000000 0 0 1
-20.159330 -28.419884 10.898856 36.508539 0.953830 1.267645 -0.004551 0.011488 -163907.000000 0 0 1
-19.650030 -27.300784 11.533456 35.559486 0.946931 1.240480 0.008026 0.009194 24922.900000 0 0 1
-18.421830 -27.643584 12.420456 35.465466 0.982975 1.212998 0.009728 0.014025 182616.000000 0 0 1
-18.643830 -28.525084 13.486556 36.649147 0.991899 1.193949 0.007606 0.021476 -859202.000000 0 0 1
-17.468230 -28.725984 14.198356 36.495404 1.024443 1.171202 0.007676 0.013859 -493322.000000 0 0 1
-17.363230 -29.887684 15.243456 37.777220 1.044502 1.155447 0.018384 0.001552 -80339.700000 0 0 1
-17.344230 -31.130484 14.662956 38.534810 1.062483 1.180446 0.018884 0.004280 -98354.000000 0 0 1
-17.206530 -32.171184 15.618756 39.686210 1.079664 1.166299 0.036863 0.004436 142512.000000 0 0 1
-17.243130 -33.603484 15.048256 40.656730 1.096696 1.191648 0.019146 0.002673 28681.200000 0 0 1
-17.292930 -34.522184 16.118656 41.840622 1.106411 1.175329 0.027965 0.007280 174286.000000 0 0 1
-17.033830 33.469254 15.695656 40.702530 -1.100023 1.174918 0.018512 0.006192 -117870.000000 0 0 1
-16.880430 32.390854 16.760356 40.187384 -1.090374 1.140593 0.016284 0.000253 68363.700000 0 0 1
-18.083830 32.128854 17.454256 40.791411 -1.058139 1.128639 0.015975 -0.005656 301599.000000 0 0 1
-17.971230 30.936254 18.190756 40.136274 -1.044531 1.100417 0.013374 -0.004685 -177187.000000 0 0 1
-18.720330 31.014954 19.531856 41.156670 -1.027741 1.076317 0.010071 -0.005133 -397790.000000 0 0 1
-18.160530 31.881454 20.442656 42.001597 -1.053010 1.062475 0.003220 -0.002973 -531664.000000 0 0 1
-18.926530 32.059354 21.578556 43.030801 -1.037496 1.045502 -0.004316 0.003676 -617345.000000 0 0 1
-18.412830 33.079354 22.613156 44.097968 -1.062880 1.032361 -0.018583 0.006728 365261.000000 0 0 1
-17.366930 32.543054 23.438956 43.704065 -1.080585 1.004736 -0.018321 -0.005713 161577.000000 0 0 1
-17.098230 33.339554 24.595556 44.819825 -1.096921 0.989910 -0.019230 -0.005408 -238338.000000 0 0 1
-17.959630 33.008254 25.857856 45.614930 -1.072498 0.968092 -0.028011 -0.000923 1097410.000000 0 0 1
-19.348430 33.238454 25.560556 46.178984 -1.043635 0.984223 -0.027289 -0.003091 210936.000000 0 0 1
-20.300630 32.915254 26.507856 46.884922 -1.018148 0.969901 -0.028649 -0.002635 -630303.000000 0 0 1
-21.669530 33.366854 25.997056 47.526439 -0.994820 0.992018 -0.016875 -0.004878 -664245.000000 0 0 1
-22.088530 32.523754 24.934456 46.555610 -0.974201 1.005597 -0.013147 -0.000384 -649388.000000 0 0 1
-23.230230 32.864654 24.246556 46.985365 -0.955491 1.028569 -0.013554 0.001799 -816850.000000 0 0 1
-23.444030 32.248854 22.865956 45.961539 -0.942196 1.050080 -0.020985 -0.003598 -326895.000000 0 0 1
-22.740830 32.874154 21.829256 45.545272 -0.965626 1.070954 -0.020777 -0.003048 -37746.900000 0 0 1
-22.894730 32.370754 20.551656 44.658761 -0.955211 1.092584 -0.025746 0.007282 -141895.000000 0 0 1
-22.464530 33.345354 19.436756 44.658204 -0.977945 1.120498 -0.016448 0.005279 255927.000000 0 0 1
-21.160130 33.851854 19.630156 44.486426 -1.012139 1.113792 -0.002252 0.011101 -215952.000000 0 0 1
-20.536030 34.496054 18.591556 44.241974 -1.033829 1.137104 0.000381 0.012567 247081.000000 0 0 1
-19.181430 -34.205284 19.038956 43.593698 1.059719 1.118829 0.010524 0.003024 103152.000000 0 0 1
-19.357630 -33.167684 19.994156 43.296413 1.042501 1.090776 0.018862 0.000545 -233629.000000 0 0 1
-18.232730 -32.427084 20.333956 42.395967 1.058583 1.070575 0.016953 0.002005 -716109.000000 0 0 1
-18.586530 -31.376784 21.378256 42.272822 1.036009 1.040579 0.024406 0.002499 -106691.000000 0 0 1
-19.385030 -30.300084 20.938256 41.620728 1.001648 1.043646 0.016784 0.004394 270212.000000 0 0 1
-19.606530 -29.446184 22.022756 41.671280 0.983364 1.013978 0.022662 0.007448 -234243.000000 0 0 1
-20.132630 -28.032984 21.691556 40.763888 0.947975 1.009686 0.012953 -0.000949 -590334.000000 0 0 1
-19.313830 -27.179084 20.921656 39.362956 0.952983 1.010419 0.008265 0.012799 177917.000000 0 0 1
-19.923830 -25.979884 20.388756 38.569609 0.916570 1.013820 0.014439 0.021040 -386542.000000 0 0 1
-21.175130 -26.090084 19.507456 38.853821 0.889012 1.044802 0.026724 0.013899 -30796.400000 0 0 1
-22.379730 -26.441784 20.176856 40.088973 0.868409 1.043381 0.023020 0.010773 389443.000000 0 0 1
-23.450730 -26.405584 19.251656 40.222107 0.844596 1.071698 0.014947 0.019594 -373362.000000 0 0 1
-24.780130 -26.919984 19.813156 41.608912 0.826764 1.074496 -0.002848 0.016388 -380539.000000 0 0 1
-25.010230 -28.290084 19.922456 42.693614 0.846856 1.085311 -0.007800 0.018589 -172580.000000 0 0 1
-25.256170 -28.966484 18.664156 42.723319 0.853719 1.118690 -0.007003 0.016236 -667656.000000 0 0 1
-26.337600 -30.023684 18.787656 44.136909 0.850706 1.131097 0.003296 0.007811 93084.100000 0 0 1
-27.611390 -29.496384 19.152256 44.712799 0.818394 1.128142 -0.005986 0.005684 -263138.000000 0 0 1
-28.683600 -30.024984 18.439756 45.434273 0.808242 1.152881 -0.005679 0.010465 -590572.000000 0 0 1
-29.988840 -29.358184 18.850156 46.006107 0.774772 1.148636 -0.010931 0.002608 -500676.000000 0 0 1
-30.035900 -28.002884 18.438156 45.014246 0.750384 1.148773 -0.002953 0.009717 26546.500000 0 0 1
-31.348730 -27.474384 18.486856 45.599874 0.719629 1.153364 -0.016971 0.024695 -49474.700000 0 0 1
-31.637710 -26.186884 17.640356 44.697648 0.691411 1.165099 -0.023482 0.014023 -371464.000000 0 0 1
-31.992690 -26.402784 16.282856 44.561986 0.689964 1.196736 0.005248 -0.005236 91164.000000 0 0 1
-32.452990 -25.208284 15.674656 43.981234 0.660411 1.206391 -0.000764 -0.014016 -515217.000000 0 0 1
-31.482570 -24.073584 15.216656 42.452753 0.652820 1.204203 -0.016364 -0.000892 -158805.000000 0 0 1
-30.698750 -23.545684 16.252856 41.963887 0.654287 1.173089 -0.022945 0.009518 -213442.000000 0 0 1
-30.156330 -22.290484 16.078356 40.801758 0.636530 1.165751 -0.034562 0.008960 -240969.000000 0 0 1
-31.109430 -21.080584 16.343456 40.979217 0.595552 1.160563 -0.019500 0.001078 115653.000000 0 0 1
-31.421290 -20.820884 17.706856 41.645401 0.585207 1.131634 -0.022912 0.001932 30253.600000 0 0 1
-32.405960 -19.823084 17.839656 41.968491 0.548986 1.131754 -0.012280 -0.002006 -138891.000000 0 0 1
-32.826040 -19.317084 19.224756 42.664855 0.531897 1.103360 0.009298 -0.002391 310239.000000 0 0 1
-33.912420 -20.103084 19.754056 44.095453 0.535104 1.106287 0.010072 0.000180 678842.000000 0 0 1
-34.071451 -19.827884 21.126956 44.725351 0.527042 1.078818 0.000761 0.010949 -72819.800000 0 0 1
34.519838 -19.798884 21.586956 45.272637 -0.520745 1.073761 0.006770 0.017491 483872.000000 0 0 1
34.001655 -21.074084 21.991456 45.649246 -0.554848 1.068147 0.019726 0.018316 10411.400000 0 0 1
34.600697 -21.637684 23.135956 46.911300 -0.558854 1.055049 0.000951 0.027689 -617349.000000 0 0 1
34.103226 -23.052484 23.490756 47.394753 -0.594410 1.052224 0.004164 0.024082 246704.000000 0 0 1
32.812975 -23.096584 24.073756 46.794115 -0.613329 1.030417 0.019022 0.007034 218680.000000 0 0 1
32.532245 -24.346484 24.717956 47.561282 -0.642464 1.024288 0.020159 0.002319 -425252.000000 0 0 1
31.740655 -24.258384 26.045756 47.689829 -0.652571 0.993036 0.028986 -0.005522 -804549.000000 0 0 1
30.394255 -24.363684 25.727156 46.682828 -0.675709 0.987108 0.029193 -0.004047 -652359.000000 0 0 1
29.594485 -24.371584 26.924956 46.848275 -0.688917 0.958526 0.013729 -0.003561 -150369.000000 0 0 1
28.246325 -25.060884 26.802756 46.306485 -0.725713 0.953525 0.016351 -0.008843 -206003.000000 0 0 1
27.278705 -24.351984 26.027756 44.884195 -0.728773 0.952206 0.014047 -0.008040 183456.000000 0 0 1
26.083035 -25.090784 25.827556 44.462735 -0.766011 0.950986 0.013795 0.004744 379918.000000 0 0 1
24.944565 -24.156484 25.318256 42.974191 -0.769349 0.940790 0.018150 0.000434 -238294.000000 0 0 1
24.958865 -23.631684 23.991956 41.916767 -0.758091 0.961401 0.033287 -0.008999 177610.000000 0 0 1
25.941315 -22.618584 23.747456 41.814995 -0.717079 0.966823 0.027790 -0.004695 286976.000000 0 0 1
25.889285 -21.992884 22.335256 40.654713 -0.704202 0.989163 0.033543 -0.006379 -342288.000000 0 0 1
25.144565 -20.826084 22.339056 39.560186 -0.691733 0.970744 0.032564 -0.012736 -160160.000000 0 0 1
25.023055 -20.271784 21.055556 38.476421 -0.680884 0.991742 0.006883 -0.007102 -77276.100000 0 0 1
24.144665 -18.996784 21.003656 37.215537 -0.666634 0.971116 0.026201 -0.003645 -359100.000000 0 0 1
24.582665 -17.873884 21.633456 37.306696 -0.628679 0.952213 0.024499 -0.013852 -212064.000000 0 0 1
24.549565 -17.881884 23.030556 38.116262 -0.629533 0.922011 0.027063 -0.012200 -10593.900000 0 0 1
24.847765 -16.536484 23.679656 38.099775 -0.587203 0.900119 0.034345 -0.004630 -611755.000000 0 0 1
23.677765 -15.791484 23.687756 37.028601 -0.588187 0.876669 0.002097 0.001741 -542047.000000 0 0 1
23.684565 -14.693784 24.581656 37.163473 -0.555281 0.848050 -0.007129 0.004240 80265.200000 0 0 1
22.397765 -13.824084 24.434756 35.914099 -0.552977 0.822533 -0.015306 0.001752 1151640.000000 0 0 1
21.264365 -14.580884 24.913956 35.853600 -0.601061 0.802543 0.007568 0.007377 247475.000000 0 0 1
20.060165 -13.873484 24.837456 34.810674 -0.605062 0.776314 0.019396 -0.002214 155553.000000 0 0 1
18.760765 -14.646584 25.173956 34.644145 -0.662863 0.757372 0.032242 0.007149 156681.000000 0 0 1
18.422965 -15.805884 24.395256 34.414534 -0.709088 0.782909 0.035812 0.012092 91056.700000 0 0 1
17.100765 -16.228284 24.645056 34.105310 -0.759226 0.763216 0.016394 0.011257 -171031.000000 0 0 1
16.685765 -17.328184 23.631756 33.721516 -0.804283 0.794290 0.002003 -0.000186 -223686.000000 0 0 1
17.222765 -18.583284 23.946956 34.862857 -0.823377 0.813595 -0.003174 0.001145 -23914.900000 0 0 1
16.936565 -19.617184 23.074556 34.700379 -0.858601 0.843349 -0.012272 0.000213 -132381.000000 0 0 1
17.354365 -21.012284 23.554756 36.021058 -0.880452 0.858047 -0.013940 0.001662 -250332.000000 0 0 1
16.520365 -21.513384 24.569556 36.597968 -0.915930 0.834786 -0.023619 0.003331 93022.600000 0 0 1
16.775265 -22.912084 24.754356 37.671624 -0.938812 0.853820 0.003473 -0.002453 19749.500000 0 0 1
16.313465 -24.015084 23.756856 37.513219 -0.974098 0.884996 0.001672 0.000242 386599.000000 0 0 1
17.130565 -23.996784 22.560056 37.124898 -0.950823 0.917660 0.011098 -0.000823 547873.000000 0 0 1
18.205665 -24.932484 22.607356 38.264442 -0.940089 0.938723 0.025314 -0.005216 12010.900000 0 0 1
19.071565 -24.844584 21.342256 37.900789 -0.916104 0.972654 0.041118 0.001675 -392051.000000 0 0 1
18.633065 -25.669584 20.279556 37.648095 -0.942911 1.001949 0.057378 -0.015559 228002.000000 0 0 1
19.701865 -26.001284 19.390856 37.950435 -0.922368 1.034504 0.038726 -0.010747 316745.000000 0 0 1
19.295365 -26.657684 18.061656 37.538868 -0.944262 1.068835 0.047071 -0.015732 169974.000000 0 0 1
18.821265 -27.975284 18.348056 38.386295 -0.978572 1.072438 0.061446 -0.031715 -17309.100000 0 0 1
18.017865 -28.528384 17.319656 37.927334 -1.007482 1.096566 0.068341 -0.028186 165756.000000 0 0 1
17.112165 -29.629784 17.962556 38.644582 -1.047061 1.087371 0.079515 -0.027056 -15563.400000 0 0 1
15.979365 -29.126284 18.627956 38.087810 -1.069011 1.059763 0.078755 -0.029161 -219853.000000 0 0 1
15.104665 -30.186384 18.918956 38.694904 -1.106845 1.059938 0.081087 -0.025807 763268.000000 0 0 1
13.859765 -29.820084 19.825056 38.397439 -1.135720 1.028257 0.065465 -0.012397 523269.000000 0 0 1
12.912165 -29.043184 19.163456 37.114264 -1.152455 1.028229 0.072080 -0.019376 -1008240.000000 0 0 1
11.693465 -29.045884 19.840656 37.068209 -1.188063 1.005996 0.035908 -0.004046 -761436.000000 0 0 1
10.624665 -28.364984 19.007056 35.759251 -1.212403 1.010392 0.034436 -0.008353 -643685.000000 0 0 1
10.240065 -29.200484 17.931556 35.764059 -1.233515 1.045598 0.030096 -0.011399 -79702.100000 0 0 1
9.655865 -28.557184 16.866756 34.543247 -1.244741 1.060679 0.034133 -0.006514 -43721.400000 0 0 1
9.902565 -29.455184 15.629656 34.784405 -1.246476 1.104782 0.023170 -0.006464 -130586.000000 0 0 1
9.012965 -30.533984 15.649056 35.474648 -1.283769 1.113935 0.013092 0.002647 -141253.000000 0 0 1
9.298465 -31.489384 14.679756 35.965789 -1.283667 1.150360 0.007366 0.001814 -251737.000000 0 0 1
8.182165 -32.493384 14.280456 36.423883 -1.324115 1.167923 -0.009592 0.001366 -223948.000000 0 0 1
7.853365 -33.438784 15.247156 37.580625 -1.340119 1.153031 -0.004935 -0.002001 -188247.000000 0 0 1
7.045965 -34.456784 14.752456 38.138570 -1.369090 1.173624 -0.021484 -0.000736 -373528.000000 0 0 1
6.687665 33.756954 15.818656 37.874618 1.375217 1.139930 0.003214 0.001441 838754.000000 0 0 1
7.922265 33.057954 16.059556 37.596542 1.335584 1.129452 0.013630 -0.002690 666759.000000 0 0 1
7.803765 31.999254 16.944556 37.040100 1.331592 1.095654 0.024724 -0.015135 -655403.000000 0 0 1
9.092165 31.234154 17.184456 36.790561 1.287527 1.084801 0.015620 -0.014200 -856300.000000 0 0 1
9.472165 30.440254 16.113156 35.720649 1.269121 1.102812 0.017174 -0.012502 289678.000000 0 0 1
10.514665 29.537754 16.552756 35.454630 1.228810 1.085047 0.010612 -0.005160 380017.000000 0 0 1
11.366365 28.806354 15.490656 34.626012 1.194972 1.106973 0.005561 -0.000296 -253419.000000 0 0 1
10.731565 28.039454 14.484856 33.334494 1.205265 1.121279 0.001121 -0.000650 -807206.000000 0 0 1
11.632965 27.235054 13.848556 32.693372 1.167121 1.133393 0.012925 0.008155 -721214.000000 0 0 1
-8.859630 -9.856446 19.053333 23.209310 0.838608 0.607750 0.009094 -0.007390 -205669.000000 0 1 0
-9.292130 -9.763346 17.730133 22.271601 0.810122 0.649995 0.020638 -0.012830 -175230.000000 0 1 0
-9.117430 -10.963946 17.003733 22.191498 0.877092 0.697847 0.021323 -0.019445 -159450.000000 0 1 0
-9.581830 -10.969046 15.563933 21.315897 0.852797 0.752246 0.026214 -0.022623 477853.000000 0 1 0
-11.011130 -10.996346 15.619533 22.048456 0.784726 0.783541 0.026608 -0.010239 484218.000000 0 1 0
-11.719730 -11.586446 14.558533 21.989740 0.779679 0.847232 0.037040 -0.009119 44106.500000 0 1 0
-11.755130 -13.137446 14.492633 22.821305 0.840872 0.882725 0.035282 -0.007800 -289316.000000 0 1 0
-10.624430 -13.777546 13.900733 22.269478 0.913902 0.896682 0.037815 -0.008097 228590.000000 0 1 0
-10.536930 -15.151146 14.108933 23.230284 0.963128 0.918075 0.034773 -0.005338 157386.000000 0 1 0
-9.899030 -15.537946 15.470733 24.057476 1.003552 0.872291 0.027636 -0.007719 234443.000000 0 1 0
-10.734230 -15.216746 16.589333 24.939507 0.956441 0.843058 0.020504 0.001637 -143564.000000 0 1 0
-10.014630 -15.148546 17.808833 25.434736 0.986661 0.795150 0.020540 0.000002 -482239.000000 0 0 1
-10.945830 -14.975346 19.049333 26.588518 0.939616 0.772097 0.016773 0.003705 101940.000000 0 0 1
-11.670330 -13.796646 19.175633 26.348604 0.868698 0.755737 0.017578 0.003715 -402453.000000 0 0 1
-12.671630 -13.545746 18.237433 26.012716 0.818727 0.793862 0.014363 0.001321 -640173.000000 0 0 1
-14.100530 -13.695046 18.830233 27.220524 0.770811 0.806865 0.001260 0.004475 80696.300000 0 0 1
-14.324630 -15.045346 19.234533 28.311212 0.809932 0.823857 0.000930 0.012904 -195623.000000 0 0 1
-15.470730 -15.045946 20.055233 29.460759 0.771479 0.822019 0.008121 0.012779 -33992.400000 0 0 1
-15.803830 -16.479946 20.591533 30.746722 0.806338 0.836972 0.004303 0.010068 -276248.000000 0 0 1
-16.608730 -17.200046 19.708433 30.985704 0.802886 0.881429 0.013202 0.017864 -418873.000000 0 0 1
-16.732730 -18.583946 19.980333 32.008765 0.837768 0.896671 -0.015945 0.013388 -71029.500000 0 0 1
-18.106730 -19.068346 19.459533 32.712825 0.811260 0.933706 0.013179 0.019145 17895.900000 0 0 1
-18.163430 -19.071146 18.045033 31.925570 0.809772 0.970094 0.015460 0.015940 28620.500000 0 0 1
-18.576530 -17.863546 17.463733 31.131587 0.765835 0.975245 0.018156 0.005973 -841660.000000 0 0 1
-18.192930 -17.707846 15.968333 29.992302 0.771887 1.009346 0.019726 0.004423 -165693.000000 0 0 1
-18.966230 -18.606546 15.185233 30.602496 0.775825 1.051570 0.027174 0.003064 406078.000000 0 0 1
-18.440030 -18.557446 13.845433 29.599147 0.788572 1.084036 0.027271 -0.005355 337317.000000 0 0 1
-18.815530 -19.801046 12.963733 30.235145 0.810913 1.127672 0.034307 0.005977 249165.000000 0 0 1
-18.245030 -21.060746 13.428533 30.931564 0.856912 1.121716 0.034453 0.015272 255972.000000 0 0 1
-18.261230 -22.007246 12.400033 31.169732 0.878157 1.161654 0.020182 0.013463 -407988.000000 0 0 1
-17.765030 -23.376046 12.916233 32.075924 0.920947 1.156357 0.018243 0.013858 -58079.200000 0 0 1
-17.598230 -24.318546 11.869533 32.279641 0.944371 1.194251 0.019799 0.007824 -535383.000000 0 0 1
-16.409030 -24.240846 11.160133 31.327679 0.975731 1.206557 0.019213 0.003689 -843069.000000 0 0 1
-16.293130 -25.385356 10.155033 31.827772 1.000185 1.246057 0.014158 0.006433 -740675.000000 0 0 1
-17.392830 -25.403646 9.316733 32.166089 0.970441 1.276941 0.013000 0.012502 -767367.000000 0 0 1
-17.580530 -26.518376 8.510133 32.935113 0.985367 1.309440 0.014023 0.016402 807368.000000 0 0 1
-18.796430 -26.386326 7.487733 33.250716 0.951826 1.343658 0.002938 0.013696 758017.000000 0 0 1
-18.732530 -25.238666 6.615333 32.119473 0.932296 1.363351 0.010125 0.004651 -319423.000000 0 0 1
-19.608730 -25.319966 5.537033 32.500180 0.911838 1.399592 0.010414 0.004465 -189713.000000 0 0 1
-19.552630 -24.085746 4.644133 31.368718 0.888906 1.422200 0.010667 0.007822 526797.000000 0 0 1
-20.523230 -24.218946 3.590633 31.947660 0.867811 1.458167 0.013914 0.002489 332463.000000 0 0 1
-20.579530 -23.011646 2.859233 31.003679 0.841134 1.478443 0.006157 0.008927 78216.400000 0 0 1
-21.381230 -23.134246 1.547133 31.539562 0.824758 1.521723 -0.005491 0.006952 -136198.000000 0 0 1
-20.767830 -23.956846 0.592633 31.710951 0.856581 1.552107 -0.016656 -0.001581 -44347.100000 0 0 1
-21.248130 -23.658146 -0.702067 31.806977 0.839014 1.592871 -0.012695 -0.002012 -267017.000000 0 0 1
-20.638530 -24.648046 -1.724367 32.193921 0.873704 1.624384 -0.016378 0.001316 290787.000000 0 0 1
-19.245330 -24.392446 -1.896667 31.128307 0.902807 1.631765 -0.014027 0.000890 483383.000000 0 0 1
-18.599630 -24.843646 -3.108867 31.190031 0.928149 1.670637 -0.002866 0.008797 170378.000000 0 0 1
-18.582330 -26.353596 -3.437267 32.428842 0.956645 1.676990 0.007930 -0.000972 -632582.000000 0 0 1
-19.836130 -26.942116 -3.694167 33.660014 0.936154 1.680767 0.014514 -0.008695 -409119.000000 0 0 1
-19.650930 -28.308656 -3.943767 34.685622 0.963996 1.684743 0.027089 -0.008917 232281.000000 0 0 1
-20.854530 -28.987186 -4.646867 36.010578 0.947142 1.700199 0.028677 -0.011681 211776.000000 0 0 1
-21.046330 -28.446306 -5.929367 35.878931 0.933815 1.736818 0.017125 -0.003348 -325692.000000 0 0 1
-21.893330 -29.251616 -6.685367 37.143897 0.928289 1.751768 0.023490 -0.009994 -642894.000000 0 0 1
-22.201830 -28.800756 -8.064467 37.248361 0.914068 1.789030 0.007011 0.009154 103190.000000 0 0 1
-21.111830 -28.565326 -8.966367 36.634450 0.934326 1.818061 0.012875 0.005648 458329.000000 0 0 1
-21.567430 -28.509236 -10.319067 37.207710 0.923144 1.851817 0.007930 0.017379 125395.000000 0 0 1
-22.373130 -27.280646 -10.800467 36.897706 0.883913 1.867860 -0.002023 0.024594 15839.600000 0 0 1
-21.627030 -26.079506 -10.986667 35.617073 0.878459 1.884377 -0.008347 0.026508 164936.000000 0 0 1
-21.237730 -25.376536 -9.812167 34.515046 0.873954 1.859059 -0.012077 0.024722 -174123.000000 0 0 1
-20.893430 -23.920846 -10.134167 33.338321 0.852850 1.879663 -0.015601 0.019284 305816.000000 0 0 1
-22.023730 -23.150546 -10.534267 33.644661 0.810337 1.889256 -0.012938 0.023113 500126.000000 0 0 1
-21.672630 -21.759846 -10.761767 32.542425 0.787406 1.907841 -0.008623 0.024236 922489.000000 0 0 1
-22.988030 -20.896446 -10.759467 32.876695 0.737773 1.904206 -0.002780 0.022017 36153.900000 0 0 1
-23.670230 -20.901846 -11.974867 33.772243 0.723368 1.933258 -0.016855 0.034878 564561.000000 0 0 1
-25.040830 -20.479646 -11.865567 34.456505 0.685531 1.922357 -0.021253 0.029319 855027.000000 0 0 1
-25.203380 -18.934946 -11.684967 33.619652 0.644324 1.925768 -0.013529 0.020570 -1113490.000000 0 0 1
-24.934330 -18.172846 -12.850767 33.423276 0.629813 1.965447 -0.013956 0.022516 94807.700000 0 0 1
-24.907230 -16.765746 -12.544167 32.539460 0.592462 1.966553 0.017021 0.003025 -375321.000000 0 0 1
-23.701530 -16.167846 -11.813267 31.027650 0.598641 1.961386 0.009384 0.008576 -546908.000000 0 0 1
-23.825030 -16.583546 -10.437267 30.847732 0.608074 1.915957 0.011653 0.001581 946675.000000 0 0 1
-22.599330 -16.576346 -9.661867 29.645516 0.632850 1.902774 0.003028 0.002199 651926.000000 0 0 1
-22.708130 -17.055846 -8.160567 29.549211 0.644198 1.850602 -0.012439 -0.006692 -181115.000000 0 0 1
-22.990830 -18.446146 -7.981367 30.537531 0.676158 1.835230 -0.010804 -0.001981 309519.000000 0 0 1
-23.878130 -18.747646 -6.918567 31.136889 0.665613 1.794865 -0.003256 0.007574 309339.000000 0 0 1
-24.450830 -20.216046 -6.928367 32.473587 0.690873 1.785803 -0.004700 0.004979 476711.000000 0 0 1
-25.125870 -20.561946 -8.148467 33.473877 0.685835 1.816695 -0.017028 -0.005333 28773.000000 0 0 1
-25.746630 -21.819746 -8.251467 34.743013 0.703029 1.810588 -0.012893 0.007144 -201214.000000 0 0 1
-24.899330 -23.128246 -8.434367 35.014725 0.748538 1.814069 -0.030896 0.023146 -366028.000000 0 0 1
-25.630750 -24.311346 -8.433367 36.319397 0.758986 1.805135 -0.017796 0.020168 -725763.000000 0 0 1
-25.010230 -25.362176 -9.058067 36.753233 0.792385 1.819818 -0.017875 0.024576 -131201.000000 0 0 1
-25.655630 -26.728436 -8.557067 38.024256 0.805875 1.797783 -0.011117 0.022505 481517.000000 0 0 1
-25.290890 -27.168286 -7.266367 37.822546 0.821171 1.764116 -0.002350 0.003664 64513.500000 0 0 1
-26.135480 -28.260206 -7.004667 39.125029 0.824439 1.750800 0.003920 -0.000271 1967.380000 0 0 1
-25.769670 -28.997426 -5.733267 39.214754 0.844266 1.717524 0.010172 0.000001 -31765.400000 0 0 1
-26.046940 -28.231966 -4.603867 38.686982 0.825632 1.690082 -0.002106 -0.001393 423717.000000 0 0 1
-25.141430 -28.507646 -3.521467 38.173002 0.848061 1.663178 0.009099 -0.009099 314370.000000 0 0 1
-25.581230 -29.735786 -2.664867 39.315618 0.860362 1.638630 0.008596 -0.007603 -247033.000000 0 0 1
-25.254960 -30.968196 -3.260567 40.093309 0.886668 1.652211 0.028945 -0.010780 -130328.000000 0 0 1
-25.470540 -32.129626 -2.494667 41.076570 0.900496 1.631566 0.027551 -0.011771 -648899.000000 0 0 1
-24.607830 -32.369916 -1.309067 40.682557 0.920795 1.602979 0.032899 -0.021240 214208.000000 0 0 1
-23.218630 -32.500696 -1.665767 39.977178 0.950468 1.612476 0.045103 -0.028780 602373.000000 0 0 1
-22.401930 -32.697686 -0.516367 39.639018 0.970125 1.583823 0.065628 -0.026730 338974.000000 0 0 1
-21.271330 -31.659206 -0.350067 38.143117 0.979190 1.579974 0.058594 -0.026466 87072.400000 0 0 1
-21.766630 -30.355716 -0.082567 37.353213 0.948717 1.573007 0.036218 -0.020341 -104507.000000 0 0 1
-21.941030 -29.571236 -1.240967 36.843002 0.932453 1.604485 0.036667 -0.018364 -199661.000000 0 0 1
-22.279330 -28.071946 -1.026567 35.853264 0.899939 1.599433 0.015774 -0.009965 389267.000000 0 0 1
-23.641630 -27.937446 -0.612467 36.603315 0.868492 1.587530 0.019727 -0.015069 419540.000000 0 0 1
-24.022830 -26.616966 -0.221667 35.855381 0.836581 1.576979 0.018677 -0.017704 141163.000000 0 0 1
-23.418130 -26.146756 1.130333 35.118931 0.840394 1.538605 0.019726 -0.000731 -513915.000000 0 0 1
-24.080530 -26.548566 2.260233 35.913882 0.834107 1.507820 -0.000551 -0.000581 -585087.000000 0 0 1
-23.526230 -26.064776 3.437533 35.279919 0.836543 1.473206 0.015047 0.003015 -110937.000000 0 0 1
-24.288530 -24.857246 4.005333 34.983683 0.796970 1.456053 0.031176 -0.000433 -73806.200000 0 0 1
-24.174330 -23.667546 3.270233 33.988901 0.774806 1.474433 0.012655 -0.000985 -525526.000000 0 0 1
-25.160890 -22.814046 3.720233 34.167107 0.736519 1.461697 0.004468 0.002424 -471110.000000 0 0 1
-25.352470 -21.615046 2.748333 33.429198 0.705991 1.488490 0.012649 -0.000819 -90052.800000 0 0 1
-24.240330 -20.761346 2.659333 32.026538 0.708244 1.487665 -0.000675 0.002991 -209045.000000 0 0 1
-24.461830 -19.686546 1.805133 31.451546 0.677653 1.513371 -0.006148 -0.000441 35152.400000 0 0 1
-23.181130 -18.830646 1.761033 29.917541 0.682212 1.511899 -0.000658 0.001636 -8910.720000 0 0 1
-22.063830 -19.531446 1.262233 29.493782 0.724592 1.527987 -0.000218 0.001970 -693941.000000 0 0 1
-20.920830 -18.764446 1.400033 28.137975 0.731114 1.521020 0.002238 0.008428 -1278840.000000 0 0 1
-19.597730 -19.471146 1.289933 27.656111 0.782158 1.524138 -0.003198 0.003967 -1047900.000000 0 0 1
-19.345630 -19.891246 -0.028167 27.747358 0.799303 1.571811 -0.011252 -0.001321 -189809.000000 0 0 1
-18.349330 -20.877146 -0.105667 27.795041 0.849751 1.574598 0.009598 0.003599 -90055.100000 0 0 1
-18.040330 -21.319446 -1.580567 27.972674 0.868518 1.627330 0.015826 0.000701 85552.400000 0 0 1
-17.536430 -20.188046 -2.279767 26.838050 0.855572 1.655844 0.010487 0.003322 -37187.500000 0 0 1
-17.377630 -20.483746 -3.653467 27.109292 0.867254 1.705976 0.009373 0.003354 -152429.000000 0 0 1
-16.618930 -19.540946 -4.586867 26.059101 0.866031 1.747736 0.009941 0.014644 1173880.000000 0 0 1
-15.210830 -19.402046 -4.263767 25.019761 0.905900 1.742048 0.024903 0.005705 1026240.000000 0 0 1
-14.613830 -18.541246 -5.208367 24.175792 0.903305 1.787936 0.024343 -0.000388 289425.000000 0 1 0
-13.064630 -18.509646 -5.073967 23.217164 0.956170 1.791118 0.028294 -0.003136 467154.000000 0 1 0
-12.388630 -19.671246 -5.510667 23.891495 1.008764 1.803546 0.025538 -0.004849 -1516190.000000 0 1 0
-11.035730 -19.507846 -5.552067 23.090449 1.055974 1.813624 0.020510 -0.007867 -841992.000000 0 1 0
-10.173630 -20.772546 -5.901467 23.871086 1.115372 1.820609 0.027279 -0.009686 338812.000000 0 1 0
-10.374030 -21.351146 -7.180767 24.800309 1.118511 1.864546 0.037706 -0.014627 -567011.000000 0 1 0
-9.573230 -22.483046 -7.334367 25.513272 1.168250 1.862383 0.042186 -0.007925 -299489.000000 0 0 1
-10.114330 -23.530546 -8.329067 26.932501 1.164835 1.885208 0.041423 -0.009398 -76083.100000 0 0 1
-10.115230 -23.096046 -9.675967 27.006843 1.157997 1.937219 0.032217 -0.008513 46111.300000 0 0 1
-10.531430 -24.114046 -10.590567 28.364738 1.159029 1.953436 0.039276 -0.008933 -383048.000000 0 0 1
-11.204030 -23.539346 -11.863067 28.641988 1.126557 1.997843 0.048134 -0.012129 -543916.000000 0 0 1
-10.481830 -22.816646 -12.817767 28.191546 1.140158 2.042795 0.034161 -0.003907 -786665.000000 0 0 1
-11.307330 -22.182446 -13.730567 28.433169 1.099385 2.074767 0.031688 -0.004984 -793089.000000 0 0 1
-10.683230 -20.986846 -14.376067 27.590767 1.099940 2.118873 0.023872 -0.004892 -340658.000000 0 0 1
-10.432130 -19.943846 -13.449667 26.219837 1.088859 2.109423 0.025534 -0.003435 -110006.000000 0 0 1
-9.971330 -18.707946 -13.980667 25.394364 1.081099 2.153810 0.020828 0.006731 -107603.000000 0 0 1
-9.924530 -17.624046 -12.871467 23.974527 1.057933 2.137532 0.018247 0.001929 -1074490.000000 0 1 0
-11.165630 -17.192546 -12.439367 23.979007 0.994811 2.116197 0.021521 0.001555 -893235.000000 0 1 0
-11.192030 -16.191246 -11.426067 22.759020 0.965974 2.096759 0.032724 -0.011540 -106944.000000 0 1 0
-10.657630 -14.764746 -11.770867 21.682622 0.945569 2.144648 0.034626 -0.009641 -332843.000000 0 1 0
-11.435730 -13.892546 -12.543667 21.934501 0.882095 2.179579 0.021943 0.001029 -372041.000000 0 1 0
-11.447330 -14.100346 -13.938467 22.894147 0.888873 2.225371 0.025885 0.003235 -406167.000000 0 1 0
-12.679530 -13.480646 -14.601767 23.573500 0.816012 2.238793 0.014891 0.005762 -609600.000000 0 1 0
-12.741330 -12.101346 -14.386367 22.710165 0.759642 2.256835 0.004669 0.014405 -564937.000000 0 1 0
-13.895630 -11.462146 -14.847267 23.343321 0.689725 2.260151 -0.006570 0.008393 -384159.000000 0 1 0
-14.173530 -10.123446 -14.156367 22.444951 0.620226 2.253271 -0.006747 -0.002395 77470.400000 0 1 0
-13.253230 -9.045346 -14.357867 21.531714 0.598885 2.300735 0.008139 -0.000233 296352.000000 0 1 0
-13.339030 -8.418046 -15.654567 22.222931 0.562962 2.352420 0.011117 -0.001612 141072.000000 0 1 0
-12.314530 -7.235746 -15.758967 21.268491 0.531236 2.405286 0.010531 0.011983 1929620.000000 0 1 0
-10.941730 -7.747246 -15.877567 20.780722 0.616105 2.440368 0.011389 0.009084 1877970.000000 0 1 0
-9.955130 -6.817646 -15.431567 19.588725 0.600477 2.477990 0.005930 0.010763 336322.000000 0 1 0
11.030170 22.170754 16.079433 29.525500 1.109143 0.994890 0.022478 0.003172 11462.200000 0 0 1
11.884870 21.915554 17.214433 30.296507 1.073882 0.966481 0.035881 -0.008821 12965.100000 0 0 1
12.456670 20.667554 17.080833 29.564696 1.028382 0.954834 0.019218 0.001180 -728974.000000 0 0 1
13.468670 20.424854 18.202933 30.494696 0.987824 0.931138 0.016830 -0.001121 -280780.000000 0 0 1
14.543770 21.339754 18.101633 31.536891 0.972571 0.959435 0.014223 -0.005787 -404480.000000 0 0 1
15.484370 21.102854 19.141733 32.426873 0.937772 0.939360 0.014063 -0.002868 -6524.160000 0 0 1
16.843070 21.603154 18.616133 33.120170 0.908583 0.973900 0.013025 0.004602 -1637210.000000 0 0 1
16.853170 22.985854 18.541033 34.002187 0.938136 0.994062 0.019885 0.003337 896616.000000 0 0 1
18.069570 23.516054 17.932733 34.656847 0.915627 1.026943 0.023364 0.008551 1314550.000000 0 0 1
19.390870 23.247254 18.678033 35.571190 0.875597 1.017977 0.009221 0.003248 -963715.000000 0 0 1
19.875570 21.899354 18.636933 34.956477 0.833805 1.008481 0.020756 0.011515 -725270.000000 0 0 1
21.135370 21.874154 19.224633 35.982899 0.802574 1.007151 0.034658 -0.000502 -734484.000000 0 0 1
21.767370 20.470954 19.080933 35.453637 0.754715 1.002504 0.024327 0.007569 -150386.000000 0 0 1
22.001270 20.040754 17.741633 34.647558 0.738800 1.033215 0.017059 0.009738 161567.000000 0 0 1
21.573270 18.711854 17.447333 33.465638 0.714488 1.022363 0.020029 0.012490 -161826.000000 0 0 1
22.368670 17.547954 18.118833 33.713205 0.665211 1.003398 0.003648 0.009972 531848.000000 0 0 1
23.614770 17.399554 17.423533 34.117171 0.635005 1.034801 -0.003587 0.016104 779119.000000 0 0 1
24.508670 16.516754 18.092733 34.652923 0.593004 1.021470 -0.019133 0.014610 405036.000000 0 0 1
25.895570 16.280054 17.447333 35.214062 0.561242 1.052426 0.015282 0.013471 -424076.000000 0 0 1
26.627070 17.481154 17.168533 36.184944 0.580944 1.076439 0.010824 0.014280 1172190.000000 0 0 1
28.044670 17.405154 17.362933 37.294964 0.555445 1.086532 0.007027 0.009879 1085520.000000 0 0 1
28.905370 16.321454 16.623433 37.124774 0.514022 1.106524 0.009719 0.007964 -680610.000000 0 0 1
28.900670 16.553454 15.244133 36.628529 0.520157 1.141554 0.025233 -0.004553 17386.300000 0 0 1
29.340270 15.399854 14.552133 36.190766 0.483346 1.156992 0.047088 -0.014562 -149749.000000 0 0 1
28.689970 15.257454 13.189833 35.069588 0.488766 1.185208 0.029787 -0.003852 -363197.000000 0 0 1
29.028170 16.244854 12.255433 35.450326 0.510202 1.217804 0.035793 -0.002590 134844.000000 0 0 1
28.172470 16.361354 11.120633 34.424562 0.526150 1.241853 0.026572 0.003625 317957.000000 0 0 1
26.839170 17.133954 11.241633 33.768147 0.568173 1.231412 0.019136 0.006063 -89137.600000 0 0 1
26.953370 18.577054 11.405833 34.665316 0.603461 1.235523 -0.005269 0.013209 -56744.100000 0 0 1
27.559170 19.018954 12.603033 35.777995 0.604060 1.210815 0.000277 0.009215 -181502.000000 0 0 1
26.721170 18.776954 13.911133 35.498092 0.612535 1.168118 -0.007435 0.007809 43653.800000 0 0 1
25.557670 19.573854 13.981133 35.097042 0.653581 1.161072 0.001059 0.016171 -12418.500000 0 0 1
24.936570 19.442054 15.239833 35.100976 0.662215 1.121678 0.013475 0.016393 -151224.000000 0 0 1
25.584670 20.271854 16.392333 36.527141 0.670055 1.105406 0.024558 0.007618 -149376.000000 0 0 1
25.659670 21.664454 16.230833 37.298890 0.701175 1.120585 0.014237 0.009042 725456.000000 0 0 1
24.484370 22.332454 16.701433 37.110117 0.739466 1.103974 0.027907 0.006849 371532.000000 0 0 1
24.601370 23.840854 16.443033 37.999830 0.769700 1.123296 0.019170 0.009691 -88993.200000 0 0 1
24.571970 24.145854 15.053333 37.595303 0.776652 1.158838 0.045775 0.004985 275465.000000 0 0 1
24.538970 25.563054 14.756133 38.384557 0.805835 1.176207 0.040298 -0.001745 -324643.000000 0 0 1
24.198870 25.859054 13.240033 37.809714 0.818551 1.213038 0.027250 -0.002390 846225.000000 0 0 1
22.783270 25.712154 12.994233 36.729312 0.845720 1.209183 0.035382 -0.002709 913547.000000 0 0 1
22.456670 26.080754 11.685533 36.346381 0.859926 1.243478 0.024173 -0.011570 -296633.000000 0 0 1
22.017370 24.872754 10.875633 34.952795 0.846218 1.254391 0.035962 -0.011036 -282588.000000 0 0 1
20.711870 24.407954 11.211633 33.917997 0.867133 1.233909 0.056494 -0.013949 316147.000000 0 0 1
20.316770 23.184254 10.583233 32.592723 0.851221 1.240090 0.048228 -0.001775 2195.790000 0 0 1
20.120470 23.246254 9.029333 32.042948 0.857352 1.285139 0.045635 0.010000 -545282.000000 0 0 1
18.990170 23.943854 8.597833 31.746770 0.900269 1.296546 0.047310 0.012217 -370591.000000 0 0 1
19.183470 24.288254 7.246333 31.787327 0.902291 1.340811 0.044202 -0.003217 479756.000000 0 0 1
17.907570 24.573654 6.375133 31.067473 0.941047 1.364125 0.027227 -0.000038 15473.100000 0 0 1
17.109670 23.404454 6.177033 29.642284 0.939538 1.360872 0.040903 0.005317 364672.000000 0 0 1
16.229770 23.459354 5.069333 28.973175 0.965578 1.394925 0.046239 -0.001880 110132.000000 0 0 1
14.917970 24.265954 5.179433 28.951837 1.019588 1.390930 0.018543 -0.004264 -634524.000000 0 0 1
15.112870 25.658054 5.343433 30.253708 1.038496 1.393244 0.049102 -0.018620 759546.000000 0 0 1
13.854470 26.345154 5.422033 30.255775 1.086657 1.390616 0.030365 -0.019309 495421.000000 0 0 1
13.863570 27.637254 4.628833 31.264076 1.105849 1.422194 0.026889 -0.018771 -555123.000000 0 0 1
13.416870 27.503654 3.316533 30.780883 1.116939 1.462840 0.020330 -0.011696 378388.000000 0 0 1
13.209370 28.781754 2.776733 31.789732 1.140525 1.483338 0.007261 -0.010977 -431363.000000 0 0 1
12.818870 28.730454 1.266933 31.485989 1.151126 1.530547 0.018768 -0.007433 -428394.000000 0 0 1
13.858770 28.344854 0.396133 31.553972 1.116040 1.558242 0.033675 -0.011513 -208674.000000 0 0 1
13.957570 26.954354 0.048633 30.353802 1.092993 1.569194 0.021643 -0.007548 33078.300000 0 0 1
14.923070 26.800754 -1.140467 30.696565 1.062736 1.607958 0.036169 -0.008124 420792.000000 0 0 1
14.317470 27.237354 -2.377367 30.862846 1.086835 1.647903 0.033368 -0.015156 132760.000000 0 0 1
15.316370 27.455654 -3.352567 31.617145 1.061940 1.677032 0.048703 -0.008649 -49065.800000 0 0 1
14.723970 27.795054 -4.705567 31.804130 1.083646 1.719296 0.059294 0.000128 -244918.000000 0 0 1
14.148270 26.789754 -5.433367 30.779635 1.084905 1.748251 0.051416 -0.005196 -538125.000000 0 0 1
13.730070 27.279854 -6.709667 31.268593 1.104509 1.787060 0.035709 -0.000794 -909098.000000 0 0 1
12.557270 26.554054 -7.240667 30.252770 1.129067 1.812481 0.028932 -0.002823 -1127640.000000 0 0 1
12.727970 25.257654 -7.696567 29.311899 1.104013 1.836486 0.046596 -0.017204 718361.000000 0 0 1
11.431270 24.675854 -7.963567 28.337080 1.136972 1.855663 0.029831 0.007869 1042050.000000 0 0 1
11.538270 23.334754 -8.659267 27.434018 1.111585 1.891927 0.028506 -0.011953 -207423.000000 0 0 1
12.086970 23.329054 -9.924967 28.086377 1.092767 1.931971 0.028603 -0.009488 18452.900000 0 0 1
11.854270 22.004054 -10.361067 27.056493 1.076646 1.963775 0.040472 -0.010301 75541.400000 0 0 1
12.235870 21.768154 -11.869767 27.648877 1.058711 2.014518 0.042355 -0.006734 40505.300000 0 0 1
12.017270 20.414054 -12.239467 26.663701 1.038745 2.047701 0.058920 -0.011601 -85430.100000 0 0 1
12.315370 20.175354 -13.616767 27.278739 1.022753 2.093439 0.057525 -0.008951 313705.000000 0 0 1
13.782270 19.743954 -13.907267 27.806236 0.961380 2.094567 0.021397 -0.006005 -374955.000000 0 0 1
14.644470 20.798154 -13.772467 28.925846 0.957308 2.067045 0.013446 0.000654 -741898.000000 0 0 1
15.970570 20.339554 -14.032567 29.422262 0.905147 2.067963 0.035247 0.006613 725451.000000 0 0 1
16.994470 21.498654 -13.785167 30.676293 0.901881 2.036862 -0.000548 0.016660 -72166.500000 0 0 1
16.887670 22.545254 -14.723567 31.784671 0.927899 2.052431 -0.002547 0.013325 -460544.000000 0 0 1
15.810370 23.463154 -14.600167 31.837906 0.977845 2.047191 0.005309 0.009632 96392.100000 0 0 1
16.075170 24.893754 -15.196567 33.302338 0.997414 2.044653 0.000391 0.005687 -65398.900000 0 0 1
16.286470 24.954754 -16.560867 34.091805 0.992567 2.078043 -0.015657 0.005861 -269268.000000 0 0 1
15.084370 24.988154 -17.311667 33.935820 1.027689 2.106132 -0.001850 0.007683 132403.000000 0 0 1
15.117670 24.927054 -18.833267 34.707260 1.025628 2.144364 -0.015052 0.010957 -101321.000000 0 0 1
15.528170 23.670154 -19.343267 34.286473 0.990199 2.170219 -0.012893 0.016729 32720.600000 0 0 1
15.262970 23.607954 -20.751567 34.941684 0.996873 2.206683 -0.002185 0.023364 -279050.000000 0 0 1
15.483170 22.251854 -21.472267 34.582247 0.962885 2.240692 0.005763 0.030532 11514.200000 0 0 1
14.599770 21.253354 -20.972767 33.237258 0.968890 2.253640 -0.004627 0.018331 113485.000000 0 0 1
15.111070 20.046754 -21.498967 33.051813 0.924873 2.278990 0.006152 0.013637 181776.000000 0 0 1
14.096370 18.901354 -21.823267 32.128240 0.929997 2.317543 0.003832 0.017628 -256311.000000 0 0 1
13.699570 18.136354 -20.692467 30.737335 0.923870 2.309328 0.009275 0.011910 420410.000000 0 0 1
12.879670 17.006454 -21.031967 29.957453 0.922614 2.349084 0.002392 0.010308 -80816.700000 0 0 1
11.376170 17.286954 -21.086967 29.545155 0.988763 2.365591 0.002500 0.001024 -1035730.000000 0 0 1
10.656270 17.107454 -19.907167 28.328720 1.013707 2.350010 0.025462 -0.003415 -1166480.000000 0 0 1
9.337570 17.333854 -20.264667 28.254370 1.076678 2.370604 0.004223 0.001332 -1204130.000000 0 0 1
8.324770 17.049454 -19.182267 26.980457 1.116575 2.361671 0.016219 -0.013661 -547325.000000 0 0 1
8.246270 15.669954 -18.998467 25.970949 1.086372 2.391356 0.010427 -0.016869 -878297.000000 0 0 1
7.122570 15.292254 -18.299667 24.888990 1.134911 2.396834 0.020504 -0.023840 -681711.000000 0 1 0
6.867770 15.597254 -16.800567 23.931144 1.156022 2.349051 0.019616 -0.025881 -85294.300000 0 1 0
6.608770 16.987654 -16.610367 24.660911 1.199779 2.309798 0.033191 -0.023118 -240393.000000 0 1 0
5.980570 17.152554 -15.333067 23.771417 1.235307 2.271847 0.027853 -0.029618 -235293.000000 0 1 0
5.595470 18.602454 -15.052767 24.575320 1.278613 2.230035 0.024649 -0.029522 -710286.000000 0 1 0
6.689270 19.477254 -14.918067 25.429480 1.239977 2.197706 0.028989 -0.024945 -285633.000000 0 0 1
7.170770 20.012854 -16.161567 26.704504 1.226739 2.220813 0.031405 -0.017415 648327.000000 0 0 1
8.533670 20.803054 -16.009467 27.602420 1.181517 2.189528 0.028126 -0.010743 817795.000000 0 0 1
8.450170 21.994354 -15.230967 28.056003 1.203987 2.144656 0.028278 -0.017734 -124870.000000 0 0 1
8.410570 21.711754 -13.803967 27.068200 1.201222 2.105946 0.030540 -0.022703 -398475.000000 0 0 1
8.255770 23.027454 -12.968367 27.687541 1.226553 2.058256 0.030937 -0.017802 -449510.000000 0 0 1
7.084570 23.741954 -13.269667 28.106148 1.280809 2.062498 0.027824 -0.013224 -383188.000000 0 0 1
6.647270 24.691954 -12.320067 28.384200 1.307823 2.019776 0.004499 -0.010181 88384.700000 0 0 1
5.889570 24.206554 -11.042367 27.250287 1.332129 1.988016 -0.008232 -0.007738 -389707.000000 0 0 1
6.716270 23.654954 -10.042367 26.561518 1.294150 1.958517 -0.013990 -0.005215 -30943.100000 0 0 1
6.052270 23.132754 -8.863467 25.501281 1.314900 1.925774 -0.006396 -0.014871 -49377.200000 0 0 1
6.964370 23.171854 -7.623967 25.368526 1.278832 1.876043 -0.004958 -0.016058 6256.170000 0 0 1
7.220570 24.469654 -7.074467 26.475435 1.283857 1.841292 -0.011143 -0.010312 209616.000000 0 0 1
7.835770 24.355154 -5.794667 26.232632 1.259525 1.793529 0.001176 -0.009145 -42762.100000 0 0 1
8.154470 25.715854 -5.163567 27.467489 1.263727 1.759910 -0.005281 -0.006602 -819566.000000 0 0 1
9.185570 26.414254 -5.724067 28.545620 1.236127 1.772689 -0.005431 0.003083 -725325.000000 0 0 1
9.463870 27.646254 -5.048767 29.654177 1.240980 1.741885 -0.003473 0.001422 82686.900000 0 0 1
9.313370 28.830754 -5.993667 30.884871 1.258342 1.766100 -0.004904 0.001924 290532.000000 0 0 1
10.440170 28.913654 -6.850967 31.494956 1.224284 1.790075 0.012774 -0.000764 70676.900000 0 0 1
10.438770 30.164454 -7.587267 32.808975 1.237634 1.804165 0.017262 0.000160 113377.000000 0 0 1
11.687170 30.355654 -8.497067 33.619277 1.203280 1.826311 0.026281 -0.000618 451741.000000 0 0 1
12.855870 30.593454 -7.745567 34.076775 1.172984 1.800098 0.027430 0.006477 -241645.000000 0 0 1
13.952270 30.998654 -8.562667 35.055694 1.147865 1.817552 0.021440 0.005796 849166.000000 0 0 1
15.179870 31.487554 -7.732567 35.800658 1.121578 1.788501 0.019086 0.001678 431330.000000 0 0 1
15.895270 30.454654 -7.088467 35.076943 1.089757 1.774281 0.022473 0.001841 -146722.000000 0 0 1
17.083070 30.968454 -6.486567 35.957641 1.066704 1.752184 0.028967 0.003140 853699.000000 0 0 1
18.180070 29.854154 -6.393967 35.534044 1.023813 1.751721 0.032250 0.001398 55312.100000 0 0 1
17.963070 28.912054 -5.355767 34.456683 1.014862 1.726864 0.046095 -0.006385 481762.000000 0 0 1
19.009970 27.932954 -5.184167 34.183395 0.973239 1.723041 0.045600 -0.001578 281903.000000 0 0 1
19.099570 26.865154 -6.226567 33.545495 0.952764 1.757495 0.037915 0.009727 -106400.000000 0 0 1
19.480870 27.289854 -7.546667 34.368483 0.950835 1.792181 0.027603 0.012260 221022.000000 0 0 1
19.435270 26.196754 -8.377567 33.677638 0.932502 1.822194 0.010823 0.010775 -620668.000000 0 0 1
19.873770 26.544154 -9.851667 34.592112 0.928124 1.859589 0.008194 0.010803 454747.000000 0 0 1
21.283570 26.685354 -9.991167 35.565740 0.897536 1.855550 0.002218 0.015433 710429.000000 0 0 1
21.996270 25.430454 -10.123667 35.114563 0.857682 1.863251 0.001856 0.018081 605781.000000 0 0 1
23.557970 25.505854 -10.022467 36.138295 0.825078 1.851817 -0.008651 0.018782 787195.000000 0 0 1
24.169670 25.842954 -11.247767 37.128742 0.818843 1.878572 0.003039 0.014677 -441387.000000 0 0 1
25.560170 25.944654 -11.091467 38.071879 0.792863 1.866413 0.001426 0.025057 -121436.000000 0 0 1
26.302170 26.088054 -12.427367 39.074674 0.781311 1.894459 0.008305 0.010353 19869.700000 0 0 1
25.968670 27.303154 -13.074667 39.884596 0.810443 1.904783 0.005825 0.011927 222776.000000 0 0 1
26.798870 27.523154 -14.248067 40.972074 0.798731 1.925967 0.007814 0.012495 535364.000000 0 0 1
26.454670 28.679954 -15.246167 41.890750 0.825737 1.943302 0.017818 -0.005962 -186515.000000 0 0 1
26.783270 29.937654 -14.729767 42.785193 0.840953 1.922260 0.018586 -0.007700 -59265.100000 0 0 1
26.955670 30.860654 -15.799167 43.915849 0.852837 1.938807 0.027656 -0.001084 -122739.000000 0 0 1
27.488470 32.245654 -15.302767 45.050781 0.864870 1.917371 0.022770 -0.004214 672145.000000 0 0 1
28.866470 32.297554 -14.908167 45.811118 0.841436 1.902259 0.021753 -0.003204 784372.000000 0 0 1
29.190470 33.682754 -14.600267 46.901804 0.856727 1.887351 0.024575 -0.010085 145007.000000 0 0 1
14.555370 -33.158284 -29.557364 46.743645 -1.157156 2.255352 0.034938 -0.006848 -31336.600000 0 0 1
15.483270 -33.709484 -28.659704 46.876855 -1.140223 2.228603 0.026367 -0.005862 34423.600000 0 0 1
15.715870 -32.854484 -27.532314 45.655602 -1.124620 2.218107 0.031665 -0.009929 -582161.000000 0 0 1
16.944470 -33.292084 -26.711024 45.923378 -1.100003 2.191544 0.011526 -0.000219 -67105.800000 0 0 1
18.192270 -32.816384 -27.141844 46.309323 -1.064608 2.197032 0.026384 -0.010082 -32663.700000 0 0 1
18.808870 -33.562084 -28.176074 47.687296 -1.059988 2.202909 0.013981 -0.004871 -1002110.000000 0 0 1
20.320070 -33.396484 -28.215894 48.211690 -1.024187 2.195985 0.027391 -0.006561 -534180.000000 0 0 1
20.722470 -32.109884 -28.706174 47.796546 -0.997689 2.215036 0.016166 -0.010748 677962.000000 0 0 1
22.087870 -31.791084 -28.405004 48.014490 -0.963581 2.203829 0.004854 -0.005036 374269.000000 0 0 1
22.570270 -30.506284 -29.045544 47.788012 -0.933819 2.224083 -0.008168 0.007162 -276433.000000 0 0 1
22.934570 -30.577784 -30.399564 48.837781 -0.927269 2.242678 -0.010827 -0.001195 -45719.500000 0 0 1
23.555870 -29.432184 -30.893534 48.739541 -0.895846 2.257316 -0.007497 0.000274 -919.623000 0 0 1
23.763770 -29.631984 -32.395754 49.922501 -0.894859 2.276962 -0.003433 0.003250 156530.000000 0 0 1
24.931270 -30.393184 -32.645534 51.098383 -0.883804 2.263833 0.010367 -0.005681 -35843.500000 0 0 1
24.947570 -30.904484 -33.978944 52.268891 -0.891652 2.278486 0.004034 -0.007951 183401.000000 0 0 1
26.273870 -31.661484 -34.289702 53.558841 -0.878125 2.265587 -0.006729 -0.015058 150365.000000 0 0 1
27.323270 -30.747684 -34.451459 53.655234 -0.844299 2.268017 0.002973 -0.017045 -516588.000000 0 0 1
28.538370 -31.435584 34.462193 54.683428 -0.833668 0.888969 0.002638 -0.010057 500676.000000 0 0 1
29.714570 -30.414284 34.288295 54.622994 -0.797035 0.892167 0.009896 -0.017524 118826.000000 0 0 1
29.864070 -29.770684 32.996523 53.543691 -0.783832 0.906819 0.007835 -0.002095 547313.000000 0 0 1
31.051170 -28.975284 32.843813 53.688530 -0.750829 0.912529 0.013271 -0.009352 407785.000000 0 0 1
30.988370 -27.960084 31.691543 52.406100 -0.734072 0.921369 0.008824 -0.006774 -319383.000000 0 0 1
32.135970 -27.127084 31.560133 52.579856 -0.701079 0.927005 0.006424 -0.017716 442038.000000 0 0 1
32.062770 -26.252984 30.454433 51.426772 -0.686099 0.937022 0.016687 -0.008403 -329872.000000 0 0 1
32.757570 -26.753884 29.163533 51.374511 -0.684855 0.967129 0.014076 -0.000187 -205687.000000 0 0 1
32.167670 -27.835184 28.450603 51.176101 -0.713319 0.981309 0.013694 -0.011492 203783.000000 0 0 1
31.059670 -27.517584 27.635193 49.856037 -0.725003 0.983275 0.017196 -0.013383 -78196.800000 0 0 1
30.573370 -28.701984 26.751053 49.740865 -0.753838 1.002961 -0.000048 -0.000408 -469013.000000 0 0 1
29.423270 -28.341384 26.064843 48.459663 -0.766671 1.002892 -0.008418 0.006895 -749301.000000 0 0 1
28.962170 -29.343284 25.233223 48.337885 -0.791935 1.021582 -0.022219 0.010838 -793431.000000 0 0 1
27.614170 -28.964684 24.660923 47.006983 -0.809263 1.018525 -0.023249 0.018653 -635187.000000 0 0 1
26.607870 -28.806084 25.635173 46.850094 -0.825046 0.991812 -0.019902 0.016040 54401.700000 0 0 1
25.291370 -28.772884 25.113803 45.806499 -0.849705 0.990516 -0.008865 0.021413 455461.000000 0 0 1
24.194270 -28.762784 26.200613 45.816291 -0.871453 0.962022 0.000320 0.020154 -32706.000000 0 0 1
24.056170 -27.482884 26.773293 45.285952 -0.851788 0.938244 -0.009391 0.015097 -523870.000000 0 0 1
22.973070 -27.523584 27.632133 45.264162 -0.875271 0.914150 -0.005584 0.009670 -720226.000000 0 0 1
22.782370 -26.186984 28.316213 44.795116 -0.854812 0.886501 -0.018496 0.022106 -194647.000000 0 0 1
21.905470 -26.244484 29.458733 45.126927 -0.875270 0.859525 -0.005032 0.013012 313736.000000 0 0 1
21.774570 -25.101984 30.236883 44.927838 -0.856262 0.832525 -0.007065 0.014386 -268395.000000 0 0 1
21.040770 -23.827084 29.749963 43.537389 -0.847419 0.818496 -0.010760 0.009898 -496342.000000 0 0 1
21.673870 -23.189984 28.629193 42.745324 -0.819179 0.836908 -0.004055 0.004548 235470.000000 0 0 1
21.293070 -21.848484 28.340023 41.640221 -0.798272 0.822225 0.005362 0.009328 89967.800000 0 0 1
22.044770 -20.748484 29.194943 42.057296 -0.755116 0.803529 0.010677 0.003855 148722.000000 0 0 1
21.813470 -20.768284 30.591813 42.930270 -0.760858 0.777609 0.002628 0.006124 -247548.000000 0 0 1
22.581370 -19.844484 31.298573 43.397264 -0.720978 0.765248 0.019100 0.006451 -412859.000000 0 0 1
22.072370 -19.458984 32.726913 44.010140 -0.722555 0.732325 0.030705 -0.003057 -317701.000000 0 0 1
22.384470 -20.278184 33.808521 45.335255 -0.736067 0.729145 0.013869 -0.003438 203951.000000 0 0 1
21.776670 -19.856484 -34.116240 45.082381 -0.739309 2.429128 0.026052 -0.006115 -430802.000000 0 0 1
21.721570 -20.976684 -33.114474 44.815357 -0.767955 2.402246 0.007797 0.002803 569063.000000 0 0 1
22.970470 -21.335184 -32.473424 45.137078 -0.748506 2.373792 0.015512 0.000527 591393.000000 0 0 1
22.799370 -22.174684 -31.353784 44.660806 -0.771509 2.349058 0.011301 -0.000122 -104482.000000 0 0 1
23.910270 -22.318984 -30.289884 44.579312 -0.750990 2.317823 -0.008869 0.007018 8771.900000 0 0 1
25.110870 -22.899384 -30.733284 45.819999 -0.739368 2.306002 -0.006038 0.005922 -492060.000000 0 0 1
25.905570 -23.419884 -29.698834 45.843323 -0.735047 2.275533 -0.003411 0.002992 397778.000000 0 0 1
27.094670 -24.271984 -30.259874 47.317125 -0.730502 2.264660 -0.013869 0.018843 -260804.000000 0 0 1
27.957170 -23.572084 -31.119164 48.017172 -0.700504 2.275862 -0.010006 0.015523 -299156.000000 0 0 1
27.689470 -23.592284 -32.524804 48.797187 -0.705672 2.300341 -0.004778 0.013175 -221762.000000 0 0 1
27.869170 -24.968584 -33.231594 50.044576 -0.730557 2.297005 0.001819 -0.001740 -383679.000000 0 0 1
26.902270 -25.939184 -32.957044 49.827102 -0.767174 2.293518 0.012656 -0.000583 -311204.000000 0 0 1
27.082670 -27.157484 -33.642534 51.017840 -0.786777 2.290852 0.017810 -0.006244 23282.600000 0 0 1
26.568570 -27.193984 34.058154 51.042722 -0.797031 0.840288 0.014757 0.002669 46355.400000 0 0 1
27.429870 -26.529084 33.148300 50.547006 -0.768706 0.855566 0.008619 0.010449 -11009.800000 0 0 1
26.983270 -26.693884 31.832603 49.537611 -0.780007 0.872917 0.011936 0.007991 115730.000000 0 0 1
28.039970 -26.205684 30.764583 49.187777 -0.751597 0.895086 0.010034 -0.005058 154015.000000 0 0 1
28.137770 -24.774384 30.575693 48.377445 -0.721918 0.886634 -0.003599 -0.001290 116122.000000 0 0 1
28.712770 -24.104684 31.678383 49.081350 -0.698373 0.869215 -0.004135 0.006799 -2139200.000000 0 0 1
29.066270 -22.628284 31.495833 48.465192 -0.661497 0.863389 -0.012389 0.005020 506466.000000 0 0 1
30.310170 -22.416184 30.830323 48.700108 -0.636786 0.885290 -0.007045 0.000273 223750.000000 0 0 1
31.404870 -22.845184 31.594853 50.063989 -0.628906 0.887840 -0.002310 0.002458 -1347780.000000 0 0 1
32.808970 -22.394184 31.105503 50.452753 -0.598927 0.906472 0.002615 -0.005199 184910.000000 0 0 1
33.150670 -22.782584 29.831323 50.079146 -0.602113 0.932680 0.009440 -0.011706 -299385.000000 0 0 1
34.360970 -22.172984 29.490503 50.418323 -0.573061 0.946019 -0.001988 -0.005388 -340322.000000 0 0 1
34.860370 -22.571784 28.092853 50.139199 -0.574610 0.976052 0.009620 0.001799 -294668.000000 0 0 1
-35.014124 -23.966284 27.952123 50.810361 0.600230 0.988281 0.013199 0.003570 251642.000000 0 0 1
-34.507824 -24.290184 26.697713 49.935667 0.613341 1.006712 -0.003132 0.016133 -455641.000000 0 0 1
-34.228524 -25.800884 26.500123 50.393789 0.645918 1.017069 -0.010366 0.010491 168279.000000 0 0 1
34.661970 -26.588184 26.425773 51.055902 -0.654337 1.026770 -0.000259 0.010111 278651.000000 0 0 1
34.804570 -27.967384 26.075663 51.705637 -0.676905 1.042214 -0.001158 0.001440 357299.000000 0 0 1
-34.396924 -28.888284 27.031253 52.424898 0.698572 1.029067 -0.002468 -0.004346 -236361.000000 0 0 1
-34.249724 -30.217484 26.494373 52.802384 0.722932 1.045159 0.004122 -0.004089 200978.000000 0 0 1
-33.226824 -30.939284 27.147633 52.898536 0.749763 1.031885 0.005160 -0.014266 187122.000000 0 0 1
-31.761224 -30.491284 26.991073 51.643119 0.765001 1.020845 0.009511 -0.012147 -1045750.000000 0 0 1
-31.301424 -30.423184 25.692193 50.650154 0.771171 1.038808 0.003512 -0.009524 136320.000000 0 0 1
-30.061024 -29.748984 25.557183 49.414945 0.780181 1.027226 -0.011451 -0.000617 202812.000000 0 0 1
-29.467024 -29.792384 24.129863 48.354337 0.790889 1.048327 -0.023236 0.004508 -123618.000000 0 0 1
-29.327524 -31.075884 23.642733 48.834343 0.814335 1.065415 -0.015097 -0.003827 403744.000000 0 0 1
-28.820424 -30.979184 22.324433 47.840433 0.821482 1.085304 -0.016600 0.004133 -474338.000000 0 0 1
-29.083324 -32.330484 21.574333 48.544328 0.838222 1.110264 -0.016924 0.004506 -179043.000000 0 0 1
-28.315524 -33.492584 21.905533 49.024223 0.868963 1.107577 -0.009616 -0.008214 711296.000000 0 0 1
-26.957624 -33.321584 21.472033 47.938394 0.890583 1.106371 -0.005570 0.001412 352565.000000 0 0 1
-26.134824 -34.621484 21.326833 48.337459 0.924184 1.113853 -0.004498 -0.003075 -300327.000000 0 0 1
-26.381224 33.834754 20.251733 47.443569 -0.908552 1.129779 -0.010670 0.000710 495461.000000 0 0 1
-27.554624 33.009154 20.384033 47.585401 -0.875218 1.128111 -0.005245 -0.001028 595886.000000 0 0 1
-27.446424 31.897754 21.450533 47.232386 -0.860267 1.099380 -0.001969 -0.002533 -296250.000000 0 0 1
-26.538724 30.890354 21.106233 45.869281 -0.861028 1.092645 -0.008221 -0.002383 -291715.000000 0 0 1
-26.432824 29.926354 22.159733 45.665464 -0.847306 1.064133 -0.005152 -0.004724 -36801.500000 0 0 1
-25.412624 28.815854 21.758833 44.154294 -0.848073 1.055502 -0.000866 -0.003677 -660594.000000 0 0 1
-24.130824 29.332054 21.841233 43.814444 -0.882380 1.048936 -0.005546 -0.000975 -582781.000000 0 0 1
-23.184824 28.410554 21.242633 42.378593 -0.886337 1.045744 0.002551 -0.003101 -481164.000000 0 0 1
-21.759124 28.824054 21.488633 42.024361 -0.924170 1.034056 -0.007296 0.000840 -1236720.000000 0 0 1
-21.451924 28.691554 22.841133 42.486559 -0.928786 1.003198 -0.010534 -0.004369 289292.000000 0 0 1
-20.190924 29.258054 23.149833 42.421951 -0.966747 0.993567 0.005007 -0.000762 87137.500000 0 0 1
-19.929424 29.208254 24.660563 43.109714 -0.972034 0.961803 -0.004241 0.005603 -837714.000000 0 0 1
-19.841624 27.852654 25.249343 42.508702 -0.951811 0.934798 0.015484 -0.007968 304794.000000 0 0 1
-19.606624 27.835354 26.599013 43.205719 -0.957138 0.907603 0.014104 -0.005977 -452203.000000 0 0 1
-18.173124 28.179854 27.047953 43.080835 -0.998016 0.892019 0.020726 -0.007048 -792839.000000 0 0 1
-17.861524 29.555454 26.862193 43.750844 -1.027192 0.909702 -0.008505 -0.005989 1725250.000000 0 0 1
-16.439924 29.854454 27.111283 43.549755 -1.067440 0.898817 -0.003625 -0.006548 1595780.000000 0 0 1
-16.129624 29.954054 28.601953 44.446393 -1.076842 0.871714 -0.006913 0.000798 -617818.000000 0 0 1
-15.927124 28.701954 29.309103 44.005670 -1.064188 0.841922 0.000803 -0.003768 145770.000000 0 0 1
-16.191024 28.930154 30.676323 45.167907 -1.060568 0.824176 -0.004644 0.008290 -224966.000000 0 0 1
-16.013124 27.671654 31.560253 44.924271 -1.046198 0.791862 -0.005786 0.005444 -609985.000000 0 0 1
-14.667024 27.333054 31.701803 44.353374 -1.078296 0.774522 -0.003569 0.010285 -454867.000000 0 0 1
-14.343224 26.209654 32.489363 44.138790 -1.070067 0.743546 0.008667 0.003616 -429052.000000 0 0 1
-14.611824 26.231554 34.006627 45.365741 -1.062570 0.723323 0.021789 0.002477 1295330.000000 0 0 1
-16.032424 26.091754 34.326993 46.001747 -1.019810 0.728445 0.030236 -0.000013 1241110.000000 0 0 1
-16.391124 27.199854 -34.036624 46.550969 -1.028454 2.390830 0.032902 -0.004911 -167091.000000 0 0 1
-17.706924 26.969954 -33.264974 46.340825 -0.989835 2.371481 0.021952 -0.005302 -60738.300000 0 0 1
-18.789224 26.911254 -34.172263 47.381368 -0.961285 2.376354 0.009086 -0.000135 -807468.000000 0 0 1
-19.900224 26.343354 -33.577974 47.090036 -0.923837 2.364648 0.011207 -0.005594 -720368.000000 0 0 1
-21.162824 26.242354 -34.445800 48.197919 -0.892142 2.366954 0.023363 -0.013804 -540487.000000 0 0 1
-21.208224 25.388354 33.550938 47.117117 -0.874868 0.778347 0.034273 -0.017431 -301358.000000 0 0 1
-21.352124 24.030554 33.861188 46.690050 -0.844349 0.759423 0.037592 -0.023632 -293134.000000 0 0 1
-21.665624 23.169354 32.593733 45.481531 -0.818925 0.771828 0.047681 -0.023550 -79692.100000 0 0 1
-23.005824 23.352454 32.202663 45.952329 -0.792875 0.794300 0.047191 -0.028081 -256504.000000 0 0 1
-23.137124 22.807454 30.925523 44.854146 -0.778223 0.810041 0.053235 -0.025212 4807.480000 0 0 1
-24.602924 22.573654 30.545363 45.253651 -0.742410 0.829857 0.043008 -0.024353 332723.000000 0 0 1
-25.262324 21.386754 31.112073 45.426197 -0.702509 0.816340 0.056587 -0.030577 151269.000000 0 0 1
-26.512024 21.169354 30.498483 45.620022 -0.673814 0.838562 0.047285 -0.029049 -226998.000000 0 0 1
-26.957524 19.765754 31.017243 45.601124 -0.632674 0.822780 0.062931 -0.027235 -342194.000000 0 0 1
-27.485824 19.789454 32.347683 46.834449 -0.624015 0.808365 0.062741 -0.024566 -57972.900000 0 0 1
-27.629124 18.521654 32.981253 46.842109 -0.590560 0.789650 0.057878 -0.013464 -230209.000000 0 0 1
-28.509424 17.405654 32.353833 46.502845 -0.548121 0.801348 0.032193 -0.008620 -1255640.000000 0 0 1
-29.844424 17.726354 32.414693 47.493427 -0.535965 0.819606 0.017221 -0.011841 -1275570.000000 0 0 1
-30.585424 16.709454 31.744253 47.142037 -0.500014 0.832032 0.007142 0.003912 -629336.000000 0 0 1
-32.075424 16.981454 31.734073 48.210518 -0.486908 0.852318 -0.005976 0.004907 -677284.000000 0 0 1
-32.635224 16.951054 33.047613 49.442298 -0.479055 0.838730 -0.008687 0.005024 -16917.700000 0 0 1
-34.030524 16.858054 33.137150 50.401798 -0.459945 0.853354 0.005401 0.004177 -400630.000000 0 0 1
-34.525524 17.100154 34.568469 51.762980 -0.459873 0.839517 0.010542 0.003337 -1014060.000000 0 0 1
34.193970 17.278154 -34.414811 51.498945 0.467877 2.302667 0.001142 0.000871 -1012100.000000 0 0 1
33.904470 17.818254 -33.213394 50.696477 0.483873 2.285167 -0.000524 0.000179 -456272.000000 0 0 1
32.417370 18.062654 -32.960334 49.633950 0.508347 2.297043 0.004763 0.005613 -31537.500000 0 0 1
31.743670 16.800054 -32.894394 48.702603 0.486766 2.312322 0.004745 0.011021 303813.000000 0 0 1
30.536570 16.696954 -32.153734 47.382834 0.500372 2.316644 0.000626 0.011594 215816.000000 0 0 1
29.803670 15.369354 -32.408994 46.634951 0.476118 2.339148 -0.000580 0.007710 -264951.000000 0 0 1
29.183270 15.287454 -33.696884 47.125890 0.482540 2.367477 0.007784 0.006261 -76127.700000 0 0 1
28.504970 14.092254 -33.892284 46.473776 0.459141 2.388062 0.006181 0.008447 -721832.000000 0 0 1
29.370170 12.874054 -34.267275 46.931804 0.413113 2.389338 0.001676 0.008175 -105941.000000 0 0 1
30.128770 12.411654 -33.172294 46.499387 0.390768 2.365123 0.008509 0.011181 -149338.000000 0 0 1
30.958770 11.355354 -33.576434 47.061305 0.351553 2.365222 0.023011 0.000828 -329671.000000 0 0 1
17.066570 -21.555546 10.364356 29.382465 -0.901107 1.210299 -0.013708 0.004624 -8542.030000 0 0 1
16.673370 -22.868346 10.742056 30.271345 -0.940804 1.208033 -0.005156 -0.000621 -342405.000000 0 0 1
17.728970 -23.636246 11.227656 31.607733 -0.927247 1.207648 -0.019483 0.001421 -773492.000000 0 0 1
17.274470 -24.982246 11.825756 32.593994 -0.965818 1.199504 -0.006560 0.000607 -382958.000000 0 0 1
16.807070 -25.929236 10.947356 32.781817 -0.995695 1.230310 0.006099 -0.000715 1250020.000000 0 0 1
15.353870 -25.828416 10.869756 31.953091 -1.034463 1.223690 0.013193 -0.005099 1318690.000000 0 0 1
14.665070 -26.843936 9.898656 32.150344 -1.070792 1.257826 0.020080 -0.014894 3069.060000 0 0 1
14.746270 -26.391216 8.551956 31.417905 -1.061255 1.295118 0.023953 -0.011543 -11618.700000 0 0 1
13.990770 -27.120796 7.608356 31.451015 -1.094534 1.326461 0.034772 -0.011868 -271321.000000 0 0 1
13.818870 -26.284216 6.327656 30.362155 -1.086763 1.360851 0.036626 -0.008712 117685.000000 0 0 1
13.048670 -25.091416 6.550556 29.030273 -1.091241 1.343191 0.038545 -0.015869 91320.500000 0 0 1
12.571370 -24.499846 5.390556 28.059578 -1.096708 1.377483 0.030133 -0.010180 -215488.000000 0 0 1
11.850070 -23.190746 5.753256 26.670861 -1.098401 1.353374 0.032701 -0.007975 -367020.000000 0 0 1
11.418970 -22.544146 4.617156 25.689483 -1.101950 1.390085 0.045277 -0.010730 -346149.000000 0 0 1
10.648170 -21.422146 4.983156 24.436115 -1.109501 1.365430 0.039176 -0.006773 206492.000000 0 1 0
9.997270 -20.666346 3.736656 23.259533 -1.120236 1.409447 0.031941 -0.006651 -84268.800000 0 1 0
10.951970 -20.114546 2.884756 23.083813 -1.072201 1.445500 0.027351 -0.000850 -191492.000000 0 1 0
10.295070 -19.666146 1.677856 22.261199 -1.088532 1.495353 0.020472 0.008191 101427.000000 0 1 0
11.197370 -19.281446 0.504756 22.302691 -1.044664 1.548162 0.013945 0.013183 -414621.000000 0 1 0
11.821370 -18.070646 0.744056 21.606635 -0.991492 1.536353 0.010989 0.013361 -120079.000000 0 1 0
12.655270 -17.804446 -0.415944 21.847819 -0.952864 1.589836 0.026857 0.011733 630235.000000 0 1 0
13.829070 -16.872146 0.062856 21.815509 -0.884195 1.567915 0.025924 0.017594 191696.000000 0 1 0
14.772870 -17.491046 0.880756 22.911790 -0.869448 1.532346 0.022452 0.008207 480512.000000 0 1 0
16.033170 -16.784246 0.859756 23.227412 -0.808281 1.533773 0.021499 0.004496 1392640.000000 0 1 0
17.174870 -17.563346 1.627156 24.618995 -0.796581 1.504655 0.018054 0.018406 250637.000000 0 1 0
17.644270 -18.646846 0.883156 25.686672 -0.813017 1.536408 0.011861 0.016295 -451517.000000 0 0 1
18.777270 -19.129146 1.533456 26.848866 -0.794681 1.513651 0.004842 0.021959 -127181.000000 0 0 1
19.363170 -20.460046 1.019756 28.188398 -0.812935 1.534612 0.006580 0.012757 -279259.000000 0 0 1
18.481970 -21.497946 1.254356 28.378131 -0.860693 1.526580 0.008798 0.016748 -98901.800000 0 0 1
18.847070 -22.604046 0.467556 29.434224 -0.875787 1.554911 0.012645 0.009402 450518.000000 0 0 1
17.653470 -23.611646 0.474356 29.485248 -0.928795 1.554708 0.007821 0.004056 330799.000000 0 0 1
17.617370 -24.375746 1.716256 30.124646 -0.944970 1.513794 -0.004449 0.005183 724.708000 0 0 1
16.348770 -24.946346 1.964956 29.890860 -0.990664 1.505011 0.000338 -0.002410 -329357.000000 0 0 1
16.217670 -25.926736 3.165756 30.744601 -1.011824 1.467644 0.001396 -0.001235 237969.000000 0 0 1
16.977970 -27.159986 3.195356 32.188921 -1.012118 1.471364 -0.003155 -0.002401 519460.000000 0 0 1
18.347670 -26.911786 3.474556 32.755973 -0.972410 1.464522 -0.005057 0.003897 -180044.000000 0 0 1
19.236670 -28.188986 3.525356 34.308841 -0.971968 1.467861 0.001836 0.003750 102867.000000 0 0 1
19.403970 -28.794806 2.263956 34.796270 -0.977823 1.505687 -0.011533 0.015478 -251034.000000 0 0 1
20.283170 -29.885916 2.337856 36.194482 -0.974518 1.506160 0.020278 0.022836 38316.200000 0 0 1
19.700170 -31.253166 2.906056 37.058093 -1.008365 1.492297 0.024072 0.013398 -98128.100000 0 0 1
19.513770 -31.278786 4.318356 37.118700 -1.013013 1.454193 0.041115 0.010515 -37043.000000 0 0 1
18.910970 -32.527666 4.606256 37.906351 -1.044180 1.448979 0.038709 -0.014999 -395264.000000 0 0 1
18.830470 -32.823856 6.068756 38.325213 -1.049953 1.411778 0.039534 -0.017975 -1389330.000000 0 0 1
19.900470 -33.525596 6.487556 39.523192 -1.035103 1.405905 0.031351 -0.025237 -1055550.000000 0 0 1
19.574170 -34.166878 7.679556 40.118565 -1.050542 1.378186 0.028926 -0.018229 527195.000000 0 0 1
20.745070 34.330100 8.328856 40.966860 1.027234 1.366062 0.041889 -0.027412 741546.000000 0 0 1
21.633570 -34.194279 9.108756 41.475650 -1.006703 1.349374 0.040685 -0.026054 350929.000000 0 0 1
22.665670 34.320392 9.649856 42.246203 0.987135 1.340342 0.052803 -0.029511 -284458.000000 0 0 1
23.584270 -34.252421 10.569656 42.908785 -0.967801 1.321906 0.035283 -0.023350 -833395.000000 0 0 1
24.259970 -33.167096 9.954056 42.281032 -0.939275 1.333139 0.019881 -0.020177 -12331.900000 0 0 1
25.002370 -32.419906 10.868056 42.358984 -0.913862 1.311324 0.003115 -0.011576 -52096.200000 0 0 1
25.868970 -31.295186 10.182656 41.860229 -0.880038 1.325077 -0.007940 -0.014207 7245.770000 0 0 1
25.006870 -30.452466 9.496356 40.532420 -0.883275 1.334308 -0.008916 -0.015553 -161971.000000 0 0 1
25.646570 -29.838436 8.419756 40.236440 -0.860804 1.359981 -0.011694 -0.008364 40766.900000 0 0 1
25.156470 -28.378316 8.245456 38.809334 -0.845508 1.356704 -0.019443 -0.004081 -32812.200000 0 0 1
25.581270 -27.597856 9.339856 38.772103 -0.823301 1.327512 -0.028894 -0.010599 -268718.000000 0 0 1
25.194970 -26.267546 9.335556 37.575566 -0.806237 1.319719 -0.024468 0.003494 -498652.000000 0 0 1
25.785370 -25.354476 10.471456 37.648190 -0.776973 1.288939 -0.000011 -0.015271 167678.000000 0 0 1
27.151870 -25.078046 10.265156 38.360212 -0.745713 1.299896 0.021428 -0.010119 -547318.000000 0 0 1
27.739270 -24.171846 11.130256 38.439925 -0.716784 1.277040 0.019896 -0.018949 -876318.000000 0 0 1
29.115370 -23.857446 10.589756 39.102755 -0.686465 1.296553 0.036192 -0.021902 -733220.000000 0 0 1
29.169170 -23.105546 9.389556 38.377995 -0.669919 1.323627 0.045883 -0.017436 -42761.000000 0 0 1
30.519670 -22.871146 9.012356 39.188802 -0.643111 1.338747 0.047500 -0.020041 405912.000000 0 0 1
30.728970 -22.270046 7.601256 38.704052 -0.627128 1.373117 0.044822 0.004947 -414178.000000 0 0 1
30.362670 -20.883546 7.614356 37.629678 -0.602493 1.367040 0.038432 0.016003 1857.600000 0 0 1
30.714170 -20.298246 6.402256 37.368007 -0.583983 1.398617 0.028794 0.014640 -97441.000000 0 0 1
30.077070 -18.933146 6.178656 36.073120 -0.561820 1.398666 0.028381 0.012942 -498125.000000 0 0 1
30.572170 -18.025146 7.096256 36.192822 -0.532732 1.373450 0.036457 0.011518 129951.000000 0 0 1
30.016370 -16.714446 7.011856 35.064531 -0.508083 1.369469 0.032414 0.011515 -44346.400000 0 0 1
30.503570 -15.883046 8.255156 35.367875 -0.480066 1.335215 0.030104 -0.011365 525266.000000 0 0 1
31.912470 -15.661246 8.253156 36.493766 -0.456225 1.342670 0.046530 -0.001117 307699.000000 0 0 1
32.281770 -15.398446 9.612756 37.035522 -0.445080 1.308235 0.043039 -0.014674 540555.000000 0 0 1
33.827170 -15.402346 9.794556 38.437521 -0.427273 1.313137 0.024519 -0.019243 625517.000000 0 0 1
34.552170 -14.338946 9.207556 38.525796 -0.393365 1.329463 0.031154 -0.004208 -415617.000000 0 0 1
-34.170724 -14.620346 9.068356 38.257392 0.404292 1.331483 0.020337 -0.007313 199750.000000 0 0 1
-33.348524 -13.522846 8.293956 36.929408 0.385239 1.344275 0.021398 -0.009299 238190.000000 0 0 1
-33.788624 -13.374546 6.958656 36.999629 0.376906 1.381596 0.038455 -0.010819 320952.000000 0 0 1
-32.752324 -12.903846 6.099856 35.727192 0.375308 1.399221 0.033502 -0.011080 -224441.000000 0 0 1
-31.760124 -13.870246 5.497956 35.090123 0.411755 1.413467 0.013195 -0.010997 -266636.000000 0 0 1
-30.852424 -14.339146 6.481256 34.633652 0.435065 1.382549 0.012642 -0.010717 451156.000000 0 0 1
-29.948824 -15.394746 6.084356 34.219142 0.474813 1.392040 0.004374 -0.004452 643358.000000 0 0 1
-29.088724 -16.038246 7.191956 33.986813 0.503884 1.357574 -0.001213 -0.004963 -240511.000000 0 0 1
-29.769724 -17.032846 7.936056 35.204195 0.519692 1.343413 0.023612 -0.016574 -13734.900000 0 0 1
-29.325324 -17.125746 9.293756 35.208518 0.528566 1.303667 -0.014348 -0.003360 -366341.000000 0 0 1
-30.360524 -17.784446 10.209056 36.637041 0.529895 1.288404 -0.019160 -0.007656 594611.000000 0 0 1
-31.647924 -17.096946 10.164556 37.379338 0.495306 1.295398 0.004344 -0.003960 1472550.000000 0 0 1
-32.668724 -17.728946 10.941356 38.746282 0.497213 1.284517 0.035256 -0.011177 625439.000000 0 0 1
-33.184024 -19.213446 10.679056 39.804249 0.524833 1.299179 0.048519 -0.010022 -302609.000000 0 0 1
-32.219224 -20.251746 10.918756 39.590793 0.561156 1.291385 0.035964 -0.001781 53336.700000 0 0 1
-32.283624 -20.783546 12.256856 40.304078 0.571990 1.261793 0.010088 -0.016519 260368.000000 0 0 1
-33.532924 -21.625546 12.666956 41.863744 0.572785 1.263402 0.022112 -0.036816 331421.000000 0 0 1
-33.376824 -23.011046 12.383756 42.389599 0.603598 1.274331 0.033284 -0.035374 177418.000000 0 0 1
-34.610624 -23.547446 11.929656 43.528086 0.597418 1.293176 0.062106 -0.028237 129799.000000 0 0 1
-34.821424 -25.025646 12.266856 44.601461 0.623157 1.292173 0.046436 -0.017043 -263203.000000 0 0 1
-34.783024 -25.345756 13.629256 45.144465 0.629717 1.264108 0.045365 -0.017297 -54504.800000 0 0 1
34.603370 -26.494276 14.016856 45.780041 -0.653446 1.259620 0.029469 -0.018918 -479164.000000 0 0 1
33.200870 -26.291356 14.608456 44.798886 -0.669775 1.238632 0.039577 -0.017133 -523715.000000 0 0 1
32.307470 -25.770186 13.666856 43.527670 -0.673309 1.251413 0.044248 -0.026239 -1086140.000000 0 0 1
31.248970 -25.151356 14.291256 42.583199 -0.677703 1.228546 0.027365 -0.006867 -1318100.000000 0 0 1
31.396270 -23.610946 14.514856 41.879394 -0.644799 1.216866 0.041082 -0.005393 -160682.000000 0 0 1
32.333070 -23.226246 15.504956 42.723408 -0.622931 1.199402 0.055866 -0.013255 160174.000000 0 0 1
33.576470 -22.891746 14.906256 43.285192 -0.598392 1.219225 0.060100 -0.025338 729856.000000 0 0 1
34.739170 -22.361546 15.861956 44.254382 -0.571932 1.204214 0.057294 -0.027518 694564.000000 0 0 1
34.645370 -21.020946 16.380556 43.709318 -0.545365 1.186657 0.046465 -0.015759 305349.000000 0 0 1
33.681070 -20.768146 17.419156 43.233753 -0.552545 1.156106 0.038199 -0.018141 348508.000000 0 0 1
33.592870 -19.338646 17.954656 42.718074 -0.522343 1.137014 0.028066 -0.002052 -297189.000000 0 0 1
33.072870 -18.390346 17.022856 41.494544 -0.507480 1.148076 0.031244 -0.008971 28937.800000 0 0 1
32.834670 -17.069746 17.505156 40.938030 -0.479417 1.128959 0.022671 -0.003365 -353010.000000 0 0 1
33.998270 -16.177146 17.961856 41.715833 -0.444119 1.125665 0.012698 -0.003589 -352920.000000 0 0 1
34.660670 -16.580546 19.128756 42.920693 -0.446193 1.108866 0.007272 0.015508 -141074.000000 0 0 1
-34.456524 -15.667746 19.551956 42.602926 0.426764 1.094001 -0.003188 0.003270 -296290.000000 0 0 1
-34.213724 -15.649846 21.075656 43.124006 0.429003 1.060172 -0.009203 0.012452 -117929.000000 0 0 1
-33.404524 -16.678446 21.624256 43.146741 0.463077 1.045835 -0.004926 0.017118 236995.000000 0 0 1
-33.348924 -16.520146 23.059556 43.781379 0.459939 1.016085 -0.005378 0.019688 76692.700000 0 0 1
-32.441624 -17.520346 23.838456 43.905507 0.495178 0.996851 -0.005465 0.024152 -612808.000000 0 0 1
-32.843224 -18.838746 23.740456 44.689876 0.520779 1.010748 -0.010972 0.018479 -41942.100000 0 0 1
-32.035224 -19.811146 24.378456 44.866984 0.553852 0.996374 -0.020518 0.018817 25366.800000 0 0 1
-30.892124 -20.374046 23.473756 43.822852 0.583040 1.005518 -0.022517 0.017786 -734911.000000 0 0 1
-29.766024 -19.595446 23.373456 42.618261 0.582199 0.990302 -0.024415 0.026924 -476573.000000 0 0 1
-28.745624 -20.436746 22.781956 41.987963 0.618038 0.997287 -0.016511 0.022405 527391.000000 0 0 1
-27.346524 -19.783446 22.873956 40.772969 0.626282 0.975194 -0.007012 0.026457 -113423.000000 0 0 1
-26.836724 -19.627946 24.175356 41.108562 0.631480 0.942106 0.004835 0.018693 -251850.000000 0 0 1
-25.771924 -18.729646 24.163256 39.985681 0.628452 0.921912 0.025017 0.015796 -477367.000000 0 0 1
-25.399324 -18.161346 25.506356 40.317916 0.620744 0.885851 0.020426 0.004555 -1056070.000000 0 0 1
-24.445224 -17.138246 25.503956 39.265001 0.611456 0.863825 0.024557 0.009190 -149403.000000 0 0 1
-24.283024 -16.651046 26.834256 39.837168 0.601069 0.831729 0.018913 0.008050 -95565.000000 0 0 1
-23.393724 -17.531546 27.725156 40.290269 0.643125 0.811880 0.015041 0.011335 -671092.000000 0 0 1
-23.875624 -18.843646 28.149156 41.442773 0.668147 0.824084 0.011390 0.012235 -26500.300000 0 0 1
-22.878624 -19.489946 28.922056 41.710608 0.705587 0.804602 0.009901 0.010547 -133228.000000 0 0 1
-23.309224 -20.809646 29.544256 43.002609 0.728803 0.813397 0.014042 0.013933 414954.000000 0 0 1
-24.352924 -20.630046 30.536256 44.171560 0.702824 0.807495 0.013837 0.005494 786448.000000 0 0 1
-24.503424 -21.808646 31.270356 45.319643 0.727276 0.809313 0.009310 0.005398 -509151.000000 0 0 1
-25.550124 -21.716846 32.392256 46.622833 0.704477 0.802693 0.017364 0.000075 -824890.000000 0 0 1
-25.245224 -20.857746 33.516656 46.858651 0.690517 0.773784 0.028531 -0.001536 290845.000000 0 0 1
-26.289224 -20.776646 34.463656 48.068035 0.668805 0.771341 0.036816 -0.016013 1392950.000000 0 0 1
-27.692824 -20.137846 34.058456 48.294967 0.628740 0.788066 0.026356 -0.019551 825888.000000 0 0 1
-28.410624 -20.719446 33.007856 48.228390 0.630111 0.817006 0.025525 -0.016282 97952.800000 0 0 1
-29.466124 -19.897246 32.532656 48.192599 0.593927 0.829757 0.038056 -0.015074 -48352.200000 0 0 1
-30.273524 -20.522946 31.398556 48.203184 0.595751 0.861395 0.026714 0.000983 -288493.000000 0 0 1
-31.195924 -19.626046 30.814956 48.040909 0.561558 0.874433 0.030016 -0.007086 160432.000000 0 0 1
-31.680124 -20.160246 29.599956 47.814467 0.566733 0.903253 0.020017 -0.000483 8067.040000 0 0 1
-32.573124 -19.057946 28.959756 47.569751 0.529378 0.916268 0.007471 0.006915 202109.000000 0 0 1
-33.262624 -19.346146 27.742456 47.437532 0.526794 0.946137 -0.008113 0.013522 388265.000000 0 0 1
-34.017224 -18.222446 27.272456 47.254798 0.491785 0.955579 0.000091 0.013407 -54688.300000 0 0 1
34.894970 -18.725146 26.403056 47.596339 -0.492508 0.982759 -0.016023 0.013702 -248643.000000 0 0 1
33.851470 -19.303846 27.145056 47.491206 -0.518258 0.962365 -0.014329 0.009659 137725.000000 0 0 1
32.935970 -20.050846 26.351956 46.703749 -0.546852 0.971288 0.013667 0.012535 395105.000000 0 0 1
31.763870 -20.773346 27.063856 46.614672 -0.579177 0.951347 0.013572 0.003488 -219092.000000 0 0 1
30.801870 -19.937246 27.631156 45.931795 -0.574456 0.925332 0.007353 -0.002372 -197748.000000 0 0 1
29.801970 -20.700046 28.249456 45.985662 -0.607083 0.909285 0.008841 -0.008047 -346450.000000 0 0 1
-29.210050 -5.836146 34.178832 45.337403 0.197203 0.716853 -0.009859 0.002871 36357.900000 0 0 1
-30.144240 -5.474446 33.184916 45.165068 0.179650 0.745502 -0.015228 0.004245 153116.000000 0 0 1
-29.711020 -4.354146 32.445513 44.208762 0.145514 0.746727 -0.000225 0.004287 -337359.000000 0 0 1
-30.266730 -4.147246 31.061933 43.567399 0.136175 0.777082 -0.008726 0.004321 -156702.000000 0 0 1
-30.068260 -5.181546 30.100333 42.859990 0.170650 0.792181 -0.017788 0.004935 -619904.000000 0 0 1
-28.734130 -5.291346 29.704563 41.665449 0.182108 0.777128 -0.004357 -0.002168 -419288.000000 0 0 1
-28.447870 -6.423846 28.700263 40.917627 0.222086 0.793415 0.006737 -0.010334 20755.500000 0 0 1
-28.885580 -6.056946 27.385253 40.261836 0.206693 0.822790 -0.003733 -0.010056 -323751.000000 0 0 1
-28.407280 -6.914746 26.343413 39.354322 0.238771 0.837408 0.016073 -0.007290 -22795.000000 0 0 1
-29.122880 -6.643546 25.003743 38.954666 0.224283 0.873865 -0.002574 -0.006584 6475.170000 0 0 1
-28.861600 -5.335246 24.558323 38.269675 0.182793 0.874061 0.021699 -0.005830 51417.900000 0 0 1
-29.446110 -5.208346 23.262033 37.885649 0.175067 0.909670 0.026614 -0.005999 2636.640000 0 0 1
-29.048420 -3.923046 22.593933 37.009280 0.134240 0.914113 0.024699 -0.000097 447993.000000 0 0 1
-27.745290 -3.942546 22.031633 35.647407 0.141153 0.904545 0.024608 0.003418 30220.000000 0 0 1
-27.208290 -2.714146 21.640233 34.870579 0.099425 0.901305 0.029732 0.004456 462702.000000 0 0 1
-25.774300 -2.811346 21.044133 33.392720 0.108646 0.888984 0.015073 0.011926 317110.000000 0 0 1
-25.755820 -3.463146 19.783233 32.660863 0.133659 0.920130 0.017173 0.008175 345212.000000 0 0 1
-24.456930 -3.383846 19.162533 31.253712 0.137487 0.910782 0.007469 0.011060 493800.000000 0 0 1
-24.338030 -4.236346 17.897333 30.505751 0.172336 0.943834 0.017680 0.009593 -243813.000000 0 0 1
-25.208760 -3.806646 16.837033 30.552542 0.149873 0.987133 0.015487 0.012568 200442.000000 0 0 1
-24.913630 -4.421346 15.622133 29.736985 0.175638 1.017678 0.025375 -0.002314 244930.000000 0 0 1
-26.125940 -4.389746 14.631033 30.263868 0.166468 1.066206 0.015819 -0.007553 357559.000000 0 0 1
-26.570060 -3.096746 14.234033 30.301248 0.116027 1.081788 0.019166 -0.008955 -117281.000000 0 0 1
-27.682570 -3.342546 13.400833 30.936703 0.120164 1.122790 0.017863 -0.010693 -347977.000000 0 0 1
-28.020960 -2.135546 12.546833 30.775928 0.076065 1.150881 0.018209 0.004489 -136948.000000 0 0 1
-27.239640 -1.880046 11.391433 29.585424 0.068909 1.175550 0.020544 -0.003659 333859.000000 0 0 1
-27.787050 -0.759446 10.692733 29.783073 0.027324 1.203578 0.017332 0.006259 400396.000000 0 0 1
-29.009980 -0.984546 9.726333 30.612903 0.033925 1.247472 0.002018 0.008089 446735.000000 0 0 1
-28.892040 -1.621946 8.519233 30.165510 0.056079 1.284484 -0.006769 -0.000677 652182.000000 0 0 1
-30.220510 -1.689546 7.975233 31.300769 0.055849 1.313162 0.007024 0.001710 886211.000000 0 0 1
-30.147290 -2.448346 6.604833 30.959285 0.081035 1.355805 0.005984 0.002965 -508802.000000 0 0 1
-29.713270 -1.814846 5.437733 30.261213 0.061003 1.390122 0.012515 -0.001401 667647.000000 0 0 1
-30.591250 -0.782946 4.916033 30.993628 0.025588 1.411509 0.021834 0.004536 165412.000000 0 0 1
-30.107400 -0.119146 3.608333 30.323090 0.003957 1.451517 0.003294 0.001866 -126060.000000 0 0 1
-30.221460 -1.025946 2.518433 30.343561 0.033935 1.487703 0.006886 -0.004800 245484.000000 0 0 1
-29.923060 -0.385646 1.340833 29.955568 0.012887 1.526021 0.001462 -0.010575 -409236.000000 0 0 1
-30.757450 -0.911146 0.183033 30.771487 0.029615 1.564848 0.007045 -0.006629 487460.000000 0 0 1
-32.135270 -0.504146 0.216133 32.139951 0.015687 1.564072 0.013742 -0.003493 624255.000000 0 0 1
-32.724010 -0.829446 -0.995267 32.749647 0.025341 1.601191 0.014414 -0.000805 -1147940.000000 0 0 1
-34.232875 -0.749646 -1.029667 34.256560 0.021895 1.600858 0.021510 -0.006460 -901478.000000 0 0 1
-34.862734 -1.806546 -0.266867 34.910529 0.051773 1.578441 0.020199 -0.004460 498880.000000 0 0 1
33.822885 -1.542246 -0.271267 33.859115 -0.045566 1.578808 0.030191 -0.007481 1496.060000 0 0 1
33.025095 -2.652946 0.415033 33.134080 -0.080159 1.558270 0.028462 -0.014680 -551267.000000 0 0 1
33.304005 -2.777646 1.779633 33.466986 -0.083210 1.517595 0.029827 -0.014090 419896.000000 0 0 1
32.815885 -4.097046 2.136433 33.139590 -0.124207 1.506284 0.024429 -0.007107 -67885.600000 0 0 1
33.037415 -4.368746 3.597333 33.518615 -0.131474 1.463266 0.034570 -0.002482 -144596.000000 0 0 1
32.319365 -3.472846 4.374933 32.798507 -0.107043 1.437009 0.031674 -0.005470 43488.500000 0 0 1
32.345605 -3.934546 5.700833 33.078971 -0.121046 1.397592 0.036219 -0.007132 -20807.300000 0 0 1
31.817685 -2.879146 6.721933 32.647189 -0.090243 1.363417 0.033945 0.001346 -909195.000000 0 0 1
30.501155 -2.507346 6.588733 31.305249 -0.082021 1.358743 0.023270 0.002022 -911263.000000 0 0 1
30.087295 -1.471546 7.482133 31.038574 -0.048870 1.327339 0.021693 0.008582 -432362.000000 0 0 1
28.594235 -1.519246 7.798433 29.677499 -0.053081 1.304902 0.018971 0.007301 -1201700.000000 0 0 1
27.796535 -0.988846 6.754533 28.622524 -0.035559 1.332563 0.014800 -0.000687 750580.000000 0 0 1
26.376205 -1.064046 6.895133 27.283314 -0.040319 1.315302 0.006714 0.011617 697490.000000 0 0 1
25.771835 -2.461246 6.853033 26.780763 -0.095213 1.312024 0.018112 -0.003093 -1712040.000000 0 0 1
26.150555 -3.316046 7.887633 27.514768 -0.126133 1.280048 0.009151 -0.004098 206672.000000 0 0 1
25.476585 -4.552746 7.777033 27.023436 -0.176837 1.278880 0.017833 -0.020882 -561235.000000 0 0 1
25.738845 -5.549046 8.955033 27.811376 -0.212340 1.242964 0.016841 -0.007804 -624419.000000 0 0 1
25.130865 -5.234346 10.157433 27.606742 -0.205348 1.194011 0.019333 -0.002309 240076.000000 0 0 1
25.484415 -6.252246 11.117233 28.498050 -0.240584 1.170051 0.013243 -0.001663 149573.000000 0 0 1
24.487765 -6.331846 12.329433 28.138191 -0.253030 1.117230 0.002044 0.003738 1550240.000000 0 0 1
23.280265 -7.117646 12.031333 27.154826 -0.296712 1.111782 0.009743 -0.004308 1032880.000000 0 0 1
22.360665 -6.863746 13.073733 26.796135 -0.297826 1.061118 0.031167 -0.003215 846400.000000 0 0 1
21.203965 -7.944246 13.212733 26.216321 -0.358471 1.042585 0.031602 -0.001449 365040.000000 0 0 1
21.607865 -9.109246 13.888133 27.253595 -0.398963 1.036089 0.019578 -0.003212 -302282.000000 0 0 1
20.610965 -10.064546 13.885333 26.812487 -0.454252 1.026439 0.041910 -0.018190 -729932.000000 0 0 1
21.089065 -11.290346 14.712533 28.083433 -0.491538 1.019389 0.034439 -0.006971 -209381.000000 0 0 1
21.194665 -11.090646 16.102333 28.835766 -0.482094 0.978322 0.037848 -0.004523 365010.000000 0 0 1
21.617165 -12.252846 16.774133 29.980087 -0.515658 0.977003 0.031307 -0.002615 -648637.000000 0 0 1
21.612065 -12.073346 18.282933 30.775196 -0.509452 0.934675 0.044297 -0.002522 1461440.000000 0 0 1
20.310465 -12.063646 18.974033 30.299513 -0.535968 0.894106 0.054358 -0.005671 1358060.000000 0 0 1
20.381665 -12.238546 20.389733 31.319890 -0.540764 0.861875 0.096789 -0.006064 106363.000000 0 0 1
20.855265 -11.029346 21.240133 31.744792 -0.486462 0.837812 0.056251 -0.003953 90432.900000 0 0 1
19.954765 -9.918246 21.329633 30.846677 -0.461274 0.807271 0.064537 -0.001671 230435.000000 0 0 1
20.313265 -8.743646 20.564533 30.199008 -0.406470 0.821714 0.054958 0.007969 -294686.000000 0 0 1
21.490565 -7.958446 21.227333 31.237492 -0.354664 0.823652 0.035516 0.016230 1403080.000000 0 0 1
22.837865 -8.458846 21.177933 32.274216 -0.354720 0.855041 0.026164 0.019071 923760.000000 0 0 1
23.420765 -8.493546 19.891933 31.880426 -0.347900 0.897003 0.022002 0.009823 -494635.000000 0 0 1
24.716765 -9.320346 19.760233 32.988697 -0.360598 0.928544 -0.025569 0.018714 73711.200000 0 0 1
24.452265 -10.701146 20.070833 33.395600 -0.412523 0.926042 -0.015412 0.013469 -410376.000000 0 0 1
25.583345 -11.472046 19.944233 34.407671 -0.421538 0.952503 -0.016383 0.012038 -561582.000000 0 0 1
25.237695 -12.925546 20.433133 34.950306 -0.473322 0.946368 -0.036937 0.010923 23449.900000 0 0 1
24.317065 -13.621146 19.630533 34.091247 -0.510601 0.957186 0.007825 -0.001013 43261.900000 0 0 1
24.247265 -14.928846 20.061033 34.831672 -0.551878 0.957040 0.010089 0.001409 388830.000000 0 0 1
22.991465 -15.576446 19.390733 33.870838 -0.595457 0.961256 0.040915 -0.002986 150754.000000 0 0 1
23.282965 -15.704946 18.037433 33.377998 -0.593423 0.999885 0.016101 -0.002066 118990.000000 0 0 1
22.237465 -16.222746 17.264233 32.492093 -0.630267 1.010619 0.008126 -0.007543 -367003.000000 0 0 1
22.046565 -17.721046 17.405433 33.211980 -0.677054 1.019172 0.002633 -0.007346 410204.000000 0 0 1
23.198565 -18.421346 16.892833 34.101132 -0.671116 1.052530 0.007546 -0.001859 756680.000000 0 0 1
23.170265 -19.773546 17.274633 35.018099 -0.706466 1.054910 0.013001 -0.007624 -55730.000000 0 0 1
24.415265 -20.550846 16.792133 36.061311 -0.699668 1.086422 0.008866 -0.004438 -40951.800000 0 0 1
24.531265 -20.695146 15.397933 35.597308 -0.700780 1.123467 0.002696 -0.012388 214753.000000 0 0 1
25.412025 -21.783546 15.159433 36.743738 -0.708667 1.145521 0.001082 -0.020827 -291177.000000 0 0 1
25.734385 -21.918646 13.673733 36.464456 -0.705495 1.186413 0.000302 -0.024302 -542651.000000 0 0 1
24.659965 -22.321746 12.867133 35.664230 -0.735670 1.201686 -0.011229 -0.007908 -77551.200000 0 0 1
24.752265 -21.869546 11.565633 34.995936 -0.723645 1.233979 0.003158 -0.004546 -162759.000000 0 0 1
23.457165 -22.042346 10.746233 33.935013 -0.754313 1.248579 -0.020000 0.008707 -140798.000000 0 0 1
22.959165 -23.363546 10.773233 34.482475 -0.794128 1.253050 -0.022637 0.010460 603241.000000 0 0 1
21.612865 -23.392046 10.294633 33.470632 -0.824911 1.258156 -0.035879 0.023189 562570.000000 0 0 1
21.561465 -24.053946 8.885233 33.502783 -0.839985 1.302376 -0.031614 0.020031 -315610.000000 0 0 1
21.999865 -25.403966 8.944833 34.775934 -0.857086 1.310659 -0.031035 0.020201 64558.800000 0 0 1
21.826065 -26.218156 7.777233 34.989344 -0.876562 1.346650 -0.024320 0.019108 -1064660.000000 0 0 1
20.435465 -26.782276 7.597133 34.534258 -0.919013 1.348994 -0.020035 0.017573 -238628.000000 0 0 1
19.478865 -25.764776 7.284233 33.110571 -0.923449 1.348985 -0.019482 0.019158 -392558.000000 0 0 1
18.161765 -26.163406 7.574133 32.737456 -0.963996 1.337321 -0.009806 0.002152 193835.000000 0 0 1
17.214865 -24.920046 7.582433 31.222645 -0.966269 1.325493 -0.010123 0.000505 -309872.000000 0 0 1
17.054565 -24.296946 6.350633 30.356718 -0.958781 1.360039 0.004544 -0.004210 -86054.300000 0 0 1
16.211765 -23.186246 6.524333 29.034294 -0.960609 1.344150 0.012061 -0.004658 -231416.000000 0 0 1
15.863765 -22.622146 5.134733 28.103132 -0.959232 1.387054 0.019944 -0.006160 -695440.000000 0 0 1
15.168665 -21.424646 5.216633 26.764101 -0.954721 1.374629 0.036027 -0.005254 -203342.000000 0 0 1
14.968165 -20.885846 3.949833 25.997417 -0.948973 1.418274 0.034184 -0.001898 -297420.000000 0 0 1
14.138065 -19.623046 3.987933 24.512291 -0.946455 1.407379 0.024876 0.011516 142466.000000 0 1 0
14.842265 -18.471946 4.554633 24.129863 -0.893923 1.380902 0.018525 0.006212 556342.000000 0 1 0
14.173365 -17.283546 4.202033 22.743402 -0.883949 1.384970 0.002844 0.013623 14316.900000 0 1 0
15.119665 -16.065446 4.294333 22.475411 -0.815717 1.378546 -0.007777 0.014009 -688576.000000 0 1 0
15.464365 -15.955646 5.623233 22.920514 -0.801033 1.322930 -0.003184 0.003945 236057.000000 0 1 0
16.511365 -15.019946 5.858633 23.076991 -0.738134 1.314114 0.012293 0.002895 784280.000000 0 1 0
17.964265 -15.541346 5.678833 24.423296 -0.713210 1.336131 0.015159 -0.006225 -43311.900000 0 1 0
18.978165 -14.573146 5.716233 24.601273 -0.654853 1.336298 0.024805 -0.006406 738976.000000 0 1 0
20.277165 -15.095746 5.383533 25.846226 -0.639953 1.360969 0.033804 -0.011784 640339.000000 0 0 1
21.302865 -13.952546 5.351933 26.021698 -0.579855 1.363646 0.025581 -0.019680 -307871.000000 0 0 1
21.396565 -13.199846 6.536533 25.976435 -0.552764 1.316429 0.035774 -0.018631 270172.000000 0 0 1
22.621265 -12.486746 6.518633 26.648321 -0.504371 1.323672 0.038494 -0.013616 154415.000000 0 0 1
22.713865 -11.420546 7.698033 26.563287 -0.465886 1.276779 0.042607 -0.022105 -134798.000000 0 0 1
22.891265 -12.014746 8.950033 27.358129 -0.483339 1.237517 0.038870 -0.014591 142979.000000 0 0 1
22.785065 -11.205246 10.024233 27.298388 -0.457050 1.194789 0.048050 -0.021353 -138908.000000 0 0 1
23.208565 -11.943746 11.307433 28.445537 -0.475280 1.161993 0.023606 -0.007477 -3004.090000 0 0 1
22.486565 -13.176746 11.462233 28.472004 -0.530049 1.156464 0.030979 -0.013138 315516.000000 0 0 1
22.930765 -13.983046 12.519233 29.632360 -0.547590 1.134611 0.025141 -0.008996 -377061.000000 0 0 1
21.968465 -15.092346 12.977833 29.644839 -0.601948 1.117672 0.018256 -0.012798 23429.700000 0 0 1
20.755265 -14.627046 13.548733 28.780196 -0.613899 1.080638 0.018249 -0.011445 -33001.100000 0 0 1
19.977765 -15.725746 13.932833 28.991965 -0.666864 1.069485 0.005765 -0.012267 -230671.000000 0 0 1
18.651165 -15.264846 14.560833 28.158468 -0.685884 1.027333 0.006527 -0.014201 -741851.000000 0 0 1
18.844665 -14.683246 15.869433 28.680272 -0.661912 0.984449 0.012782 -0.009886 67061.800000 0 0 1
18.369765 -13.402746 16.113633 27.869895 -0.630323 0.954308 0.022642 -0.016951 1774280.000000 0 0 1
16.753465 -13.278046 16.025233 26.716908 -0.670185 0.927525 0.025161 -0.017066 2127300.000000 0 0 1
16.127165 -13.267146 14.719833 25.549483 -0.688405 0.956810 0.013897 -0.019409 872407.000000 0 0 1
14.714065 -13.035346 14.810633 24.612574 -0.724976 0.925105 0.032548 -0.020304 807063.000000 0 1 0
14.272265 -11.595146 14.526133 23.434024 -0.682271 0.902215 0.020910 -0.011838 -202718.000000 0 1 0
14.712765 -10.607546 15.458733 23.831868 -0.624665 0.864976 0.019646 -0.003983 192885.000000 0 1 0
14.529565 -9.279046 15.029533 22.871288 -0.568342 0.853784 0.015241 0.000289 -794122.000000 0 1 0
14.864265 -8.228646 16.048433 23.371119 -0.505592 0.813887 0.019879 0.005498 42102.000000 0 1 0
16.256365 -8.084146 16.224933 24.348948 -0.461478 0.841493 0.022869 -0.004331 309266.000000 0 1 0
16.935565 -9.010846 17.089733 25.691782 -0.488970 0.843058 0.046430 -0.001917 565371.000000 0 0 1
18.499565 -8.906946 17.019133 26.668680 -0.448712 0.878678 0.047015 -0.000235 969112.000000 0 0 1
19.105465 -7.660446 17.376733 26.937930 -0.381330 0.869687 0.047600 -0.004724 992037.000000 0 0 1
20.424965 -7.484946 16.828433 27.502723 -0.351263 0.912358 0.037155 0.003352 586728.000000 0 0 1
21.032865 -6.150846 17.226133 27.873894 -0.284506 0.904597 0.035861 0.012167 -264414.000000 0 0 1
21.388065 -6.082146 18.589833 28.983163 -0.277057 0.874473 0.038410 0.012446 -50882.000000 0 0 1
22.038665 -4.912146 18.900233 29.445725 -0.219303 0.873866 0.030827 0.014742 -451422.000000 0 0 1
-5.152230 -33.479184 -6.917344 34.572400 1.418101 1.772239 -0.033557 0.012853 -308003.000000 0 0 1
-5.871330 -32.258684 -6.748444 33.475912 1.390759 1.773778 -0.028654 0.005004 224484.000000 0 0 1
-5.453330 -31.562984 -5.565244 32.510501 1.399709 1.742827 -0.031214 0.009759 -368879.000000 0 0 1
-6.147130 -30.124984 -5.478544 31.230054 1.369506 1.747134 -0.002558 -0.000083 800338.000000 0 0 1
-7.526130 -30.006584 -5.174144 31.365737 1.325050 1.736515 0.008110 -0.001844 59131.900000 0 0 1
-8.354530 -30.516884 -6.175644 32.236888 1.303576 1.763559 -0.000497 -0.000075 -1262070.000000 0 0 1
-9.807030 -30.076884 -5.977644 32.195170 1.255601 1.757549 0.023165 0.007204 -578970.000000 0 0 1
-10.722730 -30.631384 -6.825244 33.163874 1.234071 1.778081 0.017393 -0.002521 123324.000000 0 0 1
-12.091730 -30.434484 -6.457044 33.379052 1.192617 1.765470 0.027084 -0.004103 1140170.000000 0 0 1
-13.197330 -31.051384 -7.350444 34.530957 1.168912 1.785303 0.040683 -0.008216 270673.000000 0 0 1
-13.390130 -30.386284 -8.551944 34.289321 1.155734 1.822863 0.050709 -0.016457 736333.000000 0 0 1
-14.750030 -30.468984 -9.009644 35.029930 1.119950 1.830918 0.064330 -0.011391 507503.000000 0 0 1
-14.936330 -29.749384 -10.377344 34.868453 1.105493 1.872989 0.049562 -0.012196 -354060.000000 0 0 1
-15.221430 -28.345784 -10.334944 33.793290 1.077996 1.881605 0.050712 -0.015075 -213118.000000 0 0 1
-14.209930 -27.520084 -9.831144 32.495053 1.094156 1.878156 0.036921 -0.010116 -455122.000000 0 0 1
-14.567630 -26.047484 -9.723944 31.388570 1.060862 1.885771 0.045282 -0.005938 -160305.000000 0 0 1
-14.571930 -25.195384 -10.899344 31.079643 1.046443 1.929105 0.045010 -0.020458 92658.200000 0 0 1
-15.117530 -23.956084 -10.532744 30.222051 1.007857 1.926779 0.028550 -0.002061 -385209.000000 0 0 1
-15.760930 -23.211284 -11.701444 30.398921 0.974290 1.965928 0.038777 0.000146 -543078.000000 0 0 1
-16.849330 -23.921984 -12.201944 31.702502 0.957160 1.965884 0.034629 -0.003796 -599889.000000 0 0 1
-17.334530 -23.342084 -13.402944 32.015273 0.932029 2.002746 0.048463 -0.009788 540101.000000 0 0 1
-18.773030 -23.870884 -13.787044 33.351586 0.904378 1.996965 0.030147 0.011365 783222.000000 0 0 1
-18.975830 -25.274784 -14.048044 34.586765 0.926796 1.989053 0.051321 0.008102 -230702.000000 0 0 1
-18.881630 -26.068384 -12.865544 34.664085 0.943940 1.951043 0.055250 0.000229 -894964.000000 0 0 1
-18.892230 -27.600484 -13.103944 35.922366 0.970556 1.944198 0.054577 -0.003239 463589.000000 0 0 1
-17.973730 -28.292384 -13.974444 36.315272 1.004835 1.965797 0.064303 -0.006696 574981.000000 0 0 1
-16.588830 -28.071684 -13.739944 35.383538 1.037061 1.969598 0.066219 -0.012252 192313.000000 0 0 1
-15.753930 -29.320684 -14.146344 36.166391 1.077758 1.972673 0.060600 -0.014650 -203850.000000 0 0 1
-15.711530 -29.532884 -15.551244 36.890169 1.081877 2.005956 0.073339 -0.016583 -27453.100000 0 0 1
-15.107730 -30.790584 -15.913744 37.809401 1.114648 2.005227 0.059599 -0.012139 115980.000000 0 0 1
-15.985530 -32.049684 -15.703144 39.106369 1.108130 1.984004 0.058254 -0.015327 -10083.100000 0 0 1
-16.207930 -32.288084 -14.298944 38.854564 1.105567 1.947666 0.057993 -0.017685 10656.000000 0 0 1
-16.462530 -33.638684 -14.042344 39.997042 1.115670 1.929525 0.040952 -0.014865 -940286.000000 0 0 1
-16.975930 -33.973884 -12.597544 40.013811 1.107408 1.891074 0.042521 -0.017616 57183.000000 0 0 1
-18.281930 -33.650684 -12.186144 40.188301 1.073123 1.878873 0.042754 -0.009453 -27761.300000 0 0 1
-18.799030 -32.332184 -12.183144 39.334496 1.044140 1.885707 0.042894 -0.015154 -355491.000000 0 0 1
-18.231930 -31.326684 -11.154044 37.923305 1.043722 1.869332 0.057379 -0.011188 -249569.000000 0 0 1
-18.636730 -31.651084 -9.814044 38.018867 1.038639 1.831889 0.044877 -0.017725 311756.000000 0 0 1
-18.403630 -30.493984 -8.938644 36.721601 1.027795 1.816683 0.052894 -0.008842 -431935.000000 0 0 1
-18.348230 -30.880884 -7.496744 36.694518 1.034681 1.776546 0.039530 -0.006444 -99.180700 0 0 1
-17.242930 -31.665884 -7.110444 36.750581 1.072165 1.765503 0.043989 -0.012276 -46756.400000 0 0 1
-17.296730 -31.885484 -5.725944 36.723934 1.073757 1.727354 0.058088 -0.022121 -229725.000000 0 0 1
-16.278730 -32.928784 -5.223144 37.102332 1.111670 1.712042 0.062255 -0.016678 20355.300000 0 0 1
-15.037030 -32.449984 -4.775644 36.082135 1.136862 1.703541 0.068068 -0.009960 -112138.000000 0 0 1
-15.045430 -31.960884 -3.450144 35.493190 1.130825 1.668156 0.048708 -0.007326 -874232.000000 0 0 1
-13.781730 -31.226884 -3.028944 34.267023 1.155166 1.659304 0.058414 -0.009009 -581166.000000 0 0 1
-12.663230 -32.078084 -3.010544 34.618264 1.194813 1.657870 0.011948 0.007441 -521786.000000 0 0 1
-11.511130 -31.341184 -2.608444 33.489997 1.218807 1.648763 0.013262 0.009388 39932.300000 0 0 1
-10.244530 -32.169684 -2.799644 33.877381 1.262497 1.653531 0.016577 0.010402 -579841.000000 0 0 1
-10.247430 -33.228684 -1.834244 34.821253 1.271659 1.623497 0.013381 0.015056 92262.600000 0 0 1
-9.003430 -33.900484 -1.730544 35.118362 1.311205 1.620094 -0.023072 0.020449 141563.000000 0 0 1
-7.964230 -33.329584 -0.756144 34.276258 1.336241 1.592858 -0.019151 0.015397 -376415.000000 0 0 1
-8.330930 -33.198684 0.639556 34.233989 1.324932 1.552113 0.001033 0.010276 326663.000000 0 0 1
-7.183430 -32.943684 1.458956 33.749319 1.356105 1.527554 0.014965 0.002374 727977.000000 0 0 1
-6.451330 -34.198984 2.038156 34.861787 1.384346 1.512299 0.005251 -0.006543 -12115.500000 0 0 1
-7.259630 34.382454 2.962356 35.265152 -1.362709 1.486695 0.029997 -0.010422 445901.000000 0 0 1
-6.549030 33.380554 3.718856 34.219600 -1.377064 1.461905 0.027750 -0.013684 -459685.000000 0 0 1
-5.663130 33.952054 4.794556 34.753428 -1.405520 1.432396 0.034664 -0.015597 -831550.000000 0 0 1
-4.520630 34.630054 4.400356 35.199998 -1.440990 1.445458 0.015233 -0.014576 -957591.000000 0 0 1
-3.853330 -34.222584 5.508356 34.876573 1.458672 1.412194 0.003587 -0.016858 -258111.000000 0 0 1
-2.834130 -33.093684 5.198856 33.619225 1.485365 1.415534 0.020644 -0.012961 -293028.000000 0 0 1
-3.226430 -31.844384 4.645156 32.342729 1.469822 1.426675 0.016071 -0.007396 -223539.000000 0 0 1
-3.469230 -31.872884 3.262856 32.226736 1.462377 1.469376 0.008464 -0.014075 -233229.000000 0 0 1
-4.053530 -30.497384 2.778456 30.890797 1.438657 1.480730 0.005133 -0.010799 -42616.300000 0 0 1
-3.200930 -29.414084 3.021256 29.741591 1.462400 1.469037 0.002323 0.003123 -204656.000000 0 0 1
-3.282530 -28.441584 1.973556 28.698321 1.455892 1.501973 -0.003388 0.001689 346055.000000 0 0 1
-2.632230 -27.095984 2.474456 27.335762 1.473956 1.480151 0.000614 -0.001448 8899.800000 0 0 1
-2.958030 -26.004684 1.674256 26.225877 1.457533 1.506913 0.006130 -0.003158 -260288.000000 0 0 1
-2.827830 -24.696784 2.311056 24.965351 1.456791 1.478093 0.005462 -0.003985 -274424.000000 0 1 0
-3.944330 -24.283284 3.276756 24.818798 1.409773 1.438383 -0.002945 -0.001827 -267727.000000 0 1 0
-3.959230 -25.041584 4.417956 25.734699 1.413988 1.398269 0.012778 -0.003273 -480002.000000 0 0 1
-4.920830 -24.507384 5.247956 25.541485 1.372642 1.363854 -0.001025 -0.002793 -749733.000000 0 0 1
-5.473830 -25.458284 6.291956 26.789471 1.359009 1.333715 0.001478 -0.001922 -259944.000000 0 0 1
-4.621530 -25.718984 7.400256 27.158580 1.393000 1.294823 0.000580 -0.009617 21596.300000 0 0 1
-5.340630 -26.515684 8.304756 28.294395 1.372042 1.272897 -0.001137 -0.009654 -57595.400000 0 0 1
-4.561730 -27.154584 9.482956 29.122281 1.404359 1.239123 -0.006653 -0.008109 -196556.000000 0 0 1
-4.189330 -26.102084 10.417956 28.414839 1.411656 1.195404 -0.004294 -0.009838 136869.000000 0 0 1
-5.213630 -25.598384 11.292256 28.460046 1.369874 1.162795 -0.010730 -0.004642 60517.200000 0 0 1
-4.796630 -24.538484 12.357956 27.890212 1.377757 1.111750 -0.018209 -0.000462 404945.000000 0 0 1
-3.873730 -25.129884 13.282556 28.686986 1.417852 1.089401 -0.028762 0.000709 75805.000000 0 0 1
-3.376730 -24.198884 14.199956 28.259990 1.432151 1.044337 -0.022636 -0.004960 420684.000000 0 0 1
-2.363930 -24.819084 15.244956 29.223001 1.475836 1.021981 -0.019958 -0.003757 286211.000000 0 0 1
-3.049130 -25.707184 16.057456 30.463066 1.452738 1.015597 -0.022268 -0.007253 -41848.600000 0 0 1
-2.177030 -26.565584 16.798056 31.506260 1.489030 1.008458 -0.033005 0.005669 260401.000000 0 0 1
-2.714030 -27.050784 18.202656 32.717695 1.470800 0.980803 -0.023374 0.005628 -182847.000000 0 0 1
-2.668530 -25.912784 19.082756 32.291562 1.468177 0.938558 -0.015106 -0.000091 -191029.000000 0 0 1
-2.649630 -26.190184 20.458856 33.339332 1.469971 0.910115 -0.010143 -0.001699 132781.000000 0 0 1
-2.706030 -24.909584 21.335556 32.909207 1.462587 0.865426 0.005115 -0.012846 46785.200000 0 0 1
-2.620930 -25.340784 22.688756 34.114575 1.467735 0.843202 0.002302 -0.016299 -99095.000000 0 0 1
-2.707730 -24.393384 23.783356 34.176264 1.460246 0.801120 0.008782 -0.016161 1000350.000000 0 0 1
-1.597530 -23.224484 23.795956 33.289282 1.502118 0.774425 0.005680 -0.014741 895729.000000 0 0 1
-1.863330 -22.290184 22.812256 31.948761 1.487396 0.775564 0.019214 -0.009457 -30872.600000 0 0 1
-0.812930 -21.368384 22.686956 31.176380 1.532771 0.755838 0.013851 -0.006524 -317492.000000 0 0 1
-1.359730 -20.267784 21.715456 29.735382 1.503808 0.752050 0.008661 0.003042 195449.000000 0 0 1
-2.196030 -19.240984 22.268156 29.511164 1.457155 0.715802 0.011461 -0.009613 -324368.000000 0 0 1
-3.513430 -19.552584 22.574856 30.071113 1.393002 0.721652 0.027718 -0.013388 -982646.000000 0 0 1
-4.482230 -19.473384 21.368056 29.255716 1.344564 0.751905 0.034441 -0.009906 -684515.000000 0 0 1
-4.351830 -20.480684 20.347956 29.196509 1.361426 0.799687 0.027866 -0.007649 -297353.000000 0 0 1
-4.967830 -21.677584 20.642556 30.343238 1.345517 0.822622 0.032606 -0.010696 -304459.000000 0 0 1
-5.193330 -22.569184 19.429056 30.229571 1.344626 0.872757 0.017963 -0.004320 223671.000000 0 0 1
-5.742130 -23.884784 19.598456 31.425379 1.334864 0.897392 0.024128 -0.011167 -104960.000000 0 0 1
-5.672430 -24.503384 18.347556 31.132380 1.343308 0.940555 0.025610 -0.009399 86023.300000 0 0 1
-6.236530 -25.942284 18.323056 32.367125 1.334873 0.969028 -0.007296 -0.011971 -728464.000000 0 0 1
-7.614130 -25.961784 18.449656 32.747198 1.285514 0.972305 0.012890 -0.012749 -1309310.000000 0 0 1
-8.184430 -27.111484 17.863356 33.483084 1.277615 1.008058 0.012216 -0.016207 -659690.000000 0 0 1
-9.686730 -27.140984 18.057156 34.007744 1.227984 1.011049 0.028088 -0.018800 -1297380.000000 0 0 1
-10.338030 -26.376184 17.084356 33.082520 1.197253 1.028135 0.036336 -0.018287 212579.000000 0 0 1
-11.758330 -26.401584 17.193856 33.629312 1.151804 1.034128 0.035155 -0.015012 599937.000000 0 0 1
-12.385230 -25.412184 18.185756 33.613907 1.117301 0.999148 0.031080 -0.009618 -671507.000000 0 0 1
-12.593330 -24.060084 17.750356 32.443100 1.088595 0.991873 0.023960 -0.007838 -139993.000000 0 0 1
-12.856730 -23.162184 18.822656 32.497302 1.064066 0.953041 0.010964 0.002663 -477172.000000 0 0 1
-11.641330 -22.683584 19.609556 32.165202 1.096641 0.915176 0.000289 -0.002435 -416480.000000 0 0 1
-11.145330 -23.655284 20.501656 33.228132 1.130489 0.905875 0.005291 -0.006763 279254.000000 0 0 1
-9.754330 -23.364184 20.628556 32.658374 1.175303 0.887121 0.036090 -0.017917 827757.000000 0 0 1
-8.848630 -24.468784 21.266156 33.604598 1.223799 0.885588 0.029893 -0.021319 432650.000000 0 0 1
-8.787230 -24.295384 22.666956 34.369638 1.223752 0.850636 0.034284 -0.023340 -66061.200000 0 0 1
-7.631130 -24.934784 23.138856 34.862362 1.273804 0.845015 0.032148 -0.014736 -39403.500000 0 0 1
-7.422230 -24.564084 24.617856 35.560126 1.277361 0.806141 0.040561 -0.018166 -367374.000000 0 0 1
-6.213730 -25.032584 25.117656 36.001908 1.327488 0.798648 0.032432 -0.018544 -366091.000000 0 0 1
-6.253230 -24.842184 26.548456 36.892513 1.324201 0.767547 0.033779 -0.013717 402876.000000 0 0 1
-5.050730 -25.536784 27.280656 37.707710 1.375534 0.761971 0.023542 -0.011525 363758.000000 0 0 1
-3.824930 -24.902484 27.046856 36.963444 1.418391 0.749956 0.028521 -0.015479 -281446.000000 0 0 1
-2.891930 -24.849384 28.096356 37.619946 1.454939 0.727488 0.015710 -0.012012 925566.000000 0 0 1
-1.575330 -24.094884 27.638456 36.700536 1.505509 0.718065 0.008385 -0.011615 -124109.000000 0 0 1
-1.632330 -22.680484 27.617756 35.774423 1.498950 0.688819 0.016978 -0.017232 895715.000000 0 0 1
-0.364530 -22.089784 27.235056 35.069071 1.554296 0.681527 0.020229 -0.017586 670788.000000 0 0 1
0.596270 -21.960184 28.396956 35.902540 -1.543651 0.658443 0.015633 -0.017877 -897480.000000 0 0 1
1.045970 -23.197284 28.902356 37.074981 -1.525737 0.676825 0.014872 -0.008868 -398899.000000 0 0 1
2.028470 -23.012684 29.859556 37.753032 -1.482878 0.658488 0.011907 -0.007168 -254741.000000 0 0 1
2.798370 -24.275384 30.355556 38.969025 -1.456027 0.677781 0.021221 -0.014145 -250128.000000 0 0 1
3.625170 -24.854884 29.368956 38.645086 -1.425964 0.707535 0.022475 -0.019630 367542.000000 0 0 1
4.387370 -25.980984 29.792856 39.772790 -1.403506 0.724130 -0.000827 -0.005747 -297263.000000 0 0 1
5.747270 -25.634084 30.447256 40.214087 -1.350239 0.711889 0.001379 -0.005299 601109.000000 0 0 1
6.810070 -25.005184 29.690656 39.410295 -1.304899 0.717620 -0.009378 -0.001849 1005580.000000 0 0 1
7.286470 -25.801684 28.610156 39.209190 -1.295561 0.752943 -0.001870 -0.000515 -283121.000000 0 0 1
8.513770 -25.208884 27.848156 38.516125 -1.245095 0.762624 -0.005510 -0.001525 171787.000000 0 0 1
8.121370 -24.226884 26.981156 37.160212 -1.247347 0.758198 0.008325 0.001383 998777.000000 0 0 1
9.174170 -23.863584 26.034656 36.488894 -1.203773 0.776322 -0.013258 -0.000991 823304.000000 0 0 1
8.754070 -22.608284 25.233256 34.992649 -1.201367 0.765405 0.001044 0.003821 -58108.900000 0 0 1
7.726270 -22.962684 24.344456 34.345781 -1.246225 0.782994 0.005506 0.004170 -271716.000000 0 0 1
7.165570 -21.850384 23.723756 33.039390 -1.253909 0.769808 0.001250 0.015415 -366741.000000 0 0 1
6.515170 -22.220484 22.368156 32.195213 -1.285585 0.802701 0.023988 0.009352 -74499.400000 0 0 1
7.383170 -22.861684 21.416056 32.184084 -1.258420 0.842735 0.016211 0.019577 222948.000000 0 0 1
6.720470 -23.252184 20.220956 31.539116 -1.289438 0.874815 0.019693 0.006346 78451.500000 0 0 1
7.546970 -24.205184 19.305856 31.867911 -1.268557 0.920014 0.021167 -0.005692 132119.000000 0 0 1
8.656070 -23.637084 18.654156 31.330765 -1.219757 0.933040 0.027627 -0.013510 -720640.000000 0 0 1
9.312370 -24.572484 17.869856 31.778278 -1.208545 0.973596 0.041275 -0.022182 117323.000000 0 0 1
10.744870 -24.083084 17.528756 31.665509 -1.151142 0.984164 0.033554 -0.021143 203078.000000 0 0 1
10.616070 -23.043484 16.616356 30.328310 -1.139082 0.990965 0.037428 -0.014879 323473.000000 0 0 1
11.865670 -22.715784 16.007256 30.216440 -1.089426 1.012487 0.039882 -0.023995 318871.000000 0 0 1
-11.803130 22.223354 11.920956 27.844219 -1.082569 1.128373 0.013313 -0.004354 -453326.000000 0 0 1
-12.862530 21.590754 11.248056 27.534053 -1.033513 1.149970 0.007687 -0.006569 -17831.300000 0 0 1
-12.501030 20.381854 10.624756 26.164502 -1.020625 1.152641 0.023525 -0.012026 -117292.000000 0 0 1
-13.574930 19.980454 9.609256 25.996828 -0.974023 1.192184 0.023078 -0.010956 -800672.000000 0 0 1
-13.621230 20.901954 8.529656 26.366354 -0.993246 1.241365 0.021333 -0.014084 57221.400000 0 0 1
-14.298030 20.284454 7.404556 25.898266 -0.956805 1.280841 0.023624 -0.013491 554637.000000 0 0 1
-15.844830 20.135854 7.479256 26.691769 -0.904097 1.286785 0.009858 -0.013467 -18001.200000 0 0 1
-16.380830 19.315754 8.526656 26.723282 -0.867432 1.246046 0.005732 -0.014748 -487241.000000 0 0 1
-17.753230 19.547154 8.671256 27.793148 -0.833455 1.253507 0.021236 -0.011779 -626993.000000 0 0 1
-18.422430 18.485154 9.519056 27.779476 -0.787098 1.221044 0.004760 -0.006116 -293497.000000 0 0 1
-18.604530 17.182654 8.973756 26.868205 -0.745688 1.230261 -0.000544 -0.003590 -13545.000000 0 0 1
-19.114930 16.230354 9.868856 26.948084 -0.703967 1.195856 0.005081 -0.005132 -681547.000000 0 0 1
-18.135430 15.508654 10.878656 26.225128 -0.707481 1.143053 0.012452 0.001673 190707.000000 0 0 1
-17.273630 14.560354 10.260156 24.812356 -0.700372 1.144491 -0.005439 0.017651 30776.400000 0 1 0
-16.635130 13.717354 11.212056 24.302336 -0.689563 1.091272 -0.001962 0.019400 47179.400000 0 1 0
-17.432230 12.572854 11.914556 24.574701 -0.624840 1.064627 0.001261 0.017543 -112020.000000 0 1 0
-17.836730 11.501054 11.090356 23.946172 -0.572708 1.089265 -0.017594 0.014340 -59686.400000 0 1 0
-18.570930 10.533154 11.804556 24.396195 -0.515941 1.065726 -0.005416 0.014689 46868.000000 0 1 0
-19.582430 9.733754 10.898856 24.433636 -0.461297 1.108439 -0.002080 0.015973 43577.000000 0 1 0
-19.065930 8.755554 9.978156 23.232155 -0.430499 1.126860 -0.005699 0.012562 350036.000000 0 1 0
-18.471930 9.283554 8.806756 22.471215 -0.465707 1.168087 -0.001967 0.011365 -504996.000000 0 1 0
-19.465230 9.701854 7.694956 23.070186 -0.462383 1.230734 0.000411 0.004510 -128922.000000 0 1 0
-20.150630 8.600554 7.131556 23.040757 -0.403405 1.256109 -0.007367 0.002070 757891.000000 0 1 0
-21.033230 9.016754 6.064156 23.674302 -0.404993 1.311760 0.006281 0.004144 430439.000000 0 1 0
-21.427430 7.796954 5.189656 23.385033 -0.348984 1.347011 0.029384 0.002548 178866.000000 0 1 0
-22.291030 6.856154 5.834356 24.040311 -0.298391 1.325658 0.033843 0.000990 686902.000000 0 1 0
-22.023330 5.566154 5.346056 23.336440 -0.247555 1.339658 0.039391 0.006728 261485.000000 0 1 0
-22.951330 4.545354 6.100056 24.179216 -0.195513 1.315755 0.046582 0.006510 343020.000000 0 1 0
-24.261030 4.416554 5.606556 25.289069 -0.180071 1.347240 0.046462 0.003931 230718.000000 0 0 1
-24.527730 3.045454 5.147856 25.246480 -0.123531 1.365452 0.019825 -0.005984 181996.000000 0 0 1
-25.682920 2.949254 4.098056 26.174502 -0.114332 1.413583 0.027043 -0.010166 148926.000000 0 0 1
-25.320210 3.248054 2.758656 25.676313 -0.127582 1.463149 0.035913 -0.006409 158058.000000 0 0 1
-26.347840 2.947954 1.844356 26.576319 -0.111423 1.501342 0.037092 -0.005419 -227940.000000 0 0 1
-25.932830 3.151354 0.376456 26.126316 -0.120927 1.556387 0.057337 -0.008628 -88873.400000 0 0 1
-25.570110 4.522454 0.040656 25.966994 -0.175055 1.569231 0.065012 -0.013776 336129.000000 0 0 1
-25.645910 4.770954 -1.340844 26.120347 -0.183929 1.622152 0.093607 -0.007799 -679923.000000 0 0 1
-26.976460 5.251154 -1.891944 27.547839 -0.192253 1.639529 0.084242 -0.016587 -231285.000000 0 0 1
-28.024030 4.277854 -1.910144 28.412936 -0.151480 1.638075 0.054383 -0.015138 406923.000000 0 0 1
-29.230180 4.910554 -2.256344 29.725545 -0.166442 1.646775 0.026900 0.002644 -58809.500000 0 0 1
-30.465840 4.001854 -2.458144 30.825715 -0.130608 1.650624 0.017735 0.005292 -102712.000000 0 0 1
-30.439070 3.287254 -3.666844 30.834863 -0.107578 1.689997 0.007784 0.008316 584839.000000 0 0 1
-31.463670 2.289754 -3.709144 31.764182 -0.072646 1.687835 0.024060 0.000984 176043.000000 0 0 1
-31.563680 1.595054 -5.077244 32.009194 -0.050492 1.730087 0.026192 -0.002363 -641406.000000 0 0 1
-30.304360 1.049854 -5.336944 30.788624 -0.034630 1.745018 0.038029 -0.003081 -107039.000000 0 0 1
-30.172950 0.313154 -6.532444 30.873577 -0.010378 1.783995 0.047061 -0.000611 -195383.000000 0 0 1
-30.317680 0.972354 -7.911244 31.347966 -0.032061 1.825924 0.035467 0.000320 -585921.000000 0 0 1
-31.662540 1.282654 -8.144044 32.718299 -0.040488 1.822355 0.021179 -0.003402 -102095.000000 0 0 1
-31.907130 2.168754 -9.244844 33.290172 -0.067866 1.852201 0.032897 -0.003472 520613.000000 0 0 1
-33.439150 2.506954 -9.314044 34.802485 -0.074831 1.841724 0.030314 -0.004414 502223.000000 0 0 1
-33.825100 3.240754 -8.132344 34.939589 -0.095518 1.805705 0.009412 0.005092 578404.000000 0 0 1
34.839984 3.359254 -8.058144 35.917165 0.096122 1.797076 0.004346 0.012790 355087.000000 0 0 1
34.342989 4.022454 -6.741544 35.228815 0.116595 1.763348 0.013350 0.005485 283303.000000 0 0 1
32.922095 4.024054 -6.656544 33.828493 0.121626 1.768862 0.021309 -0.007544 612652.000000 0 0 1
32.535795 4.574354 -5.410544 33.298298 0.139679 1.734007 0.016198 -0.007093 895857.000000 0 0 1
31.187135 3.956254 -4.869044 31.811899 0.126181 1.724458 0.021876 -0.008137 741320.000000 0 0 1
31.379465 2.643254 -4.365344 31.791726 0.084037 1.708542 0.029444 -0.016041 237678.000000 0 0 1
30.138405 1.999654 -4.131744 30.485954 0.066252 1.706744 0.038177 -0.014511 -181071.000000 0 0 1
30.221925 0.734954 -3.337244 30.414505 0.024314 1.680743 0.045146 -0.012721 -514212.000000 0 0 1
30.975815 -0.267346 -3.949044 31.227672 -0.008631 1.697596 0.038617 -0.011984 44731.100000 0 0 1
30.817065 -1.485046 -3.372644 31.036617 -0.048152 1.679678 0.038486 -0.009321 256964.000000 0 0 1
31.998995 -2.431246 -3.771444 32.312078 -0.075833 1.687782 0.037085 -0.009839 464951.000000 0 0 1
31.854285 -3.752646 -3.359044 32.249977 -0.117266 1.675142 0.029351 -0.014988 3501.130000 0 0 1
33.082305 -4.428246 -3.575044 33.568277 -0.133064 1.677499 0.042429 -0.019017 188194.000000 0 0 1
33.244125 -5.850646 -2.898544 33.879248 -0.174206 1.656456 0.033903 -0.016770 -258872.000000 0 0 1
33.195965 -5.816046 -1.477644 33.733987 -0.173443 1.614613 0.033049 -0.016259 -111233.000000 0 0 1
33.291335 -7.108446 -0.975644 34.055761 -0.210363 1.599449 0.048698 -0.019857 -268304.000000 0 0 1
32.840505 -7.218946 0.465156 33.627791 -0.216377 1.556963 0.038839 -0.016051 -132257.000000 0 0 1
31.421135 -7.169146 0.520256 32.232825 -0.224323 1.554655 0.030564 -0.018207 304119.000000 0 0 1
30.933325 -7.362946 1.867156 31.852313 -0.233678 1.512144 0.022473 -0.018121 -387111.000000 0 0 1
30.806485 -8.875146 2.191756 32.134273 -0.280498 1.502537 0.034899 -0.023905 -81406.800000 0 0 1
29.729045 -9.646246 1.673356 31.299621 -0.313754 1.517308 0.035731 -0.032204 112536.000000 0 0 1
28.459455 -9.373146 2.180756 30.042505 -0.318162 1.498143 0.022565 -0.034580 -1144260.000000 0 0 1
27.357045 -10.419346 1.946056 29.338674 -0.363903 1.504417 0.026545 -0.030629 139088.000000 0 0 1
26.079645 -10.168146 2.531056 28.105966 -0.371759 1.480620 0.029247 -0.031383 1388560.000000 0 0 1
25.257225 -9.129846 1.917956 26.925082 -0.346860 1.499503 0.032169 -0.024197 -52072.900000 0 0 1
24.608165 -9.365746 0.522056 26.335366 -0.363667 1.550972 0.024765 -0.012564 -409872.000000 0 0 1
25.516045 -9.269846 -0.609644 27.154562 -0.348469 1.593249 0.024377 -0.019836 631400.000000 0 0 1
25.093045 -9.783646 -1.850844 26.996412 -0.371765 1.639409 0.021960 -0.003599 -364579.000000 0 0 1
24.520765 -11.202246 -2.082444 27.038765 -0.428534 1.647890 0.018093 0.005312 716508.000000 0 0 1
23.218265 -11.424846 -1.512544 25.921086 -0.457278 1.629181 0.015403 0.014428 780227.000000 0 0 1
22.918165 -12.827646 -1.489344 26.306063 -0.510272 1.627443 0.010978 0.018572 -374710.000000 0 0 1
21.402465 -13.009046 -1.361544 25.082954 -0.546156 1.625105 0.011048 0.019938 -616619.000000 0 0 1
20.600265 -12.562046 -2.384544 24.245865 -0.547594 1.669304 0.013085 0.021910 694156.000000 0 1 0
19.204265 -12.627446 -2.057444 23.075729 -0.581653 1.660075 0.013338 0.017474 740169.000000 0 1 0
18.230265 -12.199946 -3.164844 22.162975 -0.589764 1.714085 0.015743 0.019794 -124795.000000 0 1 0
18.251465 -13.086746 -4.299044 22.866147 -0.622061 1.759931 0.010788 0.014159 223064.000000 0 1 0
17.619965 -12.470246 -5.377944 22.246179 -0.615898 1.814962 0.022748 0.010949 -330078.000000 0 1 0
17.648465 -13.300246 -6.699344 23.092121 -0.645814 1.865142 0.013886 0.011367 -114695.000000 0 1 0
16.764465 -14.426546 -6.808444 23.141465 -0.710583 1.869425 0.015420 0.007163 612963.000000 0 1 0
16.871665 -14.900146 -8.118644 23.928640 -0.723425 1.916954 0.023932 0.002548 624440.000000 0 1 0
15.773165 -16.020246 -8.433144 24.011641 -0.793169 1.929660 0.022739 -0.004353 -86350.700000 0 1 0
14.474065 -15.497646 -8.355944 22.792485 -0.819536 1.946159 0.026537 -0.000895 117605.000000 0 1 0
13.537665 -16.320546 -9.088344 23.070036 -0.878333 1.975717 0.025134 -0.003403 164168.000000 0 1 0
13.693365 -16.332546 -10.685144 23.841824 -0.873070 2.035511 0.032210 -0.005799 -1004240.000000 0 1 0
13.185065 -15.208046 -11.417444 23.140627 -0.856527 2.086784 0.034801 -0.001071 203199.000000 0 1 0
13.789465 -13.943046 -11.209644 22.587917 -0.790936 2.090090 0.042734 0.007321 -242292.000000 0 1 0
13.528065 -12.869546 -12.295944 22.356744 -0.760457 2.153146 0.046189 0.000040 -435704.000000 0 1 0
14.331365 -13.073246 -13.407844 23.581095 -0.739521 2.175580 0.036873 0.004237 -170405.000000 0 1 0
14.004665 -12.215946 -14.479444 23.558741 -0.717286 2.232688 0.040378 0.004208 -310820.000000 0 1 0
15.262265 -11.938446 -15.341744 24.715022 -0.663805 2.240490 0.036660 -0.002949 200367.000000 0 1 0
15.844565 -13.170246 -15.705644 25.907004 -0.693487 2.222110 0.033680 -0.003695 -227707.000000 0 0 1
16.934065 -12.996146 -16.597844 27.039800 -0.654580 2.231700 0.034038 -0.006579 -366924.000000 0 0 1
17.878365 -14.180546 -16.505744 28.163157 -0.670561 2.197003 0.038723 -0.011012 -478784.000000 0 0 1
18.788165 -14.120546 -15.412644 28.105774 -0.644503 2.151222 0.036072 -0.014448 36752.500000 0 0 1
19.698965 -15.219646 -15.416044 29.280390 -0.657816 2.125272 0.042453 -0.012084 149817.000000 0 0 1
20.835565 -14.857246 -14.422544 29.374620 -0.619445 2.084018 0.025044 -0.013957 -170459.000000 0 0 1
21.646065 -13.739446 -14.703744 29.555449 -0.565567 2.091507 0.029834 -0.012300 257683.000000 0 0 1
22.708565 -13.603946 -13.764244 29.836231 -0.539733 2.050286 0.011702 -0.011848 308676.000000 0 0 1
23.175765 -12.116346 -13.746044 29.544469 -0.481723 2.054732 0.018127 -0.012501 106821.000000 0 0 1
22.254265 -11.185846 -13.140744 28.161225 -0.465756 2.056268 0.014439 -0.004440 729697.000000 0 0 1
22.742265 -9.850946 -13.270444 28.113278 -0.408758 2.062394 0.018103 -0.007826 -184180.000000 0 0 1
23.803765 -9.366046 -12.285944 28.377569 -0.374864 2.018554 0.013699 -0.008586 -463613.000000 0 0 1
25.038785 -10.016346 -12.426144 29.693046 -0.380535 2.002575 0.004578 -0.000238 -417253.000000 0 0 1
25.826135 -9.693546 -11.328844 29.821079 -0.359068 1.960478 -0.007749 0.001776 230054.000000 0 0 1
27.204505 -10.463446 -11.296744 31.259962 -0.367179 1.940544 -0.014094 0.008289 375578.000000 0 0 1
28.065505 -10.121346 -12.324044 32.279967 -0.346116 1.962524 -0.026609 0.010278 -250581.000000 0 0 1
29.111955 -11.077846 -12.425844 33.535447 -0.363606 1.950374 -0.027570 0.014272 -36636.200000 0 0 1
29.871435 -10.785246 -13.756944 34.610369 -0.346490 1.979566 -0.031780 0.018283 -473900.000000 0 0 1
29.244155 -11.150046 -14.970444 34.693779 -0.364260 2.016954 -0.040001 0.004320 -217824.000000 0 0 1
30.117545 -10.948446 -16.029044 35.831065 -0.348672 2.034597 -0.040340 0.004120 -518329.000000 0 0 1
29.692865 -11.647246 -17.399044 36.332510 -0.373814 2.070179 -0.054233 0.018786 170806.000000 0 0 1
28.561655 -11.099546 -18.083444 35.580598 -0.370655 2.103935 -0.036099 0.004628 262047.000000 0 0 1
28.724765 -9.805546 -18.660844 35.629874 -0.328959 2.122033 -0.038287 0.014946 40044.600000 0 0 1
27.414405 -9.167846 -19.212444 34.709033 -0.322726 2.157392 -0.064960 0.006190 263587.000000 0 0 1
26.827875 -9.913646 -20.281344 35.062061 -0.353965 2.187613 -0.043422 0.013156 -276482.000000 0 0 1
25.592025 -9.364146 -20.613644 34.169596 -0.350770 2.218397 0.001325 0.016408 -412391.000000 0 0 1
25.069315 -9.773746 -22.002944 34.758110 -0.371742 2.256258 0.012502 0.005057 -101785.000000 0 0 1
24.624465 -11.118946 -22.059144 34.879809 -0.424134 2.255487 0.010801 0.005056 240314.000000 0 0 1
23.960765 -11.269046 -23.320344 35.283822 -0.439617 2.292862 0.019589 -0.002299 -447182.000000 0 0 1
23.969265 -12.722246 -23.861744 36.135357 -0.487962 2.292072 0.015358 0.004934 555859.000000 0 0 1
25.110485 -13.203346 -24.573944 37.533232 -0.484082 2.284615 0.003836 0.012843 323739.000000 0 0 1
26.270025 -13.376046 -23.774244 37.871460 -0.470961 2.249470 -0.014751 0.016619 -758204.000000 0 0 1
27.429105 -14.025346 -24.459444 39.336122 -0.472671 2.241843 -0.040327 0.022631 -679467.000000 0 0 1
27.902275 -13.363846 -25.630144 40.175037 -0.446668 2.262645 -0.043485 0.015757 395518.000000 0 0 1
29.238635 -13.813946 -25.840344 41.393795 -0.441370 2.244976 -0.064088 0.016081 528384.000000 0 0 1
29.938415 -13.271146 -27.123124 42.521710 -0.417253 2.262520 -0.050441 0.022982 -59570.300000 0 0 1
29.540605 -13.976646 -28.262994 43.206374 -0.441924 2.283841 -0.044438 0.011059 330257.000000 0 0 1
30.176155 -13.493846 -29.455614 44.275471 -0.420497 2.298666 -0.043966 0.009042 37821.800000 0 0 1
30.079895 -14.384846 -30.701094 45.324177 -0.446073 2.314974 -0.034941 -0.000248 29747.300000 0 0 1
30.768285 -15.609446 -30.482254 46.038136 -0.469489 2.294426 -0.043715 -0.001866 128845.000000 0 0 1
30.976245 -16.462746 -31.633784 47.236067 -0.488501 2.304595 -0.040918 -0.003601 442529.000000 0 0 1
29.683405 -16.988046 -32.366084 47.087807 -0.519809 2.328639 -0.047342 0.001074 586602.000000 0 0 1
29.153315 -16.042846 -33.292394 47.070927 -0.503068 2.356442 -0.043995 -0.005330 -453244.000000 0 0 1
28.208135 -16.714446 -34.046944 47.268022 -0.534916 2.375025 -0.029352 -0.005268 -578607.000000 0 0 1
27.590775 -15.856746 33.957958 46.538481 -0.521618 0.752950 -0.002757 -0.005734 187721.000000 0 0 1
26.858925 -14.647046 34.298142 45.959769 -0.499253 0.728364 0.010547 -0.006958 305587.000000 0 0 1
27.654545 -13.557046 -34.483418 46.234981 -0.455800 2.412576 -0.000501 -0.007408 -997171.000000 0 0 1
26.891205 -12.387046 -33.950124 45.046495 -0.431663 2.424422 0.006838 -0.005849 -536295.000000 0 0 1
25.995335 -11.868546 34.275576 44.625496 -0.428300 0.694972 0.035334 -0.015685 -309113.000000 0 0 1
25.526015 -10.630046 -34.394627 44.131232 -0.394598 2.464458 0.027043 -0.009558 5824.550000 0 0 1
20.564070 -30.330784 9.315856 37.810351 -0.974993 1.321849 0.017452 -0.005801 199219.000000 0 0 1
20.969170 -29.729384 8.092556 37.269717 -0.956499 1.351918 0.021935 -0.009709 194121.000000 0 0 1
21.898070 -30.573684 7.426556 38.333137 -0.949255 1.375826 0.013108 -0.011078 -37267.000000 0 0 1
22.210770 -30.151584 5.987956 37.924820 -0.935903 1.412243 0.004566 -0.007430 -293278.000000 0 0 1
22.904470 -28.968484 5.930556 37.402664 -0.901771 1.411565 -0.002441 0.017030 67047.900000 0 0 1
23.657170 -28.775284 4.725956 37.550144 -0.882703 1.444604 -0.017449 0.025571 318754.000000 0 0 1
23.728370 -27.286084 4.251556 36.409362 -0.855025 1.453758 -0.034546 0.025453 -160049.000000 0 0 1
24.264270 -26.390784 5.154456 36.218734 -0.827354 1.427997 -0.032205 0.022068 -77833.300000 0 0 1
24.066370 -25.064984 4.802256 35.078558 -0.805721 1.433465 -0.036668 0.034120 -161696.000000 0 0 1
24.603270 -24.080084 5.854956 34.920651 -0.774652 1.402336 -0.039846 0.026464 -546566.000000 0 0 1
25.978770 -23.876084 5.812956 35.759675 -0.743247 1.407516 -0.038728 0.027758 -570702.000000 0 0 1
26.512170 -22.962584 6.803256 35.727576 -0.713775 1.379206 -0.008072 0.018064 255693.000000 0 0 1
26.299570 -21.464284 6.688456 34.599398 -0.684509 1.376260 -0.020176 0.026329 -92141.300000 0 0 1
26.766470 -20.821884 5.534556 34.360240 -0.661125 1.409017 -0.019109 0.038060 -42322.000000 0 0 1
26.452670 -19.458684 5.761056 33.340275 -0.634224 1.397129 -0.010042 0.027905 -241485.000000 0 0 1
26.511870 -18.597484 4.445456 32.688037 -0.611717 1.434377 -0.012501 0.038162 215706.000000 0 0 1
27.797270 -18.306084 3.900856 33.511455 -0.582367 1.454128 -0.004135 0.019903 331024.000000 0 0 1
27.648070 -17.634384 2.659056 32.900727 -0.567762 1.489887 -0.012863 0.024336 549432.000000 0 0 1
28.672970 -16.459784 2.367256 33.146155 -0.521122 1.499317 0.004702 0.000857 600486.000000 0 0 1
28.380970 -15.303884 3.140656 32.396791 -0.494537 1.473700 0.005329 -0.006388 -12662.600000 0 0 1
29.541170 -14.556384 3.431556 33.111095 -0.457830 1.466972 0.022583 -0.007363 78815.100000 0 0 1
29.200070 -13.408684 4.354756 32.425311 -0.430479 1.436088 0.024377 -0.015350 57778.500000 0 0 1
28.921370 -13.834684 5.697856 32.562397 -0.446182 1.394908 0.015655 -0.006195 -34656.700000 0 0 1
28.951470 -12.726184 6.581556 32.302636 -0.414146 1.365613 0.009650 -0.013655 -134603.000000 0 0 1
28.324870 -12.962484 8.001356 32.161249 -0.429186 1.319367 0.010892 0.001627 409496.000000 0 0 1
26.906670 -13.116284 7.922856 30.964132 -0.453576 1.312047 0.007589 0.007410 364374.000000 0 0 1
26.180170 -13.250284 9.133256 30.730892 -0.468531 1.269036 0.007081 0.011949 149037.000000 0 0 1
26.458970 -14.512784 10.005156 31.793099 -0.501692 1.250660 0.009000 0.011858 234110.000000 0 0 1
27.615170 -14.316284 10.836056 32.938939 -0.478276 1.235579 0.007942 0.016913 489218.000000 0 0 1
27.984970 -15.640584 11.260156 33.979075 -0.509645 1.233025 0.006096 0.012322 180964.000000 0 0 1
28.801170 -15.696384 12.593856 35.135297 -0.498990 1.204201 0.011008 0.013344 -241340.000000 0 0 1
30.089170 -15.151784 12.570856 35.957769 -0.466494 1.213652 0.019707 0.009673 -507017.000000 0 0 1
30.631170 -15.440384 13.837456 36.988501 -0.466902 1.187369 0.033448 0.006057 -585249.000000 0 0 1
32.153270 -15.486284 13.860056 38.285231 -0.448852 1.200361 0.027126 -0.002010 -451546.000000 0 0 1
32.757070 -14.206784 13.940756 38.330185 -0.409218 1.198558 0.014755 0.000449 -546870.000000 0 0 1
34.109770 -14.258484 14.246956 39.620153 -0.395942 1.202969 0.009247 -0.006185 -485720.000000 0 0 1
34.824870 -12.898884 14.480256 39.860138 -0.354725 1.199014 0.000132 -0.003147 -281023.000000 0 0 1
-34.485424 -12.400984 13.413256 39.024919 0.345202 1.219932 0.009471 -0.004850 98630.900000 0 0 1
-33.725324 -11.254184 13.751456 38.120293 0.322082 1.201737 0.007877 0.001635 -192109.000000 0 0 1
-32.571524 -10.969784 12.775456 36.666778 0.324859 1.214911 -0.000246 -0.005321 421397.000000 0 0 1
-31.427224 -11.823084 12.850956 35.952786 0.359827 1.205271 -0.010192 0.005750 445200.000000 0 0 1
-31.601524 -13.101884 12.172856 36.311074 0.393026 1.228938 -0.013592 0.003280 14071.000000 0 0 1
-30.382724 -14.043384 12.396856 35.693257 0.432966 1.216088 -0.016160 0.001910 632334.000000 0 0 1
-29.153624 -13.604484 11.838156 34.280574 0.436612 1.218205 -0.011209 -0.000415 -72401.600000 0 0 1
-28.222324 -14.660284 11.959656 33.977300 0.479092 1.211100 -0.010193 -0.003602 -58578.700000 0 0 1
-26.919124 -14.420084 11.172756 32.517819 0.491784 1.220061 -0.002948 -0.010238 -92034.300000 0 0 1
-27.014224 -14.506684 9.768156 32.181191 0.492809 1.262395 -0.012537 -0.000760 -786483.000000 0 0 1
-25.750724 -14.405484 9.221556 30.913668 0.510047 1.267885 -0.011651 0.001998 -741513.000000 0 0 1
-25.663224 -14.502484 7.627356 30.448312 0.514368 1.317598 -0.004237 0.007377 -482371.000000 0 0 1
-25.841724 -15.803684 7.015056 31.092799 0.548874 1.343220 0.005248 0.005082 84087.600000 0 0 1
-25.343524 -15.786684 5.701156 30.397644 0.557094 1.382126 0.003690 0.005092 -540967.000000 0 0 1
-25.853724 -16.992484 4.895156 31.322869 0.581458 1.413872 0.002387 0.003601 182466.000000 0 0 1
-27.262324 -17.015384 4.703256 32.478889 0.557977 1.425476 -0.008832 -0.008871 212555.000000 0 0 1
-27.594624 -18.094584 3.918856 33.230027 0.580392 1.452590 -0.008946 -0.006203 -713826.000000 0 0 1
-29.063924 -18.491784 3.969456 34.675847 0.566645 1.456072 0.007782 -0.006682 -769800.000000 0 0 1
-29.884024 -17.579284 3.272456 34.825208 0.531735 1.476689 0.014551 -0.010610 -1226470.000000 0 0 1
-31.174124 -17.795584 3.720556 36.088106 0.518706 1.467516 0.031437 -0.008662 -1134160.000000 0 0 1
-32.179324 -16.907384 2.967356 36.471547 0.483769 1.489345 0.034400 -0.014943 -172088.000000 0 0 1
-32.371724 -17.381284 1.662256 36.780438 0.492752 1.525587 0.035552 -0.013007 -15944.100000 0 0 1
-33.112224 -16.402384 0.953956 36.964410 0.459927 1.544986 0.042516 -0.019135 -24472.800000 0 0 1
-33.660024 -16.906684 -0.380044 37.669319 0.465468 1.580885 0.041956 -0.018685 -99026.700000 0 0 1
-32.647924 -17.165384 -1.335044 36.909615 0.484052 1.606975 0.030241 -0.015820 750341.000000 0 0 1
-33.239624 -17.931284 -2.387644 37.843155 0.494711 1.633931 0.028601 -0.008481 316896.000000 0 0 1
-32.101724 -18.309684 -3.334644 37.106402 0.518344 1.660785 0.012106 -0.007295 18923.700000 0 0 1
-32.513124 -19.393584 -4.110744 38.080343 0.537831 1.678956 0.011149 -0.013745 759981.000000 0 0 1
-31.395724 -20.168984 -4.603344 37.598806 0.571022 1.693538 0.001401 -0.008407 160411.000000 0 0 1
-31.866224 -21.363684 -5.473444 38.753346 0.590595 1.712508 0.015267 -0.011289 -435295.000000 0 0 1
-32.501124 -22.460484 -4.883944 39.807654 0.604706 1.693795 0.030222 -0.016443 -100844.000000 0 0 1
-32.637724 -23.459584 -5.846944 40.617236 0.623224 1.715250 0.018650 -0.005043 268148.000000 0 0 1
-33.328324 -24.765984 -5.335344 41.864030 0.639065 1.698588 0.017052 -0.008468 -206215.000000 0 0 1
-32.501524 -25.395684 -4.425544 41.483434 0.663277 1.677682 0.019474 -0.011214 -426865.000000 0 0 1
-33.136524 -26.536684 -3.874944 42.629098 0.675246 1.661821 0.012402 -0.008409 -262878.000000 0 0 1
-32.179524 -27.559084 -3.274244 42.494065 0.708208 1.647925 0.006404 0.001259 -583892.000000 0 0 1
-31.322124 -27.984384 -4.332944 42.225296 0.729178 1.673592 -0.005226 0.001818 407033.000000 0 0 1
-30.472824 -29.123684 -4.159544 42.356626 0.762764 1.669158 -0.000977 0.004483 762364.000000 0 0 1
-29.299524 -28.981284 -3.140144 41.330829 0.779938 1.646845 0.010947 0.005575 -193982.000000 0 0 1
-29.870324 -28.988484 -1.831444 41.664405 0.770417 1.614768 0.008956 0.000554 -65871.400000 0 0 1
-28.955724 -28.766684 -0.789344 40.823757 0.782123 1.590133 0.009819 -0.006131 -73475.900000 0 0 1
-29.660024 -28.419684 0.588756 41.082138 0.764046 1.556465 0.018241 -0.007777 77137.700000 0 0 1
-30.168324 -29.623684 1.055756 42.294267 0.776289 1.545832 0.015143 0.000646 -421246.000000 0 0 1
-30.992224 -29.403484 2.163856 42.775754 0.759099 1.520189 0.024722 0.000759 -228051.000000 0 0 1
-31.512024 -30.723684 2.810556 44.100472 0.772732 1.507022 0.004073 0.005840 -945219.000000 0 0 1
-32.393024 -30.463484 3.891856 44.637186 0.754710 1.483497 0.010498 0.009940 465402.000000 0 0 1
-33.074224 -31.653884 4.371856 45.988975 0.763459 1.475589 -0.002655 0.013652 176865.000000 0 0 1
-34.069324 -32.285284 3.363156 47.057085 0.758518 1.499266 -0.001929 0.008893 -971716.000000 0 0 1
-34.432224 -33.561584 3.792656 48.232170 0.772594 1.492082 -0.006064 0.010756 -534658.000000 0 0 1
34.772170 -34.195784 2.930256 48.857362 -0.777041 1.510785 -0.007131 0.006143 60537.700000 0 0 1
33.622470 34.371754 3.763956 48.229196 0.796418 1.492674 -0.015040 0.005958 1085950.000000 0 0 1
32.676470 -34.254984 4.625956 47.566323 -0.808978 1.473390 -0.021417 0.013671 1245020.000000 0 0 1
32.074570 -33.035884 4.149056 46.231616 -0.800161 1.480930 -0.017831 0.011572 -435787.000000 0 0 1
31.110170 -33.191284 2.965156 45.588334 -0.817752 1.505708 -0.013548 0.010223 -926983.000000 0 0 1
31.669570 -33.617984 1.721256 46.217889 -0.815233 1.533545 -0.015406 0.011218 292972.000000 0 0 1
30.695470 -33.409784 0.665656 45.374758 -0.827714 1.556126 -0.007485 0.012244 -311357.000000 0 0 1
31.128870 -34.097684 -0.694744 46.175115 -0.830882 1.585843 -0.010626 0.005908 815292.000000 0 0 1
32.249370 -33.580284 -1.439644 46.580360 -0.805613 1.601708 -0.017337 0.006873 191815.000000 0 0 1
33.474870 -33.566284 -0.763944 47.411454 -0.786762 1.586910 -0.012646 0.006834 -1784240.000000 0 0 1
34.663870 -33.508084 -1.662044 48.240418 -0.768446 1.605256 -0.032715 0.018099 -1314480.000000 0 0 1
34.848670 34.580854 -2.355744 49.150939 0.781541 1.618743 -0.030600 0.005751 298711.000000 0 0 1
-34.439124 -34.463684 -3.489244 48.846429 0.785755 1.642290 -0.031559 0.006679 -468994.000000 0 0 1
-33.810024 33.644854 -4.196244 47.882172 -0.782950 1.658546 -0.034229 -0.003895 459876.000000 0 0 1
-32.653524 33.061554 -3.570944 46.605478 -0.791607 1.647492 -0.020566 -0.004863 359655.000000 0 0 1
-32.066724 32.181154 -4.474944 45.650045 -0.787179 1.668981 -0.013136 -0.016834 -152440.000000 0 0 1
-30.778824 31.543654 -3.931344 44.246961 -0.797670 1.659764 0.001834 -0.017484 612511.000000 0 0 1
-29.560624 32.355454 -4.077444 44.015127 -0.830507 1.663567 0.008214 -0.008991 923719.000000 0 0 1
-28.395324 31.667454 -3.709744 42.695249 -0.839823 1.657795 0.027449 -0.012630 183796.000000 0 0 1
-28.087524 31.449354 -2.238944 42.225392 -0.841805 1.623845 0.019692 -0.007811 -111582.000000 0 0 1
-29.052724 30.512354 -1.720344 42.166623 -0.809898 1.611606 0.012740 -0.009021 164329.000000 0 0 1
-29.040024 30.440854 -0.337044 42.072345 -0.808945 1.578807 0.004186 0.003089 -539744.000000 0 0 1
-30.391924 30.045954 0.244656 42.737434 -0.779674 1.565072 -0.007484 0.007725 -640247.000000 0 0 1
-30.646924 28.691954 -0.089944 41.981785 -0.752464 1.572939 -0.001538 0.000663 877884.000000 0 0 1
-31.899324 28.621354 -0.821944 42.865188 -0.731288 1.589973 -0.009902 0.000176 856947.000000 0 0 1
-32.115924 27.112854 -1.265644 42.049272 -0.701128 1.600900 -0.010002 0.001776 52688.000000 0 0 1
-32.277624 26.256154 -0.139444 41.608293 -0.682887 1.574148 -0.012231 0.004271 23064.900000 0 0 1
-32.835924 25.073754 -0.712844 41.320687 -0.652153 1.588049 0.004713 0.012777 -284287.000000 0 0 1
-32.880424 23.826754 0.235556 40.606551 -0.627078 1.564995 0.002484 0.007846 -456266.000000 0 0 1
-31.683724 23.316254 0.740756 39.345327 -0.634420 1.551968 0.005209 0.001217 -642647.000000 0 0 1
-31.217224 24.099554 1.798756 39.478337 -0.657430 1.525217 0.012167 -0.004015 -1325730.000000 0 0 1
-29.797724 23.743454 2.342056 38.172519 -0.672800 1.509403 0.008394 -0.014532 285801.000000 0 0 1
-28.784824 24.477254 1.682756 37.822397 -0.704699 1.526291 0.009613 -0.012204 -67251.800000 0 0 1
-28.766424 25.839754 2.030056 38.721069 -0.731853 1.518345 -0.013446 -0.001970 -1192160.000000 0 0 1
-28.124124 26.752954 0.961556 38.827973 -0.760417 1.546029 -0.002518 0.002080 1224990.000000 0 0 1
-26.704424 26.572654 0.775856 37.680687 -0.782925 1.550205 0.008764 -0.002326 847050.000000 0 0 1
-26.219424 27.526954 -0.209944 38.016253 -0.809721 1.576319 0.017593 -0.007990 -639993.000000 0 0 1
-25.011824 27.057754 -0.944044 36.859254 -0.824670 1.596411 0.023848 -0.010507 -1259780.000000 0 0 1
-25.257724 25.995454 -1.867544 36.293305 -0.799791 1.622276 0.035832 -0.021546 -154089.000000 0 0 1
-24.093724 25.493154 -2.511044 35.166942 -0.813612 1.642261 0.019752 -0.015264 1199660.000000 0 0 1
-23.224724 24.337054 -1.749844 33.685931 -0.808781 1.622766 0.007011 -0.013700 919766.000000 0 0 1
-23.843524 23.057854 -1.658744 33.210385 -0.768648 1.620764 -0.008293 -0.018348 -318228.000000 0 0 1
-23.015524 22.170554 -0.947644 31.971016 -0.766701 1.600441 -0.012040 -0.026792 -670613.000000 0 0 1
-23.622224 20.745054 -0.683744 31.445735 -0.720640 1.592542 -0.018388 -0.019939 214702.000000 0 0 1
-24.584924 20.605154 0.389956 32.080258 -0.697557 1.558640 -0.022197 -0.019750 1693510.000000 0 0 1
-25.847524 21.331854 0.301756 33.514677 -0.689976 1.561792 -0.021816 -0.012865 1172510.000000 0 0 1
-26.787024 20.753654 -0.809444 33.895634 -0.659163 1.594679 -0.027394 -0.018021 -700755.000000 0 0 1
-27.122624 19.413454 -0.634144 33.360472 -0.621229 1.589806 -0.048180 -0.002794 187340.000000 0 0 1
-27.854824 18.852754 -1.694144 33.677703 -0.595000 1.621122 -0.033336 0.000487 -198555.000000 0 0 1
-28.086524 17.329054 -1.568644 33.039516 -0.552817 1.618292 -0.043986 0.008135 -317327.000000 0 0 1
-29.004424 16.880054 -0.605744 33.564263 -0.527066 1.588845 -0.018711 0.007786 200035.000000 0 0 1
-29.099724 15.428854 -0.478644 32.940440 -0.487520 1.585327 -0.010712 0.000250 473428.000000 0 0 1
-27.840124 14.686854 0.127756 31.476857 -0.485438 1.566738 -0.004816 -0.001176 199762.000000 0 0 1
-27.750524 14.740254 1.559256 31.461055 -0.488272 1.521215 0.008905 -0.005390 1105990.000000 0 0 1
-26.454224 14.365354 2.076356 30.174503 -0.497474 1.501930 0.005318 -0.004664 720852.000000 0 0 1
-26.143424 12.828054 2.062556 29.194036 -0.456164 1.500087 0.015937 -0.001431 -205682.000000 0 0 1
-25.913924 12.316954 0.760356 28.702212 -0.443695 1.544302 0.004550 -0.002739 326224.000000 0 0 1
-25.411624 11.010354 0.756756 27.704715 -0.408863 1.543478 0.023819 -0.001036 -222712.000000 0 0 1
-25.428424 10.426354 -0.655444 27.490784 -0.389121 1.594641 0.026909 -0.008829 -154091.000000 0 0 1
-26.741924 10.237554 -1.135044 28.657047 -0.365616 1.610415 0.032388 -0.011436 317043.000000 0 0 1
-26.631324 9.377754 -2.179744 28.318209 -0.338573 1.647846 0.032374 -0.005523 -69240.400000 0 0 1
-27.943224 8.769254 -2.696844 29.410824 -0.304091 1.662621 0.038133 -0.013192 -98795.100000 0 0 1
-27.619524 7.903254 -3.777444 28.975311 -0.278700 1.701536 0.039507 -0.008648 199379.000000 0 0 1
-28.744624 7.817654 -4.599044 30.141671 -0.265546 1.723976 0.016068 -0.000736 -223202.000000 0 0 1
-10.961630 17.937554 -20.053444 29.052603 -1.022255 2.332625 0.023152 0.000479 95601.300000 0 0 1
-11.354930 17.084654 -21.111944 29.436949 -0.984207 2.370561 0.018883 -0.006313 -182437.000000 0 0 1
-10.405130 16.934554 -22.142844 29.754854 -1.019833 2.410097 0.012863 -0.009654 -284707.000000 0 0 1
-10.827630 15.830854 -23.097544 30.022492 -0.970919 2.448606 0.015497 -0.009081 -254220.000000 0 0 1
-10.577730 14.473254 -22.650544 28.886166 -0.939666 2.472091 0.009263 -0.011409 -144039.000000 0 0 1
-10.504630 13.583754 -23.738044 29.297787 -0.912535 2.515346 0.007865 -0.008440 -339424.000000 0 0 1
-9.607230 12.391854 -23.498444 28.249491 -0.911308 2.553172 -0.007540 -0.002427 -831975.000000 0 0 1
-8.241930 12.552954 -23.294044 27.714951 -0.989814 2.568977 0.000176 -0.002168 -865649.000000 0 0 1
-7.739830 11.377354 -22.700544 26.545505 -0.973426 2.596648 -0.005700 -0.008408 -350408.000000 0 0 1
-6.224730 11.335954 -22.513244 25.963383 -1.068634 2.620178 -0.001896 -0.001888 -47131.600000 0 0 1
-5.504130 11.159454 -23.740944 26.804128 -1.112583 2.658838 -0.002580 -0.004980 -660725.000000 0 0 1
-4.127030 11.189954 -23.473644 26.329819 -1.217459 2.671493 0.007896 0.000801 328789.000000 0 0 1
-3.302530 10.634354 -24.743844 27.134000 -1.269686 2.718718 0.013638 0.001417 50170.500000 0 0 1
-3.433530 9.227554 -24.931344 26.805014 -1.214575 2.765481 0.010910 -0.004596 -26546.300000 0 0 1
-2.997130 8.847754 -26.239594 27.852860 -1.244183 2.799572 0.001002 -0.005422 -266130.000000 0 0 1
-2.509530 7.380854 -26.334334 27.464010 -1.243053 2.853780 0.008976 0.005774 719142.000000 0 0 1
-1.212930 7.250254 -25.718744 26.748666 -1.405037 2.863192 0.011523 0.001570 680562.000000 0 0 1
-0.928730 5.867554 -25.377064 26.063117 -1.413816 2.911640 0.020642 0.001459 -151571.000000 0 0 1
0.496370 5.729954 -24.818144 25.475851 1.484385 2.913870 0.017851 -0.000146 -184464.000000 0 0 1
0.662370 6.340954 -23.521244 24.369968 1.466715 2.876902 0.010254 -0.007489 342769.000000 0 1 0
1.668370 5.695754 -22.723344 23.485643 1.285852 2.886112 0.018631 -0.009193 300062.000000 0 1 0
1.964070 6.491454 -21.403344 22.452164 1.276990 2.834732 0.011813 -0.005551 32056.700000 0 1 0
2.431570 7.795654 -21.616544 23.107568 1.268446 2.780396 -0.008282 -0.003046 -93582.900000 0 1 0
2.190470 8.627754 -20.473644 22.325017 1.322163 2.731470 -0.007076 -0.003146 272996.000000 0 1 0
2.928170 10.033354 -20.505644 23.015729 1.286839 2.670208 -0.008962 -0.001295 65417.200000 0 1 0
2.597370 10.790454 -19.389544 22.341321 1.334580 2.621711 -0.003408 -0.005780 -293922.000000 0 1 0
3.277070 11.969154 -19.253744 22.906472 1.303553 2.569070 0.003469 -0.007977 -433106.000000 0 1 0
4.452670 11.954854 -18.251144 22.267668 1.214257 2.531553 0.008873 -0.021055 368813.000000 0 1 0
5.604570 11.376854 -18.887144 22.750125 1.113063 2.550262 0.013980 -0.006610 92780.600000 0 1 0
6.466070 10.936854 -17.841544 21.903094 1.036859 2.522779 0.013010 -0.016171 178800.000000 0 1 0
7.509970 9.846954 -18.236944 22.044234 0.919236 2.545060 0.023165 -0.025813 -129715.000000 0 1 0
7.045270 8.561454 -18.611044 21.663455 0.882244 2.604302 0.015451 -0.014685 -216481.000000 0 1 0
6.541170 8.575054 -19.914944 22.647813 0.919145 2.645254 0.010334 -0.000401 -159824.000000 0 1 0
6.144770 7.189954 -20.506744 22.582740 0.863619 2.709453 0.010432 0.007958 245070.000000 0 1 0
7.247870 6.347454 -20.808544 22.930706 0.719265 2.707979 0.009195 0.013242 222300.000000 0 1 0
6.835770 4.993454 -20.953444 22.598875 0.630897 2.757636 0.007310 0.018166 -163647.000000 0 1 0
6.953470 4.410554 -22.361144 23.829068 0.565256 2.788760 0.011096 0.005249 99038.800000 0 1 0
5.916370 4.988354 -23.155244 24.414185 0.700500 2.819055 0.002692 0.008923 206472.000000 0 1 0
6.202770 4.877454 -24.529644 25.767563 0.666353 2.830365 0.008931 0.003763 -584757.000000 0 0 1
5.199670 5.525354 -25.465574 26.571819 0.815756 2.852026 0.002002 -0.005074 -364233.000000 0 0 1
5.217070 6.950554 -25.414854 26.859687 0.926913 2.812105 0.000408 -0.001435 315154.000000 0 0 1
4.589370 7.503154 -24.246544 25.792528 1.021848 2.793605 0.010957 -0.005322 -1135360.000000 0 0 1
4.384470 9.026754 -24.379144 26.363773 1.118638 2.751099 0.010502 -0.004672 392796.000000 0 0 1
3.356570 9.319554 -25.343114 27.210183 1.225095 2.768991 0.019029 0.004620 -81410.900000 0 0 1
2.114870 9.301754 -24.705944 26.483560 1.347234 2.773120 -0.011076 0.012546 -1185840.000000 0 0 1
0.879470 9.603554 -25.559744 27.318532 1.479473 2.780805 -0.024173 0.016903 -324858.000000 0 0 1
0.723070 10.965954 -25.754764 28.001479 1.504954 2.738276 -0.012174 0.012690 -21036.000000 0 0 1
-0.309030 11.291454 -26.650694 28.945671 -1.543435 2.740703 0.004421 0.010130 -467364.000000 0 0 1
-0.364830 12.832254 -26.825974 29.739413 -1.542373 2.695256 0.006577 0.007660 -939194.000000 0 0 1
-0.583030 13.528354 -25.663254 29.016527 -1.527726 2.656080 0.003881 0.007020 166020.000000 0 0 1
-0.734630 14.898154 -25.980494 29.957982 -1.521526 2.620410 0.007707 0.001217 -278900.000000 0 0 1
-0.927330 15.695254 -24.731544 29.306146 -1.511781 2.575313 0.016620 -0.004252 -537550.000000 0 0 1
-2.178330 15.452154 -24.156244 28.758273 -1.430747 2.568034 0.012104 -0.001161 -534800.000000 0 0 1
-2.398530 16.193754 -22.987044 28.220467 -1.423751 2.522753 0.019024 -0.008687 -397013.000000 0 0 1
-3.594830 15.651854 -22.189744 27.391386 -1.345037 2.515118 0.018910 -0.006592 520888.000000 0 0 1
-4.872330 15.827454 -22.815244 28.191900 -1.272162 2.513728 0.009681 -0.008697 403329.000000 0 0 1
-5.268630 14.999954 -23.923744 28.724599 -1.233015 2.555062 0.010749 -0.006834 -542522.000000 0 0 1
-6.725630 15.199254 -24.361044 29.490877 -1.154199 2.542865 0.002287 -0.008738 -179969.000000 0 0 1
-7.064730 16.423654 -24.984344 30.722373 -1.164567 2.520477 0.007813 -0.007569 -428281.000000 0 0 1
-8.372630 16.303154 -25.480104 31.386772 -1.096361 2.518042 0.008661 -0.007974 -598320.000000 0 0 1
-8.892930 17.578654 -26.114794 32.712012 -1.102445 2.495304 0.008173 -0.007133 -251474.000000 0 0 1
-9.301130 18.529454 -25.101514 32.556684 -1.105578 2.451221 0.006724 -0.005461 -216859.000000 0 0 1
-10.211630 19.429954 -25.643514 33.754856 -1.086909 2.433646 0.002961 -0.001964 -222534.000000 0 0 1
-10.785630 20.432054 -24.675944 33.803858 -1.085096 2.389080 -0.002343 -0.001777 219131.000000 0 0 1
-9.946430 21.577354 -24.450744 34.093291 -1.138860 2.370532 0.008191 -0.000835 520480.000000 0 0 1
-10.586430 22.797854 -24.867044 35.357948 -1.136064 2.350817 0.012431 -0.010624 -11147.700000 0 0 1
-10.249630 23.235154 -26.301354 36.560751 -1.155347 2.373717 0.006032 -0.009543 -319883.000000 0 0 1
-10.799630 22.456454 -27.355564 37.003394 -1.122534 2.402785 -0.006654 -0.002927 70097.100000 0 0 1
-10.694230 23.015954 -28.660024 38.281819 -1.135831 2.416833 0.007796 -0.005540 -537966.000000 0 0 1
-11.453130 22.153654 -29.681494 38.767894 -1.093652 2.442802 0.008122 -0.002784 -444025.000000 0 0 1
-10.813430 21.016154 -30.134554 38.297523 -1.095593 2.476491 0.002650 -0.005036 -428961.000000 0 0 1
-10.683530 20.000754 -29.159874 36.938681 -1.080198 2.480648 -0.001068 0.003909 -440249.000000 0 0 1
-9.727830 18.895354 -29.556664 36.404140 -1.095358 2.518202 -0.002538 -0.000051 -246503.000000 0 0 1
-8.422330 19.410654 -29.764234 36.518745 -1.161409 2.523594 -0.009639 -0.001536 743025.000000 0 0 1
-7.336730 18.596754 -30.250124 36.259300 -1.195026 2.557608 -0.003597 0.003015 937738.000000 0 0 1
-6.915530 17.348454 -29.473404 34.892333 -1.191476 2.576793 0.009944 -0.008488 -577100.000000 0 0 1
-7.852730 16.256054 -29.611124 34.680589 -1.120788 2.594084 0.013041 -0.013193 423037.000000 0 0 1
-7.605830 15.050154 -28.900794 33.460598 -1.102865 2.613414 -0.000287 -0.009427 523391.000000 0 0 1
-8.899030 14.122854 -28.920014 33.391839 -1.008527 2.618104 0.012828 -0.010323 1023400.000000 0 0 1
-9.807330 14.624654 -27.936424 33.022840 -0.980074 2.579183 0.015566 -0.010231 -382791.000000 0 0 1
-11.063430 13.992754 -28.022034 33.217932 -0.901780 2.574715 0.053575 -0.018334 -139365.000000 0 0 1
-12.011630 14.474754 -26.941354 32.857789 -0.878127 2.532099 0.038288 -0.016611 -223880.000000 0 0 1
-12.431030 15.815054 -27.107154 33.755654 -0.904635 2.503176 0.021921 -0.014731 -460749.000000 0 0 1
-13.269530 16.285754 -26.075574 33.484948 -0.887100 2.463428 0.010595 -0.013840 63032.900000 0 0 1
-14.186730 17.435454 -26.543574 34.782462 -0.887775 2.438941 -0.000047 -0.008736 -47790.100000 0 0 1
-13.517030 18.641754 -26.914784 35.420766 -0.943426 2.433892 -0.014416 0.007148 -20563.000000 0 0 1
-14.426630 19.680654 -27.250204 36.579084 -0.938241 2.411281 -0.021206 0.006549 -253142.000000 0 0 1
-13.900230 21.136754 -27.250534 37.182931 -0.989074 2.393338 -0.012449 0.000590 -482988.000000 0 0 1
-14.923030 22.026754 -27.612764 38.345005 -0.975334 2.374763 -0.018249 0.000895 29498.000000 0 0 1
-14.514030 23.402054 -27.671734 39.038930 -1.015654 2.358626 -0.010338 -0.004176 -38668.700000 0 0 1
-14.187330 24.071354 -26.333404 38.394772 -1.038217 2.326580 -0.027859 -0.001334 71900.000000 0 0 1
-13.677930 25.374154 -26.615904 39.234421 -1.076399 2.316354 0.000985 -0.014316 60696.300000 0 0 1
-13.353030 26.063754 -25.442454 38.793570 -1.097340 2.286094 0.026907 -0.017077 -327656.000000 0 0 1
-12.904530 27.509754 -25.744134 39.825543 -1.132182 2.273683 0.045950 -0.021413 263853.000000 0 0 1
-13.986330 28.341854 -26.172424 41.035032 -1.112373 2.262444 0.058384 -0.018523 516622.000000 0 0 1
-14.627230 29.045154 -25.083594 41.070226 -1.104270 2.227802 0.061332 -0.016553 348509.000000 0 0 1
-15.997430 29.708754 -25.411074 42.240389 -1.076844 2.216277 0.054836 -0.018825 -22258.000000 0 0 1
-16.906130 28.697454 -25.656834 42.043242 -1.038418 2.227171 0.039797 -0.014220 -1538990.000000 0 0 1
-18.157730 29.183354 -26.025934 43.112881 -1.014217 2.218892 0.026247 -0.012484 -987923.000000 0 0 1
-19.197830 28.112854 -25.860054 42.750808 -0.971650 2.220439 0.009781 -0.000405 -803208.000000 0 0 1
-19.511530 27.876354 -24.517144 41.939018 -0.960117 2.195171 0.017558 -0.002704 -414123.000000 0 0 1
-20.407930 26.811254 -24.402544 41.603017 -0.920184 2.197598 0.012270 -0.011572 -432054.000000 0 0 1
-20.878830 26.690654 -22.933244 40.917602 -0.906971 2.165754 0.013892 -0.007054 -761347.000000 0 0 1
-21.889230 27.588654 -22.688244 41.893061 -0.900084 2.143106 -0.000690 -0.002919 -786118.000000 0 0 1
-22.090530 27.931254 -21.349044 41.520213 -0.901635 2.110853 -0.011149 0.001120 -56734.700000 0 0 1
-23.484430 28.628954 -21.262044 42.699062 -0.883797 2.092031 -0.033928 0.011121 603419.000000 0 0 1
-24.636330 27.796354 -21.312344 42.822915 -0.845594 2.091725 -0.039862 0.006302 -748102.000000 0 0 1
-25.712390 28.645854 -21.483944 44.082556 -0.839311 2.079857 -0.027802 0.007972 -607022.000000 0 0 1
-26.981180 27.811354 -21.789644 44.454966 -0.800548 2.083059 -0.038211 0.004900 -104649.000000 0 0 1
-27.085960 27.569354 -23.191944 45.073104 -0.794242 2.111268 -0.043438 0.009155 -398608.000000 0 0 1
-28.384400 27.218554 -23.584644 45.855853 -0.764434 2.111012 -0.040102 0.001186 -505740.000000 0 0 1
-28.582890 26.873054 -25.088384 46.567903 -0.754576 2.139747 -0.039705 0.009152 -339918.000000 0 0 1
-28.109800 25.618454 -25.487924 45.783188 -0.739062 2.161215 -0.033340 0.009292 -415095.000000 0 0 1
-28.251500 25.453454 -26.883654 46.569908 -0.733345 2.186184 -0.015887 0.003685 -293204.000000 0 0 1
-28.141690 23.976154 -27.284624 45.948464 -0.705642 2.206581 -0.013642 -0.002595 924650.000000 0 0 1
-26.813940 23.416454 -27.125724 44.756257 -0.717863 2.221915 -0.016320 -0.009732 1077120.000000 0 0 1
-26.815850 22.211454 -27.872444 44.601699 -0.691758 2.245824 0.004883 -0.011659 201047.000000 0 0 1
-25.765110 21.243654 -27.253674 43.103323 -0.689510 2.255298 0.003908 -0.004812 27122.400000 0 0 1
-26.086800 20.619454 -26.015364 42.219452 -0.668870 2.234697 0.001301 0.000612 -90197.700000 0 0 1
-25.451500 19.357854 -26.005064 41.216122 -0.650237 2.253566 0.003853 -0.005161 22994.700000 0 0 1
-26.350560 18.095254 -26.082004 41.256043 -0.601752 2.255184 -0.001457 0.005858 201831.000000 0 0 1
-27.175410 17.912154 -27.264784 42.458410 -0.582767 2.268100 0.001593 0.009140 579177.000000 0 0 1
-27.885080 16.700054 -27.172664 42.365353 -0.539602 2.267103 -0.008910 0.010153 -268643.000000 0 0 1
-28.756550 16.416954 -28.428734 43.642278 -0.518743 2.280229 -0.015830 0.015694 -80072.900000 0 0 1
-29.924740 17.216754 -28.420774 44.717413 -0.522086 2.259535 -0.017481 0.001406 -445124.000000 0 0 1
-30.687030 16.743154 -29.504204 45.744126 -0.499467 2.271798 -0.004237 0.001415 170680.000000 0 0 1
-32.094110 17.345054 -29.761904 47.081352 -0.495477 2.255105 0.005554 0.008714 1003900.000000 0 0 1
-33.134800 16.852154 -28.883264 47.076034 -0.470499 2.231338 -0.002867 0.012631 348529.000000 0 0 1
-34.398994 17.133554 -29.434524 48.407031 -0.462113 2.224415 -0.001990 0.007456 354273.000000 0 0 1
34.450343 16.826054 -28.531184 47.790905 0.454336 2.210553 0.004223 0.014039 369818.000000 0 0 1
34.246294 17.873454 -27.619754 47.488101 0.481021 2.191508 0.001414 0.003244 -69536.600000 0 0 1
33.185875 17.611754 -26.726424 46.106159 0.487905 2.189122 0.007480 -0.004485 151057.000000 0 0 1
32.787385 18.784154 -25.762774 45.733768 0.520261 2.169196 0.017056 -0.008371 17318.500000 0 0 1
32.263155 19.884654 -26.428204 46.203469 0.552338 2.179734 0.022863 -0.012326 12043.900000 0 0 1
31.769235 20.905054 -25.562084 45.822764 0.581998 2.162586 0.034504 -0.018485 -608846.000000 0 0 1
31.042985 22.068754 -26.383344 46.333332 0.618010 2.176602 0.030558 -0.024152 499427.000000 0 0 1
29.725775 21.713954 -26.770644 45.516863 0.630888 2.199563 0.024620 -0.018744 -447670.000000 0 0 1
28.786275 21.888154 -25.775374 44.408454 0.650103 2.190036 0.024551 -0.016493 -778301.000000 0 0 1
27.316125 21.562554 -26.127644 43.517447 0.668226 2.214791 0.010649 -0.015691 360750.000000 0 0 1
27.036065 20.187654 -26.249374 42.749500 0.641382 2.231950 0.008812 -0.025651 183042.000000 0 0 1
25.832005 20.016154 -27.009564 42.396408 0.659222 2.261490 0.005450 -0.020044 214332.000000 0 0 1
25.422825 18.523654 -27.128074 41.537671 0.629679 2.282462 0.015822 -0.015416 -48897.700000 0 0 1
26.363835 17.659754 -27.771374 42.168328 0.590202 2.289731 0.007383 -0.012418 -11839.100000 0 0 1
27.317105 17.169654 -26.855824 41.979239 0.561135 2.264957 0.002268 -0.008914 512764.000000 0 0 1
28.571065 16.469654 -27.492174 42.934541 0.522920 2.265721 -0.008582 0.013087 602862.000000 0 0 1
28.217575 15.252154 -28.194894 42.706109 0.495536 2.291891 -0.000725 0.007178 208274.000000 0 0 1
27.399465 14.277354 -27.559464 41.401661 0.480370 2.299175 0.005852 -0.006449 243908.000000 0 0 1
28.072995 13.385954 -26.430454 40.814773 0.444938 2.275188 0.002747 -0.008861 191626.000000 0 0 1
28.377615 14.045554 -25.190004 40.461128 0.459601 2.242823 0.010305 -0.012785 -10713.200000 0 0 1
29.078765 13.120954 -24.373844 40.147456 0.423869 2.223212 0.009186 -0.015201 -305092.000000 0 0 1
-13.696030 -31.479584 -25.447934 42.733391 1.160422 2.208690 0.057635 0.022013 -299381.000000 0 0 1
-12.778930 -30.471084 -25.700724 41.860664 1.173696 2.231863 0.029342 0.029424 -443609.000000 0 0 1
-13.119830 -29.767684 -26.863014 42.188463 1.155669 2.261057 0.011882 0.032643 29439.000000 0 0 1
-12.433230 -28.417684 -27.205604 41.258876 1.158371 2.290801 0.001802 0.024658 -174138.000000 0 0 1
-12.926530 -27.390084 -26.399704 40.177807 1.129846 2.287724 0.019239 0.011335 381956.000000 0 0 1
-12.348830 -26.115284 -26.812234 39.413164 1.129097 2.318949 0.008219 0.004460 38511.300000 0 0 1
-13.026430 -24.850284 -26.162644 38.362852 1.087979 2.321261 0.013220 -0.001959 -84281.300000 0 0 1
-12.726330 -24.621584 -24.806044 37.195721 1.093738 2.300845 0.005072 -0.006376 195039.000000 0 0 1
-13.273030 -23.378384 -24.343344 36.267348 1.054429 2.306649 0.005744 -0.004665 -175655.000000 0 0 1
-12.741030 -22.998084 -22.972044 34.913614 1.064884 2.288914 0.007507 -0.012557 -1123480.000000 0 0 1
-11.422430 -22.627384 -22.964444 34.202866 1.103312 2.306918 0.007778 -0.021902 -1328750.000000 0 0 1
-11.108730 -21.971784 -21.772344 32.866367 1.102686 2.294882 0.002034 -0.021242 558740.000000 0 0 1
-9.586830 -21.674284 -21.588744 32.058630 1.154353 2.309614 0.014722 -0.027580 464207.000000 0 0 1
-9.130330 -20.823584 -22.626044 32.076820 1.157580 2.353742 0.015041 -0.022149 -31052.000000 0 0 1
-7.755930 -20.512084 -22.568144 31.467779 1.209297 2.370547 0.023134 -0.015414 113012.000000 0 0 1
-7.389230 -19.445584 -23.658944 31.503604 1.207653 2.420359 0.025066 -0.006388 91231.600000 0 0 1
-8.005130 -18.208084 -23.272944 30.614479 1.156585 2.434408 0.012289 -0.002336 111536.000000 0 0 1
-8.323730 -17.282584 -24.316944 30.972341 1.121956 2.473683 0.014199 -0.001125 227647.000000 0 0 1
-7.163930 -16.585584 -25.117564 30.940192 1.163065 2.518042 0.018688 -0.002359 370608.000000 0 0 1
-6.862430 -17.324684 -26.324304 32.252233 1.193650 2.525601 0.006924 0.003206 151267.000000 0 0 1
-5.841830 -16.688784 -27.072324 32.335015 1.234081 2.563021 0.007161 0.002107 75602.900000 0 0 1
-5.556330 -17.323384 -28.421664 33.745568 1.260421 2.572210 -0.001144 0.009084 -37047.400000 0 0 1
-6.497530 -16.935684 -29.403724 34.548723 1.204456 2.588835 0.003867 0.008109 56442.800000 0 0 1
-6.485630 -17.748384 -30.540344 35.913523 1.220450 2.587514 0.003992 0.008821 73678.700000 0 0 1
-7.394930 -17.357884 -31.760074 36.941621 1.168056 2.605551 0.012839 0.014122 144111.000000 0 0 1
-7.187630 -16.170284 -32.502704 37.007646 1.152529 2.643028 0.012785 -0.000223 -193772.000000 0 0 1
-7.101430 -15.020184 -31.770744 35.852704 1.129151 2.659758 0.003937 0.001421 -134140.000000 0 0 1
-7.246430 -13.727284 -32.527964 36.041885 1.085090 2.696346 0.007063 -0.006353 -321313.000000 0 0 1
-6.336430 -13.599884 -33.603684 36.801015 1.134784 2.721665 0.021991 -0.009756 -131269.000000 0 0 1
-6.905730 -13.002884 34.420114 37.436724 1.082585 0.404190 0.033619 -0.010400 -555802.000000 0 0 1
-7.086330 -11.418684 34.541245 37.063459 1.015374 0.371046 0.015695 -0.013807 -221828.000000 0 0 1
-5.941830 -10.615384 34.544170 36.623645 1.060508 0.338601 0.002131 -0.012393 -194018.000000 0 0 1
-5.261930 -10.552584 33.270071 35.297911 1.108238 0.340611 0.021806 -0.017563 -244353.000000 0 0 1
-4.295830 -9.416084 33.099949 34.680303 1.142780 0.303050 0.003480 -0.015233 -447330.000000 0 0 1
-4.265930 -8.923784 31.770893 33.274941 1.124870 0.301812 0.003066 -0.004497 -469134.000000 0 0 1
-3.216630 -7.998684 31.682473 32.834505 1.188442 0.265681 0.004191 -0.006689 -1036000.000000 0 0 1
-3.418730 -6.858784 30.628063 31.572280 1.108393 0.245181 0.000021 -0.002813 -481102.000000 0 0 1
-4.560030 -6.124184 30.877533 31.807571 0.930764 0.242417 -0.007751 -0.003810 -991063.000000 0 0 1
-5.769930 -6.678384 30.463343 31.716055 0.858247 0.281995 -0.009641 -0.005669 -1579540.000000 0 0 1
-6.983230 -5.805684 30.661433 31.978038 0.693582 0.287951 -0.014096 -0.005680 -231272.000000 0 0 1
-8.149530 -6.369984 30.069253 31.798609 0.663444 0.331315 -0.009171 -0.001441 -3032.920000 0 0 1
-9.230030 -5.437884 30.069493 31.920815 0.532404 0.342248 -0.004866 -0.006399 669163.000000 0 0 1
-10.358730 -6.056384 29.135043 31.509265 0.529067 0.390681 0.007073 -0.006294 112100.000000 0 0 1
-10.042930 -6.159384 27.752093 30.149247 0.550146 0.401463 -0.009394 0.002739 441655.000000 0 0 1
-10.990830 -6.876084 26.939083 29.896372 0.559045 0.448538 -0.010878 -0.002872 121869.000000 0 0 1
-10.827130 -6.658684 25.465693 28.461664 0.551376 0.462955 -0.005903 -0.003445 176638.000000 0 0 1
-9.619630 -7.228284 24.965753 27.714151 0.644403 0.449118 -0.001675 -0.003319 259003.000000 0 0 1
-9.115830 -6.716084 23.782533 26.340331 0.634967 0.444341 -0.000005 -0.007001 -730462.000000 0 0 1
-9.978030 -6.715084 22.536833 25.545298 0.592365 0.490218 0.005891 -0.009411 -190637.000000 0 0 1
-11.069130 -5.794884 22.534233 25.766218 0.482284 0.506258 -0.003935 -0.009786 -56139.800000 0 0 1
-11.955330 -6.149884 21.495433 25.353592 0.475105 0.558924 0.008179 -0.005857 -863969.000000 0 0 1
-13.123230 -5.214184 21.483333 25.708763 0.378198 0.581495 0.011635 0.000692 -803505.000000 0 0 1
-12.803630 -3.992284 20.934333 24.861970 0.302255 0.569775 0.000815 0.004099 -297797.000000 0 1 0
-13.917530 -3.151284 21.046933 25.428362 0.222671 0.595808 -0.002160 0.007214 -167540.000000 0 0 1
-13.740630 -1.737284 20.443433 24.693259 0.125767 0.595452 -0.000678 0.004996 -369487.000000 0 1 0
-12.910030 -0.868284 21.127033 24.774469 0.067155 0.549522 -0.003552 0.004220 -548226.000000 0 1 0
-13.125230 0.535716 20.885033 24.672723 -0.040793 0.561452 -0.001941 -0.002822 -82319.100000 0 1 0
-12.599030 1.166716 19.512433 23.255791 -0.092340 0.575288 0.017487 -0.016754 185543.000000 0 1 0
-13.284430 0.658716 18.371133 22.680576 -0.049545 0.626654 0.017239 -0.013482 1176630.000000 0 1 0
-14.564430 1.361716 18.237333 23.378991 -0.093225 0.676013 0.004299 -0.005951 993329.000000 0 1 0
-15.592730 0.531716 17.468533 23.421477 -0.034087 0.729010 0.019312 0.000874 -341218.000000 0 1 0
-15.734530 -0.814284 17.925633 23.865599 0.051705 0.721058 -0.005118 0.002571 398394.000000 0 1 0
-16.734930 -1.553284 17.216333 24.059773 0.092552 0.773364 -0.013241 0.016417 292788.000000 0 1 0
-16.672130 -3.061284 17.546833 24.397187 0.181594 0.768124 -0.005990 0.017345 -92084.800000 0 1 0
-17.050930 -3.346284 18.862733 25.646335 0.193789 0.744400 -0.019346 0.015738 -263377.000000 0 0 1
-16.764430 -4.680684 19.221533 25.931106 0.272270 0.735860 -0.016569 0.014643 -116126.000000 0 0 1
-17.509030 -5.265784 20.482033 27.455569 0.292142 0.728751 -0.025497 0.021765 -149195.000000 0 0 1
-17.110730 -4.686484 21.717933 28.042982 0.267335 0.684948 -0.022712 0.016319 467247.000000 0 0 1
-18.061630 -4.802384 22.788333 29.471910 0.259876 0.686890 -0.017636 0.009313 -140581.000000 0 0 1
-18.323130 -6.247684 23.305533 30.297170 0.328610 0.693159 -0.004115 0.001562 609415.000000 0 0 1
-17.270930 -6.926484 24.038533 30.399215 0.381410 0.658744 0.012931 -0.008031 1726360.000000 0 0 1
-16.023630 -7.209884 23.360533 29.231039 0.422815 0.644885 0.004140 -0.007621 544374.000000 0 0 1
-14.961530 -7.744484 24.350913 29.610663 0.477649 0.605233 0.006248 -0.008075 -126184.000000 0 0 1
-15.123530 -9.093584 24.752663 30.399157 0.541365 0.619352 0.005384 -0.006594 217073.000000 0 0 1
-14.251930 -9.390884 25.838543 30.966700 0.582620 0.583757 0.015480 -0.001216 36275.400000 0 0 1
-14.823930 -10.389884 26.801953 32.342592 0.611320 0.594035 0.018214 -0.003789 -566286.000000 0 0 1
-14.808830 -11.668784 26.272993 32.337782 0.667357 0.622446 0.018167 -0.004925 -19542.200000 0 0 1
-14.142030 -12.510184 27.214693 33.123122 0.724247 0.606545 0.026082 -0.006930 -21534.300000 0 0 1
-14.322230 -14.018784 27.034153 33.652608 0.774692 0.637930 0.007638 -0.006694 209582.000000 0 0 1
-15.511730 -14.545584 27.622683 34.859724 0.753266 0.656071 0.007036 -0.002294 335839.000000 0 0 1
-15.680530 -15.948484 27.480253 35.431588 0.793870 0.683153 0.012799 0.002456 -512943.000000 0 0 1
-14.809930 -16.894784 28.308573 36.140601 0.851062 0.670856 0.013164 -0.001716 -228356.000000 0 0 1
-13.530830 -16.945384 27.723053 35.196549 0.896973 0.663788 0.038029 -0.010909 -193058.000000 0 0 1
-12.620230 -17.819184 28.370283 35.800370 0.954563 0.655968 0.048919 -0.010682 -20545.900000 0 0 1
-11.260330 -17.931284 27.677393 34.847727 1.010063 0.653044 0.049370 -0.020962 -715991.000000 0 0 1
-10.320530 -18.661484 28.390443 35.507486 1.065623 0.644230 0.051197 -0.025593 -652110.000000 0 0 1
-9.246230 -19.030184 27.572243 34.754413 1.118515 0.654512 0.046775 -0.023833 -596719.000000 0 0 1
-8.123430 -19.666384 28.399183 35.486200 1.179081 0.643021 0.049666 -0.024093 -292656.000000 0 0 1
-8.396330 -20.930184 28.921463 36.674541 1.189291 0.662271 0.044879 -0.008860 240034.000000 0 0 1
-7.216130 -21.434884 29.520363 37.188420 1.246061 0.653756 0.045764 -0.014291 248055.000000 0 0 1
-7.511330 -22.678884 30.352463 38.626725 1.250964 0.666825 0.042003 -0.006792 150444.000000 0 0 1
-7.778630 -23.793084 29.517903 38.703030 1.254821 0.703355 0.039725 -0.016512 43775.800000 0 0 1
-8.053030 -24.931684 30.353373 40.096975 1.258371 0.712088 0.030708 -0.014624 -124545.000000 0 0 1
-8.111930 -26.151084 29.458983 40.218332 1.270013 0.748844 0.028587 -0.012345 148057.000000 0 0 1
-9.285130 -26.191184 28.643213 39.907711 1.230106 0.770250 0.041303 -0.018927 487114.000000 0 0 1
-9.351330 -27.383984 27.933063 40.219224 1.241724 0.803044 0.046119 -0.021631 -14602.900000 0 0 1
-10.708830 -27.761184 27.266483 40.358685 1.202636 0.829013 0.039597 -0.011871 345050.000000 0 0 1
-11.128330 -27.077884 26.029293 39.173660 1.180865 0.844027 0.056465 -0.015419 436017.000000 0 0 1
-11.415930 -25.696984 26.103293 38.367178 1.152733 0.822550 0.046675 -0.013894 -416229.000000 0 0 1
-11.683530 -25.163284 24.695193 37.142271 1.136107 0.843462 0.047928 -0.027354 813645.000000 0 0 1
-12.951930 -25.538284 24.121503 37.440664 1.101439 0.870742 0.037240 -0.016491 927568.000000 0 0 1
-12.874830 -25.082384 22.832933 36.279885 1.096564 0.890073 0.031201 -0.013710 516032.000000 0 0 1
-14.184830 -25.283384 21.993433 36.389147 1.059521 0.921790 0.015875 -0.006974 16375.500000 0 0 1
-14.536830 -26.649684 21.802033 37.374506 1.071431 0.947962 0.028369 -0.001071 -204475.000000 0 0 1
-15.570330 -26.749984 20.867933 37.329177 1.043666 0.977587 0.020739 0.005167 -110893.000000 0 0 1
-15.823730 -28.193284 20.426733 38.242687 1.059350 1.007313 0.025370 0.001461 -138592.000000 0 0 1
-14.776730 -28.544284 19.586433 37.639822 1.093107 1.023518 0.018547 0.005276 -208978.000000 0 0 1
-14.991130 -29.832384 19.087633 38.458326 1.105141 1.051442 0.028820 0.013799 -45776.600000 0 0 1
-13.941730 -30.260484 18.068533 37.901723 1.139060 1.073876 0.025443 0.006831 -177345.000000 0 0 1
-14.206230 -29.744784 16.779533 36.988131 1.125225 1.099944 0.036420 -0.004075 -398208.000000 0 0 1
-13.185030 -29.989884 15.864133 36.399297 1.156583 1.119829 0.046138 -0.009472 -411413.000000 0 0 1
-13.481230 -29.513384 14.442033 35.515570 1.142315 1.152024 0.017261 -0.007294 -216188.000000 0 0 1
-13.570430 -28.109484 14.440033 34.392066 1.121027 1.137499 0.016572 -0.005788 -152691.000000 0 0 1
-13.887230 -27.544984 13.172033 33.542268 1.103822 1.167231 0.016226 0.007520 293386.000000 0 0 1
-12.803330 -27.514984 12.042033 32.649811 1.135274 1.193053 0.006406 0.005789 473974.000000 0 0 1
-13.282830 -26.711484 10.938633 31.774056 1.109335 1.219343 -0.005370 0.008497 46105.400000 0 0 1
-12.390930 -26.699384 9.834933 31.034145 1.136287 1.248330 -0.002147 0.005579 4686.890000 0 0 1
-12.929230 -25.977984 8.598333 30.264698 1.108991 1.282724 -0.000508 0.004105 -536525.000000 0 0 1
-13.852430 -26.649884 7.816233 31.035457 1.091440 1.316206 -0.001429 0.003553 -550833.000000 0 0 1
-14.148030 -25.817284 6.720433 30.197071 1.069485 1.346364 -0.001851 0.000264 629221.000000 0 0 1
-15.195830 -26.271584 5.628433 30.867274 1.046401 1.387427 -0.000935 0.010554 619315.000000 0 0 1
-14.633930 -27.310284 4.839733 31.359632 1.078890 1.415847 0.001917 0.000536 161292.000000 0 0 1
-15.281730 -27.416684 3.587033 31.592287 1.062299 1.457010 0.014570 0.003324 -147826.000000 0 0 1
-14.927330 -28.700784 2.838533 32.474874 1.091197 1.483278 0.016537 0.011115 398965.000000 0 0 1
-13.597330 -28.670184 2.318433 31.815750 1.127946 1.497861 0.014520 0.008529 269472.000000 0 0 1
-13.313230 -29.823284 1.523233 32.695421 1.150937 1.524191 0.016791 0.007099 696844.000000 0 0 1
-11.869730 -29.722484 0.909733 32.017872 1.190849 1.542379 -0.000663 0.004124 570875.000000 0 0 1
-11.558730 -28.957984 -0.249067 31.180620 1.191018 1.578784 0.016687 0.004380 -216446.000000 0 0 1
-11.770330 -27.573384 -0.260667 29.981663 1.167340 1.579491 0.013060 0.000266 -422277.000000 0 0 1
-11.423930 -26.814284 -1.583667 29.189381 1.168046 1.625078 0.029967 0.003333 892046.000000 0 0 1
-10.022630 -26.885384 -1.877267 28.754149 1.213964 1.636130 0.021032 -0.001567 157845.000000 0 0 1
-9.792030 -26.397284 -3.167667 28.332570 1.215582 1.682834 0.035805 -0.005182 201636.000000 0 0 1
-8.446330 -26.836384 -3.764867 28.384964 1.265877 1.703824 0.029487 -0.007184 21075.700000 0 0 1
-8.131530 -26.138184 -4.902867 27.809432 1.269189 1.748025 0.031700 -0.007169 -58.359500 0 0 1
-6.783330 -26.357784 -5.301367 27.728159 1.318907 1.763171 0.026625 -0.002023 681303.000000 0 0 1
-6.064030 -25.152184 -5.927967 26.543278 1.334218 1.796028 0.022660 -0.004348 69042.700000 0 0 1
-6.686630 -24.796684 -7.158367 26.661372 1.307403 1.842624 0.026893 -0.010409 23826.200000 0 0 1
-5.981330 -23.758384 -7.793467 25.709439 1.324165 1.878779 0.008561 -0.004118 -176446.000000 0 0 1
-6.104430 -23.620584 -9.335167 26.121665 1.317893 1.936250 0.015926 -0.006810 -42299.000000 0 0 1
-5.600030 -24.809184 -9.980767 27.321633 1.348793 1.944758 -0.007030 -0.003915 -61988.000000 0 0 1
-5.859030 -24.831084 -11.364367 27.929550 1.339079 1.989848 -0.010928 0.002669 140696.000000 0 0 1
-7.300030 -25.184384 -11.829767 28.766074 1.288665 1.994611 -0.006459 -0.002345 -88467.500000 0 0 1
-7.371730 -25.543284 -13.211167 29.687315 1.289833 2.031982 0.002392 -0.001380 20600.800000 0 0 1
-8.584830 -26.061384 -13.734067 30.684192 1.252583 2.034870 0.007538 -0.002684 -413023.000000 0 0 1
-8.831030 -26.048684 -15.234367 31.442121 1.243936 2.076612 0.008059 -0.008215 177736.000000 0 0 1
-7.948330 -26.893684 -15.942067 32.258265 1.283430 2.087712 0.003841 -0.008717 2839390.000000 0 0 1
-6.547730 -26.411784 -16.195967 31.666456 1.327786 2.107673 0.008051 -0.006112 2636650.000000 0 0 1
-5.644030 -27.387884 -16.981667 32.715872 1.367564 2.116553 0.001214 -0.001767 -34300.700000 0 0 1
-5.593430 -27.255884 -18.367467 33.339668 1.368387 2.154262 0.026960 -0.004275 546396.000000 0 0 1
-4.540330 -27.984884 -19.032967 34.147066 1.409956 2.162026 0.017432 -0.008829 481083.000000 0 0 1
-24.258630 14.676754 -5.932944 28.967016 -0.544096 1.777073 -0.017103 -0.003915 -202114.000000 0 0 1
-24.583230 13.434554 -5.416844 28.533570 -0.500146 1.761797 -0.030926 0.004772 306133.000000 0 0 1
-23.401530 12.678954 -5.264844 27.131274 -0.496526 1.766086 -0.014822 -0.004183 -447876.000000 0 0 1
-23.606230 11.192254 -4.781844 26.559116 -0.442732 1.751829 -0.002410 -0.004505 -276434.000000 0 0 1
-24.161930 10.224254 -5.626144 26.832587 -0.400307 1.782040 0.007824 -0.012317 956710.000000 0 0 1
-25.572900 10.346654 -5.856044 28.201413 -0.384461 1.779969 -0.000643 -0.011500 363924.000000 0 0 1
-26.036340 9.701454 -7.173244 28.696073 -0.356675 1.823449 0.021552 -0.011885 -391073.000000 0 0 1
-25.622040 10.422354 -8.293444 28.877250 -0.386331 1.862095 0.038573 -0.001692 -78600.400000 0 0 1
-25.856120 9.747954 -9.513844 29.224557 -0.360530 1.902382 0.057772 -0.014961 -765600.000000 0 0 1
-26.166350 10.672054 -10.719644 30.223854 -0.387259 1.933363 0.026429 -0.009169 -315948.000000 0 0 1
-25.169780 11.614354 -11.003444 29.824265 -0.432327 1.948667 0.028247 -0.009797 76436.200000 0 0 1
-25.431000 12.206854 -12.255644 30.756200 -0.447519 1.980652 0.021677 -0.012305 706421.000000 0 0 1
-24.319630 13.279654 -12.663844 30.465826 -0.499803 1.999480 0.025161 -0.012380 354502.000000 0 0 1
-24.126230 14.325954 -11.716344 30.406917 -0.535842 1.966349 0.019689 -0.009283 877847.000000 0 0 1
-23.114430 15.249354 -12.187844 30.254970 -0.583187 1.985411 0.016809 -0.008717 345276.000000 0 0 1
-23.334430 16.706454 -11.607644 30.957044 -0.621355 1.955150 0.013279 -0.002931 -215372.000000 0 0 1
-22.469030 17.097954 -10.579444 30.151649 -0.650476 1.929301 0.001410 0.004188 -197617.000000 0 0 1
-22.638930 18.424654 -10.197844 30.919007 -0.683128 1.906914 -0.010459 0.010514 -210612.000000 0 0 1
-21.796930 18.879354 -9.016344 30.213087 -0.713794 1.873838 -0.009861 0.016010 -297918.000000 0 0 1
-22.213530 18.437454 -7.761844 29.893592 -0.692774 1.833455 -0.002919 0.009971 -625799.000000 0 0 1
-23.242730 19.132154 -7.164744 30.945070 -0.688696 1.804447 -0.014339 0.000276 -775766.000000 0 0 1
-23.655230 18.526954 -5.821544 30.605690 -0.664417 1.762174 -0.024247 0.001930 -526711.000000 0 0 1
-22.711530 18.573654 -4.807344 29.730536 -0.685505 1.733207 0.002848 -0.018396 -359217.000000 0 0 1
-23.210630 18.199154 -3.520244 29.704118 -0.664962 1.689586 -0.021355 -0.010603 -5051.620000 0 0 1
-22.069830 17.739754 -2.597544 28.434547 -0.677054 1.662276 -0.006779 -0.029122 -276855.000000 0 0 1
-21.119830 18.730754 -2.293344 28.322213 -0.725519 1.651858 0.003066 -0.032015 380888.000000 0 0 1
-20.206530 18.365654 -1.266344 27.335045 -0.737709 1.617140 0.036569 -0.042320 357122.000000 0 0 1
-19.232430 19.431254 -0.741344 27.349764 -0.790541 1.597906 0.035563 -0.041663 -59912.800000 0 0 1
-19.960430 20.330854 0.048656 28.491485 -0.794592 1.569089 0.013932 -0.036954 210806.000000 0 0 1
-19.230430 21.468554 0.336456 28.823973 -0.840335 1.559123 0.022014 -0.040906 129935.000000 0 0 1
-20.087730 22.308054 1.342656 30.049441 -0.837722 1.526100 0.007438 -0.028734 310782.000000 0 0 1
-20.120130 22.011854 2.736956 29.947158 -0.830268 1.479276 0.010115 -0.024877 -322478.000000 0 0 1
-21.256830 22.506754 3.357556 31.139685 -0.813951 1.462764 -0.009527 -0.019496 -644610.000000 0 0 1
-21.225730 22.110054 4.851156 31.030949 -0.805802 1.413820 -0.005166 -0.008826 -122213.000000 0 0 1
-20.259630 22.807354 5.625956 31.020628 -0.844487 1.388425 -0.006824 -0.000842 -94454.800000 0 0 1
-19.831330 22.179754 6.783256 30.516155 -0.841240 1.346640 -0.000617 0.006005 -413924.000000 0 0 1
-20.661030 22.103554 8.096456 31.320885 -0.819117 1.309327 -0.015462 -0.002638 -798871.000000 0 0 1
-21.834830 21.362954 7.939456 31.562170 -0.774475 1.316515 -0.004526 0.003518 168970.000000 0 0 1
-22.402030 20.764254 9.104056 31.873014 -0.747475 1.281127 0.006522 -0.003920 -61099.100000 0 0 1
-22.911530 21.555154 10.307356 33.102937 -0.754904 1.254159 -0.002275 -0.005843 66823.700000 0 0 1
-24.006730 22.447854 9.981556 34.349100 -0.751854 1.275951 0.005440 -0.004540 1042460.000000 0 0 1
-24.125330 23.381754 11.047656 35.366491 -0.769748 1.253103 0.008988 -0.000123 -182301.000000 0 0 1
-25.209300 24.456154 10.939356 36.786978 -0.770235 1.268859 0.015162 -0.016765 -79244.800000 0 0 1
-25.560310 24.967954 12.228656 37.765966 -0.773675 1.241052 0.006740 -0.016141 -82717.900000 0 0 1
-26.549560 25.976054 12.181556 39.089958 -0.774480 1.253890 0.004166 -0.015878 -115925.000000 0 0 1
-26.960200 26.294354 13.614556 40.044994 -0.772896 1.223899 0.006366 -0.012780 857441.000000 0 0 1
-25.809130 26.457854 14.487956 39.699245 -0.797809 1.197225 -0.002306 -0.009747 989716.000000 0 0 1
-26.261570 26.837354 15.772556 40.726983 -0.796241 1.173122 0.008675 -0.016122 703428.000000 0 0 1
-25.099380 26.772954 16.838856 40.377184 -0.817650 1.140611 0.012791 -0.024389 415140.000000 0 0 1
-24.852030 25.498954 17.277256 39.576807 -0.798246 1.119036 0.024133 -0.022057 -102151.000000 0 0 1
-23.852530 25.674054 18.248356 39.510793 -0.822160 1.090708 0.026207 -0.019665 -324118.000000 0 0 1
-23.527730 24.380154 18.970156 38.830565 -0.803189 1.060384 0.033545 -0.011186 -59739.400000 0 0 1
-22.484230 24.477254 19.929856 38.754041 -0.827812 1.030646 0.032725 -0.017313 546252.000000 0 0 1
-22.028930 23.179654 20.316356 37.885676 -0.810846 1.004803 0.037766 -0.009319 578657.000000 0 0 1
-20.467830 23.157654 20.443056 37.055736 -0.846977 0.986414 0.032904 -0.025266 -88058.600000 0 0 1
-19.827830 23.189754 19.184556 36.041014 -0.863392 1.009484 0.033587 -0.025510 365989.000000 0 0 1
-18.427530 22.965254 19.171456 35.135758 -0.894588 0.993644 0.025393 -0.031848 407277.000000 0 0 1
-17.992530 21.463854 19.301856 34.014553 -0.873151 0.967380 0.027423 -0.022366 -712709.000000 0 0 1
-18.413630 20.826854 20.507656 34.545384 -0.846819 0.935217 0.040846 -0.020593 208605.000000 0 0 1
-17.695530 21.173954 21.697156 35.103201 -0.874650 0.904478 0.043282 -0.016860 -207806.000000 0 0 1
-18.518330 20.752354 22.932556 36.048452 -0.842225 0.881286 0.030839 -0.007321 409124.000000 0 0 1
-19.644230 21.615454 23.177456 37.286970 -0.833138 0.900017 0.035876 -0.010711 409054.000000 0 0 1
-20.268430 21.212854 24.366856 38.138407 -0.808162 0.877721 0.039591 -0.001203 -623788.000000 0 0 1
-21.342130 22.185054 24.823656 39.545885 -0.804761 0.892178 0.033646 -0.004464 -632468.000000 0 0 1
-20.834130 23.418854 25.294256 40.277824 -0.843740 0.891823 0.030898 -0.010848 221248.000000 0 0 1
-21.897030 24.260554 25.683356 41.565481 -0.836559 0.904726 0.023497 -0.017917 184075.000000 0 0 1
-22.745830 24.882254 24.513256 41.682119 -0.830225 0.942089 0.019409 -0.015596 393276.000000 0 0 1
-23.788630 24.064154 23.988056 41.477816 -0.791156 0.954111 0.026985 -0.016310 313003.000000 0 0 1
-24.527630 24.793554 23.004656 41.779650 -0.790790 0.987691 0.027393 -0.013182 200739.000000 0 0 1
-25.641310 23.907454 22.374956 41.589443 -0.750420 1.002738 0.031787 -0.009274 -382629.000000 0 0 1
-26.771910 23.861854 23.194056 42.709337 -0.727989 0.996710 0.011757 -0.010628 -504304.000000 0 0 1
-27.643460 22.853654 22.694056 42.443734 -0.690828 1.006661 0.021098 -0.010646 -30777.600000 0 0 1
-29.099120 23.034654 23.158656 43.745599 -0.669594 1.012910 0.026049 -0.003534 -500736.000000 0 0 1
-29.741740 24.154054 22.474956 44.419737 -0.682092 1.040293 0.013934 -0.001279 960954.000000 0 0 1
-31.158700 24.160854 22.727056 45.509675 -0.659568 1.047902 -0.008663 -0.003518 1318400.000000 0 0 1
-32.079040 23.218254 21.865156 45.235353 -0.626510 1.066303 -0.009524 -0.002833 -527841.000000 0 0 1
-31.795420 21.806954 22.116656 44.448155 -0.601167 1.049986 -0.011720 0.003408 357801.000000 0 0 1
-32.310230 21.004954 21.079656 43.926199 -0.576447 1.070269 -0.017770 0.019376 1622150.000000 0 0 1
-33.893410 20.857454 20.917656 44.959370 -0.551654 1.086872 -0.020499 0.015924 1490460.000000 0 0 1
-34.482618 20.015854 19.934856 44.576719 -0.525930 1.107160 -0.007813 0.020566 -1166110.000000 0 0 1
34.241397 20.179254 19.882256 44.440743 0.532532 1.106954 -0.020594 0.004924 -1283470.000000 0 0 1
33.700325 19.472954 18.625356 43.148716 0.523956 1.124470 0.005221 0.006375 -509844.000000 0 0 1
33.704095 18.091954 18.818456 42.631199 0.492643 1.113611 0.016407 0.007506 290481.000000 0 0 1
33.312605 17.410154 17.657856 41.528821 0.481587 1.131619 0.016232 -0.001337 -12619.900000 0 0 1
33.633305 15.861354 17.700156 41.183459 0.440668 1.126538 0.012841 -0.005385 -244711.000000 0 0 1
33.048345 15.214554 16.626956 40.001643 0.431446 1.142131 0.015973 -0.012669 -8991.970000 0 0 1
33.434525 13.854054 16.527756 39.786543 0.392827 1.142402 0.010877 -0.014072 264952.000000 0 0 1
32.555725 13.100254 15.462356 38.348094 0.382569 1.155774 0.007695 -0.010284 193340.000000 0 0 1
32.955605 13.427954 14.152056 38.297030 0.386917 1.192289 0.013043 -0.016453 -156258.000000 0 0 1
32.120835 12.842954 13.180356 37.019067 0.380362 1.206767 0.024856 -0.018735 -474061.000000 0 0 1
32.367345 13.216254 11.714856 36.872106 0.387659 1.247477 0.037511 -0.012884 6952.320000 0 0 1
33.635015 12.766254 11.268056 37.699609 0.362756 1.267266 0.039268 -0.015561 -3583.610000 0 0 1
33.840385 13.014954 9.919156 37.589232 0.367159 1.303751 0.033952 -0.011709 -95771.900000 0 0 1
-34.996498 12.495254 9.174356 38.276038 -0.342935 1.328751 0.044402 -0.008683 -206515.000000 0 0 1
-34.892306 11.087954 8.975156 37.695744 -0.307685 1.330393 0.032666 -0.002281 337636.000000 0 0 1
-33.593090 10.643354 8.578556 36.268006 -0.306826 1.332001 0.011663 -0.001646 627383.000000 0 0 1
-33.195620 10.807954 7.091656 35.623765 -0.314760 1.370387 0.028773 0.006291 -76403.100000 0 0 1
-33.115660 12.188954 6.677756 35.913924 -0.352683 1.383770 0.047022 0.003760 -1123.460000 0 0 1
-32.888620 12.256654 5.266456 35.491160 -0.356728 1.421858 0.026486 -0.006053 -38468.600000 0 0 1
-33.948850 13.236254 4.691756 36.738745 -0.371759 1.442741 0.046792 -0.009277 -339066.000000 0 0 1
34.854254 12.659354 4.774656 37.388174 0.348393 1.442742 0.052971 -0.010381 -818919.000000 0 0 1
33.795105 13.545654 4.614856 36.700010 0.381211 1.444717 0.040766 -0.009487 -120473.000000 0 0 1
33.419575 14.312054 5.959956 36.840520 0.404623 1.408305 0.046732 -0.001829 -845153.000000 0 0 1
32.509905 15.387354 5.744856 36.423453 0.442071 1.412411 0.034877 0.000098 482873.000000 0 0 1
31.918905 15.976054 6.910356 36.356620 0.464064 1.379561 0.027232 0.001122 126018.000000 0 0 1
30.696035 15.225054 7.462956 35.067714 0.460438 1.356341 0.037944 -0.002765 -408764.000000 0 0 1
31.067835 14.031654 8.210956 35.064476 0.424222 1.334434 0.042175 0.001597 323584.000000 0 0 1
30.067845 13.027054 8.150556 33.767010 0.408842 1.327012 0.059437 0.003854 -221634.000000 0 0 1
30.224605 12.029654 6.977056 33.270387 0.378789 1.359520 0.063568 -0.001732 -217779.000000 0 0 1
29.851575 12.482154 5.690256 32.852697 0.396046 1.396713 0.045892 -0.006113 75561.900000 0 0 1
30.163225 11.632454 4.586056 32.652198 0.368075 1.429879 0.060531 -0.010119 -15620.800000 0 0 1
29.343325 11.931254 3.307256 31.848445 0.386191 1.466765 0.026117 -0.020765 56800.000000 0 0 1
28.075855 11.332754 3.157156 30.440969 0.383647 1.466895 0.013819 -0.005741 110664.000000 0 0 1
27.493345 11.729054 1.926956 29.952761 0.403237 1.506419 0.018083 -0.003092 -408618.000000 0 0 1
26.088815 11.142954 1.774656 28.424304 0.403662 1.508321 0.042410 0.005956 -412627.000000 0 0 1
26.109325 9.721454 1.779456 27.917198 0.356433 1.507013 -0.001349 -0.011231 681362.000000 0 0 1
24.808765 9.128554 1.659156 26.486942 0.352582 1.508115 0.002817 -0.016514 -174939.000000 0 0 1
24.763065 7.538254 1.636056 25.936679 0.295503 1.507676 0.008727 -0.015240 -350390.000000 0 0 1
25.272585 6.891654 2.788156 26.343353 0.266220 1.464759 0.017903 -0.008544 -358428.000000 0 0 1
26.660685 6.895454 2.827556 27.682747 0.253091 1.468476 0.032568 -0.016643 -1174030.000000 0 0 1
27.323985 6.277254 4.064956 28.328924 0.225816 1.426808 0.041334 -0.021119 -270023.000000 0 0 1
28.719565 6.468954 4.123556 29.726495 0.221548 1.431631 0.060729 -0.015314 85213.600000 0 0 1
29.184795 5.766254 5.235856 30.206227 0.195065 1.396579 0.049893 -0.005531 539413.000000 0 0 1
30.682505 5.965954 5.647656 31.763261 0.192045 1.392041 0.070441 -0.002790 737001.000000 0 0 1
30.910265 7.226354 6.235156 32.350299 0.229660 1.376844 0.082227 -0.019303 -84507.300000 0 0 1
32.273785 7.321154 6.605356 33.746514 0.223070 1.373790 0.038505 -0.005266 150286.000000 0 0 1
32.537185 8.585254 7.477056 34.471457 0.257980 1.352153 0.056611 -0.015934 -134091.000000 0 0 1
31.874225 8.579554 8.689456 34.133292 0.262937 1.313389 0.056407 -0.014795 -24525.200000 0 0 1
32.431615 9.516654 9.616256 35.140414 0.285425 1.293608 0.036626 -0.008954 27993.000000 0 0 1
31.803155 9.434354 11.066756 34.970284 0.288379 1.248799 0.027603 -0.005896 -379916.000000 0 0 1
30.472065 9.851554 11.231956 33.937541 0.312692 1.233476 0.038315 0.001050 -79306.500000 0 0 1
29.929785 9.432154 12.505056 33.780675 0.305291 1.191590 0.031849 -0.001635 -905884.000000 0 0 1
28.435935 9.663154 12.538356 32.545189 0.327579 1.175307 0.035083 -0.009241 -942046.000000 0 0 1
27.996525 11.045954 12.560056 32.612475 0.375797 1.175447 0.034029 -0.004818 117036.000000 0 0 1
28.107575 11.825854 11.360256 32.541389 0.398253 1.214184 0.046373 -0.013940 34900.200000 0 0 1
26.958305 11.821254 10.270356 31.176473 0.413251 1.235100 0.039234 -0.014077 371671.000000 0 0 1
27.085375 12.960854 9.430956 31.472912 0.446315 1.266467 0.032341 0.002233 -273178.000000 0 0 1
26.091175 13.068054 8.453356 30.380630 0.464336 1.288826 0.019816 0.005344 -423432.000000 0 0 1
26.203845 14.252654 7.445356 30.744316 0.498159 1.326194 0.010300 0.007350 -112622.000000 0 0 1
25.947665 15.508954 8.032656 31.278308 0.538728 1.311074 0.016845 0.012864 247146.000000 0 0 1
26.056285 16.612254 7.176556 31.723807 0.567575 1.342601 0.012300 0.017278 -981356.000000 0 0 1
25.781725 17.981854 7.862856 32.401681 0.609023 1.325681 0.014603 0.008322 467342.000000 0 0 1
24.464665 18.472954 8.137456 31.717315 0.646749 1.311333 0.022086 0.004470 752955.000000 0 0 1
23.621465 17.513954 8.830956 30.703387 0.638002 1.279054 0.028289 0.009697 -284413.000000 0 0 1
22.306365 18.280754 9.161156 30.260315 0.686537 1.263225 0.031669 0.007710 935267.000000 0 0 1
21.395065 18.473354 8.011856 29.380324 0.712245 1.294604 0.029332 0.008697 764791.000000 0 0 1
20.363365 19.382554 8.298256 29.312303 0.760726 1.283774 0.054713 -0.001895 485029.000000 0 0 1
19.519265 19.925354 7.090856 28.780231 0.795693 1.321854 0.043977 -0.001134 196337.000000 0 0 1
20.344965 20.574554 6.173556 29.586190 0.791009 1.360588 0.038420 0.003471 -232308.000000 0 0 1
19.619565 21.206754 5.136456 29.343431 0.824255 1.394844 0.030652 0.005722 15284.200000 0 0 1
16.987570 17.662554 32.804743 40.947460 0.804876 0.641595 0.030877 0.005442 -298291.000000 0 0 1
16.128770 18.373654 31.975713 40.251393 0.850371 0.652777 0.033604 -0.005190 -147569.000000 0 0 1
15.677570 17.546254 30.949713 38.878554 0.841584 0.650037 0.029263 0.001005 190193.000000 0 0 1
15.146570 18.326654 29.714223 38.055484 0.880118 0.674830 0.032940 -0.000438 747957.000000 0 0 1
16.303570 18.835654 29.039183 38.260455 0.857332 0.709041 0.031433 -0.001305 679243.000000 0 0 1
16.007370 19.043954 27.667033 37.207161 0.871815 0.732366 0.047120 -0.012341 -595531.000000 0 0 1
17.223070 19.339754 26.810973 37.275843 0.843225 0.768062 0.038709 -0.001889 -620197.000000 0 0 1
17.789270 20.596854 27.126263 38.425547 0.858409 0.787042 0.049215 -0.012126 84162.300000 0 0 1
18.910270 20.863554 26.308153 38.535764 0.834469 0.819353 0.036201 -0.006096 84742.600000 0 0 1
19.538370 22.246654 26.615353 39.812542 0.850122 0.838584 0.040212 -0.015051 -153493.000000 0 0 1
18.608470 23.210354 26.219513 39.654238 0.895001 0.848375 0.033280 -0.015464 155759.000000 0 0 1
19.069870 24.487654 26.666043 40.919225 0.909145 0.861005 0.028771 -0.011489 -393316.000000 0 0 1
18.297770 25.754254 26.404003 41.173552 0.953074 0.874624 0.041807 -0.010464 -490924.000000 0 0 1
18.232670 26.191754 25.072813 40.584285 0.962677 0.904859 0.041940 -0.010770 234363.000000 0 0 1
17.239270 27.173654 24.866443 40.668660 1.005458 0.912917 0.047867 -0.017898 -185834.000000 0 0 1
17.381370 27.970854 23.571033 40.497831 1.014783 0.949571 0.025292 -0.021529 -499590.000000 0 0 1
18.692870 28.446354 23.435633 41.326110 0.989427 0.967828 0.031060 -0.023660 -163436.000000 0 0 1
18.607270 29.471054 22.484833 41.476997 1.007626 0.997858 0.028541 -0.028276 -316248.000000 0 0 1
19.874970 30.288354 22.288933 42.534637 0.990081 1.019234 0.034909 -0.029180 -1014990.000000 0 0 1
20.768470 29.814654 21.383733 42.160491 0.962365 1.038865 0.029041 -0.029165 -1524480.000000 0 0 1
21.977070 30.478754 21.402533 43.243664 0.946074 1.053043 0.021822 -0.030072 -693011.000000 0 0 1
22.596670 30.659754 20.049133 43.041814 0.935658 1.086251 0.017460 -0.027627 -246261.000000 0 0 1
21.829470 31.550154 19.279533 42.937610 0.965529 1.105136 0.008904 -0.018573 98873.500000 0 0 1
21.990870 31.242954 17.935933 42.206851 0.957480 1.131886 0.015752 -0.000763 -343078.000000 0 0 1
21.666170 32.384054 16.994633 42.508440 0.981154 1.159504 0.015257 -0.016559 25300.900000 0 0 1
22.440370 33.553654 17.272633 43.906284 0.981325 1.166472 0.021886 -0.016320 136230.000000 0 0 1
22.573370 34.543054 16.224933 44.339915 0.991975 1.196173 0.023151 -0.018022 231150.000000 0 0 1
23.485170 34.308054 14.940833 44.179455 0.970523 1.225809 0.009469 -0.009233 259013.000000 0 0 1
23.118370 33.147854 14.175033 42.827221 0.961796 1.233452 0.021014 -0.010474 107281.000000 0 0 1
21.932370 33.360554 13.427533 42.121895 0.989213 1.246356 0.014450 -0.012210 73524.400000 0 0 1
21.643870 32.039754 12.634633 40.677228 0.976681 1.254965 0.028655 -0.021131 -14893.200000 0 0 1
22.639670 31.800354 11.649933 40.737429 0.952108 1.280771 0.038245 -0.031114 309210.000000 0 0 1
22.260870 30.618654 10.917533 39.398488 0.942155 1.290016 0.038236 -0.024532 -1156020.000000 0 0 1
23.327970 30.073654 9.996433 39.351589 0.911052 1.313953 0.032290 -0.024413 -165114.000000 0 0 1
24.377170 29.330354 10.594733 39.582376 0.877363 1.299830 0.026339 -0.016459 965125.000000 0 0 1
25.275270 29.996854 11.517433 40.881558 0.870616 1.285203 0.023780 -0.024391 -72266.000000 0 0 1
26.679870 29.360254 11.677633 41.354650 0.833191 1.284524 0.025845 -0.021612 215466.000000 0 0 1
26.738070 28.400054 12.686833 41.017596 0.815531 1.256337 0.027647 -0.012886 -402703.000000 0 0 1
27.927770 27.681654 12.806333 41.355005 0.780972 1.255952 0.026188 0.007814 -311981.000000 0 0 1
27.958470 26.772554 14.083733 41.192199 0.763733 1.221855 0.011073 -0.010883 -325279.000000 0 0 1
28.251970 27.431354 15.265333 42.233676 0.770662 1.200975 -0.004635 -0.011194 18395.900000 0 0 1
28.785070 26.550754 16.221833 42.387152 0.745043 1.178072 0.016417 -0.017839 71935.800000 0 0 1
29.782270 27.068054 17.297033 43.804686 0.737691 1.164873 0.013342 -0.026665 1665010.000000 0 0 1
31.120270 27.260054 16.748333 44.632818 0.719372 1.186133 0.028726 -0.018701 798891.000000 0 0 1
32.136970 27.161254 17.682333 45.641905 0.701684 1.172971 -0.000620 -0.011406 274762.000000 0 0 1
33.588370 27.015654 17.140533 46.387736 0.677367 1.192319 -0.006867 -0.028731 605466.000000 0 0 1
33.955170 28.134554 16.288033 47.008581 0.691926 1.216969 0.012041 -0.022436 360984.000000 0 0 1
-34.729724 28.287954 16.038733 47.577337 -0.683530 1.226952 0.019098 -0.023321 427624.000000 0 0 1
-34.518224 29.268754 14.885633 47.641892 -0.703286 1.253027 0.012122 -0.020005 81238.100000 0 0 1
35.009570 30.504154 15.300433 48.890456 0.716736 1.252495 0.015847 -0.017278 -66036.400000 0 0 1
35.031870 31.534854 14.313433 49.260058 0.732912 1.275975 0.001273 0.009973 -166782.000000 0 0 1
34.021170 32.634554 14.649533 49.366618 0.764599 1.269509 -0.013739 0.008531 -609101.000000 0 0 1
33.852070 33.633954 13.635833 49.630046 0.782166 1.292467 -0.031763 0.013354 166698.000000 0 0 1
32.630170 34.341754 13.659533 49.301794 0.810949 1.290064 -0.028697 0.026811 389400.000000 0 0 1
31.318270 33.630654 13.256733 47.828819 0.820986 1.289948 -0.016442 0.023494 -212316.000000 0 0 1
30.863670 32.698554 14.199833 47.152909 0.814258 1.264904 -0.016109 -0.002142 -821894.000000 0 0 1
29.788370 32.019954 13.665633 45.818926 0.821487 1.267934 0.004130 -0.001715 -935450.000000 0 0 1
29.153370 30.998154 14.656433 45.006839 0.816057 1.239098 0.008546 -0.003332 -109629.000000 0 0 1
28.510370 31.643054 15.722533 45.401785 0.837429 1.217175 -0.001121 -0.009369 -179667.000000 0 0 1
28.348270 30.637554 16.685833 44.952210 0.824189 1.190506 0.001984 -0.011174 -215991.000000 0 0 1
27.384970 31.188854 17.753133 45.142607 0.850249 1.166613 -0.002171 -0.009623 -171364.000000 0 0 1
27.028070 30.250154 18.776633 44.700675 0.841592 1.137293 -0.010432 -0.006680 96790.500000 0 0 1
27.759970 30.461154 19.977333 45.799472 0.831760 1.119435 -0.005639 -0.014639 99728.700000 0 0 1
27.442370 29.397654 21.096333 45.413225 0.819784 1.087679 0.019154 -0.024557 239788.000000 0 0 1
26.187370 29.526054 21.738533 45.056964 0.845253 1.067326 0.016415 -0.027453 249085.000000 0 0 1
26.256370 28.706154 22.872133 45.128425 0.829941 1.039301 0.012154 -0.023977 540737.000000 0 0 1
24.869070 28.634954 23.590433 44.664749 0.855667 1.014356 0.029730 -0.022710 612134.000000 0 0 1
23.803670 27.984154 22.887333 43.284612 0.865947 1.013653 0.032843 -0.021705 241727.000000 0 0 1
22.676670 27.803454 23.715033 43.007746 0.886612 0.986739 0.032209 -0.025215 -208224.000000 0 0 1
22.654770 26.593554 24.640273 42.750424 0.865206 0.956511 0.041969 -0.025331 -568390.000000 0 0 1
23.573970 26.608554 25.720793 43.878314 0.845796 0.944455 0.029711 -0.021372 40775.300000 0 0 1
23.227370 25.613754 26.691013 43.680491 0.834219 0.913409 0.031558 -0.015130 635351.000000 0 0 1
24.323670 25.452454 27.858393 44.894971 0.808071 0.901386 0.050971 -0.017154 982664.000000 0 0 1
24.776470 26.635754 28.473433 46.196031 0.821547 0.906683 0.026627 -0.015585 457373.000000 0 0 1
25.580070 27.563354 27.734953 46.725861 0.822700 0.935312 0.019498 -0.003139 -460889.000000 0 0 1
25.829270 28.819254 28.534713 48.082538 0.840057 0.935454 -0.005358 -0.004945 -297463.000000 0 0 1
26.943670 28.673054 29.427453 49.133292 0.816483 0.928631 0.012980 -0.001449 580747.000000 0 0 1
27.034070 29.879854 30.205683 50.359010 0.835358 0.927537 0.012230 -0.006843 -135716.000000 0 0 1
28.503270 30.155554 30.564173 51.536031 0.813558 0.935937 0.006624 -0.002384 48098.000000 0 0 1
29.246270 30.511554 29.410963 51.490815 0.806569 0.962843 -0.006456 -0.002559 -525485.000000 0 0 1
30.621770 30.665754 29.618133 52.491095 0.786116 0.971271 0.007514 -0.009875 -406295.000000 0 0 1
31.320670 30.991954 28.307213 52.371594 0.780123 0.999757 0.008478 -0.012992 -687909.000000 0 0 1
31.106070 32.325154 27.962703 52.862235 0.804615 1.013406 0.000333 -0.014050 434586.000000 0 0 1
31.617470 32.543654 26.607873 52.599741 0.799832 1.040423 0.012184 -0.019389 80963.300000 0 0 1
31.318870 33.967154 26.142133 53.085311 0.825940 1.055888 0.009164 -0.016518 -92921.300000 0 0 1
32.140070 -34.468084 26.870823 54.250106 -0.820335 1.052600 0.016402 -0.020276 516710.000000 0 0 1
31.619570 -33.153784 26.745673 53.049992 -0.809080 1.042388 0.014068 -0.017491 -20512.300000 0 0 1
32.574070 -32.122684 27.428213 53.340826 -0.778421 1.030714 0.006392 -0.015217 232441.000000 0 0 1
32.464770 -31.982984 28.844163 53.933833 -0.777923 1.006518 0.008282 -0.012310 211268.000000 0 0 1
33.621470 -31.350584 29.312573 54.520540 -0.750461 1.003157 0.008656 -0.022851 -351229.000000 0 0 1
33.378470 -30.888784 30.790503 54.920800 -0.746678 0.975644 0.018818 -0.019991 -138411.000000 0 0 1
33.329670 -31.933784 31.716983 56.005361 -0.764013 0.968762 0.017881 -0.015698 864629.000000 0 0 1
32.005570 -32.466184 31.889023 55.635595 -0.792542 0.960419 0.016596 -0.016258 373923.000000 0 0 1
31.934170 -33.401984 33.065403 56.822571 -0.807860 0.949726 0.016689 -0.013395 -425861.000000 0 0 1
32.044770 -32.705184 34.272570 57.193578 -0.795597 0.928247 0.005876 -0.019579 155398.000000 0 0 1
32.159370 -33.561384 -33.730804 57.431339 -0.806728 2.198545 0.006545 -0.019231 -346423.000000 0 0 1
31.120870 -34.654284 -33.411694 57.321630 -0.839066 2.193066 0.002845 -0.020567 -390142.000000 0 0 1
31.439470 33.587454 -34.245346 57.352428 0.818418 2.210682 0.014856 -0.025021 391807.000000 0 0 1
30.696370 32.376454 -34.034334 56.114506 0.812029 2.222467 0.016396 -0.019700 -104504.000000 0 0 1
30.896670 31.365854 33.955518 55.600344 0.792934 0.913843 0.010522 -0.009615 1209800.000000 0 0 1
32.228970 30.763954 33.939378 56.009006 0.762146 0.919821 0.011830 -0.016783 1402210.000000 0 0 1
32.369170 29.946354 32.743903 54.924589 0.746538 0.932085 0.006903 -0.009399 913613.000000 0 0 1
33.764870 29.192754 32.711083 55.338037 0.712903 0.938357 0.000348 -0.004821 915488.000000 0 0 1
33.908670 28.142354 33.626458 55.430395 0.692736 0.918965 -0.002329 0.002005 -153981.000000 0 0 1
-34.871124 27.718954 33.913378 55.986185 -0.671622 0.920094 -0.010004 0.000125 -294931.000000 0 0 1
-34.929324 26.461954 -34.360003 55.685747 -0.648338 2.235764 -0.006619 0.003287 47117.100000 0 0 1
34.961470 25.361254 33.957535 54.941895 0.627574 0.904520 -0.011812 0.004598 -15035.300000 0 0 1
34.711170 24.205854 -34.431235 54.555464 0.608946 2.253797 -0.003571 -0.003073 -308909.000000 0 0 1
34.209870 23.053054 33.854258 53.365432 0.592974 0.883583 -0.008660 -0.001034 -471538.000000 0 0 1
-34.945824 22.226354 33.201900 53.080953 -0.566487 0.895030 -0.004430 -0.007649 113032.000000 0 0 1
34.458270 21.406754 32.270613 51.836415 0.555889 0.898803 -0.003044 -0.002182 143627.000000 0 0 1
-34.593524 20.564154 31.534793 51.127679 -0.536329 0.906144 -0.007299 -0.007085 204352.000000 0 0 1
-33.761724 21.260154 30.584333 50.271757 -0.561980 0.916779 -0.012024 -0.011172 577431.000000 0 0 1
-32.578924 20.569354 30.213813 48.962834 -0.563167 0.905774 0.000850 -0.013150 295331.000000 0 0 1
-32.854924 19.559054 29.092683 48.045675 -0.536968 0.920375 0.004302 -0.010901 62215.500000 0 0 1
-33.881224 18.568454 29.294653 48.486096 -0.501341 0.922052 -0.002579 -0.005686 720985.000000 0 0 1
-34.109724 17.814954 28.150913 47.679343 -0.481315 0.939215 -0.008652 -0.005024 55206.700000 0 0 1
-34.860124 16.452654 28.388733 47.873147 -0.440967 0.936018 -0.017729 -0.004013 2076.820000 0 0 1
-34.113224 15.506454 29.152193 47.476442 -0.426638 0.909634 -0.006637 -0.004369 178668.000000 0 0 1
-34.809224 14.286654 29.380093 47.738668 -0.389463 0.907857 0.002676 -0.006090 -239201.000000 0 0 1
-33.999024 13.106854 29.948243 47.165883 -0.367950 0.882845 -0.000477 0.004152 -177785.000000 0 0 1
-33.352424 13.434354 31.200553 47.606098 -0.382918 0.856098 -0.005718 0.007109 760827.000000 0 0 1
-32.491124 12.366054 31.612493 46.988745 -0.363669 0.832853 -0.001940 0.012058 1268180.000000 0 0 1
-30.933024 12.570154 31.497243 45.901384 -0.385983 0.814553 -0.009139 0.011447 55832.100000 0 0 1
-30.501124 12.492654 30.177783 44.688741 -0.388738 0.829441 -0.000126 0.008516 1156010.000000 0 0 1
-29.132824 12.928754 29.965133 43.746809 -0.417675 0.816238 0.023391 0.005528 1398650.000000 0 0 1
-28.007124 11.969854 30.431453 43.055194 -0.403890 0.785831 0.018212 0.008569 -506407.000000 0 0 1
-27.786724 10.916954 29.512593 41.979460 -0.374357 0.791155 0.010430 -0.001242 -951080.000000 0 0 1
-26.688824 10.187154 29.854763 41.320435 -0.364633 0.763359 0.010201 -0.002061 -1042250.000000 0 0 1
-26.189224 8.998654 28.963673 40.071756 -0.330963 0.762958 0.013719 -0.004236 602944.000000 0 0 1
-26.931024 7.767654 29.096753 40.400960 -0.280807 0.766706 0.012672 -0.005650 262714.000000 0 0 1
-28.243524 7.756854 28.568303 40.914709 -0.268033 0.797860 0.013596 -0.000088 184746.000000 0 0 1
-28.912924 6.350854 28.558883 41.132716 -0.216221 0.803335 0.013974 0.003226 -195197.000000 0 0 1
-29.275824 5.859854 29.832893 42.206792 -0.197550 0.785794 0.013578 0.002487 -60344.500000 0 0 1
-29.826024 4.574654 29.678783 42.324335 -0.152192 0.793685 0.010960 0.005755 -644622.000000 0 0 1
-30.518924 4.088054 30.931923 43.645169 -0.133159 0.783123 0.003145 0.011749 -345582.000000 0 0 1
-31.739724 4.751554 31.148973 44.724109 -0.148600 0.800331 0.000782 0.006450 -570161.000000 0 0 1
-32.174924 4.388754 32.431463 45.894299 -0.135566 0.786036 0.005942 -0.001538 534859.000000 0 0 1
-33.585324 4.911954 32.859243 47.242260 -0.145223 0.801614 0.003686 -0.001288 596601.000000 0 0 1
-33.716824 6.309654 33.035813 47.623533 -0.184997 0.804201 0.002794 0.003418 -635359.000000 0 0 1
35.020070 6.692054 33.076893 48.634039 0.188816 0.822873 -0.009738 0.012097 -328271.000000 0 0 1
34.757670 8.198654 33.309011 48.834453 0.231646 0.820193 -0.015827 0.008156 -235590.000000 0 0 1
34.864570 8.483354 -34.475941 49.760386 0.238685 2.336215 -0.005672 0.003026 226101.000000 0 0 1
34.556570 9.863454 -34.266086 49.654898 0.278036 2.332402 -0.005315 -0.000333 -194234.000000 0 0 1
34.499770 10.251854 -32.802314 48.696267 0.288847 2.309879 0.005440 -0.012292 436405.000000 0 0 1
33.362970 9.713954 -32.097614 47.304392 0.283327 2.316561 0.010360 -0.003159 749738.000000 0 0 1
33.594470 9.845054 -30.727254 46.579798 0.285074 2.291175 0.019665 0.004272 -107953.000000 0 0 1
32.343270 9.370254 -29.991594 45.093065 0.281992 2.298430 0.006301 0.006470 -106108.000000 0 0 1
32.234170 7.944254 -30.046314 44.776488 0.241639 2.306392 0.000953 0.007217 -1179400.000000 0 0 1
31.038870 7.523754 -29.565224 43.521498 0.237811 2.317638 0.008381 -0.002966 -1449890.000000 0 0 1
34.065268 6.257554 -20.036544 40.013279 0.181668 2.095258 -0.010227 -0.000573 -223560.000000 0 0 1
33.496065 7.379254 -19.326244 39.369321 0.216838 2.083914 -0.018267 0.010126 378266.000000 0 0 1
34.030007 8.659354 -19.691744 40.259043 0.249174 2.081884 -0.027452 0.004647 767834.000000 0 0 1
-34.595309 9.064554 -19.172844 40.578313 -0.256256 2.062910 -0.021104 0.008725 2158330.000000 0 0 1
-33.507640 8.241054 -19.663744 39.715736 -0.241159 2.088760 -0.001847 -0.008492 844886.000000 0 0 1
-33.153500 8.518054 -21.040044 40.179537 -0.251488 2.121927 -0.007985 -0.013593 -720744.000000 0 0 1
-32.547010 7.312254 -21.766244 39.831473 -0.220998 2.148926 -0.003355 -0.011954 173645.000000 0 0 1
-33.502270 6.281754 -22.068844 40.606605 -0.185350 2.145373 0.002468 -0.008631 105739.000000 0 0 1
-34.194102 6.445854 -23.263044 41.856359 -0.186321 2.160101 -0.000268 -0.004305 -296887.000000 0 0 1
-33.969380 5.417854 -24.368844 42.155811 -0.158160 2.187153 0.006195 -0.005479 898308.000000 0 0 1
-32.595220 5.348554 -24.818344 41.315924 -0.162641 2.215169 0.015808 -0.009188 887125.000000 0 0 1
-32.338250 4.181554 -25.468174 41.374819 -0.128593 2.233877 0.021535 -0.006198 7274.060000 0 0 1
-31.089100 4.227154 -26.385684 40.995186 -0.135140 2.270027 0.039865 -0.011854 316482.000000 0 0 1
-29.877390 4.387354 -25.674134 39.636706 -0.145803 2.275406 0.033295 -0.010863 -19594.700000 0 0 1
-28.795670 3.913354 -26.492604 39.323822 -0.135073 2.310005 0.028646 -0.009449 306579.000000 0 0 1
-27.427390 4.150254 -25.818024 37.895338 -0.150179 2.320331 0.013810 -0.014265 -150137.000000 0 0 1
-27.154870 5.516854 -25.711444 37.800806 -0.200435 2.318808 -0.006772 -0.003922 -204387.000000 0 0 1
-25.938190 5.814654 -25.074514 36.542183 -0.220528 2.327021 0.003107 -0.005251 -108050.000000 0 0 1
-25.514940 7.304854 -25.157884 36.569005 -0.278838 2.329466 -0.009777 -0.004858 -283164.000000 0 0 1
-26.258860 8.208154 -24.368144 36.751978 -0.302963 2.295673 -0.017919 0.001554 -379029.000000 0 0 1
-26.226410 9.571754 -24.834844 37.365927 -0.349945 2.297807 -0.027337 0.000055 474756.000000 0 0 1
-24.934330 10.442554 -24.534244 36.506121 -0.396609 2.307781 -0.003878 -0.000300 672012.000000 0 0 1
-24.612530 10.675654 -23.181744 35.456162 -0.409258 2.283411 -0.019607 0.006765 234258.000000 0 0 1
-23.327030 11.243754 -22.998944 34.634141 -0.449149 2.297024 0.012726 0.007265 -360376.000000 0 0 1
-23.054930 11.813154 -21.545244 33.693885 -0.473512 2.264567 0.020990 -0.015312 -816670.000000 0 0 1
-23.678730 12.943454 -21.008244 34.198853 -0.500251 2.232291 0.023995 -0.008476 -253685.000000 0 0 1
-25.049430 13.139654 -21.200144 35.349265 -0.483093 2.213965 0.001944 -0.003472 -318690.000000 0 0 1
-26.026230 12.212054 -20.395244 35.248615 -0.438723 2.187821 -0.007190 0.010974 -399639.000000 0 0 1
-25.936090 12.326854 -18.955744 34.408608 -0.443675 2.154240 0.002592 0.004857 -130810.000000 0 0 1
-26.908240 11.509554 -18.400544 34.570265 -0.404184 2.132070 0.002826 0.003071 -917670.000000 0 0 1
-26.883460 11.296954 -16.866444 33.687067 -0.397815 2.095181 0.030014 -0.000403 695460.000000 0 0 1
-25.896740 10.403754 -16.297444 32.318507 -0.382005 2.099340 0.040994 -0.008586 684966.000000 0 0 1
-24.532030 10.735054 -16.414944 31.408792 -0.412489 2.120720 0.033583 -0.001033 -927617.000000 0 0 1
-23.719530 9.575354 -15.869144 30.102047 -0.383684 2.126073 0.030283 -0.001331 -965861.000000 0 0 1
-22.343130 9.799154 -15.929844 29.137584 -0.413313 2.149228 0.029535 0.008496 -431265.000000 0 0 1
-21.639930 8.635354 -15.543144 28.007949 -0.379685 2.159105 0.030774 0.004309 -504026.000000 0 0 1
-20.131730 8.885454 -15.559344 26.950529 -0.415650 2.186251 0.035929 0.004126 -490225.000000 0 0 1
-19.567030 9.019554 -16.866744 27.362530 -0.431928 2.234981 0.042781 -0.010153 607399.000000 0 0 1
-18.151330 9.121254 -16.718844 26.309462 -0.465655 2.259412 0.056525 -0.014817 303991.000000 0 0 1
-17.380830 9.683554 -17.978944 26.816168 -0.508308 2.305614 0.041076 -0.006399 -4138.600000 0 0 1
-17.127630 8.848554 -19.114844 27.148294 -0.476859 2.351937 0.061093 -0.019978 29965.000000 0 0 1
-16.113630 7.919954 -18.826244 26.015422 -0.456830 2.379883 0.061553 -0.019235 -784718.000000 0 0 1
-15.622330 7.227654 -20.107944 26.469332 -0.433323 2.433601 0.037917 -0.012342 158601.000000 0 0 1
-16.481930 6.248854 -20.693144 27.182869 -0.362390 2.436045 0.032314 -0.006958 -34305.500000 0 0 1
-17.455930 6.828054 -21.559644 28.568340 -0.372862 2.425946 0.039996 -0.007797 -40506.600000 0 0 1
-18.261030 5.648654 -22.202544 29.297192 -0.299993 2.430790 0.032876 -0.002892 -177279.000000 0 0 1
-18.996930 4.951154 -21.231044 28.916336 -0.254957 2.395318 0.047301 0.000537 94247.800000 0 0 1
-19.460930 3.699554 -21.718744 29.395889 -0.187860 2.402138 0.024255 0.006294 -90591.300000 0 0 1
-20.540130 3.121954 -20.767944 29.376028 -0.150838 2.356000 0.023149 0.002899 247566.000000 0 0 1
-21.222830 1.973354 -21.320344 30.147300 -0.092716 2.356334 0.028114 0.002251 -8074.280000 0 0 1
-22.211130 1.523554 -20.454244 30.232955 -0.068487 2.313870 0.027816 -0.005601 -802488.000000 0 0 1
-22.828230 0.194954 -20.961144 30.992509 -0.008540 2.313564 0.027302 -0.000666 -44199.800000 0 0 1
-21.883930 -0.867246 -21.025944 30.360316 0.039609 2.335810 0.017685 -0.001601 177215.000000 0 0 1
-22.450630 -2.196346 -21.253744 30.993166 0.097520 2.326438 0.016619 -0.008113 332597.000000 0 0 1
-23.103830 -2.574846 -22.692744 32.486572 0.110989 2.344133 0.025327 -0.009447 883016.000000 0 0 1
-22.127930 -2.623446 -23.734344 32.555288 0.118007 2.387725 0.004437 -0.004151 492419.000000 0 0 1
-21.267430 -3.757246 -23.837944 32.166256 0.174862 2.405482 -0.000198 -0.012134 6379.520000 0 0 1
-20.185830 -3.641246 -24.909444 32.267736 0.178467 2.452717 0.007755 -0.003674 -262714.000000 0 0 1
-20.680730 -3.742046 -26.209364 33.595033 0.179007 2.465711 0.009581 -0.007786 739561.000000 0 0 1
-19.605530 -3.576146 -27.169904 33.695241 0.180421 2.508738 0.013994 -0.011925 856846.000000 0 0 1
-20.154030 -3.637446 -28.611064 35.185350 0.178560 2.520345 0.011995 -0.009339 175172.000000 0 0 1
-20.802130 -4.858846 -28.828674 35.880767 0.229461 2.503877 0.014531 0.000584 -45466.300000 0 0 1
-21.555530 -4.876446 -30.023184 37.280184 0.222482 2.507043 -0.006448 -0.005267 -174833.000000 0 0 1
-21.426830 -6.182746 -30.881904 38.092353 0.280921 2.516163 0.012060 -0.005357 -44000.500000 0 0 1
-20.201330 -6.200446 -31.584214 38.001339 0.297805 2.551941 0.004426 -0.005248 -228041.000000 0 0 1
-19.637630 -7.478546 -31.707424 38.038479 0.363870 2.556321 0.000296 -0.005151 552708.000000 0 0 1
-18.179430 -7.298446 -32.292374 37.769781 0.381771 2.596307 0.013452 -0.012906 485469.000000 0 0 1
-18.011130 -6.848446 -33.669084 38.793159 0.363352 2.621781 0.010465 -0.021050 145527.000000 0 0 1
-18.329030 -7.864646 34.533925 39.879794 0.405323 0.523749 0.007363 -0.018283 -560705.000000 0 0 1
-18.273030 -7.365046 33.043053 38.470650 0.383138 0.537647 0.012448 -0.020654 28410.500000 0 0 1
-17.010330 -6.955646 32.548033 37.377892 0.388161 0.514004 0.019413 -0.020368 48549.900000 0 0 1
-16.539530 -5.678646 32.951463 37.304182 0.330727 0.487902 0.021093 -0.023174 -1309740.000000 0 0 1
-15.280730 -5.429146 32.220713 36.071466 0.341383 0.466281 0.021687 -0.022645 -1340740.000000 0 0 1
-15.560230 -5.412246 30.846143 34.969954 0.334736 0.490546 0.015086 -0.017535 663452.000000 0 0 1
-14.410930 -5.152146 30.012823 33.689599 0.343355 0.471555 0.020565 -0.014799 638807.000000 0 0 1
-14.727130 -5.271546 28.494923 32.505972 0.343738 0.502034 0.017455 -0.008839 -46965.200000 0 0 1
-15.569630 -4.223646 28.075763 32.380566 0.264900 0.521534 0.006963 -0.013302 -257964.000000 0 0 1
-16.002430 -4.323546 26.744753 31.465102 0.263880 0.554846 0.011191 -0.008438 -261567.000000 0 0 1
-15.058430 -3.876046 25.596683 29.949461 0.251932 0.545896 0.005301 0.000915 64428.600000 0 0 1
-14.871630 -2.463946 25.573353 29.685565 0.164189 0.532630 0.003426 0.008843 -124003.000000 0 0 1
-14.044030 -2.128246 24.497893 28.318033 0.150397 0.525449 -0.004322 0.009360 -360145.000000 0 0 1
-13.933030 -0.600046 24.336903 28.049496 0.043040 0.520358 0.001155 0.006135 375638.000000 0 0 1
-15.106730 0.022854 23.815133 28.202382 -0.001513 0.565283 -0.001635 0.001972 139244.000000 0 0 1
-15.190030 1.350554 24.359053 28.738902 -0.088677 0.559353 -0.008317 0.005592 -346344.000000 0 0 1
-15.946630 2.314054 23.455733 28.457359 -0.144107 0.601935 -0.003961 0.004549 -630069.000000 0 0 1
-15.372930 2.709354 22.264733 27.191651 -0.174450 0.611465 -0.004673 0.013169 -230835.000000 0 0 1
-15.951530 3.879154 21.786033 27.278753 -0.238553 0.645756 -0.020449 0.014339 -404361.000000 0 0 1
-14.995230 4.470954 20.741533 25.981869 -0.289766 0.646316 -0.013827 0.014473 309598.000000 0 0 1
-13.861730 5.131054 21.276733 25.907038 -0.354520 0.607159 -0.015753 0.012946 14981.000000 0 0 1
-12.963630 5.462054 20.236733 24.645793 -0.398764 0.607456 -0.007340 0.006167 218553.000000 0 1 0
-11.901730 6.503254 20.681933 24.732283 -0.500085 0.580420 -0.009017 0.005206 247267.000000 0 1 0
-12.443330 7.802454 20.837933 25.493807 -0.560064 0.613961 -0.005623 0.005072 258518.000000 0 0 1
-11.411730 8.779054 20.890833 25.371761 -0.655740 0.603439 -0.003559 0.008031 149131.000000 0 0 1
-11.877030 10.237354 20.769133 26.023530 -0.711388 0.646677 -0.012705 0.012559 13870.700000 0 0 1
-12.451230 10.691654 19.523733 25.505308 -0.709513 0.699014 -0.004108 0.012018 530800.000000 0 0 1
-12.995930 11.997654 19.708833 26.481616 -0.745478 0.731391 -0.014019 0.017833 -595670.000000 0 0 1
-13.094230 12.785554 18.374333 25.933479 -0.773471 0.783401 -0.020712 0.018081 509853.000000 0 0 1
-11.881830 13.343854 17.822733 25.236603 -0.843291 0.786644 -0.016524 0.013693 648128.000000 0 0 1
-11.670430 14.700154 18.196833 26.142268 -0.899787 0.800888 -0.015384 0.007738 -463605.000000 0 0 1
-12.711030 15.786154 17.744133 26.937468 -0.892892 0.851686 -0.012509 0.013457 106803.000000 0 0 1
-12.652830 16.211954 16.412933 26.311707 -0.908082 0.897216 -0.005660 0.002714 89807.100000 0 0 1
-13.144930 15.282354 15.477033 25.414131 -0.860446 0.916006 0.003071 0.000561 -256028.000000 0 0 1
-13.562130 15.938754 14.090033 25.229036 -0.865786 0.978238 0.003720 -0.003215 -619895.000000 0 0 1
-14.662230 16.765754 14.098933 26.360034 -0.852230 1.006454 0.006350 -0.003384 -683836.000000 0 0 1
-15.143130 16.952054 12.793233 26.083583 -0.841700 1.058167 0.007933 -0.006979 -274586.000000 0 0 1
-16.188530 18.050254 12.652233 27.348842 -0.839719 1.089844 0.016464 -0.014948 245866.000000 0 0 1
-17.504330 17.736154 13.122333 28.163244 -0.791976 1.086102 0.019787 -0.015134 385534.000000 0 0 1
-18.266630 18.894554 13.295533 29.452421 -0.802294 1.102436 0.026113 -0.019547 770036.000000 0 0 1
-19.795930 18.643654 13.581133 30.395918 -0.755431 1.107602 0.017486 -0.015275 802051.000000 0 0 1
-20.462830 18.147254 12.459033 30.054579 -0.725497 1.143351 0.013339 -0.011222 -220863.000000 0 0 1
-21.736230 17.668354 12.863733 30.823855 -0.682529 1.140291 0.019059 -0.010639 -65054.600000 0 0 1
-22.437230 16.930554 11.687133 30.441124 -0.646422 1.176752 0.006620 -0.005536 -285819.000000 0 0 1
-21.933530 15.607754 11.325833 29.205414 -0.618464 1.172554 0.015852 0.003619 264562.000000 0 0 1
-22.447430 15.103354 10.091733 28.876313 -0.592259 1.213779 0.002114 -0.000931 -575235.000000 0 0 1
-21.755430 13.792654 9.687933 27.520757 -0.565036 1.211065 0.021451 0.011919 -802607.000000 0 0 1
-21.926230 12.651054 10.521633 27.413746 -0.523323 1.176879 0.012863 0.006636 -122723.000000 0 0 1
-23.236230 12.187854 10.740833 28.351925 -0.483070 1.182254 0.011022 -0.001968 -37147.000000 0 0 1
-23.965330 11.562654 9.498033 28.253223 -0.449529 1.227944 0.006023 0.010801 -536229.000000 0 0 1
-24.259430 12.493954 8.474733 28.573413 -0.475587 1.269671 0.010696 0.004623 -99614.100000 0 0 1
-25.053730 11.849254 7.501033 28.711665 -0.441777 1.306475 0.015616 0.003423 -448126.000000 0 0 1
-25.296850 12.646554 6.197233 28.952921 -0.463588 1.355082 0.010519 0.002615 -60415.900000 0 0 1
-24.200330 12.687354 5.284133 27.830684 -0.482870 1.379769 0.013429 -0.009503 -138498.000000 0 0 1
-23.073530 13.423254 5.599933 27.275094 -0.526900 1.364013 0.014131 -0.013257 -1025470.000000 0 0 1
-23.182330 14.966554 5.859433 28.209061 -0.573277 1.361558 -0.002149 -0.006718 -1646420.000000 0 0 1
-22.016030 15.583054 6.237033 27.684611 -0.615945 1.343557 -0.017284 -0.000079 -590474.000000 0 0 1
-22.225230 16.982954 6.342533 28.681166 -0.652483 1.347814 -0.008737 -0.004826 -82246.500000 0 0 1
-20.949430 17.868254 6.400833 28.268777 -0.706189 1.342388 -0.007674 -0.006630 -14570.400000 0 0 1
-20.346830 18.003554 5.141433 27.650602 -0.724372 1.383765 -0.009812 -0.016812 825441.000000 0 0 1
-19.006730 18.510354 5.305133 27.056116 -0.772168 1.373439 -0.012821 -0.015284 514346.000000 0 0 1
-18.440030 18.995054 3.989633 26.772447 -0.800223 1.421219 0.001425 -0.023249 409353.000000 0 0 1
-17.031830 19.265154 4.113533 26.041324 -0.846850 1.412170 -0.009608 -0.025945 832518.000000 0 0 1
-16.570330 20.423854 3.399533 26.519172 -0.889190 1.442251 0.006089 -0.022045 -124210.000000 0 0 1
-16.849430 21.841554 3.936533 27.864907 -0.913715 1.429050 0.008976 -0.018872 -160815.000000 0 0 1
-16.061430 22.106154 5.085433 27.794122 -0.942467 1.386792 0.012889 -0.015378 -29637.500000 0 0 1
-16.232330 23.434054 5.456333 29.024386 -0.964999 1.381680 0.002248 -0.009764 -125524.000000 0 0 1
-15.657730 23.943654 6.821433 29.410797 -0.991656 1.336728 0.005573 0.002183 -276968.000000 0 0 1
-16.315030 23.405354 7.927133 29.611319 -0.962044 1.299785 0.010252 0.001842 257600.000000 0 0 1
-15.574730 23.622354 9.147333 29.736535 -0.987896 1.258113 0.009431 -0.002661 410626.000000 0 0 1
-16.230730 22.854354 10.317133 29.869739 -0.953270 1.218127 0.008367 0.000329 412201.000000 0 0 1
-17.392730 23.535054 10.753733 31.177694 -0.934364 1.218645 0.009988 0.000820 -208592.000000 0 0 1
-18.359730 22.694754 11.355433 31.322155 -0.890600 1.199808 0.013127 -0.006068 275715.000000 0 0 1
-19.557830 23.550154 11.849333 32.825678 -0.877747 1.201480 0.009839 -0.011832 236410.000000 0 0 1
-20.333230 24.224354 10.847933 33.435568 -0.872505 1.240374 0.006312 0.000678 145906.000000 0 0 1
-19.905630 25.528054 10.662933 34.082455 -0.908522 1.252597 0.001351 0.005553 -336701.000000 0 0 1
-21.008730 26.530454 10.331533 35.383220 -0.901031 1.274490 -0.002829 0.008887 31573.100000 0 0 1
-21.932230 26.870654 11.371733 36.501658 -0.886246 1.253983 -0.002913 -0.007887 256670.000000 0 0 1
-22.703530 27.948054 10.864433 37.610901 -0.888572 1.277756 0.001751 0.000187 63640.200000 0 0 1
-23.724130 28.521354 11.886133 38.956156 -0.876962 1.260736 -0.000620 -0.011104 211804.000000 0 0 1
-23.046430 29.176954 12.949333 39.371535 -0.902254 1.235657 0.003473 -0.005032 410184.000000 0 0 1
-23.983330 29.757754 13.834933 40.646395 -0.892436 1.223483 0.004395 -0.004347 176972.000000 0 0 1
8.071670 -32.891384 27.927903 43.897184 -1.330148 0.881218 -0.006021 -0.015048 -493470.000000 0 0 1
9.465470 -33.036784 27.841093 44.228392 -1.291758 0.889907 -0.012160 -0.008025 66007.900000 0 0 1
9.856470 -33.000084 26.468003 43.436283 -1.280551 0.915553 -0.002473 -0.006963 -7803.020000 0 0 1
11.367570 -33.255984 26.259963 43.872175 -1.241427 0.929099 -0.010981 0.003560 66014.500000 0 0 1
11.707670 -34.640284 26.185603 44.974488 -1.244871 0.949325 -0.000224 -0.009304 1021310.000000 0 0 1
13.130370 34.516754 26.361203 45.373185 1.207295 0.950856 0.024324 -0.008682 998438.000000 0 0 1
13.704470 33.163654 25.758593 44.171773 1.178931 0.948200 0.051633 -0.002269 75526.200000 0 0 1
14.047270 33.090054 24.391233 43.442027 1.169335 0.974640 0.043795 -0.013867 394705.000000 0 0 1
15.011570 32.068054 24.223773 42.901031 1.132980 0.970796 0.049194 -0.013896 -407344.000000 0 0 1
15.260170 31.676054 22.763733 41.885949 1.121849 0.996232 0.047344 -0.025570 53972.600000 0 0 1
14.250370 30.897554 22.102133 40.573836 1.138656 0.994719 0.030529 -0.014660 282028.000000 0 0 1
14.155370 29.464054 22.322633 39.582887 1.122928 0.971639 0.025943 -0.013169 -223144.000000 0 0 1
13.571870 28.991054 23.688833 39.822577 1.132960 0.933706 0.033383 -0.007934 -194026.000000 0 0 1
14.452970 29.065254 24.781403 40.838649 1.109344 0.918752 0.041572 -0.017197 160890.000000 0 0 1
13.671970 28.806354 25.910133 41.086053 1.127661 0.888431 0.042317 -0.007570 156476.000000 0 0 1
14.457170 28.986454 27.256813 42.333889 1.108144 0.871273 0.047112 -0.018754 168282.000000 0 0 1
14.627570 30.342054 27.571613 43.529299 1.121580 0.884853 0.050771 -0.015401 315564.000000 0 0 1
15.382470 30.471254 28.761283 44.635514 1.103301 0.870612 0.080682 -0.027068 -26891.100000 0 0 1
15.263270 31.895254 29.293153 45.916919 1.124461 0.878950 0.086675 -0.032299 78863.000000 0 0 1
16.207970 32.768154 28.699193 46.476810 1.111457 0.905242 0.076865 -0.026179 257347.000000 0 0 1
16.011970 34.111654 29.105973 47.614554 1.131928 0.913115 0.096579 -0.016010 -176416.000000 0 0 1
16.707770 -34.158484 28.251313 47.371809 -1.115886 0.931820 0.095823 -0.029106 -313402.000000 0 0 1
16.226670 -34.137384 26.886943 46.385057 -1.127075 0.952501 0.096258 -0.025563 54030.500000 0 0 1
16.399870 -32.862684 26.203343 45.116814 -1.107915 0.951099 0.068867 -0.021263 722782.000000 0 0 1
17.876670 -32.348684 25.915683 45.140174 -1.065940 0.959273 0.050714 -0.011405 778778.000000 0 0 1
18.522570 -31.876584 27.029433 45.714248 -1.044411 0.938164 0.033236 -0.011532 -500816.000000 0 0 1
19.711670 -31.210384 26.706303 45.561657 -1.007484 0.944488 0.029687 -0.012089 -200051.000000 0 0 1
20.256370 -30.389584 27.906853 45.963461 -0.982870 0.918324 0.029203 -0.011514 -613301.000000 0 0 1
19.430270 -29.328084 28.249463 45.118777 -0.985674 0.894238 0.020554 -0.003759 -66108.500000 0 0 1
19.870870 -28.616784 29.383343 45.575790 -0.963853 0.870147 0.027920 -0.001503 -135988.000000 0 0 1
18.666370 -27.979084 30.130693 45.156629 -0.982456 0.840288 -0.007915 -0.003566 135831.000000 0 0 1
17.931570 -27.100784 29.326903 43.772833 -0.986266 0.836615 0.009349 -0.003043 7898.540000 0 0 1
16.697570 -26.795084 29.949143 43.517083 -1.013523 0.811769 -0.012531 -0.006174 94465.500000 0 0 1
15.790170 -25.904484 29.055563 42.007112 -1.023382 0.806981 -0.010166 0.006128 -461229.000000 0 0 1
15.199270 -26.548684 27.906313 41.407882 -1.050839 0.831271 -0.009149 0.003427 829282.000000 0 0 1
14.384970 -25.683584 27.078243 39.997564 -1.060244 0.827121 -0.006374 -0.008944 -1295750.000000 0 0 1
13.008570 -25.377784 27.586813 39.677286 -1.097122 0.801987 -0.003895 -0.000524 -1222250.000000 0 0 1
12.023370 -26.393084 27.613713 40.045892 -1.143337 0.809926 -0.002693 0.005821 423268.000000 0 0 1
11.745770 -27.088484 26.400093 39.606994 -1.161658 0.841223 0.004377 0.006394 -870467.000000 0 0 1
10.779970 -28.294984 26.505133 40.240973 -1.206789 0.851759 0.003874 0.004091 -196838.000000 0 0 1
9.427370 -28.021484 26.753163 39.872429 -1.246258 0.835281 -0.011903 -0.001578 -37312.500000 0 0 1
8.618270 -29.162284 26.545123 40.365294 -1.283447 0.853138 -0.007260 -0.004105 467203.000000 0 0 1
7.136770 -28.981484 27.010273 40.254375 -1.329348 0.835253 -0.002889 -0.009461 886061.000000 0 0 1
6.018170 -28.775784 26.159973 39.352361 -1.364628 0.843620 0.011183 -0.003255 545871.000000 0 0 1
6.085270 -27.657584 25.289173 37.967285 -1.354225 0.841858 0.007759 -0.004455 -574821.000000 0 0 1
4.844470 -27.469784 24.375723 37.043674 -1.396235 0.852601 0.031149 -0.003081 -406441.000000 0 0 1
4.573270 -28.490784 23.408933 37.156664 -1.411636 0.889235 0.014053 0.004818 149346.000000 0 0 1
3.867870 -29.634984 23.857333 38.240882 -1.441013 0.897112 0.022448 0.009688 414813.000000 0 0 1
2.349670 -29.387384 24.163503 38.118423 -1.491011 0.884203 -0.008312 0.008959 26541.500000 0 0 1
1.497170 -28.904584 23.102133 37.032756 -1.519046 0.897163 -0.016597 0.014583 909361.000000 0 0 1
0.272970 -28.403884 23.652233 36.963269 -1.561186 0.876448 -0.024382 0.002937 456147.000000 0 0 1
0.336670 -26.962384 24.240683 36.258712 -1.558310 0.838542 -0.010594 -0.001561 -849690.000000 0 0 1
1.259770 -26.723584 25.246113 36.784551 -1.523690 0.814374 -0.002458 -0.005113 -295554.000000 0 0 1
1.238070 -25.408684 25.646213 36.122877 -1.522109 0.781339 0.007627 -0.016147 -241530.000000 0 0 1
2.505570 -24.965384 26.425253 36.439570 -1.470769 0.759500 0.014896 -0.011498 -10198.700000 0 0 1
3.659770 -24.838984 25.619653 35.871098 -1.424509 0.775295 0.005019 -0.010710 1282030.000000 0 0 1
4.748270 -23.983184 26.150483 35.799259 -1.375341 0.751778 0.013211 -0.006638 1347490.000000 0 0 1
4.469170 -22.433884 26.401183 34.932436 -1.374156 0.713954 0.012982 -0.005856 -656534.000000 0 0 1
4.384870 -21.650284 25.215493 33.522872 -1.370968 0.719420 0.005251 -0.006086 355220.000000 0 0 1
3.544970 -20.504684 25.415593 32.847545 -1.399603 0.686066 0.012035 -0.012351 228677.000000 0 0 1
3.523370 -19.673884 24.113003 31.319527 -1.393586 0.692107 0.005780 -0.012178 -518443.000000 0 0 1
4.793570 -19.171584 23.850133 30.973485 -1.325785 0.691927 0.008226 0.000025 -518978.000000 0 0 1
4.798470 -18.455084 22.667633 29.621563 -1.316421 0.699381 0.009241 -0.001189 528242.000000 0 0 1
6.201370 -17.886984 22.294533 29.248032 -1.237067 0.704003 0.006571 -0.000405 571202.000000 0 0 1
7.183370 -18.829684 21.838033 29.716283 -1.206346 0.745300 0.006763 0.001443 383747.000000 0 0 1
8.365370 -18.137684 21.468533 29.323248 -1.138655 0.749347 0.001777 0.001681 -74741.100000 0 0 1
9.503370 -18.246384 22.477833 30.471258 -1.090619 0.741179 -0.008396 0.001100 -710823.000000 0 0 1
9.380370 -17.413784 23.636233 30.820492 -1.076689 0.696800 -0.004881 0.008360 -235458.000000 0 0 1
10.483470 -17.519484 24.494073 31.887224 -1.031562 0.694854 -0.012122 0.012426 -352855.000000 0 0 1
10.520970 -16.623584 25.780033 32.429068 -1.006540 0.651843 -0.006171 -0.000426 -405611.000000 0 0 1
10.658870 -15.296784 25.499563 31.588460 -0.962218 0.631330 0.001162 0.007573 158593.000000 0 0 1
10.552170 -14.636484 26.718533 32.240579 -0.946148 0.593973 -0.002977 0.004453 -238240.000000 0 0 1
10.934470 -13.151884 26.636353 31.654857 -0.877200 0.570813 0.007299 0.006387 -278547.000000 0 0 1
9.968970 -12.349784 26.014293 30.473611 -0.891670 0.547812 0.011294 0.009417 27956.600000 0 0 1
10.242970 -10.990784 26.253563 30.248394 -0.820602 0.519772 0.020619 0.014993 -271539.000000 0 0 1
9.372770 -10.050084 25.410533 28.888548 -0.820256 0.495764 0.022556 0.016352 730248.000000 0 0 1
8.053870 -9.832284 25.954613 28.899491 -0.884502 0.455368 0.004685 0.016504 311132.000000 0 0 1
7.201070 -9.332784 24.988823 27.629650 -0.913621 0.440777 0.006163 0.019570 811774.000000 0 0 1
5.710670 -9.212484 25.511763 27.718796 -1.015884 0.401751 -0.005288 0.015000 228651.000000 0 0 1
5.357770 -8.193984 26.447113 28.201008 -0.991708 0.354537 -0.000540 0.018797 430687.000000 0 0 1
3.998370 -8.133784 26.870223 28.357614 -1.113911 0.325319 -0.012849 0.017093 741792.000000 0 0 1
2.831170 -8.085384 25.869403 27.250963 -1.233980 0.319787 -0.009912 0.016399 -622876.000000 0 0 1
2.850770 -6.932284 25.099933 26.195230 -1.180646 0.290198 0.001271 0.014718 92713.000000 0 0 1
1.868670 -6.922184 24.068833 25.114085 -1.307127 0.289524 0.009329 -0.000429 254465.000000 0 0 1
2.054870 -5.617284 23.261933 24.018616 -1.220105 0.251678 0.011214 -0.010307 -125285.000000 0 1 0
1.631470 -4.458884 23.969533 24.435258 -1.220034 0.195553 0.014454 -0.000762 -11409.700000 0 1 0
2.118470 -3.303284 23.344533 23.672068 -1.000545 0.166544 0.017473 -0.006232 -682332.000000 0 1 0
1.136270 -2.616284 22.312233 22.493817 -1.161069 0.127149 0.017131 -0.010212 710657.000000 0 1 0
0.164370 -1.775284 22.924833 22.994056 -1.478471 0.077614 0.025761 -0.005303 -496552.000000 0 1 0
-0.867730 -2.434284 23.557933 23.699260 1.228376 0.109264 0.032232 -0.006105 -1427710.000000 0 1 0
-1.843530 -1.462284 24.238313 24.352263 0.670579 0.096777 0.033117 -0.005177 -55881.400000 0 1 0
-1.246030 -0.632284 25.243283 25.281925 0.469581 0.055296 0.040098 -0.004850 -263661.000000 0 0 1
-2.111230 0.363716 25.700833 25.789967 -0.170602 0.083164 0.045252 -0.007963 -646212.000000 0 0 1
-1.557430 1.220716 26.847803 26.920629 -0.664786 0.073572 0.041983 -0.012478 -217713.000000 0 0 1
-1.578530 0.719716 28.177973 28.231329 -0.427783 0.061490 0.030592 -0.005487 56795.600000 0 0 1
-0.760130 -0.420284 28.408963 28.422238 0.505075 0.030565 0.034784 -0.005601 -1374590.000000 0 0 1
0.436770 -0.117284 29.309993 29.313482 -0.262336 0.015428 0.030709 -0.010910 -219967.000000 0 0 1
1.535770 0.565716 28.697493 28.744125 0.352937 0.056969 0.032010 -0.001293 381667.000000 0 0 1
2.239870 -0.133284 27.685333 27.776113 -0.059435 0.080871 0.021178 -0.002594 -394757.000000 0 0 1
3.266970 -1.201284 28.141233 28.355690 -0.352360 0.123066 0.009792 -0.007266 -10230.700000 0 0 1
2.539070 -2.342284 28.615863 28.823615 -0.745106 0.120136 0.004481 -0.004300 331230.000000 0 0 1
3.381370 -3.438284 28.956563 29.355374 -0.793743 0.165024 -0.000941 0.008958 237170.000000 0 0 1
3.818470 -4.337284 27.740323 28.335812 -0.848926 0.205375 0.001556 0.005803 899185.000000 0 0 1
4.878070 -3.808284 26.898443 27.601174 -0.662858 0.226137 0.010264 0.002150 477904.000000 0 0 1
5.342170 -4.682984 25.929773 26.885354 -0.719739 0.267415 0.007434 0.006224 120814.000000 0 0 1
6.543670 -4.108284 25.078723 26.241951 -0.560629 0.298859 0.006463 0.009701 -450562.000000 0 0 1
7.708870 -3.918284 25.796943 27.207754 -0.470252 0.323443 0.003831 0.007966 -328695.000000 0 0 1
8.550470 -5.093284 25.876103 27.724083 -0.537232 0.367179 -0.000623 0.008181 147796.000000 0 0 1
9.398470 -5.457784 24.614313 26.906933 -0.526115 0.415798 0.004134 0.006539 -656120.000000 0 0 1
8.645670 -5.894984 23.491233 25.716463 -0.598435 0.419063 -0.003675 0.004352 -84505.500000 0 0 1
9.337370 -5.807184 22.247433 24.816489 -0.556388 0.459041 0.013207 0.002996 -12125.200000 0 1 0
9.377770 -4.389284 21.553633 23.911660 -0.437764 0.447837 0.007182 -0.003007 503631.000000 0 1 0
8.117970 -3.859284 21.115133 22.948733 -0.443775 0.402460 0.001939 -0.012855 104104.000000 0 1 0
8.163270 -2.591284 20.408733 22.133010 -0.307372 0.397337 -0.001325 -0.009991 398796.000000 0 1 0
6.728670 -1.995284 20.196733 21.381398 -0.288275 0.334442 -0.005427 -0.009028 706770.000000 0 1 0
6.209970 -1.484284 21.404833 22.336824 -0.234615 0.289889 0.001226 -0.002214 -339174.000000 0 1 0
4.936670 -0.933284 21.202533 21.789657 -0.186846 0.232667 -0.001099 -0.000418 -251072.000000 0 1 0
4.467070 -0.177284 22.477333 22.917606 -0.039666 0.196331 0.004712 -0.004474 -364343.000000 0 1 0
3.198070 0.414716 22.449033 22.679478 0.128957 0.142676 0.006448 -0.001846 -380474.000000 0 1 0
2.839870 0.659716 23.804933 23.982805 0.228257 0.121867 0.021831 0.000993 613093.000000 0 1 0
1.351670 1.145716 23.858233 23.923941 0.703117 0.074132 0.025801 -0.000500 371415.000000 0 1 0
1.040470 2.411716 23.348633 23.495906 1.163498 0.112023 0.029463 -0.002105 87555.600000 0 1 0
-0.348730 2.598716 23.208433 23.356076 -1.437400 0.112500 0.025501 -0.003310 -8829.170000 0 1 0
-0.841930 3.952716 22.713033 23.069779 -1.360932 0.176090 0.028362 -0.009653 -93409.300000 0 1 0
-0.678230 4.964716 23.698533 24.222487 -1.435027 0.208371 0.034700 -0.010263 72591.500000 0 1 0
-1.587430 6.047716 23.468233 24.286885 -1.314103 0.260379 0.033873 -0.009013 272323.000000 0 1 0
-1.382630 7.387716 24.240143 25.378624 -1.385784 0.300664 0.043445 -0.009643 -903897.000000 0 0 1
-0.315730 8.080716 23.752933 25.091821 -1.531744 0.328149 0.036936 -0.012397 -914121.000000 0 0 1
-0.254330 9.395716 24.212573 25.972926 -1.543734 0.370287 0.047557 -0.006062 -913614.000000 0 0 1
0.659670 10.325716 23.378333 25.565642 1.506997 0.416666 0.052966 -0.012369 76571.500000 0 0 1
2.036770 10.063716 23.482033 25.628747 1.371106 0.412209 0.042156 -0.010241 -457791.000000 0 0 1
2.628470 10.457716 24.712993 26.963025 1.324554 0.411427 0.051918 -0.005639 -627457.000000 0 0 1
3.802270 11.497716 24.548823 27.373335 1.251420 0.458279 0.044066 -0.004181 168769.000000 0 0 1
4.973270 11.065716 23.920833 26.821442 1.148416 0.469367 0.036492 -0.001996 -328270.000000 0 0 1
4.897770 10.637716 22.616433 25.468651 1.139315 0.477796 0.038956 -0.008247 -1106000.000000 0 0 1
6.233870 10.202716 21.959533 25.003553 1.022327 0.498592 0.033992 -0.003652 -50252.100000 0 0 1
7.073470 11.278716 21.640933 25.408137 1.010651 0.551514 0.027835 -0.009071 -421754.000000 0 0 1
8.252670 10.735716 21.111633 25.081133 0.915427 0.570310 0.023704 -0.004525 -484360.000000 0 0 1
9.255670 11.737716 20.572433 25.429637 0.903082 0.628357 0.017026 -0.014271 -856364.000000 0 0 1
8.842270 12.434716 19.396533 24.678602 0.952662 0.666540 0.015360 -0.015579 332237.000000 0 1 0
9.670970 13.541716 18.932933 25.206382 0.950629 0.721044 0.020447 -0.010407 411036.000000 0 0 1
11.064970 13.132716 18.399133 25.168033 0.870643 0.750934 0.012536 -0.011615 -57796.600000 0 0 1
11.989270 12.776716 19.428833 26.162313 0.817183 0.733812 0.023424 -0.011818 -775774.000000 0 0 1
13.207370 12.441716 18.872633 26.180283 0.755556 0.765737 0.031025 -0.012265 -419919.000000 0 0 1
14.321970 12.200716 19.939233 27.414400 0.705589 0.756377 0.039978 -0.002666 297892.000000 0 0 1
14.775970 13.402716 20.590733 28.669503 0.736703 0.769569 0.035216 -0.005136 -17753.600000 0 0 1
15.872270 13.074716 21.416533 29.690824 0.689053 0.765093 0.025892 0.002400 143276.000000 0 0 1
16.490370 14.353716 22.055833 31.055133 0.716236 0.780992 0.021432 0.002456 237691.000000 0 0 1
15.612570 14.995716 22.978933 31.569847 0.765248 0.755577 0.019656 0.000707 234698.000000 0 0 1
16.254570 16.091716 23.508433 32.799403 0.780364 0.771689 0.022249 0.001104 -205764.000000 0 0 1
-20.230230 12.782854 -24.888244 34.526630 -0.563524 2.375813 0.005055 -0.001487 -24202.400000 0 0 1
-20.356830 12.781054 -26.260034 35.599792 -0.560647 2.400373 0.008755 -0.018361 -239129.000000 0 0 1
-21.112730 13.881354 -26.661054 36.732154 -0.581621 2.383027 0.009729 -0.019518 -163614.000000 0 0 1
-21.151130 13.900654 -28.192684 37.887015 -0.581424 2.410021 0.019621 -0.008364 332482.000000 0 0 1
-19.897630 14.117854 -28.857754 37.788879 -0.617090 2.439755 0.035941 0.000101 291497.000000 0 0 1
-19.979430 14.369654 -30.238114 38.987281 -0.623511 2.458444 0.021108 -0.004053 319504.000000 0 0 1
-18.606630 14.922354 -30.708564 38.883148 -0.675954 2.481223 0.001609 -0.006708 1479090.000000 0 0 1
-17.491730 13.969454 -30.631954 37.939726 -0.673906 2.510502 -0.005704 -0.009955 957971.000000 0 0 1
-16.235530 14.587154 -30.907934 37.837519 -0.731970 2.526742 -0.010665 0.001998 873859.000000 0 0 1
-15.271730 14.256354 -29.693084 36.306316 -0.751025 2.528459 0.017561 -0.003261 -37716.900000 0 0 1
-15.652630 14.735554 -28.421834 35.636245 -0.755229 2.494026 0.005139 -0.008675 -228900.000000 0 0 1
-16.425030 13.738054 -27.777934 35.073199 -0.696551 2.484872 0.020997 -0.005535 -287477.000000 0 0 1
-16.987530 14.264054 -26.448964 34.519372 -0.698471 2.443713 0.025356 -0.006404 -79523.100000 0 0 1
-16.065230 14.501954 -25.370694 33.347719 -0.734300 2.435330 0.048790 -0.022058 404839.000000 0 0 1
-16.766030 14.778454 -24.157444 32.910250 -0.722473 2.395048 0.040218 -0.017287 -161995.000000 0 0 1
-15.888030 15.359354 -23.065144 31.942763 -0.768481 2.377597 0.037296 -0.009882 -261004.000000 0 0 1
-15.379030 16.593754 -23.466744 32.596860 -0.823372 2.374466 0.019756 -0.009874 -287480.000000 0 0 1
-14.641930 17.207554 -22.430144 31.837044 -0.865779 2.352557 0.017338 0.000650 -111578.000000 0 0 1
-14.239630 18.629254 -22.946644 32.807996 -0.918162 2.345385 0.014828 -0.004230 1351360.000000 0 0 1
-15.392030 19.538754 -22.941744 33.837865 -0.903558 2.315821 -0.002646 -0.001417 1469970.000000 0 0 1
-16.271530 19.445454 -24.057744 34.952301 -0.874029 2.329942 -0.011590 0.000743 -158100.000000 0 0 1
-17.502430 20.343354 -23.942944 35.964589 -0.860323 2.299277 -0.002487 -0.003722 -103109.000000 0 0 1
-17.277530 21.736054 -24.283044 36.886790 -0.899186 2.289371 -0.009662 -0.002771 -407600.000000 0 0 1
-18.519130 22.354554 -24.318444 37.869129 -0.878960 2.268123 0.014876 -0.010785 -342092.000000 0 0 1
-18.266330 23.859654 -24.620944 38.847558 -0.917402 2.257231 0.005934 -0.012355 278114.000000 0 0 1
-17.627730 24.541154 -23.530844 38.297594 -0.947899 2.232448 0.007952 -0.006765 -481618.000000 0 0 1
-16.770930 25.539454 -23.990244 38.846616 -0.989748 2.236437 0.005744 -0.003995 -935759.000000 0 0 1
-15.837530 25.853354 -22.809944 37.940964 -1.021170 2.215793 0.008982 -0.007186 139383.000000 0 0 1
-14.772630 24.911554 -22.518944 36.686768 -1.035537 2.231682 0.013972 -0.017573 372417.000000 0 0 1
-15.150430 23.599054 -22.162944 35.744187 -1.000070 2.239594 -0.002621 0.002189 -1024930.000000 0 0 1
-13.986930 22.598154 -22.029344 34.519599 -1.016566 2.262914 0.008361 -0.002048 -126201.000000 0 0 1
-13.215030 22.846454 -20.900244 33.666269 -1.046390 2.240568 0.018801 -0.008781 -666078.000000 0 0 1
-12.260930 21.863054 -20.642144 32.471859 -1.059695 2.259703 0.014901 -0.007424 -173126.000000 0 0 1
-11.527630 22.299654 -19.311744 31.671821 -1.093687 2.226536 0.021264 -0.012867 108249.000000 0 0 1
-12.317630 22.208754 -18.126344 31.201235 -1.064406 2.190691 0.018907 -0.010138 -44007.500000 0 0 1
-13.204830 23.258554 -17.900544 32.183184 -1.054435 2.160612 0.015023 -0.014092 -235396.000000 0 0 1
-14.039430 23.179254 -16.614244 31.787049 -1.026204 2.120780 0.024157 -0.016851 83381.200000 0 0 1
-13.276130 23.531654 -15.507144 31.152301 -1.057130 2.091839 0.024028 -0.032690 116055.000000 0 0 1
-14.057030 23.252754 -14.358144 30.731855 -1.027051 2.056926 0.014273 -0.012873 579236.000000 0 0 1
-13.337330 23.736454 -13.028544 30.183548 -1.058869 2.017111 0.014771 -0.012693 289705.000000 0 0 1
-12.805030 25.042454 -13.105744 31.029885 -1.098124 2.006842 0.020261 -0.023409 265755.000000 0 0 1
-11.836030 25.259254 -12.108544 30.409511 -1.132598 1.980331 0.013986 -0.017838 -111932.000000 0 0 1
-11.395530 26.751954 -11.961344 31.441992 -1.168104 1.961053 0.024868 -0.029955 -473440.000000 0 0 1
-10.574630 27.231454 -12.947644 31.953346 -1.200396 1.987999 0.036785 -0.036368 -279253.000000 0 0 1
-10.302830 28.584854 -12.740244 32.947776 -1.224860 1.967825 0.015990 -0.022847 -719980.000000 0 0 1
-9.941530 29.365954 -14.039444 34.033795 -1.244368 1.996009 0.045040 -0.032207 -64169.100000 0 0 1
-8.631630 29.413054 -14.537544 33.925992 -1.285348 2.013637 0.030824 -0.026568 -421266.000000 0 0 1
-7.944630 28.207754 -14.737544 32.802282 -1.296261 2.036760 0.032162 -0.030516 -365504.000000 0 0 1
-6.503530 28.289954 -15.264844 32.796842 -1.344834 2.054924 0.030727 -0.028234 -194802.000000 0 0 1
-5.578730 28.783254 -14.372844 32.652359 -1.379351 2.026593 0.019543 -0.025884 66742.700000 0 0 1
-4.230530 28.612554 -14.865744 32.520239 -1.424004 2.045554 0.025882 -0.025925 897285.000000 0 0 1
-3.244830 29.614754 -14.233444 33.017472 -1.461664 2.016495 -0.000508 -0.013921 -261804.000000 0 0 1
-3.354530 30.984954 -14.584444 34.409682 -1.462953 2.008485 -0.009569 -0.008385 -291835.000000 0 0 1
-4.249230 31.685854 -13.776144 34.811369 -1.437487 1.977666 -0.026106 -0.010583 -413664.000000 0 0 1
-4.369730 33.122354 -14.226644 36.312288 -1.439627 1.973368 -0.023399 -0.009278 -290803.000000 0 0 1
-3.509730 34.029654 -13.535544 36.790576 -1.468022 1.947554 -0.029277 -0.010257 73410.200000 0 0 1
-3.785530 -33.932284 -13.885544 36.858356 1.459694 1.957057 -0.027090 -0.009805 616821.000000 0 0 1
-3.031030 -32.859884 -12.976844 35.459238 1.478816 1.945466 -0.021290 -0.003903 257898.000000 0 0 1
-3.409230 -32.927784 -11.633544 35.088476 1.467627 1.908741 -0.027213 -0.007509 -41326.200000 0 0 1
-2.547730 -32.122584 -10.853644 34.002248 1.491649 1.895685 -0.033924 -0.008429 -108683.000000 0 0 1
-2.683830 -32.248084 -9.338044 33.679978 1.487763 1.851735 -0.038719 0.002095 -32042.500000 0 0 1
-1.696630 -31.525984 -8.601444 32.722332 1.517031 1.836783 -0.029772 -0.000880 151978.000000 0 0 1
-1.908930 -31.671384 -7.217244 32.539348 1.510596 1.794457 -0.049770 -0.000181 227078.000000 0 0 1
-0.784730 -30.970284 -6.400144 31.634413 1.545464 1.774518 -0.027064 -0.002978 73440.900000 0 0 1
-0.938130 -31.116184 -5.044544 31.536398 1.540656 1.731446 -0.031368 0.010406 188668.000000 0 0 1
0.208170 -30.657184 -4.336444 30.963058 -1.564006 1.711310 -0.016107 0.009600 239397.000000 0 0 1
0.055570 -30.638484 -2.743144 30.761089 -1.568983 1.660091 -0.022319 0.015554 -525927.000000 0 0 1
-0.036430 -31.878784 -2.085144 31.946925 1.569654 1.636112 -0.015043 0.011647 822492.000000 0 0 1
1.015570 -32.888484 -2.216844 32.978753 -1.539927 1.638067 -0.011288 0.008414 532786.000000 0 0 1
2.409670 -32.526384 -1.709644 32.660297 -1.496848 1.623166 0.010689 0.009081 -1087540.000000 0 0 1
2.459870 -32.406984 -0.324244 32.501826 -1.495036 1.580773 0.002053 0.011588 -674894.000000 0 0 1
3.699170 -32.044484 0.161256 32.257694 -1.455866 1.565797 0.015225 0.010701 -868754.000000 0 0 1
4.011570 -30.537884 0.188956 30.800824 -1.440180 1.564662 0.012134 0.008604 -555808.000000 0 0 1
4.141370 -29.995284 -1.140644 30.301305 -1.433596 1.608449 0.034442 -0.001672 145265.000000 0 0 1
4.164670 -28.584484 -1.072644 28.906189 -1.426117 1.607913 0.020947 0.009037 -161740.000000 0 0 1
3.810870 -27.969184 -2.448344 28.333591 -1.435378 1.657316 0.017429 0.015053 -415198.000000 0 0 1
2.468170 -28.150684 -2.813644 28.398406 -1.483343 1.670037 0.005214 0.013233 -148500.000000 0 0 1
2.055170 -27.109884 -3.745244 27.444423 -1.495132 1.707690 -0.003881 0.004894 112327.000000 0 0 1
2.592470 -27.154284 -5.198944 27.768778 -1.475613 1.759130 -0.008651 0.004519 22386.800000 0 0 1
2.057970 -28.267084 -5.914944 28.952544 -1.498120 1.776543 -0.013768 0.007220 -123285.000000 0 0 1
2.554670 -28.344484 -7.223244 29.361733 -1.480910 1.819357 0.002190 -0.007855 -292800.000000 0 0 1
1.818670 -29.271384 -8.224744 30.459282 -1.508745 1.844214 -0.005432 -0.009303 492922.000000 0 0 1
0.519670 -28.693784 -8.490844 29.928209 -1.552687 1.858454 -0.009482 -0.008821 469638.000000 0 0 1
0.215370 -28.800684 -9.891844 30.452821 -1.563319 1.901623 -0.003559 -0.005170 -156359.000000 0 0 1
-1.065630 -27.986084 -10.084644 29.766701 1.532738 1.916426 -0.025759 -0.008299 -1233890.000000 0 0 1
-0.932030 -26.642784 -9.626544 28.343905 1.535828 1.917324 -0.023918 -0.000083 -175104.000000 0 0 1
-2.131230 -25.896784 -9.562444 27.688010 1.488684 1.923423 0.000018 -0.012425 968286.000000 0 0 1
-3.308030 -26.464884 -8.691444 28.051280 1.446444 1.885822 0.003870 -0.013104 -208109.000000 0 0 1
-2.931730 -26.503984 -7.288744 27.643842 1.460630 1.837617 0.006076 -0.009753 -157297.000000 0 0 1
-2.307930 -27.703784 -6.830644 28.626629 1.487681 1.811732 -0.008040 0.000461 263486.000000 0 0 1
-1.771630 -27.548284 -5.348044 28.118467 1.506575 1.762159 -0.002630 0.003982 683921.000000 0 0 1
-2.763130 -27.462884 -4.297344 27.934066 1.470521 1.725248 0.002206 -0.003681 398067.000000 0 0 1
-2.180530 -27.018484 -3.129444 27.286381 1.490266 1.685738 0.002711 0.003689 950082.000000 0 0 1
-3.218930 -27.331884 -1.918344 27.587559 1.453564 1.640389 -0.000690 0.006525 822514.000000 0 0 1
-4.276230 -26.412284 -1.959544 26.827871 1.410286 1.643903 0.003732 0.007982 -778030.000000 0 0 1
-5.008530 -26.456584 -0.789244 26.938060 1.383699 1.600099 0.004425 0.002128 -69850.400000 0 0 1
-6.170530 -25.410984 -0.732544 26.159705 1.332578 1.598803 0.012647 0.005652 250652.000000 0 0 1
-5.800430 -24.073184 -0.765344 24.773956 1.334353 1.601694 -0.006761 0.001787 -265331.000000 0 1 0
-6.545530 -23.360984 0.209356 24.261561 1.297611 1.562167 0.008728 0.002585 -379241.000000 0 1 0
-6.047430 -21.973584 0.563356 22.797525 1.302232 1.546083 -0.002864 -0.001002 -788207.000000 0 1 0
-4.886530 -21.909684 1.293756 22.485244 1.351357 1.513227 -0.007850 -0.006728 -871864.000000 0 1 0
-4.398430 -20.655684 1.619556 21.180803 1.360990 1.494258 -0.010244 0.001312 -167421.000000 0 1 0
-3.334930 -20.621684 2.735656 21.067971 1.410465 1.440580 -0.004472 0.003706 118718.000000 0 1 0
-3.854030 -20.917484 4.052156 21.652128 1.388591 1.382538 -0.003527 0.018252 74425.100000 0 1 0
-2.951830 -20.534984 5.082656 21.359594 1.428028 1.330535 0.011556 0.004712 -223322.000000 0 1 0
-1.998830 -21.605384 5.561456 22.399056 1.478544 1.319882 0.001670 -0.003675 -490873.000000 0 1 0
-1.109530 -21.982484 4.549356 22.475704 1.520366 1.366976 0.017590 -0.005237 -684105.000000 0 1 0
-0.415630 -23.121984 4.962556 23.652185 1.552823 1.359412 0.014428 -0.008669 -1826020.000000 0 1 0
0.526170 -23.604784 3.866856 23.925201 -1.548509 1.408462 0.019205 -0.007827 -263692.000000 0 1 0
1.592870 -22.737384 3.591256 23.074293 -1.500855 1.414522 0.012842 -0.011232 413589.000000 0 1 0
2.583170 -22.790984 4.659556 23.405409 -1.457936 1.370377 0.024546 -0.013896 163941.000000 0 1 0
3.853970 -21.864584 4.551556 22.663402 -1.396323 1.368588 0.033447 -0.012714 923476.000000 0 1 0
4.688870 -21.991884 3.408656 22.743073 -1.360733 1.420353 0.023220 0.002295 140459.000000 0 1 0
5.734670 -21.036684 3.561356 22.093252 -1.304660 1.408893 0.032648 0.001126 -9360.160000 0 1 0
6.536770 -20.779284 2.353456 21.909969 -1.266017 1.463174 0.039753 0.008777 -490485.000000 0 1 0
7.190970 -21.851984 1.738356 23.070352 -1.252882 1.495375 0.035075 0.011890 -281073.000000 0 1 0
6.898470 -21.785584 0.357656 22.854506 -1.264132 1.555146 0.036942 0.005070 427659.000000 0 1 0
7.777270 -22.674884 -0.617444 23.979523 -1.240380 1.596548 0.035536 0.007843 1216160.000000 0 1 0
9.131670 -22.225484 -0.755144 24.040170 -1.180959 1.602213 0.030341 0.013633 450058.000000 0 1 0
9.938070 -23.191584 -1.448044 25.272745 -1.165948 1.628124 0.031992 0.012075 638946.000000 0 0 1
11.306970 -22.594984 -1.863944 25.334860 -1.106813 1.644435 0.030334 0.015893 311434.000000 0 0 1
11.159170 -21.613984 -2.885044 24.495201 -1.094199 1.688850 0.029186 0.023573 -796635.000000 0 1 0
12.411670 -21.286684 -3.382544 24.871953 -1.042917 1.707217 0.024478 0.021022 -607958.000000 0 1 0
12.535470 -20.123884 -4.357344 24.105915 -1.013698 1.752554 0.018859 0.009369 -190639.000000 0 1 0
12.698470 -18.836584 -3.806344 23.033807 -0.977639 1.736808 0.038175 0.016480 127356.000000 0 1 0
12.692770 -17.818584 -4.784544 22.394200 -0.951841 1.786107 0.022470 0.009549 -623301.000000 0 1 0
13.019770 -16.442584 -4.109244 21.371918 -0.901056 1.764274 0.037304 0.011376 464500.000000 0 1 0
14.299870 -16.309084 -3.511744 21.972821 -0.850945 1.731307 0.027391 0.011432 579926.000000 0 1 0
15.400570 -16.185084 -4.405944 22.771624 -0.810231 1.765508 0.029517 0.010530 -202441.000000 0 1 0
16.812270 -15.875184 -3.913444 23.451843 -0.756738 1.738452 0.021241 0.011640 -136996.000000 0 1 0
17.405770 -16.955784 -3.223444 24.512242 -0.772303 1.702682 0.024008 0.007718 -62481.200000 0 1 0
18.786670 -16.735984 -3.153744 25.357015 -0.727733 1.695493 0.008312 0.019261 156341.000000 0 0 1
19.658970 -17.649484 -2.183444 26.509372 -0.731589 1.653255 0.010320 0.009988 849623.000000 0 0 1
21.062270 -17.604184 -2.401544 27.555288 -0.696202 1.658061 -0.008686 0.014844 287801.000000 0 0 1
21.710270 -18.310684 -1.403244 28.435648 -0.700656 1.620164 -0.013835 0.019248 -381556.000000 0 0 1
23.223570 -18.060084 -1.300944 29.448146 -0.660971 1.614988 -0.009425 0.007377 -190540.000000 0 0 1
23.558070 -16.746484 -1.014144 28.921547 -0.617977 1.605869 -0.013602 0.004622 1573010.000000 0 0 1
24.964670 -16.691784 -0.601944 30.036856 -0.589351 1.590838 -0.003069 0.004228 1593270.000000 0 0 1
25.350870 -15.306184 -0.147544 29.613640 -0.543190 1.575779 -0.006182 0.005196 -267418.000000 0 0 1
24.530370 -14.696184 0.825356 28.607658 -0.539759 1.541941 -0.019914 0.009669 54268.500000 0 0 1
25.162470 -13.590784 1.434956 28.634217 -0.495227 1.520662 -0.031863 0.003683 -19795.500000 0 0 1
24.425170 -13.005984 2.686356 27.802177 -0.489295 1.474021 -0.016247 -0.009897 -57909.100000 0 0 1
24.308070 -13.806284 3.893156 28.225032 -0.516536 1.432422 0.003471 -0.003366 780463.000000 0 0 1
25.540370 -14.400284 4.371456 29.644364 -0.513395 1.422793 0.018357 0.012492 513464.000000 0 0 1
25.443970 -15.037784 5.737856 30.107367 -0.533787 1.379044 0.016901 0.021163 -215466.000000 0 0 1
24.564670 -16.117484 5.770856 29.941595 -0.580669 1.376846 -0.002795 0.022814 -214466.000000 0 0 1
24.031970 -16.303984 7.094056 29.894500 -0.596102 1.331208 -0.025316 0.024349 -274762.000000 0 0 1
23.040870 -17.469384 7.132956 29.781540 -0.648723 1.328936 -0.022950 0.018714 -461878.000000 0 0 1
23.518770 -18.805184 7.012756 30.918380 -0.674486 1.341990 -0.004597 0.024066 -436807.000000 0 0 1
22.444970 -19.688184 7.149256 30.700377 -0.720061 1.335767 -0.003789 0.043534 -56484.600000 0 0 1
1.241770 23.565254 -3.112444 23.802321 1.518150 1.701934 -0.000983 -0.003571 -8568.500000 0 1 0
1.959970 24.748854 -2.779044 24.981400 1.491767 1.682272 0.007125 -0.004639 -175510.000000 0 1 0
2.832070 25.081154 -3.833844 25.530046 1.458356 1.721536 0.006994 -0.009705 -145384.000000 0 0 1
3.820470 26.159654 -3.301944 26.642566 1.425777 1.695051 -0.000492 -0.001635 483257.000000 0 0 1
4.832170 25.578054 -2.450344 26.145571 1.384078 1.664653 -0.002389 -0.007443 70880.000000 0 0 1
5.634770 26.521454 -1.840744 27.175844 1.361448 1.638583 -0.003388 -0.006514 -951633.000000 0 0 1
6.733270 26.047054 -0.925244 26.919176 1.317830 1.605174 0.000666 -0.015503 -379537.000000 0 0 1
7.719370 25.462354 -1.764544 26.665216 1.276436 1.637019 0.002979 -0.016358 -340814.000000 0 0 1
8.642170 24.656454 -1.074944 26.149251 1.233673 1.611916 0.003513 -0.015556 -199707.000000 0 0 1
9.876370 24.241854 -1.891144 26.244744 1.183919 1.642917 0.010757 -0.012732 -1059210.000000 0 0 1
10.806270 25.308254 -1.985244 27.590295 1.167245 1.642813 0.010232 -0.007042 -15298.500000 0 0 1
11.538370 25.327454 -3.204144 28.015718 1.143322 1.685417 0.031761 -0.009438 210611.000000 0 0 1
12.564570 24.191554 -3.450244 27.477334 1.091766 1.696696 0.020022 -0.007619 -633968.000000 0 0 1
11.979670 22.901554 -3.632644 26.099612 1.088844 1.710433 0.011924 -0.007875 -168441.000000 0 0 1
11.914670 22.518554 -5.013844 25.965039 1.084137 1.765117 0.024459 -0.012936 365971.000000 0 0 1
10.933170 21.294554 -5.167644 24.488707 1.096466 1.783416 0.020172 -0.013892 311168.000000 0 1 0
9.573970 21.582554 -4.982744 24.130795 1.153279 1.778782 0.008144 -0.010613 101358.000000 0 1 0
8.778670 20.356354 -5.049844 22.736471 1.163644 1.794767 -0.002622 -0.006798 828486.000000 0 1 0
7.253570 20.626054 -4.894144 22.405379 1.232634 1.791008 0.005378 -0.008834 411251.000000 0 1 0
6.947270 21.045454 -3.594944 22.452156 1.251951 1.731604 -0.001931 -0.012485 -379660.000000 0 1 0
5.799170 21.838354 -3.518044 22.867460 1.311237 1.725255 0.008180 0.005289 -222775.000000 0 1 0
5.479870 22.557354 -2.186544 23.316178 1.332482 1.664712 0.007586 0.000046 -16542.600000 0 1 0
5.133770 21.572654 -1.235644 22.209498 1.337166 1.626461 0.007987 -0.003234 -126517.000000 0 1 0
4.701270 22.258954 -0.077944 22.750144 1.362647 1.574222 0.016228 -0.001135 116728.000000 0 1 0
4.094970 21.328454 0.980556 21.740129 1.381109 1.525677 0.014889 -0.002875 175551.000000 0 1 0
3.503870 22.002554 2.120656 22.380497 1.412874 1.475899 0.014043 0.002164 359023.000000 0 1 0
3.159870 21.085854 3.112756 21.547326 1.422046 1.425828 0.014961 0.002472 -353655.000000 0 1 0
2.211270 21.595354 4.188056 22.108569 1.468756 1.380213 0.015928 -0.007666 -832809.000000 0 1 0
0.918870 21.837254 3.759456 22.177545 1.528743 1.400457 0.015842 -0.001889 -1055290.000000 0 1 0
0.050370 22.244254 4.770256 22.750049 1.568532 1.359547 0.012678 -0.007839 1285900.000000 0 1 0
-1.421130 22.505454 4.226256 22.942892 -1.507734 1.385531 0.008908 0.001241 1421680.000000 0 1 0
-2.406530 22.787554 5.200556 23.497016 -1.465579 1.347620 0.024570 -0.007466 -252974.000000 0 1 0
-3.680330 22.875454 4.592256 23.620331 -1.411278 1.375131 0.023081 -0.010142 585690.000000 0 1 0
-4.777430 23.228254 5.660656 24.380702 -1.367952 1.336480 0.027195 -0.012857 234496.000000 0 1 0
-4.960130 24.643254 5.799056 25.797711 -1.372173 1.344069 0.033673 -0.008773 223835.000000 0 0 1
-6.070030 24.880454 6.652856 26.460211 -1.331503 1.316640 0.041570 -0.013508 200852.000000 0 0 1
-6.357930 26.337154 7.028156 27.990426 -1.333923 1.316989 0.042541 -0.013497 -398746.000000 0 0 1
-5.291130 26.965454 7.704456 28.539278 -1.377039 1.297445 0.031392 -0.014339 -182312.000000 0 0 1
-5.492230 28.233654 8.274656 29.929479 -1.378668 1.290675 0.042817 -0.020627 -335472.000000 0 0 1
-5.715530 29.426354 7.288856 30.849717 -1.378953 1.332271 0.044529 -0.026914 -691562.000000 0 0 1
-6.956430 29.317754 6.697056 30.867024 -1.337828 1.352092 0.047776 -0.024538 -1257630.000000 0 0 1
-7.177730 30.326654 5.781256 31.696193 -1.338392 1.387374 0.053150 -0.024942 67453.000000 0 0 1
-8.668130 30.634554 5.468656 32.303538 -1.295052 1.400687 0.051761 -0.019849 655647.000000 0 0 1
-9.456430 31.170954 6.539056 33.223662 -1.276248 1.372684 0.048382 -0.014783 80613.700000 0 0 1
-10.011530 30.189954 7.386056 32.652992 -1.250590 1.342623 0.032419 -0.004133 -12895.800000 0 0 1
-10.976930 30.840054 8.443956 33.806838 -1.228848 1.318353 0.022106 -0.002590 40303.500000 0 0 1
-10.295530 31.554254 9.411856 34.500028 -1.255407 1.294487 0.035066 -0.008675 -231667.000000 0 0 1
-11.150530 31.962954 10.448256 35.427825 -1.235139 1.271428 0.029148 0.005625 120094.000000 0 0 1
-10.353130 32.255554 11.773956 35.864106 -1.260212 1.236300 0.034895 0.001760 812934.000000 0 0 1
-9.521530 33.459454 11.603656 36.672052 -1.293556 1.248846 0.033551 0.000743 389201.000000 0 0 1
-8.755730 33.689654 12.729756 37.063490 -1.316528 1.220200 0.033698 -0.003683 -420828.000000 0 0 1
-8.404030 -34.125184 12.878556 37.430109 1.329331 1.219549 0.026281 -0.009414 -205025.000000 0 0 1
-9.448330 -33.287984 13.336156 37.083876 1.294234 1.202934 0.024712 0.000618 160118.000000 0 0 1
-9.088930 -31.913384 13.161856 35.697439 1.293342 1.193180 0.028266 -0.001173 -218199.000000 0 0 1
-10.046830 -31.034684 13.969456 35.485717 1.257714 1.166182 0.027133 -0.004555 -327404.000000 0 0 1
-9.951430 -31.251084 15.389556 36.228437 1.262514 1.132064 0.026095 -0.004439 63153.900000 0 0 1
-8.815630 -30.717484 16.043956 35.758743 1.291317 1.105517 0.022732 -0.001803 -153391.000000 0 0 1
-8.833130 -31.063284 17.569356 36.764576 1.293750 1.072547 0.006486 -0.010424 -7811.300000 0 0 1
-9.712030 -30.241084 18.359756 36.686882 1.260047 1.046684 0.045689 -0.004945 535870.000000 0 0 1
-9.943930 -30.892484 19.588156 37.906769 1.259381 1.027751 0.008249 -0.012227 55201.100000 0 0 1
-10.573630 -30.002184 20.655556 37.928679 1.231960 0.994897 0.020838 -0.021426 426.161000 0 0 1
-9.549630 -29.489184 21.482256 37.713323 1.257618 0.964753 0.034486 -0.022854 286460.000000 0 0 1
-9.971330 -28.634684 22.531556 37.776230 1.235703 0.931728 0.033026 -0.011954 226914.000000 0 0 1
-8.912330 -28.713984 23.663756 38.260892 1.269841 0.903984 0.039565 -0.016916 242780.000000 0 0 1
-8.912730 -30.009884 24.216556 39.578675 1.282100 0.912388 0.043059 -0.005706 42792.900000 0 0 1
-7.934430 -30.111384 25.218256 40.070077 1.313150 0.890075 0.038045 -0.003961 68022.300000 0 0 1
-8.272430 -31.440884 26.039156 41.653330 1.313517 0.895486 0.038901 -0.003840 -221706.000000 0 0 1
-7.928230 -32.735684 25.518856 42.257471 1.333182 0.922424 0.039085 0.007820 190636.000000 0 0 1
-7.998030 -33.740084 26.466356 43.621437 1.338044 0.918858 0.046923 0.000094 -424741.000000 0 0 1
-7.524230 34.159454 26.069256 43.624402 -1.353991 0.930311 0.037555 -0.001591 131425.000000 0 0 1
-6.132930 33.985854 25.830056 43.125896 -1.392262 0.928613 0.033767 -0.000589 654473.000000 0 0 1
-5.646730 32.774754 25.219856 41.738606 -1.400182 0.921993 0.038194 -0.004799 -67090.000000 0 0 1
-6.259230 32.409454 23.835956 40.714905 -1.380015 0.945379 0.036685 0.000499 -464006.000000 0 0 1
-7.379130 31.563154 23.947556 40.300989 -1.341132 0.934504 0.025625 -0.001491 -128744.000000 0 0 1
-8.021130 31.573254 22.681556 39.694608 -1.322011 0.962584 0.017085 0.002324 -32095.600000 0 0 1
-9.163530 30.532454 22.674156 39.119284 -1.279226 0.952539 -0.002583 -0.008961 -198886.000000 0 0 1
-8.678930 29.233654 22.716156 38.025703 -1.282203 0.930554 0.003762 -0.006848 56226.000000 0 0 1
-9.642730 28.269854 23.105956 37.763105 -1.242076 0.912379 -0.004552 -0.004480 -69505.200000 0 0 1
-9.165930 26.853954 22.714556 36.346942 -1.241870 0.895745 -0.006733 -0.005889 -323838.000000 0 0 1
-8.194230 26.352454 23.585256 36.302363 -1.269326 0.863621 -0.019736 0.005094 -162072.000000 0 0 1
-7.765030 25.080054 23.110356 34.977041 -1.270547 0.849006 -0.010307 0.005250 283480.000000 0 0 1
-6.400930 24.692254 23.774856 34.870089 -1.317151 0.820559 -0.017531 0.014226 36667.600000 0 0 1
-5.341730 25.330954 23.137156 34.720589 -1.362964 0.841451 -0.027016 0.012245 -1515700.000000 0 0 1
-4.182930 25.163754 23.869556 34.935185 -1.406074 0.818588 -0.002338 0.006918 -1088000.000000 0 0 1
-3.000030 25.743354 23.111456 34.725493 -1.454784 0.842570 -0.018894 0.021577 -604144.000000 0 0 1
-2.659730 24.913454 22.028356 33.361697 -1.464440 0.849593 -0.009766 0.019921 -617565.000000 0 0 1
-1.693130 25.521154 21.259356 33.258927 -1.504551 0.877329 -0.010226 0.025038 -436847.000000 0 0 1
-1.349930 24.661154 19.992756 31.775858 -1.516112 0.890298 -0.015638 0.022178 282891.000000 0 0 1
-0.373930 23.614654 20.222856 31.092694 -1.554963 0.862678 0.004255 0.012971 570499.000000 0 0 1
-0.088530 22.889654 19.087456 29.803944 -1.566929 0.875733 -0.011954 0.014415 -951707.000000 0 0 1
0.804670 21.716454 19.337856 29.089595 1.533760 0.843612 0.007645 0.016893 486901.000000 0 0 1
2.141270 22.247454 19.447556 29.626706 1.474844 0.854733 0.011846 0.007850 641941.000000 0 0 1
3.176070 21.282254 19.343456 28.934254 1.422654 0.838564 0.015085 0.013091 861641.000000 0 0 1
4.581170 21.949654 19.228556 29.538311 1.365037 0.861935 0.007617 0.005353 1238030.000000 0 0 1
5.683970 21.036454 19.101156 28.977475 1.306902 0.851078 0.017992 0.006692 -187929.000000 0 0 1
6.907270 21.620354 18.818656 29.483757 1.261565 0.878545 0.026814 0.001926 -681946.000000 0 0 1
8.006570 20.594254 18.555656 28.853784 1.200002 0.872266 0.022996 0.006384 -249744.000000 0 0 1
8.506270 19.899454 19.697556 29.263264 1.166842 0.832383 0.022039 0.003569 -201393.000000 0 0 1
9.350170 18.865954 19.288156 28.554910 1.110666 0.829186 0.018138 0.002186 -304746.000000 0 0 1
9.966970 17.985454 20.361456 28.937967 1.064758 0.790311 0.033087 -0.002718 -274984.000000 0 0 1
9.077870 17.131954 21.081356 28.641494 1.083532 0.743591 0.032219 0.002272 270706.000000 0 0 1
9.727870 16.467454 22.160156 29.272530 1.037219 0.712042 0.040414 -0.004706 314447.000000 0 0 1
8.724770 15.419154 22.766556 28.847669 1.055873 0.661292 0.028158 0.001664 646256.000000 0 0 1
7.638270 15.999554 23.463256 29.408388 1.125387 0.647089 0.026895 0.010203 316058.000000 0 0 1
6.617670 15.138054 23.984356 29.123935 1.158676 0.603195 0.020397 0.006260 490474.000000 0 0 1
6.962070 14.034454 25.005756 29.508036 1.110298 0.559686 0.029430 0.005064 -431181.000000 0 0 1
7.272170 14.617154 26.268956 30.929011 1.109143 0.556080 0.037076 0.000170 82895.200000 0 0 1
7.659870 13.728054 27.287556 31.491964 1.061853 0.522663 0.032436 0.000594 -733035.000000 0 0 1
8.701770 14.327554 28.226256 32.828664 1.024993 0.535908 0.026645 0.004307 -308498.000000 0 0 1
10.039970 14.297254 27.784356 32.820465 0.958575 0.561315 0.027102 0.010516 73886.800000 0 0 1
10.464570 15.285854 26.908056 32.668151 0.970486 0.602928 0.027895 0.008356 -654850.000000 0 0 1
11.765670 15.019254 26.152356 32.372129 0.906277 0.630273 0.030405 0.002924 -320087.000000 0 0 1
11.532770 14.190754 25.040656 31.006721 0.888362 0.630746 0.040241 -0.002012 -258778.000000 0 0 1
12.660970 13.942354 24.255356 30.708496 0.833527 0.660219 0.028697 0.003478 -796111.000000 0 0 1
12.422170 12.821854 23.230156 29.297618 0.801230 0.655239 0.035598 -0.002034 -98860.600000 0 0 1
12.139770 11.539454 23.795256 29.098922 0.760052 0.613328 0.030312 0.004424 -23880.300000 0 0 1
10.829670 11.391354 24.283356 28.926218 0.810670 0.574447 0.030196 0.006380 -442441.000000 0 0 1
10.697670 10.054854 25.021256 29.010403 0.754433 0.530622 0.014364 0.007670 -100410.000000 0 0 1
10.724670 8.947854 24.096156 27.851524 0.695323 0.525318 0.020960 0.006751 290317.000000 0 0 1
10.250970 7.767554 24.743656 27.886660 0.648435 0.479353 0.023703 0.006204 73840.300000 0 0 1
10.296370 6.559654 23.803456 26.751614 0.567242 0.473900 0.031635 0.000620 680034.000000 0 0 1
11.643970 6.071054 23.652956 27.053689 0.480613 0.506811 0.028342 0.006908 959444.000000 0 0 1
11.705770 5.011154 22.748356 26.069608 0.404487 0.510295 0.028359 -0.000506 58029.300000 0 0 1
11.496570 3.624354 23.398756 26.321263 0.305393 0.475710 0.017930 -0.001547 -997887.000000 0 0 1
12.635470 3.246754 24.052856 27.363049 0.251514 0.496979 0.010329 -0.001720 -603406.000000 0 0 1
12.460070 1.933854 24.637156 27.676391 0.153976 0.473041 0.006843 -0.001987 -150046.000000 0 0 1
13.728170 1.427554 25.390156 28.899146 0.103615 0.497920 0.000448 -0.001047 552919.000000 0 0 1
14.655370 0.946454 24.425456 28.500501 0.064491 0.541341 -0.011140 -0.002146 268238.000000 0 0 1
16.018170 0.997254 24.785356 29.527787 0.062177 0.574635 -0.001851 -0.005715 -225637.000000 0 0 1
16.935270 0.005854 24.098856 29.454343 0.000346 0.612564 0.007843 -0.006308 -331608.000000 0 0 1
16.656870 -1.370646 24.330956 29.518222 -0.082102 0.601886 0.001806 -0.006622 -456350.000000 0 0 1
17.660470 -2.147346 23.792656 29.708480 -0.120997 0.642048 0.015409 0.001539 -1192130.000000 0 0 1
17.634570 -3.603846 24.202356 30.161562 -0.201587 0.639450 0.019916 0.007702 266278.000000 0 0 1
16.559870 -4.380446 23.678856 29.225089 -0.258599 0.626263 0.015132 0.009651 464839.000000 0 0 1
16.791470 -5.731046 24.002156 29.847979 -0.328910 0.636558 0.033799 0.009992 437768.000000 0 0 1
15.958770 -6.717046 23.055956 28.833629 -0.398393 0.644134 0.022668 0.006740 -248250.000000 0 0 1
16.321970 -6.720346 21.715956 27.984863 -0.390583 0.682514 0.023937 0.005939 -163361.000000 0 0 1
15.728170 -7.759246 20.968456 27.336009 -0.458301 0.696545 0.041203 -0.001531 -144943.000000 0 0 1
16.204870 -9.219246 21.121956 28.173203 -0.517252 0.723161 0.039665 0.000493 157327.000000 0 0 1
15.879670 -9.714446 22.427356 29.146539 -0.549017 0.692787 0.031011 0.001795 124176.000000 0 0 1
16.636370 -10.895946 22.625856 30.123410 -0.579845 0.721061 0.033843 -0.005190 56790.700000 0 0 1
16.186270 -11.791046 23.806356 31.108949 -0.629572 0.699355 0.024709 -0.007220 -373470.000000 0 0 1
15.095470 -12.582946 23.433856 30.583482 -0.694871 0.697849 0.030336 -0.011105 -238321.000000 0 0 1
14.737670 -13.402946 24.515256 31.588537 -0.738003 0.682369 0.022019 0.001078 -423773.000000 0 0 1
13.622570 -14.394846 24.230756 31.303603 -0.812955 0.685573 0.014766 0.000503 -524111.000000 0 0 1
13.994870 -15.360646 23.198756 31.144633 -0.831890 0.730454 0.006832 0.000765 1061020.000000 0 0 1
12.811770 -15.839546 22.500756 30.353200 -0.890684 0.735795 0.000645 0.009365 588796.000000 0 0 1
13.069470 -16.874646 21.365556 30.200194 -0.911797 0.784893 -0.011279 -0.001238 -357991.000000 0 0 1
13.633770 -18.075846 21.803256 31.432434 -0.924579 0.804246 0.003159 -0.000439 40988.800000 0 0 1
13.896670 -18.878046 20.666256 31.250476 -0.936232 0.848232 -0.003863 -0.003300 -24499.000000 0 0 1
-22.826730 -32.115184 26.764093 47.631516 0.952874 0.974117 -0.001909 -0.010189 -237025.000000 0 0 1
-23.394130 -33.120984 27.571733 49.035552 0.955839 0.973655 0.002180 -0.010897 477049.000000 0 0 1
-24.622330 -33.597284 27.006423 49.642557 0.938351 0.995579 0.002771 -0.017041 427369.000000 0 0 1
-25.236750 -34.628284 27.996423 51.184092 0.941008 0.992050 0.005845 -0.017216 -505511.000000 0 0 1
-26.036470 -34.068384 29.000753 51.764816 0.918243 0.976120 0.023904 -0.021482 -267111.000000 0 0 1
-25.371710 -33.492184 30.126093 51.701369 0.922486 0.948756 0.022521 -0.018428 -697654.000000 0 0 1
-26.206630 -32.938084 31.253013 52.425715 0.898724 0.932113 0.016949 -0.022899 -566218.000000 0 0 1
-26.725440 -31.662884 30.936793 51.709501 0.869760 0.929443 0.012457 -0.018291 47661.500000 0 0 1
-27.651860 -31.234984 31.910393 52.521641 0.846171 0.917803 0.008005 -0.009912 -124834.000000 0 0 1
-28.015510 -29.735584 31.651843 51.680876 0.815174 0.911643 0.008839 -0.017415 -154228.000000 0 0 1
-28.620790 -29.551084 30.370283 51.134824 0.801389 0.934867 0.004534 -0.001860 267668.000000 0 0 1
-29.145220 -28.279184 30.239073 50.631587 0.770318 0.930744 0.007582 -0.000348 -226184.000000 0 0 1
-29.865900 -28.020884 28.894863 50.120405 0.753536 0.956347 0.002909 -0.007643 -735350.000000 0 0 1
-29.079420 -27.754084 27.790893 48.869577 0.762083 0.965903 -0.001726 -0.002655 -351625.000000 0 0 1
-28.584370 -26.424484 27.770433 47.817533 0.746154 0.951136 -0.018052 0.010958 -15167.400000 0 0 1
-27.492240 -26.143484 26.730593 46.409370 0.760257 0.957001 -0.010770 0.018442 160236.000000 0 0 1
-28.040500 -26.271384 25.409793 46.066396 0.752836 0.986526 -0.025384 0.018592 -16257.800000 0 0 1
-27.000780 -26.209784 24.481653 44.892607 0.770534 0.994004 0.003933 0.024652 -355952.000000 0 0 1
-27.380590 -26.585184 23.001533 44.559390 0.770660 1.028389 -0.018315 0.028258 62513.000000 0 0 1
-28.154970 -25.620784 22.301233 44.118838 0.738308 1.040857 -0.036013 0.032610 252165.000000 0 0 1
-28.239370 -26.086284 20.933933 43.774259 0.745786 1.072164 -0.037756 0.038989 -148688.000000 0 0 1
-28.856970 -24.963184 20.052133 43.104214 0.713176 1.086934 -0.043933 0.036037 -394393.000000 0 0 1
-30.150010 -24.609984 20.452633 43.965721 0.684572 1.086941 -0.035191 0.024137 -456207.000000 0 0 1
-30.625700 -23.528784 19.750533 43.377652 0.655091 1.098069 -0.023289 0.016686 -1083060.000000 0 0 1
-32.052750 -23.146884 20.097733 44.351729 0.625437 1.100507 -0.007043 0.024336 -856028.000000 0 0 1
-32.955070 -24.103684 19.614233 45.296162 0.631497 1.122954 -0.016941 0.018344 -597691.000000 0 0 1
-34.254154 -23.575184 19.544533 45.946981 0.602792 1.131424 -0.002656 0.011639 -326374.000000 0 0 1
34.842607 -24.517284 18.794033 46.565224 -0.613177 1.155341 0.008448 0.004989 83230.600000 0 0 1
34.481340 -25.616784 19.574133 47.205181 -0.638953 1.143226 0.002068 0.004391 -80855.400000 0 0 1
33.933955 -26.574184 18.648733 46.962493 -0.664360 1.162443 0.009097 0.006458 110058.000000 0 0 1
33.594195 -27.975584 19.224933 47.757735 -0.694394 1.156494 0.003179 0.016115 328744.000000 0 0 1
32.390715 -28.084684 19.985933 47.300585 -0.714315 1.134561 0.000114 0.013317 133628.000000 0 0 1
32.405095 -27.537184 21.293233 47.558264 -0.704366 1.106572 0.005351 0.010070 -226273.000000 0 0 1
31.117335 -27.857584 22.102333 47.253006 -0.730181 1.084059 -0.006058 0.009142 -159867.000000 0 0 1
30.013665 -27.158484 21.659233 45.907795 -0.735500 1.079467 0.001892 0.008348 -747516.000000 0 0 1
29.310385 -26.512284 22.712233 45.583389 -0.735315 1.049209 0.005300 0.010069 156985.000000 0 0 1
28.349995 -25.355184 22.243833 44.061272 -0.729692 1.041601 0.024696 0.005444 90677.300000 0 0 1
28.883685 -24.235984 21.506033 43.406907 -0.698125 1.052441 0.026819 0.006825 177144.000000 0 0 1
29.811165 -23.434984 22.242633 43.961787 -0.666217 1.040309 0.034133 0.000128 -35251.000000 0 0 1
30.500515 -22.307084 21.459133 43.455515 -0.631469 1.054321 0.029963 0.006350 -506541.000000 0 0 1
29.747025 -21.204284 21.125333 42.199370 -0.619278 1.046496 0.035958 -0.000636 -413172.000000 0 0 1
30.542715 -20.090584 20.724533 42.023746 -0.581830 1.055075 0.030740 -0.000938 268211.000000 0 0 1
29.772335 -18.760184 21.077233 41.019339 -0.562274 1.031145 0.020827 0.003322 279329.000000 0 0 1
29.563675 -18.526684 22.472433 41.500110 -0.559800 0.998572 0.021540 -0.004619 415367.000000 0 0 1
28.677835 -19.390184 23.214733 41.681186 -0.594531 0.980076 0.038682 -0.005861 82587.800000 0 0 1
28.588285 -18.978684 24.697053 42.277948 -0.586059 0.946953 0.024346 -0.004231 14369.000000 0 0 1
28.028125 -17.698084 24.890783 41.452974 -0.563217 0.926722 0.015776 -0.001934 204207.000000 0 0 1
28.349475 -17.174184 26.187963 42.242807 -0.544675 0.902131 0.014801 -0.007893 -200424.000000 0 0 1
28.079645 -15.696784 26.482043 41.667182 -0.509734 0.882061 0.001330 -0.003095 381345.000000 0 0 1
26.681595 -15.414384 26.610883 40.714246 -0.523873 0.858463 0.017010 -0.002928 850948.000000 0 0 1
26.365865 -14.212884 27.363943 40.570313 -0.494408 0.830534 0.009223 -0.002976 10266.800000 0 0 1
26.796285 -12.879284 26.680853 39.947275 -0.448037 0.839410 0.006707 0.001981 -316954.000000 0 0 1
26.143875 -12.783784 25.427863 38.645873 -0.454791 0.852675 -0.006558 0.011645 343531.000000 0 0 1
26.759035 -11.955784 24.471803 38.181879 -0.420185 0.875091 -0.012147 0.017271 -10142.100000 0 0 1
27.967805 -12.486884 23.667233 38.707342 -0.419917 0.912917 -0.008964 0.018444 49678.300000 0 0 1
27.564945 -13.472684 22.725333 38.180887 -0.454616 0.933280 -0.002539 0.012089 247309.000000 0 0 1
28.316805 -14.686584 22.776033 39.195470 -0.478458 0.950731 0.001275 0.003113 -13896.900000 0 0 1
27.788945 -15.610384 21.746533 38.585246 -0.511818 0.972062 0.007078 0.002592 -310700.000000 0 0 1
28.202965 -15.214884 20.462733 38.021354 -0.494729 1.002508 0.001574 0.008830 -238620.000000 0 0 1
27.805795 -16.255884 19.574933 37.690768 -0.529036 1.024699 0.000113 0.002520 -356018.000000 0 0 1
28.250325 -16.143484 18.043033 37.205429 -0.519158 1.064482 -0.000235 -0.003018 -249641.000000 0 0 1
27.727935 -17.060284 17.144833 36.794523 -0.551575 1.086075 0.007222 -0.007009 -575980.000000 0 0 1
26.350715 -17.011984 16.905333 35.630858 -0.573275 1.076449 0.013258 -0.006460 -637493.000000 0 0 1
25.969055 -16.111784 15.708133 34.361706 -0.555301 1.096019 0.000204 -0.001095 -354786.000000 0 0 1
26.133595 -16.692084 14.413833 34.195746 -0.568406 1.135687 0.004883 0.001303 -111994.000000 0 0 1
25.112575 -17.576084 14.059633 33.722892 -0.610653 1.140746 -0.007214 -0.006322 -542317.000000 0 0 1
25.194655 -18.111684 12.628433 33.500463 -0.623279 1.184281 -0.009962 0.014779 -447245.000000 0 0 1
24.893565 -17.189684 11.622033 32.407506 -0.604340 1.204005 -0.006641 0.004483 -120199.000000 0 0 1
24.604065 -17.825584 10.382033 32.107601 -0.626979 1.241527 0.001704 0.003486 -416044.000000 0 0 1
25.800445 -18.206484 9.497333 32.974814 -0.614518 1.278640 -0.000513 0.008200 -479144.000000 0 0 1
26.579175 -19.077084 10.267833 34.290174 -0.622537 1.266691 -0.000244 0.023416 -480579.000000 0 0 1
27.889855 -19.262884 9.754133 35.271033 -0.604442 1.290596 0.005743 0.025536 564878.000000 0 0 1
28.797565 -20.010584 10.785533 36.688567 -0.607275 1.272413 0.034431 -0.001099 13656.900000 0 0 1
28.985745 -19.333184 11.990933 36.847359 -0.588226 1.239339 0.042932 -0.016182 174743.000000 0 0 1
29.171905 -20.248784 13.055533 37.834643 -0.606768 1.218485 0.037444 -0.014520 -93060.500000 0 0 1
29.110875 -19.735884 14.487033 38.037117 -0.595777 1.180064 0.033004 -0.006350 92813.200000 0 0 1
29.000925 -20.862484 15.323133 38.872809 -0.623610 1.165614 0.034583 -0.010876 66865.300000 0 0 1
28.928575 -20.423284 16.681133 39.143750 -0.614735 1.130563 0.043780 -0.017308 49087.600000 0 0 1
28.709705 -21.564784 17.711433 40.037256 -0.644225 1.112553 0.020548 -0.011573 120852.000000 0 0 1
27.380235 -22.036884 17.761033 39.379637 -0.677689 1.102888 0.010520 -0.009802 1919.860000 0 0 1
27.160455 -22.877784 18.882533 40.219813 -0.700018 1.082091 0.023358 -0.011114 914109.000000 0 0 1
25.820405 -23.736684 18.764233 39.777128 -0.743376 1.079540 0.006785 -0.005559 1846430.000000 0 0 1
24.644765 -22.980484 19.152733 38.759441 -0.750467 1.053947 0.019484 -0.003044 251681.000000 0 0 1
23.537265 -23.833184 19.083833 38.551474 -0.791645 1.052936 0.020899 -0.009351 -1078960.000000 0 0 1
22.292365 -23.269884 19.706633 37.772853 -0.806849 1.021937 0.020929 -0.002508 -1217450.000000 0 0 1
21.712265 -22.180584 19.076233 36.432175 -0.796067 1.019714 0.024577 -0.000996 757703.000000 0 0 1
20.522665 -21.650984 19.716033 35.758451 -0.812146 0.986794 0.028142 -0.005303 961201.000000 0 0 1
20.746065 -20.959584 21.149633 36.290637 -0.790518 0.948645 0.020529 -0.002048 -369926.000000 0 0 1
21.021665 -21.955384 22.022933 37.536101 -0.807121 0.943802 0.026649 -0.004314 -198911.000000 0 0 1
21.194065 -21.422484 23.296133 38.089644 -0.790758 0.912698 0.028576 -0.005500 28411.800000 0 0 1
21.580765 -22.548884 24.338723 39.579730 -0.807333 0.908500 0.030729 -0.010460 581048.000000 0 0 1
20.491265 -23.330384 24.859863 39.777023 -0.850096 0.895690 0.003994 0.003636 711957.000000 0 0 1
20.999665 -24.414984 25.671283 41.183639 -0.860460 0.897793 0.010582 0.006694 15333.700000 0 0 1
19.874265 -25.296984 26.227383 41.506619 -0.904874 0.886814 0.013817 0.009142 -87975.100000 0 0 1
19.210065 -26.177684 25.338573 41.186660 -0.937722 0.908140 0.017075 -0.001505 387330.000000 0 0 1
18.339965 -27.083084 26.011983 41.790800 -0.975555 0.898949 0.018353 -0.004889 30686.700000 0 0 1
17.706865 -28.112784 25.065023 41.618710 -1.008716 0.924475 0.041160 -0.012316 -31267.500000 0 0 1
16.756265 -27.496184 24.209903 40.285629 -1.023491 0.926099 0.041333 -0.013633 221679.000000 0 0 1
16.269465 -28.363884 23.208033 40.097608 -1.050016 0.953554 0.053971 -0.011382 -420144.000000 0 0 1
15.412465 -27.531784 22.250433 38.608612 -1.060456 0.956593 0.047531 -0.011264 -221131.000000 0 0 1
14.157065 -27.206284 22.810333 38.221926 -1.090994 0.931306 0.017668 -0.012635 -442268.000000 0 0 1
13.521665 -26.259784 22.023333 36.843437 -1.095285 0.930099 0.004760 -0.010764 407459.000000 0 0 1
12.107665 -25.852284 22.542333 36.374344 -1.132796 0.902396 0.001695 -0.006424 1100480.000000 0 0 1
10.996165 -26.743884 22.367933 36.557836 -1.180702 0.912398 0.009120 -0.008200 -245717.000000 0 0 1
9.816665 -26.029684 22.515733 35.789238 -1.210157 0.890375 0.004133 -0.002250 -151611.000000 0 0 1
8.586765 -26.995084 22.479833 36.163655 -1.262830 0.899995 0.011501 0.003351 206288.000000 0 0 1
8.410065 -27.676684 21.239933 35.886805 -1.275794 0.937433 0.021552 0.004004 236572.000000 0 0 1
7.148565 -28.328384 21.251133 36.127690 -1.323611 0.941937 0.012226 0.012751 435532.000000 0 0 1
6.667765 -29.156284 20.007333 35.983904 -1.345972 0.981221 0.024781 0.012160 90005.100000 0 0 1
7.366565 -30.370184 19.958733 37.080525 -1.332833 1.002433 0.028478 0.003001 54825.100000 0 0 1
7.006965 -31.178384 18.853033 37.102911 -1.349731 1.037786 0.012429 0.001334 59773.500000 0 0 1
7.670665 -32.602484 18.711633 38.365170 -1.339720 1.061315 0.012267 -0.004000 36479.800000 0 0 1
7.136765 -33.631984 19.529133 39.540243 -1.361696 1.054221 0.012533 0.001260 308764.000000 0 0 1
7.984265 34.557954 19.458933 40.455540 1.343741 1.069006 0.021500 -0.008208 -15335.900000 0 0 1
7.744265 33.431154 20.507133 39.976971 1.343163 1.032151 0.029055 -0.018262 276564.000000 0 0 1
6.713965 32.501554 20.150233 38.826025 1.367088 1.025130 0.030027 -0.019590 249894.000000 0 0 1
6.835965 31.435654 21.073633 38.458143 1.356671 0.990869 0.018108 -0.016907 310873.000000 0 0 1
5.847465 30.237454 20.860833 37.197726 1.379770 0.975433 0.027562 -0.020034 1307190.000000 0 0 1
4.461765 30.567954 21.083733 37.400948 1.425858 0.971911 0.025619 -0.015693 980315.000000 0 0 1
3.611365 29.420954 20.842533 36.235972 1.448659 0.957961 0.029327 -0.013782 -794484.000000 0 0 1
2.305065 29.627454 21.508733 36.684124 1.493151 0.944284 0.011057 -0.007922 -1798320.000000 0 0 1
2.375565 29.566854 22.924333 37.488227 1.490623 0.912832 0.016946 -0.016759 -909053.000000 0 0 1
1.110465 29.345854 23.419033 37.561461 1.532974 0.897603 0.002359 -0.010130 -898458.000000 0 0 1
1.059265 28.515154 24.688603 37.732786 1.533666 0.857538 0.015589 -0.014348 -255307.000000 0 0 1
1.162265 29.350954 25.810263 39.102417 1.531218 0.849887 0.013857 -0.013980 245699.000000 0 0 1
1.062965 28.764154 27.090353 39.527126 1.533859 0.815697 0.008733 -0.014821 -93771.600000 0 0 1
2.339365 28.133154 27.719723 39.564252 1.487834 0.794523 -0.004015 -0.015274 -55658.000000 0 0 1
2.747565 26.940854 27.047213 38.274149 1.469163 0.786015 0.004844 -0.014111 362604.000000 0 0 1
3.686065 26.234054 27.834673 38.426315 1.431203 0.760684 -0.019970 -0.003047 116133.000000 0 0 1
4.196265 24.858054 27.294043 37.155030 1.403564 0.745721 -0.016942 0.005924 -117771.000000 0 0 1
3.113665 23.953354 27.232183 36.401234 1.441532 0.725585 -0.003748 0.006103 60040.900000 0 0 1
3.534965 22.623554 26.951893 35.365601 1.415798 0.704256 -0.005567 0.010736 -456693.000000 0 0 1
2.374265 21.722154 26.592803 34.418981 1.461927 0.687838 -0.006902 0.013202 -709213.000000 0 0 1
2.588865 20.358154 26.547283 33.554655 1.444309 0.658084 -0.009320 0.019834 -241108.000000 0 0 1
3.288765 19.915354 25.416473 32.456654 1.407136 0.671178 0.000662 0.012536 -413433.000000 0 0 1
3.664965 18.422854 25.649943 31.792343 1.374424 0.632087 0.000747 0.011162 -176521.000000 0 0 1
4.680765 18.231054 26.619153 32.601537 1.319478 0.615474 -0.000500 0.007545 201796.000000 0 0 1
5.917965 18.008554 25.946013 32.132941 1.253294 0.630965 0.017517 0.011568 280126.000000 0 0 1
7.199965 17.781354 26.861543 33.008462 1.186059 0.620174 0.004269 0.007865 1003430.000000 0 0 1
7.654665 18.865454 27.641623 34.330141 1.185343 0.634833 -0.000734 0.009159 36925.100000 0 0 1
7.961165 20.013654 26.850523 34.422043 1.192199 0.676069 -0.003692 -0.004341 -766257.000000 0 0 1
8.265265 21.270654 27.656303 35.855633 1.200177 0.689878 -0.023751 -0.002279 -34953.000000 0 0 1
9.417365 21.124754 28.448413 36.664072 1.151443 0.682623 -0.012241 -0.011133 -39377.400000 0 0 1
9.733065 22.337754 29.183513 38.018222 1.159879 0.695678 0.007032 -0.010508 480173.000000 0 0 1
10.868565 22.149554 30.292433 39.068657 1.114624 0.683505 0.032846 -0.015159 1405220.000000 0 0 1
12.212165 22.177854 29.800953 39.103593 1.067457 0.704242 0.027756 -0.022151 221323.000000 0 0 1
13.081965 21.844054 30.881873 40.024874 1.031201 0.689496 0.037499 -0.015690 73593.500000 0 0 1
14.539465 21.840054 30.367073 40.131573 0.983446 0.712564 0.037844 -0.025282 108288.000000 0 0 1
15.082865 23.156154 30.111123 40.870283 0.993470 0.742547 0.031312 -0.045386 -44625.900000 0 0 1
16.296665 22.982854 29.413833 40.730412 0.954003 0.763878 0.065758 -0.020436 -16909.000000 0 0 1
-8.327530 16.813054 4.401656 19.271770 -1.110915 1.340363 0.011067 -0.009941 -121734.000000 0 1 0
-8.286130 18.174854 4.817356 20.547316 -1.143037 1.334142 0.010989 -0.007797 148447.000000 0 1 0
-6.959330 18.573654 5.099356 20.479656 -1.212299 1.319153 0.002158 0.000601 -127247.000000 0 1 0
-6.950630 20.082554 5.585456 21.973110 -1.237598 1.313781 0.009680 0.001326 -13754.200000 0 1 0
-7.216630 21.184654 4.695856 22.867452 -1.242472 1.363974 0.014393 -0.003623 -26562.900000 0 1 0
-8.581830 21.360754 4.377756 23.432762 -1.188776 1.382870 0.011591 -0.009840 108985.000000 0 1 0
-8.769230 22.450554 3.261056 24.322032 -1.198418 1.436313 0.017263 -0.018285 87060.100000 0 1 0
-8.066330 22.290354 2.036156 23.792257 -1.223582 1.485111 0.005484 -0.018238 -224318.000000 0 1 0
-8.552830 21.265754 1.209956 22.953152 -1.188405 1.518058 0.019217 -0.018154 -1100660.000000 0 1 0
-7.851130 21.154654 -0.206744 22.565513 -1.215423 1.579958 0.007728 -0.013196 4135.330000 0 1 0
-6.564430 20.613954 -0.321644 21.636319 -1.262504 1.585663 -0.001436 -0.006982 -965857.000000 0 1 0
-5.642930 21.503154 0.163756 22.231849 -1.314160 1.563430 -0.000916 -0.010178 -852424.000000 0 1 0
-4.191630 21.470854 -0.424344 21.880297 -1.377997 1.590191 -0.002613 -0.001069 632864.000000 0 1 0
-4.151630 21.695354 -1.819044 22.163784 -1.381722 1.652962 -0.004561 -0.008569 -25777.200000 0 1 0
-2.830430 21.571154 -2.309844 21.878331 -1.440328 1.676570 -0.003841 -0.003256 100310.000000 0 1 0
-2.787430 21.643554 -3.865044 22.161944 -1.442713 1.746093 0.002152 -0.013961 263338.000000 0 1 0
-1.589030 22.255354 -4.325444 22.727412 -1.499517 1.762283 0.005341 -0.001729 285732.000000 0 1 0
-1.600330 22.504254 -5.734444 23.278452 -1.499804 1.819700 0.014687 -0.011728 181301.000000 0 1 0
-0.276930 23.123754 -6.277744 23.962361 -1.558821 1.835873 0.020119 -0.015498 92165.600000 0 1 0
0.811170 22.255954 -6.162644 23.107654 1.534365 1.840756 0.001288 -0.008776 -743477.000000 0 1 0
1.985970 22.853654 -6.633144 23.879534 1.484115 1.852274 0.004068 -0.011665 -748235.000000 0 1 0
3.144570 21.909754 -6.761144 23.143870 1.428246 1.867255 0.007782 -0.004676 -623645.000000 0 1 0
2.847870 20.927354 -7.769444 22.503972 1.435544 1.923299 0.008311 -0.013203 -620780.000000 0 1 0
3.842670 19.998054 -7.794244 21.804552 1.380958 1.936343 0.008644 -0.009715 -510530.000000 0 1 0
3.574270 18.946454 -8.874644 21.225052 1.384337 2.002172 0.001422 -0.011739 -365185.000000 0 1 0
4.159170 19.264654 -10.064944 22.129814 1.358163 2.042959 0.003791 -0.018011 -274889.000000 0 1 0
3.139470 19.203154 -11.050444 22.376990 1.408743 2.087286 0.009421 -0.015709 -314871.000000 0 1 0
3.466470 19.612654 -12.493944 23.511087 1.395856 2.131056 0.015611 -0.014476 -344758.000000 0 1 0
3.657070 20.974354 -12.640144 24.760269 1.398173 2.106564 0.033921 -0.015206 31622.900000 0 1 0
4.007870 21.302454 -13.977744 25.792148 1.384829 2.143538 0.037157 -0.014925 -39465.200000 0 0 1
4.336070 22.787554 -14.263444 27.230864 1.382762 2.122099 0.027087 -0.020143 -128540.000000 0 0 1
3.193570 23.607954 -14.425644 27.850199 1.436337 2.115276 0.036034 -0.018034 19273.400000 0 0 1
3.515570 24.858454 -14.990744 29.240799 1.430304 2.109083 0.020226 -0.015670 235941.000000 0 0 1
2.200670 25.578054 -15.438544 29.957110 1.484970 2.112218 0.020733 -0.009364 681608.000000 0 0 1
1.343970 25.853854 -14.338444 29.594239 1.518860 2.076589 0.034844 -0.016681 -3472.750000 0 0 1
1.232070 27.245654 -14.111244 30.707830 1.525606 2.048265 0.021833 -0.009815 -1189180.000000 0 0 1
0.511470 27.732854 -12.856444 30.572225 1.552356 2.004822 0.032357 -0.018779 374697.000000 0 0 1
-0.907030 27.633454 -12.789844 30.463266 -1.537984 2.004071 0.032290 -0.029714 764770.000000 0 0 1
-1.581230 26.384954 -13.138944 29.517756 -1.510939 2.032105 0.030748 -0.024888 -427628.000000 0 0 1
-1.446330 25.220554 -12.059944 27.993043 -1.513512 2.016197 0.059879 -0.032702 -752376.000000 0 0 1
-2.264430 25.392754 -10.934044 27.739374 -1.481855 1.975961 0.045697 -0.025597 -295002.000000 0 0 1
-2.347930 24.168854 -10.268244 26.364429 -1.473953 1.970856 0.065413 -0.025990 778946.000000 0 0 1
-3.446130 24.300954 -9.096144 26.175408 -1.429925 1.925708 0.045415 -0.021291 722463.000000 0 0 1
-3.093330 24.883154 -7.873044 26.281645 -1.447117 1.875032 0.040078 -0.022958 -105129.000000 0 0 1
-2.621130 26.227654 -7.903344 27.517685 -1.471189 1.862109 0.038811 -0.022907 -15842.500000 0 0 1
-2.362930 26.707454 -6.476644 27.582937 -1.482552 1.807815 0.026328 -0.014789 -206660.000000 0 0 1
-1.306530 26.013654 -5.863044 26.698174 -1.520614 1.792206 0.026209 -0.019270 -193471.000000 0 0 1
-1.027930 26.489854 -4.528844 26.893855 -1.532011 1.740000 0.014017 -0.012769 -89123.800000 0 0 1
-1.790230 25.752954 -3.385644 26.036170 -1.501392 1.701202 0.012226 -0.013480 340469.000000 0 0 1
-3.200930 25.833654 -3.556444 26.273026 -1.447519 1.706578 -0.001928 -0.011260 224499.000000 0 0 1
-3.906530 25.271454 -2.457444 25.689422 -1.417428 1.666603 -0.001371 -0.011445 -102514.000000 0 0 1
-5.224530 24.631354 -2.915444 25.347566 -1.361785 1.686070 -0.002413 -0.012228 -828289.000000 0 0 1
-6.144530 25.548254 -3.333844 26.487413 -1.334772 1.696996 -0.004963 -0.009377 -888594.000000 0 0 1
-7.213530 24.953254 -4.046344 26.288263 -1.289386 1.725333 -0.012648 -0.007237 -99071.200000 0 0 1
-8.455330 25.818454 -4.214144 27.492620 -1.254312 1.724686 -0.014125 -0.006917 -429513.000000 0 0 1
-9.231130 25.763454 -3.029244 27.534444 -1.226744 1.681036 -0.015862 -0.012211 -37752.800000 0 0 1
-10.385430 26.597654 -3.199744 28.732050 -1.198537 1.682393 -0.006120 -0.008860 642703.000000 0 0 1
-11.139030 26.771554 -1.817544 29.053357 -1.176508 1.633396 -0.003614 -0.007637 531266.000000 0 0 1
-11.724130 25.603654 -1.198444 28.185787 -1.141385 1.613329 0.004887 -0.012492 733723.000000 0 0 1
-10.698830 24.794254 -0.607344 27.010902 -1.163429 1.593283 0.004940 -0.016463 551262.000000 0 0 1
-11.244630 23.394054 -0.243044 25.957321 -1.122739 1.580160 0.013138 -0.021389 -257442.000000 0 0 1
-12.190630 23.431354 0.787156 26.424599 -1.091065 1.541003 0.021126 -0.020415 -375082.000000 0 0 1
-12.604530 22.091854 1.103956 25.458651 -1.052312 1.527420 0.019303 -0.022599 -138829.000000 0 0 1
-13.532930 22.042254 2.335956 25.970326 -1.020180 1.480727 0.023814 -0.024074 -317334.000000 0 0 1
-12.925930 22.077154 3.645956 25.841311 -1.041115 1.429234 0.021031 -0.024893 93212.300000 0 0 1
-12.505030 23.352554 4.080856 26.802443 -1.079162 1.417945 0.014095 -0.013392 -186710.000000 0 0 1
-12.321030 23.420854 5.617056 27.053567 -1.086510 1.361648 0.015320 -0.014130 29941.100000 0 0 1
-11.082930 22.869654 6.085056 26.131979 -1.119534 1.335780 0.014495 -0.009933 579605.000000 0 0 1
-11.225930 22.318454 7.379056 26.049671 -1.104761 1.283596 0.012980 -0.012563 -156113.000000 0 0 1
-9.856430 22.015854 8.044756 25.427645 -1.149859 1.248887 0.017154 -0.011125 292796.000000 0 0 1
-9.187430 23.166954 8.548956 26.347700 -1.193246 1.240348 0.022817 -0.013826 537344.000000 0 0 1
-7.970830 22.820054 9.230556 25.874546 -1.234754 1.206017 0.029036 -0.009075 471010.000000 0 0 1
-7.969430 22.473754 10.766756 26.163036 -1.230020 1.146669 0.024861 -0.009511 -239185.000000 0 0 1
-8.613730 21.228654 10.985356 25.407285 -1.185335 1.123676 0.033489 -0.005778 -56970.800000 0 0 1
-8.279330 20.666854 12.250756 25.411556 -1.189765 1.067753 0.020885 -0.002633 -809722.000000 0 0 1
-9.288730 19.723154 12.865056 25.313889 -1.130653 1.037678 0.019082 -0.006053 -634422.000000 0 0 1
-9.604030 18.698854 11.907356 24.159256 -1.096315 1.055412 0.034886 -0.013958 135858.000000 0 1 0
-10.225830 17.565154 12.517556 23.870305 -1.043594 1.018788 0.031110 -0.013774 92700.400000 0 1 0
-10.638930 16.474654 11.403456 22.685675 -0.997397 1.044109 0.034393 -0.022210 18544.400000 0 1 0
-11.106230 15.322454 12.071956 22.446783 -0.943597 1.002967 0.023125 -0.017455 189453.000000 0 1 0
-11.566730 14.291454 11.164756 21.510153 -0.890383 1.025062 0.021739 -0.011488 265751.000000 0 1 0
-11.851030 12.858754 11.787156 21.088658 -0.826158 0.977697 0.012038 -0.013048 -509581.000000 0 1 0
-12.859030 12.972954 12.709756 22.252867 -0.789808 0.962888 0.017619 -0.009620 -646235.000000 0 1 0
-13.082930 11.716354 13.306256 22.033893 -0.730348 0.922412 -0.001940 0.000541 80885.200000 0 1 0
-13.830730 11.745354 14.672856 23.335277 -0.704042 0.890807 -0.007921 0.004581 -398948.000000 0 1 0
-15.157030 12.131554 14.539456 24.255019 -0.674979 0.927994 0.003621 0.002175 -626457.000000 0 1 0
-15.777830 12.325654 15.808956 25.510483 -0.663172 0.902430 -0.001542 0.005097 301876.000000 0 0 1
-16.673230 13.643854 15.758456 26.692326 -0.685806 0.939274 0.015583 0.003122 182866.000000 0 0 1
-17.842530 13.408254 15.010456 26.897043 -0.644446 0.978737 0.006906 0.008170 -151713.000000 0 0 1
-18.579930 14.587554 14.814156 27.883145 -0.665604 1.010669 0.026836 0.001868 -268776.000000 0 0 1
-19.919130 14.478254 14.086056 28.369148 -0.628521 1.051203 0.021477 0.002976 107678.000000 0 0 1
-20.791030 13.530554 14.748756 28.859463 -0.576929 1.034385 0.019497 0.010177 446597.000000 0 0 1
-22.015630 13.397454 14.039556 29.347723 -0.546677 1.071980 0.001530 0.017768 335218.000000 0 0 1
-22.947030 12.342654 14.718656 29.925677 -0.493487 1.056594 -0.004279 0.025738 -19662.400000 0 0 1
-23.484930 12.744954 15.947156 31.117319 -0.497211 1.032720 0.003919 0.013370 181437.000000 0 0 1
-24.231930 11.704254 16.563356 31.599379 -0.449963 1.019059 0.006441 0.018007 431036.000000 0 0 1
-25.128770 12.225254 17.790856 33.127428 -0.452793 1.003868 0.006638 0.009713 -147920.000000 0 0 1
-26.126000 13.086454 17.342256 33.979067 -0.464366 1.035169 0.007597 0.016388 -336490.000000 0 0 1
-26.775480 13.655454 18.462556 35.274123 -0.471614 1.019957 -0.003209 0.019927 552134.000000 0 0 1
-27.947330 14.638654 18.083456 36.364197 -0.482501 1.050327 -0.004452 0.013609 567895.000000 0 0 1
-27.497960 15.974154 17.829256 36.458110 -0.526273 1.059814 -0.005959 0.014460 1486220.000000 0 0 1
-28.616200 16.939854 17.626956 37.637151 -0.534492 1.083386 0.007957 0.012705 1188970.000000 0 0 1
-28.128100 18.391254 17.531556 37.904930 -0.579069 1.089968 0.019431 0.011269 -389234.000000 0 0 1
-27.419060 18.914154 18.614956 38.158441 -0.603859 1.061190 0.009686 0.011698 -481370.000000 0 0 1
-28.047990 19.160454 19.836556 39.335756 -0.599315 1.042239 0.015268 0.011595 -1137070.000000 0 0 1
-27.054380 19.318554 21.019356 39.331404 -0.620103 1.006979 0.011142 0.002781 296508.000000 0 0 1
-26.717270 18.060754 21.577356 38.801877 -0.594433 0.981122 0.009203 -0.001905 254878.000000 0 0 1
-25.954710 17.169654 20.727456 37.390793 -0.584434 0.983219 0.021503 0.006550 -669144.000000 0 0 1
-25.547870 15.864554 21.366456 36.890421 -0.555699 0.953065 0.007109 0.006928 -433923.000000 0 0 1
-26.593210 15.012954 21.720156 37.474695 -0.513938 0.952564 -0.023811 0.006620 145373.000000 0 0 1
-26.063520 13.754454 22.123056 36.849989 -0.485583 0.926852 -0.026714 0.013203 228363.000000 0 0 1
-27.257150 12.804854 22.441956 37.557395 -0.439180 0.930370 -0.017077 0.005262 433890.000000 0 0 1
-28.092490 12.558354 21.333256 37.443398 -0.420386 0.964599 -0.012183 -0.002506 119753.000000 0 0 1
-28.972050 11.462454 21.504856 37.857976 -0.376741 0.966674 0.006079 -0.008014 -121250.000000 0 0 1
-29.752190 11.140754 20.182956 37.638556 -0.358290 1.004831 0.021118 -0.000831 33793.900000 0 0 1
-28.992480 10.824554 19.003856 36.316407 -0.357330 1.020094 0.033412 -0.007812 261955.000000 0 0 1
-28.201270 9.663154 19.069456 35.388308 -0.330112 1.001709 0.048301 -0.008048 -101631.000000 0 0 1
-27.400130 9.335354 17.771456 33.966757 -0.328370 1.020193 0.060905 -0.007984 321204.000000 0 0 1
-28.231310 9.112354 16.581156 33.984947 -0.312218 1.061117 0.044440 0.010578 921633.000000 0 0 1
-28.894700 10.281054 16.048756 34.614539 -0.341842 1.088695 0.033708 0.012007 -155401.000000 0 0 1
-28.035420 11.437554 15.464756 33.999428 -0.387356 1.098589 0.026218 0.008252 -509052.000000 0 0 1
-27.661040 11.118754 14.149456 32.999499 -0.382199 1.127657 0.013970 -0.001116 -97185.900000 0 0 1
-26.783970 12.063754 13.665856 32.398624 -0.423194 1.135363 -0.002050 -0.000304 -630687.000000 0 0 1
-26.739260 12.067154 12.113156 31.738506 -0.423926 1.179210 0.010721 -0.001971 -377759.000000 0 0 1
-26.202520 10.915354 11.415156 30.594489 -0.394714 1.188436 0.025170 0.010511 772169.000000 0 0 1
-27.011680 9.703454 11.455756 30.903434 -0.344875 1.191039 0.002579 0.014995 467398.000000 0 0 1
-26.275870 8.537954 10.670356 29.617132 -0.314173 1.202232 -0.003412 0.008392 112501.000000 0 0 1
-26.418610 8.694554 9.237456 29.306464 -0.317942 1.250127 0.016123 0.006237 261570.000000 0 0 1
-25.830970 7.670954 8.451056 28.240094 -0.288672 1.266882 0.016717 0.003349 -31465.500000 0 0 1
-25.159190 8.211254 7.161956 27.417205 -0.315472 1.306509 0.024892 0.008672 118654.000000 0 0 1
-26.108520 8.510854 6.140556 28.138868 -0.315118 1.350803 0.025860 0.005481 63839.400000 0 0 1
-25.516460 8.906454 4.928056 27.471811 -0.335826 1.390434 0.038384 0.007395 190563.000000 0 0 1
-26.464280 8.832954 3.687856 28.142130 -0.322143 1.439374 0.017631 0.008360 -220173.000000 0 0 1
-26.911870 7.596554 3.163656 28.141874 -0.275117 1.458140 0.017157 -0.001524 884696.000000 0 0 1
-25.903770 6.591454 2.848856 26.880635 -0.249171 1.464615 0.019498 0.002556 1003030.000000 0 0 1
-24.703730 6.853454 1.882656 25.705806 -0.270620 1.497492 0.038743 -0.007030 -407539.000000 0 0 1
-23.737130 7.740654 2.274156 25.070717 -0.315226 1.479962 0.038734 -0.002901 -470196.000000 0 0 1
-22.901030 7.990254 1.186156 24.283910 -0.335698 1.521932 0.047694 0.002157 69124.900000 0 1 0
-21.665330 8.899954 1.461756 23.467689 -0.389775 1.508468 0.028763 0.005916 399880.000000 0 1 0
-22.117230 10.193554 1.625956 24.407460 -0.431871 1.504130 0.033009 0.003837 728015.000000 0 1 0
-21.012330 11.089254 1.731056 23.821967 -0.485600 1.498066 0.027952 0.011017 -237644.000000 0 1 0
-21.313130 12.498454 2.162956 24.802000 -0.530375 1.483476 0.012852 0.011510 -150680.000000 0 1 0
-20.202030 13.380854 2.316056 24.342008 -0.585010 1.475506 0.007158 0.003352 584759.000000 0 1 0
-20.540030 14.510954 3.091756 25.338105 -0.615056 1.448471 -0.007637 -0.005633 -603137.000000 0 0 1
-19.408430 15.009254 3.989156 24.857156 -0.658270 1.409616 -0.031110 -0.004971 -390118.000000 0 1 0
-19.217030 14.017354 5.032056 24.312590 -0.630202 1.362316 -0.017739 -0.000491 53777.800000 0 1 0
-18.580230 14.733154 6.050756 24.472483 -0.670426 1.320958 -0.015703 0.001643 -221267.000000 0 1 0
-18.028530 13.776554 7.157556 23.791846 -0.652498 1.265222 -0.022736 0.008783 -140131.000000 0 1 0
-17.056030 12.889654 6.676856 22.397137 -0.647155 1.268082 -0.012125 0.006878 -92127.300000 0 1 0
-16.583130 12.075854 7.694756 21.909717 -0.629403 1.211941 -0.017605 0.010795 -554655.000000 0 1 0
9.679070 -33.998784 -14.327444 38.142854 -1.293445 1.955868 0.001358 0.017382 -270864.000000 0 0 1
10.835470 -33.471584 -13.701444 37.755581 -1.257721 1.942173 -0.000760 0.000857 319176.000000 0 0 1
11.371370 -32.314784 -14.324644 37.131506 -1.232435 1.966851 -0.003150 -0.009228 -19691.400000 0 0 1
12.536570 -31.708284 -13.509644 36.675487 -1.194286 1.948037 0.005609 -0.015165 642235.000000 0 0 1
13.832070 -32.227684 -13.847944 37.705640 -1.165375 1.946863 0.005349 -0.008136 640601.000000 0 0 1
14.820070 -31.765884 -12.928844 37.361221 -1.134273 1.924154 0.008285 -0.002386 992375.000000 0 0 1
16.254670 -32.247184 -13.392344 38.515582 -1.103902 1.925926 0.023797 -0.004931 724898.000000 0 0 1
16.357670 -33.623784 -13.327344 39.695721 -1.118014 1.913184 0.027920 -0.016316 -50592.900000 0 0 1
17.473070 -34.069784 -14.081644 40.796459 -1.096913 1.923214 0.013150 0.004682 187996.000000 0 0 1
17.692070 33.754254 -13.763244 40.518957 1.088021 1.917367 -0.000603 -0.001126 -88126.000000 0 0 1
18.231970 33.383854 -12.490444 40.036204 1.070928 1.888071 0.003918 -0.002167 -223793.000000 0 0 1
18.209270 31.939754 -12.352044 38.785286 1.052642 1.894914 -0.005191 -0.001321 25660.500000 0 0 1
18.793570 31.498854 -10.972444 38.285384 1.032849 1.861468 0.008993 -0.016683 83157.400000 0 0 1
20.150370 31.139454 -10.969644 38.678626 0.996462 1.858353 -0.004324 -0.012555 -394709.000000 0 0 1
20.508570 30.856854 -9.631244 38.281951 0.984201 1.825116 0.009502 -0.008255 -472048.000000 0 0 1
21.602170 29.810454 -9.532744 38.028806 0.943717 1.824170 0.002869 0.011855 -451790.000000 0 0 1
22.738970 30.306154 -10.207044 39.239106 0.927098 1.833947 0.003146 -0.002361 230347.000000 0 0 1
23.850070 29.390454 -10.144144 39.185817 0.889088 1.832651 -0.000912 0.007662 240292.000000 0 0 1
24.980570 29.787254 -11.063744 40.419250 0.872939 1.848060 -0.009025 -0.004864 -811167.000000 0 0 1
25.680070 30.924654 -10.676644 41.590755 0.877787 1.830410 -0.002123 -0.006262 -493943.000000 0 0 1
26.714670 31.180654 -11.577944 42.660937 0.862385 1.845638 0.008172 -0.007459 -496648.000000 0 0 1
27.243770 32.606554 -11.431544 44.001029 0.874763 1.833613 0.007258 -0.003402 -232830.000000 0 0 1
26.447970 33.714254 -11.839644 44.455857 0.905594 1.840373 0.014883 0.000610 -125364.000000 0 0 1
27.075370 -34.379384 -11.475644 45.240558 -0.903695 1.827257 0.015081 -0.004128 -563388.000000 0 0 1
26.384970 -33.089984 -11.759944 43.925049 -0.897661 1.841830 0.023017 0.006412 -386012.000000 0 0 1
25.090370 -33.194084 -11.197044 43.089995 -0.923550 1.833666 0.027694 -0.010593 -80102.300000 0 0 1
24.141170 -32.175884 -11.485944 41.833127 -0.927111 1.848934 0.038127 -0.014923 199976.000000 0 0 1
24.339870 -30.748584 -10.968344 40.721115 -0.901213 1.843517 0.021895 -0.001621 -601484.000000 0 0 1
25.329170 -30.085284 -11.711944 41.034873 -0.871016 1.860235 0.017758 0.008522 -193966.000000 0 0 1
25.614970 -28.836484 -11.106444 40.137546 -0.844492 1.851165 0.009614 0.004658 -7959.290000 0 0 1
26.499270 -27.932084 -12.016144 40.333613 -0.811715 1.873308 0.012805 0.021320 1163940.000000 0 0 1
27.807970 -28.448284 -12.324644 41.647147 -0.796780 1.871225 0.004439 0.017407 775215.000000 0 0 1
27.775170 -29.182484 -13.564744 42.509760 -0.810101 1.895573 0.009606 0.004921 694213.000000 0 0 1
29.139870 -29.857584 -13.995444 44.005452 -0.797563 1.894457 0.012161 0.012557 931789.000000 0 0 1
29.514070 -31.019084 -13.249144 44.819680 -0.810256 1.870890 0.004401 0.010792 -240916.000000 0 0 1
30.700670 -31.569984 -13.752144 46.133681 -0.799357 1.873491 0.001332 0.005219 -98711.600000 0 0 1
31.312170 -32.596984 -12.682344 46.945257 -0.805499 1.844347 -0.020495 0.007952 -18001.200000 0 0 1
32.419970 -33.283584 -13.197544 48.301414 -0.798541 1.847549 -0.026567 0.003799 -444408.000000 0 0 1
33.015970 -34.179884 -12.247644 49.074673 -0.802718 1.823034 -0.026772 0.000859 -246826.000000 0 0 1
32.324570 33.857554 -11.663544 48.241580 0.808557 1.814990 -0.017244 -0.001688 45077.900000 0 0 1
31.394270 34.112254 -10.624944 47.561912 0.826866 1.796089 -0.027704 -0.008616 254439.000000 0 0 1
30.827770 32.926654 -9.970444 46.194434 0.818308 1.788345 -0.014978 -0.005439 -96219.000000 0 0 1
30.260170 33.320854 -8.598244 45.824524 0.833499 1.759549 -0.020081 -0.006818 -1052320.000000 0 0 1
29.068370 33.968954 -8.784944 45.563529 0.862983 1.764818 -0.015964 -0.010561 -1222790.000000 0 0 1
28.600770 34.545054 -7.556844 45.480443 0.879257 1.737726 -0.006808 -0.012561 728530.000000 0 0 1
27.659570 -33.536484 -7.825544 44.169975 -0.881139 1.748905 0.003177 -0.018711 303064.000000 0 0 1
28.379670 -32.316084 -8.033944 43.752476 -0.850162 1.755467 -0.006122 -0.016675 227846.000000 0 0 1
27.587470 -31.206784 -8.377044 42.486548 -0.846880 1.769266 0.001331 -0.009512 56142.700000 0 0 1
26.554270 -30.630084 -7.375044 41.203429 -0.856553 1.750757 0.010497 -0.012895 433220.000000 0 0 1
25.647570 -29.773284 -8.034344 40.109811 -0.859704 1.772469 0.009673 -0.022456 9663.380000 0 0 1
24.658970 -29.190484 -7.210944 38.886333 -0.869352 1.757312 0.007914 -0.027940 -71536.200000 0 0 1
23.757770 -28.206584 -7.935044 37.722777 -0.870803 1.782731 0.040402 -0.033499 33378.500000 0 0 1
22.747870 -28.837084 -8.753244 37.757943 -0.902897 1.804750 0.049368 -0.031085 776423.000000 0 0 1
22.052770 -27.927684 -9.609344 36.859458 -0.902405 1.834546 0.070073 -0.031038 377743.000000 0 0 1
20.749770 -28.510784 -10.219844 36.713253 -0.941664 1.852892 0.068328 -0.026843 108146.000000 0 0 1
21.036270 -29.339884 -11.316444 37.834050 -0.948761 1.874553 0.075147 -0.024422 503340.000000 0 0 1
20.009470 -30.259284 -11.775844 38.140184 -0.986541 1.884677 0.064270 -0.025235 586049.000000 0 0 1
19.679970 -31.506084 -10.909544 38.716310 -1.012456 1.856447 0.060533 -0.035630 -95583.900000 0 0 1
20.717170 -32.438384 -10.900944 40.003505 -1.002433 1.846786 0.040019 -0.024074 -98344.700000 0 0 1
20.264570 -33.666784 -10.318744 40.627350 -1.028969 1.827595 0.024464 -0.024545 551990.000000 0 0 1
21.355370 34.551854 -10.511144 41.956723 1.017198 1.824017 0.024462 -0.018839 1131450.000000 0 0 1
22.366070 34.620354 -9.485044 42.293924 0.997211 1.796985 0.026034 -0.009967 407573.000000 0 0 1
23.406670 33.674554 -9.649944 42.130383 0.963377 1.801897 0.005646 -0.005273 -309417.000000 0 0 1
24.700570 33.987654 -8.898444 42.947189 0.942341 1.779503 0.006745 -0.004615 -746714.000000 0 0 1
24.843970 33.438354 -7.629544 42.350399 0.931804 1.751938 0.005999 -0.015539 -129880.000000 0 0 1
25.288470 32.154554 -7.639944 41.614791 0.904362 1.755431 0.009436 -0.009412 -513098.000000 0 0 1
25.531870 31.686654 -6.254444 41.170845 0.892552 1.723301 0.021348 -0.008049 -182939.000000 0 0 1
26.503470 32.404254 -5.517244 42.224514 0.885235 1.701835 0.009502 -0.009916 327617.000000 0 0 1
27.425970 31.623954 -4.719844 42.125233 0.856371 1.683075 0.017287 -0.004916 240465.000000 0 0 1
26.919870 30.694754 -3.579344 40.983643 0.850824 1.658244 0.019026 0.005230 -934262.000000 0 0 1
26.275070 31.327554 -2.523344 40.965378 0.872887 1.632432 0.015477 0.002676 22883.600000 0 0 1
25.979370 30.382854 -1.490144 40.003325 0.863368 1.608055 0.007342 0.010115 -616224.000000 0 0 1
24.692270 29.594754 -1.575844 38.575134 0.875461 1.611659 0.022273 0.004103 -725661.000000 0 0 1
23.504670 30.267754 -1.242244 38.342530 0.910514 1.603201 0.031578 0.001355 738350.000000 0 0 1
22.291870 29.587554 -1.668544 37.082811 0.925110 1.615807 0.034749 0.007442 1129270.000000 0 0 1
21.052270 30.201854 -0.987744 36.828327 0.962051 1.597620 0.051708 -0.002147 -148039.000000 0 0 1
20.939970 29.768854 0.342856 36.397590 0.957780 1.561376 0.057041 -0.014275 50522.500000 0 0 1
19.954870 30.510854 1.026656 36.471401 0.991597 1.542643 0.051554 -0.014152 15750.600000 0 0 1
19.230170 29.799854 2.237856 35.536442 0.997725 1.507781 0.047808 -0.025921 -199757.000000 0 0 1
18.519170 28.712554 1.710956 34.209615 0.997955 1.520762 0.049578 -0.021355 -85231.900000 0 0 1
17.795370 28.059354 2.719156 33.337612 1.005605 1.489141 0.058446 -0.022056 -549580.000000 0 0 1
17.182770 26.799654 2.090356 31.903583 1.000663 1.505228 0.043052 0.003285 10057.900000 0 0 1
18.062370 25.742454 1.656156 31.490729 0.958959 1.518180 0.038547 -0.005821 85646.000000 0 0 1
18.838470 25.150354 2.645156 31.534507 0.927914 1.486816 0.053424 -0.002090 -588179.000000 0 0 1
20.158670 24.572954 2.118756 31.854218 0.883763 1.504233 0.051485 0.003307 -414557.000000 0 0 1
19.947870 23.475654 1.212156 30.830069 0.866461 1.531469 0.042082 0.012942 442307.000000 0 0 1
21.184570 22.864654 0.886456 31.182755 0.823521 1.542365 0.017478 0.014688 139971.000000 0 0 1
21.000870 21.616154 -0.035344 30.137948 0.799835 1.571969 0.052082 0.007900 -251253.000000 0 0 1
20.724770 22.000354 -1.353044 30.254957 0.815245 1.615533 0.030011 0.013956 363517.000000 0 0 1
20.976570 20.957254 -2.268544 29.738347 0.784938 1.647154 0.069658 0.003375 -100020.000000 0 0 1
20.875870 21.492554 -3.665944 30.185609 0.799952 1.692544 0.042922 0.008362 156058.000000 0 0 1
21.764970 22.612154 -3.865244 31.622200 0.804486 1.693335 0.031083 0.010194 805319.000000 0 0 1
21.426570 23.266154 -5.086644 32.035695 0.826536 1.730252 0.025217 0.003880 -134150.000000 0 0 1
22.559270 24.238354 -5.492944 33.564727 0.821262 1.735188 0.023931 0.019845 -54432.700000 0 0 1
22.601370 25.491854 -4.822844 34.408086 0.845428 1.711425 0.014969 0.016597 38878.800000 0 0 1
22.892770 25.496054 -3.364644 34.430343 0.839146 1.668676 0.034210 0.012647 -10785.700000 0 0 1
21.724170 25.366854 -2.337644 33.479567 0.862599 1.640676 0.025651 0.012359 -696470.000000 0 0 1
20.819470 26.471154 -2.346544 33.759126 0.904344 1.640361 0.034632 0.008684 988991.000000 0 0 1
19.598770 26.334154 -1.620144 32.866766 0.930996 1.620111 0.046966 0.008303 661841.000000 0 0 1
18.640670 25.211554 -2.081644 31.423403 0.934133 1.637090 0.037342 -0.000268 -1143660.000000 0 0 1
17.965770 25.427954 -3.303844 31.309186 0.955697 1.676516 0.036722 -0.007412 249564.000000 0 0 1
17.189370 24.288754 -3.676844 29.982281 0.954915 1.693740 0.024550 -0.009238 207494.000000 0 0 1
16.435570 24.488854 -5.010244 29.915455 0.979700 1.739069 0.029288 -0.003371 -117734.000000 0 0 1
15.788370 23.331454 -5.495044 28.702350 0.975880 1.763435 0.042472 -0.005646 129837.000000 0 0 1
15.769670 23.484954 -6.892844 29.115921 0.979469 1.809803 0.030737 -0.007634 -9138.890000 0 0 1
15.035770 22.355054 -7.649744 28.006096 0.978705 1.847458 0.034446 -0.008962 -618055.000000 0 0 1
15.760970 21.163854 -7.765844 27.506821 0.930688 1.857012 0.012323 0.001977 121319.000000 0 0 1
15.082170 20.036254 -8.337744 26.428040 0.925541 1.891768 0.023484 -0.003182 -350078.000000 0 0 1
15.978370 18.818554 -8.560344 26.129022 0.866839 1.904578 0.011484 0.007301 -89442.800000 0 0 1
17.016370 19.067554 -9.486944 27.260421 0.842182 1.926246 -0.004209 0.006865 265384.000000 0 0 1
17.771370 17.947454 -9.872644 27.118293 0.790328 1.943418 -0.008592 0.011035 119865.000000 0 0 1
19.121770 18.267854 -10.585344 28.485191 0.762564 1.951537 -0.015137 0.014784 151222.000000 0 0 1
19.109470 18.624654 -11.992644 29.255309 0.772551 1.993174 -0.018546 0.013622 -74637.400000 0 0 1
20.277870 19.290454 -12.407544 30.614715 0.760449 1.988082 -0.013369 0.017218 -366951.000000 0 0 1
20.357270 19.555654 -13.920544 31.474173 0.765317 2.028941 -0.014202 0.014875 -389616.000000 0 0 1
20.483170 18.404054 -14.735444 31.231439 0.731984 2.062144 -0.020630 0.023581 294946.000000 0 0 1
20.444570 18.801954 -16.114444 32.111824 0.743569 2.096501 -0.009170 0.014157 -24930.800000 0 0 1
20.352370 17.683054 -17.134344 31.945189 0.715333 2.136923 -0.004442 0.003625 -6537.410000 0 0 1
21.376670 16.716454 -16.871444 31.953833 0.663666 2.127033 0.007859 -0.001415 451847.000000 0 0 1
21.542370 15.784354 -17.913244 32.157485 0.632345 2.161623 0.021784 -0.008824 -437883.000000 0 0 1
22.241470 16.249554 -19.260344 33.610889 0.630967 2.181005 0.020331 -0.013320 -576175.000000 0 0 1
23.590670 16.524154 -19.004144 34.506881 0.611030 2.154041 0.044310 -0.020247 -176376.000000 0 0 1
24.228270 17.000854 -20.162144 35.812709 0.611863 2.168794 0.064680 -0.024828 323186.000000 0 0 1
25.766970 17.208754 -20.017244 36.888589 0.588829 2.144374 0.052642 -0.022880 434697.000000 0 0 1
25.955370 18.352954 -19.207244 37.140683 0.615473 2.114312 0.045805 -0.015792 -1124780.000000 0 0 1
27.241570 18.724954 -18.930444 38.093159 0.602197 2.090878 0.038951 -0.020799 -1381560.000000 0 0 1
27.259070 19.690154 -17.700044 38.000666 0.625559 2.055315 0.030950 -0.011293 139217.000000 0 0 1
26.653970 19.206354 -16.519044 36.772231 0.624406 2.036695 0.027761 -0.016457 215724.000000 0 0 1
25.262670 19.464954 -16.466544 35.891977 0.656494 2.047419 0.029212 -0.003864 -64452.000000 0 0 1
24.502770 19.084154 -15.165544 34.562760 0.661715 2.025040 0.022852 0.007205 -95067.200000 0 0 1
24.846470 19.642654 -13.912644 34.593967 0.668959 1.984682 0.025971 0.004837 351199.000000 0 0 1
23.959570 19.211154 -12.870844 33.298469 0.675847 1.967662 0.017103 0.005583 -96949.900000 0 0 1
24.421470 19.681754 -11.497244 33.406081 0.678340 1.922147 0.025768 0.005970 -149565.000000 0 0 1
24.367070 21.074354 -11.331344 34.150869 0.713064 1.909010 0.017029 0.010419 347089.000000 0 0 1
25.074470 21.551054 -10.171944 34.592563 0.709973 1.869258 0.016307 0.007404 661463.000000 0 0 1
24.301670 21.359954 -8.779544 33.524606 0.721063 1.835770 0.023253 0.012121 123104.000000 0 0 1
24.139670 20.041354 -8.404744 32.481060 0.692901 1.832533 0.031672 0.003637 332777.000000 0 0 1
23.518670 19.816854 -7.113144 31.566317 0.700183 1.798088 0.038613 0.002609 -524914.000000 0 0 1
22.015970 19.634854 -7.232744 30.373393 0.728292 1.811234 0.028078 0.006987 -1025410.000000 0 0 1
21.313470 20.837354 -7.357344 30.701626 0.774103 1.812792 0.025753 0.008268 1105950.000000 0 0 1
19.951370 20.604654 -7.805244 29.724245 0.801505 1.836500 0.030560 0.005568 1137680.000000 0 0 1
19.143370 21.887654 -8.030644 30.166691 0.852182 1.840254 0.014276 0.004705 -545310.000000 0 0 1
19.696570 22.697854 -9.053744 31.386585 0.856075 1.863413 0.001411 0.014323 384898.000000 0 0 1
19.125570 22.449554 -10.372244 31.262651 0.865180 1.908983 -0.006069 0.019398 189003.000000 0 0 1
17.646770 22.856754 -10.537944 30.739030 0.913326 1.920713 0.001148 0.007002 -325908.000000 0 0 1
17.438270 24.221454 -10.193644 31.538587 0.946805 1.899918 0.011817 0.006068 263151.000000 0 0 1
16.127470 24.668254 -10.525344 31.295381 0.991772 1.913806 0.019689 0.001017 417917.000000 0 0 1
15.756970 26.058654 -9.982744 32.046696 1.026948 1.887574 0.021569 0.002946 -223625.000000 0 0 1
16.473770 27.106354 -10.554744 33.429660 1.024701 1.892022 0.036105 0.012086 -151963.000000 0 0 1
16.287370 28.327054 -9.855344 34.129580 1.048980 1.863730 0.029630 -0.007559 16416.500000 0 0 1
19.121870 29.522554 33.376829 48.489585 0.996037 0.811612 0.011157 0.016365 -939201.000000 0 0 1
17.775870 29.813554 33.332823 48.123868 1.033150 0.805645 0.030042 -0.004914 -1121290.000000 0 0 1
17.018970 28.622254 33.490693 47.228226 1.034352 0.782541 0.030605 -0.004979 -630508.000000 0 0 1
15.539470 28.938054 33.605726 46.991818 1.077996 0.773972 0.069399 -0.020928 -778499.000000 0 0 1
14.927770 29.439554 32.453763 46.290090 1.101513 0.793864 0.077010 -0.024775 -112618.000000 0 0 1
13.633170 29.961354 32.669673 46.377296 1.143771 0.789173 0.053214 -0.027243 332636.000000 0 0 1
12.655670 29.765354 31.478763 45.133744 1.168772 0.798956 0.039224 -0.029239 49318.900000 0 0 1
12.359470 28.407454 31.248853 44.002622 1.160420 0.781072 0.031789 -0.030932 -213588.000000 0 0 1
10.973670 28.183554 31.181513 43.439854 1.199492 0.770146 0.016738 -0.018814 -552490.000000 0 0 1
10.596770 26.677954 31.065953 42.297733 1.192697 0.745927 -0.005669 -0.008198 -175809.000000 0 0 1
10.916370 25.970854 29.887173 41.071833 1.172887 0.755862 -0.004409 -0.000148 465470.000000 0 0 1
12.313070 25.741054 29.711603 41.194574 1.124623 0.765191 0.003736 -0.003220 225653.000000 0 0 1
12.581070 25.050754 28.366963 39.881176 1.105372 0.779469 0.013215 -0.007670 -153667.000000 0 0 1
12.151470 25.843254 27.244463 39.468884 1.131273 0.808924 -0.005843 0.005157 259474.000000 0 0 1
12.314970 25.210754 25.972723 38.233793 1.116406 0.823970 -0.000133 0.006384 287791.000000 0 0 1
11.325670 24.042254 25.613823 36.910279 1.130556 0.803838 -0.010418 0.009998 -277915.000000 0 0 1
11.421970 23.700954 24.202353 35.748434 1.121717 0.827092 0.002089 0.005869 -77097.800000 0 0 1
10.521470 22.692154 23.843433 34.556396 1.136640 0.809326 0.013363 -0.000017 -219110.000000 0 0 1
10.731070 22.276354 22.382433 33.352138 1.121876 0.835112 0.026511 -0.003730 -109624.000000 0 0 1
10.375770 23.301554 21.468133 33.339163 1.151873 0.871171 0.022742 -0.001683 56060.200000 0 0 1
10.674870 23.029854 20.106433 32.382027 1.136754 0.900889 0.023597 -0.001053 -830609.000000 0 0 1
10.247270 24.183154 19.153333 32.506640 1.169997 0.940712 0.020270 -0.002929 1802430.000000 0 0 1
8.810770 24.310754 18.864833 32.008192 1.223098 0.940511 0.023515 -0.008807 1626200.000000 0 0 1
8.200370 24.932854 19.974133 32.982712 1.253043 0.920284 0.016668 -0.010288 -48127.700000 0 0 1
6.838970 25.651954 19.633133 33.018997 1.310250 0.934027 0.032619 -0.011865 806618.000000 0 0 1
7.018570 26.777854 18.777533 33.450105 1.314459 0.974769 0.031586 -0.017309 816378.000000 0 0 1
5.743970 27.187354 18.235433 33.236673 1.362585 0.990043 0.031492 -0.018198 677209.000000 0 0 1
5.679570 28.431054 17.276133 33.749772 1.373625 1.033414 0.029306 -0.011665 -77382.600000 0 0 1
6.198370 27.988854 16.052033 32.855190 1.352855 1.060347 0.024101 -0.009560 -182909.000000 0 0 1
6.786570 29.035754 15.312533 33.520236 1.341187 1.096385 0.009613 -0.003716 -119422.000000 0 0 1
7.434470 28.368054 14.057033 32.521039 1.314489 1.123816 0.008714 -0.002842 232138.000000 0 0 1
6.487270 28.074154 13.027133 31.621970 1.343706 1.146187 -0.003389 0.000803 6633.120000 0 0 1
6.849270 27.005054 12.246933 30.433087 1.322405 1.156636 -0.009609 -0.006629 144630.000000 0 0 1
6.003670 26.969854 10.912833 29.707019 1.351761 1.194640 -0.012366 -0.005504 94049.500000 0 0 1
6.587170 27.694254 9.827133 30.115362 1.337282 1.238392 -0.020709 0.000661 237884.000000 0 0 1
6.421970 29.105154 9.883733 31.401272 1.353629 1.250597 -0.021529 0.004949 -224237.000000 0 0 1
6.710170 29.965154 8.618833 31.893904 1.350498 1.297160 -0.025167 0.015552 -345364.000000 0 0 1
5.719070 29.752254 7.661233 31.250582 1.380890 1.323117 -0.020947 -0.000947 -267438.000000 0 0 1
5.810170 28.586654 6.835133 29.961207 1.370280 1.340637 -0.019282 0.010586 -548654.000000 0 0 1
4.399870 28.116554 6.475833 29.186227 1.415568 1.347054 -0.012202 0.006697 -438050.000000 0 0 1
3.809970 29.137054 5.696633 29.932180 1.440774 1.379310 -0.015419 0.009991 -1105190.000000 0 0 1
2.446670 28.886254 5.679533 29.540801 1.486298 1.377331 -0.003744 -0.002708 -576951.000000 0 0 1
1.575370 29.949954 4.933533 30.394428 1.518245 1.407758 -0.006167 -0.000729 -120778.000000 0 0 1
1.807970 30.123854 3.560333 30.387354 1.510850 1.453362 -0.011097 0.001630 288746.000000 0 0 1
0.794970 30.982954 3.000433 31.138048 1.545144 1.474288 -0.007132 -0.004408 303066.000000 0 0 1
-0.293030 30.117354 2.364733 30.211469 -1.561067 1.492443 -0.006150 -0.007578 -592636.000000 0 0 1
0.017570 29.589754 1.117633 29.610859 1.570203 1.533043 -0.004672 -0.005896 30592.100000 0 0 1
-0.813930 28.420454 1.039233 28.451093 -1.542165 1.534261 0.008205 -0.007077 447676.000000 0 0 1
-1.103230 28.113754 -0.403167 28.138280 -1.531575 1.585125 -0.005466 -0.005912 -124490.000000 0 0 1
-2.037230 28.998754 -0.967967 29.086337 -1.500659 1.604082 -0.003166 -0.007546 -110230.000000 0 0 1
-1.486730 29.839054 -1.956467 29.940061 -1.521013 1.636189 -0.008387 -0.000589 -206508.000000 0 0 1
-2.544030 30.836654 -2.502367 31.042441 -1.488483 1.651495 -0.008913 0.003005 46387.900000 0 0 1
-3.640330 30.322654 -3.226667 30.710368 -1.451315 1.676058 -0.016706 0.004785 -71536.800000 0 0 1
-3.392730 29.570854 -4.426367 30.092171 -1.456564 1.718426 -0.012078 0.001037 -110977.000000 0 0 1
-4.709830 29.135954 -5.163267 29.962404 -1.410533 1.743986 -0.007879 0.001812 135960.000000 0 0 1
-5.355130 30.257954 -5.626967 31.239141 -1.395628 1.751910 -0.018219 0.011120 -599394.000000 0 0 1
-6.412730 29.847654 -6.453967 31.203513 -1.359165 1.779135 -0.018253 0.005188 -250127.000000 0 0 1
-7.014430 30.978354 -7.311667 32.593268 -1.348121 1.797052 -0.016592 0.000939 117611.000000 0 0 1
-7.841930 31.900154 -6.601567 33.506661 -1.329749 1.769116 -0.025358 0.018018 203657.000000 0 0 1
-7.879730 33.065954 -7.325767 34.772321 -1.336856 1.783065 -0.020454 0.010388 -98736.900000 0 0 1
-8.860630 34.031354 -6.628367 35.785179 -1.316085 1.757099 -0.019133 0.016454 1166610.000000 0 0 1
-10.229630 33.588254 -6.646167 35.734964 -1.275162 1.757871 -0.002870 0.008826 589069.000000 0 0 1
-11.177930 34.454954 -6.052767 36.725004 -1.257088 1.736365 0.006531 0.002757 738322.000000 0 0 1
-12.630730 33.951954 -6.300067 36.769027 -1.214643 1.742988 0.031598 -0.005980 284257.000000 0 0 1
-13.025730 34.058554 -7.644767 37.257176 -1.205509 1.777453 0.037555 -0.006510 148649.000000 0 0 1
-14.419130 33.802354 -7.750967 37.557794 -1.167595 1.778664 0.033720 -0.005373 -246846.000000 0 0 1
-15.018630 34.046554 -9.145267 38.319225 -1.155351 1.811782 0.044324 -0.009236 399809.000000 0 0 1
-16.399430 33.734854 -9.313067 38.648608 -1.118308 1.814159 0.053705 -0.014530 693914.000000 0 0 1
-17.260830 -34.529084 -8.834567 39.601053 1.107235 1.795779 0.052300 -0.012024 385608.000000 0 0 1
-18.764630 34.321554 -8.960567 40.129442 -1.070467 1.795986 0.045355 -0.008658 848645.000000 0 0 1
-19.293730 33.398054 -7.992967 39.389917 -1.046943 1.775134 0.033394 -0.004092 247791.000000 0 0 1
-19.392630 34.001554 -6.706167 39.713378 -1.052467 1.740474 0.037457 -0.012348 -611671.000000 0 0 1
-19.669330 33.067454 -5.537067 38.871560 -1.034191 1.713728 0.026999 -0.009555 -561398.000000 0 0 1
-19.402930 33.584854 -4.272967 39.021460 -1.046914 1.680519 0.039286 -0.017011 351309.000000 0 0 1
-20.462230 34.123854 -3.459167 39.938779 -1.030637 1.657517 0.028653 -0.007707 302128.000000 0 0 1
-21.167130 -33.829084 -3.920367 40.097675 1.011688 1.668723 0.041898 -0.019378 396480.000000 0 0 1
-21.828630 -33.937484 -5.161967 40.680312 0.999215 1.698030 0.040981 -0.012522 412664.000000 0 0 1
-22.695830 -32.796084 -5.386067 40.245416 0.965440 1.705030 0.039948 -0.017808 826874.000000 0 0 1
-23.345030 -32.874784 -6.803267 40.890418 0.953311 1.737952 0.034972 -0.012655 984576.000000 0 0 1
-22.334530 -32.370284 -7.733867 40.080908 0.966834 1.764971 0.043711 -0.009484 1024690.000000 0 0 1
-22.625930 -32.700284 -9.105967 40.794116 0.965515 1.795911 0.031484 -0.002609 500360.000000 0 0 1
-23.939830 -32.212084 -9.797367 41.312494 0.931665 1.810230 0.020619 -0.003368 166759.000000 0 0 1
-25.157390 -32.817784 -9.364267 42.398003 0.916769 1.793498 0.016861 0.003452 62545.000000 0 0 1
-26.318390 -32.213984 -9.871267 42.753249 0.885783 1.803788 -0.002731 0.004690 177654.000000 0 0 1
-26.634440 -30.672984 -9.742267 41.774838 0.855753 1.806173 -0.009535 0.011419 -905844.000000 0 0 1
-25.889550 -29.873384 -10.651667 40.940760 0.856719 1.833997 -0.008904 0.023326 -139349.000000 0 0 1
-26.160130 -29.953884 -12.035667 41.550509 0.852903 1.864672 -0.020362 0.023976 -571504.000000 0 0 1
-25.078830 -29.298084 -12.876667 40.658750 0.862836 1.893046 -0.011819 0.030354 -660361.000000 0 0 1
-23.860630 -29.987284 -12.892767 40.432540 0.898688 1.895334 -0.006046 0.019400 -710616.000000 0 0 1
-22.955930 -29.445984 -13.821067 39.812844 0.908622 1.925328 0.000259 0.020680 -482829.000000 0 0 1
-21.614930 -30.176484 -13.720067 39.573547 0.949225 1.924845 0.021715 0.001756 -627995.000000 0 0 1
-21.498830 -31.562284 -14.155867 40.727951 0.972830 1.925776 0.024089 0.005040 -266429.000000 0 0 1
-22.488230 -32.481484 -13.731367 41.824845 0.965230 1.905306 0.015865 0.005767 -284268.000000 0 0 1
-22.268630 -33.925684 -14.266767 43.016096 0.989939 1.908860 0.011274 -0.004781 -243646.000000 0 0 1
-23.178530 34.459754 -13.786367 43.758231 -0.978679 1.891314 0.005789 -0.015140 -405095.000000 0 0 1
-23.222330 33.256154 -14.483467 43.069934 -0.961221 1.913758 0.006603 -0.022550 -248216.000000 0 0 1
-23.514230 32.140054 -13.455167 42.035028 -0.939164 1.896625 -0.004341 -0.016450 65497.400000 0 0 1
-22.589930 31.828054 -12.398067 40.951703 -0.953557 1.878372 -0.008753 -0.011493 332323.000000 0 0 1
-22.402530 32.824154 -11.434167 41.352613 -0.971911 1.850951 0.012164 -0.011347 282425.000000 0 0 1
-21.692630 32.348554 -10.107367 40.238762 -0.980082 1.824700 0.012108 -0.006781 54579.500000 0 0 1
-22.480030 31.396754 -9.443467 39.752823 -0.949414 1.810644 0.010169 0.004023 -11501.200000 0 0 1
-21.926730 30.983554 -8.234467 38.840295 -0.954928 1.784426 0.013150 0.001095 -103826.000000 0 0 1
-22.644830 29.738254 -7.628167 38.148932 -0.919994 1.772111 0.009305 -0.002391 -53806.000000 0 0 1
-22.536430 28.637554 -8.547567 37.430750 -0.904061 1.801186 0.014281 0.002175 41133.800000 0 0 1
-22.899330 27.299254 -8.187467 36.560404 -0.872825 1.796655 0.007698 -0.001542 -606974.000000 0 0 1
-22.045930 26.599854 -7.141867 35.278627 -0.878740 1.774647 0.015019 -0.003983 -463937.000000 0 0 1
-22.358630 26.937654 -5.769967 35.480108 -0.878020 1.734147 0.018457 -0.003517 507732.000000 0 0 1
-21.266630 26.714554 -4.887767 34.493872 -0.898457 1.712974 0.012067 -0.000031 -168273.000000 0 0 1
-20.101730 27.672454 -4.809567 34.539487 -0.942560 1.710499 0.000515 -0.008689 -229112.000000 0 0 1
-19.228530 27.615154 -5.929767 34.168629 -0.962556 1.745224 -0.004750 -0.004344 412028.000000 0 0 1
-18.071630 28.447654 -5.833567 34.203557 -1.004854 1.742189 0.007567 -0.007723 745678.000000 0 0 1
-17.091630 28.235554 -7.038067 33.747662 -1.026472 1.780888 0.020319 -0.012588 -49703.300000 0 0 1
-17.457030 28.796354 -8.306067 34.683838 -1.025813 1.812626 0.024354 -0.014563 24392.700000 0 0 1
-17.497230 30.228654 -8.312067 35.902855 -1.046089 1.804432 0.033815 -0.010418 -63020.800000 0 0 1
-17.662830 30.857854 -9.735167 36.864023 -1.050923 1.838050 0.030146 -0.008808 3560.610000 0 0 1
-16.501930 30.749754 -10.543467 36.455805 -1.078259 1.864200 0.036253 -0.016724 -96448.000000 0 0 1
-16.637030 31.439754 -11.804467 37.477918 -1.084085 1.891223 0.040693 -0.019219 3972.340000 0 0 1
-15.223930 31.857654 -12.351867 37.406507 -1.125006 1.907319 0.051940 -0.018530 659736.000000 0 0 1
-15.059830 32.506854 -13.602167 38.321182 -1.136952 1.933659 0.049759 -0.016573 -291599.000000 0 0 1
-15.320230 31.632254 -14.686367 38.091972 -1.119769 1.966600 0.045275 -0.022546 118065.000000 0 0 1
-14.597630 32.188054 -15.967367 38.782965 -1.145027 1.995127 0.069832 -0.022354 441981.000000 0 0 1
-13.190330 32.109254 -15.962567 38.207231 -1.181018 2.001807 0.055471 -0.019497 -108345.000000 0 0 1
-12.565830 32.627154 -17.119367 38.929474 -1.203171 2.026120 0.050783 -0.018505 104162.000000 0 0 1
-11.061530 32.331054 -17.252067 38.279084 -1.241147 2.038336 0.063165 -0.009314 -305804.000000 0 0 1
-10.810430 30.940554 -17.393867 37.104311 -1.234662 2.058709 0.065643 -0.021017 -235147.000000 0 0 1
-9.543330 30.623654 -17.908567 36.736904 -1.268702 2.079999 0.055135 -0.019901 -215402.000000 0 0 1
-9.350730 30.742054 -19.447267 37.559369 -1.275521 2.115043 0.049417 -0.009941 -204381.000000 0 0 1
-10.194130 29.828654 -20.124367 37.398650 -1.241484 2.138983 0.054666 -0.022188 -30354.800000 0 0 1
-9.799430 29.557354 -21.444167 37.808971 -1.250661 2.173864 0.047388 -0.022779 -1384820.000000 0 0 1
-10.826230 29.280254 -22.533067 38.500385 -1.216641 2.196008 0.060094 -0.020344 -479171.000000 0 0 1
-11.612630 30.370954 -22.936967 39.791362 -1.205589 2.185150 0.069432 -0.018929 620548.000000 0 0 1
-12.676230 30.748654 -22.043067 39.900668 -1.179772 2.156095 0.076482 -0.017652 -300373.000000 0 0 1
-13.325130 32.076054 -22.406067 41.333572 -1.177065 2.143706 0.086100 -0.017279 590792.000000 0 0 1
-14.353630 31.944654 -23.418367 42.129651 -1.148501 2.160199 0.079252 -0.020060 801636.000000 0 0 1
-15.121530 33.139954 -23.594067 43.400429 -1.142721 2.145560 0.072011 -0.009543 299396.000000 0 0 1
-15.437230 33.307354 -25.073067 44.456120 -1.136791 2.170013 0.067025 -0.006251 -243718.000000 0 0 1
-14.298330 33.464054 -25.874967 44.651977 -1.167001 2.188888 0.066377 -0.003745 -238081.000000 0 0 1
-14.576930 33.539454 -27.271167 45.619057 -1.160805 2.211553 0.065912 0.005365 302435.000000 0 0 1
-15.195830 -34.413184 -27.765667 46.755884 1.154975 2.206624 0.052033 0.013234 378428.000000 0 0 1
-16.451730 -34.059484 -27.233067 46.608452 1.120817 2.194807 0.048736 0.009929 -252659.000000 0 0 1
-17.067430 -33.055884 -28.018967 46.573073 1.094178 2.216315 0.032433 0.014607 375383.000000 0 0 1
-18.484730 -32.696284 -27.475767 46.536544 1.056247 2.202366 0.036104 0.007798 66818.800000 0 0 1
-19.396730 -33.679484 -27.813467 47.792569 1.048270 2.191936 0.037855 0.012426 -1220360.000000 0 0 1
-20.677930 -33.338484 -27.351767 47.824162 1.015626 2.179645 0.031587 0.017796 214617.000000 0 0 1
-21.774930 -34.394184 -27.676967 49.225216 1.006394 2.167903 0.000536 0.023196 135240.000000 0 0 1
-21.680330 33.645954 -27.036167 48.301565 -0.998391 2.164865 0.026681 0.006480 -694064.000000 0 0 1
-22.817030 32.892354 -27.319567 48.465271 -0.964319 2.169647 -0.002263 0.013242 -236997.000000 0 0 1
-22.612930 31.388754 -27.060467 47.210881 -0.946500 2.181181 -0.004160 0.010840 -48729.500000 0 0 1
-22.476830 31.023054 -25.716167 46.140644 -0.943803 2.161979 0.008538 0.008195 -236468.000000 0 0 1
-22.625730 29.637354 -25.450167 45.144295 -0.918762 2.169717 -0.014814 0.006666 -283248.000000 0 0 1
29.967365 10.040954 -27.018474 41.579582 0.323306 2.278120 -0.011419 0.002760 16231.900000 0 0 1
29.526285 8.699354 -26.934494 40.901677 0.286524 2.289644 -0.018882 0.005603 59823.600000 0 0 1
28.180625 8.569954 -26.528284 39.640151 0.295221 2.303965 -0.007127 -0.003597 -1774.420000 0 0 1
27.927375 7.134654 -26.058944 38.857561 0.250122 2.305851 -0.013214 -0.006221 119568.000000 0 0 1
28.450765 6.824354 -24.755644 38.325706 0.235418 2.273035 -0.019527 -0.001397 445805.000000 0 0 1
27.808605 5.604754 -24.400244 37.417959 0.198883 2.281147 -0.011477 -0.001561 72478.400000 0 0 1
27.912005 5.321154 -22.888744 36.486837 0.188380 2.248897 -0.009535 0.003635 -1100180.000000 0 0 1
29.149375 4.885754 -22.469644 37.127369 0.166067 2.220819 -0.012005 0.001267 -740018.000000 0 0 1
29.257785 4.808554 -21.066144 36.372002 0.162895 2.188526 -0.014767 0.003147 -250116.000000 0 0 1
30.647245 4.438754 -20.497644 37.136364 0.143834 2.155505 -0.022272 0.006881 -87061.000000 0 0 1
30.903005 3.059554 -20.539644 37.232157 0.098683 2.155154 -0.014703 0.008977 -500568.000000 0 0 1
31.954135 2.803854 -19.688544 37.637310 0.087522 2.121295 -0.010886 0.005171 -874993.000000 0 0 1
32.365285 1.346154 -19.575544 37.848721 0.041569 2.114378 -0.002827 0.004124 -613793.000000 0 0 1
31.489245 0.508954 -18.914744 36.736890 0.016161 2.111653 0.008322 0.005862 -456495.000000 0 0 1
31.955305 -0.850246 -19.031944 37.203216 -0.026601 2.107804 0.012865 0.005253 194150.000000 0 0 1
30.928295 -1.922246 -18.556144 36.119038 -0.062072 2.110346 -0.007552 0.010909 264918.000000 0 0 1
30.803505 -2.029046 -17.160244 35.319214 -0.065776 2.078145 0.003536 0.002836 -1795.820000 0 0 1
29.449045 -1.829846 -16.808944 33.957844 -0.062056 2.088625 -0.012448 0.003420 -227656.000000 0 0 1
29.165265 -2.224946 -15.366444 33.040742 -0.076140 2.054516 -0.005243 -0.010947 -541894.000000 0 0 1
29.111205 -3.627546 -15.135144 33.010512 -0.123971 2.047097 -0.020392 -0.003965 211421.000000 0 0 1
28.347575 -3.894546 -14.002044 31.856078 -0.136531 2.025884 -0.003681 -0.006719 -488463.000000 0 0 1
28.292845 -5.410246 -13.626544 31.865946 -0.188942 2.012656 -0.011555 0.000125 -397450.000000 0 0 1
27.594435 -6.213546 -14.548144 31.807381 -0.221480 2.045846 -0.025204 0.002288 375887.000000 0 0 1
27.350655 -7.493946 -13.956244 31.606871 -0.267432 2.028130 -0.030036 -0.000121 -301039.000000 0 0 1
26.869585 -8.427046 -15.074244 31.940922 -0.303912 2.062288 -0.030324 -0.000080 -37068.400000 0 0 1
25.595805 -8.088646 -15.594744 31.044604 -0.306084 2.097092 -0.013508 -0.005462 65239.700000 0 0 1
25.204015 -9.069746 -16.508544 31.464816 -0.345426 2.123120 -0.001618 -0.001780 50819.800000 0 0 1
23.754965 -8.802646 -17.003744 30.510854 -0.354873 2.161929 0.000487 -0.005643 -18065.000000 0 0 1
23.617565 -7.501846 -17.599444 30.394201 -0.307559 2.188346 -0.002716 -0.004350 182569.000000 0 0 1
22.322265 -7.192646 -18.106344 29.628657 -0.311714 2.228257 0.028584 -0.009973 325466.000000 0 0 1
21.950465 -7.727246 -19.490844 30.355003 -0.338483 2.268026 0.022209 -0.004058 -66710.700000 0 0 1
22.680565 -7.048846 -20.508444 31.379779 -0.301324 2.283070 0.013724 0.002814 466653.000000 0 0 1
22.149165 -7.276846 -21.812344 31.926734 -0.317429 2.322932 0.024952 -0.005547 55369.200000 0 0 1
22.736765 -6.238746 -22.830944 32.819726 -0.267799 2.340116 0.015759 -0.003662 36971.700000 0 0 1
22.348165 -6.473046 -24.187044 33.561196 -0.281930 2.375586 0.021536 -0.003535 -37895.800000 0 0 1
22.656565 -5.333346 -24.935944 34.111080 -0.231191 2.390615 0.024143 -0.004838 -281600.000000 0 0 1
22.714165 -5.611446 -26.457244 35.318654 -0.242197 2.417500 0.027452 -0.001771 590407.000000 0 0 1
21.412265 -6.068046 -26.845294 34.870848 -0.276151 2.449401 0.031601 -0.006551 372069.000000 0 0 1
21.325465 -6.158846 -28.256234 35.932180 -0.281152 2.475718 0.021661 -0.005728 1012380.000000 0 0 1
20.077365 -6.972746 -28.814244 35.804754 -0.334262 2.506068 0.042699 -0.010342 956766.000000 0 0 1
20.196165 -8.377646 -28.620344 36.016581 -0.393211 2.489217 0.043125 -0.008291 371789.000000 0 0 1
19.318065 -9.129546 -29.468234 36.399355 -0.441481 2.514235 0.047625 -0.016060 18790.100000 0 0 1
19.338965 -10.678646 -29.111824 36.544867 -0.504518 2.492454 0.058321 -0.015353 -801676.000000 0 0 1
18.468165 -10.935646 -28.069964 35.335313 -0.534616 2.488796 0.060717 -0.016249 -220418.000000 0 0 1
18.673165 -12.214446 -27.465984 35.387286 -0.579264 2.459340 0.067514 -0.018669 -375522.000000 0 0 1
18.554765 -13.516146 -28.388924 36.508855 -0.629563 2.461620 0.063333 -0.009293 -465440.000000 0 0 1
17.372565 -13.721346 -29.113544 36.574305 -0.668508 2.491472 0.058588 -0.012478 -142924.000000 0 0 1
17.437865 -14.760346 -30.062884 37.758759 -0.702432 2.491757 0.050997 -0.007350 789334.000000 0 0 1
16.138465 -14.906446 -30.979124 37.978392 -0.745734 2.524741 0.032072 -0.007727 1332780.000000 0 0 1
14.994265 -15.469946 -30.334724 37.206756 -0.801011 2.524046 0.031983 -0.006712 662299.000000 0 0 1
13.924365 -15.601246 -31.274574 37.621613 -0.842131 2.552226 0.021521 -0.007520 256166.000000 0 0 1
12.739465 -16.331946 -30.585184 36.938867 -0.908349 2.546318 0.016903 -0.015632 -94696.800000 0 0 1
13.065065 -17.626046 -30.156534 37.293296 -0.932928 2.512619 0.015329 -0.011338 216563.000000 0 0 1
12.022565 -18.161346 -29.356304 36.553647 -0.986041 2.503279 0.019915 -0.009128 150798.000000 0 0 1
12.387765 -19.528146 -28.773464 36.915003 -1.005499 2.464587 0.031339 -0.008566 -327318.000000 0 0 1
13.319465 -19.401246 -27.753554 36.387858 -0.969171 2.438297 0.032999 -0.010008 -329583.000000 0 0 1
13.299765 -20.607546 -27.059654 36.520947 -0.997673 2.405258 0.034267 -0.004492 736398.000000 0 0 1
14.410965 -20.610946 -25.928584 36.121717 -0.960614 2.371450 0.030888 -0.002525 249617.000000 0 0 1
15.704965 -20.976246 -26.298544 37.124954 -0.928126 2.357996 0.029706 -0.001021 -134982.000000 0 0 1
16.609265 -20.753746 -25.238834 36.654937 -0.895871 2.330287 0.024155 0.001936 638000.000000 0 0 1
18.107665 -21.167046 -25.447504 37.729389 -0.863138 2.311049 0.020200 0.010311 598508.000000 0 0 1
18.486665 -22.530746 -25.344974 38.623296 -0.883675 2.286581 0.021283 0.006675 361541.000000 0 0 1
18.296865 -23.224946 -24.056444 38.116740 -0.903532 2.253800 0.017009 0.007477 -698185.000000 0 0 1
18.745565 -24.650746 -24.028044 39.196969 -0.920643 2.230658 0.022515 0.002566 492861.000000 0 0 1
20.146165 -24.654246 -23.675444 39.676522 -0.885686 2.210193 0.040223 -0.001688 762054.000000 0 0 1
20.585465 -25.964726 -23.445444 40.590851 -0.900446 2.186587 0.037211 -0.007284 -196624.000000 0 0 1
20.439765 -26.403776 -22.007044 39.990666 -0.912035 2.153525 0.048214 0.001760 -1087510.000000 0 0 1
19.129665 -26.521446 -21.574244 39.176258 -0.945924 2.153995 0.039770 0.008945 -815786.000000 0 0 1
19.025465 -26.919436 -20.243944 38.683867 -0.955551 2.121536 0.033319 0.009170 -97721.700000 0 0 1
17.620265 -27.416376 -19.879344 38.174857 -0.999576 2.118519 0.020546 0.012961 -750295.000000 0 0 1
17.531165 -28.798556 -20.175544 39.290599 -1.023967 2.110050 0.027723 0.017825 578726.000000 0 0 1
16.422465 -29.460056 -19.545044 38.982060 -1.062252 2.095996 0.020086 0.025278 1302190.000000 0 0 1
14.962265 -29.097576 -19.979344 38.336829 -1.095845 2.118997 0.004391 0.025771 -68715.200000 0 0 1
14.364365 -28.012476 -19.347544 36.950795 -1.096973 2.121871 0.003004 0.027365 -186594.000000 0 0 1
13.029465 -27.894566 -19.807744 36.609022 -1.133816 2.142496 -0.008201 0.031504 55175.800000 0 0 1
12.306865 -26.739766 -19.095144 35.087014 -1.139455 2.146258 -0.017114 0.026518 -724072.000000 0 0 1
11.966365 -27.122146 -17.798044 34.577089 -1.155282 2.111495 -0.019279 0.024195 224985.000000 0 0 1
11.161265 -26.173666 -17.051944 33.172329 -1.167714 2.110686 -0.014310 0.017605 1273370.000000 0 0 1
9.606865 -26.204926 -17.297044 32.835617 -1.219406 2.125601 -0.013716 0.030057 401656.000000 0 0 1
9.004665 -27.414806 -16.867744 33.424188 -1.253438 2.099781 -0.010378 0.032559 163299.000000 0 0 1
7.592365 -27.228646 -16.935044 32.952069 -1.298866 2.110556 -0.007501 0.037236 727838.000000 0 0 1
6.854765 -27.992866 -18.084044 34.023830 -1.330647 2.131180 -0.003632 0.037959 -81486.900000 0 0 1
7.074065 -27.552906 -19.371944 34.416235 -1.319480 2.168653 -0.005137 0.036340 -120105.000000 0 0 1
6.579365 -28.551076 -20.232144 35.606062 -1.344308 2.175140 -0.003768 0.035041 17609.800000 0 0 1
6.502065 -28.226806 -21.788344 36.245846 -1.344395 2.215706 -0.006308 0.020880 -88042.600000 0 0 1
5.461565 -27.273686 -22.035344 35.485758 -1.373160 2.240767 0.002712 0.020514 499674.000000 0 0 1
5.735365 -26.386376 -23.094544 35.531580 -1.356765 2.278344 -0.003883 0.018973 -31070.700000 0 0 1
4.512365 -25.480156 -23.419444 34.900861 -1.395520 2.306390 -0.010274 0.010750 697749.000000 0 0 1
3.329465 -26.237856 -23.695144 35.510143 -1.444575 2.301345 -0.015268 0.020488 498871.000000 0 0 1
2.431865 -25.492806 -24.535244 35.465128 -1.475690 2.334793 -0.010244 0.011807 -935.320000 0 0 1
1.492365 -26.501706 -25.192044 36.595172 -1.514544 2.330074 -0.035283 0.007099 -301616.000000 0 0 1
2.023665 -27.317406 -26.244744 37.935768 -1.496852 2.334804 -0.032993 0.014335 -65523.500000 0 0 1
0.966065 -27.993036 -26.870444 38.814483 -1.536299 2.335438 -0.026904 0.008969 -26500.200000 0 0 1
1.513465 -28.815526 -28.051414 40.243098 -1.518322 2.342070 -0.027367 0.009737 -583344.000000 0 0 1
2.121565 -28.058946 -29.117374 40.492307 -1.495329 2.373280 -0.041491 0.003389 240750.000000 0 0 1
2.516865 -28.880646 -30.206284 41.867002 -1.483869 2.376736 -0.022198 -0.000231 -1101830.000000 0 0 1
3.807365 -29.619836 -30.055754 42.369553 -1.442956 2.359402 -0.015728 0.005079 -1677530.000000 0 0 1
3.948465 -30.490946 -28.919694 42.209440 -1.442017 2.325603 -0.025298 0.007245 -239378.000000 0 0 1
5.184665 -31.134756 -29.154944 42.968180 -1.405787 2.316548 -0.004705 0.003696 195823.000000 0 0 1
5.579165 -32.190476 -28.095644 43.089663 -1.399184 2.281052 0.011169 -0.001956 -57964.900000 0 0 1
4.597265 -33.202176 -28.014664 43.684559 -1.433208 2.266980 0.008637 -0.003432 222302.000000 0 0 1
5.030665 -34.422632 -27.449384 44.313585 -1.425680 2.238819 0.013534 -0.006314 121389.000000 0 0 1
3.774565 34.017887 -27.242664 43.745019 1.460290 2.243062 0.010466 0.002917 340471.000000 0 0 1
3.156165 33.569874 -28.443764 44.112873 1.477054 2.271551 0.001139 0.005137 304130.000000 0 0 1
1.808765 33.285241 -28.113724 43.606884 1.516508 2.271438 -0.031704 0.011757 241563.000000 0 0 1
0.764265 33.300801 -29.269634 44.342293 1.547850 2.291727 -0.042791 0.013429 112460.000000 0 0 1
0.760965 32.199551 -30.114414 44.093855 1.547168 2.322606 -0.034922 0.008958 334275.000000 0 0 1
-0.154535 32.484241 -31.171044 45.020926 -1.566039 2.335562 -0.033453 0.016753 284839.000000 0 0 1
-0.320035 31.265841 -32.103954 44.814273 -1.560561 2.369393 -0.034657 0.016151 494728.000000 0 0 1
0.847865 31.018741 -32.925264 45.243278 1.543469 2.385815 -0.031595 0.016547 865286.000000 0 0 1
0.621765 30.005311 -33.916504 45.288349 1.550077 2.417199 -0.020011 0.012265 -945115.000000 0 0 1
1.777765 29.745991 34.290954 45.429660 1.511102 0.715425 -0.028814 0.012776 -396778.000000 0 0 1
2.240565 30.859841 33.486284 45.592556 1.498319 0.745914 -0.030638 0.006025 271818.000000 0 0 1
3.174765 30.438201 32.469473 44.618717 1.466870 0.755820 -0.050006 0.008993 -53206.200000 0 0 1
2.749065 29.450561 31.352333 43.102920 1.477721 0.756296 -0.039830 0.008616 -340739.000000 0 0 1
2.461265 28.118491 31.724133 42.463255 1.483487 0.727114 -0.029305 0.001152 -67063.800000 0 0 1
3.627065 27.320041 31.865133 42.129882 1.438806 0.713074 -0.035378 0.006900 -200825.000000 0 0 1
3.323065 25.833181 32.192723 41.409751 1.442863 0.680245 -0.016907 0.003858 -366114.000000 0 0 1
2.821765 25.154021 31.040243 40.052264 1.459084 0.684092 -0.005796 0.008703 258803.000000 0 0 1
2.805865 23.748191 31.328843 39.412509 1.453191 0.651960 -0.017134 0.010415 -498178.000000 0 0 1
1.987565 22.813591 30.434443 38.087605 1.483894 0.645059 -0.014397 0.019440 1073920.000000 0 0 1
0.592465 22.604991 30.759983 38.177391 1.544593 0.633920 -0.023409 0.016692 698649.000000 0 0 1
-0.122535 22.221091 29.628943 37.036012 -1.565282 0.643495 -0.014774 0.017642 231030.000000 0 0 1
-1.556135 21.742091 29.973373 37.061344 -1.499346 0.628772 -0.019336 0.027225 213952.000000 0 0 1
-2.484835 22.740191 30.331473 37.990643 -1.461957 0.646174 -0.001429 0.020985 -936987.000000 0 0 1
-3.778435 22.230991 30.315803 37.782820 -1.402443 0.639541 -0.020969 0.023998 -828124.000000 0 0 1
-4.699235 23.406991 30.610063 38.819403 -1.372668 0.662390 -0.030554 0.009983 -683914.000000 0 0 1
-4.535535 23.802891 31.980953 40.123934 -1.382508 0.648395 -0.028659 0.012850 -16757.000000 0 0 1
-4.565035 25.225751 31.985603 40.990937 -1.391767 0.675636 -0.018201 0.007652 -193147.000000 0 0 1
-4.651735 25.782261 33.428195 42.471259 -1.392293 0.664739 -0.012315 0.012582 766216.000000 0 0 1
-6.012835 25.840491 33.884566 43.035439 -1.342174 0.664275 -0.018044 0.009130 677679.000000 0 0 1
-6.031635 26.195021 -33.908494 43.270610 -1.344482 2.471297 -0.014596 0.008898 -201552.000000 0 0 1
-7.427135 26.539591 -33.373554 43.281709 -1.297926 2.451328 0.002227 0.013811 -618291.000000 0 0 1
-7.830935 27.796171 -33.805054 44.460458 -1.296187 2.434632 0.004344 0.009400 -170350.000000 0 0 1
-9.115835 28.177481 -33.368364 44.615206 -1.257908 2.415711 0.004370 0.006800 -81899.700000 0 0 1
-9.237635 28.574671 -31.927404 43.831551 -1.258120 2.386797 0.010579 0.001275 -782806.000000 0 0 1
-8.509835 29.726481 -31.566684 44.187515 -1.291982 2.366534 0.008606 0.005834 150934.000000 0 0 1
-8.540735 30.042091 -30.194404 43.441609 -1.293812 2.339296 0.010181 0.005306 -389627.000000 0 0 1
-8.137435 31.472441 -29.850514 44.133724 -1.317780 2.313613 0.001822 0.005044 -51444.900000 0 0 1
-6.729335 31.597481 -29.914254 44.028938 -1.360961 2.317772 -0.017814 0.007881 -31516.000000 0 0 1
-6.355835 32.949211 -29.561164 44.720348 -1.380239 2.292977 -0.015330 0.012032 395186.000000 0 0 1
-4.816035 33.161481 -29.710134 44.783592 -1.426575 2.296171 -0.015808 0.013565 344203.000000 0 0 1
-4.424735 34.414357 -29.136604 45.308586 -1.442925 2.269297 -0.023545 0.012794 60397.000000 0 0 1
-4.811135 -33.715506 -29.904234 45.322683 1.429055 2.291359 -0.014396 0.010087 -219753.000000 0 0 1
-3.965535 -33.517506 -31.176594 45.947020 1.453031 2.316561 -0.008116 0.002743 -143034.000000 0 0 1
-4.207235 -34.507401 -32.206554 47.389067 1.449472 2.318041 -0.003264 0.017503 -115332.000000 0 0 1
-4.247235 -34.076152 -33.578594 48.028586 1.446796 2.344987 0.006727 0.001469 100701.000000 0 0 1
-2.934435 -33.572816 -34.265392 48.061023 1.483613 2.364501 0.006010 -0.006552 365231.000000 0 0 1
-2.488235 -32.389706 -33.647894 46.770344 1.494125 2.373775 0.011290 -0.002862 -1085130.000000 0 0 1
-1.298735 -31.936396 -34.155463 46.778368 1.530152 2.389345 0.018613 -0.011189 -842788.000000 0 0 1
31.118235 20.240354 12.578133 39.194718 0.576680 1.244102 0.035599 -0.005736 -284055.000000 0 0 1
32.189125 19.404054 12.914233 39.742100 0.542486 1.239836 0.021231 -0.007808 -117607.000000 0 0 1
31.752945 18.132254 13.347033 38.925203 0.518854 1.220805 0.023834 -0.003942 -323291.000000 0 0 1
32.880385 17.334254 13.981233 39.712352 0.485163 1.211022 0.030919 -0.007975 -341932.000000 0 0 1
33.946585 16.986854 13.142733 40.170328 0.463967 1.237484 0.023527 0.005474 -116581.000000 0 0 1
34.821627 16.074654 13.786133 40.755339 0.432482 1.225723 0.015181 0.007261 -345810.000000 0 0 1
-34.285095 15.462554 12.778533 39.722150 -0.423685 1.243274 0.019457 -0.003273 -533196.000000 0 0 1
-33.527480 14.443954 13.351933 38.871504 -0.406781 1.220167 0.016700 -0.004360 -592321.000000 0 0 1
-34.142469 13.181754 13.482633 39.003182 -0.368450 1.217833 0.017613 -0.007623 -981242.000000 0 0 1
-33.531180 12.297354 14.563833 38.570327 -0.351513 1.183602 0.006876 -0.001384 -169492.000000 0 0 1
-33.548310 12.919354 15.808933 39.272397 -0.367593 1.156500 0.013212 -0.007444 332436.000000 0 0 1
-32.912010 11.984354 16.722033 38.813033 -0.349210 1.125378 0.008471 -0.009921 249835.000000 0 0 1
-32.675010 12.582154 18.141833 39.434667 -0.367569 1.092747 0.024882 -0.009351 180025.000000 0 0 1
-33.874090 12.705454 18.884733 40.810730 -0.358840 1.089713 0.028326 -0.007078 184901.000000 0 0 1
-33.571970 13.269554 20.156233 41.345277 -0.376411 1.061561 0.028549 -0.015898 -844148.000000 0 0 1
-34.685735 13.399354 21.141333 42.773810 -0.368647 1.053814 0.036815 -0.019948 -866952.000000 0 0 1
-35.009952 12.172054 21.756733 42.979193 -0.334601 1.040006 0.031093 -0.007606 -931345.000000 0 0 1
33.898775 12.403154 22.431133 42.498481 0.350758 1.014776 0.014653 -0.014164 -902615.000000 0 0 1
33.548725 11.065254 23.112233 42.215306 0.318591 0.991441 0.007498 -0.004992 -227451.000000 0 0 1
34.394370 10.694954 24.206153 43.396919 0.301473 0.979082 0.019423 -0.004578 -220665.000000 0 0 1
34.152372 11.389454 25.460973 44.094958 0.321891 0.955241 0.004676 -0.003145 -183548.000000 0 0 1
-34.704953 11.607054 26.472703 45.165932 -0.322755 0.944533 0.000209 -0.003889 1206510.000000 0 0 1
-33.990790 12.819654 26.150593 44.761265 -0.360655 0.946873 0.011505 -0.009954 367823.000000 0 0 1
-33.166190 12.764454 24.983473 43.440780 -0.367390 0.958051 0.014479 -0.011806 -411287.000000 0 0 1
-32.197220 13.986154 24.786943 42.972852 -0.409797 0.955985 0.013011 -0.011117 574483.000000 0 0 1
-31.162500 14.170154 25.734433 42.827044 -0.426771 0.926180 -0.006711 -0.011160 239409.000000 0 0 1
-31.658310 14.648554 26.953323 44.082994 -0.433372 0.912940 -0.012691 -0.003627 214436.000000 0 0 1
-30.540640 15.383854 27.827753 44.088292 -0.466617 0.887720 -0.013722 0.007192 631894.000000 0 0 1
-30.265760 16.661054 27.348033 44.062704 -0.503221 0.901210 0.010653 -0.004092 -337134.000000 0 0 1
-29.309540 17.332254 28.126633 44.165186 -0.534036 0.880390 0.005138 -0.014064 -91868.700000 0 0 1
-28.968810 18.768754 27.538373 44.156767 -0.574894 0.897393 0.028754 -0.003106 128964.000000 0 0 1
-30.115420 19.597654 27.454133 45.218757 -0.576903 0.918340 0.002537 -0.027473 243365.000000 0 0 1
-29.865070 20.598154 26.537823 44.949554 -0.603785 0.939253 -0.000578 -0.033342 56029.800000 0 0 1
-31.032710 21.609254 26.348383 46.089329 -0.608264 0.962243 0.014093 -0.019969 -81883.600000 0 0 1
-31.158900 22.455254 27.496433 47.235255 -0.624464 0.949467 0.001691 -0.021705 755846.000000 0 0 1
-32.156090 23.502854 27.386813 48.336692 -0.631164 0.968442 -0.008179 -0.016931 -368825.000000 0 0 1
-31.752120 24.696054 26.508023 48.174345 -0.661042 0.988130 -0.011794 -0.020268 -799585.000000 0 0 1
-32.847720 25.220254 25.849123 48.818143 -0.654792 1.012787 -0.017253 -0.008338 -542321.000000 0 0 1
-32.726770 26.596054 25.611243 49.338903 -0.682419 1.025012 -0.007511 -0.016501 -49796.400000 0 0 1
-33.804550 27.025654 24.619953 49.792325 -0.674416 1.053591 0.002670 -0.013621 -13752.700000 0 0 1
-33.410440 26.730254 23.262333 48.702157 -0.674776 1.072824 0.002649 -0.014101 334700.000000 0 0 1
-34.320133 27.334354 22.320233 49.226326 -0.672574 1.100197 0.016688 -0.023262 279321.000000 0 0 1
-33.924220 27.130154 20.894533 48.202484 -0.674575 1.122452 0.012835 -0.026373 -55863.200000 0 0 1
-34.191854 25.877154 20.312533 47.447960 -0.647853 1.128406 0.005992 -0.016780 -113591.000000 0 0 1
-33.323140 25.622454 19.211133 46.216982 -0.655493 1.142114 0.017933 -0.018607 85164.100000 0 0 1
-33.507610 24.323554 18.402333 45.310496 -0.627905 1.152572 0.008158 -0.004477 -233238.000000 0 0 1
-34.712828 24.354954 17.679433 45.942426 -0.611807 1.175787 0.006339 -0.010886 -288334.000000 0 0 1
-34.592918 23.611454 16.472033 45.005539 -0.598919 1.196089 0.000391 -0.008643 242964.000000 0 0 1
34.136707 23.361554 15.751833 44.262820 0.600147 1.206951 0.000412 -0.003196 142737.000000 0 0 1
33.300325 22.396954 16.351333 43.334758 0.592082 1.183889 0.002399 -0.006372 -712253.000000 0 0 1
32.210015 22.303654 15.486433 42.127991 0.605637 1.194365 0.007676 -0.008207 -1512980.000000 0 0 1
31.203235 21.233754 15.948333 40.973937 0.597517 1.171000 0.015864 -0.007962 113523.000000 0 0 1
30.345815 21.581854 17.008533 40.938186 0.618201 1.142338 0.004444 -0.003400 717591.000000 0 0 1
29.419265 22.694954 16.770533 40.765241 0.657077 1.146815 0.002881 0.002785 259640.000000 0 0 1
28.590645 23.135354 18.007233 40.950336 0.680321 1.115494 0.004751 -0.002277 831153.000000 0 0 1
29.420175 23.843754 18.953033 42.347240 0.681084 1.106759 -0.009003 0.001442 538178.000000 0 0 1
28.584905 24.300254 20.021033 42.525767 0.704557 1.080602 0.008847 -0.000480 433038.000000 0 0 1
29.381595 25.016554 21.120733 43.990811 0.705327 1.070008 0.006249 -0.005300 32397.600000 0 0 1
29.670485 26.331454 20.676433 44.734752 0.725845 1.090321 0.014587 -0.012788 -134467.000000 0 0 1
30.658795 26.824654 21.544333 46.083425 0.718797 1.084328 0.017809 -0.019937 -616602.000000 0 0 1
31.440395 27.974254 20.942233 47.006749 0.727126 1.109046 0.024997 -0.028933 183272.000000 0 0 1
32.509835 28.445254 21.789633 48.381917 0.718815 1.103620 0.021884 -0.023534 666771.000000 0 0 1
32.105905 29.414454 22.752833 49.129326 0.741677 1.089283 0.008712 -0.021151 -210761.000000 0 0 1
33.029585 29.645454 23.983033 50.447916 0.731456 1.075376 0.008312 -0.025852 -413383.000000 0 0 1
34.299384 30.157354 23.748333 51.477151 0.721226 1.091294 0.019793 -0.028324 -710689.000000 0 0 1
34.772234 30.476854 25.038163 52.581903 0.719663 1.074497 0.022924 -0.021886 406928.000000 0 0 1
-34.089506 31.449754 25.186533 52.778242 -0.745143 1.073314 0.034404 -0.030146 531177.000000 0 0 1
-32.851090 30.848454 24.940793 51.505964 -0.753970 1.065312 0.027775 -0.028785 2806.440000 0 0 1
-31.726140 31.729354 25.039983 51.383855 -0.785449 1.061787 0.030078 -0.028138 852512.000000 0 0 1
-30.404170 31.101654 24.529683 49.934274 -0.796738 1.057284 0.036547 -0.026807 -428383.000000 0 0 1
-30.241340 30.978054 23.131433 49.084026 -0.797432 1.080075 0.016896 -0.019035 -168411.000000 0 0 1
-30.916570 29.939654 22.493333 48.560964 -0.769347 1.089196 0.014053 -0.020306 -549542.000000 0 0 1
-30.519670 28.541554 22.915333 47.656931 -0.751918 1.069184 0.007232 -0.009825 -1194420.000000 0 0 1
-29.196640 28.274654 22.563633 46.486744 -0.769357 1.064001 0.009084 -0.012213 -664393.000000 0 0 1
-28.720410 27.109854 23.194433 45.801614 -0.756559 1.039779 0.009196 -0.017406 23718.300000 0 0 1
-28.279960 27.267354 24.692753 46.400396 -0.767171 1.009638 0.023240 -0.019023 433861.000000 0 0 1
-29.408960 27.512954 25.559913 47.698624 -0.752102 1.005267 0.011614 -0.019627 461775.000000 0 0 1
-28.946520 27.917254 26.803893 48.329316 -0.767300 0.982903 0.023327 -0.030641 -208246.000000 0 0 1
-30.015250 28.261354 27.880813 49.769057 -0.755311 0.976165 0.023223 -0.025869 -207150.000000 0 0 1
-30.736840 27.171154 28.333883 49.858137 -0.723901 0.966370 0.006118 -0.020583 226237.000000 0 0 1
-31.554170 27.596354 29.491613 51.254069 -0.718587 0.957703 0.009397 -0.009569 1207510.000000 0 0 1
-32.442040 26.390754 30.064403 51.505594 -0.682903 0.947504 0.000639 -0.011751 761686.000000 0 0 1
-31.652660 25.508954 30.846433 51.030383 -0.678330 0.921694 0.004547 -0.013935 197833.000000 0 0 1
-32.423220 24.405154 31.294993 51.246983 -0.645231 0.913890 -0.006753 -0.018887 365319.000000 0 0 1
-31.601100 23.413454 32.176203 50.814637 -0.637656 0.885106 0.020619 -0.029500 361706.000000 0 0 1
-30.453220 22.794454 31.595713 49.449720 -0.642545 0.877669 0.023113 -0.022666 756150.000000 0 0 1
-29.665110 21.999054 32.515623 49.206126 -0.638091 0.848906 0.027515 -0.022783 481420.000000 0 0 1
-28.616580 22.743054 33.378352 49.500197 -0.671532 0.830770 0.035858 -0.027599 -289403.000000 0 0 1
-29.206820 23.430354 34.456361 50.884778 -0.676094 0.826921 0.041213 -0.031795 136615.000000 0 0 1
-29.086210 22.685254 -33.450694 49.795354 -0.662384 2.307383 0.033009 -0.027805 -221237.000000 0 0 1
-27.889200 23.164954 -32.617574 48.768111 -0.693127 2.303430 0.032899 -0.023844 -273708.000000 0 0 1
-27.866350 24.502354 -32.230794 49.150003 -0.721250 2.285990 0.017231 -0.017742 -93868.700000 0 0 1
-26.881810 24.627854 -31.221494 47.999422 -0.741668 2.278980 0.026106 -0.015730 -30324.900000 0 0 1
-27.017060 25.919954 -30.338774 48.189280 -0.764676 2.251803 -0.005746 -0.004247 -201936.000000 0 0 1
-26.719680 27.130054 -31.031784 49.121815 -0.793019 2.254581 0.000897 -0.007693 219036.000000 0 0 1
-27.820380 27.643254 -31.783584 50.480879 -0.782205 2.251856 0.010156 -0.001315 -118122.000000 0 0 1
-27.720040 29.116454 -32.304534 51.572777 -0.809962 2.247706 0.013231 -0.001724 -246305.000000 0 0 1
-27.977890 30.165454 -31.332664 51.715111 -0.823004 2.221656 0.015500 -0.001787 250671.000000 0 0 1
-27.863520 31.427854 -31.968834 52.783445 -0.845441 2.221392 0.021670 -0.014692 -164695.000000 0 0 1
-28.107930 32.648254 -31.103384 53.135531 -0.859990 2.196120 0.024160 -0.003757 256643.000000 0 0 1
-27.104060 32.822954 -30.114824 52.142871 -0.880541 2.186514 -0.008653 0.007994 333306.000000 0 0 1
-27.693230 33.636054 -29.155044 52.424380 -0.881997 2.160525 -0.003344 0.005955 -135053.000000 0 0 1
-26.950310 33.796154 -27.764604 51.374823 -0.897620 2.141747 -0.012547 0.005813 -34124.400000 0 0 1
-25.649170 34.317354 -27.813134 51.079654 -0.928954 2.146595 -0.023290 0.010544 -288492.000000 0 0 1
-25.481560 -33.616084 -28.071514 50.669131 0.922184 2.157977 -0.010978 0.024887 -667297.000000 0 0 1
-25.856810 -32.588284 -26.945584 49.564456 0.900069 2.145573 -0.022181 0.034206 -701973.000000 0 0 1
-27.252610 -32.523184 -26.906764 50.243767 0.873343 2.135925 -0.021425 0.024389 -784705.000000 0 0 1
-27.664260 -31.607584 -25.955134 49.376306 0.851830 2.124287 -0.026975 0.031085 -149500.000000 0 0 1
-29.182110 -31.361484 -25.965414 50.093322 0.821379 2.115706 -0.017608 0.022423 -18299.500000 0 0 1
-29.617420 -30.342884 -26.885084 50.206472 0.797497 2.135885 -0.006757 0.016825 93117.800000 0 0 1
-31.012070 -30.178984 -26.788344 50.893368 0.771784 2.125113 -0.002585 0.007187 -225613.000000 0 0 1
-31.718050 -29.495584 -27.970264 51.559284 0.749107 2.144192 0.013314 0.000693 -799243.000000 0 0 1
-33.077840 -29.744284 -27.881984 52.500199 0.732384 2.130675 0.001724 0.003099 -773327.000000 0 0 1
-33.808440 -29.005484 -28.870264 53.083150 0.709083 2.145837 0.018904 -0.008722 -431463.000000 0 0 1
34.770950 -29.143784 -28.897584 53.790793 -0.697583 2.137936 0.019020 -0.010527 -734798.000000 0 0 1
34.178955 -28.428984 -27.828804 52.448550 -0.693814 2.130096 -0.014702 -0.005083 1392530.000000 0 0 1
32.731825 -28.339084 -28.026924 51.575037 -0.713593 2.145303 -0.012670 -0.008391 1500060.000000 0 0 1
32.059715 -27.656084 -26.818924 50.119247 -0.711788 2.135425 -0.008526 -0.008210 -207147.000000 0 0 1
32.119485 -28.542184 -25.683104 50.059358 -0.726495 2.109534 -0.016150 0.000174 338400.000000 0 0 1
31.336985 -27.944884 -24.656744 48.691664 -0.728241 2.101784 -0.022228 -0.000714 136100.000000 0 0 1
31.215905 -28.871484 -23.381144 48.524975 -0.746401 2.073547 -0.019300 0.003051 -61756.100000 0 0 1
30.393865 -30.002584 -23.537944 48.764504 -0.778920 2.074515 -0.007038 -0.000285 -126310.000000 0 0 1
30.184755 -30.789984 -22.391544 48.585221 -0.795324 2.049773 0.005576 -0.018034 -532250.000000 0 0 1
31.380725 -31.006384 -21.472944 49.063561 -0.779398 2.023786 -0.005525 -0.007401 -1200370.000000 0 0 1
32.490475 -31.642384 -22.091944 50.447253 -0.772175 2.024082 -0.013791 -0.007692 1227160.000000 0 0 1
33.673085 -31.580884 -21.237844 50.816089 -0.753347 2.001968 -0.002723 -0.007220 1283720.000000 0 0 1
34.409331 -30.234784 -21.082144 50.424210 -0.720910 2.002144 -0.022645 0.008315 -418797.000000 0 0 1
33.557685 -29.234484 -20.482144 48.992769 -0.716657 2.002110 -0.026457 0.010271 151946.000000 0 0 1
34.162071 -27.946884 -20.595544 48.705768 -0.685661 2.007391 -0.037695 0.020207 419358.000000 0 0 1
33.218015 -26.717584 -20.353044 47.238884 -0.677364 2.016235 -0.032800 0.022924 494934.000000 0 0 1
32.256135 -26.392184 -21.339744 46.822967 -0.685744 2.044015 -0.019886 0.016917 451134.000000 0 0 1
31.246845 -25.529984 -20.827644 45.408547 -0.685046 2.047297 0.006883 -0.003646 365998.000000 0 0 1
29.934255 -25.375284 -21.650844 44.818787 -0.703158 2.074960 0.008627 -0.009452 284671.000000 0 0 1
29.195585 -26.583184 -21.635144 45.023630 -0.738597 2.072054 0.015992 -0.011381 926617.000000 0 0 1
27.917055 -26.396584 -22.295044 44.420835 -0.757411 2.096596 0.026828 -0.014132 859595.000000 0 0 1
27.359075 -27.687784 -22.915944 45.169379 -0.791370 2.102884 0.023093 -0.014775 74504.200000 0 0 1
26.694215 -28.469984 -21.893044 44.748480 -0.817578 2.082022 0.026891 -0.010551 150822.000000 0 0 1
26.461755 -29.734784 -22.442544 45.695181 -0.843575 2.084190 0.017886 -0.011744 -392358.000000 0 0 1
25.717645 -30.608084 -21.460444 45.374031 -0.872005 2.063452 0.031350 0.000781 -479015.000000 0 0 1
26.407955 -31.120984 -20.333344 45.599787 -0.867140 2.032986 0.041594 -0.003390 4458.270000 0 0 1
26.961275 -32.421484 -20.565944 46.915040 -0.877090 2.024576 0.034687 -0.000343 699352.000000 0 0 1
28.027895 -32.887184 -19.491644 47.403100 -0.865001 1.994555 0.022223 0.001136 61096.300000 0 0 1
27.491475 -33.326084 -18.235944 46.893056 -0.881042 1.970216 0.032035 0.001872 167728.000000 0 0 1
26.878285 -32.323084 -17.420444 45.504898 -0.877111 1.963649 0.014495 0.005427 18942.700000 0 0 1
26.325435 -32.882884 -16.095644 45.093040 -0.895701 1.935790 0.031077 0.010018 -123292.000000 0 0 1
25.199515 -33.723584 -16.211244 45.112083 -0.929066 1.938373 0.037016 0.016978 -6446.900000 0 0 1
24.899265 -34.425184 -15.032744 45.067172 -0.944612 1.910877 0.040851 0.014924 -909495.000000 0 0 1
23.427865 34.510354 -14.927244 44.301828 0.974396 1.914466 0.043441 0.009606 -390605.000000 0 0 1
22.755065 -33.559684 -14.893244 43.195533 -0.974956 1.922808 0.042457 0.015897 -237377.000000 0 0 1
21.413865 -33.577884 -14.470944 42.372586 -1.003090 1.919326 0.035690 0.003805 -176325.000000 0 0 1
-1.289530 -7.172346 -29.157914 30.054773 1.392905 2.896683 -0.009402 0.010524 98933.400000 0 0 1
-0.838230 -8.497146 -29.143654 30.368679 1.472466 2.856592 -0.000065 0.006973 -196797.000000 0 0 1
-0.675430 -8.935546 -30.457904 31.748765 1.495351 2.855456 -0.019732 0.017812 -609246.000000 0 0 1
-0.346530 -10.438946 -30.496914 32.235903 1.537613 2.811629 -0.008664 0.014573 1003760.000000 0 0 1
1.000970 -10.848646 -30.151414 32.059364 -1.478790 2.794857 -0.018308 0.005136 869742.000000 0 0 1
1.198870 -12.226746 -30.098664 32.509386 -1.473056 2.754063 -0.008446 0.000610 -863953.000000 0 0 1
2.588970 -12.578246 -29.630614 32.293781 -1.367802 2.732628 -0.007457 -0.000800 -1594520.000000 0 0 1
3.460770 -12.586746 -30.734214 33.391541 -1.302473 2.739948 -0.004944 -0.004161 909070.000000 0 0 1
4.838970 -12.935046 -30.429234 33.416602 -1.212817 2.715535 0.004676 -0.003629 1452250.000000 0 0 1
5.153170 -14.313946 -29.786494 33.446665 -1.225231 2.669386 0.011131 -0.006832 -1410970.000000 0 0 1
4.778070 -14.374346 -28.436454 32.219306 -1.249884 2.652140 0.016704 -0.008180 -203989.000000 0 0 1
5.202670 -15.499646 -27.649544 32.121707 -1.246950 2.607586 0.022868 -0.009540 -101714.000000 0 0 1
4.802070 -16.908646 -28.117404 33.159472 -1.294081 2.582892 0.018331 -0.009797 -305123.000000 0 0 1
5.526170 -17.397746 -29.262704 34.489505 -1.263238 2.583851 0.025755 -0.020216 123800.000000 0 0 1
4.991570 -18.617846 -29.716084 35.420130 -1.308850 2.566166 0.014741 -0.014318 -358309.000000 0 0 1
5.374970 -19.078846 -31.099474 36.879126 -1.296190 2.574155 0.021792 -0.020099 -212875.000000 0 0 1
6.745970 -19.377346 -31.274734 37.404527 -1.235782 2.560971 0.022822 -0.015225 90242.600000 0 0 1
6.917370 -20.144746 -32.403554 38.776940 -1.240028 2.560093 0.028781 -0.016523 -549723.000000 0 0 1
8.334170 -20.279946 -32.949714 39.578002 -1.180881 2.554448 0.019873 -0.006453 -622883.000000 0 0 1
8.906070 -19.087146 -33.337754 39.434034 -1.134224 2.578120 0.007590 -0.000846 -11930.400000 0 0 1
10.014970 -19.257146 -34.198598 40.505325 -1.091226 2.576052 0.004795 0.003886 -581107.000000 0 0 1
10.240270 -17.894646 34.210497 39.942954 -1.051029 0.542378 -0.011864 0.009279 -413616.000000 0 0 1
9.221970 -17.569246 33.299409 38.763047 -1.087433 0.537385 -0.007340 0.009474 -148080.000000 0 0 1
9.279970 -16.188046 32.959313 37.874622 -1.050270 0.515144 -0.016400 0.012161 -243931.000000 0 0 1
8.268370 -15.847946 31.870513 36.541113 -1.089915 0.511150 -0.015514 0.005290 -460157.000000 0 0 1
8.660670 -16.364646 30.647663 35.806258 -1.084039 0.543449 -0.015062 0.003551 -322958.000000 0 0 1
7.928370 -15.904046 29.558503 34.489170 -1.108339 0.541305 -0.007302 0.001728 -643771.000000 0 0 1
7.861570 -16.656146 28.204273 33.685494 -1.129805 0.578502 -0.005630 -0.006014 -1010580.000000 0 0 1
7.146370 -17.831546 28.167053 34.094245 -1.189625 0.598551 -0.003325 -0.002147 -141005.000000 0 0 1
7.373470 -18.602346 27.000193 33.606930 -1.193420 0.637794 -0.013733 -0.001496 -67134.100000 0 0 1
7.084870 -20.082846 27.327073 34.645130 -1.231645 0.661989 -0.007041 -0.002587 -229128.000000 0 0 1
7.780070 -20.528146 28.474073 35.954236 -1.208528 0.656795 -0.007232 0.002862 182248.000000 0 0 1
7.134970 -21.596246 29.087783 36.924311 -1.251706 0.663620 -0.007144 -0.001249 -383478.000000 0 0 1
7.673870 -21.919246 30.496363 38.332360 -1.234035 0.650836 -0.004346 0.002610 -285649.000000 0 0 1
7.210370 -21.199246 31.631683 38.755140 -1.242947 0.616005 0.017427 -0.000137 116892.000000 0 0 1
7.317370 -19.765046 31.630093 38.008732 -1.216225 0.587769 0.006364 -0.002746 -187158.000000 0 0 1
6.574170 -19.032646 32.785073 38.474957 -1.238212 0.550784 0.014326 -0.002823 316303.000000 0 0 1
5.152070 -19.128046 32.758953 38.282829 -1.307694 0.543877 0.022353 -0.010990 192322.000000 0 0 1
4.571370 -18.264946 33.724846 38.624745 -1.325553 0.509187 0.019054 -0.007522 1252520.000000 0 0 1
3.007370 -18.347646 33.926380 38.686944 -1.408331 0.501325 0.022127 -0.011289 1273220.000000 0 0 1
2.419470 -19.400146 -34.484156 39.640591 -1.446723 2.625837 0.016512 -0.013135 27929.400000 0 0 1
2.329070 -19.140346 -33.125714 38.328714 -1.449708 2.614460 0.011500 -0.016422 -388292.000000 0 0 1
1.823870 -20.337946 -32.325494 38.234750 -1.481357 2.578200 0.000473 0.004421 -303779.000000 0 0 1
0.589570 -20.918346 -32.778734 38.889204 -1.542619 2.573400 -0.016680 0.011159 1039690.000000 0 0 1
-0.188330 -21.581846 -31.764464 38.403030 1.562070 2.544786 -0.020232 0.014134 442560.000000 0 0 1
-0.663630 -20.677846 -30.600094 36.937507 1.538714 2.547093 -0.015020 0.008515 -1012820.000000 0 0 1
-1.437730 -19.594146 -31.077314 36.766793 1.497552 2.577838 -0.014143 0.012253 69270.700000 0 0 1
-1.930430 -18.775046 -30.021284 35.461336 1.468337 2.580346 -0.000341 0.009304 93444.300000 0 0 1
-2.096930 -17.320146 -30.467754 35.109380 1.450314 2.621545 0.002468 0.009840 -184175.000000 0 0 1
-2.416230 -16.529646 -29.367614 33.786448 1.425649 2.624404 0.007437 0.007532 -282218.000000 0 0 1
-2.092230 -15.196446 -29.671014 33.401773 1.433978 2.664441 0.013186 0.007339 -190501.000000 0 0 1
-3.140230 -14.186746 -29.139524 32.561275 1.352959 2.679034 0.022204 -0.004558 200567.000000 0 0 1
-3.094330 -13.896646 -27.770614 31.207349 1.351703 2.667866 0.026233 -0.004896 -302531.000000 0 0 1
-4.103430 -13.004746 -27.394724 30.601184 1.265150 2.679716 0.015393 -0.001610 -170549.000000 0 0 1
-4.327630 -12.823546 -25.864024 29.191085 1.245323 2.659496 0.025772 -0.009171 -551502.000000 0 0 1
-4.793630 -13.995146 -25.180834 29.204749 1.240800 2.610427 0.028784 -0.004525 268678.000000 0 0 1
-5.062030 -13.881346 -23.785144 28.000874 1.221118 2.585725 0.032952 -0.005698 -584038.000000 0 0 1
-6.149230 -12.851346 -23.409044 27.403530 1.124505 2.594873 0.016412 -0.002237 -889222.000000 0 0 1
-7.367930 -13.465446 -23.671244 28.212274 1.070126 2.566314 0.003803 0.004525 -1352870.000000 0 0 1
-8.487030 -12.878546 -23.121144 27.793415 0.988117 2.553306 0.004046 0.004119 6187.270000 0 0 1
-9.848830 -13.586346 -23.363844 28.765560 0.943549 2.518737 0.008515 0.001511 338298.000000 0 0 1
-10.284530 -14.278046 -22.239544 28.358975 0.946573 2.472227 0.011149 -0.000439 -276355.000000 0 0 1
-11.454930 -15.034146 -22.500044 29.385250 0.919705 2.442912 -0.009086 0.004644 194914.000000 0 0 1
-11.843630 -16.054946 -21.435744 29.283510 0.935218 2.392060 -0.005755 0.001053 -623608.000000 0 0 1
-10.968530 -17.128146 -21.343944 29.482977 1.001213 2.380295 0.005659 0.003274 -674363.000000 0 0 1
-11.397330 -18.405246 -21.817744 30.735422 1.016347 2.360091 -0.000219 -0.002618 -66719.900000 0 0 1
-11.842630 -18.546246 -23.303644 32.051067 1.002515 2.384853 -0.009074 0.000920 581554.000000 0 0 1
-13.056530 -17.840746 -23.564944 32.312099 0.939021 2.388082 -0.019205 0.002364 -12257.600000 0 0 1
-13.436530 -18.041646 -24.944444 33.589680 0.930663 2.407774 -0.021031 -0.000423 -762195.000000 0 0 1
-14.657530 -17.252546 -25.325164 33.968477 0.866542 2.412155 -0.012551 -0.001896 -1701430.000000 0 0 1
-15.827630 -17.836846 -24.823444 34.421945 0.845011 2.376260 -0.005297 -0.004015 -541077.000000 0 0 1
-16.958930 -17.355246 -25.499684 35.200053 0.796947 2.380992 -0.002118 -0.002739 -208607.000000 0 0 1
-17.580430 -16.037846 -25.046344 34.548565 0.739545 2.381773 -0.000933 0.002986 -656102.000000 0 0 1
-18.301930 -16.061146 -23.806344 34.053826 0.720281 2.344906 0.002791 0.005125 228417.000000 0 0 1
-18.891030 -14.813146 -23.555644 33.632851 0.664993 2.346721 0.003449 -0.001126 180579.000000 0 0 1
-19.697330 -14.814946 -22.206944 33.175530 0.644863 2.304167 0.006238 -0.007289 -79944.200000 0 0 1
-18.857730 -14.821146 -21.077644 31.930352 0.666112 2.291766 0.000888 -0.001222 -247665.000000 0 0 1
-19.476730 -14.821746 -19.802444 31.482756 0.650503 2.251054 0.003979 -0.006250 -381987.000000 0 0 1
-19.965330 -13.546346 -19.087244 30.764277 0.596146 2.240094 0.014027 -0.011358 -60433.800000 0 0 1
-21.224430 -13.081546 -19.517544 31.662877 0.552350 2.234981 0.012543 -0.019808 -237196.000000 0 0 1
-21.795730 -12.079346 -18.699344 31.154934 0.506067 2.214554 0.014967 -0.011396 574674.000000 0 0 1
-23.289330 -11.847846 -19.091944 32.361499 0.470603 2.201804 0.019896 -0.014921 465890.000000 0 0 1
-23.443230 -11.146246 -20.298444 32.952248 0.443821 2.234446 0.012675 -0.022559 -448575.000000 0 0 1
-24.740430 -10.640446 -20.417944 33.796455 0.406168 2.219488 -0.002134 -0.018557 -591519.000000 0 0 1
-25.072170 -9.745246 -21.641844 34.524671 0.370717 2.248302 0.004066 -0.012109 -142883.000000 0 0 1
-24.952330 -10.474946 -22.832544 35.407179 0.397457 2.271632 -0.008054 -0.017522 506732.000000 0 0 1
-25.746830 -9.734346 -23.753244 36.357576 0.361468 2.282762 -0.001953 -0.010712 -228714.000000 0 0 1
-25.878530 -10.209846 -25.206704 37.540873 0.375782 2.306956 -0.002216 -0.008819 -462189.000000 0 0 1
-24.827330 -9.920846 -26.057474 37.333784 0.380156 2.343341 -0.013263 -0.007532 -36587.900000 0 0 1
-23.783330 -10.913246 -26.110694 36.966391 0.430198 2.355105 -0.006661 -0.003474 769775.000000 0 0 1
-22.791330 -10.747546 -27.322554 37.168217 0.440640 2.396618 -0.007069 -0.001705 202725.000000 0 0 1
-23.263930 -11.111246 -28.608524 38.511269 0.445581 2.408130 0.001302 0.003571 -385066.000000 0 0 1
-22.222230 -11.035846 -29.535104 38.573822 0.460934 2.442890 0.003806 0.000521 -9524.940000 0 0 1
-22.558730 -11.521446 -30.984404 40.020910 0.472196 2.456255 0.012845 -0.000447 402821.000000 0 0 1
-23.425630 -10.699346 -31.785064 40.908757 0.428442 2.460642 0.008341 -0.000677 227929.000000 0 0 1
-22.739230 -9.617146 -32.344514 40.690658 0.400118 2.489619 0.010427 -0.008304 -289520.000000 0 0 1
-23.669630 -8.525846 -32.970274 41.472646 0.345734 2.489785 -0.000505 -0.000980 -718892.000000 0 0 1
-24.590330 -8.736946 -34.010464 42.868755 0.341389 2.487109 0.023619 -0.003163 1060250.000000 0 0 1
-25.749260 -9.494746 -33.631504 43.407979 0.353270 2.457159 0.014641 -0.006200 90155.500000 0 0 1
-26.743330 -8.904446 -32.610704 43.103977 0.321414 2.428831 0.006408 0.003574 -1215730.000000 0 0 1
-28.078980 -9.250146 -32.874904 44.212595 0.318236 2.409181 0.003722 -0.000460 -860301.000000 0 0 1
-28.863550 -8.604246 -31.971444 43.923920 0.289713 2.386025 0.006068 0.001471 -181168.000000 0 0 1
-30.382880 -8.810346 -32.232164 45.162528 0.282237 2.365552 0.011985 -0.004649 307469.000000 0 0 1
-30.699250 -10.166046 -31.944664 45.456066 0.319784 2.350065 0.012793 -0.005982 473965.000000 0 0 1
-32.067720 -10.568646 -31.874914 46.433232 0.318362 2.327416 0.009206 -0.003030 372845.000000 0 0 1
-32.213250 -12.125146 -31.815854 46.871752 0.360000 2.316903 -0.006918 -0.004731 -698851.000000 0 0 1
-33.494610 -12.649546 -31.606424 47.758412 0.361100 2.294011 -0.021219 -0.003777 -473438.000000 0 0 1
-33.381330 -14.063846 -31.667284 48.113634 0.398740 2.289191 -0.014932 -0.012541 -282713.000000 0 0 1
-34.623466 -14.831146 -31.238544 48.934588 0.404709 2.263180 -0.028249 -0.011562 -427231.000000 0 0 1
-34.911545 -14.778246 -29.869104 48.263608 0.400434 2.238105 -0.028498 -0.004624 112841.000000 0 0 1
34.328076 -15.900046 -29.571624 48.017801 -0.433759 2.234257 -0.025437 -0.006048 80026.900000 0 0 1
34.235812 -16.322546 -28.108864 47.208310 -0.444890 2.208587 -0.025020 -0.000863 -576918.000000 0 0 1
-34.738427 -17.040846 -27.620064 47.539632 0.456057 2.190741 -0.020792 -0.008252 43314.600000 0 0 1
-34.573074 -16.825346 -26.235204 46.547563 0.452919 2.169560 -0.032111 -0.000428 -143063.000000 0 0 1
-33.382200 -15.903946 -25.861624 45.123501 0.444606 2.181116 -0.002763 -0.001736 -374627.000000 0 0 1
-32.170180 -16.597146 -25.893184 44.506659 0.476300 2.191715 -0.005314 0.002729 -434655.000000 0 0 1
-31.114610 -15.897646 -25.221964 43.092941 0.472360 2.196037 0.012187 0.006985 265419.000000 0 0 1
-29.775880 -16.635846 -25.355414 42.500016 0.509500 2.210051 0.018475 0.013330 -347332.000000 0 0 1
-29.499050 -17.849046 -24.649644 42.383810 0.544140 2.191468 0.012068 0.004105 140862.000000 0 0 1
-30.356640 -18.965046 -24.901544 43.603732 0.558413 2.178626 -0.003223 0.003041 -127642.000000 0 0 1
-29.984300 -20.169546 -24.004544 43.383026 0.592147 2.157137 -0.009238 0.001532 451295.000000 0 0 1
-28.696440 -20.723946 -24.290644 42.930210 0.625456 2.172220 -0.012211 0.003309 508788.000000 0 0 1
-28.696240 -21.985346 -23.667844 43.208754 0.653751 2.150476 -0.035181 0.024374 -330307.000000 0 0 1
-27.376740 -22.810846 -23.729644 42.812575 0.694671 2.158280 -0.024825 0.017041 758733.000000 0 0 1
-26.226920 -22.330546 -23.008044 41.423118 0.705327 2.159688 -0.002452 0.003657 576099.000000 0 0 1
-26.365340 -22.261146 -21.602544 40.710682 0.701195 2.130147 0.002920 -0.002772 -594516.000000 0 0 1
-26.344750 -23.599846 -20.833644 41.049230 0.730494 2.103110 -0.003891 0.006594 -100329.000000 0 0 1
-26.202940 -23.272146 -19.476844 40.094068 0.726230 2.078050 -0.010000 0.004838 839.074000 0 0 1
-26.225050 -24.378046 -18.578844 40.338763 0.748915 2.049434 -0.008656 0.037059 65999.200000 0 0 1
-26.026140 -23.911446 -17.122644 39.272155 0.743077 2.021945 -0.018313 0.038317 -360851.000000 0 0 1
-27.211700 -23.311546 -16.703844 39.533823 0.708356 2.007021 -0.034516 0.026523 -546722.000000 0 0 1
-26.918630 -22.371946 -15.727944 38.372970 0.693416 1.993108 -0.031490 0.020524 -322814.000000 0 0 1
-28.113830 -21.862946 -14.920344 38.613372 0.660969 1.967525 -0.042114 0.021829 -189691.000000 0 0 1
-29.009920 -21.123146 -15.706044 39.171961 0.629360 1.983351 -0.050219 0.024301 -455096.000000 0 0 1
-29.960510 -20.369546 -15.020844 39.219591 0.597094 1.963831 -0.035549 0.019176 150135.000000 0 0 1
-31.015450 -19.732746 -15.997344 40.090577 0.566629 1.981255 -0.039516 0.010761 474433.000000 0 0 1
-31.910010 -20.620146 -16.660744 41.485172 0.573697 1.984067 -0.041854 0.019328 34312.600000 0 0 1
-32.665410 -19.937446 -17.646844 42.141925 0.547998 2.002862 -0.029748 0.012875 204580.000000 0 0 1
-33.208870 -20.981746 -18.688144 43.500683 0.563482 2.014852 -0.041898 0.020134 688095.000000 0 0 1
-34.230760 -21.935046 -18.324744 44.594701 0.569880 1.994257 -0.034005 0.019747 199300.000000 0 0 1
-33.939150 -22.785046 -17.270044 44.376555 0.591238 1.970527 -0.031372 0.019587 -638883.000000 0 0 1
-34.894995 -23.964246 -17.155244 45.675465 0.601780 1.955830 -0.037915 0.035213 1072320.000000 0 0 1
33.797515 -23.572246 -16.966744 44.562239 -0.609016 1.961396 -0.029313 0.015202 885701.000000 0 0 1
33.084625 -24.786846 -16.890044 44.657068 -0.642986 1.958665 -0.036082 0.016971 -220076.000000 0 0 1
31.594225 -24.768046 -16.519744 43.411439 -0.664873 1.961175 -0.027884 0.004791 68702.500000 0 0 1
30.721855 -24.220946 -17.494344 42.854856 -0.667624 1.991303 -0.013963 -0.005908 -73990.900000 0 0 1
29.447915 -24.801546 -17.308244 42.212222 -0.699958 1.993282 0.006192 -0.010833 397349.000000 0 0 1
28.354275 -24.355446 -18.336244 41.633766 -0.709678 2.026860 0.026068 -0.006294 283934.000000 0 0 1
28.102125 -22.984846 -18.404244 40.703179 -0.685563 2.039979 0.019669 -0.014996 -740476.000000 0 0 1
26.889235 -22.719146 -18.987644 39.996514 -0.701535 2.065456 0.028678 -0.029756 -1266150.000000 0 0 1
33.344875 30.340054 -18.613144 48.773442 0.738251 1.962350 0.016999 -0.010850 18524.100000 0 0 1
32.336385 30.301954 -19.625044 48.466406 0.752931 1.987688 0.016514 -0.024111 208131.000000 0 0 1
32.840585 29.745854 -20.821644 48.957744 0.735991 2.010088 0.027680 -0.018324 -488598.000000 0 0 1
31.921635 30.033254 -22.008344 49.044411 0.754928 2.036155 0.026110 -0.014137 -1154050.000000 0 0 1
30.759205 29.303654 -21.854944 47.775217 0.761169 2.045926 0.016904 -0.018406 -908139.000000 0 0 1
29.908705 29.258954 -22.947344 47.719991 0.774417 2.072449 0.026172 -0.007523 370929.000000 0 0 1
28.814625 30.409954 -23.024944 47.803723 0.812329 2.073340 0.014332 -0.001272 -239395.000000 0 0 1
29.303625 31.668654 -23.235644 49.005114 0.824167 2.064792 0.032336 -0.011927 415612.000000 0 0 1
28.216655 32.607954 -23.119244 48.928087 0.857469 2.062938 0.028518 -0.000821 263447.000000 0 0 1
28.643035 34.111954 -22.851844 50.062517 0.872326 2.044816 0.025724 -0.002019 43921.800000 0 0 1
29.310155 34.365354 -21.653944 50.089480 0.864622 2.017844 0.021379 -0.010757 -126884.000000 0 0 1
30.680635 34.027754 -21.693044 50.692973 0.837078 2.012998 0.014161 -0.009173 -698457.000000 0 0 1
31.278685 33.919154 -20.302844 50.409033 0.825875 1.985329 0.014030 -0.017698 -607059.000000 0 0 1
31.331235 -34.179384 -19.654944 50.360633 -0.828847 1.971736 0.015124 -0.013666 95218.300000 0 0 1
31.079555 -34.342384 -18.270744 49.791145 -0.835230 1.946522 0.000719 -0.017375 -819577.000000 0 0 1
30.999755 -32.970884 -17.565844 48.545060 -0.816201 1.941044 -0.006368 0.002821 624609.000000 0 0 1
32.267805 -32.311684 -17.384044 48.861653 -0.786078 1.934546 -0.011967 -0.001611 186730.000000 0 0 1
33.158175 -32.919484 -16.511844 49.556008 -0.781786 1.910487 -0.021062 -0.000102 -681822.000000 0 0 1
34.480124 -32.099084 -16.581044 49.941577 -0.749651 1.909229 -0.023011 0.008624 -181872.000000 0 0 1
-34.654161 -32.707784 -17.403844 50.730698 0.756512 1.920973 -0.026696 0.004605 -1112510.000000 0 0 1
-33.553090 -31.899384 -17.644144 49.544892 0.760138 1.934913 -0.045903 0.015456 -205249.000000 0 0 1
-32.647100 -32.502084 -18.756244 49.739474 0.783172 1.957448 -0.031020 0.004252 -1082180.000000 0 0 1
-31.975920 -33.644084 -18.258744 49.877505 0.810814 1.945581 -0.023953 -0.002957 -204346.000000 0 0 1
-31.050160 -34.108184 -19.198544 49.960631 0.832296 1.965217 -0.017336 0.001705 379874.000000 0 0 1
-29.690160 -33.357284 -19.320144 48.656777 0.843497 1.979118 -0.023744 0.001019 -1192190.000000 0 0 1
-29.894430 -32.154584 -20.072144 48.275098 0.821807 1.999604 -0.034751 0.014747 613053.000000 0 0 1
-28.733730 -31.517284 -20.655944 47.388125 0.831565 2.021822 -0.027926 0.023289 303259.000000 0 0 1
-27.868820 -32.451884 -21.570744 47.907127 0.861231 2.037855 -0.026954 0.020023 -441781.000000 0 0 1
-28.455340 -32.908584 -22.790644 49.113080 0.857842 2.053352 -0.025099 0.024460 20952.100000 0 0 1
-27.848490 -34.145584 -23.201144 49.797112 0.886627 2.055463 -0.027955 0.019715 -254275.000000 0 0 1
-28.481820 34.483354 -24.414544 50.954742 -0.880426 2.070473 -0.028302 0.011512 -851684.000000 0 0 1
-29.662930 33.847354 -24.056044 51.031618 -0.851189 2.061668 -0.032274 0.012367 -580248.000000 0 0 1
-30.212620 32.961654 -25.042944 51.248630 -0.828886 2.081345 -0.024057 0.007886 333584.000000 0 0 1
-31.120530 33.613454 -26.108934 52.725971 -0.823889 2.088840 -0.007098 -0.002980 -504076.000000 0 0 1
-30.416330 34.280554 -27.128854 53.256776 -0.845055 2.105280 -0.007366 -0.011847 -707059.000000 0 0 1
-31.242700 -34.201384 -27.833804 54.042220 0.830577 2.111848 -0.003734 -0.010673 2129.930000 0 0 1
-30.528370 -33.371484 -28.983864 53.718727 0.829862 2.140697 0.002421 -0.011024 135935.000000 0 0 1
-30.384580 -33.990484 -30.246554 54.712244 0.841354 2.156553 0.013426 -0.011070 337410.000000 0 0 1
-31.602690 -34.107084 -30.972204 55.868601 0.823493 2.158409 0.014080 -0.010549 49452.800000 0 0 1
-31.456380 34.217454 -32.110374 56.492602 -0.827416 2.175356 0.028470 -0.011811 51082.100000 0 0 1
-30.602380 -34.652784 -33.161464 56.894672 0.847389 2.193037 0.029708 -0.023800 56768.000000 0 0 1
-30.930270 34.121354 -34.409063 57.488538 -0.834414 2.212471 0.026158 -0.028862 -72357.600000 0 0 1
-30.083710 -34.622484 33.576721 56.843136 0.855428 0.938882 0.036721 -0.030386 1754780.000000 0 0 1
-28.671370 34.379354 33.474748 55.897640 -0.875682 0.928722 0.036158 -0.028013 1386050.000000 0 0 1
-28.389360 33.142154 32.826793 54.607293 -0.862487 0.925866 0.045078 -0.031963 116245.000000 0 0 1
-26.953780 32.569454 32.972203 53.613820 -0.879464 0.908417 0.038078 -0.028283 25390.100000 0 0 1
-26.815980 31.804654 34.147053 53.820573 -0.870295 0.883485 0.040996 -0.017551 283487.000000 0 0 1
-25.466460 31.590754 34.533691 53.283132 -0.892325 0.865687 0.041604 -0.018093 -15816.600000 0 0 1
-24.864630 30.285154 34.039932 51.905273 -0.883371 0.855543 0.033141 -0.023071 -479646.000000 0 0 1
-25.213320 29.241154 -34.290165 51.638861 -0.859231 2.297003 0.034977 -0.015357 56754.400000 0 0 1
-24.695830 28.040554 34.409485 50.795367 -0.848737 0.826555 0.022181 -0.014235 -438083.000000 0 0 1
-24.745430 26.898054 -33.718304 49.726910 -0.827056 2.315929 0.030150 -0.025923 22517.800000 0 0 1
-23.728230 26.813354 -32.702094 48.491357 -0.846364 2.310935 0.023914 -0.017058 164064.000000 0 0 1
-23.709430 27.981254 -31.841734 48.569369 -0.867853 2.285764 0.014291 -0.006731 -228977.000000 0 0 1
-22.603430 28.116354 -30.769414 47.415200 -0.893667 2.276981 0.029274 -0.006888 337850.000000 0 0 1
-21.290130 28.320954 -31.252644 47.244828 -0.926179 2.293619 0.021700 -0.009484 559569.000000 0 0 1
-20.241830 28.505054 -30.275374 46.247897 -0.953315 2.284493 0.016801 -0.010998 796748.000000 0 0 1
-20.156230 29.809754 -29.408414 46.473108 -0.976249 2.255967 0.016760 -0.000097 -262496.000000 0 0 1
-19.454930 30.798254 -30.185404 47.309463 -1.007401 2.262748 0.015735 0.010317 314705.000000 0 0 1
-19.224830 31.880054 -29.228404 47.331084 -1.028147 2.236396 0.018064 0.001910 -126919.000000 0 0 1
-18.719530 33.131854 -29.940134 48.420575 -1.056509 2.237419 0.021865 0.015238 -768386.000000 0 0 1
-17.492230 32.904454 -30.528854 48.173562 -1.082184 2.257157 0.022422 0.011352 -1053780.000000 0 0 1
-17.199630 34.062754 -31.311234 49.360833 -1.103205 2.257942 0.013872 0.022282 -47494.000000 0 0 1
-15.736430 34.144754 -31.778334 49.227654 -1.138936 2.272524 0.013255 0.024017 -767276.000000 0 0 1
-14.819930 -34.647584 -30.855904 48.704950 1.166613 2.256900 0.031348 0.023970 265284.000000 0 0 1
-13.472930 -34.634084 -31.319584 48.599958 1.199802 2.271082 0.030440 0.030455 647678.000000 0 0 1
-12.749630 33.333054 -31.285454 47.459721 -1.205473 2.290551 0.035806 0.011383 -937486.000000 0 0 1
-12.504730 32.839554 -30.001754 46.205084 -1.206966 2.277483 0.051682 -0.006781 100150.000000 0 0 1
-12.184630 31.446554 -29.953244 45.105961 -1.201137 2.297038 0.054194 -0.008314 -180863.000000 0 0 1
-11.941730 30.815054 -28.572774 43.687250 -1.201087 2.283696 0.045936 -0.013965 15638.400000 0 0 1
-10.807630 31.371854 -27.934124 43.374109 -1.239029 2.270548 0.029527 -0.008895 -74772.200000 0 0 1
-10.720730 30.887354 -26.585144 42.139441 -1.236715 2.253490 0.026685 -0.012816 939956.000000 0 0 1
-9.274430 31.151254 -26.013874 41.630965 -1.281430 2.245759 0.018796 -0.006224 568522.000000 0 0 1
-8.290330 30.492254 -26.718444 41.380942 -1.305330 2.272697 0.021785 -0.006720 -1172670.000000 0 0 1
-7.002430 30.904354 -26.386734 41.235577 -1.347975 2.265167 0.017533 -0.010691 -313042.000000 0 0 1
-5.919030 29.930354 -26.909904 40.681739 -1.375555 2.293579 0.004479 -0.001738 -80612.700000 0 0 1
-5.668430 28.925954 -25.907264 39.243193 -1.377285 2.291844 0.014902 -0.010978 -7105.560000 0 0 1
-4.546830 28.164754 -26.288074 38.794198 -1.410740 2.315330 0.015536 -0.013290 92753.600000 0 0 1
-4.061730 27.101154 -25.243904 37.258890 -1.422031 2.315191 0.021781 -0.019499 -24235.400000 0 0 1
-4.970130 26.020854 -25.132354 36.516054 -1.382064 2.329877 0.029356 -0.021264 105619.000000 0 0 1
-4.460530 24.941354 -24.383844 35.164460 -1.393827 2.337025 0.027896 -0.028267 128691.000000 0 0 1
-5.533930 23.793454 -24.163044 34.359940 -1.342277 2.350731 0.033601 -0.017143 386773.000000 0 0 1
-5.653330 22.975554 -25.295844 34.636915 -1.329531 2.389579 0.023545 -0.018126 -1018930.000000 0 0 1
-6.715630 22.140854 -25.386834 34.348339 -1.276302 2.402529 0.021938 -0.021794 -1318170.000000 0 0 1
-6.841330 21.392954 -26.754204 34.932072 -1.261281 2.443224 0.009455 -0.008316 -191307.000000 0 0 1
-5.798230 20.495054 -27.055104 34.433201 -1.295092 2.474667 0.026599 -0.011667 -243274.000000 0 0 1
-5.822430 19.345054 -26.261404 33.132961 -1.278443 2.485869 0.017838 -0.009432 -554923.000000 0 0 1
-4.491230 18.607454 -26.400824 32.609998 -1.333959 2.514255 0.018858 -0.016196 -306710.000000 0 0 1
-4.418230 17.993054 -27.669324 33.299583 -1.330008 2.551557 0.004176 -0.011235 -548503.000000 0 0 1
-3.325130 17.124654 -27.721474 32.753478 -1.379011 2.579924 0.000247 -0.004907 -459993.000000 0 0 1
-3.041030 16.580054 -29.140584 33.664813 -1.389398 2.617163 -0.000554 0.005117 48753.100000 0 0 1
-2.295430 17.505654 -29.927594 34.747342 -1.440415 2.608603 0.004958 -0.008139 212396.000000 0 0 1
-2.238530 17.155654 -31.255804 35.724680 -1.441046 2.636042 0.004278 -0.016632 -278205.000000 0 0 1
-1.410030 18.160954 -32.040374 36.856397 -1.493311 2.624642 0.004538 0.002344 357838.000000 0 0 1
-0.013330 18.060454 -31.701084 36.484776 -1.570058 2.623742 0.009793 -0.011711 711389.000000 0 0 1
0.768070 19.140154 -32.180604 37.450323 1.530689 2.604672 0.008113 0.008895 15636.400000 0 0 1
0.543770 20.635554 -31.795234 37.908556 1.544451 2.565752 0.013179 0.003709 -380145.000000 0 0 1
1.054570 20.890254 -30.511094 36.992454 1.520358 2.540631 0.030971 -0.016264 -177304.000000 0 0 1
0.883070 22.197554 -30.070054 37.386085 1.531035 2.505312 0.034557 -0.014151 -17244.800000 0 0 1
1.663870 22.523354 -28.755104 36.563997 1.497057 2.475808 0.034610 -0.021816 103494.000000 0 0 1
3.040670 22.467354 -29.045764 36.846764 1.436276 2.478814 0.012057 -0.018254 -66585.100000 0 0 1
4.004670 22.659954 -28.020574 36.258288 1.395874 2.454045 0.008249 -0.018613 344535.000000 0 0 1
4.243170 24.111954 -27.495694 36.815811 1.396602 2.414101 0.002177 -0.019026 -432692.000000 0 0 1
4.885170 24.927854 -28.451934 38.141517 1.377276 2.412767 -0.006968 -0.021705 175718.000000 0 0 1
5.249470 26.151454 -27.900714 38.599291 1.372696 2.378685 -0.002504 -0.014931 -28920.500000 0 0 1
5.998070 27.057854 -28.929744 40.062880 1.352648 2.377642 0.010984 -0.017452 344694.000000 0 0 1
7.340170 26.683054 -29.232474 40.254204 1.302349 2.383570 0.021141 -0.017778 220664.000000 0 0 1
7.921770 27.678754 -30.015624 41.590931 1.292044 2.377032 0.046922 -0.028778 -564334.000000 0 0 1
9.443570 27.581954 -29.986084 41.822367 1.240924 2.370266 0.051139 -0.018348 -493527.000000 0 0 1
10.156670 28.543254 -30.740094 43.160499 1.228933 2.363463 0.058175 -0.014717 145388.000000 0 0 1
11.536470 28.427254 -30.407584 43.195139 1.185279 2.351752 0.050716 -0.022231 288922.000000 0 0 1
12.444270 29.278054 -31.331864 44.651427 1.168894 2.348576 0.065320 -0.025111 -447077.000000 0 0 1
12.317370 30.675254 -31.181854 45.442236 1.188962 2.327030 0.057141 -0.021684 381374.000000 0 0 1
13.150670 31.400354 -32.098814 46.789488 1.174183 2.326809 0.091106 -0.030676 208973.000000 0 0 1
12.880070 32.898654 -32.045964 47.698652 1.197632 2.307489 0.080289 -0.030104 -449053.000000 0 0 1
11.599070 33.207154 -32.492604 47.885517 1.234750 2.316580 0.061468 -0.033776 -433767.000000 0 0 1
11.358470 34.598854 -32.487014 48.800631 1.253591 2.299240 0.043867 -0.028732 -622322.000000 0 0 1
10.029970 -34.249984 -33.038824 48.633585 -1.285916 2.317662 0.003788 -0.016367 -604741.000000 0 0 1
9.917170 -34.301284 -34.447395 49.614023 -1.289351 2.338254 0.012946 -0.012149 368137.000000 0 0 1
8.652870 -33.805984 34.271992 48.911002 -1.320219 0.794417 0.006159 -0.008608 377622.000000 0 0 1
8.493470 -33.335384 32.809123 47.537621 -1.321316 0.809070 0.018491 -0.002461 46560.300000 0 0 1
9.148370 -32.096384 32.560473 46.626762 -1.293131 0.797746 -0.007852 -0.015098 249120.000000 0 0 1
9.330670 -31.771884 31.201653 45.497881 -1.285151 0.815118 0.012575 -0.004841 -666714.000000 0 0 1
9.296870 -30.288284 30.793383 44.181946 -1.272979 0.799636 -0.004248 -0.026551 -276109.000000 0 0 1
8.047470 -29.646884 30.805903 43.505208 -1.305739 0.783997 -0.007003 -0.004159 -235892.000000 0 0 1
7.519670 -29.319484 32.087763 44.111247 -1.319734 0.756230 -0.005431 0.004642 -38357.000000 0 0 1
6.022470 -28.880384 32.011673 43.532676 -1.365211 0.744616 -0.024975 -0.007176 774206.000000 0 0 1
5.075470 -29.948684 31.852093 44.014087 -1.402919 0.761677 -0.003885 -0.016870 362743.000000 0 0 1
5.044070 -30.645184 30.595563 43.596541 -1.407663 0.792891 -0.008854 -0.021679 -793735.000000 0 0 1
4.457970 -29.875384 29.385773 42.141852 -1.422670 0.799164 -0.006402 -0.021397 -948387.000000 0 0 1
3.069370 -29.868184 29.336463 41.978060 -1.468392 0.797005 0.008495 -0.025412 -214496.000000 0 0 1
2.598770 -29.121684 28.175153 40.603760 -1.481794 0.803898 0.025199 -0.023551 -608114.000000 0 0 1
1.122670 -29.231784 27.778633 40.341170 -1.532409 0.811250 0.019989 -0.029616 -440211.000000 0 0 1
0.799670 -30.398684 27.107893 40.737665 -1.544496 0.842732 0.019196 -0.028120 47358.000000 0 0 1
0.503270 -31.423684 27.998133 42.090339 -1.554782 0.843046 0.029760 -0.029106 -985378.000000 0 0 1
0.804170 -32.891884 27.565153 42.922726 -1.546352 0.873426 0.014173 -0.019412 389793.000000 0 0 1
2.201170 -33.155284 27.425573 43.084569 -1.504504 0.880777 0.011221 -0.014759 675307.000000 0 0 1
2.648370 -32.861384 26.104573 42.051553 -1.490378 0.901065 0.008572 -0.008834 270182.000000 0 0 1
4.208670 -32.983684 26.061883 42.247580 -1.443884 0.906018 0.004682 0.006550 741947.000000 0 0 1
4.765770 -32.378684 24.872093 41.106116 -1.424657 0.920942 0.016088 0.000601 611532.000000 0 0 1
6.177470 -32.286484 24.904753 41.241058 -1.381748 0.922433 0.009633 -0.009677 -377353.000000 0 0 1
6.936070 -32.208784 23.582633 40.517347 -1.358688 0.949564 0.014376 0.001262 -964771.000000 0 0 1
8.289670 -32.053084 23.858333 40.808564 -1.317718 0.946360 0.005827 0.002678 -689270.000000 0 0 1
8.929370 -31.650484 22.664333 39.939439 -1.295819 0.967369 0.017152 0.005206 94386.400000 0 0 1
10.078670 -30.635184 22.859933 39.530629 -1.252960 0.954172 0.012841 0.010878 28754.700000 0 0 1
11.211970 -31.051884 23.574733 40.567176 -1.224292 0.950682 0.019219 -0.001101 297316.000000 0 0 1
12.265070 -30.077784 23.513233 40.099590 -1.183602 0.944225 0.025224 -0.000190 813621.000000 0 0 1
13.430370 -30.529684 24.470153 41.366953 -1.156363 0.937830 0.064076 -0.012082 28463.300000 0 0 1
13.233970 -30.343184 25.857903 42.005689 -1.159525 0.907673 0.036279 -0.012348 730128.000000 0 0 1
14.418770 -29.863084 26.518323 42.460878 -1.120979 0.896260 0.027090 -0.005275 348903.000000 0 0 1
-10.366930 -14.420646 26.868663 32.207970 0.947501 0.584072 0.040378 -0.031522 83783.000000 0 0 1
-9.099230 -14.128246 26.295723 31.206864 0.998619 0.568655 0.033404 -0.027070 99024.200000 0 0 1
-8.144130 -14.550746 27.264873 31.959730 1.060532 0.548896 0.052111 -0.031929 593097.000000 0 0 1
-6.635430 -14.266146 26.971033 31.224806 1.135442 0.528093 0.051171 -0.017170 407532.000000 0 0 1
-6.055730 -15.134646 25.974803 30.666264 1.190183 0.560451 0.046431 -0.023837 96922.400000 0 0 1
-6.444230 -14.892846 24.606793 29.475740 1.162416 0.582999 0.036777 -0.016138 -602625.000000 0 0 1
-5.871630 -15.963146 23.639033 29.122190 1.218332 0.623707 0.035514 -0.021519 402912.000000 0 0 1
-6.637630 -17.184646 23.460333 29.828802 1.202196 0.665676 0.047609 -0.019803 -101707.000000 0 0 1
-6.558630 -18.030546 24.612083 31.206904 1.221924 0.662147 0.054554 -0.018443 -78993.200000 0 0 1
-7.081130 -19.436146 24.250253 31.874456 1.221415 0.706243 0.057545 -0.022164 145510.000000 0 0 1
-8.492730 -19.512846 24.308833 32.307847 1.160286 0.719079 0.046027 -0.017190 191133.000000 0 0 1
-9.098230 -20.797446 23.998233 33.033721 1.158412 0.757615 0.033359 -0.017132 -183286.000000 0 0 1
-10.596130 -20.887746 24.223063 33.694698 1.101334 0.768580 0.027947 -0.018371 -722513.000000 0 0 1
-10.983630 -20.987546 25.599183 34.877434 1.088651 0.746639 0.026201 -0.019303 -339826.000000 0 0 1
-12.385630 -20.971546 25.561943 35.307542 1.037323 0.761242 0.026107 -0.013564 -491690.000000 0 0 1
-13.101930 -20.973746 26.903693 36.542678 1.012425 0.743319 0.028557 -0.017522 -797474.000000 0 0 1
-12.952430 -22.066846 27.733663 37.734165 1.040018 0.745167 0.030942 -0.013734 474106.000000 0 0 1
-11.752530 -22.044346 28.526233 37.918612 1.080996 0.719248 0.038642 -0.009360 587896.000000 0 0 1
-11.424830 -23.445746 29.059463 39.047178 1.117370 0.731439 0.041554 -0.008955 -522857.000000 0 0 1
-12.277230 -23.946146 30.031063 40.323852 1.097039 0.730641 0.046435 -0.008152 -907446.000000 0 0 1
-11.966830 -25.214366 30.499573 41.342390 1.127671 0.741093 0.048450 -0.004819 -533347.000000 0 0 1
-12.872130 -25.767646 31.585433 42.746964 1.107512 0.739370 0.049085 -0.009702 -214550.000000 0 0 1
-12.746130 -25.101326 32.802783 43.226878 1.100938 0.709248 0.049623 -0.007503 103225.000000 0 0 1
-13.646630 -25.703366 33.722232 44.543041 1.082714 0.711979 0.045551 -0.006717 -130786.000000 0 0 1
-13.515830 -25.159826 -33.968494 44.379647 1.077834 2.442470 0.042790 -0.010021 77847.200000 0 0 1
-13.692530 -23.736446 -33.716484 43.447733 1.047568 2.459133 0.042470 -0.014240 -432943.000000 0 0 1
-14.940130 -23.233046 -34.085722 43.872751 0.999319 2.460559 0.048608 -0.018907 -941582.000000 0 0 1
-14.985630 -21.700646 -33.908714 42.956815 0.966433 2.480574 0.032390 -0.010979 -30403.900000 0 0 1
-15.073930 -21.271246 -32.570764 41.719826 0.954287 2.466585 0.027541 -0.011117 142454.000000 0 0 1
-15.177230 -19.876946 -32.493904 41.003598 0.918674 2.485636 0.017671 -0.013786 -261201.000000 0 0 1
-15.282030 -19.367746 -31.033684 39.645170 0.902771 2.469927 0.021693 -0.006852 1016500.000000 0 0 1
-16.536430 -19.750846 -30.405644 39.850378 0.873750 2.438730 0.021156 -0.012072 1038660.000000 0 0 1
-16.662930 -19.319646 -29.045424 38.659263 0.859098 2.420854 0.016102 -0.009456 -199350.000000 0 0 1
-15.952830 -20.109046 -27.954344 37.951441 0.900144 2.398799 0.019777 -0.008581 307046.000000 0 0 1
-14.530430 -20.038646 -28.018464 37.386027 0.943409 2.418007 0.006568 -0.000992 263942.000000 0 0 1
-13.943330 -21.107446 -27.327294 37.238712 0.987014 2.394755 0.002238 -0.002937 -1220640.000000 0 0 1
-12.467130 -21.299346 -27.523274 36.967852 1.041234 2.410611 0.002028 -0.000792 -1394810.000000 0 0 1
-11.819030 -20.196946 -26.927694 35.675016 1.041338 2.426154 -0.010261 0.004043 267014.000000 0 0 1
-10.396030 -20.193546 -26.982254 35.268949 1.095364 2.441904 -0.025199 -0.000824 951162.000000 0 0 1
-9.568830 -21.161846 -26.051624 34.900907 1.146136 2.413501 0.002849 -0.003029 -267815.000000 0 0 1
-9.531130 -22.495246 -26.457494 36.012185 1.170031 2.395994 -0.002061 -0.001135 84148.100000 0 0 1
-8.959530 -23.309946 -25.475924 35.674213 1.203841 2.366173 0.010007 -0.005173 -145404.000000 0 0 1
-9.083030 -24.794646 -25.840114 36.945736 1.219648 2.345364 0.010571 -0.008063 -489586.000000 0 0 1
-8.264630 -25.237056 -26.897854 37.798249 1.254323 2.362593 0.000043 -0.001199 -71022.200000 0 0 1
-8.475130 -26.509206 -27.504724 39.128962 1.261361 2.350298 -0.004194 0.002531 -372840.000000 0 0 1
-8.260430 -27.782226 -26.665714 39.384604 1.281793 2.314556 0.000151 0.004332 -257961.000000 0 0 1
-9.322730 -28.201916 -25.829034 39.362423 1.251534 2.286548 -0.003253 0.009297 -149821.000000 0 0 1
-9.064330 -29.284456 -24.928844 39.511880 1.270622 2.253535 0.024708 0.015945 -211117.000000 0 0 1
-10.297630 -29.490646 -24.030744 39.410862 1.234850 2.226541 0.019677 0.016105 -20312.000000 0 0 1
-10.558830 -28.546946 -22.972544 38.133381 1.216525 2.217333 0.022658 0.001598 143489.000000 0 0 1
-11.151830 -27.309846 -23.308744 37.596390 1.183117 2.239505 0.011977 0.004092 -426161.000000 0 0 1
-11.035230 -26.251876 -22.169644 36.089200 1.172863 2.232297 0.022336 -0.014529 -136964.000000 0 0 1
-11.581730 -26.654916 -20.932144 35.815858 1.160901 2.194983 0.024632 -0.013763 210026.000000 0 0 1
-11.614230 -25.614166 -19.995244 34.507762 1.145094 2.188840 0.016924 -0.012005 -216524.000000 0 0 1
-12.190030 -26.170476 -18.669644 34.380899 1.134887 2.144830 0.028205 -0.015106 451061.000000 0 0 1
-13.548230 -26.600036 -18.794644 35.275417 1.099712 2.132699 0.046067 -0.018047 380211.000000 0 0 1
-13.938330 -26.947396 -17.479644 35.013956 1.093450 2.093494 0.058457 -0.012745 -292539.000000 0 0 1
-15.452630 -27.116456 -17.263044 35.666492 1.052832 2.076031 0.063251 -0.017504 -1461560.000000 0 0 1
-16.025130 -25.838116 -17.311644 34.987227 1.015647 2.088400 0.067284 -0.011995 226050.000000 0 0 1
-17.445830 -25.826146 -17.196744 35.595994 0.976696 2.074998 0.079268 -0.008340 879607.000000 0 0 1
-18.339830 -26.569636 -18.260844 37.091149 0.966640 2.085553 0.075440 -0.002333 -705740.000000 0 0 1
-18.236730 -28.000546 -18.311044 38.103848 0.993508 2.072085 0.066294 -0.004755 23874.000000 0 0 1
-18.750130 -28.721136 -17.159444 38.352543 0.992432 2.034667 0.065300 -0.007882 11818.700000 0 0 1
-20.209730 -29.236896 -17.195944 39.483284 0.965973 2.021417 0.046520 -0.001460 192730.000000 0 0 1
-20.509530 -30.213706 -18.169644 40.787802 0.974430 2.032493 0.048987 -0.002048 110247.000000 0 0 1
-21.812330 -30.739116 -17.945044 41.745605 0.953660 2.015141 0.031746 0.003741 405722.000000 0 0 1
-22.267230 -31.753836 -19.012744 43.192824 0.959235 2.026599 0.010037 0.002350 -156192.000000 0 0 1
-21.758030 -33.035206 -18.810944 43.801693 0.988377 2.014688 0.005707 -0.002063 47934.400000 0 0 1
-22.147630 -33.853866 -19.907644 45.087870 0.991465 2.028099 -0.010246 0.011894 -310145.000000 0 0 1
-21.613830 34.068179 -19.838344 44.959519 -1.005446 2.027786 -0.022964 0.011078 -188653.000000 0 0 1
-22.075430 33.419382 -18.667344 44.188793 -0.987035 2.006938 -0.017555 0.004676 62541.500000 0 0 1
-21.218130 32.321631 -18.409844 42.823116 -0.989887 2.015183 -0.018667 -0.005532 104320.000000 0 0 1
-21.974730 30.979471 -18.060444 42.057057 -0.953835 2.014655 -0.011141 -0.010613 119090.000000 0 0 1
-22.578830 30.983611 -16.777944 41.848382 -0.941045 1.983320 -0.017186 -0.004421 -166206.000000 0 0 1
-23.201930 29.790591 -16.346244 41.146185 -0.909095 1.979339 -0.012531 -0.005014 -467143.000000 0 0 1
-22.368630 28.535251 -16.235444 39.726638 -0.905953 1.991803 -0.006717 -0.019401 -469933.000000 0 0 1
-22.014130 27.991701 -17.498044 39.677938 -0.904371 2.027511 -0.008640 -0.012882 -177150.000000 0 0 1
-21.351230 26.779971 -17.351144 38.394063 -0.897714 2.039716 -0.007088 -0.009054 60703.700000 0 0 1
-20.724430 26.220181 -18.682744 38.288965 -0.901937 2.080525 0.005405 -0.002575 -444915.000000 0 0 1
-20.459530 24.828071 -18.531644 37.127447 -0.881563 2.093398 0.013174 -0.008450 273261.000000 0 0 1
-19.762030 24.162291 -19.630444 36.874225 -0.885243 2.132185 0.011220 0.002829 1893850.000000 0 0 1
-18.253330 24.656311 -19.832844 36.530253 -0.933525 2.144701 0.003560 0.000206 889947.000000 0 0 1
-17.321430 24.291391 -18.801844 35.264897 -0.951353 2.133128 0.011521 -0.003490 397674.000000 0 0 1
-16.253430 25.223361 -18.762244 35.389458 -0.998382 2.129591 0.017056 -0.009448 -195170.000000 0 0 1
-16.459330 26.486741 -17.896244 35.954590 -1.014777 2.091794 0.017573 -0.019247 -1033040.000000 0 0 1
-17.341230 27.423531 -18.332444 37.267235 -1.006930 2.085088 0.014398 -0.011459 -841323.000000 0 0 1
-17.237330 28.618361 -17.558244 37.741596 -1.028675 2.054682 0.026914 -0.021151 595893.000000 0 0 1
-18.456430 29.625261 -17.768144 39.166348 -1.013639 2.041663 0.020816 -0.012499 681043.000000 0 0 1
-18.509630 30.222491 -19.055944 40.238469 -1.021276 2.064142 0.042165 -0.015601 55751.900000 0 0 1
-18.834730 29.321091 -20.092244 40.226505 -0.999810 2.093792 0.019088 -0.009190 -668512.000000 0 0 1
-18.806130 29.992081 -21.438344 41.385964 -1.010734 2.115319 0.017325 -0.012287 33041.200000 0 0 1
-19.812830 30.959791 -21.638644 42.653110 -1.001516 2.102865 0.007242 -0.007876 -12734.300000 0 0 1
-19.856030 31.194411 -23.026244 43.561004 -1.003952 2.127744 0.015500 -0.006411 162627.000000 0 0 1
-20.698330 32.428451 -23.413544 45.035756 -1.002707 2.117516 0.009006 -0.002536 -266154.000000 0 0 1
-20.131830 33.657964 -22.959744 45.445560 -1.031753 2.100427 -0.006009 0.000497 -57684.600000 0 0 1
-20.184730 -34.609341 -23.840144 46.621693 1.042809 2.107555 0.016933 0.012796 52449.200000 0 0 1
-19.064830 -33.569526 -23.513944 45.202725 1.054299 2.117868 0.037647 0.017943 242858.000000 0 0 1
-19.216930 -32.764926 -22.395844 44.095403 1.040356 2.103536 0.049755 0.015552 3140.310000 0 0 1
-18.770330 -33.372256 -21.156144 43.744887 1.058442 2.075588 0.051616 0.004667 -419241.000000 0 0 1
-18.190530 -32.378716 -20.140944 42.248482 1.058935 2.067723 0.053858 -0.005337 -34377.400000 0 0 1
-17.035630 -31.698246 -20.584944 41.457585 1.077654 2.090393 0.057012 0.000285 -160554.000000 0 0 1
-16.749030 -30.603726 -19.729544 40.079583 1.070038 2.085480 0.061908 -0.001655 244254.000000 0 0 1
-15.443830 -29.789176 -19.955144 39.039911 1.092508 2.107315 0.063150 -0.002200 86825.100000 0 0 1
-14.267130 -30.539686 -19.854044 39.120410 1.133758 2.103090 0.056870 -0.001794 111131.000000 0 0 1
-13.176030 -29.660066 -20.224044 38.240544 1.152747 2.128058 0.038613 -0.001653 1390360.000000 0 0 1
-11.745330 -30.374046 -20.306644 38.378317 1.201817 2.128357 0.043120 0.001914 1329940.000000 0 0 1
-11.186930 -30.916856 -19.126144 38.036939 1.223614 2.097667 0.042866 -0.000667 -96523.400000 0 0 1
-10.712230 -29.902096 -18.288144 36.651650 1.226797 2.093208 0.029812 -0.007865 -964087.000000 0 0 1
-9.816330 -30.474426 -17.210444 36.349007 1.259174 2.064031 0.027991 0.008508 -519766.000000 0 0 1
-10.445530 -31.331776 -16.274044 36.818932 1.249000 2.028626 0.044495 0.002168 -141228.000000 0 0 1
-10.829430 -32.617366 -16.641444 38.185164 1.250233 2.021733 0.044716 0.006651 203627.000000 0 0 1
-12.042230 -33.116856 -15.821644 38.627268 1.222032 1.992809 0.058089 -0.006968 52615.100000 0 0 1
-11.601230 -33.605766 -14.623644 38.441995 1.238390 1.961034 0.048925 -0.006291 319407.000000 0 0 1
-12.729630 -33.893096 -13.793544 38.743351 1.211516 1.934805 0.049267 -0.008550 162949.000000 0 0 1
-12.418130 -34.261423 -12.376244 38.486705 1.223072 1.898185 0.041286 -0.012113 -90083.900000 0 0 1
-11.845630 -33.210796 -11.635344 37.130273 1.228183 1.889531 0.039137 -0.009920 39305.800000 0 0 1
-11.703230 -33.649336 -10.244844 37.070207 1.236083 1.850804 0.030854 -0.007582 366340.000000 0 0 1
-10.478830 -32.961616 -9.533244 35.876967 1.262990 1.839747 0.024460 -0.009385 791692.000000 0 0 1
-9.229930 -33.359746 -10.067744 36.047520 1.300870 1.853852 0.010353 -0.003237 -541872.000000 0 0 1
-8.138130 -32.807706 -9.386044 35.080943 1.327649 1.841650 -0.010744 0.007038 -362688.000000 0 0 1
-6.874630 -33.305146 -10.099044 35.475118 1.367242 1.859469 -0.020690 0.003159 -456267.000000 0 0 1
-6.668530 -34.662719 -9.954144 36.675037 1.380735 1.845659 -0.033316 0.004061 -93409.700000 0 0 1
-5.527430 34.184523 -10.638244 36.225769 -1.410490 1.868855 -0.033063 0.004142 608647.000000 0 0 1
-4.631230 33.089571 -9.925144 34.855078 -1.431739 1.859547 -0.029666 -0.000681 425276.000000 0 0 1
-4.043230 33.516997 -8.696544 34.862110 -1.450744 1.822914 -0.023306 0.002374 -77437.700000 0 0 1
-3.424430 32.501171 -7.973544 33.639712 -1.465820 1.810102 -0.015842 0.003148 -247225.000000 0 0 1
-3.120930 32.928561 -6.530544 33.714661 -1.476300 1.765729 -0.016906 0.009340 -256880.000000 0 0 1
-2.169930 33.987793 -6.513044 34.674175 -1.507038 1.759754 -0.020327 0.012761 -62076.800000 0 0 1
-1.941730 34.466449 -5.165744 34.905463 -1.514519 1.719334 -0.021271 0.012946 -228546.000000 0 0 1
-0.995830 33.688316 -4.264944 33.971813 -1.541245 1.696672 -0.010460 0.006016 37059.700000 0 0 1
0.368770 33.739587 -4.681744 34.064857 1.559867 1.708669 -0.011613 0.007797 922423.000000 0 0 1
1.232570 33.025671 -3.761744 33.262064 1.533492 1.684133 -0.011830 0.003776 -254509.000000 0 0 1
2.719370 33.093891 -3.992844 33.444632 1.488809 1.690468 0.003902 0.004963 -898475.000000 0 0 1
3.380770 34.302852 -3.794744 34.677303 1.472557 1.680446 0.006608 0.013914 -678152.000000 0 0 1
4.734070 34.296997 -4.136544 34.868416 1.433631 1.689709 0.024508 0.011112 -212718.000000 0 0 1
5.447170 -33.749076 -3.652444 34.380404 -1.410774 1.677233 0.027191 0.016703 -61785.300000 0 0 1
5.241870 -32.674786 -4.554044 33.404463 -1.411726 1.707553 0.025492 0.009915 -61205.300000 0 0 1
5.527670 -31.482876 -3.930744 32.205238 -1.396991 1.693154 0.030665 0.001697 -49069.400000 0 0 1
5.490670 -30.229596 -4.870444 31.107831 -1.391123 1.728010 0.013377 -0.000370 17404.300000 0 0 1
6.420070 -30.211376 -5.945244 31.452988 -1.361406 1.760960 0.023304 0.000265 -124272.000000 0 0 1
6.507370 -29.021256 -6.798144 30.508916 -1.350217 1.795508 0.011572 0.003262 164868.000000 0 0 1
6.996870 -27.649166 -6.209244 29.188821 -1.322941 1.785161 0.016572 0.000846 145195.000000 0 0 1
6.087970 -27.020506 -5.343544 28.208591 -1.349188 1.761378 0.023627 -0.007124 -397465.000000 0 0 1
6.741670 -25.921566 -4.757144 27.203090 -1.316354 1.746575 0.025585 -0.008930 -684711.000000 0 0 1
6.052570 -25.258926 -3.571844 26.218410 -1.335610 1.707455 0.013731 -0.001317 247892.000000 0 0 1
4.891370 -24.562346 -4.049144 25.369862 -1.374227 1.731086 0.016002 -0.012918 -20507.500000 0 0 1
4.188770 -24.113946 -2.918244 24.648415 -1.398805 1.689469 0.016204 -0.005267 375514.000000 0 1 0
3.010870 -23.160146 -3.333544 23.591741 -1.441519 1.712572 0.018580 -0.011204 556875.000000 0 1 0
2.016970 -23.799446 -4.093144 24.232945 -1.486250 1.740518 0.003671 -0.007514 -297122.000000 0 1 0
0.829770 -23.011246 -4.084244 23.385616 -1.534753 1.746344 0.007111 -0.012906 301028.000000 0 1 0
-14.649630 23.466354 18.390833 33.219033 -1.012713 0.984087 -0.000904 -0.005697 -242247.000000 0 0 1
-14.517130 22.844854 19.612333 33.425709 -1.004706 0.943764 0.001117 -0.011337 312606.000000 0 0 1
-14.449930 23.870754 20.604233 34.686421 -1.026459 0.934756 0.000286 -0.011634 -1266040.000000 0 0 1
-14.444130 23.087054 21.953333 34.979905 -1.011739 0.892332 0.012533 -0.015614 -586523.000000 0 0 1
-13.341930 22.242254 22.222033 34.154702 -1.030490 0.862384 0.010464 -0.010039 1385420.000000 0 0 1
-11.988830 22.755854 22.186933 33.967940 -1.085903 0.859029 -0.018388 -0.011776 612069.000000 0 0 1
-11.679930 23.934654 23.118433 35.266845 -1.116801 0.855914 -0.002413 0.000175 -1139780.000000 0 0 1
-11.690530 23.486054 24.456643 35.866288 -1.108939 0.820461 -0.016871 0.005926 156342.000000 0 0 1
-11.705530 24.547754 25.377893 37.197434 -1.125842 0.819963 0.002504 0.000251 -130734.000000 0 0 1
-11.334030 24.096654 26.798843 37.779451 -1.131143 0.782221 -0.006670 -0.002197 -807055.000000 0 0 1
-10.004930 23.727954 26.904353 37.241893 -1.171765 0.763498 -0.032769 0.005487 -1047180.000000 0 0 1
-9.704530 23.246254 28.202883 37.814929 -1.175324 0.729041 -0.041154 0.013055 541496.000000 0 0 1
-8.174730 22.846254 28.301873 37.279667 -1.227177 0.708748 -0.048788 0.004432 1592090.000000 0 0 1
-7.154730 23.829454 28.447653 37.792883 -1.279113 0.718605 -0.033788 0.010625 361181.000000 0 0 1
-7.075530 24.834554 27.465463 37.698406 -1.293244 0.754582 -0.038150 0.010033 -550941.000000 0 0 1
-5.885530 25.748654 27.894723 38.415468 -1.346081 0.758116 -0.020887 0.000227 991284.000000 0 0 1
-4.606930 25.089054 27.780273 37.715090 -1.389196 0.742793 -0.012371 0.002267 -650086.000000 0 0 1
-3.658130 25.920254 28.264923 38.524633 -1.430592 0.747068 -0.000786 -0.001748 -561765.000000 0 0 1
-2.235130 25.303154 28.091903 37.873479 -1.482691 0.735150 0.007417 -0.003865 168923.000000 0 0 1
-1.717130 25.381654 26.798633 36.950556 -1.503247 0.759389 0.006844 -0.003920 -1100070.000000 0 0 1
-0.359630 25.119754 26.914873 36.817683 -1.556481 0.750964 0.013530 -0.002121 -684966.000000 0 0 1
0.337370 24.981954 25.568393 35.748490 1.557293 0.773843 0.008940 -0.004262 -140761.000000 0 0 1
-0.051430 23.728454 25.034383 34.492934 -1.568629 0.758624 0.003325 0.005873 198253.000000 0 0 1
0.530470 23.511754 23.747733 33.422130 1.548238 0.780532 0.018389 0.013946 410020.000000 0 0 1
-0.134030 22.231854 23.058833 32.030971 -1.564768 0.767150 -0.008190 0.015919 525954.000000 0 0 1
0.463570 21.021254 23.515433 31.544946 1.548747 0.729575 0.006696 0.012844 7486.520000 0 0 1
-0.087630 19.910154 22.866433 30.319889 -1.566395 0.716403 0.014246 0.015085 -110177.000000 0 0 1
0.851070 18.683854 22.893733 29.562370 1.525277 0.684996 0.016050 0.020030 596150.000000 0 0 1
2.102570 18.947354 22.236233 29.289470 1.460279 0.708731 0.017054 0.013384 880552.000000 0 0 1
2.954470 17.760454 22.238333 28.613040 1.405955 0.680577 0.005829 0.016404 -1001380.000000 0 0 1
4.333370 18.064754 21.820233 28.657215 1.335365 0.705293 0.014831 0.012418 -1522050.000000 0 0 1
5.150270 18.828854 22.704433 29.942316 1.303797 0.710137 0.008988 0.012797 -819681.000000 0 0 1
6.311670 19.106954 21.980433 29.800206 1.251748 0.741297 0.013904 0.005746 183097.000000 0 0 1
7.493670 19.661854 22.896033 31.096172 1.206665 0.743214 0.019501 -0.003478 324958.000000 0 0 1
7.290770 20.855954 23.683033 32.388458 1.234498 0.750690 0.002797 -0.003259 -167536.000000 0 0 1
6.892570 22.010054 22.955733 32.540985 1.267314 0.787752 -0.002313 -0.000480 -156035.000000 0 0 1
5.792870 22.782454 23.715633 33.392047 1.321804 0.780988 -0.003692 0.002633 -85625.800000 0 0 1
5.568370 24.063154 23.136833 33.843096 1.343393 0.818044 -0.006395 -0.000764 -348905.000000 0 0 1
4.396570 24.615154 23.633033 34.405754 1.394048 0.813593 -0.012493 0.005552 -710844.000000 0 0 1
3.972370 26.010754 23.049633 34.980346 1.419247 0.851400 0.014546 0.003189 93320.900000 0 0 1
3.712270 26.106054 21.640133 34.111616 1.429544 0.883575 0.018438 -0.009078 254165.000000 0 0 1
2.907870 25.139554 20.986733 32.876980 1.455639 0.878455 0.013797 -0.002616 -322160.000000 0 0 1
2.675170 25.476054 19.475033 32.178607 1.466173 0.920758 0.016499 0.003322 -315665.000000 0 0 1
1.748470 26.524154 19.286833 32.841587 1.504972 0.943116 0.002560 0.005497 224409.000000 0 0 1
1.458670 26.728654 17.936933 32.222387 1.516277 0.980436 0.002788 0.008080 217319.000000 0 0 1
0.358470 27.843354 17.775333 33.035486 1.557923 1.002653 -0.013592 0.020461 276560.000000 0 0 1
0.644370 29.115854 18.283333 34.386457 1.548669 1.010188 -0.008562 0.010500 -564849.000000 0 0 1
-0.565730 29.681354 18.609033 35.037108 -1.551739 1.010870 -0.020772 0.016885 -718218.000000 0 0 1
-0.419730 31.157854 18.984933 36.488570 -1.557326 1.023596 -0.024688 0.005832 -59908.200000 0 0 1
0.093570 31.240154 20.298133 37.255472 1.567801 0.994602 -0.022402 0.006341 -270104.000000 0 0 1
0.334270 32.572454 20.667333 38.577392 1.560534 1.005416 -0.025891 0.002711 -390453.000000 0 0 1
1.031470 32.855354 22.011133 39.560437 1.539412 0.980758 -0.016044 0.001952 -508769.000000 0 0 1
0.314570 32.506654 23.137333 39.901349 1.561120 0.952235 -0.018355 0.002419 -171076.000000 0 0 1
0.945770 33.004554 24.296123 40.993861 1.542148 0.936418 -0.007599 -0.010473 -218749.000000 0 0 1
0.088470 32.832654 25.558293 41.607900 1.568102 0.909342 -0.001071 -0.007723 33733.700000 0 0 1
-1.149630 33.549754 25.549253 42.186158 -1.536543 0.920238 0.000411 -0.005535 623815.000000 0 0 1
-2.000430 33.225654 26.641313 42.634556 -1.510662 0.895824 0.009618 -0.009511 -27601.500000 0 0 1
-1.564330 33.642754 28.052183 43.831575 -1.524332 0.876299 0.025675 -0.019626 -1051280.000000 0 0 1
-0.618730 32.815154 28.644863 43.563119 -1.551944 0.853236 0.016327 -0.019027 -368045.000000 0 0 1
-0.094430 33.435354 29.748943 44.754122 -1.567972 0.843678 0.004107 -0.020277 -967408.000000 0 0 1
1.052770 32.649554 30.380843 44.610507 1.538563 0.821636 -0.014241 -0.011119 493375.000000 0 0 1
2.365970 32.656054 29.794713 44.268957 1.498471 0.832487 -0.023882 -0.013279 892311.000000 0 0 1
2.527370 32.129154 28.489693 43.015494 1.492295 0.846895 -0.021825 -0.014362 27929.200000 0 0 1
4.042270 31.850454 28.163363 42.707919 1.444557 0.850721 -0.048983 -0.007422 552762.000000 0 0 1
4.480470 30.851754 28.976663 42.562335 1.426579 0.821935 -0.049560 -0.006350 419413.000000 0 0 1
5.890670 30.732354 28.736713 42.485012 1.381417 0.827937 -0.055270 -0.001104 777270.000000 0 0 1
6.590670 29.689754 29.651103 42.474773 1.352354 0.798074 -0.059246 0.007957 -99197.400000 0 0 1
6.556670 29.925854 31.045893 43.616443 1.355107 0.778748 -0.051973 -0.000365 132765.000000 0 0 1
7.255870 28.890854 31.678373 43.483887 1.324738 0.754654 -0.049158 0.004480 -399802.000000 0 0 1
6.968770 28.898154 33.234344 44.589109 1.334165 0.729742 -0.022073 -0.012893 492712.000000 0 0 1
5.620770 28.699254 33.731643 44.643745 1.377394 0.714267 -0.033029 -0.007832 764895.000000 0 0 1
5.466970 28.732154 -34.020864 44.864725 1.382770 2.431496 -0.006594 -0.007090 -183493.000000 0 0 1
5.726170 27.388254 -33.340644 43.525900 1.364691 2.443385 -0.011673 -0.005689 -887545.000000 0 0 1
6.908470 26.771254 -33.681584 43.576095 1.318250 2.454254 -0.014907 -0.010767 -635919.000000 0 0 1
6.823970 25.336454 -33.492404 42.546957 1.307705 2.477030 -0.007306 -0.009418 -609132.000000 0 0 1
8.098370 24.651854 -33.941764 42.724007 1.253393 2.488885 -0.000175 -0.012733 -918399.000000 0 0 1
8.238970 24.598754 33.811406 42.616787 1.247605 0.654451 -0.012063 -0.001662 240637.000000 0 0 1
9.454070 23.974154 33.438174 42.216714 1.195175 0.656620 -0.005633 -0.012808 -78661.000000 0 0 1
9.814470 22.518454 33.784380 41.770671 1.159779 0.628677 -0.000932 -0.009022 -374837.000000 0 0 1
9.050470 21.511754 33.057043 40.465228 1.172555 0.614738 -0.011541 -0.010420 601588.000000 0 0 1
9.026970 20.187254 33.666118 40.279262 1.150305 0.581176 -0.001013 -0.007452 155514.000000 0 0 1
7.746570 20.054754 34.527322 40.673560 1.202181 0.556917 0.009286 -0.010339 -108096.000000 0 0 1
7.772770 20.785654 -33.402084 40.101852 1.212948 2.555180 0.010257 -0.006007 -101456.000000 0 0 1
6.485370 20.945754 -32.858084 39.502383 1.270531 2.553139 0.015500 -0.005795 -456766.000000 0 0 1
6.558970 21.528554 -31.435614 38.661305 1.275066 2.520259 0.020327 -0.016227 -253258.000000 0 0 1
6.907370 22.857754 -31.380024 39.432151 1.277332 2.491120 0.022889 -0.013152 -53989.800000 0 0 1
7.182370 23.370054 -30.112464 38.787966 1.272626 2.459627 0.004713 -0.014490 -576793.000000 0 0 1
8.667370 23.498954 -29.785304 38.916429 1.217437 2.442406 0.013611 -0.020158 -648394.000000 0 0 1
9.261170 22.282754 -29.643104 38.223082 1.176897 2.458349 0.012782 -0.021819 -1485010.000000 0 0 1
10.638970 22.300954 -29.562154 38.528446 1.125666 2.445387 0.023270 -0.020310 -997670.000000 0 0 1
11.303170 20.945654 -29.579524 37.966173 1.075940 2.464029 0.020534 -0.020486 -371363.000000 0 0 1
11.355070 20.127854 -30.765684 38.478506 1.057157 2.497350 0.018092 -0.013420 139731.000000 0 0 1
10.089570 19.763854 -31.286574 38.356995 1.098779 2.524679 0.025403 -0.020701 -89796.700000 0 0 1
10.214970 18.538654 -32.236384 38.564384 1.067179 2.560586 0.024573 -0.017140 -295889.000000 0 0 1
10.649270 17.337654 -31.536624 37.530785 1.019981 2.568608 0.026761 -0.013275 368506.000000 0 0 1
10.811570 16.148154 -32.333774 37.724340 0.980818 2.600422 0.018430 -0.006185 -216279.000000 0 0 1
11.807970 16.104454 -33.508704 39.007881 0.938127 2.604156 0.013419 0.006716 -268977.000000 0 0 1
11.463870 16.863054 34.504540 40.079249 0.973742 0.533745 0.021654 -0.001796 -421800.000000 0 0 1
12.473670 16.721454 33.583429 39.535379 0.929881 0.555849 0.019215 -0.001507 -434368.000000 0 0 1
11.957070 16.806654 32.133513 38.183737 0.952428 0.570651 0.033000 -0.011645 -374775.000000 0 0 1
12.053770 18.054354 31.492773 38.249808 0.982122 0.603517 0.033530 -0.010105 26111.600000 0 0 1
11.413570 18.046754 30.238483 37.017844 1.006862 0.614846 0.026808 -0.010597 411808.000000 0 0 1
9.878470 18.321054 30.175553 36.658003 1.076293 0.603835 0.009837 -0.002845 608109.000000 0 0 1
9.147070 17.267454 30.852003 36.519583 1.083649 0.564592 0.019468 -0.005607 1445610.000000 0 0 1
7.718670 17.542354 30.874053 36.338949 1.156288 0.555545 0.014183 -0.005949 1419870.000000 0 0 1
6.945470 16.509754 31.717033 36.425015 1.172583 0.514074 0.013631 -0.004152 -310963.000000 0 0 1
7.328570 16.613754 33.074353 37.731122 1.155356 0.502087 0.020654 -0.004060 200318.000000 0 0 1
6.822270 15.582454 33.916762 37.943418 1.158119 0.464876 0.029975 -0.009040 -101822.000000 0 0 1
7.141970 15.915754 -33.774394 38.013532 1.148994 2.664826 0.028554 -0.009191 -81987.800000 0 0 1
6.276670 16.931354 -33.299854 37.880702 1.215790 2.644708 0.020277 -0.012741 180477.000000 0 0 1
6.429070 16.982154 -31.890324 36.697673 1.208892 2.623977 0.019163 -0.018337 -292998.000000 0 0 1
5.395670 17.877654 -31.219214 36.378057 1.277679 2.602526 0.011285 -0.014835 -624033.000000 0 0 1
5.511770 17.889354 -29.798334 35.190187 1.271922 2.580698 0.018786 -0.026431 7882.950000 0 0 1
4.833370 18.934154 -29.147484 35.091872 1.320861 2.550990 0.027473 -0.028931 468113.000000 0 0 1
3.278570 18.950654 -29.046584 34.836480 1.399486 2.556748 0.039000 -0.028467 -550300.000000 0 0 1
2.785870 17.975054 -28.161844 33.525409 1.417034 2.568107 0.047664 -0.021104 1239640.000000 0 0 1
1.351870 17.778054 -28.269094 33.421975 1.494901 2.578903 0.036190 -0.017521 1768270.000000 0 0 1
0.398170 18.956554 -27.836244 33.680349 1.549795 2.543628 0.033121 -0.026022 -465882.000000 0 0 1
0.418770 19.364454 -26.498174 32.822411 1.549174 2.510392 0.053919 -0.026422 221804.000000 0 0 1
-0.487030 20.459854 -26.406414 33.408704 -1.546997 2.482267 0.060768 -0.021113 18596.700000 0 0 1
-0.818630 20.890154 -24.958044 32.557221 -1.531629 2.444310 0.040655 -0.027465 307396.000000 0 0 1
-1.852230 20.056654 -24.424944 31.658774 -1.478708 2.452002 0.037060 -0.023028 362094.000000 0 0 1
-2.359730 20.487054 -23.201344 31.041747 -1.456120 2.414972 0.038078 -0.023146 516213.000000 0 0 1
-3.557630 19.728354 -22.526044 30.154391 -1.392383 2.414370 0.033835 -0.022125 -131125.000000 0 0 1
-4.824430 20.055554 -22.973244 30.875075 -1.334728 2.409939 0.022742 -0.019229 -605352.000000 0 0 1
-5.729930 19.062254 -22.482444 30.027685 -1.278798 2.416931 0.012264 -0.007683 1134690.000000 0 0 1
-7.261130 19.429554 -22.417344 30.541265 -1.213152 2.394992 0.020788 -0.013198 1132310.000000 0 0 1
-7.696330 20.247454 -21.309944 30.385960 -1.207550 2.348028 0.015039 -0.016663 166254.000000 0 0 1
-7.483330 21.601554 -21.500444 31.383060 -1.237309 2.325533 0.017979 -0.016419 -138659.000000 0 0 1
-7.843630 22.496954 -20.279044 31.286979 -1.235322 2.275965 0.024457 -0.023318 -29617.400000 0 0 1
-6.942330 22.320754 -19.209644 30.255948 -1.269255 2.258681 0.028645 -0.025638 187594.000000 0 0 1
-7.308430 23.272054 -18.196444 30.432091 -1.266506 2.211720 0.046287 -0.030597 -118687.000000 0 0 1
-6.279330 23.406954 -17.088544 29.653563 -1.308700 2.184957 0.045933 -0.028739 373165.000000 0 0 1
-4.966630 23.822354 -17.437244 29.937091 -1.365255 2.192552 0.041146 -0.027443 -139789.000000 0 0 1
-4.150030 23.944154 -16.287344 29.254449 -1.399180 2.161262 0.047555 -0.024223 -216830.000000 0 0 1
-2.772230 24.527554 -16.578044 29.734116 -1.458249 2.162219 0.038637 -0.016177 -545728.000000 0 0 1
-2.755330 25.927954 -16.674644 30.949869 -1.464925 2.139764 0.026331 -0.017037 -311323.000000 0 0 1
-1.527530 26.399554 -17.168344 31.528111 -1.512999 2.146638 0.009306 -0.011237 -93255.700000 0 0 1
-1.234830 27.897654 -17.065844 32.726853 -1.526562 2.119361 -0.003617 -0.021713 516157.000000 0 0 1
-2.224230 28.749754 -17.734244 33.852606 -1.493585 2.122180 0.002421 -0.022136 782976.000000 0 0 1
-1.985130 28.990854 -19.095244 34.771233 -1.502429 2.152165 0.003199 -0.017305 -391367.000000 0 0 1
-3.273930 29.475254 -19.789544 35.652984 -1.460176 2.159231 0.011630 -0.011135 216265.000000 0 0 1
-3.768130 30.750854 -19.344844 36.524468 -1.448867 2.128973 0.009968 0.005267 -592525.000000 0 0 1
-4.741730 30.668154 -18.382244 36.068359 -1.417397 2.105574 0.007775 -0.004195 -868781.000000 0 0 1
-5.248630 32.014354 -17.899544 37.052134 -1.408296 2.074978 0.009258 -0.000371 -23890.800000 0 0 1
-6.075130 32.764854 -18.771244 38.246600 -1.387462 2.083798 0.022242 0.007866 141083.000000 0 0 1
-6.547530 33.992254 -18.188844 39.104699 -1.380509 2.054580 0.023140 -0.003923 590365.000000 0 0 1
-7.535030 -34.452984 -19.039144 40.078345 1.355482 2.065815 0.023795 0.013455 931109.000000 0 0 1
-8.863230 34.375954 -19.118544 40.320984 -1.318460 2.064805 0.031699 0.003292 11262.500000 0 0 1
-9.711430 -34.128884 -19.861944 40.664350 1.293572 2.081093 0.039771 0.008726 146999.000000 0 0 1
28.867170 -21.308846 -26.515274 44.614349 -0.635886 2.207218 -0.008157 0.001051 -68634.000000 0 0 1
28.285370 -22.370146 -25.793304 44.337119 -0.669151 2.191680 0.006776 -0.016092 -1665650.000000 0 0 1
26.929770 -22.491046 -25.876814 43.596665 -0.695824 2.206259 0.006157 -0.012312 -1257190.000000 0 0 1
26.461470 -23.759446 -25.207934 43.590832 -0.731647 2.187422 -0.005070 -0.007472 -310157.000000 0 0 1
26.732170 -24.971946 -25.879544 44.810242 -0.751367 2.186504 -0.011031 0.006843 1303600.000000 0 0 1
28.103770 -25.459236 -26.079534 46.023219 -0.736066 2.173243 -0.008967 0.011994 1335410.000000 0 0 1
28.228970 -26.823336 -26.780824 47.260752 -0.759871 2.173244 -0.003189 0.005304 -356162.000000 0 0 1
27.951870 -27.982086 -26.027254 47.346828 -0.785938 2.152819 0.000492 -0.008235 -273261.000000 0 0 1
28.006770 -29.223086 -26.735994 48.509600 -0.806648 2.154536 -0.002186 -0.004215 809046.000000 0 0 1
26.801270 -29.492716 -27.732644 48.551292 -0.833172 2.178767 -0.003130 -0.000961 213495.000000 0 0 1
26.624070 -28.776796 -28.954624 48.737207 -0.824236 2.206939 -0.008990 -0.001608 -161820.000000 0 0 1
27.602270 -28.890216 -29.976004 49.950883 -0.808193 2.214434 -0.022538 0.008360 -298354.000000 0 0 1
27.873170 -30.295096 -30.569644 51.275819 -0.827011 2.209532 -0.023093 0.007325 -202432.000000 0 0 1
28.567970 -31.240226 -29.723044 51.725622 -0.830049 2.182947 -0.020195 0.004592 1323920.000000 0 0 1
29.937370 -31.122516 -29.260354 52.163449 -0.804805 2.166312 -0.017099 0.002483 1705960.000000 0 0 1
31.015870 -30.959086 -30.405244 53.337867 -0.784482 2.177363 -0.014113 0.000273 -158066.000000 0 0 1
30.965970 -29.651156 -30.857984 52.823267 -0.763711 2.194658 -0.011170 -0.006527 13325.900000 0 0 1
32.073470 -29.240356 -31.639014 53.709711 -0.739224 2.200709 -0.010537 -0.005330 -344991.000000 0 0 1
31.866370 -27.883956 -32.277084 53.242752 -0.718846 2.222102 -0.021500 0.000956 -64272.300000 0 0 1
31.737470 -26.769906 -31.426854 52.072469 -0.700696 2.218707 -0.024946 0.009296 -258861.000000 0 0 1
30.544970 -26.684216 -30.688414 50.860803 -0.718039 2.218530 -0.012829 0.010942 -548722.000000 0 0 1
30.407170 -25.349096 -29.953334 49.642470 -0.694928 2.218531 -0.013180 -0.000331 -291313.000000 0 0 1
31.318370 -25.175366 -28.856204 49.470394 -0.677086 2.193585 -0.012525 -0.003743 423497.000000 0 0 1
31.099570 -23.944946 -28.177094 48.316584 -0.656144 2.193430 -0.016186 0.000118 179481.000000 0 0 1
32.228970 -23.682046 -27.130854 48.328346 -0.633706 2.166856 -0.025352 0.004363 85664.700000 0 0 1
32.202370 -24.449346 -25.903664 48.018361 -0.649389 2.140584 -0.014773 -0.004500 29141.600000 0 0 1
31.292670 -24.005046 -24.914544 46.649844 -0.654364 2.134210 0.006153 -0.001892 -240131.000000 0 0 1
31.657070 -22.680746 -24.168444 45.833394 -0.621682 2.126229 -0.006966 0.007008 -96045.000000 0 0 1
31.525570 -21.499046 -24.953344 45.593200 -0.598513 2.149936 -0.023899 -0.002751 -154244.000000 0 0 1
31.936470 -20.389846 -24.103344 44.907183 -0.568213 2.137361 -0.032417 -0.007756 -115287.000000 0 0 1
32.195370 -19.031446 -24.759344 44.852680 -0.533867 2.155575 -0.037550 -0.003039 -31672.800000 0 0 1
31.135570 -18.606146 -25.594694 44.392575 -0.538642 2.185301 -0.035280 -0.003944 166330.000000 0 0 1
31.421270 -17.439046 -26.303534 44.534172 -0.506680 2.202644 -0.042003 -0.003390 -750780.000000 0 0 1
30.426670 -17.298546 -27.434284 44.470910 -0.516960 2.235599 -0.045495 0.005857 673851.000000 0 0 1
29.065070 -17.122846 -26.973254 43.191742 -0.532382 2.245288 -0.036944 0.006786 914917.000000 0 0 1
28.214570 -16.989546 -28.098054 43.292116 -0.542003 2.277110 -0.029696 0.005708 987163.000000 0 0 1
26.684670 -16.770346 -27.735554 41.983057 -0.561086 2.292463 -0.020080 0.008448 1106610.000000 0 0 1
26.065970 -17.836746 -27.096574 41.615005 -0.600106 2.279862 -0.015359 0.006803 -126272.000000 0 0 1
26.107170 -17.568246 -25.695794 40.626364 -0.592325 2.255561 -0.003803 0.009155 -317590.000000 0 0 1
25.422470 -18.609646 -24.789244 40.088995 -0.631891 2.237445 0.013350 0.007622 -235323.000000 0 0 1
25.212470 -18.168446 -23.474144 38.946072 -0.624427 2.217720 0.019117 0.017664 -184547.000000 0 0 1
24.570770 -19.123146 -22.656344 38.506199 -0.661361 2.199852 0.026213 0.008423 -177667.000000 0 0 1
24.545570 -18.654246 -21.159144 37.392182 -0.649860 2.172285 0.022392 0.001729 -123032.000000 0 0 1
23.767270 -17.526746 -20.833444 36.140038 -0.635409 2.185191 0.027971 -0.002520 -252633.000000 0 0 1
24.049070 -16.278046 -21.449944 36.103084 -0.595032 2.206981 0.028334 0.004134 -154080.000000 0 0 1
25.373870 -15.518546 -21.213344 36.533061 -0.548902 2.190337 0.015651 -0.005524 -59012.200000 0 0 1
25.451270 -14.964946 -19.939844 35.627435 -0.531538 2.164792 0.017771 -0.015553 212252.000000 0 0 1
26.404970 -13.915146 -19.807044 35.821400 -0.485005 2.156684 -0.001997 -0.007478 -45513.900000 0 0 1
26.185170 -13.042946 -18.555044 34.642044 -0.462130 2.136041 -0.002461 -0.006972 -464946.000000 0 0 1
26.604770 -13.619846 -17.298944 34.533570 -0.473148 2.095471 -0.005165 -0.006385 500123.000000 0 0 1
26.069370 -12.830946 -16.202744 33.268215 -0.457376 2.079487 -0.014333 -0.004381 90836.100000 0 0 1
26.780270 -13.081746 -14.854644 33.301282 -0.454393 2.033164 -0.010433 -0.002569 -444422.000000 0 0 1
26.417770 -14.277746 -14.251944 33.239593 -0.495489 2.013921 0.020759 -0.016276 60517.600000 0 0 1
26.892170 -14.257046 -12.964244 33.083588 -0.487480 1.973452 0.026288 -0.012445 -301992.000000 0 0 1
26.504870 -15.461046 -12.047744 32.965136 -0.528071 1.944933 0.028741 -0.012975 220735.000000 0 0 1
25.095970 -15.506646 -11.891044 31.806614 -0.553473 1.953958 0.021811 -0.020608 251066.000000 0 0 1
24.799570 -16.734546 -11.242344 31.960194 -0.593607 1.930248 0.017813 -0.018739 828838.000000 0 0 1
23.318870 -16.861846 -10.719344 30.708238 -0.626061 1.927375 0.024522 -0.019488 722001.000000 0 0 1
23.070270 -16.152446 -9.509744 29.724975 -0.610821 1.896446 0.015825 -0.014335 995840.000000 0 0 1
21.679470 -16.282846 -9.177844 28.624523 -0.644187 1.897189 0.023064 -0.010706 607188.000000 0 0 1
21.425770 -15.904846 -7.677044 27.766252 -0.638570 1.850934 0.022147 -0.002164 -215036.000000 0 0 1
21.512070 -14.459946 -7.483444 26.978902 -0.591809 1.851864 0.017135 0.006428 401205.000000 0 0 1
21.172570 -14.037446 -6.142644 26.135411 -0.585461 1.808047 0.008412 0.011946 -747398.000000 0 0 1
21.921670 -14.631946 -4.924844 26.812452 -0.588555 1.755523 0.003493 0.004235 -828419.000000 0 0 1
23.291770 -14.480846 -5.102644 27.896925 -0.556234 1.754743 0.012913 0.003907 -455659.000000 0 0 1
24.054070 -15.103746 -4.077644 28.694052 -0.560688 1.713387 0.006699 -0.005562 843916.000000 0 0 1
25.591670 -14.916046 -4.378144 29.943115 -0.527712 1.717538 0.009389 -0.003939 655895.000000 0 0 1
26.023770 -13.675346 -3.826244 29.646110 -0.483835 1.700221 0.012653 0.000076 -191549.000000 0 0 1
27.329070 -13.387446 -4.247244 30.726875 -0.455504 1.709466 0.019592 -0.007056 -215151.000000 0 0 1
28.045870 -12.178746 -3.554644 30.781946 -0.409674 1.686533 0.033646 -0.009245 -805529.000000 0 0 1
28.494070 -12.496446 -2.201544 31.191666 -0.413302 1.641436 0.037601 -0.018618 529927.000000 0 0 1
28.922470 -11.361646 -1.430944 31.106975 -0.374311 1.616813 0.036822 -0.015481 888695.000000 0 0 1
30.351570 -10.801246 -1.821444 32.267668 -0.341896 1.627274 0.041847 -0.011752 341832.000000 0 0 1
30.367770 -10.260846 -3.140244 32.207880 -0.325842 1.668451 0.032533 -0.001182 -571150.000000 0 0 1
31.483270 -10.697546 -3.831644 33.471111 -0.327546 1.685524 0.048119 -0.006322 -850963.000000 0 0 1
31.245770 -10.585146 -5.391244 33.427668 -0.326636 1.732785 0.036671 -0.002314 -319632.000000 0 0 1
30.257070 -11.506246 -5.782444 32.883440 -0.363394 1.747562 0.021870 -0.006784 235631.000000 0 0 1
30.275670 -11.583246 -7.223844 33.211018 -0.365410 1.790063 0.015263 0.002359 664235.000000 0 0 1
29.052670 -12.439646 -7.747244 32.539549 -0.404557 1.811192 0.004677 0.003322 849313.000000 0 0 1
29.311070 -13.838546 -7.743244 33.325696 -0.441102 1.805290 0.007980 -0.000399 566607.000000 0 0 1
28.108070 -14.502246 -8.122044 32.654959 -0.476323 1.822158 0.010349 -0.002455 392573.000000 0 0 1
28.126270 -16.007446 -8.158844 33.375023 -0.517410 1.817759 0.021940 -0.013474 -212208.000000 0 0 1
28.633370 -16.541646 -9.344644 34.363037 -0.523865 1.846204 0.031430 -0.021640 158640.000000 0 0 1
28.630770 -17.987546 -9.345944 35.080186 -0.560940 1.840470 0.041659 -0.021392 -126394.000000 0 0 1
28.956870 -18.410546 -10.810244 35.976519 -0.566322 1.875993 0.037450 -0.026140 -425361.000000 0 0 1
30.211570 -17.951846 -11.239744 36.896336 -0.536147 1.880347 0.037734 -0.018609 -110751.000000 0 0 1
30.589870 -18.669546 -12.395344 37.920135 -0.547972 1.903797 0.036093 -0.005742 -37443.800000 0 0 1
29.840170 -18.301446 -13.713244 37.595635 -0.550153 1.944167 0.030541 -0.016259 -163194.000000 0 0 1
30.117970 -16.946846 -14.107344 37.326999 -0.512528 1.958366 0.014674 -0.001499 151932.000000 0 0 1
29.289570 -16.503946 -15.147444 36.874167 -0.513130 1.994114 0.016374 -0.011987 -907090.000000 0 0 1
29.877170 -15.279446 -15.883444 37.126683 -0.472733 2.012873 -0.009076 0.008957 47973.800000 0 0 1
31.017970 -15.507646 -16.660844 38.473176 -0.463613 2.018671 -0.012105 -0.002664 -8377.330000 0 0 1
32.257970 -15.602746 -15.992944 39.240242 -0.450512 1.990582 -0.002363 0.007107 -447724.000000 0 0 1
33.381970 -16.026746 -16.958244 40.728302 -0.447603 2.000251 -0.005591 0.005241 -145363.000000 0 0 1
34.690470 -15.782346 -16.489744 41.526170 -0.426961 1.979143 -0.005574 0.006030 -298677.000000 0 0 1
-34.469324 -16.277746 -17.413544 41.908601 0.441193 1.999302 -0.012215 0.011665 -148062.000000 0 0 1
-32.999224 -16.169346 -16.951044 40.468932 0.455609 2.002992 -0.013940 0.011973 -306938.000000 0 0 1
-32.631324 -16.967346 -15.805244 40.031236 0.479497 1.976671 -0.019263 0.005432 207604.000000 0 0 1
-32.933024 -16.450546 -14.497444 39.564889 0.463260 1.945957 -0.008367 0.005269 -352969.000000 0 0 1
-32.428424 -17.408246 -13.397244 39.168047 0.492668 1.919889 -0.011788 0.007138 34062.600000 0 0 1
-31.023624 -17.440346 -13.189644 37.955206 0.512134 1.925706 -0.037222 0.009838 300992.000000 0 0 1
-30.809324 -17.897546 -11.863444 37.553667 0.526267 1.892208 -0.029261 0.017069 552833.000000 0 0 1
-29.345024 -17.643346 -11.369544 36.078867 0.541329 1.891390 -0.015160 0.013712 532259.000000 0 0 1
-29.003024 -16.245246 -11.280044 35.104456 0.510582 1.897928 -0.017311 -0.001126 235491.000000 0 0 1
-27.775924 -15.992046 -10.620244 33.764435 0.522399 1.890768 -0.004418 -0.004530 -153240.000000 0 0 1
-27.826024 -15.994746 -9.071044 33.352711 0.521693 1.846239 -0.003002 -0.000691 -65999.100000 0 0 1
-28.167124 -17.270646 -8.535344 34.124979 0.550032 1.823601 -0.022994 0.004089 -47367.500000 0 0 1
-28.191024 -17.290446 -7.169944 33.839348 0.550165 1.784296 -0.007836 -0.004630 -333467.000000 0 0 1
-28.439324 -18.753546 -6.632444 34.705619 0.582971 1.763085 -0.010839 -0.010285 670063.000000 0 0 1
-29.579424 -19.507746 -7.086744 36.134698 0.583027 1.768196 -0.009575 -0.008915 318455.000000 0 0 1
-29.313624 -20.093946 -8.333744 36.503514 0.600915 1.801127 -0.016362 0.000982 -83096.500000 0 0 1
-30.486224 -20.931446 -8.882844 38.032095 0.601667 1.806535 -0.007660 -0.002420 430719.000000 0 0 1
-31.555924 -20.138646 -9.415544 38.600439 0.568027 1.817206 -0.017652 -0.001233 -71316.600000 0 0 1
-32.595024 -20.953446 -9.846344 39.980408 0.571327 1.819636 -0.021430 -0.000843 -314021.000000 0 0 1
-33.854524 -20.168046 -10.276744 40.724567 0.537271 1.825902 -0.005067 -0.008269 -46763.200000 0 0 1
-33.978224 -20.015346 -11.687044 41.130534 0.532339 1.858911 -0.011559 -0.004317 7622.790000 0 0 1
34.874070 -19.361346 -11.917544 41.630402 -0.506811 1.861128 0.026419 -0.020030 96672.100000 0 0 1
34.444370 -19.269746 -13.447044 41.696052 -0.510066 1.899167 0.012781 -0.015852 -53055.500000 0 0 1
34.011870 -20.508646 -14.005844 42.113840 -0.542611 1.909825 -0.003282 -0.008990 -97381.800000 0 0 1
33.774470 -20.300446 -15.397944 42.307442 -0.541198 1.943305 0.001494 -0.012834 270669.000000 0 0 1
32.457670 -21.037146 -15.771844 41.770958 -0.575067 1.957977 0.010972 -0.020908 170465.000000 0 0 1
31.338670 -20.689846 -14.930044 40.411486 -0.583514 1.949214 0.031443 -0.023883 585027.000000 0 0 1
30.135570 -21.331346 -15.333644 39.978739 -0.615972 1.964428 0.039740 -0.026335 418838.000000 0 0 1
29.415270 -20.815246 -16.577444 39.665403 -0.615831 2.001964 0.031692 -0.028646 -811555.000000 0 0 1
28.769670 -19.538846 -16.513244 38.498671 -0.596593 2.014105 0.011470 -0.017815 -189267.000000 0 0 1
27.767970 -19.520546 -17.464944 38.172453 -0.612728 2.046009 0.007959 -0.023435 -410853.000000 0 0 1
26.855970 -18.260346 -17.414444 36.850322 -0.597133 2.063004 0.012772 -0.027533 139698.000000 0 0 1
25.806170 -18.254746 -16.463244 35.640322 -0.615661 2.050964 0.012998 -0.030459 121713.000000 0 0 1
25.300070 -16.975246 -16.338244 34.571531 -0.590967 2.063026 0.008531 -0.021973 -884907.000000 0 0 1
23.973270 -16.797546 -15.526444 33.135264 -0.611181 2.058476 0.003296 -0.023928 409486.000000 0 0 1
22.797970 -17.293946 -16.106244 32.836551 -0.648966 2.083457 0.010053 -0.024539 -6854.810000 0 0 1
22.442370 -16.656246 -17.351544 32.896300 -0.638477 2.126407 0.018324 -0.013225 -1143750.000000 0 0 1
21.390570 -17.448746 -18.146444 33.034961 -0.684254 2.152335 0.024913 -0.007975 642257.000000 0 0 1
20.051270 -17.470946 -17.675644 31.932989 -0.716738 2.157385 0.025148 -0.003134 344690.000000 0 0 1
19.148570 -18.138946 -18.554044 32.248126 -0.758328 2.183832 0.026705 -0.007431 694308.000000 0 0 1
17.668570 -18.131646 -18.098244 31.120434 -0.798332 2.191435 0.028227 0.000936 173883.000000 0 0 1
17.028970 -16.846346 -18.131944 30.042513 -0.780007 2.218733 0.025733 -0.005449 -319295.000000 0 0 1
15.676070 -17.069546 -17.843944 29.249186 -0.827927 2.226941 0.019776 -0.003165 -281612.000000 0 0 1
14.804370 -15.792446 -17.724144 27.977062 -0.817680 2.256896 0.022536 0.004904 -235748.000000 0 0 1
14.421370 -15.054746 -18.854244 28.108785 -0.806883 2.306029 0.015209 0.010334 -282064.000000 0 0 1
13.296370 -14.282046 -18.583744 26.946722 -0.821124 2.331799 0.010874 0.011699 -259812.000000 0 0 1
12.639470 -13.728246 -19.881244 27.266918 -0.826667 2.387852 0.016201 0.007583 305780.000000 0 0 1
13.417770 -12.789146 -20.649644 27.748993 -0.761416 2.410070 0.015740 0.005258 101658.000000 0 0 1
12.595170 -12.190946 -21.624344 27.836482 -0.769091 2.460420 0.030287 0.002399 52415.000000 0 0 1
12.943870 -10.703246 -21.974344 27.658182 -0.690928 2.488975 0.031127 -0.003293 725541.000000 0 0 1
14.182870 -10.588746 -22.703344 28.787448 -0.641313 2.479413 0.024228 -0.003741 713719.000000 0 0 1
14.422670 -9.222746 -23.054844 28.715819 -0.568931 2.502877 0.041857 -0.006180 -127967.000000 0 0 1
15.443470 -9.122146 -24.206244 30.127339 -0.533538 2.503888 0.027051 -0.002565 161440.000000 0 0 1
15.055370 -9.593546 -25.466614 31.100622 -0.567337 2.530194 0.037513 -0.006945 176849.000000 0 0 1
16.243070 -9.666246 -26.230304 32.331138 -0.536809 2.517171 0.037126 -0.007761 67045.700000 0 0 1
21.501370 5.208654 -6.813744 23.148782 0.237669 1.869567 0.001541 0.022318 -454369.000000 0 1 0
21.584170 6.586754 -7.142444 23.670155 0.296189 1.877323 -0.004513 0.017281 764408.000000 0 1 0
21.411770 7.454254 -5.983044 23.448382 0.335015 1.828807 0.000855 0.014482 -434739.000000 0 1 0
21.315670 8.932054 -6.429644 23.989158 0.396809 1.842137 0.003032 0.014801 -454226.000000 0 1 0
20.024470 9.150554 -6.941544 23.084563 0.428634 1.876224 -0.007813 0.007391 634870.000000 0 1 0
19.416270 10.441654 -6.966344 23.120329 0.493412 1.876861 -0.017304 0.010927 33849.800000 0 1 0
19.012170 11.105554 -5.647144 22.730732 0.528668 1.821862 -0.001100 0.009638 -148608.000000 0 1 0
20.116770 11.391154 -4.745844 23.600124 0.515235 1.773271 0.018218 0.007530 916579.000000 0 1 0
19.762970 12.431954 -3.792544 23.654003 0.561508 1.731825 0.037102 -0.004271 -102621.000000 0 1 0
20.774470 12.611054 -2.646044 24.446244 0.545584 1.679248 0.034918 -0.017122 91044.900000 0 1 0
21.993670 13.197054 -3.098944 25.835774 0.540448 1.691034 0.039000 -0.025454 808596.000000 0 0 1
22.985570 13.407654 -2.115144 26.694109 0.528055 1.650116 0.051240 -0.024317 534278.000000 0 0 1
23.930670 12.208754 -1.716844 26.919848 0.471752 1.634616 0.023513 -0.025139 -565143.000000 0 0 1
24.933270 11.846254 -2.616044 27.728061 0.443545 1.665283 0.014117 -0.019932 178523.000000 0 0 1
25.697370 10.796554 -2.072844 27.950261 0.397749 1.645026 0.014755 -0.019663 -53830.600000 0 0 1
27.202570 10.669954 -2.436344 29.321724 0.373799 1.653982 0.008782 -0.011762 -80005.000000 0 0 1
27.900070 11.831654 -2.060044 30.375084 0.401085 1.638669 0.008784 -0.012844 196128.000000 0 0 1
29.273270 11.467854 -2.071544 31.507576 0.373376 1.636591 0.008210 -0.007075 44370.600000 0 0 1
30.233470 12.646154 -1.799744 32.821137 0.396168 1.625659 -0.005722 0.000013 -559366.000000 0 0 1
29.822770 13.288754 -0.614244 32.655258 0.419181 1.589607 -0.000602 0.007667 506142.000000 0 0 1
30.670370 14.371554 -0.283344 33.871721 0.438198 1.579162 0.002987 0.006133 1191490.000000 0 0 1
32.158170 13.969354 0.195656 35.061789 0.409801 1.565216 0.009756 -0.000899 1355300.000000 0 0 1
33.057970 15.057954 0.180956 36.326356 0.427420 1.565815 0.013464 0.003464 435268.000000 0 0 1
33.948870 15.224954 -0.923444 37.217976 0.421578 1.595611 0.021039 0.003564 -125243.000000 0 0 1
33.486470 16.153354 -2.076144 37.236876 0.449456 1.626580 -0.015964 0.025297 -117104.000000 0 0 1
32.298970 15.690454 -2.673344 36.007785 0.452214 1.645108 -0.006714 0.014539 -148585.000000 0 0 1
31.538870 16.702454 -3.324444 35.843050 0.487033 1.663680 -0.020420 0.022950 -813335.000000 0 0 1
30.240470 16.170154 -3.831044 34.505606 0.491036 1.682052 0.003863 0.002617 -1715330.000000 0 0 1
30.354070 15.357554 -5.006544 34.384437 0.468394 1.716921 -0.008550 0.002338 655035.000000 0 0 1
29.100570 15.142654 -5.647644 33.287220 0.479799 1.741285 0.010462 -0.009315 95079.300000 0 0 1
28.039070 14.297954 -4.978344 31.865418 0.471560 1.727669 0.024618 -0.017675 -525273.000000 0 0 1
26.845270 14.164754 -5.733544 30.889842 0.485518 1.757492 0.042516 -0.025652 207278.000000 0 0 1
25.881570 13.359954 -5.137344 29.575942 0.476520 1.745382 0.027881 -0.013855 -430533.000000 0 0 1
24.633070 13.143654 -5.987244 28.555050 0.490147 1.782038 0.032290 -0.009326 -598378.000000 0 0 1
24.960470 12.243954 -7.048844 28.681452 0.456046 1.819103 0.023542 0.002188 926093.000000 0 0 1
23.874770 11.902754 -7.928744 27.830652 0.462487 1.859691 0.020879 0.004824 168504.000000 0 0 1
23.515470 12.963554 -8.950744 28.304538 0.503824 1.892549 0.029830 0.009209 -358696.000000 0 0 1
22.870570 14.036654 -8.323144 28.095647 0.550463 1.871553 0.034244 -0.009083 169161.000000 0 0 1
22.587070 15.101254 -9.205744 28.687442 0.589326 1.897474 0.031444 -0.007810 -237171.000000 0 0 1
21.605670 16.153254 -8.594944 28.312641 0.641989 1.879236 0.038947 -0.002105 962108.000000 0 0 1
20.218170 15.806854 -8.590144 27.063289 0.663553 1.893793 0.007757 0.004548 963157.000000 0 0 1
19.690870 14.912254 -7.567544 25.833571 0.648168 1.868091 -0.004022 0.006240 -786860.000000 0 0 1
18.230670 14.626854 -7.827144 24.648861 0.676155 1.893937 -0.020154 0.004759 -1510060.000000 0 1 0
17.334770 15.696954 -7.729944 24.630076 0.735856 1.890033 -0.010728 0.005645 -47035.500000 0 1 0
16.003970 15.222354 -7.674944 23.382726 0.760373 1.905227 -0.000178 0.005678 140709.000000 0 1 0
15.511870 15.246154 -6.187744 22.613082 0.776759 1.847967 0.012742 0.002889 -610207.000000 0 1 0
16.182070 14.322854 -5.365044 22.266280 0.724525 1.814140 0.006087 -0.001630 366452.000000 0 1 0
15.841270 14.624954 -4.049844 21.937100 0.745496 1.756473 0.008920 0.001361 -189298.000000 0 1 0
15.574970 13.536854 -3.048944 20.859582 0.715502 1.717487 0.009861 0.003444 -1197170.000000 0 1 0
16.761270 12.978454 -2.577944 21.354771 0.658880 1.691811 0.016376 0.003175 8748.860000 0 1 0
16.601270 12.218154 -1.436944 20.662775 0.634466 1.640395 0.014637 -0.001858 -240931.000000 0 1 0
16.760270 13.113454 -0.159544 21.281325 0.663925 1.578293 0.023002 -0.004628 -525264.000000 0 1 0
15.747270 14.065054 -0.053444 21.114098 0.729031 1.573328 0.019743 -0.005846 206870.000000 0 1 0
15.945370 14.856054 1.074856 21.820002 0.750047 1.521516 0.022239 -0.005370 -371798.000000 0 1 0
14.728670 15.758754 1.370756 21.613677 0.819172 1.507333 0.009879 0.002526 -121533.000000 0 1 0
14.732070 16.898154 0.578756 22.425799 0.853773 1.544986 0.022052 0.002266 719734.000000 0 1 0
13.612870 17.696654 0.983856 22.348373 0.915099 1.526758 0.007895 -0.004007 252803.000000 0 1 0
13.732970 19.146854 0.537956 23.568748 0.948591 1.547969 0.012102 0.000281 -428286.000000 0 1 0
13.427470 19.387154 -0.834644 23.597782 0.965057 1.606173 0.030833 0.011537 158561.000000 0 1 0
13.207170 20.730154 -1.173044 24.607817 1.003544 1.618484 0.023964 0.001466 -448173.000000 0 1 0
11.723370 21.098154 -1.181844 24.165394 1.063619 1.619722 0.024569 -0.003768 -598264.000000 0 1 0
11.159170 20.965854 0.098656 23.750870 1.081679 1.566643 0.035282 -0.003871 336399.000000 0 1 0
9.749570 20.748754 -0.061144 22.925284 1.131528 1.573463 0.036436 -0.005753 901496.000000 0 1 0
9.045670 20.468954 1.292256 22.415891 1.154681 1.513115 0.031943 -0.014271 142860.000000 0 1 0
8.613970 21.634054 2.010956 23.372563 1.191871 1.484651 0.029005 -0.007451 84937.400000 0 1 0
7.473170 21.439054 2.813756 22.877905 1.235389 1.447494 0.024846 -0.020350 -141135.000000 0 1 0
6.963070 22.719954 3.408156 24.006170 1.273411 1.428345 0.012377 -0.016979 -128046.000000 0 1 0
7.649870 23.162954 4.573056 24.818457 1.251811 1.385477 -0.005120 -0.015557 12857.800000 0 1 0
7.114970 24.357054 5.063056 25.875151 1.286593 1.373853 -0.017557 -0.009818 -163494.000000 0 0 1
7.743970 24.784254 6.431456 26.750550 1.267952 1.327994 -0.027086 0.005935 -208080.000000 0 0 1
7.371570 24.004054 7.509556 26.209313 1.272841 1.280201 -0.008118 -0.021040 -447101.000000 0 0 1
8.056970 24.355254 8.606656 27.058597 1.251318 1.247098 -0.011690 -0.015816 -633118.000000 0 0 1
7.563070 23.499154 9.792656 26.557605 1.259421 1.193151 -0.003972 -0.017580 402496.000000 0 0 1
6.306470 23.839154 10.361056 26.747492 1.312178 1.173024 -0.005052 -0.017191 257429.000000 0 0 1
5.799670 22.918854 11.296156 26.201397 1.322947 1.125054 -0.008899 -0.015283 -497163.000000 0 0 1
4.460870 23.308454 11.898956 26.547477 1.381699 1.106030 0.000660 -0.021279 -653771.000000 0 0 1
3.417770 23.334354 10.949156 26.001101 1.425361 1.136135 -0.002252 -0.024266 -909350.000000 0 0 1
2.270070 23.728954 11.618856 26.518188 1.475420 1.117260 -0.005858 -0.019915 -390355.000000 0 0 1
1.041770 23.890454 10.666156 26.184078 1.527218 1.151243 0.016387 -0.016761 75421.400000 0 0 1
1.231970 24.941954 9.753156 26.809380 1.521443 1.198456 0.018926 -0.013582 156506.000000 0 0 1
0.260870 25.086854 8.731656 26.564264 1.560398 1.235870 0.016557 -0.015855 693666.000000 0 0 1
-1.099930 25.814954 8.963456 27.348953 -1.528214 1.236882 0.019498 -0.018380 499482.000000 0 0 1
-1.926130 25.170354 9.887656 27.111297 -1.494421 1.197479 0.015668 -0.013900 116189.000000 0 0 1
-3.266330 25.612754 9.731456 27.593175 -1.443954 1.210367 0.020415 -0.006583 -794056.000000 0 0 1
-4.341530 24.760254 10.358956 27.188730 -1.397218 1.179917 0.026243 -0.009454 -513130.000000 0 0 1
-4.652930 25.048954 11.695856 28.033781 -1.387136 1.140428 0.014134 0.003658 382561.000000 0 0 1
-5.476330 26.227754 11.854556 29.298733 -1.364955 1.154244 0.017271 0.010963 -215900.000000 0 0 1
-6.014130 26.215754 13.300556 30.005671 -1.345289 1.111555 0.001422 0.023244 -459474.000000 0 0 1
-7.012830 25.300554 13.602356 29.568935 -1.300404 1.092777 0.003757 0.007910 -336926.000000 0 0 1
-7.219130 25.254654 14.999156 30.247117 -1.292368 1.051940 -0.005134 0.035027 199168.000000 0 0 1
-8.314230 24.268254 15.492056 29.967956 -1.240732 1.027507 -0.002524 0.016569 1045750.000000 0 0 1
-9.674530 24.668954 15.301056 30.598630 -1.197054 1.047132 -0.002759 0.018103 589768.000000 0 0 1
-10.625030 23.633854 15.487156 30.187784 -1.148302 1.032088 -0.000890 0.011222 1589060.000000 0 0 1
-12.108430 24.192654 15.338056 31.099108 -1.106749 1.055033 0.001796 0.006237 1298390.000000 0 0 1
-12.635530 25.070554 16.337756 32.482481 -1.103955 1.043763 0.004083 -0.003254 37268.200000 0 0 1
-13.395730 26.087154 15.720056 33.273193 -1.096408 1.078723 -0.000564 0.009306 -483771.000000 0 0 1
-14.023330 27.064554 16.724156 34.768395 -1.092739 1.068983 0.008246 0.010377 -233940.000000 0 0 1
-15.130630 26.470954 17.367456 35.089541 -1.051526 1.053023 0.010985 -0.007450 -47556.000000 0 0 1
-15.504130 27.359654 18.435556 36.452688 -1.055238 1.040558 0.017944 -0.002599 -905259.000000 0 0 1
-16.673230 26.847654 19.247556 37.003534 -1.015056 1.023764 0.015765 -0.017494 -108410.000000 0 0 1
-17.870130 27.223354 18.555456 37.480095 -0.989917 1.052875 0.009990 -0.012612 -217147.000000 0 0 1
-19.029630 26.596354 19.017956 37.830880 -0.949745 1.044066 0.011131 -0.011253 173725.000000 0 0 1
-20.259230 26.958154 18.126756 38.285216 -0.926332 1.077574 0.013991 -0.018106 73893.600000 0 0 1
-20.673330 28.332154 18.320456 39.569390 -0.940429 1.089424 0.000468 -0.017908 275920.000000 0 0 1
-21.244030 28.879954 17.137556 39.737342 -0.936577 1.124895 0.005846 -0.016754 -219210.000000 0 0 1
-22.263730 30.020054 17.344356 41.203204 -0.932674 1.136307 0.000742 -0.022963 -126948.000000 0 0 1
-23.522730 29.536354 17.765656 41.729289 -0.898255 1.131021 -0.005340 -0.021041 -107962.000000 0 0 1
-24.495030 30.500054 17.495856 42.852827 -0.894159 1.150230 -0.005377 -0.010414 20493.400000 0 0 1
-25.907150 30.278654 18.100856 43.767777 -0.863046 1.144429 -0.005883 -0.012425 37011.700000 0 0 1
-26.689280 29.281354 17.460256 43.296373 -0.831676 1.155706 0.001441 -0.010390 318242.000000 0 0 1
-27.966080 29.226654 18.116356 44.322695 -0.807435 1.149726 0.013655 -0.019501 10270.400000 0 0 1
-28.066400 28.151454 19.265756 44.174614 -0.786911 1.119506 0.014787 -0.019154 -707111.000000 0 0 1
-28.328430 26.884254 18.729256 43.313371 -0.759248 1.123629 0.012148 -0.016469 113166.000000 0 0 1
-28.435100 25.832054 19.668256 43.158895 -0.737468 1.097618 0.012380 -0.002075 -28138.200000 0 0 1
-28.731900 24.422654 19.106556 42.273497 -0.704505 1.101818 0.011857 0.002008 76391.300000 0 0 1
-29.963650 24.415654 18.403156 42.809118 -0.683726 1.126427 0.028810 -0.003134 213173.000000 0 0 1
-29.905930 23.725054 17.142656 41.846308 -0.670656 1.148718 0.013768 0.005555 -145578.000000 0 0 1
-30.101550 22.253354 17.208056 41.199906 -0.636602 1.139914 0.011517 0.007331 -1215480.000000 0 0 1
-31.415490 21.874654 17.248856 41.987576 -0.608239 1.147456 0.011129 0.012656 -1254940.000000 0 0 1
-31.476410 20.470554 17.034156 41.230698 -0.576618 1.144894 -0.002675 0.016315 -124622.000000 0 0 1
-32.791780 20.031754 16.392356 41.776564 -0.548379 1.167577 -0.003673 0.003303 -213013.000000 0 0 1
-32.790240 20.330154 14.990056 41.391023 -0.555000 1.200215 -0.007317 0.001684 341116.000000 0 0 1
-34.023920 19.931454 14.410856 41.982886 -0.529918 1.220416 0.003479 0.000423 385635.000000 0 0 1
-34.002380 20.455154 12.996956 41.755192 -0.541581 1.254272 0.019869 0.000765 62706.800000 0 0 1
-34.122602 21.840754 12.824756 42.495233 -0.569361 1.264224 0.008091 -0.003834 -27046.400000 0 0 1
-34.351399 22.211854 11.504256 42.493917 -0.573986 1.296648 0.001481 -0.007716 80364.700000 0 0 1
-33.156990 22.104254 10.495656 41.208528 -0.587994 1.313263 0.014837 -0.016215 68778.600000 0 0 1
-33.262830 20.878454 9.793956 40.475267 -0.560525 1.326397 0.025375 -0.008494 -235134.000000 0 0 1
-32.092110 20.380954 9.227356 39.120722 -0.565813 1.332684 0.048737 -0.007527 -511519.000000 0 0 1
-31.300150 19.306254 9.970656 38.103081 -0.552688 1.306038 0.038624 -0.008411 -20802.500000 0 0 1
-30.869740 19.741954 11.264556 38.335047 -0.568976 1.272550 0.027030 -0.005151 44566.800000 0 0 1
-30.349220 18.720654 12.036556 37.635312 -0.552711 1.245256 0.016644 -0.004295 -264957.000000 0 0 1
-29.849890 19.260654 13.375156 37.958971 -0.573029 1.210707 0.011010 0.009549 -205066.000000 0 0 1
-28.753220 20.135254 13.261756 37.523996 -0.610913 1.209571 -0.002825 0.013974 -313599.000000 0 0 1
-29.052350 21.516354 13.089256 38.448942 -0.637462 1.223420 -0.011889 0.024018 65072.600000 0 0 1
-27.822420 22.397854 13.431156 38.159492 -0.677800 1.211117 -0.001777 0.004567 489964.000000 0 0 1
-27.409490 22.155854 14.796856 38.224455 -0.679798 1.173307 0.006607 0.022092 -31782.800000 0 0 1
-26.147850 22.730054 15.072556 37.782898 -0.715587 1.160452 0.004845 0.000964 -328628.000000 0 0 1
-25.722660 22.429654 16.547856 37.928566 -0.717117 1.119325 0.018378 0.001185 -652213.000000 0 0 1
-24.998930 21.263254 16.640756 36.796565 -0.704823 1.101525 0.034779 -0.005467 -306818.000000 0 0 1
-24.713630 20.963154 17.971356 37.056537 -0.703473 1.064466 0.035991 -0.002368 -321699.000000 0 0 1
-23.759730 19.765854 18.077356 35.805091 -0.693895 1.041551 0.034407 -0.008458 -244775.000000 0 0 1
-23.087930 19.848654 19.291356 36.044112 -0.710098 1.006034 0.028806 -0.008450 77043.600000 0 0 1
-22.262130 18.736454 19.606656 35.086723 -0.699614 0.977852 0.019122 -0.009660 64101.400000 0 0 1
-21.706530 18.858954 21.037756 35.628932 -0.715316 0.939157 0.026561 -0.012713 61602.800000 0 0 1
-22.561430 18.262554 22.001356 36.422502 -0.680482 0.922211 0.034982 -0.001914 255437.000000 0 0 1
-22.204430 18.568554 23.327956 37.175549 -0.696460 0.892448 0.048544 -0.005694 -213793.000000 0 0 1
-23.121730 17.848954 24.327156 38.013288 -0.657405 0.876344 0.035402 -0.004569 138703.000000 0 0 1
-22.616230 16.549554 24.716656 37.367027 -0.631722 0.848037 0.041905 -0.003558 1226180.000000 0 0 1
-23.731030 15.817554 25.287856 38.116039 -0.587911 0.845384 0.030515 -0.006453 835071.000000 0 0 1
21.155670 24.717154 33.994869 47.054768 0.862881 0.763452 -0.004911 0.002153 75267.000000 0 0 1
20.236670 24.030154 33.180706 45.693877 0.870885 0.758088 0.011772 -0.004633 -24282.900000 0 0 1
19.906970 22.728954 33.679716 45.246172 0.851490 0.731211 0.015250 -0.002168 257329.000000 0 0 1
19.029170 21.893054 32.679833 43.696529 0.855268 0.725931 0.025833 -0.008058 154039.000000 0 0 1
19.734570 21.211254 31.661743 42.916623 0.821447 0.741065 0.019552 -0.009792 -194376.000000 0 0 1
18.859570 20.350654 30.964303 41.576683 0.823408 0.730634 0.042961 -0.018359 -262611.000000 0 0 1
19.453070 19.698554 29.710333 40.609837 0.791668 0.750124 0.047847 -0.010294 -1162060.000000 0 0 1
20.487370 18.832554 29.878823 40.830644 0.743337 0.749874 0.026165 -0.003165 -1228800.000000 0 0 1
20.975370 18.369454 28.639353 39.970183 0.719262 0.771999 0.031454 -0.007990 -42371.800000 0 0 1
22.170670 17.406354 28.866013 40.345588 0.665594 0.773501 0.039002 0.006938 -128361.000000 0 0 1
23.320070 18.100254 29.281503 41.579458 0.660038 0.789458 0.046909 0.004232 33226.600000 0 0 1
24.332970 17.242854 29.806733 42.164568 0.616488 0.785670 0.042888 0.016133 -542026.000000 0 0 1
25.716270 17.830954 29.818603 43.225207 0.606264 0.809524 0.019344 0.010604 -866683.000000 0 0 1
26.326770 18.025854 28.553723 42.817582 0.600381 0.840797 0.021934 0.016930 -144432.000000 0 0 1
27.673470 18.345854 28.751093 43.920572 0.585418 0.857122 0.015863 0.016530 -264588.000000 0 0 1
28.636770 18.449854 27.550263 43.811856 0.572338 0.890747 0.018706 0.014631 -205989.000000 0 0 1
28.652970 19.535254 26.723033 43.780582 0.598398 0.914249 0.025377 0.006850 51474.300000 0 0 1
29.577970 19.228354 25.709463 43.652748 0.576439 0.941032 0.021927 0.007196 -286456.000000 0 0 1
30.047070 20.391954 24.787703 43.966902 0.596265 0.971840 0.021511 -0.004409 390062.000000 0 0 1
28.984470 20.942854 23.984333 43.057530 0.625703 0.979991 0.030135 -0.004186 652466.000000 0 0 1
29.402770 21.839954 22.966033 43.231298 0.638868 1.010737 0.022520 -0.008538 -199834.000000 0 0 1
29.965770 21.210454 21.667233 42.629799 0.615957 1.037627 0.013999 0.002671 222105.000000 0 0 1
29.130670 20.158054 21.123033 41.244704 0.605328 1.033123 0.015621 -0.000676 412617.000000 0 0 1
29.621970 19.616754 19.896133 40.720195 0.584929 1.060305 0.008011 0.004569 25402.900000 0 0 1
30.601270 18.448154 20.174633 41.033985 0.542517 1.056805 0.008555 0.001990 97681.000000 0 0 1
29.934170 17.343454 20.855833 40.395739 0.525125 1.028285 0.011739 0.003759 192582.000000 0 0 1
30.880670 16.378754 21.164933 40.863600 0.487662 1.026354 -0.004656 0.001347 -869035.000000 0 0 1
30.367170 14.955254 21.379533 40.036347 0.457614 1.007468 -0.001144 -0.000514 -170807.000000 0 0 1
29.806670 14.584254 22.639333 40.170604 0.455047 0.972084 -0.011284 0.000864 -865954.000000 0 0 1
28.616670 15.132954 22.977833 39.697619 0.486434 0.953514 -0.002309 0.000892 -1811290.000000 0 0 1
27.945870 14.584154 24.268333 39.782172 0.480991 0.914697 -0.013514 0.001824 35886.400000 0 0 1
27.453770 13.302454 24.045433 38.843888 0.451203 0.903293 -0.012645 0.006936 66525.000000 0 0 1
26.875870 12.641054 25.171623 38.932239 0.439647 0.867744 -0.024725 0.009560 23979.000000 0 0 1
26.421670 11.219754 24.866073 37.977745 0.401567 0.856939 -0.020680 0.021333 -24502.800000 0 0 1
25.441970 11.067654 23.845933 36.584359 0.410323 0.860832 -0.025140 0.034713 202472.000000 0 0 1
25.398170 9.866854 23.165333 35.763872 0.370542 0.866195 -0.022894 0.029096 341944.000000 0 0 1
24.114670 9.748954 22.280533 34.248819 0.384186 0.862489 -0.032324 0.025286 289636.000000 0 0 1
22.873270 9.593254 22.926433 33.776299 0.397125 0.824706 -0.019709 0.020167 279389.000000 0 0 1
22.038470 8.770654 22.110933 32.427024 0.378755 0.820484 -0.024813 0.034521 -118455.000000 0 0 1
20.568270 8.675354 22.547133 31.728358 0.399143 0.780403 -0.005077 0.022429 -241687.000000 0 0 1
20.390270 8.036754 23.770433 32.332430 0.375450 0.744851 0.001497 0.019462 669101.000000 0 0 1
18.989670 8.080654 24.072833 31.708135 0.402319 0.708712 0.023286 0.017444 665426.000000 0 0 1
18.594470 7.254054 25.337843 32.254952 0.371959 0.667214 0.030113 0.003228 -290238.000000 0 0 1
18.449370 5.888054 25.084133 31.690096 0.308929 0.657463 0.019227 -0.005023 -180203.000000 0 0 1
18.043570 5.271154 26.245063 32.282485 0.284225 0.621542 0.020170 -0.009663 -290527.000000 0 0 1
18.273670 3.732754 26.188763 32.151389 0.201497 0.618851 0.028036 -0.015125 -881504.000000 0 0 1
19.613270 3.419254 26.078083 32.809116 0.172599 0.652048 0.034850 -0.009581 -962138.000000 0 0 1
19.889470 2.001354 25.900793 32.717694 0.100286 0.657300 0.025434 -0.010379 -36676.400000 0 0 1
21.399370 1.777554 25.633143 33.438761 0.082875 0.697314 0.021605 -0.006939 -227972.000000 0 0 1
22.092970 1.988654 26.836373 34.817309 0.089771 0.690737 0.022989 -0.021054 -456337.000000 0 0 1
23.433970 2.180054 26.454813 35.408484 0.092763 0.727060 0.027706 -0.013110 216932.000000 0 0 1
24.379570 2.716154 27.599173 36.924995 0.110954 0.726598 0.017734 -0.015224 -278601.000000 0 0 1
24.378770 1.869454 28.735333 37.729811 0.076534 0.705005 0.020894 -0.015439 344779.000000 0 0 1
25.130370 2.381254 29.842343 39.086715 0.094474 0.702095 0.021166 -0.002685 219435.000000 0 0 1
26.641070 2.637354 29.752713 40.024070 0.098674 0.732701 0.025821 -0.002667 -1039510.000000 0 0 1
26.861770 3.845554 29.020473 39.730729 0.142195 0.751847 0.012250 0.014344 621330.000000 0 0 1
28.200270 4.068054 28.542153 40.329379 0.143268 0.784522 -0.003895 0.019678 688684.000000 0 0 1
28.623270 3.058954 27.436133 39.766697 0.106465 0.809408 0.010603 0.016725 -525776.000000 0 0 1
27.814670 2.964754 26.280293 38.380978 0.106189 0.816574 0.017393 0.018808 195874.000000 0 0 1
28.312770 1.887454 25.423803 38.099150 0.066566 0.840210 0.035395 0.015255 116989.000000 0 0 1
28.221370 2.302354 23.930733 37.073259 0.081402 0.869121 0.025174 0.009378 212398.000000 0 0 1
28.947670 3.443254 23.509533 37.450257 0.118391 0.892132 0.020204 0.018646 -142478.000000 0 0 1
30.321670 3.281054 23.211633 38.326869 0.107789 0.920248 0.011059 0.016552 317014.000000 0 0 1
31.033770 4.502754 22.586933 38.646335 0.144087 0.946592 -0.010515 0.018248 -101683.000000 0 0 1
30.508770 4.848954 21.285633 37.515005 0.157618 0.967464 -0.007011 0.013447 68991.300000 0 0 1
30.940270 6.049754 20.666933 37.696445 0.193094 0.990531 -0.001156 0.013359 -353346.000000 0 0 1
32.417370 6.094154 20.164233 38.660327 0.185822 1.022101 -0.016192 0.007075 789593.000000 0 0 1
33.399170 6.149954 21.229533 40.050213 0.182095 1.012110 -0.007303 0.007549 615697.000000 0 0 1
33.507270 7.432554 21.834233 40.678173 0.218285 1.004209 0.000676 0.006595 -849024.000000 0 0 1
34.258170 7.251754 23.151833 41.978775 0.208600 0.986620 -0.002413 0.010638 -335687.000000 0 0 1
33.445770 6.663354 24.166283 41.797477 0.196654 0.954305 -0.001688 0.022844 170494.000000 0 0 1
34.141170 6.356354 25.341773 42.991025 0.184071 0.940398 0.008512 0.015090 -383576.000000 0 0 1
33.476070 5.318054 26.254703 42.874683 0.157545 0.911755 0.009949 0.016598 -150483.000000 0 0 1
33.473370 3.976954 25.789213 42.442505 0.118255 0.917727 0.012972 0.011143 -29320.200000 0 0 1
32.924070 3.105154 26.755653 42.538234 0.094034 0.890557 0.017154 0.017352 -110559.000000 0 0 1
32.946870 1.582754 26.360953 42.224415 0.048003 0.896554 0.013494 0.017959 -629879.000000 0 0 1
31.981970 1.182854 25.473153 40.903876 0.036968 0.898536 0.028423 0.008358 -913273.000000 0 0 1
32.119270 -0.192446 25.183303 40.815234 -0.005992 0.905862 0.029555 0.002382 -457991.000000 0 0 1
31.167870 -0.817046 24.151613 39.438612 -0.026208 0.911722 0.035625 0.007489 236586.000000 0 0 1
29.864270 -1.025546 24.689523 38.762081 -0.034327 0.880260 0.035619 0.013412 -87646.100000 0 0 1
29.146070 -1.851746 23.789133 37.667562 -0.063448 0.887239 0.042193 0.003999 -880559.000000 0 0 1
27.694570 -1.961946 24.177953 36.815919 -0.070724 0.854328 0.049731 0.001291 -726937.000000 0 0 1
26.982870 -0.707246 24.148993 36.218080 -0.026205 0.840935 0.044195 0.002460 184286.000000 0 0 1
25.607270 -0.978246 23.941633 35.069803 -0.038183 0.819365 0.041459 0.006071 233206.000000 0 0 1
24.753270 0.316754 23.817233 34.352370 0.012796 0.804708 0.030451 0.007960 -151928.000000 0 0 1
24.961070 1.124154 22.688033 33.750046 0.045006 0.833570 0.016169 0.008660 36262.000000 0 0 1
23.874670 2.000954 22.529433 32.887369 0.083615 0.816126 -0.002989 0.010674 -128899.000000 0 0 1
23.980970 3.067954 21.487033 32.344889 0.127242 0.844226 -0.013927 0.010376 -242280.000000 0 0 1
24.039170 2.570754 20.158933 31.478136 0.106535 0.875764 0.002811 0.008312 394170.000000 0 0 1
23.449270 3.552054 19.316733 30.587931 0.150335 0.887291 -0.006029 0.009960 -62621.900000 0 0 1
23.341570 3.190154 17.787733 29.519645 0.135831 0.924075 -0.012490 0.012384 -309164.000000 0 0 1
24.527870 3.212954 17.036233 30.036190 0.130250 0.967706 -0.020014 0.017340 13731.700000 0 0 1
24.256570 3.495154 15.704533 29.107210 0.143106 1.000904 -0.018509 0.014396 -513818.000000 0 0 1
23.659470 2.403254 14.797433 28.009109 0.101230 1.014190 -0.016679 0.019169 -358814.000000 0 0 1
22.357370 1.945754 14.994833 26.990424 0.086811 0.981759 -0.002825 0.011564 -197142.000000 0 0 1
21.994170 0.919154 14.111533 26.148111 0.041766 1.000743 0.004944 0.006587 -85563.000000 0 0 1
20.492670 0.476154 14.225233 24.950621 0.023231 0.964126 0.018555 -0.009296 1006320.000000 0 1 0
19.546470 1.311254 13.500933 23.791996 0.066984 0.967382 0.024414 -0.008949 835916.000000 0 1 0
19.688770 1.402154 12.052533 23.127414 0.071096 1.022615 0.033587 -0.002174 -1038600.000000 0 1 0
19.267070 0.071154 11.281333 22.326969 0.003693 1.041092 0.026302 -0.001173 -336724.000000 0 1 0
20.102270 -1.059346 11.336633 23.102873 -0.052649 1.057901 0.008516 -0.005629 -273266.000000 0 1 0
21.164570 -1.004746 10.442933 23.622096 -0.047437 1.112876 0.003704 -0.006856 -738953.000000 0 1 0
22.304070 -1.951346 10.873433 24.889975 -0.087266 1.118691 0.009437 -0.004797 -190383.000000 0 1 0
22.711170 -1.709246 12.202233 25.838213 -0.075119 1.078949 0.001717 -0.009396 -48604.900000 0 0 1
23.437970 -2.777946 12.722633 26.812699 -0.117973 1.076400 -0.004310 -0.003051 -315288.000000 0 0 1
23.768370 -2.563846 14.211833 27.811597 -0.107453 1.034444 0.018383 0.008130 83679.500000 0 0 1
24.669670 -1.476146 14.379933 28.592903 -0.059765 1.043823 0.004529 0.008837 116604.000000 0 0 1
24.754770 -1.262546 15.785533 29.386659 -0.050958 1.003722 -0.007291 0.009153 340397.000000 0 0 1
26.013870 -0.551646 16.350633 30.730587 -0.021203 1.009760 0.027710 0.015866 -245704.000000 0 0 1
27.253070 -1.165646 16.256433 31.754688 -0.042745 1.033357 0.020372 0.015788 -60796.600000 0 0 1
28.284870 -0.194746 16.538933 32.765960 -0.006885 1.041693 0.002350 0.021628 277274.000000 0 0 1
29.665970 -0.844146 16.720033 34.063791 -0.028447 1.057737 0.019280 0.024468 -232593.000000 0 0 1
30.095970 -1.362146 15.459933 33.861961 -0.045229 1.096674 0.028464 0.030417 410525.000000 0 0 1
31.490870 -1.668246 15.526433 35.150079 -0.052926 1.113283 0.025871 0.023293 541032.000000 0 0 1
31.971270 -2.271946 14.213733 35.062146 -0.070943 1.153394 0.027027 0.016386 -128829.000000 0 0 1
31.826070 -1.380046 13.104333 34.445999 -0.043335 1.180534 0.028786 0.018580 87873.300000 0 0 1
32.171370 -1.973746 11.876733 34.350393 -0.061274 1.217756 0.027719 0.007342 -112593.000000 0 0 1
31.668270 -1.258746 10.631333 33.428865 -0.039727 1.247147 0.027488 0.017013 -240818.000000 0 0 1
32.380470 -0.056246 10.370933 34.000798 -0.001737 1.260837 0.037058 0.023671 294303.000000 0 0 1
31.599270 0.893554 9.689233 33.063478 0.028270 1.273382 0.012752 0.024202 -367242.000000 0 0 1
32.266870 2.270054 9.492333 33.710658 0.070237 1.285353 0.010627 0.020303 -180717.000000 0 0 1
32.999370 2.250554 8.302333 34.102084 0.068094 1.324870 0.024010 0.016043 22789.600000 0 0 1
33.458770 3.552754 7.930233 34.568772 0.105787 1.339330 0.023871 0.013392 -103658.000000 0 0 1
33.939370 3.501954 6.465633 34.726776 0.102819 1.383518 0.026013 0.010740 -106206.000000 0 0 1
34.378970 4.743854 5.989833 35.217834 0.137121 1.399886 0.024485 0.005985 79256.700000 0 0 1
34.740770 4.728254 4.636333 35.366270 0.135270 1.439323 0.017384 0.008501 -148054.000000 0 0 1
-34.702024 6.015654 4.174333 35.466091 -0.171646 1.452824 0.003815 -0.001786 187953.000000 0 0 1
34.372070 7.014554 4.250933 35.337142 0.201313 1.450208 0.026092 -0.005518 193086.000000 0 0 1
34.775570 8.179954 3.568533 35.902456 0.231022 1.471237 0.014030 -0.006551 -455143.000000 0 0 1
33.753170 9.365054 3.551533 35.207870 0.270649 1.469751 0.044245 -0.008632 941320.000000 0 0 1
32.613570 9.310754 2.696033 34.023576 0.278090 1.491473 0.042723 -0.015831 1045300.000000 0 0 1
31.683870 8.216454 2.831233 32.854127 0.253737 1.484513 0.061608 -0.008370 176869.000000 0 0 1
30.441770 8.294454 1.897233 31.608525 0.266012 1.510737 0.054217 -0.014357 112538.000000 0 0 1
30.644070 7.874054 0.574233 31.644739 0.251511 1.552649 0.045900 -0.018039 944734.000000 0 0 1
29.444170 7.840754 -0.230467 30.471129 0.260253 1.578360 0.038839 -0.018594 580212.000000 0 0 1
29.797570 7.734554 -1.709667 30.832474 0.253965 1.626275 0.022234 -0.008500 -486254.000000 0 0 1
28.758570 7.121654 -2.413267 29.725362 0.242752 1.652071 0.010880 -0.007659 568237.000000 0 0 1
29.115270 7.012954 -3.776667 30.185157 0.236366 1.696242 0.019004 -0.001535 -615609.000000 0 0 1
28.008070 6.366054 -4.596167 29.087856 0.223496 1.729471 0.008627 0.001019 -846573.000000 0 0 1
27.900270 4.954954 -4.561867 28.701695 0.175763 1.730414 0.011761 -0.003404 1034260.000000 0 0 1
26.918170 4.421554 -5.468067 27.821535 0.162805 1.768625 -0.005472 -0.001744 -104075.000000 0 0 1
26.858570 2.832654 -5.454367 27.552801 0.105077 1.770073 0.000618 0.004085 -705378.000000 0 0 1
26.401570 2.373754 -4.266767 26.849263 0.089668 1.730389 -0.001651 -0.001559 83621.300000 0 0 1
26.074670 0.985554 -4.322167 26.448835 0.037779 1.734949 -0.005830 -0.002736 -128355.000000 0 0 1
25.936670 0.267754 -3.012867 26.112448 0.010323 1.686434 -0.005558 -0.001647 708073.000000 0 0 1
27.185970 0.400454 -2.310167 27.286887 0.014729 1.655560 0.011693 -0.006121 1217320.000000 0 0 1
27.002070 -0.154146 -1.029567 27.022131 -0.005709 1.608906 0.013895 -0.006643 -624825.000000 0 0 1
28.149570 0.249754 -0.128667 28.150972 0.008872 1.575367 0.019084 -0.006919 291497.000000 0 0 1
29.442870 -0.285946 -0.443467 29.447598 -0.009712 1.585856 0.031561 -0.005674 230363.000000 0 0 1
30.436070 0.334654 0.272633 30.439131 0.010995 1.561840 0.023120 -0.003507 -611450.000000 0 0 1
-2.637330 -21.583046 -8.171144 23.228237 1.449205 1.930264 -0.007111 0.015324 181132.000000 0 1 0
-3.078130 -22.286746 -7.015844 23.566841 1.433550 1.873079 -0.005820 0.013000 -461167.000000 0 1 0
-2.224030 -23.289746 -6.594644 24.307363 1.475591 1.845542 0.002899 0.005797 -365310.000000 0 1 0
-2.697630 -23.794846 -5.249644 24.515927 1.457908 1.786599 -0.003700 0.007523 -232818.000000 0 1 0
-2.397730 -23.005946 -4.107544 23.492437 1.466949 1.746545 -0.009563 0.008558 -121816.000000 0 1 0
-3.167530 -23.386946 -2.962144 23.785643 1.436175 1.695655 -0.003285 -0.003749 226913.000000 0 1 0
-2.715330 -22.575846 -1.718144 22.803374 1.451095 1.646214 -0.002408 -0.016536 379734.000000 0 1 0
-1.352930 -22.852846 -1.437244 22.937931 1.511664 1.633495 0.011680 -0.003336 -348340.000000 0 1 0
-1.004230 -22.403346 -0.140144 22.426280 1.526001 1.577045 0.008421 -0.007276 -1054010.000000 0 1 0
0.449870 -22.260446 0.188756 22.265792 -1.550590 1.562319 0.015892 -0.011956 -1075610.000000 0 1 0
1.057470 -21.259246 -0.614044 21.294385 -1.521096 1.599636 0.007880 -0.008477 -410407.000000 0 1 0
2.311770 -20.963146 -0.061044 21.090318 -1.460962 1.573691 0.015687 -0.007934 169736.000000 0 1 0
3.181570 -19.851846 -0.775244 20.120119 -1.411882 1.609337 0.026152 -0.017777 708041.000000 0 1 0
3.769570 -20.468546 -1.923444 20.901452 -1.388673 1.662951 0.020471 -0.009072 192170.000000 0 1 0
4.692070 -19.534346 -2.538644 20.249714 -1.335066 1.696494 0.031800 -0.006564 360830.000000 0 1 0
5.604870 -20.085146 -3.668944 21.172832 -1.298664 1.744961 0.023084 -0.001417 -961151.000000 0 1 0
6.536070 -21.029646 -3.201844 22.253495 -1.269459 1.715178 0.032874 -0.006726 -359425.000000 0 1 0
7.236070 -21.744046 -4.204744 23.299016 -1.249540 1.752259 0.022330 -0.007881 207035.000000 0 1 0
8.456570 -20.982546 -4.750244 23.115917 -1.187682 1.777767 0.021731 -0.003620 -427872.000000 0 1 0
8.079770 -19.789946 -5.453044 22.060379 -1.183175 1.820573 0.013052 -0.006534 -95091.600000 0 1 0
9.225770 -19.458346 -6.174844 22.402472 -1.128059 1.850044 0.021892 -0.000200 -320305.000000 0 1 0
8.866170 -18.242446 -6.950444 21.440720 -1.118396 1.900931 0.016253 -0.001633 496460.000000 0 1 0
9.903270 -17.825246 -7.874644 21.859190 -1.063683 1.939326 0.023799 -0.001582 1098440.000000 0 1 0
9.449870 -16.717846 -8.637044 21.056708 -1.056315 1.993448 0.015020 0.001171 124684.000000 0 1 0
10.003770 -16.711446 -10.115744 21.947121 -1.031394 2.049822 0.011109 0.010191 -242728.000000 0 1 0
9.283070 -17.595146 -10.979244 22.722420 -1.085319 2.075091 0.010607 0.013286 246100.000000 0 1 0
8.593670 -16.808846 -11.931544 22.332716 -1.098182 2.134432 0.001356 0.014770 -158939.000000 0 1 0
7.927270 -17.527546 -13.089744 23.267958 -1.146052 2.168282 0.000884 0.015224 45818.000000 0 1 0
6.819170 -18.311846 -12.684744 23.296513 -1.214315 2.146579 -0.006626 0.018025 139893.000000 0 1 0
6.344370 -19.069446 -13.768444 24.361134 -1.249618 2.171449 -0.014529 0.022532 -745411.000000 0 1 0
5.171070 -19.938546 -13.426544 24.587754 -1.317037 2.148458 -0.017920 0.027470 -824892.000000 0 1 0
5.518170 -20.960646 -12.474644 25.008311 -1.313374 2.093033 -0.002893 0.009200 402120.000000 0 0 1
4.353470 -21.694346 -12.105744 25.221943 -1.372754 2.071415 -0.002985 0.019322 268740.000000 0 0 1
4.647270 -23.214446 -12.075044 26.576574 -1.373219 2.042438 -0.006761 0.022033 76128.300000 0 0 1
5.152470 -23.717046 -13.327444 27.688752 -1.356873 2.072968 0.003654 0.010540 169556.000000 0 0 1
4.858270 -25.122376 -13.546544 28.952468 -1.379770 2.057697 -0.000162 0.003549 -531636.000000 0 0 1
3.431570 -25.386546 -13.975044 29.181402 -1.436438 2.070200 0.003864 0.000240 -492301.000000 0 0 1
2.350470 -25.171276 -13.081244 28.464659 -1.477687 2.048297 0.013427 -0.003967 309161.000000 0 0 1
1.079570 -25.423686 -13.666244 28.884174 -1.528359 2.063647 0.008692 -0.011621 317010.000000 0 0 1
0.468770 -26.738506 -13.193544 29.820078 -1.553266 2.029112 0.006933 -0.008070 -883897.000000 0 0 1
0.985470 -27.885826 -13.900544 31.173956 -1.535472 2.032979 0.010907 -0.003783 459406.000000 0 0 1
0.427570 -29.201516 -13.522544 32.183389 -1.556155 2.004431 -0.001456 0.003183 10358.200000 0 0 1
-1.012430 -29.482446 -13.992544 32.650129 1.536470 2.013695 -0.011629 0.002095 -30014.100000 0 0 1
-1.906130 -28.571246 -13.400844 31.615377 1.504180 2.008511 -0.005283 -0.006563 -270536.000000 0 0 1
-3.276030 -28.924806 -13.574144 32.119062 1.458017 2.007130 0.000554 0.003975 424111.000000 0 0 1
-4.138130 -27.941596 -12.697444 30.969049 1.423766 1.993255 -0.023940 -0.001054 146792.000000 0 0 1
-4.381730 -28.269086 -11.328844 30.768222 1.417019 1.947868 -0.015154 -0.014431 82648.200000 0 0 1
-4.979630 -29.533396 -11.006944 31.908792 1.403757 1.922982 -0.035459 -0.005435 -439664.000000 0 0 1
-5.395130 -29.692336 -9.473044 31.630378 1.391056 1.874956 -0.017672 -0.009031 919057.000000 0 0 1
-6.704230 -29.243996 -9.062544 31.341469 1.345439 1.864140 0.004426 -0.011047 539490.000000 0 0 1
-6.872630 -27.857966 -9.111744 30.105202 1.328924 1.878282 0.011528 -0.014387 -404151.000000 0 0 1
-8.315830 -27.331756 -8.761944 29.882262 1.275440 1.868385 0.016944 -0.016511 1197660.000000 0 0 1
-9.424130 -27.595046 -9.605944 30.701383 1.241700 1.889023 0.026747 -0.009838 207438.000000 0 0 1
-9.664230 -28.970186 -9.779544 32.067250 1.248813 1.880703 0.026849 -0.015877 -1078090.000000 0 0 1
-10.866430 -29.311156 -10.695744 33.039705 1.215777 1.900459 0.031094 -0.009214 21479.100000 0 0 1
-10.688230 -28.945686 -12.067844 33.131916 1.217075 1.943609 0.036024 -0.014982 -199695.000000 0 0 1
-11.590630 -29.620636 -12.891444 34.320753 1.197810 1.955858 0.040430 -0.011614 -304394.000000 0 0 1
-11.872030 -29.026736 -14.295144 34.465165 1.182553 1.998487 0.041473 -0.014067 -232013.000000 0 0 1
-12.755230 -27.926496 -14.364644 33.895841 1.142349 2.008419 0.034713 -0.027314 -115151.000000 0 0 1
-12.379430 -26.717236 -13.684844 32.470539 1.136896 2.005845 0.040313 -0.015770 -116206.000000 0 0 1
-13.378630 -25.560116 -13.958444 32.049109 1.088590 2.021427 0.067446 -0.015233 61939.200000 0 0 1
-13.175830 -24.932846 -15.183744 32.028040 1.084647 2.064711 0.051105 -0.012222 195774.000000 0 0 1
-14.091430 -23.867546 -15.415444 31.715360 1.037465 2.078368 0.067230 -0.014026 -179543.000000 0 0 1
-13.932930 -23.224946 -16.815644 31.879312 1.030441 2.126426 0.054761 -0.021555 100052.000000 0 0 1
-12.832930 -22.326046 -16.851044 30.774894 1.049115 2.150240 0.036092 -0.016452 426340.000000 0 0 1
-12.783730 -21.651846 -18.086544 30.973363 1.037449 2.194368 0.018224 -0.012024 -336902.000000 0 0 1
-13.006130 -20.102846 -17.991644 29.949676 0.996547 2.215209 0.012451 0.002445 433151.000000 0 0 1
-11.845230 -19.313846 -17.708544 28.756332 1.020653 2.234215 0.019234 -0.001378 402946.000000 0 0 1
-12.239830 -17.948646 -17.793744 28.081749 0.972297 2.257047 0.017407 0.009030 570869.000000 0 0 1
-11.055530 -16.937546 -17.954544 27.045718 0.992509 2.296763 0.029314 -0.001170 377788.000000 0 0 1
-10.515530 -16.586746 -16.693244 25.775199 1.005771 2.275289 0.030054 0.011205 225841.000000 0 0 1
-9.270230 -15.945046 -16.907644 25.020993 1.044176 2.312762 0.040259 0.006188 61274.200000 0 0 1
-8.518330 -15.173846 -15.778644 23.489852 1.059256 2.307327 0.035273 0.009845 358826.000000 0 1 0
-7.933730 -16.013046 -14.726544 23.156701 1.110792 2.260037 0.034448 0.012520 169561.000000 0 1 0
-6.650730 -16.521746 -15.009544 23.291344 1.188099 2.271068 0.030616 0.005463 -244999.000000 0 1 0
-6.187830 -17.456246 -13.786844 23.088673 1.230139 2.210710 0.023869 0.010634 -404288.000000 0 1 0
-5.881130 -16.856646 -12.514844 21.802649 1.235110 2.182186 0.022723 0.009148 229985.000000 0 1 0
-5.723730 -17.712546 -11.376344 21.815512 1.258243 2.119380 0.020394 0.004088 -275930.000000 0 1 0
-4.568530 -18.717846 -11.477944 22.427047 1.331403 2.108064 0.020413 0.002806 -582298.000000 0 1 0
-3.312730 -18.145846 -11.719344 21.853808 1.390224 2.136797 0.013851 0.008693 33327.000000 0 1 0
-2.314830 -19.199446 -11.775844 22.641724 1.450808 2.117758 0.002074 0.015790 1208470.000000 0 1 0
-0.862430 -18.803746 -12.145344 22.401652 1.524964 2.143805 -0.001390 0.025357 -116242.000000 0 1 0
-0.748830 -18.439346 -13.514244 22.873675 1.530208 2.202872 -0.000030 0.017060 395114.000000 0 1 0
0.538570 -17.909746 -13.838544 22.639663 -1.540734 2.228438 0.001468 0.020315 1084760.000000 0 1 0
1.766970 -18.851246 -13.973144 23.531689 -1.477337 2.206571 -0.001116 0.015826 -188718.000000 0 1 0
1.511870 -19.756446 -15.037644 24.874357 -1.494420 2.219990 0.000924 0.017466 235642.000000 0 1 0
1.161670 -21.063146 -14.546544 25.624354 -1.515700 2.174487 0.007032 0.012844 -698099.000000 0 0 1
1.174070 -22.135646 -15.670844 27.146650 -1.517806 2.186173 0.021992 0.002349 682658.000000 0 0 1
2.402770 -22.767046 -16.090344 27.982331 -1.465648 2.183422 0.013566 0.004510 762383.000000 0 0 1
3.369970 -21.836046 -16.591244 27.630399 -1.417674 2.214886 0.009415 0.005655 -210938.000000 0 0 1
4.767970 -22.469846 -16.707844 28.403865 -1.361704 2.199658 0.009111 0.009500 -130359.000000 0 0 1
4.840470 -22.912346 -18.040544 29.561241 -1.362597 2.227206 0.011326 0.012380 -639583.000000 0 0 1
5.983970 -23.606746 -18.372044 30.506038 -1.322540 2.217104 0.003777 0.017177 -546805.000000 0 0 1
6.330970 -23.638846 -19.897744 31.540394 -1.309117 2.253464 0.008158 0.022121 -117727.000000 0 0 1
6.561370 -22.346646 -20.449344 30.993545 -1.285205 2.291340 0.014696 0.007531 33221.800000 0 0 1
6.779670 -22.264946 -21.854844 31.926884 -1.275216 2.324752 0.006915 0.004840 64223.500000 0 0 1
7.045270 -20.788246 -22.281144 31.276770 -1.244038 2.363689 0.006475 0.000159 243956.000000 0 0 1
5.863570 -20.033546 -22.344244 30.577600 -1.286062 2.390200 0.022253 0.002634 238079.000000 0 0 1
6.332770 -18.762946 -22.677444 30.106786 -1.245287 2.423761 0.037409 -0.001533 603445.000000 0 0 1
5.147070 -17.908246 -23.187344 29.746437 -1.290926 2.464663 0.033687 -0.005495 -896926.000000 0 0 1
4.480470 -18.457146 -24.344344 30.876980 -1.332653 2.479049 0.023262 -0.001971 491585.000000 0 0 1
3.398570 -17.650746 -24.778544 30.611686 -1.380579 2.514006 0.027158 -0.000255 799202.000000 0 0 1
2.188270 -17.352746 -23.855344 29.580124 -1.445353 2.508946 0.031632 0.003111 -170117.000000 0 0 1
2.602370 -16.418946 -22.800944 28.217674 -1.413606 2.511610 0.027137 -0.002684 -219278.000000 0 0 1
1.421170 -16.080946 -22.120744 27.385103 -1.482649 2.511148 0.014788 0.000430 313527.000000 0 0 1
1.734270 -15.340346 -20.805744 25.907776 -1.458221 2.503225 0.028716 -0.000449 211982.000000 0 0 1
2.159970 -14.007346 -21.070644 25.393764 -1.417799 2.549468 0.018395 0.005300 -137988.000000 0 0 1
1.953670 -13.239446 -19.880844 23.965552 -1.424289 2.549114 0.013314 0.002515 -157884.000000 0 1 0
3.105270 -12.269646 -19.646944 23.370693 -1.322916 2.569308 0.009287 -0.001384 -540445.000000 0 1 0
4.351770 -12.941446 -19.503344 23.807548 -1.246409 2.530826 0.008293 -0.001025 1310570.000000 0 1 0
5.566570 -12.131746 -19.606244 23.718574 -1.140613 2.543871 0.019724 0.001619 1587030.000000 0 1 0
5.719970 -11.069646 -18.490044 22.296566 -1.093858 2.548610 0.013091 -0.000027 -817191.000000 0 1 0
4.833070 -9.938646 -18.464244 21.518911 -1.118176 2.602252 0.000934 0.005487 -95904.000000 0 1 0
5.069970 -8.860646 -19.340844 21.869702 -1.051077 2.655933 0.016932 -0.005543 -223540.000000 0 1 0
4.503770 -8.934246 -20.779044 23.062380 -1.103873 2.692849 0.022274 -0.012217 887178.000000 0 1 0
3.077570 -9.104346 -20.861844 22.969046 -1.244822 2.709900 0.021879 -0.012875 681295.000000 0 1 0
2.594770 -9.184746 -22.193644 24.158854 -1.295463 2.735458 0.026946 -0.012640 118131.000000 0 1 0
1.054870 -9.126146 -22.205544 24.030927 -1.455719 2.749314 0.030610 -0.014321 41434.700000 0 1 0
0.688870 -7.833246 -21.630244 23.015250 -1.483080 2.792906 0.028559 -0.017085 -596534.000000 0 1 0
-0.669130 -7.553646 -21.824644 23.104553 1.482443 2.807181 0.031132 -0.014123 -168502.000000 0 1 0
-1.173230 -6.653146 -22.992444 23.964417 1.396249 2.855809 0.036118 -0.013022 -59772.200000 0 1 0
-0.990230 -7.207546 -24.277944 25.344582 1.434263 2.850443 0.040504 -0.016134 -323228.000000 0 0 1
-1.489130 -6.460546 -25.386124 26.237596 1.344257 2.886135 0.030629 -0.011561 186412.000000 0 0 1
-0.719530 -5.150446 -25.809514 26.328232 1.431992 2.942761 0.035079 -0.006950 145233.000000 0 0 1
-1.272730 -4.556746 -26.972804 27.384593 1.298431 2.967955 0.018848 -0.001323 -52579.300000 0 0 1
-0.810930 -3.276246 -27.389964 27.597128 1.328155 3.018986 0.007709 0.001513 -882451.000000 0 0 1
-1.210830 -2.081346 -26.472594 26.581880 1.043902 3.050883 0.022114 -0.005313 -276205.000000 0 0 1
-2.583930 -1.932346 -26.271994 26.469384 0.642112 3.019391 0.002773 -0.001042 -571801.000000 0 0 1
-3.328730 -1.367346 -27.310174 27.546246 0.389757 3.010579 0.014424 -0.001466 -335782.000000 0 0 1
-4.845230 -1.465846 -27.041944 27.511664 0.293780 2.956540 0.005286 0.002123 40688.200000 0 0 1
-5.437230 -0.501346 -26.157294 26.721131 0.091946 2.935799 0.015964 0.001449 -411218.000000 0 0 1
-6.811330 -0.694946 -26.052024 26.936687 0.101676 2.884596 0.010052 -0.002191 -838401.000000 0 0 1
-7.614930 0.430154 -25.375634 26.497075 -0.056428 2.849616 0.012378 -0.000990 -961795.000000 0 0 1
-7.660330 1.730954 -26.004984 27.164978 -0.222231 2.848304 0.018330 -0.005574 172136.000000 0 0 1
-8.308230 1.883554 -27.280214 28.579442 -0.222941 2.838908 0.006246 0.001263 843165.000000 0 0 1
-9.785530 1.357554 -27.326324 29.057314 -0.137851 2.794684 0.004122 -0.003979 283877.000000 0 0 1
-10.685230 2.011954 -28.215054 30.237582 -0.186114 2.773769 0.012705 -0.009325 175521.000000 0 0 1
-12.020030 1.642254 -27.999194 30.514471 -0.135786 2.732723 0.001266 -0.011866 -328899.000000 0 0 1
-13.033130 2.486454 -28.822254 31.729595 -0.188514 2.710169 -0.002800 -0.002046 -1012660.000000 0 0 1
-14.286530 1.852954 -28.688404 32.102381 -0.128979 2.676218 -0.000846 -0.003094 -202192.000000 0 0 1
-15.314830 2.493054 -29.413564 33.255331 -0.161371 2.656167 -0.005760 -0.002898 95736.700000 0 0 1
-15.938430 3.673854 -28.646424 32.987093 -0.226546 2.622789 -0.008622 0.004421 -1218400.000000 0 0 1
-15.270530 4.890354 -28.793534 32.957127 -0.309928 2.633484 0.003265 0.005726 -267694.000000 0 0 1
-15.271230 5.546754 -30.046574 34.158067 -0.348400 2.645887 0.003145 0.002138 -225700.000000 0 0 1
-16.626630 6.005754 -30.624814 35.360898 -0.346629 2.618072 -0.002212 0.008248 -58671.600000 0 0 1
-17.280930 7.008254 -29.877564 35.219525 -0.385280 2.583608 -0.003953 0.013585 -36873.300000 0 0 1
-18.040730 7.855554 -30.688584 36.454997 -0.410675 2.571445 -0.007248 0.008555 -404828.000000 0 0 1
-18.756530 8.929854 -29.775694 36.306220 -0.444340 2.532428 0.002078 0.012096 -208417.000000 0 0 1
-17.910530 9.954954 -29.278214 35.736563 -0.507297 2.530949 0.005978 0.012857 478861.000000 0 0 1
-18.606730 11.074254 -28.661964 35.921548 -0.536864 2.494607 0.010823 0.008288 -9213.120000 0 0 1
-8.222330 25.283454 31.250983 41.030278 -1.256378 0.704930 -0.026969 0.006327 -708748.000000 0 0 1
-9.051730 26.466454 31.263213 41.949916 -1.241259 0.729885 -0.021479 0.001280 293051.000000 0 0 1
-8.753330 27.559554 32.173193 43.258111 -1.263258 0.732134 -0.000413 0.000559 -869277.000000 0 0 1
-7.495030 28.356154 31.923823 43.351787 -1.312388 0.743077 0.005449 0.000070 -673795.000000 0 0 1
-7.509430 29.114454 30.751903 43.008400 -1.318370 0.774142 0.023695 -0.009970 42882.700000 0 0 1
-6.199930 29.227154 30.245033 42.513853 -1.361766 0.779285 0.024368 -0.006145 -73724.300000 0 0 1
-6.013130 30.389954 29.264893 42.616206 -1.375454 0.813846 0.042798 -0.012634 -296687.000000 0 0 1
-6.108830 31.631754 29.976023 44.005086 -1.380022 0.821403 0.045674 -0.016611 419884.000000 0 0 1
-5.542030 32.724254 29.235783 44.230328 -1.403033 0.848660 0.061515 -0.016043 41210.900000 0 0 1
-5.792830 34.088154 29.818233 45.658363 -1.402468 0.859161 0.058506 -0.016190 -60678.200000 0 0 1
-5.145230 34.284754 31.070293 46.554064 -1.421835 0.840081 0.050530 -0.022077 178614.000000 0 0 1
-5.789430 -33.932284 31.777173 46.847690 1.401806 0.825339 0.040289 -0.028169 272027.000000 0 0 1
-6.970930 -34.435584 32.650403 47.963029 1.371062 0.822023 0.029833 -0.012853 -257196.000000 0 0 1
-6.699830 33.927954 33.642531 48.247421 -1.375832 0.799184 0.030910 -0.008143 -344834.000000 0 0 1
-6.710730 32.601554 33.141792 46.970987 -1.367791 0.787555 0.040670 -0.011947 -192699.000000 0 0 1
-6.637730 31.536654 34.275238 47.046912 -1.363348 0.754618 0.028348 0.001134 -482332.000000 0 0 1
-5.350930 31.297554 -34.398194 46.812445 -1.401464 2.396181 0.019223 0.000387 -385538.000000 0 0 1
-5.420530 30.754754 -33.114604 45.517183 -1.396338 2.385495 0.005689 0.005367 120219.000000 0 0 1
-4.065230 30.671954 -32.325334 44.746196 -1.439025 2.378085 -0.015682 0.014819 1141850.000000 0 0 1
-3.269530 29.461554 -32.427104 43.933928 -1.460272 2.401028 -0.016401 0.018698 564185.000000 0 0 1
-2.824630 29.045254 -33.724034 44.597262 -1.473852 2.428268 -0.006855 0.018796 -657660.000000 0 0 1
-2.255830 27.578754 -33.796234 43.679078 -1.489182 2.455519 -0.006872 0.013399 -347547.000000 0 0 1
-1.021330 27.408154 -33.107664 42.992644 -1.533550 2.449759 0.006583 0.019370 703095.000000 0 0 1
-0.263430 26.223854 -33.401944 42.467043 -1.560751 2.475979 -0.001154 0.022529 435203.000000 0 0 1
0.178970 25.978254 34.250741 42.988545 1.563907 0.648913 -0.004296 0.020743 -1338430.000000 0 0 1
-0.843130 25.527954 33.410944 42.055659 -1.537781 0.652702 -0.004112 0.016789 -377312.000000 0 0 1
-0.736830 25.410054 32.032833 40.893962 -1.541807 0.670816 0.002096 0.012679 -474204.000000 0 0 1
-0.276630 26.678354 31.265563 41.101661 -1.560428 0.706423 -0.001672 0.003674 -803706.000000 0 0 1
-1.243730 27.659954 31.240893 41.744620 -1.525862 0.725178 0.010970 -0.004256 -441862.000000 0 0 1
-0.976630 28.628954 30.242893 41.655773 -1.536696 0.758281 0.014127 -0.009365 366149.000000 0 0 1
-2.011230 29.800854 30.255063 42.514760 -1.503410 0.778971 0.020882 -0.011315 433746.000000 0 0 1
-1.716930 30.552754 31.419923 43.859209 -1.514660 0.772194 0.032054 -0.015133 296070.000000 0 0 1
-2.741030 31.473254 31.763593 44.799607 -1.483925 0.782696 0.029607 -0.012889 263949.000000 0 0 1
-2.296330 32.330354 33.001933 46.256378 -1.499888 0.776377 0.035642 -0.004021 454294.000000 0 0 1
-1.190530 33.167254 32.713783 46.601241 -1.534917 0.792603 0.006184 -0.012005 -116629.000000 0 0 1
-0.324130 33.261954 33.828028 47.442577 -1.561052 0.776985 -0.025265 -0.001368 -880018.000000 0 0 1
1.014870 33.886254 33.597872 47.729709 1.540856 0.789896 -0.010850 -0.009914 -1037350.000000 0 0 1
0.877070 -34.055084 33.279967 47.624302 -1.545048 0.797075 0.008038 -0.018045 86514.000000 0 0 1
2.026570 -33.481884 32.690993 46.838494 -1.510343 0.798263 -0.008564 -0.023261 -77709.100000 0 0 1
1.827770 -32.057184 32.230793 45.495360 -1.513842 0.783509 -0.004808 -0.020963 -321495.000000 0 0 1
1.717970 -31.210884 33.399652 45.745026 -1.515808 0.752289 -0.010626 -0.006859 48607.900000 0 0 1
1.886170 -29.834184 33.036203 44.553640 -1.507659 0.735504 0.004590 -0.016408 -129524.000000 0 0 1
1.529970 -28.853284 34.205929 44.776092 -1.517820 0.701410 0.002166 -0.010256 -654857.000000 0 0 1
0.185970 -28.750284 34.527257 44.930445 -1.564328 0.694365 -0.005777 -0.004154 -825304.000000 0 0 1
-0.030830 -28.181284 -33.325794 43.643948 1.569702 2.439641 -0.010402 0.005664 58418.600000 0 0 1
-1.486230 -27.732884 -33.063044 43.179701 1.517257 2.442938 -0.022321 0.014922 32775.300000 0 0 1
-1.655230 -27.414184 -31.716484 41.954887 1.510491 2.427925 -0.011086 0.013713 169301.000000 0 0 1
-2.736730 -26.517984 -31.525814 41.286439 1.467958 2.439647 -0.008417 0.010381 -14184.000000 0 0 1
-3.089530 -26.165884 -30.053044 39.967288 1.453266 2.421798 -0.006033 0.006971 61770.800000 0 0 1
-3.773330 -27.177784 -29.274104 40.122850 1.432839 2.388550 -0.006179 0.012796 310961.000000 0 0 1
-4.255630 -26.663484 -28.025504 38.916328 1.412526 2.374811 -0.003584 0.007274 -142021.000000 0 0 1
-3.236330 -26.158184 -26.981054 37.718718 1.447700 2.367882 -0.002305 0.004826 115230.000000 0 0 1
-2.620930 -24.920984 -27.433494 37.155367 1.466012 2.401410 -0.005347 0.007582 214702.000000 0 0 1
-1.514230 -24.542284 -26.660334 36.268305 1.509176 2.396590 -0.014031 0.004558 -1241360.000000 0 0 1
-0.800030 -23.275984 -27.206194 35.813244 1.536438 2.433600 -0.005502 0.006423 254913.000000 0 0 1
-0.059730 -23.587884 -28.401754 36.919526 1.568264 2.448523 -0.033669 0.005143 267892.000000 0 0 1
1.119170 -24.342584 -28.226274 37.289897 -1.524853 2.429416 -0.030677 0.001496 -1008070.000000 0 0 1
1.763570 -24.829284 -29.531354 38.622589 -1.499888 2.441238 -0.038386 -0.003085 -650056.000000 0 0 1
2.421970 -23.740384 -30.061414 38.381771 -1.469129 2.470626 -0.025620 0.001433 -347832.000000 0 0 1
3.175570 -24.206784 -31.136474 39.566812 -1.440356 2.476621 -0.021227 0.002744 327808.000000 0 0 1
4.280170 -23.194384 -31.712574 39.521976 -1.388314 2.502108 -0.003188 -0.001460 534936.000000 0 0 1
5.488570 -22.988584 -31.036334 39.010939 -1.336432 2.490761 0.003445 -0.007259 694249.000000 0 0 1
6.497770 -24.002584 -30.940334 39.694449 -1.306422 2.464604 0.009120 -0.002008 477765.000000 0 0 1
7.154270 -24.591084 -32.259574 41.189623 -1.287682 2.470587 0.016915 0.003941 -411529.000000 0 0 1
6.392470 -25.595884 -32.906024 42.176052 -1.326057 2.465792 -0.013773 0.001351 2900.090000 0 0 1
6.582670 -25.694684 -34.365886 43.411547 -1.320002 2.484269 -0.003334 0.009427 83241.300000 0 0 1
6.249670 -24.345284 34.034716 42.309728 -1.319513 0.636101 0.001926 0.008991 -264114.000000 0 0 1
4.939170 -23.885784 34.207391 42.012756 -1.366887 0.619422 0.009366 0.000827 -496951.000000 0 0 1
4.702570 -22.814684 33.338212 40.670141 -1.367523 0.609871 0.023918 0.005577 467101.000000 0 0 1
3.251870 -22.251984 33.507932 40.354764 -1.425685 0.591090 0.016862 -0.004588 1496750.000000 0 0 1
2.112170 -23.077384 33.201972 40.489478 -1.479525 0.609359 0.009849 -0.002692 746745.000000 0 0 1
1.730870 -23.970484 34.272859 41.859394 -1.498713 0.611546 0.005685 0.004711 -868883.000000 0 0 1
0.476570 -24.720384 33.882764 41.944799 -1.551520 0.630396 -0.002628 -0.000891 -588597.000000 0 0 1
0.612170 -25.479684 32.718573 41.474017 -1.546775 0.661790 0.005837 -0.008994 288330.000000 0 0 1
-0.656830 -26.019984 32.366283 41.533688 1.545558 0.677284 0.002378 -0.011345 204285.000000 0 0 1
-0.598630 -27.033284 31.210533 41.294723 1.548656 0.713922 0.017371 -0.030886 720517.000000 0 0 1
-1.928830 -27.339384 30.766373 41.203543 1.500362 0.727721 0.009927 -0.027364 898064.000000 0 0 1
-1.859830 -28.412684 29.864723 41.263074 1.505432 0.761555 0.018364 -0.032070 -1170600.000000 0 0 1
-3.127930 -28.652184 29.114303 40.967966 1.462058 0.780360 0.021627 -0.022656 -488273.000000 0 0 1
-4.199130 -29.038084 30.003313 41.964768 1.427184 0.774223 0.022132 -0.022435 1103680.000000 0 0 1
-5.378530 -29.321884 29.231653 41.751539 1.389382 0.795212 0.026555 -0.012708 415279.000000 0 0 1
-6.525030 -30.004384 29.996993 42.926200 1.356661 0.797072 0.029126 -0.011757 -295227.000000 0 0 1
-7.659030 -30.349884 29.212373 42.815172 1.323600 0.819906 0.037570 -0.008026 332014.000000 0 0 1
-8.861130 -30.526184 29.924753 43.656138 1.288281 0.815554 0.032858 -0.006729 -177658.000000 0 0 1
-8.966730 -31.688084 30.904533 45.162230 1.295037 0.817152 0.032899 -0.004446 -991798.000000 0 0 1
-8.960430 -33.045484 30.405333 45.790584 1.306009 0.844629 0.037796 -0.008815 178683.000000 0 0 1
-10.180330 -33.365084 29.779983 45.866276 1.274650 0.864161 0.029421 -0.008738 -225365.000000 0 0 1
-10.262630 34.505854 29.315853 46.426229 -1.281711 0.887374 0.038664 -0.004970 -240653.000000 0 0 1
-10.384830 33.572054 30.334023 46.422844 -1.270802 0.858691 0.027809 -0.002553 309933.000000 0 0 1
-9.881030 32.288754 29.885973 45.092901 -1.273825 0.846292 0.037724 -0.006832 100836.000000 0 0 1
-10.231930 31.021854 30.715013 44.838151 -1.252202 0.816166 0.035498 0.005698 2175290.000000 0 0 1
-11.697930 30.798654 30.727543 45.050866 -1.207807 0.820216 0.017938 0.020715 2214070.000000 0 0 1
-12.156630 29.544954 31.268643 44.703646 -1.180448 0.796147 0.014934 0.016651 164655.000000 0 0 1
-12.170430 29.463354 32.790553 45.732144 -1.179074 0.771288 0.010186 0.004155 -482218.000000 0 0 1
-13.124130 30.311654 33.366503 46.950641 -1.162192 0.780343 0.015093 0.010194 -26403.100000 0 0 1
-13.204530 30.034654 -34.424354 47.554980 -1.156588 2.380214 0.017580 0.004835 -472542.000000 0 0 1
-14.372030 30.679254 -33.713744 47.795275 -1.132697 2.353753 0.015916 0.005063 -445181.000000 0 0 1
-14.572530 30.110154 -32.415924 46.580812 -1.120052 2.340479 0.021569 -0.001280 -345181.000000 0 0 1
-15.770530 30.532154 -31.827904 46.839486 -1.094019 2.317891 0.024079 -0.002638 -159877.000000 0 0 1
-15.949330 29.951154 -30.394284 45.555079 -1.081479 2.301238 0.048459 -0.011329 -20568.000000 0 0 1
-16.212730 28.578154 -30.341364 44.723169 -1.054759 2.316414 0.037704 -0.019043 110333.000000 0 0 1
-16.157930 28.131154 -28.993254 43.509186 -1.049429 2.300127 0.043611 -0.015254 -217807.000000 0 0 1
-16.643730 26.692854 -28.744834 42.612060 -1.013257 2.311179 0.014858 -0.019102 839895.000000 0 0 1
-18.082930 26.660154 -28.732394 43.166035 -0.974800 2.299127 0.017060 -0.013536 680542.000000 0 0 1
-18.540530 25.356154 -28.434164 42.369652 -0.939433 2.306484 0.002804 -0.015919 28237.900000 0 0 1
-20.040230 25.145954 -28.726394 43.117693 -0.897914 2.299941 0.010576 -0.011501 578672.000000 0 0 1
-20.938130 25.573754 -27.653624 43.094606 -0.884735 2.267503 -0.000903 -0.009465 820242.000000 0 0 1
-22.287430 25.357854 -28.040464 43.886420 -0.849753 2.263906 -0.000949 -0.020581 389773.000000 0 0 1
-23.352530 25.267754 -26.946104 43.702317 -0.824769 2.235191 0.015018 -0.027906 52815.000000 0 0 1
-23.613730 26.554554 -26.370904 44.251295 -0.843950 2.209226 -0.005041 -0.006442 -536926.000000 0 0 1
-24.620330 26.638754 -25.416764 44.292163 -0.824755 2.181987 -0.008146 0.006440 -449667.000000 0 0 1
-24.385030 25.870254 -24.063044 42.929358 -0.814943 2.165818 -0.016078 0.003572 -733843.000000 0 0 1
-24.454030 24.428554 -24.163644 42.173872 -0.784877 2.180901 -0.014720 0.000688 -158342.000000 0 0 1
-25.727930 23.847554 -23.941844 42.471685 -0.747487 2.169671 -0.027181 -0.003826 -144347.000000 0 0 1
-26.413040 23.998554 -22.558244 42.219114 -0.737539 2.134492 -0.024612 0.000481 -658332.000000 0 0 1
-25.800490 23.433154 -21.398544 40.898357 -0.737351 2.121413 -0.028672 0.001902 1104920.000000 0 0 1
-24.648330 24.249254 -21.005844 40.457532 -0.777237 2.116719 -0.011349 0.005443 1331690.000000 0 0 1
-23.734130 23.641754 -19.865744 38.947262 -0.783448 2.106060 -0.000516 0.002546 355079.000000 0 0 1
-24.327930 23.696554 -18.570944 38.707296 -0.772252 2.071199 0.000890 -0.001835 1114690.000000 0 0 1
-23.337930 23.401654 -17.525644 37.409151 -0.786762 2.058372 0.009393 -0.006886 695593.000000 0 0 1
-23.911330 23.593454 -16.130544 37.263886 -0.778707 2.018474 0.004785 -0.007188 -654442.000000 0 0 1
-24.264630 24.884954 -15.822544 38.188821 -0.798019 1.997996 0.006285 -0.015655 -81454.200000 0 0 1
-24.768630 24.972054 -14.539444 38.058953 -0.789488 1.962782 -0.016560 -0.014184 -206794.000000 0 0 1
-25.077910 26.322154 -13.939644 38.936756 -0.809600 1.936929 -0.019883 -0.013226 -83669.400000 0 0 1
-23.867730 26.968154 -13.633144 38.507304 -0.846312 1.932684 -0.001338 -0.017837 -27944.700000 0 0 1
-23.963730 27.780854 -12.466344 38.748496 -0.859033 1.898347 0.006436 -0.024617 -1234850.000000 0 0 1
-22.650030 28.397954 -12.128944 38.295938 -0.897524 1.893062 0.006109 -0.019865 -1518270.000000 0 0 1
-21.833230 27.476854 -11.480044 36.925043 -0.899354 1.886937 0.001824 -0.021028 196.830000 0 0 1
-20.718730 28.215054 -10.948144 36.677198 -0.937410 1.873917 -0.001542 -0.015991 -193207.000000 0 0 1
-19.732930 27.322454 -10.186144 35.208841 -0.945310 1.864299 0.016937 -0.011287 -532405.000000 0 0 1
-18.971330 26.563454 -11.075644 34.470253 -0.950611 1.897909 0.007712 -0.014178 -191050.000000 0 0 1
-18.312630 25.470654 -10.474944 33.073117 -0.947452 1.893067 0.014947 -0.005377 -302191.000000 0 0 1
-17.896630 24.518154 -11.643744 32.511628 -0.940262 1.937072 0.010944 -0.009706 -120884.000000 0 0 1
-17.333830 23.308854 -11.113944 31.101191 -0.931366 1.936223 -0.005621 -0.005129 211975.000000 0 0 1
-17.005230 22.467454 -12.176044 30.695608 -0.922905 1.978683 0.008338 0.005452 -193061.000000 0 0 1
-16.559530 21.069454 -11.732944 29.254092 -0.904682 1.983481 -0.005846 0.023267 -631698.000000 0 0 1
-17.587430 20.309054 -11.242044 29.123168 -0.857092 1.967107 -0.013017 0.027284 -495136.000000 0 0 1
-17.044030 19.107554 -10.725244 27.760195 -0.842416 1.967471 0.005467 0.012296 -590549.000000 0 0 1
-18.028630 17.946154 -10.687344 27.591942 -0.783106 1.968536 0.001559 0.008301 -206408.000000 0 0 1
-18.471230 17.425254 -11.929144 28.055842 -0.756268 2.009971 -0.004490 0.017156 551426.000000 0 0 1
-19.400330 18.200154 -12.680744 29.468961 -0.753490 2.015631 -0.007988 0.025690 -448443.000000 0 0 1
-20.109030 17.594854 -13.911944 30.124643 -0.718815 2.050834 0.001887 0.018804 -485932.000000 0 0 1
-19.304830 17.323254 -15.011544 29.968617 -0.731351 2.095445 0.003505 0.021005 -27387.000000 0 0 1
-20.101530 16.885954 -16.118544 30.806077 -0.698679 2.121429 0.014775 0.020018 255169.000000 0 0 1
-19.312930 16.451954 -17.374744 30.749598 -0.705574 2.171278 0.024793 0.012733 -122109.000000 0 0 1
-18.697630 17.542654 -18.048444 31.354304 -0.753539 2.184169 0.012944 0.015521 149364.000000 0 0 1
-17.958530 17.226854 -19.193044 31.426839 -0.764606 2.227768 0.012894 0.018077 -453487.000000 0 0 1
-17.222630 18.465454 -19.675844 32.011416 -0.820209 2.232740 0.003406 0.014399 68797.000000 0 0 1
-16.084730 18.783154 -18.868744 31.105544 -0.862634 2.222578 -0.001808 0.015757 433303.000000 0 0 1
-15.337230 19.872454 -19.294044 31.660783 -0.913499 2.226098 0.007012 0.010106 -63330.100000 0 0 1
31.704915 31.808354 2.003556 44.955392 0.787027 1.526214 0.017737 -0.012819 -316236.000000 0 0 1
33.015445 31.693354 1.532056 45.791216 0.764970 1.537333 0.017279 -0.011394 -189455.000000 0 0 1
33.212305 32.457154 0.334856 46.439597 0.773899 1.563586 -0.001132 -0.001385 -1081720.000000 0 0 1
34.489900 32.074354 -0.371544 47.100482 0.749125 1.578685 -0.014248 0.001728 -403713.000000 0 0 1
-34.491295 32.636454 0.360256 47.485970 -0.757774 1.563210 -0.028208 0.001467 322796.000000 0 0 1
-33.320440 32.487954 -0.413744 46.539124 -0.772749 1.579687 -0.021618 0.004955 -95084.600000 0 0 1
-32.185350 33.522254 -0.197944 46.472330 -0.805742 1.575056 -0.022620 0.007588 12785.200000 0 0 1
-31.560580 33.332854 1.063156 45.916006 -0.812702 1.547640 -0.014421 0.009824 63379.200000 0 0 1
-31.385740 34.582754 1.705056 46.732630 -0.833823 1.534303 -0.026990 0.004192 -149697.000000 0 0 1
-30.432210 34.510654 2.927156 46.105020 -0.848116 1.507265 -0.005382 0.009171 -235773.000000 0 0 1
-30.527090 -33.630484 3.795056 45.577572 0.833732 1.487434 -0.017981 0.015549 -26728.900000 0 0 1
-29.799430 -33.821484 4.985356 45.351434 0.848533 1.460647 -0.001514 0.005529 -491025.000000 0 0 1
-29.619130 -32.603284 5.924656 44.445118 0.833321 1.437096 0.011897 0.006216 16141.900000 0 0 1
-30.749220 -32.212584 6.706156 45.034849 0.808636 1.421330 0.011652 0.007867 314501.000000 0 0 1
-31.072820 -33.132284 7.699656 46.071174 0.817463 1.402883 0.014892 -0.008900 -328719.000000 0 0 1
-32.250450 -32.686684 8.671456 46.730129 0.792116 1.384150 0.027852 -0.001407 2347690.000000 0 0 1
-33.555020 -32.341584 8.115956 47.305244 0.766986 1.398378 0.010815 0.003049 1565890.000000 0 0 1
-34.207153 -33.398084 7.369856 48.372266 0.773431 1.417844 -0.000583 -0.001809 -1452590.000000 0 0 1
34.392903 -33.200484 7.159156 48.336295 -0.767759 1.422138 -0.004822 0.006888 -568326.000000 0 0 1
33.645685 -33.324184 8.390856 48.093033 -0.780598 1.395427 -0.008666 0.018299 -214978.000000 0 0 1
32.294285 -33.052884 8.150356 46.923792 -0.797006 1.396217 -0.024846 0.027281 -410911.000000 0 0 1
31.491265 -32.996784 9.469956 46.585057 -0.808740 1.366086 -0.031967 0.017401 -472250.000000 0 0 1
30.223945 -32.412884 9.427056 45.309505 -0.820330 1.361206 -0.023873 0.006695 -159734.000000 0 0 1
29.594585 -32.383984 10.707356 45.157605 -0.830374 1.331406 -0.022849 0.018616 -108240.000000 0 0 1
29.840295 -31.061284 11.470756 44.573813 -0.805444 1.310525 -0.022109 0.012205 -362591.000000 0 0 1
29.198295 -29.853284 11.092256 43.206448 -0.796490 1.311162 -0.025966 0.006565 -117272.000000 0 0 1
29.574295 -29.270484 9.875456 42.765930 -0.780235 1.337774 -0.020044 0.005383 -99790.800000 0 0 1
28.996705 -27.878184 9.468456 41.323767 -0.765734 1.339614 -0.016666 -0.001907 -138160.000000 0 0 1
29.129895 -27.549984 8.086256 40.901588 -0.757531 1.371785 -0.007781 -0.009725 -232648.000000 0 0 1
28.483295 -26.377584 7.682856 39.573998 -0.747034 1.375417 -0.009611 -0.006739 -352551.000000 0 0 1
28.736855 -26.159884 6.210856 39.353794 -0.738490 1.412313 -0.021430 0.001917 -1019710.000000 0 0 1
29.957055 -25.606084 5.974456 39.859639 -0.707251 1.420342 0.006069 -0.004692 -1414270.000000 0 0 1
29.985965 -25.136684 4.682756 39.407349 -0.697651 1.451685 -0.001609 -0.001290 -1053310.000000 0 0 1
31.373455 -24.736284 4.256156 40.178256 -0.667656 1.464665 0.032279 -0.008490 -558425.000000 0 0 1
32.163565 -25.898884 3.947256 41.482863 -0.677918 1.475498 0.033758 0.001889 192386.000000 0 0 1
33.542395 -25.561284 3.898156 42.351707 -0.651174 1.478623 0.038729 -0.008346 755309.000000 0 0 1
34.442662 -26.855384 3.964756 43.854622 -0.662248 1.480266 0.039073 -0.002648 81067.300000 0 0 1
34.190428 -27.528684 5.159756 44.197702 -0.677878 1.453787 0.021441 0.000525 -279724.000000 0 0 1
34.703488 -28.825084 5.177056 45.409464 -0.693129 1.456540 0.013425 0.001401 -1146670.000000 0 0 1
34.004185 -29.680084 6.258956 45.567165 -0.717603 1.433004 0.019358 0.005882 29595.800000 0 0 1
32.696985 -30.093084 5.992856 44.839724 -0.743952 1.436745 0.007153 0.017217 -560406.000000 0 0 1
31.721495 -29.089084 5.993756 43.455185 -0.742136 1.432426 0.004955 0.009143 -930284.000000 0 0 1
30.291605 -29.598984 5.674156 42.730284 -0.773834 1.437613 -0.027166 0.005470 -452811.000000 0 0 1
30.128665 -29.769584 4.285056 42.571425 -0.779403 1.469970 -0.040288 0.009044 -179062.000000 0 0 1
28.817255 -29.519184 3.848556 41.432207 -0.797430 1.477774 -0.032335 0.011338 318015.000000 0 0 1
27.819775 -30.707784 4.114456 41.639364 -0.834703 1.471823 -0.016116 0.004054 228524.000000 0 0 1
28.239245 -31.947584 3.502856 42.782859 -0.846934 1.488829 -0.013739 0.010433 -603410.000000 0 0 1
27.114525 -32.743984 3.519656 42.658574 -0.879168 1.488195 0.008453 0.010499 -733871.000000 0 0 1
27.287495 -34.085384 2.774756 43.750657 -0.895712 1.507332 0.013060 0.005519 -256816.000000 0 0 1
27.401715 -33.869484 1.368656 43.587488 -0.890568 1.539391 0.017028 -0.001550 264770.000000 0 0 1
27.527595 34.231054 0.639356 43.931109 0.893518 1.556242 0.012380 0.002297 -571943.000000 0 0 1
27.033545 34.317854 -0.786344 43.693775 0.903576 1.588794 0.012405 0.003477 -128521.000000 0 0 1
28.018795 -34.560384 -1.717644 44.524412 -0.889553 1.609383 -0.006538 0.004998 328975.000000 0 0 1
27.495335 -34.365184 -3.010444 44.113740 -0.895999 1.639092 0.010658 -0.000429 -256050.000000 0 0 1
28.581355 -33.867784 -3.968644 44.493491 -0.869849 1.660111 -0.002227 -0.000807 -57529.300000 0 0 1
28.891315 -32.505784 -3.895644 43.663601 -0.844201 1.660135 -0.005797 0.003536 -30189.300000 0 0 1
29.697985 -32.014084 -4.929344 43.945083 -0.822911 1.683203 -0.018211 0.011570 -411111.000000 0 0 1
29.984875 -30.487484 -4.718644 43.021448 -0.793709 1.680699 -0.013702 0.010536 -1282360.000000 0 0 1
28.989425 -29.595784 -5.128144 41.744401 -0.795748 1.693954 -0.015469 0.005246 -496578.000000 0 0 1
29.200665 -28.177184 -5.077944 40.895208 -0.767562 1.695287 -0.009780 -0.005181 -1032310.000000 0 0 1
30.268825 -27.618484 -5.973044 41.408449 -0.739646 1.715548 -0.004272 -0.011668 -246319.000000 0 0 1
31.563675 -28.055684 -5.554444 42.593882 -0.726626 1.701574 -0.011525 -0.001257 127073.000000 0 0 1
32.636545 -27.731884 -6.406444 43.304087 -0.704331 1.719282 -0.009767 -0.006873 27513.900000 0 0 1
32.841135 -28.647684 -7.638644 44.244534 -0.717305 1.744312 -0.020760 0.001569 -822505.000000 0 0 1
31.733565 -28.651284 -8.510544 43.592941 -0.734398 1.767286 -0.016692 -0.000054 -120040.000000 0 0 1
31.797875 -29.678684 -9.482944 44.518034 -0.750940 1.785455 -0.029447 0.006538 272017.000000 0 0 1
31.509635 -31.143284 -9.131844 45.234409 -0.779551 1.774072 -0.036662 0.007462 250020.000000 0 0 1
32.664505 -31.677284 -8.514744 46.291695 -0.770056 1.755786 -0.037065 0.007814 -217391.000000 0 0 1
32.456395 -33.036584 -8.101544 47.015619 -0.794257 1.743977 -0.037154 -0.004990 -398685.000000 0 0 1
33.571345 -33.533084 -7.223344 47.996662 -0.784828 1.721867 -0.038856 -0.004267 -872041.000000 0 0 1
33.375515 34.568254 -6.504044 48.489089 0.802951 1.705336 -0.039076 -0.008833 168704.000000 0 0 1
32.489875 -34.627384 -5.377844 47.786702 -0.817235 1.683574 -0.031013 -0.005209 142620.000000 0 0 1
32.377515 33.292254 -4.708944 46.678172 0.799327 1.671849 -0.039525 -0.003800 -220876.000000 0 0 1
31.635925 32.407154 -5.513544 45.622960 0.797440 1.691943 -0.020480 -0.014262 -11944.100000 0 0 1
31.879755 31.030454 -5.246744 44.796609 0.771899 1.688189 -0.028514 -0.000031 79990.500000 0 0 1
30.627965 30.197154 -5.599944 43.373952 0.778316 1.700266 -0.005539 -0.008331 12982.400000 0 0 1
30.426825 30.188154 -7.021444 43.432902 0.781461 1.733171 -0.010789 -0.006448 515427.000000 0 0 1
29.142875 29.639954 -7.375244 42.216445 0.793854 1.746398 -0.011489 -0.003869 900630.000000 0 0 1
28.987235 29.593754 -8.864444 42.363055 0.795751 1.781604 -0.005593 -0.003984 -172146.000000 0 0 1
29.360205 28.311254 -9.360744 41.847010 0.767212 1.796395 0.001406 -0.005755 -24169.700000 0 0 1
29.619685 28.173254 -10.747044 42.267682 0.760376 1.827880 -0.011527 -0.001520 -324127.000000 0 0 1
30.883735 28.763054 -11.360444 43.705583 0.749859 1.833747 0.005285 -0.002436 -801689.000000 0 0 1
32.063095 28.193554 -10.825344 44.046641 0.721269 1.819110 -0.010907 -0.005416 -202069.000000 0 0 1
33.258495 28.751154 -11.289844 45.389612 0.712838 1.822167 -0.013046 -0.005154 -107696.000000 0 0 1
33.670475 30.193154 -10.830344 46.504019 0.731003 1.805845 -0.014023 -0.016919 -992763.000000 0 0 1
34.273898 30.229654 -9.580444 46.693864 0.722782 1.777439 -0.013948 -0.009665 53775.800000 0 0 1
33.906315 31.426354 -8.899844 47.079307 0.747457 1.760980 -0.015992 -0.011285 -1099220.000000 0 0 1
34.748510 31.626854 -7.624344 47.600918 0.738402 1.731661 -0.016450 -0.003219 632115.000000 0 0 1
-33.953140 31.924954 -7.793544 47.252066 -0.754621 1.736489 -0.014762 -0.007274 636030.000000 0 0 1
-33.120370 30.867354 -8.278644 46.024867 -0.750203 1.751654 -0.010017 -0.012319 -1413050.000000 0 0 1
-31.740880 31.327254 -8.702144 45.437953 -0.778840 1.763504 0.006340 -0.012834 -1281450.000000 0 0 1
-31.013980 31.804954 -7.607344 45.069876 -0.797989 1.740398 0.002590 -0.011802 502014.000000 0 0 1
-29.629760 32.052854 -7.893444 44.357801 -0.824661 1.749699 0.019220 -0.014369 610628.000000 0 0 1
-29.295370 33.352454 -8.637244 45.223963 -0.850068 1.762965 0.012287 -0.001951 -694228.000000 0 0 1
-29.393690 34.481054 -7.771144 45.970890 -0.864876 1.740657 -0.001102 0.004161 -331260.000000 0 0 1
-28.295630 -34.597884 -6.945944 45.231652 0.885270 1.724970 0.022237 -0.006756 -373029.000000 0 0 1
-28.397830 -33.231784 -6.244444 44.156327 0.863673 1.712689 0.007489 0.005170 448075.000000 0 0 1
-29.540810 -33.145984 -5.366544 44.722650 0.842846 1.691082 -0.006000 0.006180 433003.000000 0 0 1
-29.267360 -33.443184 -4.004144 44.621273 0.851889 1.660653 0.007112 -0.000721 184839.000000 0 0 1
-30.518600 -33.317084 -3.085544 45.287234 0.829209 1.638982 -0.007020 -0.000812 -129293.000000 0 0 1
-30.878580 -32.041284 -2.758444 44.584073 0.803875 1.632706 -0.020402 0.007536 436827.000000 0 0 1
-32.015020 -32.140784 -1.875044 45.403824 0.787358 1.612105 -0.017703 0.004465 457614.000000 0 0 1
-32.592390 -30.756684 -1.429244 44.836148 0.756429 1.602679 0.000625 0.009019 -284799.000000 0 0 1
-33.546940 -30.799584 -0.436044 45.543404 0.742728 1.580371 -0.000174 0.008197 -610537.000000 0 0 1
-34.205388 -29.560684 -0.297844 45.209858 0.712687 1.577384 0.019545 0.003236 148326.000000 0 0 1
-35.008844 -29.317684 1.020356 45.674795 0.697155 1.548455 0.019253 0.003592 53165.000000 0 0 1
33.903845 -30.096484 1.084956 45.348056 -0.725978 1.546869 -0.013583 0.015063 860128.000000 0 0 1
32.857615 -29.837084 2.054056 44.430773 -0.737257 1.524549 -0.012000 0.016546 843547.000000 0 0 1
32.016715 -28.598484 1.844656 42.969129 -0.729066 1.527853 -0.022174 0.021619 -1003350.000000 0 0 1
31.218115 -28.599084 0.679456 42.343122 -0.741642 1.554749 -0.032606 0.021267 499895.000000 0 0 1
30.251185 -27.538284 0.765356 40.915486 -0.738488 1.552089 -0.024968 0.019202 18217.500000 0 0 1
29.264105 -27.584084 -0.426044 40.217546 -0.755854 1.581390 -0.034623 0.012536 -98343.900000 0 0 1
28.139535 -28.412284 -0.139144 39.988881 -0.790221 1.574276 -0.029587 0.019008 146142.000000 0 0 1
28.263985 -29.821884 -0.324744 41.088965 -0.812212 1.578700 -0.024057 0.025574 -434956.000000 0 0 1
27.878745 -30.260084 -1.745344 41.181832 -0.826335 1.613190 -0.016628 0.001586 -435409.000000 0 0 1
26.562315 -29.980784 -2.144044 40.112353 -0.845782 1.624273 -0.004053 0.011885 -277896.000000 0 0 1
26.322185 -30.360484 -3.480144 40.332714 -0.856522 1.657190 -0.000999 0.017568 -89138.900000 0 0 1
24.818365 -30.608184 -3.657544 39.575115 -0.889480 1.663349 0.005284 0.018088 46218.300000 0 0 1
23.847465 -29.614984 -3.598044 38.192863 -0.892862 1.665143 0.017153 0.019035 430730.000000 0 0 1
22.501565 -30.092784 -3.739044 37.760780 -0.928743 1.669978 0.020843 0.010032 1113030.000000 0 0 1
21.524565 -28.870584 -3.906444 36.222614 -0.930147 1.678852 0.011072 0.005601 166263.000000 0 0 1
21.557765 -28.399284 -5.190144 36.030461 -0.921500 1.715348 0.012107 0.003577 164033.000000 0 0 1
21.196465 -27.017584 -5.209644 34.732986 -0.905552 1.721356 -0.000092 -0.002473 -246761.000000 0 0 1
20.600665 -26.471984 -6.502544 34.167768 -0.909486 1.762276 0.014243 -0.028291 251976.000000 0 0 1
19.210265 -26.736684 -6.635144 33.584366 -0.947763 1.769671 0.016462 -0.021539 -65661.400000 0 0 1
18.639865 -25.983684 -7.658344 32.882314 -0.948509 1.805857 0.034752 -0.021968 282796.000000 0 0 1
17.090865 -26.098384 -7.718844 32.137266 -0.991010 1.813351 0.043377 -0.024576 248879.000000 0 0 1
16.527565 -25.391684 -6.655644 31.019278 -0.993785 1.787043 0.030061 -0.015975 -782543.000000 0 0 1
15.185065 -25.718584 -6.477144 30.561170 -1.037442 1.784356 0.033393 -0.016816 -498292.000000 0 0 1
14.501565 -24.958584 -5.310944 29.350169 -1.044446 1.752750 0.016237 -0.007193 -116009.000000 0 0 1
14.922265 -25.459484 -4.062344 29.788621 -1.040647 1.707595 0.008864 -0.002403 91730.900000 0 0 1
14.697365 -24.533284 -3.007644 28.756572 -1.031055 1.675578 0.018007 0.013123 -71691.300000 0 0 1
14.550665 -25.155384 -1.589044 29.103956 -1.046387 1.625422 0.009761 0.007355 -38327.900000 0 0 1
13.587765 -26.187784 -1.555444 29.543980 -1.092176 1.623469 0.018466 0.007974 -91436.400000 0 0 1
14.200765 -27.462984 -1.649744 30.961248 -1.093572 1.624106 0.018495 -0.002852 -505113.000000 0 0 1
13.365965 -28.729684 -1.820844 31.738923 -1.135348 1.628197 0.015066 0.006935 -302685.000000 0 0 1
12.459865 -29.062784 -0.778044 31.630665 -1.165777 1.595397 0.032160 0.000221 13809.700000 0 0 1
11.785265 -30.307584 -0.932844 32.531712 -1.199934 1.599475 0.029857 -0.001280 -332633.000000 0 0 1
12.544765 -31.612184 -0.638444 34.016303 -1.193023 1.589566 0.018158 0.003044 -368929.000000 0 0 1
13.457765 -31.817384 -1.700244 34.588266 -1.170647 1.619973 0.006751 0.011659 -361388.000000 0 0 1
14.167065 -33.023884 -1.516044 35.966387 -1.165547 1.612960 0.003173 0.013366 -506244.000000 0 0 1
15.582665 -32.988184 -2.092344 36.543366 -1.129495 1.628084 -0.001299 0.014591 -22736.900000 0 0 1
16.382565 -32.012084 -1.381344 35.987082 -1.097784 1.609190 -0.006380 0.022359 -158909.000000 0 0 1
17.674165 -31.910384 -1.894344 36.527212 -1.064988 1.622681 0.002412 0.020219 -322748.000000 0 0 1
18.520765 -30.778284 -1.199944 35.941082 -1.029093 1.604189 -0.001456 0.019503 96030.700000 0 0 1
18.133365 -29.480484 -1.571344 34.646601 -1.019350 1.616165 -0.022035 0.020230 188756.000000 0 0 1
18.581265 -28.533084 -0.636644 34.055918 -0.993565 1.589491 -0.014416 0.022177 -218506.000000 0 0 1
18.029765 -27.047584 -0.930944 32.519392 -0.982844 1.599428 -0.017223 0.025864 -198146.000000 0 0 1
18.362765 -26.438484 -2.189744 32.264214 -0.963740 1.638718 -0.017071 0.021901 -25905.400000 0 0 1
17.798965 -27.000984 -3.341544 32.511878 -0.987983 1.673757 -0.000719 0.010109 -353089.000000 0 0 1
32.244765 -29.866884 14.068856 46.148546 -0.747133 1.261005 0.011341 0.001932 -86460.200000 0 0 1
32.680475 -30.229984 15.366856 47.095707 -0.746466 1.238420 -0.000476 0.004150 113363.000000 0 0 1
31.748515 -31.013284 16.079556 47.205340 -0.773684 1.223209 -0.003959 0.016218 181111.000000 0 0 1
32.364865 -31.314184 17.460756 48.300524 -0.768900 1.200918 -0.007887 0.016630 -232209.000000 0 0 1
31.420105 -31.943984 18.270756 48.388652 -0.793666 1.183611 -0.013276 0.012008 -142482.000000 0 0 1
31.878315 -32.317584 19.586156 49.439566 -0.792241 1.163462 -0.012947 0.003511 -144052.000000 0 0 1
32.791385 -33.560684 19.693956 50.886603 -0.796992 1.173403 -0.016158 0.009121 591675.000000 0 0 1
34.014615 -33.350184 18.959256 51.270676 -0.775535 1.192016 -0.015738 0.018945 275185.000000 0 0 1
34.816258 -34.479684 19.081456 52.584431 -0.780541 1.199447 -0.012328 0.004949 -1094300.000000 0 0 1
-34.271869 34.656154 17.996456 51.956544 -0.790973 1.217092 -0.007198 0.008911 -984181.000000 0 0 1
-33.221600 -33.763084 18.174656 50.733999 0.793482 1.204420 -0.012556 0.013183 -184246.000000 0 0 1
-32.353520 -33.731184 17.034856 49.746651 0.806242 1.221292 -0.006839 0.013541 941219.000000 0 0 1
-30.956140 -33.082984 17.436156 48.546740 0.818598 1.203426 -0.006488 0.006854 1359130.000000 0 0 1
-29.937740 -33.075484 16.424856 47.539792 0.835152 1.218028 0.007317 0.000022 324427.000000 0 0 1
-30.123680 -32.120484 15.345656 46.633151 0.817467 1.235476 0.014795 0.004390 -338148.000000 0 0 1
-28.874200 -32.015584 14.454256 45.471338 0.836944 1.247308 0.013623 -0.000383 318061.000000 0 0 1
-27.636440 -31.746684 15.114956 44.722328 0.854504 1.226034 0.018300 -0.003939 269526.000000 0 0 1
-26.697510 -31.451884 14.073656 43.589515 0.866978 1.242038 0.023772 -0.000836 1035410.000000 0 0 1
-25.294090 -31.028984 14.638756 42.624899 0.886870 1.220228 0.024085 -0.002599 1504830.000000 0 0 1
-24.181830 -31.000784 13.723556 41.643072 0.908346 1.234967 0.022590 -0.004339 1140280.000000 0 0 1
-22.989230 -30.579084 14.419456 40.884053 0.926147 1.210350 0.021067 0.007098 1220930.000000 0 0 1
-21.682530 -30.583284 13.547856 39.862435 0.954078 1.224023 0.014452 0.009699 670275.000000 0 0 1
-21.358030 -31.913084 13.143456 40.587693 0.981003 1.241023 -0.008734 0.009291 -933755.000000 0 0 1
-20.114630 -31.894684 12.562456 39.745245 1.008139 1.249207 -0.016306 0.007431 -1177610.000000 0 0 1
-19.728430 -33.287984 12.203056 40.573580 1.035792 1.265303 -0.015234 0.012794 -136845.000000 0 0 1
-20.387930 -33.768984 11.015056 40.955383 1.027626 1.298491 -0.006506 0.008511 325097.000000 0 0 1
-20.481830 34.143054 11.047856 41.319591 -1.030463 1.300128 -0.008571 0.009526 -265537.000000 0 0 1
-21.545130 33.663954 10.070456 41.217332 -1.001479 1.323972 -0.008014 0.008331 -363689.000000 0 0 1
-21.147230 33.853454 8.710856 40.855118 -1.012435 1.355934 -0.011735 0.010644 -81588.000000 0 0 1
-22.275230 33.604954 7.920156 41.087804 -0.985437 1.376820 -0.001497 0.006924 -664463.000000 0 0 1
-22.215530 34.012754 6.411756 41.127944 -0.992208 1.414260 0.005601 0.007729 349668.000000 0 0 1
-21.376330 33.172854 5.578556 39.856066 -0.998373 1.430368 -0.000293 0.006468 1807730.000000 0 0 1
-19.958430 33.019154 5.862056 39.025212 -1.027111 1.420014 -0.017632 0.006605 1383290.000000 0 0 1
-18.995830 34.176254 5.385556 39.469762 -1.063496 1.433922 -0.008888 0.008361 -68334.900000 0 0 1
-19.133730 -33.973384 6.168956 39.475897 1.057877 1.413882 -0.008756 0.012305 192146.000000 0 0 1
-18.504030 -34.020484 7.457556 39.438656 1.072642 1.380558 -0.020112 0.016819 -524312.000000 0 0 1
-18.593030 -32.727984 8.291456 38.543092 1.054157 1.353980 -0.018671 0.015691 -206331.000000 0 0 1
-17.820230 -31.591584 7.836556 37.107956 1.057206 1.358012 -0.022109 0.009515 50108.800000 0 0 1
-17.821430 -30.434584 8.722056 36.330999 1.041058 1.328356 -0.013700 0.013854 301245.000000 0 0 1
-17.280330 -30.641484 10.204356 36.628393 1.057304 1.288469 -0.022377 0.017716 1380110.000000 0 0 1
-15.854030 -30.871184 10.257456 36.188336 1.096364 1.283410 -0.006284 0.009086 697279.000000 0 0 1
-15.406130 -31.243384 11.546656 36.699089 1.112683 1.250729 0.009023 0.003971 -87121.000000 0 0 1
-14.020830 -31.918684 11.510956 36.713596 1.156904 1.251884 0.018600 -0.002591 -356278.000000 0 0 1
-13.090030 -31.001784 11.066156 35.424840 1.171270 1.253095 0.006422 0.006076 -798754.000000 0 0 1
-12.058530 -31.585684 10.301856 35.343908 1.206102 1.275028 0.016355 0.012620 282884.000000 0 0 1
-11.040630 -30.547484 9.754156 33.914419 1.223980 1.279065 0.020414 0.011650 812812.000000 0 0 1
-10.191030 -29.933384 10.757256 33.400346 1.242648 1.242881 0.026734 0.002412 505558.000000 0 0 1
-9.132130 -29.148784 10.190656 32.200883 1.267189 1.248789 0.012873 0.010601 822161.000000 0 0 1
-8.284230 -28.551284 11.346856 31.820676 1.288398 1.206184 0.001526 0.014031 212032.000000 0 0 1
-8.991530 -27.482184 11.967756 31.294492 1.254597 1.178378 -0.002230 0.006055 81715.900000 0 0 1
-8.266930 -26.935984 13.058656 31.055078 1.273012 1.136800 -0.006235 0.004554 -296286.000000 0 0 1
-8.975830 -25.692184 13.668256 30.454475 1.234691 1.105364 0.003934 0.001652 198025.000000 0 0 1
-8.826530 -24.455984 12.927856 29.036739 1.224431 1.109372 -0.001005 0.006070 -56393.300000 0 0 1
-9.431230 -24.390084 11.656956 28.630559 1.201823 1.151464 0.000703 0.007513 -229417.000000 0 0 1
-9.007630 -23.095784 10.954556 27.102674 1.198930 1.154706 -0.004464 0.007001 281698.000000 0 0 1
-7.649130 -23.132284 10.561856 26.554935 1.251446 1.161748 -0.007953 -0.000326 -235810.000000 0 0 1
-7.348230 -21.896684 9.945756 25.147153 1.247019 1.164182 -0.007096 0.002565 -89666.400000 0 0 1
-6.170630 -21.983184 8.961756 24.528557 1.297141 1.196777 -0.001271 -0.009676 -143821.000000 0 1 0
-4.979130 -22.346484 9.606256 24.828154 1.351563 1.173518 -0.001821 -0.016498 -342643.000000 0 1 0
-3.928830 -22.545684 8.655556 24.467575 1.398268 1.209212 0.000387 -0.017688 815659.000000 0 1 0
-2.743330 -23.450884 9.142556 25.319087 1.454344 1.201356 0.004283 -0.013783 195899.000000 0 0 1
-1.914230 -22.766984 10.024656 24.949821 1.486914 1.157323 0.008107 -0.011496 -216536.000000 0 1 0
-0.890730 -23.595684 10.585456 25.876661 1.533065 1.149358 0.009123 -0.014028 333748.000000 0 0 1
-0.091630 -22.890184 11.660356 25.689158 1.566793 1.099657 0.008771 -0.012275 66655.800000 0 0 1
-0.852330 -22.771984 12.882356 26.177181 1.533385 1.056271 0.003283 -0.004257 109437.000000 0 0 1
-0.087930 -22.444884 14.033556 26.471140 1.566879 1.012024 0.004093 -0.003992 -397428.000000 0 0 1
0.656670 -21.123084 14.154256 25.435386 -1.539719 0.980654 -0.002785 -0.008960 -505232.000000 0 0 1
1.914070 -21.120884 13.549256 25.166202 -1.480419 1.002270 0.003860 -0.009662 -823892.000000 0 0 1
2.363470 -19.781584 13.458356 24.042138 -1.451882 0.976674 0.003425 -0.002591 -1055310.000000 0 1 0
3.794570 -19.696684 13.022656 23.915428 -1.380478 0.994968 0.016882 0.001112 -1033070.000000 0 1 0
4.055470 -20.086684 11.704956 23.599316 -1.371576 1.051825 0.016843 -0.005453 -1512790.000000 0 1 0
5.403770 -20.316584 11.589256 24.005732 -1.310837 1.066981 0.031702 -0.001879 -1308270.000000 0 1 0
5.782770 -21.090684 10.275456 24.162830 -1.303187 1.131549 0.029480 -0.010722 -363041.000000 0 1 0
5.704870 -20.301684 9.101856 22.968406 -1.296856 1.163338 0.024987 -0.013726 -387779.000000 0 1 0
5.945370 -21.026784 7.917956 23.241495 -1.295237 1.223154 0.023082 -0.013799 79641.200000 0 1 0
7.378570 -21.549584 7.507156 23.983020 -1.240908 1.252426 0.023058 -0.003730 295597.000000 0 1 0
8.239570 -20.607984 6.942356 23.254587 -1.190442 1.267637 0.023881 -0.014789 -95376.900000 0 1 0
8.780270 -19.536784 7.775056 22.786631 -1.148423 1.222591 0.028338 -0.012383 50171.400000 0 1 0
9.610370 -19.897684 9.007756 23.862454 -1.120850 1.183716 0.019805 -0.006980 -307758.000000 0 1 0
8.788870 -20.118584 10.140256 24.183185 -1.158929 1.138111 0.028811 -0.009042 -602055.000000 0 1 0
9.595770 -20.010284 11.267656 24.888759 -1.123649 1.100982 0.030915 -0.003503 -17653.000000 0 1 0
8.833070 -20.217684 12.586756 25.400872 -1.158891 1.052358 0.036869 -0.008438 -318915.000000 0 0 1
8.685170 -21.578484 12.913256 26.604799 -1.188143 1.064006 0.032517 -0.015297 -171753.000000 0 0 1
7.793170 -21.730584 13.990556 26.994211 -1.226457 1.025958 0.042796 -0.014124 -11842.200000 0 0 1
7.708570 -23.162484 14.594056 28.441329 -1.249522 1.031971 0.045407 -0.018542 158250.000000 0 0 1
7.328070 -24.235384 13.755756 28.814498 -1.277166 1.073114 0.045700 -0.014007 -192070.000000 0 0 1
7.209770 -25.523784 14.440556 30.198907 -1.295496 1.072213 0.045028 -0.012121 254110.000000 0 0 1
7.370370 -26.769784 13.578956 30.908441 -1.302129 1.115945 0.037127 -0.017350 155283.000000 0 0 1
8.683270 -27.093884 13.195956 31.362573 -1.260651 1.136519 0.042286 -0.010004 -306162.000000 0 0 1
8.540070 -28.130584 12.255856 31.850723 -1.276052 1.175815 0.029993 -0.011612 -114176.000000 0 0 1
9.827270 -28.623284 11.577056 32.402096 -1.240075 1.205428 0.027289 -0.015186 -216183.000000 0 0 1
10.579870 -29.445584 12.423456 33.664794 -1.225858 1.192827 0.026408 -0.014879 76266.400000 0 0 1
11.851470 -29.767084 11.871556 34.168267 -1.191894 1.215953 0.034491 -0.011799 168709.000000 0 0 1
12.728370 -30.549484 12.847156 35.501152 -1.176021 1.200513 0.034216 -0.016709 -835863.000000 0 0 1
13.198270 -29.693984 13.914156 35.348702 -1.152545 1.166224 0.039020 -0.012292 585544.000000 0 0 1
14.167370 -30.265884 14.822056 36.557235 -1.132995 1.153328 0.051882 -0.014384 1883800.000000 0 0 1
15.614770 -30.360084 14.167856 36.963278 -1.095759 1.177435 0.053266 -0.008269 280207.000000 0 0 1
16.240170 -29.185384 13.812956 36.143153 -1.063016 1.178649 0.047102 -0.012361 -473916.000000 0 0 1
17.523170 -29.427284 13.316456 36.747170 -1.033712 1.199976 0.034727 -0.003789 -623604.000000 0 0 1
18.461170 -28.256284 13.473756 36.342461 -0.992072 1.190986 0.015003 -0.007099 1380300.000000 0 0 1
19.797970 -28.394384 12.874356 36.931690 -0.961919 1.214720 0.001715 -0.008800 1727140.000000 0 0 1
20.512170 -27.167884 12.803856 36.370067 -0.924093 1.211043 -0.011035 -0.009527 -299772.000000 0 0 1
21.848770 -27.218984 12.061456 36.928587 -0.894409 1.238076 -0.011081 0.000587 -156674.000000 0 0 1
22.807270 -27.889284 12.862756 38.254859 -0.885308 1.227876 -0.006635 -0.011606 -101129.000000 0 0 1
23.837770 -28.462484 12.086156 39.043917 -0.873595 1.256074 -0.013706 -0.019968 45308.700000 0 0 1
24.921870 -29.174284 12.987456 40.508178 -0.863845 1.244420 -0.007958 -0.019681 1257720.000000 0 0 1
25.939170 -28.364584 13.672856 40.796289 -0.830032 1.229032 -0.016628 -0.019283 1969680.000000 0 0 1
27.051070 -28.028884 12.792856 41.000438 -0.803149 1.253480 -0.021244 -0.018468 123395.000000 0 0 1
28.145170 -27.147684 13.381256 41.330441 -0.767360 1.241093 0.003182 -0.025718 -466305.000000 0 0 1
27.840670 -25.808084 13.655356 40.343883 -0.747529 1.225502 0.022568 -0.029427 -113393.000000 0 0 1
27.198070 -25.525384 14.876956 40.157242 -0.753683 1.191284 0.020949 -0.025538 -459170.000000 0 0 1
28.085770 -25.551584 16.143456 41.259000 -0.738187 1.168784 0.010744 -0.017509 -303355.000000 0 0 1
28.543970 -26.833384 16.481056 42.501929 -0.754518 1.172583 0.012161 -0.018054 -540519.000000 0 0 1
29.325270 -26.791384 17.591356 43.441979 -0.740275 1.153884 0.033483 -0.001181 -605934.000000 0 0 1
29.642170 -28.206884 18.116556 44.749259 -0.760592 1.153986 0.008497 0.023977 -300041.000000 0 0 1
28.545070 -28.897684 18.671856 44.704982 -0.791537 1.139919 -0.006372 0.010363 -259021.000000 0 0 1
28.904570 -29.807584 19.624956 45.924995 -0.800777 1.129263 0.001796 0.002748 -15291.000000 0 0 1
27.720670 -30.598384 20.249456 45.986271 -0.834702 1.114822 -0.018423 0.013688 -605412.000000 0 0 1
26.811270 -29.821184 21.004556 45.269621 -0.838496 1.088305 -0.020714 0.018109 955319.000000 0 0 1
25.582970 -30.422884 21.450256 45.168061 -0.871602 1.075947 -0.016533 0.011963 1754900.000000 0 0 1
24.575870 -30.966684 20.332256 44.455703 -0.899956 1.095772 0.012185 0.000755 -491989.000000 0 0 1
25.091670 -32.115884 19.652656 45.246534 -0.907571 1.121484 -0.001790 0.006713 -101621.000000 0 0 1
24.394770 -32.470384 18.488356 44.623424 -0.926468 1.143601 0.009316 0.001037 -507820.000000 0 0 1
24.754970 -31.598884 17.220356 43.678813 -0.906252 1.165545 0.003569 0.005480 -357238.000000 0 0 1
26.047770 -31.852584 16.723356 44.415584 -0.885320 1.184759 -0.007391 0.002072 -71948.100000 0 0 1
26.518870 -30.752584 15.967656 43.634137 -0.859188 1.196149 -0.004439 -0.013690 316912.000000 0 0 1
27.890770 -30.951684 15.242056 44.364649 -0.837370 1.220088 -0.002695 -0.006894 228143.000000 0 0 1
28.016870 -31.996884 14.268356 44.859019 -0.851620 1.247102 0.016326 -0.000631 221336.000000 0 0 1
28.103270 -33.317584 14.668256 45.989270 -0.870090 1.246175 0.018358 -0.007285 -281656.000000 0 0 1
27.134570 -34.278784 13.956256 45.892233 -0.901208 1.261793 0.019844 -0.012204 -302095.000000 0 0 1
27.481070 -34.494584 12.619256 45.872989 -0.898084 1.292112 0.025706 -0.009340 621742.000000 0 0 1
26.680570 33.795554 12.011956 44.702118 0.902509 1.298742 0.023611 -0.016776 -109493.000000 0 0 1
27.227070 33.328554 10.650856 44.334485 0.885818 1.328185 0.021531 -0.014709 76090.100000 0 0 1
28.491470 32.710254 10.827156 44.709640 0.854222 1.326199 0.008171 -0.011017 298106.000000 0 0 1
28.884570 31.903454 9.720056 44.120610 0.835020 1.348668 0.008765 -0.014875 840783.000000 0 0 1
30.398070 31.483054 9.871656 44.862846 0.802930 1.348940 -0.005827 -0.007662 868638.000000 0 0 1
30.647970 30.578754 10.930656 44.652408 0.784268 1.323489 -0.023076 0.000550 -116789.000000 0 0 1
32.015370 30.296154 11.102556 45.454457 0.757814 1.324043 0.001554 -0.002743 -44915.900000 0 0 1
32.204370 29.441954 12.384756 45.357825 0.740617 1.294239 0.000598 0.010410 -181906.000000 0 0 1
31.893570 28.090154 12.256656 44.232140 0.722075 1.290023 -0.008365 0.002547 226348.000000 0 0 1
32.223470 27.346654 13.434356 44.347192 0.703714 1.263025 -0.001699 -0.013771 6423.000000 0 0 1
31.864470 25.924954 13.200656 43.147480 0.682979 1.259868 -0.003818 -0.009102 -56870.200000 0 0 1
32.808070 25.412854 12.286556 43.279812 0.659055 1.282951 0.004278 0.002438 -66556.000000 0 0 1
32.776170 24.047554 11.985056 42.381644 0.632981 1.284096 0.006904 -0.002425 -334912.000000 0 0 1
31.656570 23.534054 11.032356 40.959773 0.639275 1.298082 -0.001595 -0.002608 -547742.000000 0 0 1
30.429270 23.488154 11.639556 40.163580 0.657366 1.276775 -0.006124 -0.007389 -259702.000000 0 0 1
29.338070 23.147554 10.733556 38.881112 0.667994 1.291103 -0.011145 0.001221 1356560.000000 0 0 1
28.076370 22.575554 11.462656 37.806490 0.677222 1.262755 -0.018141 0.001561 315215.000000 0 0 1
27.321670 23.508654 12.186656 38.047931 0.710524 1.244753 -0.007278 -0.000760 -129851.000000 0 0 1
27.069570 22.930954 13.439956 37.937089 0.702815 1.208663 0.026677 -0.005127 -124141.000000 0 0 1
23.139670 9.606454 26.438183 36.423973 0.393499 0.758533 -0.016736 0.012522 -460139.000000 0 0 1
22.971770 8.306754 27.052093 36.448870 0.346978 0.734460 -0.001266 0.000557 -152927.000000 0 0 1
21.644870 7.972454 27.333073 35.765309 0.352910 0.700943 0.004355 -0.006982 -961802.000000 0 0 1
21.430270 6.582654 27.860223 35.760031 0.298018 0.677586 0.025478 -0.010843 -198060.000000 0 0 1
21.763870 6.290654 29.241193 36.990347 0.281373 0.659157 0.020009 -0.005034 -640240.000000 0 0 1
23.125870 6.263954 29.524713 38.023041 0.264516 0.681712 0.010772 -0.008407 -808531.000000 0 0 1
23.326970 6.211154 31.067763 39.343765 0.260227 0.660560 0.022094 -0.006295 -266705.000000 0 0 1
23.233970 7.459654 31.722593 40.022328 0.310670 0.655698 0.031044 -0.007552 103963.000000 0 0 1
22.795670 7.248054 33.014763 40.769492 0.307849 0.627001 0.021901 -0.005764 -551711.000000 0 0 1
22.746570 8.529454 33.857217 41.670963 0.358751 0.622387 0.037695 -0.001496 33073.300000 0 0 1
23.938470 9.312454 33.825607 42.472860 0.371002 0.649469 0.021909 0.005468 89583.100000 0 0 1
24.146370 9.848754 -34.074751 42.908435 0.387279 2.488366 0.026150 0.004467 303710.000000 0 0 1
25.332870 10.852354 -34.164275 43.894482 0.404739 2.462794 0.024577 0.006822 170810.000000 0 0 1
25.007770 12.108554 34.381434 44.205075 0.450921 0.679684 0.022822 0.002861 173386.000000 0 0 1
25.140170 13.139954 -33.841704 44.158209 0.481617 2.443974 0.020877 0.008035 -517595.000000 0 0 1
24.421070 14.448354 -34.282528 44.502082 0.534246 2.450199 0.017074 0.013488 -714284.000000 0 0 1
25.089870 15.074754 33.817239 44.725333 0.541030 0.713449 0.015401 0.011753 160913.000000 0 0 1
24.777270 16.432054 33.677439 44.923217 0.585592 0.723238 0.007915 0.014112 -33610.800000 0 0 1
25.540670 17.391854 -34.495413 46.311293 0.597824 2.411121 -0.002581 0.007328 96598.000000 0 0 1
25.078270 17.405354 -33.141024 45.057668 0.606716 2.397237 -0.002925 0.001807 -40259.600000 0 0 1
26.042970 16.966554 -32.225214 44.772365 0.577417 2.374248 -0.001289 0.004440 -477475.000000 0 0 1
25.420570 16.623854 -30.881464 43.315386 0.579149 2.364485 -0.005547 0.006764 -318202.000000 0 0 1
24.806370 15.398354 -30.957134 42.553606 0.555531 2.385446 0.005559 0.019108 -226770.000000 0 0 1
23.965270 15.114254 -29.866564 41.167784 0.562669 2.382534 0.019312 -0.001279 119616.000000 0 0 1
23.378170 13.689054 -29.941584 40.378552 0.529726 2.406132 0.033455 -0.003093 -36650.100000 0 0 1
22.649470 13.404554 -31.147464 40.777997 0.534388 2.440023 0.027412 -0.002416 520947.000000 0 0 1
22.063170 12.131554 -31.386384 40.237584 0.502732 2.465505 0.032400 0.012294 -134837.000000 0 0 1
21.078670 11.572854 -30.383134 38.747595 0.502099 2.472089 0.032413 0.006371 -102317.000000 0 0 1
19.758370 12.124354 -30.455224 38.274192 0.550382 2.490978 0.037080 0.003806 640413.000000 0 0 1
18.862770 11.425654 -29.608724 36.919184 0.544619 2.501411 0.039399 -0.007486 806391.000000 0 0 1
17.621370 12.303154 -29.164164 36.227458 0.609514 2.506521 0.040389 -0.001823 806194.000000 0 0 1
16.639070 12.521954 -30.153844 36.645767 0.645140 2.537199 0.021920 0.005385 -398371.000000 0 0 1
15.461470 12.975654 -29.561394 35.795260 0.698205 2.542498 0.022380 -0.008408 -1194890.000000 0 0 1
14.621570 13.719754 -30.633494 36.611923 0.753589 2.562041 0.010683 -0.000017 -115769.000000 0 0 1
13.870470 12.925254 -31.521994 36.784347 0.750138 2.600100 -0.002796 0.007433 -565880.000000 0 0 1
12.669570 12.546054 -30.915914 35.689147 0.780500 2.618454 0.006663 0.005266 -290391.000000 0 0 1
11.661570 11.856454 -31.943624 36.013370 0.793685 2.661589 0.005334 0.007763 716083.000000 0 0 1
11.305770 12.674854 -33.022174 37.134032 0.842427 2.666543 0.014213 0.010680 52720.800000 0 0 1
10.148070 12.132854 -33.644004 37.176719 0.874244 2.702117 0.019671 0.012736 326566.000000 0 0 1
9.748670 12.995754 34.298719 37.951658 0.927204 0.442351 0.022756 0.011174 97031.400000 0 0 1
10.593970 12.725054 33.169982 37.072994 0.876533 0.462990 0.015196 0.017010 253519.000000 0 0 1
10.351270 13.478854 32.046223 36.273802 0.915897 0.487613 0.028522 -0.005097 -954301.000000 0 0 1
11.278970 13.268054 30.880723 35.452440 0.866253 0.513468 0.018196 0.000918 -891375.000000 0 0 1
11.232670 11.941154 30.314313 34.463337 0.815961 0.495754 0.012127 0.004985 105918.000000 0 0 1
11.540270 11.973354 28.926383 33.365771 0.803814 0.521751 0.016020 0.007481 -211147.000000 0 0 1
12.077970 10.589254 28.479813 32.697239 0.719815 0.513530 0.017317 0.012245 -223980.000000 0 0 1
11.078770 9.610754 28.514793 32.065545 0.714562 0.475059 0.011944 0.009778 -175465.000000 0 0 1
11.609070 8.339254 28.304233 31.708726 0.622929 0.467645 0.017681 -0.002481 -451786.000000 0 0 1
10.734270 7.151454 28.759863 31.519797 0.587698 0.421593 -0.005288 0.000704 779206.000000 0 0 1
9.668770 6.959654 27.773883 30.221027 0.623896 0.405196 -0.008640 0.004637 477875.000000 0 0 1
8.940670 5.766454 27.962323 29.917872 0.572830 0.363562 -0.006557 -0.001030 -528260.000000 0 0 1
9.608170 4.539754 27.298673 29.294092 0.441398 0.371226 -0.012587 0.001576 -163286.000000 0 0 1
10.490470 3.809754 28.092223 30.228086 0.348353 0.378170 -0.014732 -0.000549 -39605.900000 0 0 1
10.549570 2.501354 27.551703 29.608218 0.232806 0.374905 -0.018862 0.001739 -238485.000000 0 0 1
11.012770 1.487754 28.591013 30.674754 0.134281 0.370711 -0.025536 -0.001666 -283684.000000 0 0 1
9.978870 1.364054 29.514323 31.185474 0.135852 0.328856 -0.025843 0.006932 -248761.000000 0 0 1
10.309670 0.371754 30.483793 32.182125 0.036043 0.326323 -0.015929 0.002753 186037.000000 0 0 1
9.291570 0.292654 31.633233 32.970902 0.031486 0.285827 -0.005576 0.002336 -121730.000000 0 0 1
9.483370 1.370554 32.529633 33.911499 0.143528 0.286458 -0.011149 0.001320 183243.000000 0 0 1
8.512570 1.504054 33.567255 34.662467 0.174881 0.252049 -0.011584 -0.003100 108741.000000 0 0 1
8.801970 2.783854 34.398609 35.615851 0.306321 0.262196 0.004202 -0.004527 -441097.000000 0 0 1
8.573770 3.979654 33.693904 34.994662 0.434572 0.273506 -0.015002 0.000810 35558.300000 0 0 1
9.553470 4.322854 32.732263 34.370873 0.424923 0.310026 -0.016183 0.004649 -295357.000000 0 0 1
9.339170 5.637554 31.985153 33.794262 0.543096 0.328687 -0.012699 0.006873 -119377.000000 0 0 1
9.577170 6.755254 32.828633 34.857923 0.614307 0.342899 -0.010656 0.006374 67881.800000 0 0 1
9.771670 7.925754 32.090453 34.468831 0.681470 0.373656 -0.009414 0.010839 -140578.000000 0 0 1
9.798870 9.150554 33.033253 35.650334 0.751199 0.385554 0.006814 0.004569 145402.000000 0 0 1
8.568670 9.522854 33.651487 36.007353 0.838091 0.363740 0.004951 -0.001949 143557.000000 0 0 1
8.299170 8.846354 -34.281986 36.364663 0.817301 2.801513 0.004102 0.005571 -383203.000000 0 0 1
6.880570 9.149454 -33.802334 35.688268 0.926004 2.815045 0.007061 0.006964 -200461.000000 0 0 1
6.458170 8.493554 -32.593744 34.295780 0.920697 2.825225 0.008866 0.007911 -519906.000000 0 0 1
5.077270 8.574154 -32.450604 33.946082 1.036162 2.843660 0.006070 0.008411 -530200.000000 0 0 1
4.543870 7.762154 -31.235664 32.504838 1.041190 2.861227 0.004289 0.004875 -550405.000000 0 0 1
5.149470 8.184954 -30.054694 31.572062 1.009226 2.830303 0.006498 0.009368 70059.300000 0 0 1
4.840670 7.475354 -28.848454 30.191825 0.996145 2.842165 0.007792 0.004619 -888957.000000 0 0 1
3.433270 7.629554 -28.327044 29.536737 1.147946 2.854406 -0.003695 0.005920 -667815.000000 0 0 1
2.445070 7.045754 -29.148084 30.087070 1.236772 2.891102 -0.003886 0.000510 1373920.000000 0 0 1
1.066770 7.319654 -28.750704 29.687005 1.426075 2.889774 0.011453 0.006883 1497520.000000 0 0 1
0.060070 6.787654 -29.787754 30.551368 1.561947 2.917542 0.015963 -0.002783 -226244.000000 0 0 1
0.097670 7.512554 -31.020414 31.917300 1.557796 2.903967 0.012984 -0.001775 275819.000000 0 0 1
-0.482430 6.705754 -32.038094 32.735902 -1.498977 2.934747 0.028499 -0.001704 -416310.000000 0 0 1
-0.394630 7.280854 -33.494684 34.279154 -1.516648 2.927244 0.031951 -0.010782 -69771.000000 0 0 1
0.936070 7.456654 -33.932664 34.754907 1.445915 2.923638 0.020900 -0.012482 250371.000000 0 0 1
1.657470 6.323454 -34.390589 35.006369 1.314448 2.953751 0.033075 -0.017084 -87735.300000 0 0 1
1.671270 6.194254 33.211502 33.825520 1.307262 0.190828 0.046324 -0.019402 -575144.000000 0 0 1
0.456570 5.673854 32.745133 33.236197 1.490500 0.172113 0.049422 -0.019760 -404489.000000 0 0 1
0.317270 5.728554 31.363153 31.883606 1.515469 0.180932 0.065536 -0.023373 130791.000000 0 0 1
1.136670 4.756454 30.445793 30.836053 1.336221 0.159266 0.077709 -0.027855 -76132.000000 0 0 1
0.823770 4.774154 29.055693 29.456823 1.399931 0.165219 0.065902 -0.026062 -373132.000000 0 0 1
1.604570 3.979354 28.242953 28.567014 1.187514 0.150767 0.041409 -0.017689 -490577.000000 0 0 1
1.400770 4.189654 26.688583 27.051725 1.248140 0.164037 0.043744 -0.019193 -40258.000000 0 0 1
2.096670 5.359654 26.403303 27.023255 1.197903 0.214615 0.039801 -0.012307 -11147.200000 0 0 1
2.186670 5.534454 25.036173 25.733668 1.194520 0.233357 0.043893 -0.016522 -629309.000000 0 0 1
2.777470 6.936854 24.754643 25.857816 1.189951 0.293155 0.047819 -0.010578 2100430.000000 0 0 1
4.227970 7.184454 24.834483 26.196253 1.038884 0.323852 0.030705 -0.001620 1738510.000000 0 0 1
4.872770 6.787454 23.665033 25.096757 0.948152 0.339408 0.028223 -0.007355 415192.000000 0 0 1
6.442770 6.724054 23.546333 25.320979 0.806758 0.376617 0.027312 -0.006932 1200040.000000 0 0 1
7.149870 5.714954 24.313343 25.979222 0.674319 0.360058 0.020627 -0.007529 174368.000000 0 0 1
6.819370 4.332054 24.227943 25.539454 0.565941 0.321863 0.025879 -0.005323 -808847.000000 0 0 1
6.933070 3.649154 22.822533 24.129894 0.484497 0.330686 0.019106 -0.008644 1105200.000000 0 1 0
5.868470 4.014154 21.898733 23.024050 0.599921 0.313940 0.020828 -0.011520 367592.000000 0 1 0
4.617170 3.421154 22.083433 22.818864 0.637693 0.254573 0.023087 -0.010367 -120388.000000 0 1 0
3.540170 3.926154 21.067033 21.720207 0.837049 0.245862 0.018154 -0.015992 214857.000000 0 1 0
3.128270 5.236854 21.281133 22.138142 1.032323 0.279157 0.020787 -0.018505 -662459.000000 0 1 0
2.083670 5.569854 20.448133 21.295330 1.212817 0.283019 0.026062 -0.021391 -763915.000000 0 1 0
1.781570 7.106554 20.627433 21.889909 1.325165 0.341283 0.030429 -0.011145 -135033.000000 0 1 0
2.629170 8.008554 19.974633 21.680301 1.253587 0.399318 0.028516 -0.009494 -453426.000000 0 1 0
2.173170 9.307854 20.118033 22.273169 1.341428 0.443534 0.033853 -0.010778 -81807.700000 0 1 0
3.137970 10.392154 19.591733 22.398208 1.277546 0.505978 0.041227 -0.014701 -1025530.000000 0 1 0
3.259270 10.460354 18.166933 21.215073 1.268747 0.542691 0.018971 -0.017492 -292287.000000 0 1 0
4.109970 11.446154 17.637033 21.423614 1.226064 0.603680 0.017104 -0.014936 83080.500000 0 1 0
5.596070 11.066054 17.891033 21.768386 1.102602 0.606090 0.024879 -0.014862 -530948.000000 0 1 0
5.978070 9.838254 17.279333 20.763042 1.024782 0.587704 0.020572 -0.014936 -837193.000000 0 1 0
7.282970 9.534454 17.640833 21.334162 0.918485 0.597256 0.024383 -0.002684 -548614.000000 0 1 0
7.534570 8.057754 18.088633 21.187161 0.818939 0.547642 0.033898 -0.009340 -54873.700000 0 1 0
7.037470 7.669554 19.374033 21.993208 0.828350 0.493015 0.029751 -0.015476 -27085.100000 0 1 0
7.120670 6.282454 19.631233 21.807303 0.722941 0.450536 0.038783 -0.025135 1113190.000000 0 1 0
8.559670 5.742454 20.022233 22.519626 0.590909 0.475418 0.036930 -0.013271 1520260.000000 0 1 0
9.591170 5.805954 18.992333 22.054668 0.544339 0.533273 0.030596 -0.005146 169795.000000 0 1 0
10.708570 5.010454 19.285633 22.621091 0.437633 0.549949 0.042571 -0.009865 -151609.000000 0 1 0
10.506070 3.486654 19.209633 22.170798 0.320433 0.522772 0.037168 -0.012917 -647000.000000 0 1 0
9.908870 2.900854 20.340033 22.810471 0.284795 0.469715 0.035193 -0.011378 -19684.400000 0 1 0
9.982470 1.528854 20.235733 22.615747 0.151973 0.462896 0.022362 -0.017243 -157762.000000 0 1 0
9.058070 0.865754 21.277933 23.141923 0.095289 0.404107 0.024177 -0.015646 -111012.000000 0 1 0
9.395770 0.881254 22.688333 24.572700 0.093519 0.394173 0.016345 -0.014422 -88967.900000 0 1 0
8.523870 0.089654 23.438533 24.940514 0.010518 0.348818 0.008680 -0.012370 -277565.000000 0 1 0
9.139670 0.022254 24.848003 26.475599 0.002435 0.352465 0.001787 -0.002467 636220.000000 0 0 1
10.448770 -0.536946 24.992953 27.094516 -0.051343 0.396455 -0.006175 -0.009221 588573.000000 0 0 1
10.492070 -1.944546 24.935953 27.123174 -0.183256 0.404346 -0.014376 -0.008478 -148132.000000 0 0 1
11.917470 -2.412246 25.297163 28.067623 -0.199714 0.448050 -0.020224 -0.002344 -101568.000000 0 0 1
12.012870 -3.815246 25.187313 28.164976 -0.307521 0.463982 -0.012815 0.005080 -604430.000000 0 0 1
13.281670 -4.345446 25.422403 29.010071 -0.316199 0.502606 -0.011709 0.013759 -659039.000000 0 0 1
13.254670 -5.899346 25.537503 29.370949 -0.418752 0.516644 -0.008497 0.008496 -469409.000000 0 0 1
13.081870 -6.622546 24.356333 28.429288 -0.468626 0.541893 0.008188 0.002069 3905.090000 0 0 1
12.892370 -7.992646 24.608303 28.907857 -0.554961 0.552401 0.022170 -0.008564 -114831.000000 0 0 1
12.645170 -8.882746 23.374633 28.021010 -0.612376 0.584148 0.040209 -0.005415 -602.809000 0 0 1
12.120470 -10.144946 23.653933 28.448801 -0.696904 0.589073 0.030381 0.002168 -422613.000000 0 0 1
12.122170 -10.951246 22.508333 27.811901 -0.734694 0.627827 0.037161 -0.001406 394322.000000 0 0 1
11.272770 -12.275146 22.561433 28.049471 -0.827940 0.636225 0.028224 0.005823 314650.000000 0 0 1
9.876570 -12.090946 22.664533 27.521240 -0.885861 0.603193 0.021165 0.012388 -64685.100000 0 0 1
9.247770 -13.406046 22.714133 27.949511 -0.966935 0.622052 0.021880 0.016685 1131340.000000 0 0 1
7.703870 -13.213746 22.948833 27.579007 -1.042956 0.587891 0.009025 0.018645 947180.000000 0 0 1
6.903170 -12.697346 21.924433 26.259420 -1.072826 0.582815 0.010007 0.015989 -1267810.000000 0 0 1
5.590070 -12.519546 22.285133 26.165150 -1.150851 0.551555 -0.002704 0.015700 -1002020.000000 0 0 1
4.941270 -11.270146 21.636333 24.891028 -1.157598 0.517129 -0.013636 0.020853 2227.620000 0 1 0
5.204370 -10.097246 22.346633 25.068144 -1.094885 0.470293 -0.018420 0.023863 -152919.000000 0 0 1
4.837770 -8.977046 21.540933 23.832817 -1.076512 0.442147 -0.017939 0.019646 -33124.400000 0 1 0
5.108270 -7.637246 22.186133 24.013464 -0.981275 0.392635 -0.020096 0.012709 -138372.000000 0 1 0
4.775970 -6.574046 21.322633 22.818472 -0.942513 0.364096 -0.021430 0.001572 50839.300000 0 1 0
5.356770 -5.354846 21.812933 23.090548 -0.785219 0.334211 -0.000474 -0.004300 -82913.400000 0 1 0
-8.176630 -15.460546 -20.469644 26.923820 1.084320 2.434540 0.023367 0.005614 17137.200000 0 0 1
-7.505030 -14.863146 -19.330044 25.512530 1.103203 2.430530 0.032428 0.000255 -55727.900000 0 0 1
-6.690830 -13.814446 -19.774944 25.033068 1.119758 2.481528 0.029969 -0.002875 -2544.040000 0 0 1
-5.821730 -13.246846 -18.607944 23.571742 1.156725 2.480656 0.036983 -0.004623 -532473.000000 0 1 0
-4.784230 -14.080346 -18.271744 23.558472 1.243254 2.458447 0.034180 0.006137 -651763.000000 0 1 0
-4.217130 -13.830246 -16.974844 22.298099 1.274831 2.436064 0.029764 0.000154 227424.000000 0 1 0
-3.236030 -14.888246 -16.506144 22.462959 1.356771 2.396192 0.022159 0.013453 1278300.000000 0 1 0
-2.007030 -15.065146 -17.284544 23.016130 1.438353 2.420334 0.016462 0.010908 1716320.000000 0 1 0
-1.097530 -15.994546 -16.629144 23.098885 1.502285 2.374471 0.016776 0.019082 993881.000000 0 1 0
0.314170 -16.089146 -17.295644 23.624111 -1.551272 2.392223 0.005857 0.021635 467236.000000 0 1 0
0.346370 -16.983846 -18.411144 25.050773 -1.550405 2.396394 0.021757 0.014639 -231954.000000 0 0 1
0.118670 -18.378446 -18.261244 25.908577 -1.564339 2.352985 0.018483 0.021015 -300203.000000 0 0 1
-0.381330 -18.898346 -19.602744 27.231608 1.550621 2.374386 0.029883 0.006357 -574269.000000 0 0 1
-1.619430 -18.337246 -19.890744 27.102008 1.482711 2.394874 0.037726 -0.001001 -780596.000000 0 0 1
-2.084630 -18.791546 -21.160344 28.376540 1.460314 2.412379 0.037196 -0.003164 538669.000000 0 0 1
-3.284430 -17.952246 -21.741044 28.385623 1.389844 2.443263 0.044297 -0.005298 429996.000000 0 0 1
-3.069830 -16.603846 -21.811444 27.583521 1.387974 2.482816 0.042024 0.000903 -285968.000000 0 0 1
-3.224830 -15.756546 -20.669944 26.189976 1.368918 2.480352 0.049190 -0.001975 -407502.000000 0 0 1
-2.357030 -14.515946 -20.728444 25.415284 1.409826 2.524544 0.034776 -0.002377 -149735.000000 0 0 1
-2.754030 -13.531446 -21.673144 25.698441 1.370011 2.574310 0.036298 -0.015387 119277.000000 0 0 1
-1.856030 -12.434446 -21.604844 24.996591 1.422625 2.614576 0.025259 0.000145 254635.000000 0 1 0
-1.908430 -11.557646 -22.860644 25.687162 1.407150 2.668062 0.027899 0.006071 218524.000000 0 0 1
-2.993030 -10.635646 -22.871744 25.400627 1.296476 2.691577 0.033440 -0.004045 374537.000000 0 0 1
-3.017130 -9.866446 -24.048244 26.168069 1.274030 2.736312 0.026317 -0.006990 -11003.300000 0 0 1
-4.197030 -8.850246 -23.960044 25.884853 1.127979 2.753519 0.022387 -0.005971 613798.000000 0 0 1
-5.489730 -9.430446 -24.189644 26.536942 1.043621 2.717825 0.001034 -0.000805 10727.900000 0 0 1
-6.427130 -8.487146 -23.847744 26.116173 0.922653 2.721720 0.019258 -0.002932 -1180760.000000 0 0 1
-7.850230 -9.048546 -24.003544 26.826711 0.856191 2.678696 -0.005632 0.000335 -192398.000000 0 0 1
-8.531730 -9.088846 -25.244414 28.154537 0.817005 2.682912 -0.016466 -0.008775 150428.000000 0 0 1
-8.911330 -7.882146 -25.867114 28.471874 0.724190 2.710512 -0.029902 -0.002601 -32461.200000 0 0 1
-9.398030 -8.118346 -27.339964 30.028388 0.712471 2.715217 -0.034247 0.001281 142733.000000 0 0 1
-9.797430 -6.960646 -28.007444 30.477157 0.617709 2.736244 -0.027653 -0.003520 64451.100000 0 0 1
-10.383730 -7.329946 -29.241914 31.884784 0.614679 2.731570 -0.005889 -0.012167 -33877.100000 0 0 1
-10.870730 -6.172446 -30.162304 32.650213 0.516410 2.748689 0.007200 -0.015874 -363557.000000 0 0 1
-9.908530 -5.427346 -30.782314 32.790027 0.501110 2.789841 -0.028821 -0.006227 -881638.000000 0 0 1
-10.645530 -4.726446 -31.784434 33.851393 0.417840 2.790333 0.028585 -0.019879 263366.000000 0 0 1
-9.836930 -3.703446 -32.555124 34.209893 0.360071 2.829291 0.009918 -0.018588 -565245.000000 0 0 1
-8.999030 -4.254346 -33.509194 34.956374 0.441616 2.852842 -0.013940 -0.004250 -564955.000000 0 0 1
-8.255230 -3.215046 -34.076595 35.209369 0.371384 2.887244 -0.006675 0.000476 359436.000000 0 0 1
-7.201230 -3.742446 34.006794 34.961774 0.479280 0.234266 -0.006420 0.000295 989537.000000 0 0 1
-6.154030 -4.522846 -34.570937 35.404489 0.633793 2.924168 -0.018869 -0.000042 -255178.000000 0 0 1
-5.091030 -4.666646 33.715212 34.415283 0.741933 0.202046 -0.022731 0.003643 583879.000000 0 0 1
-3.674730 -4.114746 34.133927 34.576867 0.841827 0.160236 -0.022081 0.008756 926535.000000 0 0 1
-3.701630 -2.689446 34.103110 34.408680 0.628328 0.133370 -0.007651 0.000497 273061.000000 0 0 1
-2.447030 -2.186346 34.541430 34.696952 0.729195 0.094717 -0.005664 0.000282 376712.000000 0 0 1
-2.634930 -0.790746 -34.006424 34.117517 0.291550 3.060871 0.004138 -0.003135 -149638.000000 0 0 1
-3.412730 -0.799246 -32.832814 33.019376 0.230049 3.035240 -0.001333 -0.003067 235949.000000 0 0 1
-3.544030 0.519754 -32.295144 32.493178 -0.145618 3.031131 0.010291 -0.005592 -939034.000000 0 0 1
-3.596630 0.474254 -30.773204 30.986299 -0.131104 3.024247 0.030101 -0.001976 457393.000000 0 0 1
-4.712630 -0.154446 -30.157634 30.524017 0.032761 2.986498 0.008507 -0.003099 449125.000000 0 0 1
-5.978930 0.448054 -30.391214 30.976995 -0.074799 2.946810 0.004859 -0.004986 -187767.000000 0 0 1
-7.146830 -0.537046 -30.601844 31.429897 0.075004 2.911538 -0.001841 -0.007257 -28266.100000 0 0 1
-7.468130 -1.062746 -29.350644 30.304499 0.141355 2.890029 -0.014504 -0.001176 235224.000000 0 0 1
-8.346530 -2.199546 -29.441934 30.681102 0.257670 2.856414 -0.011549 -0.001577 364271.000000 0 0 1
-8.770730 -2.908046 -28.114514 29.594059 0.320156 2.824049 -0.023993 0.004459 -87341.400000 0 0 1
-9.643330 -2.112246 -27.354774 29.081593 0.215632 2.795253 -0.023815 0.001625 108824.000000 0 0 1
-10.178630 -2.756546 -26.214974 28.256466 0.264473 2.759138 -0.026053 0.007465 -93648.500000 0 0 1
-11.116230 -1.869046 -25.371754 27.763101 0.166579 2.723502 -0.028258 0.013046 89832.300000 0 0 1
-10.474930 -0.759546 -24.731344 26.868949 0.072384 2.740009 -0.015593 0.006820 357931.000000 0 0 1
-11.436530 0.004154 -23.984644 26.571740 -0.000363 2.696655 -0.009959 0.003259 464789.000000 0 0 1
-10.852830 1.252054 -23.268244 25.705305 -0.114859 2.702628 -0.010261 0.002095 142472.000000 0 0 1
-10.487330 2.333654 -24.109744 26.395260 -0.218954 2.722385 -0.015486 -0.000855 259640.000000 0 0 1
-9.752130 3.383854 -23.436844 25.609376 -0.333987 2.726717 -0.005402 0.002619 -56691.000000 0 0 1
-9.548130 4.681954 -24.279144 26.505929 -0.455900 2.728763 -0.000502 -0.006848 -107546.000000 0 0 1
-10.725130 5.406554 -24.616344 27.390210 -0.466923 2.687656 -0.001468 -0.002658 -143206.000000 0 0 1
-11.366830 4.889854 -25.746284 28.565479 -0.406255 2.693575 -0.007708 -0.003050 -14312.400000 0 0 1
-12.788530 5.422854 -26.023844 29.499055 -0.401058 2.651294 -0.004257 0.000050 186911.000000 0 0 1
-12.658630 6.754254 -26.425284 30.069195 -0.490141 2.644171 0.010453 -0.001280 -634488.000000 0 0 1
-13.876830 7.373754 -26.675724 30.960182 -0.488429 2.609237 0.020508 -0.005029 -845031.000000 0 0 1
-13.869430 8.891854 -26.838544 31.491802 -0.570101 2.591047 0.035042 -0.005323 -434922.000000 0 0 1
-13.948130 9.520954 -25.586064 30.656900 -0.598950 2.558192 0.039402 -0.015913 -8006.840000 0 0 1
-14.114130 10.915054 -25.666084 31.258517 -0.658274 2.534116 0.047630 -0.016397 -14003.500000 0 0 1
-13.794530 11.679354 -24.383144 30.351838 -0.702555 2.503696 0.034616 -0.020282 -370845.000000 0 0 1
-14.810030 11.586154 -23.439544 30.049761 -0.663866 2.465501 0.044156 -0.016478 -215107.000000 0 0 1
-14.419930 12.229154 -22.212744 29.170063 -0.703374 2.436407 0.039433 -0.012583 39604.700000 0 0 1
-15.494730 12.074154 -21.094244 28.824277 -0.661955 2.391788 0.037944 -0.011500 691815.000000 0 0 1
-16.690830 12.799254 -21.367644 29.983010 -0.654194 2.364077 0.032090 -0.012626 85741.300000 0 0 1
-17.350630 13.180254 -20.193644 29.707687 -0.649643 2.318211 0.033073 -0.000023 131158.000000 0 0 1
-18.828930 13.595654 -20.413244 30.920396 -0.625380 2.291864 0.034971 -0.003180 207649.000000 0 0 1
-19.118530 14.720154 -21.231544 32.139999 -0.656142 2.292408 0.023003 -0.005736 768277.000000 0 0 1
-20.522130 14.828154 -21.514944 33.225363 -0.625697 2.275156 0.022149 -0.002140 878996.000000 0 0 1
-20.862030 16.110554 -22.298344 34.525213 -0.657585 2.272941 0.014336 -0.004868 -195504.000000 0 0 1
-20.444930 16.054454 -23.651044 35.144167 -0.665684 2.309016 0.018777 -0.008812 67796.800000 0 0 1
-20.850230 17.185554 -24.372944 36.388401 -0.689347 2.304735 0.002054 -0.006462 -170741.000000 0 0 1
-20.370430 17.184354 -25.809744 37.099856 -0.700763 2.340167 -0.000426 -0.010153 -162856.000000 0 0 1
-18.994930 17.434554 -25.991084 36.610210 -0.742592 2.360211 0.009474 -0.008723 7041.210000 0 0 1
-18.659830 17.056354 -27.308884 37.214024 -0.740533 2.394744 0.003418 -0.009952 -287040.000000 0 0 1
-17.906630 18.226054 -27.965734 37.880320 -0.794238 2.401292 -0.006329 -0.001022 -429765.000000 0 0 1
-18.729630 19.338054 -28.214084 38.997357 -0.801379 2.379637 -0.023305 -0.006862 400675.000000 0 0 1
-18.031230 20.571054 -28.032144 39.167519 -0.851098 2.368420 -0.036197 -0.003954 -271592.000000 0 0 1
-18.984330 21.807754 -28.261224 40.431172 -0.854503 2.344789 -0.005451 -0.011637 500234.000000 0 0 1
-19.932630 22.086554 -27.240504 40.338203 -0.836614 2.312172 0.009026 -0.007710 446137.000000 0 0 1
-21.107930 21.286354 -27.395624 40.610020 -0.789607 2.311222 0.037714 -0.021032 -268075.000000 0 0 1
-22.180230 21.662054 -26.350864 40.688760 -0.773580 2.275253 0.028339 -0.002347 -219166.000000 0 0 1
-21.860030 21.116854 -25.056244 39.390326 -0.768107 2.260231 0.005303 0.005931 155896.000000 0 0 1
-22.609930 21.710554 -23.986844 39.470568 -0.765108 2.223976 -0.001155 -0.004782 115556.000000 0 0 1
-22.245930 21.120954 -22.613944 38.109927 -0.759463 2.206057 0.003959 0.006925 1531790.000000 0 0 1
-20.986130 21.658154 -22.072044 37.372027 -0.801156 2.202603 0.009686 0.007279 1234110.000000 0 0 1
-20.181330 20.814754 -21.283444 35.965609 -0.800848 2.204052 0.012583 0.008696 -84199.300000 0 0 1
-20.822130 20.152254 -20.053844 35.239623 -0.769051 2.176172 0.023896 0.009016 -1045190.000000 0 0 1
-21.608830 19.003454 -20.366644 35.254403 -0.721334 2.186711 0.034983 0.004439 189046.000000 0 0 1
-22.154230 18.361654 -19.224544 34.605539 -0.692063 2.159801 0.026050 0.007506 375509.000000 0 0 1
-23.180830 19.192754 -18.357144 35.251913 -0.691558 2.118516 0.003681 0.001663 -796730.000000 0 0 1
-24.355830 19.454554 -19.051444 36.532774 -0.673987 2.119392 -0.004817 -0.001433 -712037.000000 0 0 1
-25.148530 20.449054 -18.483244 37.312768 -0.682697 2.089045 -0.008020 -0.008561 -1312580.000000 0 0 1
-26.544090 20.472554 -19.137444 38.599947 -0.656973 2.089540 -0.036914 0.012637 327226.000000 0 0 1
-27.477140 19.444854 -18.731944 38.522477 -0.615858 2.078601 -0.033014 0.008620 604316.000000 0 0 1
-27.796940 19.379154 -17.367844 38.077073 -0.608823 2.044430 -0.033647 0.005948 -1109910.000000 0 0 1
-28.862670 18.302554 -17.085644 38.209376 -0.565135 2.034382 -0.043725 0.010043 -291240.000000 0 0 1
-28.340570 17.038854 -17.212444 37.279735 -0.541314 2.050719 -0.025300 0.003330 188553.000000 0 0 1
-29.283100 16.067254 -16.796344 37.386812 -0.501835 2.036732 -0.034632 0.001492 -16522.100000 0 0 1
-28.585390 14.812654 -16.259644 36.068202 -0.478093 2.038461 0.002723 0.002845 281942.000000 0 0 1
-27.691870 15.058054 -15.155944 34.975524 -0.498049 2.018981 -0.002369 0.003897 292394.000000 0 0 1
-28.411830 15.242554 -13.977544 35.141702 -0.492409 1.979857 -0.027760 0.006068 -544979.000000 0 0 1
-27.636000 15.830854 -12.773344 34.315051 -0.520205 1.952215 -0.027185 0.000231 -254272.000000 0 0 1
-27.237370 17.168254 -12.766844 34.635467 -0.562416 1.948305 -0.021451 0.002900 645775.000000 0 0 1
-28.294700 18.139154 -12.883944 35.994651 -0.570079 1.936858 -0.033194 0.007489 344921.000000 0 0 1
-27.730920 19.582054 -13.021444 36.359576 -0.614838 1.937060 -0.009869 -0.000730 216212.000000 0 0 1
-26.932490 20.013654 -11.924844 35.610493 -0.639073 1.912262 -0.028509 -0.020395 496435.000000 0 0 1
-26.190440 21.224154 -12.202444 35.851129 -0.681037 1.918101 -0.024655 -0.022285 237570.000000 0 0 1
-25.413480 21.823754 -10.997544 35.257157 -0.709550 1.888013 -0.017478 -0.011524 -253974.000000 0 0 1
-26.014370 22.805354 -10.162644 36.057051 -0.719761 1.856517 -0.023010 -0.019462 -66299.200000 0 0 1
-25.836240 24.123354 -10.625644 36.910050 -0.751126 1.862808 -0.011010 -0.018123 -258159.000000 0 0 1
-26.364280 25.092554 -9.531944 37.624054 -0.760689 1.826935 0.001277 -0.002758 186674.000000 0 0 1
-25.624990 25.044054 -8.294744 36.778356 -0.773933 1.798287 0.003189 -0.006138 536534.000000 0 0 1
-26.344470 25.800554 -7.337344 37.597025 -0.774968 1.767214 0.013332 -0.009974 357099.000000 0 0 1
-26.104890 25.114554 -5.980944 36.714817 -0.766065 1.734428 0.016718 -0.007262 160078.000000 0 0 1
-26.696870 23.842154 -5.997944 36.292513 -0.728973 1.736825 0.010966 -0.011603 -167478.000000 0 0 1
-26.406830 23.069154 -4.841344 35.396965 -0.718040 1.707999 0.004912 -0.004898 16222.200000 0 0 1
-26.965920 21.666354 -5.023144 34.954595 -0.676854 1.715000 -0.019119 0.001756 -267856.000000 0 0 1
-26.274370 20.782454 -5.868044 34.010099 -0.669216 1.744202 -0.020882 -0.007720 -106242.000000 0 0 1
-26.296450 21.108454 -7.243744 34.489736 -0.676392 1.782398 -0.018367 -0.008334 -665706.000000 0 0 1
-27.068670 20.084454 -8.044144 34.652654 -0.638350 1.805070 -0.032645 -0.008746 -814346.000000 0 0 1
-26.525280 18.814154 -8.051244 33.502020 -0.616935 1.813493 -0.038807 -0.002208 -47013.500000 0 0 1
-26.972260 18.020054 -9.144544 33.702341 -0.588991 1.845574 -0.042064 0.001144 -296243.000000 0 0 1
-26.406820 16.573354 -9.347944 32.548122 -0.560479 1.862103 -0.027652 0.002326 -103715.000000 0 0 1
-26.927160 15.616554 -8.450044 32.254487 -0.525550 1.835870 -0.049884 0.011356 189002.000000 0 0 1
-26.727620 14.333554 -8.955444 31.623036 -0.492251 1.857919 -0.036817 0.003427 -197321.000000 0 0 1
-27.281480 13.262454 -7.992144 31.369510 -0.452493 1.828411 -0.024923 0.000994 -1125490.000000 0 0 1
-28.655520 13.273454 -8.163344 32.618454 -0.433783 1.823753 -0.017139 0.005265 -1127570.000000 0 0 1
-29.262650 12.359554 -7.266044 32.586142 -0.399638 1.795666 -0.017226 0.001378 -195096.000000 0 0 1
-29.943310 11.167354 -8.036544 32.952961 -0.356972 1.817160 -0.009386 0.004528 -157729.000000 0 0 1
-29.042040 10.331954 -8.710544 32.032217 -0.341796 1.846195 0.005879 0.006149 109641.000000 0 0 1
-29.786450 9.146054 -8.997344 32.432007 -0.297916 1.851906 0.000869 0.016290 -151018.000000 0 0 1
-28.865710 7.954554 -9.192344 31.320972 -0.268897 1.868670 0.037345 0.005046 -903757.000000 0 0 1
-28.228470 7.934354 -10.434344 31.123560 -0.274006 1.912673 0.039175 -0.006522 -11194.200000 0 0 1
-27.598620 6.663254 -10.642844 30.320832 -0.236901 1.929443 0.051507 -0.016495 -14909.200000 0 0 1
-26.728700 6.826254 -11.931244 30.056209 -0.250046 1.979003 0.055769 -0.017170 -87735.400000 0 0 1
-25.741630 7.826554 -11.931144 29.431932 -0.295162 1.988192 0.062591 -0.020911 214061.000000 0 0 1
-24.760530 7.591754 -12.901144 28.933684 -0.297507 2.032961 0.055611 -0.008303 -331041.000000 0 0 1
-30.866510 26.657854 -34.256649 53.262562 -0.712365 2.269422 0.006475 -0.002829 115984.000000 0 0 1
-31.343450 27.983854 -34.444269 54.331534 -0.728830 2.257465 0.012356 -0.009864 109936.000000 0 0 1
-31.026700 28.437954 33.421413 53.743503 -0.741891 0.899669 0.015292 -0.014946 -94236.700000 0 0 1
-31.480150 29.858154 33.071373 54.554788 -0.758961 0.919516 0.020222 -0.014682 15633.500000 0 0 1
-31.593350 30.137954 31.698663 53.955920 -0.761826 0.942840 0.037886 -0.014433 -229.976000 0 0 1
-31.824540 31.528254 31.601813 54.822502 -0.780721 0.956433 0.050539 -0.019398 -50046.300000 0 0 1
-31.617650 32.009054 30.158123 54.164266 -0.791550 0.980280 0.051712 -0.025819 1594640.000000 0 0 1
-30.208140 31.861154 29.785973 53.055339 -0.812024 0.974704 0.035680 -0.021943 1589190.000000 0 0 1
-29.971440 32.660754 28.656943 52.784775 -0.828310 0.996908 0.030708 -0.018952 9964.890000 0 0 1
-28.541780 32.601354 28.088413 51.637587 -0.851695 0.995656 0.024156 -0.018023 -296336.000000 0 0 1
-28.344250 31.307454 27.460893 50.375131 -0.835032 0.994255 0.036598 -0.022045 -162650.000000 0 0 1
-27.118180 31.181254 26.786283 49.246027 -0.854979 0.995685 0.008321 -0.007561 -294576.000000 0 0 1
-26.900980 31.790554 25.381823 48.770267 -0.868516 1.023434 0.008398 -0.010799 -455487.000000 0 0 1
-26.847440 33.210654 25.395113 49.685454 -0.890955 1.034312 -0.002627 -0.016269 267775.000000 0 0 1
-27.929890 33.810954 24.699713 50.332248 -0.880366 1.057865 0.002336 -0.014318 -15337.900000 0 0 1
-28.196980 -34.077184 25.200533 50.905707 0.879543 1.052912 0.007343 -0.013607 -119524.000000 0 0 1
-28.725820 -34.131884 26.532913 51.905238 0.871192 1.034239 0.018269 -0.029657 313948.000000 0 0 1
-28.676720 -32.845084 27.071043 51.322462 0.853049 1.015177 0.018093 -0.029019 -301929.000000 0 0 1
-29.160590 -32.847184 28.519843 52.370401 0.844782 0.994909 0.034115 -0.026481 386309.000000 0 0 1
-30.551630 -33.079284 28.738283 53.418443 0.825101 1.002752 0.030867 -0.036159 416695.000000 0 0 1
-30.891740 -33.035784 30.108223 54.333854 0.818924 0.983474 0.027956 -0.031222 167134.000000 0 0 1
-32.304700 -33.579984 30.404033 55.638244 0.804752 0.992666 0.037896 -0.035557 107123.000000 0 0 1
-32.679860 -33.583684 31.745913 56.600707 0.799037 0.975354 0.035112 -0.038659 1222790.000000 0 0 1
-34.032680 -34.120484 31.908043 57.797525 0.786686 0.985956 0.024698 -0.035696 1502050.000000 0 0 1
-34.459641 -34.246784 33.412123 58.963370 0.782300 0.968351 0.020822 -0.027365 -97945.000000 0 0 1
-34.115580 33.843154 34.030474 58.883826 -0.781389 0.954612 0.010310 -0.029237 -68438.400000 0 0 1
-34.995210 33.494254 -34.076836 59.226350 -0.763487 2.183848 0.012634 -0.022271 -1174.240000 0 0 1
-34.832352 32.040454 -33.674224 58.084738 -0.743673 2.189210 0.007408 -0.024403 147504.000000 0 0 1
-33.603960 31.905654 -33.006004 56.891064 -0.759479 2.189723 -0.000307 -0.021799 -450119.000000 0 0 1
-33.195060 30.543954 -32.829664 55.790966 -0.743829 2.199925 -0.000266 -0.009753 417123.000000 0 0 1
-32.139730 30.359054 -31.698444 54.400604 -0.756915 2.192826 -0.005198 -0.002995 273879.000000 0 0 1
-32.558330 30.569754 -30.337334 53.989892 -0.753908 2.167486 0.006506 -0.015139 -245907.000000 0 0 1
-33.038180 31.873554 -29.984624 54.831765 -0.767458 2.149391 -0.004827 0.000822 -448593.000000 0 0 1
-33.955820 31.841554 -28.802014 54.739732 -0.753276 2.124878 0.002511 0.004137 -234955.000000 0 0 1
-33.356560 31.554954 -27.533774 53.539554 -0.757650 2.110952 -0.014620 -0.008721 23450.900000 0 0 1
-34.392236 31.339954 -26.584044 53.588524 -0.738996 2.089871 0.026469 -0.008316 100018.000000 0 0 1
-33.942170 30.972154 -25.131554 52.373086 -0.739677 2.071287 0.035077 -0.012474 -228563.000000 0 0 1
-33.634790 32.197454 -24.514944 52.620885 -0.763568 2.055424 0.025546 -0.014199 -375531.000000 0 0 1
-33.412240 32.057154 -23.089544 51.741336 -0.764703 2.033366 0.018155 -0.022698 -150171.000000 0 0 1
-34.595965 31.824854 -22.108944 51.947160 -0.743702 2.010426 0.020114 -0.025775 -41996.800000 0 0 1
34.539486 32.873454 -21.913144 52.476908 0.760689 2.001573 0.025587 -0.030630 209447.000000 0 0 1
34.897559 34.057754 -21.174244 53.161253 0.773220 1.980461 0.025208 -0.029554 -405716.000000 0 0 1
-34.996109 33.947454 -19.655244 52.568868 -0.770189 1.954002 0.015785 -0.021312 -214932.000000 0 0 1
-34.033980 32.975954 -19.353244 51.188606 -0.769610 1.958515 0.005065 -0.020517 -292530.000000 0 0 1
-33.793850 32.883954 -17.965744 50.459356 -0.771753 1.934827 0.003763 -0.003641 461424.000000 0 0 1
-32.568800 31.921654 -17.753144 48.937642 -0.775364 1.942036 0.005390 -0.002520 552655.000000 0 0 1
-32.444360 31.475054 -16.415844 48.091532 -0.770235 1.919145 -0.006873 0.002427 133281.000000 0 0 1
-31.170780 30.887654 -16.184544 46.771830 -0.780836 1.924135 -0.002338 0.000201 -364304.000000 0 0 1
-30.930960 30.547454 -14.734044 45.901669 -0.779160 1.897572 0.001244 -0.001662 -822797.000000 0 0 1
-31.869540 29.741054 -14.130844 45.824432 -0.750864 1.884275 -0.008782 0.001999 -619236.000000 0 0 1
-31.396580 29.344654 -12.876244 44.862585 -0.751630 1.861906 -0.000394 -0.001850 -259305.000000 0 0 1
-32.361330 28.533254 -11.983144 44.777204 -0.722617 1.841715 -0.001515 -0.004853 -431987.000000 0 0 1
-31.936020 28.305154 -10.677844 43.989856 -0.725199 1.815980 0.005161 -0.003326 53225.100000 0 0 1
-32.743650 27.387054 -9.939744 43.829166 -0.696550 1.799570 0.013247 -0.006809 -88711.100000 0 0 1
-31.941480 26.581954 -8.869544 42.491496 -0.694074 1.781080 0.010345 -0.008212 151818.000000 0 0 1
-31.607260 27.309154 -7.689844 42.472844 -0.712575 1.752854 0.013266 -0.016612 171607.000000 0 0 1
-30.406150 28.052654 -7.753944 42.090485 -0.745161 1.756075 0.032129 -0.020854 -328619.000000 0 0 1
-29.835750 28.539654 -6.389344 41.779271 -0.763199 1.724330 0.030231 -0.014776 -132532.000000 0 0 1
-29.358830 27.504954 -5.552444 40.611488 -0.752808 1.707947 0.037188 -0.018974 231189.000000 0 0 1
-29.217840 27.985654 -4.212344 40.677055 -0.763861 1.674538 0.035361 -0.018529 26158.200000 0 0 1
-28.452630 26.975554 -3.325944 39.348374 -0.758756 1.655423 0.032408 -0.016956 771419.000000 0 0 1
-29.296500 25.825354 -3.002644 39.169499 -0.722509 1.647529 0.015453 -0.004265 623031.000000 0 0 1
-28.580400 24.996154 -2.116744 38.027984 -0.718598 1.626488 -0.003750 -0.000832 80663.600000 0 0 1
-29.275670 23.710054 -1.661944 37.709330 -0.680742 1.614883 -0.004992 -0.000171 -112880.000000 0 0 1
-29.269620 22.721254 -2.741344 37.154824 -0.660106 1.644645 -0.013625 0.004714 -821212.000000 0 0 1
-30.395500 21.948754 -2.615544 37.582912 -0.625408 1.640447 -0.014506 0.009449 -735833.000000 0 0 1
-30.756480 21.103854 -3.881044 37.501949 -0.601377 1.674471 -0.018317 0.011201 -220352.000000 0 0 1
-29.840490 20.065454 -4.144144 36.197392 -0.591978 1.685535 -0.034328 0.011333 -32272.900000 0 0 1
-30.251080 19.320554 -5.224944 36.272740 -0.568371 1.715345 -0.032686 0.006311 -725205.000000 0 0 1
-29.110840 18.442854 -5.678844 34.926052 -0.564716 1.734118 -0.041471 0.007648 -584010.000000 0 0 1
-28.904920 17.330154 -4.796844 34.041714 -0.540094 1.712178 -0.043484 0.011602 60972.200000 0 0 1
-28.227160 16.320554 -5.484844 33.063825 -0.524225 1.737453 -0.054321 0.011663 -356275.000000 0 0 1
-27.668060 15.166854 -4.609744 31.887376 -0.501439 1.715868 -0.039261 0.011080 -102304.000000 0 0 1
-28.656330 14.366654 -3.952944 32.298789 -0.464722 1.693491 -0.002035 0.007689 286157.000000 0 0 1
-28.192660 13.153154 -3.504044 31.306706 -0.436528 1.682958 0.018922 -0.004535 -292911.000000 0 0 1
-29.296730 12.311954 -2.830744 31.904478 -0.397841 1.659639 0.019236 -0.013115 751472.000000 0 0 1
-30.407790 11.941554 -3.687444 32.876004 -0.374209 1.683195 -0.009523 -0.000019 1134080.000000 0 0 1
-31.236240 10.977854 -3.048744 33.249222 -0.337963 1.662619 -0.013118 0.004013 -51119.300000 0 0 1
-32.465280 10.569054 -3.902444 34.364638 -0.314729 1.684602 -0.011759 0.011843 -81767.100000 0 0 1
-32.181760 9.838854 -5.047344 34.028582 -0.296703 1.719672 -0.007977 0.001543 432748.000000 0 0 1
-33.386530 9.401254 -5.640344 35.140538 -0.274481 1.732002 -0.001847 0.008323 -36574.200000 0 0 1
-33.176320 8.457254 -6.808444 34.907710 -0.249602 1.767096 -0.007026 0.000880 -295856.000000 0 0 1
-32.475480 7.324254 -6.397244 33.900239 -0.221821 1.760643 -0.012515 0.004709 449277.000000 0 0 1
-32.235200 6.459354 -7.542744 33.730169 -0.197763 1.796323 -0.002714 0.012291 -83965.400000 0 0 1
-31.329860 5.217454 -7.245344 32.577246 -0.165019 1.795077 0.011164 0.011941 212200.000000 0 0 1
-29.942590 5.480254 -7.159744 31.270654 -0.181022 1.801806 0.017320 0.003756 454500.000000 0 0 1
-29.289600 4.305554 -6.613244 30.334031 -0.145954 1.790575 0.010574 0.000647 114838.000000 0 0 1
-27.807680 4.515554 -6.238344 28.854362 -0.160980 1.788718 0.061199 0.000119 228559.000000 0 0 1
-27.002830 4.698554 -7.374244 28.383247 -0.172277 1.833621 0.065600 -0.006934 -275907.000000 0 0 1
-25.634320 4.915154 -7.193744 27.074472 -0.189442 1.839728 0.091458 -0.022837 -279161.000000 0 0 1
-24.803530 5.222554 -8.438444 26.715117 -0.207525 1.892167 0.084632 -0.020227 -170003.000000 0 0 1
-24.874330 4.242154 -9.434444 26.939504 -0.168918 1.928590 0.075570 -0.029077 -33526.900000 0 0 1
-23.897930 4.388454 -10.406944 26.432443 -0.181610 1.975470 0.073195 -0.030162 -792768.000000 0 0 1
-24.090130 3.649254 -11.757944 27.053662 -0.150340 2.020408 0.068724 -0.038300 201379.000000 0 0 1
-25.202730 4.166354 -12.493844 28.436459 -0.163832 2.025682 0.066269 -0.012847 594139.000000 0 0 1
-25.523970 3.292854 -13.545244 29.082461 -0.128302 2.055282 0.060057 -0.012428 157669.000000 0 0 1
-26.347530 4.022054 -14.618444 30.398489 -0.151484 2.072470 0.052974 -0.005653 -525365.000000 0 0 1
-25.548290 4.977554 -15.231444 30.157719 -0.192419 2.100247 0.050200 -0.007464 -224270.000000 0 0 1
-26.145490 5.973254 -15.981544 31.219803 -0.224607 2.108196 0.064024 -0.008839 -801114.000000 0 0 1
-26.832110 5.676654 -17.301944 32.427516 -0.208488 2.133598 0.029116 0.006038 862999.000000 0 0 1
-28.089050 4.997654 -17.001744 33.211904 -0.176079 2.108211 0.029006 -0.012010 713694.000000 0 0 1
-28.685000 4.700554 -18.247244 34.320348 -0.162424 2.131372 0.036713 -0.004372 18565.100000 0 0 1
-30.099200 4.060854 -18.294144 35.456002 -0.134106 2.112933 0.022798 -0.010384 241713.000000 0 0 1
-30.341440 2.850754 -17.514944 35.149723 -0.093681 2.092428 0.023893 -0.014569 -112955.000000 0 0 1
-29.685780 1.728654 -18.034144 34.777350 -0.058166 2.115962 0.042724 -0.011814 -169276.000000 0 0 1
-30.123750 0.420554 -17.343344 34.762174 -0.013960 2.093142 0.044815 -0.011799 156908.000000 0 0 1
-29.428930 -0.796246 -17.743344 34.373277 0.027050 2.113200 0.044735 -0.014801 388987.000000 0 0 1
-29.793980 -1.864246 -16.890444 34.299325 0.062490 2.085690 0.052627 -0.025855 -85651.100000 0 0 1
-29.542380 -3.299646 -17.382444 34.435290 0.111231 2.099930 0.050750 -0.019591 430478.000000 0 0 1
-30.558930 -3.615546 -18.351444 35.828701 0.117766 2.108540 0.047779 -0.018420 642473.000000 0 0 1
-30.562260 -4.973646 -18.677544 36.161298 0.161324 2.113562 0.035588 -0.018560 -238153.000000 0 0 1
-31.509080 -5.257846 -19.819944 37.593845 0.165344 2.126113 0.049642 -0.017068 -310584.000000 0 0 1
-31.221500 -6.499446 -20.433144 37.875298 0.205241 2.140621 0.044092 -0.015347 5406.620000 0 0 1
-32.156650 -6.796346 -21.446244 39.245150 0.208286 2.148938 0.041761 -0.010669 -317159.000000 0 0 1
-31.745330 -7.985846 -22.375344 39.650923 0.246446 2.170391 0.034288 -0.019741 -191311.000000 0 0 1
-30.633910 -7.545146 -23.114644 39.110771 0.241494 2.203100 0.038277 -0.023319 -300534.000000 0 0 1
-30.326130 -8.354046 -24.229444 39.705543 0.268806 2.227145 0.030391 -0.013409 -357793.000000 0 0 1
-28.975960 -8.098046 -24.903744 39.056127 0.272521 2.262227 0.026060 -0.010495 -693767.000000 0 0 1
-28.896400 -6.836746 -25.553694 39.175685 0.232323 2.281391 0.022747 -0.012357 -55065.700000 0 0 1
-28.896970 -7.035246 -26.950214 40.135316 0.238814 2.307006 0.019251 -0.005993 -602486.000000 0 0 1
-30.214740 -7.110246 -27.716044 41.613281 0.231119 2.299681 0.023561 -0.007721 -987716.000000 0 0 1
-30.996070 -8.224846 -27.385814 42.170929 0.259374 2.277592 0.025536 -0.012801 -75417.400000 0 0 1
-32.112220 -8.219346 -28.287114 43.576520 0.250577 2.277245 0.025344 -0.010110 314358.000000 0 0 1
-33.150600 -9.319346 -28.058704 44.419628 0.274048 2.254506 0.025277 -0.005085 -954208.000000 0 0 1
-32.673700 -10.634246 -28.212214 44.458822 0.314655 2.258248 0.019008 -0.006940 -302383.000000 0 0 1
-33.546520 -11.657446 -27.766564 45.080451 0.334447 2.234367 -0.003769 -0.004010 297348.000000 0 0 1
-34.883180 -11.857146 -28.581234 46.629551 0.327658 2.230576 -0.015865 0.002860 383083.000000 0 0 1
34.291542 -10.817646 -28.197744 45.695121 -0.305580 2.235828 -0.021207 0.005488 -353284.000000 0 0 1
33.256615 -10.817146 -29.158554 45.532783 -0.314470 2.265797 -0.023892 0.003583 -304797.000000 0 0 1
32.224685 -9.679046 -28.926184 44.371594 -0.291788 2.280894 -0.020297 0.014525 -389562.000000 0 0 1
31.385425 -10.136146 -27.903514 43.201764 -0.312383 2.272983 -0.036814 0.022348 -451164.000000 0 0 1
30.473405 -9.118546 -27.539954 42.074046 -0.290750 2.284396 -0.034024 0.015808 29870.500000 0 0 1
29.410775 -9.528046 -26.525614 40.735556 -0.313295 2.279916 -0.041196 0.025841 -82412.700000 0 0 1
30.023475 -9.742846 -25.283294 40.442268 -0.313786 2.246146 -0.045866 0.020773 724073.000000 0 0 1
28.979325 -10.052646 -24.354544 39.166322 -0.333902 2.241865 -0.044428 0.022939 424292.000000 0 0 1
29.450955 -10.404246 -22.938144 38.752619 -0.339588 2.204225 -0.051007 0.018819 -102494.000000 0 0 1
30.266795 -11.550946 -22.821344 39.627225 -0.364577 2.184502 -0.063890 0.023384 269961.000000 0 0 1
30.467565 -11.768346 -21.434144 39.066469 -0.368604 2.151555 -0.045943 0.018659 136003.000000 0 0 1
31.489995 -12.913646 -21.173144 40.083463 -0.389172 2.127307 -0.031306 0.019555 627296.000000 0 0 1
32.837155 -12.661446 -21.564944 41.275147 -0.368016 2.120539 -0.029988 0.020663 25842.900000 0 0 1
33.737305 -13.484746 -20.885444 41.907587 -0.380246 2.092513 -0.020748 0.027161 1017340.000000 0 0 1
-34.849734 -13.244346 -21.373244 42.973622 0.363183 2.091346 -0.015061 0.011896 848218.000000 0 0 1
-34.209503 -11.961346 -21.276444 42.024409 0.336363 2.101671 -0.002187 0.016575 291415.000000 0 0 1
-34.750514 -10.952846 -22.080144 42.603941 0.305329 2.115618 0.011089 0.007851 -1018600.000000 0 0 1
-34.374449 -10.941746 -23.619144 43.118308 0.308170 2.150499 0.005000 -0.000734 121721.000000 0 0 1
-34.914829 -11.950346 -24.465444 44.276562 0.329773 2.156229 -0.006033 0.005487 -563714.000000 0 0 1
33.782715 -11.857046 -24.596844 43.438072 -0.337547 2.172746 -0.003021 0.008608 -866549.000000 0 0 1
33.353805 -12.928646 -25.612884 43.995977 -0.369790 2.192184 -0.029022 0.001545 -518355.000000 0 0 1
33.458185 -14.317146 -25.293704 44.319321 -0.404334 2.178173 -0.031246 0.004614 293040.000000 0 0 1
32.818155 -14.789446 -24.128544 43.335270 -0.423393 2.161310 -0.038243 0.005724 -377630.000000 0 0 1
-28.834510 7.947554 -19.804244 35.872003 -0.268949 2.155654 0.003702 0.006532 710344.000000 0 0 1
-27.707330 7.359854 -20.481744 35.233016 -0.259633 2.191149 0.002239 -0.000920 305852.000000 0 0 1
-26.633690 8.256054 -20.566544 34.648212 -0.300592 2.206298 0.011806 -0.005516 -830837.000000 0 0 1
-25.357520 7.655954 -21.084144 33.854963 -0.293218 2.243085 0.008460 0.002654 -887070.000000 0 0 1
-24.689530 6.835054 -20.130744 32.581247 -0.270076 2.236818 0.016665 0.007832 -60842.000000 0 0 1
-23.558030 6.230254 -20.705644 31.976874 -0.258545 2.275121 0.024139 0.002292 527762.000000 0 0 1
-22.192630 6.819554 -20.199944 30.774289 -0.298131 2.286820 0.011427 0.003704 442600.000000 0 0 1
-21.943030 8.136354 -20.711544 31.251637 -0.355079 2.295261 0.007156 0.001851 -777078.000000 0 0 1
-20.699030 8.496054 -20.232744 30.166151 -0.389488 2.305962 0.006019 0.002635 -711506.000000 0 0 1
-19.929030 9.594054 -20.977044 30.483577 -0.448666 2.329722 0.022806 0.004703 -171179.000000 0 0 1
-19.472930 9.143954 -22.245044 30.945902 -0.439011 2.372924 0.035033 -0.010820 -127515.000000 0 0 1
-18.715930 10.107154 -22.932044 31.278095 -0.495156 2.393763 0.032908 -0.011821 -220550.000000 0 0 1
-17.726930 9.528854 -23.947944 31.281737 -0.493223 2.442702 0.038408 -0.016203 -329827.000000 0 0 1
-18.316030 8.823854 -25.004644 32.226845 -0.448946 2.458929 0.030863 -0.009055 -705684.000000 0 0 1
-17.416930 8.076954 -25.739544 32.110913 -0.434222 2.500734 0.024687 0.000817 -962928.000000 0 0 1
-18.091230 7.216554 -26.805684 33.134814 -0.379556 2.513226 0.009847 0.006460 -17595.400000 0 0 1
-18.762130 6.115254 -26.161264 32.769278 -0.315078 2.495342 0.014834 0.003180 232688.000000 0 0 1
-19.254830 5.197754 -27.107624 33.653950 -0.263661 2.507283 0.005089 0.001188 -583939.000000 0 0 1
-19.507230 3.843054 -26.394764 33.045191 -0.194516 2.496007 0.001571 0.008220 346376.000000 0 0 1
-18.413630 2.980654 -26.026254 32.020492 -0.160480 2.519739 0.006101 0.011379 326499.000000 0 0 1
-17.540330 3.418854 -25.018544 30.745394 -0.192500 2.521342 0.002844 0.007261 -395099.000000 0 0 1
-16.618130 2.253654 -24.609244 29.780129 -0.134792 2.543417 0.003150 0.008287 -262648.000000 0 0 1
-17.088630 1.293354 -23.655044 29.210531 -0.075541 2.514628 0.001988 0.008577 -140937.000000 0 0 1
-18.256530 0.598654 -24.031544 30.185665 -0.032779 2.491660 0.002311 0.010319 -253741.000000 0 0 1
-18.921430 -0.092846 -22.800344 29.629121 0.004907 2.448893 0.008065 0.010908 -102902.000000 0 0 1
-18.353730 -1.344446 -22.453644 29.031587 0.073121 2.455017 0.001908 0.012814 -2428.560000 0 0 1
-18.830330 -1.854946 -21.259444 28.460254 0.098192 2.414315 0.001043 0.008066 -473585.000000 0 0 1
-18.149930 -3.218446 -20.884944 27.856044 0.175501 2.418474 -0.006977 0.000762 41597.500000 0 0 1
-18.454630 -4.203246 -21.821844 28.886562 0.223941 2.427110 -0.003692 -0.005893 325977.000000 0 0 1
-18.651930 -5.431146 -21.170644 28.733047 0.283349 2.399128 0.002740 -0.006275 -408111.000000 0 0 1
-18.759730 -6.586946 -22.159244 29.771587 0.337674 2.410295 -0.006915 -0.008032 -392814.000000 0 0 1
-17.483230 -6.824046 -22.680944 29.439024 0.372133 2.450324 -0.002657 -0.004338 -227647.000000 0 0 1
-17.514530 -7.492246 -23.912144 30.572588 0.404217 2.468894 0.004854 -0.007915 815056.000000 0 0 1
-16.091130 -7.553346 -24.587444 30.340070 0.438878 2.515622 0.007285 -0.017552 -98626.900000 0 0 1
-15.961930 -8.307346 -25.812614 31.465636 0.479871 2.532807 0.003045 -0.017387 -205901.000000 0 0 1
-14.715330 -8.513646 -26.442154 31.435817 0.524503 2.570198 0.010623 -0.016067 -437226.000000 0 0 1
-13.755530 -9.337946 -25.611444 30.534536 0.596390 2.565816 0.014412 -0.018346 -858132.000000 0 0 1
-12.994330 -8.636446 -24.610044 29.139236 0.586593 2.576553 0.002161 -0.005201 621785.000000 0 0 1
-12.123330 -9.544846 -23.930344 28.473506 0.666956 2.568896 -0.006122 -0.000896 493965.000000 0 0 1
-11.346630 -8.875546 -22.743144 26.921588 0.663804 2.576973 -0.006270 0.002371 140699.000000 0 0 1
-12.184630 -8.592246 -21.617544 26.260428 0.614188 2.537818 -0.000975 0.007790 493751.000000 0 0 1
-11.462330 -8.060146 -20.519844 24.847836 0.612861 2.542451 0.003507 0.010152 -437443.000000 0 1 0
-12.380430 -7.856346 -19.270144 24.214369 0.565457 2.491148 -0.002042 0.008472 -42093.900000 0 1 0
-13.220630 -6.754646 -19.357744 24.395338 0.472343 2.487338 -0.012464 0.012634 -718164.000000 0 1 0
-14.499530 -7.143146 -19.766644 25.533921 0.457748 2.456140 -0.009855 0.000012 -519919.000000 0 0 1
-15.538530 -5.978746 -19.631744 25.740953 0.367308 2.438221 -0.009907 0.008460 -339248.000000 0 0 1
-15.790930 -5.498946 -18.314644 24.799557 0.335101 2.401649 -0.007907 0.008553 387785.000000 0 1 0
-14.992830 -4.378446 -17.890544 23.749259 0.284134 2.423876 -0.011374 0.013255 -390633.000000 0 1 0
-14.799630 -4.217446 -16.353744 22.455752 0.277611 2.386583 -0.008612 0.017531 831543.000000 0 1 0
-15.962930 -3.829046 -15.576544 22.629747 0.235423 2.329969 -0.004242 0.010259 680783.000000 0 1 0
-16.413130 -2.529946 -15.740244 22.881143 0.152938 2.329406 -0.035389 0.011544 -145266.000000 0 1 0
-17.659530 -2.257246 -14.864844 23.193053 0.127131 2.266490 -0.028872 0.006160 -149563.000000 0 1 0
-17.472130 -2.367846 -13.476844 22.192506 0.134701 2.223416 -0.007718 -0.010543 350104.000000 0 1 0
-18.446230 -1.694846 -12.702244 22.460696 0.091623 2.171875 -0.008962 -0.015568 -419135.000000 0 1 0
-17.914130 -0.498046 -11.952244 21.541129 0.027795 2.158987 -0.004476 -0.015332 -36663.200000 0 1 0
-17.364830 0.449654 -12.870644 21.619273 -0.025889 2.208475 -0.003457 -0.015943 715905.000000 0 1 0
-16.672930 1.558654 -12.335644 20.798656 -0.093213 2.205698 0.013643 -0.012593 -818127.000000 0 1 0
-16.272530 2.681454 -13.351844 21.219264 -0.163316 2.251361 0.027367 -0.010611 60709.900000 0 1 0
-15.445730 2.255154 -14.432944 21.259495 -0.144981 2.317052 0.017402 -0.009465 1221980.000000 0 1 0
-14.123430 1.815854 -14.061044 20.012035 -0.127869 2.349882 0.009933 -0.009272 -321686.000000 0 1 0
-13.595430 0.764254 -15.052444 20.297681 -0.056155 2.406225 0.006454 -0.013752 -228806.000000 0 1 0
-13.338430 1.212454 -16.353044 21.137781 -0.090650 2.455363 0.007980 -0.009001 261774.000000 0 1 0
-12.780330 0.185754 -17.177544 21.411196 -0.014533 2.501883 -0.006308 0.000863 -42057.000000 0 1 0
-12.180530 0.723354 -18.483544 22.147910 -0.059316 2.558112 0.003473 -0.000500 -93851.800000 0 1 0
-11.106730 1.609654 -18.257744 21.431184 -0.143924 2.590445 -0.001032 -0.004958 -315405.000000 0 1 0
-10.666230 2.116454 -19.493144 22.321077 -0.195881 2.632745 -0.005659 0.002121 194586.000000 0 1 0
-9.271630 2.790054 -19.360644 21.646756 -0.292304 2.677862 -0.004362 -0.000186 -759423.000000 0 1 0
-8.249930 1.803654 -19.431944 21.187613 -0.215240 2.731633 -0.001864 0.006154 436617.000000 0 1 0
-6.904630 2.248154 -19.235144 20.560128 -0.314775 2.780625 -0.003926 0.006948 942421.000000 0 1 0
-6.434430 3.386654 -20.172044 21.442543 -0.484492 2.795628 -0.002672 0.010833 -1606480.000000 0 1 0
-6.190130 2.944054 -21.490244 22.556944 -0.443941 2.832832 -0.008127 0.014898 189936.000000 0 1 0
-5.967330 3.972854 -22.371144 23.491715 -0.587380 2.831480 -0.002691 0.006262 -373268.000000 0 1 0
-5.465030 3.423054 -23.681744 24.544018 -0.559574 2.875738 0.008905 0.002235 160822.000000 0 1 0
-4.188630 2.796754 -23.656744 24.186938 -0.588719 2.931825 0.021252 -0.007895 140000.000000 0 1 0
-3.949930 2.343754 -24.958444 25.377530 -0.535527 2.959605 0.015690 -0.003306 246564.000000 0 0 1
-2.562930 1.666554 -25.143734 25.328903 -0.576553 3.020601 0.019483 -0.003606 304510.000000 0 0 1
-1.477730 2.608754 -25.095314 25.273782 -1.055411 3.022683 0.022088 -0.005857 1185990.000000 0 0 1
-0.159230 2.031254 -25.069764 25.152423 -1.492566 3.060498 0.025203 -0.006630 1058610.000000 0 0 1
0.290170 1.178354 -23.833044 23.863920 1.329350 3.090718 0.021463 -0.008517 -794472.000000 0 1 0
0.110070 -0.226946 -23.900744 23.902074 -1.119216 3.131040 0.028224 -0.009980 -136985.000000 0 1 0
0.868570 -0.911346 -22.921444 22.955991 -0.809426 3.086723 0.023542 -0.006789 -820542.000000 0 1 0
0.636370 -2.438446 -22.784844 22.923789 -1.315516 3.031435 0.031208 -0.015729 1119100.000000 0 1 0
-0.632530 -2.844446 -22.187644 22.378170 1.351983 3.011009 0.029229 -0.011071 912678.000000 0 1 0
-1.851030 -2.790446 -22.867244 23.111117 0.985097 2.996191 0.027570 -0.012115 -135707.000000 0 1 0
-2.662630 -1.507846 -22.835844 23.039942 0.515271 3.008389 0.016216 -0.010627 -1168020.000000 0 1 0
-3.345130 -1.277446 -21.614544 21.909136 0.364791 2.977420 0.013400 -0.006967 510479.000000 0 1 0
-4.189030 -0.110146 -21.563444 21.966843 0.026288 2.949653 0.009007 -0.001697 710792.000000 0 1 0
-5.569730 -0.262646 -22.262544 22.950201 0.047121 2.896179 0.006075 0.001941 -258544.000000 0 1 0
-6.291030 -1.319346 -21.653144 22.587084 0.206723 2.853022 0.002333 0.008247 -985025.000000 0 1 0
-7.649630 -1.028646 -21.645744 22.980713 0.133668 2.799066 -0.016874 0.016546 -700988.000000 0 1 0
-8.425030 -2.327646 -21.367844 23.086442 0.269554 2.753303 -0.012458 0.007227 -272577.000000 0 1 0
-8.593530 -3.278046 -22.410744 24.224693 0.364418 2.752147 0.008546 0.000806 -122744.000000 0 1 0
-9.133730 -4.470946 -21.901444 24.147207 0.455211 2.706894 -0.004686 0.001370 -363352.000000 0 1 0
-10.006230 -5.311246 -22.870144 25.522097 0.487978 2.681681 -0.015551 0.004701 -555983.000000 0 0 1
-11.300730 -4.834846 -22.994044 26.073133 0.404269 2.650686 -0.015069 0.003521 -898466.000000 0 0 1
-11.941030 -5.460546 -24.124944 27.466683 0.428902 2.643164 -0.022879 -0.003521 559276.000000 0 0 1
-13.479330 -5.211046 -24.044944 28.053639 0.368898 2.600422 0.004406 -0.010680 128278.000000 0 0 1
-13.785030 -3.869646 -24.154244 28.078972 0.273670 2.606508 0.000576 -0.004277 -405007.000000 0 0 1
-15.158930 -3.588946 -24.023144 28.631890 0.232474 2.566303 0.005780 -0.001048 134704.000000 0 0 1
-15.490330 -2.193946 -24.626844 29.176106 0.140697 2.575636 0.002175 -0.007244 -58193.900000 0 0 1
-15.426330 -2.197746 -26.061524 30.364531 0.141515 2.602721 0.012589 -0.007664 159986.000000 0 0 1
-15.665030 -0.925946 -26.603684 30.886996 0.059040 2.608665 0.008102 -0.001776 248839.000000 0 0 1
-17.019530 -0.693146 -27.342714 32.214420 0.040704 2.584456 0.010593 0.004442 76059.600000 0 0 1
-17.278630 -1.415246 -28.547864 33.399618 0.081725 2.595839 0.018112 -0.010185 -117740.000000 0 0 1
-16.834730 -0.816346 -29.702254 34.151111 0.048454 2.625452 0.018560 -0.004012 -250356.000000 0 0 1
-16.882030 -1.747046 -30.951094 35.299083 0.103118 2.640013 0.027330 -0.006435 739884.000000 0 0 1
-18.238430 -2.020246 -31.312574 36.293236 0.110319 2.611512 0.018552 -0.005248 294608.000000 0 0 1
-18.363130 -2.776046 -32.495394 37.428085 0.150039 2.622377 0.019199 -0.007539 -425941.000000 0 0 1
-19.795130 -3.139846 -32.948344 38.565517 0.157307 2.595090 0.000281 -0.005604 -42884.200000 0 0 1
-20.672530 -2.079746 -33.218484 39.180945 0.100267 2.582662 0.001104 -0.012258 186514.000000 0 0 1
-21.346230 -1.626846 -32.021484 38.518613 0.076065 2.552284 -0.007723 0.003222 -435998.000000 0 0 1
-22.433730 -0.574546 -32.312244 39.340608 0.025605 2.534563 -0.005215 0.003123 -256152.000000 0 0 1
-21.998130 0.586554 -33.006574 39.669833 -0.026657 2.553557 -0.003104 -0.003584 139331.000000 0 0 1
-23.096930 1.316454 -33.516544 40.725421 -0.056935 2.537448 -0.007822 -0.000810 260995.000000 0 0 1
-22.713930 2.749754 -34.018984 40.997256 -0.120474 2.549522 -0.008327 -0.000089 -604695.000000 0 0 1
-22.048930 3.666954 -33.150344 39.981835 -0.164801 2.548355 -0.015599 0.001395 210890.000000 0 0 1
-22.821130 4.218754 -32.106364 39.615911 -0.182798 2.515701 -0.031849 0.001637 -47088.500000 0 0 1
-24.114930 5.054854 -32.469674 40.759797 -0.206624 2.492463 -0.029987 -0.003353 156789.000000 0 0 1
-25.076900 4.187954 -33.027484 41.679786 -0.165477 2.485546 -0.008821 -0.008292 -930529.000000 0 0 1
-25.821200 4.881854 -33.982044 42.957492 -0.186858 2.483340 0.001334 -0.011406 -854875.000000 0 0 1
-27.170640 4.192354 -34.187627 43.870415 -0.153090 2.464323 0.014633 -0.011538 -608285.000000 0 0 1
-27.020150 2.895654 34.519741 43.932742 -0.106759 0.666904 0.025863 -0.013955 87683.300000 0 0 1
-28.188110 2.447454 33.873323 44.135718 -0.086609 0.695894 0.031877 -0.009532 -56777.400000 0 0 1
-28.164640 0.956454 33.483496 43.764212 -0.033946 0.699618 0.028491 0.004898 -87908.500000 0 0 1
-28.359700 0.107754 -34.538214 44.689735 -0.003800 2.454108 0.024023 0.007592 -1603.150000 0 0 1
-28.438910 -1.217746 34.204007 44.499085 0.042794 0.694076 0.006846 0.010309 -443934.000000 0 0 1
-28.026350 -2.148746 -33.769194 43.936907 0.076519 2.447421 -0.025716 0.013307 654965.000000 0 0 1
-26.668770 -2.186946 -33.316004 42.731278 0.081821 2.464924 -0.002268 0.002501 742068.000000 0 0 1
-26.213190 -0.966646 -32.666844 41.894969 0.036860 2.465034 0.005249 0.007465 -535115.000000 0 0 1
-26.665970 -0.663046 -31.189804 41.040436 0.024860 2.434075 0.015787 0.006569 -264103.000000 0 0 1
-25.918820 -1.362146 -30.215694 39.832509 0.052506 2.431910 0.004900 0.002905 104704.000000 0 0 1
-25.989750 -0.807346 -28.916694 38.888225 0.031054 2.409212 0.005218 -0.002410 -641122.000000 0 0 1
-24.855030 -1.180146 -27.990674 37.451876 0.047446 2.414902 0.004352 -0.002583 -475025.000000 0 0 1
-24.898130 -2.589646 -27.748194 37.370916 0.103637 2.407603 -0.009520 0.007612 545009.000000 0 0 1
-23.857430 -2.961046 -26.827464 36.023014 0.123483 2.410928 -0.001459 0.001576 340520.000000 0 0 1
-24.036930 -4.370046 -26.180114 35.808793 0.179841 2.390742 -0.008680 -0.003266 593827.000000 0 0 1
-25.223680 -4.489146 -25.364464 36.051941 0.176129 2.351182 0.007473 -0.004229 654414.000000 0 0 1
-25.289360 -5.703046 -24.605744 35.742399 0.221801 2.330103 0.002708 -0.008816 397103.000000 0 0 1
-26.314890 -5.426946 -23.462944 35.671205 0.203380 2.288632 0.012681 -0.014792 350996.000000 0 0 1
-26.584110 -6.502946 -22.570144 35.474140 0.239907 2.260414 0.006913 -0.017537 427122.000000 0 0 1
-27.581270 -6.109546 -21.597944 35.560148 0.217991 2.223534 0.026224 -0.012245 255323.000000 0 0 1
-28.063050 -7.371346 -20.894944 35.755701 0.256868 2.194913 0.020364 -0.019491 -372055.000000 0 0 1
-27.142470 -7.837946 -19.912644 34.563860 0.281123 2.184760 0.012886 -0.017137 246390.000000 0 0 1
-27.621620 -8.843046 -18.997844 34.670901 0.309838 2.150705 0.026629 -0.010133 -350271.000000 0 0 1
-28.586360 -8.284846 -17.966044 34.764887 0.282090 2.113890 0.024374 -0.016696 -672018.000000 0 0 1
-27.853100 -7.598046 -16.979444 33.493686 0.266310 2.102433 0.028697 -0.021890 2958.210000 0 0 1
-28.565280 -6.865846 -16.019144 33.462337 0.235882 2.069994 0.028948 -0.020087 211189.000000 0 0 1
-27.588360 -6.151946 -14.991044 31.995241 0.219401 2.058434 0.032424 -0.015496 176503.000000 0 0 1
-26.801590 -5.122746 -15.448844 31.356570 0.188858 2.085966 0.033691 -0.015392 50996.400000 0 0 1
-25.952190 -4.733646 -14.364044 30.037465 0.180415 2.069405 0.028745 -0.017673 44455.100000 0 0 1
-13.683630 21.767354 -5.152644 26.222303 -1.009590 1.768582 -0.001306 -0.003450 -298068.000000 0 0 1
-13.765030 21.011154 -6.310444 25.899157 -0.990823 1.816928 0.019684 -0.004970 191645.000000 0 0 1
-14.782430 20.005554 -6.266644 25.651769 -0.934427 1.817591 0.029038 -0.013623 43170.100000 0 0 1
-14.980130 19.108754 -7.501044 25.412879 -0.905925 1.870427 0.041068 -0.022684 -899360.000000 0 0 1
-13.824030 18.478354 -7.966744 24.413569 -0.928499 1.903209 0.030855 -0.021446 -815843.000000 0 1 0
-13.949930 17.445154 -8.911644 24.048936 -0.896272 1.950411 0.018299 -0.022754 -474824.000000 0 1 0
-14.513530 16.098654 -8.351144 23.228233 -0.837133 1.938556 0.014264 -0.022899 480670.000000 0 1 0
-15.904630 16.101854 -8.054644 24.022994 -0.791560 1.912708 0.022222 -0.010636 727156.000000 0 1 0
-16.388530 15.010154 -7.202644 23.361650 -0.741527 1.884213 0.044964 -0.011637 -189390.000000 0 1 0
-17.886530 15.090454 -6.900444 24.398071 -0.700812 1.857537 0.055785 -0.017884 -210388.000000 0 1 0
-18.723830 14.992154 -8.050244 25.301243 -0.675167 1.894601 0.046244 -0.007884 -850363.000000 0 0 1
-20.024730 15.309554 -7.706944 26.358475 -0.652737 1.867521 0.024545 -0.007760 -1410200.000000 0 0 1
-20.951530 14.578354 -8.620544 26.940838 -0.607911 1.896505 0.025050 -0.001300 -954746.000000 0 0 1
-21.022230 13.214954 -8.348944 26.196832 -0.561197 1.895155 0.035157 -0.000965 576836.000000 0 0 1
-22.021330 12.492154 -9.099644 26.903464 -0.516009 1.915835 0.043892 -0.002968 632466.000000 0 0 1
-22.499730 11.232554 -8.436644 26.525178 -0.463032 1.894481 0.029641 -0.009331 572628.000000 0 0 1
-21.489530 10.189054 -8.607444 25.292386 -0.442747 1.918051 0.037082 -0.011300 902613.000000 0 0 1
-21.731830 9.247954 -7.606844 24.812520 -0.402335 1.882387 0.039425 -0.017515 -110760.000000 0 1 0
-20.573930 8.266554 -7.322644 23.350452 -0.382055 1.889776 0.028941 -0.007347 -299123.000000 0 1 0
-20.326130 7.300254 -8.318644 23.144008 -0.344808 1.938453 0.026347 -0.009245 -462828.000000 0 1 0
-19.384230 6.408354 -7.911544 21.895385 -0.319285 1.940494 0.025196 -0.005643 -880545.000000 0 1 0
-19.325730 5.249154 -8.903544 21.915988 -0.265216 1.989151 0.025170 -0.011187 -1200300.000000 0 1 0
-20.342230 4.316854 -8.802944 22.581704 -0.209109 1.971239 0.036191 -0.009416 124971.000000 0 1 0
-20.204730 3.250454 -9.724944 22.657694 -0.159509 2.014416 0.025594 -0.012120 -532527.000000 0 1 0
-21.165530 2.131754 -9.391544 23.253497 -0.100380 1.986547 0.034635 -0.019591 -543034.000000 0 1 0
-20.591330 1.323654 -8.437944 22.292461 -0.064194 1.958983 0.012022 -0.016922 571234.000000 0 1 0
-21.424230 0.232154 -8.023344 22.878496 -0.010836 1.929108 0.027561 -0.013070 56984.700000 0 1 0
-21.511130 -1.034146 -8.874944 23.292977 0.048038 1.961689 0.010395 -0.021775 570164.000000 0 1 0
-20.291830 -1.792646 -8.737244 22.165544 0.088114 1.975973 -0.010053 -0.010872 925508.000000 0 1 0
-20.282530 -3.014446 -9.450744 22.578407 0.147543 2.002671 -0.023108 -0.002319 -463773.000000 0 1 0
-21.111030 -4.100446 -8.663044 23.184856 0.191844 1.953738 -0.030060 0.000834 -232273.000000 0 1 0
-20.731530 -4.304246 -7.343544 22.410946 0.204710 1.904640 -0.037194 0.006404 -429440.000000 0 1 0
-21.651930 -5.033646 -6.585544 23.184327 0.228423 1.858813 -0.015993 0.006214 -1476480.000000 0 1 0
-21.699330 -6.561046 -6.788044 23.664019 0.293622 1.861734 -0.027368 0.000968 -1058150.000000 0 1 0
-20.680330 -7.333946 -6.287244 22.825254 0.340797 1.849855 -0.044498 0.000458 -302729.000000 0 1 0
-20.960230 -8.713046 -6.347944 23.569998 0.393962 1.843486 -0.031039 0.003402 -775574.000000 0 1 0
-19.989630 -9.622446 -5.622644 22.886478 0.448634 1.819013 -0.029325 -0.000031 -892433.000000 0 1 0
-18.702130 -9.523746 -6.158244 21.872251 0.471007 1.856211 -0.033707 0.002674 -308340.000000 0 1 0
-17.789130 -10.381646 -5.516444 21.322825 0.528270 1.832484 -0.019652 0.003109 -398875.000000 0 1 0
-17.388030 -11.651546 -6.347444 21.872177 0.590369 1.865239 -0.008168 0.010724 -29035.300000 0 1 0
-16.306130 -11.615546 -7.287044 21.305206 0.618961 1.919874 -0.014410 0.005723 695903.000000 0 1 0
-16.610330 -10.932146 -8.493944 21.623181 0.582086 1.974489 -0.014618 0.001218 7509.760000 0 1 0
-15.612730 -11.122746 -9.662444 21.467082 0.619010 2.037679 -0.009112 0.000107 474826.000000 0 1 0
-15.878430 -12.425146 -10.191444 22.591465 0.663989 2.038815 0.003231 -0.003387 -492129.000000 0 1 0
-14.788730 -12.779146 -10.944744 22.400904 0.712631 2.081263 -0.001178 0.002187 -621826.000000 0 1 0
-14.880630 -14.128246 -11.718044 23.629495 0.759468 2.089676 0.012855 0.002320 236971.000000 0 1 0
-15.701830 -14.092546 -12.894944 24.727048 0.731438 2.119394 0.011227 0.001710 448359.000000 0 1 0
-15.541030 -15.366346 -13.540944 25.710024 0.779746 2.125486 0.003606 0.008828 40569.100000 0 0 1
-16.139330 -15.244646 -14.980044 26.782063 0.756898 2.164375 0.019839 0.013550 100996.000000 0 0 1
-16.130130 -16.506546 -15.602244 27.858161 0.796931 2.165255 0.016495 0.015816 71053.100000 0 0 1
-16.568830 -16.357546 -16.922144 28.782883 0.778981 2.199286 0.015198 0.017258 -260796.000000 0 0 1
-16.679830 -17.648646 -17.606544 29.994696 0.813613 2.198130 0.022761 0.005291 254800.000000 0 0 1
-17.823130 -18.439346 -17.279444 30.923334 0.802390 2.163714 0.027271 0.013039 482048.000000 0 0 1
-18.765530 -18.439646 -18.378544 32.092624 0.776639 2.180558 0.017853 0.012078 990405.000000 0 0 1
-20.230830 -18.217146 -17.876544 32.568723 0.733072 2.151828 0.001643 0.005783 481671.000000 0 0 1
-20.485330 -16.934046 -17.323244 31.725470 0.690777 2.148421 -0.001213 0.013578 137395.000000 0 0 1
-20.615430 -16.951646 -15.923844 31.079302 0.688179 2.108729 0.001257 0.008878 -114014.000000 0 0 1
-20.692330 -15.574746 -15.283844 30.072265 0.645215 2.103933 0.007648 0.001251 377331.000000 0 0 1
-21.955230 -14.913546 -15.330044 30.650550 0.596678 2.094575 0.013494 0.002003 601974.000000 0 0 1
-21.819830 -13.531746 -15.001844 29.736651 0.555110 2.099588 0.018745 0.003833 -1087480.000000 0 0 1
-23.149330 -12.900446 -14.720944 30.315329 0.508408 2.077839 0.029667 -0.004821 -1111710.000000 0 0 1
-23.680330 -13.342446 -13.492644 30.345186 0.513103 2.031567 0.022276 0.002031 -444336.000000 0 0 1
-24.707030 -12.493546 -13.150144 30.650486 0.468171 2.014221 0.031977 -0.001565 -695074.000000 0 0 1
-25.399060 -12.881746 -11.798444 30.826205 0.469370 1.963557 0.026043 -0.003676 281315.000000 0 0 1
-26.527680 -12.080746 -11.477944 31.327391 0.427337 1.945919 0.026410 -0.013872 153114.000000 0 0 1
-27.125430 -12.386246 -10.283144 31.542845 0.428353 1.902872 0.008940 -0.008140 316619.000000 0 0 1
-27.934330 -11.224046 -9.608944 31.601231 0.382058 1.879757 0.029152 -0.016362 -212197.000000 0 0 1
-27.043080 -10.295746 -9.102844 30.334672 0.363773 1.875573 0.027379 -0.018430 -106264.000000 0 0 1
-27.703740 -9.380346 -8.251544 30.390394 0.326479 1.845766 0.047407 -0.020720 365284.000000 0 0 1
-26.752370 -8.262746 -7.663644 29.029187 0.299566 1.837961 0.031965 -0.009522 882043.000000 0 0 1
-25.894850 -8.715346 -6.558544 28.098309 0.324658 1.806384 0.006000 -0.013025 297575.000000 0 0 1
-25.152530 -7.725946 -5.939444 26.974376 0.298016 1.792804 0.007304 -0.007497 -401577.000000 0 0 1
-25.968880 -6.501546 -5.370744 27.303804 0.245317 1.768791 0.016538 -0.009569 -62538.000000 0 0 1
-26.694080 -6.825846 -4.178244 27.867971 0.250342 1.721294 0.009713 -0.010994 233568.000000 0 0 1
-25.915190 -6.941246 -2.985644 26.994296 0.261702 1.681626 0.025683 -0.006077 -153947.000000 0 0 1
-25.641050 -5.547446 -2.354144 26.339696 0.213066 1.660292 0.018889 -0.002037 657445.000000 0 0 1
-26.815890 -4.862846 -1.857644 27.316480 0.179392 1.638853 0.016200 0.000237 694297.000000 0 0 1
-26.422270 -3.819446 -1.115144 26.720181 0.143560 1.612543 0.005123 0.001988 -356372.000000 0 0 1
-27.508010 -2.971946 -0.369744 27.670558 0.107622 1.584159 0.006657 -0.003926 89105.600000 0 0 1
-28.165030 -3.566246 0.757356 28.400011 0.125949 1.544126 0.008628 -0.000341 156601.000000 0 0 1
-27.368120 -3.660346 1.917556 27.678315 0.132956 1.501461 0.002567 0.001341 -254943.000000 0 0 1
-28.191810 -3.925546 3.182556 28.641172 0.138355 1.459448 -0.009457 0.004120 2545.610000 0 0 1
-28.692220 -5.288146 3.122256 29.342059 0.182261 1.464186 -0.002407 0.001684 540240.000000 0 0 1
-29.665110 -5.569246 4.137156 30.465576 0.185577 1.434578 0.012953 0.000858 343974.000000 0 0 1
-30.444600 -6.918646 3.980356 31.473553 0.223458 1.443990 0.007750 -0.002711 256046.000000 0 0 1
-29.696740 -8.125746 4.053056 31.054007 0.267087 1.439907 0.003138 0.004057 562742.000000 0 0 1
-30.635190 -9.213446 4.052256 32.246290 0.292142 1.444797 0.031137 -0.004528 533154.000000 0 0 1
-29.968490 -10.541446 4.459756 32.079930 0.338234 1.431324 0.014498 -0.003800 27940.400000 0 0 1
-29.955670 -10.729146 5.877356 32.357380 0.343932 1.388144 0.006271 -0.000474 -94259.100000 0 0 1
-28.973680 -11.646946 6.247956 31.845917 0.382215 1.373322 -0.010183 0.007064 -483631.000000 0 0 1
-29.179870 -12.003146 7.754556 32.491129 0.390253 1.329803 -0.001186 -0.005971 -215386.000000 0 0 1
-28.750860 -10.968946 8.578456 31.945573 0.364472 1.298926 0.004394 -0.005857 303909.000000 0 0 1
-28.957310 -11.219746 9.947356 32.609176 0.369648 1.260808 0.012364 -0.006942 -237946.000000 0 0 1
-29.109180 -9.903946 10.785356 32.584604 0.327949 1.233438 0.003571 -0.008028 248741.000000 0 0 1
-27.910940 -9.146446 10.838956 31.307523 0.316673 1.217269 0.013006 -0.010942 480650.000000 0 0 1
-28.159510 -8.139946 11.846156 31.615631 0.281395 1.186731 0.007594 -0.012391 488808.000000 0 0 1
-27.201630 -6.881046 11.756756 30.422011 0.247767 1.174011 0.009391 -0.005478 473112.000000 0 0 1
-27.366090 -6.125046 10.604356 29.981185 0.220190 1.209272 -0.006057 -0.008059 -30646.100000 0 0 1
-26.392950 -5.116146 10.528956 28.872507 0.191471 1.197517 -0.004919 -0.006026 -472036.000000 0 0 1
-26.653770 -4.273346 9.211656 28.522615 0.158975 1.241941 -0.001400 -0.007800 -250405.000000 0 0 1
-26.292010 -5.043646 8.128756 27.978292 0.189529 1.276007 -0.005712 -0.001403 215700.000000 0 0 1
-26.615460 -4.287646 7.013456 27.855972 0.159724 1.316282 -0.015811 -0.005022 -289106.000000 0 0 1
-25.726890 -4.679646 5.813956 26.787572 0.179930 1.352016 -0.014093 0.001288 -1029590.000000 0 0 1
-24.446230 -4.163646 5.890956 25.488379 0.168700 1.337564 0.020320 -0.013128 -517792.000000 0 0 1
-23.816430 -4.393546 4.634156 24.657676 0.182425 1.381732 0.039112 -0.006627 317914.000000 0 1 0
-22.334330 -3.891846 4.673856 23.147650 0.172522 1.367484 0.047526 -0.009698 410510.000000 0 1 0
-22.169130 -2.504446 4.666756 22.793007 0.112493 1.364593 0.032709 -0.007952 193638.000000 0 1 0
-20.805030 -2.159546 4.622856 21.421571 0.103429 1.353281 0.030860 -0.007007 -311637.000000 0 1 0
-20.507930 -0.662146 5.000156 21.119072 0.032276 1.331766 0.021665 -0.010212 -519500.000000 0 1 0
-20.661030 0.322554 4.022156 21.051364 -0.015610 1.378550 0.026076 -0.010324 12350.700000 0 1 0
-21.977430 0.656454 3.726256 22.300747 -0.029861 1.402918 0.024701 -0.015544 -1085090.000000 0 1 0
-21.999030 1.654054 2.585756 22.212144 -0.075046 1.454120 0.042805 -0.005690 -269110.000000 0 1 0
-21.641230 2.921354 3.114656 22.058518 -0.134179 1.429123 0.034263 -0.004673 256446.000000 0 1 0
-21.780330 3.984754 2.145756 22.245568 -0.180951 1.474188 0.046113 -0.001568 564133.000000 0 1 0
-20.533730 4.144854 1.187256 20.981503 -0.199179 1.514180 0.039596 0.000437 217033.000000 0 1 0
-20.650530 4.964254 0.010256 21.238839 -0.235917 1.570313 0.042589 0.009154 347062.000000 0 1 0
-21.520830 4.412354 -0.981344 21.990407 -0.202225 1.615437 0.059633 -0.002205 117901.000000 0 1 0
-21.015130 3.173054 -1.776144 21.327415 -0.149857 1.654173 0.054452 0.002074 -235286.000000 0 1 0
-20.884630 2.015354 -0.921244 21.001859 -0.096202 1.614675 0.027511 0.001707 684657.000000 0 1 0
-20.110930 1.014054 -1.619644 20.201511 -0.050380 1.651057 0.001813 0.005496 -40926.200000 0 1 0
-19.350130 0.138954 -0.594644 19.359763 -0.007181 1.601517 0.006493 0.002739 -19817.100000 0 1 0
-20.223430 -0.654246 0.227156 20.235285 0.032340 1.559570 0.014246 -0.000197 1043240.000000 0 1 0
-19.493330 -1.407246 1.186756 19.580057 0.072066 1.510149 0.004969 -0.003982 -155112.000000 0 1 0
-18.726930 -2.672646 0.648156 18.927785 0.141759 1.536546 -0.009242 -0.003910 400529.000000 0 1 0
-17.925630 -3.364746 1.623656 18.310816 0.185547 1.482008 -0.005230 -0.004865 762046.000000 0 1 0
-17.222530 -4.496946 1.119756 17.835131 0.255406 1.507971 -0.010796 -0.002267 -101421.000000 0 1 0
-18.098830 -5.681846 0.630056 18.980200 0.304191 1.537595 -0.023316 -0.003221 -343898.000000 0 1 0
-18.918230 -6.147446 1.662856 19.961353 0.314185 1.487396 0.013060 -0.009343 1003580.000000 0 1 0
-19.990830 -7.042346 1.246356 21.231611 0.338704 1.512060 -0.003018 -0.008956 675211.000000 0 1 0
-20.849230 -7.324646 2.508956 22.240407 0.337846 1.457745 0.013691 -0.000289 -42246.600000 0 1 0
-20.118830 -8.087546 3.465456 21.958714 0.382220 1.412317 0.022303 -0.006495 823713.000000 0 1 0
-20.984330 -8.365746 4.561856 23.046439 0.379356 1.371538 0.041174 -0.013454 469889.000000 0 1 0
-20.355630 -9.289246 5.610356 23.067680 0.428120 1.325120 0.039057 0.002163 26600.600000 0 1 0
-19.867930 -10.525746 5.150256 23.066233 0.487191 1.345617 0.028723 0.006124 220631.000000 0 1 0
-18.966230 -11.061946 6.098556 22.787648 0.528008 1.299869 0.039139 0.006922 -148836.000000 0 1 0
-18.254830 -12.360646 5.717256 22.775237 0.595202 1.317053 0.023678 0.009081 -138402.000000 0 1 0
-18.980630 -13.584746 5.789056 24.048343 0.621196 1.327683 0.027261 0.016731 178194.000000 0 1 0
-18.253830 -14.642946 5.125756 23.956034 0.676072 1.355164 0.009539 0.010342 211047.000000 0 1 0
-18.816930 -16.032346 5.382956 25.299984 0.705664 1.356392 0.014064 0.006208 -612842.000000 0 0 1
-17.995430 -17.049346 4.853056 25.260005 0.758408 1.377470 0.007942 -0.002274 -153793.000000 0 0 1
-18.398830 -18.303346 5.236756 26.475518 0.782797 1.371687 0.011196 -0.001344 -858448.000000 0 0 1
-17.430430 -19.426546 4.965456 26.568145 0.839504 1.382796 0.008492 -0.002774 -1075360.000000 0 0 1
-17.351430 -19.929546 3.644456 26.674726 0.854442 1.433742 0.013774 -0.005507 20211.500000 0 0 1
-16.735330 -21.178746 3.652656 27.238804 0.902063 1.436294 0.010291 -0.011155 1615240.000000 0 0 1
-15.138530 -21.223346 3.763356 26.339483 0.951202 1.427427 0.012263 -0.004545 1459630.000000 0 0 1
-14.514030 -22.507946 3.778856 27.047079 0.998057 1.430624 0.005023 -0.003707 -1344400.000000 0 0 1
-13.192130 -22.322046 4.076256 26.247322 1.037027 1.414863 -0.003292 -0.003150 -1449620.000000 0 0 1
-12.505630 -23.684446 4.197856 27.110252 1.084992 1.415327 0.001270 0.000195 -448515.000000 0 0 1
-12.568630 -24.423046 2.975656 27.628068 1.095520 1.462883 0.005186 0.002341 310566.000000 0 0 1
-11.856730 -25.651826 3.156856 28.435259 1.137829 1.459548 0.007943 -0.002151 -46108.500000 0 0 1
17.220770 19.700754 -24.425044 35.794656 0.852466 2.321790 0.033593 0.006441 739580.000000 0 0 1
16.449670 20.026354 -25.635264 36.452891 0.883141 2.350746 0.026808 -0.000556 636871.000000 0 0 1
17.286670 19.772154 -26.752714 37.489661 0.852366 2.365423 0.026806 0.000595 339274.000000 0 0 1
16.618870 19.852854 -28.168474 38.259451 0.873838 2.398307 0.018062 0.004076 -48414.300000 0 0 1
16.293870 21.144454 -28.479374 39.033996 0.914242 2.388540 0.016046 0.014150 242308.000000 0 0 1
15.554570 21.208054 -29.693914 39.666796 0.937986 2.416720 -0.003429 0.016247 45666.100000 0 0 1
15.077070 22.689554 -30.053764 40.563069 0.984299 2.405227 0.028339 0.010834 -290685.000000 0 0 1
14.062570 23.255854 -29.284044 39.951794 1.026936 2.393495 0.021757 0.002976 5822.640000 0 0 1
13.935170 24.658554 -29.533084 40.919876 1.056415 2.377094 0.030042 0.001471 353476.000000 0 0 1
13.130070 25.448454 -28.406634 40.335584 1.094472 2.352173 0.021070 0.002444 1101480.000000 0 0 1
11.748670 25.077454 -28.271854 39.575341 1.132669 2.366535 0.024255 -0.011464 676486.000000 0 0 1
11.241070 25.744054 -27.074854 39.014942 1.159102 2.337772 0.009275 -0.000123 -582624.000000 0 0 1
9.723770 25.642954 -26.956164 38.454487 1.208350 2.347579 0.013399 -0.004560 -343372.000000 0 0 1
9.185170 26.377554 -25.864874 38.067498 1.235709 2.317806 0.003885 -0.000470 138444.000000 0 0 1
8.649370 27.627754 -26.232514 39.067239 1.267394 2.306988 0.017739 -0.010094 -489347.000000 0 0 1
8.208470 28.552254 -25.095824 38.889723 1.290856 2.272222 0.011641 -0.007625 111136.000000 0 0 1
9.243170 29.128054 -24.278044 39.029516 1.263518 2.242146 0.006173 -0.000324 524315.000000 0 0 1
8.652270 29.629754 -23.115844 38.563277 1.286683 2.213581 0.010356 -0.001730 243348.000000 0 0 1
9.742770 30.136654 -22.116244 38.629881 1.258115 2.180368 -0.008845 0.000480 393610.000000 0 0 1
10.664070 31.051754 -22.692944 39.911195 1.239987 2.175582 -0.009802 0.002124 27667.100000 0 0 1
11.491270 31.540254 -21.659444 39.949573 1.221407 2.143813 -0.020346 0.008563 -599914.000000 0 0 1
12.583370 32.429354 -22.243244 41.288813 1.200656 2.139717 -0.029954 0.032832 -378899.000000 0 0 1
13.547770 31.631554 -22.918644 41.344425 1.166135 2.158360 -0.028848 0.028194 68978.300000 0 0 1
14.568870 32.462954 -23.468544 42.624733 1.148954 2.153861 -0.020115 0.027133 -618618.000000 0 0 1
15.752070 31.686054 -23.960644 42.734601 1.109448 2.166009 -0.009341 0.021190 -538768.000000 0 0 1
16.590570 31.188354 -22.916944 42.108749 1.081918 2.146270 -0.009132 0.020925 -260787.000000 0 0 1
17.810870 30.773954 -23.444244 42.589857 1.046138 2.153718 0.010174 0.014028 -231858.000000 0 0 1
18.821270 30.119454 -22.457744 42.021089 1.012278 2.134641 0.008260 0.016105 147021.000000 0 0 1
19.437170 30.939154 -21.523344 42.406239 1.009872 2.103137 0.019018 0.020160 -322609.000000 0 0 1
20.257370 30.186254 -20.698344 41.832910 0.979745 2.088385 0.025188 0.015104 -320646.000000 0 0 1
20.916470 30.949154 -19.545044 42.158719 0.976474 2.052857 0.032325 0.009561 769188.000000 0 0 1
22.083570 31.715454 -19.951044 43.492508 0.962556 2.047355 0.025707 0.010553 1089980.000000 0 0 1
22.647470 32.391854 -18.805144 43.769550 0.960626 2.014890 0.027137 0.008853 886459.000000 0 0 1
23.962470 33.232554 -19.069044 45.191050 0.946079 2.006408 0.026520 0.006543 601894.000000 0 0 1
25.038970 32.470554 -19.518444 45.412075 0.913910 2.015076 0.033818 0.001533 -470120.000000 0 0 1
26.227470 33.080154 -19.055644 46.317322 0.900433 1.994802 0.038986 0.001652 554875.000000 0 0 1
27.594370 32.481354 -19.506744 46.872174 0.866566 2.000024 0.029828 -0.015791 427752.000000 0 0 1
27.915470 31.349354 -18.783844 45.987914 0.843275 1.991554 0.027601 -0.001454 -536857.000000 0 0 1
29.139870 30.815954 -19.204244 46.557040 0.813346 1.995980 0.016508 -0.005159 -431275.000000 0 0 1
29.528470 29.551354 -18.468144 45.675873 0.785785 1.987043 0.009066 -0.011374 -352831.000000 0 0 1
29.888670 29.818454 -17.107044 45.553526 0.784222 1.955773 0.009393 -0.003627 -19978.000000 0 0 1
30.383470 28.703254 -16.446944 44.916968 0.756969 1.945679 0.012539 -0.005777 -191255.000000 0 0 1
30.943070 29.039754 -15.054544 45.026883 0.753678 1.911707 0.015127 -0.003657 -237680.000000 0 0 1
32.203070 29.636854 -14.927344 46.240744 0.743924 1.899502 -0.021464 0.004201 -536804.000000 0 0 1
32.164970 31.043454 -14.955944 47.137688 0.767657 1.893658 -0.006777 -0.002557 -31058.900000 0 0 1
33.503270 31.818354 -14.930744 48.557223 0.759610 1.883348 -0.008454 -0.008097 14630.900000 0 0 1
34.110670 31.676654 -13.699044 48.524345 0.748417 1.857000 -0.016664 -0.003321 887938.000000 0 0 1
-34.620324 32.225754 -13.775544 49.262883 -0.749591 1.854208 -0.017101 -0.009652 1349620.000000 0 0 1
-33.850724 32.391354 -12.477644 48.484667 -0.763371 1.831078 -0.018386 -0.002963 -318979.000000 0 0 1
-34.347924 33.498154 -11.763744 49.399310 -0.772874 1.811242 -0.012066 -0.010213 452916.000000 0 0 1
-33.521224 33.839354 -10.632644 48.803970 -0.790121 1.790422 -0.021800 -0.010581 98929.400000 0 0 1
-34.103524 -34.312084 -9.750544 49.350203 0.788447 1.769684 -0.024477 -0.001677 -422594.000000 0 0 1
-33.238424 -33.627884 -8.884344 48.109864 0.791223 1.756530 -0.027747 0.004701 -561321.000000 0 0 1
-33.002424 -34.377384 -7.684544 48.270247 0.805801 1.730675 -0.035245 0.001163 -10682.700000 0 0 1
-32.416624 -33.379184 -6.614944 46.997499 0.800027 1.712016 -0.024146 0.006489 -60608.300000 0 0 1
-33.221424 -32.208484 -6.506444 46.726687 0.769918 1.710495 -0.020062 0.004203 -162638.000000 0 0 1
-32.959024 -31.401584 -5.394544 45.841661 0.761204 1.688747 -0.019284 0.007494 -424229.000000 0 0 1
-34.204424 -30.576784 -5.009644 46.151694 0.729458 1.679558 -0.018535 0.011195 -586539.000000 0 0 1
34.864970 -31.448384 -4.622444 47.179805 -0.733922 1.668929 -0.025883 0.009461 -369339.000000 0 0 1
33.598770 -30.848784 -4.441544 45.828508 -0.742754 1.667865 -0.029321 0.012221 -130732.000000 0 0 1
33.354570 -30.300484 -3.033044 45.164655 -0.737456 1.638002 -0.024051 0.005866 -777496.000000 0 0 1
33.894570 -29.015884 -2.843444 44.708484 -0.708003 1.634439 -0.009613 0.000786 423713.000000 0 0 1
32.947470 -28.230684 -2.135344 43.440384 -0.708451 1.619972 -0.000377 -0.004725 -43340.500000 0 0 1
33.248470 -26.716084 -2.200144 42.708905 -0.676889 1.622334 0.025084 -0.017549 -196918.000000 0 0 1
33.179970 -26.153484 -3.441244 42.388174 -0.667523 1.652070 0.009231 -0.012011 213444.000000 0 0 1
33.311970 -24.734884 -3.437444 41.633134 -0.638698 1.653456 0.011980 -0.019951 -277315.000000 0 0 1
32.744170 -24.131384 -4.712544 40.947679 -0.635108 1.686139 0.019876 -0.026329 -701398.000000 0 0 1
33.663570 -24.228384 -5.746044 41.872038 -0.623839 1.708459 0.024748 -0.024643 342292.000000 0 0 1
32.993070 -23.846184 -6.970744 41.301022 -0.625841 1.740387 0.022156 -0.019323 629869.000000 0 0 1
34.005770 -23.645684 -8.150344 42.213018 -0.607594 1.765093 0.014944 -0.010367 234585.000000 0 0 1
34.554070 -24.860584 -8.630944 43.434152 -0.623673 1.770841 0.010832 -0.009401 -192756.000000 0 0 1
-34.354624 -24.523384 -9.315644 43.225198 0.619948 1.788015 0.001424 -0.001562 291674.000000 0 0 1
-33.631424 -25.612684 -10.231244 43.494374 0.650865 1.808253 -0.011744 -0.004799 408656.000000 0 0 1
-32.981224 -26.711684 -9.548244 43.502232 0.680752 1.792087 -0.012285 0.003738 237581.000000 0 0 1
-33.831424 -27.699984 -8.987344 44.638848 0.686079 1.773517 -0.016999 0.003324 -62861.200000 0 0 1
-33.019424 -28.924384 -8.444944 44.701448 0.719385 1.760857 -0.022360 0.006704 57353.600000 0 0 1
-32.481124 -29.720284 -9.505244 45.040741 0.741042 1.783432 -0.023137 0.007030 504702.000000 0 0 1
-31.690824 -30.827684 -9.021544 45.122530 0.771593 1.772087 -0.024041 0.003828 142429.000000 0 0 1
-31.226124 -31.794884 -10.127844 45.700751 0.794423 1.794264 -0.018989 0.007573 470365.000000 0 0 1
-29.963524 -31.446284 -10.746144 44.745515 0.809539 1.813328 -0.014021 0.020935 943850.000000 0 0 1
-29.669424 -32.257584 -11.847144 45.400234 0.827168 1.834801 -0.020201 0.013450 -6729.630000 0 0 1
-30.022424 -31.508084 -13.191244 45.476524 0.809539 1.865093 -0.023105 0.019348 -453507.000000 0 0 1
-29.023124 -30.634284 -13.624944 44.344562 0.812398 1.883100 -0.024171 0.026008 -148083.000000 0 0 1
-29.493824 -29.820184 -14.658944 44.429873 0.790900 1.907030 -0.033927 0.031718 -340101.000000 0 0 1
-28.435924 -28.774984 -14.941644 43.126027 0.791325 1.924596 -0.038130 0.022650 -30245.700000 0 0 1
-27.255524 -29.373684 -15.455944 42.948377 0.822785 1.938928 -0.026877 0.017593 -7298.350000 0 0 1
-26.397024 -28.439384 -16.079144 42.001670 0.822626 1.963645 -0.012641 0.030985 -287222.000000 0 0 1
-25.125224 -29.007884 -16.695544 41.850632 0.857000 1.981148 0.002999 0.021844 -584700.000000 0 0 1
-25.328424 -29.831384 -17.832944 43.005283 0.866852 1.998375 -0.015414 0.028151 36068.300000 0 0 1
-25.763324 -29.239184 -19.072444 43.387058 0.848509 2.025937 -0.010250 0.031643 -160218.000000 0 0 1
-24.675824 -28.497984 -19.870644 42.613071 0.857155 2.055904 0.000767 0.027458 -30497.600000 0 0 1
-24.334424 -27.265384 -19.337344 41.346078 0.842139 2.057477 0.004574 0.026989 -872877.000000 0 0 1
-22.981224 -27.030184 -19.522544 40.495644 0.866183 2.073835 0.048689 0.009493 -627112.000000 0 0 1
-22.474124 -25.741884 -18.936844 39.068336 0.853068 2.076829 0.033066 0.008044 15918.200000 0 0 1
-22.842424 -25.637184 -17.546444 38.560591 0.842983 2.043209 0.040825 0.014114 299730.000000 0 0 1
-22.326324 -24.453284 -16.955244 37.200916 0.830835 2.044039 0.043161 0.010000 -228026.000000 0 0 1
-22.249724 -24.493984 -15.413444 36.504516 0.833373 2.006705 0.017336 0.014834 216258.000000 0 0 1
-23.535824 -24.525884 -14.811544 37.078779 0.805995 1.981726 -0.018363 0.036236 190012.000000 0 0 1
-23.474624 -24.526684 -13.440544 36.513893 0.807312 1.947755 -0.033740 0.038206 922428.000000 0 0 1
-24.894224 -24.693284 -12.761744 37.314109 0.781346 1.919850 -0.044765 0.044519 517816.000000 0 0 1
-25.550724 -25.968784 -12.999544 38.680814 0.793513 1.913540 -0.030391 0.034734 136749.000000 0 0 1
-26.787924 -26.033184 -12.340244 39.339562 0.771111 1.889868 -0.031402 0.033353 205752.000000 0 0 1
-28.004924 -25.224584 -12.913144 39.840992 0.733213 1.900875 -0.038500 0.027747 -738264.000000 0 0 1
-28.159224 -23.892784 -12.332544 38.934543 0.703616 1.893098 -0.035882 0.033262 42234.100000 0 0 1
-28.718724 -23.781684 -11.040944 38.887479 0.691636 1.858676 -0.007337 0.022027 -1321320.000000 0 0 1
-30.177724 -24.129084 -10.918344 40.151189 0.674476 1.846195 -0.018691 0.020083 -872562.000000 0 0 1
-31.179824 -23.240884 -11.446244 40.538088 0.640539 1.857047 -0.002707 0.009040 549415.000000 0 0 1
-31.324924 -23.171084 -12.854044 41.028971 0.636877 1.889454 -0.004575 0.013805 -491359.000000 0 0 1
-32.752624 -22.812784 -13.333144 42.082422 0.608385 1.893186 -0.022983 0.003247 393534.000000 0 0 1
-33.677524 -23.895384 -13.227044 43.360347 0.617097 1.880787 -0.014825 0.009574 -568713.000000 0 0 1
-34.953824 -23.464884 -13.593444 44.239714 0.591211 1.883117 0.000531 -0.002518 -848680.000000 0 0 1
34.084070 -24.499984 -13.196344 44.001324 -0.623239 1.875392 -0.009295 0.004113 -645304.000000 0 0 1
34.122770 -25.737684 -13.861644 44.932583 -0.646226 1.884411 -0.030336 0.014542 -133295.000000 0 0 1
33.312370 -26.705084 -13.249144 44.703639 -0.675750 1.871694 -0.039465 0.009958 44210.500000 0 0 1
33.298670 -27.986184 -14.089844 45.722550 -0.698929 1.884054 -0.034104 0.008426 375775.000000 0 0 1
32.597770 -27.816684 -15.326544 45.511377 -0.706425 1.914273 -0.024821 0.002543 41651.000000 0 0 1
32.670270 -28.988684 -16.116244 46.555597 -0.725760 1.924284 -0.026235 0.014301 16501.300000 0 0 1
31.940470 -28.943984 -17.477344 46.512422 -0.736222 1.956009 -0.022724 0.009240 1096430.000000 0 0 1
30.501170 -28.867184 -17.444244 45.474579 -0.757882 1.964492 0.029767 0.007065 1001440.000000 0 0 1
29.925770 -28.386184 -18.637144 45.262239 -0.759002 1.995180 0.014882 0.000046 567643.000000 0 0 1
28.367870 -28.446784 -18.625744 44.281756 -0.786787 2.004924 0.022000 0.002409 583957.000000 0 0 1
27.785970 -27.538784 -17.730844 42.951456 -0.780930 1.996335 0.017612 -0.002751 -1029770.000000 0 0 1
26.454570 -27.811784 -17.480944 42.177280 -0.810403 1.998150 0.040866 -0.002915 -726901.000000 0 0 1
25.781170 -26.982284 -16.382844 40.756716 -0.808158 1.984460 0.032837 -0.010889 -81925.400000 0 0 1
25.481570 -25.632284 -16.694844 39.812588 -0.788347 2.003510 0.037190 -0.018738 65202.700000 0 0 1
25.123370 -24.889084 -15.553244 38.633581 -0.780714 1.985134 0.029170 -0.009966 -249791.000000 0 0 1
24.982970 -23.376384 -15.811244 37.690842 -0.752189 2.003689 0.024766 -0.019834 469919.000000 0 0 1
23.622070 -22.974684 -15.954944 36.611453 -0.771506 2.021713 0.028205 -0.020615 421513.000000 0 0 1
23.569970 -21.750684 -16.634544 36.129542 -0.745277 2.049258 0.028132 -0.029112 570766.000000 0 0 1
22.141670 -21.113984 -16.603444 34.809887 -0.761644 2.068006 0.032433 -0.020596 485037.000000 0 0 1
21.842270 -20.610184 -15.362344 33.732270 -0.756384 2.043640 0.037586 -0.019571 -19104.000000 0 0 1
20.623570 -19.894084 -15.388544 32.525582 -0.767396 2.063627 0.030570 -0.023431 88439.300000 0 0 1
20.630670 -18.719184 -14.371444 31.345985 -0.736860 2.047078 0.043691 -0.011366 -81993.800000 0 0 1
20.137370 -19.056984 -13.059844 30.647052 -0.757840 2.011015 0.031336 -0.019566 67655.900000 0 0 1
19.751570 -17.956084 -12.308944 29.394822 -0.737818 2.002860 0.017827 -0.022682 -416270.000000 0 0 1
18.838570 -18.337884 -11.154044 28.558403 -0.771931 1.972047 0.023050 -0.012631 76857.700000 0 0 1
19.508070 -18.819784 -9.962844 28.879185 -0.767442 1.923018 0.020046 -0.020874 711193.000000 0 0 1
18.507670 -18.953284 -8.955844 27.963690 -0.797293 1.896808 0.024450 -0.029015 260489.000000 0 0 1
18.978370 -19.747684 -7.758544 28.466551 -0.805261 1.846838 0.031187 -0.030754 81545.000000 0 0 1
19.986070 -19.019084 -7.062444 28.478881 -0.760612 1.821400 0.032186 -0.029186 183175.000000 0 0 1
20.575970 -19.877484 -6.112444 29.254861 -0.768133 1.781285 0.019109 -0.012570 -418122.000000 0 0 1
21.832970 -19.317484 -5.436544 29.654675 -0.724345 1.755167 0.009212 -0.009101 2738.160000 0 0 1
22.893370 -19.165884 -6.386044 30.532262 -0.697004 1.781509 0.006731 -0.025084 -48973.900000 0 0 1
23.885370 -18.359184 -5.808044 30.680676 -0.655323 1.761252 0.005486 -0.029852 -161933.000000 0 0 1
25.031770 -17.946784 -6.800444 31.542394 -0.622018 1.788099 0.014069 -0.037461 144721.000000 0 0 1
25.871070 -19.014384 -7.184344 32.900970 -0.633810 1.790933 0.027308 -0.041079 -116238.000000 0 0 1
25.398670 -19.924484 -8.132244 33.289802 -0.665199 1.817580 0.031090 -0.044597 -753412.000000 0 0 1
26.253570 -21.198084 -8.283444 34.745131 -0.679259 1.811520 0.028340 -0.044997 1006630.000000 0 0 1
27.646870 -20.960784 -8.567044 35.736510 -0.648704 1.812882 0.032550 -0.036409 1100700.000000 0 0 1
28.418570 -22.164884 -8.512444 37.031863 -0.662391 1.802738 0.029564 -0.034400 231473.000000 0 0 1
-28.990880 30.598954 4.348956 42.375471 -0.812377 1.467986 -0.001628 0.012248 329727.000000 0 0 1
-28.290410 31.461254 3.437856 42.449695 -0.838415 1.489721 -0.000644 0.017109 -324738.000000 0 0 1
-27.248630 32.129754 4.074356 42.325043 -0.867417 1.474384 0.007903 0.020651 -102675.000000 0 0 1
-26.588530 33.173554 3.126256 42.628723 -0.895143 1.497394 0.014356 0.013322 -299641.000000 0 0 1
-25.758390 32.794954 2.053156 41.751875 -0.904998 1.521601 0.018803 0.010498 3668.580000 0 0 1
-25.275580 33.931854 1.375256 42.333402 -0.930572 1.538304 0.025544 -0.003507 168533.000000 0 0 1
-23.995830 34.637254 1.927556 42.181212 -0.964936 1.525083 0.037238 -0.006524 -226469.000000 0 0 1
-22.856830 33.852654 1.719356 40.882674 -0.976919 1.528728 0.031213 -0.009861 -431435.000000 0 0 1
-21.717530 34.353554 2.406656 40.713754 -1.007053 1.511650 0.026205 -0.007810 767615.000000 0 0 1
-20.357430 33.870354 1.828856 39.559708 -1.029613 1.524550 0.025035 -0.011903 293590.000000 0 0 1
-20.036830 34.569354 0.643456 39.961592 -1.045503 1.554694 0.043926 -0.028190 528682.000000 0 0 1
-18.703030 34.161054 0.301956 38.947042 -1.069878 1.563043 0.035330 -0.020901 198117.000000 0 0 1
-18.188330 -34.530184 -1.063344 39.042024 1.085989 1.598036 0.041390 -0.019537 -238482.000000 0 0 1
-17.983230 -33.122784 -1.033044 37.703880 1.073400 1.598199 0.047037 -0.019648 591311.000000 0 0 1
-17.061030 -32.609684 -0.056744 36.803171 1.088770 1.572338 0.042293 -0.015093 -47688.100000 0 0 1
-17.111830 -31.072884 0.030056 35.473084 1.067416 1.569949 0.049720 -0.019216 -180427.000000 0 0 1
-16.317130 -30.416284 -0.931244 34.529209 1.078408 1.597769 0.050881 -0.010700 93686.000000 0 0 1
-16.439930 -29.008384 -0.825244 33.353240 1.055199 1.595541 0.034622 -0.008038 -239559.000000 0 0 1
-15.645530 -28.231984 -1.890844 32.332689 1.064751 1.629311 0.035707 -0.000473 -349094.000000 0 0 1
-16.008130 -28.477884 -3.209644 32.826085 1.058692 1.668730 0.040951 -0.006099 226855.000000 0 0 1
-15.061530 -28.032384 -4.189344 32.096960 1.077763 1.701691 0.039264 0.004193 139929.000000 0 0 1
-15.674430 -27.954984 -5.611744 32.537064 1.059773 1.744135 0.044166 -0.003509 190269.000000 0 0 1
-16.612630 -26.885384 -5.696944 32.113214 1.017315 1.749142 0.031210 -0.001842 -325070.000000 0 0 1
-17.129730 -26.808084 -7.033344 32.581727 1.002210 1.788377 0.033142 -0.006494 452357.000000 0 0 1
-17.947530 -25.524284 -7.251044 32.034052 0.957956 1.799129 0.006148 -0.002115 -255941.000000 0 0 1
-17.034130 -24.503284 -7.172344 30.692263 0.963314 1.806663 0.013086 0.009300 -210685.000000 0 0 1
-17.528930 -23.276984 -7.738144 30.148967 0.925341 1.830365 -0.006107 0.011486 -203079.000000 0 0 1
-16.568130 -22.128884 -7.413744 28.620867 0.928121 1.832817 0.005928 0.014018 -1425140.000000 0 0 1
-15.396130 -22.212284 -8.066544 28.204529 0.964692 1.860848 0.023279 0.003011 -1420230.000000 0 0 1
-14.477830 -21.149684 -7.777344 26.784394 0.970521 1.865408 0.021352 -0.001918 224608.000000 0 0 1
-13.378630 -20.972184 -8.780044 26.380095 1.002958 1.910098 0.029942 -0.005648 -219769.000000 0 0 1
-13.850230 -20.163384 -9.897344 26.388413 0.968916 1.955262 0.031172 -0.002518 -818017.000000 0 0 1
-12.936730 -20.103684 -10.906544 26.276791 0.999004 1.998809 0.031040 0.001105 -705573.000000 0 0 1
-13.400930 -19.403184 -12.193344 26.547054 0.966369 2.048015 0.040645 0.000636 -464501.000000 0 0 1
-14.437630 -20.087784 -12.859144 27.880491 0.947612 2.050170 0.031409 0.021375 -307907.000000 0 0 1
-14.873130 -19.389584 -14.008544 28.167450 0.916461 2.091316 0.031192 0.000473 -381211.000000 0 0 1
-16.081730 -20.058084 -14.640344 29.585274 0.894984 2.088461 0.046043 0.000003 -164980.000000 0 0 1
-17.270930 -19.839784 -13.897744 29.749778 0.854509 2.056866 0.050910 -0.000507 -429109.000000 0 0 1
-18.388230 -20.203284 -14.630744 30.989649 0.832396 2.062487 0.047543 0.003393 -746021.000000 0 0 1
-19.749530 -20.025784 -13.919144 31.381818 0.792343 2.030343 0.024019 0.011938 -61948.600000 0 0 1
-20.689430 -20.522784 -14.830644 32.698397 0.781355 2.041551 0.031183 0.006621 -11902.900000 0 0 1
-22.056530 -20.231584 -14.502044 33.258334 0.742270 2.021993 0.004968 0.013531 407754.000000 0 0 1
-22.926230 -20.962884 -15.517144 34.725153 0.740694 2.034044 0.001386 0.011969 -555437.000000 0 0 1
-23.010630 -20.311584 -16.737544 34.959904 0.723177 2.070043 -0.001301 -0.003584 325696.000000 0 0 1
-23.980230 -20.846384 -17.629244 36.337492 0.715601 2.077334 -0.001186 -0.003053 74720.600000 0 0 1
-24.059530 -20.115384 -19.009744 36.672333 0.696350 2.115737 0.004922 -0.002440 322368.000000 0 0 1
-22.889930 -20.263784 -19.804944 36.425343 0.724618 2.145652 0.014207 -0.010147 287409.000000 0 0 1
-23.155730 -19.758984 -21.118244 37.048421 0.706412 2.177323 0.014785 -0.015543 -21884.300000 0 0 1
-21.981330 -19.100984 -21.876444 36.422592 0.715401 2.215083 0.007773 -0.008674 232107.000000 0 0 1
-20.826330 -19.911084 -22.028144 36.268807 0.762935 2.223527 0.015307 -0.008525 448575.000000 0 0 1
-19.865730 -19.182284 -22.828244 35.829261 0.767897 2.261578 0.012797 -0.007718 2163150.000000 0 0 1
-18.401530 -19.838284 -22.962844 35.488956 0.822953 2.274495 0.025585 -0.004038 1535320.000000 0 0 1
-18.368130 -20.978584 -23.782944 36.648568 0.851646 2.276995 0.020997 -0.005563 553667.000000 0 0 1
-17.152930 -21.723384 -23.528644 36.328026 0.902425 2.275321 0.021424 -0.000829 678519.000000 0 0 1
-17.041030 -22.995484 -24.438644 37.635572 0.933042 2.277525 0.024648 -0.002397 -124662.000000 0 0 1
-16.735230 -22.749684 -25.846854 38.284146 0.936559 2.311940 0.024497 -0.008207 219421.000000 0 0 1
-16.941530 -24.014884 -26.516904 39.583788 0.956416 2.304861 0.035053 -0.008394 -66566.200000 0 0 1
-16.701730 -23.966484 -28.069944 40.512490 0.962168 2.336260 0.056906 -0.001917 -336835.000000 0 0 1
-15.418230 -23.595684 -28.479034 40.069108 0.992011 2.361357 0.021370 -0.006712 -483452.000000 0 0 1
-15.252330 -23.683784 -29.895764 41.076902 0.998651 2.385905 0.054026 -0.014330 -875412.000000 0 0 1
-13.789230 -23.616484 -30.281544 40.802611 1.042313 2.407065 0.008418 -0.004677 -672084.000000 0 0 1
-13.146030 -24.853784 -30.009844 41.123222 1.084270 2.388759 0.020568 -0.004224 295199.000000 0 0 1
-11.825130 -24.844184 -30.543354 41.109167 1.126555 2.408310 0.028370 -0.004842 101123.000000 0 0 1
-11.158130 -26.200584 -30.320694 41.597102 1.168186 2.387530 -0.001309 0.002904 -1114260.000000 0 0 1
-11.547230 -27.233584 -31.171164 42.972643 1.169767 2.382371 0.006404 0.013173 469133.000000 0 0 1
-10.631930 -28.322084 -31.053344 43.353068 1.211681 2.369267 0.006773 0.017932 721022.000000 0 0 1
-9.283730 -28.158384 -31.820924 43.493142 1.252322 2.391508 0.011617 0.008326 234281.000000 0 0 1
-8.465030 -27.198184 -31.157724 42.216130 1.269064 2.400976 0.000737 0.015316 559995.000000 0 0 1
-7.280030 -26.769684 -31.868224 42.251609 1.305267 2.425306 0.017683 0.014994 636610.000000 0 0 1
-6.533130 -25.571084 -31.276974 40.924457 1.320658 2.440691 0.005266 0.013967 -476445.000000 0 0 1
-7.173230 -24.321884 -31.248954 40.243091 1.283998 2.459896 0.013524 0.013620 49028.000000 0 0 1
-7.987230 -24.085284 -30.104984 39.372665 1.250586 2.441242 0.011685 0.012703 -26587.500000 0 0 1
-8.509730 -22.620884 -29.903814 38.449421 1.210984 2.461865 0.006685 0.007043 -91040.600000 0 0 1
-9.208330 -22.255884 -31.088274 39.326816 1.178495 2.482439 0.004392 0.004087 269874.000000 0 0 1
-9.791230 -20.926484 -30.902394 38.584243 1.133168 2.499605 -0.003001 0.006001 311556.000000 0 0 1
-10.340430 -20.314284 -32.163934 39.422243 1.099957 2.525051 -0.003235 0.005913 -408175.000000 0 0 1
-10.871130 -19.081984 -32.022934 38.830038 1.052949 2.540459 -0.000543 0.002699 -253149.000000 0 0 1
-11.295230 -18.633384 -33.300354 39.795713 1.025843 2.562176 0.018427 0.003106 -311891.000000 0 0 1
-12.290030 -17.492784 -33.217674 39.502609 0.958343 2.569737 0.009988 0.004760 -434432.000000 0 0 1
-11.644130 -16.260884 -33.398454 38.928894 0.949358 2.602033 0.024647 -0.000064 112804.000000 0 0 1
-11.069630 -15.709084 -32.225174 37.520312 0.956947 2.603861 0.000489 0.004603 75025.300000 0 0 1
-11.106430 -14.157284 -32.333144 37.002887 0.905577 2.633760 0.007506 -0.003687 -113256.000000 0 0 1
-10.206130 -13.601384 -33.329364 37.416697 0.927056 2.669815 0.016195 -0.009035 72847.700000 0 0 1
-10.597330 -13.731284 34.515199 38.628364 0.913510 0.465673 0.025824 -0.005505 -427892.000000 0 0 1
-11.307630 -12.503184 33.912880 37.871830 0.835567 0.461323 0.034075 -0.009209 -707048.000000 0 0 1
-12.452830 -12.078984 34.539770 38.651915 0.770160 0.465470 0.033498 -0.004413 -1443700.000000 0 0 1
-13.320730 -11.529284 33.598070 37.936744 0.713432 0.482939 0.019974 -0.011042 -339768.000000 0 0 1
-14.309030 -10.612084 34.295221 38.646175 0.638126 0.479088 0.027337 -0.010848 1371.840000 0 0 1
-13.690530 -9.460984 -34.258193 38.086278 0.604701 2.689395 0.033797 -0.017470 73207.100000 0 0 1
-14.498430 -9.049784 -33.188394 37.330584 0.558017 2.666041 0.037177 -0.017909 92823.500000 0 0 1
-13.778930 -8.045384 -32.284464 36.012133 0.528490 2.682576 0.036623 -0.028929 -117101.000000 0 0 1
-13.463430 -6.730784 -32.671064 35.971736 0.463592 2.709861 0.035019 -0.028602 79932.100000 0 0 1
-14.623830 -5.941284 -32.818754 36.417384 0.385903 2.693289 0.032364 -0.025797 130895.000000 0 0 1
-15.015730 -5.150684 -31.493694 35.268320 0.330442 2.674706 0.033428 -0.022682 48515.700000 0 0 1
-15.386330 -6.078384 -30.451794 34.655413 0.376233 2.643933 0.020004 -0.025074 28138.600000 0 0 1
-15.823030 -5.517984 -29.210924 33.676319 0.335544 2.620755 0.031501 -0.024998 311567.000000 0 0 1
-14.765830 -4.706684 -28.388384 32.343205 0.308573 2.641886 0.023612 -0.018682 305928.000000 0 0 1
-14.315430 -3.575284 -29.081544 32.610587 0.244744 2.672065 0.024304 -0.019307 74591.000000 0 0 1
-13.069930 -3.138284 -28.554454 31.559922 0.235654 2.701634 0.011663 -0.016436 290125.000000 0 0 1
-12.682030 -1.792284 -29.209624 31.894330 0.140395 2.728354 -0.001510 -0.008737 9305.350000 0 0 1
-12.675630 -1.926284 -30.608634 33.185397 0.150814 2.744922 0.009302 -0.011188 203927.000000 0 0 1
-12.614330 -0.681284 -31.348184 33.797841 0.053956 2.758519 0.013893 -0.013319 -111571.000000 0 0 1
-12.741730 -0.983284 -32.861274 35.258784 0.077018 2.770695 0.009334 -0.013827 -721332.000000 0 0 1
-14.005930 -1.470284 -33.232074 36.092915 0.104593 2.740761 0.006677 -0.016344 -102845.000000 0 0 1
-14.082230 -1.589284 34.541744 37.335869 0.112382 0.389333 -0.004047 -0.015241 205968.000000 0 0 1
-15.505830 -1.805284 33.951677 37.368519 0.115904 0.430964 0.000481 -0.019007 370751.000000 0 0 1
-15.396230 -1.871284 32.553363 36.059216 0.120948 0.444618 0.003040 -0.021608 -696087.000000 0 0 1
-16.637930 -1.817284 31.954043 36.071929 0.108794 0.482490 0.006096 -0.016489 -881593.000000 0 0 1
-16.607830 -1.905284 30.442063 34.729948 0.114223 0.502178 0.009699 -0.013072 -125233.000000 0 0 1
-16.140930 -0.713284 29.892383 33.979302 0.044162 0.495516 0.003618 -0.002345 -59888.900000 0 0 1
-16.391930 -0.673284 28.528533 32.909358 0.041051 0.521883 0.005780 -0.003642 -72586.800000 0 0 1
-15.794830 0.656716 27.971993 32.130053 -0.041554 0.514403 -0.004762 -0.002235 -54150.800000 0 0 1
-16.321930 1.888716 28.480393 32.880168 -0.115204 0.523274 -0.000627 -0.002140 1178150.000000 0 0 1
-17.693230 2.162716 28.088733 33.267171 -0.121631 0.565468 0.007884 -0.007633 1045910.000000 0 0 1
-17.766330 2.840716 26.671533 32.172703 -0.158551 0.593459 0.011271 -0.015176 -453302.000000 0 0 1
-17.365230 4.220716 26.745553 32.166602 -0.238432 0.589049 0.006168 -0.007791 73072.100000 0 0 1
-17.906930 4.926716 25.661653 31.677296 -0.268486 0.626480 0.007972 -0.005520 -286427.000000 0 0 1
-17.912130 6.464716 25.814033 32.078049 -0.346363 0.635583 0.013471 0.001416 372876.000000 0 0 1
-16.582430 6.966716 25.819273 31.466601 -0.397735 0.608460 -0.005858 0.003146 38802.500000 0 0 1
-16.191730 7.322716 24.483123 30.252564 -0.424724 0.627852 -0.004448 0.005284 -70604.500000 0 0 1
-15.143830 8.478716 24.589243 30.097427 -0.510396 0.614628 -0.012438 0.002881 96519.400000 0 0 1
-13.940630 8.132716 25.215743 29.938536 -0.528111 0.569352 -0.033534 0.006368 -512701.000000 0 0 1
-12.849830 8.201716 24.339603 28.719376 -0.568088 0.559543 -0.014860 0.011473 -461387.000000 0 0 1
-11.468030 8.091716 24.985093 28.657398 -0.614467 0.511819 -0.016008 0.017731 -349084.000000 0 0 1
-10.426030 8.618716 24.186073 27.711920 -0.690783 0.509952 -0.015849 0.005287 226083.000000 0 0 1
-9.165730 8.708716 24.823533 27.857856 -0.759836 0.471081 -0.016691 0.000588 109824.000000 0 0 1
-8.901730 9.990716 25.685893 28.962395 -0.842976 0.480269 -0.010663 -0.009757 -625333.000000 0 0 1
-9.822030 10.170716 26.765033 30.270162 -0.802837 0.486007 -0.024835 -0.005124 362815.000000 0 0 1
-9.733730 11.421716 27.427703 31.264676 -0.865019 0.500642 -0.030133 -0.000675 -659334.000000 0 0 1
-10.378830 12.624716 26.716513 31.318934 -0.882722 0.549000 -0.034858 0.001208 1922120.000000 0 0 1
-11.842730 12.506716 26.567853 31.662581 -0.812660 0.575182 -0.019069 -0.001825 2118200.000000 0 0 1
-12.164730 11.860716 25.384763 30.545760 -0.772745 0.589821 -0.021523 0.003247 -556614.000000 0 0 1
-13.689130 11.838716 25.098183 30.942952 -0.713039 0.624746 -0.014793 0.003445 -66078.200000 0 0 1
-14.206530 13.077716 24.756283 31.396269 -0.744049 0.662413 -0.005317 -0.003789 416478.000000 0 0 1
-15.587030 13.084716 24.387863 31.763708 -0.698344 0.695411 0.006390 0.013843 707278.000000 0 0 1
-15.982030 12.686716 22.939933 30.702094 -0.670956 0.726990 0.005472 0.021961 -304764.000000 0 0 1
-15.755930 11.311716 22.681733 29.844016 -0.622661 0.707469 -0.000753 0.014995 71909.400000 0 0 1
-15.910630 11.025716 21.276233 28.764434 -0.605998 0.738214 -0.010040 0.019576 -396209.000000 0 0 1
-16.103630 9.497716 20.996533 28.113838 -0.532876 0.727499 -0.011158 0.006179 332862.000000 0 0 1
-17.400730 9.022716 21.308233 28.952299 -0.478358 0.743687 -0.009327 0.012489 -91186.600000 0 0 1
-17.681730 7.622716 21.200633 28.639417 -0.407032 0.737338 -0.019126 0.011709 436642.000000 0 0 1
-19.164230 7.228716 21.454533 29.661744 -0.360697 0.762218 -0.004741 0.012685 375370.000000 0 0 1
-19.461730 7.167716 22.844433 30.854549 -0.352882 0.737144 -0.005162 0.001284 93211.100000 0 0 1
-20.840130 7.369716 23.094933 31.968729 -0.339906 0.763497 -0.014840 0.005813 17208.900000 0 0 1
-21.177130 8.285716 24.329683 33.302513 -0.372947 0.751646 0.009135 0.002303 -735984.000000 0 0 1
-21.132130 9.679716 24.070433 33.461165 -0.429534 0.767924 0.011849 -0.002150 1121230.000000 0 0 1
-19.825230 10.297716 23.927333 32.735301 -0.479066 0.751107 0.012162 0.003833 1739000.000000 0 0 1
-18.675930 10.080716 24.974883 32.774319 -0.494956 0.704360 0.021224 -0.002560 -77981.300000 0 0 1
-19.150630 10.394716 26.275483 34.134993 -0.497289 0.692344 0.031828 -0.001635 -207815.000000 0 0 1
-18.201630 10.164716 27.266073 34.322872 -0.509308 0.652778 0.033171 -0.005473 -142161.000000 0 0 1
-30.000760 -14.256446 21.105833 39.354136 0.443614 1.004743 0.001702 0.004691 336631.000000 0 0 1
-29.119060 -15.370646 21.298933 39.215060 0.485683 0.996634 0.000261 0.004709 278577.000000 0 0 1
-29.649060 -16.569346 20.785333 39.820096 0.509612 1.021625 -0.004699 0.009712 47186.400000 0 0 1
-29.400070 -16.739246 19.258633 38.928928 0.517586 1.053292 -0.015993 0.011060 58172.600000 0 0 1
-30.066610 -15.763646 18.478433 38.651598 0.482891 1.072333 -0.006407 -0.005363 209129.000000 0 0 1
-29.478310 -15.728046 17.157733 37.559686 0.490123 1.096388 -0.003897 -0.005026 -892581.000000 0 0 1
-29.997730 -14.615446 16.179733 37.084482 0.453370 1.119321 -0.007937 0.003018 -1452380.000000 0 0 1
-31.219010 -14.764446 15.595433 37.892387 0.441759 1.146618 0.006370 0.005746 3197.890000 0 0 1
-32.410840 -14.669046 16.432333 39.187562 0.425011 1.138094 0.013679 -0.001910 595414.000000 0 0 1
-32.717760 -13.187846 16.939133 39.131896 0.383158 1.123119 0.000365 -0.002096 -1182210.000000 0 0 1
-33.964580 -12.960446 17.524633 40.356890 0.364533 1.121600 -0.007591 0.000338 -406258.000000 0 0 1
-34.117405 -11.684846 18.068433 40.336103 0.329968 1.106329 0.002992 0.002976 -42429.300000 0 0 1
34.816352 -11.579246 19.067533 41.350068 -0.321073 1.091534 0.000790 0.025730 -90712.900000 0 0 1
-34.945240 -12.284946 20.222333 42.202280 0.338054 1.071080 -0.008467 0.024959 -35207.800000 0 0 1
34.141483 -12.063846 21.188033 41.953665 -0.339655 1.041375 -0.005948 0.021980 -729220.000000 0 0 1
34.538225 -12.614946 22.589233 43.154366 -0.350192 1.019899 -0.008518 0.007116 576253.000000 0 0 1
-34.445203 -11.903946 23.188033 43.195611 0.332741 1.004139 -0.010787 0.014506 33263.000000 0 0 1
-33.205530 -12.425646 22.837633 42.172993 0.358073 0.998549 -0.010354 0.011454 -477963.000000 0 0 1
-31.977730 -11.527046 23.183433 41.145104 0.345973 0.972234 0.000609 0.010637 345885.000000 0 0 1
-31.958120 -10.306546 22.407233 40.368681 0.311971 0.982355 0.003069 0.013982 -510563.000000 0 0 1
-30.696230 -9.723546 22.377333 39.211617 0.306767 0.963461 0.005834 0.006205 -622112.000000 0 0 1
-30.748030 -8.325946 21.674433 38.529778 0.264439 0.973345 0.006002 0.006481 -26549.800000 0 0 1
-30.912450 -8.256046 20.273333 37.878092 0.260987 1.006021 0.004916 0.007384 -145958.000000 0 0 1
-32.186820 -8.533546 19.763533 38.722216 0.259163 1.035155 -0.004443 0.006464 -602187.000000 0 0 1
-32.375100 -8.288846 18.237033 38.071530 0.250641 1.071258 -0.004154 -0.002057 553321.000000 0 0 1
-33.745930 -8.167946 17.840233 39.035587 0.237475 1.096149 -0.006480 0.001011 675326.000000 0 0 1
-33.851920 -7.943346 16.432333 38.458689 0.230480 1.129323 0.002354 0.004204 1808310.000000 0 0 1
34.709214 -8.094846 15.942633 39.043868 -0.229123 1.150177 -0.003162 0.007676 1676810.000000 0 0 1
34.162678 -9.369846 16.083833 38.904656 -0.267689 1.144593 -0.015521 0.022736 -954595.000000 0 0 1
32.793835 -9.287246 15.873433 37.598596 -0.275974 1.134946 -0.013817 0.015227 -865662.000000 0 0 1
32.156585 -10.683546 15.879433 37.421124 -0.320762 1.132559 -0.016574 0.017228 -359912.000000 0 0 1
32.033505 -11.461346 17.089333 38.072998 -0.343600 1.105310 -0.019276 0.021225 608698.000000 0 0 1
31.011395 -12.468046 16.872933 37.441349 -0.382270 1.103303 -0.023636 0.019583 665615.000000 0 0 1
30.452775 -12.950846 18.185133 37.759700 -0.402105 1.068315 -0.029478 0.020621 -612673.000000 0 0 1
31.310355 -13.865346 18.738133 39.034648 -0.416880 1.070098 -0.010661 0.011835 -514355.000000 0 0 1
31.017395 -14.103646 20.078433 39.549148 -0.426757 1.038303 -0.015987 0.015979 -84173.100000 0 0 1
31.859565 -15.248746 20.805133 40.992800 -0.446401 1.038479 -0.012324 0.023233 201444.000000 0 0 1
31.693995 -15.331546 22.203233 41.623901 -0.450552 1.008152 -0.004689 0.017934 -32373.100000 0 0 1
32.429205 -16.431446 22.752533 42.887335 -0.468983 1.011584 -0.008197 0.028706 197293.000000 0 0 1
32.710685 -16.277946 24.258593 43.857038 -0.461753 0.984681 0.000360 0.010050 -30838.400000 0 0 1
33.783925 -15.420646 24.537533 44.511127 -0.428204 0.986914 0.000633 0.013871 -121629.000000 0 0 1
34.062068 -15.264846 25.923503 45.445220 -0.421313 0.963762 -0.007001 0.017805 -446057.000000 0 0 1
-34.870674 -14.315846 26.291323 45.958035 0.389560 0.961766 -0.002320 0.011556 924302.000000 0 0 1
-33.569480 -14.920146 26.045133 45.031874 0.418234 0.954066 -0.012022 0.014377 563051.000000 0 0 1
-32.561870 -14.090546 26.545283 44.311070 0.408401 0.928461 -0.004180 0.006952 -460074.000000 0 0 1
-31.200770 -14.796346 26.489293 43.521288 0.442820 0.916437 0.007254 0.002930 -1039380.000000 0 0 1
-30.699080 -14.739246 25.195013 42.361156 0.447618 0.933821 -0.003866 0.009315 1522100.000000 0 0 1
-29.351550 -15.309646 25.026273 41.499555 0.480775 0.923478 0.002355 -0.004965 1711270.000000 0 0 1
-29.230520 -16.811146 25.322543 42.169528 0.521927 0.926678 0.006967 0.001408 -1007830.000000 0 0 1
-29.168240 -17.032246 26.724823 43.070869 0.528520 0.901435 0.014426 0.001815 9928.440000 0 0 1
-28.833160 -18.363546 27.109883 43.629310 0.567104 0.900308 0.014831 -0.000129 -106618.000000 0 0 1
-28.508680 -18.463846 28.622003 44.417086 0.574726 0.870569 0.018690 -0.007711 66768.900000 0 0 1
-27.381370 -17.698246 29.022493 43.649426 0.573813 0.843437 0.021840 -0.003230 83038.600000 0 0 1
-26.949470 -18.027946 30.296953 44.375513 0.589584 0.819290 0.032327 -0.006548 -678474.000000 0 0 1
-25.856270 -17.127146 30.810273 43.716802 0.585042 0.788698 0.023051 -0.008761 -514484.000000 0 0 1
-26.196860 -15.850046 31.312553 43.794696 0.544114 0.774194 0.032198 -0.017264 -532975.000000 0 0 1
-25.111800 -15.039446 30.987823 42.626665 0.539610 0.756914 0.020896 -0.009731 -360881.000000 0 0 1
-24.918830 -13.702546 31.766663 42.636003 0.502757 0.730162 0.028408 -0.006714 -98994.100000 0 0 1
-24.500830 -13.868646 33.092044 43.447824 0.515081 0.704940 0.031851 -0.010326 -31542.500000 0 0 1
-24.131330 -12.636646 33.647847 43.291841 0.482397 0.680540 0.033071 -0.003784 -241478.000000 0 0 1
-23.176530 -12.728646 -34.311096 43.317678 0.502232 2.485006 0.038308 -0.006013 58676.000000 0 0 1
-21.892430 -13.278146 -34.577457 43.025436 0.545198 2.504202 0.016041 -0.005504 13346.000000 0 0 1
-21.666130 -14.671446 -34.396822 43.218212 0.595232 2.491268 0.016600 -0.009656 -295078.000000 0 0 1
-21.649730 -15.159546 -32.903184 42.203580 0.610873 2.464871 0.015534 -0.009083 792602.000000 0 0 1
-20.469930 -14.853746 -32.093484 40.861271 0.627726 2.474180 0.005602 -0.003399 1108690.000000 0 0 1
-20.581630 -15.640946 -30.923074 40.304828 0.649837 2.445307 0.022911 -0.010861 820718.000000 0 0 1
-19.271530 -15.588046 -30.041964 38.947383 0.680122 2.451752 0.021562 -0.008989 744813.000000 0 0 1
-19.064830 -14.363646 -29.373534 37.849525 0.645680 2.459192 0.012852 -0.004999 256698.000000 0 0 1
-19.754630 -14.312646 -28.112074 37.220773 0.626994 2.426876 0.017348 -0.004958 113561.000000 0 0 1
-19.586930 -12.982746 -27.327854 36.041796 0.585340 2.431385 0.016411 -0.003593 -1210420.000000 0 0 1
-18.288730 -12.818746 -26.933454 34.988695 0.611336 2.449286 0.019052 -0.007745 -1359650.000000 0 0 1
-18.156830 -11.702446 -26.149794 33.917981 0.572513 2.451161 0.014986 -0.012382 546001.000000 0 0 1
-16.807530 -11.641246 -25.369154 32.582290 0.605756 2.463257 0.007504 -0.005395 -280047.000000 0 0 1
-16.672630 -12.619246 -24.374144 32.114184 0.647892 2.432547 0.006514 -0.001588 -235045.000000 0 0 1
-15.406330 -12.757446 -23.794944 31.085475 0.691621 2.442565 0.013345 -0.007354 429031.000000 0 0 1
-14.234630 -13.331546 -24.689744 31.463284 0.752649 2.473034 -0.004600 -0.001987 -105759.000000 0 0 1
-13.593530 -12.448446 -25.548174 31.503286 0.741456 2.516602 0.004498 -0.014042 -585266.000000 0 0 1
-12.808030 -13.212146 -26.400564 32.180680 0.800928 2.532881 -0.008429 0.004521 -450026.000000 0 0 1
-12.145630 -12.211246 -27.363994 32.332940 0.788092 2.579834 -0.006823 0.012055 -303281.000000 0 0 1
-13.093630 -11.439646 -28.124884 33.065355 0.718082 2.587892 0.004143 -0.004135 210830.000000 0 0 1
-12.615730 -10.495746 -29.060234 33.373859 0.693926 2.627519 0.012352 -0.023146 -287580.000000 0 0 1
-11.856130 -11.033346 -30.285924 34.344428 0.749468 2.650524 0.001906 -0.015854 -39523.500000 0 0 1
-11.431730 -10.030946 -31.156564 34.670388 0.720225 2.687480 0.005785 -0.020190 -89093.900000 0 0 1
-10.863130 -10.491046 -32.356194 35.707043 0.767976 2.704904 0.019394 -0.016137 -75410.600000 0 0 1
-10.093030 -9.376846 -33.124724 35.875365 0.748631 2.747454 0.010371 -0.020595 -204188.000000 0 0 1
-8.903130 -8.947246 -32.534374 34.897054 0.787870 2.771505 -0.006417 -0.015003 -637279.000000 0 0 1
-8.497630 -7.696646 -33.060114 34.991702 0.735978 2.807776 -0.010064 -0.007267 868012.000000 0 0 1
-6.947130 -7.440346 -32.865784 34.406120 0.819666 2.841235 -0.005164 -0.001841 692312.000000 0 0 1
-6.540030 -7.311346 -31.553694 33.043356 0.841026 2.840180 -0.023713 0.002780 -428409.000000 0 0 1
-7.017830 -6.222046 -30.803894 32.200057 0.725365 2.846039 -0.033248 0.010457 -963922.000000 0 0 1
-6.314030 -4.846546 -31.051024 32.054985 0.654660 2.890655 -0.033061 0.013388 42476.900000 0 0 1
-4.967330 -4.821446 -30.640884 31.413125 0.770496 2.919400 -0.023405 0.015770 -295032.000000 0 0 1
-4.358930 -3.618846 -30.936274 31.450745 0.692895 2.960470 -0.011672 0.007830 -1168530.000000 0 0 1
-2.911830 -3.519046 -30.523354 30.863207 0.879541 2.993054 -0.014922 0.016644 -1569540.000000 0 0 1
-2.130830 -4.236446 -31.450074 31.805582 1.104771 2.991937 -0.021337 0.016842 725663.000000 0 0 1
-0.704730 -4.044946 -31.358334 31.625991 1.398303 3.011399 -0.011448 0.012427 1143350.000000 0 0 1
-0.098930 -2.644046 -31.663634 31.773990 1.533398 3.058224 -0.007368 0.006951 -1083900.000000 0 0 1
-0.005930 -1.736846 -30.660824 30.709978 1.567382 3.085006 -0.004209 0.006475 270361.000000 0 0 1
0.672070 -0.521246 -31.017664 31.029322 -0.659674 3.114179 -0.001815 0.001074 404714.000000 0 0 1
0.953470 0.402354 -29.850414 29.868347 0.399317 3.106937 0.005551 -0.007974 94363.400000 0 0 1
-0.275830 0.998854 -29.520804 29.538985 -1.301365 3.106505 0.016039 -0.004310 -45854.600000 0 0 1
-0.037330 2.260354 -28.859374 28.947781 -1.554283 3.063419 0.030926 -0.010192 -203667.000000 0 0 1
-1.345230 2.960454 -28.502134 28.687027 -1.144290 3.027996 0.021093 -0.006779 -734405.000000 0 0 1
-1.972130 3.533954 -29.591034 29.866493 -1.061792 3.005672 0.005956 -0.004063 -327379.000000 0 0 1
-3.088730 4.214154 -29.029164 29.495621 -0.938302 2.963512 0.033529 -0.004474 -50179.700000 0 0 1
-4.295130 4.161454 -29.991994 30.582438 -0.769592 2.944772 0.031739 -0.007412 -654930.000000 0 0 1
-3.961330 4.728154 -31.230124 31.833444 -0.873418 2.946592 0.035129 -0.009556 -115597.000000 0 0 1
-5.039730 5.163954 -32.027514 32.830274 -0.797572 2.919998 0.033777 -0.009121 -452022.000000 0 0 1
-4.558130 5.862954 -33.289764 34.108051 -0.909960 2.922104 0.040083 -0.006034 232198.000000 0 0 1
-3.978130 5.138154 -34.384865 34.993500 -0.911965 2.954812 0.048597 -0.008857 466837.000000 0 0 1
-2.826230 4.342054 -34.181216 34.571614 -0.993791 2.991168 0.039109 -0.013639 -217903.000000 0 0 1
-2.285930 3.643454 33.694186 33.967608 -1.010468 0.126967 0.038364 -0.013582 -349420.000000 0 0 1
-2.958130 2.466654 33.352216 33.573877 -0.695047 0.114974 0.031907 -0.018208 -280899.000000 0 0 1
-2.664430 1.849754 32.095113 32.258597 -0.606850 0.100719 0.035508 -0.013768 -331312.000000 0 0 1
-2.684630 2.660354 30.776463 31.007667 -0.780856 0.122193 0.053275 -0.018063 -300112.000000 0 0 1
-3.872230 3.374954 30.625133 31.052911 -0.716889 0.166178 0.044576 -0.014484 -421985.000000 0 0 1
-3.730030 4.210154 29.494713 30.026265 -0.845792 0.188443 0.040762 -0.020751 396196.000000 0 0 1
-4.874130 5.265454 29.353423 30.217637 -0.823973 0.239737 0.041053 -0.008806 412653.000000 0 0 1
-4.829530 5.982754 28.144633 29.175984 -0.891655 0.266682 0.039951 -0.003422 267706.000000 0 0 1
-5.986230 6.826954 27.988853 29.424788 -0.850918 0.313695 0.023600 0.000712 543012.000000 0 0 1
-6.024930 7.539654 26.610013 28.306165 -0.896605 0.347936 0.020948 -0.005611 476839.000000 0 0 1
-5.004530 8.552854 26.460193 28.254884 -1.041383 0.358335 0.023734 -0.009386 403389.000000 0 0 1
-5.087030 9.207454 25.268903 27.371016 -1.066043 0.394473 0.028762 -0.007065 54467.600000 0 0 1
-4.347830 10.568454 25.385773 27.839420 -1.180504 0.422993 0.030229 -0.011435 -518136.000000 0 0 1
-4.665930 11.249454 24.181103 27.074838 -1.177623 0.466560 0.044151 -0.009675 242240.000000 0 0 1
-4.324630 12.623854 24.178663 27.616514 -1.240751 0.504296 0.039649 -0.001609 926422.000000 0 0 1
-2.747330 12.955454 24.104123 27.502734 -1.361832 0.502406 0.036063 0.000217 1620100.000000 0 0 1
-1.919730 12.545754 25.164653 28.184057 -1.418956 0.467121 0.040898 0.000675 -48948.100000 0 0 1
-2.270630 13.016154 26.486743 29.599385 -1.398087 0.462721 0.028741 0.002751 -1170830.000000 0 0 1
-1.340430 12.488554 27.593313 30.317514 -1.463873 0.427164 0.022444 0.000848 457612.000000 0 0 1
-0.005630 12.980054 27.520713 30.428136 -1.570363 0.440709 0.016474 0.009414 -103958.000000 0 0 1
0.807870 12.318854 28.448443 31.011622 1.505310 0.409430 0.024846 -0.005566 194337.000000 0 0 1
2.269170 12.841354 28.443073 31.289901 1.395894 0.429875 0.019766 -0.001266 284959.000000 0 0 1
2.451270 14.225354 28.717333 32.141167 1.400155 0.465772 0.010713 0.000210 1446270.000000 0 0 1
3.862270 14.591954 28.608423 32.346315 1.312045 0.485501 0.026968 -0.003518 1496090.000000 0 0 1
4.242570 16.063654 28.876653 33.315184 1.312582 0.522105 0.015858 -0.002060 -407760.000000 0 0 1
4.237570 16.534454 30.248223 34.731832 1.319909 0.513750 0.009932 0.004199 859820.000000 0 0 1
2.989470 17.162154 30.629403 35.236867 1.398337 0.517127 -0.001526 0.003807 596127.000000 0 0 1
2.533270 18.547254 30.041343 35.396333 1.435052 0.557249 0.000959 0.009486 -168947.000000 0 0 1
3.323370 19.650654 30.465363 36.405100 1.403259 0.579305 -0.010769 0.011192 -569156.000000 0 0 1
4.488270 19.768454 29.715773 35.971704 1.347539 0.598667 -0.006175 0.009642 -811100.000000 0 0 1
5.506970 20.587254 30.528243 37.230839 1.309422 0.609434 -0.008901 0.008461 -362888.000000 0 0 1
5.381970 21.978954 30.405083 37.901307 1.330652 0.639797 -0.020239 0.011879 235822.000000 0 0 1
6.371870 22.588554 31.230013 39.066062 1.295856 0.644475 -0.026439 0.000087 -12364.600000 0 0 1
6.721570 24.027454 30.798733 39.636599 1.298024 0.680866 -0.029777 0.000200 -336514.000000 0 0 1
7.372070 24.153954 29.565193 38.882664 1.274565 0.706914 -0.042136 0.007828 -167269.000000 0 0 1
7.526670 25.461854 29.079403 39.377258 1.283376 0.739980 -0.055146 0.017580 -138533.000000 0 0 1
8.168270 25.474954 27.674623 38.491280 1.260514 0.768457 -0.044462 0.016466 -115426.000000 0 0 1
7.295170 24.995454 26.689593 37.287084 1.286824 0.773047 -0.032041 0.005747 150037.000000 0 0 1
7.887670 25.142354 25.420443 36.613552 1.266800 0.803363 -0.013767 0.002848 -524961.000000 0 0 1
27.970755 2.335954 7.129856 28.959535 0.083321 1.322038 0.011865 0.019041 146331.000000 0 0 1
28.366195 3.208654 8.179056 29.695680 0.112637 1.291760 0.013958 0.012886 -216890.000000 0 0 1
27.600985 2.996254 9.292356 29.276950 0.108133 1.247815 0.011958 0.018212 -503688.000000 0 0 1
27.683475 4.175254 10.328756 29.841091 0.149693 1.217358 0.007877 0.022484 85912.700000 0 0 1
27.420215 5.512054 9.940856 29.682849 0.198378 1.229295 0.014990 0.016663 132036.000000 0 0 1
28.519525 6.103954 9.277556 30.605467 0.210846 1.262817 0.035870 0.001911 43622.300000 0 0 1
28.361445 7.581754 8.999056 30.705660 0.261218 1.273355 0.048743 -0.005828 288490.000000 0 0 1
27.528295 7.857554 7.890056 29.695137 0.278042 1.301864 0.038224 -0.010066 36997.900000 0 0 1
27.883395 9.141154 7.454356 30.275598 0.316794 1.322022 0.048007 -0.017469 187556.000000 0 0 1
27.081325 9.605854 6.203156 29.396424 0.340859 1.358181 0.038615 -0.012086 1169820.000000 0 0 1
25.668395 9.782754 6.467356 28.220479 0.364126 1.339569 0.032765 -0.008191 1113540.000000 0 0 1
24.954865 9.859554 5.237656 27.338418 0.376271 1.378019 0.035170 -0.009405 383695.000000 0 0 1
23.474265 10.261654 5.493556 26.201561 0.412112 1.359564 -0.002547 -0.010869 220131.000000 0 0 1
23.339265 11.591554 6.028156 26.747412 0.460968 1.343470 0.004789 -0.002075 -305927.000000 0 0 1
22.002465 11.905254 6.298956 25.797682 0.495975 1.324135 -0.001080 -0.002413 -471281.000000 0 0 1
21.795765 13.263754 6.916856 26.435307 0.546681 1.306063 -0.004529 0.009560 -240845.000000 0 0 1
21.679165 14.195854 5.874756 26.571060 0.579753 1.347858 -0.012645 0.026857 264878.000000 0 0 1
21.376765 15.504854 6.393056 27.170531 0.627514 1.333276 0.008126 0.005672 -335131.000000 0 0 1
21.137965 16.559854 5.366156 27.383169 0.664548 1.373554 0.016934 0.009298 -686319.000000 0 0 1
19.955365 16.331254 4.670256 26.205681 0.685854 1.391624 0.024486 0.007010 -263269.000000 0 0 1
19.762265 17.544454 3.951556 26.720213 0.726020 1.422365 0.036245 0.007259 -693579.000000 0 0 1
18.397965 17.677654 3.266356 25.722629 0.765434 1.443469 0.004722 0.008337 -66977.300000 0 0 1
17.489165 18.237954 4.234856 25.620848 0.806354 1.404745 0.002412 0.004155 35137.700000 0 0 1
16.218665 18.486454 3.695856 24.868724 0.850650 1.421629 -0.020462 0.001887 -1446730.000000 0 1 0
15.340265 19.096354 4.723956 24.946146 0.894041 1.380280 -0.007936 -0.011087 -1419320.000000 0 1 0
14.034065 18.737854 4.415956 23.823577 0.927956 1.384357 -0.015942 -0.012841 -31203.800000 0 1 0
13.143565 19.895754 4.271756 24.224826 0.986990 1.393531 -0.020894 -0.021800 -169564.000000 0 1 0
11.695565 19.515054 4.021856 23.104088 1.030884 1.395829 -0.012980 -0.024475 -745907.000000 0 1 0
11.207065 18.949454 5.208456 22.623177 1.036710 1.338486 -0.012284 -0.028233 -1255590.000000 0 1 0
9.857065 19.209154 5.304256 22.232599 1.096689 1.329893 0.002997 -0.013413 -1045000.000000 0 1 0
9.200565 18.669454 6.568956 21.825446 1.112914 1.265079 0.007389 -0.008547 -969902.000000 0 1 0
9.397565 19.526754 7.666156 22.986481 1.122248 1.230775 0.009287 -0.011695 -276580.000000 0 1 0
8.733865 19.068054 8.829656 22.755964 1.141279 1.172319 0.010159 0.001058 165941.000000 0 1 0
7.459365 19.908454 9.106956 23.128452 1.212303 1.166083 0.005518 -0.006608 921913.000000 0 1 0
6.358365 19.972854 8.190556 22.503975 1.262591 1.198280 0.005598 -0.019533 721934.000000 0 1 0
6.589365 21.071854 7.299356 23.253459 1.267721 1.251494 0.001682 -0.016365 120391.000000 0 1 0
5.337165 21.328454 6.326656 22.878262 1.325595 1.290609 0.009446 -0.011986 916184.000000 0 1 0
4.145565 21.640754 7.012256 23.123142 1.381526 1.262687 0.018180 -0.011980 -278409.000000 0 1 0
4.096365 22.880654 7.800456 24.518394 1.393641 1.247022 0.005447 -0.015633 -841180.000000 0 1 0
3.901965 24.178854 6.982356 25.467540 1.410797 1.293073 0.004577 -0.012284 -182654.000000 0 0 1
2.745965 24.188854 6.167156 25.113239 1.457758 1.322685 0.018199 -0.016605 67723.600000 0 0 1
2.734365 25.256654 5.335356 25.958454 1.462953 1.363787 0.009647 -0.008960 -672633.000000 0 0 1
1.506765 25.438954 4.448956 25.868976 1.511635 1.397957 0.013613 -0.009407 -1453910.000000 0 0 1
0.413265 25.840354 5.165356 26.354802 1.554805 1.373526 0.022635 -0.015303 -1040160.000000 0 0 1
-0.556435 26.351154 4.271356 26.700888 -1.549683 1.410135 0.023525 -0.012117 436070.000000 0 0 1
-1.996535 26.570554 4.847256 27.082769 -1.495796 1.390847 0.025711 -0.016646 366800.000000 0 0 1
-2.674235 27.355754 3.925956 27.765121 -1.473348 1.428922 0.032906 -0.012905 -24912.200000 0 0 1
-3.935335 27.801354 4.420256 28.424300 -1.430179 1.414653 0.022314 -0.014272 181112.000000 0 0 1
-4.815535 28.397154 3.302256 28.991251 -1.402816 1.456643 0.017106 -0.017639 -106185.000000 0 0 1
-4.283435 29.531754 2.671256 29.960105 -1.426756 1.481517 0.010447 -0.016961 45646.100000 0 0 1
-5.203635 29.983754 1.710756 30.479993 -1.398959 1.514640 0.009261 -0.011730 -355780.000000 0 0 1
-4.548435 30.870454 0.659356 31.210702 -1.424509 1.549669 0.005446 -0.003536 -125767.000000 0 0 1
-4.287035 32.218054 1.019456 32.518010 -1.438510 1.539441 -0.002482 0.003028 411932.000000 0 0 1
-3.274835 32.437654 2.008556 32.664357 -1.470179 1.509267 -0.003491 -0.011992 -206362.000000 0 0 1
-2.600435 33.832154 1.927356 33.986639 -1.494084 1.514057 -0.006014 -0.006485 -496358.000000 0 0 1
-1.827535 34.049954 0.763556 34.107510 -1.517176 1.548408 -0.020910 0.005304 149841.000000 0 0 1
-0.915435 -34.201484 0.820756 34.223576 1.544037 1.546812 -0.016834 0.008719 1000840.000000 0 0 1
0.445365 -34.437284 1.598556 34.477242 -1.557864 1.524414 -0.012896 0.006478 527975.000000 0 0 1
0.237365 -34.447684 2.974256 34.576661 -1.563906 1.484671 -0.014148 -0.001039 239763.000000 0 0 1
1.483965 -34.635584 3.615556 34.855388 -1.527977 1.466879 -0.014870 0.003053 293592.000000 0 0 1
1.320865 -34.489884 5.139856 34.895772 -1.532518 1.422967 -0.012328 -0.001527 390101.000000 0 0 1
0.329765 33.907354 5.589856 34.366610 1.561071 1.407417 -0.001016 -0.007794 143437.000000 0 0 1
-0.155335 34.069654 6.878556 34.757445 -1.566237 1.371580 0.008853 -0.009294 -154725.000000 0 0 1
0.831665 33.893854 8.063156 34.849670 1.546264 1.337311 0.001258 0.003243 25414.100000 0 0 1
1.207865 32.535054 8.323756 33.604666 1.533688 1.320494 -0.001682 0.000548 876.308000 0 0 1
2.130965 32.423854 9.384556 33.821845 1.505169 1.289636 0.004592 0.004559 -7311.880000 0 0 1
2.754365 30.970954 9.382756 32.478033 1.482096 1.277723 0.000284 -0.000140 462734.000000 0 0 1
2.070365 30.001354 10.224056 31.763170 1.501897 1.243078 0.009542 -0.008261 587440.000000 0 0 1
2.719665 28.761454 10.014156 30.576153 1.476517 1.237124 0.006688 -0.008108 -61615.700000 0 0 1
2.395865 27.676254 11.059056 29.900133 1.484444 1.191931 0.008778 -0.015728 -499579.000000 0 0 1
2.914965 28.078854 12.313356 30.798341 1.467353 1.159491 -0.000395 -0.003093 -114709.000000 0 0 1
2.580465 27.148654 13.313756 30.347394 1.476032 1.116632 0.005190 0.003126 -264063.000000 0 0 1
1.120165 26.908354 13.765756 30.245832 1.529191 1.098279 -0.002131 0.000718 -149558.000000 0 0 1
0.455165 27.961954 14.488056 31.495743 1.554520 1.092801 -0.002483 0.001318 280292.000000 0 0 1
0.255765 29.220554 13.775756 32.306000 1.562044 1.130271 0.001720 -0.004476 -732474.000000 0 0 1
-0.492135 30.329554 14.530656 33.634268 -1.554571 1.124066 -0.008417 0.002409 -321735.000000 0 0 1
-1.852735 30.053754 14.785156 33.544919 -1.509227 1.114355 -0.012933 0.008544 -167040.000000 0 0 1
-2.291635 31.161454 15.529256 34.891913 -1.497388 1.109547 -0.021155 0.014935 -1469720.000000 0 0 1
-3.553835 30.806454 16.230256 35.001265 -1.455944 1.088624 -0.017760 0.027777 -1279980.000000 0 0 1
-4.690335 30.804154 15.395656 34.755163 -1.419694 1.111882 -0.021268 0.030404 70367.400000 0 0 1
-5.798035 30.339454 16.140356 34.851267 -1.381968 1.089283 -0.007205 0.020294 -290072.000000 0 0 1
-7.082435 30.115454 15.320556 34.522759 -1.339817 1.110982 0.000238 0.010395 412558.000000 0 0 1
-8.252435 29.853854 16.109756 34.912455 -1.301103 1.091187 0.006656 0.012561 750136.000000 0 0 1
-9.172235 29.079954 15.325356 34.126825 -1.265259 1.105071 0.019509 0.011474 43106.400000 0 0 1
-10.224535 28.331254 16.153456 34.177993 -1.224451 1.078527 0.014231 0.017545 102251.000000 0 0 1
-11.173235 29.182854 16.804656 35.480651 -1.205144 1.077390 0.013755 0.008364 511148.000000 0 0 1
-10.713635 29.722154 18.024456 36.374021 -1.224834 1.052350 0.017890 0.004278 -114183.000000 0 0 1
-11.683335 30.852354 18.527056 37.836753 -1.208799 1.059099 0.034722 0.006584 939574.000000 0 0 1
-12.864335 30.281954 19.134656 38.060779 -1.169079 1.044031 0.023101 0.000495 944619.000000 0 0 1
-13.716735 31.390854 19.470056 39.403269 -1.158834 1.053971 0.025511 -0.000965 183223.000000 0 0 1
-14.733535 31.155354 20.605056 40.153474 -1.129058 1.031937 0.016179 -0.004015 -177388.000000 0 0 1
-14.176135 30.992554 21.878456 40.498988 -1.141802 1.000095 0.022950 -0.003891 -316607.000000 0 0 1
-15.103835 30.622854 22.855956 41.088682 -1.112587 0.980919 0.017748 -0.004487 -501613.000000 0 0 1
-14.461335 30.563054 24.264256 41.617119 -1.128847 0.948336 0.022086 -0.008519 -952960.000000 0 0 1
-13.431435 29.623054 24.408656 40.665849 -1.145109 0.927014 0.018586 -0.013712 66353.300000 0 0 1
-12.978235 29.325754 25.742256 41.122964 -1.154152 0.894406 0.019185 -0.013515 -33428.700000 0 0 1
-12.362335 30.499954 26.483056 42.242476 -1.185710 0.893191 0.024442 -0.013156 -472037.000000 0 0 1
-13.410135 31.371754 26.934956 43.468501 -1.166845 0.902508 0.025186 -0.008666 682134.000000 0 0 1
-12.932035 32.589454 27.417956 44.509037 -1.193037 0.907130 0.024771 -0.004330 -538752.000000 0 0 1
-14.066735 33.530454 27.837556 45.794038 -1.173575 0.917401 0.028213 -0.007032 -414956.000000 0 0 1
-14.775035 33.165054 28.984856 46.457985 -1.151691 0.897081 -0.020422 -0.001056 38439.600000 0 0 1
-14.082635 33.332154 30.230756 47.151370 -1.171050 0.874810 0.008051 0.006455 -575448.000000 0 0 1
-14.799435 32.791954 31.445056 47.782079 -1.146851 0.852513 -0.002670 0.008146 463301.000000 0 0 1
-16.052135 33.469454 31.663756 48.790049 -1.123597 0.864554 -0.015225 0.013170 667695.000000 0 0 1
-16.724835 32.853054 32.781456 49.332212 -1.099911 0.843966 -0.024743 0.021578 1221260.000000 0 0 1
-18.132835 33.406654 33.226256 50.485526 -1.073505 0.852458 -0.008803 0.014419 930026.000000 0 0 1
-18.068335 -34.619284 33.748556 51.613221 1.089771 0.858103 0.000651 0.013777 -956080.000000 0 0 1
-19.320635 -34.179084 34.100256 52.003117 1.056300 0.855641 -0.006675 -0.002373 -1100800.000000 0 0 1
-19.388835 -32.649184 34.375456 51.220778 1.034908 0.835073 0.001569 0.004999 -322330.000000 0 0 1
-18.828635 -32.089884 -33.604320 50.135102 1.040179 2.305376 0.003207 0.013875 -250645.000000 0 0 1
-19.436935 -32.458184 -32.420620 49.823938 1.031238 2.279307 0.014180 0.009733 -457348.000000 0 0 1
-19.099235 -31.681684 -31.165120 48.371216 1.028285 2.270892 0.030617 0.011871 -202688.000000 0 0 1
-19.550035 -30.333284 -31.156120 47.676155 0.998292 2.282989 0.035845 0.009157 -144455.000000 0 0 1
-18.895535 -29.550884 -30.221720 46.299550 1.001892 2.281996 0.045110 0.007272 -208190.000000 0 0 1
-19.342035 -28.072684 -30.371020 45.657297 0.967492 2.298552 0.051254 -0.004126 1163460.000000 0 0 1
-20.669035 -27.868184 -29.822520 45.751802 0.932647 2.280795 0.047278 -0.000470 938203.000000 0 0 1
-21.189035 -26.554884 -30.130620 45.409155 0.897317 2.296332 0.049896 -0.002208 -333744.000000 0 0 1
-22.483035 -26.383584 -29.364620 45.429740 0.865050 2.273619 0.050487 -0.008020 -1099740.000000 0 0 1
-22.292435 -26.450884 -27.984420 44.494153 0.870505 2.250993 0.053829 -0.003223 163293.000000 0 0 1
-21.839935 -25.218284 -27.387820 43.162916 0.857066 2.258186 0.065921 -0.011083 -155515.000000 0 0 1
-21.736435 -25.403884 -25.850720 42.262154 0.863040 2.228973 0.074495 0.000280 275851.000000 0 0 1
-22.968035 -25.451184 -25.134820 42.509441 0.836638 2.203437 0.057015 -0.004696 234726.000000 0 0 1
-22.808635 -25.994784 -23.865220 42.017988 0.850591 2.174841 0.055079 0.009427 602278.000000 0 0 1
-24.192435 -25.912484 -23.069320 42.295677 0.819714 2.147698 0.039176 0.012765 1169390.000000 0 0 1
-25.272735 -26.652784 -23.551220 43.631892 0.811969 2.140961 0.002707 0.021603 -368692.000000 0 0 1
-25.037235 -28.055284 -23.571720 44.380041 0.842182 2.130734 0.019408 0.032102 -1775270.000000 0 0 1
-26.335335 -28.839884 -23.539120 45.600208 0.830760 2.113212 -0.025664 0.036055 -316986.000000 0 0 1
-26.967835 -28.479384 -22.306020 45.120926 0.812652 2.087896 -0.028469 0.042135 -278972.000000 0 0 1
-28.181035 -27.813184 -22.537520 45.559672 0.778829 2.088264 -0.024728 0.044542 -383415.000000 0 0 1
-28.921235 -27.188084 -21.337820 45.065866 0.754519 2.064035 -0.026231 0.048810 86925.900000 0 0 1
-29.270335 -28.172584 -20.344320 45.434990 0.766290 2.035064 -0.049953 0.049918 193489.000000 0 0 1
-29.743335 -27.592784 -19.152120 44.864590 0.747908 2.011844 -0.050651 0.047025 -930063.000000 0 0 1
-30.342635 -28.623684 -18.177420 45.501751 0.756255 1.981755 -0.050181 0.036066 187908.000000 0 0 1
-31.603835 -29.279984 -18.502320 46.887692 0.747248 1.976439 -0.053026 0.035884 1333610.000000 0 0 1
-32.712235 -28.401984 -18.482620 47.099578 0.714987 1.974053 -0.054178 0.041059 -806649.000000 0 0 1
-33.166335 -27.838884 -17.121020 46.563275 0.698291 1.947324 -0.043643 0.039229 -733598.000000 0 0 1
-32.239735 -26.929984 -16.481120 45.124848 0.695900 1.944680 -0.044326 0.039804 454170.000000 0 0 1
-32.768935 -26.335984 -15.329320 44.747907 0.676985 1.920448 -0.040990 0.027664 -121311.000000 0 0 1
-32.533635 -27.091384 -13.947920 44.574937 0.694376 1.889051 -0.006730 0.023534 -149674.000000 0 0 1
-33.237635 -28.292084 -13.826420 45.785940 0.705194 1.877565 -0.013115 0.023200 237798.000000 0 0 1
-32.937735 -28.951284 -12.587120 45.623534 0.721074 1.850313 -0.028314 0.010208 370842.000000 0 0 1
-33.771435 -30.308184 -12.482520 47.062821 0.731405 1.839240 -0.026916 0.010267 213613.000000 0 0 1
-33.283735 -31.236784 -13.392520 47.569983 0.753683 1.856188 -0.038403 0.007557 68250.000000 0 0 1
-33.844435 -32.504284 -13.183820 48.742049 0.765202 1.844689 -0.036004 -0.001567 -295803.000000 0 0 1
-33.287235 -33.560284 -14.181320 49.350203 0.789483 1.862267 -0.035890 0.010765 -1075830.000000 0 0 1
-32.003235 -33.965084 -13.912820 48.697028 0.815129 1.860535 -0.023647 0.009429 -827878.000000 0 0 1
-31.351635 -34.398784 -15.137820 48.942364 0.831709 1.885252 -0.005974 -0.006227 859401.000000 0 0 1
-29.941335 34.281754 -14.951220 47.908884 -0.852879 1.888174 -0.012108 -0.002280 553855.000000 0 0 1
-29.660135 33.565454 -16.129520 47.608032 -0.847088 1.916436 -0.000295 -0.001412 -1703600.000000 0 0 1
-28.351635 33.230954 -16.350120 46.641590 -0.864465 1.928953 -0.001736 -0.006085 -1455780.000000 0 0 1
9.123470 20.090754 -9.005644 23.832283 1.144527 1.958297 0.018806 -0.016176 -27386.500000 0 1 0
7.704070 20.262954 -9.081844 23.503614 1.207470 1.967524 0.016132 -0.017225 941884.000000 0 1 0
7.117570 20.305154 -10.406044 23.900728 1.233649 2.021263 0.020228 -0.021973 61695.800000 0 1 0
7.273270 19.033854 -11.232544 23.267103 1.205796 2.074606 0.024968 -0.017040 -791741.000000 0 1 0
8.571670 18.695154 -11.643444 23.633707 1.140899 2.085943 0.033173 -0.017087 -485765.000000 0 1 0
8.509570 17.581054 -12.512244 23.196174 1.120015 2.140532 0.036760 -0.020517 -192662.000000 0 1 0
9.826770 17.144554 -13.156244 23.740006 1.050337 2.158174 0.046276 -0.017566 -141925.000000 0 1 0
9.662570 15.877854 -13.787944 23.142578 1.024109 2.209036 0.050478 -0.032205 -42904.700000 0 1 0
10.814870 15.489854 -14.486144 23.806414 0.961286 2.224962 0.060473 -0.032240 -400719.000000 0 1 0
10.592670 14.206054 -15.429044 23.496213 0.930088 2.287179 0.051337 -0.032168 -435216.000000 0 1 0
10.542570 12.922854 -14.762044 22.272491 0.886490 2.295338 0.057914 -0.034413 227984.000000 0 1 0
11.764370 12.491354 -14.210844 22.279641 0.815361 2.262487 0.062523 -0.029253 147883.000000 0 1 0
12.781370 11.863454 -15.256544 23.170392 0.748170 2.289554 0.063517 -0.024392 -220381.000000 0 1 0
13.284270 12.681154 -16.263044 24.531003 0.762175 2.295560 0.046527 -0.018016 -71357.300000 0 1 0
14.002770 11.936754 -17.195144 25.184055 0.705919 2.322356 0.030187 -0.020410 -67539.200000 0 0 1
14.757970 12.819554 -18.282944 26.765737 0.715224 2.322758 0.024137 -0.014951 525842.000000 0 0 1
15.737970 13.710254 -17.737744 27.391282 0.716650 2.275186 0.005143 -0.005364 243634.000000 0 0 1
16.362970 14.307054 -18.866544 28.781679 0.718465 2.285648 0.007837 -0.004707 468012.000000 0 0 1
17.615570 15.248854 -18.699044 29.874573 0.713508 2.247105 -0.004938 0.013043 228955.000000 0 0 1
17.431670 16.502854 -18.054844 30.036389 0.758034 2.215672 -0.008518 0.012123 82432.900000 0 0 1
16.663570 17.483754 -18.764344 30.585238 0.809413 2.231294 0.002435 0.007743 -25442.500000 0 0 1
16.599670 18.843054 -17.984844 30.887932 0.848610 2.192304 -0.004196 0.020954 935940.000000 0 0 1
17.745470 19.717854 -18.187344 32.163254 0.837998 2.171799 -0.004621 0.016231 1146850.000000 0 0 1
17.343670 21.071954 -17.877144 32.625487 0.882146 2.150708 -0.006265 0.019036 960193.000000 0 0 1
18.565770 22.070554 -18.070844 34.034579 0.871433 2.130524 0.011979 0.014711 845125.000000 0 0 1
19.492170 22.039054 -17.013544 33.987134 0.846646 2.095074 0.002431 0.015745 -538809.000000 0 0 1
19.416970 23.155954 -16.148544 34.263572 0.872999 2.061565 0.002064 0.012852 -1168160.000000 0 0 1
20.607170 23.526354 -15.302144 34.818104 0.851446 2.025825 -0.008566 0.015064 -1008820.000000 0 0 1
20.974170 22.600454 -14.281644 33.980313 0.822703 2.004563 -0.008223 0.018109 309371.000000 0 0 1
22.176770 22.906754 -13.589644 34.658432 0.801589 1.973712 -0.008469 0.018751 1040310.000000 0 0 1
23.567970 22.640754 -14.262244 35.657602 0.765335 1.982289 0.009726 0.017853 299733.000000 0 0 1
23.772570 23.493054 -15.347244 36.777664 0.779484 2.001266 0.010682 0.013283 185811.000000 0 0 1
25.116070 23.945254 -15.235644 37.898773 0.761538 1.984506 0.020698 0.013155 98770.400000 0 0 1
25.551370 24.565854 -16.602644 39.140790 0.765736 2.008850 0.031492 0.010541 -454770.000000 0 0 1
26.110170 23.711354 -17.596744 39.415919 0.737287 2.033576 0.026269 0.000837 230531.000000 0 0 1
26.154370 24.363854 -18.829244 40.400357 0.749970 2.055636 0.019458 0.006685 -546529.000000 0 0 1
26.494570 23.406154 -19.970244 40.603213 0.723586 2.084997 0.010525 0.000207 -273457.000000 0 0 1
27.826370 22.971454 -19.945044 41.228623 0.690114 2.075750 0.005312 0.003685 -543909.000000 0 0 1
28.074670 22.110154 -21.005244 41.451975 0.667102 2.102192 0.014547 -0.000971 391517.000000 0 0 1
29.558070 22.231054 -21.452844 42.756564 0.644853 2.096410 0.034733 -0.016224 266318.000000 0 0 1
29.871970 23.487254 -21.968244 43.892931 0.666309 2.094968 0.018491 -0.004675 -657133.000000 0 0 1
31.254870 23.671054 -21.982744 44.949157 0.648192 2.081806 0.048860 -0.014268 -469612.000000 0 0 1
31.662770 25.006654 -22.614144 46.252170 0.668479 2.081661 0.045464 -0.015354 -221485.000000 0 0 1
31.637370 25.169554 -23.968644 46.999208 0.672030 2.105958 0.039260 -0.014197 -214476.000000 0 0 1
30.335470 25.385154 -24.442744 46.498328 0.696789 2.124298 0.025779 -0.011700 -776523.000000 0 0 1
30.124170 25.611654 -25.939134 47.289122 0.704612 2.151392 0.029777 -0.012479 -381035.000000 0 0 1
30.222270 26.970454 -26.315794 48.304368 0.728602 2.146936 0.034393 -0.011386 167445.000000 0 0 1
29.150470 27.572154 -27.056914 48.394733 0.757580 2.164082 0.018237 0.001209 119573.000000 0 0 1
29.036370 27.166354 -28.567634 48.961528 0.752138 2.193792 0.018580 0.003254 58246.400000 0 0 1
28.631970 25.819654 -28.690454 48.058156 0.733796 2.210546 0.007589 -0.008383 -163312.000000 0 0 1
28.432170 25.391154 -29.985964 48.500072 0.728958 2.237331 0.011069 -0.010134 -241322.000000 0 0 1
27.846570 23.987454 -29.918594 47.391472 0.711084 2.254034 0.006425 -0.012305 269773.000000 0 0 1
26.480270 24.075854 -29.559614 46.417908 0.737875 2.261156 0.006947 -0.009126 27305.100000 0 0 1
25.706070 22.927754 -29.864444 45.589132 0.728333 2.285082 0.016390 -0.015169 1074300.000000 0 0 1
24.216270 23.001954 -29.354994 44.466091 0.759687 2.291836 0.004222 -0.000521 891204.000000 0 0 1
24.191670 23.019654 -27.905504 43.518485 0.760578 2.266901 -0.007731 0.008191 458664.000000 0 0 1
22.866270 23.115554 -27.417134 42.531099 0.790819 2.271345 0.009137 0.001740 76383.000000 0 0 1
23.005870 23.330654 -25.852494 41.736565 0.792407 2.238801 0.017174 0.005273 -91842.400000 0 0 1
23.508570 22.218254 -25.148164 40.972354 0.757188 2.231641 0.010246 0.003731 201326.000000 0 0 1
23.636970 22.550654 -23.758044 40.394096 0.761883 2.199574 0.016698 0.004532 -51188.400000 0 0 1
24.015270 21.278654 -22.942644 39.444635 0.725052 2.191542 0.021426 0.004432 57758.600000 0 0 1
25.284470 20.802254 -23.335244 40.206614 0.688447 2.189996 0.009243 -0.002192 -134834.000000 0 0 1
25.450870 19.439454 -22.948644 39.398977 0.652277 2.192558 0.038568 -0.008413 -637910.000000 0 0 1
26.743270 18.759054 -23.348644 40.153004 0.611698 2.191358 0.038477 -0.019112 488154.000000 0 0 1
27.909370 19.151654 -22.539844 40.666489 0.601410 2.158271 0.053439 -0.031999 1008340.000000 0 0 1
28.932870 18.217154 -22.881944 41.140722 0.561926 2.160587 0.044837 -0.029714 184022.000000 0 0 1
30.247470 18.360354 -22.102644 41.719766 0.545554 2.129147 0.050932 -0.030863 523964.000000 0 0 1
31.169070 19.426554 -22.521044 43.082471 0.557350 2.120861 0.040599 -0.030121 776188.000000 0 0 1
32.455070 19.215454 -21.962944 43.645574 0.534563 2.098107 0.038552 -0.025125 81959.200000 0 0 1
32.856870 20.240854 -20.940344 43.906310 0.552124 2.067958 0.045274 -0.034257 -162446.000000 0 0 1
32.013170 20.298554 -19.792644 42.762403 0.565094 2.052006 0.040994 -0.025815 247517.000000 0 0 1
32.437270 21.289854 -18.857344 43.139701 0.580819 2.023193 0.021276 -0.008263 -268658.000000 0 0 1
31.803470 21.202754 -17.479444 42.030328 0.588012 1.999703 0.027195 -0.013209 -370123.000000 0 0 1
32.205770 20.096754 -16.730544 41.484964 0.557888 1.985908 0.030459 -0.023602 74017.800000 0 0 1
31.769070 20.099854 -15.406644 40.628101 0.564107 1.959740 0.037653 -0.014630 -548846.000000 0 0 1
32.311170 18.938354 -14.580244 40.190253 0.530154 1.942046 0.019434 0.003807 98695.100000 0 0 1
33.726970 18.964654 -14.392444 41.283278 0.512237 1.926902 -0.002963 -0.004563 232953.000000 0 0 1
34.148970 18.013054 -13.493244 40.898532 0.485393 1.907015 -0.010149 0.007996 -135291.000000 0 0 1
33.965070 18.236554 -11.952844 40.361719 0.492746 1.871448 -0.004590 0.002396 -418476.000000 0 0 1
34.805070 19.235654 -11.391044 41.366160 0.504889 1.849772 -0.008484 -0.000208 4621.340000 0 0 1
34.540370 19.575554 -10.028844 40.948958 0.515608 1.818224 -0.012399 -0.000348 -608581.000000 0 0 1
33.420770 20.601954 -9.893044 40.487785 0.552421 1.817642 -0.002953 -0.007787 -466924.000000 0 0 1
32.172470 20.122054 -10.298844 39.319602 0.558918 1.835814 0.031646 -0.015958 -1190850.000000 0 0 1
31.124170 20.988554 -10.081344 38.869871 0.593302 1.833157 0.021370 -0.006190 -474044.000000 0 0 1
29.778070 20.329254 -10.444644 37.538016 0.599015 1.852759 0.016610 -0.003550 -118104.000000 0 0 1
29.575570 20.135654 -11.870744 37.697128 0.597737 1.891145 0.029438 -0.007880 -500414.000000 0 0 1
28.416570 19.428954 -12.168544 36.511083 0.599715 1.910580 0.028437 -0.005583 -366204.000000 0 0 1
28.276070 19.015454 -13.691844 36.723156 0.592025 1.952864 0.051501 -0.006225 434516.000000 0 0 1
29.235070 17.987154 -13.992344 37.067677 0.551564 1.957871 0.058532 0.002050 257594.000000 0 0 1
28.682070 17.106054 -14.916444 36.575655 0.537770 1.990866 0.049652 0.000935 -186202.000000 0 0 1
29.704970 16.332054 -15.769144 37.386991 0.502696 2.006206 0.044289 -0.011101 261031.000000 0 0 1
30.577570 15.568254 -14.939644 37.423940 0.470933 1.981441 0.028008 -0.005052 1035460.000000 0 0 1
31.804870 15.095154 -15.512844 38.471571 0.443136 1.985839 0.023236 -0.007255 673752.000000 0 0 1
32.580470 14.120854 -14.611044 38.397502 0.408976 1.961156 -0.002491 -0.004017 -233674.000000 0 0 1
33.226570 14.813454 -13.559544 38.824021 0.419382 1.927574 -0.002558 0.006122 90942.600000 0 0 1
33.900870 13.873354 -12.753044 38.786326 0.388440 1.905832 -0.015207 0.020037 283512.000000 0 0 1
34.930670 14.367854 -11.667844 39.531323 0.390231 1.870413 -0.002631 0.028665 1419250.000000 0 0 1
-33.948124 14.828454 -12.341444 39.047015 -0.411821 1.892377 -0.023841 0.021713 1149180.000000 0 0 1
-32.933624 15.217154 -11.387544 38.024486 -0.432834 1.874943 -0.044573 0.022800 34079.700000 0 0 1
-31.549424 15.297554 -12.084744 37.086687 -0.451475 1.902708 -0.015337 0.000772 227926.000000 0 0 1
-30.770124 14.133154 -12.438244 36.072933 -0.430573 1.922831 -0.019795 -0.000540 410206.000000 0 0 1
-30.854524 13.047954 -11.542744 35.432834 -0.400079 1.902616 -0.005577 0.009849 -755850.000000 0 0 1
-29.812824 11.945654 -11.867744 34.239545 -0.381100 1.924750 0.017893 -0.001078 4785.040000 0 0 1
-30.013524 11.279454 -13.110644 34.639958 -0.359483 1.958953 0.002333 0.008591 300271.000000 0 0 1
-29.297124 10.047054 -13.147744 33.647109 -0.330368 1.972247 0.020089 -0.002588 -127900.000000 0 0 1
-29.401424 9.205654 -14.458844 34.033013 -0.303433 2.009590 0.016035 -0.004506 77699.500000 0 0 1
-30.670324 8.674754 -14.804444 35.143871 -0.275639 2.005622 -0.008778 0.002733 435097.000000 0 0 1
-30.533224 7.796954 -15.984044 35.334967 -0.250017 2.040204 0.012446 -0.014929 1006250.000000 0 0 1
-31.904324 7.735454 -16.790944 36.873553 -0.237868 2.043579 0.011101 -0.011637 956267.000000 0 0 1
-32.938624 7.201054 -16.012744 37.325810 -0.215234 2.014181 0.014641 -0.013880 2052.440000 0 0 1
-33.583424 6.038654 -16.475344 37.891274 -0.177909 2.020619 -0.012115 -0.011459 -286708.000000 0 0 1
-34.607724 5.528254 -15.466344 38.307492 -0.158402 1.986400 -0.029316 -0.004103 -627507.000000 0 0 1
34.751970 4.476154 -16.011444 38.524041 0.128098 1.999423 -0.018117 -0.001405 6730.320000 0 0 1
33.805670 4.052854 -15.023844 37.215116 0.119317 1.986357 -0.009705 0.000393 -295322.000000 0 0 1
32.877070 2.909954 -15.341044 36.396665 0.088280 2.005891 -0.001302 0.004442 -699855.000000 0 0 1
33.545970 1.653954 -15.566144 37.018543 0.049264 2.004788 0.004427 -0.002427 261016.000000 0 0 1
32.804570 0.399254 -15.421744 36.250923 0.012170 2.010218 -0.000885 -0.005702 395127.000000 0 0 1
32.252770 0.257954 -13.920544 35.129607 0.007998 1.978239 0.001355 -0.015376 360900.000000 0 0 1
33.319670 -0.146546 -13.056044 35.786620 -0.004398 1.944247 0.016965 -0.014646 593002.000000 0 0 1
33.084370 0.015254 -11.655144 35.077317 0.000461 1.909506 0.013147 -0.008815 -266895.000000 0 0 1
33.101070 1.459354 -11.117644 34.948713 0.044059 1.894535 0.014533 -0.012919 -73660.300000 0 0 1
32.030870 2.257154 -11.582244 34.135315 0.070352 1.916973 0.008222 -0.008067 237710.000000 0 0 1
32.048570 3.555954 -11.019144 34.076050 0.110503 1.900084 0.012095 -0.001878 -509535.000000 0 0 1
31.035870 4.520654 -11.626444 33.449002 0.144642 1.925793 0.005783 -0.000445 -321943.000000 0 0 1
31.357070 4.816354 -12.983144 34.278640 0.152406 1.959245 -0.003769 0.003384 262123.000000 0 0 1
30.545270 5.871054 -13.366744 33.854876 0.189892 1.976673 -0.001942 0.003013 -506149.000000 0 0 1
30.866670 6.458854 -14.726244 34.804172 0.206274 2.007679 -0.019132 0.010726 -475095.000000 0 0 1
30.505670 5.613954 -15.816044 34.817519 0.181994 2.042332 -0.022864 0.010553 302874.000000 0 0 1
30.941770 5.997654 -17.133244 35.873570 0.191462 2.068718 -0.022968 0.014782 -461206.000000 0 0 1
30.007270 7.051854 -17.840044 35.615054 0.230817 2.095450 -0.007823 0.017229 1542020.000000 0 0 1
28.751870 6.635954 -18.440544 34.795971 0.226829 2.129352 -0.013202 0.009428 1225990.000000 0 0 1
27.797170 6.194854 -17.482244 33.416878 0.219276 2.121346 -0.008942 0.015776 -791006.000000 0 0 1
26.396970 5.980954 -18.085444 32.552344 0.222815 2.159857 -0.002595 0.009799 -43269.100000 0 0 1
26.540170 5.083454 -19.185744 33.140834 0.189246 2.188194 -0.001329 0.008754 52020.200000 0 0 1
25.444770 5.198454 -20.060344 32.815814 0.201530 2.228500 -0.003369 0.007094 -269116.000000 0 0 1
25.230570 3.880954 -20.843144 32.955730 0.152623 2.255520 -0.003257 0.009620 110149.000000 0 0 1
24.491070 2.877854 -20.108744 31.819116 0.116970 2.254890 0.005116 0.002097 488468.000000 0 0 1
24.098170 1.740454 -20.888944 31.938988 0.072098 2.283691 -0.000041 -0.000088 -185569.000000 0 0 1
23.160770 0.767854 -20.107944 30.681269 0.033141 2.285484 0.002396 0.000860 464571.000000 0 0 1
21.880070 1.371054 -19.947444 29.639800 0.062580 2.309047 0.010852 -0.000320 697087.000000 0 0 1
20.881270 0.466554 -19.449444 28.539901 0.022339 2.320583 0.010922 0.002572 1428050.000000 0 0 1
19.552270 1.244954 -19.018844 27.304901 0.063587 2.341355 0.021714 -0.003792 -2291.880000 0 0 1
18.754970 1.551954 -20.143644 27.566716 0.082561 2.390177 0.023917 -0.008286 485019.000000 0 0 1
17.594570 2.348554 -19.932644 26.690727 0.132697 2.414034 0.015764 -0.011293 707777.000000 0 0 1
16.493670 1.895154 -18.965444 25.205571 0.114400 2.422541 0.020657 -0.005250 -993057.000000 0 0 1
16.892570 2.065254 -17.624544 24.499974 0.121654 2.373691 0.025806 -0.004608 643907.000000 0 1 0
15.786870 2.030954 -16.708344 23.076369 0.127946 2.380446 0.010977 -0.001526 1009410.000000 0 1 0
14.814970 3.263454 -16.516844 22.426315 0.216818 2.398669 0.009858 -0.003335 634875.000000 0 1 0
14.162870 3.543954 -17.754344 22.986153 0.245194 2.453397 0.013104 0.006621 431158.000000 0 1 0
13.192570 4.581054 -17.661244 22.515539 0.334218 2.472528 0.018267 0.002243 2098.630000 0 1 0
-19.607430 -22.011946 -17.709344 34.388922 0.843108 2.111772 0.046230 -0.010573 9836.910000 0 0 1
-19.236530 -22.436946 -18.993644 35.131455 0.862045 2.142000 0.062737 -0.010953 361866.000000 0 0 1
-20.368130 -22.552946 -19.866744 36.306798 0.836257 2.149801 0.058518 -0.010197 313716.000000 0 0 1
-20.114630 -23.227946 -21.214744 37.339003 0.857105 2.175072 0.065065 -0.002749 -124948.000000 0 0 1
-19.914230 -24.621946 -21.036644 38.017853 0.890713 2.157160 0.059159 0.000177 -14593.900000 0 0 1
-19.296030 -25.212566 -22.133444 38.702708 0.917554 2.179596 0.062913 -0.000644 -167929.000000 0 0 1
-19.114330 -26.718386 -21.898244 39.481171 0.949809 2.158739 0.058356 0.015155 327272.000000 0 0 1
-20.345130 -27.433726 -21.891944 40.568348 0.932686 2.140795 0.061230 0.017712 249131.000000 0 0 1
-20.128830 -28.833946 -21.809344 41.378904 0.961350 2.125939 0.082190 0.008367 736437.000000 0 0 1
-21.451630 -29.687666 -21.978344 42.715074 0.945078 2.111260 0.057779 0.014496 1022370.000000 0 0 1
-22.050630 -29.747396 -23.288244 43.743344 0.932911 2.132210 0.033231 0.020155 335733.000000 0 0 1
-21.193330 -30.274146 -24.295844 44.226340 0.960039 2.152385 0.037919 0.013511 -225380.000000 0 0 1
-21.694730 -30.050786 -25.737214 45.123333 0.945500 2.177758 0.028595 0.027189 -254072.000000 0 0 1
-22.922230 -30.663116 -26.062614 46.313228 0.928865 2.168501 0.011824 0.027670 197295.000000 0 0 1
-23.575630 -29.975836 -27.118734 46.795158 0.904349 2.188936 0.014478 0.029388 -427764.000000 0 0 1
-23.008930 -30.192776 -28.539814 47.492479 0.919617 2.215465 0.026678 0.015108 -557853.000000 0 0 1
-23.244730 -31.458516 -29.140914 48.776516 0.934436 2.211098 0.005497 0.023009 128058.000000 0 0 1
-22.799630 -31.465376 -30.487044 49.389805 0.943754 2.236069 0.033600 0.015646 -234670.000000 0 0 1
-23.414130 -32.586126 -31.312794 50.897624 0.947742 2.233450 0.009418 0.008115 -283294.000000 0 0 1
-22.982830 -33.890366 -30.957484 51.333548 0.974884 2.218135 0.000981 -0.002992 -288503.000000 0 0 1
-23.901230 34.460908 -31.340944 52.355303 -0.964395 2.212574 0.007634 -0.000605 -464268.000000 0 0 1
-23.401330 33.025901 -31.377854 51.214276 -0.954338 2.230241 0.011172 0.005958 202998.000000 0 0 1
-22.437430 32.851321 -32.423364 51.321750 -0.971572 2.254626 0.009850 -0.010357 -94500.100000 0 0 1
-21.783830 31.636951 -32.324994 50.202959 -0.967792 2.270363 0.017980 0.003241 -289602.000000 0 0 1
-20.500730 31.596961 -33.166294 50.186163 -0.995251 2.292767 0.013950 0.003375 -100367.000000 0 0 1
-20.814330 31.384491 -34.525316 51.090313 -0.985195 2.312806 0.008031 0.003191 215493.000000 0 0 1
-20.565830 30.040371 34.264562 49.994374 -0.970477 0.815687 0.001955 0.006177 -51680.900000 0 0 1
-20.553230 29.968931 32.734193 48.909094 -0.969652 0.837548 0.000975 0.000919 304692.000000 0 0 1
-19.412030 30.540461 32.093773 48.368967 -1.004599 0.845283 -0.003110 0.006392 376095.000000 0 0 1
-19.463330 30.561331 30.654813 47.460865 -1.003713 0.868599 0.008859 0.006604 -427317.000000 0 0 1
-19.207230 31.919901 29.958173 47.804706 -1.029104 0.893513 -0.011521 0.003725 -53185.900000 0 0 1
-20.100830 32.979411 30.241763 49.053534 -1.023423 0.906500 -0.007154 0.002199 18307.100000 0 0 1
-19.545030 34.178528 29.691493 49.312927 -1.051332 0.924663 -0.020778 -0.002248 465760.000000 0 0 1
-20.465630 -33.889146 29.921323 49.624609 1.027515 0.923598 -0.020167 -0.011297 370218.000000 0 0 1
-20.480830 -33.468896 31.231883 50.150393 1.021646 0.898525 -0.012784 -0.007119 -501481.000000 0 0 1
-21.434930 -32.490326 31.453603 50.044047 0.987610 0.891149 0.009141 -0.014918 -623760.000000 0 0 1
-20.993030 -31.016046 31.193143 48.741303 0.975781 0.876333 -0.000229 -0.005424 -104207.000000 0 0 1
-20.893530 -30.789286 29.796793 47.669368 0.974579 0.895572 0.001329 -0.008202 81084.600000 0 0 1
-21.060730 -29.408106 29.391373 46.607337 0.949311 0.888449 -0.002348 -0.010146 -821666.000000 0 0 1
-22.432330 -29.129676 28.755953 46.676035 0.914564 0.907046 0.001342 -0.001668 -731189.000000 0 0 1
-23.471230 -28.939766 29.681043 47.637937 0.889361 0.898154 0.004892 -0.000732 -20364.100000 0 0 1
-24.505730 -29.895356 29.595853 48.684470 0.884148 0.917369 -0.001401 -0.005694 -78445.100000 0 0 1
-25.615910 -29.664796 28.556053 48.493537 0.858510 0.941145 -0.009242 0.002529 -699513.000000 0 0 1
-25.148310 -29.762006 27.194013 47.515564 0.869224 0.961467 -0.004562 0.004729 -155140.000000 0 0 1
-26.142110 -29.959666 26.228293 47.633128 0.853340 0.987676 0.001512 0.004478 -231621.000000 0 0 1
-25.484030 -30.389916 24.863533 46.810021 0.872976 1.010829 0.000198 -0.002784 -78532.100000 0 0 1
-24.965330 -29.281866 24.092053 45.399586 0.864802 1.011409 -0.015231 0.001006 156844.000000 0 0 1
-24.803630 -29.716966 22.754833 44.901008 0.875274 1.039353 0.001806 -0.003336 -185042.000000 0 0 1
-23.508630 -30.468366 22.375933 44.515833 0.913630 1.044134 -0.015946 0.004844 -420816.000000 0 0 1
-23.507630 -31.881366 22.749833 45.679154 0.935442 1.049465 -0.008268 -0.007801 181706.000000 0 0 1
-22.459730 -32.609136 22.136533 45.363215 0.967657 1.061017 -0.008010 0.003962 -344901.000000 0 0 1
-21.603030 -33.363946 23.123633 45.984195 0.996183 1.043891 -0.010958 0.004289 -395394.000000 0 0 1
-20.844930 -32.490986 23.947833 45.427679 1.000377 1.015537 -0.003990 0.001563 506225.000000 0 0 1
-19.706130 -33.175946 24.448833 45.680635 1.034809 1.006037 -0.007041 -0.002843 2922.580000 0 0 1
-19.082630 -32.631306 25.775913 45.753105 1.041632 0.972338 -0.002792 -0.008375 -332005.000000 0 0 1
-18.171430 -31.560866 25.522263 44.471058 1.048392 0.959527 0.013384 -0.010023 142748.000000 0 0 1
-17.865130 -30.850696 26.684533 44.530805 1.045899 0.928248 0.012823 -0.005042 297675.000000 0 0 1
-16.864630 -31.490936 27.744963 45.231380 1.079123 0.910437 0.006956 -0.015571 -146439.000000 0 0 1
-17.188130 -32.781656 28.271393 46.576179 1.087881 0.918526 -0.004951 -0.012682 492612.000000 0 0 1
-16.372130 -33.171866 29.432143 47.272300 1.112318 0.898724 -0.007593 -0.005305 290634.000000 0 0 1
-16.765430 -32.495206 30.815383 47.818468 1.094482 0.870526 -0.000600 0.003038 -86100.700000 0 0 1
-16.663830 -31.078726 30.805953 46.824963 1.078624 0.852775 0.010686 -0.002692 194559.000000 0 0 1
-17.014030 -30.528036 32.075723 47.437224 1.062347 0.828242 0.007886 0.008831 -76836.600000 0 0 1
-16.757830 -29.001236 32.066853 46.370029 1.046837 0.807174 0.022982 -0.001789 85213.400000 0 0 1
-17.718430 -28.226896 31.356633 45.759577 1.010247 0.815853 0.016164 0.001878 218836.000000 0 0 1
-17.878430 -28.171016 29.951143 44.836541 1.005295 0.839268 0.013169 0.001979 -532882.000000 0 0 1
-16.613030 -27.797726 29.122383 43.552492 1.032114 0.838373 0.007392 0.005212 124098.000000 0 0 1
-16.415830 -26.401526 28.829703 42.398960 1.014519 0.823085 0.016833 0.001995 497118.000000 0 0 1
-15.307130 -26.295016 27.933053 41.303651 1.043620 0.828088 0.033306 -0.000242 253105.000000 0 0 1
-15.065230 -24.905446 27.338703 39.933032 1.026784 0.816723 0.024984 -0.000122 -698806.000000 0 0 1
-16.019230 -24.613146 26.382503 39.477325 0.993831 0.838882 0.021026 -0.004021 -296682.000000 0 0 1
-15.806230 -23.409846 25.666953 38.166088 0.976912 0.833206 0.007849 -0.003701 -193242.000000 0 0 1
-16.384830 -22.153046 26.374633 38.142383 0.933972 0.807263 0.016279 0.002261 -768662.000000 0 0 1
-16.201730 -21.036446 25.548703 36.847854 0.914508 0.804660 0.001503 0.003866 67523.800000 0 0 1
-16.727730 -19.816946 25.994493 36.718415 0.869730 0.784217 0.011121 0.005997 -452038.000000 0 0 1
-16.220030 -18.757046 25.053183 35.250222 0.857805 0.780269 -0.002781 -0.000803 22455.800000 0 0 1
-14.857730 -18.415846 25.206153 34.572325 0.891929 0.753813 0.000868 -0.003239 -129432.000000 0 0 1
-14.522230 -17.414946 24.246753 33.197598 0.875727 0.751923 0.010298 0.001873 -521867.000000 0 0 1
-13.184130 -16.719046 24.477073 32.441869 0.903064 0.715919 0.021856 -0.003803 -498101.000000 0 0 1
-12.127730 -17.509646 23.945433 32.047672 0.965033 0.726985 0.008257 -0.001972 -351982.000000 0 0 1
-10.905530 -16.819746 23.975733 31.251723 0.995563 0.696361 0.020479 -0.012534 -302335.000000 0 0 1
-10.522630 -16.064246 22.646833 29.692841 0.990890 0.703313 0.016017 -0.010245 -231066.000000 0 0 1
-10.166430 -16.888246 21.559733 29.212861 1.028920 0.740662 0.024965 0.000985 -1660410.000000 0 0 1
-8.840230 -17.194546 21.547633 28.950001 1.095909 0.731303 0.030153 -0.001347 -2135510.000000 0 0 1
-8.364230 -18.482646 20.923833 29.144045 1.145828 0.769950 0.032496 0.002640 -133747.000000 0 0 1
-8.230630 -18.275546 19.534033 27.987806 1.147641 0.798268 0.033900 0.002161 -239402.000000 0 0 1
-7.592130 -19.339146 18.904333 28.089443 1.196704 0.832532 0.036842 0.003760 -95211.000000 0 0 1
-7.424130 -19.212046 17.399033 26.961950 1.202042 0.869357 0.022107 -0.007123 -348727.000000 0 0 1
-6.552530 -18.175146 17.094833 25.797382 1.224779 0.846434 0.019989 -0.003603 -366457.000000 0 0 1
-6.250830 -18.089346 15.705633 24.758114 1.238089 0.883612 0.021061 -0.002707 409192.000000 0 1 0
-5.424530 -16.812746 15.399933 23.436124 1.258697 0.853828 0.003502 -0.005159 203138.000000 0 1 0
-6.210430 -15.729146 15.770233 23.123056 1.194750 0.820284 0.013439 -0.010163 92778.600000 0 1 0
-5.530330 -14.525046 15.453533 21.917418 1.206999 0.788260 0.014004 -0.016972 116986.000000 0 1 0
-5.562130 -13.524246 16.659933 22.167451 1.180612 0.720389 0.000474 -0.002455 -103102.000000 0 1 0
-5.021430 -13.665046 17.972433 23.129129 1.218648 0.680835 0.005048 -0.003169 -105830.000000 0 1 0
-5.621630 -14.707246 18.741733 24.477712 1.205697 0.698721 0.013365 -0.001408 -130266.000000 0 1 0
-6.901630 -14.243446 19.470433 25.091951 1.119587 0.682556 0.040401 -0.005092 -298078.000000 0 0 1
-6.744430 -13.366646 20.547633 25.423607 1.103498 0.629689 0.032673 -0.004553 -620499.000000 0 0 1
-7.962330 -13.071846 21.152033 26.109009 1.023698 0.626400 0.041140 -0.006504 -102192.000000 0 0 1
-7.693930 -12.153146 22.358133 26.585365 1.006407 0.571678 0.033351 0.000612 -209498.000000 0 0 1
-7.190530 -10.872246 21.921633 25.504263 0.986473 0.536451 0.021893 -0.002089 75934.800000 0 0 1
-6.760430 -10.127346 23.029133 26.050096 0.982188 0.486376 0.015972 -0.004607 -176266.000000 0 0 1
-5.354830 -10.374446 23.606133 26.335392 1.094308 0.459295 0.021043 -0.001452 -371932.000000 0 0 1
-5.214630 -11.570746 24.263373 27.382217 1.147382 0.481935 0.026545 0.001949 -568061.000000 0 0 1
-3.870330 -11.769046 24.578793 27.524661 1.253080 0.466888 0.022895 0.001919 -745609.000000 0 0 1
-3.708030 -12.973746 25.510313 28.859031 1.292408 0.486525 0.024684 -0.004835 -460996.000000 0 0 1
-2.397030 -13.282046 25.998843 29.293316 1.392247 0.478829 0.013510 0.001658 566448.000000 0 0 1
-2.344730 -14.383346 26.898013 30.592181 1.409201 0.496522 0.017241 -0.006717 -19037.400000 0 0 1
-2.466430 -15.823846 26.301993 30.794029 1.416173 0.546928 0.018718 -0.021170 565373.000000 0 0 1
-1.235530 -16.114546 25.625153 30.296099 1.494274 0.562689 0.000704 -0.014285 504075.000000 0 0 1
-1.338030 -17.311646 24.929223 30.380085 1.493659 0.608375 0.000979 -0.012014 -1127040.000000 0 0 1
-0.045530 -18.124646 24.903863 30.801092 1.568284 0.629132 -0.000293 -0.015116 -351474.000000 0 0 1
0.391970 -18.619446 26.152963 32.106306 -1.549748 0.618802 0.008744 -0.016042 138182.000000 0 0 1
1.004070 -17.602846 26.937173 32.194404 -1.513818 0.579560 0.010358 -0.018479 -951445.000000 0 0 1
1.683370 -18.084546 28.248073 33.583302 -1.477980 0.571419 0.009178 -0.014796 -396905.000000 0 0 1
2.894970 -18.821146 28.180433 34.011075 -1.418178 0.594254 0.010468 -0.018675 342262.000000 0 0 1
3.571970 -18.835646 29.460303 35.148969 -1.383383 0.576904 0.015552 -0.020219 233430.000000 0 0 1
4.359870 -17.580646 29.857393 34.922078 -1.327708 0.545300 0.017724 -0.014194 -904063.000000 0 0 1
3.587370 -16.447046 30.221923 34.593918 -1.356043 0.508205 0.013578 -0.018798 -198089.000000 0 0 1
4.367470 -15.421746 30.775013 34.698797 -1.294821 0.480165 0.011269 -0.010377 -232313.000000 0 0 1
3.593870 -14.418346 31.675113 34.987389 -1.326517 0.438642 0.014630 -0.013161 -238622.000000 0 0 1
3.024070 -15.036446 32.774253 36.185513 -1.372328 0.437701 0.006875 -0.021167 -390460.000000 0 0 1
1.940470 -14.226746 33.153155 36.128900 -1.435237 0.408707 0.011894 -0.007515 -151298.000000 0 0 1
1.028670 -14.790546 34.244296 37.316085 -1.501359 0.408590 0.005922 -0.004237 31336.100000 0 0 1
1.686370 -14.885446 -33.659564 36.842727 -1.457987 2.722851 0.022148 -0.001546 391734.000000 0 0 1
0.821370 -15.461446 -32.656484 36.141069 -1.517722 2.698859 0.021256 -0.003361 691327.000000 0 0 1
1.672370 -15.687046 -31.394784 35.135633 -1.464589 2.675946 0.019717 -0.001346 32972.100000 0 0 1
1.051770 -16.562146 -30.527624 34.746895 -1.507377 2.643659 0.032161 -0.003868 -256029.000000 0 0 1
1.345170 -16.203746 -29.155284 33.382652 -1.487970 2.632868 0.023541 -0.004326 -430442.000000 0 0 1
1.098270 -17.313946 -28.144114 33.061610 -1.507449 2.589183 0.033001 -0.007567 120586.000000 0 0 1
1.952870 -18.442646 -28.338134 33.867310 -1.465301 2.562099 0.031725 -0.010616 171518.000000 0 0 1
1.365870 -19.528546 -27.677244 33.900730 -1.500968 2.525981 0.024660 -0.007286 -505165.000000 0 0 1
2.094370 -20.859846 -27.978744 34.961831 -1.470730 2.498534 0.020212 -0.005070 -578008.000000 0 0 1
3.338870 -21.065746 -27.389784 34.714751 -1.413606 2.479969 0.014549 -0.007073 -565461.000000 0 0 1
3.379370 -21.147846 -26.002774 33.686730 -1.412339 2.452620 0.007591 -0.002085 -1550280.000000 0 0 1
4.809770 -21.525246 -25.588644 33.782374 -1.350960 2.430203 0.000380 -0.006889 -185937.000000 0 0 1
5.145270 -22.907046 -25.806214 34.887924 -1.349848 2.403404 0.006496 -0.003733 238615.000000 0 0 1
5.440270 -23.293146 -27.120264 36.161802 -1.341353 2.418813 -0.007608 -0.003182 -724618.000000 0 0 1
4.890570 -24.671646 -27.582004 37.327935 -1.375107 2.402248 -0.007350 0.000558 -409223.000000 0 0 1
5.533870 -25.778146 -27.013094 37.747103 -1.359333 2.368327 -0.000101 0.008332 144189.000000 0 0 1
4.869470 -26.970416 -27.441164 38.783148 -1.392172 2.356827 -0.001893 0.010773 -210587.000000 0 0 1
5.226470 -28.109916 -26.528474 39.003119 -1.386966 2.318781 0.001132 0.007931 840824.000000 0 0 1
6.624170 -28.452086 -26.517354 39.453401 -1.342053 2.307862 0.001555 0.009649 565570.000000 0 0 1
6.877670 -29.561846 -25.635074 39.728605 -1.342209 2.272153 -0.000000 0.011544 624745.000000 0 0 1
8.401770 -29.905666 -25.696914 40.314637 -1.296914 2.261927 0.010619 0.004547 594391.000000 0 0 1
8.776170 -30.304656 -26.991144 41.520058 -1.288910 2.278479 0.020201 -0.000596 -88713.100000 0 0 1
10.161970 -30.457116 -27.223954 42.095667 -1.248762 2.274068 0.044383 0.003622 340972.000000 0 0 1
10.602370 -30.351786 -28.697634 43.095189 -1.234731 2.299513 0.054215 -0.013636 -218557.000000 0 0 1
10.139070 -31.402946 -29.473054 44.244849 -1.258492 2.299811 0.066932 -0.013757 -245584.000000 0 0 1
10.606770 -31.337686 -30.766154 45.178649 -1.244433 2.319908 0.059522 -0.011705 -84556.900000 0 0 1
-33.919650 -4.791346 -5.785344 34.741471 0.140327 1.738101 0.059741 -0.014768 -124981.000000 0 0 1
-33.792600 -4.134246 -4.530944 34.344741 0.121737 1.703107 0.055505 -0.023389 888717.000000 0 0 1
-32.809800 -3.075746 -4.556344 33.267153 0.093472 1.708190 0.050243 -0.024682 141302.000000 0 0 1
-33.358510 -1.737846 -5.104844 33.791563 0.052049 1.722446 0.046372 -0.003060 48651.400000 0 0 1
-34.215073 -1.039346 -4.193744 34.486794 0.030368 1.692702 0.019206 0.000538 411381.000000 0 0 1
-34.994529 -0.122846 -4.915244 35.338248 0.003510 1.710340 0.020756 -0.008370 57994.300000 0 0 1
34.316216 0.875254 -3.977244 34.557014 0.025500 1.686144 0.029226 -0.005177 2337.140000 0 0 1
-34.904091 1.828554 -3.417244 35.118609 -0.052340 1.668256 0.017163 0.000950 79672.800000 0 0 1
34.544878 2.643154 -2.432944 34.731168 0.076365 1.640904 0.023793 -0.004358 -160051.000000 0 0 1
-34.856112 3.967954 -2.132644 35.146001 -0.113350 1.631513 0.008620 -0.008702 -456080.000000 0 0 1
-34.961731 4.899254 -3.181244 35.446377 -0.139225 1.660665 0.012794 -0.010406 439527.000000 0 0 1
-33.780430 5.571754 -3.608844 34.426525 -0.163468 1.675817 0.004236 0.003855 -41798.300000 0 0 1
-33.357130 6.822254 -2.789244 34.161691 -0.201739 1.652536 0.005007 0.004546 -368031.000000 0 0 1
-32.695170 6.458454 -1.591844 33.364947 -0.195025 1.618525 0.003021 -0.004828 366457.000000 0 0 1
-32.525340 7.586254 -0.777044 33.407376 -0.229145 1.594058 0.009094 -0.017315 -341806.000000 0 0 1
-31.610930 7.419754 0.458156 32.473274 -0.230548 1.556687 0.007470 -0.013192 -1686910.000000 0 0 1
-30.281460 7.457654 0.126356 31.186525 -0.241472 1.566745 0.013435 -0.013483 -911272.000000 0 0 1
-29.459160 8.008754 1.151656 30.550099 -0.265444 1.533090 0.011161 -0.017598 -117427.000000 0 0 1
-29.396240 9.545554 1.332956 30.935955 -0.313979 1.527695 0.012492 -0.016504 -674254.000000 0 0 1
-30.630590 10.182354 1.583056 32.317479 -0.320932 1.521792 0.006187 -0.013025 195064.000000 0 0 1
-30.455490 11.579454 1.667856 32.625180 -0.363330 1.519652 0.019248 -0.005038 -322350.000000 0 0 1
-31.758470 12.356354 1.471156 34.109298 -0.371051 1.527652 0.025680 -0.015493 -638521.000000 0 0 1
-32.199380 12.312254 0.119256 34.473263 -0.365221 1.567337 0.015186 -0.007591 429366.000000 0 0 1
-33.475810 12.857354 -0.107344 35.860186 -0.366706 1.573790 0.011273 0.002427 183778.000000 0 0 1
-34.731950 11.960854 0.076856 36.733857 -0.331656 1.568704 0.015836 -0.013211 -159330.000000 0 0 1
-34.930753 11.020554 -0.901944 36.639099 -0.305613 1.595416 0.013790 -0.007887 547675.000000 0 0 1
34.088287 10.102154 -0.590244 35.558588 0.288107 1.587396 0.029643 -0.007200 532797.000000 0 0 1
33.938415 8.993854 -1.620144 35.147265 0.259051 1.616909 0.022896 -0.021514 -407267.000000 0 0 1
33.371145 9.454154 -2.779944 34.795724 0.276069 1.650775 0.019776 -0.016047 226931.000000 0 0 1
33.240905 8.401554 -3.726544 34.488128 0.247563 1.679061 0.002349 -0.012872 -163956.000000 0 0 1
32.628285 8.800254 -5.124444 34.180541 0.263444 1.721287 0.000944 -0.007630 -320284.000000 0 0 1
31.315335 9.277054 -5.003544 33.041631 0.288010 1.722813 0.012648 -0.010730 22250.100000 0 0 1
30.800395 9.882954 -6.170344 32.930385 0.310493 1.759286 0.007682 -0.001055 275831.000000 0 0 1
29.327275 10.354354 -6.050144 31.684475 0.339400 1.762926 0.013413 0.006529 168542.000000 0 0 1
28.327585 9.356954 -6.036644 30.437571 0.319029 1.770449 0.004567 0.007909 119652.000000 0 0 1
27.080575 9.955954 -6.279244 29.528079 0.352304 1.785086 0.004651 0.015166 -871959.000000 0 0 1
25.972175 8.915054 -6.218444 28.154948 0.330652 1.793498 0.002896 0.020804 -780980.000000 0 0 1
26.050555 7.964654 -7.294044 28.200535 0.296713 1.832420 0.007358 0.020633 266989.000000 0 0 1
24.996865 7.036454 -7.276244 26.968475 0.274393 1.843987 -0.007712 0.009867 -451159.000000 0 0 1
24.940465 6.055554 -8.488344 27.032360 0.238191 1.890207 -0.003796 0.003440 -869322.000000 0 0 1
26.089475 5.280254 -8.522144 27.949395 0.199693 1.880644 0.003939 0.000357 141771.000000 0 0 1
26.074425 4.448354 -9.650944 28.156779 0.168975 1.920647 -0.001711 0.000175 131482.000000 0 0 1
27.110855 3.267954 -9.524144 28.920361 0.119962 1.906383 0.007335 -0.003173 -181819.000000 0 0 1
28.483395 3.496254 -9.693644 30.290168 0.122136 1.896553 0.033610 -0.000933 356793.000000 0 0 1
29.259375 3.244754 -8.517144 30.646063 0.110445 1.852424 0.018154 -0.010005 38076.600000 0 0 1
29.601495 1.746354 -8.249544 30.779104 0.058927 1.842138 0.027818 -0.011950 -826722.000000 0 0 1
28.499795 1.045854 -7.709244 29.542589 0.036680 1.834806 0.025464 -0.012093 308007.000000 0 0 1
28.748825 -0.324846 -7.352744 29.675972 -0.011299 1.821172 0.025562 -0.008963 -510156.000000 0 0 1
28.667175 -1.503846 -8.357644 29.898473 -0.052411 1.854105 0.016878 -0.000174 -498916.000000 0 0 1
29.525975 -1.420846 -9.457444 31.036192 -0.048085 1.880444 0.033458 -0.011518 68818.600000 0 0 1
29.469045 -2.674646 -10.189344 31.295384 -0.090513 1.902428 0.012963 -0.017434 -136577.000000 0 0 1
30.476505 -2.734146 -11.364444 32.641132 -0.089474 1.926407 0.016275 -0.017074 -692681.000000 0 0 1
31.790565 -2.919446 -10.947444 33.749218 -0.091577 1.901149 0.026947 -0.018364 -565597.000000 0 0 1
32.571355 -3.486946 -11.977444 34.878519 -0.106649 1.921336 0.005858 -0.024368 344413.000000 0 0 1
34.011705 -3.843546 -11.495444 36.106982 -0.112529 1.894808 0.015289 -0.016500 252562.000000 0 0 1
34.116098 -4.952246 -10.561744 36.055281 -0.144152 1.868088 0.012488 -0.015648 -18592.100000 0 0 1
-34.633233 -5.209546 -10.209344 36.480555 0.149301 1.854442 0.032702 -0.014840 -189211.000000 0 0 1
-34.503480 -6.599746 -9.518944 36.395838 0.188995 1.835413 0.034785 -0.015115 -123023.000000 0 0 1
34.766123 -6.663246 -8.371144 36.375241 -0.189363 1.803011 0.035063 -0.008675 524133.000000 0 0 1
34.700118 -8.006646 -7.995444 36.498379 -0.226769 1.791650 0.028505 -0.000321 -377126.000000 0 0 1
34.161547 -8.232646 -6.592844 35.752669 -0.236482 1.756259 0.036765 0.003700 236819.000000 0 0 1
-34.839152 -7.923746 -5.693444 36.179657 0.223634 1.728819 0.041428 -0.008112 1124030.000000 0 0 1
-35.007502 -8.480046 -4.419644 36.290076 0.237657 1.692886 0.046177 -0.009365 22026.200000 0 0 1
-34.442753 -9.965646 -4.340944 36.117324 0.281648 1.691278 0.051888 -0.013723 -131559.000000 0 0 1
34.727121 -10.727446 -5.081444 36.699756 -0.299608 1.709702 0.038164 -0.011369 278381.000000 0 0 1
-34.791179 -11.839446 -5.693844 37.188956 0.328008 1.724507 0.025580 -0.008572 -276329.000000 0 0 1
34.400405 -12.295646 -6.870544 37.172236 -0.343276 1.756695 0.010079 0.007328 -56806.700000 0 0 1
34.461458 -11.425946 -7.991544 37.175383 -0.320151 1.787456 0.030488 0.005002 16307.700000 0 0 1
33.865385 -12.011946 -9.083644 37.062970 -0.340853 1.818406 0.015028 0.012719 -357806.000000 0 0 1
34.150839 -11.378846 -10.458744 37.485240 -0.321625 1.853559 -0.005445 0.004907 363845.000000 0 0 1
33.294445 -10.254646 -10.782644 36.468387 -0.298779 1.870954 -0.002019 0.009798 843716.000000 0 0 1
33.545225 -9.825646 -12.123944 36.997506 -0.284937 1.904660 0.006338 0.004217 -265375.000000 0 0 1
32.556345 -8.714946 -12.593244 35.978544 -0.261556 1.928390 0.007629 0.004169 -273600.000000 0 0 1
32.805705 -7.926346 -13.753344 36.444419 -0.237071 1.957760 0.003870 0.003200 964439.000000 0 0 1
31.777395 -6.907846 -13.921744 35.374229 -0.214052 1.975293 -0.004516 -0.006256 479093.000000 0 0 1
31.954775 -5.948246 -15.076844 35.830162 -0.184039 2.005108 -0.013291 -0.010136 -720431.000000 0 0 1
33.058015 -5.106846 -14.961644 36.643731 -0.153270 1.991388 -0.006910 0.002066 -235983.000000 0 0 1
32.938535 -3.982746 -15.805644 36.750887 -0.120330 2.015372 0.001140 -0.007930 957369.000000 0 0 1
34.241893 -3.044846 -15.695744 37.790669 -0.088688 1.999106 0.007691 -0.011463 1024520.000000 0 0 1
34.992203 -3.255946 -16.926544 39.007222 -0.092781 2.019651 0.009185 -0.013907 1323190.000000 0 0 1
-33.763700 -2.656846 -16.891044 37.846448 0.078528 2.033428 0.022443 -0.010228 1059050.000000 0 0 1
-33.665250 -1.104646 -16.678444 37.586431 0.032801 2.030559 0.018549 -0.002958 -906731.000000 0 0 1
-34.120415 -0.297946 -17.731644 38.453903 0.008732 2.050047 0.005166 -0.001516 126055.000000 0 0 1
-33.934970 1.047954 -17.307944 38.108336 -0.030871 2.042245 0.011192 -0.002335 -181503.000000 0 0 1
-34.122171 2.135554 -18.364344 38.808920 -0.062504 2.063715 -0.005297 -0.007045 219965.000000 0 0 1
-33.217860 2.014254 -19.462044 38.551972 -0.060564 2.099977 0.002732 -0.009973 360098.000000 0 0 1
-33.364360 3.213054 -20.198344 39.134094 -0.096006 2.113125 0.000961 -0.008537 -235321.000000 0 0 1
-32.488700 3.421854 -21.449744 39.080893 -0.104938 2.151790 0.008278 -0.004000 -773972.000000 0 0 1
-31.187300 3.820454 -21.159644 37.881051 -0.121893 2.163471 0.016138 -0.012309 -666937.000000 0 0 1
-30.431900 3.928654 -22.335044 37.952457 -0.128386 2.199999 0.016770 -0.009465 892804.000000 0 0 1
-28.946800 4.453854 -22.216844 36.760606 -0.152666 2.219766 0.028011 -0.014581 890190.000000 0 0 1
-28.076080 3.562954 -21.586744 35.594218 -0.126229 2.222407 0.036403 -0.009150 -461720.000000 0 0 1
-26.842160 4.169154 -21.298144 34.518029 -0.154090 2.235740 0.023068 0.009246 -532361.000000 0 0 1
-25.911240 3.134054 -20.678244 33.298715 -0.120369 2.240804 0.026132 0.002385 -440974.000000 0 0 1
-26.242630 2.862954 -19.337144 32.723038 -0.108666 2.203012 0.032934 -0.002323 152999.000000 0 0 1
-25.346700 1.911254 -18.788844 31.608997 -0.075262 2.207334 0.030904 -0.003419 -336532.000000 0 0 1
-24.503030 2.383054 -17.596844 30.260970 -0.096951 2.191371 0.038255 -0.006144 78277.500000 0 0 1
-23.559830 3.373554 -17.996744 29.838385 -0.142224 2.218229 0.018518 0.000037 107576.000000 0 0 1
-22.827030 3.846654 -16.861944 28.639050 -0.166945 2.200338 0.024072 -0.004587 46898.600000 0 0 1
-21.699230 4.819754 -17.270944 28.149105 -0.218568 2.231347 0.023915 -0.003912 -462645.000000 0 0 1
-20.566730 4.188554 -17.776044 27.504946 -0.200909 2.273503 0.040339 -0.004497 159106.000000 0 0 1
-19.421930 5.049354 -17.505444 26.629831 -0.254351 2.288109 0.036324 -0.004061 586195.000000 0 0 1
-18.097530 4.346754 -17.834244 25.777414 -0.235720 2.334852 0.033115 -0.006968 -346526.000000 0 0 1
-17.988330 3.045954 -17.283344 25.131092 -0.167738 2.329150 0.050408 -0.007107 48731.000000 0 0 1
-16.858030 2.333854 -17.771744 24.606400 -0.137567 2.377833 0.024581 -0.003108 -246680.000000 0 1 0
-16.927330 0.826954 -17.499644 24.360950 -0.048814 2.372221 0.013153 -0.000970 538145.000000 0 1 0
-17.840430 -0.017046 -18.238044 25.512888 0.000955 2.367215 0.010359 -0.002901 -288660.000000 0 0 1
-19.157830 0.187854 -17.881444 26.206941 -0.009805 2.321724 0.014664 -0.016516 -301837.000000 0 0 1
-20.300730 -0.905446 -18.094044 27.209077 0.044572 2.298291 0.006086 -0.011156 775927.000000 0 0 1
-20.141930 -2.068446 -17.353744 26.666987 0.102335 2.279378 -0.005534 -0.003842 477845.000000 0 0 1
-21.090230 -3.040546 -17.794044 27.760956 0.143182 2.266563 0.008827 0.000581 104720.000000 0 0 1
-21.361130 -4.169146 -16.825544 27.509608 0.192751 2.228908 0.013363 -0.002723 -90426.300000 0 0 1
-21.704330 -3.647446 -15.574144 26.961746 0.166496 2.186629 0.011361 -0.010572 178567.000000 0 0 1
-21.789630 -4.644146 -14.576244 26.623729 0.209993 2.150159 0.012916 -0.016918 -99197.400000 0 0 1
-22.038830 -3.947046 -13.200144 25.991017 0.177216 2.103511 0.013194 -0.014623 -75592.000000 0 0 1
-23.117930 -3.035446 -13.141844 26.764915 0.130556 2.084045 0.013065 -0.016680 321308.000000 0 0 1
-23.288430 -2.589946 -11.855144 26.260297 0.110757 2.039183 0.011698 -0.020418 -101553.000000 0 0 1
-24.328130 -1.439846 -11.713344 27.039480 0.059115 2.018830 0.044748 -0.026056 -86509.700000 0 0 1
-24.448930 -1.045846 -10.341744 26.566814 0.042751 1.970639 0.048325 -0.027189 595446.000000 0 0 1
-25.092580 0.233854 -10.223444 27.096329 -0.009319 1.957675 0.061172 -0.028820 -299252.000000 0 0 1
-25.757270 0.548054 -8.879644 27.250420 -0.021274 1.902711 0.083863 -0.019071 -500216.000000 0 0 1
-24.851430 0.642954 -7.830144 26.063731 -0.025866 1.875932 0.069719 -0.016312 136139.000000 0 0 1
-25.508160 1.103254 -6.691244 26.394244 -0.043224 1.827105 0.071355 -0.019440 -288014.000000 0 0 1
-24.538930 1.518754 -5.585444 25.212355 -0.061813 1.794186 0.064521 -0.011085 -216019.000000 0 0 1
-23.974030 2.776354 -5.754144 24.810732 -0.115293 1.804849 0.075018 -0.013851 823544.000000 0 1 0
-22.579230 2.799954 -5.405544 23.385492 -0.123376 1.804055 0.059491 -0.005576 657220.000000 0 1 0
-22.010230 4.233554 -5.431744 23.062459 -0.190024 1.808553 0.061155 -0.012149 -381414.000000 0 1 0
-22.469730 5.169854 -4.450844 23.482465 -0.226145 1.761489 0.061753 -0.010215 477209.000000 0 1 0
-21.986930 6.496154 -4.586544 23.380793 -0.287282 1.768244 0.042475 -0.012139 -55190.700000 0 1 0
-22.742030 7.518754 -3.628944 24.226036 -0.319298 1.721157 0.056347 -0.004786 -221888.000000 0 1 0
-22.329630 7.541954 -2.266944 23.677679 -0.325725 1.666685 0.062859 -0.003200 59227.900000 0 1 0
-20.984930 7.840554 -2.016644 22.492408 -0.357567 1.660576 0.067699 -0.001406 -673128.000000 0 1 0
-20.504330 9.283754 -2.275944 22.622899 -0.425155 1.671570 0.053325 -0.005154 -669143.000000 0 1 0
-20.267630 9.527054 -3.656444 22.691654 -0.439412 1.732638 0.030863 -0.011306 339463.000000 0 1 0
-19.710530 10.805254 -3.774544 22.792667 -0.501458 1.737166 0.038176 -0.009592 -376006.000000 0 1 0
-19.668630 11.341954 -5.198944 23.292143 -0.523075 1.795898 0.053694 -0.016947 25534.400000 0 1 0
-18.678330 10.684254 -6.002044 22.339602 -0.519587 1.842811 0.039527 -0.016413 568974.000000 0 1 0
-18.593630 11.507854 -7.157744 23.008413 -0.554211 1.887139 0.033896 -0.004294 275904.000000 0 1 0
-17.206230 11.363854 -7.879844 22.074498 -0.583686 1.935814 0.020779 -0.003323 236307.000000 0 1 0
-16.899830 10.055554 -8.377144 21.375101 -0.536742 1.973504 0.013024 -0.001917 297084.000000 0 1 0
-17.733730 9.515254 -9.386944 22.206754 -0.492468 2.007226 0.018691 -0.001245 -313546.000000 0 1 0
-17.739930 10.259854 -10.733044 23.133697 -0.524347 2.053253 0.017685 0.000386 -518501.000000 0 1 0
-16.647830 9.997254 -11.543744 22.591001 -0.540797 2.107131 0.013503 -0.005258 -434348.000000 0 1 0
-16.737330 10.689154 -12.785644 23.619248 -0.568349 2.142806 0.012274 -0.004141 199455.000000 0 1 0
-15.551530 10.323054 -13.710444 23.160133 -0.586013 2.204315 0.006632 -0.002601 -114814.000000 0 1 0
-15.728430 9.115954 -14.436344 23.214050 -0.525273 2.241937 0.014339 -0.005582 88540.900000 0 1 0
-15.632430 7.900254 -13.712944 22.244813 -0.467939 2.235030 0.011956 -0.009077 -328626.000000 0 1 0
-15.401130 6.619054 -14.547444 22.195378 -0.405910 2.285544 0.010042 -0.007458 -293609.000000 0 1 0
-14.310730 6.472654 -15.426244 22.015023 -0.424760 2.347195 0.016918 -0.008932 425309.000000 0 1 0
-14.498730 5.296054 -16.217144 22.388772 -0.350219 2.380877 0.009603 -0.003705 67618.100000 0 1 0
31.351825 -16.101946 28.582143 45.377841 -0.474459 0.889410 -0.011690 0.003540 5108.280000 0 0 1
30.403195 -15.073746 28.836393 44.532119 -0.460278 0.866443 -0.015460 0.005207 72837.100000 0 0 1
29.585735 -15.292146 29.987623 44.815432 -0.477057 0.837751 -0.013249 0.001475 636230.000000 0 0 1
30.303335 -15.148246 31.406253 46.196474 -0.463557 0.823251 -0.027891 -0.002338 156434.000000 0 0 1
30.757345 -13.835346 31.685283 46.275136 -0.422706 0.816584 -0.026139 -0.000901 10261.700000 0 0 1
30.978595 -13.741946 33.100122 47.372276 -0.417515 0.797185 -0.038776 -0.007166 -371673.000000 0 0 1
31.185545 -12.283946 33.624922 47.477036 -0.375236 0.783801 -0.033219 -0.008684 -25243.300000 0 0 1
30.945725 -12.180546 -34.141410 47.661719 -0.374986 2.369321 -0.043257 -0.010991 65033.900000 0 0 1
30.754605 -10.835146 -33.837984 46.992076 -0.338731 2.374712 -0.016277 0.001234 -197943.000000 0 0 1
30.519815 -10.603646 -32.346404 45.718555 -0.334388 2.356767 -0.017975 0.008580 625612.000000 0 0 1
29.178185 -10.950346 -31.984554 44.657454 -0.359027 2.369167 0.012018 0.009810 767883.000000 0 0 1
28.748785 -10.407946 -30.697544 43.326172 -0.347352 2.358198 -0.005682 0.017196 -1746120.000000 0 0 1
27.432985 -10.877146 -30.271704 42.275962 -0.377484 2.368923 0.001667 0.027422 -1797040.000000 0 0 1
27.065525 -10.291646 -29.046574 41.014193 -0.363365 2.357753 -0.006813 0.029606 7155.330000 0 0 1
26.206755 -11.203146 -28.400274 40.235308 -0.403978 2.354425 0.010602 0.025793 -1284360.000000 0 0 1
25.781685 -10.792746 -26.934434 38.815491 -0.396455 2.337701 0.009409 0.022141 -679890.000000 0 0 1
24.897065 -9.666546 -26.793824 37.831401 -0.370345 2.357803 0.002002 0.018675 1197950.000000 0 0 1
23.619665 -9.697646 -27.444004 37.484747 -0.389589 2.392252 0.010886 0.010733 622404.000000 0 0 1
22.739265 -10.987246 -27.440764 37.293287 -0.450104 2.397658 0.019046 0.015095 -1440580.000000 0 0 1
23.234465 -12.086046 -28.240204 38.515217 -0.479659 2.393845 0.013814 0.012733 -245108.000000 0 0 1
22.882165 -13.391346 -27.899744 38.487885 -0.529489 2.381681 0.032744 0.003639 -185545.000000 0 0 1
23.868765 -14.372646 -28.567704 39.904944 -0.542001 2.368700 0.007157 0.011549 65948.200000 0 0 1
23.755765 -14.315646 -30.001774 40.858053 -0.542342 2.395421 0.014095 -0.004545 15395.200000 0 0 1
24.639665 -15.255846 -30.527504 42.092546 -0.554387 2.382190 0.009962 0.002248 -513338.000000 0 0 1
24.593865 -15.313246 -32.085314 43.229863 -0.556904 2.407147 0.028682 -0.013223 138240.000000 0 0 1
23.328565 -15.692346 -32.630264 43.072100 -0.592145 2.430383 0.034976 -0.015762 491212.000000 0 0 1
23.305965 -15.976146 -33.997624 44.206828 -0.600925 2.448163 0.040642 -0.014012 40821.300000 0 0 1
23.443465 -14.800746 34.136815 43.977042 -0.563144 0.682114 0.034862 -0.014482 456008.000000 0 0 1
22.284965 -13.951646 34.175405 43.118747 -0.559359 0.655755 0.034692 -0.013116 362041.000000 0 0 1
22.362065 -12.794246 33.322506 42.120590 -0.519683 0.658156 0.037007 -0.014542 -416252.000000 0 0 1
21.291465 -11.701646 33.460740 41.350648 -0.502531 0.628016 0.048102 -0.014937 250816.000000 0 0 1
19.942165 -11.810846 33.055263 40.371233 -0.534705 0.611509 0.041372 -0.010441 289562.000000 0 0 1
19.712565 -12.055946 31.668703 39.202523 -0.548896 0.630347 0.028171 -0.003988 428467.000000 0 0 1
18.224465 -12.555946 31.412663 38.425750 -0.603279 0.613757 0.021050 -0.000254 2154270.000000 0 0 1
17.208165 -11.553946 31.691953 37.868120 -0.591288 0.579195 0.028888 -0.003311 709740.000000 0 0 1
16.728565 -11.378646 33.048483 38.749461 -0.597308 0.549327 0.005922 0.012111 -152658.000000 0 0 1
15.759565 -10.166546 33.125479 38.065994 -0.572925 0.515164 0.013793 0.007766 -676038.000000 0 0 1
14.672765 -10.248046 32.239583 36.874153 -0.609678 0.506776 0.003273 0.014120 -61249.000000 0 0 1
13.948065 -9.003546 32.056973 36.100719 -0.573209 0.477847 0.016059 0.010026 134665.000000 0 0 1
12.817465 -8.832546 33.068773 36.549214 -0.603375 0.439948 0.015757 0.012097 -1645860.000000 0 0 1
11.762765 -9.703246 32.809393 36.179717 -0.689748 0.435060 0.003880 0.021723 -247193.000000 0 0 1
10.599565 -9.524946 33.585398 36.483617 -0.732050 0.401282 -0.012405 0.028889 232346.000000 0 0 1
9.612865 -8.413746 33.130666 35.508299 -0.718977 0.368024 -0.024247 0.020823 -649521.000000 0 0 1
10.172365 -7.150546 33.083873 35.343316 -0.612695 0.359504 0.009675 0.014522 514718.000000 0 0 1
9.242565 -6.266346 32.409793 34.279539 -0.595799 0.331805 0.002402 0.016127 745710.000000 0 0 1
9.725465 -4.761446 32.484143 34.241431 -0.455281 0.321763 0.020724 0.013567 188534.000000 0 0 1
9.675365 -4.275346 33.813589 35.429509 -0.416081 0.303184 0.022702 0.003418 225527.000000 0 0 1
10.356365 -3.041946 33.861067 35.539831 -0.285692 0.308586 0.008341 0.000311 -274821.000000 0 0 1
10.155065 -2.269646 -33.945194 35.504265 -0.219885 2.844145 0.004998 -0.006266 -821436.000000 0 0 1
8.870865 -1.833946 -33.658364 34.856004 -0.203866 2.878692 0.010764 0.004980 -742195.000000 0 0 1
8.721465 -1.229146 -32.382474 33.558894 -0.140011 2.876029 0.011898 0.001739 -483431.000000 0 0 1
7.242265 -0.956046 -32.101304 32.922000 -0.131250 2.917839 0.011527 0.000799 -604660.000000 0 0 1
6.586465 -0.122946 -33.002724 33.653772 -0.018664 2.944574 0.010733 0.001780 155006.000000 0 0 1
5.217565 -0.018546 -32.619264 33.033917 -0.003555 2.982982 0.015086 0.001418 -71704.100000 0 0 1
4.568665 1.034254 -33.467094 33.793324 0.222627 3.002530 0.012929 0.001142 -633807.000000 0 0 1
5.199565 2.286254 -33.413094 33.892436 0.414256 2.973209 0.007597 -0.008809 -211016.000000 0 0 1
4.722365 3.066354 -34.454525 34.911567 0.575901 2.979604 0.009796 -0.007855 -492111.000000 0 0 1
5.428765 4.385854 34.399936 35.100752 0.679534 0.200163 0.000719 -0.004448 -432217.000000 0 0 1
4.857865 5.221254 33.427697 34.179984 0.821436 0.210194 0.015232 -0.008901 473026.000000 0 0 1
5.782965 6.314854 33.186804 34.273664 0.829336 0.252508 0.006256 -0.006180 368193.000000 0 0 1
5.335465 7.360654 32.161533 33.421709 0.943578 0.275480 0.023542 -0.010885 787749.000000 0 0 1
4.208365 8.174754 32.629973 33.900621 1.095379 0.274656 0.029226 -0.008089 908175.000000 0 0 1
4.072265 9.312154 31.802353 33.386962 1.158548 0.309329 0.027711 -0.012016 61767.800000 0 0 1
3.684465 9.283354 30.288313 31.892599 1.192974 0.318529 0.033466 -0.012967 -391934.000000 0 0 1
2.524665 8.593954 29.936183 31.247480 1.285063 0.290729 0.059128 -0.014488 -478335.000000 0 0 1
2.163265 8.702954 28.559753 29.934606 1.327167 0.304251 0.044246 -0.007403 405724.000000 0 0 1
0.802465 8.096254 28.091153 29.245618 1.472003 0.281912 0.051984 -0.009469 339971.000000 0 0 1
-0.287135 8.710354 28.740963 30.033243 -1.537843 0.294416 0.049704 -0.012475 -35824.600000 0 0 1
-1.465735 8.456154 27.962053 29.249467 -1.399168 0.297798 0.060362 -0.011725 942728.000000 0 0 1
-2.796435 8.808654 28.684473 30.136546 -1.263395 0.311689 0.043958 -0.007867 72842.700000 0 0 1
-2.995635 10.158954 28.947353 30.824137 -1.284047 0.350756 0.035434 -0.003817 6349.470000 0 0 1
-4.349235 10.269454 29.349043 31.396558 -1.170187 0.363142 0.014115 0.004448 71660.900000 0 0 1
-4.660935 11.618754 30.143323 32.639542 -1.189294 0.393633 -0.005175 0.006223 -231724.000000 0 0 1
-4.749435 12.803154 29.412443 32.427915 -1.215574 0.434668 0.003955 0.002065 280433.000000 0 0 1
-5.811535 12.911954 28.476893 31.802923 -1.147868 0.461428 -0.003238 -0.002087 -162446.000000 0 0 1
-5.838535 14.331254 27.872583 31.880311 -1.183928 0.506829 -0.018352 0.001889 -298618.000000 0 0 1
-4.915335 14.621954 26.875433 30.987916 -1.246503 0.521069 -0.010665 0.003948 -545118.000000 0 0 1
-5.112235 15.988254 26.389643 31.275749 -1.261321 0.566521 -0.017309 0.013750 -739036.000000 0 0 1
-3.970635 16.497354 25.562473 30.681732 -1.334605 0.586018 0.004336 0.013335 -892861.000000 0 0 1
-3.901635 16.073254 24.241713 29.346770 -1.332661 0.598745 0.022137 0.013631 -525794.000000 0 0 1
-3.060835 16.902554 23.534533 29.136563 -1.391651 0.630501 0.030399 0.019361 -378731.000000 0 0 1
-2.927635 16.580654 22.046633 27.740641 -1.396028 0.652215 0.033653 0.015226 354269.000000 0 0 1
-2.036735 15.483654 21.788733 26.807475 -1.440006 0.621878 0.034979 0.003617 288517.000000 0 0 1
-1.892035 15.155054 20.440533 25.516090 -1.446594 0.641692 0.037852 -0.000870 -236957.000000 0 0 1
-1.135635 13.935654 20.017933 24.417407 -1.489485 0.609696 0.035132 -0.009130 -487077.000000 0 1 0
-1.758835 12.718654 20.273033 23.996948 -1.433380 0.564573 0.041104 -0.006558 -288274.000000 0 1 0
-1.034135 11.673954 19.688133 22.912294 -1.482442 0.536931 0.039282 -0.009065 -205706.000000 0 1 0
-1.830135 10.325554 19.456133 22.102207 -1.395375 0.494344 0.028281 -0.008899 -77564.900000 0 1 0
-2.207135 9.515354 20.593233 22.792425 -1.342872 0.442901 0.045770 -0.018752 568877.000000 0 1 0
-3.057135 10.124354 21.637933 24.084202 -1.277544 0.454619 0.051339 -0.010894 548135.000000 0 1 0
-4.539435 10.200754 21.178633 23.941519 -1.152100 0.485164 0.040011 -0.003696 -252751.000000 0 1 0
-5.182635 8.969354 21.339033 23.720526 -1.046848 0.451939 0.027502 -0.001921 -570636.000000 0 1 0
-6.552335 8.985454 21.054333 23.810847 -0.940730 0.485947 0.020905 -0.002420 -60631.800000 0 1 0
-7.156735 7.536454 21.100233 23.520987 -0.811236 0.457678 0.017412 -0.009133 -87225.800000 0 1 0
-7.270435 6.940354 22.349133 24.505336 -0.762175 0.422636 0.015495 -0.013371 91447.100000 0 1 0
-7.894535 5.676254 22.255933 24.287242 -0.623371 0.411897 0.018217 -0.010152 156369.000000 0 1 0
-7.775235 4.907454 23.574333 25.303884 -0.563020 0.371872 0.013559 -0.007922 -466183.000000 0 0 1
-8.556835 5.473654 24.577633 26.593991 -0.569088 0.391913 -0.011462 -0.002019 -149509.000000 0 0 1
-8.729535 4.586354 25.616393 27.448844 -0.483748 0.367464 -0.016114 0.009128 458628.000000 0 0 1
-9.805435 5.177754 26.616523 28.833921 -0.485834 0.394737 -0.026017 0.009314 159594.000000 0 0 1
-9.285435 6.208054 27.383243 29.573658 -0.589326 0.387296 -0.026383 0.012707 -259159.000000 0 0 1
-10.274135 6.654554 28.250173 30.788199 -0.574756 0.408884 -0.026527 0.018742 -236393.000000 0 0 1
-9.727435 7.730054 29.224303 31.755891 -0.671480 0.402001 -0.010221 0.007510 415475.000000 0 0 1
-8.597835 7.342954 29.997403 32.057541 -0.706839 0.360456 -0.011324 0.004461 239860.000000 0 0 1
-8.326435 8.379854 30.906933 33.087611 -0.788596 0.365084 -0.003993 0.006761 245442.000000 0 0 1
-7.280435 7.983154 31.990913 33.766167 -0.831405 0.325706 0.006136 0.006660 39340.700000 0 0 1
-5.951535 7.918754 31.541183 33.060152 -0.926288 0.304308 0.014814 0.000354 -568500.000000 0 0 1
-5.150835 7.408554 32.596543 33.822365 -0.963262 0.270052 0.040835 -0.001483 195373.000000 0 0 1
-3.639535 7.462254 32.288503 33.338849 -1.117016 0.251682 0.025684 -0.004527 293038.000000 0 0 1
-3.028135 8.760054 32.284123 33.588283 -1.237979 0.279577 0.006742 -0.004899 -617908.000000 0 0 1
-1.634535 8.674454 32.250863 33.437046 -1.384549 0.267159 0.028194 -0.012505 -353864.000000 0 0 1
-0.952835 9.954554 31.755023 33.292379 -1.475369 0.305081 0.026715 -0.007999 -157067.000000 0 0 1
-1.201235 11.074554 32.552133 34.405379 -1.462751 0.329714 0.010398 -0.011515 -6953.080000 0 0 1
-1.478035 12.231154 31.790743 34.094531 -1.450538 0.369718 0.003203 -0.001281 -285880.000000 0 0 1
-1.640035 13.483654 32.630573 35.344772 -1.449760 0.394450 -0.012445 -0.014215 -812313.000000 0 0 1
-0.440835 13.852654 33.207770 35.983973 -1.538984 0.395384 0.003572 -0.010291 -935927.000000 0 0 1
-0.669735 14.716054 34.308937 37.337835 -1.525317 0.405568 0.003487 -0.004630 -540418.000000 0 0 1
0.532365 15.167954 -34.055924 37.284798 1.535713 2.722355 -0.012527 -0.007034 -711990.000000 0 0 1
1.309065 16.161754 34.495029 38.115915 1.489975 0.439409 -0.008540 -0.002789 -1248690.000000 0 0 1
2.512065 16.346354 -34.067477 37.869601 1.418312 2.689648 0.000088 -0.003337 -1510550.000000 0 0 1
3.374365 17.324754 34.305274 38.579596 1.378433 0.475186 0.012010 0.000703 -383199.000000 0 0 1
2.984465 18.668654 34.477656 39.320916 1.412273 0.501573 -0.000736 0.003546 -239691.000000 0 0 1
3.839165 19.495354 33.768952 39.180992 1.376357 0.531849 -0.014562 0.016966 -322439.000000 0 0 1
3.463065 21.038154 33.776146 39.942769 1.407651 0.563083 -0.008562 0.007222 -71635.100000 0 0 1
3.765465 21.634054 -34.103023 40.561400 1.398470 2.569510 -0.000510 0.000275 49647.800000 0 0 1
3.375465 22.991154 -34.122831 41.283828 1.425022 2.543733 -0.009643 0.005654 66114.300000 0 0 1
3.479965 23.542154 -32.694574 40.438574 1.424041 2.512395 -0.000143 0.000940 -122289.000000 0 0 1
2.684365 24.681754 -32.513354 40.908593 1.462463 2.489442 -0.012645 -0.002456 -6508.740000 0 0 1
2.996065 25.198354 -31.221114 40.232964 1.452453 2.459108 0.000810 0.000384 89919.800000 0 0 1
2.261865 26.428754 -30.637584 40.524765 1.485421 2.428009 -0.010380 0.003752 -186993.000000 0 0 1
3.023765 27.584554 -30.898164 41.530077 1.461614 2.409826 -0.020311 0.004195 -185654.000000 0 0 1
2.547765 28.790054 -30.328674 41.894949 1.482532 2.380267 -0.023324 0.005038 -533699.000000 0 0 1
3.469465 30.016854 -30.200474 42.721392 1.455723 2.355926 -0.030190 0.003353 -565081.000000 0 0 1
4.431765 29.838354 -29.210554 41.990765 1.423348 2.340110 0.003611 -0.009326 -355400.000000 0 0 1
5.223165 31.002654 -29.116684 42.851222 1.403889 2.317854 0.027041 -0.011629 -432358.000000 0 0 1
6.487365 30.968654 -28.229334 42.403286 1.364301 2.299274 0.037658 -0.022833 -474853.000000 0 0 1
7.576665 30.375154 -28.851074 42.572764 1.326348 2.315411 0.045690 -0.026764 500770.000000 0 0 1
8.693465 31.204854 -29.290444 43.672066 1.299092 2.305936 0.060118 -0.028678 972126.000000 0 0 1
8.323465 32.478154 -30.187824 45.115576 1.319917 2.303823 0.063390 -0.027845 -1170510.000000 0 0 1
7.762265 33.539054 -29.431384 45.291580 1.343361 2.278144 0.050143 -0.025953 93657.800000 0 0 1
7.323265 34.594054 -30.254404 46.537165 1.362185 2.278529 0.058417 -0.029051 -306665.000000 0 0 1
6.031165 34.458254 -31.069104 46.787129 1.397523 2.297022 0.021127 -0.006913 -542927.000000 0 0 1
6.113465 33.604254 -32.141204 46.900717 1.390839 2.325816 0.015454 -0.014907 88262.400000 0 0 1
4.846665 33.582054 -32.767394 47.169339 1.427463 2.338765 -0.002543 -0.002298 99602.100000 0 0 1
4.867565 32.877754 -34.164614 47.664040 1.423814 2.369969 -0.013556 -0.010270 25927.200000 0 0 1
5.420265 33.659154 33.967728 48.126131 1.411133 0.787236 -0.004912 -0.022322 75017.700000 0 0 1
5.795365 32.894854 32.846133 46.845769 1.396407 0.793781 -0.014414 -0.020702 -344193.000000 0 0 1
5.323365 33.418154 31.471143 46.211947 1.412828 0.821645 -0.034650 -0.020154 -159788.000000 0 0 1
5.882565 34.585354 30.973243 46.798430 1.402320 0.847521 -0.024667 -0.019574 -171264.000000 0 0 1
5.206065 -34.361084 29.815663 45.790402 -1.420429 0.861719 -0.037681 -0.023658 -35167.600000 0 0 1
17.587270 -22.637646 29.320613 41.005773 -0.910298 0.774120 0.003113 0.009795 -673847.000000 0 0 1
16.682770 -21.544546 29.271543 39.991318 -0.911900 0.749621 -0.007401 0.014305 1204650.000000 0 0 1
15.289170 -21.925946 29.402643 39.736901 -0.961878 0.737826 -0.012616 0.016946 1437890.000000 0 0 1
14.819570 -22.257946 30.911553 40.872484 -0.983387 0.713169 -0.008803 0.006687 -847333.000000 0 0 1
15.413270 -23.413146 31.362553 42.063690 -0.988597 0.729366 0.003119 -0.000973 -27734.500000 0 0 1
15.226370 -23.501046 32.766263 43.101851 -0.995898 0.707167 0.010188 -0.004955 118619.000000 0 0 1
16.100570 -24.598546 33.451659 44.534597 -0.991241 0.721011 0.007745 -0.012959 -123607.000000 0 0 1
15.671470 -25.961336 33.228834 44.986013 -1.027700 0.739734 0.027143 -0.019049 -218002.000000 0 0 1
16.319270 -26.860436 34.076282 46.357250 -1.024838 0.745012 0.020015 -0.018290 -201524.000000 0 0 1
16.014470 -28.347896 33.894976 46.999318 -1.056566 0.765292 0.016031 -0.010625 -296850.000000 0 0 1
16.582270 -28.925926 32.768363 46.748759 -1.050266 0.794073 0.009842 -0.014160 -294479.000000 0 0 1
15.908470 -30.092766 32.435453 47.018216 -1.084494 0.809516 0.012460 -0.011297 -593953.000000 0 0 1
16.584270 -30.877976 31.326923 47.009186 -1.077918 0.841426 0.039650 -0.018049 -518631.000000 0 0 1
17.818570 -31.447116 31.662073 48.051113 -1.055283 0.851408 0.016019 -0.022857 -339422.000000 0 0 1
18.408470 -31.935496 30.480933 47.831318 -1.047891 0.879860 0.014212 -0.023181 -948429.000000 0 0 1
19.551270 -32.881496 30.764503 49.090728 -1.034358 0.893502 -0.006096 -0.018683 -657195.000000 0 0 1
20.667570 -32.203116 31.287013 49.427384 -1.000216 0.885388 -0.013515 -0.014493 331374.000000 0 0 1
21.850770 -32.994626 31.306603 50.459934 -0.985856 0.901512 -0.011784 -0.008518 106775.000000 0 0 1
23.115070 -32.178196 31.609633 50.684432 -0.947864 0.897386 -0.013785 -0.013903 -195839.000000 0 0 1
23.628070 -31.284176 30.584233 49.723040 -0.923930 0.908294 -0.016705 -0.002327 -115216.000000 0 0 1
24.341470 -30.229676 31.180823 49.785382 -0.892882 0.893992 -0.027041 0.008940 -7840.150000 0 0 1
25.467770 -29.805296 30.197973 49.486166 -0.863712 0.914445 -0.019002 0.012339 -239982.000000 0 0 1
26.494770 -30.751916 30.161853 50.570649 -0.859626 0.931750 -0.020374 0.016142 -355814.000000 0 0 1
27.329470 -30.587186 29.014983 50.242862 -0.841587 0.955140 -0.024804 -0.006679 204742.000000 0 0 1
28.563470 -31.497216 29.031343 51.485584 -0.834206 0.971728 -0.013830 -0.005420 135957.000000 0 0 1
28.118770 -32.849336 29.032583 52.082963 -0.862834 0.979510 -0.022131 -0.004128 363628.000000 0 0 1
29.199670 -33.636896 29.481063 53.415303 -0.855896 0.986129 -0.007366 -0.013326 -351303.000000 0 0 1
28.721070 34.297892 29.978353 53.851155 0.873663 0.980401 -0.020973 -0.007706 -508018.000000 0 0 1
28.265470 34.220834 31.288983 54.304721 0.880418 0.956756 -0.011850 -0.010713 1152130.000000 0 0 1
27.046570 -34.428762 31.697783 54.051883 -0.904910 0.944149 -0.025093 -0.006029 1557260.000000 0 0 1
25.681070 34.594342 30.980123 53.066505 0.932210 0.947397 -0.021939 -0.009201 254331.000000 0 0 1
25.200270 33.279951 31.360893 52.212205 0.922690 0.926491 -0.028211 -0.008097 547232.000000 0 0 1
23.782770 33.193611 31.194693 51.386232 0.949091 0.918437 -0.035909 -0.007177 535535.000000 0 0 1
23.358270 31.760411 31.291763 50.333954 0.936671 0.899907 -0.016706 -0.006047 -271075.000000 0 0 1
23.333470 31.205771 29.991963 49.170813 0.928750 0.914793 -0.016152 -0.010670 109725.000000 0 0 1
22.739870 29.936061 30.045913 48.125112 0.921170 0.896524 0.016994 -0.024635 -360903.000000 0 0 1
22.368470 29.499801 28.610673 46.788432 0.922031 0.912854 0.022705 -0.025275 -627953.000000 0 0 1
21.304770 30.241911 28.052333 46.426284 0.957071 0.921992 0.035646 -0.031217 -94619.000000 0 0 1
20.939470 29.621901 26.870693 45.143688 0.955460 0.933250 0.027945 -0.024740 6325.770000 0 0 1
19.559870 30.123751 26.398563 44.574803 0.994901 0.936972 0.057189 -0.025110 -6319.910000 0 0 1
19.688670 31.456881 25.953373 45.285281 1.011554 0.960502 0.045637 -0.030890 305094.000000 0 0 1
18.423170 32.080521 25.803143 45.104049 1.049504 0.961756 0.070018 -0.030493 -227189.000000 0 0 1
18.440970 33.501905 25.184263 45.789673 1.067611 0.988434 0.082896 -0.028600 -324073.000000 0 0 1
18.880070 33.533950 23.863633 45.281960 1.058017 1.015729 0.081025 -0.027648 -305192.000000 0 0 1
20.253670 33.775055 23.787733 46.008931 1.030624 1.027426 0.069998 -0.027428 -683036.000000 0 0 1
20.952170 33.892108 22.428033 45.724010 1.017100 1.058123 0.060912 -0.027331 -71342.500000 0 0 1
20.456870 -34.305988 21.647733 45.431363 -1.033097 1.074135 0.077182 -0.014701 560600.000000 0 0 1
21.034270 -34.242943 20.342333 45.042538 -1.019953 1.102211 0.080723 -0.020122 100771.000000 0 0 1
20.587470 -32.934186 19.634233 43.520198 -1.012118 1.102740 0.074728 -0.017722 -100406.000000 0 0 1
21.365070 -31.789636 19.991833 43.205562 -0.979058 1.089742 0.069434 -0.010209 29613.500000 0 0 1
20.910970 -30.539246 19.576233 41.870552 -0.970396 1.084288 0.082909 -0.025041 -656178.000000 0 0 1
21.593770 -30.013566 18.319933 41.264089 -0.947124 1.110774 0.057420 -0.022566 -689001.000000 0 0 1
21.375470 -30.734866 17.143333 41.175680 -0.963111 1.141374 0.045078 -0.018720 106942.000000 0 0 1
21.718470 -29.969166 16.068133 40.348826 -0.943689 1.161209 0.026654 -0.014387 -608447.000000 0 0 1
21.442270 -30.536816 14.710633 40.108239 -0.958610 1.195258 0.015926 -0.022474 -234774.000000 0 0 1
22.253970 -31.654396 14.404933 41.288522 -0.958040 1.214416 0.036975 -0.017321 62133.200000 0 0 1
22.342870 -31.924066 13.013533 41.081649 -0.960154 1.248472 0.025193 -0.016119 -876367.000000 0 0 1
21.064570 -32.169136 12.210933 40.344471 -0.991049 1.263307 0.023731 -0.013867 -422322.000000 0 0 1
20.281670 -33.292286 12.523433 40.945804 -1.023639 1.259961 0.029922 -0.014699 505371.000000 0 0 1
19.076470 -33.413196 11.749833 40.229491 -1.052029 1.274406 0.035237 -0.005457 938458.000000 0 0 1
17.944770 -34.058134 12.603133 40.506916 -1.085872 1.254409 0.054519 -0.005341 -60401.100000 0 0 1
17.602270 -33.381666 13.835533 40.194496 -1.085545 1.219394 0.057197 -0.006605 150211.000000 0 0 1
18.375670 -33.807466 14.935133 41.275516 -1.072927 1.200555 0.062666 -0.011258 -671813.000000 0 0 1
18.202370 -32.900436 16.185533 40.935760 -1.065457 1.164305 0.063604 -0.014952 -163816.000000 0 0 1
16.890170 -32.680946 16.623833 40.369220 -1.093783 1.146374 0.072556 -0.023650 -239068.000000 0 0 1
16.003370 -33.658096 17.109333 41.008591 -1.126966 1.140419 0.066143 -0.013583 -243529.000000 0 0 1
16.274270 -34.356630 18.481633 42.270565 -1.128420 1.118289 0.051467 -0.018576 -857390.000000 0 0 1
17.308070 34.074914 18.394733 42.415036 1.100816 1.122219 0.038548 -0.011516 -650474.000000 0 0 1
17.535770 33.420877 19.628733 42.541103 1.087588 1.091217 0.037116 -0.020558 340564.000000 0 0 1
18.323770 32.088921 19.601033 41.828936 1.051950 1.083091 0.032316 -0.014907 181969.000000 0 0 1
17.482270 31.051901 19.149533 40.454357 1.058026 1.077693 0.025513 -0.014721 -73101.100000 0 0 1
18.210670 29.836591 18.810833 39.695064 1.022804 1.077101 0.015304 -0.019993 -65463.100000 0 0 1
17.487970 28.508051 18.598733 38.268146 1.020553 1.063277 0.012417 -0.011091 -686678.000000 0 0 1
17.072270 27.871231 19.751633 38.188938 1.021207 1.027211 0.014238 -0.013932 -162769.000000 0 0 1
16.681270 26.524411 19.456533 36.883138 1.009396 1.015120 0.003395 -0.011521 -912488.000000 0 0 1
16.418570 25.784941 20.763133 36.953218 1.003792 0.974144 0.007156 -0.008207 529647.000000 0 0 1
15.129370 26.065931 21.336433 36.926603 1.044893 0.954758 0.012075 -0.002561 666866.000000 0 0 1
14.263170 24.927841 21.332233 35.775683 1.051085 0.931940 0.007982 -0.003109 -29274.400000 0 0 1
12.957370 25.319491 22.037833 35.981053 1.097789 0.911597 -0.001360 -0.008726 -310497.000000 0 0 1
12.203370 26.290281 21.317633 35.979753 1.136215 0.936650 0.009540 -0.012819 -504040.000000 0 0 1
11.011670 26.622101 21.953833 36.221043 1.178596 0.919639 -0.000130 -0.007307 -599508.000000 0 0 1
10.209070 27.720971 21.276833 36.405782 1.217930 0.946612 -0.001353 -0.015021 -293658.000000 0 0 1
10.851370 28.986281 21.325933 37.586596 1.212585 0.967474 -0.002020 -0.014774 -72928.300000 0 0 1
10.655170 29.830431 20.256033 37.599125 1.227729 1.001859 0.012796 -0.016057 -272229.000000 0 0 1
11.181670 31.260741 20.419533 38.977186 1.227287 1.019392 0.025453 -0.024191 -356630.000000 0 0 1
10.496670 32.015141 21.404333 39.916097 1.253975 1.004828 0.019382 -0.017851 57445.800000 0 0 1
11.079270 31.933771 22.733933 40.735092 1.236845 0.978712 -0.001696 -0.009494 99975.300000 0 0 1
10.408470 32.872461 23.778733 41.885118 1.264152 0.967071 -0.019230 -0.008216 310095.000000 0 0 1
9.056570 32.556281 24.067633 41.487153 1.299474 0.951917 -0.015460 -0.010239 163713.000000 0 0 1
8.592970 33.345788 25.150543 42.641887 1.318591 0.939975 -0.015196 0.000923 365419.000000 0 0 1
7.200570 33.024001 25.790253 42.515527 1.356116 0.919010 0.003000 -0.006824 674879.000000 0 0 1
5.958370 33.551567 25.335323 42.462789 1.395040 0.931479 0.001651 -0.009006 809361.000000 0 0 1
5.445270 32.985851 24.152613 41.243982 1.407193 0.945172 -0.001756 -0.013705 -59847.500000 0 0 1
4.742170 31.590111 24.294613 40.132923 1.421793 0.920586 0.001876 -0.023204 413909.000000 0 0 1
5.678270 30.614331 24.858243 39.842343 1.387403 0.897054 -0.023498 -0.010257 512068.000000 0 0 1
5.093370 29.336731 24.913503 38.823561 1.398892 0.874069 -0.017411 -0.007536 -613034.000000 0 0 1
6.168770 28.293531 25.303153 38.455522 1.356128 0.852657 -0.040530 0.002024 -104212.000000 0 0 1
7.217970 28.002551 24.358503 37.809769 1.318526 0.870769 -0.042647 0.005787 1027710.000000 0 0 1
8.171670 29.063401 24.204813 38.695355 1.296706 0.894995 -0.026588 0.006350 -1225550.000000 0 0 1
9.238870 29.089151 25.290153 39.637448 1.263267 0.878850 -0.026045 0.004035 -1713520.000000 0 0 1
8.887970 29.180141 26.639903 40.498902 1.275134 0.852911 -0.038325 0.012374 7747.320000 0 0 1
9.938670 29.164601 27.611803 41.373455 1.242360 0.840112 -0.021503 0.008163 -44220.600000 0 0 1
10.518970 30.524851 27.966403 42.714576 1.238937 0.856974 -0.008008 -0.008925 434.147000 0 0 1
9.641370 31.363791 28.728613 43.611657 1.272560 0.851657 -0.012721 0.000308 470003.000000 0 0 1
10.088970 32.719751 28.815533 44.751585 1.271701 0.871212 -0.036083 0.013587 -25317.700000 0 0 1
9.265570 33.566196 29.823363 45.847283 1.301465 0.862562 -0.015815 0.010450 -153980.000000 0 0 1
9.596470 33.396709 31.225393 46.716781 1.290987 0.838744 0.017572 -0.022705 165141.000000 0 0 1
9.426570 32.126341 31.759963 46.148210 1.285385 0.811768 0.004529 -0.007530 -231153.000000 0 0 1
9.716470 32.119081 33.286864 47.265849 1.277035 0.789433 0.033459 -0.029610 -115479.000000 0 0 1
9.492170 30.840381 33.749218 46.693042 1.272214 0.762967 0.023377 -0.031202 91762.800000 0 0 1
9.687270 30.747141 -34.016674 46.865382 1.265579 2.383048 0.066854 -0.030401 -191634.000000 0 0 1
9.748770 29.238931 -33.709234 45.675662 1.248970 2.400917 0.051206 -0.022584 -502659.000000 0 0 1
10.944570 28.680121 -34.205755 45.960490 1.206245 2.410196 0.062430 -0.013906 -23378.600000 0 0 1
10.979570 27.316711 -33.960044 44.944836 1.188622 2.427357 0.058387 -0.020114 -131606.000000 0 0 1
12.202770 26.637381 34.547071 45.298541 1.141221 0.703391 0.052017 -0.021225 35341.600000 0 0 1
12.344570 25.245471 -34.471156 44.474519 1.116002 2.457633 0.050049 -0.020538 -45166.000000 0 0 1
12.734970 24.743671 -33.185394 43.309342 1.095477 2.443767 0.052689 -0.023258 -413438.000000 0 0 1
12.797670 23.233091 -33.117914 42.430568 1.067310 2.466294 0.030697 -0.033747 490469.000000 0 0 1
13.903270 22.544991 -33.750894 42.903384 1.018195 2.476196 0.029540 -0.014644 721985.000000 0 0 1
13.815370 21.139291 -33.561434 42.001237 0.991937 2.496524 0.027111 -0.007300 387097.000000 0 0 1
15.140970 20.392491 -33.932084 42.385009 0.932127 2.499039 0.032182 -0.009590 344980.000000 0 0 1
16.171670 20.568491 -33.008684 42.120766 0.904505 2.471345 0.018364 -0.008536 -1217670.000000 0 0 1
17.367470 20.081991 -33.460874 42.714698 0.857757 2.470845 0.030049 -0.013513 -828964.000000 0 0 1
18.555470 20.345991 -32.485374 42.585964 0.831393 2.438458 0.024708 -0.001037 148752.000000 0 0 1
19.184570 21.589891 -32.609924 43.561201 0.844321 2.416745 0.006229 0.001481 169800.000000 0 0 1
20.049770 22.028291 -31.553314 43.391825 0.832384 2.384989 -0.001610 0.014281 52607.500000 0 0 1
19.340970 22.415191 -30.255504 42.330951 0.858889 2.367045 0.001442 0.004542 -89794.000000 0 0 1
18.694670 23.672891 -30.359034 42.796815 0.902363 2.359409 -0.000473 0.022831 -89484.300000 0 0 1
18.369970 24.292491 -29.087454 42.114854 0.923339 2.333211 0.010885 0.025747 -135459.000000 0 0 1
19.540570 24.899531 -28.266164 42.435793 0.905407 2.299754 0.013818 0.017890 10694.300000 0 0 1
20.171170 25.944531 -28.953384 43.798325 0.909943 2.293029 0.020367 0.025979 -472445.000000 0 0 1
19.583170 27.206321 -28.771174 44.175388 0.946904 2.280085 0.017105 0.026425 -534391.000000 0 0 1
20.413370 28.348541 -29.401094 45.659279 0.946717 2.270412 0.010280 0.022018 -155962.000000 0 0 1
20.439170 28.468131 -30.807484 46.661496 0.948114 2.291926 0.011566 0.019023 -14031.400000 0 0 1
20.801070 27.330091 -31.646014 46.702126 0.920226 2.315310 0.010320 0.020589 814736.000000 0 0 1
22.208270 26.633651 -31.470174 46.828736 0.875758 2.307739 0.022218 0.013550 768402.000000 0 0 1
23.332470 27.392281 -31.837994 48.045802 0.865264 2.295160 0.019342 0.017230 48142.100000 0 0 1
24.526670 26.813221 -31.335914 47.983808 0.829906 2.282404 0.027562 0.001520 422682.000000 0 0 1
25.784570 27.710361 -31.488414 49.236454 0.821382 2.264689 0.013963 0.005446 28976.800000 0 0 1
25.723670 28.885371 -30.747754 49.411499 0.843231 2.242447 0.009796 0.004518 -936390.000000 0 0 1
26.755270 29.688901 -31.113804 50.649226 0.837325 2.232294 0.005534 -0.006297 -791197.000000 0 0 1
26.955470 30.952841 -30.222914 50.971563 0.854318 2.205497 -0.009118 0.007284 3672.540000 0 0 1
27.497970 30.639281 -28.945194 50.326217 0.839378 2.183586 -0.000515 0.003241 247048.000000 0 0 1
26.886070 31.413481 -27.940804 49.903468 0.862900 2.165058 -0.004262 0.005798 -286453.000000 0 0 1
27.487670 31.151931 -26.549224 49.303916 0.847805 2.139430 0.003144 0.004322 -316240.000000 0 0 1
27.389970 29.872141 -25.938074 48.117969 0.828719 2.140107 -0.001732 0.018466 435837.000000 0 0 1
26.082170 29.374331 -25.645214 46.912769 0.844693 2.149164 0.009487 0.011304 639828.000000 0 0 1
25.372970 29.762581 -24.282144 46.035002 0.864845 2.126418 0.010163 0.015481 -50933.400000 0 0 1
24.926570 31.140091 -24.252244 46.682015 0.895772 2.117086 0.028776 0.010563 420285.000000 0 0 1
24.145870 31.344731 -23.064044 45.798093 0.914409 2.098560 0.021389 0.021276 367830.000000 0 0 1
2.609770 -26.360216 -20.108444 33.256900 -1.472114 2.220110 0.001684 0.025265 -7127.830000 0 0 1
2.628970 -27.291696 -19.073944 33.400052 -1.474764 2.178611 -0.000784 0.031114 79000.200000 0 0 1
2.868270 -26.638486 -17.853644 32.196095 -1.463536 2.158592 0.020072 0.027507 -244478.000000 0 0 1
2.884170 -27.619646 -16.599044 32.352613 -1.466749 2.109550 0.018646 0.003549 579348.000000 0 0 1
4.128970 -28.265106 -16.274844 32.876057 -1.425742 2.088673 0.015801 0.006061 661579.000000 0 0 1
3.887070 -29.104456 -15.146144 33.039134 -1.438026 2.047025 0.017033 -0.006879 512113.000000 0 0 1
5.091570 -30.075186 -14.914944 33.954329 -1.403092 2.025577 0.033735 0.012961 -77197.900000 0 0 1
6.290470 -29.430336 -14.621744 33.459081 -1.360224 2.023061 0.014078 0.016507 -1530870.000000 0 0 1
7.379570 -30.254656 -14.613444 34.399927 -1.331553 2.009549 0.015117 0.019674 -687537.000000 0 0 1
7.696670 -31.183416 -13.431744 34.814593 -1.328813 1.966880 0.016579 0.009404 -809670.000000 0 0 1
8.077970 -30.549396 -12.201044 33.873067 -1.312290 1.939277 0.019045 0.008758 112810.000000 0 0 1
8.191570 -31.382126 -11.054444 34.265732 -1.315467 1.899281 0.024049 0.006442 -147886.000000 0 0 1
9.493770 -32.177166 -10.873244 35.266544 -1.283890 1.884219 0.030045 -0.001397 -723911.000000 0 0 1
10.539570 -31.512376 -10.256944 34.775240 -1.248034 1.870199 0.023375 -0.005503 -1047210.000000 0 0 1
11.654570 -32.340606 -10.245544 35.870810 -1.224914 1.860453 0.034167 -0.008152 -946162.000000 0 0 1
12.674070 -31.905996 -9.199144 35.542213 -1.192679 1.832600 0.041505 -0.002574 -729674.000000 0 0 1
13.456470 -30.865036 -9.685744 35.036277 -1.159664 1.850893 0.039537 -0.016282 458784.000000 0 0 1
14.577270 -30.669406 -8.780044 35.074185 -1.127101 1.823815 0.034863 -0.012500 1037320.000000 0 0 1
15.767370 -29.931026 -9.493644 35.136954 -1.085947 1.844386 0.045726 -0.027518 252550.000000 0 0 1
15.708870 -28.557816 -9.635944 33.987775 -1.067897 1.858251 0.046210 -0.026532 -19373.500000 0 0 1
14.965670 -28.203556 -10.779144 33.698691 -1.082946 1.896387 0.032277 -0.020053 -75227.100000 0 0 1
14.896370 -26.672176 -10.977444 32.462457 -1.061452 1.915755 0.035868 -0.015823 -979131.000000 0 0 1
13.978970 -26.064756 -10.131844 31.263995 -1.078519 1.900829 0.026432 -0.009217 -117521.000000 0 0 1
13.639270 -24.717146 -10.453844 30.103984 -1.066561 1.925442 -0.008690 0.004623 -252743.000000 0 0 1
12.784470 -24.486446 -11.715844 30.004828 -1.089622 1.971933 -0.009439 0.009456 -242156.000000 0 0 1
13.575170 -24.139846 -12.829244 30.522236 -1.058517 2.004599 -0.001375 0.009303 -386664.000000 0 0 1
12.802770 -24.017646 -13.956044 30.586425 -1.081054 2.044609 -0.001736 0.011095 -428573.000000 0 0 1
13.556970 -23.368046 -15.140044 30.968984 -1.045100 2.081599 0.005191 0.010667 19803.400000 0 0 1
14.440070 -24.269846 -15.771844 32.346439 -1.034076 2.080125 0.006762 0.010890 211473.000000 0 0 1
14.884570 -23.740846 -17.021544 32.785838 -1.010789 2.116680 0.005717 0.005723 -807366.000000 0 0 1
15.781770 -24.631246 -17.842744 34.265523 -1.000971 2.118490 0.011766 0.004965 725255.000000 0 0 1
17.056470 -24.985246 -17.298344 34.848506 -0.971802 2.090228 0.027582 0.000527 1200350.000000 0 0 1
18.138870 -24.034146 -17.308444 34.730981 -0.924286 2.092500 0.035089 -0.008129 277365.000000 0 0 1
19.449270 -24.502346 -16.667244 35.446242 -0.899865 2.060327 0.032270 -0.006628 54710.300000 0 0 1
20.193870 -25.314296 -17.557444 36.835714 -0.897444 2.067627 0.057772 0.002177 822694.000000 0 0 1
21.379770 -25.897606 -16.927744 37.607567 -0.880669 2.037691 0.061541 0.004701 1480280.000000 0 0 1
22.193470 -26.853206 -17.871944 39.154197 -0.880120 2.044798 0.054324 0.003482 117561.000000 0 0 1
22.882870 -26.102226 -18.874844 39.512171 -0.851025 2.068828 0.052662 0.002200 -264385.000000 0 0 1
23.453370 -27.016476 -19.752244 40.866878 -0.855880 2.075252 0.048073 -0.006494 -398022.000000 0 0 1
24.370670 -26.379206 -20.812944 41.508682 -0.824955 2.096026 0.026263 -0.016262 -241498.000000 0 0 1
23.809070 -25.333176 -21.625144 40.942502 -0.816402 2.127256 0.038368 -0.014454 -162757.000000 0 0 1
24.168270 -24.096246 -21.083244 40.115303 -0.783906 2.124177 0.039956 -0.016436 -398057.000000 0 0 1
23.392070 -22.884146 -21.569544 39.193345 -0.774423 2.153564 0.059723 -0.015145 -553751.000000 0 0 1
23.719370 -22.429046 -22.882344 39.865678 -0.757445 2.182162 0.035454 -0.001824 254728.000000 0 0 1
23.091770 -23.194246 -23.917344 40.536924 -0.787612 2.201872 0.024912 -0.007791 -219032.000000 0 0 1
22.306470 -22.419646 -24.989544 40.307523 -0.787929 2.239504 0.028940 -0.008589 84407.000000 0 0 1
23.149270 -21.702446 -25.852094 40.929398 -0.753151 2.254446 0.018218 -0.001865 -674326.000000 0 0 1
22.405070 -20.884646 -26.587084 40.558953 -0.750291 2.285663 0.017642 0.008102 -613032.000000 0 0 1
23.157870 -20.216646 -27.759684 41.419799 -0.717692 2.305279 0.014184 0.007591 223827.000000 0 0 1
22.268670 -19.370246 -28.484554 41.017922 -0.715902 2.338440 0.014663 0.009659 576971.000000 0 0 1
22.879070 -18.785646 -29.650704 41.898885 -0.687466 2.356995 0.018756 0.003160 -91012.400000 0 0 1
22.037270 -17.663146 -30.313514 41.431113 -0.675662 2.391551 0.047271 0.000549 -579305.000000 0 0 1
20.765070 -18.152346 -30.637864 41.223470 -0.718364 2.408658 0.036887 -0.007028 -114904.000000 0 0 1
20.007370 -17.243746 -31.404504 41.035162 -0.711345 2.442315 0.046105 -0.005647 248834.000000 0 0 1
18.737570 -17.884046 -32.035094 41.196879 -0.762096 2.461651 0.030123 0.001230 254252.000000 0 0 1
18.990670 -18.731746 -33.159994 42.557127 -0.778534 2.464165 0.021670 0.006093 -186793.000000 0 0 1
17.780270 -19.275446 -33.584574 42.609910 -0.825726 2.478654 0.009010 0.003300 -446067.000000 0 0 1
17.866370 -19.868946 34.161099 43.370069 -0.838417 0.663786 0.011000 0.004791 -369010.000000 0 0 1
18.848070 -20.860846 34.142550 44.228253 -0.836043 0.688874 0.008026 0.009829 -182328.000000 0 0 1
18.824570 -21.609746 32.951683 43.671031 -0.854171 0.715838 0.001756 0.004008 -21567.500000 0 0 1
19.640470 -22.882346 33.235763 44.877230 -0.861489 0.736844 -0.006812 0.008764 155189.000000 0 0 1
19.006170 -23.754246 34.217471 45.785741 -0.895984 0.726748 -0.001138 0.001749 212869.000000 0 0 1
19.213370 -23.404046 -33.605124 45.235023 -0.883416 2.408189 0.004754 0.004450 316717.000000 0 0 1
18.189770 -24.240346 -32.715404 44.595513 -0.927044 2.394405 0.015044 -0.004925 449046.000000 0 0 1
18.407970 -25.621096 -32.766284 45.485418 -0.947782 2.375130 0.011012 -0.012138 227995.000000 0 0 1
19.362970 -26.140656 -31.833194 45.514951 -0.933259 2.345355 0.010949 -0.006069 296158.000000 0 0 1
19.685370 -27.656196 -31.935294 46.607317 -0.952202 2.325673 0.008795 -0.007404 -161790.000000 0 0 1
18.652670 -28.465476 -31.458304 46.344690 -0.990723 2.316910 0.008241 -0.007133 -212076.000000 0 0 1
19.106270 -29.745076 -31.250544 47.184909 -0.999829 2.294680 0.001812 -0.009718 64739.200000 0 0 1
17.993470 -30.627896 -30.575954 46.869200 -1.039629 2.281501 0.008182 -0.009212 2113810.000000 0 0 1
16.748770 -30.862506 -31.319484 47.052371 -1.073583 2.299134 0.001044 -0.012034 1170590.000000 0 0 1
16.876870 -31.502536 -32.579084 48.359438 -1.078975 2.309982 0.005338 -0.016039 -1979370.000000 0 0 1
15.619470 -32.008976 -33.133734 48.645521 -1.116818 2.320096 0.021596 -0.024509 -1338730.000000 0 0 1
14.631070 -31.093286 -33.522584 48.006502 -1.130982 2.343806 0.030654 -0.022992 -162607.000000 0 0 1
13.459370 -31.751876 -33.987074 48.419598 -1.169864 2.348897 0.029152 -0.027761 264643.000000 0 0 1
12.511670 -30.691336 34.546114 47.874148 -1.183703 0.764682 0.033269 -0.014682 -111631.000000 0 0 1
11.867870 -29.897826 -33.651134 46.552391 -1.192924 2.378737 0.031807 -0.015457 -555098.000000 0 0 1
11.185370 -28.880206 -34.287478 46.204003 -1.201284 2.406978 0.015074 -0.002971 -639107.000000 0 0 1
10.360370 -28.107726 -33.268484 44.767997 -1.217653 2.408534 0.018070 -0.000025 -305129.000000 0 0 1
9.267370 -28.898186 -32.858454 44.728819 -1.260467 2.395895 0.027187 -0.004830 -674482.000000 0 0 1
8.430370 -28.084336 -32.079044 43.461087 -1.279174 2.401060 0.012556 -0.007724 40050.700000 0 0 1
7.242470 -28.811746 -31.405134 43.230227 -1.324527 2.383956 -0.002670 -0.001095 724279.000000 0 0 1
6.252270 -29.454106 -32.264964 44.132337 -1.361629 2.390723 -0.006207 0.004532 505779.000000 0 0 1
6.609370 -30.671496 -32.905724 45.466593 -1.358553 2.379995 0.004679 0.005437 233825.000000 0 0 1
5.359470 -31.389826 -33.525414 46.238495 -1.401688 2.381909 0.015994 -0.008395 602444.000000 0 0 1
4.378170 -31.705046 -32.564544 45.659915 -1.433574 2.364846 0.008230 -0.010232 -129572.000000 0 0 1
3.228870 -32.242146 -33.191304 46.385819 -1.470985 2.368205 0.013628 -0.009619 -410926.000000 0 0 1
2.251170 -32.791536 -32.169434 45.991576 -1.502253 2.345443 -0.004568 0.000575 -523912.000000 0 0 1
1.341070 -31.788526 -31.788374 44.975655 -1.528634 2.355748 -0.030465 0.010686 -290047.000000 0 0 1
0.448670 -32.135106 -30.762934 44.488475 -1.556835 2.334333 -0.031521 0.012925 -55060.000000 0 0 1
-0.600830 -31.015076 -30.563054 43.547631 1.551427 2.348760 -0.024715 0.006451 -670885.000000 0 0 1
-1.232230 -31.100846 -29.372404 42.796251 1.531197 2.327229 -0.029075 0.017273 -435282.000000 0 0 1
-1.915730 -29.906406 -29.058184 41.742558 1.506826 2.340787 -0.022321 0.019405 -421605.000000 0 0 1
-2.598730 -29.991316 -27.702714 40.910546 1.484363 2.314683 -0.013576 0.017562 -229415.000000 0 0 1
-1.727230 -29.994676 -26.578184 40.113137 1.513275 2.295055 -0.015286 0.018621 139677.000000 0 0 1
-2.431530 -30.004426 -25.346164 39.352331 1.489934 2.270620 0.000038 0.014627 -173095.000000 0 0 1
-1.617630 -30.683436 -24.281944 39.162517 1.518125 2.239578 -0.006047 0.016223 -12346.700000 0 0 1
-2.114530 -30.563296 -22.961544 38.286013 1.501721 2.213969 0.012503 0.005272 162721.000000 0 0 1
-1.152230 -31.169756 -22.082444 38.216693 1.533847 2.186854 0.007423 0.010448 592054.000000 0 0 1
-1.487930 -31.136636 -20.540044 37.330918 1.523046 2.153418 -0.014128 0.022042 52183.800000 0 0 1
-1.633930 -29.892916 -19.870844 35.931972 1.516191 2.156772 -0.012945 0.009895 728412.000000 0 0 1
-0.354430 -29.393046 -19.447244 35.245880 1.558739 2.155269 -0.008603 0.008490 442653.000000 0 0 1
-0.553930 -27.951206 -18.844044 33.714607 1.550981 2.163889 0.003891 0.002291 -89114.900000 0 0 1
-1.273030 -27.800886 -17.614744 32.936136 1.525037 2.135085 -0.003184 0.001736 220546.000000 0 0 1
-1.200230 -26.454276 -17.191044 31.572160 1.525457 2.146589 0.006673 -0.005371 -207893.000000 0 0 1
-2.184330 -26.174246 -16.053144 30.782558 1.487536 2.119406 0.004366 -0.007986 -366707.000000 0 0 1
-2.175430 -24.910846 -15.511244 29.425863 1.483689 2.126016 0.003105 -0.007688 262345.000000 0 0 1
-3.010330 -25.010646 -14.367244 29.000210 1.451011 2.089113 -0.002809 -0.004620 -117921.000000 0 0 1
-2.833530 -23.795046 -13.406744 27.458585 1.452274 2.080883 0.001070 -0.003922 -329319.000000 0 0 1
-1.657530 -23.917146 -12.654844 27.109451 1.501604 2.056472 0.006126 -0.008918 -405439.000000 0 0 1
-1.430930 -22.766246 -11.878144 25.718472 1.508026 2.050879 -0.000067 -0.003459 -232258.000000 0 0 1
-0.035630 -22.755246 -11.250044 25.384365 1.569231 2.029948 -0.003177 -0.002131 -211821.000000 0 0 1
0.197670 -21.485946 -10.652744 23.982617 -1.561597 2.031062 -0.006767 0.002432 -732424.000000 0 1 0
1.315370 -21.497746 -9.837444 23.678230 -1.509686 1.999249 -0.012264 -0.002947 -668040.000000 0 1 0
1.770570 -20.098946 -9.519644 22.309777 -1.482930 2.011640 -0.009258 -0.000018 -1382910.000000 0 1 0
2.299570 -19.371246 -10.583444 22.193298 -1.452639 2.067893 -0.012698 0.009827 216320.000000 0 1 0
3.103270 -18.234646 -10.166844 21.106807 -1.402226 2.073373 -0.010551 -0.000536 871725.000000 0 1 0
4.481870 -18.629146 -9.554644 21.410826 -1.334699 2.033370 -0.007402 -0.015486 -371732.000000 0 1 0
4.258070 -19.030846 -8.211244 21.159603 -1.350676 1.969324 -0.005353 -0.023601 149611.000000 0 1 0
5.372570 -19.777346 -7.746444 21.909252 -1.305545 1.932181 0.004808 -0.029264 138259.000000 0 1 0
4.886270 -21.003746 -6.933244 22.651774 -1.342224 1.881868 0.013593 -0.021043 416850.000000 0 1 0
4.145970 -22.001246 -7.700944 23.675904 -1.384538 1.902088 -0.008320 -0.020515 611479.000000 0 1 0
3.728770 -23.113346 -6.888544 24.404560 -1.410849 1.856950 0.000303 -0.015934 407274.000000 0 1 0
2.862270 -24.191546 -7.606244 25.520157 -1.453027 1.873444 -0.004888 -0.012006 505875.000000 0 0 1
3.676370 -24.830446 -8.548544 26.516869 -1.423805 1.899040 -0.004445 -0.013446 -231661.000000 0 0 1
2.865370 -25.655926 -9.327444 27.448827 -1.459573 1.917513 -0.007793 -0.008244 99899.800000 0 0 1
3.559270 -26.572686 -10.386044 28.751451 -1.437644 1.940389 -0.015579 -0.002068 -361984.000000 0 0 1
4.273870 -27.630606 -9.903444 29.661331 -1.417334 1.911217 0.001818 -0.003634 -298137.000000 0 0 1
4.810270 -28.503466 -10.922244 30.901160 -1.403611 1.932061 0.018460 0.007982 195053.000000 0 0 1
4.669670 -30.002766 -10.671444 32.184647 -1.416394 1.908763 0.017665 0.006482 -188510.000000 0 0 1
3.411070 -30.506656 -11.041144 32.622053 -1.459445 1.916072 0.017392 0.010510 -190518.000000 0 0 1
3.477070 -31.904546 -11.123044 33.966339 -1.462241 1.904424 0.029002 0.008606 261789.000000 0 0 1
2.155770 -32.625486 -11.506344 34.662164 -1.504816 1.909174 0.028901 0.002019 156720.000000 0 0 1
1.709470 -32.523986 -12.818644 35.000708 -1.518284 1.945761 0.022547 -0.000279 111614.000000 0 0 1
0.695270 -33.440226 -13.132644 35.933250 -1.550008 1.944938 0.018321 -0.004935 -468586.000000 0 0 1
0.493170 -33.489026 -14.669644 36.564416 -1.556071 1.983623 0.014865 0.002656 157256.000000 0 0 1
-0.286830 -32.412096 -15.207844 35.803697 1.561947 2.009489 0.007334 0.002121 149620.000000 0 0 1
-0.782130 -32.651196 -16.479144 36.582434 1.546847 2.038084 -0.009046 0.009328 -174741.000000 0 0 1
-1.841330 -31.642546 -16.938244 35.938076 1.512670 2.061580 -0.013670 0.013462 684494.000000 0 0 1
-3.126630 -31.802066 -16.320344 35.881762 1.472796 2.042985 -0.017355 0.011231 1293240.000000 0 0 1
-4.203430 -31.243696 -17.156744 35.891381 1.437062 2.069194 -0.012200 0.015095 1198680.000000 0 0 1
-5.559530 -31.263876 -16.440244 35.757795 1.394810 2.048529 -0.011595 0.010861 -325348.000000 0 0 1
-5.697730 -30.303896 -15.388844 34.461671 1.384946 2.033702 -0.020568 0.014971 651068.000000 0 0 1
-7.002930 -30.239096 -14.767044 34.373093 1.343223 2.014858 -0.005819 0.009708 1143160.000000 0 0 1
-7.499530 -31.418596 -13.842044 35.142187 1.336484 1.975653 -0.009108 0.003720 141852.000000 0 0 1
-7.660130 -32.646436 -14.513944 36.539320 1.340326 1.979276 -0.006803 0.005732 -434373.000000 0 0 1
-8.256130 -33.552886 -13.650244 37.152241 1.329526 1.947023 0.014797 0.001634 79483.800000 0 0 1
-8.591230 34.426905 -14.332144 38.267890 -1.326241 1.954677 0.028674 -0.004322 599152.000000 0 0 1
-7.426230 33.590233 -14.482244 37.325434 -1.353213 1.969256 0.010021 -0.003406 346531.000000 0 0 1
-7.739330 32.285931 -14.909044 36.394480 -1.335524 1.992868 0.021258 -0.014457 -603824.000000 0 0 1
-7.309030 -22.296046 -3.358444 23.702631 1.254018 1.712966 0.020731 0.003027 126415.000000 0 1 0
-7.253230 -21.168346 -4.133244 22.755042 1.240689 1.753451 0.010009 -0.001142 722869.000000 0 1 0
-6.017230 -21.107746 -4.866544 22.481709 1.293090 1.788990 0.001892 -0.002814 786823.000000 0 1 0
-6.064630 -20.010346 -5.946344 21.738277 1.276521 1.847870 0.001807 -0.006273 129618.000000 0 1 0
-6.901330 -20.317346 -7.048544 22.585501 1.243348 1.888181 0.007852 -0.005268 -143185.000000 0 1 0
-6.931330 -19.250546 -7.928244 21.942742 1.225189 1.940474 0.002450 -0.007589 -161735.000000 0 1 0
-7.861230 -19.569246 -9.122544 22.977709 1.188814 1.979061 0.009692 -0.011387 -40238.800000 0 1 0
-7.221730 -20.385146 -10.024444 23.836884 1.230328 2.004840 0.007808 -0.004947 -11663.100000 0 1 0
-8.144130 -20.833346 -11.044344 24.946597 1.198144 2.029426 0.015871 0.010302 406309.000000 0 1 0
-7.575930 -21.714146 -12.213844 26.039908 1.235107 2.059003 0.011728 0.005786 55777.500000 0 0 1
-6.800230 -20.992646 -13.192944 25.709688 1.257529 2.109648 0.023541 -0.000920 54390.800000 0 0 1
-6.411630 -21.822246 -14.251244 26.840592 1.285027 2.130528 0.011880 0.001866 329321.000000 0 0 1
-5.435330 -21.080246 -15.236544 26.572012 1.318453 2.181453 0.014582 0.005129 2694270.000000 0 0 1
-4.042230 -20.930346 -14.724944 25.908357 1.380017 2.175292 0.010859 0.004887 2130980.000000 0 0 1
-3.071330 -20.263946 -15.474044 25.680861 1.420375 2.217491 0.014149 0.012948 43544.200000 0 0 1
-3.267530 -18.725146 -15.714144 24.662566 1.398036 2.261612 0.028263 0.014102 -213166.000000 0 1 0
-4.422830 -18.299446 -16.441544 24.995110 1.333652 2.288678 0.030639 0.014030 240836.000000 0 1 0
-4.260430 -18.437446 -17.853444 26.016074 1.343707 2.327113 0.036001 0.007115 -232288.000000 0 0 1
-5.617030 -18.201846 -18.537744 26.580184 1.271471 2.342598 0.038272 0.006799 157683.000000 0 0 1
-6.489030 -19.260346 -18.231544 27.303070 1.245829 2.301974 0.022636 0.009734 -199540.000000 0 0 1
-7.840030 -19.142746 -18.630844 27.839165 1.182079 2.303970 0.021446 0.002634 298082.000000 0 0 1
-8.678430 -20.209046 -17.911744 28.364613 1.165177 2.254259 0.023036 -0.005758 -238805.000000 0 0 1
-8.280330 -21.502046 -18.332744 29.444717 1.203205 2.242877 0.016684 0.000452 144160.000000 0 0 1
-9.169830 -22.489246 -17.895844 30.168082 1.183633 2.205830 0.023628 -0.003631 -202005.000000 0 0 1
-8.677630 -23.881846 -18.324544 31.327827 1.222272 2.195588 0.017369 -0.011687 -665419.000000 0 0 1
-8.538930 -24.026146 -19.744744 32.249402 1.229318 2.229701 0.013959 -0.019178 693072.000000 0 0 1
-7.584630 -25.039546 -20.122444 33.006336 1.276676 2.226420 0.019716 -0.027723 1145710.000000 0 0 1
-6.075830 -24.672246 -19.932144 32.294361 1.329339 2.235978 0.025263 -0.018830 -221632.000000 0 0 1
-5.558230 -23.555346 -20.592944 31.777627 1.339070 2.275795 0.014875 -0.017767 -33540.400000 0 0 1
-5.377630 -22.364346 -19.874744 30.398821 1.334821 2.283392 0.024902 -0.015145 -442768.000000 0 0 1
-4.357030 -22.332146 -18.754344 29.486164 1.378116 2.260150 0.027905 0.000097 13869.600000 0 0 1
-3.009130 -22.498546 -19.181344 29.718065 1.437838 2.272401 0.025432 -0.011670 -451362.000000 0 0 1
-2.128330 -22.487346 -18.140144 28.970249 1.476432 2.247421 0.016479 -0.007868 -178063.000000 0 0 1
-0.734330 -23.027246 -18.584744 29.600439 1.538918 2.249589 0.020256 -0.002553 309460.000000 0 0 1
-0.051430 -22.175746 -19.479244 29.516221 1.568477 2.291549 0.023470 -0.002616 314646.000000 0 0 1
1.184270 -22.784246 -19.894844 30.270929 -1.518865 2.287929 0.010435 0.004182 788516.000000 0 0 1
1.836170 -22.028846 -21.067044 30.536239 -1.487636 2.332151 0.017552 0.005164 45378.900000 0 0 1
1.188570 -22.248146 -22.292944 31.517742 -1.517424 2.356488 0.008215 -0.002343 -158097.000000 0 0 1
0.994870 -21.116046 -23.121744 31.328776 -1.523717 2.400950 0.020119 -0.002939 -167841.000000 0 0 1
0.227870 -21.501946 -24.428644 32.544496 -1.560199 2.419801 0.020033 -0.005360 -240827.000000 0 0 1
-0.319930 -20.449946 -25.183554 32.442472 1.555153 2.459496 0.024353 -0.000797 -450323.000000 0 0 1
-1.609230 -20.077446 -24.791444 31.942278 1.490816 2.459306 0.031156 -0.009408 -549434.000000 0 0 1
-2.121630 -18.885046 -25.586244 31.871651 1.458921 2.502756 0.026632 0.000441 361714.000000 0 0 1
-1.303630 -17.747346 -25.300694 30.932068 1.497473 2.528624 0.037002 -0.005795 720150.000000 0 0 1
-2.088830 -16.578446 -25.553744 30.531982 1.445460 2.562483 0.035189 -0.001896 191972.000000 0 0 1
-1.411430 -15.312546 -25.061144 29.402842 1.478881 2.591235 0.035275 0.002227 -196428.000000 0 0 1
-0.153930 -15.119346 -25.660644 29.784005 1.560616 2.609127 0.043063 -0.014222 -233480.000000 0 0 1
0.516770 -13.895346 -25.286934 28.857871 -1.533623 2.638836 0.034626 -0.012433 594916.000000 0 0 1
0.052070 -12.669046 -26.119924 29.030292 -1.566686 2.689986 0.037281 -0.004424 110267.000000 0 0 1
0.777870 -11.517446 -25.740514 28.210471 -1.503360 2.720017 0.022446 -0.002915 43959.100000 0 0 1
0.383070 -10.421946 -26.526224 28.502706 -1.534057 2.766999 0.016399 -0.001138 -394666.000000 0 0 1
1.156370 -9.081646 -26.244594 27.795542 -1.444147 2.805958 0.014987 -0.005583 821247.000000 0 0 1
2.525570 -8.981046 -26.625844 28.212998 -1.296665 2.804571 0.038133 -0.007469 213947.000000 0 0 1
2.882370 -9.308046 -27.991994 29.639492 -1.270497 2.806608 0.016052 -0.002592 -447215.000000 0 0 1
4.282370 -8.904546 -28.496884 30.161267 -1.122529 2.807832 0.020974 0.000634 -551938.000000 0 0 1
4.332170 -7.579846 -29.037984 30.322042 -1.051568 2.849532 0.018298 0.003203 802873.000000 0 0 1
5.619470 -7.103146 -29.470294 30.830688 -0.901491 2.843421 0.014539 -0.002531 1059650.000000 0 0 1
6.858870 -7.017146 -28.479354 30.122384 -0.796804 2.809784 0.010701 -0.013107 663489.000000 0 0 1
7.410970 -8.207746 -27.913024 30.023765 -0.836368 2.764387 0.002415 -0.009235 619581.000000 0 0 1
8.130270 -9.023246 -28.875874 31.326288 -0.837409 2.743437 -0.006384 -0.014863 -392518.000000 0 0 1
8.496370 -10.354446 -28.260744 31.274150 -0.883648 2.699003 0.015033 -0.016098 -558535.000000 0 0 1
7.416070 -11.229446 -28.113314 31.168204 -0.987136 2.695146 0.005774 -0.015631 -338438.000000 0 0 1
7.620170 -12.469846 -27.402044 31.055371 -1.022264 2.651652 0.022266 -0.014627 -328056.000000 0 0 1
8.681470 -13.456546 -27.872224 32.145099 -0.997839 2.620098 0.016154 -0.018749 -325280.000000 0 0 1
8.180170 -14.102446 -29.001484 33.269809 -1.045173 2.629469 0.014783 -0.023754 416768.000000 0 0 1
9.118070 -15.112046 -29.437024 34.322755 -1.027907 2.601485 0.009651 -0.018082 317419.000000 0 0 1
8.542970 -16.019646 -30.515024 35.507437 -1.080880 2.604888 0.014072 -0.014802 -262108.000000 0 0 1
8.369570 -15.354646 -31.759714 36.255955 -1.071735 2.638273 0.002900 -0.009209 96028.700000 0 0 1
7.888770 -16.246746 -32.734284 37.386131 -1.118767 2.637417 0.010513 -0.005933 -733633.000000 0 0 1
6.753270 -15.550846 -33.476944 37.525208 -1.161100 2.672810 0.001037 0.002746 -323057.000000 0 0 1
7.176470 -14.324246 -34.114544 37.689360 -1.106348 2.702530 0.002878 0.006590 244316.000000 0 0 1
6.068870 -13.647046 34.468793 37.565553 -1.152357 0.408887 -0.024045 0.004958 146248.000000 0 0 1
6.451170 -12.523346 33.517288 36.357398 -1.095117 0.397882 -0.004448 0.012296 81203.800000 0 0 1
7.004770 -12.884546 32.242413 35.421061 -1.072836 0.426882 -0.014273 0.010457 154987.000000 0 0 1
7.473770 -11.830846 31.465973 34.437387 -1.007380 0.418461 -0.016833 0.009526 -28294.100000 0 0 1
7.805670 -12.098246 29.949483 33.230522 -0.997810 0.448118 -0.028512 0.021537 179553.000000 0 0 1
6.715770 -12.352846 29.069003 32.290886 -1.072832 0.450515 -0.015355 0.012313 258579.000000 0 0 1
7.113270 -12.398446 27.664243 31.138889 -1.049922 0.476917 -0.015997 0.012082 -394222.000000 0 0 1
6.140770 -13.065246 26.687383 30.341821 -1.131429 0.495865 -0.011161 -0.001323 -278555.000000 0 0 1
6.158470 -14.451746 26.891053 31.143353 -1.167960 0.528706 -0.004809 0.002800 446397.000000 0 0 1
5.302370 -15.240446 26.043893 30.637733 -1.235981 0.554698 -0.017954 -0.000340 -863533.000000 0 0 1
3.818170 -15.370646 26.268163 30.673304 -1.327318 0.542569 -0.013137 -0.013985 -1367170.000000 0 0 1
3.157070 -14.248146 25.824163 29.662504 -1.352742 0.514377 -0.014855 -0.007556 -729376.000000 0 0 1
2.041070 -14.602746 25.051473 29.068582 -1.431923 0.531977 -0.022311 -0.003469 298747.000000 0 0 1
1.105570 -13.389146 24.652813 28.075839 -1.488411 0.498963 -0.017584 -0.000147 9495.500000 0 0 1
1.627470 -12.602746 23.575233 26.781887 -1.442371 0.494370 -0.025555 0.010801 114723.000000 0 0 1
0.786970 -11.508246 23.197333 25.907051 -1.502519 0.461454 -0.016987 0.014106 934269.000000 0 0 1
-0.687530 -11.815146 22.783733 25.674284 1.512671 0.479091 -0.005624 0.004966 -106323.000000 0 0 1
-0.819830 -12.500046 21.503533 24.886245 1.505304 0.527490 -0.008706 0.001364 -46720.000000 0 1 0
-2.135330 -12.818846 21.077833 24.762017 1.405735 0.552498 0.005541 -0.011467 370047.000000 0 1 0
-2.140830 -13.563846 19.728133 24.036645 1.414254 0.608070 0.010944 -0.012301 47429.300000 0 1 0
-1.610730 -14.904046 19.759933 24.802822 1.463141 0.649013 0.009570 -0.013741 -59625.100000 0 1 0
-1.821330 -15.552146 18.516133 24.249406 1.454216 0.701972 0.008963 -0.011095 73606.000000 0 1 0
-2.396230 -16.961546 18.775833 25.415898 1.430451 0.739592 0.005277 -0.003236 121461.000000 0 0 1
-2.130430 -17.823446 17.659033 25.180457 1.451831 0.793578 -0.006493 -0.004809 -318573.000000 0 0 1
-2.942230 -18.935346 17.820533 26.168214 1.416646 0.821670 0.000700 0.000331 -396901.000000 0 0 1
-2.564330 -20.076946 16.824533 26.319659 1.443759 0.877289 -0.001818 -0.002321 -425674.000000 0 0 1
-1.403030 -20.776046 17.116133 26.955048 1.503368 0.882803 -0.015452 -0.007866 -809467.000000 0 0 1
-1.467630 -21.604246 18.289533 28.344389 1.502968 0.869431 -0.012671 0.003240 -706569.000000 0 0 1
-0.183530 -22.367246 18.556433 29.063183 1.562591 0.878267 -0.016283 -0.004554 -642123.000000 0 0 1
0.030970 -23.424846 17.688633 29.353230 -1.569474 0.924025 -0.015212 0.000797 17069.100000 0 0 1
1.124470 -24.219646 18.162233 30.293933 -1.524402 0.927878 -0.008954 0.006700 1199890.000000 0 0 1
2.487370 -24.014746 17.405133 29.762959 -1.467588 0.946173 -0.000955 -0.002626 422795.000000 0 0 1
2.992270 -22.741946 17.552133 28.882991 -1.439973 0.917638 -0.000671 -0.004320 -329076.000000 0 0 1
4.041170 -22.489346 16.629733 28.260392 -1.393001 0.941660 0.009055 -0.006089 285001.000000 0 0 1
4.733770 -21.123346 16.847733 27.430830 -1.350337 0.909438 0.020808 -0.009823 -361166.000000 0 0 1
5.572870 -21.171246 17.998533 28.341237 -1.313407 0.882703 0.020258 -0.005062 21645.200000 0 0 1
6.165170 -19.921246 18.371433 27.791634 -1.270668 0.848590 0.025297 -0.002374 591277.000000 0 0 1
7.216270 -19.243146 17.429333 26.947261 -1.212022 0.867423 0.025202 -0.000559 -700342.000000 0 0 1
6.667470 -18.680046 16.318433 25.684442 -1.227961 0.882344 0.018105 -0.001576 -99655.800000 0 0 1
7.604470 -18.005146 15.475033 24.929699 -1.171173 0.901101 0.022323 -0.002209 -81919.300000 0 1 0
7.016070 -16.902646 14.599733 23.411042 -1.177352 0.897424 0.016434 -0.000068 -565101.000000 0 1 0
6.080670 -17.396346 13.691433 22.957847 -1.234534 0.931822 0.017606 -0.004947 29547.500000 0 1 0
5.543670 -16.377946 12.810633 21.519334 -1.244417 0.933147 0.008233 -0.012696 114105.000000 0 1 0
6.104870 -16.538546 11.377433 20.981872 -1.217182 0.997683 0.005904 -0.011572 -150780.000000 0 1 0
7.473270 -16.240446 11.282733 21.140055 -1.139522 1.007811 0.006978 -0.005840 -205362.000000 0 1 0
8.016570 -16.456946 9.993533 20.855867 -1.117503 1.071086 0.006876 -0.006368 346770.000000 0 1 0
9.532070 -16.149646 9.918033 21.214118 -1.037589 1.084313 0.004127 -0.000561 184850.000000 0 1 0
10.115970 -16.532246 8.722133 21.253791 -1.021678 1.147925 0.004639 -0.003532 -932885.000000 0 1 0
11.460370 -16.144646 8.721733 21.634655 -0.953486 1.155854 0.005988 -0.000427 -139104.000000 0 1 0
12.381170 -17.094846 7.889533 22.533794 -0.943971 1.213097 -0.002905 -0.005608 70254.800000 0 1 0
12.391870 -18.380446 8.479633 23.734014 -0.977605 1.205445 -0.013390 -0.006219 -154755.000000 0 1 0
13.276270 -19.212046 7.779733 24.614758 -0.966110 1.249223 -0.006357 -0.005348 -138729.000000 0 1 0
13.734270 -20.525146 8.536433 26.130107 -0.981081 1.237998 -0.006306 -0.002596 -538946.000000 0 0 1
12.732670 -21.385146 8.963233 26.453448 -1.033768 1.225123 0.004063 -0.003811 -560479.000000 0 0 1
13.229670 -22.663746 9.256633 27.827232 -1.042421 1.231688 0.010093 -0.003029 112499.000000 0 0 1
12.219470 -23.523846 10.053433 28.350632 -1.091710 1.208299 0.019560 -0.002455 87259.700000 0 0 1
12.237870 -22.949146 11.324733 28.366853 -1.080896 1.160126 0.031655 -0.008027 -518697.000000 0 0 1
11.183270 -23.363146 12.143433 28.607081 -1.124357 1.132397 0.033329 -0.006450 -538910.000000 0 0 1
11.258670 -24.874246 12.622933 30.080296 -1.145763 1.137746 0.020724 -0.004506 -955598.000000 0 0 1
12.298470 -25.155376 13.457933 31.067045 -1.116068 1.122767 0.005967 -0.002595 -1044820.000000 0 0 1
12.207070 -26.398796 14.087333 32.316589 -1.137670 1.119740 0.011223 -0.011804 76973.400000 0 0 1
13.376670 -26.702856 15.044933 33.441409 -1.106393 1.104155 0.026747 -0.009570 115215.000000 0 0 1
13.266370 -25.901216 16.217133 33.314636 -1.097444 1.062389 0.025916 -0.016611 238992.000000 0 0 1
14.242870 -26.354046 17.135133 34.510982 -1.075320 1.051220 0.036239 -0.015815 -46618.500000 0 0 1
13.989570 -25.942446 18.593633 34.848842 -1.076241 1.008003 0.034750 -0.018021 37906.700000 0 0 1
14.411670 -24.606346 18.954633 34.241008 -1.040966 0.984157 0.011181 -0.020207 -166406.000000 0 0 1
15.690170 -24.467646 19.529833 35.018017 -1.000588 0.979174 0.025505 -0.022343 -249243.000000 0 0 1
16.034570 -22.973546 19.869533 34.346610 -0.961442 0.953907 -0.005663 -0.020451 -159717.000000 0 0 1
16.232870 -22.171346 18.743533 33.262512 -0.938814 0.972176 -0.005236 -0.014864 186562.000000 0 0 1
15.024570 -21.539846 18.354533 32.040468 -0.961734 0.960812 -0.005588 -0.006454 -485303.000000 0 0 1
15.167770 -20.381346 17.321233 30.748750 -0.931018 0.972404 -0.004215 -0.005413 -166101.000000 0 0 1
15.906670 -19.269346 17.771333 30.661868 -0.880704 0.952570 -0.001296 -0.009710 -162145.000000 0 0 1
17.288770 -19.496946 17.611233 31.451360 -0.845354 0.976469 -0.002233 -0.002334 -661076.000000 0 0 1
18.089770 -18.182646 17.822633 31.232910 -0.787959 0.963516 0.003716 -0.001424 -568034.000000 0 0 1
18.237970 -17.832646 19.208233 31.930911 -0.774162 0.925349 -0.003615 0.004681 167884.000000 0 0 1
18.827170 -16.580246 19.428533 31.730660 -0.722024 0.911836 0.009074 0.002009 -460886.000000 0 0 1
19.304570 -16.439246 20.888533 32.851881 -0.705406 0.881700 0.020342 0.003500 -422038.000000 0 0 1
20.425170 -17.228746 21.142333 34.073678 -0.700712 0.901431 0.024848 0.001961 -456813.000000 0 0 1
20.819670 -17.071446 22.508933 35.093376 -0.686798 0.874473 0.025027 0.005699 80193.700000 0 0 1
32.346285 -0.586146 -7.668144 33.247949 -0.018119 1.803527 0.044568 -0.011448 56835.300000 0 0 1
33.618615 -0.500646 -8.331344 34.639186 -0.014891 1.813696 0.022990 -0.010922 545467.000000 0 0 1
34.359729 -1.689046 -8.221144 35.369917 -0.049118 1.805375 0.034973 -0.017215 424946.000000 0 0 1
-34.288321 -1.420446 -8.792544 35.426197 0.041403 1.821611 0.008414 -0.009081 526445.000000 0 0 1
-33.427260 -2.534146 -8.625644 34.615102 0.075666 1.822637 0.035259 -0.005442 587546.000000 0 0 1
-32.103910 -2.213046 -9.082344 33.437218 0.068825 1.845876 0.062783 -0.010033 724204.000000 0 0 1
-31.046450 -3.314946 -8.855544 32.454454 0.106371 1.847162 0.070357 -0.010511 -149651.000000 0 0 1
-30.794900 -3.437646 -7.450344 31.869278 0.111170 1.806758 0.063897 -0.013534 -310114.000000 0 0 1
-29.729110 -4.267346 -7.140644 30.871006 0.142567 1.804216 0.059840 -0.017538 -489391.000000 0 0 1
-29.369560 -4.179246 -5.691544 30.206470 0.141350 1.760351 0.054723 -0.024325 -279696.000000 0 0 1
-29.042990 -2.843146 -5.347444 29.667725 0.097583 1.752031 0.052217 -0.021324 446894.000000 0 0 1
-29.037360 -2.844546 -3.958644 29.443685 0.097650 1.705653 0.046785 -0.020759 -388193.000000 0 0 1
-28.818390 -1.447846 -3.374844 29.051427 0.050198 1.687227 0.042400 -0.013749 85250.100000 0 0 1
-27.498260 -0.950346 -3.194744 27.699528 0.034546 1.686389 0.049369 -0.003946 679104.000000 0 0 1
-27.538340 0.350554 -2.658044 27.668542 -0.012729 1.667012 0.057812 -0.013842 -313655.000000 0 0 1
-26.160870 0.679654 -2.084544 26.252588 -0.025974 1.650283 0.079971 -0.009240 -192700.000000 0 0 1
-25.680930 -0.142746 -1.007044 25.701064 0.005558 1.609989 0.045647 -0.010250 -102649.000000 0 0 1
-24.298830 0.023354 -0.850244 24.313712 -0.000961 1.605773 0.045064 -0.006303 -342871.000000 0 1 0
-23.716430 -0.888346 0.241056 23.734285 0.037439 1.560640 0.023883 -0.005884 -155032.000000 0 1 0
-23.739330 -2.287046 -0.029644 23.849261 0.096044 1.572039 0.021306 -0.006870 464706.000000 0 1 0
-23.021930 -3.043346 0.959556 23.242030 0.131431 1.529499 0.003495 -0.002932 56597.600000 0 1 0
-23.038430 -4.537246 0.677356 23.490736 0.194454 1.541957 -0.001481 0.003205 -596888.000000 0 1 0
-24.152630 -5.103946 1.282956 24.719340 0.208257 1.518872 -0.009246 0.006943 -297388.000000 0 1 0
-24.194830 -6.485946 1.179756 25.076864 0.261914 1.523733 -0.016923 0.007365 227883.000000 0 0 1
-25.470750 -7.150846 1.792756 26.516177 0.273702 1.503135 -0.017560 0.007434 465178.000000 0 0 1
-25.291870 -7.400946 3.192556 26.545152 0.284674 1.450236 -0.020322 0.009778 -205541.000000 0 0 1
-26.341080 -8.185946 3.655056 27.824838 0.301306 1.439056 -0.013894 0.009267 -356508.000000 0 0 1
-26.419810 -8.306346 5.188756 28.176673 0.304613 1.385589 -0.022295 -0.001624 -301119.000000 0 0 1
-25.571980 -9.287946 5.693456 27.795819 0.348393 1.364505 -0.011951 0.002013 -138962.000000 0 0 1
-25.806120 -9.565346 7.114456 28.426522 0.354962 1.317832 -0.018869 0.000098 -19433.600000 0 0 1
-25.452110 -8.364146 8.059956 27.977343 0.317505 1.278566 -0.010486 0.002891 -537972.000000 0 0 1
-24.079630 -8.133846 8.036256 26.656508 0.325756 1.264558 0.002690 -0.003356 -600638.000000 0 0 1
-23.709230 -6.806546 8.408856 26.060804 0.279566 1.242255 -0.002304 0.001935 -772312.000000 0 0 1
-22.351230 -6.376346 7.857356 24.535144 0.277898 1.244804 0.021893 -0.003506 -980844.000000 0 1 0
-21.316630 -7.025446 8.524756 24.008896 0.318365 1.207811 0.034578 -0.014411 -1130570.000000 0 1 0
-20.119530 -6.558446 7.933656 22.599814 0.315113 1.212104 0.035549 -0.015668 35502.000000 0 1 0
-18.956930 -6.942346 8.903856 22.064451 0.351048 1.155415 0.056767 -0.018706 -2867.980000 0 1 0
-18.993730 -6.086746 9.996356 22.310029 0.310121 1.106196 0.056365 -0.012950 390916.000000 0 1 0
-17.830930 -6.131946 10.807556 21.733525 0.331225 1.050340 0.044794 -0.021573 74906.200000 0 1 0
-17.711630 -4.861146 11.630456 21.739367 0.267865 1.006294 0.045558 -0.017340 -314067.000000 0 1 0
-18.677530 -4.842146 12.631556 23.061932 0.253665 0.991156 0.034297 -0.012114 15387.700000 0 1 0
-18.751430 -3.598446 13.303856 23.271389 0.189598 0.962241 0.027743 -0.001652 -14924.900000 0 1 0
-19.845330 -3.566346 14.391056 24.772130 0.177809 0.950916 0.015699 -0.000216 -69836.400000 0 1 0
-19.528030 -4.426946 15.472456 25.304915 0.222929 0.912916 0.009976 -0.002508 -163022.000000 0 0 1
-20.604130 -4.480746 16.352856 26.683762 0.214134 0.911148 -0.006584 0.009151 -489600.000000 0 0 1
-20.452230 -5.430346 17.522456 27.473967 0.259526 0.879179 -0.008989 0.010404 -459915.000000 0 0 1
-21.451130 -5.374846 18.504756 28.835151 0.245508 0.874027 -0.013645 0.013670 -97426.100000 0 0 1
-21.128730 -6.017246 19.708056 29.513352 0.277445 0.839591 -0.007995 0.010220 -548058.000000 0 0 1
-21.949230 -5.466346 20.868556 30.775742 0.244080 0.825643 -0.011193 0.009502 -563456.000000 0 0 1
-21.697030 -4.153946 21.191056 30.611717 0.189163 0.806190 -0.018842 0.013900 266482.000000 0 0 1
-22.275430 -3.761646 22.434456 31.837864 0.167291 0.788871 -0.013176 0.003662 -158563.000000 0 0 1
-22.128430 -2.262746 22.814056 31.863280 0.101901 0.772743 -0.010264 0.012433 11692.200000 0 0 1
-22.856530 -1.395646 21.954556 31.723356 0.060985 0.806453 -0.004531 0.014172 33835.300000 0 0 1
-22.564930 -0.085346 22.298656 31.724020 0.003782 0.791337 -0.001214 0.009372 -394038.000000 0 0 1
-23.691530 0.900154 21.961856 32.317518 -0.037976 0.823627 -0.006122 0.010435 -635092.000000 0 0 1
-24.748830 0.667654 22.829256 33.676777 -0.026971 0.825903 -0.010586 0.007355 108872.000000 0 0 1
-25.948630 1.334554 22.359956 34.279441 -0.051385 0.860202 -0.003576 0.012980 494746.000000 0 0 1
-27.125760 1.210454 23.289356 35.772422 -0.044594 0.861840 -0.002086 0.013229 -838201.000000 0 0 1
-26.988200 2.011254 24.448556 36.471084 -0.074386 0.836110 0.001227 0.012365 -114205.000000 0 0 1
-28.073270 1.950754 25.335456 37.865542 -0.069376 0.837813 -0.002456 0.011387 -651174.000000 0 0 1
-27.853850 2.833654 26.591356 38.613039 -0.101384 0.811153 0.014991 0.009472 110287.000000 0 0 1
-26.800710 2.477354 27.472356 38.459663 -0.092174 0.775150 0.003652 0.001375 284078.000000 0 0 1
-26.597700 3.255654 28.637356 39.219065 -0.121798 0.752197 0.007694 -0.003774 -166110.000000 0 0 1
-25.380670 2.835754 29.504556 39.022285 -0.111267 0.713471 0.023867 -0.009049 136051.000000 0 0 1
-25.599110 1.746054 30.430956 39.804601 -0.068102 0.700518 0.020417 -0.008674 336031.000000 0 0 1
-24.417330 1.501554 31.180856 39.632139 -0.061418 0.665259 0.028235 -0.017829 266089.000000 0 0 1
-24.483230 0.243054 32.060856 40.340874 -0.009927 0.652203 0.024460 -0.024250 -37970.300000 0 0 1
-24.466930 -0.944146 31.310756 39.747774 0.038570 0.663671 0.032128 -0.023602 -107373.000000 0 0 1
-24.970530 -2.108246 32.016056 40.657102 0.084230 0.664111 0.047863 -0.014467 40502.500000 0 0 1
-25.995930 -2.884146 31.124356 40.655039 0.110494 0.698866 0.026248 -0.008322 931115.000000 0 0 1
-27.324400 -2.373946 30.981156 41.377415 0.086662 0.724629 0.022078 -0.003095 478621.000000 0 0 1
-27.412560 -1.221446 30.158656 40.773581 0.044528 0.738229 0.020788 -0.003988 237987.000000 0 0 1
-28.887710 -0.873846 29.704356 41.444085 0.030241 0.771690 -0.002637 -0.002454 1028700.000000 0 0 1
-29.611610 -0.487146 30.834256 42.753200 0.016450 0.765241 0.012331 0.000410 -329795.000000 0 0 1
-31.018140 -0.489646 30.604556 43.577559 0.015784 0.792172 -0.001190 -0.000133 238545.000000 0 0 1
-31.709280 -0.049446 31.865656 44.954432 0.001559 0.782939 -0.011216 0.009697 -568084.000000 0 0 1
-31.592990 -0.970746 32.881056 45.609464 0.030717 0.765658 -0.006042 0.009473 -200935.000000 0 0 1
-32.395820 -0.777846 34.022556 46.985408 0.024006 0.761055 0.009917 0.008512 56785.600000 0 0 1
-32.431460 -2.039846 -34.287820 47.239974 0.062814 2.383025 0.008258 0.001666 137842.000000 0 0 1
-33.206740 -3.029446 34.193656 47.760562 0.090978 0.772828 0.011365 0.004270 171450.000000 0 0 1
-33.178520 -4.348946 -34.373320 47.971373 0.130334 2.369623 0.004310 0.002887 427664.000000 0 0 1
-34.307888 -5.148746 34.045356 48.606862 0.148963 0.794807 0.001639 -0.006496 982804.000000 0 0 1
34.455083 -4.818346 34.447356 48.959060 -0.138943 0.790352 0.011730 -0.011792 365686.000000 0 0 1
33.416555 -5.518046 33.729856 47.799772 -0.163652 0.787458 0.010354 -0.009223 662877.000000 0 0 1
32.054535 -5.138046 34.391756 47.293611 -0.158939 0.756567 0.040121 -0.012047 -336645.000000 0 0 1
31.859885 -5.689546 -33.513820 46.589691 -0.176717 2.373648 0.043859 -0.017943 136764.000000 0 0 1
31.369625 -7.035146 -33.513320 46.440169 -0.220616 2.376972 0.040809 -0.011628 85918.500000 0 0 1
29.907285 -7.305446 -34.017820 45.880577 -0.239578 2.406014 0.032948 -0.012000 -89314.900000 0 0 1
28.856145 -6.819246 -33.282120 44.574418 -0.232061 2.413829 0.028463 -0.016067 -401102.000000 0 0 1
27.594995 -7.206146 -33.804720 44.228626 -0.255435 2.440779 0.032687 -0.012826 -82633.000000 0 0 1
26.445625 -6.696446 -32.922220 42.756123 -0.248003 2.449638 0.040338 -0.019929 -574583.000000 0 0 1
25.213835 -7.129546 -33.453620 42.493677 -0.275569 2.477151 0.033568 -0.012040 -72630.300000 0 0 1
24.187765 -6.763146 -32.520720 41.089967 -0.272647 2.483977 0.036989 -0.010414 612612.000000 0 0 1
22.841665 -7.485746 -32.894720 40.741142 -0.316693 2.510542 0.035360 -0.016829 329642.000000 0 0 1
22.840065 -8.887046 -32.734020 40.892105 -0.371074 2.498921 0.043914 -0.022548 183508.000000 0 0 1
22.732965 -9.374146 -31.403920 39.885693 -0.391115 2.477292 0.040690 -0.014194 -307618.000000 0 0 1
22.534665 -10.889446 -31.362220 40.124556 -0.450143 2.468058 0.052225 -0.012384 263390.000000 0 0 1
21.328665 -11.332846 -31.988120 40.082230 -0.488407 2.494869 0.065996 -0.020325 457363.000000 0 0 1
21.122865 -12.767246 -31.895720 40.330075 -0.543669 2.483021 0.058320 -0.013833 -233945.000000 0 0 1
20.020165 -13.335746 -32.866920 40.729394 -0.587621 2.509780 0.056231 -0.012931 512141.000000 0 0 1
18.681265 -13.102546 -32.463420 39.680474 -0.611647 2.528932 0.066494 -0.012589 196532.000000 0 0 1
18.233765 -11.735246 -32.580220 39.136389 -0.571863 2.554363 0.062432 -0.018054 -671725.000000 0 0 1
16.795865 -11.476046 -32.086020 37.990965 -0.599407 2.576557 0.048905 -0.022464 70630.800000 0 0 1
15.744665 -11.835846 -32.956320 38.394020 -0.644612 2.602883 0.031958 -0.004435 255505.000000 0 0 1
14.505465 -11.436146 -32.369820 37.269280 -0.667629 2.623043 0.037182 -0.006820 -129260.000000 0 0 1
13.306365 -11.590746 -33.267220 37.657837 -0.716599 2.653881 0.006753 0.008349 -972173.000000 0 0 1
12.904465 -12.943346 -33.559020 38.213391 -0.786902 2.642883 0.010786 0.008350 1088230.000000 0 0 1
11.589565 -13.138146 -34.119820 38.354804 -0.847942 2.667230 -0.011070 0.009297 1445250.000000 0 0 1
10.383565 -13.115946 -33.139020 37.121976 -0.901152 2.674112 -0.019267 0.018893 -306015.000000 0 0 1
10.251565 -11.924546 -32.440320 36.050850 -0.860696 2.690219 -0.001300 0.018426 87426.300000 0 0 1
9.114665 -11.983546 -31.595220 34.999149 -0.920547 2.696899 -0.000862 -0.003048 -170277.000000 0 0 1
7.908465 -11.209046 -32.103520 34.911639 -0.956360 2.737768 -0.018232 0.014432 -894001.000000 0 0 1
8.171165 -9.859746 -32.279920 34.727162 -0.878775 2.763931 -0.014034 0.011886 484241.000000 0 0 1
7.049365 -9.027146 -32.613720 34.566424 -0.907806 2.803861 -0.012168 0.013500 263775.000000 0 0 1
7.524165 -7.601546 -32.942620 34.635427 -0.790514 2.827655 0.000819 0.012612 141125.000000 0 0 1
7.989065 -6.935646 -31.771020 33.486207 -0.714933 2.820146 -0.009445 0.003566 305052.000000 0 0 1
8.614565 -5.705846 -32.166120 33.785007 -0.585007 2.830771 0.012735 0.005939 155294.000000 0 0 1
8.973665 -4.795746 -30.970320 32.598874 -0.490806 2.824169 0.019854 0.001342 295218.000000 0 0 1
7.790765 -4.267446 -30.385320 31.657144 -0.501120 2.857174 0.031561 -0.006012 385191.000000 0 0 1
8.107365 -3.391446 -29.316420 30.605290 -0.396196 2.850348 0.031982 -0.006827 285397.000000 0 0 1
6.843565 -2.824346 -28.618920 29.561020 -0.391407 2.888451 0.025876 -0.005309 -1176920.000000 0 0 1
6.106765 -1.984446 -29.444220 30.136236 -0.314195 2.926877 0.020474 0.003610 -703302.000000 0 0 1
4.861265 -1.575946 -28.989920 29.436898 -0.313494 2.967106 0.023745 -0.001209 -101955.000000 0 0 1
3.768365 -2.697746 -28.971120 29.339465 -0.621313 2.982968 0.013927 -0.001168 -773856.000000 0 0 1
4.042965 -3.720346 -28.031820 28.565179 -0.743865 2.948046 0.010432 -0.006981 -688260.000000 0 0 1
2.992365 -4.620446 -27.894920 28.432892 -0.996085 2.946756 0.030690 -0.007633 -324416.000000 0 0 1
3.198965 -5.626646 -26.750320 27.522212 -1.053832 2.904198 0.030634 -0.019587 -56245.300000 0 0 1
2.983665 -5.045046 -25.450020 26.116245 -1.036721 2.915234 0.047532 -0.022212 48008.400000 0 0 1
3.116865 -5.959746 -24.386220 25.296663 -1.088929 2.872488 0.038664 -0.030139 -267423.000000 0 0 1
2.900065 -5.283446 -23.010020 23.786261 -1.068801 2.885417 0.036317 -0.035074 -228614.000000 0 1 0
3.770465 -4.219546 -22.777620 23.470001 -0.841544 2.898090 0.026372 -0.030375 -352419.000000 0 1 0
3.668765 -3.735246 -21.429820 22.060124 -0.794377 2.901971 0.023201 -0.031782 -235749.000000 0 1 0
4.610065 -2.526346 -21.074520 21.720279 -0.501312 2.897137 0.030650 -0.032652 -9948.240000 0 1 0
5.925665 -3.031646 -20.954020 21.985799 -0.472895 2.834018 0.028789 -0.030047 -920383.000000 0 1 0
6.751465 -2.042146 -20.447720 21.630115 -0.293725 2.809419 0.034979 -0.021037 -699533.000000 0 1 0
8.175865 -2.576546 -20.309120 22.044131 -0.305289 2.742191 0.026231 -0.014681 -1789410.000000 0 1 0
8.780865 -2.828946 -21.583620 23.472520 -0.311672 2.737672 0.028105 -0.021781 110095.000000 0 1 0
10.090065 -3.357446 -21.513220 23.997927 -0.321223 2.682515 0.025789 -0.023076 212867.000000 0 1 0
11.166565 -2.473946 -20.875720 23.803535 -0.218028 2.640381 0.010688 -0.011654 -1599010.000000 0 1 0
11.201765 -2.635946 -19.455920 22.604437 -0.231111 2.607464 0.024820 -0.000224 267121.000000 0 1 0
12.256565 -1.850246 -18.899520 22.601740 -0.149828 2.561109 0.021224 -0.005213 -145427.000000 0 1 0
12.218765 -0.272546 -18.881820 22.492124 -0.022302 2.567133 0.011541 -0.000389 -277225.000000 0 1 0
12.409765 0.377054 -20.169220 23.684211 0.030374 2.589806 -0.004631 -0.000401 188535.000000 0 1 0
12.084165 1.789754 -20.112820 23.532016 0.147038 2.595769 -0.007689 -0.002780 -194699.000000 0 1 0
12.562065 2.470754 -21.400320 24.937598 0.194205 2.602461 0.011010 -0.009247 1288490.000000 0 1 0
14.003865 2.586054 -21.576320 25.852147 0.182610 2.558211 0.016097 -0.009674 1473380.000000 0 0 1
14.189265 3.666354 -22.482920 26.837643 0.252859 2.563924 0.028358 -0.019255 -446670.000000 0 0 1
15.592565 3.948154 -23.053620 28.110237 0.247995 2.532408 0.027671 -0.020495 8483.080000 0 0 1
15.925665 3.065554 -24.118020 29.063780 0.190165 2.549601 0.014814 -0.013699 -343747.000000 0 0 1
16.698265 2.016254 -23.632020 29.006373 0.120165 2.523039 0.009642 -0.008071 -884845.000000 0 0 1
8.766570 27.022354 2.860656 28.552473 1.257090 1.470439 -0.027856 0.009003 146070.000000 0 0 1
8.786270 27.561554 4.151356 29.224503 1.262194 1.428264 -0.029881 0.011775 -1191760.000000 0 0 1
10.095870 27.792954 4.442556 29.901692 1.222364 1.421672 -0.020963 0.005420 -1720450.000000 0 0 1
10.262970 28.428254 5.854256 30.785816 1.224344 1.379470 -0.026342 0.013153 -207527.000000 0 0 1
10.137770 27.562354 6.949256 30.178633 1.218342 1.338440 -0.028856 0.015728 123293.000000 0 0 1
10.198670 28.205354 8.188556 31.090309 1.223837 1.304272 -0.028272 0.016834 -637536.000000 0 0 1
10.102070 27.211254 9.335156 30.490151 1.215321 1.259630 -0.029177 0.005000 -1022.160000 0 0 1
11.148570 26.368154 9.794256 30.257191 1.170787 1.241159 -0.006627 0.002951 -302203.000000 0 0 1
11.814370 25.632154 8.815756 29.568636 1.138899 1.268047 -0.014444 0.002216 -1223670.000000 0 0 1
13.046570 24.968654 9.383256 29.693302 1.089297 1.249280 -0.002307 0.003277 -859266.000000 0 0 1
13.964470 25.939354 9.836956 31.058368 1.076941 1.248522 0.005343 0.000663 239874.000000 0 0 1
15.098370 25.307354 10.433956 31.261644 1.032880 1.230504 0.008344 0.001009 639465.000000 0 0 1
16.229470 26.236354 10.983956 32.747355 1.016822 1.228751 0.017048 -0.000242 -738113.000000 0 0 1
16.905070 26.886054 9.967756 33.286596 1.009493 1.266677 0.029241 -0.007425 88147.600000 0 0 1
18.304070 26.729054 10.174656 33.955926 0.970344 1.266478 0.051724 -0.020083 435215.000000 0 0 1
19.036970 27.516954 11.293456 35.314744 0.965577 1.245284 0.055191 -0.017541 -1121320.000000 0 0 1
19.180670 28.948954 11.191656 36.485521 0.985636 1.259028 0.053436 -0.023473 1161120.000000 0 0 1
17.928970 29.689854 11.267456 36.467670 1.027532 1.256685 0.037821 -0.008332 984416.000000 0 0 1
18.153770 31.221254 11.405256 37.873552 1.044124 1.264908 0.038406 0.001822 -544082.000000 0 0 1
18.490170 31.934154 10.196056 38.283628 1.045954 1.301213 0.046646 -0.014232 459459.000000 0 0 1
17.519170 32.079854 9.145856 37.678708 1.070944 1.325614 0.047531 -0.014705 2009260.000000 0 0 1
16.087370 32.784854 9.406956 37.711284 1.114620 1.318687 0.041483 -0.007764 1703510.000000 0 0 1
16.229970 34.164154 9.828156 39.079330 1.127300 1.316574 0.040786 -0.012823 594410.000000 0 0 1
14.944070 -34.588084 10.048056 38.995182 -1.162962 1.310182 0.045860 -0.007871 567971.000000 0 0 1
15.112770 -33.068084 10.304156 37.789808 -1.142120 1.294629 0.050826 -0.007347 -128345.000000 0 0 1
15.707870 -32.349284 9.271456 37.137222 -1.118758 1.318473 0.050378 -0.011175 -10020.700000 0 0 1
15.682470 -30.957384 9.433156 35.962257 -1.101897 1.305384 0.041364 -0.006359 -90324.200000 0 0 1
16.390370 -30.178884 8.310056 35.333643 -1.073260 1.333384 0.023524 -0.005157 -90763.500000 0 0 1
15.598170 -30.153484 7.168956 34.697686 -1.093411 1.362685 0.026073 -0.011346 -424920.000000 0 0 1
16.300170 -29.715784 6.064256 34.431070 -1.069078 1.393745 0.015736 -0.005215 -168990.000000 0 0 1
15.536470 -29.839084 4.717256 33.970654 -1.090746 1.431483 0.023161 -0.010752 -94985.900000 0 0 1
15.715970 -31.119484 4.148156 35.108705 -1.103141 1.452368 0.015345 -0.010100 -16705.400000 0 0 1
15.783170 -30.979984 2.721256 34.875107 -1.099607 1.492688 0.014315 0.003631 -188065.000000 0 0 1
15.903770 -32.381684 2.041956 36.134097 -1.114266 1.514256 -0.003093 0.003330 -188324.000000 0 0 1
17.085870 -33.104184 2.337156 37.326616 -1.094333 1.508142 0.011169 0.001948 26789.000000 0 0 1
17.206170 -34.301984 1.601956 38.408914 -1.105863 1.529076 0.016489 -0.000832 -975197.000000 0 0 1
18.635470 34.541054 1.692356 39.283956 1.076037 1.527703 0.032891 -0.004157 -746203.000000 0 0 1
19.038270 34.165454 3.043256 39.230032 1.062414 1.493144 0.038335 -0.035572 1008670.000000 0 0 1
20.382470 33.657754 2.935856 39.457683 1.026284 1.496322 0.053313 -0.024569 869872.000000 0 0 1
21.099270 33.197454 4.226256 39.561489 1.004633 1.463765 0.054702 -0.033163 -336832.000000 0 0 1
20.513270 32.042754 4.663556 38.331203 1.001352 1.448829 0.057543 -0.036818 199420.000000 0 0 1
21.384970 31.289754 5.502756 38.296814 0.971265 1.426610 0.048107 -0.038307 34967.900000 0 0 1
20.584270 30.459654 6.453256 37.324887 0.976505 1.397029 0.048922 -0.031457 327088.000000 0 0 1
19.729270 29.462354 5.824756 35.933302 0.980736 1.407979 0.058000 -0.030299 954299.000000 0 0 1
18.746770 28.968954 6.747756 35.159265 0.996439 1.377678 0.054454 -0.031291 835490.000000 0 0 1
17.256070 29.167854 6.345156 34.478931 1.036567 1.385711 0.053126 -0.032016 227301.000000 0 0 1
16.780970 30.491754 6.266656 35.364092 1.067689 1.392652 0.045113 -0.034899 -50002.600000 0 0 1
16.979670 31.085954 4.977956 35.769062 1.070862 1.431174 0.054817 -0.033172 -462668.000000 0 0 1
16.842370 32.639454 5.010956 37.068977 1.094421 1.435202 0.049079 -0.027783 -618943.000000 0 0 1
15.671570 33.216254 5.462856 37.131663 1.129959 1.423139 0.034222 -0.019853 -876369.000000 0 0 1
15.911570 34.589754 5.497356 38.468819 1.139651 1.427401 0.035413 -0.028021 -1073940.000000 0 0 1
14.764370 -33.859084 5.919756 37.409460 -1.159601 1.411886 0.024933 -0.019682 -19816.900000 0 0 1
13.637670 -34.003284 5.031556 36.980075 -1.189369 1.434312 0.016148 -0.008714 -115369.000000 0 0 1
12.873170 -32.891484 4.952956 35.666511 -1.197740 1.431478 0.013477 -0.006779 -601669.000000 0 0 1
11.814970 -32.977584 3.829256 35.238867 -1.226771 1.461916 0.005463 -0.008649 -25296.000000 0 0 1
11.042070 -31.831084 3.634056 33.887336 -1.236890 1.463350 0.019094 -0.016247 14323.600000 0 0 1
10.318370 -31.832184 2.404356 33.549033 -1.257334 1.499068 0.013805 0.002529 -666376.000000 0 0 1
9.457670 -30.551084 2.266656 32.061721 -1.270584 1.500041 0.035551 -0.005003 130047.000000 0 0 1
8.838470 -30.298684 0.956156 31.575988 -1.286961 1.540511 0.039328 0.005991 691493.000000 0 0 1
7.805870 -31.236784 0.645756 32.203808 -1.325918 1.550743 0.032159 0.004608 -323063.000000 0 0 1
8.064370 -31.652784 -0.837144 32.674663 -1.321328 1.596420 0.047687 0.003093 -26972.800000 0 0 1
9.168570 -32.516984 -0.946944 33.798130 -1.295969 1.598818 0.034777 0.000874 -197559.000000 0 0 1
9.335170 -33.197384 -2.194144 34.554681 -1.296673 1.634337 0.042039 0.013799 312308.000000 0 0 1
10.452170 -34.307484 -2.176044 35.930300 -1.275068 1.631396 0.017845 0.016927 367319.000000 0 0 1
10.369070 34.159654 -1.054644 35.714309 1.276088 1.600331 0.010934 0.014190 -433973.000000 0 0 1
11.375370 33.209854 -1.066544 35.120236 1.240792 1.601169 0.011912 0.012682 -598802.000000 0 0 1
11.446070 32.492054 0.353856 34.450999 1.232098 1.560525 0.002213 0.002039 -896761.000000 0 0 1
11.698270 33.379254 1.417756 35.398222 1.233707 1.530734 0.002954 0.001040 853660.000000 0 0 1
13.042770 33.842354 1.609156 36.304382 1.202941 1.526458 0.003079 0.002265 195579.000000 0 0 1
14.144970 32.864354 1.933256 35.831319 1.164357 1.516816 0.016818 -0.006104 -1232350.000000 0 0 1
14.512470 32.079054 0.821256 35.218631 1.145951 1.547475 0.024096 -0.003346 -543322.000000 0 0 1
15.429070 31.113754 1.213856 34.750472 1.110440 1.535859 0.050123 -0.008927 -623823.000000 0 0 1
16.169770 30.533254 -0.050344 34.550595 1.083766 1.572253 0.050890 -0.004035 608228.000000 0 0 1
17.231670 31.315554 -0.629244 35.748990 1.067754 1.588399 0.027634 0.008705 648370.000000 0 0 1
16.732370 32.266654 -1.538444 36.379609 1.092407 1.613098 0.035810 0.003766 -397424.000000 0 0 1
17.833670 32.952554 -2.344744 37.542089 1.074740 1.633293 0.023969 0.004466 -363807.000000 0 0 1
18.617870 33.856654 -1.646144 38.673090 1.068028 1.613375 0.025926 0.010639 -47687.100000 0 0 1
19.660970 34.342254 -2.469444 39.648989 1.050842 1.633119 0.039130 0.011762 -473604.000000 0 0 1
20.753670 -34.168284 -1.708244 40.013804 -1.024957 1.613501 0.042743 0.012833 -503776.000000 0 0 1
21.684570 34.362754 -1.017344 40.645472 1.007859 1.595829 0.042094 0.006409 70854.000000 0 0 1
22.629270 33.533554 -1.606944 40.486607 0.977167 1.610497 0.043876 0.010214 -116032.000000 0 0 1
23.608870 34.183354 -2.669544 41.629399 0.966370 1.634967 0.034814 0.006387 -503773.000000 0 0 1
22.941170 -34.608284 -3.822044 41.696986 -0.985419 1.662588 0.031204 -0.004480 114779.000000 0 0 1
23.790070 -33.926584 -4.743144 41.707049 -0.959251 1.684768 0.027532 -0.006968 -368384.000000 0 0 1
23.144570 -33.474984 -6.057644 41.145361 -0.965866 1.718559 0.018580 -0.013715 -289968.000000 0 0 1
22.112270 -32.519784 -5.906344 39.766490 -0.973645 1.719874 0.024997 -0.010259 246511.000000 0 0 1
21.690870 -32.002984 -7.164244 39.319349 -0.975142 1.754026 0.024220 -0.018383 77516.600000 0 0 1
20.690870 -30.833284 -6.958244 37.778574 -0.979761 1.756039 0.034419 -0.014663 143233.000000 0 0 1
19.324570 -31.140984 -6.788844 37.273158 -1.015403 1.753956 0.029110 -0.002915 -258051.000000 0 0 1
18.597570 -29.932584 -6.652344 35.861997 -1.014851 1.757375 0.028617 -0.010925 358835.000000 0 0 1
17.507270 -30.053684 -5.544244 35.220265 -1.043319 1.728870 0.014550 0.001698 631213.000000 0 0 1
16.314470 -30.740284 -5.942944 35.305036 -1.082876 1.739933 0.019486 0.000947 -131416.000000 0 0 1
15.352670 -30.525684 -4.938144 34.524008 -1.104797 1.714324 0.002856 0.006836 -576876.000000 0 0 1
14.120770 -31.349984 -5.244844 34.781116 -1.147590 1.722169 0.003371 0.013328 -739833.000000 0 0 1
14.385770 -32.714984 -5.203144 36.115000 -1.156515 1.715371 0.001117 0.024978 -544999.000000 0 0 1
13.220670 -33.483184 -5.347244 36.393718 -1.194742 1.718258 0.019695 0.024399 -230519.000000 0 0 1
13.425270 34.344054 -5.304044 37.254326 1.198155 1.713656 0.015470 0.021190 -113152.000000 0 0 1
13.416470 33.803254 -4.007944 36.588595 1.192966 1.680557 0.016437 0.012166 -128370.000000 0 0 1
13.825970 32.453854 -4.038744 35.506641 1.168063 1.684789 0.026064 0.010374 -60207.100000 0 0 1
12.882970 31.341854 -4.613344 34.198913 1.180803 1.706106 0.022466 0.003371 402948.000000 0 0 1
11.900470 30.769654 -3.743944 33.202559 1.201756 1.683797 0.012619 -0.000326 461053.000000 0 0 1
12.429570 29.956854 -2.701544 32.545440 1.177498 1.653900 0.022521 -0.002920 -192323.000000 0 0 1
11.351370 28.996854 -2.119244 31.211574 1.197666 1.638748 0.011575 0.003229 966032.000000 0 0 1
10.384370 29.735554 -1.309844 31.523864 1.234813 1.612359 -0.005573 0.004518 196805.000000 0 0 1
9.378570 28.906454 -0.816044 30.400766 1.257066 1.597642 -0.019509 0.012004 44984.200000 0 0 1
8.285070 29.702554 -0.041644 30.836437 1.298776 1.572147 -0.013996 0.015799 519478.000000 0 0 1
7.288370 28.944154 0.615356 29.854029 1.324117 1.550183 -0.015775 0.011266 386782.000000 0 0 1
6.138070 29.720154 0.949056 30.362216 1.367131 1.539533 -0.008064 0.016441 -274173.000000 0 0 1
5.144270 28.954954 1.752756 29.460567 1.394966 1.511266 -0.017748 0.012853 -266800.000000 0 0 1
4.434770 27.943454 0.975656 28.309993 1.413404 1.536326 -0.013474 0.002012 272985.000000 0 0 1
3.413870 27.313454 1.742256 27.581057 1.446453 1.507586 -0.007687 -0.004383 29510.700000 0 0 1
2.749770 26.389054 0.686256 26.540805 1.466970 1.544937 -0.000568 -0.005154 -13322.600000 0 0 1
1.698770 25.604954 1.245756 25.691465 1.504548 1.522288 0.012048 -0.009044 103159.000000 0 0 1
1.212170 24.640354 0.362656 24.672817 1.521641 1.556097 0.006869 -0.008971 -213682.000000 0 1 0
-0.096230 23.988554 0.821656 24.002814 -1.566785 1.536558 0.001360 -0.003597 -335975.000000 0 1 0
-1.206430 24.827954 0.747356 24.868480 -1.522243 1.540739 0.000076 -0.004890 -439185.000000 0 1 0
-2.388330 24.141554 1.101856 24.284415 -1.472187 1.525408 0.000804 -0.000356 151412.000000 0 1 0
-3.657730 25.026854 1.244156 25.323316 -1.425672 1.521646 0.014840 -0.010141 -968854.000000 0 0 1
-4.755030 24.251754 1.595256 24.764949 -1.377183 1.506336 0.013459 -0.011389 -375692.000000 0 1 0
-5.859730 24.983454 2.104156 25.747561 -1.340416 1.488983 0.016592 -0.009694 406351.000000 0 0 1
-6.761630 25.637854 1.010356 26.533752 -1.312932 1.532709 0.019090 -0.010552 -684746.000000 0 0 1
-6.284430 26.851654 0.453956 27.580998 -1.340892 1.554337 0.009726 -0.013729 -265257.000000 0 0 1
-7.033130 27.097254 -0.693044 28.003685 -1.316849 1.595547 -0.000251 -0.008245 -311506.000000 0 0 1
-6.584630 28.192954 -1.656644 28.999042 -1.341353 1.627955 -0.003890 -0.002768 -39659.000000 0 0 1
-7.095230 29.419654 -1.205644 30.287157 -1.334142 1.610614 0.001414 -0.004082 -35787.900000 0 0 1
-7.106630 30.300754 -2.295044 31.207485 -1.340424 1.644404 -0.010898 0.007646 -304461.000000 0 0 1
-7.425830 31.768154 -1.835244 32.676087 -1.341169 1.626991 -0.018649 0.007422 -682404.000000 0 0 1
-7.264330 32.806854 -2.803444 33.718236 -1.352885 1.654036 -0.026354 0.018953 585002.000000 0 0 1
-5.919430 33.002054 -3.247044 33.685583 -1.393318 1.667339 -0.022170 0.022278 1365620.000000 0 0 1
-4.837530 33.583254 -2.214444 34.002065 -1.427734 1.635969 -0.021878 0.014930 117267.000000 0 0 1
-4.886330 -34.360884 -2.037944 34.766360 1.429537 1.629448 -0.025868 0.023491 7846.420000 0 0 1
-3.912830 -33.888684 -1.134844 34.132697 1.455844 1.604050 -0.023462 0.021281 -320547.000000 0 0 1
-3.765130 -32.340284 -1.222544 32.581663 1.454896 1.608328 -0.021940 0.011737 716920.000000 0 0 1
-4.915430 -31.682384 -0.652544 32.068064 1.416876 1.591146 -0.019789 0.008718 519125.000000 0 0 1
-5.027730 -30.436484 -1.288344 30.875839 1.407087 1.612535 -0.010361 0.010222 296748.000000 0 0 1
-6.470230 -29.854184 -1.294144 30.574678 1.357369 1.613136 0.010622 0.006348 388037.000000 0 0 1
-6.808530 -29.283884 -0.007444 30.064963 1.342354 1.571044 0.008959 0.002710 172310.000000 0 0 1
-8.115230 -28.725784 0.024656 29.850096 1.295465 1.569970 0.004701 0.004278 247191.000000 0 0 1
-8.457930 -28.148384 1.421556 29.425990 1.278902 1.522468 0.007661 0.003909 107558.000000 0 0 1
-7.553930 -27.071584 1.642356 28.153682 1.298682 1.512428 0.013171 -0.003679 -6975.990000 0 0 1
-7.335630 -26.692584 3.009056 27.845285 1.302598 1.462521 0.013436 0.001867 -305217.000000 0 0 1
-8.247630 -25.633284 3.568156 27.162849 1.259502 1.439054 0.007604 0.000690 -1003520.000000 0 0 1
-7.829730 -24.334284 3.460656 25.796088 1.259500 1.436236 0.006270 -0.001954 -637579.000000 0 0 1
-8.732330 -23.308184 3.820456 25.181757 1.212336 1.418493 0.004275 -0.002836 -47034.900000 0 0 1
-7.995230 -21.920184 3.947856 23.664398 1.221048 1.403186 -0.010499 0.005986 332656.000000 0 1 0
-7.296830 -21.845284 5.142756 23.598900 1.248425 1.351110 -0.007865 -0.000864 -242843.000000 0 1 0
-6.696030 -20.552384 5.470256 22.297107 1.255838 1.322931 -0.013558 -0.002149 30551.500000 0 1 0
-7.680430 -19.450684 5.936356 21.738409 1.194723 1.294202 -0.007249 -0.003978 -34974.500000 0 1 0
-8.008130 -19.677384 7.264956 22.452375 1.184295 1.241294 -0.001846 -0.004613 -59166.900000 0 1 0
-8.694130 -18.644084 7.910256 22.040007 1.134453 1.203702 -0.006776 -0.015887 -658285.000000 0 1 0
-26.062280 29.340954 -6.002244 39.700893 -0.844508 1.722565 0.051517 -0.001678 -51231.900000 0 0 1
-25.450670 30.046754 -4.939344 39.685528 -0.868026 1.695582 0.046598 -0.011833 -282670.000000 0 0 1
-24.655830 29.276754 -4.107844 38.495618 -0.870869 1.677709 0.031192 -0.008763 360448.000000 0 0 1
-23.641730 30.138054 -3.239444 38.441224 -0.905611 1.655166 0.023682 -0.013133 -18414.900000 0 0 1
-24.279130 31.108954 -2.469644 39.539124 -0.908087 1.633298 0.023008 -0.006213 -270853.000000 0 0 1
-23.435530 32.061054 -1.915944 39.759352 -0.939589 1.619003 0.021687 -0.005741 335016.000000 0 0 1
-22.232730 31.720154 -0.969944 38.747945 -0.959465 1.595831 0.022014 -0.001373 748307.000000 0 0 1
-21.093930 31.195454 -1.602744 37.691896 -0.976232 1.613331 0.015896 -0.011875 -92657.500000 0 0 1
-19.945230 30.972854 -0.816844 36.848298 -0.998680 1.592966 0.011334 -0.009380 609252.000000 0 0 1
-18.818030 30.262554 -1.653444 35.674561 -1.014483 1.617161 0.028651 -0.012510 -27345.400000 0 0 1
-17.603530 30.142854 -0.966344 34.920047 -1.042222 1.598473 0.022603 -0.009647 -580126.000000 0 0 1
-16.627630 29.617354 -1.838844 34.015395 -1.059231 1.624882 0.011428 -0.007739 531424.000000 0 0 1
-15.173530 29.859354 -1.304444 33.518929 -1.100637 1.609723 0.015095 -0.007963 521231.000000 0 0 1
-14.953030 29.222354 -0.061044 32.825947 -1.097834 1.572656 0.003027 -0.011923 -289244.000000 0 0 1
-13.911630 29.858154 0.625356 32.945923 -1.134779 1.551814 0.008112 -0.011387 -170241.000000 0 0 1
-13.478530 29.133654 1.868056 32.154785 -1.137477 1.512668 0.004748 -0.012027 -184250.000000 0 0 1
-14.434230 29.259654 2.912856 32.756054 -1.112511 1.481753 -0.011376 -0.002396 -159721.000000 0 0 1
-14.188830 28.587254 4.132956 32.181288 -1.110086 1.442013 -0.010914 -0.008642 -549743.000000 0 0 1
-13.172230 29.225954 5.063456 32.454624 -1.147358 1.414140 0.008274 -0.005420 -307260.000000 0 0 1
-13.443530 30.505554 5.715256 33.822795 -1.155710 1.401005 -0.001076 -0.005159 -243535.000000 0 0 1
-13.379930 31.614554 4.819156 34.665931 -1.170434 1.431328 0.004267 0.003781 -92888.100000 0 0 1
-13.155230 32.963154 5.519856 35.917940 -1.191076 1.416505 0.015431 0.010182 320937.000000 0 0 1
-14.199730 33.425154 6.387856 36.873811 -1.169077 1.396682 0.017414 0.016377 221821.000000 0 0 1
-13.827730 34.581054 7.146556 37.922667 -1.190407 1.381212 0.025008 0.006281 288284.000000 0 0 1
-14.836430 -34.281684 8.238556 38.252154 1.162354 1.353721 0.008000 0.014743 -8615.330000 0 0 1
-15.002630 34.236254 9.401256 38.543269 -1.157791 1.324396 -0.003156 0.016299 -93181.200000 0 0 1
-16.204530 34.436554 10.102356 39.376651 -1.130975 1.311338 0.011821 0.012133 -761980.000000 0 0 1
-16.389530 33.470254 11.345156 38.956221 -1.115443 1.275286 0.007816 0.013269 16512.700000 0 0 1
-15.686430 33.760154 12.541256 39.282250 -1.135832 1.245848 0.020259 0.008719 -998386.000000 0 0 1
-14.328630 33.540054 12.424856 38.530792 -1.167056 1.242463 0.026400 0.007722 -1243630.000000 0 0 1
-13.573330 33.680154 13.771756 38.836186 -1.187701 1.208298 0.039844 0.003326 -226465.000000 0 0 1
-13.943930 32.664654 14.629556 38.411414 -1.167333 1.180065 0.027527 0.008298 155145.000000 0 0 1
-12.928530 31.708754 14.861356 37.328968 -1.183646 1.161331 0.023525 0.013443 -158778.000000 0 0 1
-13.219230 30.310154 14.189956 35.983445 -1.159535 1.165439 0.016406 0.011959 -2274.850000 0 0 1
-13.427030 30.322654 12.769956 35.536182 -1.153942 1.203224 0.016278 0.017499 -287431.000000 0 0 1
-14.703330 29.928354 12.380056 35.569089 -1.114146 1.215299 0.001640 0.008683 -560581.000000 0 0 1
-14.900230 29.821854 10.874756 35.065940 -1.107436 1.255474 0.001560 0.012246 -149926.000000 0 0 1
-14.117930 28.798954 10.302556 33.687362 -1.115000 1.259988 0.001808 0.014314 70988.100000 0 0 1
-14.187230 28.778554 8.918056 33.301868 -1.112781 1.299693 -0.005497 0.014699 -134484.000000 0 0 1
-13.575030 27.492954 8.264756 31.756104 -1.112150 1.307508 0.001194 0.009306 734675.000000 0 0 1
-12.171730 27.552954 8.001256 31.166270 -1.154818 1.311161 0.011240 0.007607 514853.000000 0 0 1
-11.619230 26.279554 7.928156 29.807333 -1.154498 1.301576 0.012640 -0.001131 649514.000000 0 0 1
-10.327730 26.299154 7.022356 29.113931 -1.196597 1.327191 0.026619 -0.006355 614771.000000 0 0 1
-10.730930 26.632554 5.679956 29.269569 -1.187771 1.375501 0.024558 -0.010920 993849.000000 0 0 1
-9.690330 26.230254 4.765656 28.366180 -1.216915 1.401991 0.037684 -0.007377 506681.000000 0 0 1
-9.972330 26.647054 3.314256 28.644321 -1.212694 1.454833 0.019096 -0.008816 76001.000000 0 0 1
-9.467830 27.954354 3.061856 29.672557 -1.244234 1.467424 0.022826 -0.010585 166323.000000 0 0 1
-9.759530 28.364154 1.685556 30.043547 -1.239405 1.514663 0.012340 -0.010724 -10093.900000 0 0 1
-9.415130 29.845654 1.397656 31.326685 -1.265216 1.526166 0.021499 -0.012935 -135764.000000 0 0 1
-10.272630 30.820754 1.904756 32.543415 -1.249074 1.512233 0.015896 -0.016986 -255422.000000 0 0 1
-9.655730 32.092154 1.835456 33.563497 -1.278537 1.516083 0.013150 -0.015097 32549.100000 0 0 1
-10.397830 33.186154 2.646356 34.877484 -1.267166 1.494848 0.013754 -0.002711 -53944.400000 0 0 1
-11.616230 33.632954 2.106556 35.644775 -1.238241 1.511663 0.026347 0.001511 -313800.000000 0 0 1
-11.462230 34.596254 1.070556 36.461344 -1.250864 1.541431 0.025840 0.003354 -122254.000000 0 0 1
-12.805930 -34.266584 0.474656 36.584367 1.213153 1.557822 0.023428 0.002529 421383.000000 0 0 1
-13.674830 34.081854 -0.085344 36.723031 -1.189226 1.573120 0.012133 -0.001852 127761.000000 0 0 1
-13.836230 34.068454 -1.522244 36.802419 -1.185016 1.612171 0.019326 0.000642 524256.000000 0 0 1
-12.498430 33.712054 -2.255744 36.025015 -1.215765 1.633453 0.017338 0.004030 516688.000000 0 0 1
-12.329630 32.323754 -2.229544 34.667214 -1.206390 1.635153 0.009267 0.006254 -1036330.000000 0 0 1
-11.106730 32.025154 -2.771044 34.009537 -1.236964 1.652365 -0.004551 0.015958 -1008720.000000 0 0 1
-10.804830 30.502354 -2.808944 32.481196 -1.230359 1.657384 -0.013057 0.001791 -234242.000000 0 0 1
-11.169130 29.862154 -4.019344 32.134916 -1.212883 1.696202 -0.010109 0.003086 -478935.000000 0 0 1
-10.126130 29.848254 -4.961244 31.907220 -1.243727 1.726919 -0.020276 0.011642 -392914.000000 0 0 1
-10.408230 29.200254 -6.331344 31.639722 -1.228393 1.772264 -0.008342 0.000848 -240590.000000 0 0 1
-10.745030 27.823954 -6.232244 30.470788 -1.202261 1.776782 -0.008829 -0.000972 54057.700000 0 0 1
-10.540430 27.159154 -7.466344 30.074351 -1.200592 1.821683 -0.007164 0.000356 -85732.300000 0 0 1
-11.058530 25.729454 -7.503544 28.993086 -1.164867 1.832581 0.011363 -0.005164 -204592.000000 0 0 1
-10.345730 24.806654 -6.710844 27.702701 -1.175675 1.815476 -0.009109 0.000643 23742.600000 0 0 1
-10.859030 23.451254 -6.723944 26.703768 -1.137146 1.825334 0.009566 -0.005184 -388607.000000 0 0 1
-10.092030 22.610754 -5.739444 25.417247 -1.150992 1.798570 0.000364 -0.008716 984519.000000 0 0 1
-8.670730 22.410354 -5.989544 24.764494 -1.201627 1.815079 0.001528 -0.014432 1742690.000000 0 1 0
-8.009730 21.228054 -5.450744 23.334452 -1.209995 1.806567 0.010362 -0.011741 -296573.000000 0 1 0
-7.904430 21.103754 -3.921444 22.874137 -1.212419 1.743083 0.006762 -0.021544 152689.000000 0 1 0
-9.092530 21.161954 -3.130744 23.244439 -1.164982 1.705895 0.000960 -0.014851 681969.000000 0 1 0
-10.092430 20.154254 -3.401544 22.795210 -1.106541 1.720578 0.016859 -0.010731 885488.000000 0 1 0
-11.418430 20.308654 -2.564644 23.439269 -1.058601 1.680432 0.022972 -0.009293 543555.000000 0 1 0
-11.265230 20.000954 -1.156044 22.984342 -1.057849 1.621115 0.023296 -0.014087 106253.000000 0 1 0
-11.101130 18.603854 -0.894144 21.682665 -1.032798 1.612046 0.029188 -0.020265 -238653.000000 0 1 0
-10.634030 18.437354 0.566256 21.291765 -1.047636 1.544198 0.021002 -0.017328 -300434.000000 0 1 0
-11.661130 18.625054 1.519356 22.026870 -1.011407 1.501764 0.026331 -0.015131 -63068.300000 0 1 0
-11.276130 18.628754 2.851056 21.961559 -1.026483 1.440609 0.017725 -0.012440 -505689.000000 0 1 0
-12.442730 18.710354 3.836756 22.795165 -0.983936 1.401677 0.029688 -0.011349 -9936.980000 0 1 0
-13.125230 17.473154 3.960156 22.209584 -0.926550 1.391529 0.010593 -0.009523 693167.000000 0 1 0
-14.373030 17.644654 4.651056 23.228218 -0.887227 1.369201 0.009196 -0.014562 449642.000000 0 1 0
-15.021530 16.338954 5.119356 22.777524 -0.827383 1.344105 -0.000382 -0.005339 -172252.000000 0 1 0
-14.380330 15.748054 6.250156 22.222951 -0.830764 1.285702 0.007551 -0.004951 354018.000000 0 1 0
-14.980130 16.163754 7.522156 23.286349 -0.823385 1.241868 0.009507 -0.002641 32672.000000 0 1 0
-13.964230 16.098354 8.733456 23.031065 -0.856269 1.181861 0.004742 0.008806 1701400.000000 0 1 0
-12.792130 16.947354 8.627156 22.918971 -0.924220 1.184867 0.021389 -0.012975 900434.000000 0 1 0
-11.789230 16.424854 7.774356 21.661080 -0.948245 1.203698 0.020168 -0.008904 81467.700000 0 1 0
-10.561830 17.387454 7.535056 21.694536 -1.024924 1.216079 0.027557 -0.013749 269597.000000 0 1 0
-9.530830 17.319954 8.457656 21.502313 -1.067738 1.166538 0.026441 -0.008572 -678414.000000 0 1 0
-8.757830 18.469654 8.240056 22.039197 -1.128022 1.187605 0.021801 -0.016487 -214762.000000 0 1 0
-7.528930 18.637054 9.179656 22.097300 -1.186867 1.142392 0.022136 -0.008182 -212408.000000 0 1 0
-6.537430 17.628354 8.866056 20.787107 -1.215671 1.130158 0.021051 -0.010650 317146.000000 0 1 0
-5.368030 17.659154 9.679456 20.841145 -1.275692 1.087794 0.021743 -0.013057 761432.000000 0 1 0
-4.403330 18.793954 9.175056 21.372498 -1.340653 1.127087 0.011455 -0.010294 -1613620.000000 0 1 0
-4.837230 20.122954 9.355356 22.712436 -1.334889 1.146253 0.017643 -0.014641 -275459.000000 0 1 0
-4.216230 21.101354 8.528656 23.146959 -1.373585 1.193448 0.017419 -0.018799 -1028090.000000 0 1 0
-2.826030 21.594154 8.782356 23.482413 -1.440666 1.187481 0.020338 -0.013881 -1345190.000000 0 1 0
-1.817130 20.713254 8.437056 22.439358 -1.483292 1.185327 0.009700 -0.001689 49612.600000 0 1 0
-0.553630 21.377154 8.278856 22.930955 -1.544904 1.201420 0.011560 -0.008017 820250.000000 0 1 0
0.660570 20.471154 7.975956 21.979999 1.538539 1.199447 0.006205 -0.009208 339021.000000 0 1 0
1.119770 19.734854 9.118656 21.768515 1.514116 1.138572 0.001186 -0.020376 -980017.000000 0 1 0
2.487070 19.964254 9.247156 22.141970 1.446859 1.139961 0.002424 -0.000506 -738597.000000 0 1 0
3.065870 19.637854 10.607256 22.529065 1.415926 1.080570 -0.011776 -0.007920 -657863.000000 0 1 0
3.421370 18.280654 10.746556 21.479678 1.385779 1.046836 -0.007421 -0.011251 91829.300000 0 1 0
4.232870 17.920354 11.829456 21.885893 1.338843 0.999758 -0.018995 -0.008047 922116.000000 0 1 0
5.703570 18.477954 11.965356 22.740608 1.271405 1.016710 0.000280 -0.003111 1529930.000000 0 1 0
6.783170 17.769054 11.284656 22.115473 1.206129 1.035308 -0.005294 0.001892 986726.000000 0 1 0
7.418470 16.806354 12.154556 22.027721 1.155110 0.986294 -0.005326 0.006932 -453970.000000 0 1 0
8.595470 16.091454 11.474256 21.551695 1.080193 1.009356 -0.007767 -0.001313 -458564.000000 0 1 0
9.659170 16.964154 11.311156 22.561568 1.053191 1.045642 0.001992 -0.002127 -728463.000000 0 1 0
10.824870 16.360854 10.812156 22.399957 0.986287 1.067077 -0.001529 0.004201 -527878.000000 0 1 0
11.928970 17.328254 10.509056 23.516143 0.967890 1.107514 0.003796 -0.000386 -125663.000000 0 1 0
12.827570 16.927854 9.444756 23.244402 0.922335 1.152369 0.001676 0.004235 13270.800000 0 1 0
13.560170 18.009054 8.933956 24.249120 0.925401 1.193483 0.002014 0.010652 44007.100000 0 1 0
14.368570 17.416954 7.725556 23.863996 0.881011 1.241124 0.001901 0.000210 -89419.100000 0 1 0
15.606870 16.888454 8.141856 24.394346 0.824817 1.230507 0.005838 0.004091 -266603.000000 0 1 0
16.344070 16.385254 7.076656 24.200914 0.786656 1.274047 0.007623 -0.003290 -6823.990000 0 1 0
17.812970 16.043054 7.440756 25.100724 0.733168 1.269838 0.009641 0.003902 -47205.000000 0 0 1
18.019470 14.994054 8.394156 24.899494 0.694012 1.226939 0.009148 0.004558 44887.900000 0 1 0
18.832170 15.417154 9.449856 26.108218 0.686016 1.200438 0.006256 0.007649 -392526.000000 0 0 1
19.242470 14.444754 10.563556 26.277601 0.643930 1.157098 0.007723 0.005569 93066.000000 0 0 1
20.128670 13.462654 10.023056 26.208168 0.589499 1.178361 0.016045 0.002588 409464.000000 0 0 1
20.284970 12.365654 10.880556 26.129981 0.547446 1.141313 0.022858 -0.005043 -243010.000000 0 0 1
21.107570 11.230954 10.280556 26.026019 0.488982 1.164717 0.022498 -0.008347 -609586.000000 0 0 1
22.510570 11.369654 10.309556 27.244848 0.467704 1.182725 0.024644 -0.017241 983455.000000 0 0 1
23.211570 10.477654 9.357056 27.131397 0.424016 1.218686 0.028420 -0.013548 201045.000000 0 0 1
23.440970 9.055354 9.841456 26.987641 0.368645 1.197523 0.034934 -0.021244 -468974.000000 0 0 1
22.381970 8.103254 9.733356 25.716795 0.347364 1.182640 0.028310 -0.019595 617999.000000 0 0 1
22.660870 6.812854 10.304956 25.809342 0.292047 1.160073 0.024835 -0.015375 342932.000000 0 0 1
23.812070 6.025654 9.535256 26.348516 0.247848 1.200502 0.043498 -0.010401 745099.000000 0 0 1
23.460470 5.832354 8.187756 25.523506 0.243664 1.244230 0.042699 -0.010538 18138.000000 0 0 1
24.512470 5.368154 7.383356 26.157068 0.215593 1.284637 0.039245 -0.006165 -199517.000000 0 0 1
24.069970 5.131154 5.905156 25.309348 0.210033 1.335307 0.031736 -0.013581 -238989.000000 0 0 1
23.181470 4.051154 5.754456 24.226147 0.173011 1.330973 0.032118 -0.015307 318771.000000 0 1 0
22.988870 3.861054 4.400356 23.722543 0.166400 1.384223 0.026964 -0.017270 40808.000000 0 1 0
22.029070 2.680454 4.079556 22.563412 0.121083 1.388992 0.022785 -0.012278 -159016.000000 0 1 0
22.647070 1.464654 4.377356 23.112686 0.064583 1.380253 0.028671 -0.008620 419811.000000 0 1 0
21.854270 0.356154 3.997656 22.219749 0.016295 1.389897 0.014676 -0.006754 -141583.000000 0 1 0
22.572270 -0.975546 4.404856 23.018728 -0.043192 1.378249 0.020816 -0.003330 -327548.000000 0 1 0
22.369570 -1.349946 5.735956 23.132687 -0.060274 1.320224 0.018035 -0.005807 646327.000000 0 1 0
22.441070 -2.783246 5.964956 23.386509 -0.123395 1.312887 0.010359 -0.005643 -1244360.000000 0 1 0
21.970070 -3.276746 7.338956 23.394045 -0.148055 1.251698 0.014159 -0.001569 -422106.000000 0 1 0
22.140770 -4.710346 7.507756 23.848846 -0.209620 1.250544 0.011766 -0.005373 481884.000000 0 1 0
21.915570 -5.105746 8.839756 24.176479 -0.228891 1.196482 0.016915 -0.002557 -393362.000000 0 1 0
21.907270 -6.616046 9.123256 24.636038 -0.293293 1.191441 0.034817 -0.006748 -175497.000000 0 1 0
20.668870 -7.132746 8.704856 23.534077 -0.332299 1.191913 0.032184 -0.005382 38864.800000 0 1 0
20.559770 -8.501446 9.064856 24.023954 -0.392089 1.183889 0.038838 -0.001853 -30653.500000 0 1 0
-25.448380 -32.826384 5.346556 41.878123 0.911335 1.442777 0.016536 -0.008888 -61292.200000 0 0 1
-26.225220 -33.935184 5.728456 43.268627 0.912860 1.438014 0.023634 -0.012975 133630.000000 0 0 1
-26.425230 -33.855584 7.156456 43.539731 0.908042 1.405681 0.021958 0.002587 -355974.000000 0 0 1
-26.999790 34.240054 7.845856 44.304936 -0.903080 1.392770 0.015001 0.008285 -23554.100000 0 0 1
-28.371360 34.058254 7.548356 44.965280 -0.876240 1.402127 0.016272 -0.003397 -169378.000000 0 0 1
-28.844730 32.762854 7.836756 44.349045 -0.848911 1.393157 0.014354 0.000324 -608713.000000 0 0 1
-30.364260 32.713554 7.784056 45.307355 -0.822625 1.398134 0.009625 0.001133 -634296.000000 0 0 1
-30.861260 32.902754 6.463556 45.571769 -0.817404 1.428484 -0.004927 -0.001825 -333399.000000 0 0 1
-32.255440 33.029354 6.531856 46.626353 -0.797252 1.430245 -0.012023 0.005299 -426142.000000 0 0 1
-32.989780 32.979754 5.163056 46.932365 -0.785246 1.460563 -0.015821 0.006455 -278119.000000 0 0 1
-33.017260 31.670954 4.659856 45.988075 -0.764589 1.469295 -0.019443 0.004639 255174.000000 0 0 1
-33.671370 31.611654 3.406456 46.310493 -0.753858 1.497173 -0.010337 0.007935 -140005.000000 0 0 1
-33.263010 30.433054 2.531256 45.155352 -0.740998 1.514710 -0.009748 0.002177 -210291.000000 0 0 1
-33.449210 29.207354 3.175256 44.519674 -0.717801 1.499413 -0.000227 -0.002142 303383.000000 0 0 1
-32.709740 28.133354 2.595156 43.222072 -0.710323 1.510718 -0.008048 0.001456 -189102.000000 0 0 1
-32.931280 26.742354 3.189356 42.541682 -0.682055 1.495756 0.010066 0.003178 -759239.000000 0 0 1
-34.241435 26.268054 3.096156 43.267455 -0.654382 1.499177 0.025528 0.000637 -591649.000000 0 0 1
-34.379954 25.238954 4.105156 42.846684 -0.633259 1.474839 0.020440 0.001638 -531065.000000 0 0 1
34.234133 24.937954 4.392256 42.581326 0.629568 1.467463 0.018073 -0.008330 -55973.100000 0 0 1
33.521465 24.180054 3.388956 41.471058 0.624899 1.488987 0.020204 -0.003931 328252.000000 0 0 1
33.807255 22.822154 3.405556 40.931394 0.593796 1.487498 0.022955 -0.004178 -841837.000000 0 0 1
33.150435 22.017354 2.264056 39.860270 0.586269 1.513966 0.021996 -0.004641 2287190.000000 0 0 1
31.678765 21.830554 2.228956 38.536807 0.603388 1.512924 0.027721 -0.012811 2672910.000000 0 0 1
31.185115 20.962754 3.290156 37.719671 0.591826 1.483459 0.013571 -0.005062 -403841.000000 0 0 1
31.614675 19.446054 3.215156 37.255522 0.551445 1.484389 0.011066 -0.006981 -379366.000000 0 0 1
31.049275 18.794754 2.106256 36.355695 0.544322 1.512829 0.011821 -0.007522 480008.000000 0 0 1
31.467175 17.410054 1.927056 36.013978 0.505355 1.517262 -0.005291 -0.003377 -306948.000000 0 0 1
30.780785 16.456554 2.951156 35.028334 0.490972 1.486446 0.000416 0.000122 676254.000000 0 0 1
29.354255 16.606554 2.861256 33.847255 0.514839 1.486161 0.002794 -0.000102 629730.000000 0 0 1
28.774555 15.779554 3.816356 33.038370 0.501603 1.455025 0.017151 -0.002570 -454326.000000 0 0 1
27.241205 15.732454 3.762156 31.681969 0.523729 1.451768 -0.000402 0.008041 -243608.000000 0 0 1
26.747815 14.938554 2.667056 30.752547 0.509343 1.483961 0.004784 0.003694 15823.000000 0 0 1
25.434065 15.355754 2.389756 29.806069 0.543170 1.490533 -0.008104 0.009821 -551307.000000 0 0 1
24.815565 14.609754 1.178956 28.820949 0.532094 1.529879 0.003175 -0.002031 -386795.000000 0 0 1
25.323215 14.915654 -0.125044 29.389753 0.532300 1.575051 0.020126 -0.002632 869128.000000 0 0 1
26.668135 14.484354 -0.385844 30.350203 0.497556 1.583510 0.031195 -0.005061 -59448.800000 0 0 1
27.211445 15.213354 -1.650944 31.219136 0.509787 1.623703 0.036185 -0.004535 -352034.000000 0 0 1
27.443285 16.660854 -1.581044 32.143703 0.545625 1.620003 0.034883 -0.013894 518277.000000 0 0 1
28.157975 17.096954 -0.412244 32.944610 0.545682 1.583310 0.018121 -0.011732 -365461.000000 0 0 1
28.683595 18.556554 -0.606844 34.168151 0.574221 1.588558 0.032581 -0.013200 75279.500000 0 0 1
29.772955 18.626754 -1.527544 35.152783 0.559050 1.614264 0.016951 -0.011261 695637.000000 0 0 1
30.528775 19.837554 -1.332444 36.432266 0.576234 1.607378 0.012445 -0.001703 169781.000000 0 0 1
29.978525 20.938854 -2.243244 36.635771 0.609693 1.632066 0.020002 -0.003538 46710.200000 0 0 1
30.858205 22.044454 -2.489444 38.005053 0.620311 1.636346 -0.021032 0.007574 377702.000000 0 0 1
30.327485 22.963954 -3.419044 38.194101 0.648093 1.660434 0.006314 0.002194 -233127.000000 0 0 1
31.176905 24.251954 -3.432444 39.647677 0.661108 1.657478 -0.009621 0.005671 -504981.000000 0 0 1
31.271465 24.878454 -2.176044 40.019709 0.672030 1.625197 -0.003923 0.013788 565772.000000 0 0 1
32.375345 24.407454 -1.391944 40.568760 0.645986 1.605114 0.005305 0.015335 126560.000000 0 0 1
32.457015 25.185254 -0.043844 41.082317 0.659908 1.571864 0.008629 -0.000414 107957.000000 0 0 1
32.551015 26.581754 -0.247744 42.026415 0.684792 1.576691 0.014632 -0.004170 83191.200000 0 0 1
33.620195 27.070654 0.541156 43.167472 0.677898 1.558260 0.018474 -0.001593 228500.000000 0 0 1
34.231603 28.440854 0.124356 44.505059 0.693263 1.568002 0.009059 -0.011650 208982.000000 0 0 1
34.855740 28.378654 -1.161344 44.962421 0.683324 1.596628 -0.005543 -0.006035 -21619.800000 0 0 1
33.952655 28.749954 -2.150344 44.541740 0.702614 1.619092 -0.007328 -0.002139 -306919.000000 0 0 1
34.341181 28.279154 -3.568244 44.629134 0.688893 1.650835 -0.003778 -0.005383 439554.000000 0 0 1
-34.603778 28.918354 -4.154544 45.287447 -0.696133 1.662663 -0.013591 -0.002476 790104.000000 0 0 1
-33.962990 28.197254 -5.219944 44.450170 -0.692907 1.688502 -0.002133 -0.006520 213622.000000 0 0 1
-34.712281 28.266154 -6.577444 45.245780 -0.683399 1.716685 -0.012743 -0.005546 -105438.000000 0 0 1
34.247101 27.419454 -6.580444 44.362063 0.675128 1.719681 -0.018432 0.007843 -317400.000000 0 0 1
33.324405 27.658154 -7.637444 43.975220 0.692748 1.745358 -0.029336 0.003876 1196500.000000 0 0 1
32.000085 26.800354 -7.450144 42.400106 0.697197 1.747424 -0.027470 0.018222 541938.000000 0 0 1
32.043805 25.359454 -7.476044 41.542732 0.669475 1.751742 -0.022123 0.011559 -42502.800000 0 0 1
32.921425 24.616354 -6.591144 41.632058 0.642047 1.729784 -0.019191 0.006779 342885.000000 0 0 1
33.042605 23.068754 -6.880144 40.881750 0.609484 1.739895 -0.017862 0.007660 717525.000000 0 0 1
31.899185 22.328854 -6.398844 39.459864 0.610714 1.733676 -0.015015 0.010148 819000.000000 0 0 1
32.130655 20.941654 -6.564544 38.910475 0.577615 1.740316 0.001412 -0.000146 251315.000000 0 0 1
31.057305 20.029454 -5.881044 37.420875 0.572795 1.728610 0.017162 -0.005807 1302990.000000 0 0 1
29.887125 19.821254 -6.722944 36.487262 0.585601 1.756110 0.013121 -0.007494 340599.000000 0 0 1
28.898125 19.093054 -6.082444 35.165927 0.583862 1.744635 0.054516 -0.018119 -1147980.000000 0 0 1
27.680455 18.895054 -6.938744 34.225382 0.598962 1.774948 0.046468 -0.018282 -764270.000000 0 0 1
27.916315 18.111454 -8.113944 34.251737 0.575515 1.809961 0.039489 -0.019745 458240.000000 0 0 1
26.664705 17.857054 -8.750744 33.263439 0.590092 1.837003 0.051443 -0.013278 301191.000000 0 0 1
26.731195 16.757354 -9.823144 33.043302 0.559953 1.872640 0.049888 -0.014716 -593738.000000 0 0 1
25.652295 16.623754 -10.704944 32.388042 0.574997 1.907652 0.036596 -0.012037 -86022.000000 0 0 1
25.866435 15.427954 -11.451944 32.221751 0.537803 1.934149 0.032221 -0.001743 -178928.000000 0 0 1
25.183155 15.339954 -12.809844 32.149612 0.547110 1.980617 0.030451 -0.000557 191230.000000 0 0 1
23.756665 15.443354 -12.727844 31.062426 0.576420 1.992977 0.022847 0.007959 849650.000000 0 0 1
23.077065 15.569154 -13.966944 31.145224 0.593515 2.035822 0.015322 0.007709 -181273.000000 0 0 1
22.931165 14.286054 -14.818444 30.814216 0.557158 2.072473 0.013143 0.007682 -81801.400000 0 0 1
24.147665 13.851354 -15.447644 31.837076 0.520789 2.077399 0.026327 0.002830 671566.000000 0 0 1
24.511765 14.646954 -16.555044 33.006504 0.538615 2.096208 0.041830 -0.010331 -755381.000000 0 0 1
25.844385 14.117054 -17.142744 34.074875 0.499946 2.097967 0.057684 -0.008101 -44823.600000 0 0 1
25.913615 12.748154 -17.491344 33.763560 0.457185 2.115370 0.057835 -0.008956 289030.000000 0 0 1
27.189295 12.303454 -17.946944 34.824209 0.424940 2.112222 0.056174 -0.002460 348746.000000 0 0 1
27.244855 10.832054 -18.365844 34.596527 0.378420 2.130409 0.033842 0.000880 -276619.000000 0 0 1
26.482575 10.520654 -19.515444 34.537855 0.378148 2.171284 0.037676 -0.009881 -140602.000000 0 0 1
26.762515 9.321454 -20.213044 34.809321 0.335162 2.190359 0.011333 0.005268 191785.000000 0 0 1
28.147205 9.025454 -20.880644 36.190126 0.310294 2.185811 0.006114 0.000815 -315418.000000 0 0 1
28.405905 9.985754 -21.917944 37.242542 0.338044 2.200022 0.007328 -0.002680 396458.000000 0 0 1
29.093775 9.375354 -23.037544 38.276277 0.311739 2.216644 -0.011142 -0.003304 335294.000000 0 0 1
30.585655 8.948754 -22.835444 39.204846 0.284636 2.192554 -0.020731 0.002436 -245827.000000 0 0 1
31.496285 9.992354 -22.989944 40.254200 0.307211 2.178665 -0.015069 0.010241 56137.200000 0 0 1
32.828275 9.470054 -23.001544 41.187966 0.280848 2.163316 -0.021638 0.012752 206587.000000 0 0 1
33.828175 10.628954 -22.913044 42.217622 0.304437 2.144488 0.008017 0.008262 -468671.000000 0 0 1
33.839015 11.250154 -21.674644 41.730505 0.320965 2.116940 0.000039 0.003556 489514.000000 0 0 1
34.813535 12.289454 -21.527444 42.736913 0.339352 2.098696 -0.018349 0.002040 245835.000000 0 0 1
34.589864 13.111154 -20.207544 42.150989 0.362313 2.070777 -0.034208 0.002675 -143609.000000 0 0 1
34.943665 12.286454 -19.142144 41.694584 0.338106 2.047783 -0.036839 0.008615 181307.000000 0 0 1
34.630442 12.790454 -17.865544 41.012691 0.353800 2.021512 -0.039662 0.009983 -209178.000000 0 0 1
-34.922408 11.919754 -16.701044 40.504073 -0.328922 1.995806 -0.054445 0.017413 -387112.000000 0 0 1
34.339161 10.774554 -16.464244 39.577017 0.304040 1.999844 -0.051956 0.020233 309865.000000 0 0 1
34.816742 10.030554 -15.359244 39.353829 0.280500 1.971738 -0.065573 0.008151 -387395.000000 0 0 1
34.062096 8.736354 -15.224344 38.318806 0.251071 1.979377 -0.012195 0.010052 -416623.000000 0 0 1
33.024165 8.809354 -14.247044 37.029426 0.260685 1.965732 -0.000705 0.014827 347301.000000 0 0 1
33.486065 8.722854 -12.888444 36.925827 0.254829 1.927339 -0.013992 0.013774 -716988.000000 0 0 1
32.413445 9.148954 -11.909144 35.723416 0.275101 1.910673 0.001948 0.016125 -532259.000000 0 0 1
32.412115 10.560354 -11.837644 36.085954 0.314969 1.905025 0.003670 0.014783 -95993.500000 0 0 1
31.466945 11.168454 -11.013144 35.159527 0.341057 1.889392 -0.000888 0.027328 -842488.000000 0 0 1
31.568635 10.957454 -9.481444 34.735317 0.334088 1.847268 0.004707 0.024683 -524904.000000 0 0 1
32.737065 11.425854 -8.853544 35.786181 0.335801 1.820793 0.000410 0.019430 56718.500000 0 0 1
32.803725 12.824954 -8.650444 36.268360 0.372689 1.811630 0.015558 0.012894 -1014920.000000 0 0 1
32.588245 13.200654 -7.142944 35.878581 0.384873 1.771222 0.011451 0.002675 -179107.000000 0 0 1
33.700055 12.804654 -6.375244 36.610061 0.363112 1.745828 0.016234 0.004360 369671.000000 0 0 1
33.451065 13.178454 -5.021244 36.302318 0.375291 1.709559 0.015052 0.005880 -849076.000000 0 0 1
34.664417 13.024454 -4.149044 37.262216 0.359410 1.682375 0.009408 0.008146 -810165.000000 0 0 1
-34.596517 14.151954 -4.313244 37.627129 -0.388290 1.685680 0.011346 0.012130 -684805.000000 0 0 1
-33.333420 13.984854 -3.749544 36.342153 -0.397241 1.674154 -0.001396 0.007837 -196877.000000 0 0 1
-32.471110 15.291154 -3.759344 36.087741 -0.440111 1.675158 0.001361 0.002306 434762.000000 0 0 1
-32.944430 16.196354 -2.788844 36.816233 -0.456926 1.646619 0.017236 0.003388 581532.000000 0 0 1
-31.972940 17.227854 -2.604944 36.412272 -0.494224 1.642398 0.014262 0.005542 308425.000000 0 0 1
-32.379010 18.161354 -1.478844 37.154031 -0.511172 1.610610 0.016253 0.012052 -807990.000000 0 0 1
-33.494460 18.910454 -1.737944 38.503306 -0.513972 1.615949 -0.005453 0.011990 -943235.000000 0 0 1
-33.806710 19.642754 -0.625744 39.104002 -0.526355 1.586799 -0.016795 0.011887 -416632.000000 0 0 1
35.039901 20.528954 -0.762944 40.617911 0.529968 1.589581 -0.015942 0.018291 -264993.000000 0 0 1
-34.882742 21.733754 -1.475444 41.125888 -0.557197 1.606680 -0.007869 0.018015 -167252.000000 0 0 1
35.011598 21.610754 -2.851644 41.242800 0.553004 1.639994 -0.026921 0.024167 -36212.600000 0 0 1
-34.731854 22.940054 -3.591844 41.778572 -0.583714 1.656876 -0.005364 -0.008522 -147535.000000 0 0 1
-33.368340 23.238154 -3.736944 40.834087 -0.608315 1.662440 -0.004302 0.007806 -385214.000000 0 0 1
-33.307230 24.415454 -4.439444 41.535462 -0.632557 1.677884 -0.001198 -0.003794 302838.000000 0 0 1
-31.843400 24.768054 -4.795344 40.625779 -0.661062 1.689109 -0.003338 -0.012685 281678.000000 0 0 1
-31.358430 23.892454 -5.813344 39.849660 -0.651083 1.717201 -0.019978 0.000968 978312.000000 0 0 1
-30.086120 24.252654 -6.430344 39.175440 -0.678454 1.735685 -0.003305 0.001399 1010800.000000 0 0 1
-29.553820 23.319154 -7.504744 38.386617 -0.668022 1.767568 -0.009672 -0.016827 -712209.000000 0 0 1
-30.278140 23.170854 -8.695044 39.105728 -0.653200 1.795017 -0.009060 -0.023208 -489820.000000 0 0 1
-29.537440 22.761354 -9.829644 38.563733 -0.656551 1.828534 -0.021565 -0.025459 -35490.300000 0 0 1
-30.407410 22.533954 -11.120044 39.446736 -0.637760 1.856570 -0.029864 -0.000944 34479.200000 0 0 1
-31.084810 23.707554 -11.533344 40.759435 -0.651563 1.857677 -0.015933 -0.000573 -64029.600000 0 0 1
-31.707320 23.465554 -12.754644 41.456812 -0.637114 1.883530 -0.027833 0.004092 -425354.000000 0 0 1
-32.309760 24.802254 -13.274744 42.840299 -0.654695 1.885848 -0.007631 0.000611 -399019.000000 0 0 1
-31.327370 25.785754 -13.365044 42.719241 -0.688672 1.888997 -0.018899 -0.006005 -739359.000000 0 0 1
-30.624450 25.705654 -14.593444 42.562967 -0.698298 1.920764 -0.028655 -0.005619 -132976.000000 0 0 1
-29.339620 26.588854 -14.523944 42.174938 -0.736254 1.922368 -0.031836 -0.001484 201792.000000 0 0 1
-28.302150 26.107654 -13.675644 40.861284 -0.745087 1.912067 -0.016124 -0.010860 139009.000000 0 0 1
-28.551690 25.893454 -12.265144 40.448779 -0.736613 1.878873 -0.008116 -0.008554 -1464230.000000 0 0 1
-28.648170 27.142654 -11.364344 41.068109 -0.758420 1.851175 -0.000610 0.002324 4526.000000 0 0 1
-27.414940 27.748254 -11.005144 40.529714 -0.791440 1.845782 0.005399 -0.002172 -75233.400000 0 0 1
-27.640650 28.898254 -10.271544 41.287034 -0.807638 1.822221 -0.002944 -0.006896 -318239.000000 0 0 1
-26.423710 29.730854 -9.939044 40.999033 -0.844224 1.815657 0.003750 -0.006457 -72249.300000 0 0 1
-26.896010 30.947354 -9.331144 42.050021 -0.855324 1.794565 0.003360 -0.007607 -29974.000000 0 0 1
-25.798630 31.779854 -9.084344 41.929151 -0.888906 1.789188 0.017684 0.004044 -233577.000000 0 0 1
33.434915 -25.671546 34.076831 54.204725 -0.654800 0.890956 -0.001965 0.000110 -453364.000000 0 0 1
33.153745 -24.299546 34.426583 53.617426 -0.632490 0.873590 -0.002592 -0.008911 295993.000000 0 0 1
32.128315 -24.320246 -33.731254 52.549980 -0.647949 2.267756 -0.011849 -0.002491 331478.000000 0 0 1
31.657825 -22.933446 -33.183424 51.276704 -0.626926 2.274629 -0.018544 -0.007616 26942.900000 0 0 1
30.889675 -22.303946 -34.183226 51.187215 -0.625373 2.302056 -0.022609 -0.006465 -56361.500000 0 0 1
30.462205 -21.063846 -33.784924 50.130356 -0.604981 2.310327 -0.030474 -0.000970 -123143.000000 0 0 1
30.128385 -20.148446 34.158189 49.804230 -0.589446 0.815026 -0.032430 0.006357 525589.000000 0 0 1
31.207415 -19.579346 33.398360 49.726291 -0.560319 0.834371 -0.017533 -0.004409 557251.000000 0 0 1
30.645625 -18.855346 32.385543 48.409728 -0.551572 0.837949 -0.016905 0.002081 84728.300000 0 0 1
31.721435 -18.673046 31.258393 48.290985 -0.532037 0.866769 -0.019998 0.009423 59092.000000 0 0 1
32.634565 -17.709846 31.658933 48.794892 -0.497199 0.864768 -0.021122 0.000871 29061.500000 0 0 1
33.789495 -17.693646 30.823393 49.039542 -0.482383 0.891120 0.005234 0.001648 -148471.000000 0 0 1
34.865912 -16.702446 31.233303 49.700329 -0.446746 0.891260 0.009057 -0.001944 -726736.000000 0 0 1
-34.250198 -16.484346 30.214623 48.556495 0.448570 0.899174 0.012386 -0.001127 47800.400000 0 0 1
-33.247280 -15.569746 30.512083 47.736630 0.437969 0.877371 0.005624 -0.011211 58520.800000 0 0 1
-32.021720 -16.154946 31.268473 47.582457 0.467241 0.853774 0.038304 -0.016778 29571.800000 0 0 1
-30.996040 -15.188846 31.562213 46.772094 0.455636 0.830091 0.029556 -0.016215 -395515.000000 0 0 1
-29.862810 -15.863146 31.946993 46.519213 0.488296 0.813790 0.028951 -0.017386 -1253660.000000 0 0 1
-28.822540 -15.007346 32.648213 46.063706 0.480055 0.783054 0.036117 -0.021172 -624744.000000 0 0 1
-29.236160 -14.273746 33.802814 46.916128 0.454181 0.766281 0.037469 -0.025758 337429.000000 0 0 1
-28.241770 -13.306346 34.132314 46.256581 0.440309 0.740856 0.033680 -0.022112 219608.000000 0 0 1
-28.474530 -12.573346 -33.653224 45.841328 0.415817 2.395172 0.023516 -0.010740 -49110.000000 0 0 1
-28.701160 -13.594746 -32.670324 45.562306 0.442359 2.370353 0.047425 -0.011112 233762.000000 0 0 1
-28.797900 -12.996646 -31.402524 44.546047 0.423939 2.353142 0.050057 -0.004288 -609888.000000 0 0 1
-29.038370 -14.024846 -30.248094 44.213916 0.449936 2.324207 0.047657 -0.009051 -113027.000000 0 0 1
-30.262740 -14.722246 -30.207924 45.222744 0.452774 2.302288 0.028717 -0.005685 -145412.000000 0 0 1
-30.367180 -15.420446 -29.038664 44.757119 0.469868 2.276810 0.014952 0.000299 -97720.500000 0 0 1
-31.536410 -16.379246 -29.249144 46.025398 0.479028 2.259452 0.006553 -0.002525 -342656.000000 0 0 1
-31.220920 -17.601946 -29.853664 46.645638 0.513367 2.265307 0.005138 -0.000771 -346094.000000 0 0 1
-32.301660 -18.472146 -29.793644 47.668424 0.519474 2.245951 -0.005424 -0.002538 -263823.000000 0 0 1
-31.933340 -19.816746 -30.497514 48.399793 0.555404 2.252500 0.005399 -0.007719 493887.000000 0 0 1
-33.049410 -20.699546 -30.600424 49.569352 0.559549 2.236135 -0.006655 -0.010489 252803.000000 0 0 1
-32.591570 -21.939346 -31.095814 50.104840 0.592485 2.240323 0.003369 -0.014921 273850.000000 0 0 1
-33.754590 -22.906746 -31.498764 51.538951 0.596237 2.228327 0.005252 -0.014721 361532.000000 0 0 1
-34.539831 -23.254846 -30.354804 51.528651 0.592564 2.200724 -0.016151 -0.010415 -83825.700000 0 0 1
34.482145 -24.144646 -30.557684 52.016865 -0.610865 2.198709 -0.013030 -0.013220 -97478.400000 0 0 1
34.910043 -25.633826 -30.791104 53.140344 -0.633366 2.188825 -0.016704 -0.010050 233690.000000 0 0 1
-34.552074 -25.907696 -32.077754 53.796253 0.643383 2.209658 -0.001831 -0.010621 120912.000000 0 0 1
-33.921800 -27.184706 -32.084504 54.028808 0.675590 2.206620 0.000027 -0.006239 -13887.800000 0 0 1
-34.000420 -28.000816 -33.392134 55.273039 0.688933 2.219471 0.006948 -0.013879 660636.000000 0 0 1
34.746719 -28.454246 -33.681694 56.137644 -0.686162 2.214278 0.005181 -0.006875 438225.000000 0 0 1
34.496217 -29.671486 -34.388327 57.034578 -0.710350 2.217975 -0.001017 -0.008042 -59739.400000 0 0 1
-35.039114 -31.000986 -33.790854 57.711545 0.724328 2.196309 -0.004219 -0.018960 -45298.300000 0 0 1
34.548098 -31.254106 -32.507904 56.808045 -0.735381 2.180032 0.010297 -0.020377 113271.000000 0 0 1
-34.611401 -32.134906 -31.894324 56.989904 0.748312 2.164758 0.014581 -0.025224 35158.500000 0 0 1
34.919949 -32.820576 -30.592914 56.855250 -0.754417 2.138959 0.008150 -0.024519 180733.000000 0 0 1
33.815975 -33.678436 -30.827634 56.816373 -0.783360 2.144306 0.014337 -0.020908 282267.000000 0 0 1
33.400495 -34.334104 -29.631494 56.324499 -0.799181 2.124787 0.007427 -0.020438 -217745.000000 0 0 1
32.206735 34.048852 -29.776404 55.526861 0.813194 2.136787 0.007777 -0.025682 262754.000000 0 0 1
31.013995 -34.599476 -30.163734 55.397134 -0.839989 2.146589 0.005414 -0.021784 682364.000000 0 0 1
29.819445 34.150943 -29.610504 54.150421 0.853006 2.149357 0.006863 -0.015829 1422840.000000 0 0 1
28.532085 34.585327 -30.418214 54.180185 0.881010 2.166905 -0.015963 -0.010290 401432.000000 0 0 1
28.443605 34.103860 -31.733294 54.581259 0.875648 2.191239 -0.006329 -0.007661 -507361.000000 0 0 1
27.234735 34.492406 -32.324234 54.555595 0.902437 2.204956 0.000049 0.001934 -427334.000000 0 0 1
26.969085 33.989046 -33.775194 54.985003 0.900053 2.232247 0.001833 -0.011349 68318.600000 0 0 1
26.733745 32.578041 -33.758004 53.996525 0.883616 2.246169 -0.009409 -0.011146 27753.400000 0 0 1
27.043815 32.092251 34.106915 54.079221 0.870562 0.888362 0.001805 -0.010012 -201391.000000 0 0 1
26.897075 30.556931 34.111363 53.110863 0.849013 0.873344 0.003219 -0.016619 -84063.400000 0 0 1
28.096195 29.940721 34.541548 53.655955 0.817169 0.871395 0.011396 -0.013235 -121985.000000 0 0 1
27.832165 28.616551 -34.350512 52.663973 0.799293 2.281356 0.017833 -0.018165 755897.000000 0 0 1
29.211555 27.892821 -34.249532 52.956159 0.762309 2.274115 0.024114 -0.016083 972752.000000 0 0 1
29.976655 28.224931 -33.068264 52.808680 0.755310 2.247453 0.018710 -0.009810 390046.000000 0 0 1
31.274265 27.638581 -33.105154 53.272150 0.723763 2.241369 0.034026 -0.010656 551536.000000 0 0 1
32.146385 27.841561 -31.847584 53.130134 0.713759 2.213580 0.030029 -0.011186 -483689.000000 0 0 1
32.652295 29.138621 -31.561384 53.956951 0.728595 2.195598 0.016176 -0.013471 352419.000000 0 0 1
31.739255 30.235231 -31.488834 53.973106 0.761134 2.193726 0.016401 -0.012002 191204.000000 0 0 1
30.953635 30.452281 -30.145354 52.860300 0.777234 2.177647 0.015647 -0.005743 398343.000000 0 0 1
31.747605 30.911801 -29.083294 53.002715 0.772060 2.151621 0.014778 0.005719 31144.800000 0 0 1
30.934335 30.792411 -27.930704 51.819204 0.783099 2.140049 0.012951 0.003827 -373416.000000 0 0 1
31.538355 31.153831 -26.595554 51.696736 0.779265 2.111166 0.013339 0.000261 -391926.000000 0 0 1
31.686435 32.551551 -26.501124 52.592235 0.798865 2.098902 0.017750 -0.005603 226531.000000 0 0 1
32.260165 32.878181 -25.235104 52.521457 0.794886 2.071989 0.011859 -0.014172 280472.000000 0 0 1
32.509095 34.408398 -25.088324 53.574276 0.813773 2.058151 0.013552 -0.014231 -505189.000000 0 0 1
31.243795 -34.338757 -25.045544 52.750395 -0.832555 2.065526 0.011501 -0.012823 -176961.000000 0 0 1
31.162855 -32.953336 -24.822744 51.703138 -0.813316 2.071567 0.008855 -0.018370 -1204950.000000 0 0 1
31.508765 -32.006646 -25.979884 51.886241 -0.793237 2.095213 0.009371 -0.018243 166493.000000 0 0 1
32.849245 -32.087876 -26.430264 52.983615 -0.773674 2.093054 0.007417 -0.022684 -361861.000000 0 0 1
33.768875 -31.452736 -25.611144 52.778236 -0.749901 2.077456 0.001004 -0.015363 282391.000000 0 0 1
-34.837023 -31.804186 -26.107264 53.913946 0.739920 2.076290 0.003765 -0.011669 1442960.000000 0 0 1
-34.247977 -33.138626 -25.991264 54.282946 0.768937 2.070096 0.004863 -0.018836 214762.000000 0 0 1
-33.932810 -33.646606 -24.689144 53.787392 0.781163 2.047681 0.014746 -0.013157 692568.000000 0 0 1
-32.573140 -33.174616 -24.028044 52.334611 0.794546 2.047805 -0.009204 0.003548 802582.000000 0 0 1
-32.492440 -31.814026 -23.770044 51.311849 0.774849 2.052452 -0.022771 0.007332 -245313.000000 0 0 1
-32.107470 -31.655026 -22.423644 50.356232 0.778303 2.032306 -0.015447 0.008973 -387545.000000 0 0 1
-31.735230 -30.191626 -22.128044 49.074529 0.760477 2.038577 -0.028200 0.026108 -473275.000000 0 0 1
-32.717640 -29.204136 -22.357044 49.225633 0.728718 2.042242 -0.032067 0.025363 -370553.000000 0 0 1
-32.928100 -28.949816 -23.745644 49.861881 0.721194 2.067157 -0.037803 0.020062 442324.000000 0 0 1
-34.121000 -28.064346 -24.257744 50.401273 0.688308 2.072925 -0.036387 0.022202 583988.000000 0 0 1
-33.931660 -26.675386 -23.949544 49.361062 0.666239 2.077378 -0.045374 0.027020 -653747.000000 0 0 1
-34.930713 -25.856876 -24.447744 49.864064 0.637221 2.083216 -0.031835 0.015919 -508538.000000 0 0 1
-34.685467 -25.293796 -25.888834 50.130723 0.630077 2.113469 -0.022449 0.007760 -707886.000000 0 0 1
-33.629430 -24.418046 -26.021624 49.033707 0.628023 2.130209 -0.029822 0.008002 -819581.000000 0 0 1
-33.435730 -23.910746 -27.284014 49.336490 0.620805 2.156780 -0.018128 0.000913 -406386.000000 0 0 1
-32.269580 -22.917446 -27.202714 48.026271 0.617530 2.172943 -0.011707 -0.009820 -716379.000000 0 0 1
-32.333570 -21.647846 -26.525204 47.092201 0.589973 2.169124 -0.019159 0.006328 -698034.000000 0 0 1
-33.354370 -20.822946 -26.971724 47.682103 0.558092 2.172026 -0.032831 -0.003521 -9131.290000 0 0 1
-34.640952 -20.853546 -26.084494 48.117219 0.541882 2.143734 -0.035989 -0.001825 -25003.300000 0 0 1
-34.560947 -20.217546 -24.796144 47.096252 0.529304 2.125274 -0.039959 0.003772 688868.000000 0 0 1
-33.672590 -20.901446 -23.816144 46.237673 0.555520 2.111898 -0.043710 0.005709 732880.000000 0 0 1
-34.322378 -22.090246 -23.018844 46.860130 0.571870 2.084291 -0.033724 0.019014 190691.000000 0 0 1
34.876462 -21.675246 -21.994144 46.582467 -0.556069 2.062530 -0.031822 0.017148 -41243.900000 0 0 1
34.404280 -22.842346 -21.323044 46.476870 -0.586112 2.047427 -0.021611 0.022224 683206.000000 0 0 1
33.201195 -22.597746 -20.324144 45.011646 -0.597608 2.039277 -0.024982 0.015257 994937.000000 0 0 1
32.060065 -21.973346 -20.925144 44.142240 -0.600847 2.064669 0.000021 0.007414 -67100.700000 0 0 1
31.011385 -21.987746 -19.974844 42.943700 -0.616755 2.054589 0.008246 -0.003553 -130159.000000 0 0 1
29.769545 -21.253646 -20.538344 41.949575 -0.620020 2.082423 -0.004073 -0.004926 -587776.000000 0 0 1
29.268705 -22.026846 -21.623044 42.536984 -0.645146 2.104047 -0.001318 -0.000973 887227.000000 0 0 1
28.119675 -21.472346 -22.317944 41.831428 -0.652152 2.133554 0.014754 -0.004111 786904.000000 0 0 1
28.273995 -20.115946 -23.076144 41.672275 -0.618379 2.157661 0.005648 -0.010300 -760504.000000 0 0 1
28.486025 -18.979346 -22.306644 40.856524 -0.587727 2.148349 0.009732 0.000381 36900.800000 0 0 1
28.624785 -17.791646 -23.128444 40.875982 -0.556112 2.172224 -0.001585 -0.002429 -290360.000000 0 0 1
29.362275 -16.682846 -22.319144 40.479683 -0.516688 2.154798 -0.008188 -0.006507 -126934.000000 0 0 1
28.667345 -16.329246 -21.156744 39.192713 -0.517775 2.141012 -0.007344 -0.010116 540149.000000 0 0 1
29.623415 -15.934946 -20.171844 39.222092 -0.493519 2.110985 -0.018876 -0.007283 515592.000000 0 0 1
30.457125 -17.042046 -19.438444 39.948978 -0.510140 2.078969 -0.006522 -0.011395 687865.000000 0 0 1
31.513615 -17.485446 -20.308144 41.367493 -0.506562 2.083942 -0.019798 -0.003375 504628.000000 0 0 1
32.549735 -18.244046 -19.678444 42.184969 -0.510867 2.056103 -0.013112 0.001669 621296.000000 0 0 1
33.673765 -18.583746 -20.709744 43.682623 -0.504282 2.064733 -0.029504 0.004254 408388.000000 0 0 1
34.538094 -17.474546 -20.977244 44.025952 -0.468396 2.067437 -0.028599 0.009121 158536.000000 0 0 1
-34.541103 -17.927146 -21.869844 44.640345 0.478739 2.082785 -0.032236 0.022054 420534.000000 0 0 1
-33.503080 -16.807446 -22.257444 43.592894 0.464982 2.106650 -0.027667 0.020863 117831.000000 0 0 1
-32.810620 -16.396946 -21.125744 42.328402 0.463444 2.093346 -0.017167 0.013350 -361149.000000 0 0 1
-32.033060 -15.256946 -21.435944 41.453480 0.444498 2.114265 -0.009519 0.003746 -362115.000000 0 0 1
-31.083700 -14.819946 -20.278344 39.962963 0.444896 2.102994 -0.006237 -0.002591 -472088.000000 0 0 1
-29.986580 -15.607046 -19.967744 39.261758 0.479887 2.104331 -0.007570 -0.006514 -461633.000000 0 0 1
-30.228550 -16.875646 -19.405844 39.688026 0.509169 2.081693 -0.019038 0.000643 -363307.000000 0 0 1
-29.095870 -17.917446 -19.621344 39.403066 0.551961 2.092047 -0.027653 -0.005942 108244.000000 0 0 1
-29.479750 -19.151346 -19.114544 40.014941 0.576125 2.068814 -0.028260 -0.003027 251113.000000 0 0 1
-28.524330 -20.177046 -19.345244 39.937314 0.615650 2.076462 -0.027598 -0.004457 -64420.400000 0 0 1
-29.041650 -21.550646 -18.888644 40.799861 0.638400 2.052126 -0.037210 0.019858 -254875.000000 0 0 1
-30.026580 -22.102346 -19.731844 42.183585 0.634541 2.057552 -0.050680 0.031009 -49827.500000 0 0 1
-30.287500 -23.408446 -19.434344 42.929963 0.657981 2.040586 -0.049216 0.045393 212036.000000 0 0 1
-31.208840 -24.022946 -20.564244 44.429514 0.656021 2.052005 -0.057025 0.040035 269188.000000 0 0 1
-30.606420 -24.174146 -21.812644 44.687064 0.668514 2.080731 -0.056100 0.037028 -27016.500000 0 0 1
-31.498090 -24.802846 -22.692444 46.067970 0.667035 2.085855 -0.043644 0.040234 -156681.000000 0 0 1
-30.944400 -24.730046 -24.127944 46.381987 0.674239 2.117882 -0.028294 0.039841 -48644.600000 0 0 1
-29.725710 -25.396856 -24.380244 46.076180 0.707028 2.128370 -0.035085 0.032965 -283441.000000 0 0 1
-29.650820 -26.060436 -25.634584 47.068560 0.721041 2.146735 -0.018573 0.032614 767921.000000 0 0 1
-28.156570 -26.253856 -26.071634 46.495026 0.750443 2.166076 -0.015417 0.028535 966159.000000 0 0 1
-27.476400 -25.053806 -26.352534 45.575232 0.739313 2.187342 -0.008221 0.019020 -87810.900000 0 0 1
-26.068240 -25.153896 -26.346394 44.792902 0.767550 2.199606 0.001878 0.019989 589527.000000 0 0 1
-25.323060 -23.783946 -26.726024 43.831653 0.754066 2.226532 0.020353 0.021394 16167.100000 0 0 1
-25.382620 -23.451246 -28.090454 44.534390 0.745869 2.253327 0.018726 0.007261 -111461.000000 0 0 1
-24.588830 -22.348246 -28.417804 43.722148 0.737698 2.278333 0.034946 -0.011533 -134402.000000 0 0 1
-24.524030 -22.055946 -29.921534 44.533032 0.732462 2.307561 0.018890 -0.004546 -198530.000000 0 0 1
-23.598630 -22.904246 -30.545724 44.883639 0.770467 2.319314 0.030120 -0.006769 21257.600000 0 0 1
-23.581730 -22.600346 -31.907434 45.661340 0.764151 2.344493 0.020835 -0.013195 -38540.600000 0 0 1
-22.877330 -23.757146 -32.683634 46.432684 0.804262 2.351660 0.024603 -0.015451 -62212.600000 0 0 1
-23.605830 -24.959946 -32.755164 47.467198 0.813273 2.332367 0.019494 -0.014864 -136831.000000 0 0 1
-23.136730 -25.898466 -33.711364 48.399327 0.841660 2.341340 0.015360 -0.005763 47943.900000 0 0 1
-19.352130 -14.514746 -12.069644 27.034405 0.643523 2.033596 -0.001418 0.022076 105164.000000 0 0 1
-19.594030 -14.059746 -10.755344 26.406058 0.622409 1.990299 -0.002360 0.021167 -179207.000000 0 0 1
-18.945130 -14.795246 -9.748544 25.939378 0.663018 1.956078 -0.011808 0.008071 -180112.000000 0 0 1
-19.193330 -14.412246 -8.245744 25.378909 0.644076 1.901708 -0.002108 -0.002971 -672652.000000 0 0 1
-20.454030 -14.679346 -7.702544 26.328306 0.622490 1.867697 0.019391 -0.007852 -291577.000000 0 0 1
-20.553030 -13.938346 -6.499644 25.670019 0.595921 1.826783 0.007896 -0.014761 102059.000000 0 0 1
-21.863430 -14.377546 -5.804744 26.803329 0.581704 1.789094 0.017330 -0.020577 -356986.000000 0 0 1
-21.894530 -15.757346 -5.397344 27.509920 0.623821 1.768274 0.015363 -0.019984 296028.000000 0 0 1
-21.128730 -16.114346 -4.246144 26.909573 0.651564 1.729252 0.013139 -0.020867 -252259.000000 0 0 1
-20.923630 -17.581146 -3.717344 27.581037 0.698808 1.705987 0.004623 -0.012384 -607053.000000 0 0 1
-22.071730 -18.174946 -3.227744 28.773395 0.688877 1.683211 0.005006 -0.017169 -488721.000000 0 0 1
-21.729930 -19.214546 -2.306044 29.098221 0.724041 1.650130 -0.004147 -0.007037 155587.000000 0 0 1
-22.827530 -20.275846 -2.048844 30.600716 0.726268 1.637801 -0.017846 -0.013941 24582.700000 0 0 1
-22.864130 -21.309046 -3.016444 31.399726 0.750208 1.667011 -0.024656 -0.009372 465749.000000 0 0 1
-23.999730 -22.180146 -2.910144 32.808762 0.746016 1.659613 -0.018462 -0.007668 495745.000000 0 0 1
-24.112930 -23.172346 -4.070044 33.689112 0.765509 1.691904 -0.019315 0.000681 -843522.000000 0 0 1
-22.972530 -23.945346 -4.110444 33.436693 0.806130 1.694040 -0.021141 0.001667 -888507.000000 0 0 1
-22.959030 -24.730946 -5.285644 34.156621 0.822536 1.726168 -0.014876 0.000954 1205210.000000 0 0 1
-21.478530 -24.686646 -5.865244 33.243929 0.854779 1.748155 -0.015857 0.002470 1275880.000000 0 0 1
-21.095630 -23.416746 -6.427944 32.166567 0.837496 1.771984 -0.021642 0.010790 199102.000000 0 0 1
-20.516530 -22.548746 -5.460144 30.970746 0.832552 1.748023 -0.028656 0.013343 -530651.000000 0 0 1
-20.403130 -21.095346 -5.954044 29.945817 0.802077 1.770957 -0.024883 0.019705 18576.000000 0 0 1
-19.359430 -20.741246 -6.846644 29.186698 0.819843 1.807584 -0.025950 0.020084 -380467.000000 0 0 1
-19.755930 -19.694946 -7.666544 28.930322 0.783852 1.839001 -0.023547 0.015139 -396485.000000 0 0 1
-18.728530 -19.121746 -8.620144 28.119493 0.795787 1.882367 -0.005285 0.013043 -693521.000000 0 0 1
-18.455230 -19.969646 -9.717944 28.875954 0.824790 1.914038 -0.007277 0.012352 537469.000000 0 0 1
-17.200930 -19.737446 -10.386644 28.165957 0.853959 1.948477 0.004887 0.012910 438397.000000 0 0 1
-16.856630 -18.344046 -10.998044 27.232461 0.827628 1.986526 0.012053 0.015252 -517124.000000 0 0 1
-16.585730 -17.311046 -10.073744 26.004597 0.806793 1.968588 0.002778 0.004198 144233.000000 0 0 1
-15.307930 -17.424746 -9.470244 25.052744 0.849978 1.958445 0.006438 0.000438 -280144.000000 0 0 1
-15.104530 -16.179546 -8.602244 23.747066 0.819748 1.941471 -0.008095 0.003019 -117173.000000 0 1 0
-15.875530 -16.332346 -7.450044 23.964163 0.799581 1.886918 -0.021286 0.009603 34742.500000 0 1 0
-16.028130 -15.124346 -6.686744 23.029532 0.756395 1.865394 -0.014836 0.005732 -551753.000000 0 1 0
-16.775630 -15.462446 -5.405244 23.446229 0.744687 1.803427 -0.004826 0.000462 -87516.100000 0 1 0
-17.250930 -14.323646 -4.674944 22.904509 0.692952 1.776347 -0.004484 0.006166 261602.000000 0 1 0
-17.644430 -14.711546 -3.396144 23.222603 0.695001 1.717566 0.003726 0.003898 -490955.000000 0 1 0
-18.367630 -13.700146 -2.551144 23.055849 0.640863 1.681674 0.000978 0.003583 -997589.000000 0 1 0
-19.633030 -13.417746 -3.037744 23.973311 0.599516 1.697851 0.005987 -0.007967 -554409.000000 0 1 0
-20.307930 -12.481946 -2.249044 23.943040 0.551110 1.664868 -0.000920 -0.004980 1175010.000000 0 1 0
-21.873330 -12.386046 -2.552344 25.266008 0.515243 1.671988 -0.004960 -0.007101 1465100.000000 0 0 1
-22.170430 -11.713246 -3.769944 25.356273 0.486052 1.720029 -0.005281 -0.016687 931946.000000 0 0 1
-23.586030 -11.706646 -4.015144 26.635836 0.460714 1.722115 -0.010460 -0.008292 781244.000000 0 0 1
-23.963330 -11.021146 -5.363144 26.915983 0.431070 1.771394 -0.003028 -0.012424 -95965.200000 0 0 1
-23.565530 -11.732046 -6.551944 27.127533 0.461924 1.814732 -0.000971 -0.018920 276393.000000 0 0 1
-24.058130 -11.052846 -7.709744 27.575336 0.430662 1.854162 0.010473 -0.016036 -390832.000000 0 0 1
-23.400430 -11.446246 -9.025344 27.569068 0.454927 1.904317 0.032541 -0.021849 -317669.000000 0 0 1
-22.107330 -10.902046 -9.077244 26.267565 0.458146 1.923641 0.017124 -0.013288 -425473.000000 0 0 1
-21.344430 -11.356646 -10.147144 26.220652 0.488970 1.968162 0.009406 -0.009752 -1026140.000000 0 0 1
-20.038430 -10.604246 -10.158744 24.843284 0.486730 1.992059 -0.002605 0.000190 -1027260.000000 0 1 0
-20.228530 -9.219846 -10.521144 24.594582 0.427654 2.012835 -0.000009 -0.007853 419394.000000 0 1 0
-19.245530 -8.441646 -9.874744 23.219870 0.413358 2.010058 -0.008366 0.001207 -137838.000000 0 1 0
-19.063530 -7.035846 -10.540344 22.891486 0.353565 2.049296 -0.023751 -0.003385 -52005.100000 0 1 0
-18.501830 -7.206146 -11.846344 23.121032 0.371407 2.108730 -0.013454 -0.001933 568202.000000 0 1 0
-18.568430 -6.030646 -12.589844 23.230571 0.314032 2.143554 -0.004251 -0.011638 -410174.000000 0 1 0
-17.918330 -6.190846 -13.950644 23.537493 0.332663 2.205202 0.001199 -0.002158 -201549.000000 0 1 0
-18.618630 -6.983846 -14.913344 24.856293 0.358858 2.214276 0.007605 -0.009287 481943.000000 0 1 0
-18.017430 -6.840846 -16.195344 25.173679 0.362867 2.269655 0.013946 -0.010502 29146.400000 0 0 1
-18.685330 -7.724246 -17.272944 26.592482 0.391992 2.277779 0.009701 -0.012758 -7517.430000 0 0 1
-19.984530 -7.421246 -17.744644 27.736775 0.355566 2.264971 0.017302 -0.012610 411819.000000 0 0 1
-20.384730 -8.324946 -18.777444 28.938457 0.387719 2.276901 0.024857 -0.014524 -93810.800000 0 0 1
-21.727230 -7.904646 -19.414144 30.190477 0.348927 2.269277 0.013484 -0.015480 -634819.000000 0 0 1
-21.719330 -6.628046 -20.091044 30.320130 0.296191 2.295122 0.014645 -0.017190 294997.000000 0 0 1
-22.854630 -6.299846 -20.887444 31.596004 0.268969 2.293052 0.001210 -0.014288 1207560.000000 0 0 1
-24.191430 -5.969346 -20.111344 32.020689 0.241922 2.249871 0.018417 -0.018683 357317.000000 0 0 1
-24.144630 -4.616146 -19.610844 31.446099 0.188908 2.244179 0.023351 -0.018267 -229392.000000 0 0 1
-25.178480 -4.399046 -18.709944 31.676007 0.172969 2.202680 0.030733 -0.012247 -754927.000000 0 0 1
-25.328650 -2.966246 -18.114344 31.280482 0.116579 2.188413 0.023325 -0.009746 -185422.000000 0 0 1
-25.680540 -1.874046 -18.967244 31.980596 0.072846 2.205683 0.034336 -0.009471 -276528.000000 0 0 1
-26.948280 -1.956346 -19.550344 33.350457 0.072469 2.197168 0.046183 -0.007404 -692074.000000 0 0 1
-27.131440 -0.798146 -20.558044 34.049746 0.029409 2.219012 0.047237 -0.006115 202372.000000 0 0 1
-26.448860 -0.884146 -21.809844 34.292757 0.033416 2.260087 0.038911 -0.007222 949991.000000 0 0 1
-27.264590 -1.698046 -22.732844 35.539040 0.062200 2.264850 0.040272 -0.003449 822324.000000 0 0 1
-26.799510 -1.693646 -24.277744 36.200704 0.063113 2.305871 0.027795 -0.003256 -492186.000000 0 0 1
-27.018920 -0.467946 -24.982344 36.801610 0.017317 2.316976 0.025631 0.001567 219738.000000 0 0 1
-26.434240 0.786154 -24.545144 36.081174 -0.029731 2.318935 0.034410 0.004402 13997.400000 0 0 1
-24.914730 0.837854 -24.322344 34.828468 -0.033616 2.343881 0.026458 0.003577 -485505.000000 0 0 1
-24.022730 0.807654 -25.399044 34.969347 -0.033608 2.383754 0.016497 0.012437 -46605.800000 0 0 1
-22.709930 0.885754 -24.878044 33.696328 -0.038983 2.401345 0.012128 0.008158 519011.000000 0 0 1
-21.556330 0.372554 -25.804684 33.625821 -0.017281 2.445583 0.005050 0.011063 223339.000000 0 0 1
-21.476030 1.105954 -26.984434 34.505110 -0.051452 2.468731 -0.005323 0.011546 339767.000000 0 0 1
-20.510330 0.521254 -27.873684 34.610512 -0.025409 2.507067 -0.011601 0.007055 264939.000000 0 0 1
-20.405830 1.187354 -29.324764 35.745621 -0.058121 2.532860 -0.018522 0.020144 -63806.400000 0 0 1
-19.800030 2.486354 -29.329864 35.474837 -0.124919 2.544154 -0.012888 0.018321 300512.000000 0 0 1
-19.809630 3.119554 -30.647034 36.625042 -0.156194 2.562169 -0.018045 0.014361 -371091.000000 0 0 1
-19.192730 2.449854 -31.890724 37.301219 -0.126958 2.596253 -0.017275 0.012390 -367299.000000 0 0 1
-17.789930 2.427354 -31.916144 36.619856 -0.135608 2.629157 -0.022230 0.013072 -70135.900000 0 0 1
-17.283030 1.816454 -33.171464 37.447945 -0.104716 2.659016 -0.016365 0.015972 288843.000000 0 0 1
-15.752830 1.714354 -33.206184 36.793223 -0.108402 2.696355 -0.011281 0.001818 -85800.600000 0 0 1
-15.061430 2.925354 -33.387764 36.744348 -0.191840 2.710837 -0.006089 0.007908 -73747.500000 0 0 1
-13.697430 2.835854 -33.021554 35.862022 -0.204151 2.740909 0.003417 0.002412 275694.000000 0 0 1
-12.878530 4.086254 -33.440844 36.067215 -0.307245 2.757613 0.009317 0.013451 -142936.000000 0 0 1
-12.761630 4.996554 -32.384014 35.164600 -0.373183 2.741248 0.028800 -0.000453 242612.000000 0 0 1
-12.309630 6.245654 -32.923164 35.699718 -0.469534 2.744592 0.020988 0.006002 -67921.700000 0 0 1
-12.001930 7.278854 -31.848314 34.804355 -0.545166 2.726470 0.033758 -0.002269 611723.000000 0 0 1
-10.858030 7.024054 -30.986504 33.576741 -0.574193 2.746228 0.048261 -0.010631 761523.000000 0 0 1
-10.958030 6.044054 -29.991644 32.497810 -0.504043 2.746295 0.045129 -0.007909 -83756.400000 0 0 1
-9.666530 5.253054 -29.599374 31.577829 -0.497783 2.785731 0.045195 -0.011492 -93194.500000 0 0 1
-9.109030 4.439654 -30.636914 32.269264 -0.453509 2.822163 0.031934 -0.008652 174402.000000 0 0 1
-9.824730 3.264554 -30.891264 32.579945 -0.320802 2.818217 0.035074 -0.007416 -582181.000000 0 0 1
-9.400730 2.506454 -32.150084 33.589938 -0.260562 2.847737 0.025048 -0.004450 77812.600000 0 0 1
-10.156230 1.310554 -32.465484 34.042241 -0.128330 2.836045 0.024945 -0.004086 274189.000000 0 0 1
-9.753730 0.631954 -33.603564 34.996201 -0.064701 2.858535 0.019770 -0.003699 -705339.000000 0 0 1
-10.137230 1.226254 34.144019 35.638198 -0.120380 0.290595 0.017314 -0.006014 735485.000000 0 0 1
-11.502830 0.969554 33.782482 35.700297 -0.084090 0.329265 0.007246 -0.001734 366605.000000 0 0 1
-11.589130 1.365054 32.437113 34.472273 -0.117247 0.345334 -0.005058 0.009282 550389.000000 0 0 1
-13.028930 1.241254 31.845793 34.430339 -0.094982 0.389934 -0.006141 0.005178 193171.000000 0 0 1
-13.909030 2.254254 32.259283 35.202331 -0.160674 0.411814 -0.015690 0.015690 -339887.000000 0 0 1
-15.072130 2.001454 31.492543 34.970776 -0.132019 0.449789 -0.025351 0.011902 -157468.000000 0 0 1
-16.038030 3.196454 31.392553 35.396724 -0.196727 0.480255 -0.010920 0.008687 -317174.000000 0 0 1
-16.599430 3.602454 32.572833 36.735653 -0.213709 0.480678 -0.012282 0.009687 -144685.000000 0 0 1
-16.037930 4.780454 33.045973 37.041926 -0.289687 0.468773 -0.004901 0.013981 -457464.000000 0 0 1
-16.733230 5.186054 34.326855 38.538670 -0.300538 0.471887 0.007748 0.014034 -891305.000000 0 0 1
-18.036230 5.553954 34.059611 38.938530 -0.298719 0.505976 0.004255 0.014630 -1243380.000000 0 0 1
-18.830130 5.423854 -33.937084 39.188233 -0.280450 2.617947 -0.010518 0.017500 -62214.700000 0 0 1
-20.194330 6.116554 -34.089152 40.091064 -0.294101 2.587338 -0.021186 0.014239 -449588.000000 0 0 1
-20.275930 7.530554 -33.891464 40.205147 -0.355614 2.573564 -0.018963 0.009760 187331.000000 0 0 1
-19.706030 8.354054 34.254659 40.391825 -0.400967 0.558484 -0.010155 0.005246 -183050.000000 0 0 1
-19.651330 9.841654 -34.561028 40.957265 -0.464298 2.575180 -0.004501 0.011256 -290213.000000 0 0 1
-18.802930 10.068054 -33.437394 39.660751 -0.491605 2.573791 0.002361 0.013308 280897.000000 0 0 1
-18.545630 11.416854 -33.094584 39.617375 -0.551818 2.559575 -0.002763 0.005228 12410.900000 0 0 1
-17.823430 12.374854 -34.083834 40.404447 -0.606892 2.574686 -0.011387 -0.003216 -703499.000000 0 0 1
-18.492730 12.425854 33.860322 40.532756 -0.591639 0.581970 -0.000889 -0.001882 -662091.000000 0 0 1
-17.739230 12.622854 32.702443 39.286976 -0.618455 0.587374 -0.007541 0.002550 -266616.000000 0 0 1
-18.441230 12.028654 31.430533 38.375068 -0.577969 0.611069 0.015618 -0.004790 -86064.500000 0 0 1
-18.394730 10.581354 31.430193 37.923451 -0.522013 0.593873 0.019620 -0.003565 416030.000000 0 0 1
-17.179630 9.951454 31.018913 36.828577 -0.525029 0.569351 0.008500 -0.008264 452822.000000 0 0 1
-17.243130 8.436254 31.245503 36.671206 -0.455013 0.550918 0.010824 0.002389 188048.000000 0 0 1
-18.007830 7.731354 30.238273 36.033442 -0.405535 0.575036 0.028892 -0.005764 595867.000000 0 0 1
-18.503430 6.435854 30.576663 36.314315 -0.334731 0.569816 0.021935 -0.008035 -70185.700000 0 0 1
-19.082230 5.645554 29.399503 35.501191 -0.287649 0.595038 0.025671 -0.012080 1003470.000000 0 0 1
-20.420530 6.033354 28.990953 35.970471 -0.287282 0.633492 0.050204 -0.021244 902443.000000 0 0 1
-20.842030 5.090954 27.993373 35.269490 -0.239573 0.653930 0.034009 -0.017298 804470.000000 0 0 1
-22.392130 5.166854 27.723793 36.009895 -0.226775 0.692122 0.020773 -0.013359 853882.000000 0 0 1
-22.847330 6.253754 26.963393 35.890590 -0.267175 0.720818 0.016463 -0.015116 534888.000000 0 0 1
-24.271730 6.264054 26.949973 36.805656 -0.252569 0.749215 0.014430 -0.014886 316841.000000 0 0 1
-24.959930 7.068654 25.816223 36.598379 -0.275974 0.787820 0.014495 -0.012600 -114700.000000 0 0 1
-24.912330 6.469954 24.493593 35.530558 -0.254095 0.810182 0.001373 -0.010837 128543.000000 0 0 1
-25.849460 5.450254 24.300343 35.894380 -0.207802 0.827123 -0.003203 -0.000853 -599360.000000 0 0 1
-25.852240 4.893454 22.872133 34.862855 -0.187072 0.855210 -0.004475 0.010092 1985.180000 0 0 1
-26.375870 5.748154 21.872533 34.743855 -0.214577 0.889840 -0.008743 0.010004 -8149.210000 0 0 1
-26.502220 4.978354 20.616133 33.943727 -0.185683 0.918060 0.011224 0.015334 -399083.000000 0 0 1
-27.311430 5.737754 19.585533 34.094415 -0.207075 0.958864 0.013186 0.006564 -264894.000000 0 0 1
-28.680350 5.633854 19.897233 35.358205 -0.193966 0.973108 0.025565 0.005487 161888.000000 0 0 1
-29.543890 6.336454 18.978733 35.681709 -0.211275 1.009966 0.040441 0.012716 766056.000000 0 0 1
-30.996330 6.567754 19.477633 37.192554 -0.208800 1.019611 0.028418 0.015187 321282.000000 0 0 1
-31.159990 7.658554 20.384033 38.014566 -0.241005 1.004848 0.025723 -0.013825 1020870.000000 0 0 1
-32.549440 7.798454 20.740533 39.375775 -0.235155 1.016043 0.015944 -0.012870 788044.000000 0 0 1
-32.825680 8.865554 21.830033 40.406356 -0.263786 1.000047 0.027360 -0.002362 -221685.000000 0 0 1
-32.213100 8.596654 23.045633 40.530081 -0.260791 0.965986 0.014235 0.005536 60982.300000 0 0 1
-32.921180 9.277254 24.037533 41.805197 -0.274679 0.958205 0.021971 0.014552 -283388.000000 0 0 1
-0.332230 33.192554 12.047556 35.312882 -1.560787 1.222639 -0.007832 0.005367 -705465.000000 0 0 1
-0.313930 33.100454 13.493956 35.746685 -1.561312 1.183714 -0.021191 0.007524 146854.000000 0 0 1
-0.239230 34.384254 14.076256 37.154746 -1.563839 1.182238 -0.029368 0.015762 -263125.000000 0 0 1
-0.100530 34.330254 15.643756 37.726695 -1.567868 1.143227 -0.038363 0.012379 -650924.000000 0 0 1
-1.264330 34.422054 16.382256 38.142557 -1.534083 1.126856 -0.031070 0.006125 -594068.000000 0 0 1
-0.935730 34.437954 17.784256 38.770195 -1.543632 1.094254 -0.032443 0.004930 -61637.500000 0 0 1
-2.241530 34.660854 18.532056 39.367961 -1.506216 1.080667 -0.032090 0.008415 -803486.000000 0 0 1
-3.142830 33.610054 18.388956 38.440432 -1.477559 1.071993 -0.038393 0.010530 -201596.000000 0 0 1
-4.125930 33.771554 19.424056 39.176972 -1.449227 1.052037 -0.025882 0.008285 -345940.000000 0 0 1
-5.305330 32.831554 19.353256 38.478643 -1.410589 1.043775 -0.021282 0.007962 62866.800000 0 0 1
-6.280230 33.284554 18.373656 38.534323 -1.384306 1.073771 -0.013892 0.003320 1046010.000000 0 0 1
-7.511930 32.573454 18.501856 38.207037 -1.344144 1.065288 0.000095 0.003728 395197.000000 0 0 1
-8.483430 32.849754 17.312856 38.089499 -1.318069 1.098951 0.014220 -0.002523 213062.000000 0 0 1
-9.168930 34.114054 17.467056 39.407309 -1.308229 1.111582 0.028074 -0.003319 229583.000000 0 0 1
-9.969530 34.462254 16.346356 39.423874 -1.289195 1.143259 0.029586 -0.008669 60782.200000 0 0 1
-11.177830 -33.972284 16.693256 39.468022 1.252926 1.134091 0.042130 -0.007303 -25116.100000 0 0 1
-12.171830 -34.652384 17.461256 40.667390 1.233004 1.127004 0.044319 -0.002942 -197941.000000 0 0 1
-13.229530 -33.740284 17.575956 40.278300 1.197120 1.119244 0.038018 0.002710 -526056.000000 0 0 1
-14.346330 -34.190384 18.494356 41.434777 1.173507 1.108116 0.034966 0.004473 -232593.000000 0 0 1
-13.977830 -33.965284 19.844156 41.746985 1.180388 1.075442 0.036108 0.000689 42704.000000 0 0 1
-14.990030 -34.350784 20.737156 42.833480 1.159325 1.065423 0.030269 0.003860 -199183.000000 0 0 1
-14.795330 -33.781584 22.109156 42.998976 1.157991 1.030747 0.032976 -0.006442 -93230.900000 0 0 1
-15.332730 -32.472984 22.311456 42.277516 1.129661 1.014861 0.029835 0.001185 7095.140000 0 0 1
-15.226530 -31.960784 23.608956 42.552576 1.126196 0.982652 0.030157 -0.007515 87873.400000 0 0 1
-15.324430 -30.390984 23.609356 41.422841 1.103760 0.964339 0.028847 -0.012331 102528.000000 0 0 1
-14.988630 -29.858284 24.914456 41.676207 1.105556 0.930030 0.041286 -0.020772 -242675.000000 0 0 1
-14.821330 -28.420984 24.889056 40.581883 1.090103 0.910559 0.029510 -0.012545 -234553.000000 0 0 1
-16.060030 -27.553384 24.582956 40.267049 1.043068 0.914107 0.034216 -0.005012 -339776.000000 0 0 1
-17.101830 -27.766884 25.488856 41.390267 1.018762 0.907373 0.042231 -0.007471 -478997.000000 0 0 1
-18.095330 -26.779184 25.304056 41.047057 0.976550 0.906552 0.028528 -0.000738 -339534.000000 0 0 1
-19.184230 -26.928184 26.440856 42.335336 0.951782 0.896231 0.015245 0.003330 9971.320000 0 0 1
-19.867930 -28.159284 26.534456 43.494336 0.956352 0.914651 0.010734 0.003489 138699.000000 0 0 1
-20.646430 -28.619984 25.455856 43.512977 0.945852 0.945895 0.005846 -0.000156 -370758.000000 0 0 1
-22.037530 -27.974184 25.265156 43.663896 0.903551 0.953751 0.013432 0.005993 -325216.000000 0 0 1
-21.981930 -26.623584 24.837756 42.531572 0.880606 0.947168 0.017396 0.003672 537667.000000 0 0 1
-23.149830 -26.348484 24.060056 42.532852 0.849930 0.969537 0.017641 0.006528 259270.000000 0 0 1
-23.363530 -24.846084 23.700656 41.531958 0.816141 0.963486 0.019336 0.019157 -40416.500000 0 0 1
-23.719130 -24.061484 24.823656 41.925720 0.792563 0.937151 0.013388 0.019507 463055.000000 0 0 1
-24.426430 -22.845684 24.494556 41.455507 0.751971 0.938667 0.007675 0.020761 540486.000000 0 0 1
-24.914430 -21.993584 25.724456 42.026113 0.723211 0.912075 0.012491 0.022997 -91225.400000 0 0 1
-25.861300 -22.634384 26.519756 43.409902 0.718956 0.913581 -0.004752 0.022617 -125694.000000 0 0 1
-26.283530 -21.835584 27.602256 43.926088 0.693224 0.891328 -0.001184 0.020975 -115247.000000 0 0 1
-27.564300 -22.306284 28.415756 45.440248 0.680353 0.895225 0.000979 0.018073 2523480.000000 0 0 1
-28.896900 -21.962584 27.907056 45.784164 0.649891 0.915322 0.006742 0.019316 1681910.000000 0 0 1
-29.210550 -22.319484 26.619756 45.387520 0.652458 0.944066 -0.002410 0.019426 618416.000000 0 0 1
-30.750420 -22.716784 26.395756 46.458331 0.636260 0.966528 -0.010470 0.026688 1643100.000000 0 0 1
-31.095240 -23.249184 25.128556 46.248058 0.642012 0.996382 -0.025242 0.017463 78795.300000 0 0 1
-30.849830 -24.656284 24.963156 46.720483 0.674275 1.007107 -0.025353 0.019849 -307387.000000 0 0 1
-31.299620 -25.349384 23.615756 46.690057 0.680745 1.040489 -0.035630 0.027886 590073.000000 0 0 1
-32.673160 -25.714284 23.508656 47.764178 0.666773 1.056202 -0.032922 0.026165 217863.000000 0 0 1
-32.832920 -26.442584 22.267056 47.676332 0.678006 1.084849 -0.025554 0.029658 596974.000000 0 0 1
-34.142838 -27.291184 22.162856 49.007492 0.674329 1.101528 -0.007596 0.012298 74051.300000 0 0 1
-34.357910 -28.404984 23.018856 50.171474 0.690833 1.094148 -0.006083 0.010939 508030.000000 0 0 1
-33.437780 -29.522284 22.845156 50.115382 0.723288 1.097468 -0.023272 0.016794 63493.400000 0 0 1
-33.621240 -30.483484 21.587356 50.255791 0.736490 1.126802 -0.011945 0.009060 -171670.000000 0 0 1
-33.453840 -29.876884 20.345856 49.251817 0.728978 1.144942 -0.022223 0.011623 296443.000000 0 0 1
-33.801510 -30.848484 19.425456 49.714378 0.739753 1.169360 -0.018724 0.015031 -393818.000000 0 0 1
-34.017480 -30.412684 17.957956 49.036807 0.729508 1.195859 -0.022602 0.019765 -237925.000000 0 0 1
-32.866540 -30.103084 17.173856 47.763442 0.741541 1.202999 -0.014241 0.012282 49608.900000 0 0 1
-33.056830 -29.527384 15.947856 47.105780 0.729063 1.225416 -0.016447 0.013611 -468582.000000 0 0 1
-33.892830 -30.268084 14.897556 47.820686 0.728964 1.253994 -0.008478 0.025458 -70044.900000 0 0 1
-33.346430 -31.491584 14.381956 48.068128 0.756799 1.266943 0.007241 0.013092 -109163.000000 0 0 1
-34.184551 -32.185184 13.480756 48.848750 0.755283 1.291198 0.009476 0.012021 61079.600000 0 0 1
-34.529627 -31.659984 12.083956 48.380489 0.742070 1.318354 0.015533 0.010136 272534.000000 0 0 1
34.640820 -30.570284 12.128856 47.766492 -0.723058 1.314066 0.025484 0.011868 157457.000000 0 0 1
34.939516 -29.734684 10.996156 47.178773 -0.705094 1.335559 0.012741 0.017669 298958.000000 0 0 1
33.826605 -28.694884 10.624256 45.612612 -0.703502 1.335713 0.033983 0.017192 160605.000000 0 0 1
33.913965 -27.971984 9.397756 44.954496 -0.689677 1.360192 0.041503 -0.024609 -297506.000000 0 0 1
32.887965 -27.025384 9.294356 43.570341 -0.687858 1.355826 0.031228 -0.020330 -296898.000000 0 0 1
32.828065 -25.991784 8.138056 42.655394 -0.669693 1.378833 0.036136 -0.017233 65223.500000 0 0 1
33.792705 -24.990284 8.386256 42.857794 -0.636758 1.373849 0.053706 -0.027075 98152.300000 0 0 1
34.053967 -24.236584 7.189856 42.412011 -0.618543 1.400450 0.060071 -0.029693 -139700.000000 0 0 1
34.648648 -22.889884 7.593756 42.215408 -0.583811 1.389931 0.076034 -0.033643 -301075.000000 0 0 1
33.767505 -21.981284 8.201856 41.118021 -0.577050 1.369978 0.072770 -0.030769 -231933.000000 0 0 1
34.414177 -20.701084 8.254856 41.000160 -0.541542 1.368073 0.078534 -0.022485 1021950.000000 0 0 1
33.456075 -19.658384 8.993856 39.832781 -0.531243 1.343042 0.080799 -0.012914 755419.000000 0 0 1
33.652575 -19.730784 10.407556 40.374706 -0.530291 1.310079 0.079691 -0.028992 -142171.000000 0 0 1
32.736405 -18.993184 11.188756 39.466460 -0.525723 1.283354 0.067466 -0.009212 -32853.600000 0 0 1
33.040055 -19.033184 12.711756 40.193234 -0.522633 1.249005 0.059171 -0.024509 775698.000000 0 0 1
34.232920 -18.286784 13.036556 40.942045 -0.490622 1.246739 0.027279 -0.006535 905642.000000 0 0 1
34.711488 -18.647984 14.339256 41.931479 -0.492985 1.221785 0.032185 -0.008269 301377.000000 0 0 1
-34.078180 -17.924784 14.817156 41.257343 0.484223 1.203450 0.038214 -0.014884 1284070.000000 0 0 1
-32.853640 -18.257184 14.129156 40.153698 0.507219 1.211221 0.031520 -0.012695 1090120.000000 0 0 1
-31.700740 -17.704884 14.751756 39.192016 0.509346 1.184892 0.012543 -0.009764 580697.000000 0 0 1
-30.368590 -17.880484 13.977656 37.912238 0.532130 1.193203 0.012044 -0.008916 184908.000000 0 0 1
-29.819430 -19.188084 14.005956 38.125421 0.571775 1.194622 -0.006558 0.000469 138384.000000 0 0 1
-28.672700 -19.216484 13.172556 36.944732 0.590446 1.206226 -0.047739 0.020159 58994.100000 0 0 1
-28.049780 -20.581084 13.033556 37.151645 0.633009 1.212349 -0.063201 0.011938 25274.500000 0 0 1
-28.717350 -21.265084 12.022256 37.701785 0.637391 1.246251 -0.047932 0.013236 161297.000000 0 0 1
-27.711060 -21.947584 11.269856 37.102681 0.669853 1.262173 -0.056065 0.022549 -426862.000000 0 0 1
-28.219700 -22.531684 9.980056 37.465047 0.673788 1.301158 -0.027449 0.009688 218572.000000 0 0 1
-29.085440 -23.633984 10.096956 38.813355 0.682359 1.307628 -0.018479 -0.003730 959461.000000 0 0 1
-30.383320 -23.409384 10.703456 39.820966 0.656473 1.298660 0.001933 -0.013336 -89961.500000 0 0 1
-31.161640 -24.677484 10.934856 41.226170 0.669794 1.302343 0.034422 -0.014131 -543733.000000 0 0 1
-31.447270 -25.347084 9.696456 41.538256 0.678400 1.335188 0.048889 -0.005964 123190.000000 0 0 1
-32.085940 -26.613484 9.854256 42.835633 0.692438 1.338669 0.051922 -0.002629 223725.000000 0 0 1
-32.399030 -27.305984 8.470656 43.209558 0.700301 1.373482 0.058864 -0.009453 507870.000000 0 0 1
-31.233110 -27.863584 7.865556 42.588184 0.728443 1.385041 0.044542 -0.008021 170678.000000 0 0 1
-31.447860 -28.742184 6.735056 43.132841 0.740476 1.414008 0.038411 -0.007713 -149248.000000 0 0 1
-30.117910 -29.053984 6.032056 42.280115 0.767420 1.427639 0.040973 -0.005765 24954.700000 0 0 1
-29.541930 -27.931684 5.391856 41.011909 0.757388 1.438944 0.042933 0.001042 -581882.000000 0 0 1
-28.394270 -28.260984 4.668956 40.332579 0.783046 1.454775 0.035534 -0.005096 -294482.000000 0 0 1
-27.740570 -26.949484 4.129656 38.895603 0.770934 1.464423 0.024675 -0.001722 -9115.960000 0 0 1
-28.319020 -26.470984 2.943056 38.875975 0.751682 1.495020 0.032386 -0.001074 -257367.000000 0 0 1
-27.565780 -25.430884 2.399756 37.581390 0.745136 1.506898 0.020134 -0.003713 -270355.000000 0 0 1
-28.046900 -24.945484 1.014356 37.549097 0.726939 1.543779 0.025922 -0.006907 -171178.000000 0 0 1
-27.554500 -25.780484 -0.025544 37.734393 0.752149 1.571473 0.022382 -0.008854 -12645.300000 0 0 1
-27.569800 -25.231684 -1.357244 37.397511 0.741146 1.607097 0.019933 -0.011709 632796.000000 0 0 1
-29.014190 -24.956184 -1.895444 38.317451 0.710350 1.620283 0.037874 -0.008663 1032410.000000 0 0 1
-29.723570 -23.753384 -1.489744 38.077988 0.674218 1.609930 0.038250 -0.009396 -155031.000000 0 0 1
-31.054300 -23.806784 -1.921044 39.176816 0.654052 1.619851 0.042107 -0.018615 -130814.000000 0 0 1
-31.889660 -22.481784 -1.749244 39.056892 0.614065 1.615598 0.033822 -0.017838 204221.000000 0 0 1
-31.930070 -22.007984 -0.448344 38.782492 0.603479 1.582357 0.039931 -0.015979 -138673.000000 0 0 1
-32.681650 -20.857884 -0.312544 38.771629 0.568045 1.578858 0.039174 -0.012694 -476934.000000 0 0 1
-32.854800 -20.486584 1.134956 38.735334 0.557555 1.541492 0.041678 -0.015703 -507914.000000 0 0 1
-33.536540 -21.479984 1.824756 39.867517 0.569664 1.525010 0.050279 -0.022061 -115937.000000 0 0 1
-33.762200 -20.906384 3.116956 39.833132 0.554435 1.492466 0.050464 -0.024846 -705286.000000 0 0 1
-34.860391 -21.728184 3.850756 41.257595 0.557370 1.477326 0.076538 -0.014789 494192.000000 0 0 1
33.917725 -21.673084 3.330656 40.388462 -0.568596 1.488237 0.048493 -0.015718 -105295.000000 0 0 1
33.222035 -20.445384 3.483656 39.164438 -0.551678 1.481729 0.047267 -0.023888 -639522.000000 0 0 1
31.962685 -20.369584 2.590756 37.990067 -0.567390 1.502548 0.028040 -0.007980 217974.000000 0 0 1
30.913205 -21.176984 3.071256 37.596855 -0.600619 1.489016 0.022388 0.002010 -801114.000000 0 0 1
29.655765 -20.723184 2.665056 36.276952 -0.609914 1.497266 -0.002613 -0.000167 871416.000000 0 0 1
28.487865 -21.735384 3.117156 35.968069 -0.651750 1.484023 -0.027152 0.024886 890322.000000 0 0 1
28.712065 -22.945084 2.415656 36.833340 -0.674219 1.505166 -0.033242 0.022235 572671.000000 0 0 1
27.551365 -23.784984 2.544556 36.486681 -0.712163 1.501000 -0.047308 0.034979 412629.000000 0 0 1
27.328825 -24.951084 1.531556 37.037372 -0.739949 1.529433 -0.044169 0.035495 -36800.800000 0 0 1
26.786925 -24.493384 0.288956 36.298053 -0.740702 1.562836 -0.047026 0.027132 163096.000000 0 0 1
26.089255 -25.554784 -0.333344 36.521327 -0.775049 1.579924 -0.033499 0.019125 -217491.000000 0 0 1
25.277525 -25.063784 -1.585044 35.632273 -0.781152 1.615294 -0.028486 0.005925 -16209.600000 0 0 1
25.914495 -24.802384 -2.838444 35.982997 -0.763474 1.649761 -0.025730 -0.006545 52647.800000 0 0 1
26.345515 -25.861784 -3.657444 37.098449 -0.776133 1.669544 -0.015596 -0.013860 68190.000000 0 0 1
25.312695 -26.205284 -4.810144 36.750332 -0.802722 1.702060 -0.004947 -0.023845 394436.000000 0 0 1
25.058065 -25.342184 -5.919444 36.127174 -0.791035 1.735389 0.003734 -0.035955 297745.000000 0 0 1
24.109365 -24.412384 -5.419344 34.736080 -0.791643 1.727451 0.008792 -0.030740 -642255.000000 0 0 1
23.736165 -23.318584 -6.404544 33.884805 -0.776524 1.760949 0.021145 -0.036609 -205613.000000 0 0 1
23.054065 -23.944084 -7.490744 34.072280 -0.804333 1.792456 0.026604 -0.034694 486948.000000 0 0 1
21.888765 -23.291684 -7.981644 32.944304 -0.816440 1.815508 0.018008 -0.035561 195822.000000 0 0 1
22.082865 -21.934684 -8.769444 32.337075 -0.782032 1.845424 0.017650 -0.036455 -452689.000000 0 0 1
22.594365 -22.035884 -10.099344 33.137324 -0.772885 1.880496 0.022948 -0.037744 395179.000000 0 0 1
22.314865 -20.736884 -10.755244 32.305523 -0.748761 1.910198 0.023306 -0.031152 -91899.000000 0 0 1
22.936565 -20.632984 -12.153344 33.158857 -0.732576 1.946061 0.019010 -0.019668 580178.000000 0 0 1
24.355565 -20.431784 -12.179244 34.043873 -0.698012 1.936655 0.023486 -0.018046 571369.000000 0 0 1
24.722865 -20.136184 -13.460644 34.610329 -0.683506 1.970255 0.019786 -0.010141 256829.000000 0 0 1
26.255225 -20.265584 -13.724844 35.894318 -0.657351 1.963154 0.019667 -0.026930 531137.000000 0 0 1
26.716165 -21.596884 -13.885244 37.053729 -0.679831 1.954905 0.007626 -0.016284 -27475.000000 0 0 1
27.452115 -21.984584 -12.744544 37.408073 -0.675249 1.918447 0.017310 -0.037077 -249179.000000 0 0 1
27.765585 -23.509384 -12.731244 38.544823 -0.702581 1.907415 0.009696 -0.008044 -16.175300 0 0 1
28.672545 -23.789584 -13.786444 39.725623 -0.692590 1.925211 0.017123 -0.022184 194131.000000 0 0 1
28.781375 -25.202684 -13.781644 40.662962 -0.719203 1.916569 0.006990 -0.002027 -31427.400000 0 0 1
-4.195230 -9.261946 -27.674364 29.483114 1.145489 2.789495 0.017695 0.000949 65461.400000 0 0 1
-3.997330 -7.927446 -27.316274 28.722845 1.103763 2.827346 0.002043 0.010133 359367.000000 0 0 1
-5.055930 -7.100846 -27.805554 29.139891 0.952050 2.837801 -0.015121 0.007355 250958.000000 0 0 1
-5.021330 -5.704946 -27.160814 28.204077 0.849045 2.868755 -0.016474 0.005196 21099.600000 0 0 1
-5.608530 -5.742746 -25.878864 27.095208 0.797222 2.840822 -0.011734 0.001702 327909.000000 0 0 1
-5.339830 -4.497946 -25.238044 26.185953 0.700030 2.871705 0.002806 0.002833 135903.000000 0 0 1
-5.864530 -4.447746 -23.785444 24.898242 0.648865 2.841490 0.000275 -0.001866 42904.400000 0 1 0
-5.121630 -5.303146 -22.919644 24.076223 0.802808 2.830376 0.002242 -0.008535 534984.000000 0 1 0
-5.518930 -5.041946 -21.578144 22.836289 0.740264 2.808103 0.005257 -0.005535 -231928.000000 0 1 0
-4.937630 -6.034846 -20.594144 22.020861 0.885064 2.779650 0.010129 -0.009748 -430745.000000 0 1 0
-5.507630 -7.283846 -20.892244 22.800751 0.923375 2.729529 0.008318 -0.002361 1185850.000000 0 1 0
-4.622830 -8.306546 -20.349144 22.460118 1.062955 2.704562 0.010810 -0.002323 -37477.800000 0 1 0
-5.315330 -9.717646 -20.436644 23.245253 1.070277 2.644924 0.017922 0.005281 914486.000000 0 1 0
-6.405830 -10.039246 -19.570344 22.908939 1.002847 2.594935 0.027493 0.008709 516233.000000 0 1 0
-7.523030 -9.179846 -19.581044 22.897223 0.884268 2.596677 0.011307 0.000504 -637424.000000 0 1 0
-8.533830 -9.572046 -18.461644 22.478492 0.842677 2.534487 0.006440 0.008936 -122253.000000 0 1 0
-9.193130 -10.789246 -18.578344 23.368276 0.865105 2.489844 0.025970 0.012550 -41675.700000 0 1 0
-9.868630 -11.153146 -17.357944 22.870958 0.846426 2.432497 0.018964 0.008078 -25243.200000 0 1 0
-10.798030 -12.344546 -17.610744 24.064986 0.852125 2.391755 0.014285 0.016226 292150.000000 0 1 0
-11.993730 -12.183446 -18.369644 25.094416 0.793245 2.392080 0.018042 0.011400 442105.000000 0 0 1
-11.730830 -12.038846 -19.750844 25.935343 0.798356 2.436485 0.011524 0.010498 -775642.000000 0 0 1
-13.031530 -11.807546 -20.580044 27.069856 0.736161 2.434505 0.002999 0.008443 490516.000000 0 0 1
-13.863630 -12.924946 -20.798144 28.139247 0.750372 2.402552 -0.005910 0.016353 118703.000000 0 0 1
-14.574430 -13.366646 -19.618244 27.856000 0.742199 2.352196 -0.005129 0.016072 -604795.000000 0 0 1
-15.728530 -14.324246 -19.977044 29.183093 0.738705 2.324771 -0.002055 0.019952 -152497.000000 0 0 1
-15.332430 -15.666446 -20.094144 29.737107 0.796173 2.312746 -0.000443 0.019399 233001.000000 0 0 1
-16.067830 -16.273246 -21.174444 31.166500 0.791750 2.317738 -0.005542 0.008307 232628.000000 0 0 1
-15.421830 -17.649246 -21.471544 31.786096 0.852649 2.312440 -0.007146 0.000184 -160296.000000 0 0 1
-15.724530 -18.686146 -20.602544 31.951490 0.871253 2.271567 0.010149 0.008329 -57347.100000 0 0 1
-15.193530 -19.938446 -20.989044 32.694417 0.919646 2.267870 0.003402 0.000229 -208640.000000 0 0 1
-15.932530 -21.136446 -20.319144 33.368585 0.924871 2.225508 0.017042 -0.007175 -215675.000000 0 0 1
-15.506930 -22.367346 -20.771044 34.237396 0.964592 2.222670 0.023146 -0.005526 -68966.300000 0 0 1
-16.288730 -23.434246 -20.287544 35.015297 0.963378 2.188777 0.042331 0.001041 -77476.300000 0 0 1
-15.606930 -24.812346 -20.508344 35.774585 1.009327 2.181282 0.044646 0.006719 -74172.000000 0 0 1
-15.644330 -25.192416 -21.857944 36.839823 1.015083 2.205978 0.041527 0.004279 439789.000000 0 0 1
-15.037730 -26.510026 -22.097344 37.645815 1.054808 2.198120 0.041067 0.009780 67895.900000 0 0 1
-15.047330 -26.801946 -23.613344 38.760243 1.059223 2.225867 0.048187 0.010237 -591713.000000 0 0 1
-16.196630 -27.409196 -24.100544 39.930327 1.037080 2.218761 0.062065 0.012003 -628222.000000 0 0 1
-16.079830 -28.801546 -24.086144 40.844000 1.061605 2.201497 0.062827 0.020602 237756.000000 0 0 1
-17.120430 -29.622366 -24.933344 42.335155 1.046743 2.200557 0.065356 0.014791 304570.000000 0 0 1
-16.935930 -29.459146 -26.371404 43.012997 1.049041 2.230779 0.064544 0.015872 -55246.500000 0 0 1
-17.339030 -28.201276 -26.886414 42.647780 1.019543 2.252903 0.094061 0.007226 -317783.000000 0 0 1
-16.359130 -27.521406 -27.836314 42.425338 1.034494 2.286468 0.077042 -0.005435 -344593.000000 0 0 1
-16.260230 -28.146086 -29.095104 43.624790 1.046929 2.300890 0.076239 0.005903 -578729.000000 0 0 1
-15.214930 -27.660586 -29.867434 43.458782 1.067909 2.328505 0.047607 0.007497 -487849.000000 0 0 1
-15.243830 -28.136276 -31.305164 44.766479 1.074282 2.345213 0.050825 0.005436 -12021.900000 0 0 1
-14.963830 -29.468756 -31.430334 45.609096 1.100939 2.331076 0.034500 0.005672 132815.000000 0 0 1
-15.536230 -29.941336 -32.632654 46.933444 1.092152 2.339629 0.030910 0.012182 51039.100000 0 0 1
-15.594230 -31.465576 -32.938564 48.147808 1.110678 2.324184 0.022900 0.011829 174693.000000 0 0 1
-14.523630 -31.919466 -33.764624 48.680981 1.143785 2.337257 0.014840 0.012183 358215.000000 0 0 1
-14.963830 -32.961036 34.510820 50.013426 1.144633 0.809264 -0.000539 0.021113 751914.000000 0 0 1
-13.847630 -33.393996 33.479184 49.272422 1.177704 0.823755 0.007518 0.007838 1017530.000000 0 0 1
-12.771830 -34.157599 34.010098 49.865299 1.212983 0.820249 0.009937 0.021838 -205967.000000 0 0 1
-11.955230 34.581297 33.038363 49.298348 -1.237945 0.836356 0.015397 0.015406 -429597.000000 0 0 1
-10.996430 33.644226 33.797043 48.939713 -1.254897 0.808498 0.028479 0.008182 165028.000000 0 0 1
-10.060430 34.346672 -34.536074 49.735767 -1.285858 2.338370 0.023736 0.004156 401085.000000 0 0 1
-9.377730 33.610683 -33.506994 48.377045 -1.298706 2.335914 0.015238 0.001768 491610.000000 0 0 1
-8.580530 34.458566 -32.443114 48.099625 -1.326750 2.311081 0.008417 0.003804 137792.000000 0 0 1
-9.399530 -34.135234 -31.571724 47.437739 1.302094 2.299014 -0.004169 0.011869 -240445.000000 0 0 1
-8.721530 -33.124706 -30.800974 46.065293 1.313346 2.303171 -0.009024 0.012735 -243599.000000 0 0 1
-9.599930 -32.305746 -29.817044 44.998622 1.281948 2.295110 -0.007132 0.017822 -42924.700000 0 0 1
-9.713330 -32.722326 -28.460554 44.442125 1.282240 2.265810 -0.001865 0.028860 -353750.000000 0 0 1
-10.274330 -34.002766 -28.263394 45.393495 1.277358 2.242897 0.013375 0.018090 -374179.000000 0 0 1
-10.662830 -34.311071 -26.818074 44.834748 1.269489 2.211992 0.019739 0.012440 598665.000000 0 0 1
-9.565630 -34.408911 -25.890124 44.110916 1.299644 2.198061 0.012031 0.017644 235453.000000 0 0 1
-10.049830 34.394631 -24.650044 43.492694 -1.286518 2.173368 0.022190 0.012516 -55405.900000 0 0 1
-9.093230 34.187171 -23.463944 42.450043 -1.310832 2.156448 0.027557 0.019794 257908.000000 0 0 1
-8.079630 33.201621 -23.695444 41.582474 -1.332086 2.177110 0.017697 0.008776 623510.000000 0 0 1
-7.325930 32.911611 -22.498844 40.534447 -1.351773 2.159225 0.029363 0.011571 445125.000000 0 0 1
-6.359530 31.682931 -22.580144 39.422261 -1.372705 2.180685 0.020549 0.000110 533632.000000 0 0 1
-5.061730 31.951321 -23.088444 39.743984 -1.413682 2.190666 0.006692 -0.002641 -136080.000000 0 0 1
-4.336030 30.763881 -23.240744 38.798836 -1.430773 2.213056 0.006445 -0.004541 -1007880.000000 0 0 1
-2.876230 31.026441 -23.540744 39.052265 -1.478358 2.217803 -0.004593 -0.003825 -1068380.000000 0 0 1
-2.434130 31.332551 -24.807144 40.038084 -1.493265 2.239015 -0.014771 0.002340 30083.600000 0 0 1
-3.219430 32.266331 -25.538564 41.275890 -1.471349 2.237919 -0.008071 0.001300 -482780.000000 0 0 1
-2.504430 32.793731 -26.834154 42.447294 -1.494575 2.255154 -0.020857 0.013999 466903.000000 0 0 1
-1.351530 33.606466 -26.707784 42.947956 -1.530602 2.241917 -0.013522 0.006779 371844.000000 0 0 1
-1.787630 -34.398193 -26.580614 43.508164 1.518874 2.228036 -0.009098 0.014557 280565.000000 0 0 1
-0.700230 -33.343306 -26.923494 42.861882 1.549799 2.249964 -0.029196 0.021518 295286.000000 0 0 1
0.404470 -33.206426 -26.047394 42.205415 -1.558616 2.235921 -0.010173 0.017614 511497.000000 0 0 1
1.311070 -32.261616 -26.649554 41.865612 -1.530180 2.260813 -0.013592 0.020893 356129.000000 0 0 1
2.458370 -31.813206 -25.729974 40.989696 -1.493674 2.249415 -0.012121 0.013895 -106577.000000 0 0 1
1.985870 -31.064936 -24.677644 39.723545 -1.506957 2.241114 -0.012794 0.015684 339701.000000 0 0 1
3.110470 -30.436006 -24.106444 38.950560 -1.468953 2.238136 -0.028268 0.020630 37008.900000 0 0 1
2.914270 -29.858126 -22.646044 37.587817 -1.473501 2.217406 -0.023559 0.030158 -149910.000000 0 0 1
2.806970 -30.851706 -21.645444 37.791958 -1.480063 2.180656 -0.011966 0.027727 425908.000000 0 0 1
2.985670 -30.303466 -20.372344 36.636685 -1.472588 2.160439 -0.004834 0.025385 -512568.000000 0 0 1
3.032570 -31.402056 -19.286944 36.976639 -1.474523 2.119519 -0.001395 0.020734 -230374.000000 0 0 1
1.744170 -31.954606 -19.087944 37.262428 -1.516268 2.108607 0.008734 0.010963 367705.000000 0 0 1
1.534770 -33.182476 -19.737444 38.639344 -1.524577 2.106925 0.011000 0.016705 -538725.000000 0 0 1
1.928670 -34.465946 -18.919244 39.364438 -1.514896 2.072155 0.009136 0.009395 1004900.000000 0 0 1
3.360470 34.659079 -18.993044 39.664597 1.474141 2.070131 0.005729 0.013111 1146050.000000 0 0 1
3.817170 33.588700 -18.163344 38.375495 1.457637 2.063836 0.019642 -0.001352 545173.000000 0 0 1
5.041870 32.818371 -18.744444 38.128993 1.418359 2.084729 0.014291 0.003416 923987.000000 0 0 1
6.287870 33.540767 -18.703344 38.914463 1.385478 2.072166 0.040283 0.000380 250905.000000 0 0 1
7.182270 32.791181 -19.494544 38.818601 1.355171 2.096933 0.022129 -0.007494 -49032.100000 0 0 1
8.522470 33.480451 -19.857544 39.848402 1.321539 2.092465 0.007517 -0.000701 -231352.000000 0 0 1
9.302770 33.526197 -18.708644 39.503934 1.300128 2.064158 -0.000071 0.000716 -414112.000000 0 0 1
10.492470 34.258167 -18.941744 40.527813 1.273591 2.057117 -0.000814 0.020481 -21055.500000 0 0 1
11.356470 34.421785 -17.682544 40.329903 1.252120 2.024667 -0.016957 0.018288 29237.100000 0 0 1
12.224270 33.306165 -17.348844 39.493237 1.219034 2.025601 -0.016954 0.005397 290962.000000 0 0 1
12.743070 33.711898 -16.074344 39.462165 1.209399 1.990331 -0.027141 -0.000980 466415.000000 0 0 1
13.981870 32.893501 -15.547544 38.976932 1.168871 1.981103 -0.024733 0.010300 676191.000000 0 0 1
13.722570 31.677611 -14.900144 37.600456 1.162005 1.978253 -0.012319 0.007630 62831.100000 0 0 1
14.900470 30.889841 -14.975844 37.423017 1.121348 1.982507 -0.011134 0.005002 279105.000000 0 0 1
14.773770 29.618531 -14.147044 35.995285 1.108108 1.974715 0.004252 0.004619 -386222.000000 0 0 1
14.513070 30.031241 -12.839144 35.740009 1.120626 1.938247 0.004552 0.000111 -37898.400000 0 0 1
13.287970 29.630761 -12.257744 34.710293 1.149231 1.931726 0.017235 -0.001368 101990.000000 0 0 1
12.883170 28.153891 -11.963444 33.192494 1.141642 1.939521 0.009131 0.001121 -498618.000000 0 0 1
12.165470 27.512331 -13.048444 32.790074 1.154462 1.980065 0.012108 -0.005286 491246.000000 0 0 1
11.684970 26.190941 -12.784144 31.399654 1.151152 1.990120 0.033438 -0.009126 157900.000000 0 0 1
10.850170 25.970161 -11.502544 30.405328 1.175045 1.958763 0.038342 -0.008822 -588880.000000 0 0 1
9.685470 26.767451 -11.446944 30.681221 1.223615 1.953137 0.017822 -0.004954 -41908.800000 0 0 1
9.061170 26.633331 -10.190244 29.921233 1.242861 1.918318 0.003406 0.008713 -638840.000000 0 0 1
8.040370 27.737201 -10.071544 30.584896 1.288653 1.906356 0.000720 0.008482 -402722.000000 0 0 1
8.592770 29.032051 -10.165344 31.937907 1.283036 1.894716 0.009434 0.006114 483000.000000 0 0 1
7.525270 29.998721 -10.254644 32.583902 1.325015 1.890953 0.006906 0.006952 648947.000000 0 0 1
7.992870 31.399581 -10.646944 34.105382 1.321537 1.888281 0.034307 -0.006990 -457394.000000 0 0 1
8.827270 31.982121 -9.700344 34.566942 1.301495 1.855241 0.015664 -0.002512 -546714.000000 0 0 1
9.391670 33.247981 -9.956444 35.955007 1.295496 1.851377 0.039157 -0.005956 68838.400000 0 0 1
10.388470 33.382651 -11.101144 36.681836 1.269102 1.878251 0.014229 -0.004460 -949922.000000 0 0 1
11.691070 32.928741 -10.894144 36.601441 1.229637 1.873019 0.010415 -0.006437 -349109.000000 0 0 1
12.515170 33.404611 -11.966244 37.625637 1.212329 1.894452 0.028325 -0.005800 933102.000000 0 0 1
14.065370 33.250051 -11.790744 37.979234 1.170606 1.886465 0.029493 -0.006454 687010.000000 0 0 1
14.433970 34.056004 -10.713344 38.508787 1.169917 1.852721 0.041343 -0.010387 -210889.000000 0 0 1
15.829170 34.262696 -10.836744 39.267416 1.138013 1.850398 0.022386 -0.015728 -217109.000000 0 0 1
16.402270 -34.058941 -9.769244 39.044642 -1.121989 1.823690 0.050611 -0.028452 53867.100000 0 0 1
16.509070 34.653581 -8.475644 39.309752 1.126204 1.788115 0.041051 -0.013471 143295.000000 0 0 1
16.955870 -33.689596 -7.530844 38.460422 -1.104515 1.767877 0.031204 -0.010375 -639466.000000 0 0 1
17.140170 -34.273470 -6.073444 38.798749 -1.107069 1.727980 0.024680 0.002463 471903.000000 0 0 1
18.183870 34.082437 -5.861044 39.071953 1.080689 1.721371 0.017554 -0.005301 640082.000000 0 0 1
19.504570 34.588617 -6.049544 40.167122 1.057343 1.721981 0.021003 -0.007067 -506571.000000 0 0 1
20.245670 33.641923 -7.011544 39.885184 1.029055 1.747508 0.012637 0.002455 -275170.000000 0 0 1
20.491970 32.315651 -6.537144 38.819537 1.005666 1.740001 0.029493 0.008474 142622.000000 0 0 1
21.669670 32.200631 -5.744944 39.235948 0.978451 1.717745 0.038426 0.005850 -36181.700000 0 0 1
22.055270 30.806871 -5.293544 38.255978 0.949465 1.709613 0.024591 0.000197 -286417.000000 0 0 1
22.442970 30.014021 -6.378244 38.015923 0.928737 1.739372 0.019552 0.004642 -81500.300000 0 0 1
22.500070 28.684531 -5.975444 36.942678 0.905642 1.733259 0.015747 0.015237 -214873.000000 0 0 1
23.495770 27.809691 -6.770844 37.030723 0.869284 1.754675 -0.008963 0.023553 -549478.000000 0 0 1
24.845670 28.154261 -6.748244 38.151128 0.847744 1.748614 0.004197 0.010130 -474530.000000 0 0 1
25.688970 27.053871 -7.069444 37.971202 0.811271 1.758068 -0.004938 0.018999 65227.300000 0 0 1
26.292470 26.361791 -5.876644 37.693142 0.786715 1.727342 -0.000818 0.013474 -222251.000000 0 0 1
27.309670 27.104481 -5.181944 38.824265 0.781627 1.704668 -0.002122 0.005656 105720.000000 0 0 1
28.039470 26.217231 -4.406444 38.638994 0.751825 1.685086 -0.004919 0.012101 -723809.000000 0 0 1
29.206870 26.870691 -3.670444 39.856586 0.743762 1.663018 -0.008822 0.011940 -969757.000000 0 0 1
28.910070 27.856191 -2.733644 40.239686 0.766835 1.638783 0.000902 -0.000922 -249629.000000 0 0 1
30.068870 28.141071 -1.988944 41.231211 0.752292 1.619054 0.012299 -0.009742 -84551.400000 0 0 1
29.934870 29.503081 -1.311944 42.050558 0.778134 1.602001 0.018052 -0.014175 -10237.400000 0 0 1
30.352370 30.548201 -2.143544 43.116746 0.788614 1.620532 -0.001350 -0.008496 156415.000000 0 0 1
29.930370 31.822361 -1.654244 43.717574 0.816027 1.608645 0.008847 -0.009632 -146468.000000 0 0 1
32.606195 23.597054 19.441733 44.698612 0.626455 1.120812 0.020829 0.003750 -509.492000 0 0 1
32.661295 23.299754 20.804233 45.193526 0.619646 1.092422 0.000966 0.004268 334932.000000 0 0 1
33.520695 24.284154 21.375233 46.586025 0.626949 1.094114 -0.003409 -0.004459 -95501.700000 0 0 1
33.558905 24.141754 22.914833 47.266415 0.623618 1.064660 -0.002220 -0.000592 70269.900000 0 0 1
32.381295 24.761554 23.384933 46.995084 0.652835 1.049962 -0.000468 -0.001910 171412.000000 0 0 1
32.238925 24.611054 24.730823 47.504377 0.652019 1.023242 -0.003429 -0.006463 -635148.000000 0 0 1
30.959125 25.220054 25.281413 47.261701 0.683595 1.006379 0.026144 -0.007931 -412199.000000 0 0 1
30.820895 26.627654 25.221843 47.907211 0.712536 1.016350 0.014536 -0.014047 -370315.000000 0 0 1
29.488935 26.912154 25.526973 47.386577 0.739743 1.001907 0.008466 -0.017052 -390767.000000 0 0 1
29.204015 28.419154 25.730693 48.193271 0.771778 1.007583 0.002968 -0.008936 -86486.300000 0 0 1
28.959195 29.221154 24.584073 47.925854 0.789901 1.032166 0.009712 -0.016167 164395.000000 0 0 1
28.775505 30.544554 25.041513 48.867953 0.815211 1.032782 0.006523 -0.008934 -197539.000000 0 0 1
28.760135 31.527654 23.898433 48.910872 0.831271 1.060298 0.017424 -0.015116 251737.000000 0 0 1
30.086095 31.801454 23.464533 49.669809 0.813108 1.078773 -0.002008 -0.020784 190210.000000 0 0 1
30.140135 32.750754 22.407133 49.830906 0.826885 1.104408 -0.001367 -0.014499 744936.000000 0 0 1
31.621825 33.116154 22.042333 50.818145 0.808477 1.122147 -0.011647 -0.020860 672495.000000 0 0 1
32.272585 33.762354 23.076233 52.095382 0.807955 1.111897 -0.007984 -0.011826 -148496.000000 0 0 1
33.669745 33.845254 22.847533 52.926011 0.787998 1.124433 -0.007750 -0.007170 154223.000000 0 0 1
34.299313 -34.329684 23.656933 53.987226 -0.785841 1.117207 -0.001575 -0.004892 -457577.000000 0 0 1
33.772435 -33.094784 23.260233 52.696115 -0.775264 1.113634 -0.007612 -0.002343 -47422.300000 0 0 1
34.130086 -32.019284 24.103203 52.640875 -0.753499 1.095187 0.003461 -0.008005 -1329710.000000 0 0 1
33.411855 -30.652484 23.924033 51.266813 -0.742353 1.085289 -0.002723 0.001333 88578.900000 0 0 1
32.016295 -30.875684 24.090733 50.583736 -0.767264 1.074406 -0.015131 0.007903 688617.000000 0 0 1
31.225635 -31.315684 22.979733 49.837541 -0.786838 1.091570 -0.017862 0.016817 -106269.000000 0 0 1
30.262895 -32.520284 23.216733 50.124129 -0.821338 1.089211 -0.023431 0.010147 697005.000000 0 0 1
29.158645 -32.302384 24.096423 49.742418 -0.836504 1.065092 -0.019706 0.004254 418738.000000 0 0 1
28.392785 -33.476384 24.250063 50.148620 -0.867381 1.066075 -0.023143 0.001481 1629.080000 0 0 1
27.912615 -33.760684 25.678653 50.776875 -0.879939 1.040585 -0.033453 0.007163 -338045.000000 0 0 1
27.519345 34.217354 25.796353 50.927335 0.893469 1.039638 -0.024338 -0.004524 369188.000000 0 0 1
26.755045 33.951554 26.966543 50.948355 0.903393 1.013031 -0.032148 -0.000241 -669873.000000 0 0 1
26.256635 32.517054 27.083003 49.802196 0.891515 0.995824 -0.028705 -0.006477 206846.000000 0 0 1
25.547955 32.045954 25.956573 48.511698 0.897747 1.006220 -0.030998 -0.001118 155749.000000 0 0 1
24.181365 32.388054 25.874803 47.991977 0.929466 1.001371 -0.026070 -0.002207 -612401.000000 0 0 1
23.527165 32.111154 24.542603 46.765297 0.938473 1.018312 -0.001295 -0.010811 -323783.000000 0 0 1
23.855665 32.977654 23.392333 46.944857 0.944545 1.049167 -0.001875 -0.015489 135991.000000 0 0 1
25.118795 32.713754 22.820633 47.137298 0.915978 1.065426 -0.018357 -0.007560 -169100.000000 0 0 1
25.351535 33.637754 21.562333 47.319478 0.924955 1.097665 -0.010687 -0.010562 -827216.000000 0 0 1
26.676165 33.745554 21.192133 47.952963 0.901869 1.113041 -0.002507 -0.008467 -659988.000000 0 0 1
26.664605 34.408954 19.946533 47.883624 0.911529 1.141135 -0.008830 -0.009103 328943.000000 0 0 1
28.071225 -34.575284 19.376533 48.568446 -0.888849 1.160421 0.000301 -0.004334 850743.000000 0 0 1
28.935095 33.657054 19.016333 48.287244 0.860696 1.166016 0.004230 -0.012792 -284502.000000 0 0 1
29.944435 34.016254 18.152233 48.818831 0.848974 1.189818 0.004584 0.000023 -516174.000000 0 0 1
30.922925 32.837154 17.879433 48.519894 0.815412 1.193405 -0.006152 -0.011021 -434698.000000 0 0 1
31.674055 32.382654 18.961733 49.106306 0.796460 1.174357 0.001098 -0.016856 -431164.000000 0 0 1
32.537495 31.461954 18.354233 48.840772 0.768594 1.185539 0.003552 -0.022041 -53966.300000 0 0 1
33.661155 30.871654 19.246133 49.563555 0.742199 1.171997 0.018860 -0.034484 -337277.000000 0 0 1
34.453478 31.820354 19.834233 50.921251 0.745688 1.170699 0.027962 -0.026803 -259158.000000 0 0 1
-34.676334 31.155854 20.677233 50.996895 -0.731972 1.153314 0.030098 -0.028605 669339.000000 0 0 1
-33.608250 32.187354 21.198733 51.136352 -0.763806 1.143345 0.017759 -0.025603 -387375.000000 0 0 1
-32.702270 32.631754 20.237833 50.436492 -0.784319 1.157911 0.017213 -0.022880 96473.100000 0 0 1
-31.542710 33.270154 20.783233 50.336750 -0.812045 1.145178 0.011200 -0.008583 438967.000000 0 0 1
-31.722040 34.627554 21.567233 51.676889 -0.829161 1.140272 -0.001589 -0.007719 -942000.000000 0 0 1
-32.285990 34.635854 22.818533 52.561516 -0.820497 1.121724 0.010187 -0.013742 -144247.000000 0 0 1
-32.092840 -33.517584 23.596933 52.059524 0.807110 1.100368 0.002038 -0.007488 -197866.000000 0 0 1
-32.025390 -33.763984 25.104373 52.875909 0.811819 1.076083 0.010961 -0.018248 -536647.000000 0 0 1
-33.278330 -34.133584 25.591373 54.106073 0.798084 1.078120 0.014440 -0.017068 -676031.000000 0 0 1
-33.278370 -34.550584 26.931343 55.013543 0.804152 1.059234 0.020732 -0.018720 1330300.000000 0 0 1
-34.730625 34.303454 27.360643 55.960236 -0.779210 1.059934 0.018692 -0.026846 1364270.000000 0 0 1
-34.590053 33.507754 28.522253 55.971066 -0.769506 1.036089 0.037461 -0.028823 -136210.000000 0 0 1
34.227861 33.464554 29.137813 56.039584 0.774123 1.024003 0.036456 -0.026521 -238962.000000 0 0 1
34.119311 32.377154 30.281913 55.941056 0.759205 0.998792 0.035976 -0.021142 -380427.000000 0 0 1
34.019159 31.014554 29.843253 54.861876 0.739230 0.995634 0.020173 -0.017051 -263771.000000 0 0 1
-34.924061 30.504254 29.196153 54.796121 -0.717949 1.008874 0.021814 -0.018265 -448961.000000 0 0 1
35.025233 28.996754 28.826113 53.837937 0.691512 1.005787 0.016926 -0.012159 -191769.000000 0 0 1
33.999585 28.780954 27.865743 52.543455 0.702464 1.011798 0.018723 -0.015609 225090.000000 0 0 1
33.923775 27.484954 27.334533 51.511376 0.680928 1.011429 0.017004 -0.016066 -236694.000000 0 0 1
33.347455 26.335854 28.139493 50.965292 0.668454 0.985879 0.014781 -0.013508 -93149.000000 0 0 1
34.184394 25.969654 29.276873 51.962785 0.649676 0.972277 -0.005452 -0.013275 413909.000000 0 0 1
34.033172 24.633754 29.725743 51.465507 0.626532 0.955028 -0.009798 -0.007801 26625.100000 0 0 1
34.667641 23.596454 28.742183 50.840447 0.597620 0.969950 -0.014311 -0.005657 -494717.000000 0 0 1
33.961785 23.548054 27.521343 49.652170 0.606262 0.983295 -0.025713 -0.002382 90774.900000 0 0 1
34.523188 22.593254 26.629783 49.106527 0.579488 0.997641 -0.028577 -0.010070 -444488.000000 0 0 1
34.283696 21.096554 26.926413 48.430033 0.551632 0.981248 -0.021421 -0.006014 -679939.000000 0 0 1
32.937625 20.716254 26.835393 47.267204 0.561438 0.967041 -0.006704 0.006817 -186545.000000 0 0 1
32.647805 19.520254 27.569623 46.978757 0.538877 0.943630 0.000788 0.006235 -679461.000000 0 0 1
32.540905 19.637754 29.121843 47.881454 0.542974 0.916996 -0.004603 0.006217 260490.000000 0 0 1
31.456905 20.457054 29.623133 47.807509 0.576600 0.902521 -0.004544 0.013364 811967.000000 0 0 1
31.391935 21.797754 29.176213 48.081671 0.606940 0.918761 -0.002817 0.003465 -985664.000000 0 0 1
30.368645 22.613654 30.006833 48.311924 0.640061 0.900643 0.015254 -0.003202 -551304.000000 0 0 1
29.010155 22.329154 29.852513 47.237196 0.655991 0.886703 0.024677 -0.010622 -393621.000000 0 0 1
28.366155 22.976054 28.807553 46.501752 0.680798 0.902698 0.024186 -0.015599 -292834.000000 0 0 1
28.089705 24.563554 29.040933 47.283988 0.718529 0.909448 0.023221 -0.010175 -565359.000000 0 0 1
29.227125 25.281954 28.606313 48.080382 0.713148 0.933570 0.015349 -0.001747 35252.500000 0 0 1
29.479535 26.534354 29.217393 49.262267 0.732867 0.935894 0.015646 -0.002597 21274.600000 0 0 1
29.762745 26.640254 30.735723 50.400484 0.730094 0.914950 0.014657 -0.006392 -36057.600000 0 0 1
30.881815 25.852154 31.105113 50.887606 0.696976 0.913156 0.023475 -0.010593 -29042.800000 0 0 1
31.290365 25.876554 32.437633 51.970020 0.690978 0.896740 0.025135 -0.011056 72979.400000 0 0 1
30.673975 24.795654 33.380031 51.671497 0.679819 0.868458 0.031379 -0.011908 -231636.000000 0 0 1
31.261145 24.767854 -34.489055 52.727608 0.670021 2.283787 0.015350 -0.014561 101372.000000 0 0 1
30.645305 23.824654 -33.594284 51.335414 0.660828 2.284195 0.003586 -0.014992 -44959.500000 0 0 1
31.603555 23.205254 -32.527544 50.944181 0.633352 2.263336 -0.003863 -0.010848 -125593.000000 0 0 1
32.003415 24.215654 -31.600584 51.080459 0.647749 2.237811 0.013740 -0.013769 217825.000000 0 0 1
32.034995 23.598054 -30.371994 50.055639 0.634892 2.222780 0.008889 -0.021705 -460339.000000 0 0 1
32.907085 24.402154 -29.406364 50.428916 0.638069 2.193366 0.017526 -0.006194 -32997.400000 0 0 1
33.194795 23.622454 -28.268474 49.588520 0.618490 2.177376 0.020127 -0.013864 -392650.000000 0 0 1
33.982905 24.401754 -27.404704 50.013010 0.622744 2.150710 0.029625 -0.009282 -62606.700000 0 0 1
34.731923 23.517354 -26.359604 49.539894 0.595198 2.131862 0.028376 -0.012559 -159622.000000 0 0 1
-34.338405 22.781454 -26.992444 49.261676 -0.585765 2.150696 0.017637 -0.012102 -97210.200000 0 0 1
-34.592068 21.388954 -26.680884 48.641218 -0.553781 2.151394 0.008093 -0.000525 -536161.000000 0 0 1
-33.563210 20.457154 -27.291584 47.852009 -0.547384 2.177708 0.019496 0.010400 -73151.500000 0 0 1
-32.355950 20.536854 -26.540814 46.616356 -0.565556 2.176506 0.011048 0.001822 -175253.000000 0 0 1
-31.398230 19.566154 -26.952684 45.772594 -0.557276 2.200418 -0.011613 0.013151 746448.000000 0 0 1
-30.061400 19.879854 -26.193144 44.553082 -0.584284 2.199267 -0.023079 0.003801 400506.000000 0 0 1
-30.257620 19.707654 -24.774344 43.791361 -0.577309 2.172122 -0.033732 0.005836 107676.000000 0 0 1
-29.033790 19.526154 -24.069844 42.468683 -0.592052 2.173373 -0.044566 0.014090 175107.000000 0 0 1
-29.152720 19.831654 -22.555144 41.855825 -0.597360 2.139900 -0.053236 0.017411 8655.680000 0 0 1
-29.776020 18.847154 -21.729544 41.400479 -0.564306 2.123349 -0.063094 0.019728 -142366.000000 0 0 1
-30.112600 19.441154 -20.528044 41.305299 -0.573287 2.090915 -0.055417 0.021613 -688556.000000 0 0 1
-31.332900 18.646954 -19.954244 41.564785 -0.536826 2.071537 -0.051431 0.016557 319545.000000 0 0 1
-31.974810 19.090254 -18.750344 41.694144 -0.538240 2.037239 -0.047699 0.004491 185075.000000 0 0 1
-32.650050 20.306754 -19.001444 42.888750 -0.556404 2.029783 -0.053451 0.006031 -424064.000000 0 0 1
-33.898920 20.474954 -18.073044 43.531545 -0.543356 1.998927 -0.027466 -0.001316 354919.000000 0 0 1
-33.519410 20.787454 -16.772944 42.860246 -0.555113 1.972884 -0.031554 -0.000886 -237516.000000 0 0 1
-34.690256 20.810954 -16.014144 43.508188 -0.540352 1.947731 -0.018906 0.008139 -1003520.000000 0 0 1
-34.577774 21.720254 -14.767344 43.421956 -0.560866 1.917808 -0.017324 0.011822 -275128.000000 0 0 1
-34.623878 23.124554 -15.036944 44.268133 -0.588841 1.917372 -0.012647 0.002425 1576010.000000 0 0 1
34.070108 23.562254 -15.089344 44.086737 0.605054 1.920123 -0.001928 0.009566 1292280.000000 0 0 1
33.797035 25.078054 -15.238944 44.759063 0.638374 1.918209 -0.003060 -0.000833 -101870.000000 0 0 1
34.213968 25.815654 -14.084544 45.115606 0.646398 1.888291 -0.006843 -0.000508 55780.300000 0 0 1
34.195587 27.216754 -14.415744 46.020686 0.672245 1.889404 -0.010888 0.007444 -566257.000000 0 0 1
-34.725850 27.832154 -15.174544 47.018934 -0.675644 1.899411 -0.009182 0.005202 -514434.000000 0 0 1
-34.887638 27.713854 -16.618044 47.553805 -0.671301 1.927789 0.003339 0.005052 277463.000000 0 0 1
-33.919730 28.530854 -17.271244 47.569460 -0.699321 1.942361 0.017321 0.001227 -655340.000000 0 0 1
-33.593200 28.239454 -18.795144 47.741253 -0.699029 1.975436 0.010796 -0.004002 125004.000000 0 0 1
-32.945280 27.009454 -19.088244 46.682578 -0.686715 1.992039 0.003269 -0.004204 -217.936000 0 0 1
-31.671120 26.827154 -18.525644 45.452783 -0.702781 1.990599 -0.004236 0.006575 -592557.000000 0 0 1
-31.215460 25.405354 -18.756744 44.403292 -0.683142 2.006908 -0.017314 0.000256 -448482.000000 0 0 1
-30.982430 25.175654 -20.124044 44.706841 -0.682364 2.037711 -0.018315 0.001910 199516.000000 0 0 1
-30.631520 23.781954 -20.335344 43.788098 -0.660177 2.053757 -0.024630 0.001171 13278.900000 0 0 1
-30.086000 23.455654 -21.800044 43.938331 -0.662190 2.089956 -0.025477 0.002315 -25595.600000 0 0 1
-31.110390 23.631654 -22.738844 45.203611 -0.649621 2.097899 0.000412 -0.002831 -246387.000000 0 0 1
-30.611230 23.474854 -24.034644 45.450855 -0.654211 2.127988 0.016138 -0.009710 -330359.000000 0 0 1
-31.494900 23.976754 -25.160084 46.902486 -0.650688 2.137002 -0.003424 0.002631 -379026.000000 0 0 1
-31.472820 25.414554 -25.192584 47.656103 -0.679302 2.127786 -0.016051 0.005876 139018.000000 0 0 1
-32.387800 25.939654 -26.171024 49.058717 -0.675294 2.133486 -0.004421 0.001339 250702.000000 0 0 1
-32.265940 27.483254 -26.358464 49.911809 -0.705522 2.127159 -0.008441 0.016579 582181.000000 0 0 1
-31.033550 27.740754 -27.041584 49.637464 -0.729432 2.146925 -0.023541 0.004505 171094.000000 0 0 1
-30.878050 29.103354 -27.406524 50.513134 -0.755819 2.144281 -0.018575 -0.000478 -513233.000000 0 0 1
-29.582190 29.437054 -28.133484 50.330299 -0.782939 2.163948 -0.023427 0.009141 66988.100000 0 0 1
-28.472770 29.001754 -27.315334 48.968641 -0.794602 2.162544 -0.061072 0.012661 335458.000000 0 0 1
-27.239820 28.897554 -28.019524 48.602161 -0.814920 2.185245 -0.017849 0.016470 607440.000000 0 0 1
-26.360180 30.172854 -27.834774 48.785600 -0.852738 2.177975 -0.027895 0.008525 -361160.000000 0 0 1
-25.737490 30.371954 -26.563454 47.859075 -0.867808 2.159201 -0.034075 0.009801 -48704.500000 0 0 1
-26.633590 30.569054 -25.491644 47.891952 -0.854089 2.132081 -0.039298 0.014851 -272299.000000 0 0 1
-25.968200 31.039654 -24.169744 47.137925 -0.874125 2.109176 -0.053103 0.011212 37275.900000 0 0 1
-25.778510 32.413454 -24.154344 47.943674 -0.898926 2.098796 -0.032198 0.011084 -124875.000000 0 0 1
-24.496030 32.713154 -23.647744 47.216752 -0.928055 2.095358 -0.030087 0.019365 -134216.000000 0 0 1
-23.993330 34.147254 -24.000644 48.142972 -0.958299 2.092697 -0.035915 0.023458 -160941.000000 0 0 1
-24.707930 -34.166884 -23.300644 48.174451 0.944699 2.075642 -0.038772 0.017538 150589.000000 0 0 1
-24.123230 -32.871184 -23.456644 47.038910 0.937698 2.092854 -0.025298 0.018553 119405.000000 0 0 1
16.071170 8.677654 -25.754424 31.573320 0.495096 2.524738 0.033515 -0.024147 866099.000000 0 0 1
14.738470 8.244954 -25.404314 30.505424 0.510045 2.554907 0.035998 -0.025789 920572.000000 0 0 1
14.624570 6.833954 -25.295244 30.007171 0.437141 2.573583 0.040101 -0.030967 -1028840.000000 0 0 1
13.213070 6.336054 -25.341624 29.273344 0.447137 2.617322 0.031257 -0.024577 -1018720.000000 0 0 1
12.535270 6.405654 -24.103144 27.912845 0.472417 2.612993 0.031350 -0.039128 -12571.900000 0 0 1
11.234470 5.884054 -24.282644 27.394930 0.482467 2.660288 0.022139 -0.027938 -93954.100000 0 0 1
10.332970 5.988154 -23.044644 25.955421 0.525224 2.663458 0.028915 -0.031046 -134812.000000 0 0 1
10.876770 5.114054 -22.034544 25.099378 0.439509 2.642238 0.014139 -0.015503 129840.000000 0 0 1
10.454370 5.293454 -20.709844 23.795212 0.468706 2.626682 0.015571 -0.008036 -702373.000000 0 1 0
10.979470 6.563554 -20.063744 23.794596 0.538802 2.574015 0.017937 -0.019599 -158357.000000 0 1 0
10.661270 6.783354 -18.687144 22.558500 0.566656 2.547016 0.016853 -0.008866 -141097.000000 0 1 0
10.963770 8.095654 -18.141744 22.690675 0.636036 2.497299 0.022566 -0.013696 1094430.000000 0 1 0
12.467470 8.411654 -17.754844 23.268610 0.593535 2.438797 0.021894 -0.013813 990309.000000 0 1 0
12.892470 7.679854 -16.628144 22.398462 0.537241 2.407410 0.020424 -0.015743 1193630.000000 0 1 0
14.312070 7.915254 -16.468044 23.209547 0.505180 2.359638 0.011550 -0.009500 559638.000000 0 1 0
14.796070 7.843554 -14.999244 22.481600 0.487445 2.301211 0.022902 -0.011739 147532.000000 0 1 0
16.203470 7.594954 -14.898544 23.285239 0.438315 2.265071 0.013369 -0.014515 1165360.000000 0 1 0
16.770570 7.945154 -13.619244 23.018716 0.442433 2.203912 0.013380 -0.013289 98174.500000 0 1 0
17.199770 9.409054 -13.555544 23.835166 0.500572 2.175746 0.019653 -0.012543 -1078340.000000 0 1 0
16.127170 10.217754 -13.249144 23.238501 0.564741 2.177470 0.023386 -0.009860 -5956.320000 0 1 0
16.576570 11.540254 -13.216744 24.137988 0.608157 2.150229 0.027071 -0.006229 -114547.000000 0 1 0
15.414270 12.520554 -13.000144 23.735369 0.682178 2.150423 0.033028 -0.004699 -525268.000000 0 1 0
14.938570 12.568154 -11.702444 22.761075 0.699435 2.110804 0.053746 -0.006041 -24513.100000 0 1 0
15.394170 13.639254 -10.914144 23.283648 0.725027 2.058668 0.039242 0.002999 -129189.000000 0 1 0
14.874070 15.066954 -11.296244 23.997004 0.791840 2.060921 0.033956 0.001689 -940111.000000 0 1 0
13.644570 15.349554 -10.765344 23.187836 0.844135 2.053603 0.052655 -0.007869 -972116.000000 0 1 0
13.585470 16.764554 -10.743844 24.104884 0.889765 2.032766 0.049394 -0.005701 -390717.000000 0 1 0
12.463170 17.282554 -9.875644 23.485008 0.946022 2.004802 0.042819 -0.008875 -488859.000000 0 1 0
12.605370 16.989854 -8.519144 22.806278 0.932477 1.953623 0.042879 -0.005151 510874.000000 0 1 0
11.489970 17.431454 -7.743944 22.267547 0.988015 1.925986 0.031775 0.001415 344825.000000 0 1 0
11.732370 17.229454 -6.241444 21.759095 0.972971 1.861726 0.021174 0.002691 219557.000000 0 1 0
12.690770 18.143554 -5.762244 22.878978 0.960430 1.825396 0.020196 0.007864 274565.000000 0 1 0
13.299770 17.741454 -4.528344 22.630709 0.927523 1.772254 0.018086 0.008456 282668.000000 0 1 0
14.181070 18.874754 -3.916444 23.931101 0.926448 1.735191 0.006831 0.014060 889347.000000 0 1 0
15.478770 19.022354 -4.519344 24.937256 0.887748 1.753032 0.007142 0.008393 687727.000000 0 1 0
16.111370 20.290054 -4.267744 26.257878 0.899692 1.734052 0.003057 0.000886 -374806.000000 0 0 1
17.535170 20.315154 -4.836444 27.268642 0.858713 1.749102 0.007673 0.001423 -558643.000000 0 0 1
18.435270 19.427554 -4.258844 27.118753 0.811599 1.728493 0.009016 -0.009502 -174071.000000 0 0 1
18.363070 18.187654 -4.960844 26.317353 0.780599 1.760432 -0.000566 -0.003484 -399525.000000 0 0 1
19.327370 17.104054 -4.322944 26.168373 0.724446 1.736754 0.028653 -0.018465 13664.100000 0 0 1
20.648270 17.440154 -4.609944 27.418271 0.701368 1.739733 0.050627 -0.024678 -279473.000000 0 0 1
21.574470 16.484954 -4.098944 27.459294 0.652461 1.720630 0.059584 -0.030614 273464.000000 0 0 1
23.061870 16.605254 -4.476044 28.768373 0.624043 1.727020 0.067198 -0.025717 152238.000000 0 0 1
23.704670 17.802154 -4.021244 29.916525 0.644139 1.705620 0.068321 -0.026618 524035.000000 0 0 1
25.104670 17.673654 -4.247444 30.994246 0.613405 1.708269 0.048153 -0.020395 592669.000000 0 0 1
25.984670 18.818654 -3.636544 32.288841 0.626798 1.683661 0.057157 -0.018696 18661.600000 0 0 1
25.966270 19.993454 -4.407844 33.066818 0.656165 1.704495 0.055357 -0.018240 127500.000000 0 0 1
25.893270 21.168554 -3.625844 33.640985 0.685340 1.678787 0.064275 0.007535 -140142.000000 0 0 1
25.899470 22.543054 -4.389144 34.615552 0.716222 1.697935 0.040149 0.011273 402770.000000 0 0 1
27.066070 22.961454 -5.110044 35.859630 0.703534 1.713784 0.029136 0.021013 499003.000000 0 0 1
27.208770 22.365954 -6.371744 35.793186 0.688020 1.749766 0.033085 0.013878 -111454.000000 0 0 1
28.173270 23.110854 -7.309744 37.165536 0.687004 1.768768 0.016810 0.016179 -289179.000000 0 0 1
27.620470 24.205654 -8.037444 37.595273 0.719603 1.786248 0.008339 0.010980 90881.500000 0 0 1
28.549270 25.118054 -8.601044 38.986606 0.721550 1.793242 -0.002728 0.012113 386595.000000 0 0 1
29.575370 24.575654 -9.678644 39.652761 0.693330 1.817372 0.003706 0.004140 194021.000000 0 0 1
29.051970 24.341654 -10.941544 39.449340 0.697407 1.851838 0.005412 0.008886 367529.000000 0 0 1
30.069570 23.858354 -11.867744 40.177649 0.670727 1.870651 -0.000478 0.005536 235855.000000 0 0 1
29.771370 23.406454 -13.289144 40.134747 0.666274 1.908279 -0.008136 0.007196 -310755.000000 0 0 1
29.399370 24.468354 -14.124344 40.774016 0.694113 1.924533 0.014555 0.006546 129459.000000 0 0 1
29.045170 23.871554 -15.357444 40.611871 0.687939 1.958595 0.016288 0.003283 -288125.000000 0 0 1
29.137370 24.780654 -16.634844 41.710732 0.704771 1.981020 0.015128 0.000777 -1436320.000000 0 0 1
30.387170 25.073754 -17.116744 42.954117 0.689885 1.980665 0.009259 0.005640 -1009620.000000 0 0 1
30.279270 25.566054 -18.439044 43.708759 0.701200 2.006294 0.017086 -0.004023 -600847.000000 0 0 1
31.633670 25.924654 -19.022244 45.106790 0.686535 2.006133 0.009949 -0.012904 -443396.000000 0 0 1
32.485670 24.785254 -18.952444 45.042454 0.651744 2.005089 0.012577 -0.009189 -792463.000000 0 0 1
33.799970 25.212554 -19.117744 46.299017 0.640894 1.996453 0.018730 -0.014589 -587837.000000 0 0 1
34.901170 24.166954 -19.256344 46.614806 0.605634 1.996646 0.005113 -0.018751 20449.100000 0 0 1
34.693670 23.452154 -20.465644 46.610051 0.594421 2.025373 0.010212 -0.012139 594041.000000 0 0 1
-34.177524 23.535154 -21.230044 46.612459 -0.603044 2.043684 0.025142 -0.017037 325850.000000 0 0 1
-34.021324 22.569654 -22.420244 46.577968 -0.585736 2.072989 0.033722 -0.018281 -341219.000000 0 0 1
-33.658824 21.246954 -22.104644 45.529823 -0.563077 2.077729 0.014376 -0.018145 133650.000000 0 0 1
-33.472224 20.585354 -23.303344 45.685801 -0.551375 2.106072 0.001124 -0.011030 130875.000000 0 0 1
-33.211524 19.082254 -23.224244 44.794009 -0.521509 2.115854 -0.017708 -0.002258 -864580.000000 0 0 1
-34.359824 18.456054 -22.837444 45.197038 -0.492917 2.100510 -0.006639 -0.012981 -998289.000000 0 0 1
-34.189124 17.065254 -22.861344 44.528195 -0.462962 2.109953 -0.012715 -0.004446 245415.000000 0 0 1
34.599070 16.296054 -22.468944 44.356628 0.440177 2.101977 -0.004766 -0.011954 757015.000000 0 0 1
33.573870 16.357454 -23.476444 44.112520 0.453362 2.131987 0.026539 -0.014031 837292.000000 0 0 1
32.402170 15.576254 -23.319144 42.852104 0.448102 2.146205 0.024653 -0.005775 189123.000000 0 0 1
32.579070 14.118254 -23.834444 42.764490 0.408925 2.161977 -0.003974 -0.005773 -651950.000000 0 0 1
32.699570 14.117754 -25.246674 43.657386 0.407567 2.187429 -0.007143 0.006808 215886.000000 0 0 1
33.096570 12.836354 -25.657324 43.800151 0.369985 2.196640 -0.008512 0.009913 -196486.000000 0 0 1
32.973670 12.676554 -27.208664 44.590014 0.367025 2.227105 0.010908 0.011928 -495829.000000 0 0 1
31.698270 12.576154 -27.766194 43.976147 0.377698 2.254143 -0.002068 0.007023 -494183.000000 0 0 1
31.338270 13.731854 -28.525404 44.546040 0.412982 2.265760 0.008723 0.007664 -179634.000000 0 0 1
31.727870 13.606654 -30.001544 45.737199 0.405131 2.286243 0.009476 0.001540 623737.000000 0 0 1
33.121870 13.922254 -30.174604 46.919017 0.397912 2.269363 -0.000008 0.008901 645489.000000 0 0 1
33.454170 14.096354 -31.563144 48.105309 0.398786 2.286470 -0.003081 0.006812 139611.000000 0 0 1
34.987670 14.291454 -31.795604 49.389707 0.387788 2.270211 0.003131 -0.001000 419447.000000 0 0 1
-34.210524 13.305354 -31.375324 48.288750 -0.370923 2.278044 0.007545 -0.000694 -117048.000000 0 0 1
-33.995624 13.218554 -29.977824 47.213372 -0.370841 2.258732 0.008603 0.000267 -905522.000000 0 0 1
-33.004124 12.148654 -29.515934 45.913531 -0.352703 2.269021 0.008981 -0.001643 -82122.600000 0 0 1
-33.391224 10.836654 -29.816554 46.059025 -0.313812 2.274906 0.014420 -0.007326 -287492.000000 0 0 1
-32.275324 10.048254 -29.613444 44.940182 -0.301818 2.290222 0.011395 -0.008687 -451849.000000 0 0 1
-32.379324 8.688054 -30.248334 45.153788 -0.262146 2.304865 0.030543 -0.011061 -258732.000000 0 0 1
-32.803424 8.722354 -31.613314 46.384757 -0.259884 2.320669 0.018294 -0.010794 103383.000000 0 0 1
-32.868824 7.426454 -32.155554 46.577800 -0.222211 2.332786 0.021695 -0.010151 -380118.000000 0 0 1
-34.126324 6.587654 -31.865894 47.153349 -0.190692 2.312836 0.027740 0.008562 -270603.000000 0 0 1
-34.135924 6.075854 -30.540354 46.204875 -0.176145 2.292916 0.037461 -0.003139 5631.180000 0 0 1
34.734570 5.409754 -30.293244 46.405133 0.154504 2.282070 0.023485 0.004754 -203188.000000 0 0 1
34.604170 4.584254 -29.013514 45.389954 0.131710 2.264261 0.033458 -0.008534 -192598.000000 0 0 1
-34.718424 3.399354 -29.016834 45.375117 -0.097601 2.264628 0.040281 -0.005752 123356.000000 0 0 1
35.022170 2.484554 -27.973994 44.891756 0.070824 2.243552 0.031654 0.000105 -237918.000000 0 0 1
-34.121924 1.275554 -27.857924 44.068091 -0.037365 2.255129 0.051683 0.000282 -618511.000000 0 0 1
-32.950824 1.526254 -27.156644 42.726684 -0.046286 2.259569 0.051599 -0.002618 -663339.000000 0 0 1
-32.074424 0.407654 -27.276964 42.106622 -0.012709 2.275499 0.049867 -0.002777 697415.000000 0 0 1
-30.902624 0.600154 -26.253794 40.553595 -0.019418 2.274945 0.046317 -0.002906 329543.000000 0 0 1
-31.385924 0.259054 -24.962444 40.103204 -0.008254 2.242672 0.039039 -0.008465 51459.200000 0 0 1
-30.431024 0.389354 -23.934044 38.717403 -0.012794 2.237212 0.058254 -0.011458 -379486.000000 0 0 1
-30.949124 0.060854 -22.540844 38.287617 -0.001966 2.200276 0.049620 -0.005254 -666327.000000 0 0 1
-31.062924 -1.322846 -22.295944 38.259173 0.042560 2.192918 0.057533 -0.013311 210370.000000 0 0 1
-31.318924 -1.555246 -20.909544 37.689558 0.049618 2.158899 0.036138 -0.010912 -67625.300000 0 0 1
-32.784624 -1.336046 -20.468944 38.672914 0.040730 2.128552 0.024907 -0.004760 -11993.600000 0 0 1
-33.563124 -2.542746 -20.645444 39.486494 0.075616 2.120985 0.021323 -0.011429 1359410.000000 0 0 1
-34.928424 -2.364946 -20.173744 40.405046 0.067605 2.093573 0.011077 -0.002645 1079090.000000 0 0 1
34.351870 -3.660446 -20.077344 39.956846 -0.106157 2.097256 0.002420 -0.003222 -346956.000000 0 0 1
33.942170 -4.309246 -21.293444 40.299519 -0.126283 2.127487 0.001153 -0.001027 -175990.000000 0 0 1
35.005070 -4.761146 -22.082744 41.661385 -0.135184 2.129459 0.002619 -0.008455 -594422.000000 0 0 1
34.509070 -5.482746 -23.337044 42.018496 -0.157561 2.159639 0.004134 -0.007361 -325263.000000 0 0 1
33.892670 -6.754646 -23.064244 41.548739 -0.196718 2.159295 0.001300 0.002250 333010.000000 0 0 1
33.385770 -7.485146 -24.136044 41.871060 -0.220554 2.185158 0.004549 0.001304 207249.000000 0 0 1
31.960070 -7.050446 -24.569444 40.924472 -0.217124 2.214748 -0.015235 0.014136 -297552.000000 0 0 1
31.860270 -5.911846 -25.361934 41.149173 -0.183469 2.234884 -0.006249 0.007515 -731070.000000 0 0 1
30.549070 -5.686046 -25.746224 40.353994 -0.184022 2.262707 -0.028000 0.015655 -729972.000000 0 0 1
30.379970 -4.365146 -26.572284 40.596593 -0.142708 2.284377 0.006827 -0.018493 -87024.000000 0 0 1
30.725370 -4.480546 -27.951024 41.777786 -0.144805 2.303713 0.017821 -0.014914 515936.000000 0 0 1
30.303470 -3.295446 -28.651524 41.833839 -0.108322 2.325247 0.024488 -0.019402 -75004.500000 0 0 1
30.371370 -3.616546 -30.186874 42.973793 -0.118519 2.349628 0.035401 -0.016616 220937.000000 0 0 1
29.627670 -2.650246 -30.902794 42.892952 -0.089214 2.375266 0.037297 -0.032552 -398469.000000 0 0 1
29.005970 -3.173546 -32.015014 43.317188 -0.108977 2.402505 0.045903 -0.035235 -699046.000000 0 0 1
28.189570 -2.133646 -32.782694 43.288674 -0.075545 2.429972 0.050177 -0.041518 -1365760.000000 0 0 1
27.113070 -1.508746 -32.183884 42.109349 -0.055589 2.440741 0.037209 -0.039023 702013.000000 0 0 1
25.866270 -2.250346 -32.037334 41.237346 -0.086781 2.460525 0.053242 -0.043109 949850.000000 0 0 1
25.153670 -2.567146 -33.383434 41.877810 -0.101706 2.493378 0.046816 -0.043812 -1672300.000000 0 0 1
25.771870 -3.574246 -34.148477 42.931142 -0.137809 2.490504 0.056014 -0.042787 -34254.200000 0 0 1
25.207670 -3.736946 33.718636 42.265090 -0.147174 0.647177 0.037815 -0.040036 -772423.000000 0 0 1
25.921870 -4.871546 32.955863 42.210949 -0.185765 0.674944 0.031582 -0.034755 766372.000000 0 0 1
27.255570 -4.775946 32.441233 42.639294 -0.173467 0.706206 0.034270 -0.030250 626542.000000 0 0 1
27.518570 -3.682046 31.563743 42.036877 -0.133012 0.721435 0.041534 -0.037405 -564704.000000 0 0 1
28.214470 -2.437546 32.187553 42.872328 -0.086179 0.721559 0.033374 -0.038446 -253749.000000 0 0 1
29.543670 -2.644346 32.607023 44.079916 -0.089268 0.738134 0.027523 -0.031332 -395326.000000 0 0 1
30.162670 -1.479746 32.987703 44.723203 -0.049020 0.741292 0.021781 -0.021994 -1091920.000000 0 0 1
31.638070 -1.712846 33.178382 45.877079 -0.054086 0.762369 0.017514 -0.019331 -1135370.000000 0 0 1
32.397870 -1.854346 32.007643 45.580147 -0.057174 0.792275 0.026654 -0.016045 698470.000000 0 0 1
33.792770 -1.823146 32.384023 46.840155 -0.053899 0.807409 0.027867 -0.008983 1053160.000000 0 0 1
34.731270 -2.486446 31.349353 46.853233 -0.071469 0.837803 -0.004624 -0.002848 42935.600000 0 0 1
34.916770 -1.665846 30.225463 46.211844 -0.047673 0.857853 -0.010555 0.008496 110559.000000 0 0 1
-34.134424 -2.229846 29.427963 45.123565 0.065233 0.860361 -0.015314 0.011313 212621.000000 0 0 1
-33.884524 -1.620046 28.033613 44.007602 0.047774 0.880173 -0.012622 0.016717 -92491.900000 0 0 1
-34.946224 -1.816646 27.108633 44.265300 0.051937 0.911687 0.004049 0.002870 -118768.000000 0 0 1
-34.597024 -1.181946 25.899233 43.233336 0.034150 0.928473 -0.000753 0.004704 -486696.000000 0 0 1
-26.050730 15.720454 12.286456 32.813567 -0.542956 1.187012 0.019351 0.001332 -338136.000000 0 0 1
-27.234630 15.201454 12.815756 33.720215 -0.509091 1.180934 -0.007534 0.007875 234219.000000 0 0 1
-27.990090 16.083254 13.671856 35.057607 -0.521538 1.170184 0.006449 -0.000518 329032.000000 0 0 1
-29.265080 15.378454 14.197356 35.979253 -0.483830 1.165166 0.006286 -0.002826 597659.000000 0 0 1
-30.257760 16.181054 14.842256 37.385172 -0.491078 1.162540 0.011858 -0.004207 235930.000000 0 0 1
-31.310080 15.372354 15.325656 38.098636 -0.456399 1.156809 0.002873 0.016622 31193.600000 0 0 1
-32.274100 16.094454 16.310456 39.581308 -0.462591 1.146066 0.021038 0.009864 199441.000000 0 0 1
-31.684150 16.370454 17.569556 39.756338 -0.476900 1.113046 0.017704 0.015416 -125775.000000 0 0 1
-32.701340 16.732854 18.461656 41.112027 -0.472954 1.105086 0.013430 0.010896 -148992.000000 0 0 1
-32.142380 17.063954 19.873156 41.463881 -0.488050 1.070953 0.008145 0.010570 -34301.400000 0 0 1
-31.646320 15.854954 20.468856 40.888179 -0.464451 1.046498 0.006613 0.005458 -8971.680000 0 0 1
-30.312720 15.920854 20.918556 40.123815 -0.483620 1.022364 0.008839 0.004269 105828.000000 0 0 1
-30.164670 16.529854 22.344356 41.017236 -0.501297 0.994699 0.017435 -0.002824 -505290.000000 0 0 1
-30.585020 17.892954 22.340956 41.889373 -0.529335 1.008261 0.001548 0.003695 289287.000000 0 0 1
-30.934150 18.516354 23.621156 43.101462 -0.539370 0.990782 -0.002673 -0.008387 -15237.600000 0 0 1
-31.782920 17.650254 24.686956 43.944639 -0.506932 0.974268 -0.010780 -0.004826 530727.000000 0 0 1
-33.141710 17.314154 24.466156 44.684960 -0.481429 0.991392 0.010089 -0.001062 116385.000000 0 0 1
-34.017160 18.398554 24.460456 45.760112 -0.495800 1.006837 -0.002675 -0.006770 -1754660.000000 0 0 1
34.675660 17.935254 24.122456 45.890823 0.477336 1.017319 -0.034752 -0.009702 -1091220.000000 0 0 1
34.073315 17.098054 25.097156 45.642102 0.465088 0.988589 -0.016423 0.000767 -587989.000000 0 0 1
32.973565 16.511854 24.475656 44.260084 0.464256 0.984840 0.001395 -0.006409 -236695.000000 0 0 1
32.134335 15.708754 25.542156 43.952044 0.454685 0.950671 -0.004265 0.002830 -414015.000000 0 0 1
31.600695 16.469954 26.535156 44.429470 0.480455 0.930738 0.004743 0.001154 23953.200000 0 0 1
31.460315 15.942454 27.843556 44.935252 0.469031 0.902516 -0.005796 0.004145 278680.000000 0 0 1
30.430705 14.761954 28.015056 43.917951 0.451657 0.879034 -0.006261 0.002101 369938.000000 0 0 1
31.028965 13.554354 27.487956 43.613128 0.411847 0.888898 -0.011510 -0.006103 -153343.000000 0 0 1
30.162285 12.510754 27.622056 42.769854 0.393184 0.868686 -0.006370 0.000476 -687082.000000 0 0 1
30.747645 11.077054 27.315956 42.594369 0.345783 0.874599 -0.005914 0.009281 -397522.000000 0 0 1
31.717465 10.591954 28.168056 43.722151 0.322303 0.870752 -0.008982 0.007210 -475576.000000 0 0 1
31.970575 9.276254 27.792156 43.365545 0.282396 0.875151 -0.014158 0.009986 182142.000000 0 0 1
32.957005 8.561554 28.777456 44.582579 0.254161 0.869136 -0.010832 0.019708 891610.000000 0 0 1
34.273337 9.083854 28.872256 45.725105 0.259084 0.887399 -0.006930 0.014510 415536.000000 0 0 1
-34.831650 8.276154 29.496256 46.387150 -0.233279 0.881659 -0.018114 0.013822 -118112.000000 0 0 1
-33.525330 9.029954 29.689256 45.683036 -0.263103 0.863348 -0.013817 0.007146 -221139.000000 0 0 1
-32.743010 9.225454 28.510956 44.385677 -0.274634 0.873241 -0.016143 0.010591 -232838.000000 0 0 1
-31.575050 9.911254 28.832956 43.892552 -0.304155 0.854098 -0.002172 0.005605 -283529.000000 0 0 1
-30.870140 10.634854 27.656556 42.789610 -0.331769 0.868021 -0.001606 0.003657 136173.000000 0 0 1
-30.486210 9.718754 26.586456 41.601717 -0.308607 0.877506 0.002103 0.000048 749559.000000 0 0 1
-29.462640 10.294954 25.756156 40.464958 -0.336162 0.880838 0.000843 -0.004426 120064.000000 0 0 1
-28.816110 9.301354 24.860256 39.178000 -0.312226 0.883375 0.000966 -0.008519 219764.000000 0 0 1
-27.662690 9.762754 24.144056 37.993042 -0.339275 0.882158 -0.003611 -0.016082 321741.000000 0 0 1
-27.225440 8.665554 23.307156 36.871940 -0.308150 0.886522 -0.008391 -0.006236 -303128.000000 0 0 1
-26.083800 9.191354 22.439456 35.614250 -0.338792 0.889153 -0.012870 0.001247 -891194.000000 0 0 1
-24.953930 9.645154 23.184256 35.401092 -0.368831 0.856743 -0.007507 -0.007251 574360.000000 0 0 1
-23.948130 10.314254 22.436556 34.399067 -0.406681 0.860256 -0.017144 0.007974 565394.000000 0 0 1
-23.227630 9.523754 21.266156 32.900974 -0.389113 0.867981 -0.023287 0.019867 -1028380.000000 0 0 1
-23.982130 9.410754 20.069056 32.656881 -0.373944 0.908990 -0.019328 0.017953 10579.500000 0 0 1
-23.480430 8.653354 18.984056 31.410277 -0.353090 0.921796 -0.013600 0.020771 -557960.000000 0 0 1
-23.396730 7.119654 19.191656 31.087234 -0.295398 0.905429 -0.017677 0.026976 -276249.000000 0 0 1
-22.229530 6.652054 19.846756 30.533515 -0.290763 0.863213 -0.023996 0.023410 390594.000000 0 0 1
-22.288630 5.317954 20.296156 30.610417 -0.234216 0.845914 -0.015390 0.017547 -240740.000000 0 0 1
-22.371830 4.089354 19.339256 29.853449 -0.180794 0.866095 -0.006630 0.016932 -176839.000000 0 0 1
-23.567330 4.024354 18.581656 30.280231 -0.169129 0.910113 0.005667 0.017801 446258.000000 0 0 1
-23.507330 3.085854 17.505356 29.471250 -0.130526 0.934798 0.010762 0.017847 -133764.000000 0 0 1
-23.356630 1.542354 17.732756 29.365995 -0.065939 0.922470 0.003620 0.023826 -33914.000000 0 0 1
-22.118230 1.056954 18.231056 28.682829 -0.047750 0.882000 -0.027305 0.029832 318616.000000 0 0 1
-22.240130 -0.267246 18.663656 29.034925 0.012016 0.872648 -0.013710 0.019565 263491.000000 0 0 1
-20.936230 -1.131546 18.765456 28.138025 0.053995 0.840746 -0.011259 0.024788 164358.000000 0 0 1
-19.987130 -0.679646 19.678556 28.056957 0.033991 0.793466 -0.034228 0.025361 -497295.000000 0 0 1
-19.247730 -1.762446 20.202256 27.959122 0.091312 0.763292 -0.040820 0.016991 -671698.000000 0 0 1
-18.295830 -1.260146 21.295256 28.103617 0.068768 0.710952 -0.036826 0.018231 -324872.000000 0 0 1
-18.908930 -0.872646 22.458756 29.371838 0.046117 0.700320 -0.035335 0.010816 -547912.000000 0 0 1
-18.049030 -0.983646 23.579256 29.710543 0.054445 0.654040 -0.022116 0.006866 -319234.000000 0 0 1
-18.747630 -0.978846 24.948256 31.222544 0.052164 0.645089 -0.015267 0.006029 -28587.000000 0 0 1
-19.258730 0.255054 25.323356 31.815658 -0.013243 0.650237 -0.004584 -0.010563 397256.000000 0 0 1
-20.622130 0.191354 25.753956 32.993562 -0.009279 0.675211 -0.004319 -0.012914 276822.000000 0 0 1
-21.186030 1.337954 26.530856 33.978292 -0.063069 0.674823 0.010132 -0.020927 -678513.000000 0 0 1
-21.180730 2.547654 25.759956 33.446812 -0.119707 0.691678 0.007975 -0.015214 -180225.000000 0 0 1
-22.364630 2.829654 25.067556 33.712994 -0.125855 0.732421 0.005310 -0.007275 -1171060.000000 0 0 1
-22.189730 3.870154 23.964656 32.888706 -0.172675 0.754434 0.000702 -0.003709 31715.000000 0 0 1
-21.521530 3.437654 22.788156 31.532424 -0.158393 0.763110 -0.010151 0.001465 626266.000000 0 0 1
-20.146030 3.115654 22.951556 30.697618 -0.153438 0.726256 -0.022475 0.010572 -387964.000000 0 0 1
-19.377630 2.543954 21.736256 29.230619 -0.130536 0.732339 -0.031511 0.014150 -319940.000000 0 0 1
-19.129630 3.324454 20.619856 28.322662 -0.172067 0.755347 -0.031506 0.021174 129050.000000 0 0 1
-18.684530 2.442654 19.607956 27.194672 -0.129994 0.765520 -0.032908 0.017195 -129320.000000 0 0 1
-18.365330 3.093654 18.237256 26.066330 -0.166884 0.795892 -0.028433 0.018582 361236.000000 0 0 1
-17.083930 3.722754 18.193056 25.233051 -0.214556 0.765550 -0.024329 0.008085 352795.000000 0 0 1
-16.997930 4.507454 16.993756 24.454744 -0.259211 0.802507 -0.011386 0.010472 714755.000000 0 1 0
-15.536530 5.051654 16.701656 23.363396 -0.314365 0.774366 0.003919 0.006229 843442.000000 0 1 0
-15.095430 5.952454 17.691456 24.006069 -0.375602 0.742238 0.001025 0.006759 -84837.200000 0 1 0
-15.421730 7.352654 17.636856 24.555040 -0.444893 0.769501 -0.014966 0.001953 -655936.000000 0 1 0
-14.867130 8.216954 16.522456 23.696866 -0.504908 0.799253 -0.018954 0.005859 -252831.000000 0 1 0
-15.318230 7.985654 15.160456 22.983870 -0.480555 0.850493 -0.019619 0.007152 -648775.000000 0 1 0
-16.660330 8.267154 14.976556 23.879063 -0.460617 0.892864 -0.016610 0.017144 -1089560.000000 0 1 0
-17.219630 7.591954 13.697256 23.275916 -0.415252 0.941627 -0.015357 0.018301 -210052.000000 0 1 0
-17.187930 6.162854 13.770656 22.869995 -0.344278 0.924633 -0.000137 0.010224 209709.000000 0 1 0
-17.627230 5.570454 12.585656 22.363987 -0.306083 0.973070 0.004276 0.005479 -145620.000000 0 1 0
-17.314030 4.086054 12.535356 21.762505 -0.231756 0.956961 -0.000056 0.005976 -198300.000000 0 1 0
-17.932030 3.256354 13.566356 22.720202 -0.179637 0.930909 -0.012851 0.012190 400511.000000 0 1 0
-17.482830 1.909154 13.666256 22.272422 -0.108771 0.910190 -0.011015 0.007471 -569320.000000 0 1 0
-18.389930 1.024054 14.517656 23.452091 -0.055628 0.903283 -0.006214 0.007000 -744422.000000 0 1 0
-19.625030 0.665354 14.014756 24.124632 -0.033890 0.950924 -0.001310 0.011779 -751392.000000 0 1 0
-20.584330 0.593354 15.040856 25.500864 -0.028818 0.939963 -0.012684 0.018004 153172.000000 0 0 1
-21.991530 0.237454 14.481356 26.332365 -0.010797 0.988498 -0.002639 0.013706 -38505.400000 0 0 1
-21.970730 -1.018246 13.797656 25.963919 0.046312 1.010524 0.010843 0.006592 -411721.000000 0 0 1
-23.208430 -1.571346 13.475656 26.882962 0.067603 1.045729 0.023226 0.000591 -627637.000000 0 0 1
-23.310230 -2.700846 12.442556 26.560847 0.115351 1.083255 0.016056 -0.004982 -293388.000000 0 0 1
-22.826130 -3.866146 13.026756 26.564557 0.167781 1.058269 0.016703 -0.006011 61879.300000 0 0 1
-22.722430 -4.904146 12.059956 26.187822 0.212568 1.092218 0.026583 -0.018277 54726.400000 0 0 1
-22.518730 -6.323446 12.627656 26.580761 0.273758 1.075756 0.029694 -0.020084 228985.000000 0 0 1
-23.702330 -6.612146 13.337256 27.989343 0.272050 1.074113 0.017365 -0.018145 320680.000000 0 0 1
-23.614530 -7.912946 13.928856 28.535483 0.323329 1.060857 0.024886 -0.025631 -597933.000000 0 0 1
-24.683030 -8.168546 14.936956 29.984826 0.319593 1.049332 0.031440 -0.017844 494076.000000 0 0 1
-26.047400 -7.826046 14.602656 30.869914 0.291873 1.078060 0.022464 -0.022740 1614940.000000 0 0 1
-26.889140 -8.019246 15.773756 32.189215 0.289835 1.058669 0.020296 -0.013856 357427.000000 0 0 1
-28.405550 -7.775546 15.679856 33.364536 0.267188 1.081556 0.012970 -0.017296 380856.000000 0 0 1
-29.298980 -8.369946 14.721956 33.841132 0.278262 1.120723 0.010752 -0.010839 616810.000000 0 0 1
-29.396060 -9.801746 14.694156 34.294618 0.321844 1.127999 0.008943 -0.010973 -666414.000000 0 0 1
-29.841750 -10.514346 16.039956 35.473394 0.338755 1.101601 0.008602 -0.007384 -338671.000000 0 0 1
-28.865790 -10.458046 17.072656 35.129477 0.347589 1.063298 0.012725 -0.004289 -109788.000000 0 0 1
-29.131720 -11.103146 18.312056 36.156166 0.364139 1.039709 0.013631 0.007118 -543223.000000 0 0 1
-28.023040 -11.077546 19.379856 35.827107 0.376449 0.999257 0.018057 0.017565 134818.000000 0 0 1
-27.028060 -12.004146 18.973956 35.137253 0.417967 1.000365 0.029203 0.012357 163370.000000 0 0 1
-25.810300 -11.973646 19.712756 34.614051 0.434361 0.964897 0.023911 0.006743 116732.000000 0 0 1
-24.827630 -12.994046 19.188156 33.962358 0.482169 0.970384 0.041845 0.003465 -543808.000000 0 0 1
-24.242730 -12.581046 17.960756 32.689164 0.478702 0.989102 0.030779 0.003107 892110.000000 0 0 1
-22.880330 -13.056146 17.942856 31.873477 0.518542 0.972858 0.026594 -0.002014 694151.000000 0 0 1
-22.323530 -13.145146 16.534956 30.733364 0.532178 1.002718 0.039500 -0.010648 -219525.000000 0 0 1
-21.905930 -11.917146 15.987656 29.622513 0.498236 1.000700 0.036136 -0.014583 -321627.000000 0 0 1
-21.855530 -11.979346 14.593256 28.881344 0.501395 1.041086 0.037489 -0.020341 716689.000000 0 0 1
-20.578430 -11.218846 14.103856 27.354214 0.499131 1.029088 0.028502 -0.018741 305216.000000 0 0 1
-20.729630 -9.792646 14.207956 26.971828 0.441324 1.016000 0.026186 -0.018858 -93593.800000 0 0 1
-19.595330 -9.069846 13.772756 25.611089 0.433495 1.003012 0.028934 -0.013943 -201289.000000 0 0 1
-19.159130 -9.180946 12.242456 24.520191 0.446865 1.048028 0.035039 -0.004720 -225115.000000 0 1 0
-18.510430 -10.391646 11.915356 24.343337 0.511549 1.059313 0.022786 -0.007857 93508.700000 0 1 0
-18.440930 -10.502746 10.538856 23.694790 0.517717 1.109873 0.041769 -0.002118 -859876.000000 0 1 0
-17.950230 -11.836846 10.040356 23.730369 0.582973 1.133931 0.045173 0.003470 319893.000000 0 1 0
-16.567430 -12.123446 9.992656 22.832233 0.631727 1.117807 0.049057 -0.006828 695393.000000 0 1 0
-15.768830 -11.993446 11.194856 22.755737 0.650238 1.056460 0.032286 -0.007057 358016.000000 0 1 0
-14.252030 -12.334846 11.061156 21.854472 0.713413 1.040107 0.035287 -0.006811 656277.000000 0 1 0
-13.990830 -13.724846 10.858656 22.405918 0.775802 1.064852 0.026036 -0.012843 -156395.000000 0 1 0
-12.599530 -13.923746 10.812356 21.668547 0.835283 1.048365 0.034370 -0.015625 -31426.900000 0 1 0
-12.175130 -15.415646 10.721656 22.379228 0.902312 1.071179 0.025305 -0.011851 -86500.900000 0 1 0
-12.402130 -15.967246 9.468756 22.325392 0.910411 1.132801 0.015416 -0.012194 158991.000000 0 1 0
-12.197830 -17.394246 9.617556 23.320468 0.959228 1.145700 0.008936 -0.004698 -98012.300000 0 1 0
-12.607530 -18.139046 8.292656 23.595401 0.963401 1.211674 0.003930 -0.009980 -742579.000000 0 1 0
-11.851530 -17.997246 7.152956 22.705163 0.988456 1.250301 0.009542 -0.015271 -807926.000000 0 1 0
-12.184230 -18.796246 6.099456 23.215462 0.995669 1.304943 0.002886 -0.001700 -27391.200000 0 1 0
-11.384630 -18.399446 4.808756 22.164692 1.016705 1.352102 0.003557 -0.005668 32788.000000 0 1 0
-11.661630 -19.087546 3.582556 22.653096 1.022361 1.411981 0.007558 -0.009217 -255768.000000 0 1 0
-10.703930 -18.945546 2.583256 21.913034 1.056522 1.452635 0.000142 -0.018072 -352505.000000 0 1 0
-10.934230 -19.893946 1.435956 22.746174 1.068240 1.507625 0.004528 -0.011226 -66543.700000 0 1 0
-10.629130 -21.186146 1.886756 23.777953 1.105788 1.491364 -0.006956 -0.016261 -96251.100000 0 1 0
-11.034730 -22.258046 0.995656 24.863170 1.110544 1.530740 0.001049 -0.014176 1186180.000000 0 1 0
-9.989930 -22.557146 -0.237644 24.671441 1.153886 1.580429 0.010545 -0.007587 892165.000000 0 1 0
-10.047030 -21.608246 -1.290944 23.864736 1.135569 1.624917 0.012293 -0.011784 -481787.000000 0 1 0
-11.047530 -21.770546 -2.259444 24.517538 1.101204 1.663083 0.018321 -0.004459 209300.000000 0 1 0
-12.199130 -20.722446 -2.270844 24.153577 1.038733 1.664952 0.016279 -0.001492 589852.000000 0 1 0
-13.028030 -20.795346 -1.102244 24.564017 1.011128 1.615684 0.018272 0.000439 -217967.000000 0 1 0
-13.976130 -19.788446 -1.095744 24.251092 0.955870 1.615995 0.022744 0.010021 -238112.000000 0 1 0
26.228670 -20.865846 -4.706144 33.844859 -0.672013 1.710299 0.014814 0.008736 -1296220.000000 0 0 1
24.907170 -20.955846 -4.318944 32.835467 -0.699455 1.702711 0.023803 0.016368 -849758.000000 0 0 1
24.782270 -21.646546 -3.052044 33.046162 -0.717962 1.663285 -0.002312 0.007666 1687640.000000 0 0 1
23.260670 -21.727546 -2.523544 31.929819 -0.751333 1.649913 -0.015892 0.005040 1858760.000000 0 0 1
22.475770 -22.584146 -3.318644 32.034627 -0.787803 1.674578 -0.001493 -0.002321 -412375.000000 0 0 1
21.319070 -23.053946 -2.685244 31.515040 -0.824476 1.656105 -0.000669 0.005089 -570888.000000 0 0 1
20.351470 -23.757646 -3.578744 31.486751 -0.862467 1.684701 0.004259 -0.005868 -485769.000000 0 0 1
19.651470 -22.916046 -4.467244 30.516909 -0.861940 1.717710 0.010079 -0.004165 -52015.800000 0 0 1
18.482570 -23.586546 -4.918344 30.366440 -0.906132 1.733479 0.024655 -0.014026 598503.000000 0 0 1
17.394970 -22.617246 -5.550844 29.067795 -0.915182 1.762938 0.014743 0.009052 308670.000000 0 0 1
16.530070 -21.952146 -4.658244 27.871835 -0.925375 1.738715 0.010445 0.013247 546737.000000 0 0 1
17.207870 -20.993746 -3.811344 27.411212 -0.884178 1.710292 0.011493 0.002867 -70424.800000 0 0 1
16.284970 -20.323146 -2.765144 26.189245 -0.895262 1.676577 0.037695 0.011491 11036.300000 0 0 1
15.929970 -21.246446 -1.744944 26.612408 -0.927442 1.636412 0.030326 0.006785 236872.000000 0 0 1
15.014370 -20.663546 -0.843844 25.556321 -0.942433 1.603821 0.038207 0.014114 -115982.000000 0 0 1
14.695770 -21.414846 0.442056 25.976080 -0.969364 1.553778 0.022727 0.006882 -200342.000000 0 0 1
13.821070 -22.499846 0.407056 26.408914 -1.019947 1.555382 0.036842 0.001743 -306757.000000 0 0 1
13.082470 -22.656146 1.604556 26.211192 -1.047133 1.509542 0.035332 -0.007627 70156.600000 0 0 1
12.142770 -23.896246 1.560256 26.849802 -1.100654 1.512653 0.037241 -0.007343 -26283.700000 0 0 1
12.728170 -25.117146 1.940556 28.224867 -1.101762 1.501989 0.027577 -0.013737 400656.000000 0 0 1
11.889270 -26.193906 1.500756 28.804995 -1.144708 1.518672 0.028247 -0.010251 357405.000000 0 0 1
12.241470 -27.466796 2.229856 30.153785 -1.151539 1.496779 0.023395 -0.018451 -48393.400000 0 0 1
11.699870 -27.589326 3.511656 30.172663 -1.169712 1.454147 0.046786 -0.024706 34585.300000 0 0 1
12.077870 -28.780056 4.134656 31.484313 -1.173456 1.439092 0.041637 -0.021633 -389334.000000 0 0 1
11.380770 -29.001256 5.489156 31.634248 -1.196839 1.396394 0.036368 -0.022710 -315413.000000 0 0 1
12.054770 -29.968096 6.261956 32.903136 -1.188349 1.379313 0.024234 -0.016719 -277078.000000 0 0 1
11.468470 -30.269956 7.489556 33.224833 -1.208634 1.343422 0.010790 -0.016340 -381529.000000 0 0 1
12.261170 -31.328986 8.251656 34.640027 -1.197753 1.330272 0.017846 -0.009495 -287971.000000 0 0 1
11.834470 -31.616706 9.555656 35.085344 -1.212630 1.294957 0.015572 -0.009090 765644.000000 0 0 1
10.889470 -32.762866 9.616856 35.839502 -1.249911 1.299136 0.009761 -0.009447 1029440.000000 0 0 1
10.560070 -33.190676 11.041556 36.538364 -1.262760 1.263806 0.008680 -0.003044 -158454.000000 0 0 1
11.638670 -33.820126 11.725956 37.639841 -1.239356 1.253993 0.013263 -0.002644 197290.000000 0 0 1
11.359470 -34.219330 12.994256 38.325590 -1.250282 1.224890 0.018678 0.001349 367420.000000 0 0 1
10.258570 34.025119 13.346156 37.961387 1.277964 1.211547 0.012686 0.005240 112944.000000 0 0 1
10.577370 32.771601 12.738556 36.716882 1.258592 1.216490 0.015333 0.009864 369943.000000 0 0 1
9.617370 31.737311 12.941756 35.598312 1.276562 1.198721 0.000148 0.013703 -77049.300000 0 0 1
9.714170 30.683711 11.783856 34.274109 1.264189 1.219823 -0.004683 0.019298 -37308.600000 0 0 1
9.436870 31.060151 10.435856 34.098308 1.275833 1.259753 -0.014214 0.015503 618806.000000 0 0 1
10.427370 31.981481 9.916556 35.069692 1.255620 1.284119 -0.006730 0.012133 444040.000000 0 0 1
10.140670 32.546091 8.510656 35.135630 1.268751 1.326140 -0.011560 0.016164 528132.000000 0 0 1
8.976670 33.388916 8.401256 35.580633 1.308155 1.332427 -0.006185 0.008966 698458.000000 0 0 1
8.425270 33.415587 7.114556 35.188117 1.323808 1.367206 -0.014008 0.008100 -28161.000000 0 0 1
8.888770 -34.556901 6.473756 36.264296 -1.319033 1.391318 -0.010031 0.010575 235123.000000 0 0 1
8.138770 -33.426466 6.942556 35.096543 -1.331961 1.371670 -0.005359 0.008363 301001.000000 0 0 1
8.469270 -32.263806 6.207256 33.929512 -1.314087 1.386814 0.011465 -0.012424 -49173.300000 0 0 1
7.598170 -31.020656 6.572456 32.606909 -1.330587 1.367839 0.008899 -0.014725 -83782.800000 0 0 1
7.778670 -30.521616 7.915956 32.476748 -1.321251 1.324574 0.020877 -0.014775 -124540.000000 0 0 1
7.212770 -29.250026 8.046456 31.182263 -1.329029 1.309797 0.024783 -0.016513 -155297.000000 0 0 1
8.144170 -28.091706 7.600056 30.219734 -1.288619 1.316574 0.035770 -0.018616 -591159.000000 0 0 1
9.061070 -27.732716 8.603756 30.417613 -1.255002 1.284028 0.032410 -0.019132 271971.000000 0 0 1
9.994170 -26.672596 8.294556 29.666656 -1.212290 1.287427 0.034829 -0.021707 497563.000000 0 0 1
9.508270 -25.359956 7.594656 28.128516 -1.212085 1.297405 0.037748 -0.019631 -296189.000000 0 0 1
9.047470 -25.615026 6.240156 27.873389 -1.231265 1.345008 0.037709 -0.018546 -136348.000000 0 0 1
8.297670 -24.567846 5.658656 26.541492 -1.245080 1.355947 0.035658 -0.012747 235319.000000 0 0 1
7.984670 -24.853746 4.141756 26.431379 -1.259945 1.413449 0.048264 -0.012834 -20118.900000 0 0 1
7.152170 -25.940936 3.901356 27.190187 -1.301770 1.426815 0.032804 -0.012086 -722299.000000 0 0 1
7.776470 -27.199586 3.885956 28.555063 -1.292321 1.434286 0.042993 -0.014265 -386573.000000 0 0 1
6.899570 -28.379906 3.515556 29.417381 -1.332308 1.451004 0.040042 -0.012466 -285632.000000 0 0 1
5.920670 -28.771896 4.445756 29.709276 -1.367850 1.420590 0.026754 -0.002958 806749.000000 0 0 1
4.769770 -29.451436 3.862756 30.084193 -1.410237 1.442043 0.012509 0.003582 1132860.000000 0 0 1
4.717170 -30.928286 4.197156 31.566227 -1.419443 1.437438 0.014508 -0.001229 49151.100000 0 0 1
5.613070 -31.666196 3.364656 32.335359 -1.395361 1.466553 0.016556 0.000273 205292.000000 0 0 1
5.630170 -32.975236 3.825956 33.670506 -1.401688 1.456921 0.003019 0.009197 -186694.000000 0 0 1
6.758470 -33.843116 3.244656 34.663543 -1.373689 1.477055 -0.000506 0.010228 -209931.000000 0 0 1
6.612470 -34.127241 1.859656 34.811660 -1.379409 1.517350 0.007903 0.011546 -88146.600000 0 0 1
7.537970 34.242274 1.390656 35.089717 1.354116 1.531154 0.001414 0.008412 -570819.000000 0 0 1
7.181070 33.771969 0.001556 34.526999 1.361283 1.570751 0.016166 0.010148 115517.000000 0 0 1
6.123970 32.854401 -0.165744 33.420685 1.386514 1.575756 0.003579 0.010824 369476.000000 0 0 1
4.833370 33.495679 -0.088344 33.842722 1.427487 1.573407 0.005736 0.009305 423077.000000 0 0 1
3.688070 32.483071 0.167156 32.692197 1.457742 1.565683 0.001286 0.011268 62792.300000 0 0 1
3.613970 31.500021 -0.885644 31.719024 1.456567 1.598721 0.006828 0.009416 -189277.000000 0 0 1
2.528570 30.625601 -0.743944 30.738812 1.488419 1.595001 -0.001750 0.004514 -126359.000000 0 0 1
2.444970 29.549121 -1.832444 29.706671 1.488242 1.632520 0.003770 0.002797 -101641.000000 0 0 1
2.204170 30.037241 -3.122244 30.279410 1.497546 1.674094 0.012749 -0.006287 -30791.400000 0 0 1
1.774270 28.990091 -3.980344 29.315807 1.509670 1.706992 0.013535 -0.013152 -113934.000000 0 0 1
1.495870 29.409451 -5.448644 29.947307 1.519977 1.753756 0.014575 -0.014855 344132.000000 0 0 1
0.293070 30.152471 -5.658944 30.680304 1.561077 1.756307 0.012629 -0.010113 324932.000000 0 0 1
0.205070 30.969751 -6.828844 31.714360 1.564175 1.787819 0.005245 -0.006639 -149757.000000 0 0 1
-0.016630 30.338231 -8.196344 31.425923 -1.570248 1.834662 0.013381 -0.014175 -36875.900000 0 0 1
-1.281430 29.713241 -8.395944 30.903246 -1.527696 1.845940 0.018662 -0.012058 330952.000000 0 0 1
-1.605030 29.307481 -9.760344 30.931681 -1.516086 1.891827 0.029392 -0.017169 43634.800000 0 0 1
-1.703030 30.359581 -10.940244 32.315529 -1.514760 1.916166 0.012511 -0.019197 380392.000000 0 0 1
-0.498730 31.090791 -11.218444 33.056611 -1.554757 1.917044 0.013227 -0.014079 545035.000000 0 0 1
-0.822530 32.312241 -11.931344 34.454527 -1.545346 1.924412 -0.000655 -0.015405 9412.830000 0 0 1
-1.071130 33.582815 -10.973044 35.346294 -1.538912 1.886456 -0.008339 -0.009883 179342.000000 0 0 1
0.038770 33.705666 -10.088944 35.183238 1.569646 1.861633 -0.008796 -0.016470 214166.000000 0 0 1
-0.357030 34.386063 -8.956544 35.535172 -1.560414 1.825592 -0.004730 -0.003355 -291082.000000 0 0 1
0.830270 34.547358 -7.983944 35.467629 1.546768 1.797847 0.008174 -0.014542 -84200.400000 0 0 1
1.699570 -33.725696 -8.302244 34.774105 -1.520445 1.811873 0.025289 -0.009667 -388372.000000 0 0 1
2.421570 -33.362426 -7.133744 34.202424 -1.498340 1.780913 0.027732 -0.014488 -549410.000000 0 0 1
3.725870 -32.597296 -7.533444 33.663312 -1.456990 1.796496 0.003834 -0.004770 443360.000000 0 0 1
4.630270 -33.366226 -8.305444 34.694738 -1.432906 1.812530 0.013889 -0.001844 148578.000000 0 0 1
5.426370 -34.175781 -7.430944 35.392774 -1.413333 1.782327 0.035031 0.003049 -957113.000000 0 0 1
6.100070 33.921538 -8.059644 35.395473 1.392869 1.800514 0.042629 0.003856 -96572.600000 0 0 1
5.248070 32.828401 -8.339044 34.275149 1.412274 1.816560 0.038775 -0.001745 -267735.000000 0 0 1
4.323070 33.039621 -9.372744 34.614359 1.440690 1.844996 0.041000 -0.010984 88593.700000 0 0 1
3.414670 31.819111 -9.679344 33.433599 1.463890 1.864511 0.023936 -0.016055 352159.000000 0 0 1
4.048670 30.864841 -10.517244 32.857915 1.440367 1.896613 0.014425 -0.007461 39914.700000 0 0 1
3.314470 29.675851 -10.466244 31.641494 1.459568 1.907922 0.008357 -0.013070 -4426.580000 0 0 1
3.960770 28.597271 -11.336244 31.016158 1.433170 1.944961 0.013164 -0.007567 -162249.000000 0 0 1
3.726270 28.770301 -12.751744 31.689467 1.441995 1.984930 0.017475 -0.004979 336530.000000 0 0 1
4.895070 29.117851 -13.510744 32.470774 1.404241 1.999937 0.017160 -0.004419 192698.000000 0 0 1
4.604770 29.609031 -14.936444 33.481278 1.416513 2.033214 0.020358 -0.001620 -295846.000000 0 0 1
4.135370 28.524891 -15.721844 32.832104 1.426825 2.070147 0.015365 -0.006296 -30213.300000 0 0 1
4.035370 29.038241 -17.009444 33.894319 1.432713 2.096518 0.021235 -0.008361 -139678.000000 0 0 1
2.934070 28.405781 -17.876844 33.690929 1.467870 2.130120 0.010182 -0.012299 -244044.000000 0 0 1
3.287970 27.191921 -18.453544 33.026423 1.450463 2.163675 0.019584 -0.005711 325219.000000 0 0 1
2.438070 26.772141 -19.571744 33.252743 1.479979 2.200092 0.009760 -0.010011 475512.000000 0 0 1
3.022670 25.605171 -20.375444 32.862137 1.453291 2.239575 0.019643 -0.009844 32683.800000 0 0 1
3.142370 24.482061 -19.529044 31.474265 1.443140 2.240147 0.019935 -0.015584 -264854.000000 0 0 1
3.987970 23.490691 -20.002444 31.109713 1.402632 2.269159 0.023654 -0.012659 -224532.000000 0 0 1
4.323670 22.402891 -18.925444 29.643820 1.380144 2.263250 0.033885 -0.019790 -246809.000000 0 0 1
3.329270 21.414291 -18.754944 28.660143 1.416562 2.284173 0.035173 -0.015694 -35947.400000 0 0 1
3.853270 20.359991 -17.950244 27.415109 1.383752 2.284658 0.031072 -0.012155 156300.000000 0 0 1
2.835870 19.213791 -17.772344 26.326187 1.424259 2.311873 0.025748 -0.018084 135035.000000 0 0 1
1.834970 19.449491 -16.797044 25.764132 1.476729 2.280956 0.033083 -0.013601 -323257.000000 0 0 1
1.085970 18.372791 -16.387944 24.643528 1.511757 2.298290 0.021560 -0.008505 -48246.300000 0 1 0
1.877470 17.305291 -15.498344 23.306580 1.462728 2.298260 0.020369 -0.004287 822471.000000 0 1 0
3.020170 16.700491 -16.139344 23.420210 1.391887 2.331071 0.018843 -0.012637 81163.700000 0 1 0
2.762470 15.543091 -16.942944 23.157769 1.394903 2.391508 0.023628 -0.017811 -246154.000000 0 1 0
2.737970 15.797591 -18.441144 24.436369 1.399185 2.425932 0.013980 -0.017230 -39216.100000 0 1 0
4.001970 16.211491 -18.939444 25.249371 1.328775 2.419003 0.023677 -0.017103 -202298.000000 0 0 1
4.040270 16.687591 -20.307944 26.593459 1.333255 2.439735 0.014401 -0.014294 -588087.000000 0 0 1
4.328070 15.591191 -21.354644 26.792503 1.300017 2.493171 0.007313 -0.008768 260716.000000 0 0 1
3.341470 14.629391 -21.674244 26.362044 1.346240 2.536020 0.005601 -0.003113 392745.000000 0 0 1
2.066270 15.068591 -22.153244 26.871883 1.434522 2.539942 0.008550 -0.006643 584382.000000 0 0 1
1.234870 13.904491 -22.761044 26.700653 1.482218 2.591455 0.011444 0.007610 172448.000000 0 0 1
0.601570 13.106591 -21.714944 25.370916 1.524930 2.598083 0.013240 0.007369 111313.000000 0 0 1
-0.266030 12.143091 -22.216244 25.319694 -1.548892 2.641273 0.004827 0.006082 -276760.000000 0 0 1
-0.736230 11.137991 -21.202844 23.961583 -1.504792 2.657007 0.009954 -0.000976 157731.000000 0 1 0
-1.777130 11.587291 -20.291844 23.434642 -1.418613 2.617725 0.009133 -0.000360 552937.000000 0 1 0
-2.078430 10.664791 -19.286644 22.136672 -1.378322 2.628546 0.001825 -0.001591 206901.000000 0 1 0
-3.027830 9.467591 -19.635844 22.008394 -1.261266 2.672985 -0.008022 -0.008044 -268626.000000 0 1 0
-2.489730 8.582791 -20.612244 22.466144 -1.288461 2.732495 -0.001232 -0.003762 -286472.000000 0 1 0
-3.399630 7.617891 -21.097644 22.687008 -1.151049 2.765056 -0.010161 0.009084 -69829.900000 0 1 0
-2.679630 6.584691 -21.988244 23.108904 -1.184314 2.828889 -0.005914 0.006330 122647.000000 0 1 0
-2.133630 5.560791 -21.238544 22.057890 -1.204427 2.868179 0.010347 0.005444 -235419.000000 0 1 0
-1.899630 4.482791 -22.090744 22.620897 -1.169976 2.924666 0.020672 0.005566 -512589.000000 0 1 0
-1.418230 3.229491 -21.328044 21.617734 -1.157002 2.977699 0.017444 0.007505 187120.000000 0 1 0
-0.064930 3.491991 -20.984144 21.272811 -1.552205 2.976665 0.002555 0.003641 -102140.000000 0 1 0
0.435070 2.439491 -20.210744 20.362086 1.394307 3.019594 0.003733 0.007482 -520581.000000 0 1 0
1.949070 2.419791 -20.043544 20.282946 0.892729 2.987798 -0.000956 -0.002008 -451879.000000 0 1 0
2.587970 1.979191 -21.206644 21.455454 0.652884 2.989152 0.007512 -0.006548 806748.000000 0 1 0
4.027670 1.950791 -21.119444 21.588391 0.451047 2.932780 0.014200 -0.006615 988644.000000 0 1 0
4.736870 1.160891 -22.213244 22.742335 0.240339 2.925466 0.015337 -0.006005 843401.000000 0 1 0
6.170670 1.193491 -22.077744 22.954920 0.191055 2.864252 0.007336 -0.009243 597085.000000 0 1 0
6.754870 0.511291 -23.115044 24.087236 0.075548 2.856511 0.008008 -0.012042 -171164.000000 0 1 0
8.250470 0.866791 -23.260144 24.695260 0.104676 2.799000 0.006604 -0.012892 57228.100000 0 1 0
8.519370 2.114591 -23.840244 25.404889 0.243293 2.788801 0.007449 -0.009165 -1322310.000000 0 0 1
9.799470 2.196291 -24.302444 26.295666 0.220480 2.749731 0.004297 -0.009007 -1420380.000000 0 0 1
13.316070 -21.993646 22.247033 33.999539 -1.026379 0.857496 -0.009746 0.004764 -476741.000000 0 0 1
12.130870 -22.728946 22.357133 34.111646 -1.080539 0.856070 -0.020823 0.015174 63447.800000 0 0 1
10.933070 -21.988746 22.125033 33.053806 -1.109382 0.837444 -0.016142 0.009852 798748.000000 0 0 1
10.390570 -21.669446 20.714833 31.727483 -1.123680 0.859391 -0.000680 -0.001893 -112202.000000 0 0 1
11.171270 -20.640846 20.126933 30.918202 -1.074718 0.861930 -0.014402 -0.003182 104632.000000 0 0 1
10.740870 -20.485846 18.792033 29.802293 -1.087893 0.888526 0.022519 -0.012042 64731.400000 0 0 1
10.985870 -19.097446 18.161133 28.552207 -1.048772 0.881405 0.027786 -0.010629 -224559.000000 0 0 1
10.354570 -18.020246 18.795333 28.021616 -1.049257 0.835585 0.025785 -0.005891 -21866.500000 0 0 1
10.734070 -16.785946 18.173133 26.967592 -1.001861 0.831338 0.024454 -0.005737 411720.000000 0 0 1
9.834070 -15.584746 18.677033 26.237851 -1.007890 0.778688 0.035387 0.009655 1379090.000000 0 0 1
8.479870 -15.623146 18.197633 25.439040 -1.073516 0.773682 0.025426 0.008129 718033.000000 0 0 1
7.700670 -14.527546 18.741733 24.931957 -1.083380 0.720137 0.010718 0.012589 435478.000000 0 1 0
6.218170 -14.681246 18.337933 24.299885 -1.170159 0.715674 -0.003213 0.011512 -232144.000000 0 1 0
5.994070 -14.676446 16.933233 23.196149 -1.183057 0.752472 0.000506 0.004521 96478.300000 0 1 0
4.620170 -14.880446 16.658933 22.809947 -1.269747 0.751982 -0.012890 0.001605 6435.230000 0 1 0
4.011370 -16.300746 16.675333 23.661618 -1.329506 0.788737 -0.022552 0.003846 -629670.000000 0 1 0
2.632270 -16.161446 16.424633 23.192451 -1.409341 0.783867 -0.018198 0.004664 -508706.000000 0 1 0
2.073270 -17.429046 16.533133 24.112540 -1.452398 0.815279 -0.012955 0.001804 64492.700000 0 1 0
0.574670 -17.516246 16.179533 23.852178 -1.538000 0.825316 -0.008769 0.006353 -143313.000000 0 1 0
0.375770 -17.263646 14.804833 22.745500 -1.549033 0.862039 -0.007041 -0.001801 439998.000000 0 1 0
-0.970830 -17.639946 14.478033 22.841271 1.515816 0.884270 -0.002847 0.004037 515361.000000 0 1 0
-1.307430 -17.936046 12.976933 22.176833 1.498031 0.945722 -0.005640 -0.010972 135440.000000 0 1 0
-2.652530 -18.346746 12.826833 22.542552 1.427214 0.965501 -0.000989 -0.010379 59784.700000 0 1 0
-2.830030 -19.772346 12.605833 23.619098 1.428631 1.007811 0.002359 -0.005347 -92212.300000 0 1 0
-4.276830 -20.290446 12.565833 24.246518 1.363057 1.025989 0.010636 -0.004723 197838.000000 0 1 0
-4.794830 -20.790546 13.791233 25.405419 1.344134 0.996974 0.001296 -0.001709 254052.000000 0 0 1
-6.161930 -21.170746 13.645833 25.930265 1.287563 1.016610 0.002712 -0.000510 365615.000000 0 0 1
-6.655730 -22.151546 14.652333 27.380296 1.278914 1.006121 0.004362 0.001894 181427.000000 0 0 1
-7.923830 -21.742646 15.153833 27.661677 1.221318 0.991031 0.004695 0.010629 -12573.700000 0 0 1
-8.551630 -22.743946 15.894733 29.035495 1.211153 0.991513 0.008304 0.006118 -543869.000000 0 0 1
-9.960030 -22.386846 16.335433 29.448590 1.152187 0.982782 0.013366 0.009432 -643452.000000 0 0 1
-10.035430 -21.221746 17.140233 29.066475 1.129076 0.940120 0.004962 0.006386 -452157.000000 0 0 1
-11.060430 -20.366146 16.722233 28.578770 1.073282 0.945759 0.016529 -0.001580 -458254.000000 0 0 1
-11.268330 -19.272446 17.772833 28.535522 1.041713 0.898439 0.002617 0.004483 -146640.000000 0 0 1
-11.923830 -19.681646 18.962333 29.818031 1.026097 0.881577 0.002926 0.005851 23189.900000 0 0 1
-12.280630 -18.633846 19.896733 29.898396 0.988086 0.842662 0.001576 0.005036 32624.900000 0 0 1
-12.653730 -19.259846 21.237533 31.338337 0.989516 0.826186 0.004339 -0.002298 -220780.000000 0 0 1
-13.833230 -20.015246 21.157733 32.243108 0.966045 0.855033 0.002289 0.000827 -277425.000000 0 0 1
-14.058030 -20.737246 22.324633 33.556681 0.975049 0.842926 0.001503 0.014828 392883.000000 0 0 1
-15.387730 -21.562546 22.306033 34.630691 0.950980 0.870935 0.003599 0.006847 -485742.000000 0 0 1
-15.401830 -22.513446 21.239633 34.571573 0.970810 0.909213 0.001745 0.006417 -437708.000000 0 0 1
-16.607730 -23.014946 20.739933 35.151803 0.945716 0.939724 0.006336 0.016358 -572252.000000 0 0 1
-17.514630 -23.695846 21.790433 36.648033 0.934280 0.934045 0.002887 0.007284 -927462.000000 0 0 1
-18.258530 -22.728546 22.523633 36.841210 0.894028 0.913005 0.008627 0.010384 -272803.000000 0 0 1
-18.971930 -23.324146 23.556433 38.194966 0.887936 0.906199 0.015159 0.004917 -323795.000000 0 0 1
-19.521230 -22.158646 24.414023 38.316165 0.848592 0.879972 0.008877 0.011842 -8568.580000 0 0 1
-20.416630 -21.278046 23.726433 37.848879 0.806055 0.893263 0.019609 0.015448 410419.000000 0 0 1
-20.724430 -20.126446 24.511313 37.886413 0.770761 0.867194 0.016919 0.012320 -177499.000000 0 0 1
-21.784830 -19.262946 23.859333 37.615259 0.724038 0.883694 0.027230 0.016846 -269789.000000 0 0 1
-21.226030 -18.387646 22.879933 36.223490 0.713869 0.887139 0.027367 0.016909 409362.000000 0 0 1
-22.181230 -17.457046 22.338233 35.996556 0.666775 0.901332 0.024512 0.013246 100325.000000 0 0 1
-21.677330 -16.860346 21.039333 34.595252 0.661049 0.917060 0.025105 0.019067 -40259.600000 0 0 1
-20.532630 -16.047346 21.087633 33.523044 0.663391 0.890467 0.024162 0.019116 -434584.000000 0 0 1
-20.498130 -15.486546 19.804233 32.437850 0.647018 0.914069 0.025878 0.013612 21463.500000 0 0 1
-19.521930 -14.332946 19.575533 31.140658 0.633310 0.891023 0.017264 0.008246 -140676.000000 0 0 1
-19.170730 -14.341246 18.208433 30.078817 0.642271 0.920582 0.017780 0.003840 -157473.000000 0 0 1
-18.355030 -13.244046 17.871933 28.839519 0.625042 0.902432 0.024133 -0.009257 -601678.000000 0 0 1
-18.067330 -13.235046 16.369533 27.740881 0.632233 0.939630 0.011990 -0.011965 -67592.800000 0 0 1
-17.766430 -11.990346 15.803933 26.630410 0.593673 0.935452 0.012306 -0.010079 118494.000000 0 0 1
-16.503330 -11.474546 16.190433 25.809983 0.607556 0.892723 0.001706 -0.007825 -235626.000000 0 0 1
-16.074530 -10.257546 15.339433 24.472555 0.567981 0.893355 0.013771 -0.014906 23911.500000 0 1 0
-16.833930 -9.088646 15.561433 24.660553 0.495056 0.887922 0.019082 -0.009301 24901.000000 0 1 0
-16.259130 -8.016846 14.850933 23.434576 0.458086 0.884445 0.010995 -0.008722 -621199.000000 0 1 0
-16.497930 -6.666546 15.603033 23.665992 0.384022 0.850906 0.011827 -0.003080 179508.000000 0 1 0
-15.738430 -6.465346 16.760933 23.883629 0.389782 0.792910 0.007322 0.004071 691423.000000 0 1 0
-14.333130 -6.267746 16.506733 22.741932 0.412235 0.758559 0.015929 -0.001523 758986.000000 0 1 0
-13.507930 -6.203546 17.862733 23.238446 0.430521 0.694035 0.017860 0.001197 172693.000000 0 1 0
-13.610130 -7.321646 18.773233 24.316176 0.493549 0.688741 0.016655 -0.007319 -178320.000000 0 1 0
-12.894730 -8.436746 18.366333 23.974464 0.579377 0.698078 0.011018 -0.004162 -690919.000000 0 1 0
-12.960230 -9.619446 19.317733 25.172924 0.638508 0.696018 0.014651 -0.006270 809249.000000 0 0 1
-14.233730 -10.260346 19.506033 26.236598 0.624581 0.732557 0.011581 -0.000437 107753.000000 0 0 1
-15.058630 -9.633946 20.416733 27.137027 0.569145 0.719164 0.013019 -0.002799 -534150.000000 0 0 1
-16.463230 -10.348546 20.553233 28.294270 0.561173 0.757713 0.011074 -0.000026 1294430.000000 0 0 1
-17.368630 -10.229646 19.443233 28.006326 0.532272 0.803427 0.017502 -0.006433 421885.000000 0 0 1
-17.805630 -8.924646 19.118133 27.607839 0.464628 0.805862 0.008211 -0.008015 -225295.000000 0 0 1
-18.983330 -8.952746 18.076633 27.699876 0.440680 0.859800 0.021738 -0.010269 -10640.800000 0 0 1
-20.236930 -9.160546 18.625433 28.988889 0.425068 0.873037 0.019734 -0.010484 -414116.000000 0 0 1
-21.270630 -9.309146 17.646833 29.163515 0.412539 0.920905 0.030384 -0.014770 327807.000000 0 0 1
-22.683430 -9.466046 18.213533 30.592104 0.395340 0.933074 0.028321 -0.007820 -34341.000000 0 0 1
-23.264530 -8.339646 18.917433 31.123260 0.344201 0.917480 0.028189 -0.003041 1269280.000000 0 0 1
-24.647830 -8.583346 19.228333 32.417868 0.335106 0.935843 0.024106 0.003798 865525.000000 0 0 1
-25.318320 -7.476946 20.075733 33.165601 0.287156 0.920631 0.026882 0.001964 55982.800000 0 0 1
-24.877430 -7.503746 21.438533 33.686843 0.292950 0.880965 0.032420 -0.002670 595257.000000 0 0 1
-25.589540 -6.495546 22.139633 34.455479 0.248586 0.872965 0.028126 0.000111 -365486.000000 0 0 1
-25.365530 -6.709946 23.667333 35.335197 0.258607 0.836864 0.026220 -0.005357 1077340.000000 0 0 1
-24.102130 -6.252446 24.224413 34.739429 0.253820 0.799148 0.008367 -0.006892 1604920.000000 0 0 1
-22.999230 -7.153546 23.971633 33.982010 0.301549 0.787779 0.015198 -0.003352 -357267.000000 0 0 1
-21.953330 -6.958646 25.049303 34.027034 0.306956 0.743419 0.018450 -0.002290 -593732.000000 0 0 1
-21.386930 -5.656146 25.064223 33.430645 0.258548 0.723130 0.007844 -0.001566 297931.000000 0 0 1
-20.515530 -5.382646 26.151023 33.670994 0.256586 0.681445 0.014620 -0.009340 244492.000000 0 0 1
-20.065830 -3.875746 26.135953 33.177507 0.190802 0.663630 -0.003532 -0.010579 -470662.000000 0 0 1
-19.083830 -3.502746 27.048383 33.287788 0.181525 0.622263 -0.000666 -0.010663 -719564.000000 0 0 1
-19.419130 -3.405446 28.460883 34.622558 0.173600 0.605824 0.009199 -0.018341 192830.000000 0 0 1
-20.362630 -2.163946 28.796613 35.335029 0.105873 0.618137 0.020324 -0.021731 821067.000000 0 0 1
-21.696330 -2.471946 28.415243 35.836675 0.113445 0.655227 0.024836 -0.026394 -661711.000000 0 0 1
-22.539530 -1.536646 29.016873 36.774592 0.068070 0.661541 0.026098 -0.017536 82828.400000 0 0 1
-23.832630 -1.158346 28.237113 36.968508 0.048565 0.701592 0.025359 -0.018402 -736698.000000 0 0 1
-23.549130 -0.633646 26.981783 35.818705 0.026901 0.717750 0.014318 -0.018136 -350882.000000 0 0 1
-24.671730 -0.198246 26.261503 36.033319 0.008035 0.754212 0.011494 -0.008708 -326714.000000 0 0 1
-25.564560 -1.349346 25.694753 36.271032 0.052733 0.783554 0.009292 -0.004465 -315757.000000 0 0 1
-26.140740 -2.041146 26.764603 37.467967 0.077925 0.775126 0.008633 -0.005540 -747106.000000 0 0 1
-26.642530 -3.289446 26.379333 37.636605 0.122844 0.794144 0.004820 -0.003435 76040.400000 0 0 1
-25.608040 -4.456446 26.371383 37.028117 0.172300 0.778171 0.029535 -0.017027 251635.000000 0 0 1
-25.304070 -4.801046 27.684483 37.812387 0.187505 0.749318 0.036951 -0.017179 -331670.000000 0 0 1
-24.331530 -5.824346 27.728903 37.347536 0.234953 0.734067 0.044304 -0.023772 61087.500000 0 0 1
-24.017530 -6.296346 29.180163 38.314066 0.256387 0.705011 0.039460 -0.019633 -274189.000000 0 0 1
-25.175800 -6.743246 29.835093 39.615970 0.261703 0.718023 0.045049 -0.013391 -273547.000000 0 0 1
-25.048630 -7.172846 31.139733 40.602544 0.278894 0.696737 0.044058 -0.006182 -121336.000000 0 0 1
-26.360240 -7.644846 31.832243 42.030913 0.282271 0.711546 0.008837 -0.010268 -27827.300000 0 0 1
-27.010620 -8.663546 31.142573 42.124701 0.310379 0.738774 0.002532 -0.008653 178806.000000 0 0 1
-28.326270 -8.916546 31.628173 43.384602 0.304961 0.753910 0.008468 -0.006315 357989.000000 0 0 1
-29.015680 -9.898346 30.647133 43.348976 0.328758 0.785568 -0.000967 -0.015816 -201382.000000 0 0 1
-28.620300 -11.211646 30.750093 43.478625 0.373363 0.785201 0.019997 -0.011717 405575.000000 0 0 1
-29.585740 -12.028946 30.080533 43.873113 0.386165 0.815333 0.001736 -0.001846 248941.000000 0 0 1
-28.921820 -13.224046 29.375183 43.292591 0.428854 0.825041 0.015091 -0.005666 687319.000000 0 0 1
-28.028660 -12.841746 28.286063 41.840382 0.429623 0.828412 0.021828 0.000467 -653941.000000 0 0 1
-27.060500 -13.753646 28.069343 41.343941 0.470230 0.824502 0.026586 0.001057 -1737180.000000 0 0 1
-25.903660 -13.016446 27.418343 39.902293 0.465641 0.813255 0.032523 -0.001810 -1090310.000000 0 0 1
-25.022530 -12.416746 28.345353 39.796503 0.460621 0.778087 0.023572 -0.003357 -108172.000000 0 0 1
-25.341310 -11.120446 28.905703 40.017321 0.413524 0.763631 0.030780 -0.007197 -390154.000000 0 0 1
-25.343780 -9.999746 27.791793 38.918965 0.375812 0.775468 0.030746 -0.008365 1061860.000000 0 0 1
-24.020830 -9.646246 27.295303 37.617601 0.381866 0.758891 0.028311 -0.006725 1121690.000000 0 0 1
-23.510030 -10.336746 26.152003 36.653746 0.414234 0.776333 0.028259 -0.003714 -138432.000000 0 0 1
-24.290530 -10.158446 24.864003 36.213844 0.396102 0.814010 0.029672 0.000487 89935.400000 0 0 1
-25.514900 -10.901746 24.794883 37.210810 0.403792 0.841513 0.028018 0.001212 310078.000000 0 0 1
-26.144040 -10.787646 23.539833 36.796846 0.391341 0.876657 0.032994 0.008162 235310.000000 0 0 1
-27.352010 -11.793946 23.407833 37.883456 0.407103 0.904739 0.034408 0.002838 704344.000000 0 0 1
-28.582940 -11.533346 24.045133 39.091827 0.383524 0.908292 0.026433 -0.002414 -9823.660000 0 0 1
-28.558330 -11.445346 25.440613 39.922411 0.381171 0.879870 0.034901 -0.007348 -784571.000000 0 0 1
-29.916110 -11.158146 26.125543 41.255567 0.357000 0.885037 0.002228 -0.000445 -89049.000000 0 0 1
-30.303310 -9.761546 26.101023 41.168456 0.311632 0.884075 0.004778 -0.011171 -664932.000000 0 0 1
-31.636920 -9.454546 26.329463 42.231786 0.290397 0.897647 -0.001360 -0.000995 -408380.000000 0 0 1
-32.105630 -9.546646 27.818223 43.540366 0.289025 0.877720 -0.014277 0.005838 -289328.000000 0 0 1
-32.312900 -10.838346 28.373293 44.346781 0.323626 0.876552 -0.016158 0.004549 165033.000000 0 0 1
-33.064120 -10.735246 29.578613 45.644012 0.313942 0.865804 -0.007195 0.005238 -1165800.000000 0 0 1
-33.630500 -12.118046 29.957833 46.640426 0.345847 0.873282 -0.011157 -0.002747 442262.000000 0 0 1
-34.818555 -12.571746 29.313923 47.219558 0.346498 0.901033 -0.013134 0.000352 658265.000000 0 0 1
34.082571 -11.817546 29.557773 46.636230 -0.333761 0.884348 -0.008013 0.002905 -684759.000000 0 0 1
32.857695 -12.504946 28.982843 45.563220 -0.363653 0.881361 -0.004091 0.004263 -535761.000000 0 0 1
32.684095 -12.318746 27.584583 44.507424 -0.360438 0.902341 0.001379 0.012571 -358061.000000 0 0 1
31.474435 -12.769846 27.046123 43.418910 -0.385429 0.898338 -0.002357 0.021525 -396208.000000 0 0 1
31.484825 -12.355546 25.564183 42.396712 -0.373962 0.923570 0.001310 0.026810 33230.500000 0 0 1
31.305945 -10.956946 25.434463 41.797473 -0.336671 0.916606 0.001203 0.010667 108612.000000 0 0 1
31.472375 -10.676946 24.097373 41.051077 -0.327064 0.943436 -0.003490 0.012577 -223737.000000 0 0 1
31.285135 -9.167446 23.841733 40.388488 -0.285049 0.939353 -0.004330 0.030814 -474678.000000 0 0 1
29.946695 -8.769046 24.026333 39.382298 -0.284858 0.914635 -0.011235 0.025604 -208599.000000 0 0 1
29.690635 -7.428346 23.506033 38.590772 -0.245159 0.915858 -0.005271 0.031582 -127888.000000 0 0 1
28.197275 -7.027746 23.458733 37.346856 -0.244258 0.891647 -0.001367 0.030562 298648.000000 0 0 1
27.448545 -7.612846 22.407133 36.241656 -0.270549 0.904256 -0.006017 0.036227 46723.200000 0 0 1
26.851065 -8.844946 22.761233 36.294441 -0.318213 0.892937 -0.024671 0.028179 -290214.000000 0 0 1
14.107370 -17.537746 26.720313 34.936594 -0.893378 0.700030 -0.029849 0.007502 372015.000000 0 0 1
13.269370 -18.712246 26.577583 35.108293 -0.953971 0.712060 -0.048503 0.010089 294645.000000 0 0 1
13.979370 -19.617146 25.864603 35.344489 -0.951657 0.749857 -0.030788 0.022016 -945380.000000 0 0 1
13.228970 -20.910346 25.705223 35.679220 -1.006713 0.766340 -0.055644 0.010547 -91635.000000 0 0 1
12.948770 -21.583146 26.937823 36.866640 -1.030415 0.751475 -0.037352 0.010394 -308981.000000 0 0 1
11.713070 -21.174146 27.447633 36.591161 -1.065517 0.722558 -0.029251 0.006686 -763725.000000 0 0 1
11.276270 -21.653046 28.846713 37.790760 -1.090671 0.702348 -0.028879 0.008880 -257511.000000 0 0 1
12.044470 -21.109846 29.887613 38.522257 -1.052304 0.682730 -0.020531 0.009255 -264570.000000 0 0 1
11.367270 -20.235846 30.770483 38.542534 -1.058985 0.646244 -0.016905 0.013536 -80281.500000 0 0 1
10.989570 -18.837546 30.208733 37.258440 -1.042682 0.625298 -0.028616 0.012400 -218699.000000 0 0 1
12.131170 -18.075946 30.043653 37.101566 -0.979715 0.627040 -0.034933 0.033098 -392534.000000 0 0 1
11.712270 -16.767146 29.610163 35.987167 -0.961061 0.604480 -0.040130 0.028264 289574.000000 0 0 1
12.678270 -15.619046 30.073913 36.181948 -0.888951 0.589560 -0.039109 0.019174 488512.000000 0 0 1
12.214070 -14.278146 29.811103 35.238485 -0.863154 0.562393 -0.018766 0.018415 -44974.800000 0 0 1
13.048270 -13.416246 30.516103 35.797843 -0.799302 0.550130 -0.021239 0.025788 -130924.000000 0 0 1
12.631670 -11.933046 30.393613 35.010404 -0.756966 0.519372 -0.015607 0.023836 -64052.800000 0 0 1
12.732370 -11.190246 29.175713 33.742512 -0.721024 0.526328 0.002414 0.022851 -786207.000000 0 0 1
14.001070 -11.101846 28.628523 33.747197 -0.670414 0.557986 0.002728 0.019003 -1462140.000000 0 0 1
14.190370 -10.210246 27.354733 32.463782 -0.623706 0.568660 0.007120 0.008347 -83207.500000 0 0 1
14.254270 -8.817646 27.603943 32.294160 -0.553982 0.545697 0.007056 0.009437 155282.000000 0 0 1
15.540470 -8.399046 28.026093 33.128720 -0.495492 0.562404 0.011057 0.000778 -204972.000000 0 0 1
15.877970 -6.854646 27.848013 32.781213 -0.407539 0.555738 0.006682 -0.001674 -338416.000000 0 0 1
17.221170 -6.599646 28.172603 33.672238 -0.365965 0.579619 0.014416 -0.007058 -150408.000000 0 0 1
17.619870 -5.309446 27.753183 33.299988 -0.292679 0.585512 0.018164 -0.003875 283286.000000 0 0 1
19.134370 -5.188246 27.433273 33.847105 -0.264782 0.625781 0.030364 -0.010476 -328585.000000 0 0 1
19.534470 -6.071846 26.366293 33.371309 -0.301360 0.659843 0.028158 -0.002309 995828.000000 0 0 1
20.935470 -6.201946 26.100343 34.029193 -0.288005 0.696646 0.038156 -0.000269 880331.000000 0 0 1
22.020070 -6.504146 27.152053 35.558704 -0.287207 0.701951 0.045640 -0.009734 -449764.000000 0 0 1
22.335370 -5.314746 27.881233 36.117564 -0.233608 0.688881 0.051290 -0.016524 27029.900000 0 0 1
23.390370 -5.553946 28.792103 37.509211 -0.233129 0.695707 0.043651 -0.028010 -190505.000000 0 0 1
23.901770 -4.312946 29.516553 38.224639 -0.178524 0.688521 0.053136 -0.031818 176473.000000 0 0 1
24.701270 -3.447346 28.676293 38.004825 -0.138666 0.715838 0.034868 -0.015002 458288.000000 0 0 1
25.026670 -2.205646 29.316373 38.608922 -0.087905 0.708535 0.027049 -0.020374 -848596.000000 0 0 1
25.914770 -1.336646 28.449093 38.506010 -0.051533 0.739475 0.033811 -0.015361 488787.000000 0 0 1
27.295670 -1.733746 28.583573 39.561094 -0.063432 0.763360 0.035531 -0.016499 552468.000000 0 0 1
28.034870 -0.859346 27.745443 39.452529 -0.030643 0.790822 0.031588 0.000183 557143.000000 0 0 1
29.545470 -0.727946 28.111103 40.788464 -0.024633 0.810422 0.013473 -0.001601 571347.000000 0 0 1
29.691270 0.275954 29.114563 41.584919 0.009294 0.795226 -0.003923 0.011313 1250560.000000 0 0 1
31.074670 0.292954 29.571653 42.897595 0.009427 0.810199 0.005112 0.006403 1434110.000000 0 0 1
31.332170 1.382854 30.577023 43.801501 0.044107 0.798082 0.005716 -0.001787 -248137.000000 0 0 1
31.641870 2.576454 29.923763 43.626571 0.081246 0.814947 -0.002971 0.012541 22626.900000 0 0 1
31.627670 3.587654 30.917233 44.374047 0.112951 0.799952 -0.010463 0.015000 -186091.000000 0 0 1
32.311770 4.858454 30.396393 44.627299 0.149244 0.821510 -0.008304 0.017884 -152666.000000 0 0 1
32.295070 5.986254 31.232373 45.324033 0.183281 0.810563 -0.012884 0.022106 408596.000000 0 0 1
31.057970 6.692954 31.386753 44.660065 0.212253 0.791481 -0.019711 0.021038 441606.000000 0 0 1
31.046670 7.538954 32.688023 45.708188 0.238216 0.773964 -0.000843 0.010668 -258596.000000 0 0 1
30.967370 6.716354 33.849630 46.366851 0.213577 0.752417 -0.008722 0.013333 30027.200000 0 0 1
31.104570 7.443054 -34.091484 46.745295 0.234875 2.388099 0.000600 0.000883 -154017.000000 0 0 1
31.523870 6.572854 -32.843974 45.996559 0.205559 2.366067 0.006947 -0.000518 -32293.500000 0 0 1
30.555070 5.728854 -32.240454 44.787040 0.185341 2.374399 0.006418 0.000592 2895.890000 0 0 1
30.505970 4.395154 -32.807054 45.013713 0.143091 2.387398 0.015169 -0.011318 -51148.900000 0 0 1
31.004670 3.282454 -31.853974 44.572858 0.105477 2.366919 0.017370 -0.019122 -34535.400000 0 0 1
30.896570 2.002054 -32.397284 44.812836 0.064708 2.378854 0.017154 -0.019668 -134446.000000 0 0 1
31.317670 1.043254 -31.468024 44.408573 0.033300 2.358312 0.018036 -0.027053 -99454.200000 0 0 1
31.524670 -0.370546 -32.071324 44.972346 -0.011754 2.364755 0.027124 -0.040909 -175628.000000 0 0 1
32.750770 -0.466846 -32.797464 46.351963 -0.014254 2.356856 0.031549 -0.030336 752958.000000 0 0 1
33.487970 -1.724146 -32.646454 46.799656 -0.051440 2.342809 0.042774 -0.021537 508275.000000 0 0 1
34.330570 -1.870046 -31.411374 46.569942 -0.054418 2.311082 0.039587 -0.023710 -1036580.000000 0 0 1
33.514370 -1.826046 -30.288334 45.209851 -0.054432 2.304938 0.035266 -0.028332 -235198.000000 0 0 1
34.251770 -1.908946 -29.070994 44.966104 -0.055675 2.273796 0.037511 -0.025803 -59608.400000 0 0 1
33.380270 -1.656246 -27.831564 43.492316 -0.049577 2.265189 0.036040 -0.027703 -337830.000000 0 0 1
32.917770 -0.316546 -27.720814 43.036302 -0.009616 2.270677 0.019530 -0.024503 594432.000000 0 0 1
32.153770 -0.072646 -26.522304 41.680965 -0.002259 2.260511 0.022355 -0.021317 209652.000000 0 0 1
31.541770 1.334954 -26.390384 41.147512 0.042298 2.267066 0.011108 -0.016966 21671.700000 0 0 1
30.721670 1.712254 -27.473704 41.249936 0.055677 2.299670 0.024118 -0.034883 197917.000000 0 0 1
30.067170 2.928154 -27.207924 40.655626 0.097081 2.303967 0.007937 -0.018659 -197475.000000 0 0 1
29.255170 3.419554 -28.389974 40.909032 0.116359 2.337796 0.015271 -0.021386 -960315.000000 0 0 1
28.371170 4.413354 -28.095324 40.171485 0.154321 2.345333 0.006370 -0.016239 -630014.000000 0 0 1
27.856970 4.839454 -29.310404 40.725064 0.172008 2.374187 0.004810 -0.015068 1130590.000000 0 0 1
26.590170 5.836554 -29.076684 39.831596 0.216074 2.389104 -0.005281 -0.011646 825283.000000 0 0 1
25.405370 5.161154 -28.799984 38.749315 0.200425 2.408694 -0.006301 -0.012046 -194265.000000 0 0 1
24.470570 5.998454 -28.120474 37.756473 0.240389 2.411010 -0.006277 -0.013059 1120580.000000 0 0 1
23.049770 5.324854 -27.941784 36.611327 0.227033 2.439048 0.008442 -0.007738 569372.000000 0 0 1
22.361270 5.081454 -29.132644 37.075039 0.223449 2.474745 0.008893 -0.012942 -214547.000000 0 0 1
21.039970 4.675554 -28.871524 36.029238 0.218669 2.500321 0.024846 -0.012486 -257859.000000 0 0 1
20.189770 4.492754 -30.115114 36.533980 0.218959 2.539768 0.015362 -0.008051 47649.000000 0 0 1
20.644570 3.281654 -30.766714 37.196212 0.157641 2.544807 0.000662 -0.011960 -79885.900000 0 0 1
19.857970 3.043754 -31.883234 37.684798 0.152092 2.579329 -0.014381 -0.016723 -393417.000000 0 0 1
20.277970 3.644554 -33.232064 39.100497 0.177831 2.586619 -0.004627 -0.011260 -757816.000000 0 0 1
21.445570 3.016754 -33.627244 39.997560 0.139753 2.569431 -0.000156 -0.014884 -828622.000000 0 0 1
21.897670 3.492754 34.241613 40.794551 0.158171 0.574678 0.006689 -0.020792 -490690.000000 0 0 1
23.276870 3.005654 33.811102 41.158684 0.128416 0.606792 0.019513 -0.010642 -305589.000000 0 0 1
23.348970 1.599554 33.546580 40.903619 0.068400 0.609146 0.032655 -0.027593 -275273.000000 0 0 1
24.681170 1.321054 33.218495 41.404997 0.053474 0.639688 0.023788 -0.028221 -748282.000000 0 0 1
24.888870 -0.225646 32.963003 41.304556 -0.009066 0.646748 0.016341 -0.029533 -113663.000000 0 0 1
24.243370 -0.785146 31.808253 40.001530 -0.032375 0.651499 0.024748 -0.030080 1445190.000000 0 0 1
22.808570 -0.804446 31.683813 39.047945 -0.035255 0.624239 0.039872 -0.028362 972723.000000 0 0 1
21.929570 -1.714146 32.590923 39.319367 -0.078007 0.593699 0.025798 -0.032122 -297951.000000 0 0 1
22.115770 -3.076046 32.260753 39.234239 -0.138202 0.605425 0.030764 -0.040941 136663.000000 0 0 1
21.418670 -3.889046 33.161652 39.668366 -0.179616 0.580894 0.041101 -0.037158 -244333.000000 0 0 1
21.389270 -5.364446 32.821373 39.541380 -0.245732 0.591597 0.046875 -0.034224 268771.000000 0 0 1
22.681970 -5.930946 32.891253 40.391613 -0.255757 0.619259 0.043446 -0.028097 296992.000000 0 0 1
22.444070 -7.306546 32.603753 40.250797 -0.314724 0.626618 0.050691 -0.021711 -666867.000000 0 0 1
23.756970 -8.033546 32.381753 40.957410 -0.326084 0.658975 0.037239 -0.024840 -638345.000000 0 0 1
24.308870 -7.615746 31.144863 40.235845 -0.303605 0.685571 0.038064 -0.023462 -653287.000000 0 0 1
25.554070 -8.244446 31.078683 41.071474 -0.312085 0.712550 0.032845 -0.019382 -754376.000000 0 0 1
26.094770 -8.184246 29.650543 40.337001 -0.303919 0.745026 0.021235 -0.013921 -92191.200000 0 0 1
25.334270 -8.759446 28.586213 39.188324 -0.332888 0.753268 0.016278 -0.004181 134221.000000 0 0 1
25.925770 -8.297746 27.392213 38.617761 -0.309755 0.782268 0.006536 0.011259 193953.000000 0 0 1
25.326070 -9.095046 26.170393 37.536904 -0.344775 0.799325 0.002544 0.011324 696516.000000 0 0 1
23.925170 -9.039346 25.941463 36.429151 -0.361238 0.778301 0.005134 0.001509 421399.000000 0 0 1
23.427870 -10.150246 25.190273 35.867011 -0.408842 0.792139 0.008025 0.001314 -147934.000000 0 0 1
22.082370 -9.832546 24.535443 34.442677 -0.418911 0.777947 0.014914 0.012587 -212128.000000 0 0 1
20.975870 -9.774446 25.394013 34.356700 -0.436067 0.739021 0.019994 0.003970 175359.000000 0 0 1
19.789870 -9.322446 24.729613 33.016674 -0.440238 0.724239 0.016440 0.005320 1164740.000000 0 0 1
18.575070 -9.165946 25.721903 33.025204 -0.458397 0.677955 0.024709 0.005482 190629.000000 0 0 1
17.934870 -10.295746 26.211763 33.387400 -0.521130 0.667972 0.017298 0.004017 199684.000000 0 0 1
18.609670 -10.958946 27.279903 34.793842 -0.532206 0.669642 0.010174 0.005190 -100737.000000 0 0 1
17.587070 -11.835946 28.024633 35.139361 -0.592368 0.647609 0.011334 0.001585 -140365.000000 0 0 1
16.990570 -12.821846 27.231743 34.563667 -0.646467 0.663451 -0.004125 0.002039 335383.000000 0 0 1
16.161670 -13.788146 27.919693 35.083070 -0.706313 0.650441 -0.013880 0.006349 -79250.800000 0 0 1
16.863070 -14.892346 28.761023 36.514950 -0.723418 0.663810 -0.013770 0.013198 4067.340000 0 0 1
15.979070 -15.760146 29.496873 37.064517 -0.778501 0.650427 -0.020318 0.016308 538226.000000 0 0 1
16.671570 -16.831246 30.162533 38.353755 -0.790164 0.665789 -0.011302 0.011973 -245045.000000 0 0 1
16.994970 -18.127346 29.366023 38.468078 -0.817628 0.702256 -0.020207 0.019046 162702.000000 0 0 1
18.010170 -18.025446 28.388813 38.147184 -0.785822 0.731473 -0.008070 0.014446 260956.000000 0 0 1
17.978470 -19.196846 27.666803 38.173240 -0.818160 0.760096 -0.009253 0.015915 349446.000000 0 0 1
19.073570 -19.097646 26.539963 37.853544 -0.786029 0.793826 0.007720 0.010718 362995.000000 0 0 1
20.363270 -18.870546 27.063913 38.771325 -0.747370 0.798141 0.027779 -0.004741 -342556.000000 0 0 1
21.111470 -18.141646 26.112583 38.166484 -0.709884 0.817323 0.021255 -0.004887 1055550.000000 0 0 1
22.574370 -17.732846 26.554543 39.104984 -0.665855 0.824318 0.023305 -0.006914 516787.000000 0 0 1
23.376570 -18.804846 26.823153 40.243854 -0.677437 0.841271 0.027183 -0.019534 -1574230.000000 0 0 1
24.664370 -18.374646 27.068543 40.971512 -0.640285 0.849089 0.029536 -0.020232 -736401.000000 0 0 1
25.659570 -19.562046 27.050153 42.104608 -0.651370 0.873104 0.016065 -0.011716 -124266.000000 0 0 1
25.352570 -20.327346 28.192263 43.020431 -0.675829 0.856187 0.015320 -0.009012 308794.000000 0 0 1
26.224970 -21.433446 28.213573 44.081145 -0.685196 0.876250 0.014614 -0.002580 32551.600000 0 0 1
25.631470 -22.570046 29.098983 44.867918 -0.721970 0.865121 0.019683 0.006661 269201.000000 0 0 1
25.430070 -22.208846 30.473613 45.481451 -0.717883 0.836557 0.015053 0.002808 129489.000000 0 0 1
24.915570 -23.379446 31.139313 46.228140 -0.753602 0.831726 0.005438 0.011727 -133675.000000 0 0 1
24.693970 -23.230946 32.630353 47.055382 -0.754880 0.804536 0.007726 0.002819 127552.000000 0 0 1
23.974670 -24.286146 33.238995 47.638561 -0.791852 0.798568 -0.000940 0.012514 -2462.450000 0 0 1
23.728070 -24.054646 -34.523274 48.306353 -0.792233 2.366954 -0.005506 0.011052 -532904.000000 0 0 1
23.235470 -25.325726 -33.739944 48.162883 -0.828415 2.346948 -0.004932 0.012612 191434.000000 0 0 1
21.957870 -25.833836 -34.026224 48.034561 -0.866322 2.357982 -0.011120 0.008437 -402922.000000 0 0 1
21.736270 -26.148846 33.783423 47.932737 -0.877288 0.788642 -0.012708 -0.001653 -900221.000000 0 0 1
20.495570 -27.025366 33.548144 47.706570 -0.921952 0.790882 -0.006769 -0.009834 -38651.500000 0 0 1
20.729270 -28.334346 33.909344 48.809645 -0.939179 0.802757 -0.001637 -0.004870 410645.000000 0 0 1
19.598170 -29.188166 33.741074 48.728815 -0.979495 0.805951 0.005672 -0.004487 -100974.000000 0 0 1
20.002570 -30.640656 33.922846 49.897015 -0.992447 0.823228 -0.003423 -0.009791 -87148.200000 0 0 1
20.453670 -31.039556 -33.984004 50.365853 -0.988152 2.311413 -0.004285 -0.013222 514163.000000 0 0 1
21.229770 -32.248156 -33.903964 51.382151 -0.988591 2.291401 -0.030954 -0.002630 136757.000000 0 0 1
21.723970 -32.641656 -32.485434 50.918680 -0.983582 2.262677 -0.020341 -0.001659 -686467.000000 0 0 1
22.446070 -33.845166 -32.557044 52.050768 -0.985198 2.246551 -0.030773 0.000067 488627.000000 0 0 1
23.173470 -34.292231 -31.407964 51.956010 -0.976522 2.219948 -0.022754 0.008001 737635.000000 0 0 1
24.334070 -33.432946 -30.796454 51.558999 -0.941625 2.210933 -0.016288 0.005765 -321673.000000 0 0 1
24.773470 -33.958166 -29.574784 51.396009 -0.940526 2.183926 -0.010535 0.009571 -675208.000000 0 0 1
25.644870 -33.046406 -29.010584 50.905189 -0.910846 2.177174 -0.013115 0.007526 -489464.000000 0 0 1
26.248170 -33.463456 -27.619804 50.711171 -0.905651 2.146767 -0.017512 0.006371 501536.000000 0 0 1
27.245270 -34.485981 -27.727314 51.965292 -0.902159 2.133617 -0.014194 0.012738 179026.000000 0 0 1
28.036070 -34.451247 -26.516484 51.730393 -0.887703 2.108995 -0.006506 0.004712 458095.000000 0 0 1
-25.698650 -30.744584 9.418856 41.162664 0.874560 1.339931 0.021417 -0.002233 -275547.000000 0 0 1
-25.754800 -32.105484 9.891856 42.331083 0.894720 1.334937 0.028231 -0.005591 -465980.000000 0 0 1
-24.658630 -32.308984 10.705356 42.030026 0.918893 1.313251 0.017357 -0.005307 -488402.000000 0 0 1
-24.916730 -33.532584 11.588756 43.354087 0.931751 1.300201 0.010554 -0.003073 19317.000000 0 0 1
-24.933530 34.631954 10.782956 44.015057 -0.946801 1.323294 0.009976 -0.001669 126336.000000 0 0 1
-25.020430 33.396254 11.488256 43.281771 -0.927808 1.302147 0.001945 -0.003385 -10936.600000 0 0 1
-24.839230 32.040754 10.666456 41.921003 -0.911337 1.313526 0.008083 0.000126 -894245.000000 0 0 1
-25.941660 31.928554 9.870356 42.306338 -0.888485 1.335319 0.005055 -0.006296 -769360.000000 0 0 1
-26.036340 30.655554 9.250756 41.270213 -0.866698 1.344725 0.008387 -0.005721 68658.800000 0 0 1
-25.148280 30.450154 7.944156 40.283464 -0.880471 1.372289 0.010735 0.005707 -275807.000000 0 0 1
-23.848930 30.082054 8.254456 39.266238 -0.900464 1.358999 0.005248 0.009035 -848815.000000 0 0 1
-23.038630 30.069354 7.095456 38.539460 -0.917018 1.385631 -0.003202 0.017308 134367.000000 0 0 1
-21.831330 29.116754 7.330256 37.123106 -0.927432 1.372032 0.020413 0.026027 18244.100000 0 0 1
-22.103930 27.695754 7.381156 36.195579 -0.897216 1.365432 0.013327 0.010973 62397.600000 0 0 1
-22.370530 27.036454 6.136256 35.623926 -0.879557 1.397682 0.006878 0.008253 -404729.000000 0 0 1
-22.731430 25.555454 6.381256 34.792522 -0.843816 1.386343 0.007068 0.014154 -1035150.000000 0 0 1
-23.848730 25.339354 7.176356 35.529493 -0.815693 1.367414 0.008476 0.006234 -449844.000000 0 0 1
-24.223330 23.929454 7.336156 34.831131 -0.779295 1.358586 0.003154 -0.002578 77584.500000 0 0 1
-24.727330 23.203254 6.029356 34.441036 -0.753611 1.394826 -0.005770 -0.015070 -126047.000000 0 0 1
-26.011410 23.667254 5.616156 35.612829 -0.738247 1.412435 -0.000995 -0.015734 237207.000000 0 0 1
-26.375100 23.246554 4.316056 35.421413 -0.722434 1.448644 0.002228 -0.016666 -95239.600000 0 0 1
-25.755530 24.019654 3.154956 35.358801 -0.750538 1.481451 -0.006376 -0.014121 28208.500000 0 0 1
-24.333530 23.967454 3.080656 34.293585 -0.777819 1.480843 0.002362 -0.013780 385440.000000 0 0 1
-23.968530 24.657154 1.905256 34.439739 -0.799559 1.515447 0.006381 -0.009114 237199.000000 0 0 1
-22.753330 25.628054 1.974556 34.327977 -0.844746 1.513244 0.018552 -0.006043 308797.000000 0 0 1
-22.517530 26.165754 0.680756 34.527514 -0.860196 1.551079 0.017809 -0.006977 -300315.000000 0 0 1
-21.391930 27.032054 0.703956 34.479590 -0.901349 1.550378 0.024458 -0.005785 -145950.000000 0 0 1
-20.990330 27.520254 -0.688044 34.618373 -0.919202 1.590673 0.024645 -0.006212 35867.800000 0 0 1
-20.484430 26.563954 -1.621244 33.583983 -0.913905 1.619089 0.015175 -0.011224 1040620.000000 0 0 1
-19.217930 25.931054 -1.316044 32.302946 -0.933005 1.611548 0.012963 -0.016162 736875.000000 0 0 1
-18.806530 24.771854 -2.270444 31.184695 -0.921440 1.643667 0.016061 -0.027437 -61704.400000 0 0 1
-19.754930 23.730754 -2.219444 30.956936 -0.876573 1.642552 0.022988 -0.023405 -152146.000000 0 0 1
-19.447830 22.754154 -3.183544 30.101571 -0.863584 1.676755 0.021362 -0.025222 -742630.000000 0 0 1
-20.608830 22.048354 -3.876844 30.428337 -0.819132 1.698553 0.008013 -0.015237 -565645.000000 0 0 1
-21.232530 22.933554 -4.798044 31.619447 -0.823893 1.723128 -0.003210 -0.010310 -190054.000000 0 0 1
-22.180230 22.161554 -5.510544 31.834936 -0.784977 1.744770 -0.002593 -0.007799 -46773.500000 0 0 1
-22.697230 22.975454 -6.683944 32.980461 -0.791490 1.774874 -0.005569 -0.000326 702153.000000 0 0 1
-21.789130 22.887454 -7.798344 32.548669 -0.809977 1.812740 -0.009920 -0.007822 683949.000000 0 0 1
-22.583330 23.216854 -8.929844 33.597190 -0.799230 1.839821 -0.000216 -0.015574 122203.000000 0 0 1
-21.899930 23.188454 -10.295344 33.515749 -0.813968 1.883024 -0.007746 -0.014939 -382372.000000 0 0 1
-21.449430 21.881254 -10.664344 32.443729 -0.795364 1.905726 0.008877 -0.016152 -140676.000000 0 0 1
-20.946230 21.848154 -11.965644 32.546321 -0.806471 1.947277 -0.009759 -0.001397 30649.500000 0 0 1
-21.959430 22.100654 -13.134744 33.810900 -0.788603 1.969774 -0.012854 0.005079 1008750.000000 0 0 1
-23.109530 21.238254 -13.269244 34.076188 -0.743228 1.970776 -0.023215 -0.002875 558796.000000 0 0 1
-22.767930 20.134754 -14.098344 33.504481 -0.724100 2.005112 0.007099 -0.000286 90995.900000 0 0 1
-23.881030 19.068254 -14.373744 33.771384 -0.673807 2.010442 0.009586 -0.005042 334400.000000 0 0 1
-23.587930 18.183154 -15.484944 33.567856 -0.656723 2.050259 0.001928 0.000614 -52537.900000 0 0 1
-24.623430 17.233554 -15.524444 33.827755 -0.610648 2.047583 0.021400 0.002035 12747.900000 0 0 1
-24.539630 16.267854 -16.713644 33.855315 -0.585405 2.087111 0.023035 0.000350 57283.200000 0 0 1
-23.700130 15.151754 -16.538144 32.630997 -0.568824 2.102292 0.040728 0.005154 -177951.000000 0 0 1
-23.363430 14.488354 -17.731144 32.713234 -0.555089 2.143632 0.034064 -0.003360 -10668.100000 0 0 1
-22.499330 13.240054 -17.557644 31.460924 -0.531894 2.162864 0.030418 0.008406 -133957.000000 0 0 1
-21.182630 13.508154 -17.119144 30.401301 -0.567680 2.168935 0.028818 0.002200 -300569.000000 0 0 1
-20.476430 12.308554 -17.021444 29.334523 -0.541234 2.189836 0.022192 0.007239 -389631.000000 0 0 1
-19.215730 12.471354 -16.156644 28.032411 -0.575685 2.185059 0.019096 0.002304 -667839.000000 0 0 1
-18.310430 13.389854 -16.654544 28.141319 -0.631405 2.204109 0.014136 0.003359 -352802.000000 0 0 1
-17.340430 13.610354 -15.645544 27.031746 -0.665460 2.188033 0.020018 0.008132 292168.000000 0 0 1
-16.333230 14.794054 -15.852944 27.146901 -0.735991 2.194406 0.017379 0.013625 486780.000000 0 0 1
-15.622230 14.610054 -17.087844 27.377037 -0.751931 2.244861 0.027721 0.007792 265245.000000 0 0 1
-14.753230 15.659054 -17.452144 27.702727 -0.815174 2.252323 0.015596 0.014151 40828.300000 0 0 1
-13.986830 15.486154 -18.769144 28.066584 -0.836225 2.303304 0.015816 0.012490 -57706.900000 0 0 1
-13.178830 14.362554 -18.777144 27.065580 -0.828352 2.337500 0.012587 0.011269 -382097.000000 0 0 1
-12.248930 14.351354 -19.844544 27.382541 -0.864272 2.381417 0.020395 0.002157 303588.000000 0 0 1
-11.344530 13.080854 -19.823244 26.320488 -0.856366 2.423632 0.015753 -0.006707 175027.000000 0 0 1
-11.866830 11.934154 -20.436544 26.474478 -0.788227 2.452674 0.025185 -0.000795 -316232.000000 0 0 1
-10.971030 10.881254 -20.236644 25.461479 -0.781290 2.489465 0.005992 0.011285 -193970.000000 0 0 1
-11.303530 9.664754 -21.106344 25.819663 -0.707402 2.527770 0.006900 0.002424 49532.000000 0 0 1
-10.957730 9.925054 -22.447344 26.878649 -0.735987 2.559177 0.006426 -0.004812 -217968.000000 0 0 1
-10.987330 8.692254 -23.199444 27.101492 -0.669300 2.598319 -0.000793 0.006234 -331748.000000 0 0 1
-10.911430 8.860654 -24.742844 28.456612 -0.682047 2.624973 0.004862 -0.006369 -99807.400000 0 0 1
-9.851530 9.591854 -25.361894 28.849297 -0.772043 2.644802 0.003238 -0.017952 188012.000000 0 0 1
-9.908130 9.327554 -26.759774 30.020989 -0.755225 2.671152 0.005232 -0.017007 -101148.000000 0 0 1
-9.495430 10.562354 -27.650914 31.085359 -0.838541 2.667080 0.021335 -0.024051 -7895.300000 0 0 1
-8.115230 10.800354 -27.726574 30.842624 -0.926409 2.688207 0.013762 -0.027336 -246475.000000 0 0 1
-7.534230 11.634954 -26.795914 30.168821 -0.996144 2.664206 -0.002154 -0.009092 108615.000000 0 0 1
-5.975230 11.633354 -26.871344 29.884902 -1.096305 2.688645 -0.008792 0.002602 219721.000000 0 0 1
-5.548130 12.354154 -28.013254 31.115097 -1.148699 2.691279 -0.000094 -0.007467 -893442.000000 0 0 1
-4.168230 12.252354 -28.073874 30.913374 -1.242880 2.709632 0.000884 -0.003024 -1101600.000000 0 0 1
-3.675030 12.872754 -29.355154 32.263581 -1.292705 2.713729 -0.002297 0.003588 511789.000000 0 0 1
-2.249430 12.748154 -29.442114 32.162298 -1.396143 2.727354 -0.005589 0.001872 273032.000000 0 0 1
-1.808930 12.901454 -30.758394 33.403570 -1.431493 2.740953 -0.012325 0.005517 -353313.000000 0 0 1
-0.309030 12.605454 -30.818294 33.298051 -1.546286 2.753225 -0.005001 0.002049 -611232.000000 0 0 1
-0.097930 11.304054 -30.320154 32.358970 -1.562133 2.784720 -0.025412 0.015186 -737013.000000 0 0 1
1.240870 10.941054 -30.377804 32.311877 1.457865 2.793848 -0.001005 0.006062 -457835.000000 0 0 1
1.728870 10.310254 -31.739794 33.417134 1.404657 2.823411 0.008632 -0.000183 -479412.000000 0 0 1
1.739770 11.224954 -32.776464 34.688946 1.417029 2.807987 0.016085 -0.001043 182768.000000 0 0 1
2.005270 10.638654 -34.040814 35.720849 1.384493 2.833678 0.010889 -0.003137 68856.100000 0 0 1
1.745570 11.578554 33.866330 35.833479 1.421164 0.332887 0.021780 -0.011969 192270.000000 0 0 1
2.868170 12.445054 33.697450 36.036425 1.344285 0.362272 0.019102 -0.012691 263776.000000 0 0 1
2.846170 13.024654 32.409553 35.044563 1.355656 0.390261 0.029301 -0.011440 1340940.000000 0 0 1
4.324170 13.462154 32.000473 34.985116 1.259997 0.416061 0.042197 -0.011342 1365060.000000 0 0 1
5.180570 12.346754 31.827113 34.528912 1.173517 0.398220 0.039894 -0.007714 -832210.000000 0 0 1
6.471470 12.757554 31.539743 34.632218 1.101353 0.425808 0.032308 -0.009584 -548838.000000 0 0 1
7.334270 11.644754 30.873633 33.801968 1.008728 0.419315 0.011364 0.000194 -51383.300000 0 0 1
6.846270 11.219354 29.642473 32.425631 1.022896 0.417346 0.019626 0.001765 401863.000000 0 0 1
7.759770 10.257554 29.055593 31.775131 0.923152 0.416741 0.020200 -0.003253 539659.000000 0 0 1
7.146470 9.275154 28.026593 30.374174 0.914306 0.395741 0.013034 0.001607 226086.000000 0 0 1
6.386470 8.203154 28.614733 30.444732 0.909279 0.348485 0.013742 0.000504 150399.000000 0 0 1
5.919470 7.327854 27.572143 29.136929 0.891315 0.329218 0.015023 -0.002525 -606690.000000 0 0 1
5.044270 6.194754 28.083143 29.197304 0.887408 0.277146 0.026057 -0.013852 -264996.000000 0 0 1
5.738670 5.213154 28.863823 29.886947 0.737451 0.262413 0.005513 -0.008430 -23875.100000 0 0 1
4.912370 4.597954 29.829413 30.578856 0.752350 0.221853 0.002399 -0.005705 -643981.000000 0 0 1
5.507470 3.361054 30.518283 31.192860 0.547938 0.208348 0.001227 0.002327 -57555.600000 0 0 1
5.582570 2.213854 29.710983 30.311858 0.377542 0.199444 -0.002481 0.000800 385555.000000 0 0 1
6.818170 2.138754 28.988013 29.855764 0.303964 0.241688 0.005818 0.000957 286221.000000 0 0 1
6.938870 0.739554 28.230913 29.080566 0.106180 0.242325 0.002067 -0.002256 -72031.000000 0 0 1
6.889870 -0.391546 29.169703 29.974909 -0.056768 0.232309 -0.003891 0.003823 124882.000000 0 0 1
7.176970 -1.587746 28.463393 29.397187 -0.217721 0.252723 0.004370 0.004645 -383267.000000 0 0 1
7.683070 -2.770546 29.350943 30.466102 -0.346090 0.271399 0.002358 0.006705 -557666.000000 0 0 1
9.016970 -2.720546 29.712883 31.169898 -0.293029 0.306963 -0.006222 -0.001287 -855124.000000 0 0 1
9.883770 -3.416846 28.841973 30.679361 -0.332841 0.347844 -0.007558 0.013751 696102.000000 0 0 1
11.396070 -3.391946 29.268603 31.591563 -0.289292 0.385876 -0.010263 0.013310 635438.000000 0 0 1
12.226470 -4.415646 28.808463 31.605570 -0.346577 0.423881 -0.007772 0.006778 45145.400000 0 0 1
12.387470 -5.586146 29.641053 32.607460 -0.423645 0.429854 0.001499 0.009235 -97939.000000 0 0 1
11.736270 -6.908246 29.105453 32.133959 -0.532013 0.437641 -0.000872 0.013907 493561.000000 0 0 1
10.315770 -6.953646 29.043463 31.595744 -0.593117 0.404700 0.004903 0.021682 208745.000000 0 0 1
9.810170 -8.282646 29.090783 31.798040 -0.701171 0.415633 0.001188 0.023541 556706.000000 0 0 1
8.266170 -8.195746 28.939923 31.193252 -0.781120 0.382425 0.004648 0.022576 716382.000000 0 0 1
7.500470 -7.493246 29.935513 31.757530 -0.784916 0.340382 -0.001510 0.027072 764012.000000 0 0 1
6.121370 -7.376046 29.586133 31.100105 -0.878089 0.313307 -0.011900 0.026849 461334.000000 0 0 1
5.354470 -6.525446 30.632753 31.774477 -0.883648 0.268884 -0.016113 0.021031 -53733.400000 0 0 1
5.439570 -7.087346 31.928243 33.154669 -0.916186 0.272842 -0.026158 0.020330 -235335.000000 0 0 1
4.747170 -6.470646 32.926673 33.890569 -0.937844 0.239070 -0.022114 0.013599 -47181.600000 0 0 1
5.561470 -5.269146 33.563434 34.426704 -0.758414 0.224415 -0.010070 0.013310 408978.000000 0 0 1
5.692170 -4.050646 32.828373 33.563531 -0.618480 0.209685 -0.003945 0.011845 -26000.800000 0 0 1
6.347570 -3.076046 33.629302 34.361078 -0.451254 0.206749 0.001653 0.011397 -91563.900000 0 0 1
6.444270 -1.717946 32.860113 33.530091 -0.260526 0.200241 0.000896 0.014949 -375957.000000 0 0 1
5.156670 -1.282746 32.509173 32.940598 -0.243806 0.162023 -0.004831 0.013482 -323483.000000 0 0 1
5.053870 -0.037046 31.945093 32.342417 -0.007330 0.156909 -0.002157 0.006933 -518401.000000 0 0 1
3.591970 0.340354 31.708023 31.912644 0.094472 0.113303 0.003446 -0.002047 -450499.000000 0 0 1
2.898070 0.531154 32.921183 33.052764 0.181267 0.089259 0.003870 -0.005501 -196786.000000 0 0 1
1.710570 1.277554 32.672153 32.741835 0.641487 0.065253 0.008837 -0.001886 -121110.000000 0 0 1
0.891870 1.402754 33.930060 33.970754 1.004469 0.048952 0.009150 -0.008401 -792006.000000 0 0 1
1.520370 2.109154 -34.198011 34.296705 0.946218 3.065711 0.011367 -0.008220 -419772.000000 0 0 1
0.702470 2.480054 -33.129234 33.229358 1.294778 3.063944 -0.001881 0.003153 -441178.000000 0 0 1
1.391970 3.514454 -32.241764 32.462598 1.193682 3.024884 0.003501 0.004125 -196626.000000 0 0 1
2.337170 2.933354 -31.376424 31.599792 0.898036 3.022622 0.005360 0.002825 -381327.000000 0 0 1
2.981470 3.946954 -30.700614 31.096548 0.923858 2.981846 0.002081 0.007538 -410498.000000 0 0 1
4.014870 3.476854 -29.648784 30.120725 0.713706 2.964339 0.011132 0.004061 -300819.000000 0 0 1
3.467870 2.831154 -28.529814 28.878916 0.684659 2.985946 0.010242 -0.009064 490286.000000 0 0 1
4.502470 2.285054 -27.713144 28.169346 0.469638 2.961377 0.016894 -0.013844 371841.000000 0 0 1
3.936870 1.367354 -26.570094 26.894953 0.334285 2.986009 0.007793 -0.012934 -79704.800000 0 0 1
3.273670 0.249754 -27.003704 27.202561 0.076144 3.020604 0.013027 -0.006350 -400194.000000 0 0 1
2.710870 -0.465546 -25.940074 26.085493 -0.170074 3.035952 0.005558 0.002927 -187295.000000 0 0 1
3.443970 -1.822246 -25.551444 25.846814 -0.486665 2.990268 0.020885 -0.006319 98349.100000 0 0 1
4.714570 -1.597846 -24.989544 25.480533 -0.326767 2.944964 0.021169 -0.015108 -4882.260000 0 0 1
5.431370 -2.839146 -24.933244 25.675420 -0.481667 2.900568 0.029792 -0.021105 628987.000000 0 0 1
6.949770 -2.829346 -24.572444 25.692596 -0.386624 2.845219 0.030849 -0.021696 610168.000000 0 0 1
7.808670 -2.381446 -25.576154 26.847463 -0.296014 2.832622 0.019485 -0.016144 -1782320.000000 0 0 1
9.079970 -2.753746 -25.241824 26.966250 -0.294461 2.782035 0.011794 -0.011439 -1125370.000000 0 0 1
-28.060750 -4.291346 18.026233 33.626870 0.151755 1.005026 0.014501 -0.001331 963966.000000 0 0 1
-29.500750 -4.079346 18.038033 34.818184 0.137408 1.026211 0.015049 0.008102 1269600.000000 0 0 1
-30.182420 -5.012246 18.858533 35.940859 0.164563 1.018422 0.014415 0.004843 1071340.000000 0 0 1
-31.679930 -4.716246 19.207933 37.347097 0.147786 1.030595 0.008863 0.003087 689620.000000 0 0 1
-32.613560 -4.696546 18.166233 37.625973 0.143023 1.066935 0.004821 0.004640 -617962.000000 0 0 1
-33.904020 -4.757746 18.692333 39.006692 0.139419 1.071044 0.012277 0.010552 -378974.000000 0 0 1
-34.962247 -4.658646 17.545433 39.394212 0.132468 1.109197 0.006007 0.010454 234448.000000 0 0 1
33.811035 -4.697546 18.062533 38.620048 -0.138052 1.084111 0.008466 0.017239 -681288.000000 0 0 1
32.812895 -4.738146 17.106633 37.306474 -0.143408 1.094441 0.006262 0.010813 -177523.000000 0 0 1
31.519785 -5.410046 17.636533 36.521401 -0.169983 1.066822 0.002477 0.018653 370941.000000 0 0 1
30.859255 -4.693546 18.678533 36.375962 -0.150938 1.031554 0.019226 0.014430 718429.000000 0 0 1
29.722405 -5.331046 19.267933 35.820310 -0.177474 1.002846 0.007093 0.017297 448458.000000 0 0 1
29.269045 -4.705946 20.595133 36.096848 -0.159418 0.963618 0.014193 0.016482 -479438.000000 0 0 1
28.448145 -3.576846 20.455133 35.220779 -0.125076 0.951123 0.028912 0.012318 73054.800000 0 0 1
29.023445 -2.351346 20.057433 35.358023 -0.080839 0.967613 0.033158 0.017934 -232216.000000 0 0 1
27.944905 -1.291846 20.242733 34.530491 -0.046195 0.944402 0.032566 0.015936 100547.000000 0 0 1
28.503665 0.048654 20.162933 34.914254 0.001707 0.955135 0.029647 0.011482 714121.000000 0 0 1
27.459995 0.990154 20.372333 34.206193 0.036042 0.932816 0.034138 0.013344 474896.000000 0 0 1
27.988265 2.427154 20.077733 34.530413 0.086504 0.950286 0.013653 0.017350 236885.000000 0 0 1
28.369655 2.556454 18.716933 34.083667 0.089870 0.989453 -0.003041 0.017671 -36880.400000 0 0 1
28.017075 3.746554 18.123533 33.577606 0.132935 1.000655 -0.011065 0.026802 -20825.900000 0 0 1
28.139245 3.753054 16.611633 32.891471 0.132592 1.041364 -0.014397 0.022760 -68102.600000 0 0 1
27.946405 4.950254 15.949733 32.556114 0.175315 1.058804 -0.024435 0.030032 309405.000000 0 0 1
27.391935 4.649054 14.659933 31.414096 0.168121 1.085277 -0.004056 0.025237 -381775.000000 0 0 1
27.089085 5.983354 13.830133 30.998252 0.217387 1.108328 0.004860 0.024692 51108.600000 0 0 1
25.962375 6.577054 14.435633 30.425155 0.248111 1.076442 0.004762 0.016997 174070.000000 0 0 1
25.384575 7.570054 13.626933 29.788851 0.289818 1.095670 0.015348 -0.003227 -401242.000000 0 0 1
24.228765 8.425154 14.250233 29.344257 0.334654 1.063721 0.012435 -0.006105 1584160.000000 0 0 1
22.893965 7.880354 14.078033 28.007581 0.331508 1.044134 0.008436 -0.003287 1464780.000000 0 0 1
22.619365 6.698654 14.846533 27.873413 0.287918 1.009078 0.011187 -0.002050 -1314320.000000 0 0 1
21.274765 6.053754 14.549633 26.475562 0.277224 0.988971 0.026426 0.002445 -793361.000000 0 0 1
21.180865 5.746654 13.159433 25.589524 0.264936 1.030662 0.036868 -0.005490 1462720.000000 0 0 1
19.952765 5.019954 12.897833 24.283057 0.246476 1.010845 0.042789 -0.002732 643209.000000 0 1 0
19.555965 4.884754 11.401933 23.158166 0.244775 1.056008 0.044095 -0.007766 -189208.000000 0 1 0
20.384465 4.017654 10.634933 23.340303 0.194600 1.097698 0.027141 -0.009995 484792.000000 0 1 0
20.046465 4.020654 9.260633 22.445172 0.197940 1.145502 0.036714 -0.010350 -623657.000000 0 1 0
21.112365 3.383454 8.408833 22.975817 0.158908 1.196104 0.026778 -0.001238 -1655070.000000 0 1 0
21.209765 2.063154 8.773133 23.045142 0.096969 1.180250 0.014797 0.000703 964327.000000 0 1 0
22.060265 1.296054 7.865033 23.456210 0.058683 1.228865 0.004156 0.000116 38605.500000 0 1 0
23.576465 1.631454 7.862233 24.906345 0.069088 1.249632 0.012857 -0.001853 -146356.000000 0 1 0
24.353665 1.035754 8.939533 25.963224 0.042504 1.219287 0.007917 0.013055 855333.000000 0 0 1
24.106865 1.705754 10.155433 26.214182 0.070640 1.172984 0.006078 0.009497 -824479.000000 0 0 1
24.734465 1.025354 11.397033 27.253210 0.041431 1.139344 -0.010240 0.016287 -389671.000000 0 0 1
26.134745 1.041654 11.418033 28.539121 0.039836 1.159188 -0.017658 0.018083 -322071.000000 0 0 1
26.670875 0.427654 12.580333 29.492088 0.016033 1.130103 -0.002353 0.014041 -124328.000000 0 0 1
28.184735 0.604854 12.762533 30.945555 0.021457 1.145689 0.009768 0.019516 -1767.630000 0 0 1
28.704245 1.921354 12.976333 31.559634 0.066837 1.147061 -0.002013 0.032386 690820.000000 0 0 1
30.126275 1.840854 12.848133 32.803288 0.061029 1.168348 0.005020 0.031892 616399.000000 0 0 1
30.890895 3.153654 13.164133 33.726656 0.101738 1.169819 -0.002068 0.027723 -311788.000000 0 0 1
30.969225 4.058354 12.121033 33.503471 0.130302 1.200615 -0.004890 0.024032 389992.000000 0 0 1
31.662765 5.264654 12.461533 34.431629 0.164765 1.200468 -0.006812 0.019037 964660.000000 0 0 1
33.208975 5.365554 12.209133 35.786703 0.160185 1.222641 -0.014963 0.022227 433670.000000 0 0 1
33.859185 4.326954 12.907233 36.493336 0.127104 1.209286 -0.007443 0.022915 304888.000000 0 0 1
-34.832912 4.333854 12.596133 37.293117 -0.123782 1.226260 -0.001388 0.019114 297760.000000 0 0 1
-34.005560 3.263754 13.330933 36.670751 -0.095684 1.198742 0.012297 0.020457 -610487.000000 0 0 1
-34.237189 1.901854 12.947933 36.653119 -0.055492 1.209747 0.015649 0.025008 486552.000000 0 0 1
34.566391 1.346254 13.253533 37.044621 0.038927 1.204915 0.024969 0.033314 322689.000000 0 0 1
34.339092 1.079654 14.802233 37.409156 0.031431 1.163983 0.014494 0.035767 60888.300000 0 0 1
-34.863956 0.113354 15.396033 38.112283 -0.003251 1.154949 0.024490 0.030161 570033.000000 0 0 1
34.962810 0.194254 16.778233 38.780729 0.005556 1.123373 0.031667 0.020442 -47674.100000 0 0 1
-34.127303 -0.678646 17.571333 38.391211 0.019883 1.095399 0.028663 0.016304 1015940.000000 0 0 1
-32.778100 -0.155146 17.472433 37.144499 0.004733 1.081063 0.018388 0.017733 1882070.000000 0 0 1
-31.696310 -0.715046 18.269233 36.591423 0.022555 1.048033 0.027494 0.008377 1161260.000000 0 0 1
-31.848350 -0.611046 19.789733 37.500991 0.019184 1.014891 0.015153 0.003083 -394286.000000 0 0 1
-32.780790 -1.523846 20.346133 38.611752 0.046453 1.015798 0.014962 0.000401 96780.100000 0 0 1
-32.820000 -1.539346 21.789233 39.424518 0.046868 0.985217 0.004996 -0.002697 199811.000000 0 0 1
-33.593600 -2.731246 22.397133 40.467533 0.081124 0.984284 0.000889 -0.004570 89203.800000 0 0 1
-32.837200 -3.939246 22.226733 39.847547 0.119392 0.979070 0.010557 -0.001646 429573.000000 0 0 1
-33.489820 -5.107646 22.706433 40.782817 0.151347 0.980310 0.005037 0.000048 -198133.000000 0 0 1
-33.664290 -5.158446 24.238013 41.801618 0.152049 0.952271 0.000066 -0.010055 -240017.000000 0 0 1
-32.455630 -5.096846 24.937493 41.245900 0.155768 0.921526 0.003821 -0.009226 -737634.000000 0 0 1
-32.673280 -5.235646 26.305673 42.272256 0.158892 0.899129 0.003083 -0.011104 667308.000000 0 0 1
-31.545290 -4.557146 27.180003 41.888250 0.143471 0.864699 0.001293 -0.001865 318076.000000 0 0 1
-31.390130 -3.094046 27.225633 41.667115 0.098250 0.858718 -0.003860 0.011162 -602530.000000 0 0 1
-30.721300 -2.581846 26.087773 40.386088 0.083844 0.868517 -0.001215 0.010092 -183250.000000 0 0 1
-30.449840 -1.068146 26.040123 40.080191 0.035064 0.863606 -0.006096 0.002393 438701.000000 0 0 1
-31.647460 -0.286746 26.131893 41.042902 0.009060 0.880589 0.009031 -0.011882 -75477.300000 0 0 1
-31.510100 1.032254 25.531223 40.568403 -0.032748 0.890096 -0.017873 0.015089 -905855.000000 0 0 1
-32.766390 1.802254 25.159943 41.351024 -0.054948 0.916693 0.002103 0.006651 3480.810000 0 0 1
-33.608400 1.338454 24.061633 41.355510 -0.039804 0.949827 0.007040 0.017338 1042200.000000 0 0 1
-34.638801 2.270754 23.666533 42.013184 -0.065462 0.972407 0.009806 0.022260 689164.000000 0 0 1
-34.151481 3.612554 22.974233 41.318151 -0.105388 0.981192 0.016064 0.018979 174534.000000 0 0 1
-33.553250 3.416554 21.647933 40.076507 -0.101475 1.000163 0.005778 0.002644 -310920.000000 0 0 1
-34.505699 3.370054 20.625233 40.341055 -0.097358 1.034133 0.011792 0.013085 -325347.000000 0 0 1
-33.954930 2.911954 19.248233 39.139637 -0.085550 1.056659 0.009702 0.015902 -321334.000000 0 0 1
-33.064090 3.818854 18.674933 38.165047 -0.114989 1.059486 0.008903 0.009729 -304231.000000 0 0 1
-32.674060 3.216654 17.477333 37.194062 -0.098131 1.081624 0.016094 0.019671 -157257.000000 0 0 1
-31.579820 3.955154 16.679533 35.932368 -0.124594 1.088074 0.017222 0.018853 90992.200000 0 0 1
-32.057910 5.209754 16.187033 36.288719 -0.161102 1.108435 0.011706 0.012417 212087.000000 0 0 1
-31.160960 5.758954 15.244733 35.164938 -0.182751 1.122400 0.015669 0.012823 -221380.000000 0 0 1
-31.681070 7.124454 14.727033 35.655764 -0.221201 1.145014 0.019839 -0.002874 274326.000000 0 0 1
-31.055520 7.764454 13.588933 34.776302 -0.244996 1.169347 0.017921 0.001561 262566.000000 0 0 1
-31.497090 9.113754 13.561533 35.482987 -0.281660 1.178622 0.002033 -0.006226 61402.500000 0 0 1
-30.878980 9.804154 12.301433 34.654842 -0.307436 1.207914 -0.002371 -0.000647 218095.000000 0 0 1
-31.479700 11.069354 12.070833 35.485308 -0.338130 1.223705 -0.007143 0.000880 293874.000000 0 0 1
-30.837830 11.686954 10.977133 34.757072 -0.362256 1.249471 -0.009148 -0.005939 79355.100000 0 0 1
-30.668280 13.214554 11.149933 35.206375 -0.406846 1.248546 -0.011561 -0.000523 459993.000000 0 0 1
-29.897920 13.788554 10.081033 34.433081 -0.432119 1.273672 -0.004025 -0.003404 338578.000000 0 0 1
-29.550270 15.138454 10.241733 34.745997 -0.473435 1.271592 -0.004107 0.002774 -201203.000000 0 0 1
-28.939630 15.884754 9.078733 34.238151 -0.501993 1.302422 0.015864 -0.002481 -1239790.000000 0 0 1
-27.605570 15.558154 8.934633 32.923416 -0.513215 1.295974 0.011345 0.001827 -961504.000000 0 0 1
-26.989710 16.585154 8.162733 32.713024 -0.551012 1.318606 -0.002190 -0.003610 446030.000000 0 0 1
-25.523350 16.829454 8.661933 31.775792 -0.582937 1.294707 0.000366 0.000707 212616.000000 0 0 1
-25.367470 17.440054 9.921033 32.343328 -0.602285 1.259029 -0.000717 0.001913 229156.000000 0 0 1
-25.749700 18.831754 9.987733 33.428084 -0.631451 1.267379 -0.000311 -0.005742 -281345.000000 0 0 1
-25.874970 19.344354 11.401033 34.259329 -0.641969 1.231540 0.011674 0.005591 25735.100000 0 0 1
-24.642330 19.486454 12.084833 33.660206 -0.669088 1.203574 0.004492 0.005622 317162.000000 0 0 1
-24.861230 19.900654 13.457333 34.571904 -0.675027 1.170972 0.010561 0.001801 182124.000000 0 0 1
-25.451530 18.802454 14.392333 34.762795 -0.636266 1.143935 0.010960 0.003691 -46083.600000 0 0 1
-24.466230 17.851854 14.660433 33.648379 -0.630351 1.119986 0.016804 -0.000970 225221.000000 0 0 1
-24.909830 16.960854 15.671933 33.967332 -0.597785 1.091243 0.022455 -0.005214 -306648.000000 0 0 1
-23.766530 16.045654 16.119033 32.895808 -0.593843 1.058704 0.018227 -0.003320 -34714.000000 0 0 1
-22.790930 16.684554 16.940333 32.935933 -0.631927 1.030556 0.021135 -0.003959 -351256.000000 0 0 1
-21.685030 15.915154 17.252833 31.956109 -0.633133 1.000488 0.006752 -0.020950 -822266.000000 0 0 1
-21.838630 14.654454 18.134333 31.945779 -0.591020 0.967136 0.016001 -0.003254 -669503.000000 0 0 1
-22.168730 14.892154 19.473033 33.051896 -0.591523 0.940771 0.015566 0.005946 123029.000000 0 0 1
-22.534530 13.715254 20.129233 33.182815 -0.546743 0.918999 0.012803 0.005259 -694598.000000 0 0 1
-22.230530 13.812754 21.664033 33.975270 -0.555964 0.879364 0.011268 0.000769 117705.000000 0 0 1
-20.882330 13.924054 22.103733 33.444372 -0.588086 0.848765 0.013543 0.005522 342797.000000 0 0 1
-20.364830 15.232354 21.992233 33.621559 -0.642203 0.857790 0.017774 0.020811 -1275600.000000 0 0 1
-18.906230 15.303454 22.426233 33.084394 -0.680470 0.825963 0.036105 0.005523 -583074.000000 0 0 1
-18.002530 14.757754 21.515533 31.698589 -0.686674 0.824732 0.018411 0.008325 -279919.000000 0 0 1
-17.580530 15.605254 20.467833 31.169395 -0.725947 0.854409 0.019635 -0.000055 -1565120.000000 0 0 1
-16.426030 15.051254 19.609533 29.679766 -0.741751 0.849040 0.005969 0.010324 1253990.000000 0 0 1
-15.152730 14.768054 20.238033 29.279321 -0.772542 0.807640 0.007421 0.012769 1290610.000000 0 0 1
-14.534730 15.964954 20.782633 29.967582 -0.832257 0.804455 0.000494 0.003234 -1315450.000000 0 0 1
-13.637630 15.726254 21.996133 30.284152 -0.856408 0.757836 -0.037238 0.014752 -154166.000000 0 0 1
-12.492730 15.034754 21.555933 29.099319 -0.877482 0.736579 -0.016609 0.018856 -234768.000000 0 0 1
-11.666630 14.456254 22.524233 29.196483 -0.891784 0.689647 0.003937 0.011732 -414756.000000 0 0 1
-10.477130 13.659254 22.064733 27.985673 -0.916481 0.662545 -0.003481 0.010451 -1321220.000000 0 0 1
-10.004030 12.752954 23.047933 28.176686 -0.905610 0.612908 0.009329 0.006905 1419300.000000 0 0 1
-8.806430 11.970754 22.661633 27.099848 -0.936535 0.580429 0.012821 0.017666 1785570.000000 0 0 1
-7.512330 12.823554 22.922733 27.319047 -1.040866 0.575215 0.007572 0.020443 -930669.000000 0 0 1
-7.127530 13.465754 21.766533 26.568970 -1.083978 0.610701 0.005477 0.011097 -470397.000000 0 0 1
-6.579430 14.730154 22.009933 27.289256 -1.150720 0.632517 0.008378 0.019556 274572.000000 0 0 1
-7.540130 15.920254 22.535533 28.603466 -1.128476 0.663470 0.000879 0.011506 408046.000000 0 0 1
-8.361730 16.376154 21.504633 28.293925 -1.098702 0.707415 -0.033744 0.007371 -653414.000000 0 0 1
-7.753330 17.374554 20.719433 28.129773 -1.151068 0.742817 -0.008454 0.017134 -1057420.000000 0 0 1
-8.776530 17.812454 19.586433 27.891564 -1.112991 0.792264 0.003477 0.017039 626239.000000 0 0 1
-9.728030 18.721254 19.983133 29.059345 -1.091572 0.812526 -0.024857 0.023510 -879556.000000 0 0 1
-10.554930 18.322354 21.062833 29.845571 -1.048159 0.787347 -0.025246 0.023220 -1664270.000000 0 0 1
-11.920230 19.039054 21.129733 30.838986 -1.011411 0.815969 -0.026396 0.011416 363600.000000 0 0 1
-12.764130 18.890354 19.971233 30.308722 -0.976569 0.851405 -0.017395 0.012880 380209.000000 0 0 1
-13.868330 19.773754 20.097233 31.420227 -0.959165 0.876783 -0.009024 -0.000329 256597.000000 0 0 1
-14.740330 19.831154 18.801333 31.049027 -0.931602 0.920356 0.009210 -0.000200 -80268.100000 0 0 1
-15.469430 18.627854 18.556133 30.506233 -0.877764 0.916913 0.018222 -0.001819 173075.000000 0 0 1
-15.991930 18.750454 17.223133 30.065888 -0.864631 0.960822 0.028824 -0.009410 -536020.000000 0 0 1
-16.929930 17.576454 16.767633 29.609251 -0.804132 0.968790 0.026091 -0.010405 444956.000000 0 0 1
-17.954330 17.180254 17.624633 30.465501 -0.763370 0.953894 0.027649 -0.013812 -173613.000000 0 0 1
-19.003330 18.109154 17.820933 31.727806 -0.761309 0.974379 0.036184 -0.015208 -862580.000000 0 0 1
33.244425 -9.642946 12.050956 36.652473 -0.282315 1.235775 0.003600 0.006147 -626017.000000 0 0 1
31.906915 -9.974146 11.857056 35.470052 -0.302977 1.229951 -0.000186 0.011147 -529624.000000 0 0 1
31.570355 -11.267046 12.328056 35.715747 -0.342797 1.218375 0.002592 0.006248 -1587930.000000 0 0 1
30.188285 -11.708746 12.062756 34.553399 -0.369995 1.214181 -0.000982 0.016789 -1492230.000000 0 0 1
29.218305 -10.936046 12.779456 33.713809 -0.358146 1.182019 -0.007379 0.017465 147803.000000 0 0 1
27.952355 -11.542246 12.866456 32.864925 -0.391599 1.168541 -0.004497 0.018882 -82528.500000 0 0 1
27.707845 -12.579446 14.001256 33.496303 -0.426178 1.139560 -0.020138 0.023534 -1183520.000000 0 0 1
27.930275 -12.085646 15.342856 34.081760 -0.408381 1.103832 -0.013552 0.020281 270553.000000 0 0 1
26.916535 -12.431046 16.283656 33.825851 -0.432654 1.068549 -0.016560 0.018764 291505.000000 0 0 1
25.568115 -11.726846 15.998056 32.360241 -0.430025 1.053682 -0.021362 0.007033 -769740.000000 0 0 1
25.593365 -10.283946 16.105056 31.939830 -0.382075 1.042305 -0.036154 0.034103 30608.700000 0 0 1
24.460565 -9.588646 15.568656 30.539228 -0.373595 1.035853 -0.004887 0.017948 363721.000000 0 0 1
24.233365 -8.229046 16.193256 30.285223 -0.327358 1.006653 0.012573 -0.000930 -237779.000000 0 0 1
25.294115 -7.347046 15.914656 30.774139 -0.282686 1.027286 -0.002221 -0.002714 -198060.000000 0 0 1
25.292995 -6.148146 16.590356 30.867057 -0.238452 1.003353 -0.001192 0.008863 674578.000000 0 0 1
26.628375 -5.321646 16.438956 31.743181 -0.197250 1.026433 0.004971 0.006057 770043.000000 0 0 1
26.770505 -4.855346 15.034256 31.084774 -0.179419 1.065972 0.017945 0.006289 379591.000000 0 0 1
27.985845 -4.133646 14.924556 31.984948 -0.146645 1.085340 0.024851 0.015911 133512.000000 0 0 1
27.997225 -3.390046 13.607856 31.313109 -0.120498 1.121231 0.024389 0.017581 -79402.400000 0 0 1
28.471645 -4.277746 12.649156 31.447334 -0.149130 1.156842 0.001658 0.015446 160467.000000 0 0 1
28.473025 -3.610946 11.417956 30.888862 -0.126146 1.192168 0.008927 0.009297 -30295.800000 0 0 1
29.038545 -4.455246 10.233456 31.109644 -0.152238 1.235607 0.008741 0.008676 -833405.000000 0 0 1
30.387915 -4.754146 10.298256 32.435804 -0.155191 1.247708 0.023793 0.008502 -759880.000000 0 0 1
30.708705 -5.664046 9.257156 32.569939 -0.182394 1.282599 0.023675 0.005408 -648622.000000 0 0 1
31.993375 -6.464346 9.428356 33.974368 -0.199368 1.289591 0.020179 0.004222 -459830.000000 0 0 1
33.088545 -5.652046 9.055956 34.767913 -0.169183 1.307289 0.027685 0.010732 -558699.000000 0 0 1
34.304524 -6.333246 9.005356 36.027861 -0.182563 1.318162 0.034082 -0.003712 -29181.800000 0 0 1
-34.628850 -5.476546 8.403256 36.052247 0.156851 1.335547 0.033472 -0.004848 204792.000000 0 0 1
-34.715183 -5.107846 7.030756 35.786388 0.146088 1.373045 0.042793 -0.006623 -105095.000000 0 0 1
-33.544420 -4.430546 6.623356 34.477916 0.131320 1.377490 0.034581 0.018480 -206953.000000 0 0 1
-33.519440 -3.542846 5.347956 34.127778 0.105304 1.413444 0.047398 -0.001879 -493838.000000 0 0 1
-33.204110 -4.245046 4.162056 33.732122 0.127157 1.447096 0.039185 -0.008614 128113.000000 0 0 1
-32.990400 -3.384746 3.077256 33.306043 0.102240 1.478271 0.037313 -0.002174 -102437.000000 0 0 1
-32.317720 -4.028946 1.834256 32.619502 0.124027 1.514535 0.034356 -0.008138 142896.000000 0 0 1
-32.984000 -5.118946 1.194956 33.400236 0.153967 1.535012 0.041429 -0.005660 -376169.000000 0 0 1
-33.996430 -4.797446 0.299156 34.334563 0.140190 1.562083 0.032546 -0.004900 -658532.000000 0 0 1
-33.571010 -4.915946 -1.168544 33.949149 0.145401 1.605224 0.052322 -0.007957 -1035050.000000 0 0 1
-33.421570 -6.266346 -1.633744 34.043172 0.185342 1.618805 0.049473 -0.019770 661091.000000 0 0 1
-32.426510 -6.430846 -2.674144 33.166027 0.195780 1.651513 0.047577 -0.015568 316050.000000 0 0 1
-30.984310 -6.306846 -2.148144 31.692559 0.200806 1.638629 0.047970 -0.018410 -973609.000000 0 0 1
-30.721040 -7.216246 -1.162144 31.578586 0.230713 1.607606 0.037184 -0.016494 -492382.000000 0 0 1
-29.419360 -7.000346 -0.696844 30.248788 0.233606 1.593835 0.028269 -0.019554 -343064.000000 0 0 1
-29.081730 -8.050146 0.354356 30.177432 0.270049 1.559054 0.007632 -0.010603 2216.090000 0 0 1
-28.485920 -9.268746 -0.168944 29.956399 0.314575 1.576436 0.010856 -0.002074 507308.000000 0 0 1
-28.094940 -10.118146 0.865356 29.873924 0.345681 1.541825 0.011304 -0.000392 -108556.000000 0 0 1
-27.556660 -11.463746 0.312556 29.847691 0.394228 1.560324 0.000903 -0.002890 264170.000000 0 0 1
-26.376670 -11.370846 -0.501144 28.727617 0.407022 1.588242 -0.006874 -0.001359 809170.000000 0 0 1
-25.787320 -12.570046 -0.911644 28.702317 0.453558 1.602564 -0.012380 -0.003138 -314797.000000 0 0 1
-26.600040 -13.319946 -1.944544 29.812151 0.464247 1.636069 -0.011424 -0.005975 -885827.000000 0 0 1
-27.806780 -13.868646 -1.517744 31.110447 0.462648 1.619601 0.003412 -0.010722 -160481.000000 0 0 1
-28.205370 -14.876046 -2.448844 31.981815 0.485341 1.647441 -0.003809 -0.012067 93592.700000 0 0 1
-28.979090 -16.055946 -1.759244 33.176437 0.505949 1.623848 0.008460 -0.015330 252393.000000 0 0 1
-28.156920 -16.756946 -0.866844 32.777413 0.536829 1.597246 -0.000765 -0.007749 340967.000000 0 0 1
-28.997780 -17.373946 0.127056 33.804458 0.539792 1.567038 -0.001007 0.001335 411820.000000 0 0 1
-29.269990 -18.838446 0.016856 34.808327 0.571870 1.570312 0.012197 -0.002429 -288645.000000 0 0 1
-28.189500 -19.678846 0.343156 34.380556 0.609444 1.560815 0.013600 -0.012162 -73510.100000 0 0 1
-28.471860 -21.064046 0.217056 35.417340 0.636954 1.564668 0.026246 -0.014512 366234.000000 0 0 1
-29.366570 -21.608146 1.408556 36.486867 0.634356 1.532182 0.033892 -0.008851 263671.000000 0 0 1
-28.668970 -21.816646 2.644456 36.122971 0.650494 1.497524 0.036608 -0.009926 326029.000000 0 0 1
-29.560360 -22.373846 3.612356 37.248530 0.647894 1.473664 0.035827 -0.011908 437308.000000 0 0 1
-28.883860 -22.581846 4.998156 37.002685 0.663554 1.435307 0.020206 -0.009671 -220945.000000 0 0 1
-28.460880 -21.345846 5.533556 36.003987 0.643505 1.416492 -0.003061 -0.007073 379213.000000 0 0 1
-27.610950 -21.485146 6.693456 35.619916 0.661268 1.381759 -0.018154 -0.001192 320524.000000 0 0 1
-27.203330 -20.033346 7.188256 34.540225 0.634760 1.361151 -0.021670 0.004970 163643.000000 0 0 1
-26.326030 -19.973746 8.302456 34.072587 0.649050 1.324649 -0.024383 0.006400 -89571.100000 0 0 1
-26.016170 -18.619446 8.629256 33.135916 0.621177 1.307339 -0.021823 0.004418 -288747.000000 0 0 1
-25.043330 -18.598746 9.809856 32.700382 0.638789 1.266112 -0.023940 0.015295 -373897.000000 0 0 1
-25.539230 -18.959446 11.070456 33.678893 0.638597 1.235863 -0.024881 0.014908 -561577.000000 0 0 1
-24.522730 -19.241546 11.971256 33.390303 0.665305 1.204109 -0.014860 0.039457 -378432.000000 0 0 1
-24.170830 -18.122046 12.972156 32.877263 0.643340 1.165204 -0.014905 0.021346 -354142.000000 0 0 1
-23.510230 -16.985146 12.434856 31.557119 0.625640 1.165770 -0.012906 0.010638 -89225.800000 0 0 1
-23.230230 -15.968646 13.359656 31.194898 0.602225 1.128225 -0.000705 0.017134 374767.000000 0 0 1
-22.184830 -16.244246 14.463156 31.068072 0.632027 1.086562 0.020079 0.016409 -200822.000000 0 0 1
-22.851130 -16.973846 15.496356 32.410224 0.638878 1.072270 0.011161 0.001345 96823.000000 0 0 1
-21.965730 -17.567846 16.430356 32.574209 0.674609 1.042112 0.024692 0.003203 110600.000000 0 0 1
-22.845230 -18.306546 17.513156 34.113704 0.675551 1.031682 0.014221 0.029500 472301.000000 0 0 1
-23.684130 -17.509246 18.306456 34.679072 0.636606 1.014692 0.021501 0.009094 -86441.500000 0 0 1
-24.558330 -18.336946 19.076756 36.100939 0.641366 1.014048 -0.003821 0.021913 -155533.000000 0 0 1
-25.534280 -17.432746 19.848756 36.740621 0.599034 1.000074 0.004211 0.014811 -336966.000000 0 0 1
-24.984830 -16.899546 21.017756 36.763874 0.594706 0.962225 0.026613 0.012355 -586402.000000 0 0 1
-25.876380 -15.985546 21.552856 37.278014 0.553380 0.954318 0.028445 0.004064 -553287.000000 0 0 1
-25.384640 -15.165646 22.754356 37.311359 0.538531 0.914924 0.030313 0.008688 345282.000000 0 0 1
-24.227830 -14.396746 22.432456 36.020399 0.536161 0.898517 0.030250 0.009030 117886.000000 0 0 1
-23.719630 -13.631946 23.456756 36.037067 0.521618 0.862019 0.021746 0.009356 -454893.000000 0 0 1
-22.520230 -12.793746 23.031556 34.659678 0.516633 0.843964 0.020353 0.012096 -380124.000000 0 0 1
-22.826630 -12.015246 21.830356 33.793278 0.484520 0.868468 0.030338 0.004604 1552050.000000 0 0 1
-21.650530 -11.265646 21.378556 32.445383 0.479787 0.851429 0.025005 0.001274 1172870.000000 0 0 1
-21.291230 -9.968546 22.191756 32.328972 0.437885 0.814220 0.025468 -0.002277 59244.100000 0 0 1
-20.764530 -10.081346 23.515356 32.951043 0.451987 0.776108 0.027508 -0.004533 1005360.000000 0 0 1
-19.345430 -9.950446 23.669456 32.148098 0.475067 0.743265 0.012191 0.007080 792909.000000 0 0 1
-18.843130 -9.890546 25.130156 32.930399 0.483360 0.702655 0.003620 0.001164 79934.200000 0 0 1
-18.987330 -11.186146 25.709356 33.861771 0.532394 0.708645 0.007188 0.011048 474353.000000 0 0 1
-18.177030 -11.367246 26.900456 34.398448 0.558860 0.672888 0.007543 0.010239 -448467.000000 0 0 1
-18.426330 -12.731746 27.586956 35.534028 0.604629 0.681937 0.013767 -0.004686 -655748.000000 0 0 1
-19.576330 -12.855046 28.335856 36.761470 0.581045 0.690695 0.020214 0.003007 -591625.000000 0 0 1
-20.683630 -13.347646 27.589156 36.974772 0.573081 0.728518 0.010331 0.006486 -95509.800000 0 0 1
-21.849430 -13.906446 28.407856 38.442075 0.566803 0.739244 0.007637 0.006406 -383358.000000 0 0 1
-21.773930 -15.101846 29.234056 39.456303 0.606401 0.736354 0.005713 0.006078 -502206.000000 0 0 1
-21.056030 -14.945546 30.421356 39.902189 0.617272 0.703785 0.007206 0.003863 -222684.000000 0 0 1
-21.436530 -15.908446 31.558856 41.334790 0.638438 0.702090 0.000214 0.002958 -392022.000000 0 0 1
-21.115130 -17.279846 31.382256 41.584706 0.685838 0.715663 0.001749 0.006130 -88353.800000 0 0 1
-21.408230 -18.112846 32.518456 42.939929 0.702208 0.711626 0.009588 0.004608 -128142.000000 0 0 1
-22.826930 -18.394146 33.056956 44.183432 0.678273 0.725489 0.012995 -0.000510 6377.540000 0 0 1
-23.298030 -17.304146 33.875756 44.607158 0.638832 0.708369 0.022657 -0.004093 -295278.000000 0 0 1
-24.557230 -17.580146 34.443656 45.809219 0.621308 0.719867 0.035778 -0.019054 -234297.000000 0 0 1
-25.180070 -16.347146 -33.982220 45.343758 0.575819 2.418005 0.038129 -0.012662 -238021.000000 0 0 1
-24.794030 -15.997946 -32.661020 44.016138 0.573017 2.406881 0.046784 -0.021566 -434419.000000 0 0 1
-25.614630 -14.992746 -32.147020 43.752972 0.529555 2.396078 0.040509 -0.019273 -515489.000000 0 0 1
-25.197800 -14.379346 -30.812120 42.321170 0.518566 2.386276 0.032558 -0.013685 -99134.100000 0 0 1
-25.723110 -15.058646 -29.650920 42.043052 0.529625 2.353574 0.039713 -0.008859 685626.000000 0 0 1
-24.905930 -14.831046 -28.477820 40.635594 0.537091 2.347328 0.058007 -0.004852 360498.000000 0 0 1
-25.438040 -15.720146 -27.284820 40.480591 0.553534 2.310437 0.047364 -0.003896 892248.000000 0 0 1
-26.734600 -15.308746 -26.810120 40.839675 0.520043 2.286929 0.057380 -0.003227 788763.000000 0 0 1
-26.797760 -14.103046 -26.018920 39.924930 0.484448 2.280615 0.034501 0.003686 -472943.000000 0 0 1
-25.892490 -13.982946 -24.755020 38.454581 0.495163 2.270181 0.025726 -0.005624 1570850.000000 0 0 1
-24.482330 -13.747046 -25.054520 37.631034 0.511636 2.299354 0.018791 -0.008599 2166310.000000 0 0 1
-23.522130 -14.177446 -24.075520 36.522886 0.542423 2.290537 0.009571 -0.012106 527820.000000 0 0 1
-22.963030 -15.614646 -24.231820 36.855108 0.597170 2.288277 0.016924 -0.009317 -611935.000000 0 0 1
-22.186030 -15.779646 -25.385820 37.224414 0.618231 2.321245 0.021499 -0.003650 32575.700000 0 0 1
-21.728230 -17.139046 -25.435520 37.587612 0.667869 2.314067 0.029902 -0.001975 -82483.700000 0 0 1
-20.883530 -17.516746 -26.670720 38.135096 0.697946 2.345319 0.030599 -0.005600 -340660.000000 0 0 1
-21.458530 -17.459646 -27.936220 39.315902 0.683006 2.361087 0.038763 -0.008386 -216765.000000 0 0 1
-22.322730 -18.551746 -28.174020 40.450550 0.693401 2.341312 0.048856 -0.012872 -51176.300000 0 0 1
-22.901330 -18.565746 -29.609620 41.783818 0.681222 2.358363 0.037533 -0.015203 368148.000000 0 0 1
-21.961430 -19.017846 -30.606120 42.198548 0.713690 2.382250 0.041646 -0.017885 446724.000000 0 0 1
-22.495230 -18.946746 -31.876920 43.372256 0.699981 2.396406 0.036539 -0.014297 -923734.000000 0 0 1
-21.575230 -19.391146 -32.981420 43.923583 0.732135 2.420193 0.031151 -0.019819 -1406660.000000 0 0 1
-20.535430 -18.490646 -33.213320 43.205700 0.733051 2.447642 0.022244 -0.012259 70797.600000 0 0 1
-19.227130 -19.010946 -33.020120 42.678179 0.779745 2.455457 0.027536 -0.020093 312022.000000 0 0 1
-18.685830 -20.133946 -33.974920 43.690173 0.822684 2.461689 0.024649 -0.017763 -1187790.000000 0 0 1
-18.355630 -19.809746 33.857156 43.308916 0.823480 0.673314 0.035708 -0.012888 145847.000000 0 0 1
-18.289530 -20.961246 33.023056 43.178733 0.853361 0.700067 0.021318 -0.016643 -260581.000000 0 0 1
-19.618130 -21.611246 32.515256 43.693923 0.833703 0.731520 0.007769 -0.001558 -174461.000000 0 0 1
-20.323930 -22.226946 33.567556 45.098560 0.830092 0.731287 0.013221 -0.001415 134341.000000 0 0 1
-21.596130 -22.753346 33.193956 45.672161 0.811485 0.757163 0.012076 0.004450 218478.000000 0 0 1
-21.604730 -23.904946 32.170756 45.532059 0.835899 0.786183 0.007437 0.013636 -916666.000000 0 0 1
-21.149930 -25.110536 32.689556 46.329965 0.870805 0.787553 0.009150 0.014909 -40847.200000 0 0 1
-21.397130 -26.196436 31.846756 46.457576 0.885898 0.815503 0.008792 0.018281 58929.500000 0 0 1
-20.797030 -27.497826 32.432456 47.334038 0.923266 0.815942 0.024149 0.009013 -171107.000000 0 0 1
-21.425630 -27.857816 33.611256 48.629539 0.915179 0.807690 0.014026 0.004992 -442969.000000 0 0 1
-20.842030 -29.007456 34.178356 49.436654 0.947758 0.807431 0.018147 -0.005902 -854168.000000 0 0 1
-21.667430 -29.692316 -33.817520 49.947330 0.940394 2.314562 0.018522 -0.010396 606473.000000 0 0 1
-22.764530 -30.522996 -34.213520 51.190254 0.929979 2.302798 0.020338 -0.012417 726189.000000 0 0 1
-23.824830 -29.932816 34.198256 51.313904 0.898534 0.841357 0.017162 -0.010690 -286009.000000 0 0 1
-25.066360 -29.562406 -34.088320 51.616585 0.867515 2.292166 0.010637 -0.010326 -61318.300000 0 0 1
-25.965470 -28.642386 34.473156 51.797591 0.834380 0.842585 0.016819 -0.008264 248714.000000 0 0 1
-26.888970 -28.233026 -33.679620 51.521231 0.809777 2.283265 0.008414 0.002054 354994.000000 0 0 1
-28.049230 -27.291736 -34.194720 51.969963 0.771711 2.288917 0.008206 -0.012581 152338.000000 0 0 1
-28.877520 -28.083056 34.159956 52.815451 0.771451 0.867442 0.018100 -0.013825 -1366090.000000 0 0 1
-30.070620 -27.426676 33.955056 53.003873 0.739447 0.875498 0.015086 -0.019936 -1019750.000000 0 0 1
