# x y z rho theta phi s1 s2 stress_xx np intf bulk
-0.605839 -10.653319 -14.409820 17.930510 1.513989 2.504197 0.008465 -0.004256 -968698.000000 1 0 0
2.260961 -13.414919 -12.997620 18.815157 -1.403825 2.333399 0.005863 0.004765 411581.000000 1 0 0
2.301361 -11.157219 -14.706720 18.602888 -1.367383 2.482521 0.008698 0.001665 912043.000000 1 0 0
-5.562139 -6.293819 -16.559420 18.567820 0.847034 2.672181 0.021461 -0.006050 821115.000000 1 0 0
4.574461 -14.038419 -11.412520 18.661418 -1.255793 2.228823 0.001995 0.000205 -140146.000000 1 0 0
14.247361 -10.427419 -7.860620 19.326348 -0.631806 1.989669 0.051883 -0.021751 555451.000000 1 0 0
6.989761 10.727481 -10.763420 16.726829 0.993315 2.269835 0.029060 -0.018005 -933430.000000 1 0 0
5.759961 -4.218919 -12.500920 14.396160 -0.632178 2.622664 0.006087 -0.002424 1902470.000000 1 0 0
13.740061 0.647881 -9.988220 16.999223 0.047118 2.198848 0.022136 -0.001848 150238.000000 1 0 0
14.188961 5.205881 -10.426620 18.361433 0.351647 2.174693 0.013583 -0.001551 -1397630.000000 1 0 0
4.147461 4.323481 -13.423720 14.700006 0.806174 2.721811 0.004044 -0.002230 2984500.000000 1 0 0
10.544561 -4.997019 -13.628320 17.941268 -0.442547 2.433506 0.037405 -0.006353 -1407100.000000 1 0 0
2.609161 -7.574519 -11.989520 14.419766 -1.239060 2.552534 -0.000197 0.000232 2173480.000000 1 0 0
-5.401639 -2.077919 -15.060120 16.133898 0.367233 2.774698 0.010560 -0.006552 107540.000000 1 0 0
10.714861 0.127281 -9.582620 14.375363 0.011878 2.300435 0.013257 -0.002730 2050400.000000 1 0 0
-1.627639 -9.581219 -16.930320 19.521391 1.402525 2.620489 0.025484 -0.007206 1290420.000000 1 0 0
8.692261 1.688681 -17.932920 19.999917 0.191884 2.682940 0.021138 0.001684 442358.000000 1 0 0
16.568361 -5.790019 -8.575320 19.533843 -0.336196 2.025280 0.053337 -0.018328 -1100650.000000 1 0 0
10.113361 7.597181 -9.941020 16.087918 0.644270 2.236889 0.021654 -0.007671 1216960.000000 1 0 0
13.955661 -2.185819 -10.484220 17.591394 -0.155364 2.209289 0.037348 -0.005251 -405925.000000 1 0 0
7.271161 -1.877819 -13.493320 15.442334 -0.252734 2.633733 0.017247 -0.007212 1239180.000000 1 0 0
-2.786639 6.654481 -13.786020 15.559622 -1.174222 2.659470 0.002400 -0.005135 1668520.000000 1 0 0
11.284061 1.772981 -13.854920 17.956400 0.155848 2.452128 0.015665 0.000032 120302.000000 1 0 0
-2.389339 10.778781 -12.926220 16.999359 -1.352653 2.434717 0.004355 -0.003126 -1349520.000000 1 0 0
2.935261 -1.130419 -15.170120 15.492777 -0.367611 2.937147 0.012717 -0.006200 -294842.000000 1 0 0
-9.013839 0.382381 -15.182920 17.661160 -0.042396 2.605436 0.023183 0.003345 -530593.000000 1 0 0
2.395961 -1.810719 -17.931820 18.181571 -0.647163 2.975653 0.025748 -0.016651 1046950.000000 1 0 0
1.026261 7.826981 -13.032620 15.236930 1.440422 2.596986 0.004807 -0.009689 -458793.000000 1 0 0
9.434561 -8.988019 -9.789120 16.297923 -0.761164 2.215093 0.027898 -0.009678 119066.000000 1 0 0
3.919361 7.256281 -13.506520 15.825331 1.075560 2.593413 0.002898 -0.004170 775336.000000 1 0 0
-2.774039 9.114081 -15.460720 18.160276 -1.275337 2.589346 0.003308 -0.002195 50250.800000 1 0 0
5.599561 -7.661019 -15.252620 17.963539 -0.939621 2.585052 0.011484 -0.003472 -678046.000000 1 0 0
4.190161 7.291981 -16.391520 18.423148 1.049243 2.667537 0.009969 0.000330 -781030.000000 1 0 0
-0.240639 5.050081 -13.406320 14.327967 -1.523182 2.780963 0.008493 -0.010636 2493050.000000 1 0 0
8.802961 4.217281 -16.537520 19.203311 0.446768 2.608384 0.016145 -0.002102 -821507.000000 1 0 0
5.384061 0.196081 -14.326320 15.305882 0.036403 2.781888 0.006678 -0.000710 649090.000000 1 0 0
6.245361 7.915281 -11.599620 15.369040 0.902783 2.426053 0.009336 -0.005823 1064880.000000 1 0 0
2.867461 -8.341419 -15.006720 17.406989 -1.239690 2.610213 0.005265 -0.002874 177331.000000 1 0 0
3.948061 11.500081 -13.779020 18.376628 1.240096 2.418575 0.013715 -0.012180 -508548.000000 1 0 0
0.640461 -4.549419 -13.692420 14.442637 -1.430937 2.817862 0.002401 -0.002877 1261950.000000 1 0 0
8.523961 -0.049119 -11.497920 14.313018 -0.005762 2.503644 0.003949 -0.002847 21630.800000 1 0 0
-0.971839 -5.146519 -16.225920 17.050267 1.384160 2.829366 0.013644 -0.008960 646487.000000 1 0 0
4.492661 0.880881 -11.647220 12.514699 0.193615 2.767072 0.003237 -0.003290 301853.000000 1 0 0
-2.910339 -7.267619 -15.622120 17.473952 1.189900 2.677043 0.015804 -0.004303 1776140.000000 1 0 0
11.552461 -3.707319 -11.261720 16.553849 -0.310530 2.318979 0.034434 -0.007477 821792.000000 1 0 0
6.634461 -7.016119 -12.540620 15.827481 -0.813350 2.485418 0.010222 -0.001348 -132425.000000 1 0 0
3.497461 -4.017519 -14.611620 15.552239 -0.854491 2.792019 0.010755 -0.002764 2918050.000000 1 0 0
-0.574839 -1.489819 -18.224720 18.294546 1.202552 3.054195 0.029978 -0.018538 1309510.000000 1 0 0
14.875361 3.041981 -8.487420 17.394433 0.201717 2.080523 0.005089 0.002514 -1206830.000000 1 0 0
6.965061 4.317881 -14.296020 16.478239 0.554948 2.621091 0.002873 0.002717 2767480.000000 1 0 0
10.354461 -9.587219 -13.819620 19.751241 -0.746943 2.345751 0.047534 -0.015916 -955433.000000 1 0 0
9.162661 -3.109319 -15.482920 18.257684 -0.327153 2.583038 0.035040 -0.010540 101431.000000 1 0 0
-5.278039 -2.187519 -17.974120 18.860327 0.392907 2.833825 0.012758 -0.002007 -318190.000000 1 0 0
5.106161 -9.073219 -11.111420 15.226945 -1.058200 2.388710 -0.003624 0.001616 1589480.000000 1 0 0
-2.476639 3.959181 -17.090120 17.716689 -1.011806 2.874848 0.011258 0.000007 1873280.000000 1 0 0
9.321161 9.435281 -14.414120 19.587634 0.791482 2.397760 0.044917 -0.010998 -1055090.000000 1 0 0
9.757561 10.103181 -11.546820 18.182775 0.802799 2.258859 0.033136 -0.011454 571585.000000 1 0 0
12.161861 -5.901619 -9.580420 16.568779 -0.451783 2.187343 0.039777 -0.011886 -1993550.000000 1 0 0
8.132361 6.880581 -13.676020 17.335259 0.702211 2.479835 0.015243 0.000227 26853.600000 1 0 0
4.070361 -4.197819 -17.530620 18.480048 -0.800812 2.819655 0.027822 -0.014326 487061.000000 1 0 0
9.492561 -7.354219 -12.334520 17.214344 -0.659144 2.369605 0.027839 -0.007987 123911.000000 1 0 0
12.096561 -8.595219 -8.776020 17.240160 -0.617772 2.104871 0.035076 -0.016632 743972.000000 1 0 0
-2.794039 -2.534719 -13.778520 14.285625 0.736772 2.874349 0.005240 -0.008119 -2477280.000000 1 0 0
-0.416639 6.190281 -17.513520 18.580004 -1.503592 2.801131 0.015256 -0.005078 1411840.000000 1 0 0
1.146161 -8.391819 -17.497920 19.439998 -1.435055 2.690793 0.020808 -0.009729 2098470.000000 1 0 0
0.019561 8.603581 -15.851820 18.036136 1.568523 2.644331 0.001577 -0.003647 990883.000000 1 0 0
1.812561 3.377381 -14.925920 15.410229 1.078240 2.890221 0.012624 -0.005536 1876510.000000 1 0 0
-1.840939 -0.439719 -15.668920 15.782822 0.234463 3.021380 0.014766 -0.008904 70810.400000 1 0 0
14.181561 -4.255519 -8.387020 17.016704 -0.291525 2.086181 0.036309 -0.010893 -189818.000000 1 0 0
0.641861 0.634781 -14.511020 14.539073 0.779852 3.079462 0.007329 -0.006258 1322650.000000 1 0 0
8.842161 2.763681 -12.436120 15.507380 0.302937 2.501346 0.005526 0.000309 2408340.000000 1 0 0
5.965961 0.915781 -17.149820 18.180970 0.152312 2.803184 0.025582 0.000559 474479.000000 1 0 0
15.206061 1.638081 -12.435820 19.711855 0.107312 2.253484 0.022143 -0.007097 -1493760.000000 1 0 0
8.847261 -11.159519 -11.794720 18.491196 -0.900461 2.262508 0.030029 -0.009829 116674.000000 1 0 0
-4.602139 0.699881 -15.044820 15.748528 -0.150921 2.841523 0.010703 -0.001879 1857040.000000 1 0 0
2.341661 5.164681 -17.186020 18.097420 1.145119 2.822879 0.019491 -0.004386 1538130.000000 1 0 0
6.032661 -11.619119 -12.295520 17.960422 -1.091906 2.324837 0.006163 -0.002283 296680.000000 1 0 0
12.856861 7.212781 -8.734320 17.135093 0.511254 2.105671 0.019964 -0.007855 809158.000000 1 0 0
-5.022539 3.564681 -15.672620 16.839355 -0.617231 2.767156 0.004741 0.001109 2405050.000000 1 0 0
-0.618139 -4.305319 -19.039120 19.529618 1.428195 2.916998 0.034471 -0.017702 -1004080.000000 1 0 0
9.824561 4.498981 -10.206020 14.863569 0.429431 2.327663 0.003700 0.000199 -414623.000000 1 0 0
13.228661 3.677781 -12.862420 18.813968 0.271168 2.323567 0.021688 -0.006634 -162227.000000 1 0 0
-6.279539 5.820181 -17.170320 19.186636 -0.747452 2.679027 0.007508 0.002714 -1100970.000000 1 0 0
-10.161739 3.032281 -15.337920 18.646916 -0.289990 2.536667 0.030057 -0.000552 1124100.000000 1 0 0
10.746061 13.637181 -8.165720 19.186701 0.903417 2.010413 0.075631 -0.017015 -368850.000000 1 0 0
7.233761 13.294481 -12.304220 19.505495 1.072481 2.253390 0.046012 -0.020379 -520457.000000 1 0 0
5.040761 15.085081 -11.266720 19.491227 1.248306 2.187122 0.019634 -0.016121 -343574.000000 1 0 0
14.299261 9.522881 -9.649920 19.704697 0.587520 2.082573 0.068305 -0.015790 -2872310.000000 1 0 0
8.322061 -17.272019 -2.083120 19.285195 -1.121796 1.679024 0.032482 -0.002813 278088.000000 1 0 0
0.661461 -15.994219 -0.010320 16.007895 -1.529464 1.571441 0.018746 -0.009083 3870350.000000 1 0 0
-9.169739 -11.703219 7.604880 16.699810 0.906184 1.097989 0.026607 -0.011677 368970.000000 1 0 0
2.085661 -15.915719 -2.598520 16.260763 -1.440495 1.731288 0.011887 -0.006354 1648740.000000 1 0 0
-1.264839 -11.041619 -9.468720 14.600474 1.456742 2.276437 0.006532 -0.001404 1715910.000000 1 0 0
-4.698439 -12.595819 -12.994520 18.697260 1.213766 2.339211 0.033265 -0.003126 1783370.000000 1 0 0
-8.144439 -17.668019 -1.781720 19.536257 1.138857 1.662124 0.021768 -0.023134 -1195530.000000 1 0 0
-11.453439 -7.148619 -8.882820 16.161328 0.557985 2.152723 0.025187 -0.012379 2946530.000000 1 0 0
-13.553439 -11.574919 -4.703120 18.433497 0.706824 1.828789 0.030830 -0.005031 192489.000000 1 0 0
-5.701939 -13.420519 9.704080 17.515468 1.169038 0.983600 0.021044 -0.014498 304605.000000 1 0 0
0.172761 -14.058519 -3.662920 14.528895 -1.558508 1.825659 0.009266 -0.002432 -622095.000000 1 0 0
-14.727239 -11.602619 1.991780 18.854165 0.667278 1.464957 0.025226 -0.001554 671699.000000 1 0 0
-3.937639 -16.372919 -7.445020 18.412111 1.334781 1.987069 0.006383 -0.015632 -1200300.000000 1 0 0
0.582161 -15.185319 -9.217320 17.773346 -1.532478 2.116013 0.006387 0.001126 -1174380.000000 1 0 0
4.533761 -14.198019 -2.590120 15.127705 -1.261707 1.742861 0.005861 0.001448 1123110.000000 1 0 0
-3.582839 -18.096719 -2.566420 18.625641 1.375341 1.709026 0.005733 -0.013922 650896.000000 1 0 0
-1.014539 -13.514219 0.667680 13.568685 1.495865 1.521569 0.010180 -0.004475 1585000.000000 1 0 0
-8.463039 -11.372319 -10.496620 17.638926 0.931031 2.208165 0.022298 -0.009711 2353540.000000 1 0 0
-3.777639 -14.138119 -0.382120 14.639091 1.309700 1.596902 -0.000722 -0.003496 4432900.000000 1 0 0
-1.455239 -14.838819 -7.186320 16.551480 1.473039 2.019924 -0.003480 -0.004349 825798.000000 1 0 0
-14.265539 -7.973519 -1.800820 16.441580 0.509678 1.680545 0.018902 -0.002531 2464490.000000 1 0 0
-10.704239 -7.361019 -11.699320 17.482546 0.602405 2.303928 0.035411 -0.010847 147534.000000 1 0 0
-9.488139 -14.690419 6.828280 18.773881 0.997328 1.198547 0.020184 -0.008901 971592.000000 1 0 0
-2.406839 -14.276219 -12.332220 19.018069 1.403776 2.276340 0.029679 -0.001012 406213.000000 1 0 0
2.389661 -17.907419 -4.711920 18.670521 -1.438135 1.825927 0.019322 -0.005711 -544069.000000 1 0 0
-6.560239 -9.693419 -9.142720 14.852220 0.975830 2.233917 0.017421 -0.009903 897326.000000 1 0 0
-10.908039 -15.340119 0.235480 18.824453 0.952673 1.558287 0.024021 -0.012652 -136245.000000 1 0 0
-12.624539 -10.943019 4.053980 17.191958 0.714170 1.332748 0.028475 -0.007173 810789.000000 1 0 0
-17.068839 -8.919919 -1.462420 19.314474 0.481552 1.646585 0.022272 -0.005373 883075.000000 1 0 0
-1.470239 -19.265719 -4.194220 19.771723 1.494630 1.784553 0.002704 -0.010762 237172.000000 1 0 0
3.259961 -14.195419 -8.701920 16.966458 -1.345062 2.109344 0.002913 0.004373 913642.000000 1 0 0
-4.323839 -7.974519 -13.112320 15.944324 1.073956 2.536381 0.014410 -0.000392 595311.000000 1 0 0
5.600761 -16.691519 1.187180 17.646097 -1.247056 1.503468 0.033788 -0.009925 5453220.000000 1 0 0
-2.789639 -13.826919 -3.208020 14.465724 1.371715 1.794423 -0.001444 -0.006277 -235872.000000 1 0 0
-0.431739 -13.971919 3.636080 14.443753 1.539906 1.316318 0.012283 -0.005653 -2242700.000000 1 0 0
1.155861 -16.210819 6.988680 17.690911 -1.499615 1.164681 0.028729 -0.010541 1028940.000000 1 0 0
-5.467039 -10.369919 -14.598520 18.722728 1.085625 2.465018 0.029729 -0.007031 -1706250.000000 1 0 0
-0.159839 -17.257219 -5.936620 18.250497 1.561534 1.902110 0.009142 -0.005935 1427020.000000 1 0 0
-6.489239 -13.302019 -1.376420 14.864336 1.116925 1.663528 -0.000849 -0.006072 1353820.000000 1 0 0
-1.780439 -17.699419 -0.292020 17.791141 1.470541 1.587211 0.008546 -0.013934 1829690.000000 1 0 0
-9.460239 -9.831219 -4.939720 14.510335 0.804626 1.918168 0.019524 -0.008743 297407.000000 1 0 0
-0.911039 -16.626219 4.859180 17.345685 1.516056 1.286859 0.029810 -0.012688 1888090.000000 1 0 0
-6.747539 -9.866019 -6.285820 13.504783 0.970946 2.054941 0.018743 -0.010196 1413590.000000 1 0 0
-6.025439 -14.472119 -8.585320 17.873329 1.176277 2.071842 0.016680 -0.015323 408669.000000 1 0 0
-5.598839 -12.141519 -10.342320 16.903463 1.138724 2.229189 0.024040 -0.008702 2006400.000000 1 0 0
-10.686239 -12.336019 -8.871820 18.576390 0.856936 2.068701 0.037912 -0.015571 -115770.000000 1 0 0
3.940461 -17.161319 6.547280 18.785766 -1.345096 1.214801 0.038690 -0.013387 2007570.000000 1 0 0
-6.630539 -14.404319 -4.194420 16.402488 1.139397 1.829387 0.007937 -0.017924 301506.000000 1 0 0
-2.742039 -12.140019 -7.037120 14.297549 1.348656 2.085401 0.007398 -0.006044 2163390.000000 1 0 0
-7.064139 -12.747419 4.413780 15.227613 1.064763 1.276722 0.002358 -0.004552 1494670.000000 1 0 0
2.634161 -16.495219 2.236680 16.853302 -1.412441 1.437689 0.026887 -0.012736 3406410.000000 1 0 0
-6.218239 -11.917019 7.309280 15.300569 1.089865 1.072747 0.005666 -0.004688 1608250.000000 1 0 0
-11.206439 -12.767019 -1.123220 17.024767 0.850403 1.636820 0.033076 -0.003927 1453820.000000 1 0 0
-14.241439 -8.628919 4.685080 17.298174 0.544748 1.296528 0.024759 -0.006740 -2986.230000 1 0 0
-7.969839 -15.455419 4.478480 17.956756 1.094694 1.318732 0.005007 0.003064 33603.600000 1 0 0
-16.513639 -9.248219 1.295780 18.971265 0.510515 1.502441 0.019576 -0.003145 -669145.000000 1 0 0
-6.737039 -17.022619 2.316980 18.453337 1.193942 1.444905 0.003825 -0.004153 1255080.000000 1 0 0
-11.494839 -14.938719 -4.864020 19.466776 0.914953 1.823335 0.053508 -0.011279 -693024.000000 1 0 0
-10.105039 -10.032719 -12.623220 19.029266 0.781807 2.296094 0.025313 -0.003845 846807.000000 1 0 0
-4.269739 -16.054919 -4.558220 17.226969 1.310867 1.838583 -0.001943 -0.013432 -395596.000000 1 0 0
-11.810339 -8.307719 -0.059620 14.439732 0.613023 1.574925 0.005879 -0.000681 148625.000000 1 0 0
-9.630839 -11.153919 3.464980 15.138331 0.858546 1.339861 0.009832 0.000126 1980360.000000 1 0 0
-14.148939 -13.040619 -0.486820 19.248045 0.744658 1.596091 0.029948 0.003826 -47800.000000 1 0 0
5.606961 -14.829519 -7.068420 17.358434 -1.209315 1.990187 0.003804 -0.006563 1633430.000000 1 0 0
-7.447939 -10.401019 -1.314520 12.860053 0.949361 1.673192 0.005304 -0.002552 1422070.000000 1 0 0
-11.697039 -8.294519 -6.079320 15.574913 0.616816 1.971784 0.020651 -0.011278 451882.000000 1 0 0
-14.437539 -6.600319 -9.257620 18.376895 0.428795 2.098747 0.035702 -0.018728 1243590.000000 1 0 0
-4.006339 -16.463319 1.334780 16.996272 1.332087 1.492182 -0.003069 -0.006894 1118110.000000 1 0 0
-7.914639 -15.448519 0.112180 17.358308 1.097339 1.564334 0.017422 -0.011346 2301110.000000 1 0 0
0.858661 -18.525619 3.579680 18.887826 -1.524480 1.380120 0.031019 -0.021058 577733.000000 1 0 0
-14.247039 -8.871519 -4.594820 17.400987 0.556938 1.838020 0.026857 -0.009364 733729.000000 1 0 0
-3.242139 -14.471219 11.135280 18.545137 1.350395 0.926743 0.009133 -0.019099 1741200.000000 1 0 0
-10.811539 -12.105019 -3.982820 16.711784 0.841781 1.811436 0.034129 -0.014089 1024280.000000 1 0 0
-9.953139 -10.701819 0.460680 14.622111 0.821629 1.539285 0.010629 -0.001047 2452960.000000 1 0 0
0.054961 -13.088619 -11.151720 17.195227 -1.566597 2.276456 0.016236 -0.004994 -175225.000000 1 0 0
-5.770539 -12.594919 -6.339820 15.235630 1.141174 1.999968 0.008380 -0.015810 1890960.000000 1 0 0
1.693461 -15.853119 9.848080 18.739634 -1.464378 1.017468 0.021691 -0.013735 -170079.000000 1 0 0
-8.871039 -15.731619 -5.476920 18.872621 1.057345 1.865237 0.046374 -0.021616 58429.900000 1 0 0
-3.342139 -15.359919 5.815080 16.760435 1.356548 1.216476 0.004396 -0.009346 35586.100000 1 0 0
-17.429339 -5.475519 -6.634920 19.436701 0.304392 1.919160 0.014983 -0.013651 -1735280.000000 1 0 0
18.983661 5.688481 -2.855820 20.022335 0.291137 1.713916 0.029985 0.000260 1116820.000000 1 0 0
12.908861 -12.364419 -5.905520 18.825321 -0.763859 1.889885 0.048964 -0.011389 420299.000000 1 0 0
11.042361 -13.471119 -1.646020 17.496119 -0.884154 1.665015 0.039178 -0.006073 1908960.000000 1 0 0
18.739561 -2.950719 4.610980 19.522782 -0.156177 1.332359 0.035842 -0.007829 491279.000000 1 0 0
8.767761 -16.840919 4.893780 19.607123 -1.090787 1.318537 0.046154 -0.021494 250294.000000 1 0 0
18.134961 -1.040719 6.679880 19.354087 -0.057325 1.218408 0.044698 -0.011861 468867.000000 1 0 0
18.095261 -4.180819 -4.814420 19.185838 -0.227061 1.824444 0.048751 -0.012079 1046800.000000 1 0 0
5.387161 -11.786819 14.719680 19.611721 -1.142095 0.721894 0.005371 -0.001055 1260920.000000 1 0 0
16.006761 -8.885519 -0.689220 18.320586 -0.506758 1.608425 0.046011 -0.013018 961701.000000 1 0 0
13.898361 -12.551319 -1.450020 18.783041 -0.734514 1.648072 0.050536 -0.006289 -263549.000000 1 0 0
11.276061 -1.890319 13.823080 17.938796 -0.166096 0.691063 0.022764 -0.002263 -276481.000000 1 0 0
17.030161 -6.092319 -1.348920 18.137319 -0.343551 1.645238 0.037181 -0.012357 -807357.000000 1 0 0
17.821561 3.747381 -0.989120 18.238126 0.207253 1.625057 0.023280 0.003429 693643.000000 1 0 0
9.665261 -11.103119 9.548380 17.546170 -0.854521 0.995378 0.018316 -0.006206 546890.000000 1 0 0
9.137961 -11.112019 4.256580 15.003259 -0.882576 1.283135 0.005673 -0.002858 -655046.000000 1 0 0
14.023961 -10.196119 6.850080 18.642852 -0.628651 1.194544 0.034497 -0.009718 -407125.000000 1 0 0
16.348761 -0.530819 -4.713420 17.022928 -0.032457 1.851349 0.022810 -0.001354 737880.000000 1 0 0
15.850561 -0.462119 -1.690620 15.947164 -0.029147 1.677010 0.020177 -0.000082 2043130.000000 1 0 0
12.920161 -5.171119 -0.260020 13.919003 -0.380710 1.589478 0.018264 -0.005557 1614880.000000 1 0 0
14.292561 -7.533719 1.149080 16.197364 -0.485098 1.499794 0.033911 -0.008049 2179840.000000 1 0 0
15.494861 2.396481 3.574380 16.081357 0.153447 1.346656 0.019810 -0.001841 1383470.000000 1 0 0
15.943661 -7.185119 4.995180 18.187306 -0.423400 1.292569 0.040888 -0.014769 -932570.000000 1 0 0
13.790161 -12.164219 3.305580 18.683245 -0.722834 1.392933 0.031127 -0.002866 739971.000000 1 0 0
14.052561 -0.983619 9.142980 16.793929 -0.069882 0.995097 0.021758 -0.005261 -47225.000000 1 0 0
14.197261 -2.784019 -1.507320 14.545962 -0.193638 1.674607 0.009735 -0.003161 2029570.000000 1 0 0
15.146661 1.790881 9.183480 17.803508 0.117690 1.028827 0.029659 -0.006533 -2238800.000000 1 0 0
14.375861 -10.066519 -2.977620 17.800742 -0.610885 1.738861 0.049239 -0.012049 1544480.000000 1 0 0
7.467261 -12.709519 6.094980 15.951196 -1.039594 1.178727 0.005482 -0.006823 -101369.000000 1 0 0
12.527561 -4.683819 7.023680 15.106622 -0.357789 1.087229 0.019270 -0.001130 2998280.000000 1 0 0
14.988461 -8.843819 -5.541820 18.264142 -0.533065 1.879083 0.056832 -0.018593 -614287.000000 1 0 0
14.349261 -4.637819 4.604080 15.767315 -0.312612 1.274477 0.023953 -0.009247 1142760.000000 1 0 0
17.117961 -4.238219 1.008880 17.663661 -0.242708 1.513649 0.024289 -0.010690 -2206520.000000 1 0 0
10.282961 -14.464719 1.082780 17.780321 -0.952793 1.509861 0.033907 -0.003485 -207806.000000 1 0 0
16.383661 -2.622119 8.480180 18.633661 -0.158699 1.098312 0.035314 -0.008598 -300590.000000 1 0 0
16.059761 -2.603919 3.253180 16.591549 -0.160741 1.373443 0.021959 -0.003517 2799730.000000 1 0 0
7.881661 -15.304819 2.611280 17.411975 -1.095237 1.420258 0.021389 -0.008583 2807160.000000 1 0 0
16.780861 -7.141619 7.867480 19.861955 -0.402363 1.163522 0.053475 -0.014345 268958.000000 1 0 0
10.331361 -8.557119 5.196280 14.386196 -0.691741 1.201243 0.010750 -0.003136 1649980.000000 1 0 0
11.000361 -11.929919 2.194080 16.375131 -0.825914 1.436404 0.021237 -0.001525 23568.400000 1 0 0
12.277861 -7.335019 12.055780 18.705352 -0.538519 0.870415 0.018295 -0.010369 486925.000000 1 0 0
15.305061 -9.992719 4.314680 18.780729 -0.578413 1.338986 0.037293 -0.009203 -532601.000000 1 0 0
7.310461 -10.322919 7.861780 14.893391 -0.954603 1.014705 0.003791 -0.001516 532773.000000 1 0 0
15.254161 -3.318519 -4.271520 16.184804 -0.214211 1.837882 0.029285 -0.004574 814476.000000 1 0 0
11.727861 -9.079719 9.787380 17.770111 -0.658811 0.987501 0.021523 -0.009163 -1569690.000000 1 0 0
16.978161 -6.695119 2.393480 18.406828 -0.375615 1.440395 0.039802 -0.011489 776244.000000 1 0 0
17.541061 4.039781 2.027880 18.114109 0.226357 1.458611 0.028585 0.002792 -940315.000000 1 0 0
14.925361 -5.078319 8.842880 18.076290 -0.327960 1.059627 0.041059 -0.008428 446512.000000 1 0 0
12.771561 -12.696219 6.094080 19.011695 -0.782440 1.244493 0.025495 -0.005357 -1623180.000000 1 0 0
18.349861 0.797981 -0.861220 18.387383 0.043460 1.617651 0.035065 0.000434 -138267.000000 1 0 0
11.700861 -2.070419 10.867080 16.102491 -0.175133 0.830008 0.014721 0.000843 2812400.000000 1 0 0
5.765061 -12.492819 10.581180 17.357069 -1.138445 0.915218 0.003830 -0.002241 -2559260.000000 1 0 0
10.739461 -5.000919 11.160180 16.275590 -0.435799 0.815231 0.015591 0.002215 449081.000000 1 0 0
17.860361 1.252681 5.020080 18.594701 0.070023 1.297431 0.042458 -0.006945 -785053.000000 1 0 0
12.315861 -7.800019 7.216580 16.266523 -0.564568 1.111133 0.025064 -0.006268 -1630080.000000 1 0 0
10.616261 -7.944419 14.377080 19.558099 -0.642429 0.744988 0.026228 -0.004799 -953939.000000 1 0 0
14.126461 -0.268919 3.617680 14.584815 -0.019034 1.320135 0.007120 0.000550 787624.000000 1 0 0
11.673561 -7.700819 2.609080 14.226101 -0.583150 1.386351 0.013609 -0.001305 1688520.000000 1 0 0
9.283761 6.144981 3.538080 11.681910 0.584700 1.263095 0.005012 0.001071 2649980.000000 1 0 0
-4.054239 14.769881 -9.873620 18.222914 -1.302901 2.143403 0.011163 -0.006768 711491.000000 1 0 0
8.842461 -6.490119 9.338180 14.405290 -0.633164 0.865517 0.008598 -0.000506 407918.000000 1 0 0
5.905661 -10.531519 -8.471220 14.749620 -1.059729 2.182588 0.001157 -0.000439 1877040.000000 1 0 0
5.445161 1.105681 0.584780 5.586974 0.200334 1.465936 0.005294 -0.000011 3187770.000000 1 0 0
-0.517939 9.900781 10.939780 14.763892 -1.518531 0.736265 -0.003160 -0.001142 -1038540.000000 1 0 0
-6.249839 -5.172019 1.084980 8.184586 0.691312 1.437841 0.012353 -0.005544 3531600.000000 1 0 0
-1.049539 3.989081 -10.807320 11.567734 -1.313524 2.776986 0.008889 -0.008450 597287.000000 1 0 0
10.980061 5.811681 1.263880 12.487384 0.486807 1.469410 0.004736 0.001852 946613.000000 1 0 0
-10.027839 -1.933819 -13.651920 17.049110 0.190506 2.499327 0.022028 -0.001630 1176760.000000 1 0 0
7.404861 10.866681 -6.038620 14.470026 0.972644 2.001290 0.014115 -0.007947 882150.000000 1 0 0
-12.410939 -3.050619 -9.628520 16.001440 0.241023 2.216460 0.022225 -0.008067 173734.000000 1 0 0
-3.942439 -8.647919 2.446780 9.814075 1.143061 1.318825 0.007311 -0.000693 -857258.000000 1 0 0
7.938961 -6.597819 -5.850720 11.865465 -0.693400 2.086432 0.005971 -0.007047 2133400.000000 1 0 0
14.446761 3.212081 -4.221220 15.389771 0.218780 1.848645 0.014137 -0.001160 1487980.000000 1 0 0
-2.620039 -4.842219 9.806780 11.246538 1.074826 0.511560 0.005478 -0.004609 2316410.000000 1 0 0
3.467061 -1.893819 -4.550020 6.025757 -0.499946 2.426596 -0.000593 -0.003972 -1873680.000000 1 0 0
-4.075339 8.437981 -3.506220 10.005073 -1.120861 1.928842 0.002194 0.001485 -36591.100000 1 0 0
5.828061 0.050181 11.699480 13.070832 0.008610 0.462179 0.005405 -0.002330 1459310.000000 1 0 0
7.171961 4.796081 12.402380 15.108224 0.589427 0.607807 0.010538 -0.001095 1541140.000000 1 0 0
1.220061 -14.560419 12.345680 19.128779 -1.487199 0.869252 0.000646 -0.008966 35889.900000 1 0 0
2.990061 8.707581 -9.106020 12.949210 1.240026 2.350699 0.005437 -0.006590 279430.000000 1 0 0
-4.467539 -8.908619 -4.501020 10.935337 1.105961 1.995009 0.010829 -0.007689 358445.000000 1 0 0
5.648061 -6.494619 -3.980920 9.483058 -0.855003 2.004013 0.001191 -0.005997 260240.000000 1 0 0
-3.093239 3.452881 8.563780 9.738010 -0.840283 0.496158 0.000258 -0.001907 636930.000000 1 0 0
-3.831339 3.110381 -11.126120 12.171449 -0.681910 2.724119 0.004259 -0.009001 1485870.000000 1 0 0
3.073661 -6.144119 8.620880 11.023482 -1.106940 0.672853 0.002678 -0.000788 828383.000000 1 0 0
-5.151939 -8.679019 10.483380 14.552289 1.035090 0.766426 0.009169 -0.008362 3204130.000000 1 0 0
-13.241839 -2.472619 6.478980 14.947820 0.184602 1.122490 0.010816 -0.002795 384813.000000 1 0 0
4.026361 -5.950619 -8.287920 10.968640 -0.975928 2.427368 0.001375 -0.003938 3915380.000000 1 0 0
2.933061 -0.523919 12.373780 12.727441 -0.176761 0.236292 0.004260 -0.003792 2014480.000000 1 0 0
1.475361 -1.385919 -7.548720 7.815410 -0.754149 2.879602 0.000160 -0.006341 -116682.000000 1 0 0
3.656061 -3.495319 3.539980 6.173775 -0.762925 0.960159 0.004788 -0.001769 2128250.000000 1 0 0
1.585561 0.401681 -11.769620 11.882732 0.248117 3.003505 0.004594 -0.007235 126243.000000 1 0 0
4.100061 3.533581 -10.549520 11.857026 0.711326 2.667544 0.001676 -0.003573 1519790.000000 1 0 0
2.856361 3.277081 3.437980 5.542361 0.853885 0.901659 -0.002966 0.003240 847921.000000 1 0 0
-5.342839 0.835181 2.639480 6.017500 -0.155063 1.116718 0.007074 -0.005298 1845940.000000 1 0 0
-9.430839 -9.284019 5.681980 14.402036 0.777553 1.165244 0.015189 -0.004946 -30251.200000 1 0 0
-3.030639 3.899481 -0.636320 4.979521 -0.910119 1.698934 0.004883 -0.003519 -476317.000000 1 0 0
-15.849639 -6.466919 5.047880 17.846938 0.387398 1.284040 0.036067 -0.013813 1298200.000000 1 0 0
0.987661 6.690281 -8.158820 10.597249 1.424229 2.449481 0.005901 -0.005042 772898.000000 1 0 0
-1.644939 6.560681 -9.471920 11.638970 -1.325134 2.521476 0.006454 -0.006012 514928.000000 1 0 0
2.107261 -0.327119 5.222180 5.640808 -0.154005 0.387688 0.005313 -0.002711 4018240.000000 1 0 0
-3.368639 -0.580919 -6.337620 7.200738 0.170770 2.646942 0.008718 -0.009223 572694.000000 1 0 0
1.880561 -1.139319 -2.411520 3.263432 -0.544703 2.402310 0.006212 -0.003442 766975.000000 1 0 0
2.455361 -8.527919 -7.541220 11.645781 -1.290458 2.275161 -0.000470 -0.001518 2118170.000000 1 0 0
-2.508239 14.133181 -5.583920 15.401890 -1.395153 1.941796 0.008468 0.001160 2866130.000000 1 0 0
6.925961 -5.058919 -8.169920 11.845218 -0.630857 2.331903 0.008031 -0.007310 3230310.000000 1 0 0
-14.237839 -5.113219 -2.166120 15.282446 0.344784 1.713014 0.007841 -0.004935 229185.000000 1 0 0
-2.735439 6.884381 -6.783820 10.044777 -1.192585 2.312246 0.005912 -0.003151 -2362320.000000 1 0 0
-5.553639 -1.119319 -8.132820 9.911536 0.198883 2.533153 0.017216 -0.011904 -731838.000000 1 0 0
-5.737139 -10.579119 3.395880 12.504580 1.073878 1.295771 0.002496 -0.001577 -3468390.000000 1 0 0
8.143061 -7.636619 6.677080 13.008105 -0.753315 1.031769 0.002934 0.000604 -276390.000000 1 0 0
8.794261 -5.981719 13.304980 17.033569 -0.597303 0.674365 0.018460 0.000559 540112.000000 1 0 0
-4.817039 9.582981 -0.842520 10.758588 -1.105018 1.649188 0.003655 0.002055 1276170.000000 1 0 0
2.755361 6.589081 12.164980 14.106549 1.174724 0.530876 -0.000462 -0.000141 1526790.000000 1 0 0
6.105461 -2.826919 11.040280 12.928879 -0.433624 0.547317 0.007594 -0.001845 79452.700000 1 0 0
-9.662539 -6.551319 -1.145320 11.730141 0.595816 1.668591 0.012420 -0.005638 71420.000000 1 0 0
0.876461 -13.382119 6.208380 14.778135 -1.505395 1.137234 0.011891 -0.006908 1202540.000000 1 0 0
-0.529439 -3.229019 8.629180 9.228739 1.408280 0.362443 0.004731 -0.005968 2298260.000000 1 0 0
4.250061 0.769581 3.392180 5.492008 0.179134 0.905036 0.000150 0.001851 639641.000000 1 0 0
-10.210639 5.524981 8.258280 14.247166 -0.495985 0.952505 0.003975 -0.009662 72546.700000 1 0 0
9.419261 8.045081 0.020880 12.387342 0.706875 1.569111 0.004433 -0.000403 -432299.000000 1 0 0
4.246861 2.808581 8.224380 9.672868 0.584300 0.554332 -0.000764 0.000637 3442960.000000 1 0 0
1.333861 2.674781 -9.713720 10.163169 1.108205 2.843086 0.006230 -0.008555 1295980.000000 1 0 0
-1.391139 -10.092719 3.046080 10.633760 1.433824 1.280273 0.007287 -0.003388 -1464920.000000 1 0 0
-9.868439 9.519981 9.008880 16.406585 -0.767428 0.989508 0.008634 -0.011451 1347860.000000 1 0 0
9.826161 -1.957519 -7.547120 12.543697 -0.196641 2.216382 0.017099 -0.005904 1974510.000000 1 0 0
-5.246639 -1.765919 6.599480 8.613874 0.324671 0.697975 0.005334 -0.005155 887386.000000 1 0 0
3.131861 -7.777819 -4.768720 9.645917 -1.187994 2.087914 -0.004201 -0.003787 1348140.000000 1 0 0
-5.094239 4.899481 -13.066720 14.855819 -0.765913 2.645752 0.000115 -0.007377 1975390.000000 1 0 0
-5.643839 9.631681 5.470680 12.431835 -1.040760 1.115137 0.003732 -0.002137 2289780.000000 1 0 0
-0.423439 -1.800719 -9.373820 9.554601 1.339842 2.946756 0.002330 -0.008509 -333618.000000 1 0 0
-16.714739 0.135581 6.388280 17.894441 -0.008111 1.205744 0.029449 -0.012795 -601451.000000 1 0 0
-6.091539 -2.891319 4.046880 7.864084 0.443159 1.030252 -0.001231 -0.003906 2591150.000000 1 0 0
0.990361 -5.702319 -5.171720 7.761698 -1.398835 2.300050 0.000079 -0.003763 453464.000000 1 0 0
-7.037739 1.418181 -8.443320 11.082900 -0.198848 2.436935 0.007882 -0.006125 454449.000000 1 0 0
8.068861 1.939081 4.731380 9.552618 0.235844 1.052620 0.003303 0.001756 438599.000000 1 0 0
0.540261 -8.026719 -0.509520 8.061000 -1.503590 1.634047 0.002566 -0.000850 2727120.000000 1 0 0
5.483061 5.526081 -3.401320 8.495323 0.789306 1.982723 0.004727 -0.001131 -1097520.000000 1 0 0
-0.775639 -0.323019 -1.181920 1.450135 0.394611 2.523597 0.006312 -0.003813 562351.000000 1 0 0
9.167861 6.440681 -6.326320 12.866793 0.612421 2.084812 0.011491 -0.008710 584193.000000 1 0 0
-15.052639 -7.164119 2.484080 16.854590 0.444213 1.422874 0.014564 -0.008617 817933.000000 1 0 0
-6.450439 6.904581 8.779480 12.898088 -0.819390 0.822105 0.005570 -0.004927 717191.000000 1 0 0
-9.430339 -3.238319 -9.579820 13.827182 0.330777 2.336196 0.015972 -0.009845 1320690.000000 1 0 0
14.959461 3.468581 -1.221720 15.404841 0.227839 1.650187 0.016544 0.002404 1503850.000000 1 0 0
12.099361 1.719681 -5.724820 13.495385 0.141184 2.008881 0.013000 -0.002098 333680.000000 1 0 0
1.722661 -9.453319 12.675280 15.905833 -1.390546 0.648658 -0.003998 -0.005261 401902.000000 1 0 0
-3.557939 6.380181 7.872480 10.739719 -1.062095 0.748038 -0.000610 -0.000578 477113.000000 1 0 0
-4.138439 13.117581 -12.383820 18.508285 -1.265192 2.303788 0.006779 -0.004424 334572.000000 1 0 0
-10.289439 7.791681 6.489080 14.446141 -0.648125 1.104936 0.007310 -0.005569 794376.000000 1 0 0
8.090561 -9.234019 -7.027520 14.146036 -0.851305 2.090685 0.011704 -0.005330 2168620.000000 1 0 0
5.849261 -3.845819 -0.269520 7.005485 -0.581621 1.609279 0.002709 -0.001689 -1984900.000000 1 0 0
-1.661039 -4.436219 4.219980 6.344078 1.212528 0.843056 0.006036 -0.004391 346517.000000 1 0 0
9.960461 -2.015119 -2.540720 10.475054 -0.199618 1.815789 0.007583 -0.004831 -1106000.000000 1 0 0
13.551561 7.102381 1.417180 15.365449 0.482742 1.478433 0.009912 0.000711 -75016.800000 1 0 0
5.384361 -3.647519 -3.230420 7.261636 -0.595416 2.031816 0.002274 -0.005347 -1993480.000000 1 0 0
-12.275739 -6.069619 1.912080 13.827151 0.459190 1.432067 0.006705 -0.004328 2789250.000000 1 0 0
3.809261 -5.770519 -0.255820 6.919162 -0.987337 1.607777 0.002449 -0.000714 -871414.000000 1 0 0
-5.209639 3.718581 -8.696720 10.798200 -0.619920 2.507123 0.004906 -0.008166 242802.000000 1 0 0
-1.687639 -9.239119 7.251580 11.865701 1.390126 0.913299 0.004781 -0.004383 1652060.000000 1 0 0
-7.361539 -7.353919 2.581080 10.720744 0.784880 1.327652 0.012789 -0.004900 -5247770.000000 1 0 0
-5.878239 13.063981 -8.537220 16.676493 -1.147978 2.108228 0.009384 -0.004283 2259870.000000 1 0 0
9.290561 -13.897019 -4.144720 17.222670 -0.981505 1.813837 0.032906 -0.000997 2681240.000000 1 0 0
-6.477239 -5.171119 -6.645820 10.623654 0.673735 2.246656 0.017508 -0.008811 2783060.000000 1 0 0
3.410561 0.429081 -6.145520 7.041552 0.125152 2.631606 0.002372 -0.008082 1741280.000000 1 0 0
-3.568339 5.819381 5.001480 8.462449 -1.020741 0.938473 0.003121 -0.000274 -623710.000000 1 0 0
-2.618439 -10.768819 -2.852020 11.443676 1.332275 1.822674 0.005927 -0.003484 2120090.000000 1 0 0
-12.612539 -0.505119 1.714980 12.738620 0.040028 1.435758 0.008601 -0.003709 1390860.000000 1 0 0
8.485861 -11.925219 -5.978820 15.810344 -0.952334 1.958603 0.023869 -0.005614 46065.100000 1 0 0
6.160161 3.959781 0.969280 7.386945 0.571300 1.439202 0.000206 0.002508 -1001340.000000 1 0 0
3.409761 -4.824719 -10.903220 12.400992 -0.955570 2.645022 0.002317 -0.002137 -364579.000000 1 0 0
-7.580539 4.277181 8.502480 12.167621 -0.513704 0.797107 0.002269 -0.003425 2146620.000000 1 0 0
8.202361 8.827281 4.121180 12.735138 0.822078 1.241257 0.002143 0.001768 1594980.000000 1 0 0
0.201761 10.539081 -6.456320 12.361108 1.551655 2.120353 0.002973 0.002090 2674100.000000 1 0 0
5.443361 8.124981 3.367680 10.343440 0.980522 1.239165 0.003081 0.001692 2284120.000000 1 0 0
8.122561 6.757281 -3.733320 11.206004 0.693901 1.910443 0.005992 -0.004615 1396610.000000 1 0 0
10.541761 2.618781 -8.138820 13.573030 0.243491 2.213837 0.006593 -0.003582 213484.000000 1 0 0
3.326261 -12.539219 -0.238720 12.975092 -1.311500 1.589196 0.006674 -0.000032 -1187250.000000 1 0 0
0.581361 2.087581 5.232880 5.663833 1.299193 0.392616 0.003518 -0.001850 409898.000000 1 0 0
-4.951839 13.480681 1.491380 14.438617 -1.218768 1.467321 0.002676 0.001809 593660.000000 1 0 0
8.218961 4.105981 -7.968920 12.161994 0.463307 2.285285 0.002677 -0.002715 1878910.000000 1 0 0
-13.954739 -0.689219 -3.569820 14.420589 0.049350 1.820947 0.009886 -0.002645 648920.000000 1 0 0
-8.609939 -0.067519 -0.491720 8.624233 0.007842 1.627843 0.008771 -0.005822 137760.000000 1 0 0
1.872861 -3.901319 -1.151420 4.478132 -1.123229 1.830838 0.002796 -0.000732 -2897670.000000 1 0 0
8.077161 -5.576219 -0.221820 9.817533 -0.604233 1.593393 0.002385 -0.002749 1375200.000000 1 0 0
-2.296439 -1.249019 7.280780 7.735854 0.498143 0.344710 0.006345 -0.006380 2982810.000000 1 0 0
-5.924339 8.793781 -11.743320 15.821945 -0.977943 2.407169 -0.002443 -0.001503 -1406720.000000 1 0 0
-6.223539 9.108781 -8.875520 14.158997 -0.971403 2.248296 0.001434 0.000041 767865.000000 1 0 0
-1.590739 14.050981 -8.408520 16.451861 -1.458064 2.107259 0.018489 -0.006558 -179819.000000 1 0 0
-1.473439 7.196381 9.734280 12.194881 -1.368840 0.646451 -0.003194 -0.002869 -452749.000000 1 0 0
10.010661 2.325181 -3.966320 11.015965 0.228224 1.939120 0.007269 -0.003235 -2694500.000000 1 0 0
-3.002439 -7.522819 -6.922520 10.654986 1.191057 2.277983 0.006601 -0.005971 2214510.000000 1 0 0
-5.461339 -4.953219 -1.510120 7.526026 0.736647 1.772821 0.014658 -0.006236 -254248.000000 1 0 0
5.682861 7.408181 -8.786420 12.820968 0.916437 2.325834 0.004005 -0.005410 619826.000000 1 0 0
-9.516839 5.202081 -7.524820 13.200560 -0.500243 2.177348 0.011520 -0.003272 -1040270.000000 1 0 0
-0.444139 6.177781 -5.346220 8.181950 -1.499027 2.282885 0.008130 -0.002791 -1435470.000000 1 0 0
-8.263139 2.788581 -6.302220 10.759815 -0.325471 2.196562 0.008763 -0.003959 2721520.000000 1 0 0
3.714461 1.402181 -2.008020 4.449211 0.360954 2.039041 0.001800 -0.002250 3084850.000000 1 0 0
-6.801439 12.513081 -3.475220 14.659943 -1.072921 1.810130 0.011565 0.003993 1012310.000000 1 0 0
-6.578939 3.117681 -2.341220 7.647463 -0.442541 1.881936 0.006702 -0.002779 -1568600.000000 1 0 0
12.182861 4.100981 -0.798620 12.879361 0.324705 1.632844 0.004072 -0.000031 -377331.000000 1 0 0
2.122461 12.372581 -5.484820 13.699228 1.400904 1.982722 0.004537 -0.003150 1368140.000000 1 0 0
-9.226039 -1.366519 -4.305020 10.272311 0.147046 2.003239 0.011637 -0.004225 691684.000000 1 0 0
-1.050339 5.762481 3.488880 6.817747 -1.390504 1.033593 0.001440 0.001210 1256880.000000 1 0 0
11.587161 2.660581 11.998280 16.890817 0.225702 0.780810 0.017341 0.004584 1205980.000000 1 0 0
-7.008139 -2.331719 -5.782220 9.380032 0.321195 2.235009 0.017715 -0.008240 281712.000000 1 0 0
7.501061 -7.432719 10.950280 15.212490 -0.780822 0.767251 0.010371 0.000581 -338850.000000 1 0 0
-5.415539 -2.079819 -10.941220 12.384022 0.366678 2.654067 0.009891 -0.007599 -1010990.000000 1 0 0
0.800761 -6.168619 4.453480 7.650266 -1.441706 0.949446 0.004346 -0.001889 1525870.000000 1 0 0
-4.757639 -9.309319 7.402880 12.810198 1.098338 0.954656 0.001490 -0.005588 2392510.000000 1 0 0
-8.814239 9.270281 1.701380 12.904403 -0.810610 1.438566 0.004580 -0.002095 1126510.000000 1 0 0
-8.136839 7.123481 -9.120120 14.146686 -0.719091 2.271404 0.004920 -0.001305 846162.000000 1 0 0
-1.213539 -10.621019 -0.082220 10.690439 1.457031 1.578487 0.005802 -0.002198 -598136.000000 1 0 0
-3.972039 10.336581 7.787680 13.537723 -1.203923 0.957877 0.005668 -0.002742 1180880.000000 1 0 0
-7.538939 12.046781 1.964080 14.346363 -1.011618 1.433461 0.002589 -0.004893 2082090.000000 1 0 0
-8.143439 -8.210319 -2.967920 11.938739 0.789488 1.822027 0.020045 -0.007196 -598741.000000 1 0 0
5.415361 4.594881 -8.009120 10.704442 0.703617 2.416149 0.003501 -0.002700 496388.000000 1 0 0
-8.892239 -0.215919 -10.092220 13.452563 0.024277 2.419173 0.014946 -0.006889 -1318800.000000 1 0 0
-15.311639 -2.391319 -1.494920 15.569184 0.154925 1.666962 0.006030 -0.004008 144509.000000 1 0 0
-7.223939 -5.765319 8.729180 12.713095 0.673572 0.813954 0.004860 -0.003804 -582722.000000 1 0 0
8.176061 3.480581 -0.963920 8.938208 0.402467 1.678849 0.004841 -0.000003 1487400.000000 1 0 0
12.025861 7.229581 -5.855320 15.204373 0.541279 1.966121 0.016512 -0.009879 2095080.000000 1 0 0
3.576661 13.200381 -9.491420 16.647210 1.306198 2.177486 0.001580 -0.012730 1798630.000000 1 0 0
-9.747939 5.362981 -0.560520 11.139931 -0.502970 1.621134 0.005950 -0.001258 188883.000000 1 0 0
11.342561 -1.279019 -5.076820 12.492545 -0.112289 1.989294 0.022351 -0.006571 -1201040.000000 1 0 0
10.636461 1.740681 -1.242420 10.849326 0.162214 1.685564 0.006744 -0.001464 2453140.000000 1 0 0
14.669061 5.074481 4.808780 16.249802 0.333045 1.270369 0.010177 -0.003697 2685140.000000 1 0 0
0.898061 -0.906419 10.231380 10.310637 -0.790030 0.124071 0.005643 -0.005340 1712710.000000 1 0 0
-7.899439 1.289181 -12.451720 14.802313 -0.161773 2.570297 0.009621 -0.003137 -597226.000000 1 0 0
3.171861 -11.431419 -7.789720 14.192174 -1.300136 2.151813 -0.001834 0.001243 -126929.000000 1 0 0
2.894961 5.020381 -6.759420 8.903639 1.047729 2.432841 0.005565 -0.003153 -1076900.000000 1 0 0
6.492561 8.047981 0.637180 10.359987 0.891964 1.509254 0.003473 -0.001364 692711.000000 1 0 0
-9.088339 -5.369619 6.727080 12.517361 0.533646 1.003422 0.004624 -0.000594 -1273140.000000 1 0 0
-0.237939 -6.913719 -11.774320 13.656161 1.536394 2.610390 0.002437 0.000029 1811220.000000 1 0 0
6.432161 -13.357819 -4.592020 15.520653 -1.122035 1.871157 0.008658 -0.000046 3990050.000000 1 0 0
-3.322139 -0.396919 9.993580 10.538776 0.118913 0.323062 0.001522 -0.001812 607065.000000 1 0 0
8.672461 8.520781 6.986880 14.022545 0.776576 1.049205 0.004245 0.001547 -169089.000000 1 0 0
-7.999239 5.603981 -2.737920 10.143403 -0.611105 1.844108 0.007075 -0.003560 -484084.000000 1 0 0
-5.354739 5.807481 -6.457320 10.202796 -0.825936 2.256086 0.003534 -0.002856 -1281870.000000 1 0 0
3.381861 -13.820519 2.625480 14.468479 -1.330813 1.388323 0.019530 -0.010594 -1495070.000000 1 0 0
-11.313039 -6.996019 6.500180 14.804779 0.553841 1.116245 0.019418 -0.006575 -1159230.000000 1 0 0
-12.957939 -3.775519 -6.862320 15.141142 0.283518 2.041175 0.021680 -0.007971 235406.000000 1 0 0
6.056961 0.342481 -7.204620 9.418632 0.056483 2.441733 0.003789 -0.004402 237440.000000 1 0 0
-1.427639 2.184781 -2.521320 3.628839 -0.992002 2.338939 0.007727 -0.004825 2399550.000000 1 0 0
7.618361 0.938181 -4.951320 9.134286 0.122530 2.143681 0.006702 -0.003975 166029.000000 1 0 0
3.709161 -4.516919 10.935380 12.399313 -0.883279 0.490846 0.001572 -0.000141 293389.000000 1 0 0
6.024861 -2.522919 2.115280 6.865747 -0.396566 1.257610 0.004641 -0.001848 -828639.000000 1 0 0
-6.328839 7.772881 1.124980 10.086499 -0.887444 1.459031 0.002383 -0.000047 1411410.000000 1 0 0
6.098761 -3.357419 8.033980 10.630709 -0.503233 0.714023 0.007158 -0.001998 -216205.000000 1 0 0
6.764361 -2.253619 -7.729820 10.515964 -0.321595 2.396545 0.006247 -0.006437 640190.000000 1 0 0
12.091361 -8.056619 -5.766320 15.632037 -0.587757 1.948598 0.032643 -0.013612 1328120.000000 1 0 0
5.538761 -9.659219 9.983080 14.954607 -1.050152 0.839871 -0.000842 0.001167 2723690.000000 1 0 0
-6.711839 7.516281 -4.547920 11.055625 -0.841877 1.994750 0.004736 -0.000816 734697.000000 1 0 0
-1.411639 -7.471219 9.786480 12.393023 1.384054 0.660515 0.003232 -0.007047 -681708.000000 1 0 0
10.126661 -9.347419 0.774380 13.803013 -0.745405 1.514665 0.009321 -0.002945 2064480.000000 1 0 0
11.201361 6.062981 9.824680 16.085850 0.496117 0.913769 0.011365 -0.000343 2897690.000000 1 0 0
-15.298239 -4.331019 -4.975920 16.659941 0.275886 1.874101 0.009743 -0.010828 2306240.000000 1 0 0
-4.758639 -4.461219 7.846480 10.203645 0.753151 0.693540 0.005408 -0.006112 -827791.000000 1 0 0
2.840061 10.862181 -11.097120 15.786038 1.315058 2.350362 -0.001485 -0.005896 -573264.000000 1 0 0
9.890261 -1.289619 1.584780 10.099104 -0.129661 1.413222 0.002149 -0.001878 -451112.000000 1 0 0
-1.587239 -2.572019 0.773080 3.119658 1.017885 1.320378 0.004834 -0.007059 1684980.000000 1 0 0
1.584461 2.965481 0.912880 3.483955 1.080085 1.305677 0.001268 0.000561 -453089.000000 1 0 0
-9.027339 -2.371819 4.284580 10.270151 0.256930 1.140448 0.006366 -0.004374 3111540.000000 1 0 0
9.903161 4.866781 -2.746120 11.370986 0.456774 1.814710 0.005574 -0.001813 2657230.000000 1 0 0
2.608961 8.488081 2.533280 9.234268 1.272594 1.292899 -0.000046 0.001317 1890650.000000 1 0 0
-8.183639 -0.061819 2.463380 8.546579 0.007554 1.278419 0.007064 -0.006797 2089110.000000 1 0 0
6.979061 2.042981 13.684180 15.496381 0.284774 0.488460 0.011281 -0.000374 583671.000000 1 0 0
6.841561 4.376481 3.827680 8.978400 0.569094 1.130375 -0.000208 0.002465 -136577.000000 1 0 0
-0.264639 3.353281 7.783480 8.479215 -1.492040 0.407919 -0.000000 -0.001694 -281814.000000 1 0 0
2.666661 -10.260219 9.133680 13.993116 -1.316519 0.859618 0.000202 -0.005650 2533950.000000 1 0 0
1.410461 -4.604119 6.814080 8.343800 -1.273526 0.615190 0.004410 -0.002826 1384860.000000 1 0 0
-0.228239 10.783781 -1.989820 10.968200 -1.549634 1.753224 0.006579 0.001329 2460150.000000 1 0 0
8.807961 5.536481 7.977080 13.109790 0.561167 0.916649 0.004881 0.002018 576999.000000 1 0 0
2.613861 11.334181 -2.880120 11.982947 1.344141 1.813524 0.007069 -0.004617 2564370.000000 1 0 0
1.459861 2.474881 -6.707020 7.296598 1.037858 2.736836 0.004827 -0.006024 1384400.000000 1 0 0
-13.627839 -2.276419 3.572580 14.271069 0.165514 1.317768 0.007514 -0.006859 1837800.000000 1 0 0
-0.883639 -10.541419 -5.231320 11.801231 1.487166 2.030058 0.001938 -0.002992 -151361.000000 1 0 0
-5.643939 2.751481 0.352180 6.288778 -0.453606 1.514766 0.008228 -0.004008 1620940.000000 1 0 0
3.749061 7.253081 -5.018620 9.583798 1.093726 2.121934 0.005956 -0.004203 -1829020.000000 1 0 0
2.975461 9.782781 -6.496520 12.114493 1.275534 2.136796 0.006459 -0.002300 1663930.000000 1 0 0
-12.265639 1.629981 -2.545220 12.632533 -0.132116 1.773666 0.010685 -0.001760 1146000.000000 1 0 0
-2.587439 9.656281 -5.803220 11.559237 -1.308992 2.096754 -0.000115 0.001214 907547.000000 1 0 0
-1.339839 3.352781 1.698680 3.990216 -1.190617 1.131049 0.003499 -0.002205 -893726.000000 1 0 0
12.989161 3.751181 9.633380 16.600954 0.281144 0.951711 0.017453 0.001534 747869.000000 1 0 0
-2.596239 -9.497619 11.638880 15.244958 1.303958 0.702146 0.000820 -0.011377 628500.000000 1 0 0
-0.433439 -8.944619 -7.502220 11.682354 1.522376 2.268140 0.001266 -0.003454 1283960.000000 1 0 0
2.384361 7.568081 -0.494220 7.950175 1.265586 1.633001 0.004993 -0.000142 1240900.000000 1 0 0
-11.935639 -1.414219 -5.516120 13.224488 0.117937 2.001064 0.012266 -0.000584 -933454.000000 1 0 0
-6.089539 -7.195819 -10.922620 14.427957 0.868477 2.429576 0.011214 -0.006297 1451260.000000 1 0 0
-4.758739 -2.193919 -1.399120 5.423690 0.431988 1.831711 0.008709 -0.004449 -858681.000000 1 0 0
-10.532539 3.704981 4.447480 12.018375 -0.338247 1.191726 0.006295 -0.005570 3059640.000000 1 0 0
6.765561 9.350381 -3.602520 12.090516 0.944433 1.873354 0.006745 -0.003487 358234.000000 1 0 0
1.251661 -2.718219 -11.440420 11.825337 -1.139269 2.885748 0.002581 -0.005317 -781672.000000 1 0 0
1.247361 8.823481 7.572780 11.694303 1.430359 0.866416 -0.004925 0.002929 1312590.000000 1 0 0
10.340261 0.452781 10.499880 14.743591 0.043760 0.778218 0.011847 0.002299 -270769.000000 1 0 0
-5.262239 -0.835519 -3.973920 6.646901 0.157462 2.211626 0.012777 -0.008144 111653.000000 1 0 0
11.746461 5.746381 5.389480 14.143788 0.454971 1.179865 0.000063 0.004884 4295740.000000 1 0 0
10.033361 -3.452419 3.707780 11.239892 -0.331404 1.234623 0.009182 -0.003033 -2385830.000000 1 0 0
7.335861 -1.689119 -3.384420 8.253622 -0.226311 1.993308 0.002589 -0.003161 -3470740.000000 1 0 0
2.347061 9.242781 10.513880 14.194342 1.322118 0.736671 -0.003729 0.001912 1653020.000000 1 0 0
2.402861 -10.860519 6.252880 12.760217 -1.353057 1.058673 0.003929 -0.003041 -36634.200000 1 0 0
5.971661 -7.522719 -1.162120 9.674842 -0.899837 1.691205 -0.000076 -0.003520 825583.000000 1 0 0
-0.194739 -5.576319 -2.356120 6.056778 1.535888 1.970348 0.002317 -0.001083 2324480.000000 1 0 0
7.764761 -4.998219 2.767480 9.640158 -0.571938 1.279621 0.002173 -0.001030 2316990.000000 1 0 0
-2.661539 -12.394219 4.697980 13.519300 1.359268 1.215891 0.002096 -0.002067 -251378.000000 1 0 0
4.930361 -10.342019 -1.080120 11.507931 -1.125937 1.664793 0.003706 -0.003820 854109.000000 1 0 0
0.986961 0.232781 1.134980 1.521991 0.231623 0.729181 0.001708 -0.002264 -1550280.000000 1 0 0
-1.579739 8.516981 2.432880 8.997413 -1.387399 1.296990 0.003579 0.002415 723513.000000 1 0 0
-7.615939 0.552281 -3.070220 8.230054 -0.072390 1.953090 0.009906 -0.004531 -1455090.000000 1 0 0
4.439261 -6.402419 12.920780 15.087895 -0.964532 0.542603 0.004392 -0.003305 775647.000000 1 0 0
-5.110339 13.035981 8.428980 16.343196 -1.197190 1.028915 0.004980 -0.008473 2884220.000000 1 0 0
0.667861 6.060781 8.263580 10.269657 1.461045 0.635694 -0.005107 0.003082 666498.000000 1 0 0
7.963061 -0.493519 -0.746120 8.013151 -0.061897 1.664043 0.003237 -0.002815 3500030.000000 1 0 0
2.492261 -9.261719 -2.338120 9.872062 -1.307930 1.809911 -0.001189 -0.001878 1434550.000000 1 0 0
-7.158039 12.125081 4.915580 14.913686 -1.037503 1.234914 -0.001034 -0.005823 193562.000000 1 0 0
-15.076439 0.131681 0.219180 15.078607 -0.008734 1.556260 0.011537 -0.005905 968879.000000 1 0 0
6.858261 -0.486119 3.929980 7.919394 -0.070762 1.051525 0.002582 0.001981 328424.000000 1 0 0
-4.171439 -5.007019 5.161980 8.313674 0.876185 0.900903 0.007429 -0.005650 730360.000000 1 0 0
2.969061 5.115081 6.896680 9.085349 1.044874 0.708868 -0.003348 0.001474 -1240010.000000 1 0 0
2.095261 -7.160919 1.800080 7.675231 -1.286145 1.334060 0.002777 -0.001617 1169710.000000 1 0 0
-2.435339 6.510881 -1.796620 7.179853 -1.212866 1.823715 0.003071 0.002244 1929850.000000 1 0 0
2.704361 -3.816919 -6.530020 8.032659 -0.954376 2.519969 -0.001084 -0.005461 452328.000000 1 0 0
-5.039039 0.842981 -12.124220 13.156719 -0.165755 2.742781 0.005347 -0.004184 195835.000000 1 0 0
-7.523139 6.330881 -11.961720 15.484199 -0.699551 2.453583 0.002690 -0.004700 2634650.000000 1 0 0
-1.046739 11.258081 -9.071720 14.496074 -1.478086 2.246960 0.000797 -0.001608 1488290.000000 1 0 0
4.652761 5.909781 -0.603920 7.545755 0.903848 1.650916 0.002684 0.001266 196079.000000 1 0 0
-2.746039 13.400181 3.599680 14.144372 -1.368669 1.313470 0.001619 0.001754 949908.000000 1 0 0
1.366661 -7.933719 10.127080 12.937133 -1.400211 0.671657 -0.000038 -0.002840 -1234580.000000 1 0 0
13.068361 -0.208419 -1.044520 13.111694 -0.015947 1.650544 0.010991 -0.003421 803562.000000 1 0 0
-1.023839 3.123881 -5.412320 6.332463 -1.254083 2.595758 0.007725 -0.007547 120798.000000 1 0 0
6.612961 1.178281 7.287380 9.910878 0.176327 0.744700 0.002820 0.000086 2486510.000000 1 0 0
5.552661 -6.127919 6.946180 10.799669 -0.834608 0.872146 0.001125 0.000382 1798090.000000 1 0 0
12.160961 -4.897619 2.621580 13.369679 -0.382860 1.373434 0.014750 -0.005305 -906131.000000 1 0 0
4.433361 -9.247719 13.826380 17.214639 -1.123764 0.638189 0.004592 -0.001769 982036.000000 1 0 0
-2.660939 -4.231919 -1.361720 5.181121 1.009485 1.836744 0.010124 -0.005694 1977780.000000 1 0 0
-9.332439 -5.336319 -7.469420 13.090568 0.519429 2.178027 0.016874 -0.007578 1454540.000000 1 0 0
-10.601639 -3.126719 7.824380 13.542232 0.286797 0.954795 0.004475 0.000040 -674355.000000 1 0 0
12.049861 -0.592719 1.655980 12.177550 -0.049149 1.434387 0.010462 -0.002021 -274922.000000 1 0 0
-7.621639 4.771681 4.362880 9.994650 -0.559368 1.119068 0.006625 -0.005072 2538030.000000 1 0 0
-1.118339 10.611381 6.963280 12.741246 -1.465793 0.992599 0.001118 0.002594 1780820.000000 1 0 0
7.394261 -10.055719 1.884680 12.623177 -0.936751 1.420933 0.005135 -0.002690 4136700.000000 1 0 0
-4.339839 -1.728419 1.627780 4.946848 0.379012 1.235495 0.004945 -0.004058 2187780.000000 1 0 0
6.716361 -15.017019 -0.989020 16.480247 -1.150232 1.630845 0.026236 -0.003560 -2222060.000000 1 0 0
-10.554439 1.655181 2.338280 10.936332 -0.155556 1.355324 0.003178 -0.002709 -519511.000000 1 0 0
-3.136939 8.331181 -11.397620 14.462182 -1.210685 2.478510 0.002073 -0.004455 -707280.000000 1 0 0
-1.266939 -5.157619 -6.871020 8.684301 1.329921 2.483565 -0.002388 -0.004730 -1089750.000000 1 0 0
12.932461 -0.460319 6.395080 14.434593 -0.035579 1.111811 0.011551 -0.002363 1030310.000000 1 0 0
6.016061 -13.407419 3.818880 15.183403 -1.149015 1.316549 0.013330 -0.006814 2026000.000000 1 0 0
-5.540039 3.480581 -4.931320 8.192948 -0.560940 2.216672 0.006278 -0.005932 2594190.000000 1 0 0
-4.370639 8.069481 3.353880 9.770748 -1.074405 1.220414 0.002724 0.001070 -275980.000000 1 0 0
14.202161 6.162881 -4.040120 16.000158 0.409418 1.826065 0.025288 -0.005651 666122.000000 1 0 0
-6.665739 -8.450419 5.334380 12.012380 0.902919 1.110656 0.010547 -0.002711 489324.000000 1 0 0
1.675761 11.388181 2.666580 11.815646 1.424696 1.343153 0.001188 -0.001118 1366150.000000 1 0 0
-7.471539 7.368681 5.893480 12.035550 -0.778467 1.059082 0.005174 -0.005095 -1661850.000000 1 0 0
-17.473239 -4.054119 5.190380 18.673243 0.227985 1.289129 0.041624 -0.015993 -102998.000000 1 0 0
7.612661 -13.031519 -8.505020 17.323639 -1.042096 2.083975 0.026184 -0.006086 -273559.000000 1 0 0
-2.333639 12.867481 -2.796420 13.373029 -1.391387 1.781460 -0.001020 0.003620 746931.000000 1 0 0
-5.605539 13.899481 -5.764520 16.057625 -1.187456 1.937981 0.012349 0.000889 3339620.000000 1 0 0
-5.561239 2.449581 7.391980 9.569179 -0.414904 0.688062 0.003256 -0.003605 604972.000000 1 0 0
-7.378939 5.018281 1.386580 9.030752 -0.597232 1.416647 0.009328 -0.001963 2682670.000000 1 0 0
10.675461 -5.639819 -4.993420 13.065499 -0.486028 1.962955 0.018712 -0.009165 2656710.000000 1 0 0
-9.526139 -0.656719 6.794080 11.719135 0.068830 0.952384 0.001791 -0.002783 829927.000000 1 0 0
-11.307739 -4.649619 -2.554720 12.490417 0.390115 1.776784 0.010105 -0.007292 1476270.000000 1 0 0
6.539961 -4.337619 13.584680 15.688517 -0.585632 0.523850 0.010550 -0.004866 -1293650.000000 1 0 0
0.167261 10.192881 -11.641920 15.474401 1.554388 2.422394 -0.000893 -0.004024 -1723100.000000 1 0 0
-11.851539 -3.270419 1.392980 12.373157 0.269248 1.457976 0.007426 -0.005871 4663090.000000 1 0 0
5.332161 5.993681 5.520480 9.738164 0.843740 0.968069 -0.001294 0.003734 -4739250.000000 1 0 0
-7.166239 0.011881 8.104980 10.818772 -0.001658 0.724005 -0.000934 -0.002186 66743.200000 1 0 0
1.747161 2.011281 9.661780 10.022366 0.855557 0.269057 0.001944 -0.002736 906494.000000 1 0 0
10.501161 -4.922819 -1.968820 11.763706 -0.438368 1.738952 0.008189 -0.005289 2454350.000000 1 0 0
-9.687439 -2.411719 -1.692320 10.125552 0.243993 1.738718 0.012227 -0.005390 -140208.000000 1 0 0
-1.936939 -5.271919 -9.841720 11.331563 1.218699 2.623010 0.006467 -0.005499 191456.000000 1 0 0
7.754761 -1.533319 6.537580 10.258038 -0.195208 0.879790 0.005547 -0.001385 2422180.000000 1 0 0
1.526861 -11.853119 -2.551920 12.220476 -1.442687 1.781168 0.002524 0.000549 -3092320.000000 1 0 0
-0.780539 -1.452019 4.794580 5.070069 1.077559 0.331167 0.008079 -0.006044 1974440.000000 1 0 0
7.630461 1.499281 9.897480 12.586973 0.194015 0.665955 0.006638 -0.000140 558238.000000 1 0 0
-3.893039 10.703081 -8.127320 13.991605 -1.221942 2.190595 0.004254 0.001349 2929250.000000 1 0 0
-9.555639 12.595181 6.360980 17.041446 -0.921767 1.188270 0.007729 -0.009241 1817200.000000 1 0 0
-2.512239 -2.520019 -10.992620 11.554200 0.786944 2.828534 0.008505 -0.007351 -1966270.000000 1 0 0
1.195661 -11.983519 11.081980 16.365959 -1.471350 0.826933 -0.005194 -0.004807 1701350.000000 1 0 0
1.415661 3.423881 -2.024120 4.221862 1.178735 2.070810 0.004276 -0.001039 2603660.000000 1 0 0
-1.947139 -9.456419 -12.085620 15.468595 1.367728 2.467543 0.008789 -0.002111 946243.000000 1 0 0
1.392461 -2.632019 1.586580 3.373975 -1.084182 1.081233 0.007891 -0.004113 4362410.000000 1 0 0
-0.999139 -2.180019 -6.614820 7.036093 1.141048 2.793799 0.001661 -0.008591 -704666.000000 1 0 0
1.880461 5.895181 4.093980 7.419566 1.262016 0.986297 -0.005853 0.003980 -102075.000000 1 0 0
-11.049239 8.534781 3.656580 14.432558 -0.657703 1.314648 0.003440 -0.006743 1299600.000000 1 0 0
-16.452439 -1.575419 3.926880 16.987792 0.095465 1.337528 0.023575 -0.011084 454527.000000 1 0 0
-12.240139 0.316181 6.712080 13.963273 -0.025826 1.069349 0.000992 -0.001831 -387616.000000 1 0 0
-5.116139 3.129881 4.608380 7.563610 -0.549026 0.915640 0.004630 -0.002759 2636160.000000 1 0 0
5.210861 -6.076519 3.975480 8.937651 -0.861941 1.109844 0.000422 0.000432 2442170.000000 1 0 0
9.964461 3.473481 6.213180 12.245781 0.335415 1.038663 0.000252 0.002425 1270440.000000 1 0 0
-12.182339 5.796681 3.044480 13.830392 -0.444123 1.348849 0.006449 -0.005914 1142650.000000 1 0 0
-4.909939 12.436981 -1.319120 13.435999 -1.194793 1.669133 -0.000304 0.005689 1007240.000000 1 0 0
-1.730839 -12.113919 10.323080 16.009648 1.428877 0.870030 0.006030 -0.011254 200660.000000 1 0 0
5.184161 6.327181 13.942880 16.165167 0.884369 0.530555 0.005300 0.000081 329209.000000 1 0 0
12.958361 -3.660219 -5.864920 14.687192 -0.275288 1.981574 0.020050 -0.006809 1269940.000000 1 0 0
3.613561 -2.532619 6.426080 7.795286 -0.611306 0.601735 0.005011 -0.001107 1261950.000000 1 0 0
7.272361 -11.883619 -0.680620 13.948867 -1.021625 1.619610 0.009655 0.003143 -1480570.000000 1 0 0
-5.986939 -6.531619 -4.029720 9.733660 0.828881 1.997639 0.020263 -0.008916 -892159.000000 1 0 0
0.327061 -8.876119 5.090780 10.237602 -1.533966 1.050355 0.007447 -0.002829 2327370.000000 1 0 0
-10.282639 2.440981 -0.455520 10.578211 -0.233074 1.613872 0.006758 -0.001299 -503252.000000 1 0 0
-1.935739 8.986081 -0.357720 9.199168 -1.358623 1.609692 0.003048 0.003057 1141830.000000 1 0 0
-3.509839 2.286381 -6.670420 7.876612 -0.577373 2.580857 0.010540 -0.010998 599706.000000 1 0 0
-12.758839 3.061581 6.338380 14.571764 -0.235505 1.120784 0.002325 -0.007412 -31557.000000 1 0 0
11.453161 1.745781 7.923480 14.035818 0.151264 0.970946 0.007719 -0.004478 -541424.000000 1 0 0
6.105361 2.655481 -3.260420 7.413322 0.410262 2.026178 0.004430 -0.001735 1142570.000000 1 0 0
10.615061 -2.427019 6.412480 12.636845 -0.224776 1.038581 0.012514 -0.002750 3199500.000000 1 0 0
-0.985339 11.008681 4.034280 11.765941 -1.481529 1.220818 0.003723 0.001921 2254570.000000 1 0 0
-1.507839 -12.135119 7.426980 14.307157 1.447176 1.024988 0.002902 -0.002837 -1165920.000000 1 0 0
8.110161 8.685981 -7.820620 14.226140 0.819668 2.152844 0.013142 -0.006921 1937750.000000 1 0 0
-4.681539 -5.970119 -8.687920 11.534257 0.905788 2.423752 0.011710 -0.006538 1349980.000000 1 0 0
-8.461439 -5.329119 -11.599920 15.315143 0.562052 2.430141 0.013389 -0.007093 1023350.000000 1 0 0
6.029161 -0.613319 -9.844220 11.560087 -0.101377 2.589769 0.006641 -0.002136 -62011.100000 1 0 0
-11.249139 -5.576019 -5.323520 13.637265 0.460189 1.971825 0.012549 -0.010281 -464362.000000 1 0 0
3.917761 8.927681 -2.761320 10.132977 1.157268 1.846795 0.009406 -0.003038 1756010.000000 1 0 0
11.680061 -10.324719 -4.027520 16.101074 -0.723883 1.823621 0.030843 -0.007241 -1066410.000000 1 0 0
4.036361 -11.373819 3.916780 12.688465 -1.229779 1.256983 0.008310 -0.006616 1362540.000000 1 0 0
-1.088439 0.879181 3.216480 3.507620 -0.679445 0.410309 0.005537 -0.003967 194932.000000 1 0 0
-10.676139 -5.126719 4.448680 12.651243 0.447685 1.211474 0.009951 -0.005069 3939500.000000 1 0 0
4.588261 -8.667719 2.825680 10.206173 -1.083945 1.290272 0.001420 0.000172 5229820.000000 1 0 0
-3.645539 -5.736119 2.685780 7.307970 1.004653 1.194462 0.006695 -0.003701 1944370.000000 1 0 0
10.045861 5.051481 12.407780 16.744843 0.465919 0.736251 0.018489 0.004934 1820180.000000 1 0 0
1.602561 -12.275519 -5.255720 13.449133 -1.440981 1.972281 0.003298 -0.000637 652843.000000 1 0 0
9.871261 -10.719319 -1.786020 14.681126 -0.826562 1.692753 0.014620 -0.002611 887287.000000 1 0 0
9.739761 -4.425519 -9.147020 14.075374 -0.426488 2.278196 0.023803 -0.009115 3865900.000000 1 0 0
-7.362639 -3.183419 -13.110420 15.369637 0.408101 2.592518 0.011136 -0.001732 1855520.000000 1 0 0
0.464861 6.243681 -2.543520 6.757895 1.496480 1.956680 0.005529 0.000065 2527080.000000 1 0 0
-5.975339 -9.478519 0.922480 11.242685 1.008317 1.488652 0.004996 -0.001937 1282670.000000 1 0 0
-8.957639 -4.150319 0.554580 9.887973 0.433882 1.514681 0.008591 -0.006188 5474730.000000 1 0 0
1.853761 3.782181 12.062080 12.776349 1.115076 0.335959 0.000506 -0.006687 33859.500000 1 0 0
6.591661 4.297981 9.670080 12.467280 0.577803 0.683073 -0.000588 0.003574 2618060.000000 1 0 0
-8.297239 9.849481 -3.623220 13.378497 -0.870729 1.845045 0.006711 -0.001010 2012390.000000 1 0 0
16.449861 2.181381 -6.112420 17.683835 0.131839 1.923728 0.017422 0.004959 -371969.000000 1 0 0
-10.995739 2.566681 -5.083720 12.382986 -0.229319 1.993843 0.012282 -0.001164 1580900.000000 1 0 0
-13.834239 3.995481 1.397380 14.467298 -0.281160 1.474057 0.010841 -0.001940 1945860.000000 1 0 0
-17.515539 10.423381 3.349680 20.655782 -0.536804 1.407910 0.043517 -0.014336 -240690.000000 1 0 0
-14.500939 2.718081 -1.162520 14.799211 -0.185292 1.649430 0.012853 -0.003588 1420260.000000 1 0 0
-14.388539 5.125181 5.070180 16.093609 -0.342186 1.250294 0.003615 -0.006862 1665890.000000 1 0 0
-17.373939 7.466681 3.024580 19.150801 -0.405898 1.412197 0.017080 -0.005232 -3307530.000000 1 0 0
-15.430139 12.585881 -3.447420 20.208372 -0.684222 1.742228 0.067775 -0.015906 54318.500000 1 0 0
-8.621339 12.303581 -9.609820 17.834075 -0.959589 2.139863 0.008901 -0.011646 2301410.000000 1 0 0
-12.389639 8.758181 -9.991720 18.167095 -0.615339 2.153149 0.026472 -0.003947 -1430800.000000 1 0 0
-13.797739 -3.610219 -12.276020 18.817863 0.255916 2.281490 0.033034 -0.003538 -1111410.000000 1 0 0
-14.824239 5.788781 -7.640320 17.653400 -0.372285 2.018388 0.045978 -0.001500 -269643.000000 1 0 0
-11.039439 13.408781 -8.401820 19.293916 -0.882009 2.021351 0.024438 -0.010691 -375958.000000 1 0 0
-10.949039 13.456781 3.925680 17.787000 -0.887791 1.348259 0.008414 -0.008952 763323.000000 1 0 0
-15.357439 3.270481 3.009980 15.987713 -0.209823 1.381398 0.011188 -0.000737 855609.000000 1 0 0
-11.064339 9.404581 -12.595220 19.222521 -0.704488 2.285287 0.029008 -0.005839 -65763.600000 1 0 0
-13.207239 11.457981 -9.115920 19.718430 -0.714597 2.051389 0.035822 -0.017823 526238.000000 1 0 0
-9.032439 14.495581 -3.586620 17.451953 -1.013552 1.777785 0.025232 -0.008095 -240004.000000 1 0 0
-16.886239 8.134081 -4.157720 19.198827 -0.448900 1.789087 0.053445 -0.009566 22970.300000 1 0 0
-16.931239 6.827181 0.265980 18.257820 -0.383288 1.556228 0.026939 -0.005160 930581.000000 1 0 0
-10.432539 2.755181 -12.423720 16.455325 -0.258200 2.426446 0.014152 -0.004179 2418640.000000 1 0 0
-17.002439 0.852781 2.282980 17.176209 -0.050114 1.437487 0.024840 -0.008109 -99260.300000 1 0 0
-12.690239 1.125781 -6.987420 14.530437 -0.088481 2.072456 0.014671 -0.002429 1625190.000000 1 0 0
-12.436339 8.989381 -5.399020 16.267173 -0.625886 1.909110 0.029406 -0.005668 865850.000000 1 0 0
-9.743339 13.854581 1.224280 16.981782 -0.957887 1.498640 0.019767 -0.008990 647052.000000 1 0 0
-12.302839 11.041981 2.734880 16.756036 -0.731440 1.406845 0.010172 -0.007992 552975.000000 1 0 0
-12.650539 6.750981 -3.637320 14.793308 -0.490205 1.819220 0.015340 -0.000224 1851140.000000 1 0 0
-15.942139 3.736781 -9.407720 18.884399 -0.230240 2.092288 0.050052 -0.004755 -107580.000000 1 0 0
-15.220439 5.771681 -4.695220 16.941640 -0.362453 1.851613 0.034178 0.000955 1482070.000000 1 0 0
-17.888039 5.243281 7.476180 20.084004 -0.285130 1.189369 0.022108 -0.013283 -1359040.000000 1 0 0
-16.010339 10.030181 -2.200220 19.020422 -0.559664 1.686733 0.046531 -0.009494 -747090.000000 1 0 0
-8.839739 9.814881 -8.305420 15.602976 -0.837624 2.132108 0.008278 -0.005405 1190870.000000 1 0 0
-17.111239 4.247281 -1.252920 17.674946 -0.243299 1.641743 0.023959 0.000073 96432.800000 1 0 0
-10.278539 5.410981 -4.644720 12.510016 -0.484571 1.951184 0.010129 -0.001865 326248.000000 1 0 0
-18.245439 2.694881 6.145980 19.440460 -0.146641 1.249134 0.037072 -0.011645 -166624.000000 1 0 0
-10.383939 10.047481 -5.724720 15.541894 -0.768932 1.948020 0.013143 -0.005707 1914680.000000 1 0 0
-15.378639 0.400781 -5.889320 16.472621 -0.026055 1.936409 0.017685 -0.000192 -772021.000000 1 0 0
-16.389039 -4.083419 -8.912420 19.097281 0.244184 2.056336 0.035256 -0.019399 -1570410.000000 1 0 0
-9.932639 9.522981 -1.089820 13.803340 -0.764345 1.649832 0.008265 -0.001816 1838310.000000 1 0 0
-17.441339 -3.122519 -3.295820 18.022565 0.177153 1.754703 0.017127 -0.009146 38683.800000 1 0 0
-12.018839 5.020881 -11.549720 17.408555 -0.395715 2.296218 0.027418 -0.003671 -381086.000000 1 0 0
-16.402339 7.064481 5.808480 18.779831 -0.406688 1.256346 0.020703 -0.005955 633403.000000 1 0 0
-12.122639 5.999681 -8.850220 16.164187 -0.459572 2.150194 0.025315 -0.003399 3286990.000000 1 0 0
-14.560239 8.449381 -0.218920 16.835692 -0.525812 1.583800 0.026209 -0.005356 2213220.000000 1 0 0
-14.974239 11.832281 3.917680 19.482785 -0.668722 1.368332 0.011913 -0.013206 1795080.000000 1 0 0
-17.476639 4.042081 -4.067520 18.393370 -0.227288 1.793780 0.038614 -0.004553 -331443.000000 1 0 0
-13.934039 13.273381 -0.854520 19.263185 -0.761121 1.615171 0.035115 -0.011047 -95925.100000 1 0 0
-10.126839 6.751681 -13.148420 17.917004 -0.588034 2.394771 0.010617 -0.007976 1298940.000000 1 0 0
-15.867839 -1.069919 -8.394520 17.983354 0.067325 2.056458 0.022281 -0.009506 38147.100000 1 0 0
-11.574739 11.755981 -0.125620 16.498286 -0.793166 1.578411 0.025404 -0.011586 242473.000000 1 0 0
-11.967339 7.307781 -0.949820 14.054288 -0.548209 1.638430 0.011852 0.000602 2279140.000000 1 0 0
-11.331839 0.059781 -11.669020 16.265921 -0.005275 2.370846 0.017047 -0.005331 -595902.000000 1 0 0
-19.154039 -1.300219 -4.753920 19.777956 0.067778 1.813538 0.025538 -0.010339 216429.000000 1 0 0
-17.980239 1.406881 -5.096920 18.741582 -0.078087 1.846223 0.015642 -0.001892 -867973.000000 1 0 0
-13.261839 -0.194619 -9.554020 16.346056 0.014674 2.195041 0.018673 -0.004375 496315.000000 1 0 0
-6.127239 11.230881 -13.308320 18.460421 -1.071360 2.375912 -0.002534 -0.001727 -661053.000000 1 0 0
16.325161 5.808981 7.035580 18.701725 0.341859 1.185105 0.030225 -0.008005 -36797.700000 1 0 0
14.901661 10.077581 -5.464820 18.801101 0.594623 1.865718 0.061500 -0.022346 701900.000000 1 0 0
2.312661 16.946881 4.289580 17.633651 1.435169 1.325070 0.015536 -0.008847 1395500.000000 1 0 0
-4.056339 18.150081 -5.954420 19.527786 -1.350921 1.880651 0.026745 -0.012206 -197071.000000 1 0 0
5.443961 14.612881 5.626180 16.577904 1.214179 1.224540 0.006525 -0.005581 26493.400000 1 0 0
9.856161 6.128381 15.126380 19.065894 0.556282 0.654465 0.025957 0.002073 -1161200.000000 1 0 0
4.676161 12.758181 -1.102520 13.632799 1.219479 1.651757 0.005925 -0.006755 2122540.000000 1 0 0
3.627461 13.772181 12.842580 19.177155 1.313255 0.837017 0.002267 -0.006991 -1424820.000000 1 0 0
-0.785539 12.388281 9.143080 15.416954 -1.507471 0.935950 0.003019 -0.003760 417007.000000 1 0 0
-7.830939 13.910081 8.403180 18.039606 -1.058051 1.086237 0.009339 -0.012919 169481.000000 1 0 0
11.372661 12.778281 -4.163020 17.605471 0.843534 1.809519 0.053991 -0.015251 1104900.000000 1 0 0
-5.884439 16.178881 0.878580 17.238176 -1.221959 1.519807 0.016505 -0.000022 938745.000000 1 0 0
3.217361 10.685581 6.727980 13.030685 1.278336 1.028250 -0.000526 0.003148 1876670.000000 1 0 0
-1.283639 15.609281 2.383580 15.842311 -1.488745 1.419766 0.005618 -0.003437 -2009360.000000 1 0 0
9.997961 8.823681 9.597780 16.429666 0.723089 0.946935 0.011625 -0.001014 3669260.000000 1 0 0
7.255761 12.385281 6.233380 15.649162 1.040856 1.161111 0.006178 -0.003254 -88806.900000 1 0 0
11.748161 14.061881 -1.628520 18.395865 0.874803 1.659439 0.044732 -0.015151 -647664.000000 1 0 0
9.554561 15.950381 -1.117420 18.626672 1.031099 1.630823 0.030208 -0.010904 246356.000000 1 0 0
10.106561 13.705781 2.952680 17.283209 0.935412 1.399113 0.021775 -0.008732 2712980.000000 1 0 0
-6.137039 14.617081 6.276280 17.050337 -1.173292 1.193828 -0.000304 -0.006815 37439.200000 1 0 0
-1.129439 18.285381 -6.173120 19.332310 -1.509107 1.895804 0.029110 -0.010142 2558610.000000 1 0 0
-3.591639 15.733581 5.399780 17.017728 -1.346364 1.247912 0.000014 -0.005282 2382190.000000 1 0 0
7.079261 12.237081 10.591380 17.664637 1.046329 0.927819 0.006073 -0.004059 2255280.000000 1 0 0
1.465561 14.716481 6.191580 16.033039 1.471537 1.174314 0.010127 -0.005165 3071810.000000 1 0 0
17.520961 7.830481 -1.501320 19.249791 0.420290 1.648867 0.036171 0.000141 -1111160.000000 1 0 0
2.071261 16.288481 -3.366420 16.761191 1.444314 1.773018 0.004952 -0.013701 2140050.000000 1 0 0
6.731861 11.150781 0.579280 13.038153 1.027652 1.526352 0.006464 -0.005158 682897.000000 1 0 0
12.710061 9.396681 3.176880 16.122525 0.636625 1.372452 0.018594 0.001784 -773126.000000 1 0 0
5.987161 14.195881 -3.452320 15.788845 1.171679 1.791233 0.010684 -0.010943 818841.000000 1 0 0
3.025761 16.550981 1.455880 16.888155 1.389978 1.484482 0.014774 -0.012967 -1429780.000000 1 0 0
2.644861 19.035681 -2.620720 19.396407 1.432738 1.706325 0.019851 -0.017958 -1315760.000000 1 0 0
3.957861 11.976381 10.618780 16.488082 1.251623 0.871045 -0.000345 -0.005351 2852140.000000 1 0 0
7.978161 11.581681 3.374780 14.462901 0.967586 1.335285 0.002521 -0.001614 1533280.000000 1 0 0
0.744261 12.496581 0.176580 12.519969 1.511309 1.556692 0.007099 -0.002696 -2400410.000000 1 0 0
11.935461 9.824281 -4.585520 16.124476 0.688679 1.859159 0.033384 -0.012123 2194630.000000 1 0 0
-1.282939 16.565081 9.921680 19.351681 -1.493502 1.032465 0.009997 -0.002323 -186007.000000 1 0 0
7.982961 14.761381 -8.019220 18.599299 1.075044 2.016571 0.033812 -0.008592 1380200.000000 1 0 0
14.612961 7.683481 -1.368120 16.566420 0.484073 1.653474 0.024042 -0.001962 1414.350000 1 0 0
12.556261 8.393981 5.937280 16.228675 0.589277 1.196249 0.008469 0.002073 -121790.000000 1 0 0
-3.032739 14.264181 10.188280 17.789474 -1.361304 0.960984 0.009532 -0.010630 2250690.000000 1 0 0
-4.704239 17.036781 -3.227620 17.966616 -1.301387 1.751422 0.030962 -0.009334 -1030280.000000 1 0 0
-7.246639 16.349881 -1.857620 17.980076 -1.153593 1.674296 0.023130 -0.003570 958580.000000 1 0 0
8.323961 11.220881 -1.851720 14.093451 0.932546 1.702566 0.014955 -0.008261 -644190.000000 1 0 0
8.502161 12.888381 -4.168420 15.992899 0.987649 1.834483 0.029609 -0.008710 1010800.000000 1 0 0
2.433061 14.845481 -7.250720 16.699731 1.408348 2.019926 -0.003627 -0.010296 483923.000000 1 0 0
11.383861 11.394881 9.760880 18.833756 0.785882 1.025975 0.023015 -0.005184 1257170.000000 1 0 0
8.374161 15.580581 1.407080 17.744321 1.077621 1.491416 0.008365 -0.014894 -16586.100000 1 0 0
6.036761 9.990681 7.700180 13.983882 1.027266 0.987657 0.004145 0.004082 3159640.000000 1 0 0
14.453761 11.566081 2.570580 18.689390 0.674871 1.432817 0.039617 -0.001926 3151670.000000 1 0 0
12.108561 12.745581 1.008280 17.609194 0.811023 1.513506 0.037996 -0.006274 2738270.000000 1 0 0
5.243861 15.875181 8.216780 18.628873 1.251762 1.113997 0.016413 -0.003869 -1074460.000000 1 0 0
11.494261 15.066981 5.132880 19.633604 0.919104 1.306289 0.035706 -0.010007 -250649.000000 1 0 0
5.940961 16.822281 1.642580 17.915976 1.231309 1.478985 0.007094 -0.017665 -1214790.000000 1 0 0
-0.742839 16.277381 -4.162420 16.817570 -1.525192 1.820900 0.010658 -0.006737 1295150.000000 1 0 0
16.078061 6.520381 2.525080 17.532696 0.385278 1.426273 0.018238 -0.003722 -1022930.000000 1 0 0
7.549761 16.657681 -3.202120 18.566927 1.145260 1.744127 0.021444 -0.017530 17006.000000 1 0 0
14.864661 8.205881 7.444980 18.539750 0.504408 1.157567 0.031606 -0.005898 -276510.000000 1 0 0
2.063161 12.982581 8.562180 15.688051 1.413197 0.993480 0.005158 -0.002131 1897650.000000 1 0 0
16.049561 7.439481 -6.037820 18.691965 0.434050 1.899712 0.025824 -0.005445 -573538.000000 1 0 0
-3.011139 17.049181 0.629280 17.324477 -1.395984 1.534465 0.007635 -0.005098 1843010.000000 1 0 0
-3.026039 18.582781 4.576780 19.375850 -1.409372 1.332332 0.011392 -0.010980 2253740.000000 1 0 0
-1.022739 19.143581 0.778280 19.186672 -1.517422 1.530222 0.013215 -0.012491 452420.000000 1 0 0
6.925661 16.705881 -6.086020 19.081165 1.177798 1.895422 0.017741 -0.012349 -432870.000000 1 0 0
11.063461 10.136681 0.746880 15.023658 0.741710 1.521062 0.013394 -0.003685 -859012.000000 1 0 0
9.032861 8.764181 14.256780 19.017340 0.770302 0.723229 0.021268 0.000358 880718.000000 1 0 0
6.239261 12.369281 -8.335420 16.168077 1.103622 2.112443 0.019392 -0.010598 965728.000000 1 0 0
6.273461 8.961781 13.279980 17.205455 0.960054 0.689055 0.006841 -0.004022 845196.000000 1 0 0
16.717261 9.560581 2.916980 19.477687 0.519500 1.420471 0.039012 -0.007227 -396544.000000 1 0 0
2.515561 14.755081 -0.845520 14.991843 1.401932 1.627225 0.006205 -0.008281 540077.000000 1 0 0
9.151461 12.840181 8.326980 17.831379 0.951584 1.084919 0.011323 -0.006099 147353.000000 1 0 0
7.139161 9.333281 10.509380 15.764670 0.917818 0.841103 0.006543 -0.004025 1997570.000000 1 0 0
4.251461 15.838081 -5.294120 17.232163 1.308546 1.883070 0.009502 -0.010133 2011740.000000 1 0 0
0.078361 16.399381 -8.056420 18.271610 1.566018 2.027426 0.013145 -0.010875 -904533.000000 1 0 0
-2.502639 15.664181 -1.975220 15.985345 -1.412367 1.694677 0.002859 -0.002167 -36653.900000 1 0 0
13.315261 10.533281 7.676580 18.632661 0.669271 1.146153 0.030232 -0.005678 1691660.000000 1 0 0
-1.050539 15.962381 7.040980 17.477890 -1.505078 1.156167 0.010077 -0.006511 3213920.000000 1 0 0
13.340761 13.409481 6.692180 20.064280 0.787967 1.230743 0.040234 -0.008348 239393.000000 1 0 0
5.344561 17.445081 4.437080 18.777190 1.273510 1.332238 0.016048 -0.012896 1095720.000000 1 0 0
10.774361 9.449081 -1.908020 14.457265 0.719960 1.703159 0.016345 -0.003020 358917.000000 1 0 0
3.245561 12.730181 4.693280 13.950557 1.321164 1.227681 0.003592 0.000255 2712750.000000 1 0 0
-0.304939 18.079481 3.463780 18.410822 -1.553931 1.381530 0.007259 -0.010466 2449270.000000 1 0 0
-7.842239 15.902681 -5.852120 18.671992 -1.112652 1.889586 0.037665 -0.008732 -485592.000000 1 0 0
-12.483639 -9.046119 8.212980 17.467872 0.627071 1.081306 0.035266 -0.012054 184489.000000 1 0 0
-13.324639 -11.712819 6.825880 19.008650 0.721111 1.203500 0.046912 -0.010476 346519.000000 1 0 0
-6.555339 -12.298819 12.245080 18.551965 1.081094 0.849921 0.036642 -0.016969 -506897.000000 1 0 0
-1.788439 -10.773319 14.319280 18.008462 1.406290 0.651555 0.002959 -0.012880 1177720.000000 1 0 0
-8.839739 2.830281 10.902280 14.318211 -0.309863 0.705284 0.001689 -0.004043 1689690.000000 1 0 0
0.613061 9.956581 15.160380 18.147905 1.509301 0.581974 0.001516 -0.012035 272430.000000 1 0 0
0.986061 -6.812419 16.530880 17.906741 -1.427050 0.394562 0.013185 -0.014116 1666390.000000 1 0 0
6.089061 2.223781 17.782880 18.927564 0.350159 0.349562 0.025775 -0.005595 679875.000000 1 0 0
-5.131739 -2.984919 17.585280 18.560349 0.526824 0.325581 0.022738 -0.013721 -539677.000000 1 0 0
-4.306639 8.110681 12.958780 15.882703 -1.082670 0.616503 -0.000251 -0.008681 318424.000000 1 0 0
0.045061 -4.851419 18.586380 19.209160 -1.561508 0.255334 0.017659 -0.016586 151671.000000 1 0 0
-11.647639 2.082581 11.033580 16.178520 -0.176929 0.820317 0.008130 -0.008706 -519454.000000 1 0 0
-3.422839 -6.199819 14.281580 15.941051 1.066352 0.460344 0.016053 -0.013332 771846.000000 1 0 0
-7.452039 -2.256119 14.546480 16.499183 0.293980 0.491452 0.008944 -0.003337 2097670.000000 1 0 0
-6.173439 -1.188719 10.611580 12.334100 0.190226 0.534850 0.002242 -0.003570 1139240.000000 1 0 0
-3.967039 2.381781 11.097980 12.023952 -0.540708 0.395019 -0.000803 0.000299 680486.000000 1 0 0
-6.449339 6.207881 13.412480 16.125333 -0.766324 0.588518 -0.001163 -0.011061 369509.000000 1 0 0
-9.014139 5.417081 12.477280 16.318149 -0.541120 0.700336 0.008125 -0.012627 227265.000000 1 0 0
-12.233739 -2.119619 15.878980 20.156864 0.171557 0.663615 0.013553 0.000228 2322880.000000 1 0 0
-3.470139 -7.803519 16.776080 18.824814 1.152368 0.470882 0.025907 -0.014257 -1726140.000000 1 0 0
-0.564839 -5.366219 14.335080 15.316980 1.465924 0.360006 0.009148 -0.008114 2812190.000000 1 0 0
-14.169339 -2.259819 13.664080 19.813733 0.158155 0.809823 0.016396 -0.004385 -1026880.000000 1 0 0
-6.497639 1.465781 12.127480 13.836314 -0.221873 0.502261 0.004099 -0.000705 2714990.000000 1 0 0
2.163061 -2.213019 14.574280 14.899192 -0.796814 0.209223 0.005717 -0.002754 1123360.000000 1 0 0
-12.637839 4.049581 9.084680 16.082459 -0.310096 0.970507 0.004529 -0.008738 -504473.000000 1 0 0
-9.093839 -3.048819 12.557880 15.801695 0.323485 0.652255 0.001679 0.003173 179886.000000 1 0 0
-7.146239 -7.189919 15.190180 18.262126 0.788445 0.588479 0.025354 -0.012436 -1024410.000000 1 0 0
-3.354739 6.026381 19.374280 20.565365 -1.062842 0.342009 0.033262 -0.010191 -909123.000000 1 0 0
0.568261 5.406181 16.102880 16.995660 1.466068 0.325565 0.003930 -0.007500 1653880.000000 1 0 0
3.460761 1.431081 16.743280 17.156989 0.392104 0.220049 0.006219 -0.004328 843783.000000 1 0 0
-11.739739 11.464681 7.905780 18.214328 -0.773545 1.121822 0.009552 -0.008516 -302336.000000 1 0 0
0.627161 -9.441719 15.335080 18.019547 -1.504469 0.552863 -0.000468 -0.007407 -623228.000000 1 0 0
-2.557939 -3.662219 18.902580 19.423244 0.961100 0.232064 0.033509 -0.016448 1994350.000000 1 0 0
-12.839139 2.249681 13.651080 18.874759 -0.173460 0.762306 0.006693 -0.015293 -347396.000000 1 0 0
-5.322339 -0.581619 15.745780 16.631150 0.108847 0.327765 0.013907 -0.000972 2845800.000000 1 0 0
-4.524339 -6.004619 11.636080 13.853644 0.925074 0.573644 0.007111 -0.005751 -510138.000000 1 0 0
2.435261 1.836381 13.954280 14.283722 0.646107 0.215190 0.004854 -0.004940 209750.000000 1 0 0
0.092861 3.255681 14.212380 14.580803 1.542281 0.225277 0.006663 -0.006001 -386939.000000 1 0 0
-13.017539 6.963481 12.109780 19.094323 -0.491200 0.883812 0.014670 -0.016853 722310.000000 1 0 0
0.850961 1.448581 18.161180 18.238722 1.039660 0.092244 0.012448 -0.004908 1339150.000000 1 0 0
-2.012439 6.392981 12.404180 14.099071 -1.265828 0.495382 -0.004023 -0.003522 1015110.000000 1 0 0
-13.490539 -2.596719 10.906280 17.540939 0.190159 0.899807 0.021034 -0.009210 538522.000000 1 0 0
-2.559139 3.645981 13.435180 14.154378 -0.958792 0.320148 -0.000546 -0.003124 147997.000000 1 0 0
3.478261 6.127981 16.368380 17.820615 1.054539 0.406506 0.005559 -0.003897 1795550.000000 1 0 0
-3.652139 12.355581 12.344880 17.843614 -1.283394 0.806766 0.005120 -0.013470 -222933.000000 1 0 0
3.741261 -1.504419 17.028680 17.499607 -0.382329 0.232518 0.016937 -0.006717 -1251860.000000 1 0 0
-15.748539 0.670081 9.073680 18.187830 -0.042523 1.048482 0.028527 -0.011823 1275740.000000 1 0 0
-4.701539 4.588381 15.140480 16.504297 -0.773218 0.409385 0.015192 -0.012114 550543.000000 1 0 0
-8.130139 -8.196119 10.384280 15.527678 0.789440 0.838258 0.019628 -0.012848 3477370.000000 1 0 0
-2.650039 -0.450819 14.650780 14.895345 0.168505 0.181461 0.010562 -0.002683 993707.000000 1 0 0
-1.917739 1.006181 17.156180 17.292329 -0.483188 0.125568 0.011559 -0.005142 1595750.000000 1 0 0
-0.716939 -2.475119 14.322180 14.552149 1.288854 0.178016 0.012803 -0.005329 -560555.000000 1 0 0
4.989961 -8.324119 16.497680 19.140640 -1.030775 0.531754 0.006894 -0.004953 345415.000000 1 0 0
-4.479839 10.000181 10.626280 15.264023 -1.149627 0.800755 0.003690 -0.008465 -414410.000000 1 0 0
-6.208839 2.097581 15.164080 16.519650 -0.325799 0.407935 0.013241 0.000058 -66742.000000 1 0 0
-4.991839 6.882881 17.144780 19.137293 -0.943321 0.460381 0.021098 -0.010767 -712541.000000 1 0 0
-4.140039 9.149781 15.620880 18.570684 -1.145887 0.571375 0.012756 -0.012950 -1296230.000000 1 0 0
-4.752639 -9.885419 18.217080 21.264315 1.122649 0.541964 0.051866 -0.020779 -748413.000000 1 0 0
-6.903239 -4.170719 11.133280 13.747710 0.543479 0.626938 0.002939 -0.000242 993009.000000 1 0 0
-2.411239 -0.812119 19.469280 19.634828 0.324873 0.129948 0.024975 -0.009271 363974.000000 1 0 0
-5.673039 -4.553119 15.165680 16.819991 0.676318 0.447236 0.012551 -0.010650 1009730.000000 1 0 0
-12.873539 0.025281 9.656080 16.092499 -0.001964 0.927250 0.005746 -0.001937 895257.000000 1 0 0
-14.598239 8.732081 10.373780 19.924184 -0.539065 1.023169 0.016820 -0.013316 -1620420.000000 1 0 0
-8.347239 10.306481 12.870980 18.481398 -0.890047 0.800387 0.014071 -0.023935 -428823.000000 1 0 0
-10.468839 7.141381 10.686680 16.577124 -0.598649 0.870212 0.011435 -0.010272 -654795.000000 1 0 0
-9.862839 -6.514219 14.810480 18.948904 0.583708 0.673568 0.024024 -0.010806 -663450.000000 1 0 0
-0.616939 -13.491919 14.406180 19.747165 1.525102 0.753160 -0.000639 -0.018352 -275723.000000 1 0 0
3.811561 -5.726819 16.982980 18.323375 -0.983558 0.384868 0.017833 -0.008630 3303150.000000 1 0 0
-7.276539 9.347581 10.402280 15.764920 -0.909340 0.850194 0.007860 -0.013087 1491650.000000 1 0 0
-10.351439 -6.780019 11.814080 17.108286 0.579870 0.808551 0.023380 -0.012492 2368380.000000 1 0 0
-10.955539 -3.989119 10.643080 15.786452 0.349197 0.830928 0.006566 0.000055 -244912.000000 1 0 0
-10.138839 -10.260719 9.776380 17.425729 0.791373 0.975165 0.034660 -0.014601 761711.000000 1 0 0
-9.841239 -3.627519 15.223180 18.486592 0.353151 0.603294 0.021377 -0.012027 643430.000000 1 0 0
5.619061 -3.433519 16.082580 17.378500 -0.548504 0.388628 0.016989 -0.006276 112772.000000 1 0 0
-11.249639 0.539881 15.330180 19.022625 -0.047954 0.633616 0.014164 -0.007944 -855913.000000 1 0 0
-3.333839 3.088381 18.708580 19.252624 -0.747197 0.238295 0.029685 -0.008171 -356238.000000 1 0 0
0.459861 7.259981 13.885480 15.675629 1.507539 0.482580 -0.001702 -0.006800 28080.100000 1 0 0
-13.127139 -7.566119 12.257480 19.488811 0.522865 0.890595 0.026217 -0.013652 964680.000000 1 0 0
-1.522539 -1.112919 12.085080 12.231348 0.631206 0.154805 0.006664 -0.004474 1002360.000000 1 0 0
2.018361 -4.868319 13.148380 14.165246 -1.177775 0.381213 0.004788 -0.003854 453702.000000 1 0 0
-14.757739 -3.869619 8.609780 17.518365 0.256437 1.057018 0.033748 -0.013522 -837738.000000 1 0 0
8.131661 0.980481 16.080280 18.046070 0.119996 0.471103 0.024957 -0.008430 1333550.000000 1 0 0
-1.166639 11.365481 13.378380 17.593074 -1.468507 0.706814 -0.002294 -0.006354 -228876.000000 1 0 0
2.994861 -12.206619 -13.738820 18.620578 -1.330201 2.400646 0.007299 0.002612 -369368.000000 1 0 0
0.910361 -10.657019 -14.092020 17.691406 -1.485580 2.492357 -0.000921 0.002552 -2906740.000000 1 0 0
3.364461 -14.353719 -12.350920 19.232631 -1.340556 2.268143 0.010028 0.003307 -1565390.000000 1 0 0
-5.234739 -10.245319 -16.213420 19.880746 1.098435 2.524447 0.031557 -0.007164 -25275.300000 1 0 0
-1.005239 -12.060219 -15.029020 19.295876 1.487637 2.463662 0.021732 -0.003991 175746.000000 1 0 0
5.733661 -15.002019 -11.938220 20.011411 -1.205735 2.210018 0.014398 0.000212 -98072.400000 1 0 0
2.125061 -11.900619 -16.159020 20.180549 -1.394092 2.499297 0.012021 0.003289 -383093.000000 1 0 0
1.493861 -14.302219 -14.106320 20.143817 -1.466724 2.346587 0.025337 0.009576 -95240.400000 1 0 0
-1.063739 -10.619919 -15.925520 19.171239 1.470965 2.551158 0.020403 -0.010144 -274072.000000 1 0 0
-5.977939 -5.578619 -15.190920 17.251690 0.750858 2.647811 0.017622 -0.004066 155263.000000 1 0 0
-6.478239 -7.594919 -16.594220 19.365395 0.864580 2.600023 0.024918 -0.004651 556632.000000 1 0 0
5.033761 -12.490119 -11.389520 17.636978 -1.187690 2.272834 -0.002660 0.001890 -37942.200000 1 0 0
-1.815939 -15.487119 -13.188320 20.422544 1.454075 2.272831 0.031215 0.001069 168796.000000 1 0 0
15.786361 -7.171719 -8.819520 19.453192 -0.426423 2.041340 0.034443 -0.011820 61952.000000 1 0 0
19.228361 -3.425719 -3.923420 19.921311 -0.176310 1.769038 0.033494 -0.013972 816785.000000 1 0 0
15.272661 -11.340319 -8.735820 20.932548 -0.638699 2.001304 0.066620 -0.025754 857187.000000 1 0 0
18.021261 -3.506019 -6.237720 19.389873 -0.192149 1.898321 0.058792 -0.007668 469168.000000 1 0 0
9.779961 -9.151119 -15.240220 20.289281 -0.752193 2.420593 0.055069 -0.019532 323963.000000 1 0 0
1.355461 1.890481 -15.251920 15.428294 0.948757 2.990241 0.010820 -0.006353 254703.000000 1 0 0
4.915361 -4.280019 -13.863820 15.319427 -0.716414 2.702136 0.009483 -0.001343 719240.000000 1 0 0
13.254861 -5.462919 -8.641520 16.739495 -0.390932 2.113246 0.038318 -0.010287 -2998750.000000 1 0 0
3.011061 0.917981 -12.182420 12.582549 0.295918 2.888728 0.003017 -0.004846 -3424850.000000 1 0 0
0.686961 6.274681 -12.877720 14.341521 1.461749 2.685846 0.011476 -0.009100 397861.000000 1 0 0
3.213061 -1.199119 -16.721820 17.069883 -0.357193 2.939305 0.021060 -0.008285 -120580.000000 1 0 0
13.240761 4.640881 -11.566520 18.183507 0.337120 2.260229 0.013319 -0.004480 480311.000000 1 0 0
-3.904939 9.403481 -16.571720 19.449831 -1.177200 2.590636 0.002081 0.000267 19039.800000 1 0 0
-0.279939 -5.115919 -17.683320 18.410617 1.516132 2.859575 0.016794 -0.011174 637150.000000 1 0 0
-0.444439 -8.673019 -17.573420 19.602140 1.519597 2.682613 0.022374 -0.008140 602168.000000 1 0 0
5.690061 -10.065519 -12.191520 16.802519 -1.056281 2.382669 0.005094 -0.002645 178547.000000 1 0 0
1.833561 -9.698919 -18.130420 20.643234 -1.383953 2.643037 0.031612 -0.007483 -488752.000000 1 0 0
10.804061 8.917981 -14.649220 20.269627 0.690055 2.378523 0.047711 -0.015591 -1117250.000000 1 0 0
11.162161 -3.754119 -12.849920 17.430080 -0.324441 2.399753 0.034610 -0.007800 526132.000000 1 0 0
4.903961 7.420881 -12.307220 15.185058 0.986843 2.515771 -0.001057 -0.004731 -855014.000000 1 0 0
9.657961 -5.823219 -12.659120 16.954038 -0.542582 2.413842 0.023434 -0.004419 -1509950.000000 1 0 0
-3.233039 0.292481 -15.760520 16.091367 -0.090221 2.938460 0.015073 -0.005892 -1832460.000000 1 0 0
-0.834739 10.699081 -12.728420 16.648718 -1.492934 2.441106 -0.002024 -0.004582 -2566110.000000 1 0 0
6.726461 -5.476119 -12.340220 15.083574 -0.683289 2.528936 0.011941 -0.002231 148821.000000 1 0 0
17.902261 -6.227319 -7.815020 20.502317 -0.334759 1.961866 0.039505 -0.018405 234385.000000 1 0 0
12.972861 4.732681 -14.028820 19.685050 0.349811 2.364084 0.017491 -0.008158 165181.000000 1 0 0
14.160961 0.966281 -11.473520 18.251251 0.068130 2.250603 0.017529 -0.002066 -772710.000000 1 0 0
15.167761 6.219081 -11.182920 19.844285 0.389114 2.169453 0.029859 -0.006383 -57251.200000 1 0 0
8.281461 1.568281 -11.554220 14.301822 0.187156 2.511350 -0.002948 0.001822 604430.000000 1 0 0
9.984861 1.330981 -8.857520 13.413598 0.132519 2.292066 0.002470 -0.004019 72301.000000 1 0 0
-0.036039 -5.833819 -13.003020 14.251782 1.564619 2.719854 -0.000384 -0.003817 153103.000000 1 0 0
10.707761 -5.685619 -9.018620 15.110193 -0.488124 2.210374 0.028227 -0.012780 -1436900.000000 1 0 0
10.232861 8.631781 -11.141020 17.416699 0.700729 2.264871 0.030119 -0.012158 969644.000000 1 0 0
8.338961 8.179681 -14.562520 18.668488 0.775756 2.465556 0.031812 -0.008585 415503.000000 1 0 0
8.542561 10.550081 -10.623320 17.237589 0.890159 2.234817 0.043876 -0.014210 -1889080.000000 1 0 0
7.089161 1.791381 -17.920320 19.354667 0.247512 2.754185 0.024080 0.003688 -90633.100000 1 0 0
12.114561 2.583681 -12.757820 17.782013 0.210123 2.370940 0.013397 -0.002385 -2512380.000000 1 0 0
2.678061 -0.834119 -19.213320 19.416988 -0.301941 2.996627 0.035334 -0.018979 -126266.000000 1 0 0
10.320661 -1.986619 -15.391420 18.637557 -0.190164 2.542466 0.031657 -0.009949 559958.000000 1 0 0
8.321561 -0.780419 -12.878620 15.353055 -0.093509 2.565929 0.007747 -0.004756 955257.000000 1 0 0
0.524261 4.266781 -14.566620 15.187715 1.448539 2.854621 0.010768 -0.006974 119342.000000 1 0 0
4.074061 -7.580319 -15.679020 17.885494 -1.077638 2.639616 0.011711 -0.008002 -2096310.000000 1 0 0
11.684861 -5.858619 -14.298420 19.372770 -0.464755 2.400999 0.050851 -0.010072 -1283970.000000 1 0 0
-5.899139 4.301381 -16.831020 18.346252 -0.630026 2.732317 0.009240 0.000269 548602.000000 1 0 0
11.444561 7.929681 -9.110620 16.639147 0.605930 2.150219 0.028980 -0.013008 623993.000000 1 0 0
9.534461 6.126381 -13.422620 17.567163 0.571121 2.440402 0.014982 0.000997 -505541.000000 1 0 0
12.165361 0.676981 -10.004620 15.765365 0.055591 2.258281 0.017139 -0.002250 -1833700.000000 1 0 0
5.642561 -7.264419 -13.748620 16.541912 -0.910400 2.551948 0.008901 -0.003377 -595125.000000 1 0 0
8.695061 -10.137819 -10.601620 17.052091 -0.861857 2.241733 0.024873 -0.007679 -169399.000000 1 0 0
10.143961 4.659781 -15.826320 19.367135 0.430615 2.527287 0.032998 -0.005448 -566211.000000 1 0 0
9.953461 -0.337419 -10.900720 14.765193 -0.033887 2.401300 0.008515 -0.002301 -1096450.000000 1 0 0
-1.679039 5.518581 -13.979420 15.122767 -1.275443 2.750244 0.007360 -0.008782 434229.000000 1 0 0
1.434561 -0.706519 -14.917320 15.002786 -0.457629 3.034803 0.008955 -0.006812 -1190590.000000 1 0 0
11.653461 -10.536819 -13.902820 20.978945 -0.735119 2.295219 0.065258 -0.017308 154013.000000 1 0 0
9.482261 -7.662519 -10.717320 16.232327 -0.679654 2.291942 0.027403 -0.010897 -332445.000000 1 0 0
14.179561 -0.837119 -9.629220 17.160495 -0.058969 2.166543 0.028767 0.000384 819021.000000 1 0 0
3.958061 11.203781 -12.201920 17.031671 1.231203 2.369461 0.011302 -0.010244 -913830.000000 1 0 0
-1.306239 2.894181 -16.752220 17.050496 -1.146834 2.954270 0.011454 -0.007930 208439.000000 1 0 0
5.879761 -0.563519 -17.771120 18.727035 -0.095549 2.820703 0.013088 0.004009 34909.000000 1 0 0
6.368061 -6.623119 -16.081720 18.521329 -0.805029 2.622523 0.021194 -0.005818 -506083.000000 1 0 0
-1.822139 -5.006019 -19.797220 20.501472 1.221713 2.878725 0.039741 -0.022330 -828167.000000 1 0 0
0.018161 -4.357719 -15.178820 15.791980 -1.566629 2.862017 0.005002 -0.007289 653471.000000 1 0 0
0.558261 0.760181 -12.935220 12.969559 0.937368 3.068808 0.004727 -0.008388 610150.000000 1 0 0
15.498561 0.519181 -13.559820 20.599604 0.033486 2.289297 0.029239 -0.009376 556098.000000 1 0 0
-0.187039 7.077881 -16.206820 17.685938 -1.544377 2.729707 0.007751 -0.004784 -177052.000000 1 0 0
-4.933439 -0.685419 -18.401620 19.063794 0.138050 2.877253 0.020181 -0.004479 -109434.000000 1 0 0
10.628461 -8.254519 -12.949720 18.676095 -0.660336 2.336972 0.036743 -0.017484 12497.800000 1 0 0
3.986261 8.601181 -17.272220 19.702796 1.136810 2.639626 0.015400 -0.013831 -505222.000000 1 0 0
9.217761 0.579981 -16.913020 19.270541 0.062837 2.641758 0.019590 0.000801 -130632.000000 1 0 0
3.297461 5.009481 -18.458020 19.407902 0.988647 2.827435 0.024736 -0.004422 -580679.000000 1 0 0
1.586061 -8.204019 -15.974120 18.027591 -1.379825 2.659643 0.009073 -0.006606 416191.000000 1 0 0
4.508561 7.778281 -14.892420 17.395774 1.045486 2.598461 0.006932 -0.002040 675278.000000 1 0 0
-5.648939 -0.545919 -15.087920 16.119984 0.096342 2.781818 0.008706 -0.002545 454583.000000 1 0 0
2.883561 3.350781 -13.716020 14.410825 0.860201 2.829802 0.007067 -0.005647 712005.000000 1 0 0
-2.432639 -10.437819 -18.063320 21.003555 1.341824 2.606090 0.043809 -0.007422 457446.000000 1 0 0
6.228561 -9.101419 -15.450420 18.982789 -0.970651 2.521659 0.003597 -0.004850 -85423.800000 1 0 0
-1.816839 5.420781 -17.281920 18.203036 -1.247401 2.822109 0.011315 -0.004540 882189.000000 1 0 0
10.079261 -12.121019 -11.478520 19.500437 -0.877110 2.200158 0.050138 -0.015001 -38205.600000 1 0 0
10.876161 3.637681 -9.343520 14.792734 0.322768 2.254449 0.005650 -0.003901 -1417370.000000 1 0 0
4.823361 -0.435119 -10.851120 11.882801 -0.089967 2.721813 0.006643 -0.003735 -338853.000000 1 0 0
6.234461 9.473981 -11.356020 16.049424 0.988775 2.356844 0.019518 -0.014007 99500.300000 1 0 0
10.935161 -9.501919 -9.463120 17.303608 -0.715383 2.149438 0.035825 -0.012771 471828.000000 1 0 0
3.309961 -2.468119 -14.451720 15.029959 -0.640720 2.863306 0.008658 -0.004201 -179343.000000 1 0 0
9.628261 -4.522319 -14.828420 18.249297 -0.439109 2.519306 0.045868 -0.006248 168881.000000 1 0 0
-3.982139 -6.659619 -16.617820 18.340117 1.031883 2.704748 0.014047 -0.004733 360745.000000 1 0 0
5.974561 -7.700119 -11.230120 14.869526 -0.910921 2.426823 0.007314 -0.002758 958054.000000 1 0 0
5.433561 6.412381 -16.915420 18.888453 0.867840 2.680446 0.013169 -0.002087 -1005240.000000 1 0 0
9.188761 1.202981 -19.405220 21.504489 0.130178 2.696057 0.037863 -0.009663 574034.000000 1 0 0
13.125861 5.799481 -9.427820 17.169915 0.416044 2.152071 0.003588 -0.005724 408372.000000 1 0 0
-1.516939 -0.671719 -17.196020 17.275862 0.416861 3.045414 0.020947 -0.010993 780155.000000 1 0 0
-0.548139 -0.472919 -19.455420 19.468885 0.711863 3.104399 0.029985 -0.018955 -200160.000000 1 0 0
2.841161 6.492481 -16.440220 17.902663 1.158295 2.734590 0.008917 -0.000933 -1297570.000000 1 0 0
7.730261 3.648081 -15.504920 17.705027 0.440934 2.637753 0.011257 -0.001427 -81137.200000 1 0 0
3.226161 -9.887419 -14.839320 18.121109 -1.255399 2.530283 0.007350 -0.001931 -256384.000000 1 0 0
9.175461 -10.460919 -13.211820 19.187811 -0.850768 2.330288 0.036697 -0.009801 50955.300000 1 0 0
3.843061 0.071981 -14.711620 15.205462 0.018728 2.886033 0.009137 -0.003808 -1965160.000000 1 0 0
-1.213539 -2.827819 -18.759120 19.009835 1.165422 2.979002 0.039237 -0.016596 320121.000000 1 0 0
9.223661 10.216381 -13.072620 18.982723 0.836420 2.330434 0.045770 -0.013973 163505.000000 1 0 0
4.661961 2.092881 -10.638020 11.801758 0.421961 2.693772 0.000504 -0.002800 -247420.000000 1 0 0
-0.467039 7.074581 -18.851120 20.140322 -1.504875 2.781855 0.015460 -0.002874 192428.000000 1 0 0
0.847661 -1.844119 -17.575520 17.692321 -1.139941 3.026623 0.027870 -0.014689 -1477490.000000 1 0 0
-4.319539 -2.349419 -14.006620 14.844649 0.498152 2.803976 0.009330 -0.006880 -4455610.000000 1 0 0
10.088461 6.054381 -10.466820 15.747600 0.540515 2.297837 0.011755 -0.000212 -47829.100000 1 0 0
8.142461 5.390681 -17.392920 19.946749 0.584797 2.630004 0.028361 -0.009860 -239213.000000 1 0 0
11.388061 0.225181 -13.466120 17.637319 0.019771 2.439514 0.018331 -0.000521 343666.000000 1 0 0
6.644761 11.926781 -11.710020 17.986815 1.062496 2.279742 0.031670 -0.019857 -659392.000000 1 0 0
-0.825439 0.569481 -15.086420 15.119713 -0.603924 3.075218 0.011083 -0.008747 -1792260.000000 1 0 0
-4.326539 -3.165419 -18.864220 19.611161 0.631639 2.864711 0.022507 -0.006182 457840.000000 1 0 0
6.013361 -12.038619 -13.837220 19.301749 -1.107544 2.370127 0.006961 -0.002001 31893.300000 1 0 0
2.209061 -4.747719 -14.023820 14.969580 -1.135301 2.784226 0.005090 -0.002461 -159306.000000 1 0 0
11.865461 1.914181 -15.349120 19.494839 0.159946 2.477283 0.031626 -0.004906 300599.000000 1 0 0
9.749861 2.177481 -13.646920 16.912707 0.219729 2.509687 0.009348 -0.001615 105351.000000 1 0 0
-2.230539 -4.183219 -16.345720 17.019318 1.080934 2.859308 0.011352 -0.010468 -1513350.000000 1 0 0
-2.964639 10.233681 -14.329920 17.856761 -1.288821 2.502258 0.005423 -0.003503 -32777.000000 1 0 0
3.518161 5.765581 -13.708620 15.282200 1.022910 2.683804 0.004371 -0.001889 -56911.800000 1 0 0
-4.849739 -2.539919 -16.496620 17.381301 0.482445 2.821167 0.007781 -0.005861 338812.000000 1 0 0
-4.315039 6.197981 -13.519020 15.485426 -0.962625 2.632148 0.001690 -0.005201 273523.000000 1 0 0
5.929561 -1.198519 -13.976420 15.229460 -0.199439 2.733105 0.011757 -0.003045 -1765770.000000 1 0 0
6.742861 -2.965619 -12.455520 14.470696 -0.414353 2.607520 0.011498 -0.005505 900949.000000 1 0 0
2.991661 -3.251219 -18.221120 18.749125 -0.826951 2.903707 0.027456 -0.017190 90257.500000 1 0 0
7.509861 -11.993819 -11.862320 18.465220 -1.011375 2.268441 0.015526 -0.005334 -1940420.000000 1 0 0
-6.073039 -5.495319 -17.849220 19.638610 0.735500 2.711397 0.033982 -0.001895 334779.000000 1 0 0
0.470861 8.607781 -11.749320 14.572650 1.516149 2.508596 0.002986 -0.007602 214510.000000 1 0 0
0.300861 8.477381 -14.293720 16.621280 1.535321 2.605998 -0.000304 -0.004669 209484.000000 1 0 0
7.832761 -2.616819 -14.779320 16.930097 -0.322428 2.632037 0.023316 -0.017254 -457861.000000 1 0 0
14.289361 1.624581 -8.879620 16.901857 0.113206 2.123939 0.011466 0.002237 -139385.000000 1 0 0
2.706561 10.843581 -14.576520 18.368006 1.326194 2.487470 0.002442 -0.002900 -195315.000000 1 0 0
6.191561 0.874481 -15.551520 16.761561 0.140309 2.759291 0.017665 -0.000546 516949.000000 1 0 0
17.045561 -5.291519 -10.007120 20.462008 -0.301001 2.081806 0.083095 -0.026174 620095.000000 1 0 0
4.816861 -4.168819 -11.200120 12.885026 -0.713403 2.624450 0.005625 -0.002085 -1515240.000000 1 0 0
8.842861 -3.353819 -17.048320 19.495885 -0.362508 2.635112 0.028135 -0.008443 523267.000000 1 0 0
13.445461 -9.415519 -8.805120 18.626931 -0.610910 2.063159 0.051989 -0.019353 -374292.000000 1 0 0
2.436161 -7.740519 -13.581220 15.820874 -1.265883 2.603010 0.001862 -0.000936 231162.000000 1 0 0
-6.846439 -2.473219 -18.158620 19.563385 0.346654 2.760326 0.017700 -0.014162 -259185.000000 1 0 0
-1.477239 -6.546719 -15.695220 17.069906 1.348867 2.737520 0.009980 -0.005021 439574.000000 1 0 0
1.626061 -7.165519 -18.398420 19.811376 -1.347647 2.761633 0.027601 -0.013836 -394339.000000 1 0 0
5.297061 10.907081 -14.471720 18.879988 1.118692 2.444187 0.021454 -0.021012 213663.000000 1 0 0
5.493761 -3.473819 -17.271720 18.454299 -0.563846 2.781654 0.027490 -0.013096 141168.000000 1 0 0
3.991561 13.118081 -13.959020 19.567086 1.275418 2.365124 0.010745 -0.011982 -206219.000000 1 0 0
8.977961 10.539381 -15.545020 20.816579 0.865230 2.413976 0.052752 -0.022583 -12869.800000 1 0 0
2.496461 3.903881 -16.250820 16.898573 1.001851 2.863819 0.017309 -0.003649 202463.000000 1 0 0
16.542361 1.916981 -11.603520 20.296951 0.115369 2.179358 0.028018 -0.000910 -209732.000000 1 0 0
10.191461 -3.573119 -10.411920 15.001371 -0.337209 2.337916 0.026739 -0.007657 184405.000000 1 0 0
14.874161 -2.135919 -11.799920 19.106044 -0.142624 2.236486 0.051419 -0.009488 506080.000000 1 0 0
-2.614439 -8.754219 -16.014820 18.437628 1.280579 2.623155 0.020602 -0.004293 -478720.000000 1 0 0
14.108561 8.123781 -8.965520 18.585690 0.522439 2.074176 0.051523 -0.009989 -469701.000000 1 0 0
-8.192039 0.140181 -16.581720 18.495475 -0.017110 2.682666 0.009509 0.000540 241305.000000 1 0 0
-3.479239 4.018181 -15.822820 16.691690 -0.857158 2.817519 0.007611 -0.003127 -420131.000000 1 0 0
15.019861 4.049581 -9.761520 18.365255 0.263353 2.131192 0.007063 0.000051 -44209.600000 1 0 0
5.425461 1.044481 -12.959220 14.087866 0.190188 2.738584 0.006435 -0.000607 459654.000000 1 0 0
8.037961 -7.690019 -12.878920 17.017985 -0.763279 2.429174 0.025887 -0.005883 -2027010.000000 1 0 0
3.238161 -6.123619 -11.883420 13.755002 -1.084376 2.613827 0.004458 -0.002743 -958403.000000 1 0 0
-3.149639 3.469181 -18.477820 19.062667 -0.833638 2.893244 0.012450 -0.003169 -320505.000000 1 0 0
0.813161 5.204381 -17.661320 18.430112 1.415804 2.851740 0.018008 -0.013177 -725387.000000 1 0 0
6.310161 7.125081 -10.225920 13.969766 0.845979 2.392055 0.004894 -0.003222 231966.000000 1 0 0
9.748261 3.797681 -11.606820 15.625916 0.371487 2.408029 0.007579 0.002117 -21650.900000 1 0 0
4.564561 1.667481 -17.408020 18.073596 0.350249 2.869364 0.020277 -0.003150 -98865.300000 1 0 0
2.591561 8.059581 -13.130520 15.623175 1.259688 2.568912 0.001500 -0.007293 -1099080.000000 1 0 0
14.515361 -3.427119 -9.675820 17.778142 -0.231857 2.146296 0.039124 -0.006126 218109.000000 1 0 0
-1.366239 9.381181 -16.113920 18.695764 -1.426177 2.609805 0.001988 -0.000378 -1340500.000000 1 0 0
-5.306339 1.950781 -15.744120 16.728422 -0.352296 2.796842 0.009958 -0.002540 597081.000000 1 0 0
4.550761 4.260081 -11.878620 13.414892 0.752419 2.658323 0.002224 -0.003459 542892.000000 1 0 0
9.316861 3.142981 -17.608420 20.167764 0.325355 2.632316 0.021723 0.001125 1163250.000000 1 0 0
-4.413939 14.470181 -13.218020 20.089426 -1.274725 2.288902 0.022964 -0.011975 -274582.000000 1 0 0
15.594761 -4.760719 -7.826320 18.086246 -0.296291 2.018306 0.041159 -0.012491 316391.000000 1 0 0
1.266061 9.284481 -16.648020 19.103954 1.435269 2.628934 0.004568 -0.001767 -76642.500000 1 0 0
0.418961 -3.252219 -12.725420 13.141110 -1.442679 2.889398 0.001543 -0.003924 182272.000000 1 0 0
7.590561 3.681281 -12.973520 15.475163 0.451561 2.565036 0.000950 0.002081 960469.000000 1 0 0
-2.980639 7.609481 -15.038020 17.115211 -1.197465 2.643792 0.003898 -0.004455 209222.000000 1 0 0
12.338961 -5.064019 -10.890520 17.219108 -0.389447 2.255531 0.045243 -0.011472 -580464.000000 1 0 0
0.708861 -4.321819 -19.975620 20.450086 -1.408225 2.925762 0.036796 -0.019709 381558.000000 1 0 0
3.494561 -4.554619 -16.092320 17.085646 -0.916342 2.798926 0.016480 -0.011444 578842.000000 1 0 0
-5.665239 4.093381 -14.295720 15.912835 -0.625696 2.686856 0.003244 0.000170 543416.000000 1 0 0
12.326961 -7.469919 -9.848320 17.456892 -0.544807 2.170201 0.034176 -0.010795 -53766.000000 1 0 0
-1.878439 -1.836319 -14.896720 15.126562 0.774060 2.967046 0.011556 -0.006478 599853.000000 1 0 0
7.047761 5.916781 -14.326720 17.027453 0.698382 2.570646 0.008525 0.001872 -155172.000000 1 0 0
4.352861 -5.539619 -18.380120 19.684095 -0.904793 2.775561 0.032306 -0.016984 190349.000000 1 0 0
7.615261 7.416681 -12.308720 16.263577 0.772188 2.429242 0.013649 -0.004993 411084.000000 1 0 0
12.422661 -2.446619 -10.880520 16.694136 -0.194459 2.280695 0.033520 -0.006528 -685945.000000 1 0 0
7.459161 -0.671219 -10.520820 12.914228 -0.089744 2.522954 0.004880 -0.001552 -1436240.000000 1 0 0
5.393961 3.940681 -14.364620 15.841909 0.630951 2.706303 -0.001460 0.000271 552764.000000 1 0 0
14.664761 2.996681 -13.062420 19.866105 0.201571 2.288323 0.023175 -0.007683 1950.820000 1 0 0
-6.489939 6.700281 -15.880820 18.417750 -0.801344 2.610504 0.003358 0.005868 506142.000000 1 0 0
-11.233839 3.740781 -16.369220 20.202573 -0.321443 2.515382 0.051810 -0.014531 513064.000000 1 0 0
-5.061639 6.445481 -17.985520 19.764700 -0.905083 2.714037 0.005631 0.009979 -160985.000000 1 0 0
-10.093339 1.457981 -15.576920 18.618315 -0.143457 2.561926 0.038777 -0.003234 -460676.000000 1 0 0
-7.657439 5.841181 -17.979520 20.396542 -0.651650 2.649823 0.012969 -0.001807 -104276.000000 1 0 0
-8.740539 3.719281 -15.741520 18.385471 -0.402312 2.598653 0.011559 0.009093 -172497.000000 1 0 0
8.702661 13.567281 -11.773620 19.960600 1.000459 2.201661 0.077323 -0.029717 -1580870.000000 1 0 0
13.913361 9.581881 -11.191820 20.264523 0.603090 2.155901 0.051836 -0.011781 304260.000000 1 0 0
8.225161 15.972181 -9.061520 20.121505 1.095246 2.037943 0.050659 -0.016766 -178938.000000 1 0 0
7.368861 13.263281 -13.941420 20.605289 1.063676 2.313924 0.045840 -0.018690 61258.500000 1 0 0
4.320961 16.007181 -12.373520 20.688271 1.307141 2.211916 0.031030 -0.017035 44092.600000 1 0 0
11.019661 11.073981 -11.345620 19.307746 0.787857 2.198911 0.072961 -0.019673 125423.000000 1 0 0
15.769961 10.005081 -9.360220 20.890357 0.565358 2.035395 0.070627 -0.013665 -1284390.000000 1 0 0
13.398261 10.592281 -8.914920 19.266178 0.668965 2.051862 0.088503 -0.018816 -439289.000000 1 0 0
10.704661 12.073481 -7.874820 17.954707 0.845420 2.024829 0.058571 -0.010514 409216.000000 1 0 0
5.415161 15.993481 -10.050720 19.650251 1.244326 2.107703 0.022169 -0.021105 -545130.000000 1 0 0
6.372561 14.568081 -11.939920 19.884673 1.158442 2.214871 0.029784 -0.000145 -1396250.000000 1 0 0
10.757961 13.914981 -9.693620 20.082995 0.912661 2.074506 0.088405 -0.017640 -94353.500000 1 0 0
8.283761 -18.564519 -1.119520 20.359651 -1.151095 1.625811 0.057113 -0.006006 -662310.000000 1 0 0
7.335661 -17.463019 -3.335520 19.232646 -1.173110 1.745108 0.039548 -0.005882 -160227.000000 1 0 0
4.424961 -17.978019 5.263580 19.248240 -1.329462 1.293810 0.042951 -0.019586 63229.600000 1 0 0
9.839661 -17.149119 -2.611520 19.943201 -1.049886 1.702121 0.051843 -0.007622 -275085.000000 1 0 0
-9.608039 -12.380519 -10.031620 18.607124 0.910824 2.140198 0.032404 -0.011831 -409419.000000 1 0 0
-5.099039 -6.936219 -12.144020 14.885851 0.936879 2.524924 0.008662 -0.004836 19937.400000 1 0 0
-10.751639 -9.506719 -5.757420 15.463613 0.724023 1.952304 0.018812 -0.010989 -1717530.000000 1 0 0
-4.496439 -11.513719 -14.118520 18.764762 1.198481 2.422487 0.030973 -0.004524 -201678.000000 1 0 0
-2.947939 -15.376819 7.377480 17.307921 1.381381 1.130454 0.006448 -0.006733 60338.300000 1 0 0
-4.649839 -11.855919 -11.585220 17.216305 1.197036 2.308947 0.023932 -0.005932 177186.000000 1 0 0
-14.227639 -12.947519 -4.148520 19.679283 0.738327 1.783196 0.042057 -0.004280 182284.000000 1 0 0
-3.063139 -12.258619 -3.283120 13.055093 1.325934 1.825007 0.002847 -0.006231 660041.000000 1 0 0
-2.456739 -17.298619 -1.723820 17.557031 1.429720 1.669139 -0.002485 -0.013148 103392.000000 1 0 0
-5.785539 -12.126519 3.742180 13.947360 1.125638 1.299161 -0.001113 -0.001348 -273466.000000 1 0 0
-8.862339 -10.757719 -11.920520 18.340348 0.881704 2.278330 0.027134 -0.004363 427574.000000 1 0 0
-10.004339 -12.032019 -7.423820 17.319625 0.877155 2.013779 0.037362 -0.015718 215857.000000 1 0 0
-10.855839 -15.012919 6.046680 19.488441 0.944735 1.255319 0.042803 -0.017339 -775870.000000 1 0 0
-9.431139 -15.560719 0.722980 18.210027 1.025914 1.531084 0.018370 -0.006157 -896040.000000 1 0 0
-14.681639 -7.312519 -7.854820 18.185754 0.462104 2.017419 0.014239 -0.021199 -533934.000000 1 0 0
-2.479939 -16.493419 5.046780 17.425641 1.421555 1.276969 0.014937 -0.008427 -608394.000000 1 0 0
4.433161 -15.675519 6.231380 17.441471 -1.295186 1.205449 0.031192 -0.012326 -498118.000000 1 0 0
4.127761 -14.648919 -9.967920 18.193094 -1.296139 2.150643 -0.001835 0.002305 108829.000000 1 0 0
-7.508439 -13.933119 -0.312920 15.830552 1.076522 1.590564 -0.001154 -0.003164 528120.000000 1 0 0
2.808661 -14.801219 9.346180 17.728952 -1.383267 1.015529 0.012755 -0.015836 -581226.000000 1 0 0
2.446361 -17.207319 10.279280 20.192576 -1.429573 1.036701 0.038335 -0.017433 -354711.000000 1 0 0
-8.162639 -17.165119 -5.745620 19.856539 1.126910 1.864351 0.041525 -0.018574 -352208.000000 1 0 0
-6.413039 -9.139219 -7.667720 13.544236 0.958927 2.172593 0.017302 -0.009417 179465.000000 1 0 0
-5.883539 -13.157519 -4.872320 15.214330 1.150305 1.896785 0.003178 -0.014557 200955.000000 1 0 0
2.257261 -19.529419 -4.802920 20.237626 -1.455724 1.810409 0.017284 -0.004461 -38014.500000 1 0 0
-5.459739 -12.927219 8.241280 16.273919 1.171177 1.039780 0.010947 -0.008788 856254.000000 1 0 0
2.145761 -17.602119 3.302480 18.037330 -1.449491 1.386666 0.030698 -0.012458 701575.000000 1 0 0
-17.682839 -10.067219 -2.410120 20.490007 0.517556 1.688693 0.045130 -0.007702 695064.000000 1 0 0
-3.584639 -15.478319 2.495480 16.082768 1.343217 1.415002 -0.001348 -0.002936 -71771.700000 1 0 0
-10.166739 -10.400719 -14.160620 20.299279 0.796774 2.342828 0.037352 -0.011519 -27922.100000 1 0 0
6.066461 -14.517319 -5.594820 16.698998 -1.174974 1.912443 0.003748 -0.004619 382817.000000 1 0 0
-7.156439 -12.239819 -10.758620 17.798194 1.041714 2.219907 0.025676 -0.014315 -689844.000000 1 0 0
-7.108139 -14.232419 3.971280 16.396904 1.107602 1.326167 -0.002208 -0.000617 671996.000000 1 0 0
3.248061 -14.974419 -3.108020 15.634671 -1.357198 1.770920 0.007047 -0.003285 -1509310.000000 1 0 0
-7.623939 -11.363719 7.840880 15.771429 0.979867 1.050477 0.015079 -0.013995 -905559.000000 1 0 0
-12.761739 -12.420019 -0.958720 17.833620 0.771829 1.624581 0.034896 0.004104 -962679.000000 1 0 0
-1.940639 -13.579919 3.895680 14.260316 1.428852 1.294096 0.002240 -0.001678 -2028050.000000 1 0 0
-3.114239 -13.865619 5.284480 15.161781 1.349861 1.214784 -0.002334 -0.003260 -152668.000000 1 0 0
-14.569939 -10.405219 -4.274420 18.407129 0.620164 1.805151 0.032495 -0.007054 871688.000000 1 0 0
-6.202739 -8.694419 -10.285520 14.827637 0.951123 2.337371 0.016128 -0.007971 302498.000000 1 0 0
0.612661 -19.452719 2.273080 19.594656 -1.539312 1.454529 0.038785 -0.022616 171743.000000 1 0 0
6.463661 -14.045219 -8.162620 17.483577 -1.139490 2.056548 0.016910 -0.003179 -1560920.000000 1 0 0
-3.850839 -16.800119 -5.906520 18.219768 1.345474 1.900943 -0.001356 -0.012336 122797.000000 1 0 0
-3.508039 -13.630019 -13.256220 19.334196 1.318888 2.326273 0.043384 -0.001658 -931990.000000 1 0 0
-8.182839 -14.584219 -4.562820 17.334291 1.059490 1.837160 0.022640 -0.020540 -567764.000000 1 0 0
-4.545839 -14.406219 10.153880 18.201788 1.265138 0.979003 0.018954 -0.010396 -114236.000000 1 0 0
-0.067139 -11.994019 -10.012820 15.624262 1.565199 2.266402 0.014153 -0.002419 1449760.000000 1 0 0
2.334361 -17.204219 6.748780 18.627411 -1.435935 1.200058 0.030208 -0.015506 -747430.000000 1 0 0
-2.973239 -19.052219 -3.684120 19.631606 1.415988 1.759578 -0.000275 -0.016327 -343611.000000 1 0 0
0.671461 -15.477619 -3.148120 15.808802 -1.527441 1.771274 0.005254 -0.002343 -917349.000000 1 0 0
5.990961 -18.106519 0.485080 19.078075 -1.251262 1.545368 0.033628 -0.008154 -593606.000000 1 0 0
-7.076839 -16.660219 3.893180 18.514897 1.169117 1.358942 0.001375 0.002076 615519.000000 1 0 0
-5.178139 -13.528719 -9.610720 17.384053 1.205247 2.156573 0.020472 -0.009794 -5054.700000 1 0 0
5.652161 -15.289319 -2.131520 16.439391 -1.216698 1.700822 0.020892 -0.000570 -256190.000000 1 0 0
-8.871239 -10.161519 -0.594820 13.502191 0.853087 1.614864 0.007854 -0.002980 -54147.500000 1 0 0
-7.240839 -17.944819 -3.095420 19.596630 1.187271 1.729417 0.017753 -0.031755 27972.200000 1 0 0
7.939261 -15.976919 -1.200720 17.881151 -1.109615 1.637997 0.024523 -0.003398 -1056540.000000 1 0 0
-8.049239 -10.222219 -9.438220 16.073706 0.903770 2.198372 0.020150 -0.010991 12348.500000 1 0 0
-9.055939 -15.116919 -6.915120 18.930139 1.031068 1.944748 0.045565 -0.023313 -303198.000000 1 0 0
-11.465239 -10.564219 -11.874920 19.597657 0.744520 2.221738 0.044082 -0.005054 518274.000000 1 0 0
6.653361 -16.340419 2.398180 17.805274 -1.184123 1.435696 0.033036 -0.009727 1258260.000000 1 0 0
-2.179339 -11.040419 -6.029720 12.767063 1.375905 2.062680 0.003258 -0.005486 -482952.000000 1 0 0
-12.325639 -15.299619 -3.555820 19.966061 0.892640 1.749845 0.046262 -0.012653 -218016.000000 1 0 0
-0.428539 -19.734919 -3.066920 19.976403 1.549085 1.724933 0.019690 -0.018803 231295.000000 1 0 0
-5.792039 -15.641019 -4.715920 17.332891 1.216143 1.846349 -0.000741 -0.016724 -2232980.000000 1 0 0
1.943061 -15.868919 -0.998120 16.018562 -1.448958 1.633147 0.017620 -0.011134 1084190.000000 1 0 0
-13.201839 -11.865319 5.221280 18.502327 0.732131 1.284714 0.036050 -0.011739 255728.000000 1 0 0
2.044161 -15.208119 -8.712520 17.645778 -1.437185 2.087188 0.006173 0.004045 -3278760.000000 1 0 0
-11.688939 -16.676819 -0.233920 20.366696 0.959460 1.582282 0.056797 -0.022805 473219.000000 1 0 0
-7.452239 -16.558519 -0.939120 18.182474 1.147897 1.622469 0.019883 -0.013312 209953.000000 1 0 0
-3.015739 -14.449319 -1.773220 14.866803 1.365039 1.690355 0.000110 -0.006606 401169.000000 1 0 0
-1.709839 -10.507319 -13.217320 16.971295 1.409482 2.463554 0.014415 -0.001208 1036550.000000 1 0 0
1.290061 -19.506319 4.731280 20.113323 -1.504757 1.333340 0.051149 -0.025872 -246643.000000 1 0 0
-17.538039 -9.512819 2.528580 20.111446 0.496998 1.444734 0.050183 -0.014613 602109.000000 1 0 0
-2.714639 -15.494819 -7.891420 17.599239 1.397360 2.035766 0.000746 -0.013737 -970173.000000 1 0 0
-10.301339 -12.174319 0.055980 15.947877 0.868540 1.567286 0.013656 -0.001103 577071.000000 1 0 0
-6.852539 -11.436619 -6.425720 14.800116 1.030983 2.019910 0.018268 -0.012207 521175.000000 1 0 0
-2.100139 -13.521119 -6.533320 15.162966 1.416705 2.016257 -0.001922 -0.004565 953273.000000 1 0 0
-14.382339 -14.568619 -0.885020 20.490964 0.791832 1.614001 0.056907 -0.003039 357859.000000 1 0 0
-9.500339 -11.306219 -4.426020 15.416767 0.871975 1.861985 0.019807 -0.012197 694394.000000 1 0 0
9.426861 -15.162519 -5.152320 18.582629 -1.014558 1.851743 0.041154 -0.008076 168995.000000 1 0 0
-5.519239 -10.919019 -9.316620 15.378114 1.102782 2.221613 0.020234 -0.009496 121942.000000 1 0 0
-10.375839 -16.021019 -5.004620 19.732646 0.996083 1.827219 0.060300 -0.016037 -1227500.000000 1 0 0
2.275361 -17.361219 -3.208520 17.801230 -1.440479 1.752028 0.016032 -0.007037 359228.000000 1 0 0
-0.321839 -14.424919 -8.210020 16.600792 1.548489 2.088120 0.004422 -0.001305 -1038500.000000 1 0 0
-0.449739 -18.186319 -7.245020 19.581491 1.546072 1.949798 0.008021 -0.005235 199376.000000 1 0 0
-1.906839 -10.042319 -10.593320 14.720824 1.383150 2.374044 0.007322 -0.001741 727537.000000 1 0 0
-5.183039 -17.344919 2.005480 18.213513 1.280421 1.460463 0.000294 -0.006591 263015.000000 1 0 0
0.255461 -12.819619 -2.669720 13.097149 -1.550872 1.776075 0.005738 -0.002530 -1373130.000000 1 0 0
2.728161 -15.181319 3.129280 15.738733 -1.392989 1.370636 0.026092 -0.005878 -471383.000000 1 0 0
-9.442339 -13.104919 6.810580 17.529423 0.946432 1.171768 0.021754 -0.011552 -427157.000000 1 0 0
-0.963639 -17.859019 -4.700520 18.492378 1.516890 1.827803 0.002712 -0.010111 -38135.600000 1 0 0
-9.570339 -17.180019 -2.297720 19.799595 1.062547 1.687107 0.044945 -0.033867 -1039350.000000 1 0 0
1.315661 -16.119219 1.395680 16.232933 -1.489356 1.484712 0.021803 -0.014168 292799.000000 1 0 0
-0.547339 -17.890819 3.971280 18.334450 1.540213 1.352464 0.036628 -0.021511 114685.000000 1 0 0
-17.476739 -9.255519 0.028380 19.776295 0.487039 1.569361 0.024592 -0.004908 851805.000000 1 0 0
-14.884239 -7.501019 -10.538520 19.719692 0.466808 2.134613 0.049273 -0.020862 599026.000000 1 0 0
2.855361 -12.638519 -8.765720 15.643628 -1.348601 2.165590 -0.003408 0.002703 434274.000000 1 0 0
-11.608339 -14.760219 1.608980 18.846921 0.904365 1.485321 0.031854 -0.006865 204500.000000 1 0 0
-2.229939 -15.475619 10.381880 18.768347 1.427688 0.984645 0.008935 -0.013188 57574.000000 1 0 0
-7.096339 -15.755619 1.401080 17.336683 1.147609 1.489892 0.010700 -0.007921 -1650370.000000 1 0 0
-12.529939 -15.038819 -6.122920 20.509891 0.876153 1.873954 0.049606 -0.010467 954801.000000 1 0 0
0.947161 -13.695219 -5.019620 14.616865 -1.501746 1.921345 0.007329 -0.001877 -63331.800000 1 0 0
5.973961 -16.378919 -7.350420 18.920515 -1.221056 1.969788 0.026899 -0.012834 306941.000000 1 0 0
-6.634439 -12.727719 5.963480 15.542642 1.090286 1.177013 0.006593 -0.006269 -59938.300000 1 0 0
-2.607739 -13.576819 0.594080 13.837748 1.381034 1.527851 0.005908 -0.004917 416311.000000 1 0 0
-4.412739 -15.495719 0.110880 16.112166 1.293369 1.563915 -0.006100 -0.006749 -162316.000000 1 0 0
-17.668539 -7.523719 -1.880120 19.295556 0.402570 1.668389 0.011698 -0.004758 253115.000000 1 0 0
1.288061 -12.657019 -11.991320 17.482877 -1.469379 2.326622 0.008840 0.000991 -1209570.000000 1 0 0
1.429261 -17.161419 -5.716320 18.144790 -1.487705 1.891294 0.020964 -0.003307 -510862.000000 1 0 0
-12.844339 -6.397919 -9.304720 17.102287 0.462136 2.146068 0.035340 -0.010467 1000680.000000 1 0 0
-11.394139 -13.787219 -8.945120 19.998225 0.880147 2.034536 0.042120 -0.012290 354625.000000 1 0 0
-4.324239 -9.854819 3.462780 11.305191 1.157300 1.259493 0.004461 -0.001211 -4181410.000000 1 0 0
-7.026839 -14.326219 9.539180 18.590669 1.114787 1.031984 0.025270 -0.014350 -708510.000000 1 0 0
-5.275739 -15.736319 -7.937520 18.397538 1.247314 2.016890 0.010797 -0.025410 -1510210.000000 1 0 0
-0.281239 -13.456919 2.108180 13.623957 1.549900 1.415431 0.010913 -0.007527 790778.000000 1 0 0
-10.862839 -13.454419 -4.848420 17.959116 0.891571 1.844158 0.046683 -0.012263 -1053710.000000 1 0 0
-9.748339 -10.569419 6.637980 15.836840 0.825788 1.138290 0.027344 -0.007326 -264476.000000 1 0 0
-15.603339 -8.134319 -5.003520 18.293894 0.480557 1.847834 0.030384 -0.007946 -222504.000000 1 0 0
-14.479439 -7.254119 5.496180 17.102175 0.464443 1.243617 0.024262 -0.011002 273039.000000 1 0 0
-1.728339 -19.303419 -0.156920 19.381274 1.481499 1.578893 0.020050 -0.018357 -338398.000000 1 0 0
-15.237839 -12.239519 -1.344320 19.590936 0.676709 1.639470 0.036401 0.004406 177045.000000 1 0 0
-4.317439 -12.081419 -6.786220 14.513916 1.227578 2.057332 0.004114 -0.010433 -620029.000000 1 0 0
-7.605839 -18.284519 1.964180 19.900513 1.176598 1.471935 0.020656 -0.005952 -414048.000000 1 0 0
-2.342339 -11.888019 -8.596020 14.856080 1.376255 2.187832 0.006122 -0.004059 606670.000000 1 0 0
-1.480439 -20.336019 -5.377220 21.086960 1.498126 1.828646 0.010754 -0.009945 -82222.300000 1 0 0
-5.300339 -8.948819 -13.899820 17.360298 1.036062 2.499204 0.020703 -0.002503 -215560.000000 1 0 0
-8.271339 -19.058319 -1.078620 20.803798 1.161326 1.622667 0.029581 -0.011826 -65020.600000 1 0 0
-17.072739 -7.291019 5.734980 19.430064 0.403611 1.271173 0.049256 -0.019828 137139.000000 1 0 0
-3.504239 -14.713419 -4.317420 15.729098 1.336986 1.848852 -0.003163 -0.009371 -2710940.000000 1 0 0
-2.935639 -14.688019 -10.831020 18.484233 1.373529 2.196860 0.018977 -0.006071 -405140.000000 1 0 0
-0.150139 -16.754019 6.261280 17.886401 1.561835 1.213163 0.036307 -0.011851 -825930.000000 1 0 0
-11.156939 -11.458619 3.758880 16.428829 0.798737 1.339954 0.021942 -0.005266 -1767380.000000 1 0 0
-0.284439 -14.667319 -0.205120 14.671511 1.551406 1.584778 0.004017 -0.001944 1226400.000000 1 0 0
-7.305239 -9.505719 -2.636620 12.275055 0.915554 1.787278 0.013238 -0.004960 -1037840.000000 1 0 0
-11.022039 -14.341219 -0.986420 18.114330 0.915524 1.625279 0.030989 -0.014101 292483.000000 1 0 0
0.540861 -14.507719 -10.631920 17.994560 -1.533533 2.202897 0.009979 0.000508 35655.600000 1 0 0
-1.356039 -14.070419 -3.850720 14.650720 1.474718 1.836756 -0.000911 -0.004339 -3837230.000000 1 0 0
-11.523639 -8.131019 -7.623320 16.031929 0.614471 2.066338 0.022169 -0.011331 496812.000000 1 0 0
-0.256539 -17.289419 -0.218120 17.292698 1.555959 1.583410 0.015944 -0.015185 -465225.000000 1 0 0
-12.822939 -9.412819 4.545680 16.543643 0.633222 1.292447 0.026314 -0.004243 304025.000000 1 0 0
3.984361 -16.851519 1.436580 17.375632 -1.338621 1.488024 0.030574 -0.017722 1890650.000000 1 0 0
-3.771639 -17.826119 -8.145220 19.958467 1.362292 1.991178 0.018912 -0.013906 149521.000000 1 0 0
-13.389639 -11.122719 2.675780 17.611278 0.693180 1.418270 0.020551 -0.004917 -698208.000000 1 0 0
-8.557039 -12.227219 4.056380 15.465511 0.960181 1.305406 0.011932 -0.004047 1012670.000000 1 0 0
-8.253339 -9.515619 -5.916120 13.916361 0.856318 2.009891 0.019309 -0.010553 -1159230.000000 1 0 0
3.906361 -17.688419 -5.150920 18.832732 -1.353442 1.847835 0.011356 0.005286 -822937.000000 1 0 0
-2.636839 -12.992719 11.263180 17.396060 1.370568 0.866555 0.006467 -0.013751 -81501.400000 1 0 0
0.161061 -16.663119 -9.558420 19.210645 -1.561131 2.091578 0.009271 -0.000282 -213511.000000 1 0 0
-6.986339 -10.771419 -14.477020 19.349846 0.995406 2.416100 0.032368 -0.003874 -1806470.000000 1 0 0
-4.586339 -18.914119 -1.660620 19.532948 1.332906 1.655915 0.019812 -0.019407 -818473.000000 1 0 0
-2.690939 -17.297519 0.959280 17.531844 1.416465 1.516053 0.012475 -0.014273 296414.000000 1 0 0
4.039761 -14.569219 -7.340920 16.806871 -1.300311 2.022813 0.002086 -0.001550 285368.000000 1 0 0
-0.819339 -15.790119 -6.084320 16.941610 1.518953 1.938137 0.000159 -0.005261 224492.000000 1 0 0
-9.567539 -15.181019 8.325180 19.781551 1.008445 1.136408 0.031753 -0.015120 -635834.000000 1 0 0
-7.180439 -11.910619 -1.796220 14.023122 1.028276 1.699239 0.001449 -0.004597 1000010.000000 1 0 0
-7.358839 -14.974819 -9.328320 19.115839 1.114041 2.080581 0.035517 -0.018443 57101.000000 1 0 0
-5.067739 -13.173019 -0.651120 14.129203 1.203544 1.616896 -0.002041 -0.003500 1100010.000000 1 0 0
-6.457839 -13.555819 -7.336720 16.712013 1.126216 2.025291 0.016710 -0.019292 459867.000000 1 0 0
5.816261 -15.469919 0.242480 16.528947 -1.211174 1.556126 0.022335 -0.005603 64762.300000 1 0 0
-14.306939 -12.810019 1.110180 19.235842 0.730252 1.513050 0.021151 -0.005998 717180.000000 1 0 0
0.824861 -15.333819 11.037580 18.911229 -1.517055 0.947577 0.014040 -0.011547 -341643.000000 1 0 0
-9.392839 -10.738419 1.940880 14.398128 0.852139 1.435584 0.008923 0.000966 179631.000000 1 0 0
-9.413039 -8.846319 -3.654920 13.424646 0.754371 1.846532 0.016851 -0.007181 -1005650.000000 1 0 0
-12.186439 -7.217519 -12.278120 18.744442 0.534708 2.285015 0.048309 -0.015099 -459591.000000 1 0 0
-13.264339 -8.379619 -0.585020 15.700413 0.563432 1.608066 0.012471 -0.003608 -2011910.000000 1 0 0
-11.299839 -9.775719 0.386880 14.946596 0.713207 1.544909 0.008308 -0.000130 1268790.000000 1 0 0
-15.777239 -12.127519 3.097880 20.139386 0.655344 1.416361 0.053533 -0.004393 95008.500000 1 0 0
-10.484139 -12.326819 -2.448320 16.366488 0.866004 1.720953 0.033821 -0.008270 833604.000000 1 0 0
-3.419339 -8.889919 -12.184820 15.465846 1.203609 2.478112 0.010508 0.000114 -1461410.000000 1 0 0
-0.288439 -15.521919 3.847580 15.994282 1.552216 1.327854 0.025306 -0.011384 -447932.000000 1 0 0
-15.739139 -7.870919 1.261680 17.642667 0.463716 1.499222 0.011452 -0.007347 -369112.000000 1 0 0
-6.095439 -13.401519 -13.276720 19.824893 1.143931 2.304600 0.032766 -0.004660 496200.000000 1 0 0
-15.479739 -10.449619 1.130780 18.710840 0.593785 1.510325 0.030405 -0.001262 243193.000000 1 0 0
-9.902839 -8.465119 -12.506320 18.059139 0.707284 2.335773 0.025086 -0.007226 506083.000000 1 0 0
-13.428839 -11.832419 -6.250820 18.958181 0.722286 1.906799 0.045672 -0.006594 5775.940000 1 0 0
-12.160639 -11.264119 -4.011220 17.054366 0.747145 1.808223 0.031136 -0.006703 -2529850.000000 1 0 0
-11.816239 -11.227919 -9.135120 18.685291 0.759874 2.081617 0.040384 -0.013918 292537.000000 1 0 0
-13.233239 -8.644319 -5.831120 16.847695 0.578641 1.924216 0.022524 -0.009540 -674412.000000 1 0 0
-13.626939 -8.170219 -3.281720 16.223922 0.540099 1.774478 0.021811 -0.007791 428747.000000 1 0 0
-4.428939 -16.981619 -3.266120 17.851007 1.315672 1.754798 0.004049 -0.016443 -275465.000000 1 0 0
-15.462439 -9.032019 -1.644720 17.982478 0.528666 1.662387 0.025870 -0.002511 -232048.000000 1 0 0
-9.347939 -15.516719 3.661280 18.481275 1.028582 1.371370 0.015304 -0.006729 -1211460.000000 1 0 0
4.800761 -17.632019 7.823780 19.878303 -1.304965 1.166269 0.047928 -0.016426 349404.000000 1 0 0
-8.242139 -15.387019 6.034880 18.469245 1.079033 1.237930 0.009273 -0.001462 325206.000000 1 0 0
0.814661 -16.044119 8.515980 18.182391 -1.520064 1.083358 0.020242 -0.012096 56134.600000 1 0 0
-10.857539 -7.863619 -10.183520 16.835283 0.626819 2.220426 0.029887 -0.012097 1077420.000000 1 0 0
-4.910339 -15.754119 5.767480 17.480490 1.268653 1.234558 0.002719 -0.008770 -476467.000000 1 0 0
-1.237539 -13.232119 -12.033420 17.928293 1.477542 2.306619 0.014857 -0.003265 -1035170.000000 1 0 0
-6.388939 -14.330619 -2.615120 15.906730 1.151420 1.735949 0.005961 -0.012469 434268.000000 1 0 0
-17.631139 -6.907019 -7.352520 20.313137 0.373375 1.941165 0.032491 -0.019007 157639.000000 1 0 0
-17.224439 -4.004819 -10.306420 20.468077 0.228449 2.098483 0.055679 -0.018505 825874.000000 1 0 0
-15.293639 -5.238119 -9.158720 18.579974 0.329981 2.086256 0.030128 -0.021757 -66382.000000 1 0 0
-16.182439 -5.457319 -5.694320 18.002193 0.325260 1.892636 0.017087 -0.011900 -633577.000000 1 0 0
-15.105539 -4.560319 -12.365120 20.046696 0.293196 2.235487 0.060500 -0.016786 -366952.000000 1 0 0
-18.717439 -5.235119 -5.717620 20.259323 0.272723 1.856905 0.031371 -0.019013 -663213.000000 1 0 0
-17.448639 -4.370119 -7.768520 19.593439 0.245408 1.978482 0.029039 -0.018280 685986.000000 1 0 0
12.233261 -7.908819 8.801080 17.019433 -0.573912 1.027314 0.027139 -0.007050 176496.000000 1 0 0
16.063261 -3.419119 1.851980 16.527207 -0.209723 1.458504 0.023201 -0.005981 -178918.000000 1 0 0
12.081061 -1.957519 12.413680 17.432251 -0.160636 0.778297 0.016956 -0.003078 299580.000000 1 0 0
9.727761 -10.026819 5.287180 14.937226 -0.800536 1.208995 0.007209 -0.004194 153682.000000 1 0 0
16.906461 -1.955519 7.170480 18.468033 -0.115155 1.172049 0.031305 -0.011966 429842.000000 1 0 0
5.307761 -12.962119 9.122680 16.715626 -1.182142 0.993503 0.011374 -0.000587 -113664.000000 1 0 0
15.274761 -9.032119 -2.096720 17.868792 -0.534005 1.688407 0.041740 -0.010913 846314.000000 1 0 0
11.188461 -8.628519 6.513780 15.558352 -0.656930 1.138819 0.021584 -0.005639 -3038250.000000 1 0 0
19.992361 -3.428419 3.745780 20.627153 -0.169835 1.388189 0.055230 -0.010565 -43004.100000 1 0 0
13.593061 -8.614919 6.801580 17.471395 -0.564883 1.170927 0.030399 -0.009853 -2056480.000000 1 0 0
8.214861 -11.159419 8.878480 16.457338 -0.936227 1.000972 0.004128 -0.001493 -1244630.000000 1 0 0
16.924261 0.160881 -0.649220 16.937473 0.009506 1.609136 0.026960 -0.000146 -695213.000000 1 0 0
12.514761 -12.342819 2.355780 17.734546 -0.778481 1.437567 0.026034 -0.005232 -1249960.000000 1 0 0
10.428761 -11.684319 3.623980 16.075310 -0.842116 1.343404 0.009766 -0.001051 -1242030.000000 1 0 0
16.293361 3.083781 2.374080 16.751703 0.187054 1.428596 0.021802 0.003046 -194322.000000 1 0 0
18.330961 -3.279019 0.596280 18.631469 -0.177007 1.538787 0.024060 -0.009604 -164631.000000 1 0 0
13.529361 -11.547019 -0.228020 17.788459 -0.706510 1.583615 0.046477 -0.006242 -295246.000000 1 0 0
17.001061 -7.583819 -0.715920 18.629625 -0.419589 1.609235 0.045325 -0.015063 689304.000000 1 0 0
10.111261 -5.633519 9.836580 15.189880 -0.508318 0.866399 0.017061 -0.004806 53034.000000 1 0 0
11.380461 -13.444619 6.079780 18.634280 -0.868355 1.238443 0.027875 -0.004934 -1351900.000000 1 0 0
13.021461 -1.870119 9.919680 16.475917 -0.142643 0.924703 0.017108 -0.002137 491299.000000 1 0 0
15.647761 -2.030519 -1.351920 15.836765 -0.129043 1.656266 0.016364 -0.003460 1158620.000000 1 0 0
10.405861 -12.483219 9.122180 18.636708 -0.875908 1.059310 0.031119 -0.012733 114803.000000 1 0 0
14.479261 1.230881 3.193380 14.878230 0.084806 1.354479 0.006874 0.001216 578792.000000 1 0 0
14.868561 -6.010419 5.219980 16.865570 -0.384153 1.256124 0.029457 -0.013443 -572060.000000 1 0 0
14.345361 -3.365519 -2.955520 15.028347 -0.230439 1.768750 0.014022 -0.004477 1083190.000000 1 0 0
14.107361 0.628981 9.525680 17.033844 0.044556 0.977351 0.020777 -0.004755 56777.500000 1 0 0
15.451961 -3.526419 4.487080 16.472177 -0.224375 1.294906 0.023774 -0.008978 -1320630.000000 1 0 0
18.738361 4.963281 -4.314520 19.858887 0.258927 1.789802 0.026238 -0.001900 654749.000000 1 0 0
18.579061 -5.691419 -5.047820 20.076211 -0.297259 1.824957 0.078984 -0.017089 679482.000000 1 0 0
17.372561 -0.034119 5.769580 18.305603 -0.001964 1.250149 0.040275 -0.006480 533515.000000 1 0 0
17.079061 -6.720619 3.992580 18.783017 -0.374891 1.356599 0.040789 -0.017073 224893.000000 1 0 0
9.688961 -6.688619 14.408880 18.607241 -0.604209 0.685078 0.022494 0.000208 -869811.000000 1 0 0
8.673061 -12.337719 5.119880 15.926534 -0.958079 1.243516 0.010273 -0.006879 -1413720.000000 1 0 0
16.892461 -10.252619 -0.453020 19.765542 -0.545503 1.593718 0.055171 -0.009930 640379.000000 1 0 0
14.927361 -8.838619 0.461380 17.353967 -0.534597 1.544207 0.046387 -0.011553 -260038.000000 1 0 0
10.072761 -13.016819 1.584280 16.535055 -0.912220 1.474836 0.022659 -0.003328 -285530.000000 1 0 0
17.090661 -8.369219 8.836080 20.981202 -0.455370 1.136092 0.065797 -0.019042 294435.000000 1 0 0
19.254861 -0.030019 -1.912420 19.349623 -0.001559 1.669793 0.047486 -0.001520 245510.000000 1 0 0
13.648561 -1.153719 7.616880 15.672624 -0.084330 1.063290 0.017428 -0.001971 -367983.000000 1 0 0
12.808161 -9.731519 -3.114820 16.384552 -0.649738 1.762068 0.030222 -0.007072 -1412000.000000 1 0 0
8.915661 -15.207019 1.337980 17.678593 -1.040522 1.495040 0.032257 -0.005743 -618818.000000 1 0 0
11.401061 -8.384319 11.167580 18.027641 -0.634090 0.902729 0.025154 -0.006433 -129047.000000 1 0 0
13.895461 -3.928419 -0.402720 14.445709 -0.275522 1.598678 0.015205 -0.006077 -663711.000000 1 0 0
7.137061 -13.225919 10.823880 18.520771 -1.075952 0.946633 0.019151 -0.001517 -1515030.000000 1 0 0
15.460961 -6.729419 1.901580 16.968866 -0.410522 1.458498 0.033278 -0.012981 -1059060.000000 1 0 0
15.913361 -6.160319 -2.496320 17.245759 -0.369351 1.716056 0.040000 -0.012578 162894.000000 1 0 0
11.275961 -8.562719 3.900780 14.686168 -0.649476 1.301961 0.016827 -0.005076 449741.000000 1 0 0
10.671561 -14.475019 -0.455520 17.989327 -0.935512 1.596121 0.043791 -0.006428 409882.000000 1 0 0
13.593761 -12.923619 4.727880 19.343297 -0.760132 1.323875 0.029100 -0.001957 408070.000000 1 0 0
12.810661 -11.153219 6.491280 18.183620 -0.716344 1.205758 0.025000 -0.007671 -513645.000000 1 0 0
10.929261 -10.562019 1.371480 15.260601 -0.768312 1.480804 0.013000 -0.002483 68632.500000 1 0 0
13.838061 -7.729219 11.931680 19.839298 -0.509382 0.925524 0.027237 -0.014802 -53911.400000 1 0 0
15.433961 -1.836519 -4.868420 16.287464 -0.118435 1.874342 0.024481 -0.001708 -541935.000000 1 0 0
13.130461 -11.251919 -7.064420 18.679420 -0.708505 1.958640 0.052777 -0.016853 406077.000000 1 0 0
17.715661 -5.403919 1.926480 18.621448 -0.296071 1.467156 0.038398 -0.011231 232844.000000 1 0 0
10.493861 -9.813219 9.144380 17.030563 -0.751893 1.003991 0.011961 -0.006571 -1910600.000000 1 0 0
16.486161 1.818981 10.000380 19.367751 0.109889 1.028223 0.041192 -0.004361 -1009560.000000 1 0 0
18.130361 3.761181 0.569680 18.525145 0.204551 1.540040 0.018336 0.004692 336001.000000 1 0 0
13.371361 -4.114319 5.784780 15.138844 -0.298503 1.178712 0.023928 -0.009230 -896307.000000 1 0 0
12.114061 -6.250119 6.688780 15.184013 -0.476318 1.114624 0.021188 -0.006651 -24512.100000 1 0 0
16.769461 -10.346219 3.724180 20.053144 -0.552803 1.383996 0.044429 -0.008308 428215.000000 1 0 0
16.275061 -8.019819 -5.257120 18.890009 -0.457845 1.852822 0.055421 -0.021431 -1003540.000000 1 0 0
13.996361 -0.320919 5.231480 14.945551 -0.022925 1.213187 0.012706 -0.003592 135152.000000 1 0 0
18.164061 -4.279219 5.271380 19.391552 -0.231368 1.295493 0.038708 -0.010310 -64340.800000 1 0 0
13.502661 -13.427619 7.298080 20.393253 -0.782612 1.204813 0.040989 -0.008431 -330052.000000 1 0 0
15.079861 -13.486419 -0.940520 20.252661 -0.729675 1.617252 0.054078 -0.006109 136936.000000 1 0 0
18.064561 -6.178819 7.920880 20.669942 -0.329567 1.177530 0.074643 -0.012202 94666.500000 1 0 0
14.479561 3.253581 9.346880 17.538747 0.221030 1.008740 0.021668 -0.002004 -361682.000000 1 0 0
18.648161 3.902381 3.105080 19.303471 0.206287 1.409238 0.040304 -0.002485 -1569710.000000 1 0 0
14.718061 -10.575819 8.248780 19.912600 -0.623074 1.143679 0.028079 -0.017389 -265688.000000 1 0 0
14.985761 -4.980319 10.441680 18.931595 -0.320853 0.986578 0.039170 -0.009936 291481.000000 1 0 0
17.896961 -7.970219 2.029580 19.696314 -0.418971 1.467569 0.064337 -0.021380 491581.000000 1 0 0
18.505461 -5.716419 -1.882320 19.459513 -0.299606 1.667678 0.042926 -0.014031 408733.000000 1 0 0
14.359161 -12.921319 -5.434020 20.066753 -0.732741 1.845017 0.060136 -0.016313 119347.000000 1 0 0
15.501561 -1.569919 9.308580 18.149730 -0.100931 1.032263 0.035002 -0.009595 -1328670.000000 1 0 0
12.827761 -10.231919 10.183880 19.312044 -0.673300 1.015338 0.015456 -0.016454 -966336.000000 1 0 0
16.563861 2.060581 4.693380 17.338838 0.123766 1.296691 0.029426 -0.005637 -1807460.000000 1 0 0
15.036961 2.429781 -0.016420 15.232016 0.160202 1.571874 0.017881 0.005834 -1307660.000000 1 0 0
15.193161 -9.591319 -6.913820 19.251661 -0.563111 1.938130 0.060066 -0.022094 961938.000000 1 0 0
16.283861 -0.070519 -3.200420 16.595535 -0.004331 1.764860 0.019945 0.002425 302577.000000 1 0 0
12.134961 2.528781 13.526580 18.347217 0.205448 0.741798 0.028810 0.000171 -35972.500000 1 0 0
17.608361 -3.016019 9.429880 20.200826 -0.169637 1.085120 0.035326 -0.016009 -447429.000000 1 0 0
8.021561 -18.157719 4.405180 20.333564 -1.154806 1.352419 0.064367 -0.022833 -356771.000000 1 0 0
6.914061 -11.289319 6.662580 14.820356 -1.021278 1.104528 0.006540 -0.004603 227261.000000 1 0 0
18.075261 2.250681 -1.591120 18.284209 0.123880 1.657928 0.027497 0.005254 366307.000000 1 0 0
17.592861 -2.310719 3.641880 18.113847 -0.130597 1.368362 0.027362 -0.004239 498271.000000 1 0 0
12.630461 -13.407119 -1.890520 18.516303 -0.815218 1.673075 0.049807 -0.004744 -494381.000000 1 0 0
15.154861 -8.419919 4.430580 17.893990 -0.507126 1.320592 0.034998 -0.010138 -451692.000000 1 0 0
11.961261 -2.946319 14.839280 19.286181 -0.241514 0.692855 0.025537 -0.008317 319865.000000 1 0 0
12.098861 -13.566419 -6.530220 19.315122 -0.842517 1.915681 0.042603 -0.012998 -264206.000000 1 0 0
10.656861 -11.997019 -1.271320 16.097000 -0.844487 1.649857 0.030795 -0.004683 -1082580.000000 1 0 0
13.185261 -7.979119 2.206180 15.568708 -0.544201 1.428612 0.028078 -0.005947 -1121580.000000 1 0 0
8.812261 -7.887819 10.161780 15.592800 -0.730099 0.860977 0.011440 -0.001727 -2112320.000000 1 0 0
15.708061 -3.955419 8.105780 18.113315 -0.246680 1.106824 0.039350 -0.013629 -1393770.000000 1 0 0
10.328861 -17.072519 5.299180 20.645522 -1.026709 1.311216 0.052151 -0.022633 900327.000000 1 0 0
15.380061 -6.495119 8.351880 18.667800 -0.399588 1.106946 0.046916 -0.008649 558151.000000 1 0 0
16.546061 -4.995819 -0.269620 17.285920 -0.293230 1.586395 0.023617 -0.008138 -614308.000000 1 0 0
14.141661 -10.640319 3.483480 18.037117 -0.645041 1.376447 0.038118 -0.006823 -177353.000000 1 0 0
14.981561 -9.972119 -4.456020 18.540400 -0.587282 1.813514 0.057082 -0.019401 328811.000000 1 0 0
13.763661 -6.542419 -0.009320 15.239478 -0.443726 1.571408 0.024491 -0.007298 83001.600000 1 0 0
17.946861 -0.798719 -4.958320 18.636328 -0.044475 1.840096 0.037016 -0.004523 1414530.000000 1 0 0
14.474461 0.291981 -1.565020 14.561750 0.020169 1.678479 0.011968 0.001189 -2519810.000000 1 0 0
4.794261 -12.997519 11.751180 18.166196 -1.217420 0.867323 0.001011 0.001699 -835420.000000 1 0 0
11.877861 -7.503119 13.580880 19.540232 -0.563395 0.802347 0.016073 -0.009597 -1147760.000000 1 0 0
12.008061 -5.831619 11.577380 17.670230 -0.452095 0.856361 0.017933 -0.003518 -386040.000000 1 0 0
13.429261 -4.836319 8.352580 16.537854 -0.345673 1.041347 0.030153 -0.005265 -948764.000000 1 0 0
15.323561 -1.164919 3.093480 15.676038 -0.075876 1.372154 0.019979 0.000668 74388.200000 1 0 0
15.216361 -10.466219 5.829380 19.366493 -0.602509 1.265052 0.037493 -0.009486 18563.700000 1 0 0
13.671661 -7.883719 -5.517020 16.718399 -0.523071 1.907097 0.042752 -0.017359 538966.000000 1 0 0
9.692661 -2.090119 13.641880 16.864672 -0.212387 0.628513 0.018854 -0.002175 -129965.000000 1 0 0
9.750561 -9.191719 13.708780 19.170075 -0.755904 0.774010 0.026150 -0.002049 625456.000000 1 0 0
20.465361 6.350581 -2.882620 21.621063 0.300887 1.704519 0.080074 -0.012714 621204.000000 1 0 0
11.118561 -3.545419 10.650080 15.799259 -0.308681 0.831068 0.018115 -0.000107 694316.000000 1 0 0
10.368161 -13.995219 -2.968420 17.668516 -0.933186 1.739603 0.036466 -0.004436 221002.000000 1 0 0
15.050161 -12.741719 2.547280 19.883345 -0.702527 1.442332 0.037721 -0.000941 -332110.000000 1 0 0
11.524261 -0.449919 14.491880 18.520950 -0.039021 0.672192 0.039981 -0.000606 199234.000000 1 0 0
19.162261 -1.940619 5.811780 20.118028 -0.100929 1.277735 0.061558 -0.011138 1035410.000000 1 0 0
18.922961 -0.416719 7.926380 20.520224 -0.022018 1.174210 0.053051 -0.011652 265849.000000 1 0 0
19.135761 1.017781 0.513380 19.169684 0.053137 1.544012 0.044265 -0.003737 -40689.800000 1 0 0
18.562961 0.806681 3.629680 18.931688 0.043429 1.377877 0.039244 -0.008036 118811.000000 1 0 0
16.676361 -4.031919 -4.055520 17.629652 -0.237222 1.802915 0.028164 -0.006514 372832.000000 1 0 0
11.048361 -8.233119 15.854380 21.005044 -0.640415 0.715464 0.035509 -0.010227 203867.000000 1 0 0
16.611961 -7.616119 6.406480 19.365059 -0.429877 1.233617 0.041903 -0.014805 547666.000000 1 0 0
18.813661 2.172981 5.922480 19.843171 0.114991 1.267713 0.047329 -0.013282 44597.200000 1 0 0
15.552561 1.738381 7.692480 17.437843 0.111313 1.113931 0.028958 -0.002252 204942.000000 1 0 0
8.826861 -15.673119 3.810980 18.387053 -1.057887 1.362019 0.029648 -0.016562 210218.000000 1 0 0
11.402161 -15.200419 1.992780 19.105842 -0.927217 1.466304 0.038959 0.000310 171812.000000 1 0 0
8.010761 -16.114519 6.058880 18.988419 -1.109460 1.246035 0.038284 -0.016290 -457759.000000 1 0 0
14.544761 -11.626819 -2.571720 18.797520 -0.674364 1.708038 0.047332 -0.007263 746462.000000 1 0 0
13.636761 -4.900719 3.182380 14.835964 -0.345003 1.354612 0.019006 -0.006215 -1915520.000000 1 0 0
-1.135939 10.232081 -5.663320 11.749852 -1.460232 2.073722 0.001460 0.002689 -1951620.000000 1 0 0
8.261761 -1.723319 -7.857220 11.530934 -0.205641 2.320475 0.006384 -0.006094 -2014330.000000 1 0 0
2.819561 -10.110119 7.560380 12.935369 -1.298822 0.946565 0.002923 -0.002990 493821.000000 1 0 0
-6.243539 1.305281 8.281380 10.453076 -0.206093 0.656320 0.000588 -0.002077 240841.000000 1 0 0
7.428261 -6.210719 -7.253820 12.098347 -0.696365 2.213762 0.005757 -0.006087 -140976.000000 1 0 0
-11.506639 -4.580519 -4.101720 13.046379 0.378847 1.890616 0.011611 -0.007513 280737.000000 1 0 0
2.166161 -3.128819 2.957180 4.819406 -0.965240 0.910187 0.005199 -0.003551 1763130.000000 1 0 0
-3.705639 -4.086119 8.957080 10.519383 0.834191 0.551989 0.002626 -0.006714 -2184000.000000 1 0 0
-4.925539 -1.019619 -2.456420 5.597728 0.204124 2.025086 0.008254 -0.004539 -747419.000000 1 0 0
4.912461 -5.120219 -3.581120 7.948166 -0.806103 2.038188 0.004855 -0.005753 -100365.000000 1 0 0
2.593961 14.300381 -8.766820 16.973116 1.391356 2.113569 0.005033 -0.010638 722544.000000 1 0 0
5.475361 -5.535519 13.754580 15.805379 -0.790862 0.515093 0.009010 -0.003038 -460556.000000 1 0 0
-4.765239 -1.066119 9.905580 11.043760 0.220104 0.457999 0.003726 -0.003495 -2464580.000000 1 0 0
-1.027239 11.963581 -2.723220 12.312531 -1.485143 1.793815 0.000753 0.001006 136222.000000 1 0 0
3.104461 9.398281 -10.525820 14.448469 1.251758 2.386937 0.004464 -0.006917 -377174.000000 1 0 0
-10.755339 2.576281 1.086780 11.112859 -0.235105 1.472845 0.003992 -0.000943 261689.000000 1 0 0
5.847461 -9.055619 -0.801820 10.809253 -0.997431 1.645044 0.000094 -0.003109 879934.000000 1 0 0
-6.967039 5.531881 9.300380 12.870058 -0.671076 0.763187 0.004665 -0.004691 -132251.000000 1 0 0
-5.677839 -1.773619 5.093280 7.831033 0.302772 0.862689 0.003759 -0.006781 481073.000000 1 0 0
6.612461 -3.773119 -7.267120 10.524833 -0.518527 2.332940 0.006319 -0.006426 430508.000000 1 0 0
6.277861 4.950481 11.080280 13.663506 0.667727 0.625040 0.007567 -0.000980 370667.000000 1 0 0
3.798461 -9.972919 3.238580 11.152391 -1.206883 1.276158 0.002337 -0.001098 935268.000000 1 0 0
-6.595939 6.631381 -5.867820 11.041419 -0.788078 2.131093 0.001275 -0.002550 -318762.000000 1 0 0
-11.117439 8.473081 5.264580 14.936745 -0.651228 1.210600 0.003466 -0.005917 200743.000000 1 0 0
-9.241439 -5.495319 5.125780 11.911186 0.536468 1.125934 0.005663 -0.003154 -850730.000000 1 0 0
3.236161 9.819481 -8.038520 13.096287 1.252441 2.231663 0.004530 -0.006139 637295.000000 1 0 0
-8.070039 -8.509619 6.065680 13.203470 0.811905 1.093476 0.005700 -0.001824 -976823.000000 1 0 0
-7.805539 -5.844119 -7.353420 12.212819 0.642678 2.216933 0.014109 -0.005988 1672080.000000 1 0 0
9.323761 -1.624419 6.949580 11.741717 -0.172492 0.937418 0.009202 -0.003058 1360900.000000 1 0 0
-4.045839 -0.408219 -4.883320 6.354705 0.100558 2.447223 0.010947 -0.008830 -749243.000000 1 0 0
9.098361 1.120381 -4.429520 10.181163 0.122524 2.020913 0.006724 -0.003088 -2966620.000000 1 0 0
-1.938739 -10.561019 10.661980 15.131809 1.389243 0.788927 -0.000365 -0.009213 467032.000000 1 0 0
-12.907039 0.181181 -2.686820 13.184972 -0.014036 1.776013 0.011674 -0.002836 237516.000000 1 0 0
-9.828339 -5.243319 -5.958720 12.633091 0.490079 2.061986 0.013985 -0.007265 -761126.000000 1 0 0
-5.876739 8.475981 -0.238220 10.316737 -0.964554 1.593889 0.002188 0.002795 1538940.000000 1 0 0
6.188761 9.628581 0.376280 11.452158 0.999535 1.537934 0.008050 -0.003254 870527.000000 1 0 0
-0.594739 -12.080119 0.011280 12.094756 1.521603 1.569864 0.009847 -0.002747 -312869.000000 1 0 0
6.231461 4.716381 2.399280 8.175078 0.647881 1.272924 0.000924 0.001682 120332.000000 1 0 0
3.577661 -7.505019 -8.047820 11.571188 -1.125960 2.339919 0.002591 -0.003782 430216.000000 1 0 0
-6.530439 -9.819219 4.517680 12.628267 0.983902 1.204946 0.005588 -0.000566 -2818120.000000 1 0 0
-0.084539 6.630181 -9.306520 11.427063 -1.558046 2.522539 0.006872 -0.007672 -2358640.000000 1 0 0
-17.361439 -2.844719 4.188980 18.084788 0.162410 1.337043 0.040784 -0.013537 260986.000000 1 0 0
-8.384839 0.927981 -9.063320 12.381860 -0.110225 2.392025 0.010739 -0.005466 -139360.000000 1 0 0
-9.919639 -5.916419 -11.854720 16.551062 0.537794 2.369212 0.019918 -0.004078 -201403.000000 1 0 0
2.252861 9.429081 6.435780 11.636245 1.336266 0.984739 -0.003348 0.002897 600164.000000 1 0 0
-11.381239 1.580581 -1.235720 11.556723 -0.137993 1.677928 0.009091 -0.002918 -1141650.000000 1 0 0
-5.785339 -5.342619 -3.015720 8.432574 0.745635 1.936522 0.020151 -0.006691 557490.000000 1 0 0
-6.966339 -8.310519 1.349180 10.927712 0.873160 1.447016 0.010917 -0.003121 -349699.000000 1 0 0
0.012361 11.072981 -7.931820 13.620750 1.569680 2.192393 0.002724 -0.001072 266112.000000 1 0 0
-2.980939 9.226681 -4.292520 10.603932 -1.258304 1.987561 0.003413 0.000773 -591175.000000 1 0 0
3.409561 -4.800819 9.428380 11.116084 -0.953255 0.558267 0.005461 -0.002794 -434481.000000 1 0 0
-8.980339 1.511881 -0.448820 9.117769 -0.166790 1.620041 0.007632 -0.003126 -1286590.000000 1 0 0
2.503161 3.545681 -10.336720 11.210952 0.956072 2.744062 0.006087 -0.006405 -370014.000000 1 0 0
-13.846539 0.380181 1.190380 13.902812 -0.027450 1.485070 0.008860 -0.003592 -522894.000000 1 0 0
9.503261 -12.554419 -4.937520 16.501652 -0.922852 1.874665 0.036559 -0.005195 -2095540.000000 1 0 0
-4.708939 9.371481 -8.445320 13.465593 -1.105170 2.248721 0.002860 -0.000644 -619224.000000 1 0 0
-2.308639 7.184081 8.420180 11.306647 -1.259865 0.730695 -0.000312 -0.000413 -1588970.000000 1 0 0
-10.789839 -1.296319 -4.506920 11.764922 0.119569 1.963926 0.012170 -0.003927 -3395090.000000 1 0 0
2.652161 -7.215119 9.709180 12.383864 -1.218543 0.669683 -0.001384 -0.001403 -2165430.000000 1 0 0
-16.162639 -6.563519 3.467780 17.785842 0.385747 1.374565 0.031138 -0.012355 -365978.000000 1 0 0
-10.816239 0.023081 6.135380 12.435210 -0.002134 1.054816 0.000216 -0.002537 -1833130.000000 1 0 0
-8.385339 9.953281 9.364780 16.033740 -0.870690 0.947066 0.006201 -0.011557 -130556.000000 1 0 0
0.102661 -5.928719 -3.877720 7.084982 -1.553482 2.149950 -0.001477 -0.001569 248230.000000 1 0 0
4.964461 1.514881 -3.008720 5.999428 0.296170 2.096129 0.002072 -0.001891 970428.000000 1 0 0
0.388961 5.312681 3.905280 6.605080 1.497713 0.938183 0.000526 0.003090 -1906360.000000 1 0 0
6.074061 -11.324719 -1.541720 12.942967 -1.078490 1.690196 0.000892 -0.000267 -2237020.000000 1 0 0
6.342161 -13.565319 5.376780 15.910709 -1.133462 1.226075 0.010784 -0.008351 -555079.000000 1 0 0
8.244261 -8.173819 -5.838920 12.995082 -0.781108 2.036798 0.007169 -0.005980 694634.000000 1 0 0
-13.254739 -1.512419 -4.667820 14.133792 0.113613 1.907375 0.010380 -0.001376 -2841290.000000 1 0 0
-6.649039 -1.622419 -7.121520 9.877146 0.239331 2.376055 0.017141 -0.007970 -758147.000000 1 0 0
-5.752139 12.801581 -4.633020 14.779460 -1.148499 1.889649 0.005638 0.004113 536842.000000 1 0 0
-4.295139 6.905481 -6.792920 10.596115 -1.014365 2.266696 0.004411 -0.002081 -3461310.000000 1 0 0
-9.466639 -3.883619 -8.114220 13.059109 0.389305 2.241255 0.013173 -0.007765 654378.000000 1 0 0
-2.222839 -6.268319 9.169080 11.327174 1.230016 0.627537 0.005053 -0.004090 -353045.000000 1 0 0
7.483061 -6.042019 10.114880 13.957542 -0.679253 0.760213 0.008462 -0.000197 380862.000000 1 0 0
9.668161 -5.022919 12.362880 16.478588 -0.479151 0.722373 0.017173 0.002682 -379090.000000 1 0 0
-6.461739 2.822281 -9.062220 11.482298 -0.411796 2.480357 0.004121 -0.006760 -383904.000000 1 0 0
7.483261 5.404281 8.907780 12.827860 0.625459 0.803198 0.002920 0.002858 920840.000000 1 0 0
12.751061 3.302281 11.130180 17.244579 0.253413 0.869209 0.017610 0.004062 -204782.000000 1 0 0
-7.439239 -7.149019 -3.935520 11.042603 0.765507 1.935202 0.020494 -0.009756 -1078410.000000 1 0 0
2.267961 1.452181 -5.742420 6.342544 0.569528 2.703073 0.002877 -0.004267 236873.000000 1 0 0
12.896561 6.803381 -7.159620 16.243997 0.485432 2.027236 0.015973 -0.006729 283090.000000 1 0 0
0.858361 -7.682119 1.000780 7.794440 -1.459523 1.442044 0.002242 -0.000677 -144337.000000 1 0 0
-10.243939 -6.199819 -8.492320 14.679767 0.544248 2.187691 0.018193 -0.009825 238870.000000 1 0 0
-6.743939 0.191381 3.173180 7.455629 -0.028371 1.131162 0.006246 -0.006896 1047290.000000 1 0 0
10.705761 -7.967919 1.336880 13.412245 -0.639820 1.470954 0.008086 -0.002884 352962.000000 1 0 0
6.254361 0.956881 10.459280 12.224123 0.151817 0.544037 0.007241 -0.000793 -951843.000000 1 0 0
-12.936239 5.322081 1.707080 14.092017 -0.390303 1.449360 0.010513 -0.003182 421343.000000 1 0 0
2.084761 7.477481 3.611180 8.561517 1.298896 1.135375 -0.004115 0.003764 -153150.000000 1 0 0
10.236861 -9.451719 -0.861920 13.959628 -0.745541 1.632579 0.009420 -0.003307 800667.000000 1 0 0
6.950961 -11.641019 -8.965720 16.254640 -1.032505 2.155053 0.008179 -0.005094 -350458.000000 1 0 0
10.227861 3.530381 11.970580 16.135907 0.332368 0.734957 0.013560 0.001881 -191987.000000 1 0 0
-11.073139 -3.195019 -1.866220 11.674988 0.280908 1.731333 0.010075 -0.004133 -223084.000000 1 0 0
12.421061 0.981881 6.850680 14.218954 0.078886 1.068090 0.009869 -0.001023 340729.000000 1 0 0
-9.714839 9.212881 3.058780 13.733587 -0.758885 1.346190 0.003431 -0.004852 -265176.000000 1 0 0
-6.611839 7.573381 -8.824820 13.377218 -0.853079 2.291203 0.001401 -0.002276 -147370.000000 1 0 0
8.537761 5.600681 12.201280 15.910129 0.580574 0.696819 0.012836 0.001975 -891843.000000 1 0 0
1.329161 4.892581 -2.683720 5.736407 1.305530 2.057641 0.004245 -0.002226 527154.000000 1 0 0
1.339561 0.443381 9.503180 9.607364 0.319640 0.147403 0.004684 -0.004276 557068.000000 1 0 0
2.532661 12.487381 -3.959620 13.342700 1.370693 1.872098 0.004582 -0.005092 670925.000000 1 0 0
2.101161 0.634481 12.994780 13.178837 0.293260 0.167325 0.005376 -0.006414 -309584.000000 1 0 0
-12.355739 -1.866219 0.724980 12.516895 0.149908 1.512844 0.006544 -0.004242 -179691.000000 1 0 0
3.268861 8.693081 -1.277220 9.374774 1.211123 1.707461 0.007382 -0.001228 188828.000000 1 0 0
3.691761 -2.849519 -5.732520 7.389902 -0.657345 2.458657 -0.000975 -0.005086 -970330.000000 1 0 0
-7.685439 -7.192319 9.212380 13.987972 0.752266 0.851849 0.005861 -0.004157 57393.700000 1 0 0
-7.139939 10.952381 -3.414420 13.512647 -0.993081 1.826249 0.010899 0.003183 535708.000000 1 0 0
0.314561 0.458981 2.502080 2.563204 0.969973 0.218825 0.004623 -0.002238 -926382.000000 1 0 0
-7.147439 4.542381 -1.976720 8.696352 -0.566133 1.800105 0.008193 -0.003271 -1662530.000000 1 0 0
-7.012739 -3.919919 -5.856520 9.941987 0.509705 2.200703 0.012010 -0.006432 2803.980000 1 0 0
2.942661 -6.131619 13.455280 15.076490 -1.123345 0.468010 0.001188 -0.004883 -452114.000000 1 0 0
-5.318739 -0.707319 -11.774320 12.939239 0.132211 2.714008 0.009446 -0.007729 -495422.000000 1 0 0
11.962561 2.492481 -0.689820 12.238921 0.205418 1.627189 0.004746 -0.000157 -476463.000000 1 0 0
5.975761 -10.946619 10.817080 16.509010 -1.071106 0.856319 0.005209 -0.000218 406525.000000 1 0 0
-8.220439 6.316581 -10.496420 14.752954 -0.655173 2.362397 0.007844 -0.004406 782494.000000 1 0 0
2.905461 7.903181 11.248980 14.051388 1.218501 0.642567 -0.000311 -0.000690 1028320.000000 1 0 0
-6.141039 -10.012619 -0.536220 11.758080 1.020633 1.616417 0.010344 -0.000241 -198809.000000 1 0 0
11.288361 4.373481 6.024480 13.522159 0.369626 1.109034 0.001796 0.001908 203523.000000 1 0 0
-7.922739 10.578581 1.455280 13.296391 -0.927973 1.461127 -0.000029 -0.001314 638313.000000 1 0 0
4.326761 -2.512219 -3.414720 6.057427 -0.526050 2.169685 0.001115 -0.005134 -5953580.000000 1 0 0
6.355061 6.553881 6.479580 11.194870 0.800799 0.953541 0.002379 0.001953 -6731220.000000 1 0 0
-0.387539 10.354781 -10.174520 14.522139 -1.533388 2.347064 0.001795 -0.002417 -133364.000000 1 0 0
14.304861 6.568081 -2.469620 15.933228 0.430437 1.726422 0.022600 -0.002016 690053.000000 1 0 0
1.408261 9.469081 -6.207120 11.409427 1.423156 2.146034 0.005976 -0.002538 991449.000000 1 0 0
0.632261 7.344181 7.293780 10.369955 1.484918 0.790687 -0.005541 0.003059 59322.000000 1 0 0
12.302461 6.274581 1.964980 13.949267 0.471637 1.429460 0.005125 0.002231 -1587590.000000 1 0 0
-6.928439 6.653181 -3.245220 10.139011 -0.765134 1.896603 0.003833 -0.002619 330171.000000 1 0 0
1.038661 9.759581 11.136680 14.844321 1.464771 0.722384 -0.004830 -0.002524 -3188660.000000 1 0 0
-3.680539 13.697881 -10.984520 17.939844 -1.308302 2.229759 0.007020 -0.002307 14452.000000 1 0 0
-10.013939 -5.585919 -2.348620 11.704593 0.508823 1.772826 0.011942 -0.008332 439087.000000 1 0 0
-4.069039 3.799181 -12.553020 13.732049 -0.751114 2.724179 0.002384 -0.007081 -599406.000000 1 0 0
-3.172839 8.471481 2.430080 9.366866 -1.212436 1.308361 0.002733 0.003104 -2519340.000000 1 0 0
7.132161 9.007181 7.066480 13.488223 0.901057 1.019373 0.005847 0.002158 253097.000000 1 0 0
-1.367239 -2.184119 -8.163720 8.560727 1.011485 2.835853 0.003377 -0.007856 -1469750.000000 1 0 0
0.816561 -1.242619 4.785880 5.011539 -0.989426 0.301230 0.006706 -0.004650 829703.000000 1 0 0
2.764461 -8.748319 -5.964920 10.943291 -1.264727 2.147276 -0.002821 -0.003470 466220.000000 1 0 0
5.238361 3.906781 8.877280 11.023133 0.640809 0.634561 0.003200 0.001049 578848.000000 1 0 0
6.166961 -7.333119 -2.714520 9.958648 -0.871566 1.846869 0.001775 -0.005497 650812.000000 1 0 0
1.818161 2.269681 -8.243320 8.741252 0.895407 2.802439 0.004318 -0.006980 205708.000000 1 0 0
-5.422039 11.041381 -0.733820 12.322706 -1.114322 1.630382 0.001507 0.003101 715013.000000 1 0 0
-5.430139 3.255981 -3.409720 7.191246 -0.540135 2.064793 0.004766 -0.000968 18344.500000 1 0 0
1.898061 13.722581 -6.272220 15.206992 1.433352 1.995945 -0.002335 -0.005371 578814.000000 1 0 0
-5.404439 -2.481919 2.622380 6.499597 0.430509 1.155492 0.000325 -0.005912 773860.000000 1 0 0
10.436861 -3.329119 -1.800620 11.101952 -0.308775 1.733705 0.006742 -0.003064 62089.800000 1 0 0
2.439461 -3.379819 7.042380 8.183475 -0.945607 0.534426 0.004493 -0.003546 -847081.000000 1 0 0
-3.035139 9.917481 -11.734020 15.660642 -1.273808 2.417753 0.003093 -0.002769 -2217050.000000 1 0 0
0.538861 -2.117619 9.184180 9.440542 -1.321619 0.233578 0.006948 -0.005663 920754.000000 1 0 0
9.503061 2.574681 4.982080 11.034413 0.264580 1.102346 0.003509 0.001030 -808361.000000 1 0 0
13.502161 2.122581 -5.038620 14.567134 0.155927 1.923983 0.009900 -0.001843 -545684.000000 1 0 0
-6.370139 3.796581 7.572580 10.598899 -0.537471 0.774932 0.003536 -0.003677 -19394.000000 1 0 0
10.633861 0.142381 1.855180 10.795414 0.013389 1.398090 0.003746 0.000271 1118480.000000 1 0 0
15.524861 6.618781 -4.807620 17.548298 0.403000 1.848310 0.027501 -0.005687 12670.500000 1 0 0
8.140161 -4.816019 -9.230320 13.215713 -0.534247 2.344005 0.012423 -0.005444 2806530.000000 1 0 0
4.520261 5.617181 -2.179120 7.532200 0.893184 1.864299 0.004173 -0.001192 -558094.000000 1 0 0
-1.607039 -10.500119 1.458880 10.722099 1.418925 1.434310 0.008164 -0.002192 -684391.000000 1 0 0
-2.866039 12.302281 -12.913320 18.064167 -1.341911 2.367218 0.008267 -0.003715 197380.000000 1 0 0
8.410461 4.296781 -9.531620 13.418270 0.472318 2.360787 0.003277 -0.001624 -1882510.000000 1 0 0
4.115361 7.634881 -8.961820 12.471641 1.076421 2.372549 0.007572 -0.007145 -1782520.000000 1 0 0
-1.694639 -4.953819 -2.439720 5.776189 1.241188 2.006861 0.004911 -0.003878 957997.000000 1 0 0
-3.238939 -9.229519 6.928280 11.986485 1.233291 0.954511 0.004576 -0.003612 -1494340.000000 1 0 0
1.116261 7.236881 -1.436120 7.461965 1.417756 1.764463 0.005545 0.000174 507958.000000 1 0 0
0.322361 -0.957319 -2.129920 2.357316 -1.245989 2.698748 0.007830 -0.002383 -1051100.000000 1 0 0
4.284461 -6.714019 7.740780 11.106500 -1.002806 0.799648 0.001564 0.000757 -297679.000000 1 0 0
-13.979339 3.972181 6.033980 15.735598 -0.276850 1.177256 0.000799 -0.000625 -1371000.000000 1 0 0
4.245261 6.347181 12.687280 14.807971 0.981289 0.541790 0.004549 0.000507 -1482920.000000 1 0 0
8.308361 10.172181 -7.221520 14.988411 0.885911 2.073512 0.025608 -0.009536 518879.000000 1 0 0
12.622361 5.332881 9.525980 16.688556 0.399747 0.963305 0.018365 0.004898 901320.000000 1 0 0
7.507461 4.159281 0.279180 8.587172 0.505924 1.538279 0.005022 0.001101 -3116990.000000 1 0 0
-10.913539 -7.552819 -1.113020 13.318755 0.605377 1.654462 0.010910 -0.007056 -876603.000000 1 0 0
10.487161 6.927581 0.239080 12.570962 0.583775 1.551777 0.004619 0.000090 -902129.000000 1 0 0
14.656361 3.578781 4.219580 15.665933 0.239493 1.298081 0.012572 -0.002261 290444.000000 1 0 0
2.226861 5.611681 8.248780 10.222144 1.193029 0.631823 -0.005298 0.002504 633669.000000 1 0 0
4.238461 0.080481 11.661180 12.407826 0.018986 0.348680 0.003672 -0.003004 -937491.000000 1 0 0
-1.573339 -1.380519 -0.320120 2.117476 0.720213 1.722558 0.009111 -0.007622 -1040410.000000 1 0 0
3.116861 -5.281219 -9.399120 11.222725 -1.037630 2.563503 -0.002008 -0.003315 293148.000000 1 0 0
-3.908439 -5.191119 -1.244120 6.616000 0.925436 1.759970 0.009773 -0.006794 -1814550.000000 1 0 0
-1.512139 -8.594019 8.664680 12.297171 1.396627 0.788926 0.005102 -0.004922 192497.000000 1 0 0
3.885061 8.570181 -5.952420 11.134316 1.145182 2.134832 0.007947 -0.004331 45675.500000 1 0 0
-14.333039 -1.870619 -2.618220 14.689803 0.129777 1.749988 0.006129 -0.005190 -702513.000000 1 0 0
8.901161 -10.481419 -6.470020 15.197104 -0.866748 2.010576 0.012201 -0.005062 279684.000000 1 0 0
14.812561 6.181781 1.677380 16.138153 0.395359 1.466669 0.012298 0.002493 -2242020.000000 1 0 0
-5.802039 0.387481 -8.525620 10.319884 -0.066685 2.543010 0.009637 -0.010270 197772.000000 1 0 0
-8.000639 -4.657419 -13.015420 15.971942 0.527177 2.523340 0.017407 -0.004047 745965.000000 1 0 0
0.948661 -10.754619 12.085480 16.205574 -1.482814 0.729120 -0.001361 -0.006691 -120564.000000 1 0 0
0.300661 11.712781 3.401880 12.200509 1.545132 1.288220 0.004212 0.000713 -919248.000000 1 0 0
5.117961 -13.153419 -3.651520 14.578737 -1.199724 1.823961 0.002729 0.000919 1099370.000000 1 0 0
-7.497039 1.578281 -6.960920 10.351375 -0.207491 2.308328 0.006991 -0.004917 674530.000000 1 0 0
1.473461 2.700981 4.091780 5.119477 1.071393 0.644738 -0.001384 0.000768 -380305.000000 1 0 0
17.214861 5.592881 1.985080 18.209127 0.314129 1.461564 0.022082 -0.004719 -682574.000000 1 0 0
2.421761 -8.143519 -3.434920 9.164088 -1.281740 1.955003 -0.003970 -0.002102 233814.000000 1 0 0
-0.268639 -9.422519 -0.522320 9.440808 1.542294 1.626150 0.006799 -0.000599 -1225520.000000 1 0 0
0.628261 11.771381 -5.566820 13.036472 1.517475 2.011990 0.001678 -0.002561 218683.000000 1 0 0
6.038061 -4.945919 7.840080 11.062873 -0.686293 0.783165 0.002169 0.000724 -872299.000000 1 0 0
-5.943039 -2.003919 -9.430420 11.325557 0.325215 2.554703 0.014063 -0.009160 27583.800000 1 0 0
2.058961 -1.337319 11.244680 11.509586 -0.576032 0.214965 0.003601 -0.004518 168890.000000 1 0 0
18.033261 2.261481 -5.850820 19.093059 0.124755 1.882244 0.015003 0.004667 -317423.000000 1 0 0
-8.865039 4.868381 7.755380 12.745037 -0.502203 0.916625 0.003102 -0.009690 -1160010.000000 1 0 0
11.222861 -7.095219 -4.795720 14.117141 -0.563768 1.917404 0.025289 -0.010909 215449.000000 1 0 0
10.888361 0.775581 9.017780 14.159035 0.071110 0.880336 0.008651 -0.001220 228314.000000 1 0 0
-8.420239 -7.388119 -1.614620 11.317762 0.720201 1.713947 0.016380 -0.006588 -1240940.000000 1 0 0
10.292761 -10.393319 -3.266720 14.987778 -0.790259 1.790519 0.021806 -0.002281 -300309.000000 1 0 0
7.711861 -13.824519 -3.724620 16.262316 -1.061954 1.801881 0.022129 -0.004005 782517.000000 1 0 0
1.833561 -1.193119 -11.580920 11.785720 -0.576875 2.954898 0.001844 -0.006688 453734.000000 1 0 0
-11.882339 -2.686519 -6.391920 13.757326 0.222355 2.054001 0.016586 -0.007392 532856.000000 1 0 0
2.667461 -11.929219 -6.386720 13.791730 -1.350808 2.052267 -0.001055 -0.001309 206737.000000 1 0 0
-5.483039 1.390081 1.155680 5.773356 -0.248292 1.369260 0.005718 -0.006453 479520.000000 1 0 0
0.201561 6.870581 -4.024120 7.964863 1.541468 2.100449 0.008150 -0.001057 1048640.000000 1 0 0
5.542261 -11.895619 3.672980 13.627663 -1.134793 1.297898 0.003079 -0.006809 -1505170.000000 1 0 0
-4.384539 -9.207219 1.034380 10.250220 1.126364 1.469711 0.008064 -0.001266 304294.000000 1 0 0
6.904661 -6.074919 -4.779120 10.364313 -0.721558 2.050046 0.000928 -0.007329 -1740850.000000 1 0 0
-6.836439 -5.965319 2.271980 9.353279 0.717456 1.325435 0.009977 -0.004816 -691103.000000 1 0 0
-6.236539 -0.652919 7.045680 9.431984 0.104313 0.727260 0.001770 -0.003419 -1110630.000000 1 0 0
4.226661 -4.984119 3.255280 7.300887 -0.867450 1.108645 0.000896 -0.000161 -301749.000000 1 0 0
-2.504839 10.560181 -8.925420 14.051860 -1.337904 2.259034 -0.001630 -0.000263 776808.000000 1 0 0
-2.248739 -4.903719 2.825180 6.089740 1.140832 1.088376 0.004779 -0.004700 283138.000000 1 0 0
15.037961 5.096881 6.365380 17.106622 0.326783 1.189526 0.013109 -0.005007 390599.000000 1 0 0
6.759961 0.226381 0.115380 6.764735 0.033476 1.553739 0.001573 -0.001084 2984860.000000 1 0 0
-9.670439 9.055581 0.387380 13.254094 -0.752576 1.541565 0.007022 -0.005042 -1352890.000000 1 0 0
7.172161 10.477581 -2.584720 12.957637 0.970532 1.771618 0.007859 -0.005079 -1205160.000000 1 0 0
1.563361 -4.268219 -5.428620 7.080375 -1.219693 2.444503 -0.001312 -0.004934 -11633.900000 1 0 0
0.918761 -8.148719 -7.855420 11.355764 -1.458521 2.334715 -0.001427 -0.001578 789510.000000 1 0 0
-10.362239 0.178981 -10.420320 14.696636 -0.017271 2.358915 0.015301 -0.005590 -4654670.000000 1 0 0
5.806161 -2.511619 0.549280 6.349917 -0.408272 1.484186 0.003762 -0.002088 135724.000000 1 0 0
-3.351039 5.376681 -1.203620 6.448787 -1.013453 1.758540 0.004294 -0.000350 743977.000000 1 0 0
-0.466639 4.594181 -5.038920 6.834835 -1.469572 2.399774 0.006852 -0.006060 -739093.000000 1 0 0
3.922561 -9.747819 10.007680 14.510690 -1.188219 0.809754 -0.002031 -0.002553 -508094.000000 1 0 0
7.269261 -13.496319 -0.738220 15.347239 -1.076739 1.618916 0.020168 -0.000483 388866.000000 1 0 0
13.021361 0.005681 0.560680 13.033428 0.000436 1.527764 0.004547 -0.001456 206382.000000 1 0 0
9.378661 2.507981 -0.556620 9.724149 0.261300 1.628069 0.005431 -0.000994 395478.000000 1 0 0
-0.748139 -5.692619 4.515380 7.304402 1.440123 0.904381 0.003051 -0.001787 -58148.200000 1 0 0
11.461961 -3.658819 3.237380 12.459700 -0.308990 1.307952 0.013201 -0.003248 -3880430.000000 1 0 0
1.659661 -8.218419 11.661380 14.362614 -1.371532 0.623352 -0.003151 -0.003175 521742.000000 1 0 0
9.348761 -5.814119 -5.813420 12.449866 -0.556377 2.056631 0.006122 -0.007966 -820017.000000 1 0 0
3.224461 6.260181 -0.088720 7.042363 1.095162 1.583395 0.001371 0.002290 -1762510.000000 1 0 0
6.431561 -1.381119 11.554080 13.295459 -0.211529 0.517569 0.007781 -0.000302 142975.000000 1 0 0
-4.878239 -7.568719 -3.749020 9.753865 0.998279 1.965314 0.014593 -0.007434 -827768.000000 1 0 0
-3.494139 -8.565119 -5.741220 10.887235 1.183455 2.126257 0.009667 -0.006787 -208269.000000 1 0 0
9.773661 5.458381 2.194880 11.407711 0.509329 1.377186 0.004403 0.000431 -490224.000000 1 0 0
8.818961 -1.340319 0.360180 8.927500 -0.150827 1.530440 0.002342 -0.002084 759002.000000 1 0 0
-3.873339 9.572681 9.168080 13.809151 -1.186310 0.844757 0.001583 -0.004799 312586.000000 1 0 0
-14.406639 -3.714219 -6.167820 16.105548 0.252318 1.963797 0.012764 -0.007678 -395106.000000 1 0 0
10.690061 6.275281 -5.958320 13.753477 0.530821 2.018862 0.007342 -0.007292 -221851.000000 1 0 0
-1.710239 4.449381 2.794080 5.525286 -1.203830 1.040615 0.003057 -0.002296 712590.000000 1 0 0
6.906361 -3.686419 2.765980 8.302900 -0.490298 1.231171 0.003236 -0.001145 -1578810.000000 1 0 0
8.362161 -11.163519 -1.594720 14.038983 -0.927896 1.684634 0.013651 -0.001904 -2084110.000000 1 0 0
4.531561 0.556981 1.806680 4.910129 0.122298 1.193993 0.003754 0.000512 -101082.000000 1 0 0
-10.885639 2.264381 3.780180 11.743693 -0.205091 1.243071 0.001999 -0.004244 148632.000000 1 0 0
-0.894639 -3.030019 4.356080 5.381155 1.283695 0.627485 0.005287 -0.005693 301982.000000 1 0 0
8.791261 -8.665619 -8.384920 14.922671 -0.778201 2.167467 0.017146 -0.006539 -458825.000000 1 0 0
11.993061 -4.864719 0.999580 12.980684 -0.385349 1.493715 0.011569 -0.004190 155350.000000 1 0 0
2.948261 4.836981 3.586880 6.704799 1.023403 1.006322 -0.003959 0.002614 -574752.000000 1 0 0
6.153661 7.497581 2.081080 9.920290 0.883529 1.359446 0.000937 0.001124 -436158.000000 1 0 0
-1.668039 -1.353419 -10.217520 10.440872 0.681644 2.934379 0.004955 -0.006959 1066410.000000 1 0 0
-0.885839 -8.507819 6.084780 10.497249 1.467050 0.952491 0.003036 -0.003301 -42983.200000 1 0 0
-4.274439 -0.308619 2.388580 4.906260 0.072076 1.062324 0.005973 -0.005999 73464.200000 1 0 0
-8.326539 6.032881 -8.024920 13.043245 -0.627004 2.233506 0.004213 -0.003707 -2171240.000000 1 0 0
6.290961 11.118481 -9.340720 15.825481 1.055895 2.202144 0.015456 -0.015672 554396.000000 1 0 0
-11.189039 -5.867619 3.099680 13.008903 0.482983 1.330208 0.007835 -0.004262 469952.000000 1 0 0
1.525561 -6.233919 2.978780 7.075466 -1.330794 1.136247 0.003489 -0.002379 940639.000000 1 0 0
10.145261 2.342581 7.247380 12.686155 0.226927 0.962729 0.004986 0.000301 -1020440.000000 1 0 0
-4.010739 -2.625319 -10.569020 11.605280 0.579583 2.715791 0.006527 -0.006613 -3984460.000000 1 0 0
-8.282039 11.719881 5.913780 15.521616 -0.955611 1.179916 0.003491 -0.006570 -716660.000000 1 0 0
6.878761 6.059581 -2.944520 9.628399 0.722168 1.881592 0.007556 -0.001251 -2535780.000000 1 0 0
3.926561 -9.929219 -2.232020 10.908217 -1.194214 1.776870 -0.000407 -0.003979 -2184330.000000 1 0 0
8.611861 -12.797519 -7.288220 17.060446 -0.978469 2.012190 0.026681 -0.007355 728622.000000 1 0 0
-1.183139 9.474281 3.683580 10.233796 -1.446560 1.202590 0.002340 0.001156 22733.500000 1 0 0
0.459261 -13.144719 4.666080 13.955890 -1.535872 1.229886 0.012786 -0.006642 -1772100.000000 1 0 0
-11.393139 -7.114019 -5.082020 14.361052 0.558177 1.932508 0.012423 -0.011008 -18317.100000 1 0 0
3.592861 10.286181 -3.429520 11.422599 1.234754 1.875740 0.009706 -0.003641 -1050490.000000 1 0 0
11.710961 -7.986519 -7.289020 15.939288 -0.598522 2.045752 0.035207 -0.014337 199556.000000 1 0 0
11.786161 -4.762019 -5.804820 13.974489 -0.383980 1.999164 0.020462 -0.009396 579014.000000 1 0 0
1.301461 -10.314019 -2.611720 10.718856 -1.445276 1.816931 -0.001759 -0.000098 -682781.000000 1 0 0
2.352561 -11.974319 -3.878520 12.804756 -1.376800 1.878527 0.000556 0.001504 -1866270.000000 1 0 0
-7.636839 -5.667919 7.160080 11.904342 0.638478 0.925459 0.002985 -0.002317 -2619930.000000 1 0 0
-7.280939 -0.918719 9.454680 11.968588 0.125518 0.660056 0.001597 -0.001496 470773.000000 1 0 0
16.183461 2.642381 -7.639920 18.090190 0.161848 2.006804 0.013917 0.003068 -234759.000000 1 0 0
-2.008539 6.380581 -5.462320 8.636144 -1.265827 2.255567 0.005108 -0.001666 -998562.000000 1 0 0
7.762761 1.312481 8.367280 11.488883 0.167490 0.754968 0.009583 -0.001400 -433823.000000 1 0 0
7.935061 8.314981 -3.798320 12.105013 0.808774 1.889969 0.008946 -0.002678 -683709.000000 1 0 0
8.058061 0.534381 3.912680 8.973682 0.066219 1.119628 0.001670 -0.000572 -103146.000000 1 0 0
-7.088339 5.942781 5.310980 10.666194 -0.697714 1.049590 0.007919 -0.007350 -101047.000000 1 0 0
-5.993539 -2.123019 -4.570820 7.830844 0.340428 2.194068 0.015080 -0.007995 -297364.000000 1 0 0
-15.171739 -2.179319 3.140180 15.645825 0.142667 1.368720 0.011739 -0.008243 -116084.000000 1 0 0
1.146561 1.286681 -10.513720 10.654035 0.842920 2.979117 0.005158 -0.010301 440427.000000 1 0 0
1.410561 -9.260719 9.298280 13.198811 -1.419642 0.789108 0.001482 -0.006074 158080.000000 1 0 0
-0.224139 -6.740319 -1.244720 6.857949 1.537555 1.753308 0.002847 -0.000391 1090280.000000 1 0 0
-0.394339 -10.282419 -8.383020 13.272478 1.532464 2.254423 0.001491 -0.001920 -187622.000000 1 0 0
-4.274239 6.541281 3.782980 8.681498 -0.992017 1.119923 0.004507 0.000922 -184740.000000 1 0 0
10.735061 -1.082419 -8.534820 13.757046 -0.100491 2.240044 0.021258 -0.004880 412734.000000 1 0 0
3.013661 -1.059319 6.298580 7.062324 -0.338016 0.469363 0.005577 -0.001365 476685.000000 1 0 0
1.969861 -12.322319 6.693380 14.160552 -1.412276 1.078469 0.007873 -0.007047 -82684.000000 1 0 0
2.920261 -5.063819 -1.384320 6.007207 -1.047692 1.803329 0.003599 -0.001422 -1618990.000000 1 0 0
-1.134739 9.475881 -1.660420 9.686947 -1.451614 1.743055 0.004400 0.001208 518569.000000 1 0 0
4.562661 -2.530519 2.677680 5.864416 -0.506379 1.096629 0.005309 -0.000810 -2272940.000000 1 0 0
17.871061 6.879781 -2.731420 19.343393 0.367481 1.712477 0.026864 0.004177 852094.000000 1 0 0
-7.098939 3.545681 -5.422120 9.610732 -0.463221 2.170228 0.007058 -0.006823 1409290.000000 1 0 0
-13.887739 -6.108419 2.229080 15.334630 0.414375 1.424917 0.006239 -0.008596 1884260.000000 1 0 0
6.745861 -6.063719 3.418380 9.693330 -0.732196 1.210392 0.001386 -0.000591 1422240.000000 1 0 0
-4.686739 1.983481 3.572680 6.218019 -0.400355 0.958719 0.007880 -0.005511 394650.000000 1 0 0
6.985661 -12.039319 -5.367020 14.918096 -1.045035 1.938813 0.011486 -0.000303 476249.000000 1 0 0
2.970061 -12.471319 3.412580 13.266528 -1.337000 1.310639 0.011056 -0.009351 -452440.000000 1 0 0
3.226461 11.329281 -6.042620 13.239181 1.293352 2.044763 0.004268 -0.003183 -109263.000000 1 0 0
-5.495739 -8.249219 6.411580 11.805131 0.983108 0.996650 0.007261 -0.002578 -159344.000000 1 0 0
-3.855239 6.634281 6.344680 9.956481 -1.044383 0.879883 0.006250 -0.002083 668790.000000 1 0 0
4.319961 4.348981 -6.905220 9.233513 0.788746 2.415604 0.003589 -0.003264 -1755580.000000 1 0 0
-0.242539 -2.668619 1.688780 3.167386 1.480160 1.008444 0.002892 -0.005604 1559280.000000 1 0 0
-13.190039 -0.921019 6.469880 14.720216 0.069714 1.115728 0.003979 -0.003664 -246294.000000 1 0 0
-0.512739 -9.166019 -5.927620 10.927740 1.514915 2.144133 -0.002044 -0.001423 -49866.100000 1 0 0
2.039361 -1.575719 -3.923320 4.694073 -0.657842 2.560390 0.003783 -0.003251 -980539.000000 1 0 0
11.309161 -1.927819 1.133980 11.528205 -0.168842 1.472271 0.007904 -0.004088 738131.000000 1 0 0
0.615761 -4.265119 -1.934520 4.723640 -1.427416 1.992746 0.001780 -0.001995 -3110300.000000 1 0 0
1.182261 -7.436419 -11.255220 13.541715 -1.413133 2.551972 -0.002240 -0.000726 -256682.000000 1 0 0
-4.440339 4.073781 -10.025720 11.697323 -0.742372 2.600401 0.002686 -0.007780 -134424.000000 1 0 0
-1.028739 5.782281 -2.138720 6.250376 -1.394726 1.920027 0.005386 0.000584 18491.000000 1 0 0
-11.426039 1.592081 -3.890620 12.174811 -0.138447 1.896065 0.009928 -0.001129 -309774.000000 1 0 0
-1.727239 -11.220319 4.113880 12.074888 1.418057 1.223138 0.008548 -0.002683 -456383.000000 1 0 0
-3.469839 -5.452819 -9.583820 11.559526 1.004085 2.548264 0.005310 -0.002742 -2196540.000000 1 0 0
-12.881739 -3.881419 -8.410820 15.866522 0.292660 2.129513 0.025055 -0.005035 -429690.000000 1 0 0
11.448761 4.495181 0.528880 12.310991 0.374141 1.527823 0.006147 0.002022 205945.000000 1 0 0
-8.970039 -2.372819 -3.122920 9.790021 0.258604 1.895460 0.011839 -0.005542 49259.800000 1 0 0
-2.426739 -6.098919 -6.400220 9.167808 1.192105 2.343563 0.002060 -0.006385 -722694.000000 1 0 0
-0.044839 2.724281 -1.989920 3.373944 -1.554339 2.201596 0.006938 -0.003175 -610714.000000 1 0 0
8.147761 6.114081 -5.176620 11.426521 0.643757 2.040964 0.008489 -0.004840 -505332.000000 1 0 0
-9.842139 -0.967119 -0.971620 9.937156 0.097949 1.668729 0.009904 -0.005431 -317483.000000 1 0 0
6.032361 0.550581 -8.784420 10.670452 0.091019 2.537904 0.004564 -0.004202 404831.000000 1 0 0
-4.054939 2.536781 7.781480 9.133959 -0.559033 0.551139 0.000480 -0.002828 -2694150.000000 1 0 0
-10.182839 -3.376719 1.355480 10.813407 0.320198 1.445114 0.008892 -0.006830 4078900.000000 1 0 0
-1.794139 -8.194119 -7.816620 11.465691 1.355244 2.320935 0.002051 -0.005033 529058.000000 1 0 0
-9.309839 -9.816119 4.192480 14.163551 0.811863 1.270289 0.010961 -0.002985 -756233.000000 1 0 0
-1.033139 -10.668919 7.389080 13.018898 1.474261 0.967250 0.005514 -0.004804 -297202.000000 1 0 0
9.429661 3.746581 -3.800720 10.835167 0.378193 1.929196 0.005245 -0.001671 -1208450.000000 1 0 0
12.753861 -0.818419 3.053680 13.139853 -0.064082 1.336254 0.009667 -0.001148 -1182380.000000 1 0 0
6.479861 11.891881 -6.855320 15.178960 1.071879 2.039391 0.009994 -0.005007 212497.000000 1 0 0
-11.910139 -0.221419 -6.576620 13.607071 0.018589 2.075244 0.012936 -0.000355 643554.000000 1 0 0
-7.525639 -6.624419 -11.386320 15.171238 0.721794 2.419645 0.015594 -0.008120 -364969.000000 1 0 0
4.210361 6.011681 6.636480 9.894964 0.959827 0.835654 -0.003143 0.004224 -4151780.000000 1 0 0
-4.148339 -1.388919 -7.481220 8.666399 0.323082 2.612458 0.008668 -0.011688 -1870280.000000 1 0 0
9.671261 9.344081 0.859180 13.475286 0.768194 1.506993 0.006490 -0.001369 -1092780.000000 1 0 0
-8.987639 4.011681 4.794380 10.947937 -0.419819 1.117507 0.008922 -0.006044 658887.000000 1 0 0
-6.986639 7.755781 -12.337120 16.160749 -0.837523 2.439357 0.000473 -0.002680 -448732.000000 1 0 0
11.252361 -3.676519 7.263980 13.888766 -0.315799 1.020416 0.015348 0.000169 1166260.000000 1 0 0
11.868961 6.979181 6.370580 15.171206 0.531564 1.137447 0.002573 0.002182 202979.000000 1 0 0
-9.748339 -0.969619 -14.875020 17.811134 0.099139 2.559207 0.013026 0.005854 197516.000000 1 0 0
1.826661 -13.150619 11.980980 17.883494 -1.432776 0.836660 -0.000975 -0.004413 -317053.000000 1 0 0
2.924761 3.051781 13.003280 13.673071 0.806648 0.314297 -0.000473 -0.003957 -1170190.000000 1 0 0
-2.648839 -1.406419 11.043580 11.443558 0.488105 0.265171 0.004901 -0.004840 -923030.000000 1 0 0
2.532661 -9.986219 -8.271720 13.212127 -1.322418 2.247300 -0.003709 0.001168 -549031.000000 1 0 0
13.898761 3.773681 -7.460520 16.219605 0.265121 2.048757 0.009925 -0.004093 -2368990.000000 1 0 0
7.331361 -1.568919 5.005980 9.014998 -0.210821 0.982079 0.001435 -0.000506 521794.000000 1 0 0
-1.252139 8.721181 10.139280 13.432492 -1.428196 0.715398 -0.001702 -0.002019 -125879.000000 1 0 0
-12.266039 -4.765619 0.967180 13.194782 0.370572 1.497430 0.007312 -0.005192 262307.000000 1 0 0
-4.919939 4.908781 -5.211720 8.686999 -0.784263 2.214228 0.004535 -0.004123 -142729.000000 1 0 0
-11.251439 0.281981 1.933380 11.419823 -0.025056 1.400677 0.002587 -0.003600 -2217900.000000 1 0 0
-1.457439 2.320881 -4.111820 4.941425 -1.010065 2.553702 0.007452 -0.006448 768555.000000 1 0 0
3.219061 -9.868819 13.011780 16.645190 -1.255493 0.673387 -0.000725 -0.004829 -2107090.000000 1 0 0
8.971061 4.710681 -1.504420 10.243716 0.483523 1.718192 0.006631 -0.002525 -1480440.000000 1 0 0
4.107761 2.344281 3.745980 6.033384 0.518593 0.900937 -0.004060 0.002671 -204612.000000 1 0 0
-5.520439 -3.130519 7.405980 9.753150 0.515860 0.708495 0.004565 -0.004765 -12293.200000 1 0 0
1.871361 -5.924819 7.621780 9.833463 -1.264861 0.683945 0.001955 -0.002189 -600113.000000 1 0 0
-5.825939 -6.217519 -9.750220 12.948587 0.817901 2.423398 0.014558 -0.006645 -317741.000000 1 0 0
-11.820139 -5.792019 5.484380 14.259789 0.455626 1.176017 0.014431 -0.003326 622964.000000 1 0 0
10.510361 6.313981 4.534580 13.072737 0.540962 1.216561 0.000263 0.003658 -728433.000000 1 0 0
1.546361 -3.728019 0.402680 4.056046 -1.177602 1.471354 0.006531 -0.002702 -591602.000000 1 0 0
8.796061 4.374881 6.888580 11.998450 0.461540 0.959264 0.004794 0.003181 393714.000000 1 0 0
-7.892939 12.072581 3.529080 14.849246 -0.991761 1.330840 0.001916 -0.006711 -156653.000000 1 0 0
-6.296939 13.244481 -7.041120 16.267916 -1.126990 2.018418 0.011301 -0.002254 337311.000000 1 0 0
4.503561 -7.032919 -0.808220 8.390306 -1.001232 1.667274 0.001936 -0.002405 -1325800.000000 1 0 0
-2.012639 -8.092219 11.139380 13.914759 1.327029 0.642594 0.005434 -0.008621 -854432.000000 1 0 0
11.591461 8.779081 -5.707120 15.620674 0.648204 1.944812 0.025165 -0.014335 309089.000000 1 0 0
-3.326739 -2.851419 -1.784320 4.730918 0.708614 1.957526 0.010615 -0.005594 -1357780.000000 1 0 0
-2.026839 6.050581 4.755580 7.958212 -1.247562 0.930331 0.000180 0.001516 -726788.000000 1 0 0
0.413761 -11.325919 -5.614320 12.647855 -1.534280 2.030737 -0.000926 -0.002477 -2000190.000000 1 0 0
-8.893639 6.202981 -1.610320 10.962067 -0.609021 1.718229 0.009674 -0.001889 -1014090.000000 1 0 0
2.972961 -0.046519 3.883580 4.891099 -0.015646 0.653420 0.001562 -0.000080 -515767.000000 1 0 0
-10.035739 3.863381 -1.091420 10.808930 -0.367476 1.671943 0.012427 -0.001723 -269423.000000 1 0 0
6.474161 5.450581 13.731280 16.129837 0.699771 0.552344 0.015841 0.000934 -612545.000000 1 0 0
-8.847839 -1.637019 5.718080 10.661169 0.182950 1.004694 0.004325 -0.004721 -441986.000000 1 0 0
12.950061 -1.780519 -1.422120 13.149021 -0.136635 1.679162 0.013745 -0.006031 -1394210.000000 1 0 0
5.149361 -5.585119 5.517080 9.388698 -0.825970 0.942670 0.003044 -0.000714 168069.000000 1 0 0
-9.100639 -1.188619 3.161280 9.707118 0.129873 1.239080 0.005601 -0.004224 344985.000000 1 0 0
2.096061 5.567681 5.663180 8.213656 1.210738 0.810021 -0.002721 0.001430 -1699710.000000 1 0 0
9.281861 3.080281 -7.317320 12.214100 0.320424 2.213158 0.006593 -0.004711 -1083570.000000 1 0 0
2.353661 -2.451119 -1.613620 3.761845 -0.805679 2.014120 0.004037 -0.000916 -751059.000000 1 0 0
-6.339539 0.303281 -3.977420 7.490101 -0.047803 2.130604 0.005930 -0.003800 -1940040.000000 1 0 0
-3.977739 4.285381 4.986880 7.684781 -0.822612 0.864620 0.004335 -0.001858 1415430.000000 1 0 0
-6.393639 1.702081 -12.221120 13.897175 -0.260180 2.645388 0.008091 -0.003280 -2537010.000000 1 0 0
-0.047139 3.129381 6.208280 6.952552 -1.555734 0.466940 0.001774 -0.001742 959808.000000 1 0 0
-8.734239 9.399481 -2.126320 13.006091 -0.822067 1.735020 0.006066 0.000057 -228745.000000 1 0 0
-1.288539 -3.704819 -6.145820 7.290893 1.236082 2.573530 -0.001128 -0.004500 185376.000000 1 0 0
-3.338239 7.106781 -2.966520 8.393474 -1.131660 1.932033 0.002655 0.003539 1142710.000000 1 0 0
7.035361 -0.359019 -4.228420 8.216127 -0.050986 2.111394 0.003668 -0.003524 -287923.000000 1 0 0
-5.140339 -10.822319 6.952980 13.852422 1.127368 1.044965 0.001129 -0.004071 297822.000000 1 0 0
9.738361 8.387781 -1.468320 12.936248 0.711026 1.684546 0.008692 -0.002372 -723815.000000 1 0 0
13.777461 4.628481 -4.231820 15.137687 0.324100 1.854127 0.007883 -0.005461 597026.000000 1 0 0
4.749761 1.117281 -6.713520 8.299391 0.231029 2.513104 0.000835 -0.004803 -98798.800000 1 0 0
9.066061 -4.741219 3.652680 10.863457 -0.481849 1.227880 0.004370 -0.000778 -266794.000000 1 0 0
-8.791039 -3.386619 -0.821920 9.456591 0.367714 1.657821 0.010435 -0.005842 -87427.800000 1 0 0
-8.473539 -4.281519 -10.366220 14.056699 0.467864 2.400095 0.013960 -0.009086 -25980.400000 1 0 0
10.446461 -1.115219 10.515180 14.864093 -0.106353 0.784953 0.015475 0.001002 1165360.000000 1 0 0
2.120461 -11.614719 9.807280 15.348642 -1.390218 0.877641 -0.002100 -0.006283 626743.000000 1 0 0
-6.386639 -10.574119 1.947180 12.505705 1.027450 1.414457 0.006363 0.000304 -801207.000000 1 0 0
-3.737239 -1.281719 6.515080 7.619450 0.330388 0.545132 0.008110 -0.007268 14929.300000 1 0 0
4.736161 -7.598419 3.992580 9.803463 -1.013414 1.151342 0.000679 0.001411 116471.000000 1 0 0
11.573961 -9.471619 -5.338420 15.879763 -0.685834 1.913652 0.028966 -0.009200 266818.000000 1 0 0
11.267461 1.161081 11.515380 16.152639 0.102685 0.777157 0.009934 0.003469 -538588.000000 1 0 0
-10.289339 -3.491419 4.268980 11.674104 0.327132 1.196434 0.007173 -0.004852 1614550.000000 1 0 0
2.024961 8.844181 8.967980 12.757142 1.345716 0.791221 -0.004905 0.001697 -120264.000000 1 0 0
6.594461 8.854181 4.221480 11.819658 0.930641 1.205573 0.004121 0.000579 170351.000000 1 0 0
-4.231839 3.499281 0.335780 5.501470 -0.690926 1.509724 0.008752 -0.004086 -926068.000000 1 0 0
4.924961 7.044181 4.351180 9.633716 0.960639 1.102169 0.000402 0.003218 -1031560.000000 1 0 0
-8.305839 13.176781 1.098580 15.614781 -1.008367 1.500383 0.004391 -0.001322 -50966.600000 1 0 0
8.803061 8.122081 -9.183020 15.092711 0.745185 2.224891 0.014198 -0.009444 -1125000.000000 1 0 0
7.083761 2.004681 5.998480 9.496324 0.275785 0.887099 0.001189 0.000904 -340642.000000 1 0 0
11.579061 -6.245819 3.187980 13.536917 -0.494674 1.333061 0.012457 -0.001205 -341528.000000 1 0 0
11.419861 4.680381 -2.113020 12.521343 0.388965 1.740361 0.006179 -0.000794 1889430.000000 1 0 0
-4.048139 14.296581 -5.999320 16.024091 -1.294865 1.954539 0.007906 -0.000378 585890.000000 1 0 0
7.276061 -2.874919 7.160080 10.605327 -0.376293 0.829642 0.005483 -0.002607 -1676740.000000 1 0 0
-8.008139 -0.456419 0.939580 8.075978 0.056933 1.454190 0.007749 -0.004922 64790.300000 1 0 0
-3.244039 1.030481 10.655080 11.185544 -0.307573 0.309205 -0.000355 -0.000681 -285964.000000 1 0 0
7.115661 -1.330519 -1.838020 7.468683 -0.184850 1.819448 0.003609 -0.003085 -1615530.000000 1 0 0
-7.686639 5.323981 2.915080 9.794227 -0.605761 1.268585 0.009952 -0.003089 871395.000000 1 0 0
9.504261 -2.173219 2.883380 10.166993 -0.224793 1.283248 0.002080 -0.002093 -1410560.000000 1 0 0
0.211161 3.358581 1.565280 3.711436 1.508007 1.135427 0.003733 0.000948 -4435480.000000 1 0 0
-7.677639 -3.088419 3.897880 9.147565 0.382455 1.130607 0.005481 -0.004894 -1000780.000000 1 0 0
-2.342239 8.387081 -6.773820 11.032400 -1.298467 2.231906 0.001941 -0.001902 -305599.000000 1 0 0
4.488061 9.871081 7.303180 13.073537 1.144068 0.978072 0.000150 0.005059 338250.000000 1 0 0
-11.837839 -3.115419 6.860080 14.032140 0.257339 1.059987 0.007262 -0.003238 -1451200.000000 1 0 0
-4.764839 2.283881 -5.677920 7.756196 -0.446967 2.392122 0.008056 -0.008335 -36984.900000 1 0 0
-2.713639 2.919281 -1.802220 4.374247 -0.821889 1.995452 0.007579 -0.002771 1642620.000000 1 0 0
2.335161 5.192681 11.472380 12.807514 1.148190 0.460672 -0.000162 -0.003619 320269.000000 1 0 0
-0.770539 1.650581 4.537780 4.889744 -1.134036 0.381734 0.007691 -0.004224 -123777.000000 1 0 0
5.084761 1.508481 7.699980 9.349866 0.288396 0.603174 0.000149 0.002054 1101070.000000 1 0 0
3.342161 -8.173419 1.911780 9.034917 -1.182636 1.357586 0.001135 -0.000517 2202420.000000 1 0 0
5.058161 6.390481 -4.690920 9.403615 0.901251 2.093059 0.008744 -0.003619 -1725740.000000 1 0 0
-4.016839 2.975981 -7.942920 9.385171 -0.637636 2.579847 0.010908 -0.014310 268418.000000 1 0 0
-8.622939 -2.237419 -12.938320 15.708636 0.253874 2.538603 0.016302 -0.003620 -524144.000000 1 0 0
-7.804739 8.104481 1.580680 11.362003 -0.804237 1.431224 0.006296 -0.000364 -2257440.000000 1 0 0
7.424261 0.843081 -6.537520 9.928223 0.113073 2.289592 0.003923 -0.004291 265778.000000 1 0 0
9.091161 8.900481 5.481980 13.853515 0.774800 1.163955 0.000736 0.002371 822311.000000 1 0 0
9.405361 -1.020119 -1.375320 9.559967 -0.108039 1.715160 0.005602 -0.004432 486868.000000 1 0 0
5.413161 0.124081 4.254180 6.885910 0.022918 0.904843 -0.001364 0.002739 -1391150.000000 1 0 0
-4.217439 -7.264519 -7.908620 11.537171 1.044799 2.326073 0.012109 -0.007937 -668887.000000 1 0 0
-2.204639 7.447581 -0.532120 7.785245 -1.282994 1.639199 0.003951 0.001662 554441.000000 1 0 0
13.334361 -3.362119 -7.394120 15.613521 -0.246991 2.064138 0.024583 -0.006917 715049.000000 1 0 0
-4.703639 -5.050519 1.628480 7.091115 0.820945 1.339078 0.009802 -0.004553 2065430.000000 1 0 0
-9.047439 1.280481 2.539680 9.483974 -0.140596 1.299701 0.005922 -0.003716 -1901280.000000 1 0 0
-1.055539 11.190081 10.175380 15.161478 -1.476747 0.835059 0.000792 -0.004482 336178.000000 1 0 0
-8.515639 0.397281 7.399880 11.288585 -0.046619 0.855927 0.001253 -0.002565 -1541080.000000 1 0 0
-6.150839 13.021081 -2.128820 14.557240 -1.129492 1.717561 0.004652 0.004188 352135.000000 1 0 0
-12.918439 -0.866319 3.267280 13.353340 0.066960 1.323608 0.007092 -0.007530 734284.000000 1 0 0
-6.707839 12.813681 8.619880 16.837097 -1.088533 1.033334 0.010358 -0.010689 579648.000000 1 0 0
-8.006139 0.815881 -13.988620 16.138321 -0.101556 2.619536 0.012598 0.000641 278439.000000 1 0 0
7.398661 2.938881 3.719780 8.787148 0.378106 1.133689 0.000903 0.002017 -470936.000000 1 0 0
-1.645839 0.634981 -2.085320 2.731400 -0.368214 2.439453 0.005688 -0.005200 534815.000000 1 0 0
-6.347039 9.567681 -10.392320 15.486308 -0.985070 2.306441 -0.000636 -0.000323 -438052.000000 1 0 0
-10.040639 13.608381 5.241280 17.705182 -0.935131 1.270262 -0.001620 -0.009628 262364.000000 1 0 0
-5.588539 8.394881 2.411880 10.369328 -0.983458 1.336049 0.003278 -0.000418 -1547620.000000 1 0 0
-2.373739 -10.628519 -1.241520 10.960905 1.351066 1.684308 0.004767 -0.000834 596426.000000 1 0 0
-2.195139 -12.320019 8.844380 15.323987 1.394470 0.955551 0.004608 -0.008636 347242.000000 1 0 0
-14.779939 -6.458419 -1.535420 16.202324 0.411967 1.665704 0.013677 -0.007392 231278.000000 1 0 0
-2.789939 -9.399219 3.262480 10.333095 1.282253 1.249569 0.005306 -0.002219 -920388.000000 1 0 0
4.786861 -2.613519 7.498680 9.272255 -0.499750 0.628820 0.004221 0.000328 -1343910.000000 1 0 0
-15.104639 -1.412319 -0.266020 15.172855 0.093231 1.588330 0.007156 -0.007692 -194247.000000 1 0 0
5.520861 8.721381 -2.818220 10.699755 1.006446 1.837332 0.007610 -0.003234 -429519.000000 1 0 0
-5.664439 -5.578219 8.526080 11.657463 0.777729 0.750447 0.007970 -0.002605 -2581980.000000 1 0 0
3.344061 3.560081 7.087380 8.607431 0.816676 0.603415 -0.001260 0.001194 268540.000000 1 0 0
3.269061 2.263081 9.337280 10.148551 0.605521 0.402562 0.003218 -0.003084 -1478750.000000 1 0 0
10.078461 -3.286519 5.255080 11.831840 -0.315220 1.110574 0.010195 -0.002660 -349315.000000 1 0 0
6.484161 9.996881 -5.052720 12.942641 0.995393 1.971855 0.007089 -0.004113 265395.000000 1 0 0
-4.632939 12.022981 -8.606320 15.494674 -1.202991 2.159685 0.003952 -0.000764 200097.000000 1 0 0
-3.313139 -7.224319 2.160580 8.236248 1.140806 1.305365 0.008540 -0.004129 968232.000000 1 0 0
-7.384639 -4.034319 1.093880 8.485588 0.500008 1.441526 0.010731 -0.004890 3442050.000000 1 0 0
-1.944039 -4.052319 -10.841120 11.735862 1.123492 2.748581 0.007483 -0.005013 -620766.000000 1 0 0
-5.334539 8.293281 -4.422220 10.807027 -0.999191 1.992372 0.004160 -0.000798 -1884980.000000 1 0 0
-10.915739 -3.294219 -10.164920 15.275171 0.293095 2.298898 0.021114 -0.006807 -349306.000000 1 0 0
4.719461 -11.264119 -7.646520 14.409128 -1.174034 2.130190 -0.000567 -0.000795 -1917010.000000 1 0 0
-9.380839 -3.927019 7.224380 12.474505 0.396455 0.953133 0.003173 -0.001669 -470348.000000 1 0 0
-5.778839 -9.573519 -5.089020 12.285983 1.027714 1.997875 0.014856 -0.009441 -1453470.000000 1 0 0
4.845161 4.416081 -9.483520 11.528855 0.739101 2.536747 0.002076 -0.002280 -22532.700000 1 0 0
-3.448939 -7.169819 -14.136620 16.221761 1.122435 2.628968 0.010916 -0.000913 -409309.000000 1 0 0
0.676461 -0.781819 -8.819320 8.879710 -0.857521 3.024900 0.002080 -0.010366 173244.000000 1 0 0
-7.706939 2.182081 -2.934720 8.530590 -0.275911 1.921995 0.007676 -0.003593 -722893.000000 1 0 0
-2.401339 7.534581 -12.547520 14.831608 -1.262265 2.579232 0.003832 -0.006730 -94922.200000 1 0 0
-9.841039 8.856981 7.584980 15.258574 -0.732818 1.050547 0.006873 -0.008567 -535237.000000 1 0 0
-10.565839 -3.318919 -14.207020 18.013650 0.304358 2.479457 0.029637 -0.000520 -1024690.000000 1 0 0
-3.153039 4.848081 7.879980 9.774437 -0.994162 0.633125 0.000929 -0.001751 -262402.000000 1 0 0
8.755161 -2.281819 -3.520820 9.708538 -0.254954 1.941908 0.006237 -0.004006 -4984110.000000 1 0 0
2.004861 -8.418619 -1.117020 8.725844 -1.337005 1.699161 0.000078 0.000808 436065.000000 1 0 0
-13.575539 -2.940919 4.988880 14.759173 0.213337 1.225985 0.016472 -0.009707 494507.000000 1 0 0
7.150861 2.734681 -2.011520 7.915776 0.365266 1.827729 0.005226 -0.002060 925497.000000 1 0 0
-11.140239 4.390481 8.760080 14.836450 -0.375419 0.939189 0.005403 -0.008580 -2778210.000000 1 0 0
-1.748239 -2.607619 7.762680 8.373483 0.980189 0.384316 0.004427 -0.005823 -37213.500000 1 0 0
2.794161 11.924881 -9.875120 15.733026 1.340635 2.249351 0.000936 -0.009358 67670.500000 1 0 0
3.652361 -5.018919 -7.041020 9.386440 -0.941708 2.419050 -0.000983 -0.006699 297524.000000 1 0 0
8.404161 -13.732719 -9.700720 18.796847 -1.021614 2.113067 0.034037 -0.003643 160186.000000 1 0 0
-6.180139 -5.841819 -0.387320 8.512989 0.757264 1.616310 0.016095 -0.005646 -208962.000000 1 0 0
-1.238139 -3.983519 9.830480 10.678939 1.269447 0.401314 0.004603 -0.005302 1243080.000000 1 0 0
2.732061 3.467181 1.882280 4.798799 0.903429 1.167731 -0.001917 0.004249 -8104.490000 1 0 0
-9.162939 13.361681 7.727780 17.950280 -0.969690 1.125738 0.009379 -0.016855 -574327.000000 1 0 0
4.138761 -11.161919 0.029180 11.904564 -1.215719 1.568345 0.002605 -0.001130 -169656.000000 1 0 0
-12.482239 -1.552319 -9.125620 15.540043 0.123727 2.198432 0.017783 -0.005454 473895.000000 1 0 0
-4.272739 0.958881 -13.505420 14.197610 -0.220761 2.828047 0.004647 -0.004529 238760.000000 1 0 0
4.067161 -3.052819 5.029480 7.152424 -0.643886 0.790929 0.004045 -0.000254 -9323.790000 1 0 0
1.785361 -1.141719 1.144780 2.408642 -0.568951 1.075514 0.003619 -0.003163 419734.000000 1 0 0
8.162461 -9.063919 7.433680 14.284257 -0.837681 1.023465 0.006410 -0.003547 -1222170.000000 1 0 0
-0.071339 2.272781 -6.359820 6.754105 -1.539418 2.798215 0.004162 -0.007708 -1663490.000000 1 0 0
-3.859539 -9.862419 -3.369120 11.113700 1.197779 1.878793 0.009189 -0.006589 753796.000000 1 0 0
-9.475339 2.246381 -5.453120 11.160860 -0.232779 2.081273 0.009026 -0.002864 -646046.000000 1 0 0
9.004561 -7.624819 5.322780 12.944187 -0.702618 1.147015 0.001860 -0.000724 1358630.000000 1 0 0
-5.527339 -4.281619 4.612280 8.375970 0.659076 0.987646 0.003449 -0.004440 369836.000000 1 0 0
-0.202039 -12.461619 10.488780 16.289484 1.554585 0.871213 0.006255 -0.006110 -2141460.000000 1 0 0
-14.266939 -8.350719 3.142080 16.827143 0.529555 1.382967 0.015438 -0.006972 -1521170.000000 1 0 0
11.039561 -1.328919 -3.534120 11.667388 -0.119801 1.878537 0.018089 -0.004547 -89915.000000 1 0 0
-13.806839 2.967881 2.632680 14.365519 -0.211735 1.386491 0.005742 -0.002461 -274179.000000 1 0 0
-6.284439 6.165781 0.956480 8.855839 -0.775868 1.462580 0.006697 -0.000281 1361740.000000 1 0 0
7.130661 -6.882019 -0.293720 9.914373 -0.767656 1.600426 0.000981 -0.003401 -509983.000000 1 0 0
-6.720739 7.914681 9.993280 14.410973 -0.866797 0.804531 0.006979 -0.006033 -72610.100000 1 0 0
-12.668839 -5.157819 -1.952320 13.817168 0.386635 1.712567 0.005599 -0.007794 -2339780.000000 1 0 0
-9.388039 -5.673919 0.163280 10.970656 0.543632 1.555912 0.010256 -0.005942 -468608.000000 1 0 0
-1.823839 1.893281 2.221680 3.441913 -0.804078 0.869147 0.006685 -0.002929 -55442.700000 1 0 0
-7.169639 7.414081 7.422080 12.706675 -0.802158 0.947015 0.006670 -0.007235 -449077.000000 1 0 0
5.641961 7.179081 -0.377420 9.138565 0.904719 1.612108 0.004935 -0.000351 -1176250.000000 1 0 0
0.019661 -4.141519 7.467180 8.538814 -1.566049 0.506395 0.006581 -0.004569 -348813.000000 1 0 0
6.434061 0.697081 13.018280 14.538180 0.107921 0.461345 0.009034 -0.002187 616684.000000 1 0 0
5.813461 6.145281 -7.891420 11.568721 0.813138 2.321474 0.002931 -0.003887 -334156.000000 1 0 0
10.029861 5.314181 9.000480 14.486106 0.487230 0.900373 0.007529 0.001045 -493215.000000 1 0 0
-1.184339 -5.032919 -8.440220 9.897992 1.339683 2.591968 0.003408 -0.004933 694116.000000 1 0 0
10.026861 -3.493419 -7.867820 13.215314 -0.335254 2.208505 0.020890 -0.011662 509476.000000 1 0 0
8.401961 -5.382519 1.331580 10.066656 -0.569758 1.438131 0.002701 -0.001712 1255970.000000 1 0 0
15.774461 3.252581 -5.109020 16.897189 0.203343 1.877963 0.015887 0.003834 -535330.000000 1 0 0
-6.832739 3.537381 1.132080 7.776952 -0.477715 1.424709 0.007877 -0.003914 752239.000000 1 0 0
-1.787239 3.874981 0.305580 4.278210 -1.138647 1.499308 0.006558 -0.002929 -1444750.000000 1 0 0
-2.644639 10.138281 6.923180 12.558235 -1.315626 0.986891 0.002718 0.001078 -349561.000000 1 0 0
5.605961 -5.791219 -8.690120 11.852561 -0.801651 2.393790 0.004918 -0.005349 735016.000000 1 0 0
-1.205239 -0.832419 6.225880 6.395866 0.604435 0.231067 0.007126 -0.007783 -365154.000000 1 0 0
-5.618439 4.973581 -7.806620 10.828051 -0.724592 2.375987 0.003052 -0.005452 -289766.000000 1 0 0
6.744261 -1.197419 2.559180 7.312200 -0.175715 1.213238 0.001428 0.000876 -1325700.000000 1 0 0
8.797061 7.648981 3.226180 12.095595 0.715702 1.300805 0.004923 0.000509 -157674.000000 1 0 0
-5.319539 -4.817919 -7.715420 10.537436 0.735957 2.392330 0.013520 -0.008825 1525280.000000 1 0 0
-2.369539 7.875881 -10.018120 12.961749 -1.278551 2.454193 0.004879 -0.004281 778023.000000 1 0 0
-2.874239 -2.370119 1.698580 4.094373 0.689567 1.143011 0.004392 -0.002467 -114647.000000 1 0 0
5.996961 -2.064719 -9.129120 11.116089 -0.331583 2.534400 0.004277 -0.003848 1049300.000000 1 0 0
1.173761 -7.545819 5.138780 9.204573 -1.416482 0.978478 0.002710 -0.000180 79622.700000 1 0 0
1.717161 11.727981 1.143580 11.908062 1.425414 1.474614 0.004050 -0.001328 -294815.000000 1 0 0
-0.977339 7.039281 2.524480 7.541861 -1.432838 1.229479 0.002292 0.002562 522048.000000 1 0 0
8.902261 7.937281 -6.677020 13.668697 0.728156 2.081155 0.013879 -0.009727 -144918.000000 1 0 0
3.743861 -11.103219 5.461980 12.927923 -1.245582 1.134600 0.009133 -0.005103 -64689.400000 1 0 0
7.924661 -7.065719 12.453480 16.365018 -0.728161 0.705971 0.013164 0.001423 231764.000000 1 0 0
-8.846439 0.086981 -3.898820 9.667877 -0.009832 1.985890 0.009002 -0.004440 -1612070.000000 1 0 0
-3.300039 -5.065419 11.267080 12.786548 0.993379 0.492472 0.006795 -0.007242 80399.400000 1 0 0
-8.115139 0.038581 -11.485520 14.063220 -0.004754 2.526476 0.014112 -0.007454 -1423710.000000 1 0 0
1.477761 -5.029119 5.297080 7.452172 -1.285000 0.780147 0.004973 -0.001529 -718160.000000 1 0 0
6.682761 3.766681 -7.637920 10.825202 0.513256 2.354021 0.003194 -0.002872 -902576.000000 1 0 0
16.340061 4.287681 -1.247320 16.939233 0.256618 1.644498 0.023955 0.003700 -734793.000000 1 0 0
7.921761 7.590381 0.111580 10.971811 0.764039 1.560626 0.005112 -0.001418 -2227240.000000 1 0 0
5.565261 -10.419719 13.879880 18.226183 -1.080236 0.705118 0.006949 -0.002657 783211.000000 1 0 0
-5.050839 -9.322119 8.990380 13.901072 1.074261 0.867494 0.000804 -0.007852 508667.000000 1 0 0
-12.648939 -3.272719 2.797580 13.361617 0.253183 1.359861 0.007452 -0.005139 -64187.100000 1 0 0
-2.017439 -1.271519 -5.875120 6.340651 0.562376 2.756011 0.007833 -0.008852 -1139100.000000 1 0 0
-2.455139 13.094081 -4.363520 14.018665 -1.385448 1.887320 0.006800 0.002307 693882.000000 1 0 0
3.911361 -0.456319 -4.940520 6.317888 -0.116140 2.468647 0.002430 -0.003974 -477267.000000 1 0 0
-9.034839 3.699781 -7.418820 12.261957 -0.388670 2.220597 0.009244 -0.004773 810866.000000 1 0 0
-4.662639 7.935281 -11.346720 14.610166 -1.039557 2.460098 -0.001558 -0.003164 -3035090.000000 1 0 0
-10.145339 -6.365719 7.368480 14.062176 0.560361 1.019264 0.006581 -0.001047 -1628050.000000 1 0 0
8.058361 5.335781 4.179380 10.529718 0.584864 1.162645 0.000808 0.002306 -1591010.000000 1 0 0
-6.693539 -7.524519 4.016880 10.842379 0.843777 1.191271 0.010319 -0.002451 -544369.000000 1 0 0
-4.078639 11.869881 8.035680 14.903071 -1.239823 1.001314 0.003065 -0.006372 40515.700000 1 0 0
-7.262839 9.891581 -7.949120 14.621242 -0.937455 2.145599 0.004050 -0.003404 -339114.000000 1 0 0
13.139561 5.555781 4.547780 14.973211 0.400030 1.262194 0.002463 -0.000698 1733450.000000 1 0 0
5.507361 3.995381 -3.795820 7.791171 0.627611 2.079671 0.004442 -0.001588 325213.000000 1 0 0
-2.911539 -4.093319 5.154280 7.197147 0.952533 0.772517 0.005695 -0.004950 -2098300.000000 1 0 0
12.548861 -2.232019 -5.317920 13.810724 -0.176025 1.966066 0.021228 -0.008576 -2396240.000000 1 0 0
-5.271639 9.813381 7.032880 13.173990 -1.077842 1.007654 0.002526 -0.002288 -239905.000000 1 0 0
1.688461 3.683081 -0.459320 4.077617 1.140948 1.683680 0.004792 -0.001274 741500.000000 1 0 0
-0.048739 9.720881 7.735780 12.423373 -1.565783 0.898634 -0.002171 0.001071 -632383.000000 1 0 0
-5.420739 2.169681 5.840880 8.258802 -0.380727 0.785223 0.004717 -0.005070 860637.000000 1 0 0
8.871761 0.952781 10.705880 13.936707 0.106985 0.694805 0.015379 0.001408 -2475960.000000 1 0 0
0.466161 -2.931319 -10.055920 10.484821 -1.413089 2.854578 0.001757 -0.005217 -1989930.000000 1 0 0
1.192461 10.541981 -2.642920 10.933451 1.458160 1.814943 0.007657 -0.000256 112083.000000 1 0 0
2.359461 -4.218719 11.745680 12.701403 -1.060853 0.390406 0.003875 -0.004596 -140374.000000 1 0 0
6.578261 -3.058919 9.537180 11.982834 -0.435261 0.650298 0.007765 -0.001240 277575.000000 1 0 0
-10.640839 -8.235719 5.738980 14.628411 0.658668 1.167647 0.014914 -0.003956 -840524.000000 1 0 0
-2.957339 0.844381 -7.009820 7.654829 -0.278120 2.728138 0.009586 -0.009033 847137.000000 1 0 0
11.052561 2.637681 -5.019820 12.422361 0.234267 1.986786 0.009239 -0.004190 -3177840.000000 1 0 0
-1.913739 -3.967519 0.036980 4.405108 1.121367 1.562401 0.006123 -0.004400 1157450.000000 1 0 0
-1.212139 -6.506019 -10.582120 12.481139 1.386598 2.582712 0.004357 -0.003037 966187.000000 1 0 0
0.327761 6.799881 -6.650220 9.516892 1.522633 2.344488 0.007293 -0.002741 -2584790.000000 1 0 0
1.943161 3.904681 -6.183220 7.566678 1.109031 2.527271 0.004154 -0.004320 -1735500.000000 1 0 0
1.511561 -14.832419 6.328080 16.196607 -1.469238 1.169400 0.021671 -0.008738 -504128.000000 1 0 0
-1.695739 5.352781 -10.489020 11.897367 -1.264003 2.650091 0.007360 -0.006727 -407400.000000 1 0 0
13.719461 4.383181 -0.849920 14.427690 0.309237 1.629739 0.006341 -0.001732 -2021270.000000 1 0 0
-2.334239 3.304581 -6.281120 7.471372 -0.955812 2.569356 0.008977 -0.008404 -646565.000000 1 0 0
5.696461 7.803581 14.238980 17.207385 0.940231 0.596170 0.009833 0.000199 518124.000000 1 0 0
15.997961 0.691481 -5.704220 16.998560 0.043196 1.913007 0.016934 0.001743 -91026.800000 1 0 0
6.201261 -8.350919 10.638180 14.878318 -0.932058 0.774155 0.001469 0.001874 714605.000000 1 0 0
0.107761 -5.863819 -6.453320 8.720168 -1.552421 2.403934 -0.000983 -0.004173 -944172.000000 1 0 0
8.687961 5.531281 -7.534020 12.760768 0.566940 2.202357 0.007077 -0.005102 -361065.000000 1 0 0
-16.063839 -0.859819 5.282480 16.931946 0.053474 1.253517 0.022527 -0.013341 -113822.000000 1 0 0
-0.361239 4.010881 -12.212420 12.859272 -1.480974 2.823065 0.008012 -0.007667 301934.000000 1 0 0
-11.396139 3.728481 5.792180 13.316264 -0.316194 1.120791 0.006174 -0.007796 -223054.000000 1 0 0
5.324261 -9.565519 -9.648220 14.592295 -1.062893 2.293195 -0.005291 0.000230 353925.000000 1 0 0
1.474061 11.009981 -11.857820 16.248090 1.437704 2.388822 0.000989 -0.002985 -3679390.000000 1 0 0
6.134461 2.388881 1.203680 6.692325 0.371352 1.389952 0.005206 0.002265 -208914.000000 1 0 0
5.756461 4.538181 4.980480 8.862116 0.667605 0.973999 -0.001400 0.002430 -548151.000000 1 0 0
0.460761 -1.592019 -6.354920 6.567483 -1.289075 2.886477 -0.000196 -0.006379 -1834590.000000 1 0 0
12.895061 6.910481 -4.556720 15.323219 0.491955 1.872737 0.016747 -0.009943 -101357.000000 1 0 0
7.385061 3.209381 12.637780 14.985084 0.409955 0.567296 0.009802 -0.000388 -560452.000000 1 0 0
-2.478239 -0.405419 8.608980 8.967751 0.162155 0.283819 0.003477 -0.004437 944250.000000 1 0 0
2.282761 -15.375519 13.184480 20.382544 -1.423406 0.867348 0.008708 -0.009561 -397727.000000 1 0 0
18.906061 4.733781 -1.611420 19.556188 0.245340 1.653289 0.019924 -0.001510 595644.000000 1 0 0
-0.349439 -13.207019 7.246380 15.068427 1.544344 1.069117 0.004319 -0.006875 -1208500.000000 1 0 0
4.444561 1.568481 -0.621820 4.754042 0.339255 1.701970 0.003929 -0.000411 904099.000000 1 0 0
2.750661 -0.455119 -7.292220 7.807032 -0.163973 2.776408 0.000429 -0.005753 214558.000000 1 0 0
7.215961 -11.363619 0.885880 13.490245 -1.005034 1.505081 0.004853 0.000258 165822.000000 1 0 0
-11.815039 -7.463119 1.252380 14.030743 0.563376 1.481418 0.009133 -0.002099 590477.000000 1 0 0
0.096161 -6.996919 10.016380 12.218592 -1.557054 0.609795 0.003383 -0.004810 -1415160.000000 1 0 0
-4.695239 -7.150419 10.516080 13.555873 0.989769 0.682881 0.006505 -0.004659 -1307120.000000 1 0 0
11.950161 0.813981 -1.647820 12.090667 0.068010 1.707510 0.004839 -0.000877 1616450.000000 1 0 0
6.529261 -9.529219 -7.412020 13.724989 -0.970084 2.141279 0.000169 -0.004496 897534.000000 1 0 0
-10.997439 4.818381 3.451380 12.492897 -0.412945 1.290888 0.007297 -0.004746 97399.000000 1 0 0
5.993861 -9.147219 2.101480 11.136167 -0.990728 1.380950 0.000498 -0.001282 4024250.000000 1 0 0
11.736461 -1.399619 5.933580 13.225385 -0.118693 1.105541 0.011779 -0.004803 -764237.000000 1 0 0
-6.590739 3.568381 4.190080 8.586498 -0.496235 1.061017 0.003752 -0.004195 -766077.000000 1 0 0
9.532861 6.308381 -3.198120 11.870092 0.584592 1.843594 0.009263 -0.003298 -733167.000000 1 0 0
-2.363239 6.550081 10.858280 12.899252 -1.224537 0.570232 -0.004851 -0.003404 -32067.800000 1 0 0
1.893361 9.839681 2.980180 10.453975 1.380699 1.281710 0.000181 0.001452 -52867.800000 1 0 0
2.870261 6.129581 -5.645420 8.813678 1.132858 2.265984 0.004797 -0.003204 -2183610.000000 1 0 0
11.937361 0.145081 -5.629620 13.199025 0.012153 2.011436 0.013224 -0.003830 663130.000000 1 0 0
-2.532539 -12.438119 6.275580 14.159925 1.369931 1.111639 0.003688 -0.001760 -797731.000000 1 0 0
10.874361 1.834181 -2.757420 11.367467 0.167097 1.815812 0.005568 -0.002446 328019.000000 1 0 0
-8.842139 5.189081 0.745980 10.279420 -0.530700 1.498162 0.006996 -0.001091 297013.000000 1 0 0
1.192861 -10.196119 5.496680 11.644623 -1.454334 1.079198 0.003104 -0.003001 -562373.000000 1 0 0
9.406561 -5.740419 -1.057420 11.070408 -0.547927 1.666460 0.007101 -0.005224 325002.000000 1 0 0
-7.782839 8.675981 -4.622620 12.538494 -0.839610 1.948379 0.005612 -0.002241 -1092450.000000 1 0 0
-7.496939 -0.102619 -1.633720 7.673569 0.013687 1.785341 0.009356 -0.004689 -1812450.000000 1 0 0
4.190161 8.884081 2.743380 10.198552 1.130086 1.298445 0.003165 -0.000125 864553.000000 1 0 0
-1.290939 -10.403519 -3.710220 11.120498 1.447341 1.910956 0.005392 -0.002753 -192123.000000 1 0 0
3.204961 7.837881 -3.663520 9.226350 1.182636 1.979120 0.008088 -0.003626 -537455.000000 1 0 0
-4.269039 1.597881 -10.989520 11.897372 -0.358153 2.748407 0.004945 -0.007629 -612664.000000 1 0 0
1.245861 2.733781 11.000080 11.402959 1.143189 0.266613 0.003305 -0.004649 567397.000000 1 0 0
2.114261 5.551881 -8.077320 10.026793 1.206934 2.507439 0.005365 -0.003663 465443.000000 1 0 0
15.597061 6.090381 3.999080 17.214926 0.372275 1.336351 0.019179 -0.004806 114116.000000 1 0 0
-4.396639 9.008881 4.675180 11.061088 -1.116767 1.134408 0.002687 -0.001201 243722.000000 1 0 0
-0.967339 -8.187219 -12.359220 14.856535 1.453189 2.553328 0.004484 -0.000579 422292.000000 1 0 0
14.308361 -4.129219 -5.177220 15.766523 -0.280954 1.905371 0.026118 -0.007142 -674777.000000 1 0 0
-5.781039 -6.091119 -5.530520 10.055287 0.811511 2.153174 0.019491 -0.008008 524220.000000 1 0 0
-8.883239 2.476981 -11.991220 15.127350 -0.271930 2.485997 0.014650 -0.003451 865588.000000 1 0 0
10.532561 5.392881 13.872280 18.233435 0.473217 0.706228 0.028129 0.002104 642768.000000 1 0 0
-0.505439 10.957381 5.551680 12.293934 -1.524701 1.102262 0.001353 0.003646 861328.000000 1 0 0
0.179461 11.253181 -0.573420 11.269210 1.554850 1.621702 0.007062 -0.000237 -56127.200000 1 0 0
-1.531639 -0.573019 3.675480 4.022862 0.358000 0.418627 0.006924 -0.004989 -44416.600000 1 0 0
-4.858639 6.714481 8.690980 12.009319 -0.944402 0.761667 0.002890 -0.002422 -1027710.000000 1 0 0
3.553161 -8.764219 -11.373420 14.791592 -1.185629 2.447933 -0.006510 0.001789 481347.000000 1 0 0
6.739661 -3.808919 12.072680 14.341565 -0.514400 0.570194 0.011545 -0.000827 -688870.000000 1 0 0
-2.367639 -1.880919 -12.410620 12.773686 0.671334 2.902600 0.005592 -0.008818 793996.000000 1 0 0
-16.133239 -4.947819 5.405180 17.719432 0.297578 1.260813 0.031640 -0.013262 1056680.000000 1 0 0
-8.994639 7.327381 5.703080 12.927458 -0.683603 1.113905 0.006175 -0.005328 -5011520.000000 1 0 0
-12.984539 1.547081 5.985080 14.380991 -0.118589 1.141556 0.003386 -0.007386 486484.000000 1 0 0
-3.552639 3.573281 10.067780 11.258320 -0.788295 0.464038 0.000698 -0.001137 596175.000000 1 0 0
2.058761 -12.253619 -1.100920 12.474041 -1.404338 1.659168 0.005952 0.000425 -3021860.000000 1 0 0
10.227761 -5.075719 -3.551820 11.957652 -0.460658 1.872380 0.017266 -0.006769 780981.000000 1 0 0
3.107561 -13.456019 1.076580 13.852091 -1.343833 1.492998 0.012587 -0.004179 199048.000000 1 0 0
10.116161 -1.607419 -6.035620 11.889038 -0.157579 2.103266 0.016058 -0.006454 -383680.000000 1 0 0
11.986161 -5.378819 -1.578920 13.232261 -0.421816 1.690405 0.018731 -0.005707 27661.200000 1 0 0
1.368761 0.914181 5.918180 6.142808 0.588849 0.271266 0.003519 -0.003243 273893.000000 1 0 0
-10.834139 11.682981 6.643480 17.262863 -0.823078 1.175759 0.005184 -0.009195 -334242.000000 1 0 0
4.818961 -14.240019 3.128280 15.355347 -1.244484 1.365634 0.014531 -0.008042 -3215740.000000 1 0 0
5.282161 -3.505019 -1.684620 6.559293 -0.585847 1.830537 0.002820 -0.002407 -1750000.000000 1 0 0
2.067661 -2.920719 -7.698920 8.489947 -0.954769 2.706493 -0.001654 -0.005693 -170033.000000 1 0 0
-2.887339 14.882681 -8.795720 17.526996 -1.379170 2.096519 0.009348 -0.005888 -1391630.000000 1 0 0
-2.239039 6.082781 -8.067220 10.348602 -1.218093 2.464738 0.007675 -0.006607 -525935.000000 1 0 0
2.577661 -3.544319 -11.253620 12.076858 -0.942005 2.770229 0.001242 -0.000674 -1953250.000000 1 0 0
14.778061 2.773981 -2.678920 15.272939 0.185550 1.747111 0.017492 0.003368 524112.000000 1 0 0
-3.628539 13.161781 2.307880 13.846482 -1.301791 1.403339 -0.000695 0.002101 -807309.000000 1 0 0
7.904161 -4.909319 14.054580 16.855515 -0.555794 0.584792 0.018262 -0.002250 -2342240.000000 1 0 0
-11.406339 7.207381 2.854380 13.791243 -0.563528 1.362319 0.005010 -0.003590 1028990.000000 1 0 0
-2.328739 11.931881 4.086180 12.825353 -1.378050 1.246542 0.000761 0.001930 963689.000000 1 0 0
1.939661 1.437281 0.785880 2.538832 0.637713 1.256083 -0.002978 0.000225 -1234730.000000 1 0 0
-6.924539 8.685081 5.208880 12.268345 -0.897709 1.132300 0.005033 -0.004081 -472585.000000 1 0 0
-1.138239 9.187081 1.019580 9.313301 -1.447529 1.461101 0.002594 0.003223 499219.000000 1 0 0
4.755061 12.899781 -8.439720 16.132074 1.217635 2.121356 0.005595 -0.017946 -1435070.000000 1 0 0
8.878861 6.924981 7.142480 13.334337 0.662389 1.005524 0.000499 0.001844 -1907160.000000 1 0 0
7.251461 -13.849419 2.874480 15.895054 -1.088453 1.388955 0.016720 -0.008388 112629.000000 1 0 0
4.204461 -13.410319 -1.231820 14.107854 -1.266979 1.658222 0.001325 0.006776 -3091680.000000 1 0 0
12.108061 -11.771419 -4.613520 17.505885 -0.771302 1.837488 0.033013 -0.007720 -907431.000000 1 0 0
2.864361 0.026881 -1.897520 3.435967 0.009384 2.155860 0.002997 -0.004012 1259600.000000 1 0 0
-13.475939 -3.334819 -10.750720 17.558472 0.242591 2.229739 0.028988 -0.012883 -203729.000000 1 0 0
-6.667139 13.685081 5.088780 16.050790 -1.117455 1.248187 0.004379 -0.006232 155075.000000 1 0 0
7.308961 -4.256919 -0.631120 8.481780 -0.527396 1.645274 0.000813 -0.002171 -2432200.000000 1 0 0
11.827061 2.128181 -7.281320 14.050842 0.178036 2.115556 0.014124 -0.003734 -683463.000000 1 0 0
-7.624839 -4.638919 9.767280 13.230930 0.546570 0.740375 0.002477 -0.001399 504392.000000 1 0 0
0.996061 2.788181 8.523280 9.022881 1.227683 0.334333 0.000475 -0.002304 -2330940.000000 1 0 0
1.574961 8.057281 -8.786920 12.025400 1.377760 2.390138 0.005651 -0.005832 -665569.000000 1 0 0
-8.529339 -1.891219 -5.642820 10.400373 0.218201 2.144277 0.017633 -0.005394 -342439.000000 1 0 0
6.820361 -0.367519 7.132480 9.875458 -0.053834 0.763757 0.005356 0.000118 575423.000000 1 0 0
-10.907939 6.533681 7.230080 14.626899 -0.539672 1.053767 0.006677 -0.008388 -5495.000000 1 0 0
-5.873339 11.136281 4.912180 13.514524 -1.085465 1.198802 0.001799 -0.000850 818451.000000 1 0 0
6.032761 -1.204619 -6.801620 9.171006 -0.197087 2.406314 0.002312 -0.004683 -972645.000000 1 0 0
4.529561 -5.792919 11.464780 13.620426 -0.907182 0.570309 0.001525 -0.000827 -1185940.000000 1 0 0
-8.905839 -7.258019 2.717980 11.805940 0.683804 1.338491 0.014133 -0.004229 -3652270.000000 1 0 0
-1.293339 12.784981 -9.415420 15.930430 -1.469978 2.203136 0.009264 -0.003649 695174.000000 1 0 0
-4.656739 9.331481 -2.356920 10.691905 -1.107921 1.793062 0.001520 0.001322 520402.000000 1 0 0
-3.398139 9.631081 -0.146920 10.214042 -1.231602 1.585181 0.004781 0.002217 -861631.000000 1 0 0
-3.531939 10.731881 -6.570820 13.069948 -1.252854 2.097565 0.004203 0.001592 800865.000000 1 0 0
4.946361 -4.922619 0.439580 6.992274 -0.782992 1.507888 0.000728 -0.002122 -1875120.000000 1 0 0
-2.221939 2.940481 -10.969420 11.572019 -0.923697 2.817457 0.008773 -0.009424 233056.000000 1 0 0
-3.627039 12.151681 -2.233920 12.876690 -1.280734 1.745164 0.000415 0.005086 -954935.000000 1 0 0
-0.117439 0.470381 0.021680 0.485304 -1.326130 1.526109 0.000533 -0.002314 -1357200.000000 1 0 0
-4.844939 -1.553219 0.096480 5.088736 0.310234 1.551836 0.004888 -0.004030 430861.000000 1 0 0
2.674061 2.564881 -2.443520 4.438469 0.764561 2.153798 -0.005069 -0.001341 633843.000000 1 0 0
5.955861 -9.816919 8.493280 14.282156 -1.025470 0.933932 -0.001225 0.002163 -833773.000000 1 0 0
-4.187539 -5.362619 6.714180 9.558942 0.907826 0.792036 0.007674 -0.005571 -79855.400000 1 0 0
-6.286739 5.311281 -12.054920 14.596366 -0.701490 2.542566 -0.000923 -0.005765 693855.000000 1 0 0
-12.961239 3.105581 7.886680 15.486706 -0.235172 1.036478 0.005185 -0.006826 552880.000000 1 0 0
4.694261 -7.450219 -4.746020 10.003328 -1.008550 2.065129 -0.000620 -0.006073 -1057850.000000 1 0 0
-5.917239 2.356281 -1.128620 6.468351 -0.378959 1.746177 0.006619 -0.003353 -527285.000000 1 0 0
-6.739339 -2.805619 -14.542320 16.271732 0.394483 2.676359 0.009304 -0.004328 333570.000000 1 0 0
2.897761 -6.075319 0.964080 6.799704 -1.125740 1.428534 0.000380 -0.001443 -551469.000000 1 0 0
4.901361 -7.950519 13.042880 16.042157 -1.018345 0.621445 0.004802 -0.001374 -190897.000000 1 0 0
-10.022739 -1.642019 8.017180 12.939347 0.162387 0.902567 0.001696 0.000678 29473.800000 1 0 0
-4.457139 13.273481 -0.003920 14.001835 -1.246834 1.571076 -0.002237 0.006192 793821.000000 1 0 0
6.874561 2.241981 -4.521720 8.528307 0.315251 2.129634 0.005851 -0.001978 -2242610.000000 1 0 0
5.006161 4.466681 -0.019120 6.709191 0.728509 1.573646 0.000083 0.000305 -525629.000000 1 0 0
-5.960439 12.311081 1.834280 13.800512 -1.119907 1.437488 0.001509 0.000581 -689804.000000 1 0 0
6.634461 -7.259519 6.610280 11.849578 -0.830356 0.979004 -0.000796 0.000821 -2448500.000000 1 0 0
-0.219739 4.935681 7.696980 9.146186 -1.526305 0.570649 -0.001936 0.000029 -1676200.000000 1 0 0
-5.803139 -3.366419 -1.470720 6.868204 0.525661 1.786602 0.011575 -0.005980 -891067.000000 1 0 0
2.359461 -6.484319 -5.120320 8.592504 -1.221817 2.209189 -0.001525 -0.002222 -1008010.000000 1 0 0
-14.516239 -4.969119 -3.733520 15.790900 0.329812 1.809491 0.008769 -0.008687 -400441.000000 1 0 0
-12.382439 -5.156619 -6.325820 14.830088 0.394603 2.011475 0.020575 -0.014516 -1307560.000000 1 0 0
-14.774539 -3.873019 -1.267020 15.326207 0.256373 1.653561 0.004717 -0.003980 519724.000000 1 0 0
12.051561 2.978181 8.641980 15.125921 0.242266 0.962664 0.011168 -0.001933 -1888960.000000 1 0 0
8.815861 -6.654519 7.741680 13.488352 -0.646588 0.959471 0.007542 -0.001038 -30908.600000 1 0 0
-8.843139 -1.715019 -9.476420 13.074591 0.191560 2.381536 0.013139 -0.006856 178174.000000 1 0 0
-8.955539 5.014581 -3.822820 10.952701 -0.510444 1.927332 0.009586 -0.004807 -909265.000000 1 0 0
-4.028439 -6.306719 4.243180 8.602767 1.002368 1.054992 0.011317 -0.005952 -1254460.000000 1 0 0
-0.206639 -9.111219 3.559980 9.784195 1.548121 1.198398 0.004716 -0.003049 666437.000000 1 0 0
7.998561 -10.439719 3.338380 13.568695 -0.917029 1.322209 0.002842 -0.002998 439124.000000 1 0 0
-0.034339 6.492781 9.634380 11.618031 -1.565508 0.593012 -0.006721 -0.002489 69115.900000 1 0 0
0.006061 3.539081 -9.722920 10.346995 1.569084 2.792506 0.006282 -0.008381 -850112.000000 1 0 0
4.552861 -3.189819 11.110980 12.424064 -0.611141 0.463907 0.006358 -0.003013 -1882170.000000 1 0 0
8.581461 -9.206319 1.270780 12.649611 -0.820512 1.470167 0.004309 -0.002293 453392.000000 1 0 0
-0.321039 -0.486519 11.170080 11.185278 0.987515 0.052136 0.006496 -0.004532 -821454.000000 1 0 0
10.902261 5.920381 11.384380 16.837883 0.497485 0.828317 0.015368 0.000397 -36964.700000 1 0 0
-6.331239 -3.045419 -11.832120 13.760750 0.448344 2.605764 0.009260 -0.007092 242657.000000 1 0 0
-1.635139 2.856181 8.426680 9.046567 -1.050849 0.372341 0.003223 -0.004395 -1132270.000000 1 0 0
-1.719239 13.579181 -6.883520 15.320992 -1.444858 2.036763 0.012688 -0.003597 774857.000000 1 0 0
7.631361 3.130381 9.858780 12.854279 0.389268 0.696699 0.006767 0.000378 266072.000000 1 0 0
6.530661 8.460781 -7.954720 13.323360 0.913442 2.210616 0.008460 -0.007703 -127406.000000 1 0 0
6.671161 -3.036419 -3.905020 8.305023 -0.427133 2.060313 0.002639 -0.003759 -1871350.000000 1 0 0
2.081661 8.164981 1.016580 8.487264 1.321164 1.450731 0.003103 0.001859 787723.000000 1 0 0
-17.673439 6.200481 6.220180 19.735426 -0.337419 1.250152 0.031158 -0.008645 -108661.000000 1 0 0
-14.804339 2.867381 -10.096520 18.147453 -0.191316 2.160795 0.048910 -0.006644 -610984.000000 1 0 0
-18.241439 -0.036219 -4.445220 18.775287 0.001986 1.809825 0.025205 -0.008138 41926.300000 1 0 0
-13.060139 7.924281 0.026780 15.276196 -0.545370 1.569043 0.010840 -0.000959 -60482.200000 1 0 0
-12.674539 -4.476719 -12.963920 18.674801 0.339528 2.338095 0.042913 0.002214 -1704930.000000 1 0 0
-17.360939 -0.600219 -8.739920 19.446045 0.034559 2.036940 0.039622 -0.013318 -68059.200000 1 0 0
-16.785539 -2.328619 -2.105020 17.076531 0.137848 1.694380 0.015289 -0.008628 -615284.000000 1 0 0
-15.449939 4.137281 1.660880 16.080306 -0.261647 1.467325 0.012865 -0.002382 703531.000000 1 0 0
-13.196539 5.878881 4.237780 15.055519 -0.419094 1.285464 0.004102 -0.006131 10906.800000 1 0 0
-10.127139 14.147281 2.759080 17.615817 -0.949521 1.413524 0.015627 -0.010135 209818.000000 1 0 0
-11.889239 2.365181 -6.408520 13.711937 -0.196371 2.057108 0.013959 -0.002145 105930.000000 1 0 0
-16.028739 10.637781 3.855180 19.620022 -0.585925 1.373017 0.019283 -0.009107 -827929.000000 1 0 0
-12.805239 0.992981 -8.607820 15.461395 -0.077390 2.161240 0.019288 -0.003955 500474.000000 1 0 0
-12.383539 14.258281 4.023180 19.308977 -0.855651 1.360901 0.020762 -0.013747 1288170.000000 1 0 0
-10.563039 11.010081 -1.067320 15.295059 -0.806117 1.640635 0.015284 -0.004488 -326523.000000 1 0 0
-16.956039 5.610081 8.744080 19.885653 -0.319523 1.115512 0.012342 -0.011467 165151.000000 1 0 0
-11.915539 12.438581 -9.332220 19.590526 -0.806871 2.067311 0.026179 -0.007373 557106.000000 1 0 0
-17.265739 -0.504519 3.073780 17.544469 0.029213 1.394688 0.025888 -0.010821 609220.000000 1 0 0
-13.262039 14.701281 -0.650020 19.809893 -0.836822 1.603615 0.042671 -0.017264 -166570.000000 1 0 0
-16.365239 4.837181 -10.521220 20.047829 -0.287394 2.123283 0.064128 -0.006163 703708.000000 1 0 0
-11.931639 7.637381 -8.985620 16.776023 -0.569380 2.136041 0.023629 -0.001995 -395619.000000 1 0 0
-14.964039 13.320281 -2.069820 20.140419 -0.727348 1.673748 0.051011 -0.022647 528581.000000 1 0 0
-11.931239 10.536881 -5.479020 16.834488 -0.723418 1.902299 0.029719 -0.010855 1999740.000000 1 0 0
-17.824539 2.875281 -0.765620 18.071182 -0.159933 1.613176 0.030975 -0.006707 -147245.000000 1 0 0
-9.778739 15.255581 0.478380 18.126923 -1.000778 1.544403 0.031204 -0.009746 293279.000000 1 0 0
-8.227539 13.150481 -3.733320 15.955100 -1.011733 1.806975 0.014322 -0.002017 -843334.000000 1 0 0
-17.992339 11.528281 2.287080 21.490841 -0.569833 1.464173 0.081385 -0.010281 -122676.000000 1 0 0
-8.138239 15.577281 -7.408620 19.072762 -1.089356 1.969734 0.047479 -0.019310 -111715.000000 1 0 0
-6.419739 15.247281 -5.430120 17.412031 -1.172283 1.887947 0.021604 -0.000702 95004.700000 1 0 0
-17.384739 5.387281 -0.139520 18.200863 -0.300501 1.578462 0.030401 -0.001180 686522.000000 1 0 0
-5.453239 12.252881 -12.298520 18.196827 -1.152060 2.312928 -0.001920 -0.005482 -1136600.000000 1 0 0
-11.121939 3.727481 -11.297620 16.285818 -0.323382 2.337422 0.013490 -0.003668 462734.000000 1 0 0
-11.991739 10.914681 1.181280 16.258151 -0.738413 1.498075 0.017539 -0.008109 339372.000000 1 0 0
-12.824139 0.093981 -11.055720 16.932109 -0.007328 2.282261 0.014154 -0.004945 810680.000000 1 0 0
-14.088739 -2.209519 -12.973820 19.279382 0.155562 2.308969 0.049387 -0.008401 179202.000000 1 0 0
-18.822439 -2.347419 -3.599720 19.306801 0.124073 1.758342 0.021501 -0.009734 1159110.000000 1 0 0
-18.461239 4.685281 -5.188220 19.740487 -0.248543 1.836741 0.057037 -0.007595 442282.000000 1 0 0
-8.380339 15.367381 -2.379220 17.664857 -1.071543 1.705894 0.029677 -0.007582 540314.000000 1 0 0
-16.212939 8.991181 -5.347620 19.295019 -0.506344 1.851623 0.052991 -0.010578 403749.000000 1 0 0
-18.393939 1.601981 1.980480 18.569481 -0.086874 1.463941 0.041284 -0.008880 23042.000000 1 0 0
-15.728839 -2.642019 -8.696620 18.166118 0.166419 2.070001 0.019898 -0.010227 52821.700000 1 0 0
-9.683039 10.453281 -7.101320 15.920461 -0.823631 2.033143 0.017085 -0.007368 241790.000000 1 0 0
-13.965339 11.764681 -7.738920 19.832531 -0.700077 1.971660 0.050959 -0.023613 -3499.250000 1 0 0
-11.071239 6.547281 -3.931520 13.449761 -0.534055 1.867439 0.012408 -0.001975 -63259.000000 1 0 0
-13.168039 4.756281 -12.638020 18.861045 -0.346616 2.305085 0.052061 -0.011211 44523.100000 1 0 0
-17.666639 8.985381 2.626180 19.993600 -0.470510 1.439065 0.029842 -0.015402 845399.000000 1 0 0
-13.479539 8.676481 -6.583020 17.329612 -0.571918 1.960453 0.033220 -0.007124 -383188.000000 1 0 0
-15.907939 6.943281 -3.832920 17.775347 -0.411543 1.788135 0.035649 -0.000391 -708007.000000 1 0 0
-14.867539 -0.336619 -9.407020 17.596848 0.022637 2.134814 0.027477 -0.007768 552409.000000 1 0 0
-9.888339 5.803781 -6.149820 13.010896 -0.530755 2.063111 0.012806 -0.003860 331233.000000 1 0 0
-12.865039 12.059681 -0.993020 17.661575 -0.753098 1.627051 0.031101 -0.012144 -381126.000000 1 0 0
-10.491539 3.468381 -13.828720 17.701287 -0.319278 2.467425 0.013147 -0.004772 82662.700000 1 0 0
-11.150739 6.235981 -12.036320 17.552762 -0.509912 2.326392 0.022590 -0.003769 -634468.000000 1 0 0
-5.627439 11.420381 -14.830120 19.545476 -1.112962 2.432188 0.006450 -0.015840 -459922.000000 1 0 0
-15.700139 13.225381 3.494680 20.823493 -0.700050 1.402174 0.022642 -0.015869 554962.000000 1 0 0
-15.359839 11.042281 -3.262520 19.196371 -0.623302 1.741580 0.056477 -0.011862 970279.000000 1 0 0
-18.366239 7.590481 -4.547320 20.386570 -0.391906 1.795743 0.056424 -0.010039 851192.000000 1 0 0
-4.196139 16.202081 -10.618920 19.821112 -1.317377 2.136178 0.030993 -0.009794 157766.000000 1 0 0
-15.953539 4.332281 -4.458220 17.121910 -0.265162 1.834213 0.034462 0.003242 89359.200000 1 0 0
-18.813439 -1.930819 -6.193420 19.900553 0.102272 1.887271 0.033963 -0.012727 561823.000000 1 0 0
-10.901639 8.517081 -5.775320 14.991355 -0.663213 1.966268 0.018574 -0.002842 1907960.000000 1 0 0
-11.362139 13.251081 -6.833520 18.745302 -0.861993 1.943941 0.028082 -0.013343 116712.000000 1 0 0
-9.520939 10.485081 -4.425020 14.837992 -0.833553 1.873626 0.005113 -0.002331 -357402.000000 1 0 0
-11.060839 6.159981 -0.239320 12.662733 -0.508139 1.589697 0.008144 -0.002294 -1203180.000000 1 0 0
-14.753739 9.309481 -1.552820 17.514294 -0.562896 1.659573 0.032997 -0.003889 231089.000000 1 0 0
-18.851739 3.373981 4.755580 19.732900 -0.177099 1.327403 0.045724 -0.008655 1067250.000000 1 0 0
-14.822139 12.988981 0.434180 19.712888 -0.719579 1.548769 0.025298 -0.011805 -63504.900000 1 0 0
-17.248939 2.783481 -9.051020 19.677262 -0.159992 2.048762 0.067731 -0.006682 1537460.000000 1 0 0
-9.222839 8.305881 -8.776620 15.201233 -0.733134 2.186291 0.013852 -0.004569 -1198210.000000 1 0 0
-17.825639 4.659881 -2.651520 18.614469 -0.255693 1.713727 0.036588 -0.001091 1211770.000000 1 0 0
-13.667239 5.758981 -4.391520 15.467538 -0.398793 1.858675 0.023883 0.001114 -767842.000000 1 0 0
-12.240639 9.565481 3.345080 15.890916 -0.663329 1.358707 0.003183 -0.007058 557861.000000 1 0 0
-17.747139 2.458681 -3.970720 18.351367 -0.137663 1.788893 0.039628 -0.000675 894499.000000 1 0 0
-11.201339 1.345081 -12.526020 16.857652 -0.119510 2.408408 0.021071 -0.000955 200935.000000 1 0 0
-11.250939 11.992181 3.507480 16.813639 -0.817278 1.360644 0.006775 -0.009015 320006.000000 1 0 0
-16.879739 13.047481 -3.972820 21.701282 -0.658039 1.754903 0.074659 -0.019469 655430.000000 1 0 0
-11.102239 4.075681 -4.589720 12.686072 -0.351831 1.940986 0.010851 -0.001852 -428538.000000 1 0 0
-11.390639 14.928081 -8.695520 20.693147 -0.919005 2.004476 0.043516 -0.018395 289892.000000 1 0 0
-15.545239 7.200881 -0.398020 17.136673 -0.433794 1.594025 0.024070 -0.000803 -568511.000000 1 0 0
-12.852239 8.321381 -4.049720 15.837476 -0.574591 1.829373 0.022350 -0.003545 505850.000000 1 0 0
-19.240939 1.726181 -5.951020 20.214056 -0.089474 1.869624 0.042753 -0.010487 -825254.000000 1 0 0
-12.618039 9.985881 -8.988220 18.431517 -0.669473 2.080198 0.029129 -0.011639 825110.000000 1 0 0
-16.805239 10.800881 -1.023820 20.003082 -0.571233 1.622002 0.045598 -0.011425 320722.000000 1 0 0
-10.754239 6.439581 -14.623620 19.260637 -0.539533 2.432955 0.027557 -0.012538 253532.000000 1 0 0
-14.273139 12.767981 -4.560920 19.686184 -0.729794 1.804602 0.056400 -0.014959 552571.000000 1 0 0
-18.243339 7.780481 -0.063920 19.833290 -0.403126 1.574019 0.059440 -0.010600 2020060.000000 1 0 0
-12.739139 6.511981 -2.072720 14.456408 -0.472551 1.714669 0.011399 0.000076 326073.000000 1 0 0
-13.776639 8.420581 -10.736620 19.390126 -0.548630 2.157616 0.037802 -0.007992 -243803.000000 1 0 0
-15.057739 1.226581 -0.934820 15.136509 -0.081279 1.632595 0.012156 -0.001291 -636728.000000 1 0 0
-13.541139 2.592881 -2.477820 14.008036 -0.189192 1.748618 0.010609 -0.000611 837421.000000 1 0 0
-11.256039 9.245481 -10.984920 18.244062 -0.687642 2.216937 0.021497 -0.008371 -414643.000000 1 0 0
-15.480239 4.380281 -8.009320 17.971474 -0.275751 2.032717 0.042353 -0.005028 733251.000000 1 0 0
-18.520239 10.393481 4.644380 21.739226 -0.511398 1.355496 0.077424 -0.023987 862918.000000 1 0 0
-15.352439 6.152281 -6.203920 17.664557 -0.381141 1.929656 0.038468 -0.000390 541376.000000 1 0 0
-7.741639 11.311981 -13.191420 19.023865 -0.970634 2.337013 0.001122 0.002371 -323498.000000 1 0 0
-17.014939 8.987581 -2.855520 19.453502 -0.485966 1.718116 0.050283 -0.011895 752307.000000 1 0 0
-20.728139 -0.854719 -4.736320 21.279545 0.041211 1.795252 0.046250 -0.012470 1568290.000000 1 0 0
-15.527139 4.373681 4.224780 16.675428 -0.274566 1.314651 0.010082 -0.003127 417928.000000 1 0 0
-7.026839 12.492881 -9.467520 17.177965 -1.058432 2.154530 0.006547 -0.004726 -298217.000000 1 0 0
-17.126739 1.526781 5.821880 18.153527 -0.088911 1.244325 0.028095 -0.016481 1480220.000000 1 0 0
-10.511839 14.079581 -3.226720 17.864632 -0.929474 1.752414 0.035768 -0.018673 -977695.000000 1 0 0
-9.972339 8.347581 -13.110620 18.466673 -0.696942 2.360239 0.002845 -0.003635 -51426.400000 1 0 0
-13.833739 11.511081 2.830880 18.217881 -0.694011 1.414774 0.015083 -0.013361 187315.000000 1 0 0
-16.681439 6.762081 1.812880 18.090956 -0.385123 1.470419 0.010205 -0.001870 432399.000000 1 0 0
-9.493039 13.184581 -8.581520 18.373716 -0.946766 2.056753 0.022997 -0.012318 -1218760.000000 1 0 0
-5.704839 9.756481 -12.977020 17.208636 -1.041686 2.425078 0.004496 -0.004169 -464428.000000 1 0 0
-16.097739 1.887981 3.069780 16.496218 -0.116749 1.383615 0.015511 -0.005124 -847168.000000 1 0 0
-18.656539 -5.002419 4.581080 19.851371 0.261970 1.337928 0.052577 -0.014286 645933.000000 1 0 0
-5.451639 14.470781 -9.172920 17.979609 -1.210506 2.106196 0.013687 -0.002767 -167087.000000 1 0 0
-15.387939 -0.883119 -6.863020 16.872155 0.057327 1.989708 0.015066 -0.005983 546529.000000 1 0 0
-9.071339 10.757381 -9.591220 17.029443 -0.870224 2.169067 0.005357 -0.008014 200079.000000 1 0 0
-16.687439 1.254181 -6.077420 17.803894 -0.075016 1.919153 0.019845 -0.001535 -486969.000000 1 0 0
-11.079039 8.496881 -1.589820 14.052388 -0.654250 1.684174 0.014306 -0.004857 -217218.000000 1 0 0
-10.725839 10.945681 -12.992120 20.090962 -0.795542 2.274000 0.028574 -0.001132 -416492.000000 1 0 0
-14.252939 11.528081 -10.304720 21.029269 -0.680097 2.082907 0.066641 -0.020057 -252654.000000 1 0 0
-13.235839 5.702481 -7.708120 16.343832 -0.406804 2.061926 0.029564 -0.000014 207730.000000 1 0 0
-8.971139 15.326481 -4.969620 18.441244 -1.041229 1.843653 0.032381 -0.011461 -745692.000000 1 0 0
-8.724239 6.009581 -12.970720 16.747149 -0.603195 2.456726 0.009149 -0.005359 -150255.000000 1 0 0
-16.396739 7.477481 4.259880 18.517893 -0.427861 1.338676 0.017711 -0.004591 -206641.000000 1 0 0
-12.742539 5.378781 -10.182020 17.174898 -0.399422 2.205381 0.029986 -0.004066 623354.000000 1 0 0
-12.409739 9.049981 -13.394220 20.379129 -0.630098 2.287963 0.051225 -0.015098 -901741.000000 1 0 0
-10.697839 5.268481 -8.551420 14.674040 -0.457614 2.192915 0.009139 -0.001551 -703852.000000 1 0 0
-17.793239 -4.615719 -2.735320 18.584569 0.253814 1.718515 0.013968 -0.008520 441872.000000 1 0 0
-9.033739 12.920481 -11.036820 19.244705 -0.960621 2.181567 0.025718 -0.014320 234610.000000 1 0 0
-15.033939 6.231081 6.036580 17.357592 -0.392916 1.215597 0.010719 -0.008822 460839.000000 1 0 0
-16.450839 -3.303519 -4.504020 17.373242 0.198176 1.833042 0.010166 -0.008456 -287449.000000 1 0 0
-11.034639 -1.253819 -12.570920 16.773889 0.113141 2.418003 0.019638 -0.000687 592088.000000 1 0 0
-15.372239 6.946781 -8.612420 18.940361 -0.424436 2.042846 0.040644 0.000012 156082.000000 1 0 0
-14.945839 9.344681 1.119180 17.662212 -0.558769 1.507388 0.021873 -0.008355 -197859.000000 1 0 0
-19.389839 5.338281 7.958380 21.628659 -0.268657 1.193987 0.053089 -0.012351 -1067370.000000 1 0 0
-16.483239 0.440381 0.882080 16.512697 -0.026711 1.517353 0.023309 -0.004813 -640819.000000 1 0 0
-17.485339 3.800581 7.021880 19.222078 -0.214029 1.196838 0.023634 -0.007252 865977.000000 1 0 0
-15.567739 3.869381 -1.429220 16.104946 -0.243615 1.659657 0.018907 -0.001377 -1300360.000000 1 0 0
-10.936639 13.101981 0.466480 17.073066 -0.875233 1.543470 0.026482 -0.016451 -358729.000000 1 0 0
-13.562939 3.239381 0.019280 13.944435 -0.234448 1.569414 0.011051 -0.001258 -285952.000000 1 0 0
-15.159339 0.016181 -4.328220 15.765130 -0.001067 1.848912 0.014821 -0.000555 -634606.000000 1 0 0
-18.733839 6.728281 3.306980 20.178271 -0.344804 1.406165 0.027837 -0.006997 -649085.000000 1 0 0
-14.179339 1.294981 -6.385020 15.604458 -0.091076 1.992351 0.021331 -0.000276 -524304.000000 1 0 0
-14.234139 11.871781 5.318480 19.283053 -0.695153 1.291363 0.008209 -0.016310 5700.590000 1 0 0
17.667961 5.383781 6.275680 19.507078 0.295781 1.243258 0.036580 -0.011754 -363279.000000 1 0 0
18.582461 7.811481 -0.324420 20.160167 0.397941 1.586889 0.047111 0.000044 -134736.000000 1 0 0
16.530361 5.225681 8.520380 19.317284 0.306185 1.114000 0.034438 -0.004980 298800.000000 1 0 0
11.656561 12.445581 10.934780 20.256784 0.818123 1.000587 0.025199 -0.003085 432161.000000 1 0 0
-2.297839 16.275381 -0.540820 16.445685 -1.430538 1.603687 0.004879 -0.004276 -141682.000000 1 0 0
14.992761 12.863081 3.377580 20.041202 0.709093 1.401456 0.051138 -0.006528 1068690.000000 1 0 0
13.679661 11.826981 6.748580 19.301656 0.712890 1.213612 0.037542 0.001091 1026390.000000 1 0 0
-0.733439 16.021881 8.549480 18.175043 -1.525051 1.081056 0.011648 -0.001878 81831.100000 1 0 0
0.673861 12.950681 9.386380 16.008696 1.518810 0.944275 0.001119 -0.003203 -812350.000000 1 0 0
0.697161 15.607281 -3.920120 16.107159 1.526157 1.816643 0.007475 -0.008922 1020770.000000 1 0 0
5.311961 10.217681 13.476480 17.726631 1.091372 0.707115 0.009144 -0.009624 -94282.300000 1 0 0
-1.495639 16.595381 -2.770420 16.891383 -1.480915 1.735555 0.005628 0.000240 -476758.000000 1 0 0
8.518061 10.096481 3.324180 13.621544 0.869991 1.324268 0.003714 -0.001182 511914.000000 1 0 0
12.676761 13.548081 -4.746720 19.151556 0.818611 1.821257 0.079664 -0.027998 1161800.000000 1 0 0
2.416761 11.689681 7.712580 14.211729 1.366925 0.997159 0.003974 0.000490 372647.000000 1 0 0
-0.406339 15.044181 -8.733120 17.399996 -1.543793 2.096595 0.012525 -0.006144 -1340710.000000 1 0 0
2.260661 15.932181 0.204680 16.093069 1.429845 1.558077 0.009623 -0.011119 -687819.000000 1 0 0
1.926261 13.439181 5.365780 14.598413 1.428434 1.194413 0.007613 -0.000395 1296620.000000 1 0 0
17.634361 9.310081 -2.095720 20.050943 0.485758 1.675507 0.037205 -0.001862 473613.000000 1 0 0
-7.278839 14.953181 7.319480 18.170137 -1.117784 1.156189 0.004984 -0.012388 -1100200.000000 1 0 0
8.338361 15.626481 -0.183920 17.712961 1.080628 1.581180 0.015059 -0.019041 -709122.000000 1 0 0
15.775361 10.688481 2.172480 19.178772 0.595494 1.457277 0.043217 -0.001351 2057400.000000 1 0 0
14.124261 7.521281 8.751280 18.238676 0.489314 1.070347 0.022212 -0.001302 -649587.000000 1 0 0
3.986561 18.770581 -1.847120 19.277946 1.361522 1.666759 0.020753 -0.019968 -1778910.000000 1 0 0
-0.634639 17.674881 -4.785120 18.322160 -1.534905 1.835026 0.018431 -0.006061 600628.000000 1 0 0
1.308261 13.692581 -0.730020 13.774296 1.475540 1.623820 0.004312 -0.004347 12197.300000 1 0 0
10.291161 14.768681 4.127480 18.467756 0.962206 1.345396 0.022071 -0.013067 341632.000000 1 0 0
-1.722539 15.472081 -5.133820 16.392331 -1.459921 1.889340 0.013102 -0.004811 371953.000000 1 0 0
15.083361 8.682281 -6.258120 18.494698 0.522300 1.915984 0.038908 -0.019000 45460.400000 1 0 0
-2.495739 18.533881 0.880180 18.721863 -1.436943 1.523766 0.012854 -0.011019 -575424.000000 1 0 0
-4.015139 19.384781 3.581580 20.117624 -1.366556 1.391810 0.026965 -0.012086 212600.000000 1 0 0
1.738961 17.694281 -2.683920 17.980962 1.472833 1.720621 0.008740 -0.016446 111604.000000 1 0 0
2.852561 12.300981 3.249680 13.038852 1.342927 1.318911 0.005342 0.000577 226020.000000 1 0 0
-2.678539 16.170881 1.875080 16.498117 -1.406647 1.456896 0.007379 -0.005965 -1046060.000000 1 0 0
11.706361 12.806281 -2.626920 17.548231 0.830240 1.721058 0.033927 -0.010225 498979.000000 1 0 0
7.132161 11.759081 4.763180 14.554435 1.025594 1.237387 0.005338 -0.000819 387302.000000 1 0 0
6.860661 15.575381 1.822880 17.116777 1.155886 1.464097 0.005922 -0.014028 -2184970.000000 1 0 0
5.506461 12.276381 10.256880 16.918458 1.149156 0.919455 0.002625 0.001442 570098.000000 1 0 0
-1.462639 14.180781 3.080980 14.585139 -1.468017 1.357952 0.000065 -0.000288 -553754.000000 1 0 0
4.536361 16.160281 1.441380 16.846686 1.297129 1.485133 0.008755 -0.014217 -3739510.000000 1 0 0
7.369561 13.171681 11.890980 19.214552 1.060688 0.903515 0.014340 -0.001683 366016.000000 1 0 0
0.610461 17.347181 -9.214720 19.652186 1.535620 2.058830 0.014242 -0.008869 378727.000000 1 0 0
9.633861 9.577781 15.502280 20.612274 0.782479 0.719569 0.023779 -0.003269 -255117.000000 1 0 0
13.578161 7.498881 -0.133020 15.511846 0.504588 1.579372 0.008844 -0.000596 560176.000000 1 0 0
12.350561 13.744281 -0.187420 18.479089 0.838757 1.580939 0.046273 -0.012358 580106.000000 1 0 0
9.346361 12.415781 3.508180 15.931522 0.925518 1.348773 0.010128 -0.002856 987571.000000 1 0 0
-0.620739 12.954981 0.788380 12.993783 -1.522918 1.510085 0.005799 -0.001592 -1262460.000000 1 0 0
16.106161 7.553481 -0.912920 17.812830 0.438526 1.622070 0.031662 0.001806 -3302830.000000 1 0 0
-4.175839 18.347181 -2.436620 18.973502 -1.347007 1.699574 0.023200 -0.009709 69499.200000 1 0 0
11.511161 9.111681 -3.242420 15.034721 0.669568 1.788166 0.020921 -0.008399 1307.060000 1 0 0
14.764361 9.777381 7.726880 19.320668 0.584924 1.159358 0.033079 -0.007418 855408.000000 1 0 0
4.500361 13.738981 4.625680 15.179254 1.254249 1.261134 0.007600 -0.001118 581405.000000 1 0 0
2.202561 16.019281 5.577980 17.105043 1.434159 1.238620 0.011295 -0.004076 487686.000000 1 0 0
6.027761 18.591381 5.288880 20.247113 1.257267 1.306514 0.027409 -0.014521 -264815.000000 1 0 0
10.622661 16.951581 -0.483220 20.010760 1.011013 1.594947 0.051237 -0.024027 -1070020.000000 1 0 0
9.945661 13.458881 -4.553720 17.343414 0.934394 1.836473 0.047360 -0.014901 1071730.000000 1 0 0
16.451161 8.094481 2.268980 18.474566 0.457252 1.447669 0.015837 -0.004697 -776311.000000 1 0 0
3.917161 14.061481 -0.562020 14.607712 1.299111 1.609280 0.007385 -0.006700 138821.000000 1 0 0
5.583661 13.072381 -2.412220 14.418156 1.167119 1.738891 0.007366 -0.007293 -384433.000000 1 0 0
-6.233439 16.858581 -2.969220 18.217677 -1.216637 1.734512 0.026361 -0.004445 -2164130.000000 1 0 0
18.276961 9.924281 2.785780 20.983308 0.497448 1.437641 0.063642 -0.016276 382093.000000 1 0 0
8.022361 12.826981 9.445380 17.835496 1.011889 1.012687 0.012835 -0.003284 -263189.000000 1 0 0
-2.624639 15.640581 6.702280 17.217347 -1.404536 1.170952 0.005115 -0.008703 1621880.000000 1 0 0
11.053761 16.017981 6.325680 20.464006 0.966756 1.256537 0.032435 -0.011080 -67601.400000 1 0 0
13.555061 12.046981 1.306580 18.181765 0.726561 1.498872 0.049201 -0.007172 1232900.000000 1 0 0
17.606961 7.838081 -5.895620 20.154377 0.418830 1.867661 0.032670 0.004794 377334.000000 1 0 0
9.564761 9.218981 8.078280 15.547761 0.766992 1.024439 0.005293 0.000650 -31230.600000 1 0 0
-2.052039 14.143881 -1.921720 14.420584 -1.426718 1.704456 0.001314 0.000728 356436.000000 1 0 0
10.976661 11.689581 0.661980 16.049037 0.816841 1.529537 0.018380 -0.002323 -120214.000000 1 0 0
11.819861 9.741081 -0.643120 15.330081 0.689281 1.612760 0.016471 -0.002745 -11079.500000 1 0 0
-0.090239 16.235081 10.973580 19.596057 -1.565238 0.976424 0.008427 -0.008620 443909.000000 1 0 0
1.853361 20.202581 -1.862720 20.372750 1.479314 1.662356 0.034111 -0.025130 -577196.000000 1 0 0
9.125461 14.248181 1.813280 17.016835 1.001153 1.464036 0.012808 -0.011346 122520.000000 1 0 0
8.476461 11.621481 -5.157220 15.280907 0.940624 1.915050 0.024124 -0.007146 -806898.000000 1 0 0
10.594461 10.097481 10.315180 17.905436 0.761385 0.956857 0.010607 -0.003455 627776.000000 1 0 0
-5.160239 15.793081 5.780980 17.591736 -1.254991 1.235955 0.000726 -0.008041 756744.000000 1 0 0
14.453361 9.184181 -1.912420 17.230965 0.566068 1.682013 0.032045 -0.004905 -353004.000000 1 0 0
12.247261 9.693481 6.833080 17.048459 0.669525 1.158403 0.013986 -0.003022 -1317160.000000 1 0 0
3.118961 13.050381 9.740480 16.580630 1.336203 0.942878 -0.000613 -0.000378 -537463.000000 1 0 0
8.506261 12.540381 -2.620520 15.378061 0.974776 1.742038 0.022522 -0.007900 -909605.000000 1 0 0
9.130161 16.827181 2.101880 19.259588 1.073665 1.461444 0.011920 -0.018906 -832429.000000 1 0 0
9.420561 14.255681 -7.524720 18.670640 0.986846 1.985615 0.062638 -0.020659 -633558.000000 1 0 0
6.429261 11.519581 7.342180 15.097806 1.061743 1.062937 0.003739 0.001737 -518104.000000 1 0 0
5.409261 16.844381 -5.708020 18.589641 1.260067 1.882892 0.022027 -0.011482 -2205270.000000 1 0 0
-4.239439 17.150981 -4.722420 18.287434 -1.328470 1.831989 0.024305 -0.006887 39219.800000 1 0 0
-0.315739 18.617681 -0.545520 18.628347 -1.553839 1.600085 0.005178 -0.010236 -467318.000000 1 0 0
6.624661 15.479081 -2.667920 17.047166 1.166408 1.727945 0.018567 -0.014494 443847.000000 1 0 0
-1.032539 20.776881 0.814580 20.818464 -1.521141 1.531659 0.020273 -0.012967 -81457.300000 1 0 0
-1.462339 18.938281 4.191380 19.451596 -1.493733 1.353616 0.007892 -0.012105 1726900.000000 1 0 0
7.185561 13.701581 -4.412320 16.088324 1.087794 1.848612 0.018561 -0.006475 -441077.000000 1 0 0
-1.000739 12.026181 7.644880 14.285471 -1.487774 1.006110 0.004841 0.003507 468986.000000 1 0 0
7.569961 10.804581 10.941480 17.139406 0.959651 0.878403 0.011068 -0.006058 297201.000000 1 0 0
1.346761 16.066281 -7.179620 17.648968 1.487167 1.989746 0.001758 -0.013125 394667.000000 1 0 0
8.797361 7.261281 14.771380 18.663157 0.690034 0.657582 0.022348 0.002445 -5512.190000 1 0 0
11.362361 11.294381 -4.752320 16.710800 0.782398 1.859162 0.050513 -0.013713 -307376.000000 1 0 0
-3.390939 17.013281 4.467880 17.914021 -1.374063 1.318729 0.004762 -0.008735 -636606.000000 1 0 0
3.877461 15.233281 -6.717820 17.094346 1.321550 1.974672 0.008248 -0.015208 -521704.000000 1 0 0
-4.419139 14.138081 9.382380 17.534057 -1.267848 1.006177 0.010422 -0.012437 94209.800000 1 0 0
6.241061 17.781081 0.397780 18.848764 1.233236 1.549691 0.010427 -0.020044 -226307.000000 1 0 0
9.775661 10.602181 -2.173220 14.583987 0.825936 1.720368 0.024005 -0.006582 -640157.000000 1 0 0
6.848761 18.025981 -2.799620 19.485363 1.207703 1.714973 0.019564 -0.017611 154506.000000 1 0 0
3.529161 10.403881 10.397480 15.126245 1.243761 0.812921 -0.000418 -0.001065 1865560.000000 1 0 0
-0.100039 18.578081 1.977180 18.683263 -1.565412 1.464772 0.011514 -0.015282 534724.000000 1 0 0
-1.066439 17.186481 -7.344720 18.720505 -1.508825 1.973966 0.025208 -0.010703 -845393.000000 1 0 0
10.175161 8.824881 13.119080 18.802199 0.714450 0.798556 0.023063 0.002693 189291.000000 1 0 0
3.693361 11.439981 5.450680 13.199393 1.258513 1.145106 0.001616 0.000761 548699.000000 1 0 0
13.114561 13.971981 8.182580 20.836568 0.817042 1.167228 0.040679 -0.012267 -11445.100000 1 0 0
-0.609939 17.434581 6.601580 18.652546 -1.535826 1.209033 0.011280 -0.011655 -498818.000000 1 0 0
12.039961 13.761181 5.856980 19.199869 0.852010 1.260802 0.029534 -0.004530 -517587.000000 1 0 0
4.764461 14.626681 -4.355720 15.987876 1.255897 1.846723 0.008270 -0.009035 -875923.000000 1 0 0
3.737261 17.587681 4.440580 18.520593 1.361418 1.328673 0.016792 -0.012918 -940337.000000 1 0 0
7.020761 11.704981 2.073380 13.805671 1.030517 1.420043 0.007581 -0.002501 777845.000000 1 0 0
6.307961 8.644481 11.706580 15.860688 0.940408 0.740565 0.004658 -0.003100 641755.000000 1 0 0
-5.514339 14.902481 1.793480 15.990886 -1.216392 1.458403 0.006990 0.000551 -38643.100000 1 0 0
6.819261 13.879381 5.976480 16.578837 1.114114 1.202005 0.006283 -0.001980 -246619.000000 1 0 0
5.807961 15.961281 4.864080 17.667885 1.221812 1.291888 0.006760 -0.010556 733872.000000 1 0 0
1.146561 18.053981 4.136180 18.557177 1.507374 1.346020 0.020190 -0.009835 203183.000000 1 0 0
7.299561 18.031581 -6.942720 20.654851 1.186141 1.913601 0.024213 -0.017497 461560.000000 1 0 0
-2.647239 18.857681 -6.018820 19.971134 -1.431328 1.876932 0.037075 -0.009721 -704343.000000 1 0 0
13.561061 10.008981 -4.600520 17.471315 0.635821 1.837257 0.038402 -0.015961 602054.000000 1 0 0
-1.586439 18.122181 9.833580 20.679205 -1.483478 1.075230 0.020665 -0.008907 -714413.000000 1 0 0
3.465161 11.815381 -1.590720 12.415351 1.285520 1.699275 0.006465 -0.005036 754982.000000 1 0 0
4.113561 13.867981 -10.881720 18.101218 1.282441 2.215748 0.009874 -0.021726 -328231.000000 1 0 0
11.569561 13.443781 2.343080 17.890780 0.860187 1.439453 0.033128 -0.008449 512293.000000 1 0 0
15.875561 6.428281 -7.268020 18.605922 0.384738 1.972112 0.010229 -0.000768 -616694.000000 1 0 0
2.449961 16.118181 2.926180 16.563834 1.419951 1.393203 0.014081 -0.008159 366034.000000 1 0 0
13.438161 10.768881 3.522980 17.577382 0.675573 1.369003 0.026613 0.001278 23892.600000 1 0 0
-5.117839 19.333981 -5.880420 20.846449 -1.312024 1.856760 0.029719 -0.015673 -417790.000000 1 0 0
5.474161 12.051481 0.099880 13.236865 1.144429 1.563251 0.008043 -0.005238 926163.000000 1 0 0
4.905661 15.352281 9.680080 18.800584 1.261511 1.029927 0.014730 -0.000874 -220794.000000 1 0 0
7.696161 9.499281 13.789980 18.429074 0.889877 0.725341 0.013900 -0.005460 -772993.000000 1 0 0
-5.159139 13.629481 7.018380 16.175201 -1.208936 1.121982 0.002727 -0.004987 -2257890.000000 1 0 0
-4.622139 17.087481 0.535680 17.709690 -1.306620 1.540544 0.020093 -0.008539 -433652.000000 1 0 0
-0.774039 16.562181 3.524080 16.950637 -1.524095 1.361366 0.008082 -0.008737 -1688890.000000 1 0 0
7.858961 16.668881 -4.766920 19.035188 1.130228 1.823917 0.027452 -0.017253 1016470.000000 1 0 0
2.989861 16.594981 -4.660020 17.494240 1.392542 1.840426 0.003745 -0.009465 198000.000000 1 0 0
9.629061 14.392581 8.411680 19.251534 0.981160 1.118607 0.022287 -0.005206 548655.000000 1 0 0
12.807661 10.954281 9.136680 19.170586 0.707558 1.074014 0.029904 -0.012190 509342.000000 1 0 0
3.770661 12.327381 12.134780 17.704098 1.273957 0.815613 0.003003 -0.004377 700524.000000 1 0 0
-3.376539 19.005981 6.075780 20.237179 -1.394974 1.265864 0.010871 -0.014777 214569.000000 1 0 0
-2.630939 15.792781 10.257880 19.014675 -1.405721 1.000987 0.015355 -0.009713 -349021.000000 1 0 0
2.067561 14.325181 7.645280 16.368748 1.427456 1.084827 0.009447 -0.001950 20062.700000 1 0 0
4.485161 17.263581 7.938680 19.523589 1.316611 1.152045 0.024068 -0.006964 303070.000000 1 0 0
-1.924239 13.476781 9.319080 16.497623 -1.428973 0.970516 0.006438 -0.006333 -549085.000000 1 0 0
5.901761 17.728381 2.963180 18.918422 1.249437 1.413519 0.011102 -0.019447 744870.000000 1 0 0
7.151061 15.340381 -6.810620 18.244163 1.134586 1.953364 0.020480 -0.009773 -566540.000000 1 0 0
11.077561 7.637481 9.475280 16.456743 0.603614 0.957252 0.009300 -0.002466 355961.000000 1 0 0
8.983561 16.603981 -2.456120 19.037570 1.074852 1.700171 0.037849 -0.007956 676775.000000 1 0 0
14.878761 11.317581 -6.477920 19.784555 0.650285 1.904371 0.101060 -0.018118 427310.000000 1 0 0
11.031761 6.709781 16.038780 20.590371 0.546445 0.677814 0.039547 -0.007439 -366805.000000 1 0 0
8.503661 8.478081 10.212880 15.763661 0.783892 0.866005 0.009173 -0.002139 2816350.000000 1 0 0
16.325761 9.421281 4.487180 19.375907 0.523397 1.337089 0.034119 -0.005130 163191.000000 1 0 0
-3.427539 14.330981 4.645680 15.450158 -1.336036 1.265382 0.000079 -0.000253 -988612.000000 1 0 0
4.963161 14.641581 12.842780 20.098404 1.243975 0.877605 0.010191 0.005187 -1229890.000000 1 0 0
16.131261 10.298481 -4.460520 19.651273 0.568190 1.799776 0.062469 -0.028960 237013.000000 1 0 0
14.670661 14.099381 6.063780 21.231822 0.765544 1.281165 0.047114 -0.006088 274030.000000 1 0 0
6.214561 9.454881 9.215480 14.592485 0.989316 0.887281 0.003447 -0.000688 414646.000000 1 0 0
10.450861 12.026781 8.660180 18.134571 0.855394 1.072931 0.017881 -0.007473 -767531.000000 1 0 0
7.981761 11.447481 -0.303720 13.958709 0.961918 1.592557 0.009938 -0.006039 -1163960.000000 1 0 0
7.241661 13.534481 -8.749220 17.668409 1.079501 2.088850 0.033993 -0.010764 -283441.000000 1 0 0
2.709361 15.299681 -2.331820 15.711723 1.395527 1.719759 0.007103 -0.011795 207269.000000 1 0 0
11.975361 14.372881 -7.527320 20.165553 0.876142 1.953334 0.070662 -0.015343 -864986.000000 1 0 0
-8.221439 14.561081 9.864980 19.414813 -1.056800 1.037800 0.026674 -0.018657 440642.000000 1 0 0
11.537061 9.611481 2.173280 15.172590 0.694598 1.427065 0.019001 -0.000738 -2198930.000000 1 0 0
12.128861 8.684381 4.446480 15.565954 0.621390 1.281107 0.010453 0.002241 37131.300000 1 0 0
14.113961 8.035781 6.087780 17.344703 0.517578 1.212170 0.014588 -0.001558 -2294560.000000 1 0 0
16.223261 7.426781 7.190380 19.236757 0.429310 1.187712 0.044040 -0.009545 -555535.000000 1 0 0
13.672761 8.437081 2.304280 16.230786 0.552878 1.428345 0.017107 -0.000727 -2220420.000000 1 0 0
-4.361639 17.232081 -7.261020 19.201326 -1.322891 1.958596 0.026654 -0.015390 317878.000000 1 0 0
2.890861 19.596881 -4.087320 20.226245 1.424336 1.774278 0.023412 -0.021553 301871.000000 1 0 0
-0.171739 14.884381 6.271880 16.152732 -1.559259 1.172025 0.010824 -0.003688 1543250.000000 1 0 0
6.814061 16.136881 8.076580 19.288895 1.171243 1.138765 0.025093 -0.007901 -988687.000000 1 0 0
12.556661 15.295881 -2.286120 19.921346 0.883430 1.685807 0.069230 -0.022425 -377902.000000 1 0 0
12.690961 15.786981 4.378580 20.723446 0.893689 1.357906 0.051925 -0.018141 -576278.000000 1 0 0
2.852961 18.101781 1.158780 18.361825 1.414476 1.507646 0.017995 -0.016146 -167922.000000 1 0 0
10.267861 14.578781 -1.441620 17.889888 0.957189 1.651467 0.032180 -0.010175 -1607220.000000 1 0 0
-6.454839 15.710281 -0.585820 16.994736 -1.180957 1.605274 0.014041 -0.004046 635635.000000 1 0 0
-3.989139 15.742581 -2.564420 16.441360 -1.322622 1.727409 0.017171 -0.004656 -372758.000000 1 0 0
-6.913339 17.125681 1.636280 18.540782 -1.187119 1.482428 0.020927 -0.003072 -101441.000000 1 0 0
-0.108539 19.452081 -6.553020 20.526502 -1.565217 1.895731 0.037388 -0.018534 -271177.000000 1 0 0
4.824661 14.844581 7.086180 17.142137 1.256554 1.144636 0.015315 -0.003986 -580072.000000 1 0 0
8.710861 12.450981 6.822180 16.656775 0.960331 1.148809 0.007445 -0.004429 -1412540.000000 1 0 0
-7.792539 17.530581 -5.632520 19.994254 -1.152516 1.856369 0.048758 -0.009087 326502.000000 1 0 0
-8.010039 17.711681 -1.477820 19.494828 -1.146076 1.646675 0.049551 -0.011312 693585.000000 1 0 0
-13.810839 -9.074419 9.149280 18.888983 0.581316 1.065152 0.045720 -0.024271 554867.000000 1 0 0
-12.660039 -12.898019 7.662580 19.630349 0.794709 1.169792 0.051190 -0.013963 -150400.000000 1 0 0
-3.777739 -14.945119 12.567180 19.888738 1.323208 0.886827 0.019404 -0.022066 409695.000000 1 0 0
-1.865539 -14.135219 15.115880 20.779184 1.439577 0.756194 0.033450 -0.015078 -1495740.000000 1 0 0
-7.134939 -13.762719 12.593680 19.972996 1.092518 0.888554 0.046394 -0.018372 276286.000000 1 0 0
-9.941339 -11.632519 8.999880 17.752283 0.863628 1.039130 0.035576 -0.011417 359333.000000 1 0 0
-10.686339 -10.706919 11.196880 18.820363 0.786360 0.933612 0.055642 -0.021837 163762.000000 1 0 0
-5.953239 -12.277919 10.757180 17.375422 1.119323 0.903196 0.029674 -0.014951 531036.000000 1 0 0
-12.500939 -10.339419 7.241580 17.765628 0.691043 1.150953 0.032098 -0.010460 160387.000000 1 0 0
-7.760439 -11.217819 12.434480 18.457523 0.965598 0.831618 0.036021 -0.019554 196230.000000 1 0 0
-14.877539 -11.454519 7.224880 20.118302 0.656129 1.203472 0.063277 -0.014233 507481.000000 1 0 0
-11.185039 -9.232819 9.110280 17.127383 0.690075 1.009938 0.032717 -0.010567 -305904.000000 1 0 0
-5.428339 -11.937219 13.305780 18.681752 1.144007 0.778121 0.040355 -0.022099 -775737.000000 1 0 0
3.909461 -12.474019 14.606280 19.601746 -1.267084 0.730034 -0.000492 -0.006639 402805.000000 1 0 0
6.451961 -12.878819 14.159280 20.198440 -1.106369 0.793986 0.010775 0.000786 393837.000000 1 0 0
6.543261 -8.666219 16.167080 19.475423 -0.924083 0.591460 0.006557 -0.000887 341466.000000 1 0 0
0.655761 -1.689419 14.422280 14.535691 -1.200540 0.124999 0.007822 -0.004765 -2009490.000000 1 0 0
-0.142239 -6.361919 15.509980 16.764657 1.548442 0.389341 0.013767 -0.012396 -236634.000000 1 0 0
-1.515039 -4.647319 18.354380 18.994109 1.255658 0.260274 0.026513 -0.020551 -2413260.000000 1 0 0
-5.101139 12.492081 12.968480 18.715105 -1.183113 0.805235 0.019486 -0.019326 -769653.000000 1 0 0
-4.035439 8.821481 11.580580 15.106724 -1.141759 0.697291 -0.000167 -0.004760 -271611.000000 1 0 0
-0.680239 -3.931019 14.941580 15.465007 1.399449 0.260916 0.010809 -0.009023 -216833.000000 1 0 0
-4.502239 9.195581 14.092180 17.418909 -1.115496 0.628320 0.007454 -0.014901 153862.000000 1 0 0
-13.428939 -2.227219 16.940680 21.732086 0.164356 0.676891 0.021786 0.000600 -331944.000000 1 0 0
-0.316539 0.854081 17.279980 17.303969 -1.215872 0.052663 0.011581 -0.004145 -328633.000000 1 0 0
-3.234539 -7.429219 15.262880 17.280366 1.160166 0.488048 0.018901 -0.016444 382278.000000 1 0 0
-7.430039 5.536181 12.348780 15.438495 -0.640363 0.643719 0.003782 -0.009309 -1363430.000000 1 0 0
-9.814239 9.882481 13.460880 19.369512 -0.788863 0.802443 0.019736 -0.022599 1194610.000000 1 0 0
-5.545339 2.173781 11.054580 12.557063 -0.373592 0.494202 0.002922 -0.000323 -1333730.000000 1 0 0
-7.089339 -7.332519 16.782080 19.638299 0.802258 0.546096 0.027457 -0.015955 -334496.000000 1 0 0
-4.916039 2.930881 18.530880 19.394613 -0.537611 0.299564 0.028085 -0.006170 -569014.000000 1 0 0
0.893561 -8.394619 16.548680 18.577591 -1.464751 0.471722 0.011367 -0.007175 552224.000000 1 0 0
-14.822639 -3.717219 13.876580 20.641895 0.245713 0.833548 0.033076 -0.010942 322990.000000 1 0 0
-14.271539 2.190881 12.914480 19.371644 -0.152325 0.841065 0.006609 -0.012338 -425094.000000 1 0 0
-5.475339 0.963081 16.029480 16.966175 -0.174113 0.333842 0.018755 -0.001096 257636.000000 1 0 0
4.502761 5.652181 15.229680 16.857199 0.898107 0.443040 0.004379 -0.001804 187174.000000 1 0 0
-1.024039 -12.100319 13.820680 18.397760 1.486368 0.720895 -0.002400 -0.012705 -22563.800000 1 0 0
-5.851939 -4.123619 16.681180 18.152443 0.613846 0.405388 0.019029 -0.013691 425752.000000 1 0 0
-12.850039 -1.544819 9.899380 16.294407 0.119645 0.917846 0.005219 -0.001046 -769807.000000 1 0 0
-14.679239 10.331081 10.344180 20.717465 -0.613264 1.048008 0.017095 -0.000577 183292.000000 1 0 0
-3.642239 -3.440319 17.721780 18.416384 0.756896 0.275522 0.024696 -0.013287 -1866020.000000 1 0 0
-7.891839 9.174081 11.848980 16.936446 -0.860392 0.795939 0.007816 -0.017769 -327464.000000 1 0 0
-4.105539 10.658281 16.170980 19.797853 -1.203116 0.614946 0.008852 -0.015341 414015.000000 1 0 0
-12.316739 12.901581 8.322480 19.682899 -0.808585 1.134233 0.009479 -0.011675 -240237.000000 1 0 0
-12.610439 3.191981 10.420680 16.667408 -0.247915 0.895392 0.006780 -0.009267 244809.000000 1 0 0
-10.144339 -3.463919 13.680080 17.379613 0.329050 0.664648 0.011706 -0.002388 -1162570.000000 1 0 0
-4.176539 -6.649219 17.565480 19.240626 1.009953 0.420372 0.031221 -0.016551 -740731.000000 1 0 0
0.846561 -3.690019 17.887680 18.283927 -1.345280 0.208570 0.015556 -0.014350 -647800.000000 1 0 0
-5.966439 1.801081 13.603280 14.963005 -0.293170 0.429612 0.008451 0.000795 -742821.000000 1 0 0
-10.570739 8.671781 10.187280 17.050542 -0.687031 0.930447 0.011766 -0.016362 304837.000000 1 0 0
4.613861 2.414081 17.238180 18.007508 0.482053 0.293361 0.014922 -0.005818 -1383590.000000 1 0 0
0.536761 -5.400619 13.183080 14.256521 -1.471733 0.390536 0.005979 -0.006235 -1486190.000000 1 0 0
-4.315639 5.674981 20.617080 21.814998 -0.920630 0.332934 0.047301 -0.010301 30028.200000 1 0 0
-10.729639 10.864581 8.932880 17.690693 -0.791647 1.041475 0.012811 -0.014753 -212549.000000 1 0 0
0.657661 4.138181 13.012080 13.670087 1.413189 0.311532 0.006081 -0.004808 -3214870.000000 1 0 0
-3.178239 7.038781 13.303580 15.382811 -1.146669 0.525976 -0.000913 -0.005887 -510439.000000 1 0 0
0.588261 8.785581 14.115280 16.636514 1.503939 0.557743 -0.001281 -0.005824 115043.000000 1 0 0
-4.228539 -6.692719 13.024480 15.241723 1.007314 0.546155 0.014264 -0.010091 -386792.000000 1 0 0
-5.154739 8.306181 16.456480 19.141047 -1.015374 0.536020 0.022117 -0.009257 -436831.000000 1 0 0
1.581561 -10.657019 15.661080 19.009019 -1.423466 0.602580 0.003006 -0.008089 -612180.000000 1 0 0
-15.153039 -1.183519 14.364080 20.912726 0.077946 0.813639 0.028242 -0.005446 413964.000000 1 0 0
-13.944539 -5.235919 8.455980 17.128007 0.359193 1.054465 0.040449 -0.009915 -107324.000000 1 0 0
-14.092639 -1.816619 12.135180 18.685962 0.128199 0.863965 0.020514 -0.007105 417015.000000 1 0 0
9.444761 1.420981 16.932880 19.440811 0.149332 0.513569 0.035426 -0.007715 335038.000000 1 0 0
5.004461 -6.777619 16.819980 18.812030 -0.934773 0.464362 0.015738 -0.008957 590927.000000 1 0 0
-6.176639 -2.716219 11.138380 13.022758 0.414303 0.544665 0.001448 -0.001057 146401.000000 1 0 0
0.573961 -6.221919 17.946480 19.003101 -1.478808 0.335039 0.021941 -0.018205 77101.400000 1 0 0
-8.490539 11.753381 12.192180 18.944140 -0.945200 0.871622 0.017692 -0.019682 -53336.200000 1 0 0
-6.649939 -5.734219 14.713580 17.134538 0.711590 0.538051 0.018914 -0.012452 -775437.000000 1 0 0
-4.409339 -9.095919 16.828880 19.631332 1.119415 0.540899 0.034578 -0.019570 138428.000000 1 0 0
2.427261 -6.171519 16.207680 17.511943 -1.196079 0.388386 0.008362 -0.011340 1046930.000000 1 0 0
2.162361 5.200781 16.119880 17.075551 1.176764 0.336146 0.006723 -0.005770 107616.000000 1 0 0
1.021461 -8.811819 13.950780 16.532265 -1.455392 0.566375 0.000163 -0.009969 -295583.000000 1 0 0
-9.924439 -2.860619 11.236280 15.262097 0.280633 0.743327 -0.002179 0.002507 70971.100000 1 0 0
-1.126639 10.112681 12.365580 16.013844 -1.459845 0.688530 -0.005918 -0.005976 -378024.000000 1 0 0
-12.374939 -3.703419 11.297680 17.160769 0.290785 0.852180 0.013188 -0.001113 -766832.000000 1 0 0
-1.948439 6.538181 19.888180 21.025792 -1.281167 0.330456 0.023177 -0.007360 -826596.000000 1 0 0
0.540261 -13.374819 15.521280 20.496044 -1.530424 0.711655 0.001156 -0.020499 -642511.000000 1 0 0
4.054361 -8.714719 15.296480 18.065616 -1.135348 0.561011 0.008033 -0.007856 -1009660.000000 1 0 0
4.393561 -4.452119 16.251980 17.414120 -0.792018 0.367400 0.015409 -0.003748 -171543.000000 1 0 0
8.185861 1.778881 14.716380 16.933534 0.213984 0.517483 0.015953 0.000183 793487.000000 1 0 0
-6.311039 -0.112819 11.806580 13.387952 0.017875 0.490959 0.003288 0.000689 197765.000000 1 0 0
-3.492339 -10.884919 18.448580 21.703179 1.260330 0.554734 0.048998 -0.019581 472239.000000 1 0 0
3.216861 -1.502519 13.601380 14.057144 -0.436963 0.255339 0.008427 -0.004685 471548.000000 1 0 0
-2.647039 8.592781 15.794380 18.174299 -1.271967 0.517517 0.010822 -0.014735 -1103570.000000 1 0 0
-3.286239 3.982181 14.795980 15.670933 -0.880856 0.335739 0.008805 -0.005573 -1022770.000000 1 0 0
-4.983739 -8.912119 19.535480 22.043105 1.060910 0.481632 0.060292 -0.022768 118399.000000 1 0 0
-5.917139 -3.056319 18.956880 20.092708 0.476776 0.337847 0.030424 -0.019744 -611396.000000 1 0 0
-6.721639 -8.703719 10.954780 15.522318 0.913193 0.787324 0.015326 -0.013295 876831.000000 1 0 0
-11.692639 2.339781 12.604580 17.351306 -0.197499 0.757677 0.011985 -0.017603 -1252010.000000 1 0 0
-11.610439 -7.735419 11.657180 18.180452 0.587712 0.874744 0.028018 -0.012371 562752.000000 1 0 0
-11.074639 -7.154419 15.641180 20.456780 0.573571 0.700381 0.041106 -0.026573 8566.520000 1 0 0
0.093861 5.715381 17.618180 18.522274 1.554375 0.313731 0.005464 -0.005902 -38600.300000 1 0 0
-2.205539 -0.134419 13.170880 13.354945 0.060871 0.166219 0.006894 -0.002686 193897.000000 1 0 0
-6.088639 -10.731419 18.021480 21.840527 1.054718 0.600347 0.066891 -0.019957 -385394.000000 1 0 0
0.297761 2.648681 19.055380 19.240885 1.458848 0.138973 0.014017 -0.008014 -223259.000000 1 0 0
-0.568439 10.926581 14.759280 18.372524 -1.518820 0.637923 0.007030 -0.009451 -347634.000000 1 0 0
-12.771439 -2.180719 14.369980 19.348424 0.169119 0.733710 0.013855 -0.000944 -1696770.000000 1 0 0
-13.850239 8.275281 11.698880 19.929204 -0.538567 0.943421 0.020535 -0.017251 287888.000000 1 0 0
-18.010339 -0.632519 6.987280 19.328592 0.035105 1.200920 0.059712 -0.020522 286967.000000 1 0 0
-2.107539 -8.161719 17.500480 19.424783 1.318094 0.448875 0.021627 -0.014372 -2108140.000000 1 0 0
5.687761 2.685981 14.400080 15.713924 0.441193 0.411830 0.012171 -0.003511 -1481150.000000 1 0 0
-14.019939 -6.655319 11.280880 19.186199 0.443207 0.942251 0.032771 -0.015597 574228.000000 1 0 0
3.069961 7.678281 16.113380 18.111368 1.190442 0.474146 0.004221 -0.015189 -441180.000000 1 0 0
1.009861 2.099181 14.576480 14.761441 1.122404 0.158469 0.007908 -0.007648 -2923610.000000 1 0 0
-14.317739 0.697781 9.767880 17.346355 -0.048697 0.972654 0.016495 -0.006870 -1837590.000000 1 0 0
-9.523939 -5.147519 15.570180 18.963989 0.495507 0.607567 0.018115 -0.008413 -384414.000000 1 0 0
-2.549539 -0.167319 18.014480 18.194769 0.065533 0.140892 0.019572 -0.009411 -119874.000000 1 0 0
6.835761 3.605181 17.582680 19.206134 0.485327 0.414117 0.032420 -0.004625 -439572.000000 1 0 0
-4.185539 -0.868119 14.644880 15.255978 0.204510 0.283995 0.014686 -0.001774 -718540.000000 1 0 0
4.615361 -8.990319 17.929880 20.581739 -1.096510 0.513247 0.009560 0.001144 -391284.000000 1 0 0
1.903761 6.850281 13.493580 15.252126 1.299727 0.484943 0.001815 -0.001321 -2518170.000000 1 0 0
-3.869139 -0.789319 20.193380 20.575856 0.201242 0.193114 0.038149 -0.012189 186068.000000 1 0 0
-10.802939 1.684181 16.394780 19.706059 -0.154655 0.588154 0.020423 -0.006061 -77767.100000 1 0 0
-4.058539 7.070981 18.421080 20.144644 -1.049736 0.416673 0.037142 -0.007946 -364439.000000 1 0 0
-12.581739 0.960681 14.626180 19.317044 -0.076207 0.711835 0.015448 -0.010266 -1014570.000000 1 0 0
-16.286439 -4.312819 8.401780 18.826535 0.258869 1.108200 0.057560 -0.016851 -1136580.000000 1 0 0
-2.293039 0.740581 15.621180 15.805940 -0.312394 0.153050 0.013552 -0.005391 74935.100000 1 0 0
-13.771939 -9.039119 12.321080 20.571363 0.580822 0.928615 0.046653 -0.029080 434865.000000 1 0 0
6.070561 -3.210619 14.550980 16.090084 -0.486486 0.440955 0.012075 -0.006821 532510.000000 1 0 0
-15.647639 0.385481 7.512080 17.361698 -0.024630 1.123332 0.023627 -0.012708 -518000.000000 1 0 0
-13.995739 5.712081 12.337180 19.511909 -0.387495 0.886291 0.016279 -0.019869 9613.950000 1 0 0
0.419161 9.395981 16.676680 19.146065 1.526215 0.513514 0.005340 -0.013129 -56778.300000 1 0 0
-10.488939 -5.523819 10.839680 16.063284 0.484726 0.830088 0.015616 -0.005949 272360.000000 1 0 0
-3.182039 -11.142219 15.038580 18.985081 1.292617 0.656512 0.027446 -0.015830 -653327.000000 1 0 0
-3.516339 2.710381 12.589480 13.349375 -0.656678 0.339034 0.000277 -0.000744 -1406310.000000 1 0 0
-12.399639 -7.627319 7.520880 16.385685 0.551466 1.093937 0.032751 -0.008288 472896.000000 1 0 0
-8.229739 -1.888619 13.202180 15.671408 0.225581 0.569005 0.002773 -0.001322 -767767.000000 1 0 0
-9.781839 6.362781 9.478780 15.033849 -0.576705 0.888604 0.006358 -0.007423 -928795.000000 1 0 0
-18.159139 -3.626519 6.548680 19.641568 0.197114 1.230879 0.069573 -0.018660 370242.000000 1 0 0
-1.301539 -0.052519 20.339080 20.380749 0.040330 0.063957 0.020398 -0.013267 -913551.000000 1 0 0
-2.778139 2.570781 20.138180 20.490809 -0.746651 0.185789 0.030539 -0.006058 -376629.000000 1 0 0
-3.746239 11.312581 11.132480 16.307694 -1.251006 0.819411 0.003738 -0.011943 -777440.000000 1 0 0
-4.127639 -4.868219 14.917880 16.225908 0.867538 0.404279 0.015146 -0.011168 186453.000000 1 0 0
-0.161639 -14.416419 13.185780 19.537760 1.559585 0.829985 0.002610 -0.016211 677464.000000 1 0 0
-12.142239 0.404281 8.281580 14.703128 -0.033283 0.972479 0.000396 -0.002978 -699367.000000 1 0 0
-7.755139 2.017981 15.586780 17.526042 -0.254567 0.474875 0.008299 0.002994 -716013.000000 1 0 0
3.568961 -2.135619 18.490080 18.952082 -0.539233 0.221256 0.020481 -0.005881 -310321.000000 1 0 0
-2.075739 4.822581 12.466280 13.526792 -1.164343 0.398616 -0.003647 -0.000741 -283620.000000 1 0 0
-10.415439 -6.229719 13.317680 18.018084 0.539039 0.739021 0.014676 -0.010687 -348661.000000 1 0 0
2.271761 -3.784819 14.295580 14.961596 -1.030208 0.299497 0.005648 -0.003077 -696942.000000 1 0 0
6.752061 1.073681 16.873680 18.206158 0.157695 0.384965 0.019406 -0.009462 -1079180.000000 1 0 0
-1.988539 -5.822819 13.751380 15.065190 1.241707 0.420729 0.008265 -0.008965 -1553580.000000 1 0 0
-12.956139 3.561581 14.565280 19.816502 -0.268269 0.745118 0.004302 -0.013590 139216.000000 1 0 0
-13.241039 -6.850219 13.716080 20.257874 0.477429 0.827017 0.026868 -0.012814 -805707.000000 1 0 0
-9.611339 6.807581 11.978680 16.799100 -0.616266 0.776951 0.013139 -0.010833 -791179.000000 1 0 0
-1.004439 -2.473319 12.742580 13.019199 1.185034 0.206508 0.007478 -0.003428 437582.000000 1 0 0
-0.078439 6.523781 15.197780 16.538996 -1.558773 0.405499 0.003834 -0.010036 600977.000000 1 0 0
-16.697639 -0.515719 9.721980 19.328580 0.030876 1.043748 0.056909 -0.012780 706627.000000 1 0 0
-1.300439 2.707081 13.687280 14.012889 -1.122964 0.215995 0.004466 -0.002997 -1407870.000000 1 0 0
-11.128739 -3.293019 16.089680 19.838614 0.287693 0.624888 0.017585 -0.010556 295731.000000 1 0 0
-5.149239 -1.441919 17.088480 17.905584 0.273033 0.303267 0.023055 -0.003227 101592.000000 1 0 0
-11.930739 6.633881 10.954180 17.502713 -0.507463 0.894568 0.014476 -0.010684 -1779370.000000 1 0 0
-3.006839 4.665281 18.645780 19.454332 -0.998287 0.289319 0.027936 -0.006756 473305.000000 1 0 0
5.081661 -1.941119 16.359180 17.239895 -0.364881 0.321020 0.017164 -0.006567 -1292770.000000 1 0 0
-8.103839 -4.257819 12.197580 15.250645 0.483767 0.643822 0.010439 -0.000519 -1194770.000000 1 0 0
-11.386439 -0.764919 16.194280 19.811380 0.067077 0.613873 0.015563 -0.006081 875072.000000 1 0 0
2.117061 1.976181 17.341180 17.581347 0.750994 0.165478 0.009171 -0.006205 -1403110.000000 1 0 0
-8.914639 -7.515119 11.594780 16.443440 0.700421 0.788188 0.018697 -0.013136 954672.000000 1 0 0
-7.176239 6.928681 14.656780 17.729247 -0.767849 0.597578 -0.001795 -0.015304 -751728.000000 1 0 0
-5.653839 3.476881 15.726080 17.069393 -0.551346 0.399379 0.013427 -0.005639 -69675.100000 1 0 0
-9.358939 4.204481 11.528280 15.432713 -0.422228 0.727254 0.000357 -0.008142 -125254.000000 1 0 0
-10.081639 0.258681 14.244480 17.453125 -0.025653 0.616069 0.004418 -0.001071 -168969.000000 1 0 0
8.145461 -0.568819 15.762680 17.752019 -0.069719 0.477955 0.016474 -0.004940 120789.000000 1 0 0
-8.628539 -7.442519 14.729280 18.622418 0.711733 0.658447 0.024377 -0.011509 -3563610.000000 1 0 0
-0.055639 4.028481 15.585980 16.098277 -1.556986 0.252956 0.007693 -0.007546 77774.000000 1 0 0
-8.046739 3.127681 9.509880 12.844073 -0.370718 0.737116 -0.001463 -0.002483 -205982.000000 1 0 0
-2.072839 -9.774719 13.100780 16.476414 1.361831 0.651586 -0.000237 -0.007999 395295.000000 1 0 0
-6.048539 10.320181 10.550580 15.950100 -1.040669 0.848014 0.008033 -0.013948 -1600210.000000 1 0 0
-8.574639 -2.749819 15.611080 18.021980 0.310331 0.523201 0.019221 -0.008568 9199.840000 1 0 0
4.063061 5.821981 17.805380 19.168606 0.961493 0.379413 0.010853 -0.004263 180883.000000 1 0 0
-6.800739 -0.999419 15.205680 16.687168 0.145913 0.424560 0.010825 -0.001111 793499.000000 1 0 0
-0.880439 -9.945219 15.328080 18.292966 1.482498 0.577331 -0.000760 -0.011377 -1077710.000000 1 0 0
-4.429239 5.821781 16.115280 17.697840 -0.920416 0.426114 0.016414 -0.013721 -70351.300000 1 0 0
3.845861 0.020281 17.336380 17.757847 0.005273 0.218305 0.016764 -0.006475 -383637.000000 1 0 0
1.339461 0.308181 19.192880 19.242031 0.226143 0.071491 0.012732 -0.006753 -256374.000000 1 0 0
-6.460739 6.450081 17.642080 19.864231 -0.784573 0.477529 0.016832 -0.020150 -284798.000000 1 0 0
-12.109739 0.613781 10.847980 16.269640 -0.050642 0.840941 0.007469 -0.005761 -1144620.000000 1 0 0
-5.455539 5.055281 13.801880 15.678350 -0.747336 0.494271 0.007063 -0.007244 -953356.000000 1 0 0
-8.733839 -9.556519 9.862280 16.274875 0.830347 0.919797 0.026841 -0.011886 -1367850.000000 1 0 0
6.820761 -3.763419 17.070880 18.764356 -0.504193 0.428114 0.019468 -0.003317 -737600.000000 1 0 0
-16.427539 2.080281 9.312980 18.997979 -0.125963 1.058467 0.029806 -0.011669 328854.000000 1 0 0
-4.191039 -9.515619 11.513580 15.513682 1.155923 0.734514 0.010454 -0.012696 378983.000000 1 0 0
-11.153439 -3.814019 9.088680 14.884557 0.329493 0.913964 0.009041 -0.000607 -44380.500000 1 0 0
3.535861 -5.490819 18.551180 19.667173 -0.998680 0.338493 0.010331 -0.009803 -277621.000000 1 0 0
2.491261 -1.789519 16.113780 16.403130 -0.622915 0.188106 0.011938 -0.006296 -634760.000000 1 0 0
-3.276639 -4.343019 20.193480 20.913508 0.924446 0.263166 0.034985 -0.017083 -624343.000000 1 0 0
-6.258439 -3.344419 14.336680 15.996674 0.490776 0.459603 0.010271 -0.002578 871227.000000 1 0 0
-9.502039 5.073381 13.978280 17.647103 -0.490418 0.656554 0.014391 -0.015090 138556.000000 1 0 0
-5.942839 -5.293419 11.744380 14.186898 0.727666 0.595563 0.006987 -0.002820 -487250.000000 1 0 0
6.183361 1.870281 19.358680 20.408096 0.293721 0.322082 0.036947 -0.011362 130004.000000 1 0 0
-2.677739 11.807281 13.514180 18.144289 -1.347782 0.730535 0.008223 -0.017300 -1181230.000000 1 0 0
3.399461 1.361581 15.166480 15.602319 0.380962 0.236919 0.008540 -0.004788 -399042.000000 1 0 0
-5.710639 7.413181 12.693180 15.769701 -0.914407 0.635274 -0.002614 -0.011231 -998074.000000 1 0 0
-1.742239 -1.614219 15.155180 15.340162 0.747275 0.155454 0.015015 -0.004474 -849120.000000 1 0 0
-7.300739 10.288081 14.053780 18.885288 -0.953636 0.731512 0.022895 -0.027550 -571189.000000 1 0 0
-10.174539 2.081181 10.482080 14.755560 -0.201765 0.780756 0.000366 -0.004903 -1977280.000000 1 0 0
-13.732639 5.218981 9.057080 17.258442 -0.363184 1.018326 0.012479 -0.009293 -79890.500000 1 0 0
0.386161 -5.013419 20.162180 20.779725 -1.493923 0.244406 0.023794 -0.019085 -130795.000000 1 0 0
-14.466639 -2.831219 7.441180 16.512741 0.193264 1.103322 0.021081 -0.009613 597148.000000 1 0 0
-2.466539 2.447581 17.559180 17.899700 -0.781540 0.195368 0.014092 -0.005997 -120675.000000 1 0 0
-6.384339 -8.398519 14.426180 17.872033 0.920815 0.631415 0.024582 -0.012751 -109564.000000 1 0 0
-8.044739 1.908981 11.908180 14.497130 -0.232986 0.606906 0.001187 -0.000509 595490.000000 1 0 0
-14.684039 -3.298319 10.125980 18.139332 0.220952 0.978541 0.031958 -0.014672 316527.000000 1 0 0
-0.589039 7.023981 12.714280 14.537406 -1.487131 0.506205 -0.000336 -0.004298 -937066.000000 1 0 0
-1.899239 -2.290019 19.370780 19.597918 0.878411 0.152397 0.029870 -0.010924 -66943.700000 1 0 0
-12.914939 10.463781 7.451380 18.215637 -0.680934 1.149367 0.009436 -0.011365 12448.300000 1 0 0
-19.504539 2.144581 6.926080 20.808576 -0.109513 1.231475 0.056752 -0.018353 27779.400000 1 0 0
-16.328839 8.368981 6.755280 19.552612 -0.473619 1.218033 0.026227 -0.006530 309473.000000 1 0 0
-12.319339 7.195081 13.492080 19.635975 -0.528607 0.813292 0.020370 -0.018298 -391895.000000 1 0 0
-16.098039 8.224481 10.504580 20.907777 -0.472329 1.044396 0.022660 -0.003698 -1252750.000000 1 0 0
2.082061 10.625081 14.975080 18.479186 1.377291 0.626004 0.003526 -0.017665 703681.000000 1 0 0
2.460461 14.637781 12.211680 19.220916 1.404263 0.882357 -0.004757 -0.007346 -1039730.000000 1 0 0
-3.119239 13.727681 11.687680 18.297014 -1.347367 0.877891 0.000639 -0.011839 261437.000000 1 0 0
9.119661 5.026881 16.014980 19.102809 0.503774 0.576534 0.030959 0.008627 -22401.000000 1 0 0
-0.333439 12.623281 12.811680 17.988817 -1.544388 0.778166 -0.002265 -0.006062 -27295.500000 1 0 0
3.340561 13.495281 14.389880 20.008763 1.328139 0.768176 -0.006163 -0.004100 -72132.100000 1 0 0
-2.740539 -4.159419 -13.679920 14.558556 0.988207 2.792397 0.000983 -0.006778 -365259.000000 1 0 0
5.756661 -11.560619 16.267380 20.770525 -1.108787 0.671008 0.005068 -0.001188 195972.000000 1 0 0
8.075861 -13.578919 7.288780 17.399221 -1.034257 1.138547 0.008228 -0.006879 -163062.000000 1 0 0
-0.153239 15.547481 1.310380 15.603356 -1.560940 1.486717 0.003809 -0.004916 -3290890.000000 1 0 0
-13.887139 8.073181 9.077980 18.450978 -0.526588 1.056405 0.013408 -0.009118 646823.000000 1 0 0
-15.447039 -9.635919 5.062880 18.896950 0.557739 1.299562 0.039921 -0.010714 -413575.000000 1 0 0
9.340361 -11.070219 11.145080 18.275801 -0.869949 0.914954 0.011097 -0.006056 178880.000000 1 0 0
-4.835939 -10.971419 -16.678320 20.540806 1.155639 2.518299 0.031127 -0.011770 95467.800000 1 0 0
-0.702239 -12.803419 -14.520820 19.372013 1.516003 2.418219 0.037132 -0.006300 -7181.430000 1 0 0
5.627161 -15.936319 -11.803420 20.614363 -1.231360 2.180449 0.024034 -0.002324 15638.200000 1 0 0
2.829161 -11.625019 -16.734120 20.571242 -1.332069 2.520893 0.021333 -0.001755 275922.000000 1 0 0
2.075261 -14.959319 -14.470820 20.916323 -1.432949 2.334835 0.080402 0.029484 352501.000000 1 0 0
-6.372839 -6.233119 -14.626920 17.129263 0.774315 2.594257 0.013612 -0.003281 -64184.800000 1 0 0
-6.122539 -8.188919 -17.244720 20.048049 0.928794 2.606398 0.018456 -0.008069 9129.350000 1 0 0
-2.151439 -16.322119 -12.883620 20.905213 1.439741 2.234816 0.035459 -0.009444 54101.300000 1 0 0
16.248661 -7.992319 -8.943620 20.196150 -0.457127 2.029558 0.049038 -0.018638 -136689.000000 1 0 0
19.002161 -2.539019 -3.668320 19.518845 -0.132831 1.759858 0.030659 -0.011251 64474.600000 1 0 0
16.065461 -10.881219 -8.987120 21.383833 -0.595332 2.004546 0.067041 -0.032008 288073.000000 1 0 0
18.879861 -3.268519 -6.567520 20.254992 -0.171423 1.901007 0.162681 -0.007728 -325020.000000 1 0 0
9.019661 -9.632119 -15.545220 20.390828 -0.818223 2.437754 0.050978 -0.012986 208200.000000 1 0 0
-4.773239 9.089381 -16.348420 19.304701 -1.087236 2.580853 0.003389 -0.011066 524482.000000 1 0 0
2.769561 -9.601519 -18.260320 20.815834 -1.289969 2.640862 0.036194 -0.005144 253634.000000 1 0 0
10.876861 8.142881 -15.193620 20.382804 0.642632 2.411951 0.052829 -0.030160 511842.000000 1 0 0
18.486161 -6.774119 -8.327520 21.376960 -0.351247 1.970946 0.038955 -0.012103 85245.900000 1 0 0
12.107861 5.125581 -14.033320 19.230339 0.400452 2.388751 0.019002 -0.004324 124353.000000 1 0 0
15.871761 6.481881 -10.601620 20.157429 0.387719 2.124618 0.019105 -0.013637 212891.000000 1 0 0
3.456961 -0.290919 -19.187720 19.498816 -0.083957 2.962723 0.038527 -0.011478 145726.000000 1 0 0
10.124261 -1.379719 -14.687420 17.892026 -0.135444 2.533767 0.016935 -0.007445 -82649.800000 1 0 0
12.467661 -6.059219 -13.798920 19.559318 -0.452381 2.353912 0.055278 -0.004800 437038.000000 1 0 0
10.133861 6.698381 -12.957720 17.761361 0.584062 2.388453 0.027908 -0.002968 440171.000000 1 0 0
10.747161 5.271581 -16.231720 20.168286 0.456026 2.506158 0.042823 -0.017064 482348.000000 1 0 0
12.113461 -10.379919 -14.719120 21.705556 -0.708481 2.316007 0.073347 -0.018198 251999.000000 1 0 0
-1.238139 2.285081 -17.478020 17.670194 -1.074243 2.993976 0.014162 -0.008155 226494.000000 1 0 0
6.414461 -1.083419 -17.182720 18.372942 -0.167323 2.779673 0.025440 0.005809 98191.100000 1 0 0
6.145261 -5.717619 -15.900620 17.980131 -0.749365 2.655883 -0.012227 -0.008275 94278.100000 1 0 0
-2.247439 -4.291219 -20.256120 20.827289 1.088346 2.906857 0.050648 -0.030341 207719.000000 1 0 0
16.072961 -0.195519 -13.311320 20.870303 -0.012164 2.262450 0.036024 -0.004413 107139.000000 1 0 0
-4.016739 -0.500919 -18.569520 19.005583 0.124067 2.926966 0.017912 -0.010807 151954.000000 1 0 0
3.507861 8.490581 -18.085420 20.284908 1.179008 2.671597 0.016598 -0.015398 73282.400000 1 0 0
9.689261 -0.143319 -17.309220 19.837122 -0.014790 2.631229 0.034812 0.000191 -17068.500000 1 0 0
4.098061 4.541181 -18.252720 19.250408 0.836645 2.818233 0.020498 -0.003557 422093.000000 1 0 0
-2.638939 -11.333619 -17.823820 21.286228 1.342031 2.563196 0.052489 -0.017986 145710.000000 1 0 0
5.687361 -9.713819 -15.934620 19.509395 -1.041113 2.526581 0.005612 -0.008744 12251.500000 1 0 0
9.919961 -13.028619 -11.709520 20.131155 -0.920040 2.191566 0.024484 0.033382 239592.000000 1 0 0
6.085061 7.007781 -17.266820 19.603062 0.855757 2.648393 0.027827 -0.000040 363178.000000 1 0 0
9.761061 1.759981 -19.919620 22.252351 0.178390 2.679607 0.082531 -0.018210 74546.300000 1 0 0
-1.288939 -0.427519 -20.048420 20.094360 0.320265 3.073960 0.036786 -0.019470 54633.000000 1 0 0
-1.249239 7.059081 -19.390020 20.672787 -1.395641 2.787464 0.009605 -0.007709 -130466.000000 1 0 0
8.786961 5.721381 -18.007520 20.837842 0.577163 2.614303 0.048540 -0.019455 196403.000000 1 0 0
12.107561 0.007481 -12.885220 17.681120 0.000618 2.387300 0.010930 -0.003859 -37835.200000 1 0 0
-4.089839 -2.791319 -19.704720 20.317339 0.598885 2.895401 0.014645 -0.014697 254113.000000 1 0 0
6.581761 -11.417419 -14.277020 19.429626 -1.047861 2.396178 0.012421 -0.006107 50639.800000 1 0 0
11.264161 1.919681 -16.084620 19.730218 0.168802 2.523919 0.025291 0.001178 -285913.000000 1 0 0
-2.761639 -4.339619 -17.117720 17.873872 1.004057 2.849680 0.011380 -0.010487 62003.500000 1 0 0
-6.829339 -4.953119 -17.658120 19.569938 0.627486 2.695891 0.026570 -0.007247 27802.700000 1 0 0
3.029961 10.031181 -14.948020 18.255097 1.277456 2.530185 0.001837 -0.021660 299322.000000 1 0 0
17.213261 -6.026719 -10.585020 21.086971 -0.336782 2.096671 0.072829 -0.024445 -39620.100000 1 0 0
9.678161 -3.229819 -17.483520 20.242826 -0.322101 2.613341 0.027409 -0.012516 158246.000000 1 0 0
-7.207839 -1.671019 -18.516920 19.940451 0.227809 2.761448 0.014428 -0.007222 369742.000000 1 0 0
1.741461 -7.443819 -19.299420 20.758390 -1.340982 2.764439 0.040428 -0.016788 272664.000000 1 0 0
5.561261 10.101381 -14.043420 18.170943 1.067535 2.454117 0.023520 -0.020416 308059.000000 1 0 0
6.192961 -3.627519 -17.896220 19.281762 -0.529875 2.760187 0.036916 -0.018430 575113.000000 1 0 0
4.416661 13.404981 -14.758720 20.421073 1.252519 2.378526 0.017311 -0.010659 256640.000000 1 0 0
9.416961 11.372281 -15.419020 21.348398 0.879177 2.377856 0.076722 -0.025484 289656.000000 1 0 0
16.859861 1.115681 -11.203920 20.273813 0.066077 2.156313 0.036002 -0.003630 99925.000000 1 0 0
14.805561 -2.997119 -12.195020 19.414064 -0.199733 2.249975 0.046431 -0.009596 90527.400000 1 0 0
-8.813739 0.043281 -17.293420 19.409952 -0.004911 2.670243 0.029541 -0.006821 455353.000000 1 0 0
-3.280039 4.170781 -19.104820 19.827966 -0.904383 2.870687 0.017212 -0.003958 33214.400000 1 0 0
4.413961 2.291581 -16.707820 17.432316 0.478863 2.852278 0.019758 -0.009973 399393.000000 1 0 0
-5.193939 14.544381 -13.755420 20.681576 -1.227802 2.298431 0.023599 -0.011365 228734.000000 1 0 0
1.097461 9.282581 -17.582920 19.913056 1.453115 2.652979 0.008624 -0.009969 440654.000000 1 0 0
1.358961 -5.014319 -19.959220 20.624273 -1.306138 2.886952 0.032865 -0.005805 628351.000000 1 0 0
3.850661 -6.293019 -18.092420 19.538817 -1.021677 2.754401 0.032499 -0.019565 -52988.000000 1 0 0
-6.939039 7.507381 -16.103420 19.074359 -0.824719 2.575950 0.005924 0.003830 -22070.900000 1 0 0
-11.818639 3.082081 -16.725220 20.710201 -0.255100 2.510840 0.066799 -0.021279 315513.000000 1 0 0
-4.384239 6.896881 -17.495920 19.310509 -1.004551 2.704606 0.001833 0.015469 421214.000000 1 0 0
-8.176839 5.048281 -17.916120 20.330598 -0.553107 2.649274 0.016581 -0.000103 418737.000000 1 0 0
-8.523339 4.307881 -15.028120 17.805885 -0.467976 2.575489 0.000183 -0.013311 446272.000000 1 0 0
9.371261 13.750081 -12.423320 20.765937 0.972566 2.212118 0.084204 -0.034472 580818.000000 1 0 0
14.308061 10.301281 -11.670520 21.143274 0.623999 2.155525 0.082982 -0.024769 150506.000000 1 0 0
8.207561 15.736681 -9.981620 20.362709 1.090053 2.083105 0.049981 -0.017270 198472.000000 1 0 0
8.232961 13.489281 -14.265020 21.289273 1.022813 2.305082 0.054315 -0.028027 236359.000000 1 0 0
4.315261 15.580681 -13.222320 20.885613 1.300607 2.256325 0.014663 -0.008221 255353.000000 1 0 0
11.442361 10.984581 -10.499620 19.021847 0.764989 2.155529 0.088353 -0.048042 225469.000000 1 0 0
16.206761 9.324981 -8.861120 20.691395 0.522117 2.013353 0.097543 -0.057996 167104.000000 1 0 0
13.622561 11.513681 -8.971520 19.965650 0.701696 2.036831 0.103732 -0.021875 84668.800000 1 0 0
10.567361 11.823381 -6.968620 17.321175 0.841435 1.984844 0.051123 -0.018629 52291.100000 1 0 0
4.623561 16.342681 -9.658520 19.538361 1.295088 2.087867 0.018531 -0.025854 51174.700000 1 0 0
10.572561 13.077481 -10.101920 19.617552 0.890921 2.111737 0.094110 -0.058687 43563.000000 1 0 0
7.772261 -19.271319 -1.495420 20.833340 -1.187442 1.642638 0.040546 -0.009977 93314.600000 1 0 0
7.819461 -17.654719 -4.130320 19.745699 -1.153854 1.781528 0.046537 0.007296 271158.000000 1 0 0
4.490561 -17.399919 4.512680 18.527995 -1.318228 1.324762 0.054137 -0.062031 260699.000000 1 0 0
10.200161 -18.024519 -2.690120 20.884524 -1.055824 1.699964 0.050195 -0.003649 628972.000000 1 0 0
-3.064039 -14.564319 7.855680 16.829125 1.363440 1.085138 0.022135 -0.038005 115087.000000 1 0 0
-15.159139 -12.809419 -4.023420 20.250151 0.701582 1.770813 0.039784 -0.007471 109068.000000 1 0 0
-9.298539 -12.641019 -7.240520 17.282457 0.936585 2.003087 0.030262 -0.015679 173568.000000 1 0 0
-11.368839 -15.667019 6.506480 20.421564 0.943059 1.246535 0.040764 -0.007759 353164.000000 1 0 0
-14.452439 -6.791019 -7.094520 17.473499 0.439269 1.988887 0.032580 -0.037158 -269484.000000 1 0 0
4.947661 -15.214519 6.883580 17.416791 -1.256390 1.164482 0.036298 -0.019527 297450.000000 1 0 0
2.558961 -13.931319 9.057380 16.812676 -1.389137 1.001875 0.007087 -0.012192 282423.000000 1 0 0
3.348961 -17.251719 9.986280 20.212945 -1.379058 1.054050 0.039420 -0.020024 326367.000000 1 0 0
-7.225239 -17.245319 -5.614220 19.522412 1.174046 1.862494 -0.014447 -0.020651 -175180.000000 1 0 0
2.085661 -19.931819 -3.959620 20.428069 -1.466536 1.765863 0.027573 -0.006512 139800.000000 1 0 0
-17.287539 -10.923019 -2.292420 20.577331 0.563505 1.682433 -0.038643 -0.007331 -87997.600000 1 0 0
-4.274539 -14.909919 2.817180 15.764323 1.291594 1.391125 -0.001439 0.000150 152818.000000 1 0 0
-10.592539 -9.702619 -14.644220 20.513310 0.741577 2.365832 0.048021 -0.012510 93037.800000 1 0 0
0.524961 -20.386419 2.424880 20.536838 -1.545051 1.452446 0.046312 -0.021351 249343.000000 1 0 0
5.416961 -18.795419 0.798880 19.576758 -1.290194 1.529977 0.025411 0.001382 130733.000000 1 0 0
-7.634639 -18.586719 -3.674620 20.426862 1.181051 1.751673 0.021981 -0.032337 26523.300000 1 0 0
-9.429839 -15.753119 -7.513620 19.837770 1.031406 1.959245 0.057310 -0.019562 6580.590000 1 0 0
-11.877239 -11.215919 -12.429920 20.527264 0.756769 2.221231 0.045328 0.002216 341884.000000 1 0 0
-13.273139 -15.338519 -3.611620 20.603160 0.857460 1.747001 0.050541 -0.001744 231049.000000 1 0 0
-0.752939 -20.483519 -2.580320 20.659127 1.534055 1.696023 0.020070 -0.022521 343794.000000 1 0 0
-12.085639 -16.603219 -1.093920 20.565170 0.941584 1.624014 0.059264 -0.020626 208624.000000 1 0 0
0.614861 -19.792919 5.334980 20.508528 -1.539742 1.307635 0.059114 -0.035489 87023.100000 1 0 0
-18.088839 -8.764319 2.725680 20.284199 0.451183 1.436014 0.049440 -0.016264 -41340.600000 1 0 0
-15.039139 -15.027519 -0.374620 21.263640 0.785012 1.588415 0.062307 -0.012869 35477.500000 1 0 0
10.224661 -15.677219 -5.117920 19.403917 -0.992877 1.837711 0.046279 -0.002749 12038.200000 1 0 0
0.077661 -18.972819 -7.169420 20.282369 -1.566703 1.932085 0.015812 -0.005106 243948.000000 1 0 0
-9.958039 -17.712119 -2.982520 20.537214 1.058623 1.716537 0.046189 0.007155 481576.000000 1 0 0
-14.854239 -6.953319 -11.314120 19.925019 0.437806 2.174669 0.061320 -0.023781 47006.600000 1 0 0
-12.036039 -15.400319 2.165580 19.665345 0.907410 1.460451 0.041856 -0.014601 193794.000000 1 0 0
-2.740139 -16.126319 9.914180 19.127402 1.402487 1.025907 0.013993 -0.024624 417989.000000 1 0 0
-12.305839 -14.398119 -6.787520 20.119889 0.863589 1.914901 0.038097 -0.010784 217771.000000 1 0 0
5.257061 -16.984119 -7.201420 19.182217 -1.270621 1.955648 0.023380 -0.010851 47136.300000 1 0 0
-17.571039 -7.423219 -2.819720 19.282023 0.399725 1.717558 0.005064 -0.008608 -120218.000000 1 0 0
-12.237439 -13.824619 -9.380820 20.709293 0.846223 2.040897 0.052036 -0.019821 100081.000000 1 0 0
-7.801439 -14.170419 10.066580 19.052540 1.067536 1.014130 0.038901 -0.006266 587014.000000 1 0 0
-15.851339 -8.220719 -5.916520 18.810911 0.478427 1.890754 0.037953 -0.005786 195257.000000 1 0 0
-0.915839 -19.695619 0.140580 19.717402 1.524330 1.563667 0.025644 -0.017621 205157.000000 1 0 0
-14.860339 -11.583619 -1.918520 18.939130 0.662115 1.672270 0.021878 0.009596 -52535.400000 1 0 0
-7.343239 -18.794219 1.206780 20.213910 1.198317 1.511060 0.027427 -0.016898 185477.000000 1 0 0
-2.353339 -20.706319 -5.318120 21.507493 1.457629 1.820656 0.016242 -0.006437 125364.000000 1 0 0
-9.003839 -19.617719 -1.309020 21.624929 1.140512 1.631366 0.030968 -0.011366 74098.100000 1 0 0
-17.784939 -7.383419 5.113080 19.923918 0.393498 1.311262 0.057448 -0.018154 -73591.000000 1 0 0
-3.604339 -15.353719 -10.720420 19.069750 1.340218 2.167802 0.025217 -0.006239 -15603.300000 1 0 0
-2.878139 -18.145619 -8.098320 20.078097 1.413493 1.985961 0.009164 -0.007497 123924.000000 1 0 0
4.106761 -18.320619 -5.831220 19.659952 -1.350281 1.871931 0.019763 0.034389 423329.000000 1 0 0
0.747961 -17.314619 -9.192920 19.617983 -1.527625 2.058498 0.015084 0.001021 -48361.200000 1 0 0
-7.571239 -10.195119 -14.954920 19.619219 0.932026 2.437592 0.025298 -0.006537 506503.000000 1 0 0
-5.141239 -19.438919 -2.225520 20.230098 1.312235 1.681030 0.023458 -0.023313 213873.000000 1 0 0
-10.314239 -14.881719 8.830580 20.145179 0.964729 1.117038 0.039306 -0.040214 304909.000000 1 0 0
-7.286339 -15.168819 -10.255420 19.706787 1.122992 2.118116 0.031803 -0.012547 231919.000000 1 0 0
-12.751539 -7.979119 -12.222420 19.381838 0.559130 2.253138 0.054743 -0.022940 428662.000000 1 0 0
-15.819039 -13.076619 3.094380 20.756087 0.690774 1.421155 0.065811 -0.006503 219127.000000 1 0 0
-6.217439 -14.193519 -12.766620 20.077329 1.157926 2.259935 0.022166 -0.003164 527047.000000 1 0 0
-14.229839 -11.592419 -6.701620 19.539299 0.683614 1.920886 0.047407 -0.013745 161321.000000 1 0 0
-11.601339 -10.302519 -9.136720 18.005905 0.726171 2.102995 0.032302 -0.010207 136996.000000 1 0 0
-9.527539 -14.858319 3.000480 17.903813 1.000614 1.402413 0.010667 -0.002101 394680.000000 1 0 0
4.978661 -18.559619 7.721880 20.709272 -1.308714 1.188695 0.057320 -0.022727 241354.000000 1 0 0
-4.968039 -16.643819 5.439480 18.201266 1.280724 1.267307 0.001245 0.007880 463277.000000 1 0 0
-18.333039 -7.429719 -6.982820 20.977627 0.385036 1.910142 0.039210 -0.015271 14400.500000 1 0 0
-17.262839 -4.764119 -10.876120 20.952146 0.269273 2.116586 0.079440 -0.007974 -178305.000000 1 0 0
-15.833839 -4.130619 -12.798020 20.774065 0.255186 2.234524 0.073415 -0.022131 294683.000000 1 0 0
-19.435939 -5.795719 -5.985820 21.146539 0.289801 1.857783 0.053854 -0.016264 -123363.000000 1 0 0
5.887761 -13.628219 8.772980 17.244108 -1.162989 1.037061 0.036298 -0.004982 230316.000000 1 0 0
19.708461 -4.009019 3.049580 20.341967 -0.200678 1.420313 0.029599 -0.007040 -90857.600000 1 0 0
18.801761 -2.765219 1.241780 19.044544 -0.146026 1.505546 0.058875 -0.019577 318286.000000 1 0 0
14.223461 -11.370719 0.396180 18.214199 -0.674396 1.549043 0.045307 -0.001506 72553.900000 1 0 0
11.309261 -14.055019 5.355380 18.818157 -0.893231 1.282222 0.034865 0.004152 488932.000000 1 0 0
10.387561 -12.569619 8.176280 18.241390 -0.880163 1.106016 0.040786 -0.030130 31110.300000 1 0 0
17.874161 5.140781 -4.666920 19.175333 0.280051 1.816647 0.011642 0.003121 21943.100000 1 0 0
19.072661 -5.921619 -4.269520 20.422066 -0.301041 1.781414 0.055424 -0.024317 -88218.600000 1 0 0
17.834161 -10.177619 -0.352220 20.536925 -0.518582 1.587948 0.072124 -0.015224 411334.000000 1 0 0
17.927261 -8.793119 8.685180 21.774710 -0.456010 1.160517 0.104420 -0.025418 -109542.000000 1 0 0
19.184361 0.157381 -2.841120 19.394237 0.008203 1.717818 0.006644 0.003837 74173.900000 1 0 0
7.498461 -13.038119 11.682080 19.044434 -1.048873 0.910423 0.020232 -0.009493 433792.000000 1 0 0
16.176561 -6.670219 -3.253420 17.797688 -0.391098 1.754630 0.041644 -0.014194 272889.000000 1 0 0
14.447061 -7.004919 12.014480 20.053284 -0.451469 0.928385 0.033225 -0.025063 472012.000000 1 0 0
17.227661 1.647281 9.431980 19.709594 0.095329 1.071796 0.088726 -0.021488 264769.000000 1 0 0
16.745061 -10.413419 2.776880 19.913499 -0.556353 1.430893 0.039801 -0.009022 236541.000000 1 0 0
16.399561 -7.210319 -5.738420 18.811267 -0.414227 1.880790 0.055780 -0.015427 328313.000000 1 0 0
18.892861 -4.682819 5.727880 20.289840 -0.242965 1.284603 0.144351 -0.017948 67026.400000 1 0 0
13.112661 -13.348019 8.160680 20.413432 -0.794293 1.159530 0.038252 -0.015189 130893.000000 1 0 0
15.338661 -14.056319 -1.655120 20.870890 -0.741801 1.650182 0.058272 -0.008841 237975.000000 1 0 0
18.874661 -6.644819 8.091280 21.584144 -0.338500 1.186538 0.082598 -0.024281 169262.000000 1 0 0
19.455861 4.128081 2.658880 20.065922 0.209076 1.437898 0.053943 -0.003441 124908.000000 1 0 0
15.234461 -9.900019 8.672080 20.132167 -0.576265 1.125464 0.043540 -0.038222 123598.000000 1 0 0
14.466661 -4.243819 10.742580 18.512085 -0.285346 0.951698 0.037986 -0.009172 64193.000000 1 0 0
18.722161 -7.993419 2.499680 20.510058 -0.403521 1.448617 0.064048 -0.019168 -12515.700000 1 0 0
18.878361 -4.913619 -1.537520 19.567834 -0.254628 1.649451 0.039036 -0.014739 240979.000000 1 0 0
14.994661 -13.141619 -6.104920 20.852148 -0.719634 1.867921 0.077228 -0.024774 315664.000000 1 0 0
13.545761 -9.973919 10.749980 19.963185 -0.634684 1.002152 0.014287 0.001418 443099.000000 1 0 0
14.293061 2.396681 0.573380 14.503945 0.166136 1.531253 0.007714 0.003317 -70712.600000 1 0 0
13.068761 2.382081 13.621480 19.026601 0.180294 0.772859 0.028662 -0.001866 -56668.500000 1 0 0
18.257061 -3.500019 8.932480 20.624248 -0.189410 1.122861 0.054615 -0.020138 124269.000000 1 0 0
7.689861 -18.561219 5.198680 20.752809 -1.178026 1.317595 0.071642 -0.028568 299401.000000 1 0 0
12.868361 -2.737019 15.028480 19.973512 -0.209571 0.719067 0.020476 0.002963 377708.000000 1 0 0
11.520961 -13.320619 -7.243020 19.042919 -0.857717 1.960974 0.045110 -0.015244 203281.000000 1 0 0
10.910361 -17.593519 4.758080 21.241639 -1.015703 1.344882 0.048437 -0.014457 652937.000000 1 0 0
18.470961 -0.224719 -5.504520 19.275026 -0.012165 1.860406 0.046261 -0.003372 282535.000000 1 0 0
4.149661 -13.595119 11.390780 18.215291 -1.274547 0.895227 0.000638 -0.009613 -56283.500000 1 0 0
9.255661 -2.734819 14.185880 17.157671 -0.287301 0.597410 0.020830 -0.004895 504369.000000 1 0 0
9.087861 -9.479819 14.325480 19.433877 -0.806505 0.741969 0.024259 0.005315 347795.000000 1 0 0
21.208561 5.759281 -2.859820 22.161926 0.265160 1.700199 0.092964 -0.013715 610328.000000 1 0 0
14.847761 -13.568819 2.126180 20.225961 -0.740422 1.465480 0.041250 0.001706 322365.000000 1 0 0
11.018361 0.237881 14.075280 17.876643 0.021586 0.664288 0.025917 -0.023807 161988.000000 1 0 0
19.462761 0.327381 7.686780 20.928278 0.016819 1.194701 0.069415 -0.018905 105303.000000 1 0 0
20.070861 1.150981 0.411880 20.108055 0.057283 1.550312 0.066900 -0.005469 332781.000000 1 0 0
18.016661 0.457281 2.935480 18.259962 0.025376 1.409335 0.038463 -0.003909 6283.340000 1 0 0
10.410561 -7.985819 16.513480 21.091423 -0.654348 0.671406 0.036828 -0.006873 119901.000000 1 0 0
19.181561 2.915481 5.457880 20.154919 0.150839 1.296576 0.054392 -0.009665 214109.000000 1 0 0
15.840761 2.587481 7.378680 17.665494 0.161913 1.139896 0.031309 -0.004078 63136.600000 1 0 0
11.383161 -16.138819 1.845680 19.835432 -0.956503 1.477612 0.020477 0.005333 322153.000000 1 0 0
8.563961 -16.046719 6.828180 19.428398 -1.080562 1.211673 0.040166 -0.012963 367511.000000 1 0 0
6.043761 6.830581 7.333380 11.703091 0.846438 0.893589 0.004941 0.003051 -1314770.000000 1 0 0
18.402461 2.968981 -6.366220 19.697568 0.159958 1.899904 0.013928 0.005009 325879.000000 1 0 0
14.211161 4.559381 -7.027520 16.496396 0.310457 2.010867 0.013874 -0.008079 158286.000000 1 0 0
-10.454639 -4.075119 -13.642820 17.664445 0.371674 2.453301 0.028018 -0.010083 -460172.000000 1 0 0
7.829461 -14.258519 -10.244420 19.223787 -1.068639 2.132824 0.019415 0.002518 6431.720000 1 0 0
1.967661 -15.610819 14.049280 21.093877 -1.445413 0.841915 0.003465 -0.014181 306619.000000 1 0 0
-9.304639 -8.051319 2.380280 12.532589 0.713311 1.379708 0.016215 -0.001570 432106.000000 1 0 0
-13.922439 3.159381 -9.898020 17.372012 -0.223148 2.177020 0.038380 -0.002529 194901.000000 1 0 0
-12.960239 -5.186519 -13.527020 19.438314 0.380668 2.340461 0.052742 0.002972 59605.000000 1 0 0
-18.077239 -1.194719 -8.550420 20.033063 0.065994 2.011765 0.078833 -0.025353 574188.000000 1 0 0
-12.399139 15.114981 3.612780 19.880983 -0.883787 1.388061 0.022394 -0.020714 442447.000000 1 0 0
-17.244139 6.369281 9.237180 20.573127 -0.353816 1.105159 0.014849 -0.012469 182286.000000 1 0 0
-13.487039 15.155781 0.153280 20.288455 -0.843593 1.563241 0.041343 -0.028053 122659.000000 1 0 0
-17.130639 5.363981 -10.323520 20.707635 -0.303451 2.092706 0.121664 -0.013914 -104914.000000 1 0 0
-18.275139 2.931881 0.068780 18.508954 -0.159075 1.567080 0.047422 -0.007107 -80222.400000 1 0 0
-10.192339 15.207581 -0.375520 18.311070 -0.980342 1.591306 0.031113 -0.011364 110536.000000 1 0 0
-18.355239 12.278181 2.743580 22.252994 -0.589561 1.447191 0.111323 -0.022839 92556.800000 1 0 0
-8.648039 16.200581 -7.912620 19.996423 -1.080468 1.977628 0.062439 -0.025051 84043.100000 1 0 0
-14.972539 -1.917219 -12.784120 19.780960 0.127356 2.273501 0.062005 -0.024023 112852.000000 1 0 0
-19.178639 5.145181 -4.768320 20.421311 -0.262105 1.806469 0.067473 -0.009964 -54705.300000 1 0 0
-16.847839 9.025881 -6.053320 20.048912 -0.491821 1.877510 0.059436 -0.006973 155380.000000 1 0 0
-19.078039 1.477081 2.627680 19.314711 -0.077269 1.434328 0.047914 -0.018929 456456.000000 1 0 0
-13.703239 12.465781 -7.153920 19.858324 -0.738146 1.939330 0.045269 0.001516 -235111.000000 1 0 0
-14.050139 5.005781 -12.388720 19.389292 -0.342258 2.263924 0.092676 -0.028549 133368.000000 1 0 0
-14.101139 9.376381 -6.745220 18.227908 -0.586805 1.949858 0.041380 -0.013335 294758.000000 1 0 0
-6.251539 11.815081 -15.427720 20.413045 -1.084129 2.427637 0.014034 -0.014994 148892.000000 1 0 0
-15.115739 13.786381 2.998480 20.677058 -0.739435 1.425268 0.029610 -0.021958 80174.000000 1 0 0
-18.863739 8.257281 -5.005920 21.191568 -0.412606 1.809273 0.068773 -0.017198 251049.000000 1 0 0
-4.889039 16.308481 -11.260020 20.412185 -1.279537 2.155116 0.023326 -0.002311 3173.080000 1 0 0
-19.499339 -2.498519 -6.524720 20.713252 0.127439 1.891255 0.044256 -0.015227 -58683.200000 1 0 0
-11.275539 14.039981 -6.311320 19.081184 -0.894167 1.907907 0.038886 -0.007896 107745.000000 1 0 0
-19.649339 2.905281 4.539880 20.375173 -0.146793 1.346096 0.069344 -0.010558 -84366.400000 1 0 0
-14.804539 12.063481 0.647780 19.108154 -0.683731 1.536889 0.010033 -0.016545 -3944.960000 1 0 0
-17.018239 1.907581 -8.764620 19.237409 -0.111624 2.043846 0.012746 -0.008237 273461.000000 1 0 0
-16.796839 13.960081 -4.223420 22.245335 -0.693427 1.761812 0.051293 0.019991 349907.000000 1 0 0
-10.647339 15.475481 -8.470920 20.606135 -0.968160 1.994443 0.035920 -0.022348 66694.100000 1 0 0
-19.054639 1.590481 -6.872620 20.318509 -0.083276 1.915847 0.045054 -0.016729 131786.000000 1 0 0
-17.370639 10.203981 -0.547920 20.153425 -0.531123 1.597987 0.054899 -0.013213 -7709.550000 1 0 0
-11.691539 6.366681 -14.759920 19.876669 -0.498653 2.407703 0.043542 -0.018800 400473.000000 1 0 0
-13.771039 12.007381 -4.829120 18.898124 -0.717089 1.829197 0.051450 -0.024052 229826.000000 1 0 0
-19.059139 7.508781 0.339980 20.487756 -0.375300 1.554201 0.065411 -0.018582 277102.000000 1 0 0
-14.568539 8.678681 -10.279720 19.830141 -0.537262 2.115762 0.046747 -0.008141 505037.000000 1 0 0
-18.595539 11.195181 5.148480 22.307689 -0.541915 1.337903 0.072326 -0.029618 237253.000000 1 0 0
-8.187139 11.341781 -14.029920 19.811711 -0.945552 2.357689 0.001034 -0.020225 340149.000000 1 0 0
-21.022439 -0.135319 -5.282520 21.676399 0.006437 1.816975 0.052791 -0.011024 57195.600000 1 0 0
-10.894739 13.263081 -3.525320 17.522344 -0.883122 1.773369 0.032270 -0.006075 533235.000000 1 0 0
-18.899239 -4.720519 3.706880 19.829410 0.244765 1.382752 0.054361 -0.020815 -144744.000000 1 0 0
-11.399339 11.467481 -13.412320 21.008055 -0.788378 2.263262 0.046040 -0.003290 238433.000000 1 0 0
-14.916739 10.848481 -10.300120 21.125603 -0.628794 2.080096 0.068027 -0.033221 226144.000000 1 0 0
-12.386339 9.288581 -14.313420 21.084903 -0.643440 2.316987 0.058455 -0.015589 376649.000000 1 0 0
-18.563239 -5.047719 -3.086020 19.483245 0.265501 1.729860 0.022361 -0.013974 -405852.000000 1 0 0
-9.149539 12.277281 -11.726320 19.286064 -0.930348 2.224361 0.010783 -0.010698 -262328.000000 1 0 0
-15.966539 7.582381 -8.231220 19.498099 -0.443360 2.006618 0.048802 -0.003934 37936.200000 1 0 0
-14.726039 8.965881 1.962180 17.352043 -0.546898 1.457473 0.022286 -0.006868 -44825.800000 1 0 0
-19.854739 6.121181 7.687480 22.153484 -0.299052 1.216415 0.069804 -0.011835 311874.000000 1 0 0
-18.662139 5.822981 3.585580 19.875586 -0.302448 1.389402 0.018306 -0.007571 144474.000000 1 0 0
-14.088839 12.758681 5.626480 19.822628 -0.735894 1.282999 0.003781 -0.018855 57612.500000 1 0 0
18.042361 6.073381 5.740180 19.883722 0.324704 1.277941 0.041079 -0.014591 75136.600000 1 0 0
18.288661 8.244581 0.468480 20.066582 0.423521 1.547448 0.045256 0.003356 -16023.200000 1 0 0
16.053561 5.501381 9.294380 19.348579 0.330147 1.069726 0.010266 0.017246 -76690.000000 1 0 0
12.176961 13.165881 10.599080 20.831689 0.824400 1.037011 0.042194 -0.007428 178734.000000 1 0 0
14.168361 13.287381 3.584680 19.752136 0.753322 1.388302 0.022628 0.007028 222582.000000 1 0 0
4.924961 10.204381 14.343980 18.279343 1.121139 0.668568 0.008696 -0.007204 278846.000000 1 0 0
12.574861 14.430381 -5.083820 19.804248 0.854000 1.830406 0.061387 0.012336 112198.000000 1 0 0
18.167061 9.382781 -2.878920 20.648653 0.476738 1.710676 0.060089 -0.009093 -74533.900000 1 0 0
14.645661 7.490781 9.544780 19.018675 0.472780 1.045044 0.031698 0.001259 77503.300000 1 0 0
4.668761 19.367781 -2.130520 20.036152 1.334251 1.677332 0.019655 -0.017835 378093.000000 1 0 0
-4.910039 19.517881 3.871080 20.494912 -1.324344 1.380775 0.018432 0.002238 449572.000000 1 0 0
6.961261 12.831881 12.678680 19.335595 1.073732 0.855664 0.019118 0.003946 -140293.000000 1 0 0
0.534561 16.877881 -10.037220 19.644195 1.539135 2.107087 0.010944 -0.006769 27389.600000 1 0 0
10.544261 9.416381 15.720680 21.142125 0.728953 0.732401 0.034743 -0.003953 160486.000000 1 0 0
-1.237539 12.344681 1.175280 12.462100 -1.470881 1.476348 0.000713 -0.000172 519247.000000 1 0 0
-4.617239 19.151281 -2.683420 19.881931 -1.334218 1.706177 0.034935 -0.000136 76753.800000 1 0 0
5.616761 18.621381 6.144880 20.397631 1.277845 1.264788 0.027305 -0.012554 250968.000000 1 0 0
11.009761 17.539281 -1.121320 20.738818 1.010243 1.624891 0.057305 -0.019095 341159.000000 1 0 0
18.499461 10.610781 3.403580 21.596367 0.520761 1.412537 0.054609 -0.011845 252736.000000 1 0 0
11.609861 16.787781 6.352680 21.376973 0.965753 1.269065 0.041539 -0.000186 79993.100000 1 0 0
17.734861 8.336481 -5.097020 20.248502 0.439412 1.825257 0.004791 0.015659 393516.000000 1 0 0
0.468861 15.505981 10.732180 18.863588 1.540568 0.965584 0.000649 -0.010467 463930.000000 1 0 0
0.941061 20.174881 -2.126220 20.308427 1.524185 1.675685 0.035813 -0.022827 313382.000000 1 0 0
14.544661 9.853981 -1.244920 17.612437 0.595464 1.641539 0.043863 -0.010749 45927.800000 1 0 0
10.077961 16.794981 2.156980 19.705056 1.030334 1.461113 0.043377 -0.037019 233717.000000 1 0 0
-0.077839 17.699081 -0.592020 17.709150 -1.566398 1.604233 0.005635 -0.010057 4788.710000 1 0 0
-0.141939 21.020781 1.037880 21.046866 -1.564044 1.521464 0.030421 -0.014761 339941.000000 1 0 0
5.836861 17.593281 -0.441220 18.541498 1.250457 1.594595 0.012277 -0.020266 -107775.000000 1 0 0
7.394361 18.783281 -2.622620 20.355990 1.195761 1.699993 0.026955 -0.018849 -20879.900000 1 0 0
10.344861 9.653381 12.686380 19.003898 0.750835 0.839860 0.024336 -0.002407 138786.000000 1 0 0
12.825761 14.876981 8.189180 21.281150 0.859307 1.175795 0.042194 -0.011667 254212.000000 1 0 0
0.251561 17.717481 6.884880 19.009839 1.556599 1.200197 0.012775 -0.008184 224533.000000 1 0 0
7.257261 17.963881 -7.889320 20.919135 1.186853 1.957496 0.033821 -0.018970 -21904.600000 1 0 0
-1.635839 18.593881 9.010480 20.726725 -1.483045 1.121061 0.050013 -0.019682 30893.000000 1 0 0
16.557261 6.453281 -7.929220 19.459195 0.371644 1.990489 0.057060 -0.001769 -413021.000000 1 0 0
-5.859839 19.312381 -6.473220 21.194536 -1.276201 1.881175 0.054632 -0.021035 386435.000000 1 0 0
4.061761 15.689781 9.956780 19.021161 1.317478 1.019892 0.009799 0.000263 237126.000000 1 0 0
9.071661 14.884281 7.820080 19.104724 1.023436 1.149080 0.015273 -0.001521 131324.000000 1 0 0
-2.856739 19.748581 6.359780 20.943118 -1.427137 1.262255 0.018258 -0.006957 -59268.000000 1 0 0
4.964161 17.907481 8.447080 20.412592 1.300375 1.144153 0.026129 -0.011295 224083.000000 1 0 0
14.901661 12.145281 -6.012120 20.142317 0.683838 1.873898 0.070336 -0.016302 116016.000000 1 0 0
11.763661 7.032381 15.526180 20.709910 0.538804 0.723191 0.042873 -0.007168 268489.000000 1 0 0
16.762961 10.032881 5.067880 20.182640 0.539327 1.316979 0.030159 -0.010765 115597.000000 1 0 0
5.308861 15.011081 12.038680 19.961121 1.230862 0.923407 0.002039 -0.008737 468425.000000 1 0 0
15.793261 10.642181 -3.641820 19.389326 0.592954 1.759745 0.059380 -0.025617 242055.000000 1 0 0
15.427661 13.530781 6.142180 21.420110 0.719988 1.279965 0.056651 -0.006483 367941.000000 1 0 0
12.652961 14.664781 -8.125720 21.004298 0.858911 1.968020 0.114240 -0.032329 270217.000000 1 0 0
-8.950939 15.163981 9.782280 20.143451 -1.037557 1.063712 0.046664 -0.017812 68431.500000 1 0 0
-3.861539 17.486981 -8.027420 19.625123 -1.353461 1.992196 0.013966 0.030897 115546.000000 1 0 0
2.156161 19.999481 -4.535220 20.620293 1.463400 1.792549 0.022774 -0.019110 22441.200000 1 0 0
7.316461 16.028881 8.875580 19.728952 1.142587 1.104170 0.027813 -0.023333 632937.000000 1 0 0
13.435261 15.341181 -1.927620 20.483500 0.851534 1.665042 0.093019 -0.031830 96870.900000 1 0 0
12.462061 16.644181 4.039180 21.181282 0.928106 1.378926 0.059707 -0.029883 396806.000000 1 0 0
2.265661 18.272381 0.431780 18.417371 1.447432 1.547350 0.012718 -0.025072 49555.400000 1 0 0
-6.553839 18.001281 1.716280 19.233942 -1.221637 1.481446 -0.018644 0.020665 210925.000000 1 0 0
0.747361 19.532781 -6.148720 20.491335 1.532553 1.875556 0.040757 -0.025703 446384.000000 1 0 0
-8.286439 17.876581 -6.366620 20.706788 -1.136743 1.883325 0.081569 -0.019380 207729.000000 1 0 0
-7.378239 18.391881 -1.276420 19.857717 -1.189283 1.635119 0.044954 -0.010066 97813.900000 1 0 0
-14.621339 -8.877519 8.694680 19.188313 0.545669 1.100530 0.059681 -0.025049 388676.000000 1 0 0
-13.209839 -13.531619 8.108280 20.575441 0.797431 1.165734 0.054974 -0.010377 16230.600000 1 0 0
-3.773739 -15.892919 12.631480 20.648978 1.337666 0.912558 0.035199 -0.014876 2006.390000 1 0 0
-2.012339 -15.046519 14.891180 21.264865 1.437844 0.795019 0.028144 -0.027286 334670.000000 1 0 0
-6.833939 -14.135119 13.414180 20.650534 1.120458 0.863764 0.020847 -0.006724 71602.400000 1 0 0
-10.124839 -11.307919 11.672180 19.147355 0.840542 0.915244 0.059086 -0.013266 15917.000000 1 0 0
-7.616039 -10.454119 12.980780 18.324664 0.941184 0.783599 0.037345 -0.018381 433902.000000 1 0 0
-15.439139 -12.201719 7.055280 20.905165 0.668805 1.226547 0.071243 -0.015469 316288.000000 1 0 0
-4.768839 -12.592519 13.501180 19.068173 1.208782 0.784066 0.039936 -0.019377 399518.000000 1 0 0
3.877461 -13.072319 13.868980 19.449135 -1.282447 0.776901 0.003567 0.008576 413331.000000 1 0 0
6.553361 -13.629619 14.732380 21.112936 -1.122612 0.798490 0.015683 0.001410 123410.000000 1 0 0
6.968661 -9.248619 16.785380 20.392356 -0.925071 0.603911 0.008519 -0.000308 571003.000000 1 0 0
-5.355839 13.348781 13.290580 19.583525 -1.189236 0.824858 0.023274 -0.018922 325576.000000 1 0 0
-13.710939 -1.472119 17.443380 22.235748 0.106958 0.668948 0.036854 -0.016998 364139.000000 1 0 0
-9.899539 8.937481 13.506980 18.982042 -0.734370 0.779072 0.007769 -0.023790 440555.000000 1 0 0
-7.369739 -8.210319 17.013180 20.277344 0.839298 0.575309 0.044173 -0.019736 226689.000000 1 0 0
-5.174639 2.033381 18.356980 19.180465 -0.374415 0.294089 0.030491 -0.003649 583318.000000 1 0 0
-15.730139 -3.854919 13.631480 21.168725 0.240329 0.871154 0.054535 -0.020510 168248.000000 1 0 0
-14.520339 3.012781 12.508180 19.400300 -0.204584 0.870111 0.016834 -0.005904 291908.000000 1 0 0
-13.905739 10.869081 10.222480 20.396215 -0.663436 1.045817 -0.034118 0.029316 -132933.000000 1 0 0
-4.260639 11.276281 15.466280 19.609012 -1.209537 0.662051 0.014060 -0.015796 140352.000000 1 0 0
-13.123539 13.126381 7.873980 20.162557 -0.785506 1.169595 0.018307 -0.023242 210778.000000 1 0 0
-3.703539 -6.336119 18.327580 19.742411 1.041843 0.380887 0.034315 -0.020189 260051.000000 1 0 0
0.589561 -3.524419 16.988180 17.359936 -1.405052 0.207323 0.013552 -0.032006 195016.000000 1 0 0
-4.591639 6.359481 21.215180 22.618797 -0.945448 0.354141 0.041770 -0.002394 215542.000000 1 0 0
2.092261 -10.537019 16.453080 19.649686 -1.374783 0.578433 0.005948 -0.012535 248164.000000 1 0 0
-14.865039 -0.289519 14.221880 20.574622 0.019474 0.807601 0.002728 0.000718 45052.100000 1 0 0
-14.195239 -5.815419 7.746180 17.185087 0.388818 1.103191 0.037790 -0.010702 -57044.500000 1 0 0
10.165361 0.830081 16.748080 19.609227 0.081477 0.546994 0.035596 0.008507 533864.000000 1 0 0
-7.804639 12.378481 12.395380 19.177711 -1.008251 0.868014 0.025862 -0.007897 87729.000000 1 0 0
-1.928339 7.480581 19.770180 21.225871 -1.318509 0.372504 0.028684 -0.017667 491170.000000 1 0 0
1.412561 -13.459419 15.154380 20.317641 -1.466229 0.728952 -0.006179 -0.025919 478831.000000 1 0 0
-3.393939 -11.478719 17.713580 21.378745 1.283315 0.594265 0.051443 -0.029887 441150.000000 1 0 0
-2.112239 8.766081 16.560180 18.855908 -1.334348 0.498608 0.012879 -0.019117 566339.000000 1 0 0
-5.746839 -9.149119 20.049280 22.775122 1.009949 0.494271 0.102630 -0.032150 21962.400000 1 0 0
-6.834539 -2.809919 18.960880 20.349976 0.390069 0.371622 0.031218 -0.019248 398986.000000 1 0 0
-10.695539 -7.566419 16.408580 20.997303 0.615700 0.673792 0.045835 -0.023748 438948.000000 1 0 0
-0.836939 5.547681 17.707880 18.575420 -1.421063 0.306828 0.021164 -0.022362 -152060.000000 1 0 0
-6.235539 -11.220919 18.822280 22.783090 1.063582 0.598554 0.083322 -0.026255 431545.000000 1 0 0
0.412661 3.501681 18.653280 18.983596 1.453491 0.186820 0.012904 -0.008853 129954.000000 1 0 0
-17.920839 -1.454419 7.455180 19.464108 0.080981 1.177731 0.032826 -0.006492 65169.000000 1 0 0
-1.917139 -9.083119 17.369280 19.694425 1.362783 0.490836 0.015914 -0.010922 132003.000000 1 0 0
5.804361 3.348581 15.070780 16.493393 0.523267 0.418384 0.014074 -0.004942 346663.000000 1 0 0
-13.537239 -6.455619 10.487380 18.300738 0.444980 0.960564 0.023703 -0.014341 27867.200000 1 0 0
3.165561 8.202881 16.899680 19.050123 1.202497 0.479737 0.018313 -0.002618 61722.300000 1 0 0
6.251861 4.286681 17.894380 19.433739 0.601040 0.400697 0.031247 -0.014655 434687.000000 1 0 0
4.263361 -9.867419 17.833680 20.822640 -1.162957 0.542431 -0.010696 -0.003743 457053.000000 1 0 0
-4.621039 -0.476819 19.703980 20.244213 0.102821 0.231540 0.033444 -0.013242 900178.000000 1 0 0
-11.341039 1.793181 17.170080 20.655418 -0.156816 0.589421 0.041796 -0.008550 68472.900000 1 0 0
-16.920539 -3.772219 8.857980 19.467873 0.219350 1.098418 0.060074 -0.019078 411743.000000 1 0 0
-13.381839 -9.562319 11.630780 20.144146 0.620441 0.955283 0.062288 -0.036845 93029.400000 1 0 0
-14.720439 5.875481 12.929280 20.454312 -0.379763 0.886529 0.021353 -0.019582 344252.000000 1 0 0
1.259361 9.302681 17.110180 19.516252 1.436238 0.501808 0.010944 -0.014181 166212.000000 1 0 0
-3.904639 -10.636419 14.685680 18.548553 1.218969 0.657140 0.031630 -0.017854 524175.000000 1 0 0
-18.297839 -4.297619 7.206580 20.129959 0.230689 1.204668 0.098795 -0.008636 -424457.000000 1 0 0
-0.787639 -0.700019 20.807180 20.833846 0.726568 0.050601 0.023828 -0.017323 308615.000000 1 0 0
-1.832139 2.649081 20.177180 20.432644 -0.965721 0.158297 0.025703 -0.013388 -27368.200000 1 0 0
-7.933339 2.378981 16.447280 18.414951 -0.291339 0.466499 0.006043 0.005604 628587.000000 1 0 0
2.688161 -2.001919 18.820080 19.116205 -0.640111 0.176244 0.014445 -0.006161 209550.000000 1 0 0
-12.216739 4.130281 14.385480 19.319678 -0.326020 0.730857 -0.012892 -0.014430 206881.000000 1 0 0
-13.328839 -5.905719 13.664580 19.981397 0.417083 0.817749 0.027887 -0.006881 45125.000000 1 0 0
-17.463739 -0.215819 10.197180 20.224026 0.012358 1.042328 0.064127 -0.015692 281152.000000 1 0 0
-7.647739 7.711081 14.395880 18.033026 -0.789522 0.646319 0.008582 -0.021999 3066.250000 1 0 0
-9.233139 0.645981 14.424580 17.138747 -0.069849 0.570492 0.004177 0.003534 7.489330 1 0 0
7.348161 -0.860019 15.336080 17.027344 -0.116509 0.449479 0.012782 -0.002059 231042.000000 1 0 0
3.985361 6.550581 18.410080 19.943025 1.024225 0.394643 0.015631 0.002469 29366.700000 1 0 0
1.489961 0.518681 20.106980 20.168779 0.334996 0.078303 0.014354 -0.001115 69411.600000 1 0 0
-7.070939 7.177981 17.660480 20.332588 -0.792910 0.518467 0.008403 -0.016108 510147.000000 1 0 0
7.690361 -3.517319 16.778280 18.788929 -0.428964 0.466856 0.020975 0.003202 414313.000000 1 0 0
-15.932439 2.759281 8.869980 18.442689 -0.171485 1.069060 0.016946 -0.017476 115595.000000 1 0 0
4.061961 -6.046819 19.113880 20.454925 -0.979282 0.364116 0.024838 -0.014467 174185.000000 1 0 0
-4.062839 -3.959419 20.563980 21.332157 0.772507 0.269178 0.036396 -0.015846 351164.000000 1 0 0
-10.006139 5.721681 14.455880 18.488724 -0.519439 0.673128 0.022250 -0.017007 16591.800000 1 0 0
6.364661 2.573681 19.970880 21.117973 0.384268 0.331111 0.048102 -0.008581 14300.300000 1 0 0
-7.288839 11.002081 14.680280 19.740404 -0.985686 0.732258 0.021785 -0.026028 241773.000000 1 0 0
-14.557739 4.914381 9.416180 18.020637 -0.325566 1.020990 0.018232 -0.009939 252352.000000 1 0 0
0.926161 -5.743619 20.441080 21.252875 -1.410922 0.277282 0.026694 -0.014175 259526.000000 1 0 0
-6.561939 -8.370119 13.493380 17.181072 0.905905 0.667514 0.029951 -0.009749 276620.000000 1 0 0
-12.899239 10.195281 6.540280 17.694897 -0.668847 1.192203 -0.004455 -0.015179 255781.000000 1 0 0
-19.435639 1.787181 7.803580 21.019846 -0.091696 1.190443 0.031821 -0.013570 -161101.000000 1 0 0
-16.750639 9.125681 6.365380 20.109202 -0.498839 1.248716 0.049019 -0.008647 144460.000000 1 0 0
-12.839239 7.114781 14.283080 20.481029 -0.506019 0.799060 0.022684 -0.022306 14865.700000 1 0 0
-16.632739 8.964281 10.767780 21.747446 -0.494323 1.052814 0.033071 -0.007655 93492.700000 1 0 0
2.239561 10.981981 14.108880 18.018880 1.369624 0.671313 -0.011278 -0.047484 437714.000000 1 0 0
1.652861 14.526981 12.699480 19.365999 1.457505 0.855605 -0.001699 -0.027520 412333.000000 1 0 0
8.639361 5.387881 16.750880 19.602546 0.557623 0.546159 0.031473 -0.002887 140323.000000 1 0 0
-0.285139 13.270181 13.505680 18.936272 -1.549312 0.776719 -0.002597 0.005615 111182.000000 1 0 0
4.108161 13.125481 14.810180 20.211300 1.267464 0.748417 0.012644 0.007035 96486.700000 1 0 0
-3.579539 -4.599019 -13.752720 14.936579 0.909411 2.740772 0.002234 -0.007202 110946.000000 1 0 0
5.358161 -12.144119 16.902380 21.491393 -1.155272 0.665720 -0.027431 0.019733 220053.000000 1 0 0
8.971261 -13.868819 7.159680 18.002463 -0.996628 1.161782 0.020915 -0.007271 224147.000000 1 0 0
-0.358839 15.249281 0.432080 15.259621 -1.547269 1.542477 0.001915 -0.003516 -362053.000000 1 0 0
-14.523339 7.742581 8.454780 18.502925 -0.489786 1.096241 0.023525 -0.007846 61735.600000 1 0 0
-16.163039 -9.928619 4.511380 19.498048 0.550853 1.337305 0.053704 -0.010243 357336.000000 1 0 0
8.551561 -10.666319 11.487480 17.856701 -0.894998 0.871976 -0.010433 0.004026 99411.900000 1 0 0
-25.689969 6.072381 31.168537 40.845147 -0.232111 0.702715 0.052867 -0.027455 203490.000000 0 0 1
-24.629839 5.184581 30.859377 39.822230 -0.207471 0.684195 0.041526 -0.026038 105964.000000 0 0 1
-23.503439 5.264581 31.691377 39.805412 -0.220355 0.649878 0.039207 -0.011369 -124703.000000 0 0 1
-22.274239 4.488981 31.212587 38.607230 -0.198869 0.629257 0.032993 -0.009983 -271831.000000 0 0 1
-22.571539 3.122381 31.053877 38.517099 -0.137460 0.633034 0.039661 -0.021034 -79275.200000 0 0 1
-21.500839 2.490781 30.376257 37.298888 -0.115332 0.619100 0.036231 -0.024081 302148.000000 0 0 1
-20.814739 1.487181 31.390077 37.693527 -0.071327 0.586702 0.035370 -0.024176 -18885.000000 0 0 1
-21.365939 0.201781 31.465527 38.034503 -0.009444 0.596532 0.044493 -0.013312 -130613.000000 0 0 1
-21.301339 -0.333019 32.789130 39.102237 0.015632 0.576182 0.046780 -0.015406 -94065.000000 0 0 1
-21.907039 -1.737919 32.841797 39.516102 0.079166 0.589715 0.063382 -0.031527 -279306.000000 0 0 1
-21.012439 -2.649619 32.260075 38.590873 0.125436 0.580933 0.073750 -0.035613 144897.000000 0 0 1
-21.351039 -4.007819 32.483883 39.078538 0.185552 0.589451 0.081516 -0.040246 811058.000000 0 0 1
-22.773239 -4.631319 32.060717 39.597463 0.200631 0.627214 0.063521 -0.025147 1897320.000000 0 0 1
-23.908739 -4.170619 32.808619 40.809647 0.172701 0.636901 0.056272 -0.017793 634284.000000 0 0 1
-24.021839 -4.844019 -34.004940 41.914785 0.198982 2.517147 0.042887 -0.016644 -618735.000000 0 0 1
-25.165109 -4.315219 -33.130750 41.827628 0.169825 2.485002 0.041106 -0.009370 -45885.800000 0 0 1
-25.310749 -4.905319 -31.838960 40.968470 0.191431 2.460933 0.037879 -0.009830 208308.000000 0 0 1
-26.482199 -4.477619 -31.165500 41.141759 0.167496 2.430294 0.046057 -0.007924 -3076.350000 0 0 1
-26.501159 -5.064319 -29.718600 40.139182 0.188822 2.404445 0.039813 -0.008897 -811364.000000 0 0 1
-26.800119 -6.469719 -29.652250 40.489006 0.236874 2.392568 0.038757 -0.008028 588948.000000 0 0 1
-26.472649 -7.114019 -28.413860 39.481108 0.262529 2.374141 0.027880 -0.008288 -261447.000000 0 0 1
-26.728979 -8.639619 -28.465770 39.992267 0.312631 2.362828 0.031824 -0.010385 637670.000000 0 0 1
-28.127209 -8.982019 -28.442850 40.997711 0.309100 2.337502 0.042836 -0.013033 733390.000000 0 0 1
-28.388239 -10.350919 -28.092690 41.258125 0.349639 2.319788 0.045238 -0.013738 -54289.200000 0 0 1
-29.821859 -10.780919 -27.753260 42.140419 0.346892 2.289740 0.086469 -0.017391 32819.200000 0 0 1
-29.827159 -11.832419 -26.803170 41.809993 0.377658 2.266689 0.098831 -0.020453 1396450.000000 0 0 1
-31.212379 -11.960519 -26.362970 42.570798 0.365938 2.238614 0.100118 -0.021644 1309490.000000 0 0 1
-31.214289 -12.676619 -25.000520 41.953004 0.385768 2.209204 0.090873 -0.019797 -100620.000000 0 0 1
-30.739929 -11.915319 -23.929220 40.737276 0.369786 2.198643 0.086252 -0.017159 252308.000000 0 0 1
-30.392539 -12.419419 -22.664120 39.894997 0.387927 2.174985 0.080403 -0.014588 -173444.000000 0 0 1
-29.839679 -11.445019 -21.581220 38.563506 0.366246 2.164733 0.082978 -0.017403 968.108000 0 0 1
-29.872859 -11.923119 -20.284420 38.026388 0.379755 2.133447 0.089812 -0.015258 662127.000000 0 0 1
-28.868049 -12.912619 -19.992120 37.413699 0.420605 2.134538 0.091367 -0.017922 88793.200000 0 0 1
-28.695229 -13.186019 -18.456820 36.577882 0.430742 2.099703 0.084080 -0.024829 -51358.200000 0 0 1
-28.223569 -12.000419 -17.788620 35.454406 0.402033 2.096397 0.072467 -0.028582 273058.000000 0 0 1
-27.955849 -12.355919 -16.426520 34.699118 0.416164 2.063942 0.083692 -0.039665 110760.000000 0 0 1
-27.381939 -11.120419 -15.660120 33.446579 0.385773 2.058064 0.077006 -0.031628 133345.000000 0 0 1
-26.056359 -10.678519 -15.885220 32.331174 0.388946 2.084410 0.064065 -0.034184 307741.000000 0 0 1
-25.884219 -9.353519 -15.435020 31.555047 0.346759 2.081907 0.067529 -0.041400 220880.000000 0 0 1
-24.400139 -8.958319 -15.648120 30.339445 0.351864 2.112700 0.071980 -0.040688 821164.000000 0 0 1
-23.462639 -9.492319 -14.710420 29.274494 0.384441 2.097284 0.078313 -0.036758 1263180.000000 0 0 1
-22.176339 -8.848319 -14.668520 28.022281 0.379642 2.121702 0.107624 -0.049517 559632.000000 0 0 1
-21.165539 -9.373619 -13.628220 26.862114 0.416910 2.102891 0.079673 -0.035407 -130408.000000 0 0 1
-20.468339 -10.511419 -14.134620 27.004265 0.474425 2.121658 0.074853 -0.031754 766935.000000 0 0 1
-19.327839 -10.739319 -13.287120 25.796238 0.507163 2.111897 0.085502 -0.027090 613888.000000 0 0 1
-18.215139 -11.621519 -13.882720 25.682308 0.567903 2.141894 0.077655 -0.015651 116009.000000 0 0 1
-17.616139 -11.299319 -15.113520 25.815140 0.570319 2.196234 0.090356 -0.025739 716427.000000 0 0 1
-18.506139 -11.558119 -16.205720 27.178901 0.558280 2.209632 0.084273 -0.027133 30901.100000 0 0 1
-18.082439 -10.766219 -17.407920 27.311568 0.537028 2.261893 0.111650 -0.038010 -597995.000000 0 0 1
-18.965239 -10.888719 -18.446120 28.609506 0.521188 2.271499 0.069886 -0.025014 -307547.000000 0 0 1
-18.381639 -10.510519 -19.673420 28.903272 0.519422 2.319465 0.079967 -0.035401 -440461.000000 0 0 1
-19.248839 -10.693919 -20.898520 30.358291 0.507103 2.330071 0.097136 -0.031831 72275.100000 0 0 1
-20.429539 -9.890219 -20.947520 30.886585 0.450858 2.316117 0.068482 -0.038596 661885.000000 0 0 1
-21.461939 -10.545819 -21.661120 32.265047 0.456722 2.306824 0.083312 -0.019591 34732.500000 0 0 1
-22.418439 -9.678819 -22.441620 33.164624 0.407561 2.314031 0.057699 -0.021930 -496223.000000 0 0 1
-21.670039 -8.887719 -23.335820 33.062708 0.389216 2.354355 0.066309 -0.032703 522713.000000 0 0 1
-22.446539 -8.200319 -24.314320 34.092206 0.350263 2.364839 0.064965 -0.025467 362059.000000 0 0 1
-21.453639 -7.440519 -25.270780 33.973994 0.333838 2.409575 0.068336 -0.032389 -1782.860000 0 0 1
-20.643339 -8.336119 -25.948720 34.190268 0.383792 2.432496 0.066278 -0.036336 -259085.000000 0 0 1
-19.920639 -7.716219 -26.975730 34.410201 0.369552 2.471792 0.062559 -0.044315 -387193.000000 0 0 1
-18.928339 -8.676519 -27.632560 34.599456 0.429807 2.495831 0.064749 -0.037088 -269001.000000 0 0 1
-19.525739 -9.572519 -28.547470 35.886567 0.455818 2.490615 0.059383 -0.027206 1467990.000000 0 0 1
-18.433439 -10.394719 -29.092430 35.975149 0.513457 2.512703 0.040482 -0.017346 1013940.000000 0 0 1
-18.814139 -11.509919 -30.023060 37.253647 0.549029 2.508006 0.042292 -0.012389 -593563.000000 0 0 1
-19.319439 -11.034519 -31.245960 38.357677 0.518945 2.522826 0.035497 -0.010292 337916.000000 0 0 1
-19.446939 -12.045919 -32.187700 39.488424 0.554580 2.523728 0.029103 -0.013149 -116328.000000 0 0 1
-20.196939 -11.708719 -33.504290 40.835621 0.525380 2.533024 0.025499 -0.012023 -94854.000000 0 0 1
-19.510439 -10.762019 33.670893 40.375826 0.504073 0.584593 0.023341 -0.013100 341025.000000 0 0 1
-19.949639 -10.937719 32.342045 39.542757 0.501511 0.613044 0.029144 -0.019454 -300351.000000 0 0 1
-19.439039 -12.130019 31.492237 38.945790 0.557882 0.628998 0.044108 -0.018286 -272047.000000 0 0 1
-18.024239 -12.049919 31.386187 38.146644 0.589298 0.604516 0.047926 -0.023010 447030.000000 0 0 1
-17.395039 -13.065419 30.593897 37.540366 0.644205 0.618136 0.058399 -0.019555 123184.000000 0 0 1
-17.559739 -14.544319 31.001217 38.483205 0.691746 0.634146 0.056791 -0.012228 -73947.800000 0 0 1
-18.783139 -15.192519 30.576977 38.968840 0.680107 0.668662 0.047497 -0.014884 817954.000000 0 0 1
-18.826939 -16.587819 30.909967 39.812503 0.722257 0.681881 0.059183 -0.019545 -34993.800000 0 0 1
-19.178839 -16.935519 32.380378 41.268978 0.723361 0.668717 0.026377 -0.021588 -361225.000000 0 0 1
-18.039439 -16.756419 33.189862 41.325124 0.748542 0.638249 0.047376 -0.022234 -57192.600000 0 0 1
-18.286339 -16.628119 -33.465030 41.602798 0.737940 2.505451 0.035961 -0.027638 -106446.000000 0 0 1
-17.047939 -16.015319 -32.787170 40.275566 0.754177 2.521924 0.039747 -0.023460 56964.800000 0 0 1
-16.716039 -14.732819 -33.286170 40.055600 0.722420 2.551698 0.037867 -0.020060 -311986.000000 0 0 1
-15.656339 -14.091519 -32.615450 38.826015 0.732844 2.568155 0.044179 -0.019203 51330.600000 0 0 1
-15.986439 -13.591919 -31.183900 37.586462 0.704619 2.549291 0.042180 -0.019363 -162470.000000 0 0 1
-16.252439 -14.581119 -30.258650 37.314029 0.731247 2.516517 0.048519 -0.024573 -175549.000000 0 0 1
-16.544339 -14.077719 -28.906290 36.158968 0.705021 2.497130 0.037674 -0.020520 -398025.000000 0 0 1
-16.551039 -15.144919 -27.820210 35.738908 0.741064 2.462956 0.054970 -0.019688 375112.000000 0 0 1
-15.321539 -15.746519 -27.410910 35.129196 0.799076 2.465923 0.077764 -0.034089 58118.900000 0 0 1
-14.720739 -16.564919 -28.354460 35.987111 0.844277 2.478197 0.078698 -0.037680 -758920.000000 0 0 1
-13.339939 -17.110619 -27.966480 35.395639 0.908601 2.481786 0.107760 -0.030378 -707292.000000 0 0 1
-12.327039 -16.194219 -28.198120 34.775604 0.920166 2.516415 0.092158 -0.027281 -1088270.000000 0 0 1
-11.121039 -16.663319 -27.662450 34.154866 0.982289 2.514799 0.101725 -0.030199 -143305.000000 0 0 1
-9.917939 -15.904419 -28.281840 33.929022 1.013207 2.556315 0.081898 -0.038427 11227.800000 0 0 1
-9.894939 -14.512519 -28.061650 33.105577 0.972376 2.582320 0.078769 -0.029693 22969.000000 0 0 1
-8.756439 -14.041219 -27.346450 31.963407 1.013187 2.597418 0.091316 -0.028289 292258.000000 0 0 1
-8.514339 -12.457619 -27.633740 31.485073 0.971255 2.641791 0.076589 -0.033871 -220317.000000 0 0 1
-7.773639 -12.148019 -28.770570 32.183063 1.001547 2.676915 0.090317 -0.034143 70451.300000 0 0 1
-7.677539 -10.751419 -28.955940 31.827411 0.950673 2.713550 0.092255 -0.032067 -169551.000000 0 0 1
-6.718639 -10.306119 -30.069740 32.489159 0.993081 2.753233 0.097010 -0.024154 -296990.000000 0 0 1
-5.362039 -10.678719 -29.851160 32.153978 1.105451 2.760830 0.109285 -0.031277 440093.000000 0 0 1
-4.469439 -10.292619 -30.860220 32.836977 1.161128 2.792843 0.103772 -0.033045 -176124.000000 0 0 1
-4.259439 -8.775319 -31.138620 32.630702 1.118906 2.838017 0.098093 -0.032840 -230139.000000 0 0 1
-3.103739 -8.455819 -31.938490 33.184352 1.219010 2.866707 0.091630 -0.040883 613969.000000 0 0 1
-3.137539 -7.128219 -32.437370 33.359236 1.156158 2.905954 0.077675 -0.044023 387121.000000 0 0 1
-1.770939 -6.553219 -32.941880 33.634036 1.306861 2.938369 0.083953 -0.048685 285069.000000 0 0 1
-1.187139 -7.283919 -33.951460 34.744301 1.409236 2.927552 0.085743 -0.051284 71106.000000 0 0 1
-0.023239 -6.590919 33.625744 34.265601 1.567270 0.193555 0.073809 -0.042567 478296.000000 0 0 1
0.702061 -7.185419 32.411446 33.205797 -1.473399 0.219171 0.058637 -0.034491 -600847.000000 0 0 1
-0.033639 -7.053119 31.259027 32.044881 1.566027 0.221921 0.046798 -0.025122 -141424.000000 0 0 1
0.560161 -7.649619 30.131897 31.092791 -1.497699 0.249257 0.043789 -0.031644 -20324.600000 0 0 1
-0.156639 -7.114019 28.870907 29.734880 1.548782 0.241651 0.035357 -0.023211 26081.000000 0 0 1
0.212361 -5.753419 28.669377 29.241753 -1.533903 0.198182 0.027795 -0.026715 134621.000000 0 0 1
0.294661 -5.394219 27.242927 27.773395 -1.516225 0.195760 0.041248 -0.013968 779014.000000 0 0 1
-0.980639 -4.586319 26.731467 27.139773 1.360150 0.173680 0.031595 -0.005498 1359290.000000 0 0 1
-2.207539 -5.256219 26.984107 27.579759 1.173180 0.208210 0.033217 -0.008987 -257565.000000 0 0 1
-3.291839 -4.418419 26.639347 27.203188 0.930486 0.203956 0.031049 -0.014486 -68078.600000 0 0 1
-4.633339 -5.044419 27.054707 27.908263 0.827849 0.247958 0.034520 -0.011866 -64853.200000 0 0 1
-5.225539 -5.969619 26.162647 27.339106 0.851765 0.294429 0.033099 -0.005105 972.087000 0 0 1
-6.566439 -6.275819 26.493647 28.007452 0.762772 0.330285 0.030550 -0.006269 453070.000000 0 0 1
-6.772739 -7.782319 26.373507 28.319540 0.854650 0.372877 0.035738 -0.004828 254594.000000 0 0 1
-6.211639 -8.452319 27.531397 29.461907 0.937027 0.364017 0.044812 -0.009518 -2950.520000 0 0 1
-6.174939 -9.860219 27.422417 29.788299 1.011300 0.401242 0.046693 -0.014429 54231.700000 0 0 1
-5.366539 -10.483419 28.574997 30.906832 1.097668 0.390936 0.050234 -0.021909 11699.700000 0 0 1
-5.404939 -11.881019 28.586507 31.425473 1.143857 0.428331 0.070430 -0.025396 116578.000000 0 0 1
-4.889239 -12.372519 29.830897 32.662919 1.194461 0.419493 0.079637 -0.029666 82985.200000 0 0 1
-4.970239 -13.932819 29.853617 33.317640 1.228140 0.460050 0.088243 -0.033197 544384.000000 0 0 1
-6.281939 -14.496519 29.739987 33.676084 1.161882 0.488327 0.106468 -0.036119 411467.000000 0 0 1
-6.235239 -15.941119 29.791477 34.358835 1.197950 0.521508 0.098599 -0.035213 88043.100000 0 0 1
-6.389539 -16.549819 31.224717 35.912472 1.202348 0.516674 0.099410 -0.029058 -113278.000000 0 0 1
-7.670039 -16.441219 31.795087 36.606976 1.134296 0.518522 0.102456 -0.033232 -338697.000000 0 0 1
-7.690739 -16.885919 33.117854 37.961480 1.143417 0.510691 0.104841 -0.028577 -580494.000000 0 0 1
-9.105939 -16.939419 33.749515 38.844456 1.077555 0.517947 0.111556 -0.024795 322886.000000 0 0 1
-9.758239 -18.141919 33.313359 39.168001 1.077303 0.553814 0.107522 -0.023865 298673.000000 0 0 1
-10.451039 -17.975019 32.059590 38.211815 1.044150 0.575359 0.101611 -0.033002 -606671.000000 0 0 1
-11.045739 -19.330819 31.537997 38.604846 1.051668 0.614704 0.112977 -0.032575 -187365.000000 0 0 1
-12.152839 -19.611419 32.351973 39.735996 1.016031 0.619493 0.112180 -0.037551 -302541.000000 0 0 1
-12.642139 -20.924519 32.303192 40.511176 1.027310 0.647839 0.102795 -0.033974 -288958.000000 0 0 1
-11.927039 -21.949919 33.189152 41.540017 1.073054 0.645219 0.100701 -0.029600 719.076000 0 0 1
-10.671739 -22.426519 32.708756 41.069423 1.126652 0.649434 0.083595 -0.030628 254783.000000 0 0 1
-10.076539 -23.129419 33.818176 42.192128 1.159932 0.640950 0.073559 -0.035924 -8725.560000 0 0 1
-10.408339 -24.644319 -34.009160 43.270070 1.171179 2.475067 0.084663 -0.025242 -206955.000000 0 0 1
-9.966139 -25.469159 32.999493 42.859871 1.197810 0.692051 0.077696 -0.021702 -59981.400000 0 0 1
-9.961639 -26.843329 33.395095 43.988986 1.215447 0.708760 0.081488 -0.024610 -565025.000000 0 0 1
-9.150039 -27.712289 32.382268 43.592493 1.251887 0.733493 0.067621 -0.020171 332833.000000 0 0 1
-7.752639 -27.547919 32.275405 43.135751 1.296468 0.725408 0.074441 -0.030479 16863.600000 0 0 1
-7.057439 -28.188249 33.337880 44.224417 1.325471 0.716918 0.069975 -0.030539 322779.000000 0 0 1
-5.558239 -27.732629 33.451178 43.806096 1.372995 0.701896 0.087817 -0.042978 779279.000000 0 0 1
-5.288339 -26.487839 -33.958840 43.390955 1.373736 2.469668 0.081528 -0.030331 43048.900000 0 0 1
-4.922839 -25.507539 33.135759 42.105195 1.380145 0.664905 0.090430 -0.019976 -27442.400000 0 0 1
-4.485139 -24.124619 33.726656 41.708525 1.386980 0.628981 0.083403 -0.021326 -1469060.000000 0 0 1
-3.182139 -24.125419 -33.931140 41.755049 1.439654 2.519436 0.069915 -0.025990 -1491590.000000 0 0 1
-2.895239 -22.977719 -33.149560 40.438241 1.445455 2.531784 0.064103 -0.024759 -11888.300000 0 0 1
34.752259 -15.250019 2.777280 38.052541 -0.413519 1.497746 0.122706 -0.044170 -441991.000000 0 0 1
35.564459 -16.142219 3.436380 39.207278 -0.426081 1.483037 0.121280 -0.045662 -400849.000000 0 0 1
35.019479 -16.547119 4.647380 39.009860 -0.441416 1.451379 0.113854 -0.056214 -250017.000000 0 0 1
35.990919 -16.587519 5.825680 40.055344 -0.431865 1.424838 0.101619 -0.033830 222755.000000 0 0 1
-36.577659 -17.331319 5.650980 40.868488 0.442487 1.432080 0.100447 -0.025920 -45240.600000 0 0 1
-35.758021 -17.232319 6.777780 40.268191 0.449075 1.401675 0.093838 -0.019482 -97577.500000 0 0 1
-34.467351 -18.040519 6.580780 39.455865 0.482199 1.403225 0.067320 -0.022835 -156610.000000 0 0 1
-34.736671 -19.470119 6.614080 40.366668 0.510874 1.406204 0.079512 -0.023770 158517.000000 0 0 1
-33.553309 -20.209719 6.789780 39.753722 0.542121 1.399159 0.057639 -0.011006 -27309.500000 0 0 1
-33.892879 -21.675619 7.013180 40.838027 0.568982 1.398209 0.051310 -0.005160 -207823.000000 0 0 1
-33.983459 -22.502819 5.856880 41.177122 0.584883 1.428076 0.066586 -0.004220 222882.000000 0 0 1
-34.202641 -23.859119 6.215280 42.162874 0.609101 1.422846 0.074778 -0.012988 -200116.000000 0 0 1
-33.822779 -24.852719 5.069180 42.276880 0.633697 1.450603 0.079999 -0.010546 -4412.480000 0 0 1
-34.433854 -24.672219 3.815280 42.531930 0.621721 1.480972 0.084532 -0.008439 -278885.000000 0 0 1
-33.676919 -25.224129 2.789980 42.168419 0.642863 1.504585 0.087874 -0.011532 5141.140000 0 0 1
-34.258553 -24.988719 1.334580 42.424824 0.630196 1.539334 0.087871 -0.014680 319818.000000 0 0 1
-35.368548 -25.831159 0.966480 43.807728 0.630801 1.548733 0.083815 -0.014595 748216.000000 0 0 1
-35.903995 -25.490269 -0.326220 44.033591 0.617377 1.578205 0.080455 -0.014794 422814.000000 0 0 1
-36.843759 -24.232519 -0.390920 44.100231 0.581776 1.579661 0.086739 -0.022867 -273396.000000 0 0 1
35.622539 -24.471119 0.118080 43.218224 -0.601918 1.568064 0.055433 -0.006882 -112776.000000 0 0 1
35.032359 -23.230819 0.451580 42.037377 -0.585546 1.560054 0.071749 -0.013526 522171.000000 0 0 1
33.477349 -23.225319 0.485680 40.747812 -0.606527 1.558877 0.044075 -0.008080 779148.000000 0 0 1
32.840949 -23.308319 -0.811220 40.279818 -0.617229 1.590937 0.045890 -0.019131 809426.000000 0 0 1
31.415429 -23.127219 -0.753820 39.017505 -0.634594 1.590118 0.038882 -0.014302 871967.000000 0 0 1
30.897309 -23.087719 -2.206720 38.633613 -0.641733 1.627947 0.036801 -0.017807 -71552.800000 0 0 1
31.304399 -21.903619 -2.907420 38.316928 -0.610523 1.646748 0.062081 -0.024293 85241.000000 0 0 1
30.740609 -21.798619 -4.184720 37.916707 -0.616817 1.681388 0.061017 -0.039111 104694.000000 0 0 1
30.966459 -20.410919 -4.827920 37.401016 -0.582767 1.700243 0.063045 -0.037822 902362.000000 0 0 1
29.974759 -19.563419 -4.181920 36.037508 -0.578245 1.687102 0.071640 -0.035171 694523.000000 0 0 1
30.151059 -18.158519 -4.322620 35.461292 -0.542073 1.692997 0.076243 -0.037103 399077.000000 0 0 1
29.197099 -17.486019 -3.247920 34.187431 -0.539607 1.665943 0.082468 -0.028964 212626.000000 0 0 1
29.658109 -17.389819 -1.922920 34.434094 -0.530317 1.626669 0.084900 -0.026734 -211248.000000 0 0 1
30.036809 -18.608619 -1.266320 35.356670 -0.554654 1.606620 0.073225 -0.020138 300177.000000 0 0 1
28.939679 -19.712419 -0.956120 35.028540 -0.597966 1.598095 0.058604 -0.011365 507132.000000 0 0 1
28.005839 -19.272019 0.018180 33.996148 -0.602724 1.570262 0.057440 -0.001492 -258963.000000 0 0 1
27.270439 -20.303119 0.515280 34.002338 -0.639978 1.555642 0.043343 -0.008569 -776265.000000 0 0 1
26.236439 -19.992219 1.587180 33.023608 -0.651138 1.522716 0.055564 0.001346 -1120490.000000 0 0 1
25.536239 -21.166719 2.020580 33.229689 -0.692110 1.509952 0.047222 0.010166 262429.000000 0 0 1
24.558639 -20.840419 2.995180 32.348430 -0.703680 1.478072 0.045894 0.008197 244609.000000 0 0 1
23.227239 -20.190419 2.557280 30.881990 -0.715568 1.487893 0.028624 0.007055 -771652.000000 0 0 1
23.394739 -18.866019 2.053180 30.124011 -0.678644 1.502586 0.065068 -0.010979 53276.100000 0 0 1
23.361439 -17.920619 3.110380 29.607092 -0.654357 1.465547 0.080489 -0.012804 -140193.000000 0 0 1
23.308339 -16.464419 2.556580 28.651210 -0.614991 1.481446 0.073497 -0.007143 296848.000000 0 0 1
22.038239 -16.291019 1.948480 27.475040 -0.636564 1.499819 0.064567 -0.005621 -35569.100000 0 0 1
21.769339 -14.997919 1.450280 26.475366 -0.603269 1.515990 0.083342 -0.016490 7741.700000 0 0 1
20.368239 -14.753119 0.851280 25.164347 -0.626862 1.536961 0.073591 -0.012759 -385486.000000 0 0 1
19.358039 -14.741819 1.805580 24.399078 -0.650843 1.496727 0.067275 -0.008541 -158459.000000 0 1 0
18.508739 -13.586819 1.745280 23.026530 -0.633232 1.494929 0.085411 -0.017267 -193754.000000 0 1 0
18.998339 -12.261819 2.296180 22.727990 -0.573146 1.469595 0.108413 -0.021676 -1081200.000000 0 1 0
20.067939 -11.714919 1.589080 23.291343 -0.528395 1.502517 0.111848 -0.022901 -40303.900000 0 1 0
20.364739 -10.421519 2.003480 22.963984 -0.472998 1.483441 0.099577 -0.030686 -337140.000000 0 1 0
21.271439 -9.769119 0.986680 23.428259 -0.430528 1.528669 0.107088 -0.033450 327957.000000 0 1 0
20.505639 -9.301919 -0.155220 22.517349 -0.425866 1.577690 0.095694 -0.027542 941851.000000 0 1 0
21.413139 -8.722019 -1.037720 23.144610 -0.386802 1.615648 0.092463 -0.019158 -241927.000000 0 1 0
20.741539 -8.263419 -2.372120 22.452672 -0.379126 1.676644 0.099561 -0.022654 325037.000000 0 1 0
21.622539 -7.736719 -3.410820 23.216905 -0.343614 1.718241 0.098151 -0.020860 1224380.000000 0 1 0
22.604039 -8.672519 -3.909920 24.524327 -0.366351 1.730910 0.089399 -0.017700 -177579.000000 0 1 0
22.047939 -9.816319 -4.781920 24.603627 -0.418877 1.766400 0.065701 -0.016463 -419382.000000 0 1 0
21.519639 -9.350119 -5.998820 24.217874 -0.409883 1.821104 0.064585 -0.025403 -198649.000000 0 1 0
20.128539 -9.222419 -5.905320 22.914709 -0.429632 1.831446 0.059983 -0.021304 -738747.000000 0 1 0
19.326939 -9.190319 -7.232220 22.589766 -0.443871 1.896689 0.062458 -0.019804 -197027.000000 0 1 0
19.400739 -10.407619 -8.091520 23.455914 -0.492384 1.923000 0.064879 -0.014642 -56578.300000 0 1 0
20.663939 -10.760319 -8.560420 24.820629 -0.480093 1.922919 0.059297 -0.008914 -724995.000000 0 1 0
20.630939 -12.061619 -9.360720 25.665957 -0.529047 1.944121 0.051493 -0.012426 -154852.000000 0 0 1
19.824439 -12.182619 -10.511620 25.532699 -0.551031 1.995107 0.074046 -0.013037 146497.000000 0 0 1
19.896339 -13.487519 -11.001020 26.434824 -0.595732 2.000010 0.066204 -0.009446 562353.000000 0 0 1
18.633839 -13.750819 -11.906220 26.039644 -0.635744 2.045679 0.085793 -0.013956 704765.000000 0 0 1
18.392339 -15.107519 -12.197820 26.745132 -0.687656 2.044378 0.076931 -0.014364 653862.000000 0 0 1
17.199339 -15.320819 -12.955620 26.427123 -0.727698 2.083161 0.083204 -0.016790 301991.000000 0 0 1
17.136939 -16.794719 -13.436220 27.500350 -0.775313 2.081262 0.074968 -0.015495 -251736.000000 0 0 1
16.761839 -17.684419 -12.442720 27.359079 -0.812175 2.042936 0.069358 -0.016558 306085.000000 0 0 1
16.768539 -19.013419 -12.921320 28.454429 -0.848054 2.042165 0.074863 -0.021090 176575.000000 0 0 1
15.794939 -19.885919 -12.015220 28.094401 -0.899554 2.012713 0.077658 -0.017865 523345.000000 0 0 1
14.439539 -19.569919 -12.228820 27.221794 -0.935121 2.036699 0.078750 -0.019278 -370565.000000 0 0 1
13.573439 -20.323819 -11.422320 26.977125 -0.981969 2.008000 0.071992 -0.022323 604732.000000 0 0 1
12.105739 -20.304919 -11.954120 26.490369 -1.033178 2.038976 0.080485 -0.027335 753086.000000 0 0 1
11.113339 -20.850019 -11.091120 26.100623 -1.081088 2.009689 0.076653 -0.030457 459424.000000 0 0 1
9.852839 -20.813719 -11.776220 25.864429 -1.128669 2.043512 0.066246 -0.023916 529405.000000 0 0 1
8.646539 -21.201419 -10.905320 25.361168 -1.183560 2.015290 0.051177 -0.024937 -126864.000000 0 0 1
8.535139 -22.589719 -10.882520 26.487228 -1.209544 1.994193 0.069166 -0.023086 -107832.000000 0 0 1
7.825639 -22.948419 -9.708720 26.117615 -1.242153 1.951669 0.062201 -0.021769 451.018000 0 0 1
7.681839 -24.476019 -9.642120 27.405413 -1.266681 1.930325 0.056621 -0.021643 -261369.000000 0 0 1
8.754739 -25.127859 -9.047320 28.105316 -1.235541 1.898540 0.057495 -0.016099 -761482.000000 0 0 1
9.008239 -26.415999 -9.662020 29.534861 -1.242149 1.904071 0.039694 -0.009628 -1112120.000000 0 0 1
10.422139 -26.829949 -9.444820 30.293098 -1.200285 1.887863 0.038087 -0.007936 -1330950.000000 0 0 1
10.754539 -27.106249 -8.121520 30.271570 -1.193091 1.842412 0.045812 -0.009389 800138.000000 0 0 1
12.127339 -27.581089 -8.146820 31.211528 -1.156543 1.834875 0.065972 0.000737 1088470.000000 0 0 1
12.705439 -27.908209 -6.749920 31.398372 -1.143578 1.787464 0.060954 -0.007261 189262.000000 0 0 1
12.127139 -29.021119 -6.091120 32.037394 -1.174978 1.762086 0.073186 -0.015913 933014.000000 0 0 1
10.738339 -29.035069 -5.699820 31.477533 -1.216557 1.752877 0.063441 -0.012210 1036920.000000 0 0 1
10.367739 -30.133549 -4.658420 32.205926 -1.239423 1.715950 0.073015 -0.014227 63571.700000 0 0 1
10.531039 -31.478659 -5.062920 33.577402 -1.247955 1.722157 0.092935 -0.018669 385959.000000 0 0 1
9.502439 -32.041319 -5.927620 33.942292 -1.282491 1.746335 0.096073 -0.021493 636524.000000 0 0 1
9.531239 -33.554319 -6.112620 35.413288 -1.294032 1.744273 0.093330 -0.018554 -140956.000000 0 0 1
9.192639 33.859398 -4.933720 35.430284 1.305692 1.710502 0.093595 -0.020284 -137044.000000 0 0 1
9.504639 32.518504 -5.055620 34.254205 1.286433 1.718929 0.090382 -0.017645 51380.200000 0 0 1
9.022939 31.595001 -3.884320 33.086938 1.292620 1.688465 0.062201 -0.006571 -274716.000000 0 0 1
7.652839 31.350581 -4.025820 32.521256 1.331373 1.694905 0.065117 -0.008931 -1096300.000000 0 0 1
7.400539 30.429471 -3.036420 31.463320 1.332225 1.667453 0.050040 -0.010929 1313520.000000 0 0 1
5.974339 29.741041 -3.266120 30.510487 1.372556 1.678051 0.052170 -0.012611 1144240.000000 0 0 1
5.762939 29.061291 -4.504420 29.967648 1.375033 1.721678 0.058779 -0.021812 -75633.000000 0 0 1
5.322539 29.882051 -5.593020 30.863381 1.394527 1.753022 0.068435 -0.024717 -93293.500000 0 0 1
5.293139 29.191031 -7.026920 30.487887 1.391418 1.803370 0.076337 -0.031249 156549.000000 0 0 1
4.358439 28.150491 -7.211320 29.384507 1.417190 1.818741 0.067750 -0.030362 122983.000000 0 0 1
4.944739 26.892401 -6.867620 28.192479 1.388956 1.816870 0.068476 -0.026624 -19694.800000 0 0 1
4.088439 25.710291 -7.376520 27.058223 1.413097 1.846908 0.065170 -0.032345 -898519.000000 0 0 1
2.808839 25.614981 -6.829220 26.658115 1.461577 1.829862 0.073792 -0.036951 -270155.000000 0 0 1
1.773639 26.281971 -7.566420 27.406906 1.503414 1.850507 0.080249 -0.037435 254480.000000 0 0 1
1.310939 25.558831 -8.871420 27.086427 1.519550 1.904477 0.081927 -0.024864 -566707.000000 0 0 1
2.409739 25.364501 -9.764020 27.285543 1.476076 1.936756 0.066115 -0.025092 180936.000000 0 0 1
2.199739 24.479031 -10.879920 26.878141 1.481175 1.987542 0.069198 -0.017878 -341584.000000 0 0 1
2.146339 22.964531 -10.574420 25.373112 1.477604 2.000671 0.072514 -0.020345 820706.000000 0 0 1
0.829239 22.679831 -10.071820 24.829497 1.534250 1.988474 0.086816 -0.021206 784409.000000 0 1 0
0.770539 21.245631 -10.075520 23.526298 1.534544 2.013370 0.055785 -0.022646 490694.000000 0 1 0
-0.493561 20.701831 -9.300720 22.700503 -1.546959 1.992937 0.058983 -0.019210 752415.000000 0 1 0
-1.691261 20.792031 -10.036620 23.149572 -1.489633 2.019231 0.076982 -0.022979 -319794.000000 0 1 0
-2.744861 20.171531 -9.325520 22.391745 -1.435551 2.000357 0.061988 -0.017852 183013.000000 0 1 0
-3.991161 19.937631 -10.207720 22.751617 -1.373225 2.036061 0.068739 -0.024925 826019.000000 0 1 0
-5.122761 19.457131 -9.436720 22.223283 -1.313354 2.009352 0.066851 -0.022983 904865.000000 0 1 0
-6.174261 19.066231 -10.316520 22.540481 -1.257621 2.046190 0.068239 -0.024275 -560189.000000 0 1 0
-7.060461 18.023231 -9.621820 21.616346 -1.197429 2.032102 0.065322 -0.022770 -164856.000000 0 1 0
-8.086461 18.566131 -8.797620 22.079180 -1.160025 1.980631 0.080649 -0.018004 -277977.000000 0 1 0
-9.294761 18.611331 -9.526220 22.880627 -1.107618 2.000217 0.078381 -0.022589 -893471.000000 0 1 0
-10.444561 18.924231 -8.591020 23.259859 -1.066484 1.949105 0.095745 -0.027261 -406408.000000 0 1 0
-10.558661 17.938331 -7.576720 22.151202 -1.038795 1.919889 0.075536 -0.023412 267786.000000 0 1 0
-11.695761 18.305931 -6.783620 22.757756 -1.002260 1.873476 0.092671 -0.017437 184004.000000 0 1 0
-11.905361 17.237231 -5.688120 21.707475 -0.966355 1.835927 0.061581 -0.018917 -32785.600000 0 1 0
-13.196561 17.266731 -5.129620 22.329403 -0.918221 1.802591 0.077076 -0.016454 17559.900000 0 1 0
-13.424761 16.162031 -4.252120 21.436324 -0.877652 1.770481 0.067508 -0.022310 -651874.000000 0 1 0
-14.576061 16.547031 -3.380120 22.308990 -0.848642 1.722896 0.048299 -0.020656 54021.200000 0 1 0
-15.892361 16.489231 -3.983120 23.244938 -0.803828 1.743000 0.093299 -0.039292 1117960.000000 0 1 0
-16.767961 17.185231 -3.083620 24.207549 -0.797687 1.698526 0.089709 -0.025446 908563.000000 0 1 0
-18.225861 17.258031 -3.692120 25.370326 -0.758130 1.716844 0.093533 -0.035843 728840.000000 0 0 1
-18.349661 18.191231 -4.778520 26.276705 -0.781062 1.753668 0.084618 -0.034852 -156339.000000 0 0 1
-19.692061 18.463831 -5.089520 27.469866 -0.753219 1.757150 0.062432 -0.037724 -119173.000000 0 0 1
-19.804761 19.202631 -6.414520 28.321647 -0.769963 1.799267 0.061394 -0.023031 -69578.700000 0 0 1
-19.458061 20.557831 -6.350020 29.009711 -0.812875 1.791476 0.066507 -0.021925 94739.500000 0 0 1
-19.607661 21.237831 -7.545020 29.873620 -0.825288 1.826126 0.057631 -0.014162 7561.560000 0 0 1
-19.529161 22.781831 -7.313820 30.885141 -0.862123 1.809874 0.061839 -0.009640 53981.700000 0 0 1
-18.243261 23.209411 -6.921120 30.321531 -0.904633 1.801084 0.070042 -0.009475 -18147.400000 0 0 1
-18.196161 23.870481 -5.678020 30.547342 -0.919478 1.757760 0.064595 -0.010411 -326048.000000 0 0 1
-16.777561 24.202041 -5.185320 29.901721 -0.964629 1.745090 0.066049 -0.002276 -519623.000000 0 0 1
-16.720261 24.857931 -3.896920 30.210427 -0.978675 1.700149 0.055530 -0.009641 -330131.000000 0 0 1
-15.520461 25.509511 -3.597620 30.075950 -1.024210 1.690701 0.065214 -0.009390 91455.100000 0 0 1
-14.982161 26.672951 -4.530920 30.926376 -1.059016 1.717832 0.071625 -0.007336 220099.000000 0 0 1
-15.729861 27.865431 -4.261120 32.281077 -1.056894 1.703183 0.072725 -0.009920 145470.000000 0 0 1
-15.187661 28.942051 -4.966620 33.060168 -1.087537 1.721597 0.066483 -0.011242 20018.900000 0 0 1
-15.863761 30.266211 -4.524620 34.469909 -1.088023 1.702439 0.074654 -0.009957 -250496.000000 0 0 1
-17.153461 30.519331 -4.982720 35.362386 -1.058747 1.712171 0.082327 -0.019526 -736786.000000 0 0 1
-17.543761 31.756531 -4.430820 36.549870 -1.066077 1.692322 0.096385 -0.019752 26681.400000 0 0 1
13.049761 -8.188219 18.914477 24.394684 -0.560367 0.683523 0.075134 -0.019311 12159.300000 0 1 0
13.627361 -9.340119 19.516177 25.569981 -0.600856 0.702475 0.075329 -0.018265 -62608.100000 0 0 1
13.699061 -10.431819 18.594077 25.342194 -0.650820 0.747015 0.068237 -0.026617 -228288.000000 0 0 1
13.986961 -11.790019 19.160177 26.490602 -0.700375 0.762253 0.093926 -0.033994 -74653.600000 0 0 1
15.290861 -11.867319 19.720577 27.632315 -0.660000 0.776061 0.078383 -0.037470 391166.000000 0 0 1
15.532461 -13.072119 20.421977 28.795742 -0.699597 0.782432 0.084532 -0.037415 -98514.600000 0 0 1
16.173961 -14.233219 19.598277 29.125144 -0.721660 0.832676 0.080012 -0.031137 -151969.000000 0 0 1
15.281061 -14.603719 18.565377 28.132768 -0.762737 0.850084 0.089670 -0.042015 340361.000000 0 0 1
15.553961 -15.867319 18.068577 28.638628 -0.795371 0.888063 0.101240 -0.044978 -147127.000000 0 0 1
15.098761 -16.132419 16.592177 27.632008 -0.818483 0.926708 0.090555 -0.042028 -137296.000000 0 0 1
13.722461 -16.382719 16.419777 26.950111 -0.873535 0.915662 0.121255 -0.038814 -246080.000000 0 0 1
13.390061 -16.202219 15.073377 25.865273 -0.880144 0.948669 0.141806 -0.042091 23031.400000 0 0 1
12.747561 -17.408619 14.326177 25.899801 -0.938749 0.984669 0.104347 -0.034532 -233001.000000 0 0 1
13.717861 -18.374119 14.089277 26.912742 -0.929484 1.019823 0.103806 -0.036756 66491.900000 0 0 1
13.193061 -19.467819 13.356077 27.045104 -0.975204 1.054291 0.101450 -0.037867 566918.000000 0 0 1
14.322361 -20.505619 12.942077 28.162170 -0.961104 1.093302 0.110039 -0.034107 571096.000000 0 0 1
14.839961 -21.222919 14.022277 29.449295 -0.960579 1.074525 0.078872 -0.027366 -92838.700000 0 0 1
15.451661 -22.406519 13.537177 30.398373 -0.967081 1.109258 0.076894 -0.030623 -315689.000000 0 0 1
16.350761 -23.169019 14.516777 31.857301 -0.956244 1.097659 0.074500 -0.036264 234349.000000 0 0 1
17.663961 -22.607419 14.525577 32.157477 -0.907541 1.102125 0.055744 -0.025788 118981.000000 0 0 1
18.296961 -22.963119 15.722577 33.305901 -0.898011 1.079164 0.055831 -0.025165 384767.000000 0 0 1
19.741061 -22.397919 15.945677 33.847317 -0.848365 1.080252 0.039486 -0.017968 886902.000000 0 0 1
20.665261 -23.000819 15.028277 34.379351 -0.838834 1.118390 0.031165 -0.024806 382354.000000 0 0 1
21.935661 -22.329519 15.192677 34.793650 -0.794296 1.118924 0.036633 -0.018922 163639.000000 0 0 1
22.975661 -23.105919 14.414177 35.630507 -0.788225 1.154314 0.026414 -0.018199 -616961.000000 0 0 1
23.328261 -24.289919 15.056177 36.890329 -0.805591 1.150388 0.027415 -0.019108 -86523.300000 0 0 1
24.410161 -24.946419 14.438177 37.770898 -0.796263 1.178559 0.029907 -0.026560 -50852.800000 0 0 1
24.738761 -26.231639 15.233777 39.142983 -0.814679 1.171052 0.040063 -0.018004 -152755.000000 0 0 1
25.328561 -25.918659 16.475077 39.808806 -0.796912 1.144112 0.047382 -0.016500 -88410.300000 0 0 1
25.722061 -27.034929 17.142677 41.065596 -0.810278 1.140163 0.050908 -0.003499 -120720.000000 0 0 1
26.279861 -26.627969 18.528577 41.749108 -0.791978 1.110953 0.043764 -0.002678 320247.000000 0 0 1
25.256661 -26.085069 19.357877 41.146776 -0.801532 1.080985 0.042244 0.000090 550935.000000 0 0 1
25.820861 -25.579429 20.557077 41.756646 -0.780701 1.056058 0.051408 -0.001362 373821.000000 0 0 1
24.670961 -25.416039 21.585577 41.479736 -0.800273 1.023491 0.043888 -0.000598 191204.000000 0 0 1
24.154961 -26.649729 22.013977 42.169721 -0.834464 1.021564 0.042495 0.003014 -1000220.000000 0 0 1
23.253061 -26.454899 23.003877 42.068336 -0.849722 0.992233 0.043469 0.004694 -995687.000000 0 0 1
22.541061 -27.799669 23.203587 42.653575 -0.889481 0.995598 0.071275 0.007144 -521264.000000 0 0 1
23.404561 -28.819679 23.635897 44.011396 -0.888719 1.003872 0.046121 0.009110 5011.770000 0 0 1
22.898061 -30.116659 23.441197 44.506450 -0.920728 1.016092 0.052493 0.004283 -181231.000000 0 0 1
23.853761 -31.261069 23.885327 46.008317 -0.918995 1.024937 0.028445 0.009449 72177.400000 0 0 1
23.953561 -31.224839 25.309847 46.790512 -0.916421 0.999268 0.029323 0.005387 277538.000000 0 0 1
24.932461 -32.067019 25.904597 48.176441 -0.909919 1.003086 0.027847 0.003695 -542672.000000 0 0 1
24.618861 -32.498159 27.344117 49.090930 -0.922483 0.980016 0.020255 -0.011726 98532.400000 0 0 1
23.952861 -33.735789 27.575277 49.721614 -0.953382 0.982922 0.012212 -0.004224 -971769.000000 0 0 1
22.680461 -33.854399 27.090967 48.933058 -0.980530 0.984076 0.022653 -0.004005 -1691080.000000 0 0 1
21.980261 32.993520 27.608657 48.310891 0.983117 0.962489 0.059882 -0.021859 -91242.000000 0 0 1
21.309761 33.154199 28.867847 48.853448 0.999537 0.938614 0.045473 -0.014180 513975.000000 0 0 1
20.731961 31.918331 29.316647 48.042271 0.994751 0.914450 0.063778 -0.028677 154555.000000 0 0 1
20.438861 32.027861 30.827537 48.927170 1.002790 0.889153 0.052298 -0.027418 -1218310.000000 0 0 1
21.618961 32.177314 31.479977 49.937440 0.979200 0.888743 0.042524 -0.017425 -1122720.000000 0 0 1
21.436661 32.651801 32.796460 51.002729 0.989849 0.872344 0.037105 -0.020073 -100238.000000 0 0 1
22.807061 32.689723 33.504088 52.070183 0.961627 0.871811 0.018315 -0.006284 106981.000000 0 0 1
23.154761 31.401001 33.852889 51.654466 0.935415 0.856121 0.016575 -0.006626 -596499.000000 0 0 1
24.465361 31.300891 -33.718680 52.108052 0.907364 2.274560 0.007990 0.000895 -489681.000000 0 0 1
24.723661 29.850261 -33.301450 51.100725 0.879062 2.280597 0.019372 0.008030 -251302.000000 0 0 1
24.846261 29.000751 33.638636 50.891434 0.862399 0.848661 0.033256 0.004798 227264.000000 0 0 1
24.577261 27.646111 33.948874 50.208318 0.844095 0.828258 0.040491 -0.011195 -201728.000000 0 0 1
24.668461 26.678701 32.745465 48.913715 0.824528 0.837323 0.067293 -0.017431 -54341.600000 0 0 1
25.977461 26.231521 32.473042 49.167262 0.790264 0.849364 0.061925 -0.022691 243660.000000 0 0 1
26.001161 25.323471 31.348467 47.958992 0.772195 0.858397 0.088062 -0.038749 -412621.000000 0 0 1
27.350061 24.613161 31.201727 48.242940 0.732777 0.867464 0.066277 -0.031336 -305944.000000 0 0 1
27.569961 23.586241 32.162572 48.485509 0.707681 0.845518 0.086526 -0.040024 -269319.000000 0 0 1
28.483961 23.846311 33.149663 49.788379 0.697006 0.842216 0.091048 -0.039207 -1444890.000000 0 0 1
28.268361 22.993631 -33.578530 49.551236 0.682862 2.315362 0.077886 -0.039364 -454993.000000 0 0 1
27.205061 23.358991 -32.727820 48.547585 0.709481 2.310595 0.080888 -0.034324 1040360.000000 0 0 1
25.843461 23.171531 -33.159980 48.004048 0.730940 2.333356 0.077022 -0.031757 591526.000000 0 0 1
25.397861 21.713331 -33.173350 47.084937 0.707348 2.352575 0.068206 -0.029051 -883126.000000 0 0 1
25.169661 21.238931 -31.861970 45.823457 0.700902 2.339662 0.053075 -0.029955 278527.000000 0 0 1
24.893761 19.854231 -31.829150 45.022046 0.673250 2.355998 0.055107 -0.017749 -265948.000000 0 0 1
24.822261 19.304531 -30.436230 43.762697 0.661001 2.339889 0.052853 -0.010610 179622.000000 0 0 1
23.663561 19.618231 -29.655390 42.711606 0.692204 2.338267 0.041161 -0.013513 518865.000000 0 0 1
23.767961 19.177231 -28.350940 41.670829 0.678905 2.319043 0.047571 -0.014779 636518.000000 0 0 1
22.371661 19.104231 -27.616690 40.350272 0.706782 2.324610 0.065053 -0.023853 677630.000000 0 0 1
22.326561 18.541831 -26.303930 39.168502 0.693054 2.307106 0.070736 -0.016074 247492.000000 0 0 1
23.170261 19.190831 -25.326320 39.326473 0.691732 2.270514 0.068369 -0.018757 251350.000000 0 0 1
23.337961 18.408231 -24.047620 38.233643 0.667854 2.251017 0.086479 -0.017372 -313921.000000 0 0 1
23.982861 17.198531 -24.301720 38.230102 0.622122 2.259672 0.079722 -0.020381 37352.100000 0 0 1
23.867561 16.318231 -23.263720 37.109915 0.599702 2.248347 0.093937 -0.020834 251658.000000 0 0 1
24.940261 15.176431 -23.258320 37.326802 0.546654 2.243496 0.106221 -0.026847 1800210.000000 0 0 1
26.349061 15.499131 -23.029120 38.273182 0.531715 2.216429 0.116263 -0.029500 2136060.000000 0 0 1
27.276861 14.407431 -23.017720 38.489176 0.485946 2.211838 0.121904 -0.033511 530891.000000 0 0 1
27.253161 13.593331 -21.703320 37.397160 0.462671 2.189951 0.115853 -0.035911 186666.000000 0 0 1
26.032261 12.839731 -21.713920 36.249574 0.458212 2.213063 0.108121 -0.033625 529771.000000 0 0 1
25.830961 12.205631 -20.433420 35.124644 0.441422 2.191663 0.086933 -0.033452 -104384.000000 0 0 1
24.407261 11.582931 -20.456220 33.887101 0.443097 2.218878 0.086501 -0.035336 578090.000000 0 0 1
23.444561 12.635631 -20.401420 33.548838 0.494326 2.224475 0.105409 -0.037875 921840.000000 0 0 1
22.104261 12.282831 -20.824620 32.758680 0.507191 2.259708 0.090217 -0.040338 1503190.000000 0 0 1
21.096461 13.457531 -20.619220 32.424035 0.567825 2.260001 0.095052 -0.040381 -164048.000000 0 0 1
21.213661 14.462631 -21.621020 33.565691 0.598379 2.270695 0.090386 -0.030728 150098.000000 0 0 1
20.557161 15.692931 -21.309220 33.510414 0.652010 2.259968 0.081709 -0.033709 -191166.000000 0 0 1
19.201361 15.842231 -22.017720 33.233245 0.689834 2.294976 0.078544 -0.029066 51614.300000 0 0 1
18.157561 15.013431 -21.533920 31.918801 0.690895 2.311283 0.074281 -0.036662 904382.000000 0 0 1
17.090061 14.793631 -22.479320 31.878544 0.713497 2.353438 0.086725 -0.039783 221790.000000 0 0 1
15.886161 14.104531 -21.865920 30.486495 0.726062 2.370620 0.071296 -0.035741 -473530.000000 0 0 1
14.697061 14.336731 -22.573420 30.514009 0.772988 2.403528 0.057888 -0.032139 -409687.000000 0 0 1
13.588561 13.692231 -21.982020 29.246118 0.789198 2.421314 0.067466 -0.035458 566487.000000 0 0 1
12.280361 13.863431 -22.828920 29.396625 0.845877 2.460020 0.059045 -0.031563 347562.000000 0 0 1
11.861561 15.233931 -22.808420 29.882994 0.909224 2.439136 0.044061 -0.034992 -734.154000 0 0 1
11.103461 15.581531 -23.949320 30.653563 0.951661 2.467526 0.058483 -0.032543 -880664.000000 0 0 1
11.053261 17.104431 -24.147520 31.588588 0.997082 2.440966 0.052945 -0.029571 68689.700000 0 0 1
12.278361 17.790531 -24.304920 32.526763 0.966703 2.414678 0.055510 -0.030539 474885.000000 0 0 1
13.366361 17.322631 -25.111440 33.306420 0.913606 2.424854 0.063853 -0.038256 16809.800000 0 0 1
13.178461 17.364631 -26.599540 34.390955 0.921607 2.455056 0.062638 -0.033054 -386280.000000 0 0 1
14.351261 17.093131 -27.353560 35.303698 0.872376 2.457206 0.037840 -0.031001 2095.010000 0 0 1
14.072361 16.912031 -28.727760 36.184698 0.876791 2.488026 0.057782 -0.038603 -458155.000000 0 0 1
15.183061 17.367431 -29.679620 37.590329 0.852405 2.480879 0.041414 -0.027770 -108224.000000 0 0 1
16.359661 16.572031 -29.600980 37.662830 0.791847 2.475022 0.013984 -0.023605 169651.000000 0 0 1
17.286361 17.114931 -30.578800 39.074316 0.780415 2.469597 0.013061 -0.013585 -191285.000000 0 0 1
18.499261 16.211231 -30.625370 39.280275 0.719576 2.464924 0.037730 -0.013799 -1928380.000000 0 0 1
19.356361 16.237031 -29.491060 38.833394 0.697984 2.433226 0.047204 -0.009338 -112666.000000 0 0 1
20.372761 15.299531 -29.737120 39.158924 0.644128 2.433180 0.065803 -0.002480 -134439.000000 0 0 1
21.613161 15.768331 -30.520890 40.586867 0.630298 2.421871 0.060266 -0.011910 -904562.000000 0 0 1
21.266761 16.381331 -31.758640 41.584064 0.656354 2.439855 0.057819 -0.012479 -107792.000000 0 0 1
22.370561 17.136031 -32.203190 42.791717 0.653668 2.422732 0.063798 -0.002624 -128488.000000 0 0 1
22.392161 17.166331 -33.712130 43.961341 0.654055 2.444728 0.058038 0.001170 237109.000000 0 0 1
23.419461 18.026231 33.849645 44.935672 0.655998 0.717744 0.067692 -0.013010 321851.000000 0 0 1
23.351661 18.171731 32.427273 43.898063 0.661292 0.739664 0.084401 -0.030187 -181887.000000 0 0 1
24.125361 19.334231 31.754957 44.319553 0.675598 0.772024 0.093855 -0.032160 -536279.000000 0 0 1
25.503661 19.139231 31.626797 44.911036 0.643789 0.789487 0.079906 -0.029298 -548412.000000 0 0 1
26.058561 20.428331 31.391657 45.626762 0.664871 0.812053 0.081655 -0.038720 39813.400000 0 0 1
27.588161 20.411431 31.180827 46.367846 0.636981 0.833260 0.053544 -0.037776 -10971.300000 0 0 1
28.356661 20.059831 32.281760 47.419501 0.615683 0.821983 0.053629 -0.036462 762265.000000 0 0 1
29.743961 19.872331 31.934137 47.952079 0.589003 0.842017 0.049654 -0.031937 1245150.000000 0 0 1
30.624461 19.200131 33.051406 48.978547 0.560003 0.830084 0.036826 -0.026185 140183.000000 0 0 1
30.696661 19.837731 -33.717030 49.725835 0.573735 2.315914 0.032246 -0.023408 192804.000000 0 0 1
29.585861 19.689231 -32.853940 48.398041 0.587191 2.316962 0.034765 -0.026421 -26546.700000 0 0 1
30.021761 20.185631 -31.441590 47.930569 0.591938 2.286279 0.050344 -0.022699 -305334.000000 0 0 1
30.771861 19.235231 -30.767150 47.576455 0.558665 2.274031 0.055581 -0.029870 -359464.000000 0 0 1
31.091061 19.600731 -29.468530 47.108778 0.562494 2.246623 0.035781 -0.018955 -512651.000000 0 0 1
32.358761 18.902431 -28.974800 47.370142 0.528685 2.228964 0.091188 -0.013027 123687.000000 0 0 1
33.492261 19.469231 -29.617640 48.764609 0.526560 2.223529 0.043659 -0.009544 665109.000000 0 0 1
34.746561 19.285231 -28.946440 49.164418 0.506693 2.200330 0.070953 -0.012955 373102.000000 0 0 1
35.868961 20.168631 -29.421100 50.586136 0.512227 2.191495 0.062584 -0.008769 -427058.000000 0 0 1
36.578361 19.830031 -30.588330 51.641578 0.496777 2.204731 0.045580 -0.009747 919939.000000 0 0 1
-35.963017 20.593331 -30.723330 51.588244 -0.520048 2.208745 0.044070 -0.020702 1103730.000000 0 0 1
-35.101017 20.139131 -31.953970 51.562798 -0.520893 2.239169 0.046127 -0.025657 -62652.700000 0 0 1
-34.325117 18.994131 -31.708980 50.442542 -0.505419 2.250568 0.067903 -0.018415 -101766.000000 0 0 1
-33.437017 18.815131 -32.778570 50.462639 -0.512544 2.277803 0.063746 -0.007066 -444213.000000 0 0 1
-32.421517 17.687731 -32.572090 49.243798 -0.499424 2.293541 0.043745 0.002663 -506766.000000 0 0 1
-33.026817 16.479331 -32.260630 49.021294 -0.462822 2.289081 0.046583 0.004218 -173808.000000 0 0 1
-32.285117 15.396831 -32.738510 48.489187 -0.444999 2.311993 0.041248 -0.001085 -122778.000000 0 0 1
-33.170917 14.121431 -32.920060 48.820640 -0.402478 2.310821 0.042115 -0.000576 98247.900000 0 0 1
-32.504917 12.901831 -33.225340 48.238471 -0.377848 2.330591 0.050207 -0.012072 -121901.000000 0 0 1
-33.374717 11.829431 -32.985360 48.392573 -0.340627 2.320771 0.064210 -0.016557 48335.200000 0 0 1
-32.738717 10.409531 -33.275440 47.827156 -0.307849 2.340251 0.070097 -0.017240 -7807.970000 0 0 1
-32.447217 10.208331 33.419641 47.685472 -0.304809 0.794229 0.054945 -0.027234 -11937.300000 0 0 1
-32.774417 8.892431 33.035038 47.376698 -0.264944 0.799194 0.096362 -0.033894 48127.600000 0 0 1
-31.785517 8.287631 31.972507 45.839340 -0.255057 0.798907 0.112193 -0.030416 516693.000000 0 0 1
-30.543217 8.054631 32.629138 45.413938 -0.257842 0.769178 0.061070 -0.025928 9701.680000 0 0 1
-29.660917 7.328831 31.787727 44.090150 -0.242235 0.765594 0.069002 -0.024578 85466.600000 0 0 1
21.238661 -4.478219 -31.410840 38.180834 -0.207808 2.536916 0.061174 -0.031592 151639.000000 0 0 1
22.592561 -4.498919 -31.837640 39.297575 -0.196562 2.515235 0.050534 -0.033843 101320.000000 0 0 1
23.445861 -3.496319 -31.369290 39.318762 -0.148032 2.494467 0.050915 -0.030239 -455647.000000 0 0 1
23.156861 -2.024019 -31.690760 39.301923 -0.087183 2.508736 0.051722 -0.024699 -673070.000000 0 0 1
24.116761 -1.059419 -31.270020 39.503857 -0.043901 2.484168 0.054997 -0.022174 330877.000000 0 0 1
23.805261 0.227381 -31.816460 39.737002 0.009551 2.499219 0.048274 -0.022297 140335.000000 0 0 1
24.931561 1.253281 -31.448030 40.151364 0.050227 2.470652 0.046103 -0.015225 1357780.000000 0 0 1
26.208461 0.932081 -32.040820 41.404907 0.035549 2.455680 0.052477 -0.021313 371129.000000 0 0 1
27.276261 1.663981 -31.526970 41.721854 0.060929 2.427437 0.048527 -0.005558 669382.000000 0 0 1
28.681061 1.288081 -32.135980 43.092733 0.044880 2.412441 0.037588 -0.019947 724123.000000 0 0 1
29.058761 2.030581 -33.292600 44.237225 0.069765 2.422787 0.041167 -0.018588 -108566.000000 0 0 1
29.934361 1.291681 33.938357 45.271917 0.043124 0.723254 0.026259 -0.018666 -436041.000000 0 0 1
30.512161 2.167581 32.840842 44.879965 0.070921 0.749913 0.043193 -0.016319 67518.000000 0 0 1
29.500461 2.758981 32.012537 43.619854 0.093252 0.746753 0.047607 -0.009751 585839.000000 0 0 1
29.453861 4.141881 32.423059 43.999316 0.139707 0.742325 0.044977 -0.008102 633506.000000 0 0 1
28.383761 5.069981 31.668497 42.827985 0.176758 0.738566 0.042941 -0.008610 576001.000000 0 0 1
28.407261 6.406481 32.112887 43.350351 0.221812 0.736572 0.052436 -0.010656 95336.300000 0 0 1
27.742961 7.255681 31.196467 42.373769 0.255803 0.743327 0.051122 -0.012809 -214376.000000 0 0 1
28.115261 8.735481 31.311987 42.979263 0.301246 0.754612 0.052613 -0.006519 840134.000000 0 0 1
29.483261 9.057981 31.008507 43.735994 0.298072 0.782727 0.052776 -0.009403 620720.000000 0 0 1
29.707361 10.475481 31.127727 44.285419 0.339009 0.791346 0.049273 -0.007948 -234691.000000 0 0 1
31.076461 10.913781 30.586037 44.948445 0.337736 0.822393 0.061162 -0.010038 -984493.000000 0 0 1
32.087261 10.544181 31.501817 46.185891 0.317493 0.820213 0.085539 -0.019224 645271.000000 0 0 1
33.418461 10.748681 30.980347 46.819970 0.311189 0.847725 0.087721 -0.022072 860577.000000 0 0 1
33.858461 12.221581 30.934867 47.462916 0.346406 0.860881 0.088335 -0.016181 -929022.000000 0 0 1
34.596661 12.474881 32.137925 48.840534 0.346069 0.852613 0.091908 -0.016549 127775.000000 0 0 1
34.950261 13.828081 32.357341 49.595706 0.376751 0.860020 0.094849 -0.009521 -11990.000000 0 0 1
33.903761 14.965881 32.212852 49.103059 0.415698 0.855256 0.079476 -0.013027 -471688.000000 0 0 1
33.471461 15.313081 30.899067 48.058105 0.429071 0.872450 0.079060 -0.025812 767370.000000 0 0 1
32.461661 16.358781 30.920647 47.722694 0.466796 0.865941 0.072179 -0.023756 1575290.000000 0 0 1
30.986561 15.823181 31.055277 46.636576 0.472129 0.842097 0.058982 -0.017407 382222.000000 0 0 1
30.387761 15.250981 29.914467 45.286684 0.465150 0.849235 0.050134 -0.013492 82244.800000 0 0 1
29.059861 14.870181 30.220987 44.484894 0.472971 0.823915 0.039190 -0.021160 -181144.000000 0 0 1
28.395461 14.231481 29.048237 43.042273 0.464598 0.829998 0.056166 -0.011390 -347524.000000 0 0 1
28.930561 12.960381 28.743317 42.791671 0.421175 0.834290 0.045035 -0.007320 61862.700000 0 0 1
28.353561 12.421581 27.558457 41.445007 0.412911 0.843382 0.064242 -0.013433 -145912.000000 0 0 1
28.082261 10.922881 27.532127 40.815937 0.370953 0.830450 0.054977 0.001322 611441.000000 0 0 1
29.158261 9.945581 27.377057 41.214342 0.328715 0.844292 0.056286 0.001845 671893.000000 0 0 1
28.749561 8.598481 27.423117 40.650934 0.290615 0.830374 0.066769 0.005335 280676.000000 0 0 1
29.937261 7.681481 26.998477 41.038549 0.251168 0.852795 0.052829 -0.003564 306463.000000 0 0 1
30.269961 7.950081 25.647987 40.463484 0.256839 0.884269 0.060820 -0.002012 593357.000000 0 0 1
31.249661 7.051481 25.077637 40.683566 0.221933 0.906625 0.077948 -0.002065 648671.000000 0 0 1
31.736361 7.507481 23.685277 40.305722 0.232288 0.942657 0.079404 0.001219 -67813.400000 0 0 1
32.383261 8.758381 23.555937 40.991060 0.264141 0.958607 0.066838 -0.007742 -49929.300000 0 0 1
31.586261 9.843781 23.166317 40.388985 0.302108 0.959927 0.069268 -0.009699 -261673.000000 0 0 1
31.007461 9.896281 21.739677 39.140932 0.308939 0.981928 0.066026 0.009314 -201481.000000 0 0 1
31.983261 10.204281 20.815777 39.501302 0.308842 1.015772 0.068895 -0.004211 -204770.000000 0 0 1
31.377861 10.131081 19.534877 38.325192 0.312307 1.035944 0.073250 -0.009555 -829470.000000 0 0 1
32.177861 10.836281 18.406477 38.621731 0.324833 1.074032 0.091240 -0.035484 857844.000000 0 0 1
33.482061 10.352781 18.075777 39.433009 0.299879 1.094611 0.084446 -0.024945 601775.000000 0 0 1
34.441461 10.395481 19.110677 40.736939 0.293135 1.082498 0.093740 -0.021236 -835051.000000 0 0 1
35.829261 9.842581 18.694077 41.594240 0.268095 1.104659 0.128434 -0.031314 13147.000000 0 0 1
35.671161 8.471581 18.334077 40.991923 0.233171 1.107096 0.117713 -0.018194 495160.000000 0 0 1
36.770361 7.854481 17.668877 41.544452 0.210446 1.131502 0.137063 -0.022853 -231550.000000 0 0 1
36.629761 6.353681 17.362077 41.031090 0.171748 1.133883 0.141145 -0.027344 -859295.000000 0 0 1
35.563561 6.138281 16.498877 39.681964 0.170916 1.141999 0.100752 -0.025092 -380999.000000 0 0 1
35.543861 4.919981 15.781077 39.199677 0.137546 1.156461 0.114514 -0.019698 39024.600000 0 0 1
34.330661 3.953081 15.981677 38.074074 0.114642 1.137624 0.072567 -0.013482 203541.000000 0 0 1
34.316461 3.222581 17.220377 38.529805 0.093633 1.107458 0.076278 -0.003416 124812.000000 0 0 1
33.069261 2.584481 17.392877 37.453541 0.077995 1.087856 0.053500 0.001222 -22424.200000 0 0 1
33.059161 1.658381 18.613177 37.975106 0.050122 1.058544 0.050433 -0.007318 342708.000000 0 0 1
33.860161 0.453581 18.512277 38.593013 0.013395 1.070507 0.063208 -0.008177 296846.000000 0 0 1
33.730561 -0.283119 19.736277 39.081345 -0.008393 1.041409 0.067515 -0.011191 203835.000000 0 0 1
34.301161 -1.713919 19.733877 39.609760 -0.049925 1.049266 0.075338 -0.008020 98042.200000 0 0 1
34.012661 -2.452819 20.900677 39.996446 -0.071990 1.020942 0.083650 -0.002639 -27187.300000 0 0 1
34.486061 -3.803719 20.837777 40.471837 -0.109853 1.029939 0.075146 -0.005722 -117813.000000 0 0 1
34.251161 -4.612719 22.090977 41.017441 -0.133868 1.002051 0.078867 -0.005895 -72908.500000 0 0 1
35.015261 -4.233419 23.228337 42.232049 -0.120318 0.988412 0.092668 -0.011732 124432.000000 0 0 1
34.586261 -4.840919 24.435547 42.623232 -0.139063 0.960279 0.100088 -0.020814 -123868.000000 0 0 1
34.781361 -4.017319 25.700197 43.432500 -0.114993 0.937596 0.092530 -0.020117 124179.000000 0 0 1
34.074761 -4.527819 26.839147 43.611126 -0.132105 0.907878 0.092486 -0.017969 180835.000000 0 0 1
34.132861 -3.658819 27.986717 44.291031 -0.106786 0.886817 0.085977 -0.015314 -605687.000000 0 0 1
33.147561 -4.048219 29.064047 44.270393 -0.121525 0.854611 0.084690 -0.020130 -337657.000000 0 0 1
33.399161 -5.388919 29.466407 44.864390 -0.159970 0.854245 0.098561 -0.025951 -536162.000000 0 0 1
32.544061 -5.816819 30.446647 44.943849 -0.176869 0.826523 0.108985 -0.034443 -507284.000000 0 0 1
32.692561 -7.278319 30.892357 45.564407 -0.219057 0.825767 0.104970 -0.032417 224268.000000 0 0 1
33.933461 -7.460119 31.551227 46.932005 -0.216403 0.833518 0.104753 -0.023190 -54598.200000 0 0 1
34.440261 -8.734019 31.348227 47.382760 -0.248363 0.847852 0.086880 -0.020176 296652.000000 0 0 1
35.711461 -9.011419 32.212790 48.930338 -0.247180 0.852185 0.087394 -0.015101 292991.000000 0 0 1
35.468061 -9.428419 33.507913 49.695660 -0.259820 0.830831 0.066125 -0.021803 278299.000000 0 0 1
36.631061 -9.791519 -33.797140 50.793259 -0.261195 2.298808 0.050737 -0.023732 344273.000000 0 0 1
36.248261 -10.185019 -32.293530 49.603862 -0.273917 2.279735 0.071983 -0.023916 -123351.000000 0 0 1
35.675861 -9.107019 -31.602050 48.522103 -0.249934 2.280082 0.075385 -0.024532 387064.000000 0 0 1
36.525461 -7.961219 -31.409540 48.826730 -0.214607 2.269579 0.067390 -0.013752 -177296.000000 0 0 1
35.939261 -6.762619 -30.664600 47.725058 -0.185993 2.268587 0.082778 -0.022108 -695440.000000 0 0 1
36.111061 -6.833519 -29.281980 46.990851 -0.187025 2.243550 0.073599 -0.011881 399062.000000 0 0 1
35.542261 -5.670519 -28.702540 46.035236 -0.158210 2.243996 0.077804 -0.020103 -37214.100000 0 0 1
35.953261 -5.586919 -27.192320 45.423264 -0.154161 2.212602 0.081188 -0.019519 731233.000000 0 0 1
-36.424517 -5.322419 -26.968470 45.633014 0.145095 2.203077 0.080496 -0.014175 464813.000000 0 0 1
-36.128917 -4.824519 -25.694630 44.595836 0.132751 2.184827 0.077772 -0.012532 4241.520000 0 0 1
-34.608117 -4.773719 -25.437500 43.215467 0.137071 2.200147 0.101805 -0.010695 -561692.000000 0 0 1
-34.415117 -4.270919 -24.120420 42.242581 0.123469 2.178517 0.113818 -0.014222 1298590.000000 0 0 1
-33.032117 -4.222919 -23.712720 40.880886 0.127153 2.189579 0.116603 -0.011331 1739900.000000 0 0 1
-31.953817 -3.340119 -24.462920 40.381150 0.104151 2.221568 0.119986 -0.009184 111717.000000 0 0 1
-31.587017 -3.832919 -25.756780 40.937057 0.120754 2.251294 0.114024 -0.008439 554086.000000 0 0 1
-30.461217 -3.108819 -26.285200 40.354210 0.101706 2.280174 0.116071 -0.013693 281450.000000 0 0 1
-29.889217 -3.750419 -27.535630 40.812276 0.124825 2.311341 0.108367 -0.004961 -410234.000000 0 0 1
-30.758817 -3.773819 -28.644980 42.200491 0.122081 2.316901 0.120999 -0.004234 -203039.000000 0 0 1
-30.329517 -4.529019 -29.755380 42.729080 0.148232 2.341128 0.098820 0.002417 -442051.000000 0 0 1
-31.481217 -5.005419 -30.682150 44.243819 0.157677 2.337103 0.081346 -0.003218 705107.000000 0 0 1
-32.539317 -5.836819 -30.150210 44.742717 0.177490 2.310213 0.074142 -0.005818 1704500.000000 0 0 1
-33.596617 -5.185419 -29.402140 44.945601 0.153135 2.283883 0.091043 -0.005346 1490870.000000 0 0 1
-34.735917 -4.357719 -30.181690 46.222376 0.124801 2.282292 0.112366 -0.006513 607420.000000 0 0 1
-34.308717 -3.146119 -30.854470 46.249156 0.091445 2.301154 0.125840 -0.006830 162550.000000 0 0 1
-33.860717 -2.074419 -30.034860 45.309427 0.061187 2.295459 0.130714 -0.001293 133338.000000 0 0 1
-33.543217 -0.790519 -30.829840 45.565901 0.023563 2.313930 0.131738 -0.003569 287596.000000 0 0 1
-34.752217 -0.238619 -31.318120 46.782456 0.006866 2.304253 0.138663 -0.006830 369197.000000 0 0 1
-34.540717 1.015381 -31.902510 47.030440 -0.029388 2.316294 0.150323 -0.006550 267498.000000 0 0 1
-35.951217 1.628981 -32.071330 48.204914 -0.045280 2.298709 0.117908 -0.011025 392014.000000 0 0 1
-36.626317 1.097481 -33.214870 49.456235 -0.029955 2.307164 0.109366 -0.009016 50784.500000 0 0 1
35.906461 1.744381 -33.420800 49.084281 0.048543 2.319768 0.070917 -0.004603 -119415.000000 0 0 1
35.167461 1.375981 33.308558 48.457235 0.039107 0.812920 0.049646 -0.011214 170035.000000 0 0 1
35.641461 2.174981 32.162047 48.056649 0.060948 0.837594 0.077654 -0.018235 675097.000000 0 0 1
36.216361 1.292481 31.203837 47.822325 0.035673 0.859924 0.063222 -0.015911 -302718.000000 0 0 1
36.348261 1.870681 29.769737 47.020557 0.051420 0.885217 0.087771 -0.017259 -708208.000000 0 0 1
-36.472317 2.883681 29.668707 47.103903 -0.078901 0.889428 0.118018 -0.021313 -131606.000000 0 0 1
-36.076917 3.138881 28.363297 45.998620 -0.086787 0.906365 0.129625 -0.020925 -217012.000000 0 0 1
-35.187317 4.351481 28.152527 45.273032 -0.123041 0.899708 0.125000 -0.014573 -218897.000000 0 0 1
-34.645717 4.321781 26.815347 44.023474 -0.124101 0.915852 0.124823 -0.013906 526335.000000 0 0 1
-34.043717 5.564181 26.419977 43.450546 -0.162010 0.917198 0.124728 -0.018729 141486.000000 0 0 1
-33.238417 5.477081 25.082607 41.999142 -0.163314 0.930769 0.129611 -0.015556 433181.000000 0 0 1
-31.965017 4.828081 25.074657 40.912236 -0.149909 0.911085 0.117385 -0.013979 1014670.000000 0 0 1
-31.213417 5.011481 23.852537 39.602220 -0.159197 0.924413 0.111518 -0.018075 300878.000000 0 0 1
-31.858117 4.464681 22.574377 39.299815 -0.139236 0.958908 0.140552 -0.033718 -290354.000000 0 0 1
-31.739617 3.086381 22.468977 39.010049 -0.096936 0.956995 0.145335 -0.033685 101452.000000 0 0 1
-32.433217 2.620981 21.305777 38.893691 -0.080636 0.991070 0.170265 -0.032584 -261497.000000 0 0 1
-32.118117 1.128281 21.012677 38.397643 -0.035115 0.991735 0.161694 -0.037664 295674.000000 0 0 1
-30.864017 0.745081 20.451777 37.032659 -0.024136 0.985720 0.162620 -0.039664 479579.000000 0 0 1
-30.639417 1.338181 19.187977 36.176554 -0.043647 1.011726 0.180985 -0.034381 -442272.000000 0 0 1
-29.442117 0.902081 18.323977 34.690346 -0.030630 1.014299 0.173384 -0.036147 -154479.000000 0 0 1
-29.672117 -0.352219 17.710177 34.557328 0.011870 1.032718 0.177693 -0.027025 787455.000000 0 0 1
-28.505317 -0.881819 17.050377 33.227188 0.030925 1.031951 0.180897 -0.029164 589663.000000 0 0 1
-28.108817 -0.287619 15.662677 32.179306 0.010232 1.062452 0.194011 -0.033168 -69643.700000 0 0 1
-27.557717 1.003181 15.753577 31.758610 -0.036387 1.051763 0.213721 -0.032996 66057.700000 0 0 1
-27.691917 1.631181 14.480177 31.291828 -0.058837 1.089706 0.195640 -0.029086 -22933.900000 0 0 1
-26.708317 2.766281 14.125677 30.340093 -0.103206 1.086509 0.182433 -0.025616 -267863.000000 0 0 1
-25.411417 2.410181 13.715377 28.976898 -0.094563 1.077739 0.171536 -0.028359 -97725.900000 0 0 1
-24.832017 3.526581 13.089277 28.291253 -0.141074 1.089801 0.162784 -0.026759 -556347.000000 0 0 1
-23.313117 3.410281 12.919177 26.870738 -0.145251 1.069241 0.122246 -0.023028 -648540.000000 0 0 1
-22.643117 3.597481 14.123077 26.927939 -0.157561 1.018696 0.092976 -0.011204 -422748.000000 0 0 1
-21.293517 3.872581 13.882277 25.712416 -0.179900 1.000471 0.047983 -0.010250 -617969.000000 0 0 1
-20.610217 4.601881 15.048577 25.931024 -0.219678 0.951661 0.033054 -0.013314 -527957.000000 0 0 1
-20.893217 5.995281 15.145377 26.492496 -0.279441 0.962238 0.028807 -0.006620 504341.000000 0 0 1
-20.728817 6.520481 16.410977 27.230877 -0.304762 0.923965 0.022578 0.003524 -390198.000000 0 0 1
-20.899217 8.090981 16.410677 27.776816 -0.369374 0.938740 0.025777 0.001037 -414745.000000 0 0 1
-19.781517 8.806381 15.919577 26.875522 -0.418840 0.936830 0.026341 -0.004873 558044.000000 0 0 1
-19.843617 10.191881 16.182977 27.559613 -0.474476 0.943202 0.039521 -0.004382 -324140.000000 0 0 1
-19.619217 10.709181 17.627977 28.466573 -0.499653 0.903007 0.048392 -0.003260 -506933.000000 0 0 1
-20.700417 10.389781 18.461277 29.618804 -0.465176 0.897846 0.066679 -0.014112 291648.000000 0 0 1
-20.342817 10.466781 19.811977 30.263809 -0.475196 0.857087 0.072930 -0.019944 -276862.000000 0 0 1
-12.431139 -33.445570 -19.777220 40.795561 1.214937 2.076918 0.112707 -0.037078 -880316.000000 0 0 1
-13.588739 -33.961570 -19.241720 41.331415 1.190186 2.055049 0.138001 -0.031158 -1610180.000000 0 0 1
-14.588439 -33.008270 -19.416320 40.980019 1.154646 2.064397 0.115409 -0.050550 -170945.000000 0 0 1
-15.922839 -33.578870 -18.827720 41.660057 1.128007 2.039732 0.108363 -0.038426 -795296.000000 0 0 1
-16.399139 33.468281 -19.587220 42.103643 -1.115188 2.054673 0.089612 -0.038772 608376.000000 0 0 1
-17.226539 32.471781 -18.898420 41.331834 -1.083041 2.045682 0.098575 -0.034151 1260290.000000 0 0 1
-18.579439 32.929881 -18.242620 41.980541 -1.057107 2.020334 0.093274 -0.034992 -59847.900000 0 0 1
-18.421539 33.761281 -17.165920 42.117051 -1.071306 1.990595 0.098931 -0.032526 592270.000000 0 0 1
-19.732939 -34.058370 -16.664220 42.744095 1.045672 1.971276 0.064797 -0.024075 691520.000000 0 0 1
-20.017539 33.481281 -15.264120 41.889037 -1.031943 1.943778 0.067872 -0.021003 -206935.000000 0 0 1
-20.130139 32.067981 -15.294620 40.835074 -1.010234 1.954704 0.074660 -0.022882 20658.500000 0 0 1
-20.586639 31.565481 -14.102220 40.237568 -0.992884 1.928873 0.078971 -0.014302 -257191.000000 0 0 1
-20.698139 30.018681 -13.969320 39.047100 -0.967146 1.936660 0.068788 -0.015020 111066.000000 0 0 1
-19.385239 29.518581 -13.850220 37.933662 -0.989716 1.944555 0.071262 -0.025671 70783.100000 0 0 1
-19.358839 28.123181 -13.752720 36.807815 -0.967926 1.953722 0.071029 -0.031693 353837.000000 0 0 1
-18.002539 27.479281 -13.309520 35.444966 -0.990822 1.955731 0.091710 -0.027992 -32409.400000 0 0 1
-16.990739 27.696881 -14.225920 35.470822 -1.020543 1.983470 0.106298 -0.038198 -755306.000000 0 0 1
-15.838339 26.959881 -13.874620 34.208087 -1.039635 1.988426 0.123567 -0.044870 368574.000000 0 0 1
-14.522639 27.510981 -14.511020 34.326823 -1.085090 2.007253 0.116255 -0.042957 43602.400000 0 0 1
-14.475339 27.381581 -15.913820 34.821489 -1.084490 2.045429 0.100620 -0.041670 41410.200000 0 0 1
-13.454439 28.133081 -16.530720 35.295281 -1.124706 2.058224 0.113814 -0.047118 -199041.000000 0 0 1
-13.692239 28.254481 -18.043120 36.212529 -1.119541 2.092383 0.131126 -0.057760 12042.200000 0 0 1
-13.545339 26.947181 -18.662620 35.467170 -1.105021 2.124915 0.107576 -0.054195 263274.000000 0 0 1
-14.156839 26.833981 -19.920320 36.294597 -1.085336 2.151785 0.091485 -0.058725 -485738.000000 0 0 1
-13.584239 25.644881 -20.636520 35.609794 -1.083668 2.188934 0.067051 -0.044263 -516079.000000 0 0 1
-12.338839 26.027681 -21.170020 35.747124 -1.128110 2.204603 0.057725 -0.042067 -443806.000000 0 0 1
-11.460839 24.939281 -21.195020 34.677766 -1.140029 2.228371 0.048959 -0.035663 158001.000000 0 0 1
-10.115739 25.249381 -21.902420 34.922420 -1.189744 2.248715 0.069851 -0.035845 144542.000000 0 0 1
-10.360339 25.585381 -23.201220 36.058909 -1.186045 2.269761 0.071350 -0.035024 -299864.000000 0 0 1
-9.199239 25.943581 -23.902020 36.455479 -1.230042 2.285839 0.058647 -0.035605 -419455.000000 0 0 1
-9.402339 26.606981 -25.235310 37.857051 -1.231115 2.300427 0.062900 -0.027507 243538.000000 0 0 1
-10.244339 25.839381 -26.128220 38.148446 -1.193343 2.325275 0.061162 -0.035139 222195.000000 0 0 1
-10.686639 26.717281 -27.202070 39.597600 -1.190299 2.328097 0.069597 -0.030875 120700.000000 0 0 1
-12.017339 26.199181 -27.771980 40.026196 -1.140738 2.337611 0.062788 -0.028570 -288248.000000 0 0 1
-12.590639 26.848181 -28.857130 41.377324 -1.132290 2.342579 0.077711 -0.022687 -424401.000000 0 0 1
-13.714239 26.123481 -29.269460 41.559811 -1.087367 2.352195 0.071783 -0.026666 -608347.000000 0 0 1
-14.138439 26.485181 -30.701070 42.940843 -1.080457 2.367366 0.071359 -0.032806 220809.000000 0 0 1
-13.254939 26.161781 -31.808550 43.265645 -1.101841 2.396746 0.074231 -0.029731 497851.000000 0 0 1
-13.001539 24.758981 -31.912860 42.432037 -1.087252 2.422029 0.069365 -0.034782 -280862.000000 0 0 1
-12.241839 24.445681 -33.168590 42.983826 -1.106527 2.452232 0.061595 -0.023994 -532036.000000 0 0 1
-13.000939 24.487481 33.699736 43.638668 -1.082718 0.688429 0.062892 -0.020406 -208625.000000 0 0 1
-12.319439 23.925081 32.599825 42.272055 -1.095286 0.690087 0.054055 -0.022272 -763673.000000 0 0 1
-12.979139 24.017181 31.244267 41.490809 -1.075345 0.718125 0.060843 -0.012262 92027.500000 0 0 1
-14.075939 23.075081 31.127987 41.225513 -1.023052 0.715041 0.077082 -0.022089 998932.000000 0 0 1
-14.729139 23.113781 29.823407 40.504691 -1.003440 0.743218 0.080191 -0.017180 553287.000000 0 0 1
-15.998739 22.246781 29.649067 40.372590 -0.947334 0.746035 0.078237 -0.018605 192982.000000 0 0 1
-15.684839 20.943681 30.005927 39.812154 -0.927996 0.717141 0.060045 -0.022562 -576060.000000 0 0 1
-16.798539 20.115781 30.147727 39.946476 -0.875021 0.715595 0.064788 -0.024353 -413390.000000 0 0 1
-16.473639 18.610281 30.335147 39.216635 -0.846224 0.686408 0.043430 -0.025298 -571400.000000 0 0 1
-16.066139 18.012481 29.143217 37.840420 -0.842449 0.691703 0.053438 -0.024599 353191.000000 0 0 1
-15.498339 16.686181 29.310587 37.117888 -0.822289 0.660538 0.032174 -0.035465 128462.000000 0 0 1
-15.045339 16.044581 27.962527 35.576589 -0.817527 0.666515 0.027871 -0.025663 75836.300000 0 0 1
-13.989239 16.690781 27.285417 34.910957 -0.873227 0.673615 0.023019 -0.018343 954.086000 0 0 1
-13.546139 15.870281 26.200807 33.493969 -0.864243 0.672520 0.014482 -0.012614 360573.000000 0 0 1
-12.336939 16.466781 25.411897 32.697392 -0.927806 0.680618 0.016213 -0.012785 -9810.430000 0 0 1
-12.598839 17.553181 24.477037 32.649199 -0.948255 0.723191 0.022294 -0.011791 -136152.000000 0 0 1
-12.812339 18.889181 24.898977 33.777451 -0.974790 0.741957 0.031190 -0.011527 -298161.000000 0 0 1
-11.738239 19.574481 25.746297 34.406661 -1.030619 0.725310 0.029280 -0.009097 -393201.000000 0 0 1
-11.706739 19.297881 27.143627 35.302017 -1.025514 0.693682 0.027108 -0.014536 1450910.000000 0 0 1
-12.898239 19.697481 27.925777 36.526762 -0.991042 0.700486 0.043233 -0.010829 1430400.000000 0 0 1
-12.566439 19.590681 29.397107 37.495334 -1.000455 0.669680 0.036903 -0.019242 522074.000000 0 0 1
-11.431539 20.370081 29.805407 37.867962 -1.059401 0.664723 0.037072 -0.021493 393718.000000 0 0 1
-11.280639 20.416681 31.224137 38.974869 -1.066020 0.641607 0.029986 -0.017831 438496.000000 0 0 1
-9.917939 21.103781 31.625837 39.292857 -1.131468 0.635332 0.024850 -0.013445 1220430.000000 0 0 1
-8.831039 20.178281 31.694077 38.596175 -1.158259 0.607336 0.036564 -0.019510 252092.000000 0 0 1
-7.701939 20.725381 32.334339 39.171044 -1.214993 0.599770 0.037938 -0.014684 852760.000000 0 0 1
-6.484339 19.795581 32.713306 38.782368 -1.254246 0.567012 0.044923 -0.012642 465480.000000 0 0 1
-6.721539 18.922881 33.784029 39.301591 -1.229490 0.536291 0.037440 -0.020984 -186233.000000 0 0 1
-5.579739 18.563681 -33.513700 38.715783 -1.278814 2.617212 0.034690 -0.026408 22653.600000 0 0 1
-4.748539 17.430381 33.883681 38.398836 -1.304822 0.489827 0.034081 -0.024419 -54291.500000 0 0 1
-5.455739 16.193581 33.839932 37.909605 -1.245832 0.467610 0.028186 -0.017348 96356.500000 0 0 1
-5.168139 15.565281 32.584352 36.479139 -1.250219 0.466312 0.041291 -0.012854 -36136.700000 0 0 1
-5.700939 14.105681 32.470365 35.857991 -1.186710 0.438177 0.043291 -0.019919 -138842.000000 0 0 1
-5.110739 13.238081 33.413816 36.302197 -1.202362 0.401604 0.055827 -0.019466 -262261.000000 0 0 1
-5.667839 11.913781 33.250948 35.772728 -1.126746 0.377727 0.056654 -0.017549 633604.000000 0 0 1
-4.802239 10.718281 33.853010 35.832517 -1.149572 0.333945 0.082610 -0.027937 506852.000000 0 0 1
-4.814439 10.617981 -32.797730 34.808209 -1.145099 2.800056 0.095227 -0.040380 669047.000000 0 0 1
-3.768139 9.726281 -32.314190 33.955946 -1.201183 2.829361 0.107898 -0.041111 936593.000000 0 0 1
-3.940639 9.447681 -30.840620 32.495094 -1.175635 2.821116 0.113701 -0.047051 1397340.000000 0 0 1
-5.177739 8.708381 -30.560070 32.195695 -1.034379 2.821472 0.121909 -0.042675 1246690.000000 0 0 1
-5.479439 8.885781 -29.218330 31.027281 -1.018222 2.798438 0.139744 -0.043254 -317244.000000 0 0 1
-6.671639 8.047681 -28.748940 30.590480 -0.878613 2.792842 0.121561 -0.042780 -101145.000000 0 0 1
-6.173439 6.723281 -28.560580 29.983672 -0.828007 2.832263 0.108214 -0.026848 1040080.000000 0 0 1
-7.271039 5.876181 -28.162060 29.673206 -0.679698 2.821079 0.119922 -0.045713 415436.000000 0 0 1
-6.859039 5.170281 -26.836190 28.177284 -0.645923 2.831827 0.102258 -0.042644 -23620.200000 0 0 1
-6.870139 5.933881 -25.618110 27.178987 -0.712406 2.801041 0.069310 -0.030239 163887.000000 0 0 1
-5.789039 6.813881 -25.396080 26.924020 -0.866537 2.803081 0.068842 -0.029475 -207098.000000 0 0 1
-6.162839 7.839681 -24.291820 26.258974 -0.904583 2.752059 0.030629 -0.011717 235095.000000 0 0 1
-6.268739 7.280981 -22.988620 24.915586 -0.859965 2.745720 0.020639 -0.006881 -468854.000000 0 1 0
-7.534539 7.660081 -22.551820 24.980607 -0.793660 2.696970 0.035875 -0.000820 -494365.000000 0 1 0
-7.684439 7.869481 -21.034420 23.736600 -0.797294 2.659787 0.032748 -0.001958 186659.000000 0 1 0
-6.935139 9.034981 -20.585020 23.525945 -0.916134 2.636216 0.018744 0.001062 593833.000000 0 1 0
-6.719939 9.092181 -19.170120 22.255760 -0.934314 2.608728 0.018493 -0.002891 -264233.000000 0 1 0
-8.019939 9.410281 -18.403520 22.171206 -0.864996 2.550019 0.019729 -0.002035 -261893.000000 0 1 0
-7.825539 9.426181 -17.019920 20.970685 -0.877915 2.517691 0.013427 -0.001529 82197.200000 0 1 0
-8.991839 9.710881 -16.261520 20.966435 -0.823825 2.458458 0.021780 -0.005627 551819.000000 0 1 0
-9.619039 11.168981 -16.386820 22.040869 -0.859820 2.409047 0.046544 -0.019345 44455.900000 0 1 0
-8.660039 12.139481 -16.020820 21.886753 -0.951148 2.392030 0.026731 -0.018164 261864.000000 0 1 0
-9.200339 13.454481 -16.198420 22.979515 -0.971017 2.353088 0.058773 -0.025553 209632.000000 0 1 0
-8.108539 14.541481 -16.049620 23.125600 -1.062126 2.337854 0.054927 -0.018586 2532.380000 0 1 0
-7.539739 14.610781 -14.759320 22.094346 -1.094400 2.302332 0.050894 -0.012451 35398.900000 0 1 0
-8.363239 15.150581 -13.736820 22.094888 -1.066413 2.241732 0.046015 -0.027030 -729044.000000 0 1 0
-7.628439 16.023381 -12.666620 21.803327 -1.126466 2.190690 0.037592 -0.024188 -35213.800000 0 1 0
-7.205839 17.331381 -13.034120 22.851459 -1.176771 2.177770 0.049929 -0.023764 187931.000000 0 1 0
-6.159539 17.388581 -13.994020 23.154595 -1.230359 2.219775 0.062413 -0.022062 -95698.600000 0 1 0
-5.938639 18.819481 -14.534720 24.509149 -1.265128 2.205616 0.074819 -0.014992 221580.000000 0 1 0
-5.498339 19.734681 -13.502220 24.535674 -1.299074 2.153531 0.088135 -0.023407 77896.800000 0 1 0
-5.576139 21.034881 -14.026720 25.890315 -1.311666 2.143344 0.078721 -0.020275 21139.100000 0 0 1
-5.203739 22.007081 -12.863720 26.016645 -1.338604 2.087989 0.085447 -0.020550 -839028.000000 0 0 1
-5.381139 23.417181 -13.151920 27.391495 -1.344923 2.071618 0.070597 -0.018467 716300.000000 0 0 1
-6.710739 23.945181 -12.997220 28.059462 -1.297552 2.052402 0.080768 -0.017654 666549.000000 0 0 1
-7.286839 23.811781 -11.573420 27.459843 -1.273827 2.005859 0.067321 -0.019310 -644312.000000 0 0 1
-7.561839 22.476681 -11.125620 26.194694 -1.246261 2.009458 0.069753 -0.018329 -333032.000000 0 0 1
-8.349639 22.299081 -9.988420 25.821193 -1.212518 1.967988 0.074388 -0.020115 -77322.900000 0 0 1
-7.756339 22.818281 -8.636420 25.601220 -1.243132 1.914890 0.071466 -0.014276 3436.340000 0 0 1
-7.745839 24.220981 -8.531920 26.822520 -1.261276 1.894508 0.060348 -0.010563 66320.300000 0 0 1
-7.245939 24.568081 -7.220120 26.612485 -1.283995 1.845546 0.063236 -0.012205 118637.000000 0 0 1
-7.173339 26.072281 -6.982120 27.927954 -1.302307 1.823481 0.064212 -0.013811 273161.000000 0 0 1
-6.164639 26.812781 -7.664720 28.560041 -1.344809 1.842499 0.051935 -0.020107 64234.200000 0 0 1
-6.297339 26.910881 -9.092020 29.094962 -1.340925 1.888614 0.050070 -0.019684 -171860.000000 0 0 1
-5.681439 28.129281 -9.808620 30.327285 -1.371502 1.900144 0.044096 -0.018334 77499.500000 0 0 1
-6.397739 29.358981 -9.773820 31.597601 -1.356236 1.885276 0.044402 -0.018872 195550.000000 0 0 1
-7.152239 29.529781 -11.005820 32.315485 -1.333168 1.918324 0.053754 -0.018518 822253.000000 0 0 1
-8.304139 30.594181 -10.916320 33.528028 -1.305753 1.902430 0.067997 -0.024160 1618000.000000 0 0 1
-9.442839 30.227581 -10.079520 33.233576 -1.268010 1.878943 0.082749 -0.021080 629966.000000 0 0 1
-10.436939 31.178481 -9.991720 34.363670 -1.247773 1.865822 0.085054 -0.029804 121461.000000 0 0 1
-11.714239 30.869181 -9.171920 34.267387 -1.208104 1.841757 0.090812 -0.022487 522982.000000 0 0 1
-12.471439 29.765281 -9.613320 33.673798 -1.174025 1.860307 0.098730 -0.025984 -195351.000000 0 0 1
-13.672039 29.606581 -8.897120 33.802855 -1.138181 1.837140 0.102838 -0.014657 -29706.900000 0 0 1
-14.642339 28.601481 -9.496720 33.505678 -1.097640 1.858172 0.110464 -0.017743 -269644.000000 0 0 1
-14.426539 27.245881 -9.158220 32.161095 -1.083833 1.859553 0.098767 -0.013452 90232.200000 0 0 1
-15.444139 26.442981 -9.737720 32.133718 -1.042184 1.878675 0.122305 -0.016807 128826.000000 0 0 1
-15.530739 25.034381 -9.111120 30.837260 -1.015529 1.870731 0.104206 -0.014169 197587.000000 0 0 1
-14.562139 24.084581 -9.555720 29.722630 -1.026983 1.898106 0.104886 -0.016661 204086.000000 0 0 1
-14.954639 22.789581 -9.223920 28.776499 -0.990071 1.897092 0.104053 -0.017015 208199.000000 0 0 1
-13.885039 21.672681 -9.472420 27.426741 -1.001008 1.923431 0.106240 -0.017128 152506.000000 0 0 1
-13.852739 21.297281 -10.860620 27.630158 -0.994107 1.974766 0.103801 -0.011367 403575.000000 0 0 1
-13.064039 20.120081 -11.033920 26.405192 -0.994911 2.001895 0.094811 -0.012532 41875.800000 0 0 1
-13.372939 19.493781 -12.410120 26.699327 -0.969521 2.054217 0.102040 -0.012784 641955.000000 0 0 1
-14.672939 18.905181 -12.510720 27.004057 -0.910779 2.052501 0.108686 -0.013266 454967.000000 0 0 1
-14.939039 18.567381 -13.879220 27.578166 -0.893266 2.098173 0.113511 -0.012376 -807090.000000 0 0 1
-16.409239 18.399381 -14.170820 28.436112 -0.842510 2.092478 0.096064 -0.004088 -874347.000000 0 0 1
-17.104739 19.601881 -14.371720 29.721241 -0.853323 2.075503 0.071407 -0.007097 -61086.000000 0 0 1
-18.357139 19.315881 -14.964420 30.561768 -0.810842 2.082479 0.062539 -0.010635 -295618.000000 0 0 1
-19.017039 20.522281 -15.641820 32.054303 -0.823449 2.080569 0.051778 -0.009957 -184815.000000 0 0 1
-19.308639 21.572281 -14.756620 32.495302 -0.840713 2.042176 0.059118 -0.022322 296421.000000 0 0 1
-19.762139 22.704181 -15.496720 33.855137 -0.854567 2.046244 0.064263 -0.022319 -64036.100000 0 0 1
-20.392539 23.814581 -14.628820 34.597576 -0.862653 2.007360 0.069678 -0.013649 -374822.000000 0 0 1
-21.685639 23.531581 -14.169220 34.996700 -0.826199 1.987636 0.083524 -0.017366 -155035.000000 0 0 1
-22.266939 24.659181 -13.582820 35.894077 -0.836333 1.958879 0.082683 -0.023583 -222445.000000 0 0 1
-26.108179 -0.517919 3.665380 26.369305 0.019835 1.431343 0.166399 -0.047741 -91767.200000 0 0 1
-26.667769 0.233881 4.731580 27.085281 -0.008770 1.395203 0.173800 -0.043171 488562.000000 0 0 1
-28.059789 0.006081 4.884280 28.481713 -0.000217 1.398456 0.161103 -0.036575 168935.000000 0 0 1
-28.496909 0.408781 6.309880 29.189990 -0.014344 1.352911 0.166726 -0.027197 -363660.000000 0 0 1
-28.634409 1.795281 6.444280 29.405461 -0.062615 1.349851 0.181725 -0.028538 190867.000000 0 0 1
-28.983909 2.137681 7.732580 30.073734 -0.073621 1.310755 0.193121 -0.024223 1163820.000000 0 0 1
-27.671829 2.384881 8.629680 29.084174 -0.085972 1.269547 0.194361 -0.020726 1194630.000000 0 0 1
-27.217209 1.209381 9.318880 28.793760 -0.044405 1.241220 0.191977 -0.032048 331147.000000 0 0 1
-26.190409 1.658381 10.214880 28.160815 -0.063236 1.199596 0.197871 -0.040910 -212433.000000 0 0 1
-25.581129 0.419181 10.836080 27.784717 -0.016385 1.170163 0.184780 -0.036580 -767045.000000 0 0 1
-24.638839 -0.160919 9.975480 26.582108 0.006531 1.186108 0.172529 -0.038292 -48146.000000 0 0 1
-25.034039 -1.242119 9.157180 26.685200 0.049577 1.220522 0.146742 -0.041627 -495040.000000 0 0 1
-23.872239 -1.564919 8.199480 25.289607 0.065460 1.240606 0.138387 -0.040905 31765.900000 0 0 1
-22.706439 -1.916319 8.906680 24.465968 0.084196 1.198191 0.136084 -0.056089 -808703.000000 0 1 0
-21.632139 -2.259719 8.091580 23.206237 0.104084 1.214633 0.153494 -0.049820 -445769.000000 0 1 0
-20.438839 -2.590319 9.019980 22.490352 0.126063 1.158123 0.120558 -0.041961 33911.600000 0 1 0
-19.782339 -1.452119 9.645280 22.056315 0.073273 1.118199 0.098845 -0.033386 634991.000000 0 1 0
-20.555839 -0.916019 10.681180 23.183382 0.044533 1.091984 0.115459 -0.033370 -721084.000000 0 1 0
-20.318039 0.600281 10.956380 23.091672 -0.029536 1.076431 0.089645 -0.019116 -259545.000000 0 1 0
-20.497239 1.549681 9.943780 22.834559 -0.075461 1.120235 0.084396 -0.016916 342604.000000 0 1 0
-21.831039 1.673781 9.515580 23.873459 -0.076520 1.160824 0.104607 -0.014593 -508339.000000 0 1 0
-22.335339 3.069581 9.070180 24.301396 -0.136576 1.188301 0.105471 -0.028220 -226342.000000 0 1 0
-22.460639 4.043981 10.091680 24.953478 -0.178139 1.154452 0.104506 -0.026863 455587.000000 0 1 0
-22.463539 5.318381 9.435680 24.938481 -0.232476 1.182774 0.076695 -0.016288 -223232.000000 0 1 0
-22.397139 6.488181 10.444280 25.550172 -0.281970 1.149685 0.074548 -0.015059 213657.000000 0 0 1
-23.590039 6.583981 11.202380 26.931989 -0.272174 1.141808 0.091599 -0.013031 273964.000000 0 0 1
-23.487339 7.558281 12.169680 27.511521 -0.311337 1.112581 0.090123 -0.012679 493660.000000 0 0 1
-24.275239 7.336681 13.559580 28.757196 -0.293500 1.079783 0.113787 -0.021130 64547.300000 0 0 1
-25.659849 7.348781 13.408580 29.870093 -0.278926 1.105266 0.143334 -0.023223 -610697.000000 0 0 1
-26.364649 6.966881 14.581980 30.923555 -0.258346 1.079750 0.159521 -0.028244 652693.000000 0 0 1
-27.891379 7.083881 14.251180 32.112404 -0.248722 1.110972 0.176997 -0.026087 489738.000000 0 0 1
-28.322779 6.108581 13.276780 31.871107 -0.212423 1.141119 0.199562 -0.013386 -201619.000000 0 0 1
-29.596929 5.559081 13.473780 32.991277 -0.185663 1.150091 0.201036 -0.030731 -451898.000000 0 0 1
-29.987309 4.608081 12.339080 32.752496 -0.152475 1.184525 0.201095 -0.024133 -736025.000000 0 0 1
-31.133689 3.904681 12.661780 33.835984 -0.124765 1.187251 0.190753 -0.032369 -203196.000000 0 0 1
-31.427049 2.834281 11.728380 33.663741 -0.089943 1.214935 0.189132 -0.015635 62805.900000 0 0 1
-32.581359 1.879281 12.096180 34.805089 -0.057616 1.215849 0.155210 -0.010547 128390.000000 0 0 1
-32.181299 0.906181 13.012080 34.724219 -0.028151 1.186695 0.159783 -0.013120 925496.000000 0 0 1
-33.397679 0.352181 13.552780 36.044512 -0.010545 1.185319 0.128508 -0.009208 824871.000000 0 0 1
-33.331389 -0.731419 14.699180 36.436004 0.021940 1.155540 0.106391 -0.015570 107920.000000 0 0 1
-32.792119 -2.029319 14.330180 35.844041 0.061806 1.159506 0.103234 -0.011494 389219.000000 0 0 1
-33.057219 -3.031419 15.364080 36.579013 0.091446 1.137324 0.101203 -0.008215 -40914.500000 0 0 1
-32.890679 -4.518519 15.004480 36.432790 0.136525 1.146324 0.084895 -0.006111 115547.000000 0 0 1
-33.912059 -5.024519 14.136380 37.082486 0.147093 1.179687 0.052286 -0.004943 204322.000000 0 0 1
-33.661769 -6.304919 13.617280 36.855081 0.185157 1.192345 0.054413 -0.009416 -1327450.000000 0 0 1
-34.739840 -6.722019 12.605980 37.562651 0.191134 1.228556 0.051031 -0.010788 966240.000000 0 0 1
-36.058768 -7.008019 13.117580 39.005358 0.191957 1.227809 0.062058 -0.012139 874081.000000 0 0 1
-36.700469 -5.817419 13.534280 39.546726 0.157203 1.221502 0.071133 -0.015976 -123873.000000 0 0 1
35.553079 -5.610019 13.062780 38.290076 -0.156502 1.222653 0.102546 -0.020685 1289080.000000 0 0 1
34.658139 -6.521519 13.634680 37.810333 -0.185992 1.201877 0.092724 -0.022680 300950.000000 0 0 1
33.358829 -6.290119 13.068680 36.375369 -0.186371 1.203308 0.108433 -0.027067 1012110.000000 0 0 1
32.214579 -7.301919 13.350680 35.627767 -0.222899 1.186694 0.090605 -0.025171 288897.000000 0 0 1
31.797829 -7.226119 14.690380 35.764870 -0.223457 1.147521 0.087409 -0.020767 359233.000000 0 0 1
30.655149 -8.048019 14.953880 35.044647 -0.256740 1.129945 0.087009 -0.018405 651379.000000 0 0 1
30.145699 -8.031519 16.450080 35.268592 -0.260375 1.085554 0.080517 -0.013752 214574.000000 0 0 1
31.103889 -8.498419 17.381980 36.630701 -0.266717 1.076378 0.057520 -0.008448 202818.000000 0 0 1
30.519359 -8.624019 18.714180 36.824251 -0.275395 1.037700 0.059802 -0.015866 -157710.000000 0 0 1
31.526239 -9.145519 19.752480 38.310634 -0.282343 1.029103 0.058002 -0.016345 -37378.500000 0 0 1
32.513139 -8.194819 20.057380 39.071188 -0.246904 1.031707 0.059566 -0.014202 -288010.000000 0 0 1
33.753469 -8.523719 19.459980 39.882844 -0.247357 1.061081 0.029665 -0.003079 438650.000000 0 0 1
34.993279 -7.905419 20.211280 41.176705 -0.222183 1.057740 0.028346 -0.009942 649912.000000 0 0 1
35.224019 -8.378719 21.519380 42.119095 -0.233530 1.034545 0.027288 -0.010248 -564316.000000 0 0 1
36.466349 -7.984419 22.025480 43.343596 -0.215551 1.037749 0.025464 -0.009236 -397804.000000 0 0 1
36.806529 -8.573219 23.430680 44.465913 -0.228846 1.015805 0.032982 -0.006499 11947.700000 0 0 1
36.107379 -7.998319 24.552780 44.390933 -0.217995 0.984711 0.049596 -0.007984 187958.000000 0 0 1
36.342589 -8.709719 25.705580 45.358789 -0.235220 0.968281 0.046701 -0.008434 -284018.000000 0 0 1
35.954369 -8.011119 26.994880 45.668569 -0.219232 0.938369 0.062948 -0.009350 664477.000000 0 0 1
-36.658289 -7.699619 27.790980 46.641750 0.207028 0.932486 0.045163 -0.018640 494351.000000 0 0 1
36.671059 -6.968619 28.951180 47.238745 -0.187791 0.911110 0.052878 -0.020356 872998.000000 0 0 1
-35.874151 -6.528319 29.836480 47.114639 0.180009 0.885020 0.062631 -0.014733 995681.000000 0 0 1
-35.295826 -7.550619 30.656880 47.356641 0.210747 0.866678 0.055478 -0.004838 35636.100000 0 0 1
-33.969439 -7.252519 31.037280 46.581483 0.210343 0.841559 0.052648 -0.013717 217364.000000 0 0 1
-33.528979 -8.048419 32.278380 47.232016 0.235586 0.818386 0.041334 -0.009051 -71226.800000 0 0 1
-33.457569 -9.440119 32.065080 47.293701 0.275003 0.825759 0.048620 -0.017241 441165.000000 0 0 1
-32.813259 -10.092419 33.180880 47.744504 0.298388 0.802422 0.044821 -0.017118 -141881.000000 0 0 1
-33.092259 -11.638519 33.198980 48.298292 0.338188 0.812929 0.047900 -0.017382 -41186.200000 0 0 1
-34.439605 -11.916419 33.542480 49.529642 0.333115 0.826818 0.045616 -0.022781 299168.000000 0 0 1
-34.744266 -13.307419 33.374880 49.981337 0.365775 0.839619 0.045151 -0.031128 443124.000000 0 0 1
-36.290119 -13.466019 33.456680 51.163032 0.355317 0.858038 0.040802 -0.025394 258593.000000 0 0 1
-36.653549 -14.843919 33.440480 51.788901 0.384791 0.868847 0.039815 -0.032128 983745.000000 0 0 1
35.689399 -14.924819 33.693880 51.300691 -0.396085 0.854240 0.037281 -0.027620 866366.000000 0 0 1
35.302849 -16.407619 33.985480 51.677015 -0.435067 0.853099 0.031430 -0.017288 -98325.400000 0 0 1
35.847419 -16.844919 -32.810917 51.432918 -0.439284 2.262612 0.032079 -0.023262 314140.000000 0 0 1
35.849159 -18.258619 -32.784417 51.897566 -0.471074 2.254559 0.030094 -0.028024 -170325.000000 0 0 1
36.278539 -18.902619 -31.417017 51.579747 -0.480339 2.225717 0.027128 -0.017186 667307.000000 0 0 1
35.252039 -18.813719 -30.409017 50.213251 -0.490236 2.221313 0.023186 -0.012201 510928.000000 0 0 1
35.574369 -19.790219 -29.454417 50.246902 -0.507671 2.197149 0.017474 -0.006980 -121672.000000 0 0 1
34.432209 -19.999919 -28.417917 48.919850 -0.526219 2.190640 0.013094 -0.005656 1454850.000000 0 0 1
33.145149 -20.531219 -28.801817 48.473462 -0.554587 2.207038 0.020869 -0.001088 1043610.000000 0 0 1
32.332679 -19.668419 -29.573317 48.029469 -0.546510 2.234112 0.016344 0.003372 -298862.000000 0 0 1
30.901659 -20.283519 -29.699617 47.417306 -0.580854 2.247653 0.021420 0.006759 238841.000000 0 0 1
30.081269 -19.486219 -30.543617 47.090424 -0.574817 2.276561 0.021240 0.010709 309569.000000 0 0 1
28.760019 -20.003919 -30.486217 46.440337 -0.607731 2.286913 0.025433 0.008886 520620.000000 0 0 1
27.794339 -19.447919 -31.586717 46.351564 -0.610530 2.320551 0.030400 0.014458 304972.000000 0 0 1
28.187239 -19.846119 -32.901917 47.654223 -0.613460 2.332880 0.023197 0.008549 163211.000000 0 0 1
27.158939 -19.732819 -33.875817 47.692380 -0.628335 2.360718 0.062056 -0.001819 202535.000000 0 0 1
27.760139 -19.783519 32.722980 47.252580 -0.619172 0.805831 0.070476 -0.005794 -41048.600000 0 0 1
28.742109 -18.833519 32.399980 47.228899 -0.580063 0.814791 0.047192 -0.009884 12490.500000 0 0 1
28.993419 -18.667619 31.015280 46.379369 -0.572045 0.838297 0.047257 -0.010222 330460.000000 0 0 1
27.854639 -17.937619 30.189480 44.822358 -0.572126 0.831814 0.058357 -0.008627 385935.000000 0 0 1
27.686239 -16.591819 30.602580 44.478469 -0.539890 0.812024 0.071496 -0.012205 291623.000000 0 0 1
26.724439 -15.948319 29.803680 43.090647 -0.538040 0.807024 0.088882 -0.013236 -136719.000000 0 0 1
26.705939 -14.450619 30.211180 42.833899 -0.495986 0.787936 0.110185 -0.022348 101677.000000 0 0 1
27.904139 -13.724119 29.996180 43.206055 -0.457091 0.803407 0.107326 -0.016344 268923.000000 0 0 1
27.915939 -12.542619 30.783780 43.408041 -0.422271 0.782473 0.135486 -0.026728 647918.000000 0 0 1
29.309609 -11.809119 30.869580 44.175099 -0.383012 0.797077 0.130406 -0.019925 523289.000000 0 0 1
29.529509 -11.099319 29.716780 43.339056 -0.359535 0.815257 0.119268 -0.026786 -518331.000000 0 0 1
30.826429 -10.596419 29.865780 44.209927 -0.331091 0.829093 0.106053 -0.025110 -308731.000000 0 0 1
31.367649 -9.950119 28.550180 43.566581 -0.307170 0.856186 0.112260 -0.026864 2518.890000 0 0 1
30.888299 -8.633419 28.371180 42.819934 -0.272549 0.846552 0.118239 -0.024486 18208.800000 0 0 1
31.468029 -8.050219 27.205480 42.369576 -0.250451 0.873563 0.115796 -0.023469 241926.000000 0 0 1
30.944379 -6.633119 26.998680 41.599057 -0.211161 0.864499 0.103386 -0.030168 353593.000000 0 0 1
29.543939 -6.561019 26.805880 40.428288 -0.218530 0.845914 0.128622 -0.022052 -129694.000000 0 0 1
29.178879 -5.170819 26.701880 39.889030 -0.175390 0.837390 0.126160 -0.020023 159678.000000 0 0 1
27.715839 -4.934619 26.291180 38.519402 -0.176197 0.819559 0.111325 -0.013634 -105404.000000 0 0 1
27.253039 -5.356419 25.009380 37.374970 -0.194070 0.837735 0.120100 -0.018215 78759.000000 0 0 1
25.877239 -5.089919 24.851880 36.237476 -0.194216 0.815086 0.110298 -0.012149 -77627.600000 0 0 1
25.351139 -5.295619 23.416880 34.915241 -0.205930 0.835674 0.103695 -0.014629 -202008.000000 0 0 1
25.928539 -4.425119 22.511880 34.621605 -0.169037 0.862914 0.110235 -0.006200 -51792.100000 0 0 1
25.385739 -4.723319 21.262480 33.449044 -0.183958 0.881923 0.105718 -0.002534 72964.500000 0 0 1
25.702039 -3.654319 20.212680 32.901387 -0.141234 0.909245 0.123311 -0.002201 90746.500000 0 0 1
24.705339 -2.681019 19.991380 31.893524 -0.108097 0.893336 0.102769 0.006387 -268962.000000 0 0 1
25.088539 -1.719919 19.045780 31.545754 -0.068447 0.922598 0.117095 0.000167 92124.300000 0 0 1
23.904139 -0.814919 18.588580 30.292032 -0.034078 0.910127 0.085932 -0.002123 454265.000000 0 0 1
22.973139 -1.623519 17.860880 29.144673 -0.070553 0.911153 0.105292 -0.007165 -286421.000000 0 0 1
21.867939 -0.872419 17.429980 27.978064 -0.039874 0.898240 0.104682 -0.006122 -478608.000000 0 0 1
20.758039 -1.764419 16.926180 26.842222 -0.084796 0.888496 0.079572 -0.012171 -448193.000000 0 0 1
21.062139 -2.369919 15.710980 26.383045 -0.112049 0.932914 0.100080 -0.017618 131232.000000 0 0 1
19.890839 -3.009119 15.262480 25.251605 -0.150143 0.921763 0.092626 -0.024257 -14525.700000 0 0 1
20.058039 -3.419819 13.784180 24.576893 -0.168872 0.975373 0.104302 -0.036919 -333672.000000 0 1 0
19.164439 -4.439719 13.449780 23.830304 -0.227649 0.971092 0.088676 -0.029028 512408.000000 0 1 0
19.457539 -4.746419 12.076080 23.387091 -0.239264 1.028205 0.090307 -0.032776 -187002.000000 0 1 0
18.546439 -5.879019 11.626380 22.665082 -0.306969 1.032162 0.071784 -0.032823 -233500.000000 0 1 0
18.760639 -7.060619 12.424480 23.583503 -0.359956 1.015930 0.104537 -0.040571 1252630.000000 0 1 0
17.590839 -7.892019 12.304680 22.871963 -0.421725 1.002756 0.069475 -0.019260 462684.000000 0 1 0
17.780239 -9.356319 12.761780 23.802114 -0.484403 1.004913 0.104725 -0.046359 -239040.000000 0 1 0
18.704039 -9.877819 11.835280 24.238115 -0.485883 1.060665 0.102070 -0.053825 230158.000000 0 1 0
18.553639 -11.273719 11.730880 24.676868 -0.546010 1.075401 0.119043 -0.047737 -71536.800000 0 1 0
19.043939 -11.804619 10.356080 24.683375 -0.554896 1.137839 0.115496 -0.050641 55154.900000 0 1 0
18.381739 -11.242519 9.247480 23.447781 -0.548915 1.165397 0.097627 -0.046449 189119.000000 0 1 0
18.888739 -11.775919 8.046280 23.668531 -0.557474 1.223925 0.097912 -0.054041 197806.000000 0 1 0
18.479339 -10.877919 6.867080 22.516036 -0.532034 1.260872 0.085130 -0.042968 89584.600000 0 1 0
19.277239 -9.696819 6.885980 22.650760 -0.466060 1.261901 0.102354 -0.034871 597885.000000 0 1 0
19.325639 -9.202519 5.528580 22.107281 -0.444412 1.318034 0.054862 -0.040027 -851046.000000 0 1 0
20.222039 -7.975919 5.420380 22.403720 -0.375684 1.326430 0.098182 -0.033538 -393863.000000 0 1 0
20.451539 -7.577919 4.090480 22.190591 -0.354846 1.385402 0.076114 -0.034193 1220120.000000 0 1 0
21.452739 -6.529819 4.003480 22.779078 -0.295472 1.394126 0.124759 -0.027797 301253.000000 0 1 0
21.818839 -6.217519 2.541480 22.829332 -0.277603 1.459240 0.103078 -0.023033 -468109.000000 0 1 0
20.732839 -5.639619 1.888580 21.569020 -0.265588 1.483124 0.066892 -0.039371 35012.800000 0 1 0
20.943339 -5.307619 0.523180 21.611755 -0.248202 1.546586 0.041373 -0.024737 -461723.000000 0 1 0
-26.224969 -15.602419 0.093580 30.515459 0.536694 1.567730 0.107900 -0.022090 -278744.000000 0 0 1
-25.330169 -14.620119 -0.425320 29.249722 0.523473 1.585338 0.100333 -0.020359 -356599.000000 0 0 1
-23.996439 -15.032219 -0.366420 28.318386 0.559631 1.583736 0.108379 -0.020558 -319740.000000 0 0 1
-23.232239 -14.652819 0.890480 27.481539 0.562695 1.538388 0.129263 -0.032415 -636204.000000 0 0 1
-23.799439 -15.228119 2.043580 28.328169 0.569208 1.498594 0.107293 -0.010789 -55103.500000 0 0 1
-23.080639 -14.925419 3.234380 27.675716 0.574027 1.453662 0.119188 -0.001654 135090.000000 0 0 1
-23.567839 -15.711119 4.434780 28.669663 0.587980 1.415487 0.120584 0.000507 -192601.000000 0 0 1
-23.247439 -17.112219 4.441380 29.206118 0.634539 1.418134 0.136249 -0.009030 334493.000000 0 0 1
-23.921039 -17.809919 5.482480 30.322713 0.639991 1.388992 0.138335 -0.009106 57688.100000 0 0 1
-23.824139 -19.391719 5.339980 31.179220 0.683191 1.398681 0.115015 -0.001920 61817.700000 0 0 1
-24.408839 -20.063919 6.440080 32.246347 0.688009 1.369729 0.101638 -0.005932 22923.800000 0 0 1
-24.457039 -21.443819 6.191780 33.110758 0.719846 1.382687 0.114256 -0.017116 134909.000000 0 0 1
-25.269269 -22.245519 7.234680 34.434571 0.721846 1.359120 0.105290 -0.009321 245725.000000 0 0 1
-24.484539 -22.466619 8.389680 34.272852 0.742445 1.323492 0.110430 -0.006686 632787.000000 0 0 1
-25.284209 -23.081119 9.412680 35.505321 0.739879 1.302482 0.117689 -0.012423 878580.000000 0 0 1
-24.300239 -23.332619 10.594680 35.315152 0.765087 1.266100 0.091572 -0.017230 627988.000000 0 0 1
-24.116139 -22.187419 11.442280 34.710164 0.743768 1.234861 0.100161 -0.013477 -129557.000000 0 0 1
-23.136639 -22.483319 12.406080 34.564643 0.771078 1.203682 0.094601 -0.015682 -177978.000000 0 0 1
-23.412439 -21.890619 13.800380 34.896877 0.751819 1.164226 0.073667 -0.008177 -102159.000000 0 0 1
-24.592239 -22.436619 14.342980 36.247775 0.739594 1.163974 0.066438 -0.007476 -161340.000000 0 0 1
-25.013639 -21.760719 15.528880 36.610888 0.715965 1.132762 0.069598 -0.004736 -902215.000000 0 0 1
-26.394399 -22.183219 15.960480 37.993374 0.698925 1.137256 0.037000 0.001346 -341470.000000 0 0 1
-27.486759 -21.897619 15.068980 38.237440 0.672701 1.165719 0.041950 -0.000073 460795.000000 0 0 1
-27.742119 -22.981619 14.157780 38.706882 0.691821 1.196337 0.040759 -0.011322 -623254.000000 0 0 1
-28.957819 -23.810719 14.556180 40.216763 0.688165 1.200445 0.042680 -0.010713 -505604.000000 0 0 1
-28.756939 -24.479119 15.769080 40.924964 0.705215 1.175245 0.049704 -0.008527 -40414.200000 0 0 1
-29.727169 -25.484829 16.042480 42.314800 0.708712 1.181949 0.045695 -0.006408 5428.390000 0 0 1
-29.567849 -26.827029 15.287680 42.751144 0.736836 1.205103 0.055690 -0.005980 11944.500000 0 0 1
-29.859049 -26.854729 13.882180 42.490637 0.732474 1.237974 0.060457 -0.019397 804325.000000 0 0 1
-31.277149 -27.025349 13.689880 43.543569 0.712600 1.250977 0.076211 -0.026801 552944.000000 0 0 1
-31.655859 -27.400779 12.260880 43.625970 0.713472 1.285913 0.092479 -0.031935 -381554.000000 0 0 1
-31.322739 -28.696569 11.857680 44.104554 0.741671 1.298593 0.094174 -0.038329 124563.000000 0 0 1
-31.591619 -29.017619 10.489280 44.159683 0.742955 1.330973 0.084822 -0.027582 -14318.300000 0 0 1
-30.883289 -30.334139 10.081080 44.447336 0.776428 1.341996 0.076060 -0.042360 -805596.000000 0 0 1
-31.291989 -31.487629 10.766880 45.679154 0.788514 1.332851 0.073041 -0.034402 75843.200000 0 0 1
-30.636749 -32.630989 10.210680 45.909148 0.816908 1.346510 0.077584 -0.038431 -246921.000000 0 0 1
-30.827789 -33.945639 11.046380 47.166530 0.833496 1.334401 0.075104 -0.034775 131571.000000 0 0 1
-32.184229 33.825827 11.278380 48.033457 -0.810262 1.333781 0.063745 -0.026212 186576.000000 0 0 1
-32.340479 32.546390 11.717780 47.354836 -0.788572 1.320753 0.074990 -0.031824 -68492.700000 0 0 1
-33.753049 32.210206 12.308480 48.252092 -0.762013 1.312859 0.082522 -0.024015 748383.000000 0 0 1
-34.785745 31.970861 11.360080 48.592545 -0.743257 1.334830 0.047553 -0.023536 236727.000000 0 0 1
-35.370086 33.164004 10.878980 49.691512 -0.753220 1.350078 0.063912 -0.023174 -1432150.000000 0 0 1
-36.754329 32.995831 10.304980 50.455903 -0.731565 1.365112 0.067259 -0.009178 -869599.000000 0 0 1
-36.809919 32.291704 9.036580 49.793414 -0.720106 1.388304 0.056172 -0.010718 -682601.000000 0 0 1
35.661389 32.054511 8.604780 48.716204 0.732184 1.393234 0.046517 -0.005679 -779612.000000 0 0 1
35.571489 31.717911 7.096180 48.184151 0.728192 1.422987 0.041524 -0.012301 -84672.800000 0 0 1
35.876219 30.365871 6.901980 47.506068 0.702404 1.424994 0.070066 -0.015755 108719.000000 0 0 1
35.503219 30.030851 5.573080 46.833639 0.702087 1.451516 0.097788 -0.024722 -73308.300000 0 0 1
35.512779 28.535471 5.237880 45.857016 0.676888 1.456324 0.116015 -0.028735 -183117.000000 0 0 1
34.664119 27.745521 6.009980 44.805523 0.674991 1.436256 0.105250 -0.021193 -102496.000000 0 0 1
35.222159 27.389961 7.267880 45.206554 0.660954 1.409325 0.080875 -0.018168 311351.000000 0 0 1
34.339119 26.300791 7.940480 43.976788 0.653608 1.389240 0.083613 -0.010453 60147.200000 0 0 1
34.281289 25.088521 7.194080 43.085907 0.631779 1.403040 0.087896 -0.019755 233881.000000 0 0 1
33.311969 24.209711 7.735180 41.900243 0.628459 1.385122 0.070154 -0.018278 -503053.000000 0 0 1
33.334199 22.786331 7.152780 41.006682 0.599615 1.395470 0.066557 -0.018474 -144156.000000 0 0 1
34.260129 21.810631 7.552380 41.309787 0.566911 1.386939 0.088457 -0.015787 1219.020000 0 0 1
35.580819 22.060431 7.094180 42.461567 0.555002 1.402936 0.085237 -0.018456 41977.300000 0 0 1
36.432339 20.753931 6.964980 42.503552 0.517809 1.406186 0.074188 -0.009230 20034.800000 0 0 1
36.038479 19.866331 5.933380 41.577013 0.503805 1.427599 0.084924 -0.015728 314457.000000 0 0 1
36.820009 18.710531 6.133780 41.754284 0.470156 1.423361 0.091786 -0.020629 -39920.500000 0 0 1
36.263429 17.481331 5.307580 40.605463 0.449197 1.439710 0.089003 -0.022796 328219.000000 0 0 1
36.821349 17.587731 3.960380 40.997861 0.445609 1.474046 0.093753 -0.025287 420028.000000 0 0 1
36.233149 16.614031 3.121480 39.982630 0.429926 1.492646 0.077909 -0.026863 -795551.000000 0 0 1
-36.668619 16.115831 1.908880 40.099270 -0.414087 1.523174 0.087753 -0.015124 652080.000000 0 0 1
-35.483414 15.378431 2.194580 38.734803 -0.408962 1.514109 0.097791 -0.037274 599518.000000 0 0 1
-34.383445 16.168131 2.642780 38.086927 -0.439549 1.501352 0.108216 -0.034684 870633.000000 0 0 1
-33.039499 15.302931 2.771980 36.516737 -0.433753 1.494813 0.102831 -0.031518 1062790.000000 0 0 1
-33.012799 14.395631 3.824880 36.217521 -0.411203 1.464990 0.114413 -0.033131 1553580.000000 0 0 1
-31.629089 14.308531 4.291080 34.979232 -0.424836 1.447811 0.113533 -0.045157 1448090.000000 0 0 1
-31.433289 13.562531 5.662380 34.699517 -0.407338 1.406880 0.121954 -0.038766 -91300.400000 0 0 1
-31.677029 12.160831 5.630780 34.395140 -0.366551 1.406348 0.131978 -0.034304 161749.000000 0 0 1
-31.191169 11.605731 6.804880 33.968933 -0.356212 1.369105 0.133625 -0.022429 -55777.000000 0 0 1
-31.234439 10.042031 6.620480 33.470335 -0.311068 1.371682 0.140249 -0.017457 641944.000000 0 0 1
-32.556659 9.534231 6.817480 34.602249 -0.284885 1.372475 0.139026 -0.007303 531281.000000 0 0 1
-32.609139 8.086031 6.714180 34.261057 -0.243066 1.373549 0.149160 -0.011918 -252780.000000 0 0 1
-34.065009 7.629231 6.565280 35.520880 -0.220325 1.384899 0.140444 -0.010443 -210593.000000 0 0 1
-34.797878 7.668931 7.779480 36.472251 -0.216918 1.355846 0.137676 -0.009970 507412.000000 0 0 1
-36.014950 6.931031 7.575580 37.450036 -0.190124 1.367106 0.110022 -0.012256 741808.000000 0 0 1
-36.675129 6.232631 8.793880 38.226210 -0.168333 1.338669 0.106523 -0.015167 61246.000000 0 0 1
36.410739 7.071331 9.748980 38.350857 0.191822 1.313771 0.110674 -0.013339 -86463.000000 0 0 1
-36.593419 7.766331 10.688780 38.905581 -0.209130 1.292481 0.124297 -0.021575 -308011.000000 0 0 1
36.369309 8.634131 11.728780 39.177023 0.233087 1.266755 0.113549 -0.021519 -472826.000000 0 0 1
35.479589 7.919531 12.504480 38.443233 0.219614 1.239498 0.102316 -0.023472 75571.400000 0 0 1
34.841619 8.874431 13.359280 38.355759 0.249405 1.215040 0.110876 -0.020668 -432640.000000 0 0 1
34.304899 8.239631 14.636480 38.196127 0.235723 1.177546 0.094963 -0.022748 -845448.000000 0 0 1
33.002779 7.739431 14.588980 36.904207 0.230346 1.164380 0.084524 -0.019359 -297653.000000 0 0 1
32.585699 7.410331 15.917280 37.014869 0.223608 1.126277 0.077513 -0.016648 1259600.000000 0 0 1
31.029919 7.097831 15.993780 35.623532 0.224873 1.105188 0.054221 0.000502 966117.000000 0 0 1
30.165249 8.236031 15.883280 35.072112 0.266534 1.100809 0.049555 -0.000236 875071.000000 0 0 1
28.777709 8.003231 16.107180 33.935961 0.271251 1.076248 0.056134 0.004455 688468.000000 0 0 1
28.287939 7.393331 17.453680 34.051428 0.255641 1.032623 0.058204 0.000190 -877465.000000 0 0 1
28.470339 8.266631 18.548980 34.970874 0.282589 1.011710 0.080036 -0.009233 519674.000000 0 0 1
27.777339 7.895031 19.769880 34.996574 0.276923 0.970473 0.080841 0.006054 220569.000000 0 0 1
28.304139 6.658531 20.516680 35.586436 0.231048 0.956320 0.078268 0.008825 77845.200000 0 0 1
27.446639 6.493331 21.621480 35.538285 0.232309 0.916754 0.062998 0.014418 183685.000000 0 0 1
27.632939 5.232331 22.289380 35.885555 0.187136 0.900620 0.060227 0.010679 -496655.000000 0 0 1
26.815239 5.087331 23.624480 36.097839 0.187490 0.857332 0.075848 0.016128 -754816.000000 0 0 1
25.473839 4.843231 23.506980 34.999306 0.187883 0.834374 0.036824 0.014484 -1250370.000000 0 0 1
24.676539 6.006931 23.417480 34.545523 0.238783 0.825931 0.056587 0.019015 1148880.000000 0 0 1
23.120739 5.755831 23.174480 33.237850 0.243987 0.799268 0.066280 0.006701 1327500.000000 0 0 1
22.855539 5.251031 21.886980 32.077856 0.225830 0.819881 0.062738 0.006250 1403260.000000 0 0 1
21.434139 5.122431 21.643480 30.888539 0.234585 0.794424 0.059640 -0.006976 -62350.900000 0 0 1
20.814339 3.707131 21.779280 30.353197 0.176256 0.770549 0.079328 -0.013124 -460047.000000 0 0 1
19.535539 3.515831 21.264180 29.088893 0.178065 0.751000 0.073263 -0.021422 465906.000000 0 0 1
18.472139 4.254031 21.912180 28.973441 0.226348 0.713180 0.087560 -0.026564 2904.950000 0 0 1
17.102139 4.134131 21.204880 27.553967 0.237182 0.692619 0.109391 -0.028471 68725.900000 0 0 1
16.472239 2.887931 21.084580 26.911601 0.173557 0.670557 0.094766 -0.027575 316253.000000 0 0 1
15.347039 2.813431 20.229580 25.547659 0.181308 0.656985 0.102244 -0.035122 9178.830000 0 0 1
14.251339 1.754731 20.517480 25.042897 0.122511 0.610619 0.101619 -0.034492 -127454.000000 0 0 1
14.742139 0.439631 20.587780 25.325493 0.029813 0.621635 0.072305 -0.036193 738183.000000 0 0 1
13.863739 -0.321869 21.460480 25.551106 -0.023212 0.573690 0.081136 -0.034074 335367.000000 0 0 1
14.312339 -1.797369 21.601580 25.975023 -0.124928 0.588762 0.050782 -0.023184 36758.200000 0 0 1
13.986339 -2.484669 20.387780 24.848598 -0.175815 0.608546 0.054666 -0.017358 113355.000000 0 1 0
14.184339 -3.871069 20.401580 25.147666 -0.266423 0.624473 0.033957 -0.007700 -368841.000000 0 0 1
13.780539 -4.439469 19.034980 23.915321 -0.311657 0.650250 0.032945 -0.011744 571584.000000 0 1 0
12.354739 -4.499369 18.951880 23.066374 -0.349253 0.606543 0.035177 -0.011116 234212.000000 0 1 0
11.939839 -4.877869 17.676680 21.881918 -0.387844 0.630350 0.035918 -0.008315 -158404.000000 0 1 0
10.407639 -4.983969 17.645880 21.084021 -0.446606 0.579144 0.038226 -0.001525 -117485.000000 0 1 0
9.974939 -6.076569 18.394780 21.789723 -0.547145 0.565734 0.043991 0.001730 -519582.000000 0 1 0
8.582839 -6.221669 18.256680 21.111150 -0.627240 0.526067 0.037992 -0.006697 107900.000000 0 1 0
7.805039 -7.279269 19.101580 21.880967 -0.750557 0.509524 0.033585 -0.013546 -268250.000000 0 1 0
8.000139 -8.651269 18.911880 22.282412 -0.824482 0.557206 0.028294 -0.011612 -315293.000000 0 1 0
9.126739 -9.188369 19.567080 23.464741 -0.788763 0.584673 0.049282 -0.014841 155869.000000 0 1 0
9.414839 -10.595169 19.076380 23.765628 -0.844317 0.639008 0.061648 -0.021766 45377.800000 0 1 0
9.685939 -10.578769 17.682580 22.768430 -0.829428 0.681502 0.058548 -0.012252 -106100.000000 0 1 0
10.227839 -11.783469 17.269780 23.274538 -0.855955 0.734743 0.063231 -0.017806 5799.560000 0 1 0
10.132939 -12.004369 15.760080 22.252223 -0.869735 0.783784 0.061026 -0.014493 350177.000000 0 1 0
10.679439 -13.190069 15.197080 22.781123 -0.890194 0.840499 0.060538 -0.014736 -65756.000000 0 1 0
10.360939 -13.176969 13.823980 21.727493 -0.904470 0.881177 0.052834 -0.012843 -276785.000000 0 1 0
10.952939 -14.330769 13.056280 22.266662 -0.918209 0.944238 0.068714 -0.024022 1289310.000000 0 1 0
12.357239 -14.152969 12.716080 22.687145 -0.853032 0.975810 0.061717 -0.022456 1133340.000000 0 1 0
12.500939 -13.583069 11.454680 21.725168 -0.826861 1.015431 0.033342 -0.015059 -1680940.000000 0 1 0
13.910939 -13.334669 11.043380 22.209994 -0.764250 1.050398 0.059842 -0.027414 -1228980.000000 0 1 0
14.543139 -14.525069 10.617980 23.134865 -0.784777 1.093972 0.075468 -0.024506 -189435.000000 0 1 0
15.706139 -14.201369 9.900280 23.374713 -0.735126 1.133439 0.069218 -0.033438 157922.000000 0 1 0
16.719639 -15.327869 9.523780 24.600656 -0.741997 1.173274 0.070614 -0.033369 492322.000000 0 1 0
17.289939 -16.013069 10.596280 25.838760 -0.747076 1.148241 0.083924 -0.029486 189216.000000 0 0 1
16.431139 -17.048669 11.052780 26.130506 -0.803841 1.134061 0.117809 -0.026858 187528.000000 0 0 1
16.952239 -17.609669 12.387280 27.402984 -0.804418 1.101744 0.106085 -0.030973 29146.300000 0 0 1
18.089339 -18.406369 12.185280 28.539440 -0.794085 1.129665 0.136329 -0.039694 -226648.000000 0 0 1
18.547139 -19.122769 13.295480 29.773250 -0.800678 1.107882 0.110920 -0.037929 405969.000000 0 0 1
19.857939 -19.936269 13.037680 31.012475 -0.787367 1.136909 0.063362 -0.037133 384514.000000 0 0 1
20.929539 -19.080669 12.710980 31.043301 -0.739221 1.148935 0.063169 -0.041721 128144.000000 0 0 1
22.101839 -19.842769 12.341080 32.164095 -0.731592 1.177006 0.047424 -0.038008 674494.000000 0 0 1
22.986239 -18.900569 11.501580 31.904310 -0.688165 1.201990 0.050569 -0.031236 -655785.000000 0 0 1
22.746339 -18.698869 10.082180 31.123849 -0.688049 1.240908 0.038670 -0.020573 836986.000000 0 0 1
21.455239 -18.260369 9.579180 29.757840 -0.705127 1.243056 0.058234 -0.025758 1058160.000000 0 0 1
21.161739 -16.769069 9.917580 28.764201 -0.670104 1.218782 0.119483 -0.045645 -224646.000000 0 0 1
21.949039 -15.901069 9.145880 28.605094 -0.626950 1.245353 0.110709 -0.031540 -47206.000000 0 0 1
21.684139 -14.539969 9.374380 27.739711 -0.590676 1.226068 0.130937 -0.043268 -130438.000000 0 0 1
-35.524824 24.545981 8.278480 43.966482 -0.604628 1.381375 0.106340 -0.016502 -695392.000000 0 0 1
-34.692371 23.937381 9.158380 43.132757 -0.603976 1.356838 0.107326 -0.022735 -388792.000000 0 0 1
-33.576589 24.783981 9.351380 42.767760 -0.635863 1.350361 0.111773 -0.019336 47974.300000 0 0 1
-32.400339 24.265881 10.252680 41.758022 -0.642822 1.322734 0.127149 -0.022904 608524.000000 0 0 1
-31.577599 23.373881 9.482380 40.415326 -0.637202 1.333965 0.134768 -0.024434 139259.000000 0 0 1
-30.879469 22.448081 10.299780 39.541667 -0.628590 1.307278 0.133118 -0.024767 -92538.300000 0 0 1
-30.057269 21.540481 9.366380 38.146570 -0.621812 1.322723 0.117872 -0.026243 -163326.000000 0 0 1
-30.805169 20.562681 8.611280 38.025471 -0.588584 1.342354 0.130843 -0.032807 178566.000000 0 0 1
-30.146379 19.935581 7.532080 36.918339 -0.584273 1.365334 0.124122 -0.032127 -312931.000000 0 0 1
-31.122889 19.201681 6.606680 37.161633 -0.552799 1.392064 0.120099 -0.029071 -344398.000000 0 0 1
-31.880319 18.142681 7.125680 37.366923 -0.517379 1.378926 0.123281 -0.030851 -18700.000000 0 0 1
-32.835739 17.750681 6.185580 37.835616 -0.495590 1.406574 0.088755 -0.024808 -412072.000000 0 0 1
-33.554989 16.447281 6.616180 37.950285 -0.455744 1.395563 0.102238 -0.019556 -667142.000000 0 0 1
-34.462082 16.708281 7.628880 39.051268 -0.451439 1.374176 0.083727 -0.020228 -46774.600000 0 0 1
-35.053514 15.490481 8.136880 39.177961 -0.416106 1.361583 0.091402 -0.024421 483935.000000 0 0 1
-36.260639 15.806981 9.090080 40.587241 -0.411089 1.344916 0.102077 -0.022853 -69172.800000 0 0 1
36.398229 16.385181 8.478780 40.806800 0.422990 1.361493 0.106587 -0.025559 -260825.000000 0 0 1
35.707419 17.155381 9.472280 40.731449 0.447880 1.336093 0.122647 -0.023207 277844.000000 0 0 1
34.745639 18.226381 8.869080 40.225874 0.483107 1.348488 0.096368 -0.018427 -254682.000000 0 0 1
33.429819 17.754881 8.710080 38.841396 0.488224 1.344626 0.088680 -0.029126 94230.200000 0 0 1
32.544559 18.831281 8.366080 38.519563 0.524559 1.351861 0.085216 -0.030330 -306582.000000 0 0 1
31.049919 18.603581 8.525880 37.187112 0.539795 1.339469 0.075381 -0.024446 -1223870.000000 0 0 1
30.522359 19.870981 8.757980 37.458944 0.577099 1.334810 0.069015 -0.015621 -155684.000000 0 0 1
29.202379 20.155381 8.348280 36.451503 0.604116 1.339721 0.057713 -0.021226 45766.400000 0 0 1
28.924359 20.099181 6.814180 35.875181 0.607287 1.379694 0.042643 -0.015834 -737632.000000 0 0 1
29.106369 18.791781 6.282280 35.210492 0.573293 1.391415 0.042686 -0.017674 24621.400000 0 0 1
28.918919 18.616981 4.897980 34.740265 0.571979 1.429336 0.039446 -0.022566 -123118.000000 0 0 1
27.541639 18.877981 4.239780 33.658517 0.600883 1.444496 0.061714 -0.023956 -1086590.000000 0 0 1
26.526639 18.066881 4.783380 32.449275 0.597918 1.422846 0.062912 -0.029840 526667.000000 0 0 1
25.231739 18.316781 4.249080 31.467440 0.627925 1.435352 0.081371 -0.034320 549425.000000 0 0 1
24.481139 19.638081 4.531880 31.709908 0.676064 1.427388 0.080492 -0.035549 -863428.000000 0 0 1
25.150939 20.669781 3.870580 32.784004 0.687911 1.452457 0.078224 -0.032602 156002.000000 0 0 1
24.738539 21.943681 4.351680 33.353523 0.725600 1.439952 0.077356 -0.028257 20218.500000 0 0 1
25.733939 23.093181 3.967780 34.803360 0.731367 1.456542 0.062191 -0.017535 2491.460000 0 0 1
26.945739 22.949281 4.661780 35.699783 0.705471 1.439839 0.061420 -0.016568 -166662.000000 0 0 1
27.741739 24.107081 4.545080 37.032596 0.715412 1.447754 0.053335 -0.018835 -1187750.000000 0 0 1
29.038999 24.101881 5.407580 38.123562 0.692758 1.428473 0.050386 -0.018195 189375.000000 0 0 1
30.028749 23.101081 5.158580 38.236064 0.655738 1.435470 0.046547 -0.017039 499401.000000 0 0 1
30.468979 23.122981 3.803180 38.438198 0.649174 1.471691 0.054625 -0.027758 -1291970.000000 0 0 1
31.290909 24.329381 3.203480 39.765588 0.660884 1.490150 0.073047 -0.034523 -747993.000000 0 0 1
30.702039 25.596881 3.292280 40.108036 0.694966 1.488619 0.063186 -0.037777 -580261.000000 0 0 1
31.381759 26.546081 2.501880 41.179711 0.702114 1.510004 0.100753 -0.036288 -1239070.000000 0 0 1
30.841189 28.015281 2.488580 41.740003 0.737421 1.511140 0.081827 -0.028950 -539433.000000 0 0 1
29.606859 28.197481 1.907980 40.930482 0.761021 1.524164 0.108545 -0.032530 -408534.000000 0 0 1
28.520039 27.647581 2.671680 39.811044 0.769866 1.503637 0.093246 -0.029478 -572743.000000 0 0 1
27.116239 28.012381 2.150380 39.046229 0.801652 1.515696 0.054760 -0.018414 -63457.400000 0 0 1
26.941339 29.402081 2.452880 39.954157 0.829044 1.509365 0.044846 -0.013152 362474.000000 0 0 1
25.633039 29.851981 2.121680 39.404250 0.861290 1.516926 0.049694 -0.006819 344819.000000 0 0 1
25.324039 31.274981 2.711980 40.333437 0.890155 1.503507 0.053221 -0.006219 -321967.000000 0 0 1
25.359839 31.376881 4.156280 40.557425 0.891055 1.468137 0.034583 -0.009495 884986.000000 0 0 1
26.652139 31.318781 4.800080 41.403421 0.865725 1.454601 0.039063 -0.015719 700870.000000 0 0 1
26.533539 31.259481 6.363080 41.493043 0.866990 1.416836 0.041758 -0.011263 279604.000000 0 0 1
25.903539 30.048981 6.902380 40.268814 0.859352 1.398538 0.044524 -0.022553 559711.000000 0 0 1
26.704939 28.865581 6.823980 39.911680 0.824260 1.398975 0.061110 -0.032499 152527.000000 0 0 1
25.890439 27.639181 7.317480 38.571811 0.818055 1.379929 0.074619 -0.035222 89065.400000 0 0 1
24.809239 27.427981 6.423480 37.537362 0.835488 1.398828 0.045923 -0.039739 66772.400000 0 0 1
24.331039 26.125881 6.621680 36.309885 0.820955 1.387404 0.062394 -0.037884 76909.700000 0 0 1
22.987739 25.682681 5.934380 34.975035 0.840713 1.400297 0.071586 -0.026995 535104.000000 0 0 1
23.091039 25.518281 4.510780 34.709161 0.835290 1.440468 0.061758 -0.032210 287811.000000 0 0 1
23.205939 26.743081 3.753480 35.606131 0.856095 1.465183 0.060437 -0.026579 -206802.000000 0 0 1
23.456339 26.366881 2.192380 35.358432 0.843749 1.508752 0.064499 -0.020308 -396538.000000 0 0 1
24.588939 25.593281 1.928680 35.543659 0.805409 1.516507 0.049800 -0.010937 -146732.000000 0 0 1
24.570339 25.239781 0.537180 35.228350 0.798837 1.555547 0.069475 -0.011330 -373849.000000 0 0 1
25.897039 24.757381 -0.032720 35.827163 0.762903 1.571710 0.084496 -0.021383 -983076.000000 0 0 1
26.980139 25.666681 -0.110220 37.238670 0.760455 1.573756 0.078071 -0.016728 738478.000000 0 0 1
28.115139 25.280481 -0.875620 37.819710 0.732360 1.593951 0.064528 -0.009535 106974.000000 0 0 1
29.025819 24.240981 -0.286220 37.818054 0.695811 1.578365 0.054310 -0.016218 -1113000.000000 0 0 1
28.398339 22.933581 -0.285120 36.503370 0.679338 1.578607 0.053338 -0.014896 266342.000000 0 0 1
28.907249 22.000881 0.624580 36.332601 0.650558 1.553605 0.051953 -0.013823 -668780.000000 0 0 1
27.829739 21.084881 1.156580 34.934284 0.648372 1.537683 0.061629 -0.019038 -325411.000000 0 0 1
27.320939 20.094181 0.255080 33.915702 0.634148 1.563275 0.074348 -0.032068 484782.000000 0 0 1
26.062239 19.687081 0.759680 32.671066 0.646940 1.547542 0.079370 -0.027710 -32746.700000 0 0 1
25.488139 18.396181 0.017380 31.433501 0.625178 1.570243 0.080307 -0.026118 -617436.000000 0 0 1
24.169339 18.164781 0.403980 30.237053 0.644501 1.557436 0.080587 -0.027718 -294064.000000 0 0 1
23.706639 16.912981 -0.142920 29.121711 0.619681 1.575704 0.098978 -0.041398 -10906.900000 0 0 1
22.184939 16.698681 -0.087720 27.767339 0.645229 1.573955 0.105535 -0.025365 -820857.000000 0 0 1
21.709839 15.496681 -0.701220 26.682502 0.619934 1.597080 0.120309 -0.033042 314027.000000 0 0 1
20.381339 15.185681 -0.352320 25.419048 0.640343 1.584657 0.138730 -0.035760 448933.000000 0 0 1
19.212839 16.038181 -0.984520 25.046470 0.695582 1.610114 0.149386 -0.045902 -303079.000000 0 0 1
19.090539 17.298981 -0.379520 25.765237 0.736205 1.585527 0.118203 -0.038764 -551735.000000 0 0 1
18.019539 17.968681 -0.921120 25.464205 0.783985 1.606977 0.096405 -0.039945 -598733.000000 0 0 1
18.073839 19.500581 -0.548720 26.593935 0.823351 1.591431 0.089709 -0.036611 -300845.000000 0 0 1
17.829639 19.707581 0.813780 26.588475 0.835385 1.540185 0.087422 -0.032045 119168.000000 0 0 1
17.996639 21.029081 1.252480 27.706857 0.862946 1.525576 0.087442 -0.032897 -639900.000000 0 0 1
16.922339 21.976481 0.760380 27.747242 0.914605 1.543389 0.077611 -0.043230 -444092.000000 0 0 1
15.612139 21.778181 1.247280 26.825058 0.948837 1.524283 0.058467 -0.038040 56451.000000 0 0 1
14.818039 22.849181 0.761080 27.244056 0.995466 1.542857 0.034104 -0.036208 -251689.000000 0 0 1
13.369039 22.989581 1.214880 26.621945 1.044071 1.525146 0.022634 -0.040286 -236293.000000 0 0 1
13.156539 23.464181 2.524880 27.019202 1.059770 1.477212 0.028467 -0.018330 1237100.000000 0 0 1
11.769339 23.328181 2.956180 26.295634 1.103546 1.458137 0.020197 -0.024354 1553490.000000 0 0 1
11.532339 23.497481 4.453080 26.551014 1.114543 1.402282 0.043429 -0.021869 32205.300000 0 0 1
12.049339 22.486781 5.285880 26.053453 1.078889 1.366492 0.049027 -0.040987 -166634.000000 0 0 1
11.268339 22.424981 6.458880 25.914713 1.105158 1.318905 0.046114 -0.024945 -533345.000000 0 0 1
11.733439 21.412381 7.528780 25.550854 1.069510 1.271698 0.046763 -0.028411 687934.000000 0 0 1
12.973139 21.709081 8.207480 26.588517 1.032150 1.256986 0.061983 -0.025164 561319.000000 0 0 1
14.103839 21.320981 7.466680 26.631819 0.986379 1.286620 0.063902 -0.029908 -104715.000000 0 0 1
15.472839 21.413081 8.205480 27.663309 0.945071 1.269645 0.074251 -0.032034 369943.000000 0 0 1
15.527839 20.675281 9.397480 27.511700 0.926634 1.222198 0.082055 -0.029139 1132090.000000 0 0 1
16.873539 20.451681 9.900080 28.301928 0.880970 1.213436 0.077048 -0.030872 1127920.000000 0 0 1
17.265739 21.244681 11.164080 29.564825 0.888354 1.183579 0.057013 -0.024076 -275281.000000 0 0 1
16.598039 20.996381 12.386080 29.491657 0.901863 1.137367 0.073651 -0.020411 -256303.000000 0 0 1
16.824139 21.915681 13.356680 30.687939 0.916078 1.120489 0.072425 -0.024866 -365386.000000 0 0 1
17.962839 21.394181 14.252080 31.360745 0.872363 1.099035 0.061568 -0.013803 571348.000000 0 0 1
19.277639 21.568381 13.707980 32.011421 0.841422 1.128273 0.062755 -0.014853 89250.400000 0 0 1
20.234639 21.098481 14.639980 32.694273 0.806295 1.106511 0.064577 -0.013910 149442.000000 0 0 1
21.658039 21.467881 14.157680 33.621131 0.780989 1.136144 0.062909 -0.020872 198192.000000 0 0 1
22.196939 20.832881 12.993280 33.098917 0.753708 1.167384 0.061704 -0.021639 610239.000000 0 0 1
23.615239 21.017281 12.967980 34.169783 0.727256 1.181523 0.067306 -0.019417 477218.000000 0 0 1
24.386139 20.510881 11.763580 33.967069 0.699297 1.217148 0.071950 -0.015856 -320056.000000 0 0 1
24.065139 21.160181 10.527180 33.729893 0.721253 1.253391 0.080947 -0.018285 104810.000000 0 0 1
24.781139 20.715281 9.419180 33.644444 0.696268 1.287041 0.093497 -0.029299 -745993.000000 0 0 1
24.313839 21.462081 8.185780 33.448328 0.723180 1.323556 0.087224 -0.035143 -87151.600000 0 0 1
24.710239 22.822381 8.116680 34.602564 0.745702 1.334021 0.077306 -0.026027 -182155.000000 0 0 1
26.075039 23.041381 7.897080 35.681602 0.723712 1.347628 0.075486 -0.030343 -821170.000000 0 0 1
26.556539 24.159581 8.854980 36.977638 0.738171 1.328978 0.103165 -0.040348 -35931.700000 0 0 1
27.797039 24.723381 8.439480 38.146372 0.726942 1.347711 0.088001 -0.030665 429994.000000 0 0 1
28.300739 25.581381 9.464180 39.305337 0.734972 1.327621 0.101991 -0.021167 89442.300000 0 0 1
29.651549 26.192281 9.024980 40.579553 0.723532 1.346519 0.098059 -0.028486 39997.600000 0 0 1
29.570569 27.162281 8.021780 40.945781 0.742974 1.373609 0.096967 -0.029499 178154.000000 0 0 1
30.849639 27.433181 7.466880 41.952758 0.726847 1.391860 0.097363 -0.025902 69909.400000 0 0 1
30.810729 28.382981 6.278980 42.359417 0.744408 1.422017 0.117942 -0.020080 -13904.700000 0 0 1
30.682019 29.771981 6.592380 43.257561 0.770346 1.417802 0.108945 -0.022429 40696.100000 0 0 1
30.631009 30.593881 5.440180 43.633012 0.784792 1.445791 0.114641 -0.016448 16454.500000 0 0 1
30.724489 32.127181 5.754780 44.824853 0.807712 1.442057 0.067085 -0.010964 565835.000000 0 0 1
29.568539 32.698581 6.381780 44.544615 0.835624 1.427034 0.060502 -0.017627 353129.000000 0 0 1
29.650229 -34.023970 6.216980 45.556749 -0.853980 1.433902 0.040462 -0.003911 -181907.000000 0 0 1
28.430339 -33.185970 6.628780 44.198795 -0.862427 1.420252 0.058000 -0.013893 549390.000000 0 0 1
27.320539 -33.360370 5.725080 43.498306 -0.884606 1.438797 0.045073 -0.008437 -83614.400000 0 0 1
26.199739 -32.645470 6.154680 42.308783 -0.894500 1.424808 0.041707 -0.011079 14522.900000 0 0 1
25.027539 -32.777170 5.131880 41.557872 -0.918669 1.446993 0.050686 -0.005942 171221.000000 0 0 1
25.254239 -31.946970 4.045080 40.923686 -0.901872 1.471790 0.025735 -0.000593 -240303.000000 0 0 1
24.213039 -32.033670 3.121280 40.276167 -0.923554 1.493222 0.037978 -0.005590 -220955.000000 0 0 1
24.620839 -31.392470 1.812380 39.936920 -0.905708 1.525400 0.039418 0.007022 53721.100000 0 0 1
24.735439 -29.975870 1.880580 38.909270 -0.880890 1.522445 0.050139 0.007395 -155123.000000 0 0 1
25.338639 -29.492070 0.731580 38.889124 -0.861004 1.551983 0.041195 0.011197 -260688.000000 0 0 1
25.819939 -28.021970 0.944080 38.115500 -0.826273 1.546025 0.047742 -0.001761 422850.000000 0 0 1
24.737039 -27.093770 1.066280 36.703275 -0.830837 1.541741 0.043864 0.002432 541240.000000 0 0 1
24.075839 -26.738170 -0.168820 35.980609 -0.837744 1.575488 0.057913 -0.005272 810024.000000 0 0 1
22.801039 -25.813470 -0.135620 34.441849 -0.847285 1.574734 0.049287 0.002204 684963.000000 0 0 1
23.033739 -24.409470 0.121580 33.561736 -0.814387 1.567174 0.057343 -0.009682 -127102.000000 0 0 1
23.318239 -24.011570 1.474380 33.503276 -0.800046 1.526775 0.040748 -0.000068 878075.000000 0 0 1
22.036039 -23.926870 2.406480 32.617070 -0.826513 1.496949 0.041209 -0.002798 691413.000000 0 0 1
22.217239 -23.434770 3.663380 32.499453 -0.812062 1.457835 0.041322 -0.006629 -355025.000000 0 0 1
21.018839 -23.100270 4.334980 31.531034 -0.832541 1.432877 0.048105 -0.010510 -188156.000000 0 0 1
21.131539 -22.287770 5.668880 31.231760 -0.812021 1.388274 0.043235 -0.011546 -255353.000000 0 0 1
21.031839 -20.877570 5.576480 30.154739 -0.781717 1.384797 0.067248 -0.012658 706936.000000 0 0 1
19.781039 -20.308470 5.158480 28.815505 -0.798554 1.390809 0.049708 -0.005133 106024.000000 0 0 1
19.726239 -18.762170 5.416680 27.757592 -0.760355 1.374394 0.060216 -0.005777 183374.000000 0 0 1
19.568439 -18.220370 6.716080 27.568304 -0.749740 1.324704 0.085376 -0.016610 85271.700000 0 0 1
18.225539 -18.282170 7.164480 26.790628 -0.786949 1.300077 0.058194 -0.001149 262520.000000 0 0 1
19.162161 -26.465879 -12.096920 34.842024 -0.944122 1.925373 0.103529 -0.015250 91513.800000 0 0 1
19.562561 -25.156839 -12.470820 34.221071 -0.909849 1.943806 0.091232 -0.015720 226898.000000 0 0 1
18.443661 -24.504719 -13.063020 33.336052 -0.925597 1.973447 0.094605 -0.018940 436414.000000 0 0 1
18.708061 -22.991119 -13.471320 32.558556 -0.887752 1.997373 0.088944 -0.028969 33321.200000 0 0 1
18.674761 -22.029419 -12.490020 31.464943 -0.867628 1.978988 0.090665 -0.026379 -30377.500000 0 0 1
19.710661 -21.927319 -11.507420 31.650248 -0.838584 1.942905 0.078106 -0.025519 -310834.000000 0 0 1
19.525661 -22.832119 -10.224720 31.734871 -0.863300 1.898840 0.084029 -0.019905 473645.000000 0 0 1
18.544361 -22.510619 -9.242520 30.594860 -0.881708 1.877685 0.068642 -0.016977 246508.000000 0 0 1
17.179361 -22.576919 -9.619320 29.956286 -0.920339 1.897700 0.083398 -0.012990 -60764.600000 0 0 1
16.285061 -21.838519 -8.601320 28.567584 -0.930051 1.876628 0.074453 -0.015792 -942361.000000 0 0 1
16.406361 -20.396219 -8.628820 27.561404 -0.893389 1.889227 0.063289 -0.026107 39639.600000 0 0 1
15.682861 -19.807119 -7.555820 26.369765 -0.901088 1.861403 0.067546 -0.029015 419721.000000 0 0 1
14.148161 -19.662719 -7.808720 25.451308 -0.947075 1.882636 0.067426 -0.024117 -27939.100000 0 0 1
13.586461 -20.916719 -7.698020 26.102885 -0.994737 1.870158 0.056895 -0.025158 589241.000000 0 0 1
12.175761 -20.880019 -8.068920 25.481990 -1.042874 1.892994 0.064779 -0.029519 1770140.000000 0 0 1
11.317161 -22.186819 -7.902120 26.129994 -1.099113 1.878022 0.063577 -0.026399 261617.000000 0 0 1
11.184161 -22.548619 -6.564320 26.011843 -1.110352 1.825914 0.062157 -0.023056 296746.000000 0 0 1
10.577161 -23.852419 -6.426620 26.872210 -1.153410 1.812292 0.047314 -0.015111 510494.000000 0 0 1
11.102361 -24.434819 -5.064020 27.312399 -1.144317 1.757286 0.061170 -0.007111 183083.000000 0 0 1
10.218061 -25.351449 -4.477820 27.697574 -1.187658 1.733177 0.060102 -0.007366 -292412.000000 0 0 1
10.747161 -25.926039 -3.328220 28.261954 -1.177826 1.688834 0.050424 -0.008076 -67353.800000 0 0 1
9.702561 -26.842809 -2.660820 28.666288 -1.223950 1.663751 0.046572 -0.009310 418222.000000 0 0 1
8.843761 -26.048469 -1.828820 27.569538 -1.243496 1.637180 0.040571 -0.005748 -190156.000000 0 0 1
8.474461 -26.918059 -0.771120 28.231065 -1.265795 1.598114 0.053444 -0.012732 -60124.500000 0 0 1
7.887661 -26.126359 0.419580 27.294283 -1.277593 1.555423 0.061916 -0.014708 692489.000000 0 0 1
6.502861 -25.841579 0.191880 26.647912 -1.324272 1.563596 0.057922 -0.023950 38233.400000 0 0 1
5.980561 -25.447899 1.430580 26.180322 -1.339973 1.516126 0.063888 -0.020336 -135900.000000 0 0 1
4.550161 -24.857619 1.301280 25.304121 -1.389752 1.519348 0.062029 -0.034241 -67690.500000 0 0 1
3.604861 -25.753749 0.848780 26.018667 -1.431726 1.538169 0.067053 -0.038752 -972975.000000 0 0 1
2.346561 -25.118629 0.889580 25.243677 -1.477648 1.535549 0.060027 -0.042740 41273.500000 0 0 1
1.196261 -25.927099 0.214180 25.955566 -1.524690 1.562544 0.060876 -0.040907 386700.000000 0 0 1
0.597461 -26.930409 0.981980 26.954929 -1.548615 1.534358 0.062979 -0.036250 -359878.000000 0 0 1
1.279261 -28.098739 0.756080 28.138005 -1.525300 1.543923 0.051477 -0.037017 -320674.000000 0 0 1
0.706061 -29.294409 1.544180 29.343576 -1.546699 1.518148 0.076061 -0.026341 150706.000000 0 0 1
1.004761 -29.141619 2.915480 29.304326 -1.536331 1.471142 0.067912 -0.021945 138326.000000 0 0 1
0.564661 -30.311239 3.620280 30.531893 -1.552170 1.451943 0.081132 -0.016199 -37701.800000 0 0 1
0.702961 -30.262869 5.144180 30.705016 -1.547572 1.402467 0.072054 -0.018007 55239.200000 0 0 1
2.035961 -30.251919 5.624580 30.837634 -1.503597 1.387376 0.047391 -0.005652 39274.200000 0 0 1
2.122461 -30.337629 7.036880 31.215289 -1.500949 1.343411 0.052980 -0.010754 1080890.000000 0 0 1
3.536861 -30.857169 7.534180 31.959946 -1.456674 1.332818 0.050834 -0.005466 1200800.000000 0 0 1
3.722561 -32.278579 7.449880 33.335639 -1.455978 1.345412 0.044774 -0.005764 -472640.000000 0 0 1
5.016161 -32.687959 7.787580 33.975152 -1.418528 1.339526 0.037366 -0.002083 -311848.000000 0 0 1
5.325061 33.969331 7.615280 35.217385 1.415301 1.352838 0.029718 0.000946 -184344.000000 0 0 1
5.134261 33.526096 6.265480 34.490810 1.418835 1.388126 0.028059 0.004586 85324.200000 0 0 1
5.275961 32.129315 6.243080 33.152748 1.408039 1.381353 0.017136 -0.003799 -182934.000000 0 0 1
5.569561 31.490191 4.859780 32.346091 1.395740 1.419982 0.028739 -0.006355 -683026.000000 0 0 1
6.802361 31.727861 4.301380 32.732723 1.359597 1.439006 0.030931 -0.001687 -342838.000000 0 0 1
7.689461 30.556481 4.301980 31.801468 1.324268 1.435104 0.029913 -0.006236 1228230.000000 0 0 1
9.123761 30.838641 3.765180 32.379645 1.283147 1.454250 0.016479 -0.002902 699092.000000 0 0 1
10.002361 31.596141 4.591480 33.458109 1.264209 1.433131 0.025232 -0.005171 -910668.000000 0 0 1
11.250561 31.768861 4.025580 33.941729 1.230440 1.451914 0.032927 -0.010408 -581817.000000 0 0 1
12.284361 31.959331 5.163080 34.626027 1.203832 1.421128 0.040769 -0.023857 -165381.000000 0 0 1
12.818961 30.842861 5.816480 33.903382 1.176896 1.398383 0.041642 -0.013928 -26242.400000 0 0 1
13.862161 31.265881 6.670580 34.845537 1.153475 1.378175 0.058666 -0.019387 31087.900000 0 0 1
14.548161 30.186991 7.499780 34.338755 1.121705 1.350616 0.044711 -0.010411 -286526.000000 0 0 1
13.939861 29.938141 8.735780 34.160297 1.135027 1.312195 0.041911 -0.008566 -92332.200000 0 0 1
14.577961 28.873711 9.346480 33.668455 1.103247 1.289498 0.042436 -0.012443 -63167.600000 0 0 1
14.345261 28.700131 10.828280 33.863486 1.107283 1.245317 0.046198 -0.012931 -165764.000000 0 0 1
14.985861 29.704041 11.523880 35.209458 1.103551 1.237357 0.044023 -0.013159 -158896.000000 0 0 1
14.457261 29.776361 12.814180 35.494327 1.118793 1.201434 0.043167 -0.009318 24136.900000 0 0 1
15.226261 30.773971 13.733580 36.979556 1.111336 1.190298 0.045070 -0.006232 1607180.000000 0 0 1
16.529661 30.264721 14.171080 37.282738 1.070899 1.180894 0.045327 -0.010621 1370790.000000 0 0 1
17.102461 31.253761 15.039480 38.671407 1.070095 1.171354 0.049092 -0.005696 1649790.000000 0 0 1
18.464861 30.802841 15.787280 39.230146 1.030779 1.156630 0.067530 -0.016812 1590250.000000 0 0 1
19.645061 30.549541 15.089580 39.330628 0.999318 1.177040 0.042964 -0.009026 -152290.000000 0 0 1
19.740961 29.187251 14.760580 38.203087 0.976116 1.174102 0.037467 -0.013585 -352836.000000 0 0 1
21.122961 28.793271 14.224380 38.439107 0.937869 1.191734 0.057795 -0.016604 -143373.000000 0 0 1
22.193261 28.910271 15.135980 39.464446 0.916088 1.177176 0.073011 -0.020792 35609.400000 0 0 1
23.414961 28.861381 14.389580 39.853478 0.889209 1.201390 0.070485 -0.013463 44894.200000 0 0 1
24.589261 29.070431 15.351180 41.053385 0.868716 1.187551 0.083385 -0.021314 -433961.000000 0 0 1
24.961961 27.839601 15.999380 40.670912 0.839843 1.166484 0.082153 -0.015326 -834227.000000 0 0 1
25.864161 28.169661 16.973080 41.839814 0.828040 1.153087 0.073482 -0.020340 -697723.000000 0 0 1
26.755161 26.938151 17.310780 41.727278 0.788806 1.143013 0.053826 -0.012433 100915.000000 0 0 1
26.088061 25.834991 17.944480 40.866099 0.780524 1.116195 0.054573 -0.018377 66028.600000 0 0 1
25.938461 26.019341 19.371180 41.533751 0.786955 1.085584 0.067791 -0.015321 -43819.200000 0 0 1
25.413961 24.786201 20.083080 40.786705 0.772894 1.055960 0.076685 -0.011610 -62911.600000 0 0 1
26.233961 23.655521 19.901480 40.544707 0.733761 1.057728 0.060889 -0.015007 -195409.000000 0 0 1
25.568761 22.452731 20.239280 39.591857 0.720601 1.034218 0.062989 -0.010051 -367610.000000 0 0 1
26.346061 21.139831 20.148980 39.331778 0.676197 1.032956 0.042892 -0.014508 -659815.000000 0 0 1
25.591661 19.947931 20.209080 38.226430 0.662097 1.013766 0.033837 0.001470 -78463.600000 0 0 1
26.333861 18.734431 20.093980 38.055475 0.618349 1.014531 0.033410 -0.009349 155339.000000 0 0 1
27.154261 18.338931 21.331480 39.098623 0.593998 0.993714 0.050431 -0.007213 -229522.000000 0 0 1
26.343961 17.736831 22.286080 38.797794 0.592566 0.958906 0.031532 0.002611 155425.000000 0 0 1
27.010961 17.610331 23.557480 39.933327 0.577759 0.939836 0.060612 0.000261 -194553.000000 0 0 1
26.074961 17.049131 24.613680 39.704026 0.579077 0.902144 0.041687 0.007038 -77229.000000 0 0 1
25.732261 15.660831 24.319380 38.714895 0.546724 0.891602 0.049702 0.000538 129992.000000 0 0 1
24.782561 15.129631 25.209880 38.452817 0.548101 0.855812 0.057777 -0.002949 -267171.000000 0 0 1
24.208761 13.847331 24.617780 37.200104 0.519574 0.847624 0.070698 0.001815 -89913.900000 0 0 1
23.071661 13.394331 25.337580 36.792698 0.525998 0.811160 0.057131 -0.003712 212534.000000 0 0 1
22.563061 12.308831 24.573580 35.559244 0.499405 0.807841 0.073056 0.000050 148384.000000 0 0 1
21.206761 11.689731 24.989680 34.797423 0.503784 0.769660 0.073610 -0.007060 202228.000000 0 0 1
20.058861 12.480131 24.816680 34.263379 0.556566 0.760790 0.080519 -0.017471 547955.000000 0 0 1
18.841461 11.724631 24.755080 33.245776 0.556640 0.730849 0.086242 -0.018620 433171.000000 0 0 1
17.565161 12.565831 24.764380 32.858933 0.620976 0.717187 0.077925 -0.027083 -299590.000000 0 0 1
17.369661 13.165531 26.041180 33.958495 0.648577 0.696873 0.096438 -0.020987 -31364.800000 0 0 1
16.052861 13.651431 26.190780 33.615664 0.704729 0.677529 0.099485 -0.027983 -251759.000000 0 0 1
15.657461 13.985331 27.633680 34.703974 0.729049 0.649695 0.089612 -0.024983 -182495.000000 0 0 1
15.250461 12.889531 28.403780 34.720185 0.701695 0.612737 0.081553 -0.018560 -201868.000000 0 0 1
15.466961 13.011331 29.799980 36.007783 0.699383 0.595981 0.069214 -0.017564 460574.000000 0 0 1
16.932061 12.871531 30.360080 37.068928 0.649989 0.611101 0.067301 0.000628 293596.000000 0 0 1
17.760261 13.970331 30.155280 37.682064 0.666520 0.643075 0.086969 -0.017527 -1257210.000000 0 0 1
19.067661 13.514931 30.125980 38.128778 0.616600 0.659806 0.078480 -0.008970 -663348.000000 0 0 1
19.982561 14.729031 29.630180 38.654814 0.635190 0.697372 0.094684 -0.016019 8996.790000 0 0 1
19.693661 15.400631 28.387680 37.826976 0.663674 0.722037 0.095042 -0.028823 79205.300000 0 0 1
19.954861 14.671031 27.239880 36.816392 0.633969 0.737898 0.092210 -0.020049 -210966.000000 0 0 1
19.914661 15.544531 25.971380 36.231737 0.662773 0.771576 0.065664 -0.018759 622584.000000 0 0 1
21.115961 16.328731 25.833680 37.146874 0.658240 0.801755 0.065484 -0.014524 832479.000000 0 0 1
20.974661 16.977831 24.592380 36.509838 0.680474 0.831751 0.051153 -0.009407 -389114.000000 0 0 1
22.164561 17.819031 24.153180 37.311684 0.677140 0.866713 0.048622 -0.010854 -564214.000000 0 0 1
22.034861 18.252931 22.779280 36.573217 0.691800 0.898428 0.047778 -0.011271 464662.000000 0 0 1
23.064161 19.152431 22.321080 37.376487 0.693003 0.930796 0.049960 -0.005614 373348.000000 0 0 1
23.196461 20.587331 22.985280 38.603589 0.725877 0.933010 0.051886 -0.014652 520479.000000 0 0 1
22.162861 21.510531 22.566080 38.250795 0.770463 0.939799 0.052523 -0.006735 891958.000000 0 0 1
22.398761 22.775631 23.178680 39.467519 0.793741 0.943096 0.066421 -0.011811 81270.100000 0 0 1
21.478661 23.836081 22.594080 39.242631 0.837375 0.957271 0.075897 -0.023978 54004.900000 0 0 1
22.088561 24.410291 21.472280 39.304270 0.835288 0.992845 0.081130 -0.019750 1328340.000000 0 0 1
21.109761 25.403791 20.961980 39.120062 0.877455 1.005297 0.083690 -0.026332 874496.000000 0 0 1
21.539861 26.313571 19.808580 39.354154 0.884826 1.043335 0.074360 -0.029093 -470252.000000 0 0 1
21.614961 25.577331 18.638180 38.324772 0.869164 1.062921 0.072519 -0.024219 -175888.000000 0 0 1
22.256961 26.315251 17.677280 38.734364 0.868756 1.096883 0.079480 -0.035440 -438529.000000 0 0 1
22.158361 25.608181 16.328680 37.595182 0.857496 1.121503 0.061818 -0.013082 652907.000000 0 0 1
20.814561 25.572571 15.797280 36.561679 0.887612 1.124007 0.049323 -0.016462 930049.000000 0 0 1
20.976661 25.303691 14.401780 35.884653 0.878623 1.157822 0.053523 -0.011352 755747.000000 0 0 1
19.575561 24.897621 13.817180 34.554429 0.904501 1.159424 0.051710 -0.016018 1900350.000000 0 0 1
18.481561 25.824471 13.645280 34.563927 0.949637 1.164964 0.043564 -0.009671 733439.000000 0 0 1
17.762761 26.207491 14.830280 34.961200 0.975143 1.132726 0.042532 -0.016951 -657260.000000 0 0 1
16.340861 26.725261 14.525080 34.528847 1.022008 1.136618 0.051239 -0.011673 -362393.000000 0 0 1
15.394761 25.806261 14.043680 33.169063 1.032916 1.133605 0.065295 -0.024015 29385.300000 0 0 1
14.996361 24.721091 14.897380 32.526222 1.025522 1.095039 0.086657 -0.038877 -140926.000000 0 0 1
14.006061 25.168751 16.054980 32.975721 1.062987 1.062290 0.096666 -0.044321 -132404.000000 0 0 1
14.552261 26.062921 17.008680 34.356067 1.061564 1.052880 0.089134 -0.040080 -178002.000000 0 0 1
13.635761 26.417911 18.001880 34.754966 1.094308 1.026325 0.089947 -0.037541 -303976.000000 0 0 1
14.105861 27.648911 18.792180 36.284757 1.099040 1.026392 0.090379 -0.039727 -437623.000000 0 0 1
14.075061 28.807781 17.988880 36.764050 1.116322 1.059502 0.080153 -0.033180 306389.000000 0 0 1
14.792961 29.883891 18.594180 38.178818 1.111145 1.062112 0.067189 -0.032548 -138471.000000 0 0 1
14.599661 31.214191 17.822480 38.795832 1.133300 1.093486 0.049879 -0.026272 2960880.000000 0 0 1
13.163961 31.683931 17.816780 38.660044 1.177019 1.091835 0.051627 -0.026373 3034340.000000 0 0 1
13.139561 32.921508 17.114380 39.362111 1.191051 1.120988 0.050581 -0.009968 299412.000000 0 0 1
11.778861 33.660202 17.319680 39.644950 1.234180 1.118680 0.062272 -0.018569 169904.000000 0 0 1
11.643661 -33.115759 16.939080 38.976413 -1.232693 1.121204 0.061306 -0.013950 87312.500000 0 0 1
12.420161 -32.113469 17.675880 38.703644 -1.201757 1.096516 0.062045 -0.011873 296777.000000 0 0 1
12.327261 -32.013649 19.200980 39.313010 -1.203233 1.060526 0.069793 -0.023923 -328360.000000 0 0 1
13.251661 -32.856139 19.820880 40.595562 -1.187428 1.060710 0.086085 -0.018263 -164810.000000 0 0 1
13.243861 -32.762129 21.254780 41.237394 -1.186638 1.029293 0.077141 -0.019829 -855190.000000 0 0 1
14.269661 -33.611939 21.975280 42.618055 -1.169314 1.029050 0.087280 -0.026596 -633648.000000 0 0 1
15.498761 -32.964979 21.785280 42.444079 -1.131306 1.031805 0.094876 -0.022886 -841005.000000 0 0 1
16.525761 -33.371549 22.642980 43.582859 -1.110992 1.024485 0.100747 -0.025543 607559.000000 0 0 1
17.925161 -32.769459 22.275980 43.489862 -1.070253 1.033039 0.105355 -0.018590 673864.000000 0 0 1
17.844161 -31.352429 22.555980 42.545988 -1.053371 1.012013 0.110537 -0.013032 -667699.000000 0 0 1
18.871961 -30.584629 22.053280 42.165360 -1.017941 1.020407 0.095217 -0.010359 -505601.000000 0 0 1
-4.594939 13.063481 18.291277 22.942075 -1.232573 0.648019 0.026412 -0.007387 -736464.000000 0 1 0
-4.476439 14.392881 17.758377 23.292777 -1.269263 0.703785 0.029212 -0.011024 -357054.000000 0 1 0
-5.751739 14.944581 17.789377 23.935014 -1.203400 0.732901 0.029198 -0.012485 -519729.000000 0 1 0
-5.752139 16.501181 17.625677 24.820164 -1.235379 0.781106 0.039003 -0.010671 -56657.300000 0 1 0
-5.076039 17.132581 18.687277 25.855479 -1.282756 0.763010 0.037044 -0.004362 294370.000000 0 0 1
-4.877139 18.503381 18.426077 26.564674 -1.313077 0.804279 0.045967 -0.006069 -204692.000000 0 0 1
-4.176639 19.194081 19.678977 27.805021 -1.356536 0.784489 0.043050 -0.009458 -281090.000000 0 0 1
-5.034439 19.298581 20.777477 28.800770 -1.315613 0.764944 0.029154 -0.007318 -143176.000000 0 0 1
-4.661439 20.268681 21.736577 30.083670 -1.344745 0.763331 0.035280 -0.002385 -545528.000000 0 0 1
-5.734139 20.535881 22.782577 31.203342 -1.298506 0.752280 0.022435 -0.001335 -306120.000000 0 0 1
-6.031839 19.287281 23.457327 30.961726 -1.267696 0.711132 0.014020 -0.008969 -17418.700000 0 0 1
-6.685239 19.449881 24.729887 32.164539 -1.239730 0.693747 0.005208 -0.008546 405607.000000 0 0 1
-5.906039 20.232381 25.875787 33.373445 -1.286778 0.683542 0.002612 -0.014940 -808744.000000 0 0 1
-5.673039 21.631781 25.613857 34.002749 -1.314317 0.717749 0.006822 -0.008449 97463.800000 0 0 1
-4.606339 22.200181 26.355677 34.766192 -1.366208 0.710427 0.021731 0.003219 706541.000000 0 0 1
-3.185139 21.681081 25.952467 33.966821 -1.424931 0.701223 0.034317 0.001596 -385299.000000 0 0 1
-2.837339 20.390881 26.532147 33.582634 -1.432537 0.659897 0.043463 0.000736 -686350.000000 0 0 1
-1.555639 20.049781 26.132617 32.974647 -1.493363 0.655889 0.050387 0.003466 -614908.000000 0 0 1
-0.911839 18.870681 26.862167 32.840677 -1.522513 0.612951 0.044654 0.010296 -338708.000000 0 0 1
-1.276239 17.610281 26.344387 31.713995 -1.498452 0.590457 0.054764 -0.000331 41703.200000 0 0 1
-0.501839 16.521981 26.827237 31.510765 -1.540432 0.552210 0.051770 -0.000814 843652.000000 0 0 1
1.014861 16.362481 26.424967 31.097260 1.508852 0.555281 0.048867 -0.001803 345334.000000 0 0 1
1.298961 16.009181 25.074797 29.777955 1.489835 0.569707 0.048374 0.000123 -179222.000000 0 0 1
1.043061 14.651381 24.761607 28.790417 1.499724 0.535401 0.060106 -0.000884 -201826.000000 0 0 1
1.232961 14.181981 23.287287 27.293708 1.484076 0.548686 0.050201 -0.009390 -643294.000000 0 0 1
2.523261 14.297281 22.799477 27.029525 1.396110 0.567025 0.041567 -0.017874 -910186.000000 0 0 1
2.607461 13.648581 21.559877 25.649774 1.382028 0.572502 0.033262 -0.019116 31913.700000 0 0 1
4.059261 13.592381 21.048477 25.382450 1.280586 0.593026 0.022290 -0.015504 28964.000000 0 0 1
4.481861 14.776981 20.416477 25.598413 1.276315 0.647543 0.014463 -0.003737 -833103.000000 0 0 1
5.870661 14.859881 20.408477 25.918847 1.194549 0.664218 0.021785 0.000950 -646974.000000 0 0 1
6.418861 15.881181 19.399477 25.879594 1.186691 0.723331 0.030806 -0.007626 -312173.000000 0 0 1
6.246861 15.402881 18.072277 24.553598 1.185502 0.743604 0.030997 -0.015693 242943.000000 0 1 0
6.421761 16.458881 17.123377 24.603735 1.198793 0.801031 0.026965 -0.001740 -229934.000000 0 1 0
6.217161 15.912981 15.697777 23.201212 1.198335 0.827670 0.020416 -0.002292 343744.000000 0 1 0
7.266261 15.155981 15.088877 22.587087 1.123738 0.839237 0.016270 -0.003739 364799.000000 0 1 0
7.637661 13.952081 15.759577 22.391040 1.069935 0.790016 0.024746 -0.007761 223755.000000 0 1 0
8.674761 13.067281 14.969577 21.681640 0.984744 0.808718 0.025980 -0.012606 957923.000000 0 1 0
10.003661 13.560381 15.065577 22.603733 0.935206 0.841281 0.030992 -0.014622 387270.000000 0 1 0
10.993761 12.937381 14.298677 22.196638 0.866437 0.870843 0.032280 -0.004960 962773.000000 0 1 0
12.476261 13.429781 14.361677 23.286774 0.822188 0.906213 0.038332 -0.001884 293935.000000 0 1 0
13.231761 13.002981 15.494577 24.171035 0.776678 0.874945 0.038921 -0.009902 251647.000000 0 1 0
14.486161 13.658181 15.448877 25.200447 0.755988 0.910894 0.048986 -0.007553 319854.000000 0 0 1
15.648761 12.973281 14.695777 25.082974 0.692193 0.944823 0.057742 -0.008018 -184445.000000 0 0 1
16.915461 13.602081 14.796477 26.269472 0.677249 0.972473 0.061586 -0.013390 335829.000000 0 0 1
17.896861 12.961481 14.039877 26.180446 0.626805 1.004781 0.059305 -0.011146 79670.000000 0 0 1
19.338461 13.524081 14.116177 27.498059 0.610280 1.031710 0.064388 -0.017605 110882.000000 0 0 1
20.037361 13.259081 15.285577 28.477147 0.584569 1.004196 0.056505 -0.018073 28982.600000 0 0 1
21.423061 13.390081 15.008077 29.385101 0.558622 1.034754 0.077469 -0.019853 -208100.000000 0 0 1
22.310461 13.080481 16.191877 30.512825 0.530280 1.011420 0.082343 -0.018122 -675247.000000 0 0 1
22.461961 11.697681 16.364577 30.152525 0.480131 0.997116 0.090758 -0.015351 594438.000000 0 0 1
23.412061 11.447281 17.410377 31.341443 0.454767 0.981824 0.070930 -0.013298 193963.000000 0 0 1
23.750161 9.916781 17.642777 31.203850 0.395540 0.969874 0.088009 -0.009501 -239576.000000 0 0 1
22.727561 9.174281 18.259377 30.563283 0.383660 0.930506 0.072164 -0.009796 243295.000000 0 0 1
22.462961 7.949381 17.573977 29.607802 0.340135 0.935322 0.072289 0.006230 14911.600000 0 0 1
21.291761 7.229781 18.288777 28.984274 0.327342 0.887968 0.092792 0.000265 -47320.800000 0 0 1
21.100961 5.916781 17.788277 28.225549 0.273383 0.888961 0.103795 -0.012321 1084960.000000 0 0 1
19.956661 5.212281 18.341977 27.601889 0.255473 0.843947 0.098966 -0.013764 610033.000000 0 0 1
19.756761 3.840481 17.696977 26.800408 0.191994 0.849545 0.102646 -0.004687 -1134870.000000 0 0 1
19.125161 3.958681 16.481777 25.555663 0.204106 0.869856 0.099593 -0.016754 171778.000000 0 0 1
18.793961 2.658881 15.903077 24.762683 0.140543 0.873406 0.072155 -0.019057 82561.700000 0 1 0
17.888961 1.700381 16.706577 24.536013 0.094767 0.821805 0.077572 -0.013912 -601509.000000 0 1 0
18.577861 0.993381 17.665277 25.655131 0.053420 0.811285 0.091541 -0.024650 206684.000000 0 0 1
17.622261 0.651781 18.660177 25.674328 0.036969 0.757141 0.077586 -0.020009 172538.000000 0 0 1
18.239661 -0.150119 19.824377 26.939073 -0.008230 0.743806 0.086846 -0.025198 -28327.200000 0 0 1
18.632361 -1.458019 19.432177 26.961087 -0.078093 0.765914 0.086042 -0.022628 373636.000000 0 0 1
17.627461 -2.428119 19.783577 26.608515 -0.136885 0.732499 0.052849 -0.017745 239314.000000 0 0 1
17.793561 -3.887619 19.212177 26.473234 -0.215104 0.758715 0.036629 -0.013287 -221539.000000 0 0 1
17.378161 -3.959819 17.868477 25.238128 -0.224037 0.784141 0.036175 -0.017394 265551.000000 0 0 1
17.224461 -5.303119 17.397077 25.049220 -0.298673 0.803050 0.059266 -0.021768 -201927.000000 0 0 1
16.992361 -5.383119 15.872677 23.867555 -0.306794 0.843260 0.040552 -0.012591 23506.200000 0 1 0
15.644961 -5.049619 15.563077 22.637862 -0.312208 0.812783 0.030625 -0.014432 245485.000000 0 1 0
15.399861 -4.925219 14.198477 21.517673 -0.309542 0.850175 0.033959 -0.010068 181358.000000 0 1 0
15.960461 -3.714719 13.434777 21.190297 -0.228674 0.884074 0.036731 -0.005997 -359020.000000 0 1 0
15.167261 -2.580119 13.728177 20.619545 -0.168498 0.842251 0.027727 0.000601 254045.000000 0 1 0
15.654361 -1.345319 13.223777 20.536240 -0.085728 0.871180 0.032289 -0.002708 -391665.000000 0 1 0
14.576161 -0.266719 13.223677 19.682511 -0.018296 0.834094 0.028623 0.000857 -1354260.000000 0 1 0
14.920561 1.048581 12.753577 19.656459 0.070162 0.864759 0.028287 0.001097 351441.000000 0 1 0
15.868761 1.820781 13.502577 20.915363 0.114240 0.869012 0.047249 -0.011805 7226.440000 0 1 0
16.022561 3.296681 13.064777 20.935113 0.202921 0.896868 0.043789 -0.011092 257617.000000 0 1 0
14.995861 4.223881 13.443477 20.577757 0.274556 0.858859 0.036500 -0.003850 496049.000000 0 1 0
15.255161 5.471081 12.797377 20.650073 0.344349 0.902403 0.052475 -0.005891 -463579.000000 0 1 0
14.237761 6.559681 13.028877 20.383691 0.431736 0.877363 0.045877 -0.005604 -634720.000000 0 1 0
14.319661 7.686281 12.179677 20.309508 0.492625 0.927666 0.033472 -0.016282 270592.000000 0 1 0
13.345761 8.697281 12.385277 20.177887 0.577561 0.909926 0.022132 -0.005435 -442456.000000 0 1 0
13.583861 9.624781 13.667877 21.539929 0.616438 0.883387 0.038160 -0.009170 -204616.000000 0 1 0
13.463361 8.924381 14.882377 21.963419 0.585366 0.826304 0.056710 -0.011415 502874.000000 0 1 0
13.799761 9.757481 15.964277 23.248655 0.615459 0.813891 0.063528 -0.015538 -392892.000000 0 1 0
13.251061 9.253481 17.308177 23.681016 0.609598 0.751174 0.059523 -0.016095 -493870.000000 0 1 0
11.917261 9.629781 17.515277 23.270984 0.679632 0.718694 0.050277 -0.021240 -396434.000000 0 1 0
11.220061 8.967481 18.544177 23.456171 0.674275 0.659027 0.062792 -0.016998 62872.100000 0 1 0
11.719461 9.356481 19.982877 24.984092 0.673747 0.643794 0.091680 -0.018268 211150.000000 0 1 0
13.039461 8.827581 20.166777 25.586180 0.595115 0.662934 0.112524 -0.025675 266638.000000 0 0 1
13.628861 9.217281 21.357177 26.959843 0.594646 0.656416 0.115433 -0.012974 -442557.000000 0 0 1
15.097861 8.774981 21.335277 27.570632 0.526486 0.685914 0.108786 -0.018093 -263773.000000 0 0 1
15.903461 9.554981 20.493977 27.644544 0.541016 0.735733 0.094615 -0.012220 -5120.570000 0 0 1
17.170361 8.999881 20.206177 28.001941 0.482782 0.764687 0.082670 -0.015218 427153.000000 0 0 1
18.060861 9.966381 19.325577 28.266612 0.504241 0.817990 0.088977 -0.011542 302185.000000 0 0 1
18.741761 10.955381 20.081477 29.572617 0.528977 0.824320 0.090664 -0.015745 -77508.800000 0 0 1
19.676761 11.658281 19.348077 29.957278 0.534879 0.868653 0.091912 -0.011006 -143321.000000 0 0 1
20.709661 12.496881 20.132277 31.470155 0.542940 0.876655 0.081789 -0.011282 -382282.000000 0 0 1
20.150561 13.660281 20.638977 31.915760 0.595747 0.867585 0.072603 -0.006669 560370.000000 0 0 1
21.017461 14.493681 21.431777 33.333489 0.603713 0.872452 0.054686 -0.004237 1010950.000000 0 0 1
22.328461 15.193681 20.902277 34.151329 0.597493 0.912148 0.045163 0.002584 853246.000000 0 0 1
23.407561 14.293281 20.775477 34.406863 0.548197 0.922514 0.028270 0.011976 386803.000000 0 0 1
24.647561 15.018481 20.757677 35.551908 0.547251 0.947309 0.035329 0.007111 537176.000000 0 0 1
25.908561 14.143281 20.774577 36.095276 0.499684 0.957522 0.035920 0.003651 -80145.600000 0 0 1
26.348961 13.671881 19.504177 35.519023 0.478635 0.989486 0.048389 -0.008093 322309.000000 0 0 1
27.438461 12.771481 19.663577 36.092050 0.435635 0.994625 0.066764 -0.013286 238082.000000 0 0 1
27.720961 11.944681 18.397577 35.349652 0.406849 1.023423 0.082135 -0.019516 6480.710000 0 0 1
28.211361 12.758581 17.311077 35.473027 0.424723 1.060992 0.096820 -0.032757 374737.000000 0 0 1
28.497261 11.974881 16.096277 34.850850 0.397808 1.090703 0.112389 -0.034141 -227293.000000 0 0 1
27.288961 11.515981 15.277777 33.327401 0.399328 1.094586 0.099564 -0.030930 73220.200000 0 0 1
26.509761 12.526881 14.611877 32.759687 0.441438 1.108469 0.109683 -0.028734 1078590.000000 0 0 1
25.315161 11.961581 14.031677 31.318122 0.441412 1.106228 0.103676 -0.028630 693928.000000 0 0 1
24.673861 12.899281 12.989877 30.723407 0.481714 1.134263 0.093125 -0.029694 -258454.000000 0 0 1
24.304261 14.152381 13.490677 31.192713 0.527303 1.123539 0.074325 -0.026722 167735.000000 0 0 1
24.101461 15.099481 12.445777 31.044679 0.559675 1.158299 0.057218 -0.025798 -153805.000000 0 0 1
23.296361 16.371781 12.863277 31.244512 0.612577 1.146481 0.058902 -0.018044 355248.000000 0 0 1
21.896361 16.086481 12.865977 30.062582 0.633614 1.128547 0.071233 -0.024744 139744.000000 0 0 1
21.194061 17.227381 13.270177 30.365580 0.682521 1.118520 0.058995 -0.018045 -977235.000000 0 0 1
20.606761 18.180181 12.114577 30.031992 0.722918 1.155579 0.069387 -0.016601 287579.000000 0 0 1
19.469561 17.594781 11.479377 28.642908 0.734859 1.158433 0.075809 -0.016417 476998.000000 0 0 1
18.298961 17.627781 12.268877 28.215527 0.766718 1.120950 0.079901 -0.013141 -1082050.000000 0 0 1
17.014361 17.038881 11.719277 26.779720 0.786118 1.117849 0.076737 -0.006068 -389284.000000 0 0 1
17.036761 15.641281 11.533277 25.844097 0.742720 1.108211 0.075850 -0.007123 1882290.000000 0 0 1
15.775361 15.160581 10.894977 24.441885 0.765528 1.108784 0.069162 -0.010467 1864040.000000 0 1 0
15.707661 13.742481 10.241477 23.248102 0.718768 1.114608 0.069219 -0.016478 -375859.000000 0 1 0
15.815161 12.663481 11.134077 23.118190 0.675178 1.068299 0.061031 -0.005726 358056.000000 0 1 0
15.953161 11.499981 10.365977 22.230753 0.624589 1.085704 0.046147 -0.002300 -202586.000000 0 1 0
16.537261 10.368781 11.270277 22.539116 0.560033 1.047161 0.059516 -0.008920 -635601.000000 0 1 0
17.188961 9.304981 10.565677 22.218834 0.496166 1.075232 0.056456 -0.005865 419226.000000 0 1 0
17.702861 8.329181 11.415677 22.651362 0.439770 1.042604 0.053182 -0.005714 -329021.000000 0 1 0
18.973561 8.648981 12.199377 24.158346 0.427703 1.041443 0.063800 -0.020730 -1339320.000000 0 1 0
18.775261 9.419781 13.372877 24.901336 0.465017 1.003879 0.070297 -0.020607 -239366.000000 0 1 0
19.760861 9.277981 14.340777 26.119541 0.438962 0.989576 0.078542 -0.013588 -1639070.000000 0 0 1
19.271261 9.738781 15.761277 26.732811 0.467920 0.940251 0.067166 -0.008099 143475.000000 0 0 1
18.490461 8.797881 16.463277 26.274309 0.444106 0.893624 0.072646 -0.008254 -470436.000000 0 0 1
17.302061 8.423381 15.874277 24.946088 0.453066 0.881048 0.072218 -0.022339 -1984250.000000 0 1 0
16.814761 7.108681 16.472877 24.589128 0.399975 0.836688 0.072548 -0.011991 -691745.000000 0 1 0
16.193861 7.195781 17.758577 25.087595 0.418147 0.784328 0.092747 -0.010622 255364.000000 0 0 1
15.603861 6.031481 18.245577 24.753996 0.368847 0.742063 0.085869 0.007881 191579.000000 0 1 0
14.272661 5.624681 17.546377 23.307107 0.375399 0.718440 0.071215 -0.015978 -406598.000000 0 1 0
13.946461 4.257181 17.766077 22.983926 0.296268 0.687274 0.079599 -0.014425 245712.000000 0 1 0
13.239261 3.706881 16.660477 21.600706 0.273001 0.689926 0.056586 -0.010636 37199.300000 0 1 0
13.010161 2.225181 16.897877 21.441874 0.169395 0.663115 0.047271 -0.007430 581418.000000 0 1 0
14.240561 1.460581 16.855777 22.114341 0.102207 0.704076 0.042925 -0.008966 866275.000000 0 1 0
14.210361 0.006281 16.630877 21.875110 0.000442 0.707076 0.042131 -0.007109 -56060.600000 0 1 0
13.411661 -0.835619 17.713777 22.233956 -0.062225 0.648982 0.046461 -0.012460 1180940.000000 0 1 0
12.026961 -0.483119 17.816677 21.501515 -0.040148 0.594151 0.044409 -0.000452 428546.000000 0 1 0
11.331161 -1.237719 18.759477 21.950971 -0.108800 0.546001 0.038647 -0.011684 -105223.000000 0 1 0
-26.219289 14.221681 28.566207 41.300551 -0.497000 0.807002 0.054455 -0.010381 -359480.000000 0 0 1
-25.562859 14.106581 29.798427 41.718121 -0.504254 0.775201 0.053264 -0.019182 391000.000000 0 0 1
-24.646939 13.021681 29.843227 40.836919 -0.486053 0.751317 0.049427 -0.010722 -391686.000000 0 0 1
-23.538639 13.075281 30.868027 40.961757 -0.507042 0.717303 0.039471 -0.017436 -343985.000000 0 0 1
-24.003439 13.186981 32.204488 42.275177 -0.502366 0.704736 0.040438 -0.022566 53613.100000 0 0 1
-22.860539 13.161581 33.040384 42.278818 -0.522385 0.673749 0.027691 -0.018704 92755.100000 0 0 1
-23.076939 13.392581 -33.487330 42.817142 -0.525842 2.468827 0.047842 -0.027329 -268934.000000 0 0 1
-23.721339 12.277081 -32.912910 42.387360 -0.477592 2.459856 0.029434 -0.016030 36215.900000 0 0 1
-24.450539 12.688881 -31.771500 42.050741 -0.478701 2.427292 0.028154 -0.019056 -266484.000000 0 0 1
-25.238659 11.448581 -31.274280 41.786846 -0.425854 2.416479 0.019428 -0.025153 -167283.000000 0 0 1
-24.555139 10.393381 -30.571500 40.565920 -0.400402 2.424356 0.041561 -0.028502 332971.000000 0 0 1
-24.070339 9.302081 -31.372510 40.621968 -0.368775 2.453256 0.036888 -0.028815 -4226.670000 0 0 1
-23.331239 8.185081 -30.539110 39.293505 -0.337406 2.461008 0.041146 -0.013120 162313.000000 0 0 1
-24.142939 7.507681 -29.611650 38.937085 -0.301489 2.434879 0.051276 -0.014100 5698.790000 0 0 1
-23.326439 6.789681 -28.762810 37.649990 -0.283246 2.440213 0.047679 -0.006075 -563307.000000 0 0 1
-24.083039 6.028781 -27.694830 37.193314 -0.245292 2.410759 0.054046 -0.010830 -271685.000000 0 0 1
-24.742339 4.865981 -28.217460 37.842914 -0.194188 2.412302 0.073857 -0.022031 346789.000000 0 0 1
-25.019839 3.932581 -27.156840 37.134236 -0.155903 2.391045 0.112809 -0.022549 -165325.000000 0 0 1
-25.995389 2.782181 -27.556930 37.985329 -0.106620 2.382502 0.122886 -0.022384 966583.000000 0 0 1
-27.358069 3.004981 -27.917470 39.203048 -0.109400 2.363317 0.125231 -0.023552 714065.000000 0 0 1
-27.578159 3.797581 -29.089000 40.263462 -0.136842 2.378159 0.124248 -0.024514 -372050.000000 0 0 1
-28.759769 3.305881 -29.966860 41.666124 -0.114446 2.373467 0.132188 -0.031490 -103337.000000 0 0 1
-30.033759 3.285881 -29.364760 42.132088 -0.108973 2.341958 0.115687 -0.035005 381845.000000 0 0 1
-31.120569 3.143781 -30.267060 43.525488 -0.100678 2.339755 0.105587 -0.032570 482133.000000 0 0 1
-31.620799 4.500781 -30.891510 44.434416 -0.141386 2.339516 0.102352 -0.039992 -793204.000000 0 0 1
-30.885899 4.908281 -32.009810 44.751066 -0.157599 2.367830 0.117542 -0.043540 118141.000000 0 0 1
-31.227229 6.190181 -32.560830 45.537521 -0.195693 2.367468 0.105498 -0.030491 -1036120.000000 0 0 1
-30.661829 7.373281 -31.790410 44.778825 -0.235990 2.360213 0.063628 -0.025797 136404.000000 0 0 1
-29.245539 7.444981 -31.591260 43.689095 -0.249273 2.379065 0.048682 -0.025104 815302.000000 0 0 1
-28.793529 7.159881 -30.264490 42.382432 -0.243720 2.366107 0.037160 -0.030431 -361840.000000 0 0 1
-28.905629 8.189481 -29.135070 41.850392 -0.276083 2.340848 0.025791 -0.023256 622331.000000 0 0 1
-30.151679 8.407681 -28.431700 42.286811 -0.271938 2.308180 0.038774 -0.031646 966727.000000 0 0 1
-30.563579 7.360381 -27.550190 41.800963 -0.236322 2.290392 0.048902 -0.022582 -620549.000000 0 0 1
-31.888149 7.484181 -26.810610 42.328192 -0.230529 2.256733 0.038408 -0.020353 -434650.000000 0 0 1
-31.944939 8.406281 -25.746680 41.881216 -0.257315 2.232871 0.005562 -0.006247 -54448.400000 0 0 1
-31.791409 7.769881 -24.515920 40.891259 -0.239703 2.213722 0.015861 -0.006104 -275558.000000 0 0 1
-31.227799 8.538481 -23.372820 39.929561 -0.266902 2.196110 0.004439 -0.004281 24350.000000 0 0 1
-32.081419 9.612581 -22.921420 40.583379 -0.291118 2.170985 0.014503 -0.005937 571243.000000 0 0 1
-31.395919 10.474881 -22.011920 39.748604 -0.322025 2.157692 0.017873 -0.008948 -102432.000000 0 0 1
-32.269759 11.422181 -21.143120 40.234750 -0.340198 2.124092 0.014342 -0.001325 37715.000000 0 0 1
-32.925989 10.833081 -20.015120 40.026009 -0.317857 2.094456 0.009568 -0.010146 284453.000000 0 0 1
-33.468639 11.762781 -19.063020 40.272963 -0.337972 2.063881 0.009683 -0.002910 472429.000000 0 0 1
-32.461999 12.597081 -18.135920 39.260405 -0.370168 2.050977 0.008039 -0.005699 595261.000000 0 0 1
-31.706349 11.949281 -17.091820 37.950075 -0.360412 2.037983 0.024821 -0.007181 376922.000000 0 0 1
-32.440549 11.450681 -15.991920 37.937433 -0.339322 2.005933 0.019856 -0.000759 -239157.000000 0 0 1
-32.950659 12.528281 -14.976120 38.301278 -0.363333 1.972523 0.032280 -0.004153 130300.000000 0 0 1
-33.873419 13.358781 -15.697520 39.651957 -0.375647 1.977825 0.016850 -0.001246 302106.000000 0 0 1
-34.367557 14.372681 -14.827920 40.094515 -0.396101 1.949616 0.010518 -0.004036 366139.000000 0 0 1
-35.261487 15.462881 -15.519220 41.512882 -0.413267 1.953943 -0.000115 0.006883 656761.000000 0 0 1
-36.417809 15.067781 -16.255220 42.632464 -0.392301 1.961985 0.003205 -0.002646 667957.000000 0 0 1
36.780289 16.268181 -16.792020 43.582282 0.416438 1.966323 -0.001497 -0.004807 -672463.000000 0 0 1
36.444089 16.252981 -18.299820 43.900050 0.419498 2.000776 0.000450 -0.002212 658798.000000 0 0 1
35.319999 15.482181 -18.742820 42.877658 0.413116 2.023194 0.041711 -0.009014 1540340.000000 0 0 1
34.010849 15.930381 -18.347020 41.798660 0.438042 2.025213 0.083240 -0.020909 124748.000000 0 0 1
32.940199 14.858781 -18.628520 40.655403 0.423755 2.046771 0.100742 -0.026645 -339434.000000 0 0 1
32.699529 14.588481 -20.014720 41.020385 0.419637 2.080503 0.099175 -0.023389 589521.000000 0 0 1
31.822159 13.456781 -20.210620 40.027539 0.400069 2.100083 0.069040 -0.022771 283835.000000 0 0 1
32.353849 12.072681 -19.712820 39.763255 0.357143 2.089500 0.072122 -0.007404 -55920.200000 0 0 1
32.353789 12.022681 -18.289120 39.061546 0.355787 2.058064 0.092833 -0.017484 340858.000000 0 0 1
33.023389 10.845981 -17.819320 39.060308 0.317334 2.044517 0.091317 -0.025200 -19774.100000 0 0 1
32.844439 10.647781 -16.302920 38.182687 0.313498 2.011937 0.078106 -0.019550 -338000.000000 0 0 1
31.582509 10.221481 -15.860120 36.789631 0.313005 2.016511 0.093107 -0.021258 -28230.300000 0 0 1
31.649309 10.062081 -14.442120 36.214625 0.307819 1.980996 0.086722 -0.017272 -160030.000000 0 0 1
30.990429 11.208981 -13.675520 35.680075 0.347052 1.964143 0.103573 -0.028921 -497769.000000 0 0 1
29.586869 11.169081 -13.719320 34.472466 0.360962 1.980109 0.095776 -0.025748 -67390.400000 0 0 1
29.017919 12.176681 -12.882120 34.003826 0.397310 1.959342 0.114532 -0.028707 -509225.000000 0 0 1
27.503439 12.146281 -12.800820 32.677703 0.415870 1.973307 0.115653 -0.030428 -1399360.000000 0 0 1
26.869139 11.133581 -12.062520 31.486690 0.392827 1.963945 0.106481 -0.036055 888870.000000 0 0 1
25.483839 11.058581 -12.459820 30.446106 0.409423 1.992419 0.104610 -0.025198 766825.000000 0 0 1
25.255439 10.367681 -13.886020 30.629194 0.389536 2.041327 0.078643 -0.032564 -827404.000000 0 0 1
25.747239 9.007981 -13.956920 30.640816 0.336552 2.043731 0.075547 -0.028122 672683.000000 0 0 1
27.140139 8.874581 -14.198420 31.889504 0.316032 2.032236 0.086838 -0.037171 119353.000000 0 0 1
27.870939 7.849781 -13.275420 31.853494 0.274536 2.000680 0.090466 -0.033410 -194294.000000 0 0 1
27.520439 6.470281 -13.366520 31.271440 0.230914 2.012450 0.082845 -0.037399 1030990.000000 0 0 1
26.382839 6.103981 -12.546420 29.845023 0.227361 2.004667 0.103297 -0.035916 540793.000000 0 0 1
25.952639 4.626481 -12.705820 29.263999 0.176413 2.019923 0.102804 -0.034026 -172215.000000 0 0 1
25.070539 4.212081 -11.680720 27.977004 0.166455 2.001501 0.116065 -0.036641 242768.000000 0 0 1
24.837539 2.795581 -11.698320 27.596545 0.112083 2.008549 0.099983 -0.035698 -126055.000000 0 0 1
23.872139 2.372281 -10.586620 26.221809 0.099049 1.986390 0.086962 -0.030106 341253.000000 0 0 1
24.625539 2.353181 -9.346720 26.444580 0.095269 1.932048 0.096217 -0.022847 1137140.000000 0 0 1
23.796739 1.856781 -8.308420 25.273746 0.077869 1.905762 0.104099 -0.016342 -441016.000000 0 0 1
24.585139 1.449081 -7.067420 25.621813 0.058873 1.850256 0.120378 -0.014984 -307587.000000 0 0 1
24.817639 0.058281 -6.762820 25.722642 0.002348 1.836837 0.103556 -0.020092 433041.000000 0 0 1
25.703439 -0.568519 -7.665520 26.828160 -0.022115 1.860561 0.101991 -0.020652 -474711.000000 0 0 1
25.818139 -2.045719 -7.292520 26.906172 -0.079071 1.845265 0.115579 -0.030753 -135710.000000 0 0 1
26.861239 -2.165919 -6.343620 27.684993 -0.080460 1.801986 0.135269 -0.033693 413739.000000 0 0 1
26.945639 -3.511419 -5.900820 27.806783 -0.129585 1.784630 0.147261 -0.039963 -1128390.000000 0 0 1
28.202239 -3.783919 -5.140220 28.915500 -0.133374 1.749513 0.146165 -0.038092 -53518.400000 0 0 1
29.368619 -4.039819 -5.960420 30.238428 -0.136698 1.769210 0.150845 -0.031704 1785810.000000 0 0 1
30.560649 -4.344119 -5.194620 31.301896 -0.141202 1.737520 0.185652 -0.040733 1552390.000000 0 0 1
31.768129 -4.758919 -6.138120 32.703789 -0.148696 1.759604 0.177447 -0.038270 437970.000000 0 0 1
31.740009 -6.086719 -6.702620 33.006081 -0.189468 1.775291 0.135437 -0.032206 222960.000000 0 0 1
32.455029 -6.133719 -7.921620 33.966211 -0.186788 1.806185 0.136336 -0.042640 -60272.400000 0 0 1
31.697899 -7.040619 -8.970920 33.686859 -0.218568 1.840352 0.108904 -0.037622 1901600.000000 0 0 1
30.406409 -6.503719 -9.396120 32.482843 -0.210718 1.864254 0.097387 -0.028338 1639350.000000 0 0 1
29.272629 -6.932619 -8.638520 31.298115 -0.232545 1.850434 0.107666 -0.016895 -626663.000000 0 0 1
28.123739 -5.993619 -8.873420 30.093284 -0.209975 1.870109 0.099415 -0.017690 -1400720.000000 0 0 1
27.477239 -6.147119 -10.097920 29.912434 -0.220093 1.915144 0.066746 -0.012780 460296.000000 0 0 1
26.204339 -5.504519 -10.148020 28.634759 -0.207051 1.933064 0.070871 -0.010474 586330.000000 0 0 1
25.024439 -6.415619 -9.743820 27.610229 -0.250969 1.931472 0.085852 -0.005634 -867966.000000 0 0 1
24.982239 -6.756319 -8.320720 27.184453 -0.264126 1.881873 0.080718 -0.013426 751453.000000 0 0 1
23.701139 -7.194719 -7.871520 25.989782 -0.294720 1.878499 0.072065 -0.018220 -103472.000000 0 0 1
22.846239 -6.046619 -7.297120 24.733786 -0.258733 1.870279 0.091419 -0.019105 -444100.000000 0 1 0
22.217439 -5.225719 -8.245720 24.267563 -0.231009 1.917483 0.081791 -0.017591 424818.000000 0 1 0
21.943539 -3.942519 -7.701620 23.587651 -0.177770 1.903406 0.079374 -0.016717 -125066.000000 0 1 0
21.790539 -2.900619 -8.813620 23.683772 -0.132336 1.952107 0.081240 -0.011688 -639796.000000 0 1 0
22.972839 -2.622419 -9.492620 24.994764 -0.113661 1.960359 0.071397 -0.007639 -114331.000000 0 1 0
22.864839 -1.857519 -10.698520 25.312241 -0.081061 2.007177 0.079116 -0.012133 -378543.000000 0 0 1
24.145539 -1.848519 -11.561420 26.834502 -0.076408 2.016222 0.068233 -0.013469 711890.000000 0 0 1
25.220839 -1.146819 -10.883020 27.492654 -0.045440 1.977792 0.068232 -0.020813 1978210.000000 0 0 1
26.501139 -1.304819 -11.517820 28.925302 -0.049197 1.980341 0.064289 -0.017648 892053.000000 0 0 1
27.634639 -0.288119 -11.248320 29.837576 -0.010426 1.957335 0.068473 -0.013826 232734.000000 0 0 1
28.857479 -0.676619 -11.898520 31.221574 -0.023443 1.961781 0.079526 -0.020030 614514.000000 0 0 1
29.940359 0.161881 -11.608220 32.112335 0.005407 1.940660 0.099227 -0.022631 -280601.000000 0 0 1
29.837369 1.547581 -12.335020 32.323618 0.051821 1.962334 0.106790 -0.025686 -770923.000000 0 0 1
30.011399 1.361981 -13.726920 33.029795 0.045351 1.999390 0.089345 -0.029895 380707.000000 0 0 1
30.042979 2.617581 -14.312920 33.381012 0.086908 2.013932 0.097435 -0.030678 22587.100000 0 0 1
30.293669 2.558281 -15.812820 34.268009 0.084249 2.050420 0.101500 -0.026518 93618.000000 0 0 1
29.183359 1.865581 -16.337820 33.497361 0.063839 2.080289 0.077568 -0.017458 -48355.200000 0 0 1
29.425079 1.660981 -17.731620 34.394832 0.056388 2.112424 0.055426 -0.016539 -381109.000000 0 0 1
28.311339 1.060881 -18.584420 33.882710 0.037454 2.151357 0.026957 -0.007432 -679444.000000 0 0 1
28.192839 -0.330019 -18.578720 33.765573 -0.011705 2.153432 0.050099 -0.013627 81420.300000 0 0 1
27.696639 -0.824919 -19.785620 34.047835 -0.029775 2.190891 0.021442 -0.012325 -276955.000000 0 0 1
27.449739 -2.340019 -19.934420 34.005072 -0.085042 2.197180 0.027417 -0.012942 -301096.000000 0 0 1
26.366339 -2.823519 -19.186920 32.730627 -0.106681 2.197165 0.036801 -0.013654 -58182.200000 0 0 1
26.193939 -4.201719 -19.391920 32.860667 -0.159053 2.202011 0.038831 -0.019836 -275958.000000 0 0 1
26.901839 -5.054519 -18.324220 32.939856 -0.185722 2.160715 0.039747 -0.018770 -544668.000000 0 0 1
28.291639 -4.987519 -18.403420 34.117122 -0.174497 2.140543 0.046420 -0.020240 -734687.000000 0 0 1
28.852659 -5.470119 -17.255820 34.061143 -0.187364 2.102048 0.048644 -0.021716 -447119.000000 0 0 1
30.384729 -5.423119 -17.194220 35.331051 -0.176622 2.079059 0.086582 -0.018954 -356701.000000 0 0 1
31.124029 -6.155219 -18.135920 36.544541 -0.195245 2.090092 0.070953 -0.024700 -966147.000000 0 0 1
32.394229 -5.634519 -18.204220 37.583607 -0.172213 2.076435 0.095774 -0.021647 -1284270.000000 0 0 1
33.322689 -6.637219 -18.923820 38.891711 -0.196607 2.078964 0.093575 -0.022887 -296068.000000 0 0 1
33.572319 -7.793619 -18.082720 38.920764 -0.228104 2.053983 0.095833 -0.023005 37601.500000 0 0 1
34.274429 -8.778219 -18.786020 40.058809 -0.250726 2.058910 0.083640 -0.019645 -349091.000000 0 0 1
35.297809 -9.545119 -17.940520 40.729680 -0.264100 2.026927 0.082225 -0.014221 -648085.000000 0 0 1
34.704739 -10.380919 -16.951120 39.994035 -0.290650 2.008478 0.067908 -0.013789 426578.000000 0 0 1
35.619259 -11.124819 -16.109720 40.645003 -0.302726 1.978336 0.081719 -0.018336 443597.000000 0 0 1
36.689829 -10.305019 -15.279120 41.058354 -0.273814 1.952101 0.082121 -0.022616 -121533.000000 0 0 1
-36.551469 -10.928919 -14.088320 40.668562 0.290540 1.924546 0.070029 -0.026026 502593.000000 0 0 1
-35.815029 -12.135419 -14.189620 40.389727 0.326695 1.929774 0.061919 -0.017651 -356706.000000 0 0 1
-34.407586 -12.153819 -14.802020 39.378892 0.339550 1.956150 0.063034 -0.024169 -612037.000000 0 0 1
-34.402809 -11.780619 -16.163020 39.794214 0.329917 1.989050 0.074917 -0.024153 -451127.000000 0 0 1
-33.127959 -11.900119 -16.723020 38.970937 0.344862 2.014309 0.082344 -0.021860 -393373.000000 0 0 1
-32.795269 -11.062219 -18.015620 39.018777 0.325327 2.050726 0.115461 -0.018022 181475.000000 0 0 1
-32.930419 -9.649219 -17.869820 38.689151 0.285039 2.050912 0.114876 -0.021545 -643003.000000 0 0 1
-34.203829 -9.138219 -18.044920 39.736987 0.261072 2.042168 0.109659 -0.025766 -932946.000000 0 0 1
-34.461979 -7.733319 -17.509820 39.421137 0.220745 2.031048 0.121080 -0.029824 -1061090.000000 0 0 1
-35.729540 -7.264219 -17.741720 40.547966 0.200577 2.023667 0.125594 -0.029840 -787152.000000 0 0 1
-35.718298 -5.899619 -17.288420 40.118472 0.163693 2.016324 0.126580 -0.034130 -80654.000000 0 0 1
24.905161 27.563281 -27.354730 46.133315 0.836016 2.205513 0.040575 0.006506 171584.000000 0 0 1
25.495261 26.668581 -26.388200 45.360320 0.807887 2.191670 0.030571 -0.004640 762013.000000 0 0 1
26.734761 26.100081 -26.828300 45.996949 0.773386 2.193536 0.030100 -0.007993 312023.000000 0 0 1
27.456661 25.159081 -25.865340 45.341630 0.741759 2.177856 0.023915 -0.011664 -582484.000000 0 0 1
27.930161 25.813781 -24.705820 45.352207 0.746040 2.146893 0.028350 -0.012513 199858.000000 0 0 1
28.163361 24.848281 -23.717520 44.419959 0.722945 2.134048 0.035876 -0.008669 -151953.000000 0 0 1
28.848761 25.369481 -22.430020 44.485586 0.721314 2.099262 0.033252 -0.010695 75566.400000 0 0 1
28.023461 26.177781 -21.584220 44.005331 0.751359 2.083449 0.027421 -0.005356 263179.000000 0 0 1
28.683861 26.509981 -20.396320 44.063055 0.746032 2.052048 0.016312 -0.000353 -286505.000000 0 0 1
27.865861 27.486081 -19.579120 43.764515 0.778537 2.034624 0.023188 -0.000852 -326388.000000 0 0 1
26.803361 26.914981 -18.841120 42.400757 0.787476 2.031254 0.034954 -0.004759 -52221.000000 0 0 1
26.088561 28.003581 -18.304320 42.424777 0.820786 2.016900 0.043834 -0.007356 195473.000000 0 0 1
24.910561 27.555081 -17.388120 41.014208 0.835760 2.008603 0.047778 -0.004946 434824.000000 0 0 1
23.812761 26.901681 -18.008520 40.187745 0.846231 2.035446 0.053656 -0.005582 -392246.000000 0 0 1
22.718961 26.968581 -17.153520 39.213503 0.870717 2.023545 0.039951 -0.003929 -825561.000000 0 0 1
21.677561 25.950281 -17.587420 38.113660 0.874869 2.050421 0.033201 -0.003046 -652318.000000 0 0 1
21.108161 26.218981 -18.827820 38.567813 0.892970 2.080793 0.034040 -0.007856 -442385.000000 0 0 1
20.453661 25.108881 -19.367520 37.734718 0.887217 2.109769 0.038416 -0.000103 1640.430000 0 0 1
19.587161 25.506781 -20.593920 38.188510 0.915925 2.140366 0.038791 -0.000336 130296.000000 0 0 1
18.516261 26.329181 -20.230120 38.017568 0.957886 2.131905 0.028223 -0.004097 -258362.000000 0 0 1
17.551261 26.479081 -21.278320 38.235525 0.985451 2.160971 0.033433 -0.001716 861493.000000 0 0 1
16.473161 27.567181 -20.927220 38.330967 1.032170 2.148332 0.042279 -0.006233 573710.000000 0 0 1
15.821461 27.392881 -19.666920 37.248843 1.047029 2.127025 0.048905 -0.004883 -295113.000000 0 0 1
14.995761 28.439581 -19.294120 37.495942 1.085560 2.111297 0.050297 -0.013256 -313210.000000 0 0 1
14.302561 28.305181 -17.947220 36.439665 1.102919 2.085778 0.056604 -0.015183 57703.600000 0 0 1
13.255061 27.374781 -17.859120 35.270716 1.119863 2.101736 0.062547 -0.018181 -163934.000000 0 0 1
12.698961 27.277381 -16.546320 34.338023 1.135087 2.073579 0.082016 -0.019263 -14989.600000 0 0 1
11.857361 26.021981 -16.333220 32.931969 1.143240 2.089746 0.102106 -0.021682 -52238.600000 0 0 1
12.572261 24.806281 -16.134220 32.151615 1.101709 2.096494 0.077257 -0.014226 -120360.000000 0 0 1
11.744761 23.720081 -15.816420 30.834085 1.111044 2.109417 0.107174 -0.012580 379949.000000 0 0 1
12.586561 22.426081 -16.053420 30.316050 1.059360 2.128849 0.087610 -0.012896 450745.000000 0 0 1
13.133561 22.335881 -17.357820 31.187753 1.039245 2.161034 0.080117 -0.009627 -135953.000000 0 0 1
14.097261 21.296781 -17.356820 30.879521 0.986071 2.167697 0.084453 -0.005332 -38199.700000 0 0 1
13.578661 19.931381 -17.919820 30.045964 0.972751 2.209822 0.098545 -0.011436 669139.000000 0 0 1
12.671561 19.385281 -16.908720 28.675118 0.991846 2.201441 0.096826 -0.018206 384314.000000 0 0 1
12.196861 18.071181 -17.029620 27.664760 0.977092 2.233906 0.090000 -0.029502 -105503.000000 0 0 1
13.241561 16.947581 -16.956320 27.387519 0.907547 2.238425 0.084936 -0.032262 -153673.000000 0 0 1
13.896761 16.799781 -15.700520 26.867433 0.879689 2.194900 0.088865 -0.032600 161558.000000 0 0 1
14.789361 15.703781 -15.836020 26.760296 0.815377 2.204053 0.085641 -0.036184 -991448.000000 0 0 1
15.365161 15.191481 -14.483420 26.012280 0.779714 2.161315 0.118606 -0.031932 -349371.000000 0 0 1
16.377961 15.996881 -13.871320 26.768476 0.773628 2.115537 0.099400 -0.025346 447028.000000 0 0 1
17.632561 16.078081 -14.500720 27.922800 0.739318 2.116845 0.074422 -0.020539 -584622.000000 0 0 1
18.477261 14.757381 -14.653920 27.819541 0.673934 2.125568 0.065649 -0.029355 -710195.000000 0 0 1
19.008761 14.159181 -13.484020 27.269657 0.640214 2.088021 0.076882 -0.040636 352756.000000 0 0 1
20.176561 14.800581 -12.982320 28.190272 0.632892 2.049383 0.077507 -0.035517 324593.000000 0 0 1
21.232861 13.820781 -12.329620 28.175661 0.577018 2.023722 0.092226 -0.040490 -7612.240000 0 0 1
20.779961 13.213181 -11.124220 27.021162 0.566372 1.995099 0.168821 -0.035445 325812.000000 0 0 1
21.450761 12.018781 -10.721220 26.824071 0.510714 1.981971 0.171551 -0.018145 -274938.000000 0 0 1
21.085561 10.746081 -11.539520 26.329445 0.471331 2.024474 0.117420 -0.025792 -392381.000000 0 0 1
21.683761 10.670081 -12.827320 27.360122 0.457289 2.058765 0.097027 -0.015778 300587.000000 0 0 1
21.575961 9.444981 -13.487420 27.141117 0.412624 2.090862 0.091977 -0.022706 -69424.000000 0 0 1
22.286561 8.207081 -12.858720 27.007289 0.352842 2.067034 0.091300 -0.009686 -526448.000000 0 0 1
21.572461 7.771381 -11.747120 25.763545 0.345773 2.044246 0.094901 -0.026002 343861.000000 0 0 1
22.057061 6.581281 -11.060020 25.537252 0.289966 2.018718 0.096895 -0.011195 -1229610.000000 0 0 1
22.008361 5.186081 -11.709120 25.463049 0.231420 2.048620 0.099016 -0.015831 -537067.000000 0 0 1
20.751561 4.576381 -11.885320 24.348129 0.217058 2.080755 0.062416 -0.023153 354330.000000 0 1 0
19.865961 5.291681 -12.743720 24.188028 0.260325 2.125699 0.023133 -0.028560 -646396.000000 0 1 0
18.824961 4.372581 -13.402120 23.518406 0.228229 2.177128 0.017119 -0.027595 62324.900000 0 1 0
19.498661 3.527881 -14.323720 24.450208 0.178993 2.196703 0.034160 -0.027995 413888.000000 0 1 0
19.114061 2.186981 -14.152920 23.883789 0.113922 2.205047 0.052015 -0.020616 -154709.000000 0 1 0
20.148861 1.165581 -14.707820 24.973089 0.057784 2.200551 0.077902 -0.016192 48876.400000 0 1 0
21.370661 1.193081 -13.971820 25.560523 0.055770 2.149115 0.096283 -0.006527 1022940.000000 0 0 1
22.503961 0.506881 -14.550920 26.803255 0.022520 2.144658 0.065916 -0.017712 711136.000000 0 0 1
22.354561 -1.036119 -14.699520 26.774537 -0.046316 2.151977 0.060097 -0.015927 -437962.000000 0 0 1
21.562861 -1.384819 -15.842920 26.793149 -0.064134 2.203472 0.051269 -0.010687 471972.000000 0 0 1
22.223861 -2.420319 -16.567620 27.825240 -0.108479 2.208581 0.042919 -0.017019 131369.000000 0 0 1
21.255161 -3.231719 -17.498620 27.720526 -0.150888 2.253962 0.040796 -0.013629 267669.000000 0 0 1
20.314261 -3.926319 -16.686120 26.580289 -0.190925 2.249472 0.057514 -0.016727 -47097.000000 0 0 1
19.440961 -4.644819 -17.488120 26.558608 -0.234523 2.289584 0.055069 -0.016756 -608616.000000 0 0 1
18.715361 -5.779419 -16.796820 25.803093 -0.299516 2.279647 0.066972 -0.017261 -688920.000000 0 0 1
19.598761 -6.655019 -16.196120 26.281458 -0.327347 2.234777 0.071463 -0.014644 560029.000000 0 0 1
18.901961 -7.755019 -15.594120 25.702160 -0.389333 2.222729 0.081998 -0.014006 41012.100000 0 0 1
20.024861 -8.675819 -15.141720 26.561939 -0.408840 2.177367 0.107609 -0.018069 -59837.500000 0 0 1
20.637161 -9.334719 -16.242920 27.872242 -0.424786 2.192921 0.099986 -0.014493 358641.000000 0 0 1
21.324561 -10.475019 -15.783720 28.523477 -0.456598 2.157188 0.093853 -0.018683 -267283.000000 0 0 1
21.849761 -11.362419 -16.956620 29.900562 -0.479539 2.173777 0.084806 -0.015276 727626.000000 0 0 1
22.988361 -10.849119 -17.698520 30.974276 -0.440948 2.179000 0.083699 -0.016290 1086520.000000 0 0 1
23.617461 -11.813819 -18.519620 32.254102 -0.463820 2.182397 0.084544 -0.020059 -283772.000000 0 0 1
22.958161 -12.038719 -19.908020 32.685428 -0.482958 2.225696 0.102725 -0.017740 1214430.000000 0 0 1
21.576161 -12.481619 -19.869720 31.876752 -0.524454 2.243790 0.114329 -0.027129 1268950.000000 0 0 1
21.353561 -13.879119 -19.771020 32.241243 -0.576352 2.230929 0.100020 -0.013764 96425.700000 0 0 1
19.841561 -14.203119 -19.617520 31.309156 -0.621269 2.247947 0.106184 -0.017065 589802.000000 0 0 1
19.032761 -13.925919 -20.746020 31.409785 -0.631674 2.292275 0.104412 -0.008700 112035.000000 0 0 1
17.636261 -14.084519 -20.560920 30.531342 -0.673894 2.309644 0.082133 -0.003680 362244.000000 0 0 1
16.824661 -13.424919 -21.677720 30.548670 -0.673478 2.359745 0.061892 -0.006510 -305904.000000 0 0 1
16.972061 -14.133419 -22.892320 31.809790 -0.694392 2.374113 0.058135 -0.003800 404067.000000 0 0 1
16.385861 -13.389819 -23.979920 31.981561 -0.685115 2.418563 0.066293 -0.008799 -6951.980000 0 0 1
16.415661 -14.184719 -25.328890 33.350155 -0.712621 2.433315 0.055647 -0.019185 -251241.000000 0 0 1
15.506861 -15.282219 -25.341920 33.409907 -0.778102 2.431828 0.052311 -0.016998 145735.000000 0 0 1
15.504061 -16.053519 -26.504880 34.649676 -0.802808 2.441743 0.056753 -0.018365 -272514.000000 0 0 1
16.614961 -17.105419 -26.622830 35.741116 -0.799942 2.411151 0.058851 -0.021733 27913.100000 0 0 1
17.954861 -16.685219 -26.757120 36.286596 -0.748762 2.399984 0.067598 -0.019622 -351740.000000 0 0 1
18.757861 -17.773219 -27.073380 37.426095 -0.758451 2.379485 0.076479 -0.014553 -696896.000000 0 0 1
20.231661 -17.376819 -27.081560 38.009010 -0.709634 2.363856 0.083124 -0.010130 -567287.000000 0 0 1
20.676361 -17.209619 -25.744540 37.235255 -0.694148 2.334225 0.095872 -0.012928 -262449.000000 0 0 1
22.041161 -16.901619 -25.623590 37.789494 -0.654180 2.315918 0.091416 -0.010557 -241618.000000 0 0 1
22.410761 -16.344919 -24.206520 36.815136 -0.630143 2.288313 0.100020 -0.009244 -3760.910000 0 0 1
22.148261 -14.963819 -23.863320 35.831821 -0.594176 2.299605 0.102570 -0.013742 938180.000000 0 0 1
20.765861 -14.534919 -23.863220 34.812902 -0.610688 2.326046 0.124198 -0.013109 1050730.000000 0 0 1
20.577261 -13.157519 -23.286020 33.745855 -0.568902 2.332342 0.119420 -0.009976 -88309.800000 0 0 1
21.080361 -12.183719 -24.184820 34.318073 -0.524060 2.352832 0.123492 -0.016468 280237.000000 0 0 1
21.026261 -10.929919 -23.491920 33.368205 -0.479379 2.351840 0.119241 -0.015508 9941.650000 0 0 1
21.274861 -9.732619 -24.425420 33.822252 -0.429049 2.377731 0.118580 -0.022529 -122773.000000 0 0 1
20.901661 -8.600819 -23.741520 32.779770 -0.390372 2.380777 0.115365 -0.022490 79020.200000 0 0 1
20.591461 -7.522319 -24.602420 32.952582 -0.350251 2.413734 0.091121 -0.022451 -335802.000000 0 0 1
19.964161 -6.380019 -23.806020 31.717487 -0.309316 2.419712 0.092949 -0.023080 286323.000000 0 0 1
18.709561 -6.671919 -23.180520 30.527016 -0.342547 2.433101 0.107552 -0.019199 502626.000000 0 0 1
18.285461 -5.632319 -22.311920 29.392225 -0.298800 2.432741 0.093509 -0.015338 7297.950000 0 0 1
18.786661 -5.751919 -20.811220 28.620449 -0.297108 2.384950 0.081556 -0.019731 -406055.000000 0 0 1
18.334561 -6.870219 -20.085120 28.049387 -0.358520 2.368942 0.090794 -0.018176 214825.000000 0 0 1
18.519261 -8.176819 -20.604120 28.885172 -0.415788 2.365008 0.103179 -0.017827 -248892.000000 0 0 1
18.084261 -9.312819 -19.665120 28.292862 -0.475550 2.339294 0.090676 -0.014499 1167570.000000 0 0 1
16.662261 -9.398719 -19.416720 27.257584 -0.513583 2.363626 0.071651 -0.010317 900821.000000 0 0 1
16.342461 -10.461019 -18.582120 26.866413 -0.569393 2.334566 0.077505 -0.009875 -254981.000000 0 0 1
14.869761 -10.751719 -18.223020 25.860930 -0.626035 2.352732 0.075504 -0.012811 276411.000000 0 0 1
14.148561 -9.929919 -17.260320 24.427520 -0.611955 2.355468 0.079537 -0.015880 564704.000000 0 1 0
14.059361 -8.527819 -17.540520 24.042861 -0.545228 2.388463 0.071302 -0.025487 -95922.300000 0 1 0
12.806861 -7.792519 -16.959320 22.635317 -0.546620 2.417712 0.071027 -0.015740 -153105.000000 0 1 0
11.707461 -7.672119 -17.785720 22.633115 -0.580105 2.474829 0.063190 -0.022090 -867863.000000 0 1 0
10.934161 -6.565219 -17.426020 21.594540 -0.540737 2.509790 0.051560 -0.016985 184422.000000 0 1 0
9.485161 -6.641419 -18.005620 21.407454 -0.610854 2.570094 0.044061 -0.011406 461069.000000 0 1 0
9.380661 -6.503319 -19.453820 22.555289 -0.606194 2.610975 0.042985 -0.010940 1033040.000000 0 1 0
8.032061 -6.024419 -19.695120 22.106682 -0.643531 2.670147 0.041753 -0.013615 1050980.000000 0 1 0
7.546261 -5.737619 -21.088020 23.120790 -0.650077 2.719126 0.042595 -0.021815 -148101.000000 0 1 0
7.383061 -6.975119 -21.749620 24.004330 -0.756994 2.704700 0.035494 -0.016179 319721.000000 0 1 0
6.594661 -6.812019 -22.941420 24.823415 -0.801609 2.749692 0.038481 -0.019276 -51610.600000 0 1 0
6.780761 -7.962519 -23.937520 26.122506 -0.865383 2.729679 0.031137 -0.015052 -247732.000000 0 0 1
6.140861 -9.175319 -23.664820 26.113605 -0.980986 2.705066 0.046587 -0.018184 101342.000000 0 0 1
6.595061 -10.146419 -24.642220 27.453300 -0.994429 2.685102 0.055469 -0.008814 51409.700000 0 0 1
5.789661 -11.478019 -24.667720 27.816569 -1.103625 2.661170 0.060766 -0.012017 250745.000000 0 0 1
6.373761 -12.491119 -23.824920 27.645609 -1.098972 2.609599 0.049827 -0.008790 70646.400000 0 0 1
5.525561 -13.615119 -23.650820 27.843574 -1.185266 2.585677 0.078694 -0.019720 -947891.000000 0 0 1
6.019461 -14.564619 -22.522720 27.488815 -1.178883 2.531057 0.080218 -0.019201 165539.000000 0 0 1
7.177161 -15.344419 -22.855520 28.448860 -1.133290 2.503762 0.046693 -0.011854 441530.000000 0 0 1
8.378361 -14.675319 -23.174920 28.681682 -1.052037 2.511553 0.057983 -0.010745 -255125.000000 0 0 1
9.075461 -13.825619 -22.017820 27.537178 -0.989919 2.497370 0.051960 -0.005071 -224536.000000 0 0 1
9.528961 -14.433719 -20.769220 27.027650 -0.987293 2.447201 0.039859 0.000595 738916.000000 0 0 1
8.448261 -15.007519 -20.023420 26.410909 -1.058076 2.431267 0.028766 0.001811 255130.000000 0 0 1
8.868061 -15.506719 -18.613020 25.798166 -1.051306 2.376743 0.040933 0.000575 334368.000000 0 0 1
9.763061 -16.614919 -18.649320 26.817346 -1.039538 2.339801 0.056629 0.000144 -2574.600000 0 0 1
10.223861 -17.137419 -17.396720 26.473843 -1.032894 2.287799 0.068539 -0.007320 181357.000000 0 0 1
9.160261 -17.859519 -16.489020 25.976154 -1.096877 2.258514 0.061179 -0.012051 70443.900000 0 0 1
8.776961 -19.231719 -16.766220 26.981479 -1.142650 2.241321 0.072565 -0.012441 272374.000000 0 0 1
8.059861 -19.577519 -17.964320 27.766120 -1.180254 2.274423 0.067406 -0.005625 -20921.700000 0 0 1
6.570361 -19.189719 -17.872620 27.034155 -1.240917 2.293097 0.058919 0.001486 -576568.000000 0 0 1
6.205061 -17.849819 -17.685720 25.882495 -1.236238 2.323080 0.053016 0.001345 -735755.000000 0 0 1
4.838161 -17.612219 -17.559220 25.336225 -1.302705 2.336505 0.048394 -0.003784 -331838.000000 0 0 1
4.673861 -16.029919 -17.428020 24.135848 -1.287090 2.377601 0.037762 -0.003488 18881.500000 0 1 0
5.008761 -15.496019 -16.188520 22.962632 -1.258167 2.353211 0.022894 -0.008599 166922.000000 0 1 0
4.731761 -14.104119 -16.045220 21.880695 -1.247108 2.393966 0.009308 -0.006132 -203045.000000 0 1 0
10.376961 29.668681 -17.890420 36.165993 1.234334 2.088257 0.099575 -0.040945 -549588.000000 0 0 1
9.627361 29.005281 -18.812020 35.887108 1.250321 2.122572 0.129284 -0.048501 -1426150.000000 0 0 1
8.670261 28.251081 -18.207020 34.710122 1.273021 2.122977 0.111942 -0.046833 -1069950.000000 0 0 1
7.715761 27.572681 -19.173420 34.458754 1.297942 2.160863 0.110780 -0.039730 -157254.000000 0 0 1
6.838961 28.567481 -19.701520 35.369793 1.335822 2.161584 0.119845 -0.052371 -1381.860000 0 0 1
6.008261 28.061281 -20.765720 35.422448 1.359869 2.197194 0.094253 -0.048136 859133.000000 0 0 1
5.064561 29.190781 -21.338820 36.511597 1.399008 2.194985 0.087585 -0.050846 475375.000000 0 0 1
3.998661 29.573681 -20.493220 36.201712 1.436401 2.172544 0.071254 -0.043177 120395.000000 0 0 1
3.139161 30.493881 -21.163020 37.250564 1.468214 2.175023 0.060897 -0.046287 93103.400000 0 0 1
1.654761 30.582881 -20.665020 36.947177 1.516742 2.164353 0.075691 -0.037550 965393.000000 0 0 1
0.846961 29.411581 -20.917020 36.100972 1.542007 2.188793 0.085644 -0.047848 50669.800000 0 0 1
0.501561 29.296281 -22.292620 36.816906 1.553678 2.221190 0.119804 -0.071407 -625074.000000 0 0 1
-0.258339 27.943081 -22.457620 35.850066 -1.561551 2.247763 0.125819 -0.066757 -162574.000000 0 0 1
-1.485139 27.839581 -21.813420 35.398774 -1.517501 2.234730 0.127253 -0.060778 -479377.000000 0 0 1
-1.981839 26.493381 -21.847020 34.396500 -1.496130 2.259002 0.144452 -0.072303 137998.000000 0 0 1
-3.043639 26.201081 -20.776720 33.577261 -1.455150 2.237977 0.108695 -0.060513 800073.000000 0 0 1
-4.309939 26.867781 -20.984520 34.362819 -1.411738 2.227709 0.100976 -0.059338 906019.000000 0 0 1
-5.364539 26.207781 -20.305020 33.584519 -1.368893 2.220053 0.087074 -0.054797 923405.000000 0 0 1
-6.609239 27.158881 -20.108020 34.432823 -1.332082 2.194417 0.087352 -0.069751 1182230.000000 0 0 1
-7.777239 26.539781 -19.573220 33.881505 -1.285736 2.186700 0.078618 -0.048613 281513.000000 0 0 1
-8.670939 27.335081 -18.838020 34.311264 -1.263627 2.152003 0.095557 -0.058703 556109.000000 0 0 1
-9.890439 26.579581 -18.232920 33.715490 -1.214565 2.142170 0.095418 -0.048684 563980.000000 0 0 1
-9.544839 25.940581 -16.988820 32.444378 -1.218221 2.121901 0.102430 -0.057055 -813181.000000 0 0 1
-10.643339 25.271481 -16.509520 32.007697 -1.172183 2.112736 0.067457 -0.036821 -739937.000000 0 0 1
-10.536339 24.627281 -15.106920 30.752828 -1.166529 2.084305 0.081639 -0.022406 -224126.000000 0 0 1
-9.737639 23.480981 -15.092720 29.562954 -1.177679 2.106595 0.082955 -0.025589 -54832.100000 0 0 1
-10.198139 22.644581 -14.018220 28.518232 -1.147646 2.084668 0.091570 -0.022969 200118.000000 0 0 1
-9.654639 21.170981 -13.933820 27.121464 -1.142938 2.110354 0.105023 -0.018595 230763.000000 0 0 1
-10.431839 20.190381 -14.627320 27.026528 -1.093899 2.142685 0.087587 -0.018450 -289892.000000 0 0 1
-10.505739 20.240281 -16.036220 27.878305 -1.092024 2.183672 0.094748 -0.015600 84800.900000 0 0 1
-9.270339 20.051281 -16.964620 27.853032 -1.137735 2.225692 0.098426 -0.024042 99491.900000 0 0 1
-8.810139 18.721081 -17.004820 26.781735 -1.130944 2.258728 0.090452 -0.021948 477769.000000 0 0 1
-7.762239 18.627981 -18.003520 27.044052 -1.175979 2.299242 0.082538 -0.025888 604580.000000 0 0 1
-7.147839 17.245981 -18.313220 26.151281 -1.177883 2.346586 0.065591 -0.020571 -575465.000000 0 0 1
-8.069539 16.325081 -18.759720 26.144843 -1.111717 2.371047 0.076152 -0.027870 -883750.000000 0 0 1
-7.663739 15.394281 -19.770420 26.202792 -1.108886 2.425712 0.075527 -0.034974 279185.000000 0 0 1
-6.417039 14.448381 -19.701720 25.260480 -1.152830 2.465370 0.053076 -0.023525 305125.000000 0 0 1
-6.477539 13.413181 -18.770920 23.962875 -1.120903 2.470807 0.036855 -0.021593 1230330.000000 0 1 0
-5.208139 12.762781 -18.447620 23.028851 -1.183350 2.499870 0.035076 -0.013005 1391790.000000 0 1 0
-4.328339 13.289881 -17.318520 22.255035 -1.255943 2.462566 0.018757 -0.003463 44179.900000 0 1 0
-3.804239 14.566881 -17.458120 23.053247 -1.315345 2.429958 0.036727 -0.012521 -217665.000000 0 1 0
-3.243839 15.169881 -16.259720 22.472790 -1.360135 2.379698 0.031086 -0.006492 570091.000000 0 1 0
-2.525839 16.538281 -16.396820 23.425420 -1.419241 2.346136 0.061550 -0.005533 808012.000000 0 1 0
-3.440639 17.620981 -16.649320 24.485441 -1.377964 2.318516 0.066515 -0.019317 259617.000000 0 1 0
-2.692339 18.796381 -16.849320 25.386063 -1.428527 2.296582 0.079464 -0.019522 -180573.000000 0 0 1
-3.522639 20.021681 -17.225620 26.645800 -1.396638 2.273740 0.085290 -0.020680 -44612.500000 0 0 1
-3.894639 19.892681 -18.597920 27.509446 -1.377459 2.313193 0.090852 -0.025146 13588.500000 0 0 1
-4.499339 21.057081 -19.194120 28.845432 -1.360288 2.298843 0.112560 -0.026246 -492208.000000 0 0 1
-3.568139 22.248781 -19.357120 29.705857 -1.411776 2.280523 0.109068 -0.040021 -549588.000000 0 0 1
-2.722139 22.180781 -20.534720 30.349165 -1.448682 2.313953 0.121223 -0.033905 -12172.800000 0 0 1
-1.531539 22.904881 -20.487920 30.769044 -1.504031 2.299444 0.105384 -0.040129 -42058.800000 0 0 1
-0.437239 22.226881 -19.632720 29.659216 -1.551127 2.294205 0.117137 -0.036618 -791170.000000 0 0 1
-0.498639 22.452881 -18.210620 28.913789 -1.548592 2.252124 0.106318 -0.020335 -468417.000000 0 0 1
0.429461 21.607681 -17.577320 27.857467 1.550924 2.253604 0.108041 -0.013582 -28104.400000 0 0 1
0.485761 21.496381 -16.018220 26.812567 1.548203 2.211070 0.104928 -0.013465 122016.000000 0 0 1
-0.560839 20.744081 -15.399720 25.841494 -1.543767 2.209220 0.098659 -0.010132 170354.000000 0 0 1
-0.539239 20.924681 -13.992220 25.177674 -1.545032 2.160048 0.095622 -0.009683 149089.000000 0 0 1
-1.472839 19.953681 -13.256520 24.001124 -1.497117 2.155952 0.075294 -0.011605 97207.200000 0 1 0
-0.979039 18.608081 -13.291520 22.888506 -1.518231 2.190393 0.058070 -0.011120 -133708.000000 0 1 0
-1.780339 17.676681 -12.615620 21.789642 -1.470418 2.188265 0.043180 -0.013549 -266536.000000 0 1 0
-1.454239 16.192681 -12.801720 20.693036 -1.481228 2.237818 0.025640 -0.011356 -541387.000000 0 1 0
-0.220339 15.942681 -12.138720 20.039115 -1.556977 2.221506 0.022047 -0.007903 293137.000000 0 1 0
0.120961 14.544081 -12.082020 18.908203 1.562480 2.263972 0.019060 -0.006391 -80271.600000 0 1 0
0.700761 14.047781 -13.383620 19.415265 1.520954 2.331367 0.008165 0.001019 -963579.000000 0 1 0
-0.142939 13.703981 -14.436020 19.905230 -1.560366 2.382176 0.015782 -0.009549 -584173.000000 0 1 0
0.603061 13.011981 -15.402320 20.171931 1.524483 2.439592 0.010022 -0.003575 -239095.000000 0 1 0
-0.080639 12.689481 -16.806220 21.058928 -1.564442 2.494860 0.018931 -0.000942 109818.000000 0 1 0
-0.371439 13.855381 -17.531020 22.348293 -1.543994 2.472598 0.025116 -0.006832 -108615.000000 0 1 0
-0.348439 13.646181 -18.942820 23.348878 -1.545268 2.517160 0.036041 -0.007853 -247258.000000 0 1 0
-0.969039 14.906581 -19.630120 24.667525 -1.505880 2.491104 0.052074 -0.009414 284726.000000 0 1 0
-0.270339 16.168181 -19.495620 25.329081 -1.554077 2.449157 0.058057 -0.020979 373592.000000 0 0 1
-1.037039 17.234781 -20.055020 26.463502 -1.510697 2.430788 0.092105 -0.030415 348836.000000 0 0 1
-0.086039 18.421781 -20.293420 27.407888 -1.566126 2.404495 0.112197 -0.036161 455061.000000 0 0 1
0.747961 18.239981 -21.420120 28.143878 1.529813 2.435793 0.126428 -0.050689 -384978.000000 0 0 1
1.706861 19.214881 -21.599620 28.959776 1.482199 2.412605 0.134004 -0.050341 -302604.000000 0 0 1
2.320561 19.221781 -23.002220 30.065994 1.450652 2.441927 0.149687 -0.060772 -324881.000000 0 0 1
3.292461 18.258281 -23.250620 29.745528 1.392387 2.468105 0.111811 -0.053489 -168944.000000 0 0 1
3.856861 18.360881 -24.572120 30.915795 1.363748 2.489487 0.123537 -0.063820 -5059.810000 0 0 1
4.757461 17.232781 -24.965220 30.706097 1.301435 2.520147 0.082145 -0.045841 -367962.000000 0 0 1
5.999761 17.111081 -24.298020 30.317981 1.233555 2.500494 0.067114 -0.039627 568979.000000 0 0 1
6.860861 16.003681 -24.621320 30.156237 1.165792 2.526047 0.051375 -0.033178 716853.000000 0 0 1
7.509861 16.004281 -26.035680 31.470489 1.132057 2.545089 0.050351 -0.037604 -458150.000000 0 0 1
8.635561 16.860181 -26.244880 32.367149 1.097447 2.516398 0.034136 -0.033394 390377.000000 0 0 1
8.938361 17.152181 -27.619320 33.718221 1.090395 2.530674 0.065537 -0.039243 164663.000000 0 0 1
9.582761 15.952481 -28.395840 33.950474 1.029857 2.561460 0.064115 -0.034940 -1122250.000000 0 0 1
10.874461 15.688581 -27.979670 33.871041 0.964686 2.542885 0.069384 -0.032391 -935465.000000 0 0 1
11.237861 14.373381 -28.385620 33.743548 0.907219 2.570325 0.064716 -0.024376 -341950.000000 0 0 1
10.914861 13.247581 -27.391930 32.325693 0.881643 2.581815 0.058159 -0.025007 1132800.000000 0 0 1
9.461761 13.128081 -27.415210 31.834968 0.946295 2.608357 0.056820 -0.024270 1164730.000000 0 0 1
9.082561 12.566481 -26.181750 30.428496 0.944957 2.606920 0.042563 -0.022949 8922.360000 0 0 1
7.669061 11.964581 -26.207540 29.812763 1.000788 2.644706 0.059141 -0.028905 74110.000000 0 0 1
6.584661 12.837981 -26.421280 30.104079 1.096878 2.641764 0.084458 -0.033098 -243107.000000 0 0 1
5.351261 12.202381 -26.231620 29.421624 1.157511 2.671610 0.096653 -0.038749 101666.000000 0 0 1
4.047561 13.004581 -26.428850 29.731902 1.269059 2.665747 0.124158 -0.045629 -192573.000000 0 0 1
3.620561 13.191581 -27.786780 30.971461 1.302932 2.684125 0.128730 -0.050509 386563.000000 0 0 1
4.142761 14.382681 -28.369930 32.076111 1.290349 2.656125 0.142021 -0.053480 76547.300000 0 0 1
4.015161 14.321781 -29.927220 33.419656 1.297460 2.680344 0.164509 -0.054745 -282041.000000 0 0 1
5.081861 13.627281 -30.504310 33.794098 1.213852 2.696689 0.149233 -0.051009 -269483.000000 0 0 1
4.991061 13.368281 -31.855470 34.905481 1.213472 2.720446 0.144661 -0.053400 -524979.000000 0 0 1
6.038661 12.316081 -32.322020 35.112167 1.114933 2.740247 0.142514 -0.042940 1165840.000000 0 0 1
7.442361 12.638181 -32.297490 35.471682 1.038594 2.715324 0.141039 -0.038817 1261290.000000 0 0 1
8.062361 12.902881 -31.018690 34.549170 1.012305 2.685574 0.116547 -0.033891 -454937.000000 0 0 1
8.185761 11.720181 -30.048720 33.276041 0.961123 2.697530 0.116395 -0.032104 -672542.000000 0 0 1
9.121861 10.764181 -30.387980 33.503810 0.867798 2.706903 0.080832 -0.021408 -354551.000000 0 0 1
9.003361 9.696781 -29.423980 32.262341 0.822462 2.718985 0.076464 -0.024767 410302.000000 0 0 1
9.949561 8.501381 -29.839570 32.583235 0.707071 2.728280 0.062105 -0.026219 611710.000000 0 0 1
11.290961 8.669381 -29.420450 32.683434 0.654806 2.690942 0.046781 -0.024747 -40330.600000 0 0 1
11.959461 7.413481 -29.559490 32.737622 0.554912 2.697314 0.035457 -0.020323 96343.600000 0 0 1
13.270461 7.423281 -28.698290 32.477717 0.510019 2.654356 0.035210 -0.011403 549951.000000 0 0 1
13.982161 6.211581 -28.534740 32.377708 0.418062 2.649420 0.076657 -0.025512 332472.000000 0 0 1
14.818861 5.947181 -29.670540 33.694340 0.381648 2.647880 0.071232 -0.019322 -360094.000000 0 0 1
15.770161 4.735781 -29.372980 33.673395 0.291732 2.630663 0.079529 -0.026098 416148.000000 0 0 1
16.693961 5.008381 -28.314600 33.248892 0.291467 2.589817 0.069123 -0.027204 710082.000000 0 0 1
17.481361 3.816881 -28.064710 33.283547 0.214966 2.574006 0.069817 -0.023219 469532.000000 0 0 1
18.276461 3.860981 -26.726190 32.607138 0.208193 2.531583 0.067189 -0.024280 709147.000000 0 0 1
19.339661 4.830481 -26.589510 33.231884 0.244763 2.498292 0.086755 -0.032194 890581.000000 0 0 1
19.770161 4.934281 -25.246800 32.443910 0.244585 2.462539 0.092048 -0.026075 180714.000000 0 0 1
20.938461 5.936481 -25.015470 33.157725 0.276270 2.425595 0.077738 -0.021924 129844.000000 0 0 1
20.505861 7.279081 -25.189310 33.286284 0.341101 2.429119 0.090286 -0.020069 626782.000000 0 0 1
21.515961 8.083181 -25.796910 34.550759 0.359369 2.413790 0.099884 -0.032135 -183175.000000 0 0 1
21.686761 7.901781 -27.349810 35.787789 0.349410 2.440630 0.093048 -0.029689 -212592.000000 0 0 1
20.623461 8.246981 -28.189760 35.888751 0.380406 2.474262 0.084405 -0.013943 -330446.000000 0 0 1
19.492061 7.418981 -28.210390 35.082871 0.363685 2.504969 0.075533 -0.016144 -134537.000000 0 0 1
18.211061 8.112681 -28.732640 34.971745 0.419090 2.535001 0.077577 -0.009223 -68867.200000 0 0 1
18.084261 8.276981 -30.131810 36.103669 0.429230 2.558187 0.058594 -0.005382 274745.000000 0 0 1
16.951261 9.053781 -30.491130 36.041992 0.490559 2.579214 0.031989 -0.001817 -85529.200000 0 0 1
16.375761 8.765281 -31.831890 36.854646 0.491456 2.613390 0.021400 0.000791 -84897.600000 0 0 1
15.591061 7.613281 -32.039370 36.435758 0.454252 2.645268 0.041268 -0.006055 -208543.000000 0 0 1
14.553361 7.751981 -32.942790 36.839122 0.489432 2.677513 0.034443 0.002667 -136599.000000 0 0 1
14.010461 6.361081 -33.426000 36.797471 0.426195 2.710184 0.044609 0.000384 197667.000000 0 0 1
13.389061 5.619081 -32.366930 35.474768 0.397353 2.719889 0.053202 -0.010608 -260372.000000 0 0 1
12.506761 4.675181 -32.842720 35.453077 0.357729 2.755457 0.058737 -0.016264 -424263.000000 0 0 1
12.186661 3.652581 -31.740710 34.195449 0.291199 2.760381 0.071672 -0.015180 -551390.000000 0 0 1
13.286261 2.898381 -31.363900 34.185078 0.214784 2.732478 0.092333 -0.020812 -271792.000000 0 0 1
12.981761 1.825081 -30.426590 33.130566 0.139673 2.734774 0.095149 -0.020039 497695.000000 0 0 1
12.117061 0.570781 -30.899930 33.195702 0.047071 2.767505 0.088769 -0.010716 819851.000000 0 0 1
12.884861 -0.449319 -31.552050 34.084504 -0.034858 2.753680 0.083464 -0.008881 82970.500000 0 0 1
13.710661 -1.207919 -30.727140 33.668954 -0.087874 2.720457 0.082338 -0.010258 57898.900000 0 0 1
14.226661 -2.546019 -31.433110 34.596539 -0.177086 2.710626 0.077951 -0.011020 -246244.000000 0 0 1
13.434761 -3.654719 -31.313060 34.268900 -0.265607 2.723206 0.082651 -0.009209 -588114.000000 0 0 1
14.032261 -4.784319 -31.928050 35.202194 -0.328591 2.706878 0.101935 -0.007916 -239305.000000 0 0 1
13.343461 -6.131319 -31.864460 35.085394 -0.430726 2.709753 0.092709 -0.012816 -368991.000000 0 0 1
13.518861 -6.672519 -30.567270 34.082842 -0.458491 2.683397 0.086520 -0.003242 75315.700000 0 0 1
13.157661 -8.007919 -30.476570 34.147799 -0.546728 2.673632 0.073884 -0.015933 -116824.000000 0 0 1
13.299961 -8.687419 -29.078020 33.134445 -0.578615 2.641581 0.051968 -0.014714 -65744.800000 0 0 1
14.646361 -8.758019 -28.637600 33.336631 -0.538922 2.604194 0.072904 -0.013052 228825.000000 0 0 1
14.862461 -9.616719 -27.499970 32.705082 -0.574297 2.569642 0.076165 -0.023688 -21399.200000 0 0 1
14.790061 -11.196219 -27.761980 33.389052 -0.647972 2.552544 0.059154 -0.018974 -578435.000000 0 0 1
13.500661 -11.665619 -28.025020 33.222828 -0.712610 2.574650 0.033467 -0.022964 -434968.000000 0 0 1
13.362661 -13.019719 -28.441090 34.014253 -0.772400 2.561026 0.035728 -0.026588 136247.000000 0 0 1
-10.527739 -3.087719 -17.716520 20.838483 0.285293 2.587129 0.046589 -0.002079 367556.000000 0 1 0
-11.234539 -2.661819 -18.896320 22.144324 0.232642 2.593127 0.057069 -0.005571 210828.000000 0 1 0
-12.189539 -3.577219 -19.364220 23.159326 0.285452 2.560987 0.061244 -0.006103 -565581.000000 0 1 0
-12.925739 -2.967419 -20.571120 24.475524 0.225664 2.568960 0.067194 -0.020276 177366.000000 0 1 0
-13.861439 -2.013219 -20.013220 24.427884 0.144230 2.530946 0.068037 -0.013983 -88502.100000 0 1 0
-14.658439 -1.488719 -20.987020 25.642565 0.101214 2.529495 0.076322 -0.017449 -301068.000000 0 0 1
-15.405839 -0.175719 -20.656320 25.769251 0.011406 2.500743 0.082667 -0.011538 390382.000000 0 0 1
-14.672839 0.959081 -21.066620 25.690748 -0.065272 2.532221 0.084341 -0.015280 509567.000000 0 0 1
-15.497839 2.081881 -20.787120 26.011951 -0.133534 2.496655 0.090747 -0.000814 220233.000000 0 0 1
-14.980339 3.340581 -21.504220 26.419718 -0.219408 2.521709 0.108977 -0.025326 -111953.000000 0 0 1
-13.770139 3.826081 -20.981520 25.386607 -0.271017 2.543622 0.104604 -0.027413 47117.800000 0 0 1
-13.462939 5.089281 -21.590020 25.947649 -0.361417 2.553609 0.118155 -0.038479 -1271850.000000 0 0 1
-12.172639 5.680481 -21.172820 25.074475 -0.436621 2.576236 0.091679 -0.031483 -1360070.000000 0 0 1
-12.311939 6.164881 -19.840420 24.150194 -0.464226 2.534908 0.094459 -0.036555 452150.000000 0 1 0
-11.085839 6.622381 -19.311120 23.230823 -0.538486 2.552187 0.066549 -0.025135 -203174.000000 0 1 0
-11.173939 7.039981 -17.830620 22.188945 -0.562212 2.504084 0.066772 -0.023885 -20024.500000 0 1 0
-11.746039 8.332881 -17.635120 22.768483 -0.617020 2.456785 0.076801 -0.036061 837418.000000 0 1 0
-13.057339 8.286181 -17.042120 23.012795 -0.565473 2.404684 0.116641 -0.023189 759521.000000 0 1 0
-13.750039 9.731181 -17.098720 24.002618 -0.615889 2.363664 0.129133 -0.025681 311038.000000 0 1 0
-12.974439 10.635181 -16.352720 23.427646 -0.686640 2.343410 0.083408 -0.016342 747447.000000 0 1 0
-13.681039 11.856081 -16.573920 24.544497 -0.714056 2.312114 0.101193 -0.023798 287013.000000 0 1 0
-13.100839 13.079681 -15.835620 24.361381 -0.784590 2.278420 0.099700 -0.016822 -144040.000000 0 1 0
-13.315039 13.141581 -14.429720 23.626431 -0.778842 2.227797 0.105819 -0.016002 563011.000000 0 1 0
-12.542239 14.227781 -13.842120 23.480669 -0.848279 2.201250 0.098764 -0.016001 -418355.000000 0 1 0
-12.779039 14.279481 -12.330520 22.787039 -0.840793 2.142565 0.081432 -0.020030 437228.000000 0 1 0
-14.024339 14.710281 -11.799420 23.501080 -0.809265 2.096798 0.062758 -0.018509 1392540.000000 0 1 0
-15.160939 13.869181 -12.206620 23.899996 -0.740930 2.106839 0.074459 -0.016971 592924.000000 0 1 0
-16.516539 14.240581 -11.540320 24.673248 -0.711535 2.057513 0.046878 -0.012295 471824.000000 0 1 0
-17.593339 13.398781 -11.908320 25.116946 -0.650873 2.064755 0.048225 -0.013585 739254.000000 0 0 1
-18.819239 13.813681 -11.273920 25.924560 -0.633195 2.020695 0.098791 -0.016308 141767.000000 0 0 1
-20.102739 13.337281 -11.907320 26.903298 -0.585776 2.029289 0.078262 -0.026241 -708943.000000 0 0 1
-20.499739 11.981981 -11.720020 26.479540 -0.528940 2.029300 0.090201 -0.031667 -308303.000000 0 0 1
-21.618639 11.693981 -12.486520 27.568604 -0.495846 2.040840 0.117688 -0.022540 -454849.000000 0 0 1
-22.378539 10.443081 -11.996520 27.454935 -0.436618 2.023005 0.099681 -0.022726 91693.100000 0 0 1
-21.649339 9.274081 -12.287220 26.564605 -0.404728 2.051655 0.093744 -0.017952 510594.000000 0 0 1
-22.249039 8.246081 -11.511220 26.372823 -0.354931 2.022479 0.089501 -0.017811 8009.450000 0 0 1
-21.309139 7.045981 -11.399920 25.173070 -0.319338 2.040769 0.116556 -0.024339 -191093.000000 0 0 1
-21.219839 6.259881 -12.562420 25.441739 -0.286865 2.087219 0.125821 -0.019437 326507.000000 0 0 1
-20.051539 5.469481 -12.518420 24.262940 -0.266293 2.112911 0.139816 -0.027904 -96811.300000 0 1 0
-19.989839 4.262681 -13.467920 24.477520 -0.210096 2.153419 0.146645 -0.037504 -394904.000000 0 1 0
-20.802639 3.225081 -13.040620 24.763051 -0.153808 2.125411 0.133339 -0.036294 93081.700000 0 1 0
-20.746539 2.203281 -14.000020 25.125165 -0.105803 2.161820 0.136823 -0.035715 -207067.000000 0 0 1
-21.489239 0.887081 -13.732820 25.517928 -0.041257 2.139053 0.139072 -0.034239 658759.000000 0 0 1
-22.904739 0.975781 -13.940220 26.831119 -0.042576 2.117125 0.116749 -0.033158 1082460.000000 0 0 1
-23.491139 -0.303219 -14.168320 27.434775 0.012907 2.113481 0.100529 -0.042266 -404107.000000 0 0 1
-24.798439 -0.268919 -14.953920 28.959534 0.010844 2.113406 0.094133 -0.037413 -766158.000000 0 0 1
-25.897949 0.123681 -14.205920 29.538572 -0.004776 2.072509 0.112433 -0.042923 -897392.000000 0 0 1
-27.089999 -0.048519 -14.898720 30.916699 0.001791 2.073617 0.085218 -0.025176 280129.000000 0 0 1
-28.363239 0.439081 -14.104620 31.679748 -0.015479 2.032222 0.084922 -0.024871 323474.000000 0 0 1
-28.579089 -0.211419 -12.859020 31.339487 0.007398 1.993594 0.099967 -0.027202 472947.000000 0 0 1
-29.859139 0.077781 -12.298120 32.292693 -0.002605 1.961493 0.127739 -0.037379 569289.000000 0 0 1
-30.140939 -0.596819 -10.925420 32.065514 0.019798 1.918481 0.131830 -0.039862 -82077.300000 0 0 1
-30.384369 -2.004119 -10.821120 32.315987 0.065863 1.912246 0.136349 -0.040042 1156460.000000 0 0 1
-29.270179 -2.852519 -11.230020 31.480051 0.097148 1.935566 0.133051 -0.041775 662417.000000 0 0 1
-29.467999 -4.322719 -10.818720 31.687436 0.145653 1.919223 0.132035 -0.037812 75390.300000 0 0 1
-30.506979 -4.901319 -11.613720 33.008744 0.159301 1.930330 0.118734 -0.034595 456109.000000 0 0 1
-30.946759 -6.119819 -11.010420 33.412325 0.195234 1.906604 0.132266 -0.037274 -143306.000000 0 0 1
-30.234889 -7.403619 -11.453220 33.168333 0.240145 1.923361 0.129743 -0.039812 443768.000000 0 0 1
-28.892899 -7.596719 -10.986520 31.831013 0.257108 1.923196 0.104284 -0.036703 758315.000000 0 0 1
-28.229759 -8.667319 -11.693420 31.761262 0.297892 1.947832 0.104230 -0.034333 330465.000000 0 0 1
-26.767829 -8.762719 -11.174720 30.301424 0.316365 1.948498 0.102489 -0.048251 325678.000000 0 0 1
-25.886149 -7.712019 -11.708120 29.438886 0.289548 1.979815 0.075635 -0.032250 1455540.000000 0 0 1
-24.514439 -7.909819 -11.359820 28.152593 0.312114 1.986145 0.099925 -0.037177 585481.000000 0 0 1
-24.088739 -7.559119 -9.880120 27.111334 0.304072 1.943814 0.105845 -0.039282 -514892.000000 0 0 1
-24.418939 -6.231919 -9.427920 26.907380 0.249875 1.928778 0.105265 -0.027310 471057.000000 0 0 1
-25.775709 -6.036619 -9.104920 27.995134 0.230052 1.902054 0.114486 -0.038237 -457715.000000 0 0 1
-26.092649 -4.648719 -8.552120 27.849160 0.176312 1.882927 0.119688 -0.036502 -364749.000000 0 0 1
-25.838209 -4.498919 -7.195620 27.196144 0.172391 1.838567 0.116472 -0.034892 475234.000000 0 0 1
-25.949419 -3.130919 -6.837320 27.017105 0.120074 1.826652 0.146523 -0.039584 -149061.000000 0 0 1
-25.614959 -2.779819 -5.381820 26.321427 0.108100 1.776714 0.136970 -0.036937 -163320.000000 0 0 1
-24.242239 -2.924119 -5.127520 24.950513 0.120041 1.777779 0.088917 -0.027883 -112436.000000 0 1 0
-23.876039 -2.562019 -3.811820 24.313765 0.106896 1.728222 0.058117 -0.027533 876052.000000 0 1 0
-22.558139 -3.187619 -3.201320 23.006065 0.140377 1.710400 0.052991 -0.021046 739424.000000 0 1 0
-22.688039 -4.580119 -2.882120 23.324477 0.199197 1.694679 0.081388 -0.013450 662488.000000 0 1 0
-21.407039 -5.192019 -2.749620 22.198621 0.237943 1.694980 0.060007 -0.012645 65171.800000 0 1 0
-21.411339 -6.730619 -2.581420 22.592264 0.304568 1.685308 0.070742 -0.011184 74286.300000 0 1 0
-21.946739 -7.201319 -1.290420 23.134034 0.317058 1.626605 0.076130 -0.004488 268956.000000 0 1 0
-22.721039 -8.318519 -1.581020 24.247536 0.350959 1.636046 0.092034 -0.010428 -386127.000000 0 1 0
-23.162239 -9.197819 -0.418820 24.925180 0.378007 1.587600 0.108111 -0.026855 -398277.000000 0 1 0
-22.122739 -9.766119 0.329180 24.184727 0.415722 1.557185 0.086357 -0.020868 -8745.720000 0 1 0
-22.561239 -10.643619 1.347780 24.982247 0.440806 1.516821 0.078155 -0.020931 754873.000000 0 1 0
-21.258639 -11.269919 1.956780 24.140626 0.487463 1.489650 0.081341 -0.016501 839011.000000 0 1 0
-20.596439 -12.242919 1.151180 23.988072 0.536306 1.522788 0.085269 -0.019094 609912.000000 0 1 0
-19.351539 -12.565719 1.759480 23.140336 0.575911 1.494688 0.070373 -0.018840 179222.000000 0 1 0
-18.666439 -13.844519 1.182180 23.270243 0.638155 1.519972 0.071371 -0.010128 3425.650000 0 1 0
-19.429739 -15.073519 1.236880 24.622259 0.659807 1.520541 0.082520 -0.006950 595850.000000 0 1 0
-18.791039 -16.278419 0.757580 24.872957 0.713873 1.540334 0.074750 -0.008306 325658.000000 0 1 0
-17.576639 -16.902719 1.528580 24.433107 0.765855 1.508194 0.077508 -0.010498 -248869.000000 0 1 0
-16.400439 -16.142919 1.316080 23.049953 0.777485 1.513668 0.080081 -0.012415 -143602.000000 0 1 0
-15.321339 -16.728019 2.018780 22.773790 0.829261 1.482035 0.085209 -0.020459 75107.900000 0 1 0
-15.292839 -16.492119 3.555280 22.770616 0.823111 1.414020 0.082279 -0.025194 -669901.000000 0 1 0
-14.970939 -15.146019 3.822880 21.636666 0.791211 1.393179 0.067404 -0.019070 -202974.000000 0 1 0
-14.323339 -14.964019 5.062980 21.324016 0.807270 1.331076 0.054268 -0.020036 -302735.000000 0 1 0
-14.905439 -15.433619 6.441080 22.402148 0.802806 1.279159 0.089865 -0.019309 -937443.000000 0 1 0
-15.848939 -14.517319 6.928980 22.582121 0.741574 1.258931 0.085956 -0.012761 19387.300000 0 1 0
-16.215839 -14.605119 8.288280 23.344347 0.733185 1.207835 0.099035 -0.010507 60638.800000 0 1 0
-17.109239 -15.821819 8.670580 24.864331 0.746324 1.214596 0.085453 -0.003512 -741420.000000 0 1 0
-16.401739 -16.997919 8.593580 25.135551 0.803246 1.221870 0.086111 -0.015995 -622482.000000 0 0 1
-17.075039 -18.165019 8.939580 26.484731 0.816318 1.226497 0.083978 -0.015656 -309755.000000 0 0 1
-16.644939 -18.694919 10.296080 27.065906 0.843341 1.180559 0.094910 -0.017263 -586537.000000 0 0 1
-15.379739 -19.236219 10.450780 26.754202 0.896348 1.169489 0.072742 -0.019336 -807403.000000 0 0 1
-15.110239 -19.673119 11.776980 27.459938 0.915833 1.127545 0.076893 -0.018421 -543604.000000 0 0 1
-13.731539 -20.290019 11.879980 27.228183 0.975836 1.119301 0.074436 -0.013666 -359295.000000 0 0 1
-12.664439 -19.371819 12.006880 26.073369 0.991785 1.092234 0.077637 -0.015876 995485.000000 0 0 1
-11.401639 -20.095519 12.207980 26.131629 1.054713 1.084706 0.073422 -0.014896 1844020.000000 0 0 1
-10.168039 -19.184619 12.464580 25.036062 1.083430 1.049661 0.083115 -0.021107 238738.000000 0 0 1
-9.426039 -18.732219 11.372480 23.855388 1.104593 1.073870 0.068898 -0.019246 -1049730.000000 0 1 0
-8.457839 -17.890919 11.848780 23.065420 1.129190 1.031301 0.061768 -0.022270 -760520.000000 0 1 0
-7.682639 -17.235219 10.713780 21.699327 1.151480 1.054413 0.038830 -0.022208 488520.000000 0 1 0
-6.605139 -18.046919 10.209780 21.761405 1.219941 1.082447 0.027103 -0.018974 351692.000000 0 1 0
-6.019639 -17.438019 9.083880 20.563012 1.238402 1.113239 0.024820 -0.010872 12986.200000 0 1 0
-4.925339 -18.235419 8.331180 20.644564 1.306994 1.155399 0.015960 -0.014026 1309340.000000 0 1 0
-3.660139 -18.261519 9.046180 20.705388 1.372988 1.118647 0.021410 -0.013672 386633.000000 0 1 0
-2.740939 -19.060719 8.370580 20.997390 1.427975 1.160754 0.034599 -0.009985 -942067.000000 0 1 0
-1.359639 -19.020619 8.970180 21.073602 1.499435 1.131106 0.033485 -0.021748 -945269.000000 0 1 0
-0.399639 -19.652019 8.161380 21.283085 1.550463 1.177248 0.050061 -0.012580 -351197.000000 0 1 0
0.742861 -19.914519 8.957480 21.848944 -1.533511 1.148372 0.059868 -0.017542 278248.000000 0 1 0
2.013761 -20.410519 8.230880 22.099591 -1.472452 1.189154 0.070600 -0.030802 254114.000000 0 1 0
1.963861 -21.745519 7.792180 23.182805 -1.480730 1.228003 0.078613 -0.030476 -137803.000000 0 1 0
2.332061 -22.705319 8.813280 24.467201 -1.468445 1.202306 0.082847 -0.030428 -32781.900000 0 1 0
2.039461 -24.112919 8.362280 25.603125 -1.486418 1.238080 0.081381 -0.030665 77410.800000 0 0 1
2.202061 -25.075369 9.374180 26.860723 -1.483203 1.214301 0.076245 -0.027090 -167971.000000 0 0 1
1.862361 -26.360059 8.883480 27.878976 -1.500263 1.246497 0.084367 -0.027390 -556512.000000 0 0 1
1.876461 -27.564629 9.899280 29.348350 -1.502826 1.226746 0.067961 -0.022155 646881.000000 0 0 1
0.980861 -27.446839 11.011980 29.589775 -1.535075 1.189467 0.059485 -0.025953 1424310.000000 0 0 1
-0.453439 -27.479199 10.767680 29.517028 1.554297 1.197383 0.062111 -0.025378 1342350.000000 0 0 1
-1.218739 -27.536439 12.120780 30.110698 1.526566 1.156506 0.057390 -0.028687 70765.800000 0 0 1
-0.910639 -28.702779 12.834280 31.454690 1.539080 1.150507 0.058314 -0.029811 -229076.000000 0 0 1
-1.152039 -28.542949 14.244980 31.920943 1.530457 1.108217 0.054482 -0.032461 -496281.000000 0 0 1
-0.749939 -29.703059 15.147480 33.350866 1.545554 1.099339 0.049490 -0.020301 65814.100000 0 0 1
-0.814339 -29.418039 16.551480 33.764414 1.543122 1.058472 0.050120 -0.018291 19244.000000 0 0 1
-0.373439 -30.453129 17.433080 35.091948 1.558534 1.050908 0.047547 -0.011778 1455.480000 0 0 1
-0.883439 -30.221939 18.863580 35.636789 1.541573 1.012987 0.043869 -0.014750 -667806.000000 0 0 1
-2.241239 -30.435419 19.034580 35.967390 1.497290 1.013118 0.038849 -0.010750 -780192.000000 0 0 1
-2.684239 -29.966789 20.302080 36.295841 1.481461 0.977195 0.052233 -0.016365 316601.000000 0 0 1
-4.232239 -30.062549 20.419680 36.587321 1.430934 0.978692 0.072968 -0.024522 359309.000000 0 0 1
-4.976039 -28.972409 19.846480 35.468919 1.400705 0.976959 0.066996 -0.031887 179361.000000 0 0 1
-6.130939 -28.669309 20.609280 35.836575 1.360119 0.958081 0.069110 -0.030119 104386.000000 0 0 1
-6.022639 -27.646509 21.758680 35.693722 1.356303 0.915248 0.085626 -0.032013 -272724.000000 0 0 1
-5.033339 -28.015069 22.715680 36.416764 1.393027 0.897240 0.088094 -0.029164 171385.000000 0 0 1
-5.079339 -27.083119 23.793280 36.406252 1.385404 0.858532 0.089725 -0.029718 -114165.000000 0 0 1
-4.019639 -27.337029 24.893280 37.190672 1.424802 0.837473 0.093574 -0.025649 63428.000000 0 0 1
-4.235739 -28.502729 25.700280 38.611545 1.423268 0.842484 0.094095 -0.024496 101098.000000 0 0 1
-3.752439 -29.652669 25.039980 38.991822 1.444919 0.873450 0.082663 -0.023444 -45426.800000 0 0 1
-4.074639 -30.949579 25.872280 40.544469 1.439895 0.878741 0.082301 -0.019567 162423.000000 0 0 1
-3.414539 -30.877149 27.142180 41.252338 1.460659 0.852696 0.095614 -0.019967 236979.000000 0 0 1
-3.847939 -31.889789 28.028080 42.630254 1.450713 0.853341 0.093585 -0.026546 -120431.000000 0 0 1
-3.284239 -31.738239 29.461680 43.429168 1.467684 0.825235 0.121594 -0.025749 389564.000000 0 0 1
-1.861139 -31.809379 29.453580 43.391403 1.512354 0.824685 0.106829 -0.023014 314305.000000 0 0 1
-1.319939 -31.631209 30.731580 44.121487 1.529092 0.800258 0.112168 -0.032629 -23390.100000 0 0 1
-28.746479 2.845881 -9.306520 30.349142 -0.098678 1.882466 0.125084 -0.037450 -802435.000000 0 0 1
-29.766319 2.459181 -10.162220 31.549200 -0.082429 1.898751 0.109573 -0.037221 -304521.000000 0 0 1
-30.400899 3.626781 -10.629820 32.409278 -0.118737 1.904968 0.090469 -0.043388 -307125.000000 0 0 1
-31.173289 3.567881 -11.959620 33.578806 -0.113957 1.934958 0.094162 -0.044760 655639.000000 0 0 1
-32.449009 2.930281 -11.794020 34.650017 -0.090060 1.918113 0.126242 -0.045649 979589.000000 0 0 1
-33.176029 2.794681 -13.031120 35.752891 -0.084040 1.943868 0.125419 -0.036780 275607.000000 0 0 1
-34.494613 2.002181 -12.870820 36.872009 -0.057978 1.927372 0.133336 -0.033823 -52952.400000 0 0 1
-34.324399 0.677981 -12.472220 36.526433 -0.019750 1.919263 0.135794 -0.034341 216853.000000 0 0 1
-35.491283 -0.108319 -12.608620 37.664575 0.003052 1.912148 0.132074 -0.035558 263789.000000 0 0 1
-35.104644 -1.575519 -12.136120 37.176656 0.044851 1.903336 0.133278 -0.042006 -48297.100000 0 0 1
-34.214188 -2.238719 -12.973220 36.659610 0.065339 1.932516 0.123467 -0.037253 -92141.500000 0 0 1
-33.823329 -3.471619 -12.416320 36.197165 0.102282 1.920925 0.125741 -0.041675 171444.000000 0 0 1
-34.422374 -4.646419 -13.259420 37.179312 0.134172 1.935459 0.128611 -0.038366 205069.000000 0 0 1
-34.126988 -5.944619 -12.724720 36.904042 0.172461 1.922828 0.124079 -0.040248 144620.000000 0 0 1
-34.384584 -7.012519 -13.585020 37.630145 0.201185 1.940152 0.120035 -0.038073 -853878.000000 0 0 1
-34.273149 -8.447319 -13.020220 37.623558 0.241654 1.924171 0.104820 -0.034585 338629.000000 0 0 1
-32.924989 -8.896219 -12.888820 36.459831 0.263895 1.932114 0.095691 -0.032681 716800.000000 0 0 1
-32.258139 -9.115119 -14.152820 36.386471 0.275388 1.970297 0.098667 -0.030961 -953034.000000 0 0 1
-31.121259 -10.114719 -13.906820 35.556152 0.314241 1.972648 0.087177 -0.034589 -695894.000000 0 0 1
-31.496739 -11.379919 -13.454820 36.091264 0.346710 1.952821 0.082501 -0.036296 -490501.000000 0 0 1
-30.444489 -12.280219 -13.401420 35.457986 0.383403 1.958380 0.087287 -0.033049 -853970.000000 0 0 1
-30.853239 -13.702919 -13.657820 36.417419 0.417964 1.955231 0.088890 -0.027199 -292735.000000 0 0 1
-31.185529 -13.762219 -15.075920 37.272232 0.415597 1.987208 0.085023 -0.030030 165549.000000 0 0 1
-31.314089 -15.100619 -15.634320 38.118668 0.449331 1.993413 0.077310 -0.024939 342647.000000 0 0 1
-30.072849 -16.059719 -15.413520 37.414802 0.490497 1.995404 0.064674 -0.018279 232224.000000 0 0 1
-28.853099 -15.513219 -15.765220 36.355240 0.493321 2.019329 0.074525 -0.029146 -803535.000000 0 0 1
-27.803189 -16.454619 -15.867620 35.993794 0.534387 2.027334 0.087441 -0.035700 -32776.100000 0 0 1
-26.469799 -15.826319 -16.259320 34.863851 0.538875 2.055975 0.093430 -0.039038 -305431.000000 0 0 1
-26.457199 -15.392519 -17.636420 35.326426 0.526922 2.093520 0.076733 -0.036723 446686.000000 0 0 1
-25.105979 -15.326619 -18.098720 34.536634 0.548087 2.122389 0.046367 -0.030251 301274.000000 0 0 1
-25.050339 -15.177019 -19.646120 35.267995 0.544718 2.161629 0.047550 -0.018699 101937.000000 0 0 1
-25.559709 -16.265219 -20.439220 36.546105 0.566728 2.164304 0.053785 -0.022574 -55191.300000 0 0 1
-26.953319 -16.249819 -20.557720 37.591992 0.542540 2.149411 0.073839 -0.028940 -474281.000000 0 0 1
-27.578349 -17.465919 -21.342820 39.001790 0.564560 2.149843 0.080486 -0.031622 -221654.000000 0 0 1
-27.392479 -17.291019 -22.736720 39.576328 0.563068 2.182793 0.072520 -0.018440 185181.000000 0 0 1
-27.871289 -18.407019 -23.462420 40.818039 0.583672 2.183162 0.067704 -0.015897 -122378.000000 0 0 1
-26.980239 -18.680719 -24.706720 41.077057 0.605597 2.216139 0.076739 -0.019756 1017220.000000 0 0 1
-25.623159 -19.095319 -24.520720 40.279563 0.640446 2.225297 0.083087 -0.019631 674870.000000 0 0 1
-25.416599 -20.471819 -24.267020 40.669241 0.678056 2.210169 0.071118 -0.019713 -185893.000000 0 0 1
-23.908939 -20.804719 -24.185920 39.867687 0.716085 2.222642 0.067411 -0.015146 -10803.900000 0 0 1
-23.284839 -20.959619 -25.414290 40.340743 0.732893 2.252337 0.071083 -0.019519 77140.800000 0 0 1
-21.959539 -21.446819 -25.223850 39.729461 0.773587 2.258663 0.074966 -0.017043 413848.000000 0 0 1
-21.047239 -21.306919 -26.448700 39.956286 0.791529 2.294202 0.072924 -0.023483 -134642.000000 0 0 1
-21.455639 -22.208819 -27.511340 41.357586 0.802646 2.298567 0.104187 -0.014859 159689.000000 0 0 1
-21.508739 -21.466819 -28.717250 41.810652 0.784423 2.327929 0.094483 -0.023534 218586.000000 0 0 1
-20.308139 -21.803919 -29.647410 42.033324 0.820902 2.353686 0.094498 -0.028693 339396.000000 0 0 1
-20.430739 -23.104119 -30.180160 43.151564 0.846729 2.345353 0.100371 -0.024707 38817.300000 0 0 1
-19.666739 -23.127419 -31.389970 43.669078 0.866091 2.372892 0.100626 -0.032810 155365.000000 0 0 1
-19.517739 -24.516119 -32.006370 44.792745 0.898427 2.366768 0.108417 -0.029727 133657.000000 0 0 1
-18.883039 -24.630819 -33.297630 45.518992 0.916729 2.391331 0.109660 -0.029172 340344.000000 0 0 1
-19.757739 -24.423819 33.639757 46.027431 0.890620 0.751210 0.092808 -0.013934 284771.000000 0 0 1
-18.942639 -24.509719 32.281279 44.739589 0.912823 0.764776 0.092205 -0.009810 773300.000000 0 0 1
-18.011239 -23.425919 32.069656 43.607812 0.915334 0.744524 0.086890 -0.019368 114321.000000 0 0 1
-17.350839 -23.680019 30.853867 42.588215 0.938446 0.760532 0.084648 -0.010098 537404.000000 0 0 1
-16.285039 -22.575419 30.498157 41.291520 0.945877 0.739796 0.069353 -0.006230 756402.000000 0 0 1
-17.005639 -21.385619 30.190667 40.718704 0.898995 0.735576 0.073265 -0.013124 377178.000000 0 0 1
-16.180639 -20.240919 30.034337 39.668240 0.896420 0.711875 0.077022 -0.017144 49879.300000 0 0 1
-15.939139 -19.381019 31.277407 40.099330 0.882539 0.676133 0.083632 -0.025546 214576.000000 0 0 1
-15.233639 -18.166619 31.022557 39.044703 0.872987 0.652548 0.084062 -0.028064 89102.800000 0 0 1
-14.828139 -17.473119 32.226156 39.543757 0.867101 0.618155 0.088199 -0.029527 308224.000000 0 0 1
-14.288939 -16.039619 31.846897 38.414424 0.843058 0.593417 0.094253 -0.034219 418690.000000 0 0 1
-13.046339 -16.062719 31.147757 37.395196 0.888653 0.586406 0.100679 -0.037070 344595.000000 0 0 1
-12.667439 -14.751219 30.687837 36.329132 0.861251 0.564760 0.091468 -0.039558 139764.000000 0 0 1
-11.202539 -14.650719 30.210377 35.395018 0.917991 0.548091 0.101565 -0.040211 133507.000000 0 0 1
-10.794139 -13.306919 30.110507 34.644338 0.889283 0.517352 0.101851 -0.038378 1171610.000000 0 0 1
-9.410939 -13.063119 30.504667 34.492688 0.946496 0.485631 0.098688 -0.034585 1458580.000000 0 0 1
-8.943039 -11.610219 30.354087 33.706761 0.914446 0.449800 0.096616 -0.028458 -156494.000000 0 0 1
-9.507239 -10.779819 31.371277 34.507233 0.848045 0.429626 0.098623 -0.027198 97786.900000 0 0 1
-9.434339 -9.367019 31.119677 33.840539 0.781818 0.403741 0.079154 -0.022256 -444769.000000 0 0 1
-10.239639 -8.576919 32.143656 34.808452 0.697262 0.393836 0.062369 -0.023504 577191.000000 0 0 1
-11.621239 -8.386919 31.768217 34.851301 0.625134 0.423792 0.059994 -0.024910 1020700.000000 0 0 1
-12.520039 -7.894419 32.745576 35.935302 0.562575 0.424519 0.049156 -0.028571 289698.000000 0 0 1
-12.201839 -6.436019 33.153923 35.909467 0.485376 0.394304 0.032650 -0.017823 -513632.000000 0 0 1
-12.203839 -5.451119 32.112354 34.782922 0.420083 0.394414 0.042225 -0.019333 189364.000000 0 0 1
-12.410339 -4.183219 32.673850 35.200800 0.325115 0.381215 0.036303 -0.021281 -361545.000000 0 0 1
-12.063639 -2.982219 31.808757 34.149993 0.242348 0.372439 0.029665 -0.013640 -20142.800000 0 0 1
-10.676439 -2.728619 31.761827 33.619122 0.250218 0.333951 0.028881 -0.018729 -8571.520000 0 0 1
-10.345039 -1.686319 30.888127 32.618091 0.161586 0.327147 0.021393 -0.017358 -172615.000000 0 0 1
-8.876039 -1.245819 30.985957 32.256250 0.139447 0.281576 0.034795 -0.012809 -1510.510000 0 0 1
-8.505539 -0.755419 32.294112 33.403959 0.088583 0.258498 0.035234 -0.022109 299038.000000 0 0 1
-7.120539 -0.414219 32.231529 33.011287 0.058107 0.217782 0.048436 -0.021697 608051.000000 0 0 1
-6.569039 0.331181 33.503998 34.143518 -0.050373 0.193851 0.083904 -0.038800 -29043.900000 0 0 1
-7.217539 1.576481 33.819962 34.617452 -0.215046 0.215064 0.082987 -0.035788 80524.100000 0 0 1
-6.837839 2.679481 33.005492 33.812693 -0.373470 0.218944 0.097028 -0.029679 -143659.000000 0 0 1
-7.701339 3.978481 33.105715 34.221737 -0.476836 0.256087 0.112811 -0.030783 -720895.000000 0 0 1
-8.954839 3.840181 32.564956 33.991359 -0.405117 0.290725 0.076245 -0.018423 -833479.000000 0 0 1
-9.686539 5.066381 32.515924 34.304264 -0.481904 0.324318 0.059718 -0.013496 -19776.700000 0 0 1
-11.175339 4.868881 32.170575 34.402617 -0.410882 0.362199 0.039131 -0.001318 -155305.000000 0 0 1
-11.896339 6.069381 32.318898 34.969578 -0.471766 0.391860 0.047148 -0.000590 395495.000000 0 0 1
-13.110339 6.038681 31.557697 34.702087 -0.431638 0.428984 0.019602 0.001995 1146410.000000 0 0 1
-14.118239 7.249581 31.731537 35.479170 -0.474382 0.463774 0.035109 -0.003857 743120.000000 0 0 1
-14.934639 7.302181 32.911598 36.871921 -0.454763 0.467734 0.035449 -0.009735 395628.000000 0 0 1
-15.483139 8.595781 32.914447 37.376140 -0.506804 0.493612 0.042647 -0.003206 -324683.000000 0 0 1
-16.298739 9.024181 -33.860570 38.647418 -0.505659 2.638593 0.045182 0.006137 -232544.000000 0 0 1
-15.555839 9.365981 -32.749360 37.446312 -0.541953 2.635341 0.037885 -0.000680 -946135.000000 0 0 1
-16.311439 9.931681 -31.760830 37.060109 -0.546922 2.600232 0.053107 -0.005708 -1691320.000000 0 0 1
-15.697839 10.257281 -30.396730 35.715475 -0.578776 2.588835 0.076896 -0.015511 -533508.000000 0 0 1
-14.908439 11.433281 -30.375920 35.716635 -0.654230 2.587674 0.066071 -0.015859 205817.000000 0 0 1
-13.557639 11.178781 -30.724500 35.394486 -0.689525 2.622075 0.064001 -0.026940 -709241.000000 0 0 1
-12.652039 12.348581 -30.833390 35.542362 -0.773261 2.620973 0.069353 -0.022599 -655283.000000 0 0 1
-12.830239 13.134881 -31.976980 36.873668 -0.797130 2.620355 0.069172 -0.020137 549266.000000 0 0 1
-11.947039 14.286681 -32.163940 37.166652 -0.874347 2.616740 0.070211 -0.023209 415278.000000 0 0 1
-12.208239 15.417081 -31.148190 36.836629 -0.901036 2.578441 0.075339 -0.021243 112571.000000 0 0 1
-13.379839 16.196281 -31.310430 37.705207 -0.880339 2.550623 0.071827 -0.023391 196771.000000 0 0 1
-13.532839 17.182081 -30.291920 37.362576 -0.903654 2.516238 0.056395 -0.013877 333944.000000 0 0 1
-14.923239 17.906681 -30.279820 38.212822 -0.876025 2.485529 0.040120 -0.019201 221116.000000 0 0 1
-15.154139 18.643381 -31.465190 39.588910 -0.888273 2.489471 0.038566 -0.027044 350727.000000 0 0 1
-16.485139 19.102181 -31.653190 40.479347 -0.858805 2.468599 0.038512 -0.027728 554690.000000 0 0 1
-17.133739 20.192681 -30.750690 40.582192 -0.867167 2.430637 0.031687 -0.038469 -160406.000000 0 0 1
-16.471339 21.465181 -30.908630 41.078004 -0.916282 2.422551 0.036112 -0.032886 179338.000000 0 0 1
-16.982139 22.622681 -30.273100 41.432346 -0.926867 2.390089 0.027648 -0.033686 497881.000000 0 0 1
-18.286439 23.288181 -30.868990 42.774148 -0.905130 2.377014 0.036036 -0.036761 1695890.000000 0 0 1
-19.500239 22.578781 -30.526160 42.683804 -0.858429 2.367663 0.040839 -0.036917 658053.000000 0 0 1
-20.482839 22.630581 -31.522580 43.878958 -0.835173 2.372294 0.062709 -0.032872 1250590.000000 0 0 1
-21.903939 22.024481 -31.068760 43.933224 -0.788142 2.356300 0.072589 -0.043110 792570.000000 0 0 1
-22.718239 22.816181 -30.273470 44.194790 -0.787549 2.325401 0.092129 -0.032537 595419.000000 0 0 1
-23.727239 23.587981 -30.968800 45.589925 -0.782455 2.317592 0.097013 -0.028078 130654.000000 0 0 1
-25.013239 22.939781 -31.454590 46.274041 -0.742186 2.318212 0.093175 -0.034431 -1092040.000000 0 0 1
-24.769739 21.838081 -32.293690 46.187922 -0.722580 2.345047 0.117565 -0.039252 128771.000000 0 0 1
-25.931049 21.518681 -33.054510 47.202474 -0.692674 2.346573 0.117458 -0.034949 105274.000000 0 0 1
-25.807489 20.431581 33.856832 47.220346 -0.669654 0.771312 0.126052 -0.034055 -126136.000000 0 0 1
-25.598619 19.124781 -33.728830 46.461603 -0.641644 2.383212 0.112076 -0.037565 301191.000000 0 0 1
-25.264039 18.241081 33.232954 45.556974 -0.625351 0.753233 0.104127 -0.046803 -364756.000000 0 0 1
-24.861639 16.798681 33.675405 45.103544 -0.594221 0.727823 0.073507 -0.035127 -436824.000000 0 0 1
-25.876409 15.861981 33.943230 45.533875 -0.549916 0.729587 0.061995 -0.021621 190780.000000 0 0 1
-26.411499 15.211481 32.824920 44.793211 -0.522542 0.748354 0.075127 -0.028218 -345602.000000 0 0 1
-27.099689 13.841281 33.082310 44.949009 -0.472214 0.743659 0.043073 -0.017194 956960.000000 0 0 1
-28.376659 13.990281 33.753518 46.262973 -0.458049 0.753058 0.052899 -0.018711 775831.000000 0 0 1
-29.368169 13.024781 33.511262 46.423474 -0.417435 0.764310 0.044245 -0.008489 -70076.600000 0 0 1
-29.201399 11.655381 -33.879770 46.221298 -0.379763 2.393504 0.037529 -0.009615 -315797.000000 0 0 1
-28.074929 10.893281 33.758094 45.237972 -0.370125 0.728410 0.040699 -0.023139 -128852.000000 0 0 1
-28.186499 9.606081 -33.750940 45.009793 -0.328459 2.418643 0.044744 -0.014073 -949633.000000 0 0 1
-26.857949 8.865481 -33.510330 43.850751 -0.318827 2.440582 0.037055 -0.020786 -479912.000000 0 0 1
-26.151939 8.548981 33.350261 43.234811 -0.315946 0.689797 0.030671 -0.017398 -124427.000000 0 0 1
-25.277809 9.601681 33.041809 42.695680 -0.363013 0.685834 0.024396 -0.021321 -885694.000000 0 0 1
-24.066239 9.278981 32.129031 41.201431 -0.367997 0.676444 0.021521 -0.010705 -45745.400000 0 0 1
-24.301339 9.045481 30.732247 40.210033 -0.356332 0.700852 0.018542 -0.009041 -696499.000000 0 0 1
-23.066539 8.971581 30.095667 38.965416 -0.370939 0.688234 0.025905 -0.003119 -317067.000000 0 0 1
-23.094239 9.162481 28.580417 37.869977 -0.377696 0.715602 0.042308 -0.014855 -86287.500000 0 0 1
-23.403339 10.453281 28.040437 37.990176 -0.420071 0.740551 0.037199 -0.009839 39071.000000 0 0 1
-23.325539 10.351081 26.613277 36.871292 -0.417658 0.764413 0.038818 -0.019405 -1026070.000000 0 0 1
-23.650139 11.707281 25.936737 37.001403 -0.459655 0.794045 0.043616 -0.022870 1306440.000000 0 0 1
-25.019139 12.164181 25.950267 38.043934 -0.452543 0.820148 0.054424 -0.018175 923299.000000 0 0 1
-25.979269 11.284281 25.370007 38.024921 -0.409769 0.840361 0.059677 -0.017908 244371.000000 0 0 1
-27.438049 11.810281 25.638147 39.365516 -0.406465 0.861521 0.062654 -0.014211 641396.000000 0 0 1
-27.576859 13.101581 25.104357 39.526742 -0.443524 0.882628 0.068698 -0.016699 297803.000000 0 0 1
-28.866619 13.669681 25.340437 40.771063 -0.442262 0.900102 0.069642 -0.019208 574213.000000 0 0 1
-28.837349 15.201681 24.970327 41.063378 -0.485133 0.917141 0.078111 -0.018263 135527.000000 0 0 1
-27.971049 16.015881 25.750667 41.255119 -0.520020 0.896713 0.083963 -0.014614 148908.000000 0 0 1
-27.813879 17.281981 25.211377 41.326653 -0.555966 0.914671 0.056771 -0.008250 -435464.000000 0 0 1
-23.270839 -8.996719 31.870257 40.474513 0.368910 0.664191 0.046473 -0.015903 -556402.000000 0 0 1
-22.312939 -8.862919 30.880487 39.115509 0.378099 0.660853 0.040672 -0.024281 -459737.000000 0 0 1
-22.844539 -8.906419 29.564237 38.408871 0.371744 0.692387 0.043972 -0.021522 127346.000000 0 0 1
-21.788839 -8.752519 28.400607 36.850435 0.381969 0.690858 0.065149 -0.026677 312737.000000 0 0 1
-21.245839 -7.452019 28.088947 35.998711 0.337345 0.675689 0.065915 -0.026914 -562799.000000 0 0 1
-20.142039 -7.147019 28.852397 35.906022 0.340972 0.637556 0.060908 -0.028373 -318803.000000 0 0 1
-18.732939 -7.597319 28.325257 34.798885 0.385290 0.619842 0.067529 -0.020432 -126040.000000 0 0 1
-18.403139 -8.927919 28.494597 35.075993 0.451681 0.622596 0.063844 -0.024363 51653.900000 0 0 1
-17.967339 -9.387219 29.758537 36.007161 0.481454 0.598003 0.072002 -0.028504 -891517.000000 0 0 1
-16.550539 -8.990919 30.165237 35.562599 0.497639 0.558163 0.076362 -0.029615 -229091.000000 0 0 1
-15.510839 -9.635319 29.386537 34.597602 0.555861 0.555985 0.072149 -0.030108 1680290.000000 0 0 1
-14.223339 -9.157819 29.906207 34.359136 0.572046 0.514781 0.068769 -0.032432 1583840.000000 0 0 1
-12.982039 -10.007719 29.547467 33.789652 0.656737 0.506489 0.076367 -0.035581 151945.000000 0 0 1
-12.554139 -9.875819 28.186017 32.397373 0.666553 0.515575 0.084112 -0.026198 -94287.300000 0 0 1
-11.409039 -10.688019 27.999177 32.067956 0.752780 0.509230 0.091174 -0.027636 -112142.000000 0 0 1
-10.725739 -10.436619 26.646937 30.561802 0.771737 0.511720 0.083645 -0.024218 93525.000000 0 0 1
-11.568039 -10.838819 25.566337 30.082173 0.752865 0.555032 0.077716 -0.022734 -22794.500000 0 0 1
-10.976639 -10.760619 24.308467 28.760721 0.775461 0.563863 0.055346 -0.015379 -46578.700000 0 0 1
-11.981339 -11.007819 23.147777 28.293889 0.743077 0.612663 0.054467 -0.020953 -650146.000000 0 0 1
-12.347839 -12.366619 23.071657 28.943112 0.786158 0.648256 0.065567 -0.021966 214537.000000 0 0 1
-13.550439 -12.646219 22.385477 29.062877 0.750895 0.691574 0.061979 -0.016507 -431771.000000 0 0 1
-14.838939 -12.236719 23.081437 30.044702 0.689583 0.694715 0.059370 -0.016125 -2086220.000000 0 0 1
-15.944839 -12.749719 22.414977 30.318714 0.674506 0.738749 0.038723 -0.004470 119857.000000 0 0 1
-17.055139 -12.592219 23.343977 31.533839 0.635987 0.737305 0.034067 -0.003386 207967.000000 0 0 1
-18.332239 -13.332119 22.908677 32.227688 0.628781 0.780107 0.059684 -0.010037 -642203.000000 0 0 1
-18.254439 -14.776619 22.874377 32.784297 0.680495 0.798582 0.044611 -0.007137 718530.000000 0 0 1
-19.496939 -15.516319 22.836477 33.799282 0.672195 0.828951 0.060165 -0.006866 807692.000000 0 0 1
-20.345939 -15.513919 24.141337 35.177309 0.651458 0.814440 0.054395 -0.006886 -211275.000000 0 0 1
-19.969639 -16.466619 25.127047 36.073599 0.689552 0.800219 0.059667 -0.001258 488597.000000 0 0 1
-20.992139 -16.734219 26.120327 37.456314 0.673010 0.799097 0.056052 -0.001569 34252.600000 0 0 1
-20.478539 -17.500719 27.344627 38.384559 0.707152 0.777904 0.060796 0.000087 -156326.000000 0 0 1
-20.426439 -18.935519 27.137937 38.887799 0.747539 0.798402 0.072052 0.004935 25046.100000 0 0 1
-20.252739 -19.587219 28.365017 39.980080 0.768695 0.782038 0.063514 -0.002474 -102012.000000 0 0 1
-20.145139 -21.126719 28.253427 40.625374 0.809177 0.801733 0.072308 0.003542 765245.000000 0 0 1
-21.385039 -21.699819 27.805537 41.247423 0.792704 0.831029 0.076989 0.002361 515666.000000 0 0 1
-21.290839 -23.081419 27.672337 41.854629 0.825730 0.848441 0.092255 0.004553 -311368.000000 0 0 1
-22.575939 -23.708919 27.151497 42.532219 0.809872 0.878411 0.090696 0.001768 -840300.000000 0 0 1
-23.615139 -23.754519 28.048127 43.688092 0.788341 0.873681 0.082385 -0.001396 -400729.000000 0 0 1
-24.715839 -24.529519 27.584207 44.423625 0.781615 0.900861 0.067634 -0.000501 335926.000000 0 0 1
-25.386229 -25.465299 28.589167 45.937812 0.786953 0.899061 0.041403 -0.003735 -278502.000000 0 0 1
-26.273329 -24.870919 29.507327 46.685466 0.757984 0.886607 0.027156 -0.000505 268957.000000 0 0 1
-26.874249 -25.863979 30.348877 48.085601 0.766244 0.887771 0.020406 0.003535 311344.000000 0 0 1
-27.963649 -25.293889 31.308687 49.010003 0.735311 0.877830 0.023885 -0.002520 321414.000000 0 0 1
-29.063599 -24.748219 30.604097 48.926249 0.705376 0.895005 0.032026 -0.006611 -289849.000000 0 0 1
-29.753229 -23.747419 31.254597 49.254892 0.673609 0.883373 0.040357 -0.014499 149438.000000 0 0 1
-30.996109 -23.351119 30.346847 49.264233 0.645646 0.907140 0.054573 -0.022541 375440.000000 0 0 1
-32.061469 -24.258119 30.357227 50.378124 0.647720 0.924057 0.056785 -0.023761 -424598.000000 0 0 1
-33.049699 -23.989719 29.402247 50.321778 0.627877 0.946798 0.059415 -0.030642 266580.000000 0 0 1
-34.362876 -24.752519 29.736907 51.747252 0.624239 0.958612 0.058421 -0.023436 35371.600000 0 0 1
-34.171463 -26.098379 29.665797 52.238623 0.652242 0.966856 0.060565 -0.030345 -129732.000000 0 0 1
-35.275705 -26.871259 30.097947 53.594089 0.650979 0.974489 0.057659 -0.022059 96752.800000 0 0 1
-34.887206 -28.315179 30.544827 54.330958 0.681787 0.973754 0.056533 -0.024102 15794.100000 0 0 1
-34.147124 -28.374309 31.726767 54.568445 0.693326 0.950333 0.066534 -0.021582 -205748.000000 0 0 1
-33.732729 -29.695319 32.024747 55.184177 0.721831 0.951669 0.072354 -0.032931 158566.000000 0 0 1
-32.751859 -29.900499 33.214400 55.406863 0.739919 0.927966 0.064451 -0.031316 292601.000000 0 0 1
-33.348239 -29.889739 -33.512450 55.933763 0.730762 2.213229 0.052873 -0.019100 747465.000000 0 0 1
-32.357069 -30.171069 -32.495710 54.893028 0.750452 2.204313 0.052416 -0.013487 833206.000000 0 0 1
-32.936929 -29.791779 -31.114860 54.226616 0.735301 2.181926 0.045986 -0.014189 149881.000000 0 0 1
-33.213729 -28.429669 -30.780830 53.468284 0.707945 2.184237 0.042560 -0.010565 502657.000000 0 0 1
-32.068269 -27.563589 -30.845880 52.341128 0.710000 2.201018 0.045170 -0.001544 336024.000000 0 0 1
-32.432659 -26.142229 -30.587290 51.680517 0.678417 2.204153 0.034172 0.007976 -164264.000000 0 0 1
-32.912889 -25.863119 -29.318970 51.105393 0.666025 2.181808 0.027224 -0.002747 -138871.000000 0 0 1
-32.882339 -24.467719 -29.059200 50.242956 0.639714 2.187530 0.037324 -0.007530 709928.000000 0 0 1
-31.537829 -23.900419 -28.443780 48.733083 0.648496 2.194031 0.039493 -0.008241 618236.000000 0 0 1
-31.521169 -22.499119 -28.325510 47.980506 0.619913 2.202294 0.039637 -0.005331 100737.000000 0 0 1
-30.305309 -22.182119 -27.684130 46.656931 0.631852 2.206017 0.063464 -0.010376 -60172.700000 0 0 1
-29.974239 -20.676119 -27.798990 45.812016 0.603845 2.222832 0.080258 -0.020273 -141896.000000 0 0 1
-29.744919 -20.262819 -29.123660 46.298268 0.598010 2.251119 0.082034 -0.009193 352347.000000 0 0 1
-29.308679 -18.925519 -29.186230 45.486371 0.573368 2.267441 0.079920 -0.019755 -248365.000000 0 0 1
-28.816239 -18.580219 -30.633920 45.978661 0.572699 2.299984 0.096071 -0.015015 383251.000000 0 0 1
-29.793089 -18.335519 -31.647820 47.174187 0.551687 2.306180 0.089983 -0.013489 292599.000000 0 0 1
-30.626619 -17.223419 -31.474440 47.172835 0.512289 2.301260 0.082770 -0.021195 -585163.000000 0 0 1
-31.181169 -16.667819 -32.809960 48.234583 0.490902 2.318854 0.082930 -0.026882 -279109.000000 0 0 1
-32.031419 -17.484719 -33.554500 49.574507 0.499660 2.314271 0.082073 -0.026346 611655.000000 0 0 1
-33.386709 -17.092019 -33.298560 50.155793 0.473155 2.296822 0.081953 -0.024956 753641.000000 0 0 1
-34.464028 -17.688219 33.772911 51.393111 0.474181 0.853767 0.075583 -0.029827 189239.000000 0 0 1
-34.699148 -19.127519 33.771383 52.061494 0.503794 0.864944 0.059625 -0.027059 113069.000000 0 0 1
-35.608977 -19.554619 32.776133 52.198250 0.502189 0.891923 0.069062 -0.030622 -132496.000000 0 0 1
-35.980519 -21.059119 33.032602 53.190573 0.529535 0.900748 0.055812 -0.026800 576796.000000 0 0 1
-34.950065 -21.994519 32.652096 52.644328 0.561695 0.901748 0.061110 -0.025444 418579.000000 0 0 1
-35.137086 -23.160019 33.406549 53.730799 0.582769 0.899835 0.054436 -0.022789 -806652.000000 0 0 1
-33.898109 -24.058219 33.482994 53.375936 0.617221 0.892708 0.055312 -0.016764 328176.000000 0 0 1
-32.849279 -23.775619 -33.631880 52.682621 0.626507 2.263197 0.031865 -0.014992 441399.000000 0 0 1
-32.195529 -22.537519 -33.751150 51.803784 0.610739 2.280381 0.040252 -0.015200 -1075650.000000 0 0 1
-30.985369 -22.360719 -32.831500 50.378589 0.625112 2.280614 0.044169 -0.007608 91836.700000 0 0 1
-29.865989 -23.187519 -33.139440 50.277837 0.660175 2.290453 0.044340 -0.007103 1624780.000000 0 0 1
-28.610699 -23.024219 -32.425740 48.990973 0.677625 2.294109 0.049651 -0.004483 1264990.000000 0 0 1
-28.622759 -23.569619 -30.980420 48.317447 0.688881 2.266838 0.050776 0.013430 -622980.000000 0 0 1
-28.632219 -24.976819 -30.988160 49.029701 0.717317 2.254964 0.039721 0.004271 83716.500000 0 0 1
-28.286019 -25.479689 -29.714690 48.293646 0.733250 2.233553 0.038562 0.005520 -380257.000000 0 0 1
-27.963659 -26.987569 -29.752680 48.944020 0.767637 2.224199 0.034445 0.004162 -188338.000000 0 0 1
-28.951229 -27.986829 -29.915690 50.163580 0.768462 2.209759 0.031665 0.010289 75485.500000 0 0 1
-28.548989 -29.120659 -29.179990 50.145084 0.795311 2.191873 0.035791 0.003700 60595.500000 0 0 1
-29.141619 -30.418349 -29.714790 51.550739 0.806831 2.185135 0.029044 0.014757 -81617.700000 0 0 1
-28.534409 -30.784459 -30.954230 52.154193 0.823311 2.206214 0.039752 -0.005026 456494.000000 0 0 1
-28.882979 -32.111819 -31.433280 53.417661 0.838285 2.199929 0.048602 0.001526 -137262.000000 0 0 1
-28.458559 -32.468499 -32.902120 54.282986 0.851119 2.221972 0.063438 -0.014583 -97615.100000 0 0 1
-27.057039 -32.526359 -33.043430 53.683477 0.876934 2.233846 0.044312 -0.013018 -350393.000000 0 0 1
-26.707169 -33.139949 33.796362 54.348166 0.892474 0.899695 0.069508 -0.019703 472689.000000 0 0 1
-25.160439 -33.190589 33.575261 53.497299 0.922157 0.892321 0.055108 -0.020712 700865.000000 0 0 1
-24.697939 -33.881109 32.409914 52.993587 0.940898 0.912738 0.067056 -0.020882 3093.840000 0 0 1
-23.803939 33.202153 32.729251 52.347057 -0.948792 0.895363 0.048408 -0.012167 -494867.000000 0 0 1
-23.634239 32.251097 31.525117 50.917026 -0.938382 0.903141 0.049962 -0.025231 164565.000000 0 0 1
-24.892139 31.709291 31.150637 50.945656 -0.905262 0.912907 0.096210 -0.049205 182132.000000 0 0 1
-24.743739 30.557951 30.320027 49.652241 -0.890150 0.913918 0.087580 -0.041824 666338.000000 0 0 1
-26.103029 29.902041 29.871367 49.676944 -0.853128 0.925654 0.111724 -0.039972 862703.000000 0 0 1
-26.941029 29.378131 30.902507 50.436679 -0.828644 0.911325 0.106491 -0.040456 886747.000000 0 0 1
-28.227049 29.058341 30.333227 50.608874 -0.799909 0.928088 0.101781 -0.043457 1048840.000000 0 0 1
-28.965829 27.933251 31.132527 50.877500 -0.767253 0.912321 0.086733 -0.052215 600194.000000 0 0 1
-28.147909 26.711371 31.180137 49.779545 -0.759218 0.893916 0.089124 -0.050555 618568.000000 0 0 1
-28.812839 25.614041 31.759277 49.949079 -0.726693 0.881709 0.072080 -0.034795 219601.000000 0 0 1
-29.873509 24.980481 30.814637 49.658764 -0.696433 0.901381 0.065649 -0.029926 350776.000000 0 0 1
-29.336889 24.568211 29.557577 48.351840 -0.697164 0.913092 0.061182 -0.015812 281859.000000 0 0 1
-30.256859 23.686631 28.907087 48.084859 -0.664197 0.925834 0.053887 -0.004741 443513.000000 0 0 1
-29.607629 23.380451 27.578187 46.731291 -0.668414 0.939559 0.050641 -0.014890 65929.400000 0 0 1
-28.356709 22.740231 27.687787 45.692829 -0.675920 0.919831 0.044130 -0.009564 -279296.000000 0 0 1
-27.875529 22.391531 26.407197 44.449587 -0.676731 0.934658 0.048969 -0.013907 544664.000000 0 0 1
-26.505749 21.635831 26.468777 43.258064 -0.684583 0.912360 0.057108 -0.008816 530600.000000 0 0 1
-26.661059 20.349431 27.120767 43.132904 -0.651936 0.890823 0.053461 -0.012312 705558.000000 0 0 1
-25.378419 19.743131 27.340787 42.206327 -0.661150 0.866118 0.069869 -0.010251 446773.000000 0 0 1
-25.267419 18.427931 28.108927 42.049291 -0.630131 0.838639 0.071072 -0.013423 -321524.000000 0 0 1
-23.962539 18.080431 28.500597 41.393107 -0.646393 0.811330 0.077561 -0.021142 170989.000000 0 0 1
-24.033839 16.996131 29.374707 41.585662 -0.615525 0.786445 0.069976 -0.024052 378180.000000 0 0 1
-22.698239 16.200431 29.529007 40.615591 -0.619882 0.756801 0.067477 -0.029095 964827.000000 0 0 1
-21.599739 16.837231 30.219917 40.783384 -0.662122 0.736259 0.103364 -0.030773 -181607.000000 0 0 1
-20.462839 16.115331 29.988137 39.720524 -0.667098 0.715175 0.085831 -0.029058 -1485450.000000 0 0 1
-19.255239 16.606731 30.753067 39.903620 -0.711679 0.690883 0.065298 -0.033407 -1058650.000000 0 0 1
-19.423039 16.343431 32.147573 40.961306 -0.699507 0.668378 0.057020 -0.031166 89021.700000 0 0 1
-18.386839 16.952531 32.860612 41.295084 -0.744834 0.650549 0.060178 -0.032758 -1341610.000000 0 0 1
-18.458339 16.760831 -33.663030 41.890755 -0.737237 2.504101 0.045857 -0.039330 29673.100000 0 0 1
-19.618439 17.228831 -33.019110 42.094862 -0.720637 2.472521 0.063993 -0.036273 571865.000000 0 0 1
-20.910039 16.749031 -33.400610 42.817760 -0.675353 2.465565 0.073088 -0.033994 -654859.000000 0 0 1
-21.877939 17.482931 -32.463930 42.874280 -0.674199 2.429795 0.077176 -0.040915 -763599.000000 0 0 1
-21.915139 17.106331 -31.124720 41.733058 -0.662781 2.412539 0.072184 -0.036793 194121.000000 0 0 1
-22.896639 17.875531 -30.449770 42.083004 -0.662865 2.379749 0.065651 -0.029829 48953.900000 0 0 1
-23.184639 17.343031 -28.992170 40.973823 -0.642245 2.356861 0.066173 -0.033756 244398.000000 0 0 1
-23.686839 16.040731 -28.715940 40.533648 -0.595260 2.358092 0.068343 -0.038411 -354344.000000 0 0 1
-25.012339 15.835931 -29.132090 41.533992 -0.564421 2.348161 0.085623 -0.037923 49308.300000 0 0 1
-25.846929 14.943731 -28.141850 41.028558 -0.524208 2.326648 0.087251 -0.035514 285705.000000 0 0 1
-25.408829 13.600931 -28.216350 40.333068 -0.491475 2.345611 0.054192 -0.027350 145159.000000 0 0 1
-26.336169 12.754431 -27.570790 40.204699 -0.451004 2.326444 0.034377 -0.017845 88699.500000 0 0 1
-25.925499 11.273931 -27.568420 39.487350 -0.410191 2.343618 0.039301 -0.019953 -3789.010000 0 0 1
-24.895039 10.947831 -26.652790 38.078724 -0.414305 2.346109 0.045124 -0.019678 -17989.400000 0 0 1
-23.970039 10.085531 -27.305790 37.707915 -0.398270 2.380582 0.041052 -0.011203 18612.900000 0 0 1
-22.996139 9.527931 -26.250330 36.175734 -0.392796 2.382751 0.069808 -0.018767 -163128.000000 0 0 1
-23.634939 8.560431 -25.481110 35.793551 -0.347496 2.362984 0.088487 -0.024533 866083.000000 0 0 1
-22.634939 7.883431 -24.662220 34.390610 -0.335147 2.370459 0.105988 -0.024801 856311.000000 0 0 1
-23.353939 6.921231 -23.623920 33.932278 -0.288116 2.340898 0.105075 -0.015699 476116.000000 0 0 1
-23.789339 5.699931 -24.234620 34.434557 -0.235167 2.351512 0.105190 -0.032207 235445.000000 0 0 1
-24.389939 4.795131 -23.369120 34.117125 -0.194127 2.325355 0.093019 -0.024459 -204693.000000 0 0 1
35.643029 24.322381 -10.364520 44.378226 0.598808 1.806523 0.035782 -0.002777 104760.000000 0 0 1
36.537489 23.924981 -9.343920 44.662083 0.579747 1.781567 0.050311 -0.011453 174736.000000 0 0 1
-36.310209 22.939481 -9.829320 44.059807 -0.563448 1.795780 0.075522 -0.012658 18739.800000 0 0 1
-35.393702 22.567881 -8.665720 42.861616 -0.567626 1.774379 0.066102 -0.009984 -290412.000000 0 0 1
-35.996925 21.620981 -7.835620 42.715833 -0.540886 1.755277 0.066197 -0.016313 765284.000000 0 0 1
-35.005182 21.140281 -6.909320 41.473039 -0.543296 1.738175 0.083225 -0.019626 414010.000000 0 0 1
-35.601807 20.241481 -5.806420 41.363277 -0.516975 1.711638 0.079409 -0.008684 -74157.400000 0 0 1
-35.905422 18.944181 -6.285420 41.080261 -0.485493 1.724403 0.068547 -0.005009 1075780.000000 0 0 1
-36.735879 18.218781 -5.307520 41.347534 -0.460394 1.699515 0.070238 -0.017308 369893.000000 0 0 1
36.408839 16.940581 -5.872820 40.584194 0.435494 1.716013 0.061847 -0.004766 25394.900000 0 0 1
35.351179 17.169781 -6.785220 39.881655 0.452136 1.741762 0.057531 -0.012680 25725.300000 0 0 1
34.849009 16.101981 -7.536720 39.121980 0.432829 1.764655 0.064455 -0.010324 -369496.000000 0 0 1
33.705879 16.516081 -8.439120 38.471885 0.455620 1.791953 0.053978 -0.024849 -525238.000000 0 0 1
33.213939 15.412681 -9.148420 37.741357 0.434470 1.815633 0.073621 -0.032090 92233.500000 0 0 1
32.511609 15.835481 -10.337420 37.611559 0.453251 1.849227 0.077879 -0.027704 -560471.000000 0 0 1
31.939279 14.662481 -11.152220 36.871098 0.430374 1.878074 0.080661 -0.030740 -14256.800000 0 0 1
30.735369 14.101981 -10.663420 35.457542 0.430164 1.876262 0.074187 -0.025721 324768.000000 0 0 1
30.764689 13.588181 -9.370920 34.913018 0.415914 1.842536 0.068203 -0.029353 -1606180.000000 0 0 1
29.689149 12.602181 -9.025420 33.492069 0.401422 1.843649 0.087498 -0.022055 -604449.000000 0 0 1
29.937949 11.389781 -9.666420 33.458146 0.363537 1.863885 0.098679 -0.022917 696248.000000 0 0 1
28.859179 10.487781 -9.384120 32.107747 0.348573 1.867396 0.112162 -0.025633 372623.000000 0 0 1
29.285719 9.025081 -9.746920 32.157547 0.298938 1.878739 0.125520 -0.022917 -193474.000000 0 0 1
30.412709 8.549581 -9.059420 32.864894 0.274046 1.850069 0.119472 -0.026669 139513.000000 0 0 1
30.523849 7.150181 -9.084220 32.639753 0.230100 1.852838 0.133899 -0.027113 -67693.400000 0 0 1
31.696109 6.661481 -8.175420 33.404433 0.207152 1.818048 0.144302 -0.025779 424592.000000 0 0 1
32.942929 7.088281 -8.705720 34.803302 0.211937 1.823622 0.136230 -0.020791 153752.000000 0 0 1
33.988379 6.665681 -7.826620 35.509114 0.193659 1.793033 0.135076 -0.014595 1424850.000000 0 0 1
35.436029 6.989881 -8.398020 37.082304 0.194753 1.799248 0.129506 -0.014107 1061320.000000 0 0 1
35.896339 6.214081 -9.432020 37.631435 0.171413 1.824140 0.136518 -0.019033 396500.000000 0 0 1
-36.468889 6.353281 -9.659120 38.257583 -0.172480 1.826035 0.128874 -0.021858 -217335.000000 0 0 1
-36.047633 5.532681 -10.956720 38.080075 -0.152294 1.862650 0.131859 -0.025780 -164964.000000 0 0 1
-34.642281 5.483881 -11.018920 36.763803 -0.156997 1.875198 0.130884 -0.027526 -27770.800000 0 0 1
-34.019459 6.487181 -11.747020 36.570474 -0.188428 1.897810 0.104531 -0.025814 -885879.000000 0 0 1
-33.189089 7.386481 -10.862420 35.694088 -0.218988 1.880021 0.091074 -0.021921 -942934.000000 0 0 1
-33.954289 8.286181 -10.022320 36.359338 -0.239361 1.850058 0.101187 -0.018238 526358.000000 0 0 1
-34.382243 9.476881 -10.717720 37.240025 -0.268955 1.862726 0.110646 -0.022331 108661.000000 0 0 1
-35.325297 10.428581 -9.946220 38.151792 -0.287062 1.834545 0.112122 -0.020880 271773.000000 0 0 1
-34.695052 10.927781 -8.778220 37.419516 -0.305130 1.807592 0.081060 -0.013823 122324.000000 0 0 1
-35.563152 11.792281 -8.081720 38.328969 -0.320178 1.783242 0.086863 -0.014317 232039.000000 0 0 1
-34.773015 12.770381 -7.162620 37.729939 -0.351959 1.761795 0.098551 -0.009696 430728.000000 0 0 1
-33.924009 13.636081 -7.892220 37.404120 -0.382195 1.783393 0.078144 -0.013280 291713.000000 0 0 1
-33.094879 14.469981 -7.064920 36.804408 -0.412181 1.763954 0.084881 -0.012613 95213.800000 0 0 1
-32.340729 15.607981 -7.745520 36.735880 -0.449640 1.783234 0.062530 -0.009776 -237913.000000 0 0 1
-33.115739 16.595581 -8.380720 37.977651 -0.464558 1.793303 0.044781 -0.007651 -314567.000000 0 0 1
-32.539619 17.846381 -8.321620 38.033794 -0.501653 1.791376 0.046009 -0.008071 146202.000000 0 0 1
-33.407419 18.663881 -9.289120 39.378723 -0.509479 1.808933 0.024703 -0.007776 147843.000000 0 0 1
-33.119239 18.507881 -10.661920 39.409417 -0.509594 1.844753 0.013223 -0.005523 -201802.000000 0 0 1
-34.079349 19.062581 -11.542120 40.718602 -0.510000 1.858197 0.012615 -0.011213 -225212.000000 0 0 1
-33.736999 18.988781 -13.087720 40.866212 -0.512653 1.896798 0.004674 0.007959 -131592.000000 0 0 1
-32.764749 19.925581 -13.475820 40.646713 -0.546384 1.908727 0.007649 0.001529 -1822.500000 0 0 1
-32.606189 20.042381 -14.906720 41.073969 -0.551144 1.942200 -0.004264 0.006124 -456161.000000 0 0 1
-31.569769 21.085881 -15.297420 40.930132 -0.588865 1.953839 0.012708 0.005120 634820.000000 0 0 1
-30.235189 20.878181 -14.759420 39.596787 -0.604339 1.952759 0.018143 0.002494 1324470.000000 0 0 1
-29.476229 22.036781 -14.603320 39.594504 -0.641971 1.948538 0.030286 -0.000752 5163.580000 0 0 1
-28.846549 22.800181 -15.860720 40.044152 -0.668857 1.978041 0.026646 -0.005945 -363203.000000 0 0 1
-29.780309 23.424981 -16.770320 41.434770 -0.666512 1.987491 0.040085 0.005985 350647.000000 0 0 1
-29.278179 24.134681 -17.907420 41.956767 -0.689397 2.011755 0.035496 0.003413 144307.000000 0 0 1
-28.394809 25.414081 -17.680420 42.008784 -0.730060 2.005205 0.039386 0.000857 324507.000000 0 0 1
-29.122739 26.455281 -17.081720 42.892901 -0.737440 1.980395 0.055595 -0.000785 191508.000000 0 0 1
-28.383039 27.682481 -17.114420 43.183562 -0.772903 1.978299 0.060511 -0.002187 -21756.500000 0 0 1
-29.146309 28.898781 -16.633420 44.286765 -0.781134 1.955824 0.059013 -0.006142 -544896.000000 0 0 1
-29.302159 29.117181 -15.227820 44.026279 -0.782232 1.923973 0.061220 -0.005215 1028530.000000 0 0 1
-28.114519 29.312881 -14.409720 43.096533 -0.806263 1.911721 0.053155 -0.001770 750891.000000 0 0 1
-28.473229 30.003481 -13.111720 43.391829 -0.811561 1.877765 0.057304 -0.008237 -37208.500000 0 0 1
-28.940529 31.310281 -13.285720 44.658686 -0.824709 1.872864 0.067908 -0.011179 146648.000000 0 0 1
-29.095729 32.051381 -12.084020 44.943031 -0.833697 1.843020 0.061417 -0.013877 228949.000000 0 0 1
-28.099729 33.231981 -12.034620 45.152978 -0.868884 1.840587 0.043703 -0.013436 169404.000000 0 0 1
-28.488979 -33.924770 -13.017020 46.173096 0.872272 1.856589 0.040348 -0.019299 -225280.000000 0 0 1
-27.613829 -32.862770 -13.258920 44.925318 0.871974 1.870390 0.045936 -0.016145 -361579.000000 0 0 1
-27.904359 -32.102670 -14.565320 44.959796 0.855248 1.900712 0.040262 -0.016263 -139224.000000 0 0 1
-27.414289 -32.744670 -15.704420 45.501489 0.873772 1.923185 0.038247 -0.020116 -90596.800000 0 0 1
-27.890489 -32.095570 -16.891120 45.752759 0.855385 1.948926 0.048207 -0.007965 112124.000000 0 0 1
-27.168119 -32.507170 -18.223320 46.118458 0.874629 1.977018 0.039514 -0.009712 -55997.400000 0 0 1
-27.257039 -33.811770 -18.766320 47.311275 0.892322 1.978668 0.042037 -0.006402 -34779.500000 0 0 1
-26.693669 33.208581 -18.033020 46.266096 -0.893731 1.971175 0.037338 -0.014754 -970112.000000 0 0 1
-26.893469 31.829281 -18.672620 45.662113 -0.869254 1.992078 0.042937 -0.021825 -267267.000000 0 0 1
-28.153239 31.227681 -18.788120 46.051779 -0.837127 1.991035 0.058189 -0.016606 -466863.000000 0 0 1
-28.996979 31.970981 -19.648220 47.423844 -0.834139 1.997982 0.053624 -0.012730 -324981.000000 0 0 1
-30.493889 31.528581 -19.653120 48.064267 -0.802079 1.992037 0.056455 -0.019003 422887.000000 0 0 1
-30.745689 30.231281 -20.099420 47.573253 -0.776962 2.006992 0.060976 -0.021681 655161.000000 0 0 1
-32.130329 30.149281 -20.448220 48.574344 -0.753600 2.005308 0.072892 -0.022696 517711.000000 0 0 1
-32.486949 28.794081 -21.059820 48.249528 -0.725210 2.022476 0.081315 -0.022783 841916.000000 0 0 1
-33.872979 28.630081 -21.440220 49.261986 -0.701712 2.021088 0.082192 -0.027385 1071960.000000 0 0 1
-33.999839 27.261081 -21.800120 48.727824 -0.675838 2.034636 0.074637 -0.018072 837778.000000 0 0 1
-35.456809 26.640281 -21.755620 49.398349 -0.644361 2.026854 0.073632 -0.012084 1299820.000000 0 0 1
-36.330479 27.250081 -22.716020 50.778816 -0.643540 2.034599 0.064488 -0.017850 -137637.000000 0 0 1
36.495229 26.332181 -23.227820 50.644023 0.625026 2.047270 0.069568 -0.020543 -506867.000000 0 0 1
35.669559 26.896381 -24.324520 50.866639 0.646084 2.069402 0.073750 -0.029572 -397040.000000 0 0 1
36.441789 27.346581 -25.420640 52.173253 0.643769 2.079717 0.086531 -0.026787 -739988.000000 0 0 1
35.610609 27.582881 -26.501300 52.261359 0.659041 2.102603 0.103816 -0.028999 -310754.000000 0 0 1
36.353569 27.791381 -27.845630 53.566052 0.652701 2.117457 0.106133 -0.020257 113434.000000 0 0 1
36.809169 26.590481 -28.452860 53.586694 0.625594 2.130540 0.073200 -0.001021 -137887.000000 0 0 1
-36.210759 26.898281 -29.609910 53.958163 -0.638894 2.151673 0.040321 0.005022 -598654.000000 0 0 1
-35.491674 25.686381 -30.245020 53.237302 -0.626475 2.175012 0.036203 0.006872 243090.000000 0 0 1
-34.471139 25.051981 -29.512130 51.834612 -0.628456 2.176514 0.038381 0.005526 -585510.000000 0 0 1
-33.233879 25.686081 -29.565460 51.365182 -0.657990 2.184126 0.037174 0.015389 -809737.000000 0 0 1
-32.147419 25.074581 -28.673520 49.843374 -0.662418 2.183734 0.032045 -0.004406 -275479.000000 0 0 1
-31.770539 23.684781 -28.942020 49.071137 -0.640612 2.201604 0.054954 -0.004139 41715.800000 0 0 1
-32.642089 22.764581 -28.353020 48.863339 -0.608979 2.189834 0.045139 -0.007395 -359810.000000 0 0 1
-32.541199 21.401281 -29.048370 48.587573 -0.581746 2.211620 0.038423 -0.011849 801357.000000 0 0 1
-31.317409 20.697781 -28.710530 47.259632 -0.584002 2.223714 0.063917 -0.015744 757185.000000 0 0 1
-31.239259 19.440981 -29.328760 47.053366 -0.556674 2.243763 0.057748 -0.020404 -246276.000000 0 0 1
-29.786719 18.932881 -29.440100 45.961093 -0.566196 2.266003 0.085044 -0.030218 -855876.000000 0 0 1
-29.037589 19.596381 -30.387860 46.374797 -0.593655 2.285332 0.098743 -0.030203 -432261.000000 0 0 1
-27.779609 19.003281 -30.593720 45.484141 -0.599957 2.308545 0.098339 -0.036713 -189206.000000 0 0 1
-27.748189 17.653081 -31.423360 45.486491 -0.566605 2.333431 0.100130 -0.036004 -614249.000000 0 0 1
-28.117509 16.503381 -30.688630 44.774411 -0.530764 2.325957 0.074603 -0.028536 133112.000000 0 0 1
-28.070059 15.409981 -31.564490 44.963460 -0.502062 2.349003 0.043854 -0.020512 -125667.000000 0 0 1
-28.547099 14.113281 -30.904380 44.375695 -0.459146 2.341201 0.042422 -0.019534 312042.000000 0 0 1
-29.901709 14.100981 -30.453300 44.948341 -0.440652 2.315179 0.033000 -0.015624 375725.000000 0 0 1
-30.485019 12.832181 -30.247470 44.820873 -0.398422 2.311561 0.026054 -0.012102 -70209.000000 0 0 1
-30.114719 11.963581 -29.043500 43.514922 -0.378148 2.301559 0.013606 -0.018336 -202981.000000 0 0 1
-30.705389 12.440881 -27.823350 43.263556 -0.384955 2.269353 0.009144 -0.015028 285360.000000 0 0 1
-30.823389 11.477081 -26.783130 42.416279 -0.356445 2.254199 0.015878 -0.003747 31445.000000 0 0 1
-30.602519 12.187481 -25.438390 41.619233 -0.378998 2.228394 0.010233 -0.012654 -448533.000000 0 0 1
-29.253069 12.497181 -25.278640 40.631653 -0.403740 2.242271 0.017488 -0.016236 -710809.000000 0 0 1
-29.006139 12.955581 -23.942920 39.780229 -0.420064 2.216649 0.015798 -0.009338 618153.000000 0 0 1
-27.500159 13.213981 -23.609920 38.578444 -0.447931 2.229380 0.028674 -0.009189 78066.700000 0 0 1
-26.844289 14.179981 -24.402620 38.950938 -0.485976 2.247846 0.044665 -0.013965 1178540.000000 0 0 1
-25.408949 14.212281 -24.205420 37.861669 -0.509987 2.264400 0.044529 -0.016198 1353110.000000 0 0 1
-24.908239 14.892381 -22.912620 36.975553 -0.538866 2.239118 0.040448 -0.014501 -902107.000000 0 0 1
-25.255829 16.250381 -22.867120 37.747013 -0.571743 2.221567 0.054958 -0.020603 132825.000000 0 0 1
-25.524469 16.757181 -21.567620 37.382668 -0.580941 2.185776 0.048126 -0.012097 -349539.000000 0 0 1
-26.983249 16.858581 -21.107720 38.181715 -0.558441 2.156544 0.043940 -0.009766 -322855.000000 0 0 1
-27.656459 15.624781 -20.976120 38.065879 -0.514256 2.154416 0.041254 -0.014511 921699.000000 0 0 1
-28.801099 15.764081 -20.096020 38.494929 -0.500801 2.120041 0.029211 -0.011074 180014.000000 0 0 1
-29.824589 14.573981 -20.171720 38.843343 -0.454532 2.116839 0.012442 -0.013376 127590.000000 0 0 1
-30.441319 14.425281 -21.411720 39.915215 -0.442527 2.136998 0.005986 -0.006316 555553.000000 0 0 1
-31.361529 15.483081 -21.777620 41.201165 -0.458592 2.127709 0.006310 -0.001880 -251880.000000 0 0 1
-31.847379 15.504981 -23.232820 42.360641 -0.453075 2.151309 0.012667 -0.001947 -178032.000000 0 0 1
-32.903429 14.619781 -23.526920 43.010343 -0.418124 2.149580 0.013942 -0.006404 33098.400000 0 0 1
-33.280719 14.885581 -24.877820 44.137203 -0.420584 2.169591 0.029043 -0.014782 874313.000000 0 0 1
-34.639551 14.199781 -25.342980 45.208394 -0.389037 2.165884 0.017396 -0.011011 942603.000000 0 0 1
-34.638287 12.808881 -25.690230 44.987401 -0.354195 2.178585 0.028655 -0.013418 45591.300000 0 0 1
-34.589667 11.919481 -24.636720 44.107676 -0.331853 2.163443 0.023300 -0.014049 -194630.000000 0 0 1
-34.658084 10.389981 -25.104710 44.038403 -0.291260 2.177380 0.030823 -0.018343 -316226.000000 0 0 1
-35.897885 10.024981 -25.640710 45.239412 -0.272326 2.173386 0.042339 -0.019949 -352043.000000 0 0 1
-35.895225 8.725581 -26.082920 45.220810 -0.238460 2.185590 0.026535 0.001158 525472.000000 0 0 1
36.466379 8.156581 -26.464410 45.789645 0.220052 2.187018 0.049782 -0.006921 396045.000000 0 0 1
35.575759 7.846781 -25.427580 44.427113 0.217090 2.180158 0.037656 -0.001112 581495.000000 0 0 1
34.437209 7.121181 -25.940730 43.698444 0.203913 2.206359 0.043643 0.002754 474495.000000 0 0 1
33.514999 6.494181 -24.896420 42.252352 0.191397 2.200904 0.045271 -0.004825 -153024.000000 0 0 1
34.093579 5.388281 -24.235420 42.175363 0.156747 2.182954 0.040538 -0.010575 703943.000000 0 0 1
33.182469 4.812281 -23.281720 40.820004 0.144021 2.177729 0.033508 -0.007067 276812.000000 0 0 1
33.850279 3.632381 -22.563720 40.843078 0.106898 2.156096 0.030165 -0.005701 13913.200000 0 0 1
34.418689 2.530281 -23.264920 41.620968 0.073383 2.163941 0.032240 -0.008150 117216.000000 0 0 1
35.810789 2.572881 -23.008220 42.642825 0.071723 2.140707 0.065472 -0.002260 -112891.000000 0 0 1
36.528499 1.290181 -23.457420 43.430938 0.035305 2.141362 0.084314 -0.005357 -287181.000000 0 0 1
35.934819 0.118681 -22.921120 42.622799 0.003303 2.138582 0.054615 -0.008029 175274.000000 0 0 1
36.603919 -1.106419 -23.202120 43.352156 -0.030218 2.135542 0.075140 -0.024677 127117.000000 0 0 1
-23.233039 29.247481 27.309657 46.271012 -0.899504 0.939476 0.066386 -0.031244 -1447880.000000 0 0 1
-24.569639 29.520181 27.017837 46.958191 -0.876668 0.957753 0.064439 -0.029641 -18582.900000 0 0 1
-24.997739 29.158281 25.696157 46.210224 -0.862073 0.981146 0.056731 -0.022431 -395116.000000 0 0 1
-25.359339 27.691781 25.404177 45.335450 -0.829336 0.975976 0.063472 -0.023782 -115514.000000 0 0 1
-26.654779 27.320281 25.853697 46.100853 -0.797727 0.975436 0.065803 -0.022008 242378.000000 0 0 1
-26.872179 27.037981 27.226477 46.844930 -0.788474 0.950588 0.068594 -0.026740 -955960.000000 0 0 1
-26.276949 25.724981 27.850877 46.129427 -0.774784 0.922593 0.068458 -0.021043 699578.000000 0 0 1
-24.860439 25.722281 28.026547 45.444081 -0.802435 0.906220 0.071445 -0.028351 489342.000000 0 0 1
-24.482339 26.297281 29.303487 46.364062 -0.821124 0.886626 0.059623 -0.032307 -56499.100000 0 0 1
-23.070639 25.993281 29.829917 45.800971 -0.844896 0.861507 0.069506 -0.028838 258407.000000 0 0 1
-21.946539 26.734481 29.320777 45.344139 -0.883436 0.867641 0.074640 -0.030137 382038.000000 0 0 1
-20.758039 26.249381 29.858997 44.849591 -0.901690 0.842286 0.078901 -0.033880 -46249.500000 0 0 1
-19.974939 24.927281 29.496227 43.478672 -0.895246 0.825204 0.095016 -0.030971 -130743.000000 0 0 1
-19.307739 24.948881 28.263907 42.356627 -0.912179 0.840240 0.097022 -0.024125 79296.700000 0 0 1
-19.926039 24.172681 27.231487 41.508064 -0.881401 0.855219 0.105158 -0.024814 -41103.200000 0 0 1
-19.953039 22.580581 27.391587 40.722296 -0.847095 0.833021 0.096099 -0.017513 112962.000000 0 0 1
-20.726239 22.085981 28.466007 41.565383 -0.817148 0.816400 0.081631 -0.017300 70006.600000 0 0 1
-20.630039 20.680681 28.579807 40.866789 -0.786624 0.796322 0.085023 -0.019772 193848.000000 0 0 1
-21.316939 20.132781 29.858457 41.848156 -0.756837 0.776322 0.090339 -0.027069 -38730.100000 0 0 1
-20.575539 20.494081 30.992907 42.472584 -0.783415 0.752890 0.080480 -0.035747 15918.300000 0 0 1
-21.113239 19.996381 32.157370 43.355744 -0.758237 0.735181 0.072981 -0.031920 -314746.000000 0 0 1
-20.180939 20.287681 33.368595 43.958201 -0.788036 0.708870 0.069827 -0.028465 -100339.000000 0 0 1
-20.103639 21.646481 33.689783 44.807677 -0.822336 0.719895 0.057503 -0.030038 450084.000000 0 0 1
-19.157339 22.433181 32.966338 44.238339 -0.864000 0.729964 0.078529 -0.027349 49476.000000 0 0 1
-17.696339 22.491981 33.448465 44.021011 -0.904166 0.707745 0.071235 -0.024448 137688.000000 0 0 1
-16.885539 21.335681 33.311405 43.011422 -0.901307 0.684907 0.071099 -0.029167 -320229.000000 0 0 1
-15.560039 21.663281 33.644120 42.934128 -0.947915 0.670322 0.058154 -0.029644 -533819.000000 0 0 1
-14.598239 20.549081 33.164996 41.656815 -0.953119 0.649894 0.050652 -0.033158 511247.000000 0 0 1
-13.209839 20.569881 33.524287 41.490934 -0.999929 0.630063 0.045092 -0.025828 835518.000000 0 0 1
-12.903839 20.228181 -33.178620 40.945197 -1.002964 2.515490 0.057942 -0.032421 -1940570.000000 0 0 1
-11.458939 20.146481 -32.863890 40.214714 -1.053648 2.527351 0.042849 -0.017876 -1251400.000000 0 0 1
-10.755839 21.388181 -33.017410 40.783474 -1.104842 2.514229 0.045857 -0.024862 -59936.400000 0 0 1
-9.462939 21.251681 -32.470770 39.944112 -1.151875 2.519919 0.039637 -0.019390 169652.000000 0 0 1
-8.625239 22.601481 -32.421480 40.452121 -1.206232 2.500559 0.051900 -0.022154 399548.000000 0 0 1
-8.627439 23.319681 -31.200650 39.896376 -1.216448 2.468732 0.048781 -0.021809 -156548.000000 0 0 1
-7.677039 22.838681 -30.300620 38.712657 -1.246520 2.469798 0.036993 -0.019348 -486059.000000 0 0 1
-7.202639 23.726981 -29.134060 38.257562 -1.276074 2.436458 0.051414 -0.019106 408155.000000 0 0 1
-6.247939 24.704781 -29.576970 39.040493 -1.323086 2.430420 0.062781 -0.024606 287067.000000 0 0 1
-6.076639 25.761981 -28.637430 38.996251 -1.339154 2.395525 0.074865 -0.021016 -224932.000000 0 0 1
-4.802939 26.561581 -28.965260 39.592576 -1.391907 2.391438 0.064840 -0.030918 -500531.000000 0 0 1
-3.672839 25.948681 -28.401710 38.645581 -1.430188 2.396356 0.080180 -0.029708 105182.000000 0 0 1
-2.468539 26.066181 -29.158510 39.188751 -1.476375 2.409913 0.094598 -0.032494 578372.000000 0 0 1
-1.579639 27.293281 -28.889680 39.774767 -1.512984 2.383766 0.100978 -0.041899 -483603.000000 0 0 1
-1.035039 27.302381 -27.592400 38.830811 -1.532904 2.361119 0.107576 -0.055022 -172871.000000 0 0 1
-0.229139 28.423781 -27.468390 39.528171 -1.562735 2.339086 0.113905 -0.047174 -1019590.000000 0 0 1
0.359261 28.689681 -26.041590 38.747790 1.558275 2.307810 0.121172 -0.059542 426362.000000 0 0 1
1.484661 27.961181 -25.601020 37.940006 1.517749 2.311458 0.147154 -0.072347 771615.000000 0 0 1
2.688461 28.032881 -26.381270 38.588102 1.475185 2.323567 0.137377 -0.072534 1149010.000000 0 0 1
3.999861 27.827681 -25.487190 37.947010 1.428037 2.307233 0.138325 -0.074570 948621.000000 0 0 1
4.354861 26.548881 -24.972920 36.707692 1.408212 2.318993 0.142920 -0.068168 841842.000000 0 0 1
5.533361 26.820881 -24.161820 36.520834 1.367343 2.293734 0.108318 -0.061580 1055170.000000 0 0 1
6.189561 25.628181 -23.360620 35.225458 1.333820 2.295848 0.113129 -0.055057 -500456.000000 0 0 1
7.396961 26.060481 -22.855720 35.443584 1.294232 2.271621 0.102518 -0.057327 -1467360.000000 0 0 1
8.147761 24.990481 -22.368520 34.514647 1.255629 2.275867 0.087970 -0.044643 108632.000000 0 0 1
9.594361 25.469581 -22.100420 35.059662 1.210537 2.252821 0.079894 -0.029954 -388624.000000 0 0 1
9.766861 26.039081 -20.816120 34.738108 1.211951 2.213335 0.092940 -0.028730 1376510.000000 0 0 1
11.158261 26.237381 -20.405420 35.061205 1.168688 2.191975 0.116654 -0.037049 1540500.000000 0 0 1
11.977161 25.039181 -19.942120 34.177494 1.124629 2.193812 0.077229 -0.017892 -415747.000000 0 0 1
12.312261 24.213681 -20.997920 34.333755 1.100385 2.228855 0.073188 -0.024848 -136395.000000 0 0 1
12.574861 22.878881 -20.536920 33.216493 1.068239 2.237342 0.055107 -0.008151 -110418.000000 0 0 1
12.795561 21.946881 -21.773620 33.458668 1.042953 2.279384 0.056100 -0.015326 -65799.900000 0 0 1
11.605461 21.804381 -22.530020 33.432313 1.081680 2.310271 0.060545 -0.026610 391035.000000 0 0 1
11.781661 20.843981 -23.577320 33.603111 1.056335 2.348494 0.046579 -0.031307 584600.000000 0 0 1
10.760061 21.052181 -24.763420 34.237409 1.098297 2.379345 0.067722 -0.028197 -574743.000000 0 0 1
9.433261 20.818181 -24.529620 33.527382 1.145346 2.391506 0.060535 -0.034507 -1084520.000000 0 0 1
8.772761 20.477181 -25.766980 34.061907 1.166035 2.428703 0.065176 -0.033549 -9278.120000 0 0 1
7.313461 20.056481 -25.543170 33.289678 1.221136 2.445417 0.080588 -0.046113 208217.000000 0 0 1
6.288661 21.020681 -25.293440 33.483942 1.280105 2.427046 0.110027 -0.052049 390600.000000 0 0 1
6.317161 21.581381 -23.941620 32.846061 1.286038 2.387516 0.116445 -0.055505 -10027.500000 0 0 1
4.862061 21.895881 -23.474220 32.467033 1.352288 2.378956 0.140325 -0.060636 365092.000000 0 0 1
4.285661 22.926881 -24.227320 33.629924 1.386002 2.375189 0.143988 -0.063776 -700782.000000 0 0 1
2.925561 22.997281 -23.889520 33.288782 1.444263 2.371211 0.160636 -0.062312 -414960.000000 0 0 1
2.281061 24.339081 -24.379820 34.524914 1.477349 2.354844 0.142235 -0.055803 -610423.000000 0 0 1
0.906961 24.092281 -24.360820 34.274045 1.533169 2.361383 0.157556 -0.073742 -320463.000000 0 0 1
0.133761 24.922181 -25.255870 35.482277 1.565429 2.362837 0.139012 -0.061765 364116.000000 0 0 1
-1.377139 24.691481 -25.356510 35.419180 -1.515080 2.368705 0.143467 -0.055119 -135073.000000 0 0 1
-1.674839 23.483881 -25.994210 35.071309 -1.499598 2.405625 0.155256 -0.060458 461764.000000 0 0 1
-2.973039 23.515081 -26.610230 35.635689 -1.445032 2.413928 0.140951 -0.048002 735852.000000 0 0 1
-3.499639 22.205381 -27.170170 35.263927 -1.414479 2.450391 0.111811 -0.047350 -61390.500000 0 0 1
-2.761739 21.846381 -28.342720 35.891522 -1.445047 2.481079 0.138489 -0.059812 324884.000000 0 0 1
-3.200139 20.555981 -28.844170 35.563681 -1.416357 2.516753 0.099607 -0.049355 1252750.000000 0 0 1
-4.491539 20.498581 -29.802720 36.449525 -1.355091 2.528102 0.073023 -0.035936 1007100.000000 0 0 1
-4.421439 20.853481 -31.159160 37.753279 -1.361866 2.541594 0.072320 -0.037054 -98479.800000 0 0 1
-4.068239 22.219681 -31.425610 38.701857 -1.389710 2.518354 0.090422 -0.036855 -209015.000000 0 0 1
-3.463639 22.435381 -32.808780 39.896857 -1.417623 2.536308 0.075928 -0.032277 -746283.000000 0 0 1
-2.223039 21.884781 -33.066460 39.714938 -1.469564 2.554573 0.074391 -0.032307 -563925.000000 0 0 1
-1.710239 22.074381 33.696752 40.319651 -1.493475 0.581317 0.069261 -0.017629 173150.000000 0 0 1
-0.621439 21.005381 33.384581 39.447971 -1.541220 0.561807 0.079744 -0.011946 144629.000000 0 0 1
-1.158539 19.705981 33.345046 38.749967 -1.512073 0.534511 0.068508 -0.001528 -3362.740000 0 0 1
-0.235339 18.840481 32.746218 37.780072 -1.558306 0.522130 0.080815 -0.007922 -72670.900000 0 0 1
-0.908039 17.528581 32.260149 36.725915 -1.519039 0.498286 0.058700 -0.001784 493065.000000 0 0 1
-1.712839 17.757881 31.076677 35.833448 -1.474639 0.521138 0.054050 -0.004170 330049.000000 0 0 1
-2.108439 16.529681 30.500277 34.755471 -1.443927 0.500031 0.040725 -0.001669 -269560.000000 0 0 1
-3.139339 16.755281 29.368227 33.957144 -1.385580 0.525922 0.060420 0.001392 462240.000000 0 0 1
-4.443839 17.008381 29.911927 34.695188 -1.315236 0.531328 0.048886 -0.002086 519779.000000 0 0 1
-5.003839 18.248281 29.462617 35.015481 -1.303166 0.570896 0.057940 -0.003108 662637.000000 0 0 1
-6.564439 18.235281 29.475047 35.275993 -1.225253 0.581653 0.037050 -0.012139 690613.000000 0 0 1
-7.152839 17.447481 28.416397 34.103802 -1.181730 0.585868 0.019732 -0.008453 396762.000000 0 0 1
-8.538139 17.803881 28.379387 34.572642 -1.123629 0.607877 0.020235 -0.002760 346809.000000 0 0 1
-9.355439 16.837881 27.472967 33.552978 -1.063650 0.611490 0.022207 -0.006751 -66364.800000 0 0 1
-9.811439 15.550181 27.865067 33.384643 -1.007927 0.583268 0.029327 -0.012762 144883.000000 0 0 1
-10.598839 15.503181 29.028707 34.573831 -0.971124 0.574222 0.030950 -0.013567 -462183.000000 0 0 1
-11.161339 14.088181 29.405587 34.463616 -0.900800 0.548638 0.045089 -0.015471 950610.000000 0 0 1
-10.160239 13.087981 29.815637 34.110085 -0.910673 0.507216 0.055113 -0.012737 1259840.000000 0 0 1
-9.411039 13.272281 31.040887 35.046508 -0.954006 0.482785 0.055217 -0.014401 262570.000000 0 0 1
-10.013139 12.797681 32.404502 36.250453 -0.906868 0.464811 0.079685 -0.019438 -261149.000000 0 0 1
-9.882639 11.352481 32.532123 35.845284 -0.854505 0.433335 0.077946 -0.022767 522943.000000 0 0 1
-10.459539 10.972281 33.793174 37.037434 -0.809318 0.421672 0.087755 -0.025006 -112924.000000 0 0 1
-10.785039 9.478981 33.973128 36.882808 -0.721035 0.399874 0.076811 -0.015575 -329690.000000 0 0 1
-9.670839 8.608481 -33.967380 36.351258 -0.727345 2.777426 0.097997 -0.020929 99818.300000 0 0 1
-9.514839 8.028081 -32.682770 34.973500 -0.700850 2.777651 0.122842 -0.038475 26731.600000 0 0 1
-8.627039 8.861181 -31.701460 34.028354 -0.798786 2.769639 0.121865 -0.039421 -45953.900000 0 0 1
-9.265439 10.032181 -31.203540 34.061032 -0.825110 2.729056 0.104265 -0.032409 690719.000000 0 0 1
-8.313739 10.850181 -30.490360 33.414170 -0.916988 2.720146 0.102787 -0.043223 291388.000000 0 0 1
-7.610139 11.933681 -31.333800 34.382175 -1.003115 2.717320 0.071057 -0.044753 -226059.000000 0 0 1
-8.339739 13.074281 -31.664120 35.257688 -1.002993 2.686174 0.062938 -0.034508 128700.000000 0 0 1
-7.443639 13.976081 -32.289490 35.963172 -1.081411 2.685655 0.040000 -0.025752 318333.000000 0 0 1
-8.090939 15.355181 -32.670140 36.994363 -1.085846 2.653249 0.032366 -0.014020 91612.700000 0 0 1
-8.897139 15.403381 -33.848530 38.238021 -1.047003 2.657733 0.041409 -0.014593 202667.000000 0 0 1
-9.441939 16.691881 -33.921270 38.966930 -1.056009 2.627043 0.050918 -0.009624 -1721420.000000 0 0 1
-9.859539 17.120981 32.676561 38.185025 -1.048305 0.543812 0.037898 -0.014112 997082.000000 0 0 1
-11.008739 16.400581 32.181129 37.759720 -0.979634 0.550504 0.035748 -0.018170 405342.000000 0 0 1
-12.172839 16.493981 32.943876 38.801139 -0.935009 0.556623 0.044515 -0.022813 -1389750.000000 0 0 1
-13.392139 15.826481 32.209048 38.304695 -0.868521 0.571918 0.048491 -0.034855 -7557.320000 0 0 1
-13.405039 14.437981 32.233022 37.777216 -0.822480 0.548630 0.045137 -0.029538 448041.000000 0 0 1
-14.483339 13.867781 32.964343 38.584069 -0.763690 0.546495 0.046865 -0.021213 32895.200000 0 0 1
-14.360839 12.318481 32.994670 38.034549 -0.708995 0.520658 0.046063 -0.022316 -114339.000000 0 0 1
-14.442739 11.714381 31.728007 36.776158 -0.681467 0.530146 0.025315 -0.015674 293440.000000 0 0 1
-13.243539 11.152381 31.237387 35.714720 -0.699890 0.506111 0.039586 -0.016998 -107085.000000 0 0 1
-13.552839 10.773781 29.717487 34.393063 -0.671652 0.527527 0.033435 -0.009052 321350.000000 0 0 1
-14.396039 9.655681 29.500687 34.216496 -0.590802 0.531244 0.025169 -0.002743 202570.000000 0 0 1
-14.197539 9.264281 28.129977 32.843456 -0.578150 0.542372 0.007778 0.003908 375713.000000 0 0 1
-15.037239 8.019981 27.645777 32.476570 -0.489964 0.552428 0.026475 0.002957 375433.000000 0 0 1
-14.762439 6.791581 28.316737 32.648013 -0.431187 0.520975 0.017718 0.006214 -121518.000000 0 0 1
-15.536839 5.770381 27.737637 32.312028 -0.355611 0.538594 0.019306 0.007222 -389724.000000 0 0 1
-14.974939 4.293481 27.773447 31.844106 -0.279221 0.511177 0.026000 0.008732 -403872.000000 0 0 1
-13.857039 4.074281 26.975297 30.598757 -0.285964 0.491594 0.021489 0.005811 -333437.000000 0 0 1
-14.153639 4.036281 25.618257 29.545086 -0.277802 0.521465 0.013120 0.002664 -806400.000000 0 0 1
-12.955839 3.626681 24.775157 28.192463 -0.272940 0.497483 0.011791 0.001218 -592679.000000 0 0 1
-12.566339 2.231581 24.907567 27.987135 -0.175752 0.473528 0.017744 0.002495 -112131.000000 0 0 1
-11.674739 1.937581 23.868737 26.641515 -0.164464 0.460292 0.022176 -0.011609 -593439.000000 0 0 1
-10.652539 0.876381 24.335787 26.579600 -0.082085 0.413845 0.027392 -0.001911 516858.000000 0 0 1
-9.411039 1.508281 24.744717 26.516854 -0.158916 0.367664 0.027911 -0.001720 921550.000000 0 0 1
-8.457439 0.502281 25.030907 26.425875 -0.059320 0.326371 0.031050 -0.002885 -232469.000000 0 0 1
-7.017839 0.868681 24.673387 25.666723 -0.123155 0.279119 0.048903 -0.010635 -529459.000000 0 0 1
-6.646939 0.978381 23.304487 24.253621 -0.146143 0.280684 0.047289 -0.007923 1049170.000000 0 1 0
-5.259439 1.222181 22.993877 23.619352 -0.228326 0.230648 0.049624 -0.007745 1088770.000000 0 1 0
-4.568239 2.581181 23.298067 23.881608 -0.514307 0.221517 0.056886 -0.010230 -267938.000000 0 1 0
-4.278639 2.595281 24.662177 25.164761 -0.545234 0.200193 0.058879 -0.009395 -54835.100000 0 0 1
-4.221739 3.884481 25.160607 25.806364 -0.743817 0.224180 0.060484 -0.010080 125618.000000 0 0 1
4.356761 -23.534919 12.567580 27.033643 -1.387749 1.087290 0.100135 -0.024157 226716.000000 0 0 1
4.150161 -24.913919 12.976880 28.395891 -1.405732 1.096179 0.107817 -0.027345 -808293.000000 0 0 1
2.809761 -25.278759 12.842480 28.492801 -1.460100 1.103217 0.080937 -0.027509 -209721.000000 0 0 1
2.381061 -26.500639 13.722280 29.937507 -1.481188 1.094643 0.065264 -0.016975 -64136.400000 0 0 1
2.352761 -26.184129 15.114780 30.324918 -1.481183 1.049012 0.072517 -0.017767 -19283.700000 0 0 1
2.222061 -27.340199 15.913680 31.712289 -1.489700 1.045101 0.059983 -0.016244 -339737.000000 0 0 1
2.013861 -27.038339 17.357180 32.193153 -1.496452 1.001360 0.055215 -0.017312 -842870.000000 0 0 1
3.102861 -26.645849 18.092480 32.356867 -1.454870 0.977431 0.068153 -0.026490 -787715.000000 0 0 1
3.134961 -27.122399 19.420480 33.505336 -1.455721 0.952530 0.060803 -0.025467 252959.000000 0 0 1
4.063061 -26.196559 20.265880 33.368759 -1.416923 0.918100 0.056482 -0.026215 342039.000000 0 0 1
3.404561 -24.996019 20.732480 32.653143 -1.435425 0.882878 0.065363 -0.023034 325938.000000 0 0 1
4.244061 -24.218619 21.552180 32.696331 -1.397318 0.851092 0.073364 -0.026535 -54837.300000 0 0 1
3.407161 -23.206019 22.385480 32.422797 -1.425016 0.808721 0.078666 -0.027881 41554.000000 0 0 1
2.654961 -22.235619 21.650180 31.148064 -1.451958 0.802275 0.093275 -0.027982 547687.000000 0 0 1
3.395561 -21.394119 20.711080 29.969768 -1.413395 0.807834 0.086194 -0.022760 200667.000000 0 0 1
2.498661 -20.354619 19.977380 28.629522 -1.448651 0.798489 0.061680 -0.027262 131625.000000 0 0 1
1.983161 -19.271519 20.705180 28.355403 -1.468251 0.752178 0.048681 -0.026882 -109808.000000 0 0 1
1.257261 -18.409319 19.884280 27.126893 -1.502607 0.748060 0.046600 -0.033540 -335491.000000 0 0 1
1.097961 -17.073219 20.587580 26.768429 -1.506576 0.693366 0.046022 -0.029495 215510.000000 0 0 1
2.272061 -16.276219 20.528980 26.296703 -1.432099 0.675063 0.013517 -0.018818 196843.000000 0 0 1
1.996961 -15.006119 21.109780 25.976803 -1.438497 0.622129 0.027103 -0.014613 380196.000000 0 0 1
3.132961 -14.005119 20.791680 25.263665 -1.350719 0.604146 -0.010337 -0.006925 -632485.000000 0 0 1
3.370461 -13.599919 19.427780 23.953214 -1.327862 0.624814 -0.028300 -0.007002 -334089.000000 0 1 0
2.289161 -13.245819 18.569480 22.924170 -1.399665 0.626577 -0.008666 -0.001506 209557.000000 0 1 0
1.398061 -12.037519 19.035180 22.565339 -1.455172 0.566921 -0.005300 -0.000867 -196072.000000 0 1 0
1.890161 -10.691619 18.816880 21.724604 -1.395815 0.523339 0.000499 -0.006782 -289010.000000 0 1 0
1.531761 -9.706719 19.738580 22.049450 -1.414283 0.461925 0.011116 -0.016102 596465.000000 0 1 0
0.014161 -9.343419 19.867580 21.954963 -1.569281 0.439595 0.019588 -0.014698 565052.000000 0 1 0
-0.171439 -8.357619 20.809080 22.425365 1.550286 0.381986 0.027801 -0.026714 -728512.000000 0 1 0
-1.532739 -8.045719 20.758180 22.315576 1.382548 0.375811 0.036361 -0.023911 -243718.000000 0 1 0
-2.017939 -7.323019 22.047280 23.319117 1.301909 0.331794 0.039633 -0.022989 -232196.000000 0 1 0
-1.922639 -8.107119 23.237880 24.686453 1.337944 0.344273 0.040245 -0.014052 52062.800000 0 1 0
-1.972839 -7.287919 24.421580 25.562070 1.306432 0.299841 0.036209 -0.011666 -318616.000000 0 0 1
-2.199539 -8.240019 25.586780 26.970710 1.309945 0.321737 0.037037 -0.010948 692593.000000 0 0 1
-1.087739 -9.142019 25.737880 27.334925 1.452371 0.343520 0.033340 -0.011772 461902.000000 0 0 1
-1.310739 -10.033719 26.863080 28.705724 1.440898 0.360249 0.044421 -0.016964 324686.000000 0 0 1
-0.163039 -11.049319 27.187080 29.347084 1.556042 0.386065 0.041266 -0.020880 287802.000000 0 0 1
0.982361 -10.465619 27.747480 29.671819 -1.477205 0.362126 0.033508 -0.019321 -758519.000000 0 0 1
1.888661 -11.408819 28.180980 30.461382 -1.406740 0.389398 0.033013 -0.028683 -497832.000000 0 0 1
3.069261 -10.809619 28.967680 31.070801 -1.294140 0.370043 0.042913 -0.031504 197785.000000 0 0 1
2.605461 -10.387719 30.272280 32.110809 -1.325045 0.340031 0.050788 -0.041751 -57060.400000 0 0 1
3.669661 -10.161119 31.145880 32.966355 -1.224225 0.333881 0.053626 -0.035070 -391133.000000 0 0 1
3.130261 -9.696119 32.536480 34.094512 -1.258523 0.303479 0.054571 -0.045131 304294.000000 0 0 1
2.262261 -10.665319 33.209980 34.953821 -1.361781 0.317208 0.061986 -0.045969 502048.000000 0 0 1
2.155061 -10.442819 -33.410617 35.070872 -1.367286 2.832664 0.061164 -0.050777 -7295.860000 0 0 1
3.406961 -10.682019 -32.477717 34.358624 -1.262052 2.809176 0.050380 -0.031928 1128070.000000 0 0 1
4.463961 -9.719919 -32.731617 34.434903 -1.140269 2.825754 0.034111 -0.044282 658922.000000 0 0 1
4.788461 -8.930119 -31.585517 33.171091 -1.078598 2.831156 0.045257 -0.035939 -607280.000000 0 0 1
3.719261 -7.878919 -31.171817 32.366533 -1.129756 2.869044 0.033829 -0.023404 -116947.000000 0 0 1
3.603461 -6.815419 -32.090017 33.003092 -1.084436 2.905818 0.048305 -0.030652 -65475.800000 0 0 1
2.955961 -5.703419 -31.518717 32.166694 -1.092633 2.940534 0.044616 -0.014975 -77919.700000 0 0 1
3.069761 -4.377019 -32.306417 32.745783 -0.959174 2.977595 0.049461 -0.020661 194095.000000 0 0 1
2.241561 -4.398019 -33.459017 33.821191 -1.099439 2.995116 0.052573 -0.032470 -12929.600000 0 0 1
2.433161 -3.232719 33.794580 34.035928 -0.925591 0.119158 0.062715 -0.010741 12745.200000 0 0 1
1.850161 -3.293419 32.370180 32.589849 -1.058958 0.116172 0.069091 -0.018602 519797.000000 0 0 1
0.446961 -3.093719 32.245480 32.396633 -1.427315 0.096637 0.066764 -0.025038 12397.300000 0 0 1
0.117961 -3.398719 30.927780 31.114189 -1.536103 0.109518 0.055956 -0.016466 441011.000000 0 0 1
-1.365139 -3.819519 30.682780 30.949722 1.227534 0.131434 0.055368 -0.023522 369698.000000 0 0 1
-2.236239 -2.731819 30.547980 30.751304 0.884823 0.115058 0.053075 -0.021146 -402686.000000 0 0 1
-3.515539 -3.194419 30.167580 30.539257 0.737577 0.156174 0.034033 -0.017969 744860.000000 0 0 1
-4.582239 -2.053919 29.870280 30.289422 0.421385 0.166553 0.047025 -0.025236 564009.000000 0 0 1
-4.515839 -1.705319 28.515780 28.921456 0.361075 0.167689 0.041382 -0.022360 273067.000000 0 0 1
-5.563939 -0.825419 28.081680 28.639474 0.147277 0.197686 0.035212 -0.023130 564163.000000 0 0 1
-5.601639 0.603981 28.644580 29.193409 -0.107407 0.194211 0.052869 -0.020903 517455.000000 0 0 1
-6.903339 0.942381 29.125680 29.947444 -0.135672 0.234805 0.041534 -0.013656 224375.000000 0 0 1
-7.223739 2.311781 29.017480 29.992347 -0.309726 0.255662 0.054587 -0.017373 -11084.500000 0 0 1
-8.645739 2.640081 29.568280 30.919282 -0.296369 0.296703 0.043385 -0.014897 7868.030000 0 0 1
-9.537739 2.030681 28.699780 30.311211 -0.209778 0.327538 0.026096 -0.007302 -494467.000000 0 0 1
-10.892639 2.404881 28.838080 30.920347 -0.217295 0.369087 0.005455 -0.002351 2339.730000 0 0 1
-11.816139 1.559881 27.969280 30.402878 -0.131254 0.402831 0.004743 0.002745 -368900.000000 0 0 1
-11.939939 0.238681 28.445880 30.851048 -0.019987 0.397480 0.013972 -0.001531 -160615.000000 0 0 1
-12.338139 -0.530019 27.349180 30.008136 0.042931 0.424142 0.018954 -0.005272 -1046440.000000 0 0 1
-12.368839 -2.042419 27.504480 30.226744 0.163649 0.427660 0.028093 -0.010895 -138905.000000 0 0 1
-11.220139 -2.791419 27.873980 30.176850 0.243836 0.393201 0.034970 -0.011728 276332.000000 0 0 1
-9.982239 -2.563119 27.229580 29.114682 0.251338 0.361825 0.032892 -0.018140 -247322.000000 0 0 1
-9.904839 -3.057519 25.775580 27.781915 0.299410 0.382371 0.029600 -0.011166 -640847.000000 0 0 1
-10.725839 -2.341419 24.863780 27.179651 0.214925 0.415799 0.019188 -0.009942 216133.000000 0 0 1
-10.602639 -2.923419 23.562480 26.002938 0.269041 0.436713 0.025626 -0.007135 290692.000000 0 0 1
-9.448139 -2.436519 22.603980 24.619989 0.252385 0.407499 0.031107 -0.016841 102692.000000 0 1 0
-8.210739 -2.810719 23.127680 24.702347 0.329819 0.358984 0.036914 -0.014506 -527340.000000 0 1 0
-7.183439 -2.283419 22.287680 23.527781 0.307772 0.326121 0.034385 -0.013408 144650.000000 0 1 0
-5.730439 -2.460319 22.766080 23.604777 0.405543 0.267370 0.036132 -0.009141 48500.900000 0 1 0
-5.123939 -3.725919 22.586180 23.457893 0.628722 0.273471 0.033742 -0.012315 -159336.000000 0 1 0
-5.622439 -4.774119 23.411880 24.546286 0.703982 0.305206 0.034396 -0.014782 -308771.000000 0 1 0
-5.354639 -6.168319 22.852280 24.268231 0.855895 0.343285 0.031960 -0.012110 -249978.000000 0 1 0
-6.264039 -6.668519 21.886780 23.722109 0.816664 0.395946 0.029162 -0.016783 -24331.400000 0 1 0
-6.181039 -6.023919 20.602880 22.337670 0.772525 0.396708 0.045908 -0.023024 -197763.000000 0 1 0
-7.522739 -6.045819 19.821680 22.046372 0.676976 0.453109 0.048954 -0.015152 135903.000000 0 1 0
-8.470039 -5.077419 20.250880 22.530421 0.540020 0.453718 0.051441 -0.012235 -444559.000000 0 1 0
-9.361139 -4.956419 19.174580 21.905742 0.486943 0.504695 0.048803 -0.009472 -159783.000000 0 1 0
-10.080039 -3.602719 19.232180 22.010532 0.343262 0.507892 0.044306 -0.014181 -739161.000000 0 1 0
-9.217439 -2.618819 18.900880 21.191098 0.276821 0.469211 0.037431 -0.012945 -572697.000000 0 1 0
-9.736039 -1.286619 19.079380 21.458532 0.131389 0.475360 0.033828 -0.005211 203853.000000 0 1 0
-8.726939 -0.248919 18.497280 20.454114 0.028515 0.440988 0.029911 -0.005087 766216.000000 0 1 0
-7.609939 0.146281 19.290580 20.737865 -0.019220 0.375810 0.031729 0.000980 636468.000000 0 1 0
-7.971839 1.025081 20.298080 21.831469 -0.127886 0.377029 0.051138 -0.002648 -352800.000000 0 1 0
-7.936739 2.558281 19.941980 21.615254 -0.311819 0.396060 0.043239 -0.015544 -285050.000000 0 1 0
-8.785039 2.947981 18.905080 21.053967 -0.323761 0.455743 0.027672 -0.024366 -140268.000000 0 1 0
-8.742139 4.325381 18.734180 21.121160 -0.459458 0.480019 0.025845 -0.016504 266945.000000 0 1 0
-9.689639 4.802481 17.569380 20.630948 -0.460146 0.551760 0.021709 -0.015703 -1159860.000000 0 1 0
-11.016339 4.632681 17.889380 21.513981 -0.398077 0.588952 0.019256 -0.013545 -1100900.000000 0 1 0
-11.936339 5.153581 16.962180 21.371737 -0.407579 0.653972 0.019014 -0.003473 -144768.000000 0 1 0
-12.122639 6.687581 16.970680 21.901737 -0.504117 0.684310 0.033409 -0.007195 -2003360.000000 0 1 0
-10.978239 7.391881 16.592980 21.224717 -0.592595 0.673287 0.031929 -0.011288 -114663.000000 0 1 0
-11.098939 8.825881 16.671480 21.886545 -0.671807 0.704828 0.033989 -0.015092 -487605.000000 0 1 0
-9.720239 9.463281 16.543680 21.394627 -0.772004 0.686825 0.021698 -0.017562 -419075.000000 0 1 0
-8.915539 9.440581 17.720680 21.968930 -0.813993 0.632377 0.022889 -0.011423 732179.000000 0 1 0
-7.716839 10.223781 17.721680 21.866258 -0.924235 0.625863 0.023239 -0.022575 547995.000000 0 1 0
-7.905239 11.759181 17.588080 22.585652 -0.978931 0.678161 0.005795 -0.014558 -588650.000000 0 1 0
-8.083239 12.341881 16.314380 21.995903 -0.990953 0.735194 0.009385 -0.020789 311329.000000 0 1 0
-9.022239 13.428981 16.258780 22.936570 -0.979215 0.782918 0.030416 -0.022675 309032.000000 0 1 0
-8.859339 14.242181 14.940480 22.462091 -1.014322 0.843112 0.034732 -0.017556 797106.000000 0 1 0
-7.567539 14.844781 14.773380 22.268541 -1.099357 0.845417 0.039353 -0.012005 460565.000000 0 1 0
-7.394839 15.253781 13.429280 21.626535 -1.119393 0.900826 0.028982 -0.021648 -138129.000000 0 1 0
-6.328739 16.335481 13.238880 21.958342 -1.201179 0.923654 0.001313 -0.011870 626053.000000 0 1 0
-4.972639 15.913481 13.389780 21.383456 -1.267930 0.894159 0.004958 -0.020634 196678.000000 0 1 0
-4.144939 17.040381 13.605380 22.195978 -1.332188 0.910987 0.012552 -0.020980 659458.000000 0 1 0
-2.607239 16.730481 13.537980 21.679105 -1.416202 0.896342 0.024180 -0.027640 1106800.000000 0 1 0
-1.998439 16.270081 14.807180 22.089859 -1.448579 0.836162 0.026554 -0.023701 162308.000000 0 1 0
-2.366239 14.971481 15.104980 21.398709 -1.414043 0.787128 0.025404 -0.019427 -198981.000000 0 1 0
-1.453339 14.312081 16.225380 21.684345 -1.469597 0.725371 0.017092 -0.007463 1096170.000000 0 1 0
-0.168639 14.056581 15.601480 21.000526 -1.558800 0.733391 -0.003710 -0.018811 706267.000000 0 1 0
0.832261 13.474981 16.435880 21.269836 1.509111 0.687662 0.003715 -0.005090 -20895.300000 0 1 0
1.715761 14.557581 17.076280 22.504807 1.453477 0.709353 0.006758 -0.008406 -753211.000000 0 1 0
1.060661 15.507481 17.905580 23.711110 1.502506 0.714905 0.004697 -0.008454 -555198.000000 0 1 0
1.902661 16.545081 18.326580 24.763347 1.456301 0.737624 0.018457 -0.009058 -879259.000000 0 1 0
1.156561 17.675281 19.055780 26.016839 1.505456 0.748897 0.024514 -0.008245 132231.000000 0 0 1
0.372561 18.503281 18.233380 25.980114 1.550664 0.792846 0.019918 -0.005245 -82033.100000 0 0 1
-0.856039 17.938481 17.815780 25.296717 -1.523112 0.789399 0.032926 -0.007485 -616570.000000 0 0 1
-1.615839 18.925981 16.853380 25.393702 -1.485626 0.845064 0.025240 -0.003901 -267308.000000 0 0 1
-2.136739 20.035081 17.545880 26.717560 -1.464548 0.854339 0.027260 -0.005691 -221667.000000 0 0 1
-2.717939 20.845781 16.576080 26.771257 -1.441145 0.903105 0.038036 -0.015374 -470890.000000 0 0 1
-3.402139 22.178681 17.055980 28.184657 -1.418586 0.920841 0.034487 -0.012401 -311392.000000 0 0 1
-4.483139 21.899481 17.906080 28.641115 -1.368872 0.895424 0.040651 -0.011958 -179846.000000 0 0 1
-5.052639 23.099081 18.406180 29.964715 -1.355450 0.909346 0.037703 -0.010358 -651447.000000 0 0 1
-6.054039 22.733181 19.463080 30.532939 -1.310528 0.879618 0.026337 -0.013646 -1727190.000000 0 0 1
-7.291939 22.443481 18.954280 30.267919 -1.256653 0.894105 0.022813 -0.015752 -1368440.000000 0 0 1
-8.118539 21.935381 19.993480 30.770291 -1.216318 0.863520 0.010966 -0.010223 101605.000000 0 0 1
-9.589639 22.197481 19.572380 31.108960 -1.162999 0.890330 0.011559 -0.011405 -73965.000000 0 0 1
-10.047739 23.489381 19.869980 32.365478 -1.166593 0.909773 0.016180 -0.009654 -334252.000000 0 0 1
-11.155639 23.806281 19.087180 32.488578 -1.132582 0.942825 0.015034 -0.009432 -420190.000000 0 0 1
-11.594639 25.236081 19.228080 33.778906 -1.140114 0.965223 0.026757 -0.012474 -116878.000000 0 0 1
-12.167739 25.511781 20.479680 34.904471 -1.125762 0.943775 0.021846 -0.006986 106043.000000 0 0 1
-13.044639 26.615781 20.418980 35.993015 -1.115093 0.967568 0.029002 -0.010651 -478934.000000 0 0 1
-13.775639 26.902781 21.743980 37.233433 -1.097553 0.947160 0.045184 -0.011972 -458226.000000 0 0 1
-15.102639 26.430881 21.776680 37.428665 -1.051671 0.949834 0.056430 -0.016968 -127646.000000 0 0 1
-15.665439 26.702881 23.010480 38.573722 -1.040245 0.931623 0.064885 -0.012957 661295.000000 0 0 1
-17.191639 26.370081 23.204680 39.107426 -0.993060 0.935573 0.081530 -0.017759 933793.000000 0 0 1
-17.524639 25.009781 22.939780 38.194706 -0.959593 0.926544 0.079793 -0.018297 336792.000000 0 0 1
-18.925239 24.818581 23.122980 38.843260 -0.919316 0.933171 0.093880 -0.016124 535416.000000 0 0 1
28.243661 24.481781 23.550817 44.178082 0.714170 1.008550 0.080291 -0.020323 10332.400000 0 0 1
27.926061 23.531881 24.508667 43.980553 0.700211 0.979712 0.085171 -0.027559 20568.700000 0 0 1
27.127561 22.495381 24.018607 42.647863 0.692320 0.972562 0.080882 -0.019771 -566184.000000 0 0 1
26.819061 21.355281 25.019077 42.441303 0.672464 0.940359 0.096051 -0.021916 31788.600000 0 0 1
26.099461 21.812981 26.191697 42.930094 0.696171 0.914608 0.087305 -0.021604 358503.000000 0 0 1
25.756761 20.745881 27.040347 42.719816 0.678058 0.885413 0.095218 -0.028373 146027.000000 0 0 1
24.385361 20.950881 27.747507 42.467745 0.709787 0.858758 0.090418 -0.030213 164983.000000 0 0 1
24.307261 22.093081 28.581817 43.541559 0.737715 0.854725 0.095801 -0.037428 199835.000000 0 0 1
23.038661 22.040781 29.227457 43.252978 0.763266 0.828838 0.114437 -0.043828 343157.000000 0 0 1
22.596761 23.399781 29.834317 44.138983 0.802855 0.828587 0.109875 -0.045040 -517535.000000 0 0 1
22.162561 24.301281 28.850787 43.750420 0.831395 0.850722 0.114205 -0.039205 -69322.500000 0 0 1
21.778161 25.556081 29.377367 44.614249 0.865043 0.852006 0.115806 -0.040816 -567953.000000 0 0 1
20.407061 25.619781 30.058907 44.456261 0.898172 0.828278 0.128739 -0.038497 -1366790.000000 0 0 1
19.438361 25.956381 29.035077 43.527224 0.928009 0.840547 0.123447 -0.045330 435329.000000 0 0 1
18.280261 26.588481 29.557597 43.758048 0.968492 0.829184 0.102792 -0.037141 591256.000000 0 0 1
17.257861 25.660581 30.296707 43.291912 0.978736 0.795646 0.082141 -0.029784 -465782.000000 0 0 1
17.731261 25.204581 31.542807 44.097814 0.957730 0.773755 0.079024 -0.034679 -441716.000000 0 0 1
16.707861 24.537981 32.199206 43.795593 0.973006 0.744812 0.066238 -0.027412 -335281.000000 0 0 1
17.065961 24.012181 33.588528 44.676851 0.952911 0.719993 0.073435 -0.027581 -213246.000000 0 0 1
17.151861 25.061381 -33.484130 45.204492 0.970621 2.404946 0.073425 -0.027988 -50040.900000 0 0 1
17.542861 24.648081 -32.239160 44.211348 0.952239 2.387957 0.035752 -0.008581 -456530.000000 0 0 1
17.967161 25.773781 -31.245440 44.310091 0.962013 2.353437 0.044600 0.005013 36127.500000 0 0 1
16.973961 26.730981 -30.810410 44.180788 1.005044 2.342519 0.054781 -0.014537 476427.000000 0 0 1
17.456261 27.965481 -30.250070 44.742104 1.012767 2.313251 0.070850 -0.014481 -56836.200000 0 0 1
16.866761 28.261281 -28.827200 43.751515 1.032722 2.290131 0.088987 -0.019520 -129975.000000 0 0 1
17.418261 27.390981 -27.853780 42.772593 1.004388 2.279969 0.065821 -0.013587 223784.000000 0 0 1
17.102661 27.651681 -26.487840 41.937121 1.016882 2.254422 0.053102 -0.002095 -546132.000000 0 0 1
17.971061 26.912381 -25.485430 41.191533 0.982036 2.237890 0.042691 -0.005526 -132647.000000 0 0 1
19.351261 27.202181 -25.567780 42.049273 0.952469 2.224390 0.048739 -0.007111 -377539.000000 0 0 1
20.017761 26.492581 -24.540020 41.288984 0.923722 2.207251 0.044987 -0.007361 380586.000000 0 0 1
21.543561 26.801181 -24.651920 42.310111 0.893725 2.192780 0.046153 -0.010832 467137.000000 0 0 1
22.215061 26.373381 -23.466620 41.710267 0.870773 2.168336 0.036763 -0.007734 -517822.000000 0 0 1
23.602961 26.389481 -23.679520 42.593710 0.841079 2.160289 0.041030 -0.003426 40494.000000 0 0 1
24.327261 26.135481 -22.295420 42.094712 0.821216 2.128983 0.048471 -0.005279 292818.000000 0 0 1
24.032361 24.878881 -21.767120 40.869556 0.802704 2.132466 0.057792 -0.008505 257137.000000 0 0 1
24.729561 24.845781 -20.519120 40.618940 0.787742 2.100365 0.060940 -0.004845 -122327.000000 0 0 1
24.133861 23.825381 -19.549320 39.144194 0.778966 2.093723 0.059360 -0.009360 -1066740.000000 0 0 1
24.471561 22.486081 -19.757720 38.663272 0.743141 2.107168 0.057609 -0.006756 218503.000000 0 0 1
24.011161 21.607681 -18.693720 37.321346 0.732761 2.095418 0.062398 -0.012436 -739131.000000 0 0 1
24.310561 20.174881 -19.044820 36.888133 0.692698 2.113305 0.082940 -0.013956 -170323.000000 0 0 1
23.617561 19.580281 -20.088120 36.670276 0.692209 2.150533 0.066453 -0.014018 331782.000000 0 0 1
22.202661 19.532381 -19.880420 35.632894 0.721504 2.162678 0.058542 -0.012126 -141424.000000 0 0 1
21.367961 19.331081 -21.154320 35.746128 0.735393 2.204078 0.073081 -0.018471 -202552.000000 0 0 1
21.385061 20.239381 -22.250220 36.905632 0.757881 2.217921 0.066711 -0.016366 -203909.000000 0 0 1
21.322961 21.615981 -21.930020 37.454573 0.792222 2.196305 0.054996 -0.007458 -132142.000000 0 0 1
20.854661 22.473981 -23.091120 38.382242 0.822754 2.216311 0.058253 -0.010786 -439838.000000 0 0 1
19.467361 22.526981 -23.153520 37.716422 0.858128 2.231768 0.074447 -0.015227 -870308.000000 0 0 1
18.949461 22.871781 -24.417620 38.450235 0.878912 2.258863 0.059980 -0.013814 399269.000000 0 0 1
17.400961 22.842281 -24.534320 37.768983 0.919794 2.277840 0.054474 -0.012072 342178.000000 0 0 1
16.762161 23.862181 -23.779820 37.627830 0.958423 2.254894 0.050560 -0.015726 -138096.000000 0 0 1
15.402861 23.954881 -24.144020 37.336552 0.999362 2.273993 0.054062 -0.014368 -207683.000000 0 0 1
14.670561 25.009181 -23.355720 37.231360 1.040283 2.248895 0.050173 -0.015690 -408424.000000 0 0 1
14.822161 26.331281 -23.829220 38.482003 1.058095 2.238558 0.038784 -0.006125 -347285.000000 0 0 1
13.815561 27.226081 -23.447520 38.495654 1.101216 2.225716 0.066400 -0.016774 -123380.000000 0 0 1
13.866261 28.563181 -24.129120 39.879104 1.118849 2.220633 0.066395 -0.019130 59122.900000 0 0 1
13.876161 28.446481 -25.591310 40.702153 1.116957 2.250736 0.064392 -0.022203 71298.800000 0 0 1
13.322261 29.544681 -26.326260 41.754554 1.147178 2.252994 0.096348 -0.032866 -134901.000000 0 0 1
14.058861 30.909881 -26.183030 42.879172 1.143930 2.227644 0.112772 -0.034933 -474064.000000 0 0 1
15.251261 30.901181 -26.900730 43.716510 1.112322 2.233620 0.092039 -0.017470 -930227.000000 0 0 1
15.815561 32.151781 -26.910910 44.811450 1.113647 2.214968 0.095425 -0.027384 -486950.000000 0 0 1
17.225261 32.015381 -27.517650 45.595124 1.077189 2.218707 0.075625 -0.008444 -211264.000000 0 0 1
18.150961 31.399881 -26.645140 45.004149 1.046667 2.204409 0.035899 -0.003119 711575.000000 0 0 1
19.426161 31.210981 -27.287270 45.783143 1.014059 2.209321 0.041089 -0.003302 493240.000000 0 0 1
20.429861 30.369781 -26.433790 45.149176 0.978626 2.196264 0.018676 0.003855 -148290.000000 0 0 1
20.818661 31.095381 -25.265640 45.151876 0.980828 2.164663 0.021807 -0.002083 496534.000000 0 0 1
21.900861 32.013681 -25.411590 46.371030 0.970815 2.150775 0.029208 -0.011417 -482370.000000 0 0 1
23.345361 31.513881 -25.398540 46.724901 0.933212 2.145488 0.017648 -0.001343 -612457.000000 0 0 1
23.704861 30.861681 -26.570070 47.120403 0.915811 2.169868 0.022500 0.001808 343304.000000 0 0 1
24.699561 31.691881 -27.187320 48.513854 0.908765 2.165669 0.002959 0.013855 -576015.000000 0 0 1
24.941961 31.417681 -28.660890 49.301305 0.899796 2.191173 0.010897 0.013262 -681447.000000 0 0 1
23.996861 31.887581 -29.560090 49.663529 0.925668 2.208320 0.027167 0.000384 26034.700000 0 0 1
22.809961 31.095081 -29.638480 48.637823 0.937903 2.226063 0.018136 -0.001499 76144.000000 0 0 1
21.745261 31.634281 -30.598200 49.090060 0.968580 2.243762 0.033892 -0.001497 -691870.000000 0 0 1
21.222361 32.890881 -30.239190 49.463191 0.997778 2.228558 0.058479 -0.009137 -44397.900000 0 0 1
20.263261 33.495181 -31.083270 49.986964 1.026737 2.241870 0.072343 -0.020036 -65481.800000 0 0 1
18.798661 33.098181 -30.786510 48.955985 1.054264 2.250884 0.069587 -0.028185 -578778.000000 0 0 1
18.347461 31.752481 -30.868110 47.934221 1.046840 2.270470 0.093616 -0.033501 138807.000000 0 0 1
18.402261 31.140581 -32.150810 48.394768 1.037064 2.297413 0.097259 -0.031177 -690512.000000 0 0 1
17.641661 31.771681 -33.300320 49.290762 1.063921 2.312560 0.114325 -0.039508 -669163.000000 0 0 1
18.189361 33.063681 -33.620080 50.540772 1.067852 2.298567 0.100716 -0.037712 94710.100000 0 0 1
17.803061 33.587281 33.158924 50.443717 1.083396 0.853506 0.086885 -0.030520 362325.000000 0 0 1
16.343661 -33.950870 33.112401 50.161817 -1.122146 0.849829 0.097878 -0.037242 679962.000000 0 0 1
15.375161 33.077981 33.094147 49.252116 1.135690 0.833980 0.098135 -0.035066 918300.000000 0 0 1
14.025261 33.485381 32.809465 48.933012 1.174149 0.835917 0.072908 -0.035751 1053370.000000 0 0 1
13.667361 -34.043670 31.426747 48.305368 -1.189027 0.862442 0.067535 -0.036124 -785850.000000 0 0 1
14.108361 -32.731470 31.241847 47.396708 -1.163826 0.851100 0.087139 -0.027370 154037.000000 0 0 1
13.533561 -32.264670 30.024547 46.104659 -1.173632 0.861598 0.079971 -0.029594 117139.000000 0 0 1
13.945161 -30.842770 29.585187 44.955837 -1.146167 0.852511 0.072869 -0.019778 24486.200000 0 0 1
13.554861 -29.814670 30.554757 44.791092 -1.144093 0.820082 0.075842 -0.024030 156332.000000 0 0 1
14.030161 -28.536370 30.231187 43.875898 -1.113844 0.810666 0.079057 -0.028384 -558307.000000 0 0 1
13.633361 -27.404870 31.161057 43.679593 -1.109167 0.776457 0.079491 -0.028429 320979.000000 0 0 1
12.239761 -27.106670 31.281337 43.163704 -1.146662 0.760177 0.070161 -0.026570 535500.000000 0 0 1
11.765861 -26.263870 30.215707 41.727872 -1.149618 0.761048 0.056063 -0.026744 -173893.000000 0 0 1
12.097861 -24.757670 30.513727 41.114328 -1.116269 0.734497 0.060903 -0.026528 -123184.000000 0 0 1
11.282561 -24.370970 31.605757 41.474862 -1.137225 0.704329 0.057228 -0.031141 14285.100000 0 0 1
11.661561 -23.177170 32.265242 41.403128 -1.104633 0.677257 0.054950 -0.033008 -43735.500000 0 0 1
10.768061 -22.659070 33.440756 41.805128 -1.127168 0.643635 0.056766 -0.030343 -315708.000000 0 0 1
10.511661 -23.425470 -33.414950 42.140320 -1.149001 2.486423 0.062812 -0.026680 269196.000000 0 0 1
11.606461 -23.652870 -32.531050 41.862124 -1.114616 2.460841 0.072060 -0.022316 324755.000000 0 0 1
12.176461 -22.405270 -31.772400 40.740002 -1.072985 2.465274 0.070274 -0.029911 -39603.000000 0 0 1
12.861761 -21.529070 -32.648060 41.168211 -1.032281 2.486581 0.050543 -0.024777 40278.500000 0 0 1
13.630861 -20.543870 -32.012340 40.405951 -0.984989 2.485313 0.057516 -0.028943 -312854.000000 0 0 1
13.960361 -19.452970 -33.056680 40.817323 -0.948325 2.514725 0.037259 -0.022122 -305126.000000 0 0 1
14.626461 -20.005170 33.861939 41.961543 -0.939479 0.631783 0.071297 -0.014198 247159.000000 0 0 1
14.406161 -19.147770 32.702860 40.541973 -0.925782 0.632348 0.036913 -0.009609 83454.300000 0 0 1
15.207061 -17.797270 32.588773 40.125125 -0.863719 0.622919 0.062462 -0.019315 -140280.000000 0 0 1
14.815361 -16.856470 33.588533 40.395854 -0.849755 0.589022 0.043166 -0.008546 304970.000000 0 0 1
15.341861 -15.541970 33.450222 39.948002 -0.791877 0.578390 0.082044 -0.011407 392230.000000 0 0 1
16.795561 -15.182370 33.936729 40.795794 -0.734994 0.588331 0.096518 -0.009435 945177.000000 0 0 1
17.728461 -15.962370 33.211229 40.891091 -0.733026 0.622905 0.101836 -0.008223 37095.400000 0 0 1
19.081961 -15.649870 33.448564 41.567368 -0.686901 0.635655 0.132997 -0.011542 58156.600000 0 0 1
20.164961 -16.361770 32.641658 41.711041 -0.681651 0.672019 0.162781 -0.026796 -211677.000000 0 0 1
20.389661 -15.761370 31.385217 40.610231 -0.658064 0.687492 0.140537 -0.016298 424051.000000 0 0 1
21.343461 -16.453270 30.592017 40.769166 -0.656732 0.722173 0.136081 -0.019513 -97698.700000 0 0 1
21.547161 -15.806770 29.241707 39.613275 -0.632915 0.740429 0.129442 -0.005589 -428486.000000 0 0 1
22.411361 -14.725070 29.350567 39.756164 -0.581306 0.740302 0.123369 -0.011338 92400.100000 0 0 1
22.621761 -14.169870 28.106997 38.762515 -0.559593 0.759606 0.099867 -0.016100 25651.900000 0 0 1
23.347661 -12.808370 28.099397 38.713611 -0.501763 0.758560 0.084598 -0.009205 -271563.000000 0 0 1
22.538661 -11.773670 28.501617 38.196239 -0.481388 0.728477 0.090294 -0.014086 -251913.000000 0 0 1
23.280261 -10.587570 28.723047 38.458817 -0.426828 0.727481 0.085220 -0.016752 438793.000000 0 0 1
22.403661 -9.275670 28.624797 37.514545 -0.392538 0.702805 0.084631 -0.021097 149431.000000 0 0 1
21.689361 -9.003770 29.782657 37.927601 -0.393476 0.667696 0.094213 -0.025993 -403214.000000 0 0 1
20.841061 -7.883270 29.547677 37.007580 -0.361623 0.646126 0.077366 -0.026345 -361463.000000 0 0 1
19.597361 -7.863270 30.423397 37.033372 -0.381576 0.606737 0.056202 -0.006961 -634272.000000 0 0 1
19.761861 -7.523970 31.833217 38.216423 -0.363786 0.586339 0.057450 -0.014242 -7227.030000 0 0 1
20.105461 -8.681970 32.597305 39.270733 -0.407634 0.591570 0.066452 -0.024342 -463035.000000 0 0 1
20.326761 -8.417270 -33.906080 40.418435 -0.392600 2.566012 0.070579 -0.033659 434150.000000 0 0 1
19.097061 -8.059270 -33.256490 39.187290 -0.399341 2.584234 0.060417 -0.030989 620096.000000 0 0 1
19.225161 -7.753370 -31.895560 38.040088 -0.383342 2.565270 0.067018 -0.036349 -237371.000000 0 0 1
17.874461 -7.416670 -31.247660 36.754858 -0.393311 2.587093 0.075811 -0.027974 -59921.900000 0 0 1
18.012061 -6.572770 -30.114870 35.700715 -0.349895 2.574631 0.080296 -0.024686 -297839.000000 0 0 1
16.728261 -6.366370 -29.619440 34.607465 -0.363650 2.598024 0.091371 -0.013444 -630420.000000 0 0 1
16.513461 -5.158370 -28.673540 33.488432 -0.302770 2.598708 0.088366 -0.015769 -140182.000000 0 0 1
17.177861 -5.222570 -27.427760 32.781644 -0.295149 2.561990 0.080570 -0.016925 256287.000000 0 0 1
16.641461 -6.164370 -26.450140 31.851964 -0.354751 2.550637 0.105346 -0.026297 51145.200000 0 0 1
15.334261 -5.796770 -25.725620 30.504912 -0.361422 2.574241 0.087803 -0.020398 22157.100000 0 0 1
15.296561 -4.596570 -24.976020 29.646498 -0.291913 2.572631 0.091925 -0.009795 -368973.000000 0 0 1
14.042861 -4.551070 -24.331320 28.459222 -0.313403 2.596258 0.054198 -0.015795 166987.000000 0 0 1
13.855261 -3.237070 -23.545920 27.511038 -0.229518 2.598030 0.069781 -0.010085 109293.000000 0 0 1
13.787261 -2.016770 -24.309720 28.019965 -0.145248 2.621123 0.052156 -0.009457 87642.000000 0 0 1
13.536661 -0.911770 -23.443320 27.086192 -0.067254 2.616960 0.049677 -0.014700 38523.400000 0 0 1
13.976161 0.436230 -24.105420 27.867448 0.031202 2.615952 0.050953 -0.013867 -22773.600000 0 0 1
13.184761 0.944230 -25.183390 28.441741 0.071493 2.658231 0.052838 -0.018013 -57971.700000 0 0 1
13.789261 2.070230 -25.785100 29.313836 0.149021 2.645864 0.061302 -0.010885 -205453.000000 0 0 1
13.043261 2.762230 -26.957810 30.074576 0.208691 2.682298 0.077064 -0.025998 -634980.000000 0 0 1
11.826761 3.307230 -26.569880 29.270609 0.272674 2.708644 0.069884 -0.034472 -601183.000000 0 0 1
11.219361 3.992230 -27.655440 30.110386 0.341863 2.734987 0.057324 -0.026853 -478554.000000 0 0 1
9.870161 4.604230 -27.341010 29.430424 0.436474 2.762511 0.041133 -0.030104 -674178.000000 0 0 1
10.025861 5.639230 -26.422730 28.818041 0.512365 2.730993 0.043169 -0.035121 -528750.000000 0 0 1
9.025661 6.573230 -26.532930 28.786565 0.629456 2.743268 0.044826 -0.040463 -695829.000000 0 0 1
7.970761 5.159481 -30.658500 32.095123 0.574475 2.841262 0.053443 -0.021984 -247130.000000 0 0 1
7.724161 4.026981 -29.852870 31.097799 0.480580 2.857682 0.049419 -0.016387 394260.000000 0 0 1
7.864461 2.800281 -30.520000 31.641140 0.342070 2.874594 0.039468 -0.009713 -126297.000000 0 0 1
7.847461 1.602481 -29.546720 30.613057 0.201434 2.876878 0.037987 -0.006762 297107.000000 0 0 1
9.087061 1.441181 -28.865440 30.296292 0.157287 2.833031 0.044141 -0.015388 542851.000000 0 0 1
8.883061 0.574381 -27.798140 29.188616 0.064570 2.831687 0.033137 -0.007612 451160.000000 0 0 1
10.217361 0.132481 -27.118570 28.979801 0.012966 2.781247 0.043577 -0.015473 417547.000000 0 0 1
10.940361 -0.815719 -27.899900 29.979348 -0.074423 2.766947 0.063218 -0.009104 -163156.000000 0 0 1
11.928661 -1.411219 -27.100210 29.642974 -0.117758 2.724376 0.063271 -0.009091 -98600.300000 0 0 1
12.494661 -2.725419 -27.643400 30.458201 -0.214763 2.708292 0.067656 -0.008513 1270660.000000 0 0 1
11.442161 -3.743319 -27.531290 30.048418 -0.316177 2.729366 0.065043 0.000739 1375640.000000 0 0 1
11.974561 -4.992019 -27.976320 30.838042 -0.394977 2.707380 0.071232 0.003250 261708.000000 0 0 1
11.264461 -6.121119 -27.183110 30.054578 -0.497763 2.700904 0.034517 -0.003880 32472.900000 0 0 1
11.377361 -6.018919 -25.762970 28.799347 -0.486598 2.678260 0.045063 -0.004245 266601.000000 0 0 1
10.532361 -6.949019 -25.093560 28.087475 -0.583218 2.675670 0.037646 -0.010001 11638.200000 0 0 1
10.559361 -6.715319 -23.543020 26.662135 -0.566441 2.653041 0.033252 -0.010838 -70165.600000 0 0 1
11.838661 -6.810119 -22.946220 26.703195 -0.522018 2.604708 0.039375 -0.010948 89373.800000 0 0 1
11.745961 -6.789219 -21.541920 25.458111 -0.524089 2.579555 0.048394 -0.016209 256938.000000 0 0 1
13.149261 -6.783819 -20.872320 25.584703 -0.476293 2.524929 0.067477 -0.016474 444323.000000 0 0 1
13.714861 -5.536719 -20.606720 25.365125 -0.383694 2.519059 0.062265 -0.018195 115407.000000 0 0 1
15.052061 -5.651919 -20.136320 25.767812 -0.359201 2.467787 0.072302 -0.014719 211897.000000 0 0 1
15.581361 -4.368719 -19.470420 25.317223 -0.273362 2.448163 0.072358 -0.016858 -290859.000000 0 0 1
16.065961 -3.430719 -20.420420 26.208367 -0.210380 2.464115 0.063176 -0.010170 205524.000000 0 0 1
16.481161 -2.216219 -19.792420 25.851116 -0.133668 2.442818 0.057019 -0.007398 -293671.000000 0 0 1
17.441861 -1.456419 -20.705320 27.111805 -0.083308 2.439824 0.035040 -0.004950 927966.000000 0 0 1
18.728161 -2.128019 -20.808720 28.076241 -0.113141 2.405579 0.046791 -0.011912 1141470.000000 0 0 1
19.661161 -1.278019 -21.485920 29.152004 -0.064911 2.399463 0.047770 -0.006913 -1090610.000000 0 0 1
20.951361 -1.961719 -21.699720 30.227235 -0.093360 2.371558 0.045433 -0.013643 -2028080.000000 0 0 1
21.831361 -2.073619 -20.579320 30.073521 -0.094699 2.324440 0.027813 -0.010557 25595.100000 0 0 1
22.952261 -2.832419 -20.918520 31.183543 -0.122784 2.306109 0.031443 -0.012997 443238.000000 0 0 1
24.148361 -2.113419 -21.671820 32.515806 -0.087296 2.300302 0.037598 -0.016693 -548653.000000 0 0 1
23.786661 -1.751419 -23.021920 33.149382 -0.073498 2.338507 0.034105 -0.020625 383158.000000 0 0 1
24.815461 -1.137219 -23.785620 34.392675 -0.045795 2.334484 0.030892 -0.015284 -229785.000000 0 0 1
25.952261 -1.966519 -24.351220 35.642236 -0.075630 2.322949 0.046331 -0.024576 -1012560.000000 0 0 1
26.898461 -2.327119 -23.355120 35.698800 -0.086300 2.283956 0.032311 -0.014143 561671.000000 0 0 1
28.100661 -2.938519 -23.834320 36.964265 -0.104192 2.271550 0.025627 -0.009913 766988.000000 0 0 1
29.119761 -2.047519 -24.578120 38.160671 -0.070198 2.270602 0.023337 -0.018654 -876649.000000 0 0 1
28.682161 -1.633419 -25.848820 38.645775 -0.056888 2.303478 0.031226 -0.019216 336924.000000 0 0 1
29.580161 -0.618419 -26.269840 39.566057 -0.020904 2.296884 0.022258 -0.019116 -375076.000000 0 0 1
29.277861 -0.052919 -27.677970 40.289775 -0.001807 2.328111 0.043739 -0.021534 -244305.000000 0 0 1
27.963261 0.367581 -27.930440 39.524531 0.013144 2.355564 0.036830 -0.012792 -104897.000000 0 0 1
27.602661 1.616581 -27.359920 38.898399 0.058499 2.350922 0.030642 -0.003353 -1008500.000000 0 0 1
26.101861 1.770381 -27.537150 37.983365 0.067722 2.381801 0.030472 -0.009195 -262798.000000 0 0 1
25.194061 1.093481 -26.669230 36.704009 0.043375 2.384160 0.030996 -0.008531 931666.000000 0 0 1
23.822461 1.261881 -26.978610 36.013156 0.052921 2.417547 0.028528 -0.016270 705544.000000 0 0 1
22.731261 0.928081 -25.921260 34.488886 0.040806 2.421255 0.034803 -0.015718 212171.000000 0 0 1
22.826661 1.662781 -24.670420 33.651908 0.072715 2.393674 0.036808 -0.021563 -744830.000000 0 0 1
21.616661 1.707481 -24.034320 32.370420 0.078825 2.407558 0.046765 -0.020079 -1108020.000000 0 0 1
21.569161 2.364681 -22.589320 31.322481 0.109196 2.376308 0.045215 -0.012232 -326587.000000 0 0 1
21.695861 3.761081 -22.618320 31.566509 0.171649 2.369610 0.055478 -0.017932 427940.000000 0 0 1
21.818561 4.113081 -21.254920 30.736601 0.186326 2.334385 0.048618 -0.016711 -255362.000000 0 0 1
21.469061 5.605681 -20.924620 30.498917 0.255403 2.326880 0.068215 -0.015696 151205.000000 0 0 1
22.490161 6.566881 -21.237820 31.622401 0.284091 2.307172 0.048860 -0.009453 448578.000000 0 0 1
22.231661 7.941581 -20.841920 31.491286 0.343092 2.294055 0.040856 -0.007923 -758080.000000 0 0 1
22.500861 8.244881 -19.347020 30.798928 0.351232 2.249998 0.049467 -0.019604 137208.000000 0 0 1
23.886461 8.372381 -18.997720 31.647640 0.337127 2.214658 0.028944 -0.016484 848523.000000 0 0 1
24.117461 8.653381 -17.626820 31.100446 0.344494 2.173377 0.055543 -0.029756 -6207.840000 0 0 1
23.744961 10.121881 -17.167120 30.999769 0.402950 2.157696 0.059361 -0.041608 -81760.600000 0 0 1
22.378261 10.321981 -16.883120 29.872556 0.432170 2.171438 0.062163 -0.054303 -120889.000000 0 0 1
22.102861 11.714581 -16.753120 30.107057 0.487361 2.160905 0.043275 -0.050160 847971.000000 0 0 1
20.548761 11.990381 -16.519420 28.963978 0.528205 2.177720 0.050118 -0.056030 1369380.000000 0 0 1
19.780461 11.841281 -17.679520 29.052504 0.539415 2.225012 0.058436 -0.060121 -126383.000000 0 0 1
19.348461 10.514181 -17.831820 28.335221 0.497771 2.251470 0.068522 -0.055883 -562799.000000 0 0 1
18.639861 10.147881 -19.159620 28.592218 0.498548 2.305139 0.089799 -0.034506 79017.800000 0 0 1
19.525861 10.241381 -20.234520 29.926258 0.483058 2.313315 0.098145 -0.033149 257659.000000 0 0 1
18.901061 9.596681 -21.318320 30.063552 0.469814 2.359029 0.080347 -0.034678 9972.390000 0 0 1
19.593861 9.890181 -22.688320 31.567308 0.467448 2.372768 0.094927 -0.033005 -148521.000000 0 0 1
19.442961 11.236781 -23.003120 32.147123 0.524038 2.368218 0.093244 -0.034383 443945.000000 0 0 1
20.092661 11.577281 -24.235120 33.542354 0.522732 2.378241 0.096657 -0.030981 191634.000000 0 0 1
20.431861 13.133881 -24.314320 34.367804 0.571307 2.356714 0.107126 -0.030615 163458.000000 0 0 1
21.123961 13.547681 -25.501040 35.777988 0.570265 2.364219 0.093314 -0.032996 238959.000000 0 0 1
21.179161 14.931981 -25.668440 36.474508 0.614095 2.351439 0.097086 -0.025397 -343000.000000 0 0 1
19.946661 15.565281 -26.298520 36.493279 0.662641 2.375521 0.080780 -0.018294 -528581.000000 0 0 1
18.728361 15.306681 -25.676700 35.275188 0.685201 2.386046 0.081602 -0.031228 -414386.000000 0 0 1
17.641661 15.474881 -26.578360 35.455738 0.720062 2.418285 0.064516 -0.025674 -13719.300000 0 0 1
16.278261 15.087081 -26.018430 34.198838 0.747439 2.435339 0.061612 -0.033292 -654814.000000 0 0 1
16.008261 13.705581 -25.961720 33.438276 0.708058 2.459741 0.063734 -0.021481 27810.000000 0 0 1
14.623861 13.469981 -25.827680 32.593968 0.744349 2.485541 0.048305 -0.027237 -106658.000000 0 0 1
14.328461 11.942881 -25.571340 31.651708 0.694841 2.511372 0.057789 -0.027962 -591197.000000 0 0 1
13.004461 11.516781 -25.504730 30.858443 0.724803 2.543671 0.053884 -0.022843 -529878.000000 0 0 1
12.969261 10.137281 -25.164340 30.070088 0.663445 2.562311 0.071791 -0.023170 117153.000000 0 0 1
11.499561 9.614981 -25.116830 29.249665 0.696379 2.603533 0.064754 -0.040859 409250.000000 0 0 1
10.772861 10.159181 -24.049220 28.242317 0.756089 2.589696 0.069032 -0.041105 -86759.100000 0 0 1
9.573961 9.445981 -23.817920 27.352890 0.778670 2.627551 0.051110 -0.040449 195144.000000 0 0 1
8.738761 10.090481 -22.644920 26.286425 0.857064 2.608950 0.049237 -0.041472 -13910.100000 0 0 1
8.175561 11.330981 -23.039020 26.944895 0.945771 2.596428 0.049665 -0.045285 -8209.700000 0 0 1
7.538061 12.046181 -22.000620 26.190840 1.011648 2.568102 0.049163 -0.035923 35285.300000 0 0 1
8.511461 12.842581 -21.124420 26.146089 0.985508 2.511441 0.053852 -0.036632 248984.000000 0 0 1
9.420161 12.022881 -20.378820 25.467340 0.906186 2.498415 0.066656 -0.043005 -48530.300000 0 0 1
10.268961 12.852381 -19.589520 25.580941 0.896670 2.443059 0.082292 -0.045051 -455232.000000 0 0 1
11.219361 11.910581 -18.815320 24.934961 0.815273 2.425804 0.113390 -0.045818 586250.000000 0 1 0
12.317461 11.369481 -19.602720 25.792471 0.745398 2.434136 0.113243 -0.047730 623480.000000 0 0 1
11.993061 10.447481 -20.587620 26.016023 0.716632 2.483800 0.103330 -0.045954 -650529.000000 0 0 1
13.181761 9.811281 -21.380220 26.965420 0.639848 2.486310 0.098954 -0.043284 408700.000000 0 0 1
13.875961 8.854081 -20.571820 26.346476 0.567955 2.466771 0.122888 -0.050252 48967.800000 0 0 1
15.023061 8.386481 -21.217720 27.316974 0.509148 2.460242 0.118258 -0.046021 -418270.000000 0 0 1
15.700061 7.145281 -20.650420 26.907003 0.427097 2.445688 0.140896 -0.045510 -4852.420000 0 0 1
16.455661 7.376881 -19.470820 26.539028 0.421430 2.394500 0.110215 -0.036395 313545.000000 0 0 1
16.965761 6.151581 -18.955220 26.172110 0.347845 2.380746 0.091047 -0.041436 165058.000000 0 0 1
17.952561 6.222581 -17.731320 25.988741 0.333654 2.321658 0.116827 -0.033451 999258.000000 0 0 1
19.260961 6.670281 -18.167820 27.304706 0.333385 2.298790 0.097071 -0.049398 1179750.000000 0 0 1
20.188761 6.990481 -17.152420 27.398146 0.333336 2.247265 0.087593 -0.053310 -106288.000000 0 0 1
20.816461 5.892181 -16.280320 27.075666 0.275838 2.215911 0.072753 -0.046851 -576694.000000 0 0 1
22.101261 5.428281 -16.643720 28.194776 0.240842 2.202242 0.058641 -0.043091 296415.000000 0 0 1
22.425061 4.261881 -15.962620 27.854124 0.187810 2.181055 0.091645 -0.048715 157407.000000 0 0 1
23.809661 3.732681 -16.423720 29.164558 0.155506 2.168977 0.027653 -0.009841 146635.000000 0 0 1
24.442961 2.792881 -15.577020 29.118758 0.113768 2.135242 0.025869 -0.009810 -1416540.000000 0 0 1
25.607561 2.406081 -16.138420 30.364206 0.093685 2.131161 0.029930 -0.014596 -1254660.000000 0 0 1
26.372061 1.306081 -15.307720 30.520776 0.049485 2.096187 0.060766 -0.029070 -437938.000000 0 0 1
25.736261 0.055081 -15.259220 29.919926 0.002140 2.105983 0.055081 -0.025541 376421.000000 0 0 1
26.658761 -1.022819 -15.551320 30.880079 -0.038348 2.098561 0.055832 -0.014815 90439.400000 0 0 1
26.004161 -2.418819 -15.827220 30.537976 -0.092750 2.115635 0.035893 -0.015665 -196847.000000 0 0 1
25.631861 -3.067819 -14.614120 29.664395 -0.119121 2.085927 0.034550 -0.012331 394387.000000 0 0 1
25.539861 -4.482819 -14.733520 29.823762 -0.173753 2.087503 0.035154 -0.012201 -1655390.000000 0 0 1
25.059561 -5.116419 -13.416120 28.881683 -0.201402 2.053889 0.044595 -0.010328 573427.000000 0 0 1
23.684961 -4.945719 -13.042320 27.487081 -0.205855 2.065180 0.055630 -0.003900 1595340.000000 0 0 1
22.750661 -5.481419 -14.020120 27.280072 -0.236428 2.110559 0.058651 -0.013411 -380473.000000 0 0 1
21.241361 -5.421819 -13.706620 25.854651 -0.249912 2.129564 0.079066 -0.014853 -45740.800000 0 0 1
20.701261 -6.292519 -12.727120 25.102143 -0.295093 2.102512 0.083304 -0.020814 469657.000000 0 0 1
20.903761 -5.890819 -11.363720 24.511285 -0.274683 2.052864 0.096706 -0.017145 -503098.000000 0 1 0
20.665761 -7.069019 -10.405020 24.193163 -0.329588 2.015379 0.091783 -0.022717 -406246.000000 0 1 0
19.406561 -7.691019 -10.410520 23.326923 -0.377322 2.033409 0.100111 -0.022328 286211.000000 0 1 0
19.185661 -8.632019 -11.406920 23.931552 -0.422788 2.067634 0.093015 -0.024396 -559168.000000 0 1 0
17.876061 -9.428719 -11.311320 23.160317 -0.485365 2.081043 0.111801 -0.026508 279973.000000 0 1 0
16.705261 -8.625219 -11.384820 21.978951 -0.476616 2.115293 0.092679 -0.025580 -464165.000000 0 1 0
15.625561 -9.263119 -11.946420 21.741216 -0.535122 2.152541 0.092539 -0.023788 -921005.000000 0 1 0
14.468461 -8.332819 -12.276420 20.723965 -0.522533 2.204804 0.072332 -0.012089 -588240.000000 0 1 0
14.581961 -7.402019 -13.379120 21.128756 -0.469721 2.256501 0.077027 -0.016807 706752.000000 0 1 0
15.592061 -6.387919 -13.170620 21.386517 -0.388832 2.234245 0.073622 -0.021551 421779.000000 0 1 0
15.525561 -5.145919 -14.103720 21.597186 -0.320053 2.282381 0.065471 -0.016357 -99024.400000 0 1 0
14.336661 -4.401519 -13.949920 20.482029 -0.297877 2.320034 0.064078 -0.021967 22477.000000 0 1 0
14.061261 -3.381219 -14.970820 20.815311 -0.235983 2.373478 0.059953 -0.023990 -238034.000000 0 1 0
15.087261 -2.254319 -15.212120 21.543352 -0.148321 2.354795 0.058621 -0.022172 -886882.000000 0 1 0
16.126161 -2.676819 -16.051620 22.910106 -0.164493 2.347083 0.053201 -0.015631 171812.000000 0 1 0
17.120961 -1.645819 -16.236220 23.652714 -0.095834 2.327381 0.057150 -0.010273 1028900.000000 0 1 0
18.318661 -1.758519 -15.211920 23.876102 -0.095703 2.261551 0.068662 -0.008153 -275015.000000 0 1 0
17.911261 -1.750319 -13.841920 22.704089 -0.097412 2.226436 0.065976 -0.004168 1017010.000000 0 1 0
18.999361 -2.307519 -13.046420 23.162673 -0.120861 2.169112 0.067453 0.000933 697525.000000 0 1 0
18.621161 -2.659119 -11.604720 22.101766 -0.141842 2.123580 0.069225 0.003855 -188377.000000 0 1 0
18.387961 -1.518519 -10.832720 21.395580 -0.082395 2.101693 0.067610 -0.002776 464244.000000 0 1 0
17.801261 -1.957719 -9.652120 20.344065 -0.109536 2.065129 0.059622 -0.002371 -1012460.000000 0 1 0
17.699961 -0.770619 -8.654420 19.717542 -0.043510 2.025192 0.047030 -0.006886 78957.000000 0 1 0
18.872461 -0.295719 -7.970620 20.488729 -0.015668 1.970369 0.047305 0.000106 1681940.000000 0 1 0
19.836361 0.467681 -8.780420 21.697828 0.023573 1.987412 0.051632 0.001527 509094.000000 0 1 0
19.301561 1.691581 -9.535020 21.594636 0.087416 2.028117 0.046730 -0.005072 -747257.000000 0 1 0
19.431061 2.895581 -8.802720 21.527619 0.147930 1.992049 0.047238 -0.000591 717484.000000 0 1 0
18.715361 3.942081 -9.444020 21.330594 0.207599 2.029454 0.039438 -0.012019 -270800.000000 0 1 0
19.003561 5.297881 -8.840820 21.618579 0.271880 1.992095 0.068257 -0.004071 -632142.000000 0 1 0
18.177561 6.305781 -9.374020 21.402309 0.333910 2.024159 0.050435 -0.013667 130002.000000 0 1 0
18.881661 7.491981 -9.468420 22.412003 0.377733 2.006966 0.091835 -0.000732 -353983.000000 0 1 0
-27.188869 -29.450869 5.970880 40.524557 0.825314 1.422918 0.089270 -0.017725 25970.500000 0 0 1
-27.221679 -28.337509 6.736480 39.867460 0.805479 1.401010 0.079905 -0.016986 -1047890.000000 0 0 1
-26.163029 -27.503989 6.482680 38.509722 0.810380 1.401652 0.098818 -0.018240 -1233210.000000 0 0 1
-26.170959 -26.150419 7.251080 37.700685 0.785006 1.377258 0.089611 -0.012339 784599.000000 0 0 1
-27.391729 -25.375449 7.107480 38.009690 0.747206 1.382698 0.083688 -0.015255 1023270.000000 0 0 1
-28.575079 -25.826449 7.736180 39.285991 0.734916 1.372581 0.076384 -0.017928 16037.200000 0 0 1
-28.665159 -25.673179 9.277880 39.583867 0.730392 1.334210 0.049060 -0.013731 -827518.000000 0 0 1
-27.691479 -26.434439 9.881480 39.537846 0.762178 1.318194 0.060465 -0.021200 -742005.000000 0 0 1
-27.999359 -26.737249 11.190380 40.299742 0.762344 1.289419 0.043487 -0.018593 -228948.000000 0 0 1
-26.994479 -27.653079 11.940080 40.447005 0.797449 1.271128 0.036912 -0.023603 1354880.000000 0 0 1
-25.781859 -27.078159 12.516880 39.428457 0.809917 1.247749 0.064025 -0.025187 1024650.000000 0 0 1
-25.990859 -26.414299 13.749980 39.525965 0.793478 1.215496 0.062240 -0.022701 674383.000000 0 0 1
-24.607539 -25.865889 14.286780 38.453703 0.810324 1.190138 0.080324 -0.018797 1011180.000000 0 0 1
-23.864839 -26.872849 14.930580 38.917898 0.844614 1.177058 0.081506 -0.025873 521120.000000 0 0 1
-22.548939 -26.410169 15.287280 37.942754 0.864102 1.156109 0.100204 -0.021824 862454.000000 0 0 1
-21.717139 -27.503289 15.987380 38.518325 0.902417 1.142789 0.098413 -0.024754 -135412.000000 0 0 1
-22.419539 -27.973659 17.148980 39.739764 0.895171 1.124606 0.102716 -0.025549 316590.000000 0 0 1
-22.094039 -29.269959 17.502580 40.635174 0.924207 1.125501 0.093900 -0.015855 -256515.000000 0 0 1
-23.152339 -29.868609 18.449680 42.054195 0.911399 1.116631 0.091819 -0.029532 -526821.000000 0 0 1
-24.321039 -30.230299 17.789780 42.683254 0.893302 1.140890 0.060338 -0.019107 -196867.000000 0 0 1
-24.937939 -31.329949 18.464580 44.095433 0.898513 1.138738 0.077188 -0.015205 -28208.900000 0 0 1
-25.838889 -32.202059 17.565880 44.868485 0.894595 1.168538 0.072198 -0.029577 -191568.000000 0 0 1
-25.116849 -33.068869 16.798380 44.794997 0.921223 1.186393 0.073696 -0.027673 -101367.000000 0 0 1
-25.976269 34.027090 16.366780 45.831004 -0.918774 1.205623 0.073905 -0.022525 -422710.000000 0 0 1
-25.458029 33.205208 15.141780 44.496860 -0.916700 1.223572 0.076946 -0.029815 -731409.000000 0 0 1
-24.240639 32.569334 15.239180 43.365916 -0.930967 1.211721 0.066739 -0.026013 -186934.000000 0 0 1
-23.147039 33.425996 14.844580 43.283301 -0.965131 1.220727 0.071024 -0.026430 -466038.000000 0 0 1
-21.821339 32.689031 14.900880 42.033080 -0.982187 1.208413 0.069448 -0.024793 -582513.000000 0 0 1
-21.724139 31.668161 13.947680 40.857661 -0.969533 1.222420 0.061162 -0.013720 1236990.000000 0 0 1
-20.426939 30.994791 14.027380 39.682544 -0.988089 1.209497 0.056359 -0.016331 1361980.000000 0 0 1
-20.222939 30.041281 12.831480 38.419952 -0.978304 1.230274 0.048193 -0.019373 -63612.500000 0 0 1
-19.915439 30.759291 11.658580 38.453624 -0.996208 1.262763 0.043110 -0.016091 -186939.000000 0 0 1
-20.156139 29.954441 10.554680 37.615685 -0.978495 1.286385 0.048991 -0.020864 144703.000000 0 0 1
-19.711039 30.538401 9.165780 37.485071 -0.997626 1.323774 0.038944 -0.015735 187769.000000 0 0 1
-18.314039 30.675591 8.989780 36.840359 -1.032569 1.324287 0.053860 -0.022739 -383640.000000 0 0 1
-18.051139 31.149801 7.687980 36.813839 -1.045591 1.360414 0.072742 -0.024348 -4450.750000 0 0 1
-17.329739 30.155451 6.751580 35.429577 -1.049202 1.379060 0.070519 -0.021637 -108520.000000 0 0 1
-18.128839 29.075601 6.241380 34.828153 -1.013271 1.390618 0.058992 -0.014115 164860.000000 0 0 1
-18.282739 27.959801 7.098780 34.152624 -0.991689 1.361415 0.040395 -0.014331 -888532.000000 0 0 1
-19.384739 27.104141 6.558480 33.961982 -0.949945 1.376463 0.033370 -0.005956 -691882.000000 0 0 1
-19.019339 26.300971 5.440780 32.910157 -0.944707 1.404712 0.044724 -0.010005 91317.800000 0 0 1
-20.133639 25.686871 4.831580 32.992771 -0.906005 1.423824 0.038185 -0.006976 -720895.000000 0 0 1
-19.857239 24.895531 3.571380 32.044534 -0.897507 1.459114 0.045730 -0.012110 -1958850.000000 0 0 1
-19.582739 25.586631 2.335980 32.305049 -0.917543 1.498423 0.052304 -0.012467 -210402.000000 0 0 1
-18.364639 26.266801 2.227580 32.127355 -0.960636 1.501405 0.054032 -0.011701 -678035.000000 0 0 1
-17.066639 25.546301 2.715380 30.842454 -0.981825 1.482642 0.054338 -0.015599 -1267540.000000 0 0 1
-16.639639 24.437961 1.917080 29.627128 -0.973009 1.506044 0.069460 -0.024225 51774.900000 0 0 1
-16.309239 24.718931 0.601380 29.620576 -0.987571 1.550492 0.062984 -0.019298 -610686.000000 0 0 1
-16.085339 23.434961 -0.264620 28.425439 -0.969268 1.580106 0.062727 -0.018144 163166.000000 0 0 1
-17.249839 22.649431 -0.520920 28.474990 -0.919912 1.589091 0.068493 -0.025822 357724.000000 0 0 1
-17.044739 21.662731 -1.549320 27.607924 -0.904142 1.626945 0.073943 -0.022691 -248941.000000 0 0 1
-16.052039 20.523631 -1.261720 26.085999 -0.907050 1.619183 0.077787 -0.026412 -302435.000000 0 0 1
-16.456639 19.566831 -0.348520 25.569578 -0.871523 1.584427 0.088186 -0.033284 418196.000000 0 0 1
-15.403039 18.690631 0.086780 24.219844 -0.881529 1.567213 0.098994 -0.035757 402506.000000 0 1 0
-16.012939 17.461131 0.814980 23.705896 -0.828634 1.536411 0.089379 -0.034064 686730.000000 0 1 0
-16.851139 16.605131 0.005780 23.657796 -0.778045 1.570552 0.085973 -0.021715 674259.000000 0 1 0
-17.216539 15.501331 0.815880 23.181159 -0.733022 1.535593 0.100269 -0.043963 -47420.600000 0 1 0
-17.976639 14.315431 0.162380 22.980807 -0.672502 1.563730 0.102320 -0.041005 -952510.000000 0 1 0
-19.258739 14.628331 -0.241320 24.185643 -0.649597 1.580774 0.138004 -0.047844 -694143.000000 0 1 0
-19.788639 13.438931 -0.858720 23.936009 -0.596577 1.606680 0.132543 -0.040939 350075.000000 0 1 0
-21.265039 13.728631 -1.261920 25.343039 -0.573273 1.620610 0.157746 -0.034784 -300862.000000 0 0 1
-22.019939 12.578731 -1.736920 25.418873 -0.519006 1.639182 0.131835 -0.038593 1968640.000000 0 0 1
-23.175439 12.208231 -0.929920 26.210811 -0.484837 1.606282 0.147773 -0.037380 862887.000000 0 0 1
-24.371739 13.160331 -0.744620 27.707949 -0.495120 1.597673 0.129349 -0.032928 -659303.000000 0 0 1
-24.058639 14.382131 -0.090920 28.029843 -0.538797 1.574040 0.138182 -0.031871 -351527.000000 0 0 1
-25.238279 15.105731 0.045380 29.413533 -0.539334 1.569254 0.140903 -0.022879 -448911.000000 0 0 1
-25.112189 16.354831 0.975580 29.984234 -0.577268 1.538254 0.134525 -0.026222 -116255.000000 0 0 1
-24.939039 15.994131 2.347680 29.720019 -0.570256 1.491721 0.148061 -0.033284 154688.000000 0 0 1
-24.729939 17.117631 3.175280 30.243439 -0.605460 1.465612 0.122341 -0.031474 604360.000000 0 0 1
-26.074539 17.849231 3.515780 31.793668 -0.600279 1.459989 0.135111 -0.030716 288276.000000 0 0 1
-26.992239 17.123831 4.363480 32.262153 -0.565329 1.435130 0.140559 -0.031055 1225720.000000 0 0 1
-28.264389 17.765231 4.513980 33.687611 -0.561139 1.436397 0.132583 -0.035288 698763.000000 0 0 1
-29.232389 17.810231 3.300080 34.389351 -0.547203 1.474686 0.079062 -0.031717 -977235.000000 0 0 1
-30.327669 18.663531 3.457280 35.777754 -0.551663 1.474013 0.070620 -0.028349 38170.900000 0 0 1
-30.941459 19.032431 2.253080 36.396204 -0.551456 1.508852 0.070381 -0.026295 175120.000000 0 0 1
-32.222839 19.905131 2.282880 37.943868 -0.553357 1.510595 0.087686 -0.032905 233213.000000 0 0 1
-33.445869 19.230831 2.574880 38.666278 -0.521822 1.504155 0.078851 -0.023005 198429.000000 0 0 1
-34.519604 20.072131 2.860280 40.033420 -0.526683 1.499288 0.097030 -0.023630 -198871.000000 0 0 1
-34.533368 20.638931 4.288780 40.458777 -0.538691 1.464593 0.105168 -0.033138 -663508.000000 0 0 1
-33.665789 21.766031 4.462780 40.336855 -0.573934 1.459932 0.108247 -0.034587 635868.000000 0 0 1
-33.849939 22.228131 5.790280 40.907646 -0.581048 1.428774 0.101189 -0.030469 -61123.400000 0 0 1
-32.551349 22.891131 6.322080 40.293460 -0.612891 1.413244 0.106743 -0.028312 -121301.000000 0 0 1
-32.339819 23.975271 5.508280 40.632729 -0.637945 1.434815 0.103163 -0.027035 305677.000000 0 0 1
-31.434929 24.845251 6.180680 40.541856 -0.668842 1.417748 0.095735 -0.030786 -109013.000000 0 0 1
-31.719999 26.320681 5.931980 41.642826 -0.692639 1.427861 0.083344 -0.031951 -463636.000000 0 0 1
-32.877059 26.753901 6.577380 42.894454 -0.683073 1.416850 0.095292 -0.021828 -182085.000000 0 0 1
-33.302759 28.074441 6.202480 43.996804 -0.700420 1.429349 0.082151 -0.022899 121021.000000 0 0 1
-34.361253 28.586901 7.195180 45.273361 -0.693922 1.411192 0.084810 -0.019382 -437576.000000 0 0 1
-33.748349 28.891801 8.419780 45.217031 -0.708022 1.383495 0.090798 -0.021089 334105.000000 0 0 1
-34.562515 29.551111 9.385280 46.431876 -0.707392 1.367264 0.088526 -0.019164 867905.000000 0 0 1
-35.893073 28.875371 9.894080 47.116797 -0.677469 1.359231 0.083649 -0.012024 691689.000000 0 0 1
-35.530417 27.653011 10.606180 46.255709 -0.661363 1.339444 0.090653 -0.019376 899694.000000 0 0 1
-36.647389 26.899461 11.105780 46.796907 -0.633187 1.331192 0.086083 -0.022344 394383.000000 0 0 1
-36.117339 25.718281 11.844980 45.893308 -0.618785 1.309743 0.099163 -0.019005 1948.020000 0 0 1
-35.438303 25.980111 13.084180 45.847958 -0.632602 1.281391 0.106820 -0.022291 125266.000000 0 0 1
-34.911985 24.812851 13.695680 44.967721 -0.617888 1.261313 0.109759 -0.020313 -612950.000000 0 0 1
-33.725449 25.241101 14.551780 44.567627 -0.642495 1.238187 0.117876 -0.021505 -645756.000000 0 0 1
-33.988369 26.213771 15.546280 45.651482 -0.656967 1.223302 0.119188 -0.016630 854352.000000 0 0 1
-32.727329 26.583041 16.155280 45.152289 -0.682171 1.204890 0.136303 -0.011699 1134170.000000 0 0 1
-32.931279 27.819451 17.064480 46.363644 -0.701452 1.193877 0.136328 -0.012025 -140838.000000 0 0 1
-33.112069 28.994671 16.373780 46.959565 -0.719200 1.214636 0.137948 -0.012569 84661.800000 0 0 1
-33.323819 30.133351 17.206380 48.109825 -0.735163 1.205048 0.126591 -0.010967 33489.800000 0 0 1
-33.153089 31.493541 16.428580 48.588771 -0.759733 1.225883 0.113115 -0.009525 184775.000000 0 0 1
-31.806159 31.723691 16.056680 47.705778 -0.784100 1.227517 0.110268 -0.006634 -161652.000000 0 0 1
-31.510469 32.884768 15.368580 48.067774 -0.806737 1.245355 0.098241 -0.007987 70061.300000 0 0 1
-30.043709 33.048805 14.846780 47.066706 -0.832992 1.249875 0.106484 -0.014866 750791.000000 0 0 1
-29.521469 32.020231 13.957680 45.734332 -0.825979 1.260658 0.096166 -0.020231 97504.800000 0 0 1
-29.461309 30.656111 14.359480 44.877172 -0.805270 1.245095 0.106109 -0.022973 -734052.000000 0 0 1
-30.622099 29.754741 13.935080 44.913740 -0.771033 1.255326 0.121710 -0.020145 -232497.000000 0 0 1
-30.563969 29.419851 12.523680 44.232640 -0.766327 1.283738 0.122518 -0.027370 81454.900000 0 0 1
-31.291119 28.214531 12.261380 43.880922 -0.733742 1.287602 0.128831 -0.028763 225221.000000 0 0 1
-31.164779 27.803521 10.767180 43.130168 -0.728459 1.318484 0.120233 -0.020421 -227722.000000 0 0 1
-29.957689 27.246911 10.335880 41.793393 -0.738046 1.320894 0.110213 -0.020243 -401781.000000 0 0 1
-29.820369 27.356111 8.914780 41.437719 -0.742326 1.353964 0.096121 -0.023893 90720.900000 0 0 1
-28.661779 26.536231 8.312380 39.934506 -0.746909 1.361113 0.102292 -0.024186 58681.900000 0 0 1
-28.540939 26.791251 6.907280 39.750055 -0.753787 1.396142 0.088764 -0.029584 -340176.000000 0 0 1
-27.465989 26.184111 6.235980 38.456153 -0.761509 1.407919 0.070652 -0.024212 -418675.000000 0 0 1
-27.190159 26.732771 4.783880 38.429563 -0.776916 1.445988 0.063455 -0.019927 -524590.000000 0 0 1
-26.547329 27.953841 4.744880 38.841882 -0.811199 1.448332 0.033376 -0.018993 -112372.000000 0 0 1
-26.471819 28.401391 3.429580 38.976381 -0.820548 1.482691 0.024184 -0.014447 -758102.000000 0 0 1
-25.366969 29.384271 3.150480 38.946682 -0.858641 1.489816 0.021538 -0.008715 -516060.000000 0 0 1
-24.060839 28.911571 3.407480 37.767894 -0.876714 1.480452 0.017080 -0.006595 113779.000000 0 0 1
-23.138139 29.958721 3.102780 37.980596 -0.913154 1.489011 0.013031 -0.004870 -128623.000000 0 0 1
-21.670639 29.606211 3.382780 36.845455 -0.938939 1.478857 0.024294 -0.009492 -571948.000000 0 0 1
-20.867239 30.722511 3.105780 37.268757 -0.974156 1.487365 0.043672 -0.017223 -526731.000000 0 0 1
-19.598839 30.363961 3.622680 36.320909 -0.997617 1.470889 0.058251 -0.025196 670100.000000 0 0 1
-18.328939 31.198171 3.215580 36.326517 -1.039618 1.482162 0.065430 -0.021132 760297.000000 0 0 1
-18.416639 32.532424 3.690580 37.565298 -1.055676 1.472393 0.069117 -0.022726 82229.600000 0 0 1
-17.289439 33.272215 3.232880 37.635309 -1.091564 1.484790 0.089105 -0.022260 137919.000000 0 0 1
-17.220239 -33.465059 3.960280 37.843502 1.095558 1.465955 0.089881 -0.020791 438661.000000 0 0 1
-18.252539 -32.498559 3.699480 37.456611 1.059059 1.471868 0.087397 -0.022095 267514.000000 0 0 1
-18.186839 -31.420359 4.622580 36.597382 1.046093 1.444149 0.071015 -0.028675 -393997.000000 0 0 1
-19.338439 -30.428139 4.619180 36.348091 1.004650 1.443370 0.085277 -0.025020 -342227.000000 0 0 1
-19.249639 -29.550819 3.501780 35.440965 0.993432 1.471829 0.090136 -0.028720 122678.000000 0 0 1
-20.390439 -28.726739 3.483080 35.399540 0.953519 1.472244 0.098362 -0.036129 -78516.100000 0 0 1
-20.293139 -27.664049 2.359780 34.390110 0.937902 1.502124 0.098670 -0.028830 -89135.900000 0 0 1
-19.515739 -26.530279 2.605780 33.038007 0.936573 1.491842 0.097732 -0.030243 -427331.000000 0 0 1
-19.553739 -25.642759 1.539880 32.284223 0.919315 1.523081 0.085102 -0.032389 -585118.000000 0 0 1
-18.410339 -24.643819 1.539380 30.799807 0.929181 1.520795 0.069138 -0.028224 -774616.000000 0 0 1
-17.215039 -25.247189 1.182080 30.580638 0.972349 1.532132 0.067298 -0.031958 -811413.000000 0 0 1
-16.120039 -24.336419 1.318680 29.220812 0.985765 1.525653 0.075378 -0.029765 516148.000000 0 0 1
-14.884139 -24.813519 0.520880 28.939932 1.030495 1.552797 0.092378 -0.030176 -455903.000000 0 0 1
-15.154139 -24.810419 -0.874620 29.085560 1.022475 1.600871 0.081629 -0.024590 126041.000000 0 0 1
-14.920039 -23.560319 -1.472020 27.926028 1.006272 1.623532 0.082561 -0.025188 -151708.000000 0 0 1
-15.134039 -23.467819 -3.003820 28.085594 0.998025 1.677954 0.058050 -0.013308 302999.000000 0 0 1
-14.066039 -24.105619 -3.695120 28.152944 1.042585 1.702428 0.078781 -0.016322 217254.000000 0 0 1
-14.381639 -24.243219 -5.079720 28.642081 1.035375 1.749091 0.065894 -0.015250 397662.000000 0 0 1
-13.225939 -24.833419 -5.946020 28.757248 1.081421 1.779065 0.094758 -0.020963 328476.000000 0 0 1
-13.116739 -26.233879 -5.948020 29.927315 1.107155 1.770877 0.066311 -0.023275 -367839.000000 0 0 1
-12.198039 -26.722869 -6.877720 30.169636 1.142580 1.800787 0.083555 -0.023907 -311440.000000 0 0 1
24.066661 13.037481 28.166567 39.275126 0.496467 0.771077 0.063535 -0.010431 397784.000000 0 0 1
24.976761 11.974681 28.527187 39.762192 0.447059 0.770669 0.058883 -0.012258 436393.000000 0 0 1
24.403461 11.053881 29.395747 39.772190 0.425316 0.739059 0.062591 -0.012068 -154879.000000 0 0 1
24.268161 11.477281 30.876077 40.914591 0.441763 0.715680 0.081160 -0.025261 -527356.000000 0 0 1
23.207661 12.320081 31.107557 40.719283 0.488032 0.701381 0.084118 -0.017669 -692655.000000 0 0 1
23.247461 12.790881 32.428899 41.900889 0.503001 0.685752 0.079208 -0.018807 89729.500000 0 0 1
22.018361 13.616681 32.885153 41.852783 0.553856 0.666915 0.067099 -0.011535 -200596.000000 0 0 1
20.819761 12.968281 33.154713 41.241650 0.557076 0.636950 0.050931 0.002824 -244007.000000 0 0 1
19.973961 13.826381 33.915048 41.717603 0.605486 0.621566 0.054202 0.001028 -225668.000000 0 0 1
18.765461 13.202981 -33.436150 40.551663 0.613124 2.540171 0.048488 0.010774 225049.000000 0 0 1
17.639161 13.010681 33.736881 40.231765 0.635519 0.576156 0.027783 0.015428 507045.000000 0 0 1
16.582361 12.417481 -33.560660 39.439656 0.642756 2.588563 0.026152 0.009307 794659.000000 0 0 1
15.241761 12.119181 33.740212 38.956228 0.671764 0.523438 0.038978 0.009423 427833.000000 0 0 1
15.469461 11.146081 32.775802 37.918235 0.624366 0.526878 0.034115 0.018735 -417226.000000 0 0 1
14.326961 10.563781 32.186424 36.780717 0.635347 0.505175 0.041426 0.009008 -248339.000000 0 0 1
14.644861 9.451581 31.189097 35.729037 0.573124 0.509611 0.046325 0.011803 -36754.700000 0 0 1
15.034761 8.274181 31.796167 36.131736 0.503102 0.494920 0.032678 0.008874 -210726.000000 0 0 1
15.588361 7.399981 30.871367 35.366623 0.443213 0.509691 0.039183 -0.003050 118368.000000 0 0 1
15.973461 5.952881 31.282577 35.625663 0.356729 0.498938 0.063925 -0.011043 -1727.360000 0 0 1
14.849861 5.215681 31.716427 35.406968 0.337768 0.460641 0.066441 -0.006634 -105420.000000 0 0 1
15.250161 3.957281 32.217033 35.863138 0.253891 0.454837 0.084270 -0.015428 290829.000000 0 0 1
14.087061 2.929681 32.384912 35.437421 0.205047 0.418100 0.062760 -0.011805 552923.000000 0 0 1
14.538261 1.566081 32.550182 35.683721 0.107308 0.422210 0.083936 -0.019514 464603.000000 0 0 1
13.368461 0.809181 32.851548 35.476678 0.060455 0.387110 0.081817 -0.019446 417746.000000 0 0 1
13.671761 -0.668519 33.216057 35.925901 -0.048859 0.390887 0.060544 -0.013710 -103117.000000 0 0 1
14.079461 -1.514819 32.174556 35.152922 -0.107178 0.414609 0.052252 -0.011173 -31766.000000 0 0 1
14.372361 -2.810819 32.678038 35.809491 -0.193133 0.421314 0.079777 -0.015854 -32800.300000 0 0 1
15.025261 -3.776319 31.596017 35.189875 -0.246231 0.455884 0.077407 -0.017468 -739890.000000 0 0 1
15.327361 -5.106519 31.966977 35.817484 -0.321598 0.467946 0.079442 -0.013068 1056790.000000 0 0 1
16.533661 -5.272419 32.766913 37.078712 -0.308696 0.487061 0.067350 -0.011703 1037420.000000 0 0 1
17.903161 -4.974019 32.129908 37.115967 -0.270995 0.524324 0.070963 -0.017960 -838464.000000 0 0 1
17.994161 -3.557919 32.142282 37.007768 -0.195208 0.518572 0.073447 -0.019420 -155173.000000 0 0 1
18.988861 -3.009819 31.302277 36.735111 -0.157197 0.550797 0.091613 -0.030100 -143163.000000 0 0 1
18.996661 -1.458719 31.175757 36.536677 -0.076638 0.548567 0.096102 -0.031958 -279074.000000 0 0 1
19.120661 -0.823719 32.421597 37.648879 -0.043053 0.533255 0.083023 -0.025471 122639.000000 0 0 1
18.934361 0.578981 32.284557 37.431776 0.030569 0.530626 0.085343 -0.019035 161561.000000 0 0 1
20.240561 1.345581 31.952077 37.847405 0.066382 0.565661 0.077546 -0.015166 -16939.100000 0 0 1
20.609761 1.058581 30.607467 36.914765 0.051318 0.593231 0.083610 -0.023575 -252216.000000 0 0 1
21.606961 1.814081 29.972047 36.992908 0.083762 0.626285 0.074291 -0.017534 -185559.000000 0 0 1
21.200261 3.271681 29.651877 36.597660 0.153115 0.626282 0.060896 -0.001533 -242358.000000 0 0 1
20.986361 4.015581 30.817307 37.500115 0.189057 0.606247 0.058634 -0.013856 417753.000000 0 0 1
20.234061 5.202881 30.678087 37.116468 0.251682 0.597871 0.051229 -0.005387 -205200.000000 0 0 1
19.964261 5.926581 32.049340 38.221149 0.288573 0.576228 0.060427 -0.002569 185883.000000 0 0 1
18.874361 5.315081 32.735279 38.158748 0.274495 0.539684 0.067483 -0.008711 305912.000000 0 0 1
18.766861 5.652681 -33.914760 39.170893 0.292562 2.617574 0.066489 -0.010115 -140709.000000 0 0 1
17.636961 4.957481 -33.123230 37.852178 0.274014 2.636373 0.074838 -0.013795 -154597.000000 0 0 1
17.813061 3.570781 -33.020250 37.688095 0.197836 2.638603 0.074366 -0.016054 414414.000000 0 0 1
16.771561 2.938581 -32.273630 36.489830 0.173451 2.656122 0.080484 -0.016772 288351.000000 0 0 1
16.762461 1.405181 -32.290890 36.409562 0.083633 2.661343 0.091066 -0.020372 400114.000000 0 0 1
17.861361 0.868881 -31.545160 36.261278 0.048608 2.625878 0.067693 -0.015663 484907.000000 0 0 1
17.935061 -0.523519 -31.753880 36.472584 -0.029181 2.627264 0.082927 -0.016472 363947.000000 0 0 1
19.330761 -1.099519 -31.305060 36.808886 -0.056818 2.587685 0.100890 -0.017155 520010.000000 0 0 1
19.471661 -1.207519 -29.893580 35.696356 -0.061935 2.563380 0.116518 -0.018161 207779.000000 0 0 1
19.537061 0.012681 -29.148360 35.090224 0.000649 2.551104 0.117048 -0.015057 -493714.000000 0 0 1
19.188961 -0.328419 -27.650010 33.657795 -0.017113 2.534840 0.081275 -0.016711 -209134.000000 0 0 1
17.791261 -0.506519 -27.517020 32.771511 -0.028462 2.567458 0.071553 -0.018500 275556.000000 0 0 1
17.235361 -0.729819 -26.210190 31.377769 -0.042319 2.559494 0.079639 -0.015651 291740.000000 0 0 1
17.695761 -2.022619 -25.438940 31.054317 -0.113806 2.530769 0.081945 -0.008980 -782007.000000 0 0 1
18.999361 -2.043219 -24.949320 31.426407 -0.107130 2.487987 0.073474 -0.014578 -590131.000000 0 0 1
19.615561 -3.337219 -24.980720 31.936557 -0.168518 2.468983 0.074984 -0.013342 563231.000000 0 0 1
20.452361 -3.575319 -26.289530 33.499573 -0.173063 2.473125 0.079643 -0.023279 36782.100000 0 0 1
21.613161 -2.776219 -26.369430 34.207937 -0.127751 2.450982 0.063668 -0.011967 -326687.000000 0 0 1
22.112661 -2.633419 -27.693080 35.536057 -0.118533 2.464337 0.054603 -0.019853 283236.000000 0 0 1
23.593261 -2.146819 -27.716580 36.461756 -0.090743 2.434348 0.038336 -0.023823 -156157.000000 0 0 1
24.480661 -3.201419 -27.620270 37.046338 -0.130035 2.412171 0.033859 -0.026096 -532673.000000 0 0 1
25.749861 -2.690619 -28.001870 38.136590 -0.104113 2.395361 0.012469 -0.023579 245024.000000 0 0 1
26.956961 -3.612719 -27.705310 38.824138 -0.133224 2.365435 0.032691 -0.021541 -126214.000000 0 0 1
27.012761 -4.721919 -28.628570 39.643169 -0.173055 2.377711 0.052847 -0.032183 -5500.240000 0 0 1
28.042361 -5.623519 -28.341680 40.264734 -0.197911 2.351646 0.049202 -0.031705 -348861.000000 0 0 1
27.828661 -6.549719 -27.168550 39.439362 -0.231152 2.330724 0.042019 -0.024965 -249883.000000 0 0 1
27.979561 -5.947619 -25.903360 38.590337 -0.209453 2.306676 0.036057 -0.012021 396503.000000 0 0 1
27.576961 -6.926819 -24.949920 37.828139 -0.246090 2.291029 0.011961 -0.006831 -252242.000000 0 0 1
27.604161 -6.478919 -23.476320 36.811733 -0.230535 2.262357 -0.001431 0.002196 -124291.000000 0 0 1
28.938561 -6.280019 -23.059020 37.531285 -0.213699 2.232415 0.003351 0.002244 339880.000000 0 0 1
28.987561 -5.930619 -21.683120 36.682539 -0.201807 2.203221 0.007689 -0.006690 -630268.000000 0 0 1
30.399161 -5.534219 -21.273420 37.513930 -0.180080 2.173753 0.035867 -0.010216 -703374.000000 0 0 1
30.811561 -4.353019 -21.924920 38.065775 -0.140350 2.184592 0.042032 -0.016142 -39659.100000 0 0 1
32.183661 -4.128419 -21.707920 39.039284 -0.127580 2.160426 0.055874 -0.014781 -218897.000000 0 0 1
32.601561 -2.780619 -22.288920 39.590271 -0.085085 2.168795 0.061173 -0.025441 -118156.000000 0 0 1
32.047161 -1.652619 -21.639120 38.704046 -0.051523 2.164086 0.043813 -0.024785 321261.000000 0 0 1
32.598761 -0.468419 -22.196420 39.440838 -0.014368 2.168539 0.029905 -0.019925 -160264.000000 0 0 1
31.677461 0.691781 -21.888920 38.510582 0.021835 2.175341 0.034572 -0.015849 803914.000000 0 0 1
30.555361 0.792481 -22.823320 38.146586 0.025930 2.212181 0.018614 -0.011511 486421.000000 0 0 1
29.587361 1.667781 -22.422120 37.161067 0.056308 2.218525 0.018475 -0.009539 -93344.200000 0 0 1
28.252661 1.628781 -23.240220 36.619307 0.057587 2.258344 0.012200 -0.006500 107560.000000 0 0 1
27.351161 2.629981 -22.901420 35.769790 0.095861 2.265613 0.016940 -0.008859 90892.900000 0 0 1
26.347261 2.772481 -23.912120 35.688294 0.104843 2.305041 0.034260 -0.010028 422091.000000 0 0 1
25.172561 3.709281 -23.599620 34.703871 0.146301 2.318598 0.036788 -0.006242 53468.700000 0 0 1
25.695161 5.033281 -23.558020 35.221521 0.193435 2.303461 0.023773 -0.006169 -232160.000000 0 0 1
24.665561 5.923281 -23.421120 34.525701 0.235681 2.316335 0.042032 -0.017135 -825682.000000 0 0 1
25.137361 7.252881 -22.798020 34.702175 0.280901 2.287579 0.049360 -0.014544 -231610.000000 0 0 1
26.005161 8.098281 -23.531720 35.994338 0.301892 2.283341 0.045238 -0.012762 230076.000000 0 0 1
26.204661 9.333781 -22.891020 36.025026 0.342177 2.259349 0.062743 -0.018235 294308.000000 0 0 1
27.176661 10.287781 -23.721820 37.511786 0.361881 2.255422 0.087302 -0.017554 207518.000000 0 0 1
26.817261 10.689281 -25.059590 38.228383 0.379296 2.285671 0.093170 -0.022091 366159.000000 0 0 1
25.614461 11.438281 -25.196500 37.706743 0.419986 2.302614 0.096167 -0.026198 381784.000000 0 0 1
25.111261 11.515081 -26.700540 38.419934 0.429952 2.339169 0.091111 -0.026318 -219870.000000 0 0 1
24.784161 10.294681 -27.367360 38.330242 0.393689 2.365975 0.082012 -0.019786 533477.000000 0 0 1
25.832261 9.408281 -27.812210 39.106783 0.349275 2.361981 0.068482 -0.028124 209318.000000 0 0 1
26.585461 9.866481 -29.081300 40.618422 0.355367 2.368799 0.072159 -0.015908 -777188.000000 0 0 1
27.507861 10.896081 -28.722000 41.235425 0.377147 2.341356 0.068253 -0.011354 773765.000000 0 0 1
28.449261 11.293481 -29.722940 42.665634 0.377891 2.341511 0.067271 -0.004030 763930.000000 0 0 1
29.443561 10.238581 -30.312750 43.481199 0.334656 2.342205 0.053337 -0.006055 -704425.000000 0 0 1
28.834761 9.280181 -31.147090 43.447744 0.311371 2.370122 0.054461 -0.006220 -305362.000000 0 0 1
29.690061 8.245681 -31.519820 44.079361 0.270898 2.367520 0.048655 -0.003653 -540448.000000 0 0 1
29.058261 7.168481 -32.423280 44.125262 0.241864 2.396169 0.047967 -0.007199 396993.000000 0 0 1
28.039661 6.509081 -31.643130 42.777078 0.228098 2.403453 0.056778 -0.010894 255390.000000 0 0 1
27.212661 5.730181 -32.475760 42.755571 0.207538 2.433445 0.058560 -0.010059 -374684.000000 0 0 1
25.803861 5.617181 -31.873430 41.392119 0.214344 2.449694 0.062453 -0.007840 -324194.000000 0 0 1
24.970861 6.729781 -32.150980 41.261597 0.263251 2.464183 0.085578 -0.014539 213585.000000 0 0 1
24.146061 7.024781 -31.020790 39.933310 0.283114 2.460388 0.075151 -0.011689 645865.000000 0 0 1
22.619861 7.128381 -31.316370 39.283418 0.305286 2.493424 0.081188 -0.018825 410321.000000 0 0 1
22.231661 8.201881 -32.135760 39.927743 0.353437 2.506215 0.082280 -0.013846 -715838.000000 0 0 1
20.842761 8.253481 -32.254400 39.279600 0.377043 2.534218 0.070506 -0.012227 -611972.000000 0 0 1
20.390861 9.260481 -33.298990 40.129372 0.426299 2.549529 0.066386 -0.004766 -248740.000000 0 0 1
20.636861 8.850581 33.387017 40.235627 0.405146 0.592070 0.060164 -0.002718 -118542.000000 0 0 1
20.577261 9.911381 32.426825 39.663057 0.448874 0.613640 0.053552 0.004764 343761.000000 0 0 1
19.276861 9.916281 31.554657 38.283500 0.475112 0.601944 0.050726 0.002416 424991.000000 0 0 1
19.173161 8.927681 30.542707 37.150646 0.435779 0.605652 0.056059 -0.005176 -380492.000000 0 0 1
20.211861 8.767781 29.613387 36.909971 0.409295 0.639634 0.068826 -0.008032 -721273.000000 0 0 1
20.223161 9.846681 28.464767 36.279144 0.453114 0.668739 0.085875 -0.013859 -45776.500000 0 0 1
19.231761 9.734881 27.496027 34.937945 0.468586 0.664871 0.066541 -0.003219 246259.000000 0 0 1
17.881261 10.014981 27.816327 34.551228 0.510551 0.634995 0.065450 -0.018903 225525.000000 0 0 1
16.765861 9.193081 27.144807 33.203123 0.501554 0.613674 0.086689 -0.018472 -207725.000000 0 0 1
16.506261 9.614981 25.803927 32.105251 0.527456 0.637260 0.093766 -0.018443 875273.000000 0 0 1
15.251161 9.202081 25.221107 30.876859 0.542893 0.614904 0.105877 -0.018295 905275.000000 0 0 1
15.084761 7.742981 24.836437 30.072452 0.474229 0.599023 0.106030 -0.015879 -164630.000000 0 0 1
15.016861 6.913181 25.937007 30.757544 0.431437 0.567452 0.089107 -0.014414 153307.000000 0 0 1
14.755361 5.609481 25.461097 29.957543 0.363292 0.554989 0.094581 -0.015432 -200289.000000 0 0 1
14.874561 4.636581 26.631587 30.854365 0.302167 0.529344 0.076340 -0.013576 502893.000000 0 0 1
16.150061 4.096081 27.006187 31.732262 0.248389 0.552788 0.064015 -0.010650 731343.000000 0 0 1
16.190161 3.919781 28.424617 32.946090 0.237538 0.530090 0.061348 -0.013078 -42779.800000 0 0 1
17.181761 2.838181 28.827127 33.678946 0.163707 0.543432 0.081336 -0.017709 202590.000000 0 0 1
16.608361 1.516881 28.572767 33.083857 0.091080 0.528337 0.074226 -0.023655 317816.000000 0 0 1
15.740661 1.063981 29.573837 33.518835 0.067492 0.490059 0.061154 -0.016373 -55648.300000 0 0 1
15.458861 -0.512919 29.482617 33.293605 -0.033167 0.483154 0.067707 -0.022139 -306400.000000 0 0 1
14.654361 -0.934919 28.408347 31.979033 -0.063712 0.477073 0.061105 -0.021226 315986.000000 0 0 1
15.314861 -1.001519 27.128257 31.168739 -0.065302 0.514848 0.066105 -0.021011 34446.900000 0 0 1
16.535261 -1.977419 26.936847 31.668892 -0.119023 0.553714 0.064630 -0.026156 246784.000000 0 0 1
17.768261 -1.847719 27.552687 32.837109 -0.103617 0.575222 0.065923 -0.029322 -817319.000000 0 0 1
18.464161 -0.738219 27.145387 32.838122 -0.039960 0.597682 0.067598 -0.024693 -873676.000000 0 0 1
19.942061 -0.762219 27.631137 34.084402 -0.038203 0.625504 0.088843 -0.022145 760121.000000 0 0 1
20.800461 -1.599119 26.856207 34.006943 -0.076728 0.660432 0.066394 -0.017145 -8375.840000 0 0 1
22.173161 -1.496019 27.136497 35.075299 -0.067368 0.686193 0.065644 -0.016064 287745.000000 0 0 1
23.178161 -2.254319 26.247317 35.088898 -0.096956 0.725718 0.064284 -0.012195 1302.840000 0 0 1
23.318461 -1.725519 24.928727 34.178494 -0.073863 0.753397 0.070320 0.001367 23511.900000 0 0 1
22.398161 -2.271719 24.022097 32.922628 -0.101079 0.752982 0.085185 -0.002665 -234707.000000 0 0 1
22.379761 -1.564019 22.694377 31.911355 -0.069772 0.779636 0.079732 -0.018988 -343779.000000 0 0 1
21.692161 -0.368919 22.771477 31.451965 -0.017005 0.761201 0.065084 -0.009292 -212996.000000 0 0 1
21.564561 0.288981 21.477477 30.436751 0.013400 0.787466 0.061078 -0.004493 -117587.000000 0 0 1
-30.769369 -27.432970 -10.258120 42.480006 0.728137 1.814688 0.033666 0.009288 74557.000000 0 0 1
-30.742339 -26.255170 -9.468520 41.522021 0.706834 1.800856 0.037218 0.009670 -641288.000000 0 0 1
-31.539719 -26.338970 -8.360920 41.933283 0.695783 1.771528 0.054946 0.000261 -869418.000000 0 0 1
-31.749199 -24.923170 -7.708820 41.092602 0.665528 1.759511 0.085452 -0.009335 561910.000000 0 0 1
-30.669609 -24.276970 -7.026820 39.741318 0.669576 1.748545 0.068538 -0.013869 -257666.000000 0 0 1
-30.017569 -24.910170 -5.973620 39.462072 0.692681 1.722757 0.070730 -0.012101 -37646.900000 0 0 1
-28.807639 -24.126170 -5.418120 37.964565 0.697188 1.714000 0.071328 -0.014871 -160598.000000 0 0 1
-28.950959 -23.077070 -4.478620 37.292992 0.672976 1.691180 0.091106 -0.025186 -108671.000000 0 0 1
-29.535199 -21.917370 -5.054220 37.124712 0.638411 1.707362 0.093724 -0.027556 -119661.000000 0 0 1
-29.549629 -20.710170 -4.128720 36.319940 0.611303 1.684719 0.094201 -0.029356 590187.000000 0 0 1
-28.323889 -19.958270 -4.022420 34.882017 0.613836 1.686368 0.104261 -0.030289 992949.000000 0 0 1
-28.403029 -19.019270 -2.937320 34.308782 0.590045 1.656515 0.118106 -0.024541 98839.600000 0 0 1
-27.356659 -17.872970 -3.087120 32.823165 0.578714 1.664989 0.119005 -0.025111 304388.000000 0 0 1
-27.787429 -16.934570 -4.025420 32.789097 0.547327 1.693874 0.132849 -0.033740 973125.000000 0 0 1
-26.713929 -16.040970 -4.455620 31.476964 0.540767 1.712825 0.136942 -0.039469 803324.000000 0 0 1
-27.096679 -14.927570 -5.418120 31.407298 0.503534 1.744175 0.137902 -0.047500 190247.000000 0 0 1
-28.195589 -14.147970 -4.953520 31.932642 0.465070 1.726549 0.118663 -0.037832 338054.000000 0 0 1
-28.474889 -13.061370 -5.822820 31.864148 0.430063 1.754568 0.134645 -0.046058 98883.200000 0 0 1
-29.903399 -12.496370 -5.683020 32.903940 0.395834 1.744382 0.130802 -0.035938 684644.000000 0 0 1
-31.028959 -13.282070 -6.125120 34.303451 0.404455 1.750316 0.125057 -0.033701 1317130.000000 0 0 1
-32.220499 -12.516470 -5.935220 35.072060 0.370521 1.740844 0.090296 -0.037618 82420.400000 0 0 1
-33.521659 -13.052870 -6.527020 36.560649 0.371323 1.750284 0.051407 -0.029392 -308744.000000 0 0 1
-33.960669 -14.266570 -5.906320 37.306121 0.397705 1.729786 0.045002 -0.026487 284715.000000 0 0 1
-33.979619 -15.286370 -6.932520 37.899175 0.422745 1.754752 0.048849 -0.035031 -955808.000000 0 0 1
-34.809690 -16.575170 -6.627820 39.120056 0.444399 1.741040 0.036470 -0.018770 773580.000000 0 0 1
-36.234139 -16.503070 -6.634920 40.364419 0.427382 1.735921 0.047770 -0.019773 730571.000000 0 0 1
-36.795119 -15.687470 -5.603920 40.390363 0.403011 1.709989 0.072698 -0.021617 -309070.000000 0 0 1
35.423309 -15.738270 -5.476220 39.147068 -0.418096 1.711145 0.093955 -0.022147 -75527.700000 0 0 1
34.693399 -15.021370 -6.491820 38.359056 -0.408606 1.740853 0.111382 -0.028090 1522350.000000 0 0 1
33.248789 -15.092970 -6.455720 37.080399 -0.426126 1.745789 0.102127 -0.028286 1183120.000000 0 0 1
32.615179 -14.360070 -5.283520 36.026061 -0.414748 1.717986 0.123466 -0.035196 -1134680.000000 0 0 1
32.647189 -15.007970 -4.048920 36.158980 -0.430893 1.683007 0.106251 -0.036236 476623.000000 0 0 1
31.978229 -14.277670 -3.026520 35.151370 -0.419924 1.657003 0.116384 -0.035317 -568328.000000 0 0 1
31.813989 -15.058170 -1.680220 35.237785 -0.442076 1.618497 0.116255 -0.038701 453814.000000 0 0 1
33.017139 -15.129870 -0.908720 36.330017 -0.429688 1.595812 0.135921 -0.033616 342961.000000 0 0 1
34.159979 -15.823770 -1.305020 37.669602 -0.433798 1.605447 0.119610 -0.036144 -551841.000000 0 0 1
34.084069 -17.326370 -1.682320 38.272144 -0.470299 1.614767 0.103287 -0.036965 -828267.000000 0 0 1
34.259789 -18.276670 -0.627520 38.835081 -0.490066 1.586956 0.111792 -0.031275 198107.000000 0 0 1
34.009279 -19.581070 -1.128320 39.259679 -0.522403 1.599540 0.089497 -0.031895 -1930.950000 0 0 1
35.058829 -20.248070 -2.055220 40.538003 -0.523745 1.621517 0.088042 -0.040363 -155923.000000 0 0 1
35.062939 -19.673070 -3.325220 40.342241 -0.511309 1.653315 0.073598 -0.033203 -63587.700000 0 0 1
36.146759 -20.168870 -4.073920 41.592887 -0.508943 1.668901 0.083346 -0.028652 -194719.000000 0 0 1
36.228999 -19.551770 -5.503020 41.534266 -0.494879 1.703681 0.096346 -0.028178 -116881.000000 0 0 1
35.195369 -19.948170 -6.385820 40.956344 -0.515638 1.727353 0.080317 -0.029120 125392.000000 0 0 1
35.145859 -19.017670 -7.464520 40.652456 -0.495990 1.755462 0.082032 -0.027969 -24047.400000 0 0 1
33.964769 -19.221570 -8.438920 39.928556 -0.514989 1.783753 0.085492 -0.028400 -72848.800000 0 0 1
33.982049 -20.425870 -9.133120 40.686726 -0.541212 1.797200 0.089827 -0.032469 533034.000000 0 0 1
32.935389 -20.519270 -10.104520 40.098399 -0.557171 1.825536 0.095627 -0.042081 89222.800000 0 0 1
32.883139 -21.914870 -10.735920 40.949021 -0.587851 1.836074 0.091672 -0.039007 -170624.000000 0 0 1
32.483209 -22.920470 -9.860820 40.960256 -0.614481 1.813926 0.083389 -0.041475 1619.450000 0 0 1
32.242569 -24.106770 -10.590020 41.627732 -0.642008 1.828022 0.062482 -0.033218 23873.800000 0 0 1
31.502439 -25.224570 -9.747020 41.517309 -0.675179 1.807778 0.055060 -0.025463 700573.000000 0 0 1
30.143099 -24.935770 -9.452120 40.246013 -0.691135 1.807869 0.051401 -0.033642 289752.000000 0 0 1
29.387909 -25.933770 -8.779720 40.165820 -0.723042 1.791162 0.029486 -0.023638 120660.000000 0 0 1
27.965939 -25.440370 -8.441220 38.737067 -0.738144 1.790470 0.031821 -0.025170 -83253.800000 0 0 1
27.268139 -25.301070 -9.662620 38.432561 -0.747997 1.824941 0.035744 -0.024663 -651889.000000 0 0 1
26.139639 -24.505370 -9.436520 37.051879 -0.753140 1.828317 0.051435 -0.028117 -476446.000000 0 0 1
25.137839 -24.169070 -10.535920 36.428841 -0.765753 1.864207 0.075561 -0.026759 -404790.000000 0 0 1
24.460239 -25.314070 -10.956820 36.866751 -0.802551 1.872556 0.071509 -0.017256 -486609.000000 0 0 1
23.681939 -24.983870 -12.047420 36.471472 -0.812144 1.907444 0.084505 -0.013604 -139250.000000 0 0 1
23.061439 -26.269270 -12.742720 37.205932 -0.850334 1.920364 0.088140 -0.013548 -150804.000000 0 0 1
23.982039 -27.023070 -13.461220 38.556308 -0.844950 1.927440 0.076708 -0.009630 -173863.000000 0 0 1
23.529639 -28.362770 -13.614420 39.286678 -0.878268 1.924677 0.100459 -0.014419 -330637.000000 0 0 1
24.341939 -29.310470 -14.546320 40.782705 -0.877741 1.935507 0.099928 -0.016330 -210239.000000 0 0 1
24.290039 -29.205170 -15.932520 41.192149 -0.877021 1.967939 0.091701 -0.012519 224622.000000 0 0 1
24.802839 -30.338070 -16.594420 42.555306 -0.885446 1.971373 0.091646 -0.012045 -243769.000000 0 0 1
24.471539 -30.313770 -18.090920 42.954188 -0.891635 2.005529 0.076826 -0.009460 1093310.000000 0 0 1
23.079539 -30.324870 -18.486020 42.355587 -0.920244 2.022444 0.094194 -0.009986 1037290.000000 0 0 1
22.999339 -30.457570 -19.884820 43.035325 -0.924022 2.051111 0.078192 -0.008625 86675.000000 0 0 1
21.558039 -30.335870 -20.430720 42.455016 -0.952962 2.072856 0.067926 -0.006249 94643.500000 0 0 1
21.540639 -30.180170 -21.826120 43.025821 -0.950912 2.102821 0.042406 -0.004043 -757910.000000 0 0 1
20.269939 -29.868470 -22.263520 42.410615 -0.974550 2.123455 0.047310 -0.005813 -1043250.000000 0 0 1
20.094839 -30.043770 -23.815320 43.285103 -0.981282 2.153396 0.048560 -0.009196 -503328.000000 0 0 1
20.762339 -29.092870 -24.560620 43.366967 -0.950963 2.172859 0.063213 -0.016086 79324.700000 0 0 1
20.483839 -29.222370 -25.927130 44.110663 -0.959423 2.199102 0.063518 -0.019692 -169645.000000 0 0 1
21.004139 -27.990970 -26.707570 44.022296 -0.927046 2.222677 0.078206 -0.028885 80223.700000 0 0 1
20.124839 -26.894770 -26.633000 42.867872 -0.928396 2.241173 0.090752 -0.035329 267697.000000 0 0 1
19.174339 -26.883870 -27.694190 43.097168 -0.951247 2.268682 0.114396 -0.041060 -72613.300000 0 0 1
18.360539 -25.603470 -27.887190 42.075437 -0.948678 2.295335 0.111835 -0.034801 249672.000000 0 0 1
17.412839 -25.339870 -26.836600 40.810771 -0.968732 2.288407 0.092644 -0.020029 302371.000000 0 0 1
16.778739 -24.097070 -26.994260 39.885899 -0.962559 2.314186 0.083782 -0.015573 815767.000000 0 0 1
15.576439 -23.871970 -25.988160 38.573059 -0.992666 2.310053 0.089098 -0.015986 1411090.000000 0 0 1
14.433939 -24.744570 -26.124710 38.770257 -1.042734 2.310182 0.115717 -0.022771 1097050.000000 0 0 1
13.237939 -24.360470 -25.427980 37.619911 -1.073020 2.313006 0.075963 -0.016490 691180.000000 0 0 1
13.233739 -24.662370 -23.878420 36.790532 -1.078302 2.277114 0.069426 -0.018522 -196892.000000 0 0 1
14.180339 -23.826470 -23.218920 36.164913 -1.033950 2.267938 0.061876 -0.019640 -12829.600000 0 0 1
14.570939 -24.311770 -21.986520 35.871736 -1.030865 2.230548 0.061013 -0.032510 610370.000000 0 0 1
15.853939 -23.659270 -21.380720 35.612408 -0.980425 2.214763 0.058596 -0.035792 556870.000000 0 0 1
15.496339 -22.472770 -20.716920 34.268829 -0.967111 2.219986 0.050931 -0.038229 -261847.000000 0 0 1
16.618139 -21.762270 -20.292520 34.081451 -0.918634 2.208575 0.057559 -0.034967 -736963.000000 0 0 1
16.315839 -20.319370 -19.733520 32.687845 -0.894247 2.218925 0.074758 -0.024560 599002.000000 0 0 1
15.595639 -20.263870 -18.439020 31.525320 -0.914851 2.195548 0.082644 -0.033334 315078.000000 0 0 1
14.218339 -20.526470 -18.533420 31.096379 -0.964998 2.209306 0.058050 -0.022772 -539739.000000 0 0 1
13.413739 -20.319370 -17.241320 29.834012 -0.987322 2.186960 0.071893 -0.022672 -219661.000000 0 0 1
13.224939 -19.012070 -16.759020 28.587105 -0.963024 2.197211 0.096759 -0.021918 160633.000000 0 0 1
13.018439 -19.085070 -15.358620 27.741789 -0.972167 2.157510 0.096174 -0.023079 -153139.000000 0 0 1
13.127339 -17.737270 -14.633220 26.477706 -0.933662 2.156351 0.097248 -0.025062 -15885.000000 0 0 1
12.048939 -16.846870 -14.815120 25.465304 -0.949939 2.191708 0.064117 -0.026541 320853.000000 0 0 1
12.490339 -15.602770 -14.321820 24.587995 -0.895738 2.192563 0.068820 -0.026704 238731.000000 0 1 0
11.308639 -14.687970 -13.894720 23.166463 -0.914665 2.214019 0.076648 -0.029701 -83051.700000 0 1 0
10.580539 -14.259170 -15.015120 23.253506 -0.932424 2.272755 0.077164 -0.019017 120876.000000 0 1 0
9.351639 -13.693470 -14.562920 22.069049 -0.971621 2.291455 0.063657 -0.021270 237971.000000 0 1 0
8.521139 -13.153370 -15.751420 22.219995 -0.995949 2.358712 0.046480 -0.012248 -431419.000000 0 1 0
8.961939 -12.016570 -16.403220 22.221159 -0.929990 2.401165 0.047406 -0.008654 -159068.000000 0 1 0
10.076139 -12.226470 -17.239020 23.413649 -0.881517 2.398354 0.059772 -0.008894 -21363.800000 0 1 0
10.425939 -10.992470 -18.105220 23.607914 -0.811843 2.444814 0.059841 -0.011832 222140.000000 0 1 0
9.516439 -10.868570 -19.188920 24.018807 -0.851631 2.496281 0.057354 -0.012351 482127.000000 0 1 0
9.924139 -9.816370 -20.075920 24.451835 -0.779939 2.534026 0.063995 -0.016576 61295.100000 0 1 0
9.470339 -9.989770 -21.527720 25.552408 -0.812084 2.572690 0.047662 -0.010078 61267.600000 0 0 1
10.315039 -10.868870 -22.252320 26.827190 -0.811536 2.548953 0.035731 -0.008508 -257985.000000 0 0 1
10.198339 -10.618770 -23.651420 27.859542 -0.805592 2.584796 0.032046 -0.002514 -164755.000000 0 0 1
11.376139 -11.244770 -24.413320 29.186839 -0.779591 2.561569 0.051780 -0.006815 -119503.000000 0 0 1
11.297239 -12.659270 -24.358820 29.685633 -0.842191 2.533185 0.051356 -0.008497 -50718.100000 0 0 1
12.410139 -13.297370 -24.944820 30.871923 -0.819897 2.511563 0.032819 -0.016951 -313317.000000 0 0 1
12.478139 -14.812370 -24.781420 31.452012 -0.870723 2.478207 0.027706 -0.011143 326985.000000 0 0 1
11.400439 -15.627970 -25.340670 31.880292 -0.940552 2.489589 0.035348 -0.016088 747719.000000 0 0 1
11.413639 -16.966870 -24.829620 32.166067 -0.978627 2.452652 0.033127 -0.013805 96145.500000 0 0 1
10.095239 -17.617170 -25.301340 32.441275 -1.050441 2.465322 0.037009 -0.017329 217232.000000 0 0 1
10.104439 -18.079970 -26.636200 33.741253 -1.061165 2.480669 0.046453 -0.021688 -388813.000000 0 0 1
8.928539 -18.812170 -26.831900 33.964208 -1.127662 2.481614 0.047791 -0.019020 -551272.000000 0 0 1
9.024639 -19.795770 -27.975860 35.439602 -1.143057 2.480620 0.055857 -0.023511 -432890.000000 0 0 1
9.944939 -20.847570 -27.817060 36.156767 -1.125692 2.448613 0.050146 -0.028205 30884.900000 0 0 1
9.706739 -21.787070 -28.810310 37.402288 -1.151668 2.450080 0.056191 -0.021427 61295.000000 0 0 1
10.291839 -23.192170 -28.535460 38.184698 -1.153141 2.414787 0.057284 -0.018359 -145943.000000 0 0 1
9.949839 -24.216170 -29.474020 39.422583 -1.180950 2.415302 0.066692 -0.017890 -173838.000000 0 0 1
10.606839 -25.482570 -29.489700 40.391940 -1.176370 2.389248 0.081189 -0.014226 18724.000000 0 0 1
10.266439 -26.479470 -28.332740 40.116159 -1.200927 2.355008 0.075116 -0.018409 362745.000000 0 0 1
11.015739 -26.148270 -27.139310 39.263478 -1.172081 2.333958 0.082709 -0.021627 -81807.800000 0 0 1
10.486439 -26.624170 -25.904300 38.598505 -1.195586 2.306517 0.069170 -0.016513 130824.000000 0 0 1
9.316439 -25.788070 -25.375790 37.359755 -1.224118 2.317507 0.051370 -0.014216 11264.500000 0 0 1
9.888339 -24.558570 -24.959520 36.385165 -1.188013 2.326747 0.062175 -0.011124 -141983.000000 0 0 1
8.985639 -23.487170 -24.748020 35.282479 -1.205400 2.348191 0.047956 -0.011689 -1016330.000000 0 0 1
9.686839 -22.147170 -24.506420 34.422327 -1.158482 2.363045 0.048214 -0.012898 -36818.100000 0 0 1
10.399639 -22.116070 -23.291020 33.760104 -1.131247 2.332144 0.042278 -0.010042 -292110.000000 0 0 1
11.232939 -21.000670 -23.322620 33.333941 -1.079632 2.345726 0.040182 -0.011155 -537163.000000 0 0 1
12.080039 -20.785070 -22.073920 32.637469 -1.044324 2.313574 0.034473 -0.010965 -218288.000000 0 0 1
11.329639 -20.346570 -20.941620 31.319244 -1.062722 2.303188 0.039759 -0.010040 418232.000000 0 0 1
10.738239 -19.032170 -21.042120 30.336514 -1.057105 2.337304 0.056662 -0.009184 -2002.060000 0 0 1
11.733039 -17.840570 -20.923520 29.895549 -0.989055 2.346036 0.051131 -0.007721 792924.000000 0 0 1
12.772339 -17.859870 -21.931120 31.033556 -0.949980 2.355606 0.049882 -0.010394 44838.100000 0 0 1
14.038439 -17.818670 -21.353220 31.153535 -0.903508 2.325975 0.048836 -0.008264 -786612.000000 0 0 1
15.163139 -17.541170 -22.360820 32.212105 -0.857984 2.338069 0.042300 0.000658 -711519.000000 0 0 1
16.442239 -17.677970 -21.832320 32.550085 -0.821599 2.305989 0.057769 -0.000715 -36855.700000 0 0 1
17.431039 -17.297170 -22.805020 33.512716 -0.781543 2.319226 0.070315 -0.002504 1046390.000000 0 0 1
18.891539 -17.494870 -22.262420 34.037862 -0.747033 2.283721 0.082731 -0.011536 684709.000000 0 0 1
19.256839 -18.931870 -22.131320 34.914708 -0.776889 2.257341 0.090519 -0.021395 286600.000000 0 0 1
20.654639 -19.061170 -21.992520 35.687718 -0.745298 2.234767 0.071333 -0.025850 657.961000 0 0 1
21.049439 -20.523470 -21.625620 36.496015 -0.772747 2.205014 0.082501 -0.028081 -154758.000000 0 0 1
20.727139 -20.932070 -20.293520 35.771396 -0.790317 2.174034 0.087806 -0.029565 316026.000000 0 0 1
21.228539 -22.228070 -20.090620 36.720171 -0.808395 2.149725 0.091720 -0.022049 -37349.800000 0 0 1
-16.518939 12.577981 28.246747 35.056521 -0.650775 0.633858 0.043091 -0.029104 -193667.000000 0 0 1
-17.745039 13.263881 28.193847 35.856798 -0.641880 0.666015 0.054321 -0.027872 -239791.000000 0 0 1
-18.110439 13.376381 26.856087 35.045184 -0.636165 0.697691 0.056542 -0.025987 -1043880.000000 0 0 1
-19.403239 14.052281 26.541727 35.754937 -0.626799 0.734265 0.077459 -0.031828 -1020050.000000 0 0 1
-19.366239 15.447181 26.728947 36.443150 -0.673297 0.747424 0.073234 -0.032940 -513822.000000 0 0 1
-20.536339 16.059081 26.309437 37.038112 -0.663658 0.780823 0.078621 -0.030577 -948597.000000 0 0 1
-20.477039 17.575981 26.595707 37.888730 -0.709308 0.792675 0.081168 -0.023436 271728.000000 0 0 1
-19.410839 18.280881 25.994307 37.238089 -0.755428 0.798116 0.069363 -0.016108 1044300.000000 0 0 1
-18.181639 18.387381 26.767217 37.217626 -0.791024 0.768134 0.061436 -0.009930 1020560.000000 0 0 1
-17.096439 19.214681 26.024927 36.589466 -0.843668 0.779495 0.066894 -0.007542 119430.000000 0 0 1
-17.300339 20.630581 25.976067 37.412279 -0.872971 0.803323 0.080808 -0.011181 64130.500000 0 0 1
-16.239339 21.277281 25.291917 36.825533 -0.918885 0.813714 0.108870 -0.015577 283488.000000 0 0 1
-16.343839 22.849881 25.301567 37.807505 -0.949895 0.837637 0.096979 -0.019222 -71913.700000 0 0 1
-15.758239 23.435881 26.411817 38.667126 -0.978836 0.818857 0.097850 -0.013285 -144214.000000 0 0 1
-16.129139 24.780281 26.473227 39.686814 -0.993798 0.840550 0.091174 -0.020659 -359671.000000 0 0 1
-15.516739 25.603381 27.589617 40.712274 -1.025946 0.826202 0.057251 -0.010597 -725032.000000 0 0 1
-14.189539 25.934381 27.319387 40.252752 -1.070157 0.824811 0.066541 -0.013881 -789484.000000 0 0 1
-13.753839 26.751981 28.365877 41.345611 -1.095913 0.814726 0.073987 -0.012446 16175.300000 0 0 1
-12.211639 26.682981 28.474257 40.888738 -1.141594 0.800450 0.092026 -0.018533 2199.760000 0 0 1
-11.531139 27.174481 27.374997 40.259285 -1.169487 0.823078 0.083143 -0.012747 -1227350.000000 0 0 1
-10.202539 27.408981 27.636537 40.238317 -1.214453 0.813690 0.073391 -0.006167 -1230930.000000 0 0 1
-9.365739 27.936081 26.505887 39.632104 -1.247316 0.838205 0.065096 -0.012360 -561719.000000 0 0 1
-7.991239 28.052881 26.776727 39.595670 -1.293284 0.828131 0.071542 -0.015536 255194.000000 0 0 1
-7.365939 28.483681 25.523307 38.948894 -1.317738 0.856213 0.073539 -0.013805 497628.000000 0 0 1
-5.825339 28.291181 25.493577 38.525938 -1.367728 0.847679 0.060657 -0.010304 100613.000000 0 0 1
-5.082839 29.231181 26.250147 39.615242 -1.398634 0.846475 0.075790 -0.012693 -893686.000000 0 0 1
-3.721539 29.017181 26.147127 39.236703 -1.443240 0.841434 0.052665 -0.011841 -703861.000000 0 0 1
-3.026839 30.009681 25.192097 39.298657 -1.470274 0.874941 0.037270 -0.002843 -507292.000000 0 0 1
-3.257339 29.619181 23.888997 38.191495 -1.461263 0.895017 0.033389 0.015772 -94707.600000 0 0 1
-2.899739 30.536981 22.860377 38.255882 -1.476122 0.930335 0.027128 0.012335 44612.300000 0 0 1
-3.216239 29.941381 21.442577 36.967750 -1.463789 0.952025 0.028224 0.011830 220033.000000 0 0 1
-4.576339 29.737481 21.121177 36.760913 -1.418103 0.958736 0.022982 0.016924 -222771.000000 0 0 1
-5.009539 28.408981 21.309377 35.864400 -1.396254 0.934569 0.022572 0.011731 -1392230.000000 0 0 1
-6.471339 28.336081 21.000777 35.858671 -1.346269 0.945110 0.034988 0.005923 -1513030.000000 0 0 1
-6.675639 28.460781 19.606477 35.199348 -1.340405 0.980012 0.012489 0.005779 -4955.210000 0 0 1
-7.740639 27.662181 19.149777 34.522857 -1.297948 0.982796 0.015236 0.002439 -789418.000000 0 0 1
-7.285639 26.247581 18.599177 32.984017 -1.300039 0.971714 0.009760 -0.001136 284384.000000 0 0 1
-6.376139 26.224581 17.513077 32.172840 -1.332288 0.995190 0.012243 -0.003932 230026.000000 0 0 1
-5.053039 26.619081 17.811177 32.424476 -1.383201 0.989255 0.015316 0.000084 -666823.000000 0 0 1
-4.206139 26.865381 16.580277 31.848797 -1.415494 1.023250 0.015592 -0.005069 -436173.000000 0 0 1
-3.702939 25.713381 15.918777 30.467969 -1.427771 1.021044 0.031364 -0.008110 -153788.000000 0 0 1
-2.794139 26.108181 14.924977 30.202636 -1.464181 1.053926 0.042083 -0.018897 -381901.000000 0 0 1
-2.090039 24.845481 14.334977 28.760350 -1.486872 1.049011 0.043573 -0.025348 -28351.200000 0 0 1
-1.156439 24.262381 15.241977 28.676093 -1.523168 1.010400 0.045287 -0.024659 223461.000000 0 0 1
-0.580739 23.048881 14.777677 27.385542 -1.545606 1.000815 0.035898 -0.028888 219160.000000 0 0 1
0.839861 22.716281 15.334677 27.420560 1.533841 0.977327 0.029832 -0.027414 410484.000000 0 0 1
1.784661 23.735681 15.046477 28.159617 1.495749 1.007084 0.040745 -0.035854 105593.000000 0 0 1
2.922761 23.507981 15.873777 28.515688 1.447101 0.980427 0.041413 -0.029455 -293611.000000 0 0 1
4.178261 24.187881 15.340977 28.945760 1.399742 1.012207 0.053111 -0.038706 -794243.000000 0 0 1
5.369461 23.579681 15.733177 28.850742 1.346899 0.994014 0.059031 -0.033970 -373063.000000 0 0 1
6.449861 24.491081 15.576277 29.732712 1.313288 1.019400 0.077536 -0.037862 7905.350000 0 0 1
7.848361 23.827681 15.624477 29.554685 1.252608 1.013771 0.093029 -0.032013 155617.000000 0 0 1
8.264261 23.248881 14.355577 28.546297 1.229258 1.043860 0.073057 -0.027026 100242.000000 0 0 1
8.771561 24.148081 13.394777 28.973956 1.222375 1.090205 0.084495 -0.033411 -435202.000000 0 0 1
9.478161 23.433481 12.205677 28.070306 1.186442 1.120952 0.073412 -0.023433 8732.260000 0 0 1
10.640761 22.746981 12.669977 28.127908 1.133249 1.103537 0.074899 -0.024807 613892.000000 0 0 1
11.435361 22.401481 11.482577 27.648569 1.098805 1.142519 0.082775 -0.018975 786414.000000 0 0 1
12.648161 21.453681 11.714977 27.522301 1.038091 1.131112 0.077623 -0.023687 469465.000000 0 0 1
12.260961 20.241481 12.340477 26.689625 1.026171 1.090130 0.078127 -0.007087 -105721.000000 0 0 1
13.428361 19.484081 12.571977 26.795613 0.967358 1.082434 0.079168 -0.010399 -44227.600000 0 0 1
13.971761 19.675681 13.996477 27.897023 0.953322 1.045211 0.077055 -0.007549 -900863.000000 0 0 1
14.833861 18.634581 14.226977 27.743430 0.898475 1.032347 0.078206 -0.003899 -470157.000000 0 0 1
15.319461 18.559081 15.573077 28.664369 0.880733 0.996445 0.066235 -0.007946 126263.000000 0 0 1
16.198261 17.276281 15.638777 28.380008 0.817591 0.987175 0.039642 -0.009617 40333.800000 0 0 1
16.726061 17.045381 16.950577 29.285289 0.794853 0.953529 0.059443 -0.014660 132799.000000 0 0 1
17.840161 16.197181 16.696977 29.315679 0.737166 0.964828 0.045042 -0.014571 327541.000000 0 0 1
18.457361 15.703981 18.062777 30.225041 0.704973 0.930280 0.058290 -0.011910 257332.000000 0 0 1
19.201561 16.602381 18.870377 31.629576 0.712930 0.931532 0.066097 -0.007008 747256.000000 0 0 1
18.333561 17.447181 19.632377 32.030513 0.760631 0.911036 0.055309 -0.003192 -112448.000000 0 0 1
19.101461 18.442481 20.426077 33.499485 0.767848 0.915060 0.043075 -0.010217 -214129.000000 0 0 1
18.258161 19.371281 21.096277 33.965569 0.814971 0.900641 0.055922 -0.014703 70328.200000 0 0 1
19.007861 20.272981 21.849477 35.350985 0.817594 0.904508 0.059403 -0.016022 122671.000000 0 0 1
18.139761 21.391181 22.541677 35.982784 0.867463 0.893797 0.075770 -0.017954 170462.000000 0 0 1
17.402561 21.036581 23.660157 36.127412 0.879658 0.856735 0.066909 -0.016705 51214.900000 0 0 1
16.727561 22.169781 24.202447 36.838416 0.924408 0.853978 0.068385 -0.028989 -176446.000000 0 0 1
15.977061 21.899081 25.498807 37.215929 0.940495 0.815975 0.087535 -0.029564 245589.000000 0 0 1
14.987561 20.877481 25.282727 36.051525 0.948170 0.793585 0.083219 -0.030956 -176297.000000 0 0 1
14.098361 20.848181 26.357067 36.443180 0.976196 0.762318 0.085435 -0.031676 50602.600000 0 0 1
12.891161 19.878481 26.264667 35.371864 0.995478 0.733957 0.102915 -0.031886 274680.000000 0 0 1
13.243061 18.473081 26.190187 34.677936 0.948828 0.714775 0.099356 -0.041624 -185052.000000 0 0 1
13.843561 18.042381 24.973207 33.776215 0.916327 0.738658 0.102717 -0.041725 -427731.000000 0 0 1
13.032961 17.996181 23.670107 32.465282 0.944008 0.753805 0.112781 -0.037617 -690066.000000 0 0 1
12.947161 19.263381 22.967277 32.652758 0.979033 0.790656 0.105334 -0.029732 588034.000000 0 0 1
14.166461 19.618181 22.285477 32.896871 0.945386 0.826527 0.098590 -0.023596 718506.000000 0 0 1
14.636161 18.629081 21.191877 31.786090 0.904859 0.841020 0.093584 -0.026531 -30190.700000 0 0 1
13.616061 18.377581 20.197277 30.513318 0.933141 0.847423 0.082551 -0.014069 470243.000000 0 0 1
13.889761 17.242881 19.446677 29.468893 0.892689 0.850104 0.064498 -0.011354 -261054.000000 0 0 1
12.768461 16.641981 18.587277 28.026344 0.916350 0.845700 0.062204 -0.003867 -370509.000000 0 0 1
12.342861 17.359481 17.477977 27.553175 0.952716 0.883647 0.071920 -0.006107 147887.000000 0 0 1
11.246961 16.682981 16.862777 26.252033 0.977625 0.873247 0.057958 -0.002548 370513.000000 0 0 1
10.802761 17.299981 15.507877 25.621928 1.012601 0.920706 0.054316 0.000032 141569.000000 0 0 1
10.103161 18.534181 15.572177 26.231325 1.071715 0.935212 0.057828 -0.003965 29749.900000 0 0 1
9.713161 18.908981 14.234777 25.583665 1.096265 0.980748 0.044220 0.002885 -31246.800000 0 0 1
8.642061 20.031681 14.272077 26.070014 1.163501 0.991480 0.051388 0.001340 -1093500.000000 0 0 1
7.427861 19.572781 14.662477 25.558855 1.208087 0.959811 0.026554 0.000441 -1380350.000000 0 0 1
6.451461 20.605581 14.713677 26.128597 1.267371 0.972633 0.036888 -0.008309 341270.000000 0 0 1
5.200261 20.275581 15.551577 26.076684 1.319729 0.931814 0.029513 -0.008460 -107208.000000 0 0 1
4.287561 19.399981 14.931677 24.853519 1.353284 0.926311 0.024889 -0.011367 -540069.000000 0 1 0
3.079361 19.487581 15.648477 25.181801 1.414076 0.900242 0.013607 -0.007446 -619608.000000 0 0 1
1.922161 18.775781 14.982977 24.098013 1.468777 0.899819 0.013181 -0.009365 -365513.000000 0 1 0
1.287561 19.681881 14.059577 24.222013 1.505471 0.951520 0.018044 -0.020695 -89227.000000 0 1 0
0.299561 19.028881 13.310677 23.224172 1.555055 0.960465 0.015579 -0.022240 212385.000000 0 1 0
-0.714539 19.858481 12.420877 23.433907 -1.534830 1.012150 0.023360 -0.027353 18710.900000 0 1 0
-1.732339 20.367081 13.217477 24.341747 -1.485945 0.996795 0.034736 -0.026571 47432.400000 0 1 0
-2.851439 20.656481 12.339677 24.229910 -1.433622 1.036455 0.032202 -0.029315 305593.000000 0 1 0
-4.035339 21.385181 12.926577 25.312177 -1.384291 1.034814 0.032178 -0.025327 -237029.000000 0 0 1
-4.740939 20.555081 13.863977 25.242775 -1.344115 0.989359 0.037046 -0.028732 -161409.000000 0 0 1
-5.846439 21.227281 14.389977 26.303036 -1.302039 0.991919 0.040848 -0.021254 -419055.000000 0 0 1
-6.607039 20.526581 15.549977 26.585621 -1.259391 0.946037 0.037853 -0.020314 -575529.000000 0 0 1
-7.605139 19.635381 15.121277 25.923721 -1.201270 0.948012 0.040373 -0.017701 -56259.800000 0 0 1
-8.399439 19.110281 16.154277 26.395342 -1.156688 0.912194 0.029058 -0.003483 377828.000000 0 0 1
-9.548139 20.007681 16.736977 27.777700 -1.125535 0.924125 0.029255 0.001520 180293.000000 0 0 1
-10.660139 20.148081 15.870977 27.775378 -1.084149 0.962580 0.026668 -0.006683 366734.000000 0 0 1
-11.827839 19.556181 16.439577 28.153182 -1.026845 0.947231 0.015784 -0.001511 372544.000000 0 0 1
-13.110439 19.549281 15.585477 28.230570 -0.980051 0.985942 0.012352 -0.007038 -234445.000000 0 0 1
-13.714539 20.782081 15.341277 29.246166 -0.987478 1.018602 0.001549 -0.002209 -109953.000000 0 0 1
-14.676039 20.643481 14.324977 29.098872 -0.952773 1.056082 0.003927 -0.010111 -149718.000000 0 0 1
-15.742539 21.767281 14.270777 30.418697 -0.944656 1.082474 0.008060 -0.008395 408203.000000 0 0 1
-16.901739 21.584281 15.081677 31.289086 -0.906472 1.067848 0.014776 -0.010194 543310.000000 0 0 1
-17.778739 22.730281 14.940677 32.495739 -0.907028 1.093056 0.022715 -0.013708 1065890.000000 0 0 1
-19.152439 22.425781 15.642677 33.383003 -0.863963 1.083111 0.035567 -0.015297 264043.000000 0 0 1
-19.894839 21.306981 15.111977 32.835406 -0.819659 1.092537 0.042383 -0.017613 1706490.000000 0 0 1
-21.157439 20.922981 15.733877 33.659519 -0.779827 1.084401 0.050394 -0.016287 1982950.000000 0 0 1
-22.284739 22.019381 15.817377 35.094902 -0.779409 1.103244 0.049042 -0.012320 -83131.300000 0 0 1
-22.874439 22.441281 14.556177 35.195643 -0.775840 1.144415 0.064896 -0.010138 716129.000000 0 0 1
-23.632539 23.651981 14.630077 36.495921 -0.785809 1.158331 0.084475 -0.016213 -124009.000000 0 0 1
-22.970939 24.785481 13.832777 36.514789 -0.823376 1.182268 0.062374 -0.015148 1380430.000000 0 0 1
-21.714539 25.126481 14.533277 36.250205 -0.858111 1.158280 0.036532 -0.014137 1452630.000000 0 0 1
-21.199739 26.309481 13.984777 36.567632 -0.892539 1.178365 0.029972 -0.005330 -906800.000000 0 0 1
-19.726639 26.548181 14.241877 36.010793 -0.931758 1.164196 0.018095 -0.005912 -809183.000000 0 0 1
-18.833339 25.731781 13.494877 34.625581 -0.938974 1.170450 0.018137 -0.000042 383541.000000 0 0 1
-17.533939 26.251281 13.814177 34.458674 -0.981922 1.158307 0.003348 0.000403 126605.000000 0 0 1
-16.440139 25.692881 12.890777 33.114565 -1.001574 1.170949 0.016746 -0.006753 -549054.000000 0 0 1
-15.181439 26.299881 12.981777 33.025541 -1.047278 1.166814 0.011616 -0.005607 -363354.000000 0 0 1
-14.341539 25.753981 11.978077 31.818573 -1.062696 1.184836 0.016423 -0.007233 -483907.000000 0 0 1
-12.940239 26.302781 12.295377 31.787770 -1.113591 1.173642 0.017419 -0.006093 -276953.000000 0 0 1
-11.942439 25.696281 11.453377 30.563058 -1.135741 1.186674 0.019788 -0.006329 1101120.000000 0 0 1
-10.579239 26.077781 11.659977 30.461878 -1.185403 1.178001 0.028992 -0.008813 854479.000000 0 0 1
-10.151739 27.419481 11.030877 31.250055 -1.216207 1.210034 0.038949 -0.017757 -279028.000000 0 0 1
-8.958039 27.979481 11.556577 31.569800 -1.260944 1.196020 0.057095 -0.023022 490896.000000 0 0 1
-8.514139 29.146281 10.801877 32.228509 -1.286587 1.229016 0.062802 -0.022883 -423822.000000 0 0 1
-7.274139 29.840881 11.377177 32.754105 -1.331695 1.216051 0.052339 -0.024238 98308.500000 0 0 1
-6.058639 29.190781 11.027077 31.786872 -1.366149 1.216525 0.056198 -0.023156 167305.000000 0 0 1
-4.965639 29.819181 11.695477 32.413350 -1.405785 1.201646 0.068651 -0.031257 722490.000000 0 0 1
-3.581939 29.308481 11.158977 31.564855 -1.449184 1.209459 0.067571 -0.034269 373087.000000 0 0 1
-3.240939 29.979081 9.986777 31.764519 -1.463108 1.250971 0.086753 -0.040477 -350215.000000 0 0 1
-2.045339 29.521481 9.437577 31.060732 -1.501624 1.262073 0.079972 -0.042728 -208006.000000 0 0 1
-1.637439 30.262381 8.090377 31.367931 -1.516741 1.309929 0.080602 -0.041610 310574.000000 0 0 1
-2.531339 30.001881 7.011877 30.914187 -1.486623 1.341988 0.080524 -0.032271 268298.000000 0 0 1
-2.168339 30.712481 5.856277 31.340934 -1.500312 1.382834 0.090507 -0.030926 91646.700000 0 0 1
11.221561 -33.903270 -26.233680 44.312088 -1.251158 2.204360 0.145743 -0.050374 -137383.000000 0 0 1
12.038161 -33.692970 -25.115130 43.713880 -1.227642 2.182832 0.132746 -0.048054 -352368.000000 0 0 1
13.209061 -32.997770 -25.372810 43.670489 -1.190030 2.190760 0.134196 -0.040286 -428809.000000 0 0 1
14.135861 -32.764570 -24.164820 43.096150 -1.163486 2.166050 0.120659 -0.036563 -633196.000000 0 0 1
13.555461 -31.986270 -23.144220 41.743585 -1.169951 2.158484 0.123365 -0.038336 429057.000000 0 0 1
14.141561 -32.135870 -21.816520 41.335922 -1.156243 2.126788 0.091174 -0.029404 -982.049000 0 0 1
15.632361 -31.861570 -21.525820 41.507726 -1.114670 2.116007 0.058350 -0.015576 -88232.700000 0 0 1
16.435661 -32.904270 -22.030220 42.873681 -1.107549 2.110451 0.061966 -0.015770 -301007.000000 0 0 1
17.799461 -32.634070 -21.781420 43.084029 -1.071472 2.100823 0.040341 -0.018039 125972.000000 0 0 1
18.750161 -33.849770 -21.941020 44.483523 -1.064946 2.086606 0.019722 -0.005083 -709856.000000 0 0 1
20.100161 -33.572270 -21.759620 44.772702 -1.031324 2.078306 0.024423 0.005140 -745549.000000 0 0 1
20.704261 33.302981 -21.957920 44.943356 1.014578 2.081245 0.018233 0.006152 -1037330.000000 0 0 1
22.198161 33.288581 -21.689820 45.511935 0.982674 2.067550 0.038658 0.007306 -596952.000000 0 0 1
22.960761 34.009681 -22.654320 46.872947 0.976961 2.075232 0.031640 0.004312 -266885.000000 0 0 1
24.313261 34.033281 -22.293820 47.396342 0.950473 2.060506 0.027519 0.001661 517688.000000 0 0 1
25.299161 -33.307470 -23.283120 47.870020 -0.921202 2.078741 0.051079 -0.010907 724976.000000 0 0 1
25.307261 -31.869470 -23.221720 46.854763 -0.899669 2.089334 0.061757 -0.018474 189971.000000 0 0 1
24.170961 -31.305170 -23.878320 46.199818 -0.913296 2.113962 0.045660 -0.014107 472450.000000 0 0 1
24.067361 -29.739170 -23.647620 44.976283 -0.890421 2.124428 0.058623 -0.027006 376765.000000 0 0 1
25.103761 -28.962570 -24.293520 45.378457 -0.856649 2.135723 0.070160 -0.030746 422825.000000 0 0 1
24.942161 -27.514070 -24.185920 44.318102 -0.834389 2.148062 0.077170 -0.026343 528992.000000 0 0 1
25.600561 -26.681970 -25.397020 44.858944 -0.806079 2.172628 0.065188 -0.026094 313920.000000 0 0 1
24.820561 -26.755070 -26.539750 45.124853 -0.822889 2.199554 0.063169 -0.028214 -292449.000000 0 0 1
25.509861 -26.222170 -27.652250 45.858501 -0.799166 2.218041 0.050773 -0.021611 312006.000000 0 0 1
24.479361 -25.732770 -28.734950 45.684920 -0.810355 2.251038 0.048139 -0.016743 559858.000000 0 0 1
23.798561 -24.538070 -28.433760 44.463098 -0.800696 2.264633 0.061594 -0.014912 737088.000000 0 0 1
22.513161 -24.731870 -27.805530 43.493164 -0.832325 2.264394 0.070061 -0.017994 474217.000000 0 0 1
21.698561 -23.471370 -27.531500 42.186683 -0.824626 2.281822 0.073350 -0.016576 -338249.000000 0 0 1
21.414261 -22.767670 -28.743250 42.463064 -0.816021 2.314339 0.083033 -0.019716 218346.000000 0 0 1
20.658961 -21.627770 -28.379480 41.230426 -0.808305 2.329959 0.077244 -0.007010 539597.000000 0 0 1
19.541561 -21.196570 -29.418630 41.190084 -0.826001 2.366300 0.099901 -0.019992 660914.000000 0 0 1
18.428261 -22.054770 -29.494110 41.181503 -0.874741 2.369136 0.098892 -0.027942 701882.000000 0 0 1
17.413861 -21.633070 -30.431000 41.198034 -0.893035 2.401864 0.080110 -0.036153 461616.000000 0 0 1
16.095261 -22.405870 -30.284490 40.966215 -0.947861 2.402760 0.084053 -0.038536 -423729.000000 0 0 1
16.219961 -23.738770 -30.788860 42.125648 -0.971388 2.390409 0.076853 -0.024699 158902.000000 0 0 1
15.051461 -24.478670 -30.520830 41.919838 -1.019507 2.386307 0.091769 -0.035607 -196610.000000 0 0 1
15.218861 -25.965970 -30.856300 43.104020 -1.040654 2.368647 0.117599 -0.035972 -31258.600000 0 0 1
14.131061 -26.756370 -30.446190 42.925059 -1.084892 2.359283 0.125176 -0.034611 60868.900000 0 0 1
14.423461 -28.118670 -30.688120 44.050613 -1.096843 2.341522 0.188438 -0.041392 146883.000000 0 0 1
13.825961 -29.056270 -29.646250 43.752990 -1.126668 2.315267 0.158103 -0.047947 -8156.140000 0 0 1
14.544661 -29.106670 -28.357550 43.161279 -1.107387 2.287647 0.171671 -0.057360 331201.000000 0 0 1
14.266861 -28.078570 -27.414960 41.755592 -1.100686 2.287042 0.144785 -0.046491 -193727.000000 0 0 1
15.225661 -28.055570 -26.217890 41.307548 -1.073578 2.258416 0.114153 -0.034114 -107306.000000 0 0 1
15.155261 -29.171370 -25.381390 41.531503 -1.091651 2.228291 0.117704 -0.040253 227307.000000 0 0 1
16.085561 -29.103270 -24.292820 41.181145 -1.065878 2.201733 0.109726 -0.036740 -722399.000000 0 0 1
15.640061 -28.283070 -23.062720 39.704315 -1.065666 2.190583 0.088817 -0.029354 808268.000000 0 0 1
14.470061 -28.700070 -22.344720 39.145411 -1.103809 2.178292 0.087690 -0.034983 614643.000000 0 0 1
13.268161 -28.643370 -23.073420 39.100760 -1.137004 2.201981 0.102840 -0.033894 -468007.000000 0 0 1
11.920561 -28.538170 -22.290120 38.123174 -1.175120 2.195290 0.074476 -0.026424 601924.000000 0 0 1
11.751561 -27.130070 -22.041020 36.877452 -1.162038 2.211404 0.058004 -0.025109 280613.000000 0 0 1
10.436861 -26.880070 -21.568620 36.009327 -1.200438 2.213015 0.054614 -0.027437 137709.000000 0 0 1
10.216561 -25.315270 -21.383120 34.676777 -1.187214 2.235265 0.055088 -0.022477 180340.000000 0 0 1
10.959761 -24.734270 -20.320920 33.835488 -1.153695 2.215023 0.045349 -0.017713 228672.000000 0 0 1
10.434961 -23.447570 -20.115020 32.608143 -1.152080 2.235557 0.045769 -0.021443 -255290.000000 0 0 1
10.821361 -22.809770 -18.772920 31.461246 -1.127823 2.210179 0.046798 -0.021171 -150363.000000 0 0 1
9.942261 -23.164370 -17.727220 30.817056 -1.165369 2.183695 0.054006 -0.022166 168520.000000 0 0 1
10.066261 -22.335770 -16.551820 29.566518 -1.147378 2.164960 0.066986 -0.023621 -383850.000000 0 0 1
9.321361 -22.852070 -15.328020 29.052591 -1.183498 2.126564 0.069330 -0.021199 -219189.000000 0 0 1
9.710461 -24.111870 -14.792720 29.908191 -1.187943 2.088176 0.057419 -0.016735 87530.200000 0 0 1
8.988861 -24.540870 -13.626920 29.474512 -1.219691 2.051416 0.050646 -0.016150 85104.300000 0 0 1
9.277161 -25.975270 -13.238720 30.594837 -1.227763 2.018294 0.054341 -0.010640 704203.000000 0 0 1
10.621461 -26.220470 -12.808520 31.054576 -1.185916 1.995940 0.045633 -0.012780 354775.000000 0 0 1
10.904961 -27.576470 -13.086020 32.413327 -1.194223 1.986379 0.037875 -0.015376 -410986.000000 0 0 1
12.348661 -27.941670 -12.673720 33.073396 -1.154662 1.964054 0.047057 -0.017135 699471.000000 0 0 1
13.438261 -27.305570 -13.363420 33.237960 -1.113454 1.984554 0.067269 -0.013723 519502.000000 0 0 1
13.668961 -27.822970 -14.654920 34.288844 -1.114146 2.012407 0.072996 -0.016309 -1271040.000000 0 0 1
15.017261 -27.415670 -15.242020 34.777238 -1.069673 2.024476 0.059709 -0.015487 -488651.000000 0 0 1
16.055061 -28.243770 -14.739420 35.675286 -1.053901 1.996712 0.092766 -0.010375 -560794.000000 0 0 1
17.225161 -27.815370 -15.358920 36.142736 -1.016330 2.009705 0.104563 -0.013708 -1013820.000000 0 0 1
18.537061 -28.499970 -15.073520 37.189809 -0.994123 1.988118 0.093906 -0.014533 -330298.000000 0 0 1
18.657361 -29.708670 -15.778820 38.466522 -1.010035 1.993465 0.086920 -0.006370 -1000030.000000 0 0 1
19.978761 -30.104870 -15.752920 39.415842 -0.984893 1.981942 0.098094 -0.003000 -578955.000000 0 0 1
20.386661 -31.148470 -16.833020 40.855767 -0.991264 1.995456 0.080826 -0.012786 -18657.400000 0 0 1
20.112661 -32.469270 -16.468320 41.593006 -1.016208 1.977887 0.072628 -0.002761 -98883.900000 0 0 1
20.461761 -33.318270 -17.536020 42.852103 -1.020052 1.992397 0.056295 -0.005400 62948.500000 0 0 1
20.227761 33.283481 -17.274320 42.606978 1.024704 1.988250 0.034722 0.000745 -382347.000000 0 0 1
20.964561 32.746681 -16.200220 42.122500 1.001338 1.965568 0.057717 -0.006556 25644.300000 0 0 1
20.766361 31.359981 -16.100220 40.913411 0.985897 1.975253 0.043002 -0.011724 -464489.000000 0 0 1
21.678461 30.785681 -15.008020 40.533375 0.957275 1.950089 0.055635 -0.010812 668153.000000 0 0 1
23.095461 30.819281 -15.257320 41.424802 0.927690 1.947991 0.057816 -0.009594 863120.000000 0 0 1
23.901661 30.273281 -14.224120 41.110662 0.902472 1.924096 0.070031 -0.014831 146757.000000 0 0 1
23.670861 28.916281 -13.542020 39.747292 0.884817 1.918461 0.075928 -0.013690 -952915.000000 0 0 1
23.702261 27.730081 -14.279020 39.174545 0.863552 1.943889 0.080657 -0.007039 110289.000000 0 0 1
23.547761 26.553781 -13.498320 37.971107 0.845325 1.934234 0.035514 -0.003052 -243857.000000 0 0 1
22.103761 26.287681 -13.026920 36.733078 0.871644 1.933322 0.030285 -0.006036 -788037.000000 0 0 1
21.281761 25.976281 -14.143920 36.438043 0.884411 1.969434 0.033967 -0.009796 -310348.000000 0 0 1
19.912361 26.053281 -13.846820 35.595084 0.918210 1.970352 0.040159 -0.010285 -482465.000000 0 0 1
19.246761 27.440081 -13.783420 36.240564 0.959124 1.960951 0.028062 -0.011742 -671806.000000 0 0 1
19.154161 28.272781 -14.893720 37.256609 0.975347 1.982052 0.034892 -0.009225 61599.000000 0 0 1
18.388861 27.807381 -15.992820 36.975275 0.986522 2.018090 0.032305 -0.004918 -373122.000000 0 0 1
18.667061 28.517581 -17.355920 38.248393 0.991208 2.041786 0.033095 -0.005407 -96606.400000 0 0 1
18.100161 29.809881 -17.393220 38.971386 1.025109 2.033431 0.031002 -0.011770 -6053.100000 0 0 1
18.476561 30.496381 -18.554520 40.195556 1.026079 2.050601 0.029045 -0.000371 -846276.000000 0 0 1
17.526261 31.574781 -19.032920 40.821424 1.064068 2.055841 0.024190 0.001959 -476088.000000 0 0 1
17.240861 32.622081 -18.129920 41.111330 1.084607 2.027504 0.043263 -0.017288 -324645.000000 0 0 1
16.313961 33.510881 -18.670820 41.686017 1.117744 2.035202 0.047831 -0.014949 -342564.000000 0 0 1
16.011061 -33.345470 -17.809720 41.054361 -1.123149 2.019511 0.052280 -0.014831 22050.800000 0 0 1
15.040461 -32.425770 -18.256820 40.136735 -1.136491 2.043018 0.049101 -0.012501 -93652.800000 0 0 1
14.752661 -31.540370 -17.226320 38.848192 -1.133289 2.030214 0.055717 -0.017901 -715486.000000 0 0 1
13.699361 -30.525270 -17.561320 37.787095 -1.148951 2.054142 0.064381 -0.018632 -824697.000000 0 0 1
12.452661 -31.152670 -17.726720 37.944620 -1.190523 2.056888 0.054227 -0.016383 -889540.000000 0 0 1
11.425061 -30.236770 -17.885120 36.941464 -1.209527 2.076185 0.035464 -0.013851 -343526.000000 0 0 1
10.073461 -30.897170 -18.211220 37.252628 -1.255631 2.081576 0.053605 -0.017577 -896017.000000 0 0 1
9.491661 -31.612670 -17.135820 37.189903 -1.279111 2.049654 0.055219 -0.011842 201606.000000 0 0 1
8.388261 -32.410870 -17.520820 37.786327 -1.317543 2.052942 0.068380 -0.006608 365815.000000 0 0 1
7.024361 -31.778870 -17.936920 37.161422 -1.353255 2.074504 0.063998 0.000551 -26740.300000 0 0 1
7.034761 -31.478570 -19.316020 37.596501 -1.350931 2.110372 0.050658 0.000749 -90411.200000 0 0 1
6.705761 -32.550670 -20.111620 38.845728 -1.367629 2.114992 0.067644 -0.014510 -1688760.000000 0 0 1
6.689761 -31.946670 -21.550820 39.112408 -1.364375 2.154355 0.066103 -0.009099 306498.000000 0 0 1
7.994861 -31.447970 -21.875220 39.133334 -1.321845 2.163966 0.080563 -0.018347 727605.000000 0 0 1
9.065561 -32.368470 -21.962820 40.153054 -1.297719 2.149546 0.080933 -0.027118 -712059.000000 0 0 1
9.135361 -33.496170 -23.003620 41.648707 -1.304543 2.155947 0.097410 -0.039546 -649850.000000 0 0 1
8.095261 33.728181 -22.723620 41.466689 1.335237 2.150764 0.099247 -0.044445 -519870.000000 0 0 1
7.939661 32.791081 -23.806520 41.292174 1.333240 2.185282 0.108038 -0.056278 -1141380.000000 0 0 1
6.752761 31.848581 -23.616320 40.220175 1.361863 2.198362 0.110537 -0.064256 -66942.400000 0 0 1
5.442661 32.363781 -23.637820 40.444819 1.404184 2.194994 0.097206 -0.059125 47473.300000 0 0 1
5.108461 33.302981 -22.641620 40.593446 1.418589 2.162487 0.069447 -0.048164 -1869940.000000 0 0 1
3.797161 34.003581 -22.945720 41.196699 1.459588 2.161541 0.065934 -0.038608 -864410.000000 0 0 1
2.627761 33.281781 -22.687120 40.364433 1.492005 2.167667 0.066035 -0.046521 51082.200000 0 0 1
1.528961 -33.991370 -23.035520 41.089976 -1.525846 2.165921 0.061973 -0.038023 520838.000000 0 0 1
0.132661 33.571181 -22.605220 40.472679 1.566845 2.163409 0.054131 -0.042398 359509.000000 0 0 1
-0.148739 33.713381 -21.223220 39.837661 -1.566384 2.132634 0.034168 -0.036137 -501073.000000 0 0 1
-1.286439 32.988581 -20.886720 39.066053 -1.531820 2.134892 0.035842 -0.037508 -470726.000000 0 0 1
-1.765039 33.326581 -19.445820 38.625332 -1.517884 2.098380 0.044618 -0.029488 36850.400000 0 0 1
-1.029139 32.738281 -18.403820 37.570663 -1.539371 2.082709 0.036556 -0.036085 -1489.840000 0 0 1
-1.781339 32.757081 -17.187320 37.035165 -1.516470 2.053393 0.012537 -0.020992 -79401.800000 0 0 1
-1.245639 31.867581 -16.113520 35.731497 -1.531728 2.038638 0.020665 -0.006625 102237.000000 0 0 1
-0.000939 32.331481 -15.605220 35.900523 -1.570767 2.020479 0.006585 -0.003298 88766.400000 0 0 1
0.626061 31.189281 -15.048620 34.635591 1.550726 2.020262 0.012481 0.003040 400783.000000 0 0 1
1.763561 31.381981 -14.007420 34.411432 1.514659 1.990026 0.033338 -0.006035 209440.000000 0 0 1
2.939661 31.941381 -14.530920 35.214217 1.479022 1.996151 0.056036 -0.013288 13746.600000 0 0 1
3.852061 32.331781 -13.499320 35.247894 1.452214 1.963819 0.072217 -0.018200 1131550.000000 0 0 1
5.270961 32.766781 -14.036920 36.034429 1.411300 1.970930 0.094841 -0.027207 816064.000000 0 0 1
6.104661 31.681981 -14.365920 35.318472 1.380444 1.989694 0.103552 -0.024712 -676771.000000 0 0 1
7.268961 32.181481 -14.973820 36.231213 1.348650 1.996855 0.097182 -0.021375 158992.000000 0 0 1
8.356161 31.079481 -15.204020 35.593845 1.308143 2.012138 0.093456 -0.033151 790420.000000 0 0 1
9.224261 30.748781 -14.099520 35.062387 1.279351 1.984635 0.089726 -0.034496 763358.000000 0 0 1
10.188561 29.697381 -14.334220 34.513926 1.240300 1.999088 0.094368 -0.042655 822591.000000 0 0 1
9.695761 28.264681 -13.922720 32.965772 1.240340 2.006820 0.111594 -0.037228 -159591.000000 0 0 1
8.924561 27.673881 -14.934920 32.688581 1.258836 2.045286 0.119284 -0.038781 -19122.100000 0 0 1
8.379861 26.413881 -14.608220 31.325952 1.263588 2.055933 0.102988 -0.023863 -55447.300000 0 0 1
7.588161 25.606081 -15.664620 30.961781 1.282699 2.101261 0.106961 -0.025057 193693.000000 0 0 1
8.358261 25.099781 -16.762020 31.318123 1.249345 2.135562 0.107309 -0.024649 -101476.000000 0 0 1
7.684961 24.141381 -17.529220 30.808091 1.262608 2.176063 0.089240 -0.019954 -431985.000000 0 0 1
8.644761 23.502281 -18.482620 31.123887 1.218330 2.206620 0.092810 -0.015819 -331201.000000 0 0 1
7.990461 22.631881 -19.423520 30.875923 1.231396 2.251169 0.096701 -0.021197 -63122.500000 0 0 1
8.842461 21.770981 -20.160020 30.961123 1.184993 2.279882 0.080401 -0.017487 -419418.000000 0 0 1
8.107661 20.782981 -21.022520 30.653104 1.198844 2.326527 0.063459 -0.032067 -379742.000000 0 0 1
7.449361 19.732181 -20.408220 29.348720 1.209815 2.339731 0.078320 -0.028835 -160794.000000 0 0 1
6.699661 18.986781 -21.360320 29.353817 1.231577 2.385737 0.073547 -0.029507 -64490.700000 0 0 1
25.609461 -12.584219 -9.371520 30.033855 -0.456735 1.888127 0.067571 -0.009531 -140037.000000 0 0 1
25.751161 -11.565819 -8.397420 29.451776 -0.422137 1.859933 0.076259 -0.017521 -106324.000000 0 0 1
24.937661 -11.813419 -7.321820 28.549131 -0.442402 1.830158 0.060521 -0.012407 -953589.000000 0 0 1
25.457861 -11.372619 -5.930020 28.506215 -0.420126 1.780352 0.042681 -0.013843 -445803.000000 0 0 1
25.491461 -10.006219 -5.572920 27.946314 -0.374052 1.771557 0.051224 -0.017720 604761.000000 0 0 1
26.359561 -9.160319 -6.320920 28.612793 -0.334459 1.793546 0.042420 -0.018875 -969982.000000 0 0 1
26.405761 -7.802219 -5.594320 28.096891 -0.287299 1.771244 0.076090 -0.021408 -169592.000000 0 0 1
27.068261 -7.724919 -4.321220 28.478730 -0.277997 1.723120 0.119976 -0.036667 100719.000000 0 0 1
28.462861 -7.818819 -4.472420 29.854161 -0.268090 1.721171 0.139725 -0.038292 -421532.000000 0 0 1
29.313761 -7.895019 -3.175220 30.523924 -0.263085 1.675009 0.154871 -0.039141 -112346.000000 0 0 1
29.619361 -6.640819 -2.607920 30.466511 -0.220558 1.656501 0.179229 -0.037629 102537.000000 0 0 1
30.266761 -6.773819 -1.357620 31.045202 -0.220176 1.614541 0.183159 -0.033087 -10100.500000 0 0 1
30.518761 -5.436919 -0.657120 31.006236 -0.176300 1.591991 0.185058 -0.042953 -773111.000000 0 0 1
29.370661 -4.782419 -0.243820 29.758473 -0.161413 1.578990 0.179029 -0.039149 -748584.000000 0 0 1
29.455061 -3.448319 0.165380 29.656683 -0.116540 1.565220 0.173172 -0.032980 -190905.000000 0 0 1
30.149061 -3.173619 1.519580 30.353696 -0.104878 1.520713 0.158345 -0.026834 118801.000000 0 0 1
29.254361 -3.295019 2.616080 29.555349 -0.112161 1.482166 0.157900 -0.030549 421823.000000 0 0 1
29.902461 -3.031519 3.844480 30.300616 -0.101035 1.443575 0.149312 -0.030298 -8971.500000 0 0 1
29.529261 -3.986919 4.946380 30.204957 -0.134204 1.406295 0.151032 -0.041974 -359187.000000 0 0 1
29.908861 -5.294119 4.651280 30.727871 -0.175194 1.418842 0.145598 -0.047095 51626.800000 0 0 1
29.828361 -6.128519 5.807980 31.000363 -0.202639 1.382331 0.136196 -0.047612 56589.400000 0 0 1
30.702961 -7.390919 5.610380 32.074505 -0.236229 1.394975 0.109535 -0.046716 199102.000000 0 0 1
32.099461 -7.287219 5.782880 33.420363 -0.223236 1.396886 0.113029 -0.040819 -74730.000000 0 0 1
32.754261 -8.496719 5.544280 34.289574 -0.253814 1.408393 0.100560 -0.030133 198729.000000 0 0 1
34.288261 -8.421419 5.740980 35.770994 -0.240839 1.409607 0.118586 -0.029477 380730.000000 0 0 1
34.981061 -7.803119 4.659180 36.142375 -0.219474 1.441525 0.125011 -0.033767 23551.100000 0 0 1
36.369861 -7.727819 4.872280 37.499668 -0.209365 1.440499 0.140713 -0.030288 379596.000000 0 0 1
-36.436517 -7.380719 3.706080 37.360805 0.199860 1.471436 0.133167 -0.022406 263056.000000 0 0 1
-36.333517 -8.441719 2.776880 37.404520 0.228289 1.496489 0.143599 -0.022890 -512759.000000 0 0 1
-35.185117 -8.253919 2.037780 36.197682 0.230419 1.514471 0.163269 -0.033228 -899798.000000 0 0 1
-34.713517 -9.416819 1.137480 35.986089 0.264897 1.539182 0.150201 -0.028650 -236727.000000 0 0 1
-34.359417 -10.468619 1.992280 35.974028 0.295745 1.515387 0.143568 -0.030644 143640.000000 0 0 1
-34.147317 -11.660419 1.317880 36.107360 0.329059 1.534289 0.135249 -0.035819 -556512.000000 0 0 1
-33.886317 -12.882419 2.211480 36.319827 0.363292 1.509870 0.121222 -0.048080 803508.000000 0 0 1
-32.550517 -13.100219 2.686380 35.190461 0.382624 1.494384 0.110569 -0.038150 983674.000000 0 0 1
-31.691017 -13.707919 1.704680 34.570703 0.408247 1.521466 0.102407 -0.027282 70234.000000 0 0 1
-30.247017 -13.972819 2.176580 33.389507 0.432753 1.505563 0.102714 -0.022296 265763.000000 0 0 1
-29.420817 -12.815519 2.341980 32.176185 0.410809 1.497946 0.105168 -0.023998 927940.000000 0 0 1
-28.148417 -13.104219 2.917480 31.185984 0.435702 1.477108 0.103589 -0.016975 451120.000000 0 0 1
-27.333317 -11.879219 3.355080 29.991376 0.409979 1.458694 0.105065 -0.014392 196854.000000 0 0 1
-26.073517 -12.200819 3.930480 29.054035 0.437672 1.435099 0.105815 -0.002565 643435.000000 0 0 1
-25.292017 -11.035319 4.239780 27.918455 0.411416 1.418343 0.101007 -0.007002 -315174.000000 0 0 1
-23.919717 -11.421019 4.770480 26.932323 0.445464 1.392728 0.108877 0.001674 -510944.000000 0 0 1
-23.912417 -12.031119 6.054180 27.444573 0.466151 1.348370 0.095105 0.013849 190949.000000 0 0 1
-22.573317 -12.279619 6.460180 26.496747 0.498216 1.324504 0.104604 0.009445 467259.000000 0 0 1
-22.111817 -12.021119 7.957980 26.396386 0.497956 1.264552 0.115312 -0.001746 -417197.000000 0 0 1
-21.875917 -10.643119 8.196480 25.671268 0.452807 1.245820 0.113092 -0.002205 1031310.000000 0 0 1
-23.050317 -9.961419 8.696980 26.574131 0.407919 1.237381 0.118339 -0.010909 338503.000000 0 0 1
-23.442617 -10.312619 10.184980 27.561571 0.414431 1.192287 0.110553 -0.004006 -603310.000000 0 0 1
-24.051217 -11.597719 10.405780 28.657431 0.449314 1.199194 0.094576 -0.007633 760601.000000 0 0 1
-25.449417 -11.614919 10.125880 29.750842 0.428157 1.223501 0.078072 -0.005098 426462.000000 0 0 1
-26.355817 -11.034919 11.260680 30.711585 0.396514 1.195381 0.068878 -0.008497 -593669.000000 0 0 1
-26.445917 -11.691319 12.533580 31.514506 0.416252 1.161779 0.084220 -0.013538 554838.000000 0 0 1
-27.813617 -11.734119 12.941980 32.844812 0.399228 1.165780 0.069585 -0.015413 425017.000000 0 0 1
-28.091517 -12.247419 14.366980 33.845867 0.411136 1.132406 0.076310 -0.010960 -226070.000000 0 0 1
-28.007217 -13.662719 14.559880 34.395700 0.453863 1.133706 0.056363 -0.006253 224657.000000 0 0 1
-28.187417 -13.972319 15.942080 35.269053 0.460196 1.101775 0.089851 -0.015049 -432195.000000 0 0 1
-27.843917 -15.389119 16.270080 35.732677 0.504908 1.098056 0.062211 0.013497 90792.200000 0 0 1
-28.721517 -16.311719 15.643780 36.547579 0.516502 1.128475 0.040267 0.012170 138306.000000 0 0 1
-28.115317 -17.554919 15.682280 36.668517 0.558160 1.128875 0.030202 0.005479 307760.000000 0 0 1
-29.025117 -18.673319 16.326880 38.180064 0.571686 1.128929 0.011295 0.015975 380489.000000 0 0 1
-29.122517 -18.434619 17.750480 38.769004 0.564333 1.095218 0.032037 0.010764 -88328.500000 0 0 1
-29.870717 -19.414619 18.445180 40.117475 0.576344 1.093050 0.042000 0.005770 -38984.000000 0 0 1
-29.183817 -20.836519 18.538080 40.367265 0.620044 1.093662 0.030821 0.008397 515228.000000 0 0 1
-28.013217 -20.739819 19.349380 39.865761 0.637302 1.064018 0.052515 0.006141 121653.000000 0 0 1
-27.347017 -21.920719 19.515780 40.115370 0.675701 1.062727 0.060384 0.000832 68926.200000 0 0 1
-25.957217 -21.901019 20.228780 39.530182 0.700846 1.033599 0.079970 0.002467 106558.000000 0 0 1
-24.961517 -21.373719 19.419780 38.171207 0.708121 1.037059 0.073100 0.001572 559637.000000 0 0 1
-23.688517 -21.357519 20.134480 37.718520 0.733697 1.007698 0.076580 0.004995 1210120.000000 0 0 1
-22.494117 -21.089419 19.201380 36.324122 0.753179 1.013831 0.072853 0.004246 -91391.300000 0 0 1
-22.166317 -22.053719 18.211480 36.185220 0.782852 1.043400 0.066666 -0.002174 911633.000000 0 0 1
-20.806717 -21.902819 17.768380 35.048085 0.811057 1.039129 0.080252 -0.008118 849381.000000 0 0 1
-20.399917 -22.756219 16.454180 34.709396 0.839943 1.076905 0.086311 -0.007377 -174875.000000 0 0 1
-20.217517 -24.156419 16.590280 35.602218 0.873932 1.086043 0.092397 -0.015562 257515.000000 0 0 1
-19.037617 -24.629119 17.206580 35.568114 0.912755 1.065846 0.091181 -0.015846 -146923.000000 0 0 1
-17.698017 -24.641119 16.462180 34.516777 0.947939 1.073635 0.089085 -0.013827 -130869.000000 0 0 1
-17.122717 -23.348319 16.394280 33.273170 0.938030 1.055586 0.084811 -0.015109 -482342.000000 0 0 1
-15.921617 -23.393419 15.683780 32.353221 0.973208 1.064699 0.089929 -0.019389 -149969.000000 0 0 1
-15.148117 -22.038819 15.468780 30.894306 0.968619 1.046389 0.092294 -0.012680 188908.000000 0 0 1
-15.854717 -21.065619 14.702780 30.187814 0.925611 1.062095 0.097160 -0.011527 400827.000000 0 0 1
-17.003517 -20.481619 15.328580 30.717774 0.877919 1.048336 0.100459 -0.014610 369468.000000 0 0 1
-16.725917 -19.250819 16.212880 30.219328 0.855465 1.004504 0.080877 -0.014251 -518569.000000 0 0 1
-16.077317 -18.188319 15.534680 28.820502 0.846927 1.001529 0.065714 -0.017666 64744.400000 0 0 1
-16.200017 -16.980319 16.313380 28.581430 0.808911 0.963355 0.056385 -0.009347 -448558.000000 0 0 1
-15.442917 -15.775919 15.742180 27.114194 0.796064 0.951345 0.065450 -0.012649 -139179.000000 0 0 1
-15.938517 -15.221919 14.553880 26.411334 0.762405 0.987178 0.076020 -0.032712 -59569.400000 0 0 1
-16.026417 -15.975819 13.389980 26.293809 0.783817 1.036490 0.097504 -0.032888 -126234.000000 0 0 1
-17.024517 -15.402919 12.358080 26.073094 0.735433 1.076993 0.086638 -0.020475 161893.000000 0 0 1
-18.386017 -15.549819 12.731680 27.238542 0.702017 1.084433 0.072502 -0.017927 -101668.000000 0 0 1
-19.138517 -14.595719 12.027680 26.906931 0.651539 1.107376 0.095236 -0.020400 -2142750.000000 0 0 1
-20.603017 -14.844319 12.100380 28.129296 0.624347 1.126115 0.082367 -0.022807 -1539900.000000 0 0 1
-21.149217 -15.950519 11.447180 28.857345 0.646177 1.162897 0.087556 -0.022255 -39966.900000 0 0 1
-21.090817 -15.788219 10.037480 28.192932 0.642593 1.206782 0.100634 -0.010388 -452651.000000 0 0 1
-21.840617 -17.016419 9.416280 29.244442 0.661878 1.242971 0.088540 0.005507 26905.700000 0 0 1
-21.138717 -18.187719 9.448580 29.443406 0.710500 1.244110 0.095232 0.007881 171387.000000 0 0 1
-21.975817 -19.230419 8.870980 30.519499 0.718871 1.275874 0.102320 -0.004261 754860.000000 0 0 1
-21.335017 -20.627219 9.022280 31.017199 0.768532 1.275650 0.109947 -0.002431 740506.000000 0 0 1
-20.239517 -20.817519 8.115980 30.147575 0.799475 1.298225 0.127709 -0.004815 318869.000000 0 0 1
-19.766417 -22.208219 8.121280 30.819984 0.843506 1.304140 0.128804 -0.016469 1546650.000000 0 0 1
-18.329717 -22.324819 7.431180 29.826138 0.883353 1.318994 0.126805 -0.029446 1625530.000000 0 0 1
-17.237017 -21.803819 8.200480 28.978771 0.901844 1.283894 0.105190 -0.029182 170450.000000 0 0 1
-16.039317 -22.188519 7.570480 28.406025 0.944889 1.301026 0.114732 -0.024584 653666.000000 0 0 1
-14.703017 -21.628319 8.197480 27.407327 0.973754 1.267049 0.047604 -0.013116 1721020.000000 0 0 1
-13.486617 -22.151819 7.603380 27.025975 1.023912 1.285610 0.052688 -0.001768 482565.000000 0 0 1
-12.385317 -21.625119 8.297980 26.265916 1.050671 1.249368 0.057106 -0.006785 150295.000000 0 0 1
-11.016817 -22.105519 7.756180 25.887884 1.108450 1.266516 0.045827 -0.004523 236998.000000 0 0 1
-10.793117 -23.510119 7.863080 27.037846 1.140414 1.275715 0.044865 0.001022 -704259.000000 0 0 1
-9.515417 -23.868419 7.417580 26.744440 1.191444 1.289761 0.065847 -0.007023 -8600.380000 0 0 1
-9.415017 -25.375759 7.604180 28.113969 1.215516 1.296908 0.066788 -0.000241 332726.000000 0 0 1
-10.200917 -25.979659 6.546380 28.668039 1.196642 1.340413 0.064513 -0.007954 156150.000000 0 0 1
-10.202217 -27.365989 6.597880 29.941854 1.213950 1.348616 0.091708 -0.009709 -108057.000000 0 0 1
-9.137617 -28.109719 5.756280 30.112906 1.256501 1.378456 0.091982 -0.010322 584685.000000 0 0 1
-7.794817 -27.756089 6.153580 29.479250 1.297016 1.360507 0.088979 -0.011082 1057850.000000 0 0 1
-6.775817 -28.746999 5.903280 30.118937 1.339316 1.373520 0.092032 -0.013168 688478.000000 0 0 1
-6.943817 -30.116309 6.571980 31.597462 1.344190 1.361276 0.107741 -0.018065 -665786.000000 0 0 1
-6.800817 -30.100889 7.966280 31.871245 1.348593 1.318166 0.105632 -0.027453 126832.000000 0 0 1
-6.821817 -31.406179 8.492580 33.241679 1.356906 1.312452 0.136669 -0.030198 -213141.000000 0 0 1
-6.995817 -31.512789 10.017080 33.798509 1.352340 1.269900 0.113601 -0.030822 -2888.130000 0 0 1
-5.933817 -31.070979 10.855080 33.443216 1.382092 1.240226 0.097343 -0.024297 368484.000000 0 0 1
-6.376817 -31.014259 12.190980 33.928868 1.368013 1.203268 0.078392 -0.029580 50981.800000 0 0 1
-5.302817 -30.321049 13.084680 33.446894 1.397658 1.168853 0.071933 -0.032896 342324.000000 0 0 1
-5.208817 -28.930119 12.883380 32.094626 1.392657 1.157731 0.071840 -0.025213 3138.910000 0 0 1
-4.594817 -28.290569 13.955680 31.878357 1.409787 1.117669 0.049618 -0.027360 -913458.000000 0 0 1
-5.652817 -27.719639 14.903680 31.975810 1.369627 1.085927 0.054846 -0.026956 -254106.000000 0 0 1
-6.433817 -28.623719 15.647880 33.250074 1.349699 1.080812 0.053030 -0.029426 15103.700000 0 0 1
-5.710817 -29.366359 16.599580 34.213192 1.378726 1.064227 0.033353 -0.027929 -234281.000000 0 0 1
-6.472817 -30.645349 16.936780 35.607433 1.362639 1.075090 0.033325 -0.026466 -267567.000000 0 0 1
-6.437817 -31.519519 15.810280 35.845370 1.369319 1.114007 0.044236 -0.025571 8391.500000 0 0 1
-6.853817 -32.811499 16.152880 37.208666 1.364873 1.121739 0.047043 -0.023732 -138176.000000 0 0 1
-6.163817 -33.918489 15.357780 37.740137 1.391034 1.151700 0.042849 -0.023452 -72369.800000 0 0 1
-6.488817 -33.779259 13.940380 37.114381 1.381013 1.185746 0.051186 -0.036307 78937.400000 0 0 1
-5.935817 33.316309 13.171180 36.313776 -1.394481 1.199628 0.053339 -0.031407 940142.000000 0 0 1
-4.460817 33.534125 12.660380 36.120931 -1.438550 1.212692 0.085268 -0.042701 1031690.000000 0 0 1
-4.691817 -33.798249 11.550180 36.024179 1.432860 1.244409 0.087366 -0.043130 481057.000000 0 0 1
-3.475817 -33.429919 10.920380 35.339716 1.467195 1.256643 0.104187 -0.044655 -365652.000000 0 0 1
-3.714817 -33.219479 9.344280 34.708057 1.459433 1.298208 0.100160 -0.042060 -874066.000000 0 0 1
-3.818817 33.792967 8.457380 35.043905 -1.458267 1.327053 0.118582 -0.041502 460285.000000 0 0 1
-4.660817 32.664556 8.756780 34.137628 -1.429066 1.311383 0.110387 -0.043402 564359.000000 0 0 1
-6.175817 32.897807 9.023880 34.667518 -1.385229 1.307466 0.114456 -0.042739 -215679.000000 0 0 1
-6.910817 33.245081 7.896480 34.861859 -1.365840 1.342306 0.128087 -0.031126 -693105.000000 0 0 1
-8.281817 33.191663 8.229580 35.185238 -1.326274 1.334717 0.105631 -0.026870 86371.200000 0 0 1
-9.201817 33.610783 7.075080 35.558613 -1.303569 1.370490 0.102898 -0.028884 -117123.000000 0 0 1
-9.385817 -33.085689 6.837480 35.064334 1.294377 1.374541 0.139544 -0.022201 50273.800000 0 0 1
-10.138317 -33.010849 5.619780 34.986906 1.272820 1.409472 0.129102 -0.016555 316341.000000 0 0 1
-10.622817 -31.635379 5.222780 33.777491 1.246837 1.415550 0.121061 -0.018743 -313850.000000 0 0 1
-11.702217 -31.093439 5.901480 33.742722 1.210837 1.394996 0.128260 -0.020174 -632899.000000 0 0 1
-12.337717 -30.078949 5.138180 32.914485 1.181547 1.414048 0.125137 -0.016947 203323.000000 0 0 1
-13.587717 -29.498769 5.859280 33.002039 1.139146 1.392307 0.111498 -0.022565 -50176.600000 0 0 1
-14.597817 -30.460179 6.049080 34.314868 1.123892 1.393589 0.115621 -0.012009 -1227.980000 0 0 1
-15.649817 -29.918289 6.824580 34.446998 1.088852 1.371359 0.110694 -0.018444 -80090.200000 0 0 1
34.106469 -12.385019 -12.845720 38.492239 -0.348322 1.911046 0.089466 -0.020507 -51382.800000 0 0 1
32.980789 -12.642119 -12.006120 37.305529 -0.366043 1.898460 0.100678 -0.021970 373391.000000 0 0 1
32.816409 -13.998119 -11.591020 37.512875 -0.403190 1.884925 0.091389 -0.026846 -322989.000000 0 0 1
33.790549 -14.367219 -10.485420 38.185890 -0.402027 1.848958 0.076543 -0.013359 604268.000000 0 0 1
35.148149 -14.638219 -10.853120 39.591161 -0.394625 1.848481 0.090723 -0.022958 958711.000000 0 0 1
35.932589 -15.044019 -9.691120 40.142138 -0.396500 1.814625 0.073896 -0.016742 303226.000000 0 0 1
-36.340809 -15.288119 -9.987420 40.670992 0.398212 1.818900 0.035383 -0.017257 -39587.400000 0 0 1
-35.681821 -14.021719 -10.144320 39.657385 0.374427 1.829470 0.033992 -0.008580 351340.000000 0 0 1
-34.383314 -14.273519 -10.668120 38.726663 0.393480 1.849877 0.030342 -0.019051 727776.000000 0 0 1
-33.456419 -13.001219 -11.029620 37.550182 0.370642 1.868923 0.043819 -0.029335 32323.800000 0 0 1
-33.018969 -12.316319 -9.947220 36.618182 0.357023 1.845900 0.050894 -0.028392 193764.000000 0 0 1
-32.494669 -11.062219 -10.352220 35.853099 0.328126 1.863707 0.068899 -0.034743 -342393.000000 0 0 1
-33.013789 -9.852419 -9.545620 35.750515 0.290019 1.841082 0.067611 -0.041876 -169375.000000 0 0 1
-32.594869 -9.789919 -8.232320 35.014841 0.291779 1.808128 0.083574 -0.040175 311955.000000 0 0 1
-33.323679 -8.812419 -7.513120 35.278510 0.258531 1.785406 0.123109 -0.045582 -151213.000000 0 0 1
-32.781019 -8.694119 -6.079320 34.454913 0.259250 1.748168 0.114564 -0.035555 153510.000000 0 0 1
-31.561729 -7.933519 -5.995220 33.091179 0.246263 1.752975 0.121643 -0.044490 584816.000000 0 0 1
-31.178559 -7.675519 -4.657120 32.445414 0.241380 1.714831 0.126836 -0.033979 -219555.000000 0 0 1
-30.410809 -8.868419 -3.996420 31.928632 0.283752 1.696293 0.121321 -0.026644 -544462.000000 0 0 1
-31.142999 -10.035319 -3.652520 32.923167 0.311728 1.681966 0.129677 -0.028228 -66819.300000 0 0 1
-31.963389 -9.962119 -2.525720 33.575010 0.302131 1.646094 0.113732 -0.031664 -63381.000000 0 0 1
-32.531669 -11.380319 -2.200120 34.534934 0.336517 1.634547 0.116080 -0.030071 251841.000000 0 0 1
-33.691029 -11.801019 -2.910720 35.816502 0.336917 1.652154 0.121088 -0.038722 347513.000000 0 0 1
-34.087699 -13.067019 -2.359520 36.582585 0.366058 1.635340 0.118946 -0.044374 326756.000000 0 0 1
-35.631999 -13.251319 -2.238420 38.082113 0.356045 1.629609 0.090554 -0.034847 372937.000000 0 0 1
-36.205919 -12.481719 -1.217820 38.316380 0.331983 1.602585 0.103476 -0.038133 -80275.700000 0 0 1
36.178019 -12.728519 -1.088020 38.367278 -0.338304 1.599158 0.131128 -0.037107 -47338.300000 0 0 1
35.504009 -11.829619 -0.024720 37.422922 -0.321623 1.571457 0.126632 -0.038893 -502.003000 0 0 1
35.895979 -12.179519 1.295280 37.928086 -0.327111 1.536639 0.130413 -0.036587 104142.000000 0 0 1
35.700889 -11.078719 2.190980 37.444517 -0.300898 1.512250 0.127547 -0.035291 -200108.000000 0 0 1
35.976479 -11.391019 3.645080 37.912385 -0.306638 1.474503 0.131705 -0.040392 545348.000000 0 0 1
34.936929 -12.123319 4.327180 37.232893 -0.334005 1.454314 0.121490 -0.039824 514264.000000 0 0 1
35.392779 -12.572719 5.565880 37.969739 -0.341330 1.423679 0.119169 -0.034602 -141159.000000 0 0 1
34.260779 -12.631119 6.598580 37.106433 -0.353215 1.392017 0.108700 -0.032588 -12197.100000 0 0 1
33.844109 -11.377919 7.137480 36.411871 -0.324316 1.373498 0.092411 -0.032739 93833.100000 0 0 1
33.307349 -11.460519 8.440080 36.220960 -0.331395 1.335618 0.081388 -0.020252 -35386.100000 0 0 1
32.586839 -10.104119 8.895380 35.257950 -0.300667 1.315746 0.077188 -0.033123 -484222.000000 0 0 1
31.287019 -9.942019 8.416980 33.890512 -0.307677 1.319812 0.095748 -0.032901 -348122.000000 0 0 1
30.644839 -8.911419 9.137980 33.196720 -0.282992 1.291928 0.105834 -0.029101 2773.540000 0 0 1
29.097329 -8.979419 9.183780 31.806073 -0.299327 1.277883 0.106018 -0.036481 183403.000000 0 0 1
28.403739 -8.503019 8.074780 30.729070 -0.290872 1.304901 0.126262 -0.038767 -145771.000000 0 0 1
27.857939 -9.587719 7.344880 30.363405 -0.331467 1.326474 0.141104 -0.049695 -352188.000000 0 0 1
26.956739 -9.072719 6.190280 29.108410 -0.324657 1.356497 0.147031 -0.048606 -44766.200000 0 0 1
25.739739 -8.604219 6.756380 27.968114 -0.322600 1.326808 0.151798 -0.051221 883225.000000 0 0 1
24.734039 -8.166219 5.817080 26.688916 -0.318893 1.351074 0.148903 -0.047777 404462.000000 0 0 1
24.878439 -6.723719 5.229680 26.296286 -0.263957 1.370586 0.135574 -0.045713 -855768.000000 0 0 1
25.742339 -6.670519 4.141980 26.913190 -0.253550 1.416281 0.127785 -0.045939 59075.800000 0 0 1
25.783139 -5.288819 3.643080 26.570922 -0.202321 1.433255 0.129997 -0.044825 103947.000000 0 0 1
26.347639 -5.206519 2.191380 26.946392 -0.195095 1.489383 0.150203 -0.047274 159473.000000 0 0 1
25.475139 -5.631519 1.171380 26.116447 -0.217561 1.525929 0.131401 -0.042445 427640.000000 0 0 1
26.207739 -5.723819 -0.078820 26.825620 -0.215025 1.573735 0.150417 -0.039545 82750.000000 0 0 1
25.257639 -6.036019 -1.207520 25.996922 -0.234578 1.617262 0.115278 -0.035295 -24304.900000 0 0 1
24.346039 -4.997619 -1.520520 24.900156 -0.202462 1.631899 0.113302 -0.031044 146409.000000 0 1 0
23.663039 -5.202719 -2.750020 24.383812 -0.216423 1.683817 0.086148 -0.024547 149356.000000 0 1 0
22.339739 -4.399119 -2.918820 22.955080 -0.194431 1.698295 0.064516 -0.020706 -70809.500000 0 1 0
22.401339 -2.925819 -2.926120 22.780311 -0.129874 1.699602 0.067212 -0.019261 23566.900000 0 1 0
23.085239 -2.396719 -4.027420 23.556159 -0.103450 1.742611 0.089590 -0.018589 -158359.000000 0 1 0
22.247739 -1.411319 -4.884220 22.821247 -0.063352 1.786486 0.064463 -0.009294 44449.000000 0 1 0
22.074139 -0.124019 -4.337120 22.496524 -0.005618 1.764802 0.066015 -0.005358 505722.000000 0 1 0
21.324439 0.748081 -5.179720 21.957249 0.035067 1.808941 0.078458 -0.004111 -489446.000000 0 1 0
21.180639 2.224781 -4.790220 21.829231 0.104655 1.792037 0.085126 0.003660 378919.000000 0 1 0
22.379239 3.024381 -4.838020 23.095100 0.134328 1.781842 0.117113 -0.002389 1105200.000000 0 1 0
23.216039 2.898681 -3.687320 23.685082 0.124214 1.727113 0.142454 -0.007071 -202904.000000 0 1 0
24.341339 3.918981 -3.656720 24.924501 0.159631 1.718040 0.150750 -0.019686 -142020.000000 0 1 0
23.762939 5.212581 -3.605720 24.593687 0.215937 1.717938 0.127394 -0.013229 617100.000000 0 1 0
24.766939 6.199181 -3.659820 25.791963 0.245262 1.713175 0.120666 -0.017335 -96254.200000 0 0 1
24.273039 7.637581 -3.427920 25.676130 0.304845 1.704702 0.110317 -0.025527 -154614.000000 0 0 1
23.561439 7.698681 -2.179420 24.882945 0.315813 1.658496 0.137283 -0.033194 568959.000000 0 1 0
22.665939 8.790081 -2.286020 24.417948 0.369954 1.664554 0.122211 -0.029192 52592.100000 0 1 0
21.638539 8.976081 -1.133420 23.453806 0.393216 1.619141 0.101332 -0.026846 294148.000000 0 1 0
22.349539 9.225981 0.091280 24.179101 0.391495 1.567021 0.092887 -0.031600 1659730.000000 0 1 0
21.382439 9.664081 1.092080 23.490334 0.424486 1.524289 0.087953 -0.029411 655610.000000 0 1 0
22.052139 10.237481 2.349380 24.425855 0.434632 1.474463 0.112605 -0.023464 -258971.000000 0 1 0
22.803539 11.445081 2.237380 25.612441 0.465166 1.483330 0.112601 -0.030820 480484.000000 0 0 1
22.175839 12.616281 1.743780 25.573015 0.517253 1.502555 0.108689 -0.026533 -531578.000000 0 0 1
21.219639 13.353581 2.726880 25.219577 0.561688 1.462459 0.087554 -0.015883 1653330.000000 0 0 1
19.827839 12.872081 2.687980 23.791992 0.575807 1.457576 0.140259 -0.017035 1977940.000000 0 1 0
18.930839 13.667181 3.417280 23.597590 0.625308 1.425471 0.126058 -0.014758 -66453.700000 0 1 0
18.933739 13.477981 4.987580 23.770115 0.618635 1.359400 0.110074 -0.014978 -584145.000000 0 1 0
18.460639 12.223081 5.417680 22.793642 0.584845 1.330816 0.091569 -0.006810 366727.000000 0 1 0
18.506639 12.145781 6.813980 23.161303 0.580787 1.272181 0.079761 -0.012693 -144348.000000 0 1 0
18.391039 10.697881 7.382080 22.520436 0.526847 1.236828 0.048590 -0.017368 -437515.000000 0 1 0
19.430539 9.905081 6.911880 22.878604 0.471432 1.263890 0.038061 -0.027453 58000.900000 0 1 0
19.403239 8.640281 7.553280 22.543118 0.418939 1.229128 0.039500 -0.015920 -89899.300000 0 1 0
20.306239 7.571781 6.909280 22.746721 0.356910 1.262172 0.054434 -0.017505 -112865.000000 0 1 0
20.013239 7.397181 5.530380 22.041622 0.354041 1.317180 0.048306 -0.025450 319117.000000 0 1 0
20.841139 6.446081 4.935080 22.366493 0.299963 1.348319 0.058236 -0.034076 -497504.000000 0 1 0
20.749139 6.633481 3.438280 22.053380 0.309430 1.414251 0.069778 -0.019562 -397379.000000 0 1 0
21.551139 5.775381 2.696580 22.473944 0.261833 1.450520 0.065827 -0.028232 -6978.040000 0 1 0
21.458439 5.970481 1.294580 22.311144 0.271371 1.512740 0.079092 -0.011440 684878.000000 0 1 0
22.701639 5.401781 0.489580 23.340594 0.233603 1.549819 0.122799 -0.014275 730700.000000 0 1 0
22.758739 3.965081 0.604580 23.109469 0.172491 1.544632 0.121729 -0.016067 451736.000000 0 1 0
23.925539 3.492281 -0.041720 24.179106 0.144941 1.572522 0.143178 -0.028137 197288.000000 0 1 0
23.958139 1.981681 0.068480 24.040053 0.082526 1.567948 0.160248 -0.027713 85643.800000 0 1 0
22.912539 1.409881 -0.714520 22.966992 0.061456 1.601912 0.130679 -0.016291 648100.000000 0 1 0
23.051039 0.052381 -1.146420 23.079588 0.002272 1.620489 0.127904 -0.019146 -736799.000000 0 1 0
22.444939 -1.086119 -0.288620 22.473055 -0.048353 1.583640 0.112580 -0.015217 476203.000000 0 1 0
23.313039 -1.469319 0.799480 23.372972 -0.062942 1.536584 0.120179 -0.017003 1856250.000000 0 1 0
24.671939 -1.859819 0.489780 24.746785 -0.075240 1.551003 0.143236 -0.028856 379723.000000 0 1 0
25.576839 -1.706319 1.685580 25.689052 -0.066615 1.505134 0.154824 -0.030072 -414922.000000 0 0 1
25.456839 -0.370619 2.137180 25.549081 -0.014558 1.487048 0.148309 -0.033271 298551.000000 0 0 1
26.292239 -0.250919 3.274080 26.496497 -0.009543 1.446913 0.143643 -0.038294 -152795.000000 0 0 1
26.338739 1.226281 3.829980 26.643980 0.046524 1.426550 0.143460 -0.038044 238602.000000 0 0 1
26.877639 2.200381 2.917580 27.124922 0.081684 1.463027 0.173248 -0.037649 -285438.000000 0 0 1
28.236339 2.136381 2.603580 28.436483 0.075517 1.479110 0.169989 -0.040278 -187956.000000 0 0 1
28.831519 3.318881 1.765880 29.075587 0.114608 1.510025 0.200260 -0.048477 -17753.300000 0 0 1
27.997639 3.546481 0.625180 28.228286 0.126000 1.548647 0.196318 -0.037403 193561.000000 0 0 1
28.481539 4.298281 -0.489420 28.808207 0.149784 1.587786 0.195490 -0.039628 -69607.100000 0 0 1
29.762109 3.807481 -1.220520 30.029480 0.127239 1.611452 0.172720 -0.032274 361055.000000 0 0 1
30.938019 4.080981 -0.477720 31.209672 0.131151 1.586104 0.162775 -0.032972 517921.000000 0 0 1
32.130799 3.545281 -1.075520 32.343685 0.109894 1.604055 0.151169 -0.031378 284833.000000 0 0 1
33.429919 3.676881 -0.304720 33.632897 0.109547 1.579857 0.099761 -0.039451 -608130.000000 0 0 1
33.536739 3.103581 0.974380 33.694131 0.092280 1.541874 0.113250 -0.040374 156066.000000 0 0 1
32.727379 3.668881 2.010080 32.993672 0.111638 1.509835 0.113325 -0.032093 -19554.200000 0 0 1
32.743899 2.792781 3.296180 33.027675 0.085086 1.470829 0.117446 -0.026663 3909.220000 0 0 1
32.025009 1.593481 3.053080 32.209651 0.049716 1.475866 0.134875 -0.034173 100446.000000 0 0 1
32.052079 0.637481 4.147980 32.325653 0.019886 1.442123 0.136496 -0.031794 128326.000000 0 0 1
33.311209 -0.276619 4.192980 33.575202 -0.008304 1.445586 0.120543 -0.021804 -420785.000000 0 0 1
34.465039 0.443081 4.445980 34.753445 0.012855 1.442516 0.114690 -0.027800 -723303.000000 0 0 1
35.587299 -0.398719 4.284580 35.846512 -0.011204 1.450984 0.106057 -0.027979 -814252.000000 0 0 1
-36.834859 0.250881 4.608480 37.122875 -0.006811 1.446334 0.108243 -0.038500 -330741.000000 0 0 1
-36.466759 1.370181 3.782780 36.688027 -0.037556 1.467506 0.087880 -0.033175 75357.400000 0 0 1
-36.145189 1.066481 2.454280 36.244111 -0.029497 1.503029 0.120290 -0.035048 -406076.000000 0 0 1
-35.796033 2.358781 1.618280 35.910147 -0.065800 1.525716 0.108734 -0.036115 436069.000000 0 0 1
-34.600094 2.916981 2.158980 34.789890 -0.084107 1.508699 0.134641 -0.048766 297504.000000 0 0 1
-33.805749 3.478681 1.135380 34.003220 -0.102541 1.537400 0.162979 -0.027718 -491387.000000 0 0 1
-32.585359 4.210481 1.681880 32.899278 -0.128502 1.519652 0.165010 -0.033350 -462325.000000 0 0 1
-31.685429 3.330981 2.359980 31.947321 -0.104742 1.496858 0.156693 -0.044658 -257172.000000 0 0 1
-30.805209 4.030681 3.156280 31.227702 -0.130105 1.469550 0.162917 -0.030991 -852891.000000 0 0 1
-31.221939 4.055481 4.599880 31.818474 -0.129169 1.425722 0.170590 -0.031232 -439519.000000 0 0 1
-32.463389 4.650481 4.887180 33.156947 -0.142285 1.422862 0.161407 -0.009209 141680.000000 0 0 1
-33.570089 3.775981 5.054280 34.157791 -0.112010 1.422282 0.148310 -0.015229 -228797.000000 0 0 1
-33.690309 2.930681 6.339980 34.406702 -0.086770 1.385471 0.124352 -0.018410 -765818.000000 0 0 1
-34.058689 3.715281 7.429280 35.056979 -0.108655 1.357257 0.129755 -0.013453 182602.000000 0 0 1
-33.910839 2.997181 8.667180 35.129021 -0.088155 1.321498 0.114202 -0.015889 434351.000000 0 0 1
-35.077483 1.999981 9.046380 36.280390 -0.056954 1.318791 0.099232 -0.018353 245612.000000 0 0 1
-35.002685 0.822281 8.323980 35.988230 -0.023488 1.337385 0.097896 -0.025026 210955.000000 0 0 1
-35.954623 -0.152919 8.740580 37.002109 0.004253 1.332324 0.092461 -0.020884 33978.100000 0 0 1
-35.606269 -0.910019 10.077380 37.016052 0.025552 1.295072 0.101725 -0.019104 -393868.000000 0 0 1
-34.616355 -1.859519 9.815680 36.029119 0.053666 1.294871 0.085202 -0.023811 -271303.000000 0 0 1
-34.426465 -2.712519 10.949280 36.227420 0.078629 1.263757 0.074550 -0.010919 -126173.000000 0 0 1
-33.128829 -3.552519 10.976380 35.080203 0.106825 1.252558 0.081662 -0.002603 -252880.000000 0 0 1
-32.888959 -4.298919 9.840880 34.597793 0.129973 1.282378 0.075698 -0.013276 -172217.000000 0 0 1
-31.748469 -5.121819 9.938980 33.659793 0.159947 1.271050 0.058223 -0.017210 -55583.500000 0 0 1
-31.607009 -6.185219 8.844880 33.398980 0.193249 1.302774 0.078583 -0.013927 -141106.000000 0 0 1
-32.561029 -7.192119 8.966980 34.530478 0.217391 1.308102 0.072504 -0.016326 -282272.000000 0 0 1
-32.844929 -7.834219 7.702980 34.633802 0.234146 1.346508 0.103296 -0.024747 89655.200000 0 0 1
-33.855959 -8.976519 7.877480 35.900676 0.259175 1.349572 0.105537 -0.026663 1012920.000000 0 0 1
-35.145920 -8.544419 8.339180 37.118523 0.238486 1.344199 0.111963 -0.031859 1047600.000000 0 0 1
-36.191659 -9.518019 8.357080 38.344095 0.257166 1.351083 0.108559 -0.034288 718622.000000 0 0 1
8.028261 -24.065019 10.643780 27.511237 -1.248799 1.173541 0.109846 -0.033205 11935.600000 0 0 1
7.582761 -24.831219 9.552380 27.664701 -1.274418 1.218247 0.111393 -0.035533 -745292.000000 0 0 1
6.281861 -25.302699 9.743680 27.832134 -1.327448 1.213132 0.107553 -0.036658 -204759.000000 0 0 1
5.789261 -26.185789 8.613180 28.167321 -1.353212 1.260032 0.083072 -0.025062 -398993.000000 0 0 1
5.557861 -25.326359 7.488980 26.988870 -1.354771 1.289622 0.088653 -0.024619 -336666.000000 0 0 1
5.224961 -26.090169 6.338180 27.352690 -1.373145 1.336950 0.081919 -0.019642 -622295.000000 0 0 1
4.366461 -25.378939 5.225580 26.276667 -1.400414 1.370594 0.084988 -0.028244 915845.000000 0 0 1
2.954861 -25.488429 5.390480 26.219239 -1.455382 1.363727 0.080978 -0.033305 93923.000000 0 0 1
2.400161 -26.781259 5.231580 27.392810 -1.481414 1.378632 0.072654 -0.028899 -758362.000000 0 0 1
0.864361 -26.747639 5.191480 27.260499 -1.538492 1.379186 0.074893 -0.035444 -188557.000000 0 0 1
0.189461 -26.214939 6.361880 26.976517 -1.563569 1.332723 0.073911 -0.034304 705495.000000 0 0 1
-1.239939 -26.246739 6.486280 27.064748 1.523590 1.328783 0.061485 -0.029714 1141750.000000 0 0 1
-1.828539 -27.654169 6.518180 28.470745 1.504771 1.339805 0.067952 -0.020337 -879282.000000 0 0 1
-1.758339 -28.216119 7.790880 29.324716 1.508560 1.301891 0.069401 -0.027280 19850.100000 0 0 1
-2.184139 -29.560999 7.862980 30.666751 1.497045 1.311500 0.071906 -0.023665 -87919.300000 0 0 1
-1.983239 -30.267069 9.199580 31.696388 1.505365 1.276318 0.074205 -0.027015 1781630.000000 0 0 1
-0.597739 -30.710279 9.450080 32.136934 1.551335 1.272328 0.065646 -0.026312 1749540.000000 0 0 1
-0.442039 -31.206109 10.772280 33.016037 1.556632 1.238437 0.062993 -0.020718 -257486.000000 0 0 1
1.034161 -31.440809 11.104780 33.360307 -1.537916 1.231447 0.041158 -0.020300 -377798.000000 0 0 1
1.533361 -32.689509 10.627680 34.407889 -1.523924 1.256788 0.049902 -0.019298 1169470.000000 0 0 1
2.958561 -32.829099 10.868580 34.707764 -1.480919 1.252293 0.045199 -0.015237 1346140.000000 0 0 1
3.334361 -33.429689 12.246280 35.757985 -1.471383 1.221244 0.050776 -0.016442 -479776.000000 0 0 1
2.932061 -32.643389 13.377280 35.399710 -1.481216 1.183278 0.034835 -0.011611 134212.000000 0 0 1
3.595861 -33.007529 14.596380 36.269567 -1.462284 1.156614 0.045765 -0.013583 -184055.000000 0 0 1
3.081061 -32.224009 15.802880 36.022364 -1.475472 1.116649 0.048571 -0.017380 -66228.400000 0 0 1
3.451761 -30.867279 15.760280 34.829442 -1.459433 1.101231 0.047799 -0.021722 -911419.000000 0 0 1
4.727861 -30.656199 16.239980 35.012743 -1.417780 1.088482 0.040814 -0.014006 -959922.000000 0 0 1
5.352161 -29.426269 15.524480 33.698077 -1.390879 1.092020 0.053713 -0.014415 -470669.000000 0 0 1
5.624661 -29.587889 14.117980 33.262552 -1.382938 1.132452 0.053102 -0.016138 -992541.000000 0 0 1
4.641461 -29.427719 13.149380 32.564398 -1.414361 1.155134 0.043864 -0.009580 -1175310.000000 0 0 1
5.052961 -29.235269 11.676680 31.883824 -1.399649 1.195847 0.043435 -0.010173 87667.600000 0 0 1
5.540361 -30.421509 11.023680 32.828118 -1.390651 1.228342 0.045811 -0.014345 272247.000000 0 0 1
6.872461 -30.832549 11.303480 33.550640 -1.351485 1.227165 0.048785 -0.011832 71397.400000 0 0 1
7.215661 -32.232299 10.787480 34.747037 -1.350563 1.255122 0.035442 -0.003756 -192033.000000 0 0 1
6.750261 -33.227059 11.618280 35.841148 -1.370368 1.240672 0.024775 -0.017003 28445.500000 0 0 1
7.052061 33.589340 11.083880 36.066989 1.363853 1.258427 0.043192 -0.015142 32776.000000 0 0 1
6.714061 32.425655 12.050680 35.238056 1.366621 1.221774 0.048657 -0.019328 -1731.230000 0 0 1
5.337161 32.152548 12.144480 34.781605 1.406301 1.214118 0.049172 -0.022244 -241783.000000 0 0 1
5.086961 30.916931 12.751280 33.827931 1.407721 1.184300 0.062697 -0.015775 862517.000000 0 0 1
3.842961 30.844961 13.728280 33.980077 1.446845 1.154900 0.072812 -0.026935 878326.000000 0 0 1
4.114261 31.459681 14.981480 35.086798 1.440755 1.129642 0.077749 -0.026629 807931.000000 0 0 1
2.907461 31.524831 15.762180 35.365444 1.478829 1.108847 0.085019 -0.027934 709474.000000 0 0 1
3.168161 31.781571 17.245780 36.297692 1.471439 1.075695 0.080433 -0.028086 -128170.000000 0 0 1
3.716961 33.054151 17.432280 37.553656 1.458816 1.088069 0.073478 -0.023689 71233.400000 0 0 1
4.400561 33.014808 18.669080 38.182156 1.438287 1.059913 0.073349 -0.022737 -121931.000000 0 0 1
4.584261 -33.715209 19.356580 39.145983 -1.435655 1.053569 0.060441 -0.027774 321243.000000 0 0 1
3.396061 -33.112599 19.840180 38.750615 -1.468593 1.033289 0.048500 -0.022210 4595.100000 0 0 1
3.726261 -31.983449 20.637880 38.245890 -1.454813 1.000822 0.045626 -0.026969 212094.000000 0 0 1
2.492461 -31.157649 21.096380 37.710326 -1.490971 0.977095 0.050066 -0.022845 487762.000000 0 0 1
1.587861 -31.959359 21.882880 38.765737 -1.521153 0.970981 0.051581 -0.018387 -536237.000000 0 0 1
0.517361 -31.164699 22.247880 38.294573 -1.554197 0.950880 0.045041 -0.018321 -358090.000000 0 0 1
-0.645839 -32.028629 22.868880 39.360334 1.550635 0.950823 0.051509 -0.011904 482843.000000 0 0 1
-1.478739 -32.609569 21.835380 39.272821 1.525481 0.981240 0.049315 -0.012614 733684.000000 0 0 1
-2.298439 -33.737739 22.248980 40.478821 1.502775 0.988857 0.052649 -0.009745 1501200.000000 0 0 1
-3.685139 -33.402929 22.960380 40.700307 1.460917 0.971414 0.063644 -0.006059 573214.000000 0 0 1
-4.632039 -32.920379 22.094580 39.917134 1.431010 0.984222 0.055138 -0.012035 -736362.000000 0 0 1
-5.855239 -32.591479 22.749480 40.174957 1.393037 0.968835 0.057771 -0.009024 848542.000000 0 0 1
-6.990739 -32.348459 21.689680 39.569375 1.357962 0.990654 0.053260 -0.012411 313473.000000 0 0 1
-7.684939 -33.486149 21.232680 40.388206 1.345207 1.017241 0.033416 0.000218 106709.000000 0 0 1
-8.821639 -33.074319 20.489980 39.894501 1.310143 1.031416 0.038130 -0.017995 961257.000000 0 0 1
-9.990839 33.973924 20.403580 40.869921 -1.284785 1.048084 0.054847 -0.017606 667868.000000 0 0 1
-10.598739 33.755439 21.620680 41.463439 -1.266558 1.022259 0.068554 -0.020265 27535.600000 0 0 1
-11.995039 33.464845 21.585280 41.589676 -1.226625 1.025109 0.058553 -0.021562 533769.000000 0 0 1
-12.521739 33.325133 23.034280 42.402081 -1.211373 0.996511 0.058614 -0.018034 -143357.000000 0 0 1
-12.536339 -33.686919 23.953280 43.194073 1.214533 0.982974 0.063965 -0.021097 -650681.000000 0 0 1
-11.269239 -33.316689 24.384080 42.796973 1.244631 0.964580 0.059103 -0.018955 -620052.000000 0 0 1
-11.306939 -32.013859 25.196180 42.279801 1.231283 0.932362 0.051273 -0.020833 -63973.900000 0 0 1
-11.870039 -32.021049 26.541380 43.251477 1.215805 0.910118 0.066285 -0.010674 144702.000000 0 0 1
-12.772939 -30.944539 26.641180 42.783933 1.179331 0.898619 0.059222 -0.012161 -106039.000000 0 0 1
-13.421439 -30.942929 28.042280 43.863075 1.161539 0.877190 0.052607 -0.013044 10221.000000 0 0 1
-12.630439 -30.391829 29.069480 43.911569 1.176926 0.847312 0.045946 -0.006510 454421.000000 0 0 1
-13.533939 -30.167009 30.154580 44.749465 1.149079 0.831385 0.057739 -0.008011 86341.000000 0 0 1
-12.996339 -29.453779 31.398080 44.969649 1.155247 0.797908 0.056581 -0.012153 -1143140.000000 0 0 1
-13.860339 -29.108539 32.437280 45.733939 1.126401 0.782348 0.061085 -0.012855 -307799.000000 0 0 1
-13.343339 -28.688859 33.734280 46.250373 1.135452 0.753375 0.056816 -0.009879 -386238.000000 0 0 1
-12.635539 -29.762559 -33.414717 46.497420 1.169311 2.372635 0.066953 -0.006641 -480825.000000 0 0 1
-11.384739 -30.039959 -33.967117 46.752289 1.208535 2.384060 0.050295 -0.013046 -759086.000000 0 0 1
-10.992239 -31.293379 -33.466717 47.118214 1.232996 2.360680 0.053791 -0.009591 -932889.000000 0 0 1
-9.523439 -31.638559 -33.614117 47.133886 1.278416 2.364796 0.052375 -0.020441 -747900.000000 0 0 1
-8.756139 -30.920579 -32.661417 45.820523 1.294840 2.364296 0.066695 -0.023855 378030.000000 0 0 1
-7.408639 -31.393269 -32.627517 45.880063 1.339042 2.361926 0.091840 -0.032592 530285.000000 0 0 1
-6.384439 -30.505419 -31.898317 44.596461 1.364486 2.367801 0.100850 -0.035135 -254622.000000 0 0 1
-6.686239 -30.472839 -30.488917 43.621942 1.354803 2.344704 0.120098 -0.040681 -311583.000000 0 0 1
-5.819739 -29.730549 -29.688817 42.416987 1.377491 2.346092 0.108424 -0.037899 -285610.000000 0 0 1
-6.315239 -29.694479 -28.237717 41.460982 1.361245 2.320016 0.104915 -0.030814 -50430.600000 0 0 1
-6.203639 -30.892959 -27.495617 41.819481 1.372621 2.288270 0.103571 -0.028514 -154746.000000 0 0 1
-6.912639 -30.965189 -26.302817 41.212446 1.351159 2.262987 0.109343 -0.018194 -212960.000000 0 0 1
-6.698539 -32.293639 -25.543717 41.716077 1.366271 2.229792 0.105995 -0.030080 -82324.300000 0 0 1
-5.680339 -32.174189 -24.602417 40.898944 1.396048 2.216226 0.074428 -0.025864 -313655.000000 0 0 1
-5.564339 -33.455779 -23.982217 41.537908 1.405986 2.186285 0.076019 -0.035053 -211463.000000 0 0 1
-4.649039 -33.623829 -22.761917 40.869063 1.433401 2.161502 0.094099 -0.047812 -312687.000000 0 0 1
-5.099939 -33.103719 -21.502717 39.802418 1.417939 2.141514 0.097569 -0.034526 21350.000000 0 0 1
-4.932239 -31.705369 -21.369117 38.551220 1.416469 2.158324 0.066638 -0.018941 -457523.000000 0 0 1
-5.514339 -30.988079 -20.146617 37.370512 1.394689 2.140170 0.094740 -0.026153 7474.060000 0 0 1
-6.928039 -30.914479 -20.082517 37.510135 1.350335 2.135765 0.108660 -0.042662 578964.000000 0 0 1
-7.579339 -29.624749 -20.129717 36.609803 1.320324 2.152975 0.112581 -0.031415 184477.000000 0 0 1
-7.665939 -28.932729 -21.504817 36.855483 1.311790 2.193816 0.124103 -0.036414 -110913.000000 0 0 1
-6.409339 -28.540439 -22.038517 36.624207 1.349891 2.216483 0.113468 -0.008281 167819.000000 0 0 1
-6.560639 -27.989189 -23.328217 37.022188 1.340554 2.252497 0.149633 -0.020328 -198858.000000 0 0 1
-5.201239 -28.028659 -24.068417 37.308810 1.387315 2.271968 0.145412 -0.016455 154226.000000 0 0 1
-4.285039 -27.009989 -23.741317 36.215345 1.413461 2.285720 0.120632 -0.013911 271790.000000 0 0 1
-3.456839 -27.331089 -22.604417 35.635626 1.444984 2.257926 0.070799 -0.014026 -95444.900000 0 0 1
-1.983239 -26.860669 -22.724217 35.239450 1.497096 2.271625 0.078286 -0.015719 -30939.000000 0 0 1
-1.659739 -25.467359 -22.804517 34.225533 1.505717 2.300034 0.078184 -0.010090 123762.000000 0 0 1
-2.022539 -24.576719 -21.731817 32.869099 1.488686 2.293164 0.082840 -0.010538 -549892.000000 0 0 1
-1.995339 -23.068619 -22.167517 32.055286 1.484515 2.334415 0.085060 -0.017315 939900.000000 0 0 1
-2.978839 -22.621919 -23.174317 32.521896 1.439870 2.363959 0.096557 -0.020951 2061920.000000 0 0 1
-4.389739 -22.727019 -22.886517 32.551189 1.379995 2.350534 0.098952 -0.018529 612901.000000 0 0 1
-5.240339 -22.811419 -24.150417 33.631305 1.344990 2.371855 0.076643 -0.016468 -277420.000000 0 0 1
-5.176839 -21.676919 -24.941317 33.447837 1.336369 2.412348 0.093336 -0.017125 349156.000000 0 0 1
-5.801139 -21.933019 -26.208117 34.663756 1.312224 2.428079 0.100708 -0.024271 126400.000000 0 0 1
-5.862439 -20.711019 -27.121517 34.625008 1.294953 2.470741 0.113293 -0.032085 -50814.700000 0 0 1
-6.134639 -21.078019 -28.525117 35.994430 1.287576 2.485672 0.112113 -0.032120 -345085.000000 0 0 1
-5.066139 -21.617819 -29.241717 36.716126 1.340600 2.492160 0.097715 -0.028220 -667015.000000 0 0 1
-5.426339 -22.280819 -30.548317 38.197902 1.331904 2.497655 0.101308 -0.034913 -391250.000000 0 0 1
-5.798939 -21.307519 -31.457817 38.434780 1.305077 2.529544 0.110539 -0.037882 -695082.000000 0 0 1
-6.703739 -21.840719 -32.338117 39.594330 1.272987 2.526528 0.105136 -0.036975 -523221.000000 0 0 1
-6.989039 -20.901719 -33.558817 40.148758 1.248107 2.560497 0.091942 -0.018108 -706289.000000 0 0 1
-5.921839 -21.032419 33.639980 40.113328 1.296344 0.576045 0.077972 -0.019168 -1085660.000000 0 0 1
-6.074339 -20.373719 32.425880 38.774008 1.281041 0.580335 0.075372 -0.011919 578135.000000 0 0 1
-4.821739 -20.483819 31.491480 37.875445 1.339612 0.589087 0.072371 -0.008661 -286244.000000 0 0 1
-4.602139 -21.793519 31.008080 38.179028 1.362684 0.622925 0.072188 -0.009732 235239.000000 0 0 1
-3.319439 -22.096119 30.504380 37.812357 1.421684 0.632198 0.067829 -0.010026 626049.000000 0 0 1
-2.000239 -21.834719 31.276380 38.196438 1.479443 0.611427 0.044006 -0.016631 -305415.000000 0 0 1
-1.449739 -20.574919 31.046680 37.273655 1.500451 0.586399 0.042564 -0.011403 227112.000000 0 0 1
-0.356339 -20.056919 31.803980 37.601863 1.553032 0.562717 0.054988 -0.015994 375802.000000 0 0 1
-0.710439 -19.602619 33.299480 38.647416 1.534570 0.532339 0.041566 -0.015983 46379.900000 0 0 1
-1.658239 -18.550719 33.291280 38.146930 1.481644 0.510067 0.041874 -0.016766 125362.000000 0 0 1
-2.052639 -18.233919 -33.378117 38.089209 1.458696 2.638954 0.052567 -0.021221 716142.000000 0 0 1
-3.154239 -17.125619 -33.180817 37.472693 1.388655 2.658293 0.062265 -0.021277 463737.000000 0 0 1
-2.724639 -15.807319 -33.330917 36.989796 1.400108 2.693059 0.066112 -0.024578 232270.000000 0 0 1
-3.793239 -14.871419 -33.137417 36.518984 1.321052 2.707858 0.080906 -0.027269 273068.000000 0 0 1
-3.372739 -13.455319 -33.497017 36.255636 1.325195 2.748978 0.087100 -0.039182 -6052.080000 0 0 1
-2.298239 -12.963619 -32.714017 35.263923 1.395336 2.758976 0.081529 -0.033137 4076.840000 0 0 1
-1.959639 -11.621619 -32.870117 34.919147 1.403748 2.797319 0.090065 -0.037264 -203750.000000 0 0 1
-1.262539 -11.125119 33.844480 35.648438 1.457794 0.319489 0.084779 -0.039624 -425626.000000 0 0 1
-2.026839 -11.127019 32.616580 34.521876 1.390617 0.333785 0.088066 -0.035329 -194697.000000 0 0 1
-1.375339 -10.666119 31.479980 33.266301 1.442559 0.329197 0.086092 -0.030137 61494.200000 0 0 1
-0.387839 -11.711119 30.859180 33.008934 1.537691 0.362894 0.062821 -0.035475 340359.000000 0 0 1
-1.082839 -12.761319 30.190480 32.794647 1.486146 0.401203 0.072520 -0.032130 -242040.000000 0 0 1
-0.188539 -13.716119 29.789580 32.796136 1.557051 0.431532 0.054577 -0.033512 -665950.000000 0 0 1
-0.493939 -15.121019 30.320180 33.885137 1.538142 0.462829 0.057890 -0.023861 -182843.000000 0 0 1
-1.598739 -15.649419 29.642580 33.558052 1.468990 0.487893 0.056036 -0.026579 63605.500000 0 0 1
-2.061039 -16.830519 30.327680 34.745970 1.448945 0.509804 0.056978 -0.021903 -46935.300000 0 0 1
-2.360239 -17.976519 29.337080 34.487537 1.440247 0.553562 0.063382 -0.012165 487462.000000 0 0 1
-3.499339 -17.700219 28.486780 33.720020 1.375613 0.564599 0.080419 -0.017338 659780.000000 0 0 1
-3.828539 -18.924919 27.891780 33.922878 1.371189 0.605511 0.084929 -0.019941 -23701.200000 0 0 1
-4.948039 -18.831619 26.843180 33.161262 1.313853 0.627541 0.065135 -0.033072 -396645.000000 0 0 1
-5.364839 -20.053519 26.204180 33.430288 1.309392 0.669962 0.088163 -0.032560 -521508.000000 0 0 1
-4.434439 -20.809219 25.491680 33.204120 1.360837 0.695511 0.087676 -0.025024 -549319.000000 0 0 1
-30.218259 -33.374070 -0.701520 45.027368 0.834983 1.586377 0.043906 -0.008603 -328182.000000 0 0 1
-29.538799 -32.227170 -0.312520 43.717603 0.828896 1.577945 0.060628 -0.021499 -56615.900000 0 0 1
-29.876079 -31.944070 1.044580 43.750370 0.818837 1.546918 0.035361 -0.009014 -137250.000000 0 0 1
-29.170159 -30.642970 1.466180 42.332487 0.810017 1.536155 0.053623 -0.012014 146973.000000 0 0 1
-27.786679 -30.858370 1.639880 41.557523 0.837728 1.531326 0.057523 -0.014533 -476118.000000 0 0 1
-27.159649 -29.615170 1.893280 40.227967 0.828621 1.523715 0.072557 -0.010395 314479.000000 0 0 1
-25.634019 -29.725670 2.123480 39.309382 0.859174 1.516750 0.078721 -0.015238 184766.000000 0 0 1
-25.342659 -30.415770 3.353880 39.731825 0.876132 1.486283 0.067079 -0.010134 -514536.000000 0 0 1
-23.983039 -30.289570 3.647680 38.806569 0.901080 1.476661 0.072601 -0.009393 -313518.000000 0 0 1
-23.423639 -31.127270 4.812680 39.252206 0.925690 1.447878 0.072264 -0.017311 108780.000000 0 0 1
-23.975839 -30.574970 5.988180 39.313203 0.905785 1.417881 0.061673 -0.010737 371084.000000 0 0 1
-23.262039 -31.110070 7.106380 39.489993 0.928747 1.389857 0.061614 -0.014950 124285.000000 0 0 1
-23.666839 -30.471970 8.420880 39.491410 0.910440 1.355913 0.061244 -0.005544 -113747.000000 0 0 1
-23.217039 -29.155170 8.656180 38.262047 0.898299 1.342587 0.088186 -0.016099 44158.300000 0 0 1
-23.720039 -28.682670 9.882380 38.509703 0.879818 1.311272 0.064868 -0.017661 -232509.000000 0 0 1
-23.124539 -27.346870 10.320980 37.270876 0.868862 1.290211 0.096653 -0.021486 80764.300000 0 0 1
-21.805439 -27.569670 10.773480 36.764545 0.901616 1.273392 0.093625 -0.020528 -288851.000000 0 0 1
-21.296239 -26.494370 11.503280 35.886026 0.893741 1.244486 0.105528 -0.022608 -267113.000000 0 0 1
-19.892239 -26.603370 12.089880 35.349762 0.928747 1.221744 0.095677 -0.020022 -531004.000000 0 0 1
-19.700739 -27.658570 12.997480 36.360007 0.951874 1.205243 0.092755 -0.008187 -1134400.000000 0 0 1
-18.507039 -27.543770 13.667080 35.888143 0.979170 1.180109 0.097329 -0.018679 -783059.000000 0 0 1
-18.221839 -28.666970 14.645280 36.990739 1.004583 1.163730 0.109234 -0.025681 30109.900000 0 0 1
-18.137139 -29.981470 14.085180 37.765548 1.026749 1.188595 0.116833 -0.024711 -47687.600000 0 0 1
-17.854339 -30.886370 15.130880 38.751629 1.046661 1.169667 0.120806 -0.026183 50626.700000 0 0 1
-17.828439 -32.384870 14.756580 39.804393 1.067556 1.191004 0.102220 -0.032655 174425.000000 0 0 1
-17.584139 -33.295670 15.856880 40.856385 1.084906 1.172214 0.110479 -0.026292 114110.000000 0 0 1
-17.459239 33.498681 15.335380 40.769603 -1.090339 1.185162 0.083417 -0.023020 -238588.000000 0 0 1
-17.377739 32.432581 16.387980 40.279325 -1.078912 1.151784 0.085987 -0.020377 222957.000000 0 0 1
-18.528939 32.234981 17.205080 40.968651 -1.049106 1.137398 0.085534 -0.027754 316776.000000 0 0 1
-18.390239 31.075181 17.996780 40.345407 -1.036429 1.108430 0.051241 -0.020674 50068.700000 0 0 1
-19.267839 31.003781 19.235380 41.261167 -1.014741 1.085822 0.066376 -0.030749 141369.000000 0 0 1
-18.636939 31.956281 20.084880 42.094439 -1.042821 1.073400 0.067886 -0.025599 271966.000000 0 0 1
-19.457539 32.426981 21.141480 43.325132 -1.030346 1.061031 0.066825 -0.029416 -94875.900000 0 0 1
-18.846839 33.586581 21.961780 44.334879 -1.059439 1.052546 0.048959 -0.001507 432189.000000 0 0 1
-17.610239 33.202381 22.576180 43.842930 -1.083133 1.029867 0.047980 -0.017431 319867.000000 0 0 1
-17.328139 33.699381 23.910680 44.806621 -1.095855 1.007896 0.045157 -0.017829 213460.000000 0 0 1
-18.130239 32.863081 24.959880 45.074197 -1.066656 0.983934 0.029429 -0.027311 615261.000000 0 0 1
-19.548839 33.032981 24.932780 45.770934 -1.036430 0.994730 0.008826 -0.024605 119881.000000 0 0 1
-20.107239 31.922181 25.506980 45.540451 -1.008693 0.976296 0.016702 -0.021243 -895425.000000 0 0 1
-21.623739 31.997981 25.412280 46.230302 -0.976508 0.988805 0.083215 -0.032764 -713322.000000 0 0 1
-22.145639 31.440181 24.228980 45.452808 -0.957141 1.008586 0.070058 -0.019364 822863.000000 0 0 1
-23.521939 31.750281 23.971880 46.217020 -0.933182 1.025489 0.058990 -0.026081 426100.000000 0 0 1
-23.915339 31.364881 22.562680 45.439781 -0.919351 1.051188 0.050088 -0.024313 -86972.400000 0 0 1
-23.486539 32.343181 21.601780 45.434962 -0.942724 1.075328 0.047464 -0.024965 321769.000000 0 0 1
-23.834139 31.903181 20.285280 44.691965 -0.929168 1.099669 0.041776 -0.013560 18445.300000 0 0 1
-23.359539 32.987281 19.268080 44.778205 -0.954630 1.125971 0.052401 -0.011518 -636560.000000 0 0 1
-22.005739 33.284681 19.329380 44.336750 -0.986632 1.119683 0.055822 -0.014571 -845350.000000 0 0 1
-21.658439 -33.963670 18.288080 44.238815 1.003121 1.144618 0.076980 -0.016636 849896.000000 0 0 1
-20.322239 -33.188670 18.578480 43.123556 1.021364 1.125395 0.079965 -0.021348 836324.000000 0 0 1
-20.574239 -32.235370 19.588880 42.966761 1.002725 1.097404 0.074166 -0.030213 696894.000000 0 0 1
-19.355639 -31.572270 19.914580 42.048061 1.020830 1.077406 0.077494 -0.037135 248148.000000 0 0 1
-19.488439 -30.447370 20.965880 41.790067 1.001434 1.045239 0.066655 -0.027809 -187159.000000 0 0 1
-20.150939 -29.327970 20.425780 41.029290 0.968788 1.049697 0.104052 -0.034577 -72018.800000 0 0 1
-20.711539 -28.686370 21.489280 41.396435 0.945458 1.024988 0.106616 -0.028507 -659255.000000 0 0 1
-21.415539 -27.372370 21.108880 40.662719 0.906893 1.024974 0.109476 -0.031653 -710701.000000 0 0 1
-20.576239 -26.397670 20.582080 39.291737 0.908699 1.019459 0.102771 -0.019765 -75571.300000 0 0 1
-21.213639 -25.143570 20.361380 38.688543 0.869971 1.016565 0.102281 -0.009304 -132800.000000 0 0 1
-22.278239 -25.087070 19.244980 38.678809 0.844630 1.050014 0.102615 -0.017456 393688.000000 0 0 1
-23.568839 -25.591370 19.596080 39.930123 0.826517 1.057835 0.092614 -0.021042 303483.000000 0 0 1
-24.468239 -25.517470 18.518580 39.909570 0.806386 1.088276 0.076898 -0.015036 -802418.000000 0 0 1
-25.922009 -25.588270 18.996080 41.079936 0.778919 1.090077 0.057248 -0.016492 -273407.000000 0 0 1
-26.477359 -26.816070 19.398080 42.384403 0.791754 1.095423 0.047711 -0.017208 -181155.000000 0 0 1
-26.654569 -27.716870 18.334980 42.601202 0.804934 1.125875 0.048331 -0.022174 89539.600000 0 0 1
-27.835599 -28.750070 18.527580 44.098280 0.801558 1.137194 0.071902 -0.028353 1093160.000000 0 0 1
-29.113919 -28.137670 18.616380 44.563644 0.768348 1.139831 0.066802 -0.029492 -160094.000000 0 0 1
-30.158589 -28.950670 18.153580 45.576685 0.764966 1.161124 0.071113 -0.017794 405842.000000 0 0 1
-31.573779 -28.423270 18.510880 46.340462 0.732935 1.159875 0.070937 -0.014298 519069.000000 0 0 1
-32.025319 -27.247370 17.783580 45.654090 0.704962 1.170676 0.081567 -0.000926 -80258.900000 0 0 1
-33.336479 -26.836170 18.075580 46.456726 0.677788 1.171159 0.063614 0.011780 -126203.000000 0 0 1
-33.734719 -25.647970 17.197680 45.734121 0.650050 1.185282 0.065512 0.000382 -166135.000000 0 0 1
-33.760029 -25.895770 15.811380 45.390860 0.654327 1.214998 0.078807 -0.018457 3235.330000 0 0 1
-34.217675 -24.802170 14.962080 44.831470 0.627200 1.230527 0.071539 -0.021746 24682.700000 0 0 1
-33.307959 -23.563170 14.751780 43.384999 0.615698 1.223858 0.063471 -0.015506 -5847.380000 0 0 1
-32.854219 -22.913270 15.904280 43.097143 0.608994 1.192828 0.057718 -0.007893 38067.100000 0 0 1
-32.343079 -21.604170 15.739080 41.958712 0.588904 1.186282 0.048763 -0.006175 -213562.000000 0 0 1
-33.388729 -20.558970 16.085780 42.381963 0.551917 1.181494 0.052265 -0.013195 -167205.000000 0 0 1
-33.891459 -20.620170 17.379680 43.311380 0.546586 1.157890 0.060170 -0.007617 690088.000000 0 0 1
-35.001860 -19.738370 17.628280 43.880402 0.513470 1.157386 0.076379 -0.014935 534034.000000 0 0 1
-35.326225 -19.484670 19.107080 44.639389 0.504043 1.128482 0.054626 -0.012943 -562652.000000 0 0 1
-36.389909 -20.187370 19.672980 46.030224 0.506484 1.129190 0.059150 -0.008662 -144916.000000 0 0 1
-36.739569 -19.634270 20.920080 46.614914 0.490801 1.105391 0.070995 0.000344 474272.000000 0 0 1
35.569329 -19.972770 21.424480 46.077077 -0.511642 1.087195 0.068045 -0.002593 496198.000000 0 0 1
35.290679 -21.292170 21.695480 46.577702 -0.542870 1.086268 0.065849 -0.012934 -248757.000000 0 0 1
35.903059 -21.801470 22.853780 47.818709 -0.545720 1.072505 0.051809 -0.002543 -351460.000000 0 0 1
35.329069 -23.140670 23.348280 48.257392 -0.579885 1.065773 0.067393 -0.001039 -201356.000000 0 0 1
34.213079 -22.972370 24.189680 47.784989 -0.591307 1.040001 0.075270 -0.016403 41247.900000 0 0 1
33.834989 -24.144970 24.862480 48.434790 -0.619802 1.031749 0.077500 -0.025697 -552811.000000 0 0 1
32.721779 -24.040870 25.906680 48.164658 -0.633641 1.002879 0.086565 -0.025187 -355363.000000 0 0 1
31.445099 -23.994270 25.324680 46.966569 -0.651803 1.001302 0.070005 -0.014716 -1001930.000000 0 0 1
30.525729 -24.256770 26.305580 47.033972 -0.671460 0.977269 0.045792 -0.010356 -441329.000000 0 0 1
29.144479 -24.719970 25.769380 46.092716 -0.703441 0.977524 0.042957 -0.013196 19698.500000 0 0 1
28.305339 -23.681470 25.347880 44.771857 -0.696688 0.968961 0.048678 -0.011372 -500889.000000 0 0 1
27.045239 -24.218370 25.021780 44.091539 -0.730310 0.967335 0.048811 -0.010905 -268254.000000 0 0 1
26.022239 -23.162270 24.601780 42.648508 -0.727316 0.955930 0.031572 -0.000048 -664642.000000 0 0 1
26.087139 -22.559270 23.310380 41.627314 -0.713004 0.976437 0.045192 -0.003035 688432.000000 0 0 1
27.383239 -22.009370 22.986680 41.983825 -0.677025 0.991407 0.043370 0.004129 873189.000000 0 0 1
27.502039 -21.325270 21.590980 40.954849 -0.659564 1.015506 0.050038 -0.005576 134278.000000 0 0 1
26.744339 -20.126270 21.551480 39.809454 -0.645127 0.998736 0.051031 -0.010927 34617.200000 0 0 1
26.485639 -19.543470 20.263280 38.652772 -0.635705 1.018975 0.045048 -0.015183 439714.000000 0 0 1
25.454639 -18.343870 20.180680 37.305442 -0.624451 0.999221 0.053920 -0.011803 165684.000000 0 0 1
25.846139 -17.149170 20.833280 37.364990 -0.585814 0.979351 0.066697 -0.025318 55206.900000 0 0 1
25.888339 -17.253570 22.239980 38.242757 -0.587860 0.950167 0.063277 -0.011567 -84888.800000 0 0 1
26.171439 -15.877470 22.904780 38.231756 -0.545311 0.928415 0.081085 -0.008127 -797512.000000 0 0 1
25.025239 -15.100170 22.899180 37.130178 -0.542914 0.906218 0.062899 -0.009092 -405759.000000 0 0 1
25.145939 -13.923770 23.712680 37.262324 -0.505694 0.881011 0.073343 -0.010898 964768.000000 0 0 1
23.705739 -13.317170 23.682980 36.058183 -0.511835 0.854230 0.058001 -0.013798 1585920.000000 0 0 1
22.595839 -14.020270 24.267180 36.000499 -0.555342 0.831079 0.070799 -0.011767 1540190.000000 0 0 1
21.360239 -13.275670 24.199280 34.901409 -0.556088 0.804653 0.073766 -0.015390 153870.000000 0 0 1
20.106539 -13.994470 24.576380 34.700382 -0.608047 0.783787 0.081363 -0.011084 -846915.000000 0 0 1
19.666039 -14.910470 23.580280 34.133631 -0.648718 0.808170 0.077473 -0.014673 876947.000000 0 0 1
18.434039 -15.524570 24.025680 34.030271 -0.699930 0.786949 0.083446 -0.010394 1060420.000000 0 0 1
17.768139 -16.545170 23.052780 33.479547 -0.749772 0.811291 0.081536 -0.014054 216103.000000 0 0 1
18.475139 -17.737870 23.177280 34.541990 -0.765042 0.835255 0.068106 -0.001995 139767.000000 0 0 1
17.982339 -18.656870 22.210180 34.128220 -0.803806 0.862177 0.073377 -0.008859 72923.200000 0 0 1
18.508039 -20.042670 22.509680 35.368655 -0.825185 0.880935 0.058329 -0.006292 -56922.200000 0 0 1
17.923139 -20.589370 23.700980 36.151037 -0.854518 0.855806 0.061344 -0.008753 376922.000000 0 0 1
18.412639 -21.893270 24.083180 37.394386 -0.871540 0.871039 0.065747 -0.010006 -154738.000000 0 0 1
18.200239 -23.106170 23.207880 37.466645 -0.903614 0.902783 0.065260 -0.007037 142844.000000 0 0 1
18.872539 -23.063370 21.937780 37.004836 -0.885002 0.936221 0.063846 -0.004049 529497.000000 0 0 1
19.854239 -24.111670 21.853280 38.119932 -0.881932 0.960297 0.057250 -0.003595 468108.000000 0 0 1
20.594439 -24.249570 20.479180 37.836085 -0.866726 0.998861 0.052420 -0.010207 428402.000000 0 0 1
19.895239 -24.994670 19.443480 37.397900 -0.898512 1.024053 0.054145 -0.022035 -12509.100000 0 0 1
20.753039 -25.296670 18.397680 37.537777 -0.883748 1.058579 0.054196 0.002874 -431614.000000 0 0 1
20.181339 -26.110070 17.293180 37.256895 -0.912779 1.088110 0.053680 -0.005891 -256803.000000 0 0 1
19.846039 -27.394170 17.762480 38.207479 -0.943841 1.087280 0.070008 -0.019894 -190118.000000 0 0 1
18.968239 -28.102970 16.917180 37.891450 -0.977078 1.107986 0.076305 -0.022735 -402077.000000 0 0 1
18.056339 -29.046070 17.671480 38.496581 -1.014613 1.093882 0.067348 -0.011502 161036.000000 0 0 1
17.028239 -28.405770 18.439780 37.906123 -1.030771 1.062764 0.092632 -0.014890 86488.800000 0 0 1
16.323939 -29.417270 19.137580 38.705215 -1.064191 1.053601 0.112107 -0.018091 -375834.000000 0 0 1
15.052839 -28.968470 19.846880 38.205482 -1.091570 1.024557 0.100481 -0.012658 -271153.000000 0 0 1
14.117239 -28.463070 18.920080 36.978537 -1.110366 1.033692 0.089001 -0.018396 -396280.000000 0 0 1
12.902939 -28.096570 19.529180 36.569002 -1.140289 1.007429 0.064748 -0.016065 -488244.000000 0 0 1
11.821439 -27.679970 18.567180 35.364775 -1.167169 1.018059 0.069714 -0.024187 -498633.000000 0 0 1
11.231739 -28.782270 17.893280 35.703508 -1.198740 1.045854 0.079051 -0.029517 14264.600000 0 0 1
10.691239 -28.349370 16.642080 34.568022 -1.210164 1.068511 0.077968 -0.030019 73455.800000 0 0 1
10.468739 -29.538270 15.642780 35.025711 -1.230196 1.107825 0.077839 -0.028046 -45809.500000 0 0 1
9.232039 -30.193270 15.787180 35.300129 -1.274059 1.107133 0.063204 -0.022752 -117863.000000 0 0 1
9.122739 -30.949870 14.615080 35.422018 -1.284155 1.145491 0.059737 -0.016602 -173881.000000 0 0 1
7.940039 -31.900970 14.589680 35.966302 -1.326857 1.153108 0.054184 -0.018560 -534750.000000 0 0 1
8.191639 -32.999570 15.423180 37.335627 -1.327480 1.144946 0.062534 -0.021912 -100669.000000 0 0 1
7.240639 -34.039570 15.275280 38.005964 -1.361208 1.157186 0.041371 -0.014217 -55075.100000 0 0 1
7.299939 32.921381 16.260880 37.436915 1.352588 1.121475 0.073545 -0.022597 -107954.000000 0 0 1
8.413939 32.075181 16.136480 36.878145 1.314257 1.117911 0.067255 -0.028670 -309284.000000 0 0 1
8.401639 31.197781 17.257980 36.629591 1.307735 1.080204 0.090079 -0.030653 267370.000000 0 0 1
9.757439 30.436881 17.369680 36.377426 1.260568 1.073006 0.070579 -0.035966 267971.000000 0 0 1
10.070439 29.716281 16.172080 35.298828 1.244057 1.094886 0.083919 -0.032636 -644.947000 0 0 1
11.167139 28.846881 16.444480 35.032391 1.201444 1.082176 0.083646 -0.036639 196203.000000 0 0 1
11.758839 28.029481 15.207280 33.987989 1.173579 1.106906 0.076949 -0.032848 214790.000000 0 0 1
11.012939 26.996081 14.545280 32.582792 1.183459 1.108047 0.091751 -0.038095 -292459.000000 0 0 1
11.710739 26.575081 13.437980 31.999306 1.155731 1.137411 0.083359 -0.033387 -221146.000000 0 0 1
-9.169739 -9.088019 19.254477 23.182128 0.780922 0.590658 0.052348 -0.017441 -1394.300000 0 1 0
-9.540339 -9.176719 17.906177 22.267946 0.765973 0.636597 0.056547 -0.023712 -3803.790000 0 1 0
-9.595539 -10.525819 17.607277 22.646930 0.831599 0.680166 0.071134 -0.030719 151527.000000 0 1 0
-9.994739 -10.695719 16.111577 21.768696 0.819265 0.737539 0.078770 -0.029581 1013180.000000 0 1 0
-11.386939 -10.369119 15.880377 22.121650 0.738649 0.770064 0.077234 -0.034553 1052130.000000 0 1 0
-11.756039 -10.636819 14.530977 21.505712 0.735459 0.828910 0.090547 -0.042981 64119.200000 0 1 0
-12.068939 -12.087919 14.171977 22.195090 0.786184 0.878225 0.083904 -0.044841 -673678.000000 0 1 0
-10.970739 -12.791119 13.635977 21.677401 0.861858 0.890477 0.112551 -0.043864 -144639.000000 0 1 0
-10.822239 -14.187119 13.933077 22.639034 0.919140 0.907846 0.124542 -0.038023 2718.620000 0 1 0
-10.482739 -14.539419 15.370977 23.612485 0.946123 0.861937 0.133044 -0.042560 210203.000000 0 1 0
-11.580139 -14.468119 16.271677 24.661581 0.895818 0.850246 0.102155 -0.028177 188763.000000 0 1 0
-11.106639 -14.755519 17.618877 25.524647 0.925563 0.808935 0.135452 -0.032561 -90565.400000 0 0 1
-12.108139 -14.444619 18.771977 26.601526 0.873166 0.787424 0.080138 -0.023984 -177808.000000 0 0 1
-12.605339 -13.120519 18.656277 26.059533 0.805421 0.772870 0.082526 -0.017950 12309.600000 0 0 1
-13.787039 -12.989719 17.902077 26.063377 0.755630 0.813627 0.097063 -0.024368 149868.000000 0 0 1
-15.123139 -13.241419 18.688577 27.446446 0.719155 0.821791 0.045239 -0.012853 63917.300000 0 0 1
-15.511239 -14.602819 18.854777 28.448963 0.755241 0.846301 0.047047 -0.011745 -49097.200000 0 0 1
-16.463039 -14.705619 19.889177 29.713065 0.729074 0.837429 0.046852 -0.010755 -185547.000000 0 0 1
-16.860839 -16.142119 20.119077 30.816118 0.763624 0.859422 0.035414 -0.012039 -75634.500000 0 0 1
-17.839139 -16.697519 19.258877 31.111836 0.752355 0.903301 0.050335 -0.008686 -112801.000000 0 0 1
-18.133439 -18.016719 19.565177 32.190370 0.782169 0.917514 0.040206 -0.010826 -323661.000000 0 0 1
-19.434339 -18.554819 18.957977 32.884339 0.762250 0.956352 0.059750 -0.008350 -312933.000000 0 0 1
-19.562339 -18.664819 17.522377 32.219470 0.761924 0.995785 0.073196 -0.013495 71615.500000 0 0 1
-20.045039 -17.457219 16.888577 31.492572 0.716503 1.004783 0.072087 -0.022503 -591253.000000 0 0 1
-19.709239 -17.476119 15.359577 30.492383 0.725416 1.042898 0.082426 -0.024556 -557118.000000 0 0 1
-20.335539 -18.516819 14.679877 31.175399 0.738621 1.080508 0.086017 -0.018626 -67060.000000 0 0 1
-20.131839 -18.318619 13.297477 30.293327 0.738276 1.116358 0.099687 -0.025095 291918.000000 0 0 1
-20.422439 -19.602919 12.499377 30.944868 0.764926 1.154994 0.088645 -0.013816 765104.000000 0 0 1
-19.325639 -20.437319 12.910377 30.949025 0.813349 1.140489 0.089617 -0.012168 568342.000000 0 0 1
-19.239639 -21.615019 12.142577 31.381761 0.843475 1.173495 0.090197 -0.016439 -236469.000000 0 0 1
-18.156639 -22.653219 12.519577 31.616004 0.895139 1.163652 0.097534 -0.018675 -38558.600000 0 0 1
-18.149539 -23.874819 11.814177 32.233330 0.920802 1.195530 0.103177 -0.023027 -726709.000000 0 0 1
-17.139639 -23.875919 10.891277 31.344005 0.948182 1.215919 0.097397 -0.023761 -934854.000000 0 0 1
-17.103239 -25.105629 9.921777 31.957082 0.972765 1.255107 0.096358 -0.027628 158082.000000 0 0 1
-18.279139 -25.186279 9.126977 32.431116 0.942992 1.285516 0.102423 -0.024950 -67965.800000 0 0 1
-18.194139 -26.213649 8.150077 32.933355 0.964061 1.320726 0.122265 -0.031192 -86052.100000 0 0 1
-19.412939 -26.330849 7.231877 33.503371 0.935492 1.353229 0.105704 -0.036766 -88360.200000 0 0 1
-19.586339 -25.152659 6.523477 32.539771 0.909180 1.368952 0.117666 -0.038724 -240120.000000 0 0 1
-20.518139 -25.335759 5.485377 33.060310 0.890079 1.404105 0.114662 -0.035237 -105049.000000 0 0 1
-20.914739 -23.941419 4.933177 32.170703 0.852771 1.416845 0.128897 -0.034646 33691.100000 0 0 1
-21.830839 -24.064319 3.857677 32.719393 0.834025 1.452620 0.110156 -0.035390 161804.000000 0 0 1
-21.998839 -22.842519 3.216377 31.875926 0.804211 1.469721 0.116285 -0.032903 159175.000000 0 0 1
-22.636939 -22.895119 1.774177 32.245390 0.791068 1.515747 0.086474 -0.020996 -120217.000000 0 0 1
-21.905239 -23.596019 0.829777 32.207144 0.822540 1.545030 0.074246 -0.033933 -147987.000000 0 0 1
-22.515539 -23.477019 -0.455323 32.531942 0.806300 1.584793 0.079268 -0.032331 -222031.000000 0 0 1
-21.824139 -24.150119 -1.642923 32.591724 0.835948 1.621227 0.077888 -0.031503 -152906.000000 0 0 1
-20.508539 -23.686019 -1.912623 31.389263 0.857172 1.631767 0.078785 -0.029432 687504.000000 0 0 1
-19.788139 -24.302719 -3.008323 31.484006 0.887435 1.666493 0.062199 -0.014607 618391.000000 0 0 1
-19.399939 -25.801409 -2.975323 32.417941 0.926084 1.662706 0.072594 -0.023776 -202216.000000 0 0 1
-20.527039 -26.628869 -3.170723 33.771430 0.914080 1.664823 0.119289 -0.037233 57410.900000 0 0 1
-20.101439 -27.951609 -3.467123 34.603197 0.947332 1.671161 0.116277 -0.024550 -51920.100000 0 0 1
-21.172539 -28.800709 -4.169423 35.988072 0.936874 1.686913 0.120015 -0.021297 -41937.300000 0 0 1
-21.355439 -28.320999 -5.501423 35.894281 0.924708 1.724670 0.102720 -0.017061 -395557.000000 0 0 1
-22.346239 -29.061189 -6.125223 37.167533 0.915285 1.736352 0.091208 -0.031995 -375472.000000 0 0 1
-23.019039 -28.298219 -7.327323 37.206922 0.887911 1.769026 0.082030 -0.004665 -141321.000000 0 0 1
-22.216239 -28.115769 -8.464323 36.819866 0.902078 1.802756 0.104024 -0.005066 201369.000000 0 0 1
-22.978239 -28.026279 -9.668423 37.509335 0.884049 1.831500 0.107942 0.000461 354513.000000 0 0 1
-23.880239 -26.792499 -9.964623 37.247786 0.842807 1.841617 0.086870 0.007316 -164247.000000 0 0 1
-23.247739 -25.583089 -10.288523 36.066682 0.833187 1.860078 0.080920 0.006041 8174.150000 0 0 1
-22.668539 -24.880619 -9.191723 34.891197 0.831887 1.837382 0.075551 -0.005524 95715.500000 0 0 1
-22.318639 -23.407419 -9.561523 33.726127 0.809205 1.858243 0.070572 -0.016481 168944.000000 0 0 1
-23.439339 -22.620319 -9.938323 34.056596 0.767618 1.866923 0.068592 -0.019791 210292.000000 0 0 1
-23.045839 -21.306019 -10.286023 33.028161 0.746191 1.887496 0.093110 -0.019063 17262.200000 0 0 1
-24.250439 -20.393819 -10.563823 33.400390 0.699227 1.892600 0.100817 -0.020532 -798340.000000 0 0 1
-25.078139 -20.708519 -11.672823 34.554459 0.690252 1.915385 0.076063 -0.010852 820350.000000 0 0 1
-26.326959 -20.002619 -11.662623 35.060381 0.649729 1.909902 0.072656 -0.013720 396835.000000 0 0 1
-26.292889 -18.487819 -11.696323 34.204085 0.612836 1.919795 0.088252 -0.026422 -1382750.000000 0 0 1
-25.769279 -18.084919 -12.956423 34.043927 0.611934 1.961219 0.095792 -0.024152 434469.000000 0 0 1
-25.256529 -16.771019 -13.023123 32.996380 0.586173 1.976520 0.121109 -0.038387 288590.000000 0 0 1
-23.919239 -16.405419 -12.296323 31.503450 0.601178 1.971772 0.100854 -0.033529 -82899.400000 0 0 1
-24.156539 -16.331719 -10.902723 31.130898 0.594490 1.928604 0.144542 -0.035694 -47449.900000 0 0 1
-23.015639 -16.451019 -10.099423 30.039208 0.620574 1.913684 0.120090 -0.033071 -310104.000000 0 0 1
-23.420139 -16.883419 -8.659623 30.142028 0.624611 1.862197 0.105072 -0.040870 147383.000000 0 0 1
-23.948239 -18.182619 -8.478123 31.241069 0.649393 1.845620 0.118740 -0.028521 89418.800000 0 0 1
-24.663439 -18.242519 -7.250823 31.522201 0.636850 1.802897 0.126881 -0.023486 96041.600000 0 0 1
-25.457109 -19.573119 -7.104523 32.888382 0.655467 1.788532 0.117104 -0.022041 783116.000000 0 0 1
-26.631709 -19.599919 -7.950223 34.008981 0.634456 1.806748 0.085737 -0.022680 711783.000000 0 0 1
-27.406719 -20.764119 -7.963923 35.294489 0.648366 1.798398 0.071171 -0.009108 -94091.600000 0 0 1
-26.698999 -22.012519 -8.567423 35.648118 0.689485 1.813505 0.057235 -0.010994 -106625.000000 0 0 1
-27.407319 -23.253719 -8.379823 36.906883 0.703593 1.799847 0.054304 0.000291 -180989.000000 0 0 1
-26.860759 -24.319219 -9.122923 37.365125 0.735780 1.817446 0.037861 0.005054 24227.800000 0 0 1
-27.263439 -25.758239 -8.733923 38.510562 0.757017 1.799580 0.032874 0.007745 -59489.700000 0 0 1
-26.749299 -26.110159 -7.469123 38.118935 0.773307 1.768015 0.059837 -0.008286 28662.200000 0 0 1
-27.073689 -27.435729 -7.069523 39.187779 0.792040 1.752191 0.068744 -0.013663 -53366.900000 0 0 1
-26.601399 -27.715969 -5.629223 38.826506 0.805915 1.716293 0.094450 -0.025559 -141460.000000 0 0 1
-27.302899 -26.995699 -4.651623 38.676268 0.779741 1.691359 0.070461 -0.022542 21722.100000 0 0 1
-26.770529 -27.153379 -3.349623 38.277764 0.792498 1.658417 0.079858 -0.038296 87802.600000 0 0 1
-27.227809 -28.488309 -2.634623 39.495298 0.808018 1.637553 0.077769 -0.032715 1815.510000 0 0 1
-26.860089 -29.614799 -3.430723 40.128177 0.834137 1.656395 0.106055 -0.029277 -58675.300000 0 0 1
-27.086829 -30.909999 -2.892423 41.200613 0.851223 1.641058 0.098953 -0.030183 3892.060000 0 0 1
-26.308489 -31.307279 -1.611823 40.925302 0.871942 1.610191 0.096059 -0.036672 756905.000000 0 0 1
-24.910039 -31.530209 -1.793123 40.222872 0.902160 1.615391 0.113932 -0.043654 696989.000000 0 0 1
-24.164739 -31.910639 -0.622423 40.032623 0.922663 1.586345 0.144959 -0.027423 2031790.000000 0 0 1
-22.740939 -31.190259 -0.396123 38.602325 0.940803 1.581058 0.123343 -0.033903 1718730.000000 0 0 1
-22.832439 -29.814329 -0.021323 37.552829 0.917246 1.571364 0.106187 -0.034466 -116526.000000 0 0 1
-23.106839 -28.964299 -1.119923 37.069002 0.897417 1.601013 0.107296 -0.037908 -239143.000000 0 0 1
-23.607039 -27.569099 -0.677623 36.301607 0.862664 1.589464 0.088477 -0.033428 408181.000000 0 0 1
-24.985139 -27.547949 -0.318023 37.192040 0.834144 1.579347 0.086594 -0.034968 414328.000000 0 0 1
-25.562399 -26.228289 -0.110723 36.624741 0.798255 1.573820 0.095117 -0.041194 174497.000000 0 0 1
-25.243649 -25.500359 1.185677 35.901476 0.790457 1.537764 0.105614 -0.033413 -233500.000000 0 0 1
-25.782939 -26.193799 2.334077 36.828291 0.793303 1.507377 0.075162 -0.029621 50417.900000 0 0 1
-25.378649 -25.492659 3.559477 36.147218 0.787639 1.472165 0.098435 -0.029983 138685.000000 0 0 1
-26.164959 -24.226719 3.975477 35.879568 0.746954 1.459768 0.106460 -0.027107 -407838.000000 0 0 1
-26.082409 -23.171819 3.020277 35.019242 0.726374 1.484443 0.103277 -0.027294 225297.000000 0 0 1
-27.034229 -22.146019 3.287577 35.101337 0.686330 1.476999 0.085847 -0.019948 206881.000000 0 0 1
-26.946439 -21.013019 2.191477 34.241205 0.662306 1.506751 0.075420 -0.011516 377031.000000 0 0 1
-25.878999 -20.094319 2.381077 32.850781 0.660229 1.498251 0.079678 -0.011751 -22009.900000 0 0 1
-25.639719 -19.336519 1.211377 32.136640 0.646160 1.533093 0.065907 -0.016020 -54517.400000 0 0 1
-24.417939 -18.435019 1.461377 30.630398 0.646680 1.523068 0.096801 -0.016454 108028.000000 0 0 1
-23.235839 -19.193119 1.625677 30.181499 0.690403 1.516907 0.099751 -0.024549 802173.000000 0 0 1
-22.003039 -18.448519 1.731677 28.765957 0.697752 1.510561 0.104689 -0.016173 1144710.000000 0 0 1
-20.750339 -19.354019 1.629477 28.421995 0.750595 1.513433 0.088866 -0.027482 -76840.100000 0 0 1
-20.420439 -19.713019 0.301177 28.384647 0.767773 1.560186 0.064256 -0.020067 488085.000000 0 0 1
-19.205839 -20.459319 0.321677 28.063348 0.816989 1.559334 0.075234 -0.019346 220494.000000 0 0 1
-18.822539 -20.908019 -1.107023 28.154196 0.837841 1.610126 0.072636 -0.022678 -286290.000000 0 0 1
-18.383039 -19.821719 -1.895323 27.100349 0.823037 1.640791 0.083514 -0.025187 -48511.000000 0 0 1
-18.277139 -20.233319 -3.255023 27.459720 0.836151 1.689614 0.077411 -0.020256 -83393.600000 0 0 1
-17.543139 -19.299219 -4.218823 26.420069 0.833027 1.731165 0.085142 -0.011263 -412692.000000 0 0 1
-16.175339 -19.172219 -3.956223 25.394237 0.869979 1.727226 0.117564 -0.026537 -240562.000000 0 0 1
-15.552839 -18.599319 -5.101123 24.775935 0.874366 1.778170 0.121041 -0.016751 326228.000000 0 1 0
-14.041039 -18.217319 -5.106123 23.560433 0.914146 1.789254 0.143265 -0.035742 564749.000000 0 1 0
-13.183739 -19.360019 -5.315023 24.018135 0.972951 1.793936 0.116232 -0.035301 55620.400000 0 1 0
-11.981639 -18.826419 -5.858423 23.071950 1.004022 1.827527 0.104328 -0.041960 41903.500000 0 1 0
-10.879139 -19.918319 -5.766423 23.416805 1.070885 1.819607 0.096628 -0.048542 57908.800000 0 1 0
-11.147439 -21.016819 -6.637123 24.698654 1.083121 1.842864 0.089950 -0.039519 306832.000000 0 1 0
-10.037439 -21.914019 -6.826723 25.051518 1.141279 1.846794 0.088725 -0.029898 565615.000000 0 0 1
-10.252839 -23.098819 -7.720123 26.424921 1.153053 1.867274 0.093927 -0.018386 -360719.000000 0 0 1
-10.713539 -22.733819 -8.993823 26.692608 1.130404 1.914462 0.085458 -0.021654 47225.600000 0 0 1
-10.813239 -23.909319 -9.702923 27.977284 1.146064 1.924969 0.103411 -0.021322 -306696.000000 0 0 1
-11.489239 -23.558319 -11.022023 28.433818 1.117042 1.968864 0.121291 -0.021792 73175.800000 0 0 1
-10.799639 -22.718919 -11.973723 27.859497 1.127055 2.015056 0.102657 -0.014563 -323863.000000 0 0 1
-11.650039 -22.528919 -13.085923 28.539744 1.093551 2.047121 0.110281 -0.020466 211762.000000 0 0 1
-11.175239 -21.341419 -14.012023 27.868960 1.088415 2.097611 0.084867 -0.007420 -3304.280000 0 0 1
-11.267039 -20.107219 -13.242623 26.582203 1.060043 2.092291 0.081778 -0.013114 -373291.000000 0 0 1
-10.796839 -19.015019 -13.992523 25.960227 1.054385 2.140044 0.075222 -0.002610 -57171.800000 0 0 1
-10.435939 -17.837619 -13.084423 24.460000 1.041440 2.135223 0.082510 -0.000939 263819.000000 0 1 0
-11.584139 -17.214319 -12.499923 24.223401 0.978466 2.113002 0.096422 -0.014494 368342.000000 0 1 0
-11.275639 -16.166319 -11.607023 22.873848 0.961766 2.103003 0.091644 -0.021880 402724.000000 0 1 0
-10.785239 -14.814419 -12.320023 22.081018 0.941509 2.162705 0.087840 -0.008023 265334.000000 0 1 0
-11.913539 -14.254619 -12.937823 22.638769 0.874624 2.179116 0.088674 0.006142 59652.600000 0 1 0
-11.647639 -13.820819 -14.236523 23.007849 0.870520 2.237970 0.091684 -0.008914 109241.000000 0 1 0
-12.920139 -13.183319 -14.908523 23.727494 0.795480 2.250192 0.086728 -0.004156 525263.000000 0 1 0
-13.172539 -11.892219 -14.375023 22.838169 0.734362 2.251615 0.090330 0.000840 367668.000000 0 1 0
-14.127239 -11.170419 -15.189423 23.560045 0.669045 2.271442 0.095166 -0.018745 377995.000000 0 1 0
-14.406539 -9.804919 -14.506623 22.674367 0.597579 2.265009 0.085584 -0.022039 558441.000000 0 1 0
-13.289839 -8.901819 -14.466723 21.567297 0.590184 2.306045 0.076116 -0.019493 646650.000000 0 1 0
-12.986939 -8.297619 -15.700423 22.000326 0.568547 2.365484 0.074813 -0.021115 -723146.000000 0 1 0
-11.929039 -7.214519 -15.647223 20.956786 0.543931 2.413797 0.058903 -0.016554 -770280.000000 0 1 0
-10.625539 -7.719719 -15.722023 20.486048 0.628307 2.445651 0.045751 -0.020149 -753716.000000 0 1 0
-9.746039 -6.689019 -15.442423 19.447280 0.601494 2.488266 0.029658 -0.011068 -374055.000000 0 1 0
11.626261 22.078281 15.727777 29.495481 1.086102 1.008386 0.091229 -0.021666 386002.000000 0 0 1
12.605461 22.150981 16.778377 30.513563 1.053430 0.988592 0.105637 -0.025803 326826.000000 0 0 1
12.729261 20.934181 17.484477 30.099517 1.024471 0.950976 0.090160 -0.016812 -145474.000000 0 0 1
13.879861 21.052281 18.513977 31.282845 0.987908 0.937475 0.091382 -0.025206 1451010.000000 0 0 1
15.170661 21.210381 17.828977 31.589581 0.949911 0.971097 0.087594 -0.015596 918316.000000 0 0 1
16.222361 21.018981 18.747177 32.502603 0.913491 0.956003 0.086497 -0.028215 1205400.000000 0 0 1
17.639061 21.369881 18.096077 33.094958 0.880748 0.992268 0.061644 -0.012451 249134.000000 0 0 1
17.924361 22.782681 18.055377 34.151572 0.904185 1.013747 0.066551 -0.016730 338066.000000 0 0 1
19.193961 23.161481 17.513377 34.807768 0.878798 1.043561 0.057669 -0.014538 702390.000000 0 0 1
20.416961 22.775681 18.371877 35.680664 0.839953 1.029909 0.055954 -0.014797 -928124.000000 0 0 1
20.708761 21.406681 18.263777 34.938006 0.801968 1.020725 0.063078 -0.006543 -220551.000000 0 0 1
22.054961 21.232481 18.644777 35.845045 0.766400 1.023771 0.080845 -0.011261 118603.000000 0 0 1
22.654361 19.788881 18.437577 35.281215 0.717987 1.020911 0.067033 -0.011633 153994.000000 0 0 1
22.824361 19.470281 17.079077 34.521561 0.706261 1.053265 0.055372 -0.012357 348703.000000 0 0 1
22.186261 18.183281 16.864477 33.275704 0.686563 1.039315 0.046767 -0.000960 361931.000000 0 0 1
22.971761 16.908781 17.318877 33.369929 0.634525 1.025120 0.051520 -0.005993 338110.000000 0 0 1
24.082661 16.649581 16.485677 33.600009 0.604898 1.057967 0.063071 -0.015400 544970.000000 0 0 1
24.935161 15.546081 16.870777 33.883122 0.557491 1.049608 0.055564 -0.005448 850672.000000 0 0 1
26.287161 15.445781 16.078777 34.469030 0.531236 1.085500 0.151630 -0.033060 592598.000000 0 0 1
27.191361 16.570181 16.178177 35.716584 0.547296 1.100714 0.130584 -0.037524 26472.500000 0 0 1
28.229561 16.324381 17.058477 36.801972 0.524290 1.088832 0.125214 -0.046704 -186420.000000 0 0 1
29.510961 15.653581 16.450977 37.236622 0.487696 1.113197 0.124989 -0.052308 29026.800000 0 0 1
30.219461 16.558381 15.589877 37.821159 0.501258 1.145929 0.168149 -0.051580 -137439.000000 0 0 1
31.109061 15.848281 14.762777 37.906217 0.471173 1.170756 0.164064 -0.039206 13723.700000 0 0 1
30.462861 15.107481 13.489677 36.581324 0.460387 1.193123 0.131587 -0.038778 -35854.400000 0 0 1
30.139761 16.022981 12.490377 36.347636 0.488625 1.220010 0.151932 -0.031406 -323405.000000 0 0 1
29.189561 15.519681 11.610777 35.038566 0.488674 1.233040 0.129014 -0.027288 -866213.000000 0 0 1
27.794261 16.087981 11.723377 34.187448 0.524703 1.220778 0.116903 -0.034490 -1242260.000000 0 0 1
27.639161 17.424481 11.315677 34.577164 0.562493 1.237395 0.108887 -0.023838 538004.000000 0 0 1
28.340861 18.506981 12.036477 35.924776 0.578491 1.229142 0.107835 -0.031283 146373.000000 0 0 1
27.923961 18.752881 13.518577 36.251483 0.591389 1.188652 0.115309 -0.030508 547942.000000 0 0 1
26.662961 19.404581 13.709577 35.712795 0.629123 1.176797 0.102774 -0.021014 543327.000000 0 0 1
26.150261 19.391581 15.041577 35.862495 0.638068 1.137986 0.093797 -0.025057 -110864.000000 0 0 1
26.813561 20.307281 16.070677 37.277598 0.648189 1.125076 0.095291 -0.034400 -91630.500000 0 0 1
26.479661 21.681881 15.768477 37.681842 0.686107 1.139043 0.078791 -0.024997 89156.600000 0 0 1
25.293261 22.174881 16.340677 37.396418 0.719798 1.118582 0.066876 -0.018310 -150702.000000 0 0 1
25.086561 23.630181 15.891577 37.950800 0.755512 1.138737 0.070452 -0.011145 -208451.000000 0 0 1
24.532761 23.813381 14.597577 37.175566 0.770519 1.167268 0.078108 -0.021196 191910.000000 0 0 1
24.940861 25.049581 14.122577 38.065407 0.787573 1.190702 0.084881 -0.027007 -470107.000000 0 0 1
24.648661 25.266381 12.640977 37.493210 0.797773 1.226904 0.089115 -0.026896 -951540.000000 0 0 1
23.356561 25.675181 12.341677 36.838307 0.832651 1.229167 0.073994 -0.016626 -685840.000000 0 0 1
22.967361 25.754281 10.987577 36.214769 0.842537 1.262537 0.056274 -0.032197 -334930.000000 0 0 1
22.661461 24.391581 10.405077 34.882039 0.822151 1.267892 0.073974 -0.035660 -844435.000000 0 0 1
21.340461 24.066281 10.782277 33.924307 0.845357 1.247353 0.076089 -0.032446 53881.500000 0 0 1
20.874261 22.772781 10.336077 32.575586 0.828868 1.247920 0.078351 -0.023039 147081.000000 0 0 1
20.545161 22.595081 8.831977 31.790645 0.832880 1.289276 0.087615 -0.019784 -381679.000000 0 0 1
19.386561 23.246081 8.379677 31.407610 0.875682 1.300721 0.080424 -0.027438 -152813.000000 0 0 1
19.548661 23.493181 7.018677 31.358277 0.876787 1.345062 0.073414 -0.037242 394410.000000 0 0 1
18.270361 23.874081 6.184277 30.692395 0.917587 1.367915 0.056770 -0.029396 -772845.000000 0 0 1
17.672761 22.675881 5.685077 29.306009 0.908766 1.375568 0.073697 -0.017011 83599.700000 0 0 1
16.802861 22.789381 4.584677 28.682944 0.935466 1.410268 0.095958 -0.033911 863846.000000 0 0 1
15.461361 23.559481 4.937277 28.609081 0.990027 1.397351 0.056487 -0.022018 -192149.000000 0 0 1
15.699661 24.973381 4.949577 29.910657 1.009572 1.404553 0.070043 -0.029986 -264052.000000 0 0 1
14.678261 25.643681 5.611077 30.075470 1.050924 1.383130 0.060260 -0.026131 -465702.000000 0 0 1
14.568161 27.115681 5.166377 31.211903 1.077787 1.404505 0.058612 -0.020997 -294186.000000 0 0 1
14.092361 27.245081 3.857377 30.915504 1.093449 1.445699 0.049931 -0.016252 246088.000000 0 0 1
14.191661 28.579381 3.339677 32.083293 1.109897 1.466513 0.055874 -0.016771 -54283.300000 0 0 1
13.607161 28.745381 1.887877 31.859313 1.128680 1.511505 0.056804 -0.016995 -216493.000000 0 0 1
14.406461 28.290081 0.828477 31.757852 1.099784 1.544706 0.084963 -0.019179 -138708.000000 0 0 1
14.366461 26.866981 0.655577 30.473917 1.079756 1.549282 0.060598 -0.012783 -306768.000000 0 0 1
15.363261 26.495581 -0.420923 30.630422 1.045330 1.584539 0.068020 -0.018550 -453376.000000 0 0 1
14.976461 26.792181 -1.726023 30.742389 1.061080 1.626971 0.066652 -0.016275 -88980.900000 0 0 1
15.969661 26.619781 -2.756523 31.164743 1.030438 1.659362 0.075809 -0.011476 51435.000000 0 0 1
15.543061 27.264181 -4.063723 31.645476 1.052659 1.699566 0.098207 -0.017920 -96704.100000 0 0 1
14.691661 26.452281 -4.840623 30.643102 1.063815 1.729429 0.097726 -0.015962 -449998.000000 0 0 1
14.554561 26.921881 -6.168123 31.219684 1.075182 1.769676 0.083826 -0.006008 671104.000000 0 0 1
13.249361 26.436681 -6.884023 30.361710 1.106210 1.799519 0.075302 -0.016439 624893.000000 0 0 1
13.263461 25.093981 -7.219523 29.287348 1.084569 1.819870 0.102691 -0.019330 98924.000000 0 0 1
11.956161 24.683481 -7.565523 28.451031 1.119723 1.839948 0.096964 -0.015826 61990.000000 0 0 1
11.975961 23.173281 -7.968723 27.274991 1.093799 1.867283 0.101611 -0.028203 -12127.100000 0 0 1
12.703761 22.954181 -9.147823 27.784215 1.065316 1.906301 0.102429 -0.026599 217515.000000 0 0 1
12.348361 21.664181 -9.622323 26.728409 1.052736 1.939068 0.103200 -0.028929 -165057.000000 0 0 1
12.563961 21.452381 -11.173423 27.256250 1.040982 1.993184 0.100775 -0.017378 133355.000000 0 0 1
12.118961 20.165181 -11.565923 26.215917 1.029653 2.027709 0.107795 -0.024626 -113589.000000 0 0 1
12.392761 19.859381 -12.968223 26.760985 1.012898 2.076696 0.112368 -0.022295 672863.000000 0 0 1
13.794161 19.243181 -13.319123 27.165749 0.948862 2.083220 0.098228 -0.027508 800808.000000 0 0 1
14.847661 20.182581 -13.216923 28.328019 0.936532 2.056202 0.083267 -0.018546 270571.000000 0 0 1
16.080661 19.617281 -13.671823 28.815692 0.884147 2.065144 0.079398 -0.016581 370056.000000 0 0 1
17.263461 20.587481 -13.628723 30.126625 0.872992 2.040230 0.070340 -0.008680 -399803.000000 0 0 1
17.475261 21.711481 -14.492523 31.413474 0.893083 2.050310 0.066969 -0.007146 180632.000000 0 0 1
16.541561 22.753281 -14.251423 31.534712 0.942181 2.039722 0.063583 -0.006266 171244.000000 0 0 1
17.110161 24.061381 -14.767223 33.011794 0.952656 2.034576 0.049291 -0.010463 -148962.000000 0 0 1
17.318961 24.289981 -16.182223 33.938384 0.951393 2.067820 0.043378 -0.008838 -834538.000000 0 0 1
16.136761 24.332981 -16.892623 33.732028 0.985222 2.095306 0.076061 -0.010399 -562401.000000 0 0 1
16.281261 24.420181 -18.435623 34.659730 0.982761 2.131643 0.057763 -0.005509 133850.000000 0 0 1
16.616561 23.129981 -18.969823 34.219297 0.947828 2.158391 0.063470 -0.001042 58481.500000 0 0 1
16.420661 23.078381 -20.361723 34.883371 0.952383 2.194085 0.073255 0.000657 -107488.000000 0 0 1
16.828261 21.689081 -20.925923 34.518124 0.910933 2.222108 0.075743 -0.001119 -243442.000000 0 0 1
15.850361 20.714481 -20.727023 33.315659 0.917649 2.242270 0.084703 -0.008382 -36733.600000 0 0 1
16.159861 19.540081 -21.496723 33.242518 0.879801 2.273998 0.080033 -0.017047 -460623.000000 0 0 1
14.978761 18.595081 -21.555123 32.167742 0.892697 2.305120 0.081689 -0.015342 -1245330.000000 0 0 1
14.671061 17.868481 -20.352923 30.802015 0.883346 2.292635 0.083934 -0.020022 29999.700000 0 0 1
13.628561 16.952681 -20.569423 29.937138 0.893671 2.328269 0.075585 -0.023598 51712.400000 0 0 1
12.202461 17.535081 -20.682523 29.734591 0.962835 2.340011 0.063604 -0.019155 -661207.000000 0 0 1
11.210961 16.848681 -19.965823 28.428820 0.983677 2.349433 0.072986 -0.016090 1444030.000000 0 0 1
9.839461 17.200781 -20.327723 28.388346 1.051193 2.368936 0.050168 -0.018283 2264000.000000 0 0 1
8.721761 16.836281 -19.277923 27.040114 1.092826 2.364475 0.058291 -0.029206 286849.000000 0 0 1
8.605961 15.435881 -19.050623 25.985673 1.062191 2.393695 0.070311 -0.036852 679796.000000 0 0 1
7.388961 14.939981 -18.416523 24.838843 1.111497 2.406011 0.061870 -0.035367 908167.000000 0 1 0
7.271661 15.228881 -16.941023 23.912217 1.125317 2.358120 0.073196 -0.036835 33926.900000 0 1 0
7.017661 16.572681 -16.764823 24.595947 1.170241 2.320756 0.079431 -0.026028 -622920.000000 0 1 0
6.547561 16.854281 -15.527823 23.833813 1.200260 2.280362 0.058472 -0.026449 -278788.000000 0 1 0
6.203461 18.361781 -15.282923 24.682092 1.244990 2.238508 0.061991 -0.016687 756813.000000 0 1 0
7.295961 19.280881 -15.027823 25.511152 1.209045 2.200702 0.059864 -0.014088 529621.000000 0 0 1
7.951161 19.905981 -16.115923 26.817756 1.190776 2.215476 0.087649 -0.011759 719674.000000 0 0 1
9.102761 20.910981 -15.700723 27.688302 1.160225 2.173719 0.079881 -0.010389 424714.000000 0 0 1
8.790961 22.045881 -14.908923 28.028162 1.191362 2.131670 0.083905 -0.010717 -210419.000000 0 0 1
8.321961 21.776281 -13.602523 26.990555 1.205766 2.098989 0.056882 -0.008242 -141948.000000 0 0 1
8.185961 23.002681 -12.705523 27.523873 1.228902 2.050615 0.080264 -0.013020 294417.000000 0 0 1
6.923761 23.640281 -12.921423 27.816623 1.285885 2.053891 0.069168 -0.002091 644008.000000 0 0 1
6.334461 24.515081 -11.937223 27.993068 1.317937 2.011344 0.061774 -0.005293 324895.000000 0 0 1
5.941761 23.878581 -10.578323 26.784176 1.326917 1.976806 0.054033 -0.017728 -592792.000000 0 0 1
7.014161 23.535081 -9.755723 26.424848 1.281148 1.948931 0.051181 -0.016339 -199204.000000 0 0 1
6.472861 23.191881 -8.524323 25.542618 1.298622 1.911053 0.040015 -0.026277 635972.000000 0 0 1
7.560161 23.243581 -7.374723 25.530504 1.256331 1.863831 0.043993 -0.029291 519652.000000 0 0 1
7.609161 24.489781 -6.723023 26.511276 1.269545 1.827187 0.038772 -0.028438 523329.000000 0 0 1
8.522261 24.449981 -5.605123 26.492412 1.235406 1.783982 0.047984 -0.026838 312224.000000 0 0 1
8.882961 25.805481 -5.077823 27.759937 1.239273 1.754751 0.035834 -0.018801 -161820.000000 0 0 1
9.491261 26.557481 -6.078423 28.850148 1.227557 1.783077 0.053287 -0.019083 -225151.000000 0 0 1
9.413961 27.976781 -5.810223 30.084574 1.246206 1.765147 0.049400 -0.022175 179744.000000 0 0 1
9.760661 28.876681 -7.015023 31.278487 1.244841 1.796997 0.058519 -0.009874 -976480.000000 0 0 1
11.095461 28.893981 -7.328923 31.806988 1.204153 1.803304 0.071152 -0.014693 -1323180.000000 0 0 1
11.410461 29.848081 -8.291423 33.012941 1.205655 1.824671 0.077572 -0.011966 396296.000000 0 0 1
12.911561 29.848781 -8.677823 33.659512 1.162535 1.831553 0.083457 -0.015879 707985.000000 0 0 1
13.894561 30.252781 -7.707123 34.171469 1.140250 1.798296 0.065241 -0.008919 -275694.000000 0 0 1
15.034261 30.579281 -8.463723 35.110625 1.113852 1.814253 0.065164 -0.012244 -359536.000000 0 0 1
16.242661 30.910781 -7.558523 35.727184 1.086982 1.783969 0.064226 -0.016941 -356683.000000 0 0 1
16.893761 29.751181 -7.257123 34.974244 1.054363 1.779814 0.063358 -0.007975 -222311.000000 0 0 1
18.078561 29.962781 -6.497023 35.592329 1.027905 1.754366 0.066412 -0.005188 133757.000000 0 0 1
19.065261 28.839381 -6.337123 35.147591 0.986668 1.752088 0.071767 -0.005354 -355966.000000 0 0 1
18.747261 27.903581 -5.263923 34.026144 0.979208 1.726122 0.084338 -0.009689 323597.000000 0 0 1
19.789861 26.954881 -5.049223 33.818617 0.937494 1.720660 0.087878 -0.008763 280573.000000 0 0 1
20.018661 25.808981 -6.103123 33.227976 0.911082 1.755519 0.084925 -0.002502 -203588.000000 0 0 1
20.494861 26.267181 -7.311823 34.109630 0.908217 1.786835 0.071501 0.002836 96835.200000 0 0 1
20.340361 25.274381 -8.306023 33.489022 0.893146 1.821435 0.061735 -0.007970 -970745.000000 0 0 1
21.008761 25.569381 -9.648423 34.471051 0.883000 1.854486 0.060067 -0.008331 1434750.000000 0 0 1
22.463761 25.621381 -9.653723 35.415676 0.850971 1.846873 0.057154 -0.009403 1401470.000000 0 0 1
23.161861 24.413581 -9.550123 34.981418 0.811702 1.847312 0.063204 -0.011773 169105.000000 0 0 1
24.690261 24.752281 -9.354423 36.191016 0.786653 1.832238 0.038357 -0.012125 811814.000000 0 0 1
25.379961 25.199281 -10.499823 37.274555 0.781826 1.856350 0.042317 -0.012118 1352410.000000 0 0 1
26.811861 25.142281 -10.254123 38.159628 0.753274 1.842857 0.034578 -0.005034 1446150.000000 0 0 1
27.698961 25.320081 -11.505023 39.251809 0.740560 1.868272 0.049173 -0.009867 -31913.000000 0 0 1
27.483561 26.501881 -12.248723 40.096471 0.767216 1.881240 0.052884 -0.009797 -80376.500000 0 0 1
28.381061 26.526081 -13.325523 41.069297 0.751627 1.901242 0.063197 -0.010765 -71728.900000 0 0 1
28.065061 27.513181 -14.489723 41.887645 0.775469 1.924014 0.059723 -0.011954 -140477.000000 0 0 1
28.228961 28.856981 -14.114923 42.764829 0.796399 1.907163 0.060344 -0.014702 13708.100000 0 0 1
28.191761 29.663081 -15.282423 43.683249 0.810824 1.928203 0.061146 -0.009248 -274500.000000 0 0 1
28.745161 31.088281 -15.023823 44.927505 0.824539 1.911766 0.061449 -0.011240 622753.000000 0 0 1
30.055361 31.208781 -14.457123 45.676264 0.804223 1.892847 0.059602 -0.018879 569554.000000 0 0 1
30.563661 32.535581 -14.570623 46.957475 0.816639 1.886299 0.061185 -0.023919 -98871.900000 0 0 1
16.016561 -31.616170 -27.872420 45.088626 -1.101887 2.237208 0.107363 -0.053119 -398861.000000 0 0 1
16.998161 -32.539370 -27.483300 45.859349 -1.089400 2.213417 0.090405 -0.033184 97535.900000 0 0 1
17.592561 -32.216770 -26.242520 45.123035 -1.070977 2.191462 0.085241 -0.037753 -101530.000000 0 0 1
18.818661 -33.094570 -25.813770 45.997210 -1.053760 2.166635 0.033693 -0.025885 104790.000000 0 0 1
20.033161 -32.604270 -26.301790 46.434364 -1.019831 2.172963 0.054775 -0.033413 -242368.000000 0 0 1
20.402561 -33.069070 -27.600960 47.661734 -1.017994 2.188422 0.062911 -0.026718 378250.000000 0 0 1
21.909661 -32.813170 -27.972530 48.365275 -0.982072 2.187513 0.070819 -0.024492 789744.000000 0 0 1
22.132861 -31.425670 -28.173080 47.656675 -0.957195 2.203302 0.079623 -0.037869 -303958.000000 0 0 1
23.390161 -30.989670 -27.752590 47.724894 -0.924248 2.191382 0.040868 -0.027728 -576030.000000 0 0 1
23.953661 -29.768570 -28.454970 47.640644 -0.893219 2.210906 0.027298 -0.015054 -138665.000000 0 0 1
24.384861 -29.934070 -29.777590 48.758331 -0.887205 2.227763 0.026535 -0.017939 -143604.000000 0 0 1
25.195361 -28.880770 -30.215250 48.804369 -0.853445 2.238405 0.027414 -0.025439 -61295.500000 0 0 1
25.592361 -29.092470 -31.674070 50.045854 -0.849316 2.256091 0.036313 -0.022145 213155.000000 0 0 1
26.611361 -30.040770 -31.953590 51.299555 -0.845859 2.243218 0.041730 -0.031946 36833.200000 0 0 1
26.659761 -30.275270 -33.344400 52.337213 -0.848815 2.261535 0.035240 -0.033731 291544.000000 0 0 1
27.872861 -31.176570 -33.780550 53.758724 -0.841288 2.250257 0.021860 -0.030649 2761620.000000 0 0 1
29.142761 -30.415670 -33.562430 53.859541 -0.806767 2.243557 0.028858 -0.031620 1512160.000000 0 0 1
30.308161 -31.152970 -33.814820 55.068450 -0.799143 2.231979 0.034188 -0.024684 416039.000000 0 0 1
31.604061 -30.297270 -33.891290 55.365700 -0.764290 2.229554 0.042586 -0.033112 190000.000000 0 0 1
31.634461 -29.468570 32.995535 54.386038 -0.749966 0.918905 0.045013 -0.028460 -352020.000000 0 0 1
32.775061 -28.669770 33.074943 54.681918 -0.718685 0.921205 0.063604 -0.032564 -377359.000000 0 0 1
32.748361 -27.567570 31.986187 53.437273 -0.699714 0.929076 0.058246 -0.031445 12248.800000 0 0 1
33.926561 -27.486570 31.211707 53.672094 -0.680917 0.950193 0.057413 -0.034721 169832.000000 0 0 1
33.878861 -26.320070 30.392957 52.576184 -0.660488 0.954429 0.071156 -0.029469 80727.400000 0 0 1
34.604161 -26.554070 29.008717 52.383893 -0.654523 0.983909 0.075881 -0.025681 150329.000000 0 0 1
34.041761 -27.545970 28.170477 52.069163 -0.680315 0.999146 0.076786 -0.032994 252137.000000 0 0 1
32.736461 -27.303770 27.690407 50.832375 -0.695160 0.994718 0.074284 -0.031786 -246148.000000 0 0 1
32.091461 -28.421170 26.857437 50.586032 -0.724819 1.011103 0.060486 -0.023224 -123860.000000 0 0 1
30.880361 -28.012270 26.256877 49.271772 -0.736736 1.008773 0.043463 -0.008131 -149387.000000 0 0 1
30.291061 -29.087570 25.563257 49.164166 -0.765133 1.023996 0.026670 0.001945 -689706.000000 0 0 1
28.951161 -28.630070 25.020797 47.790071 -0.779822 1.019777 0.021251 0.008142 -597867.000000 0 0 1
27.940361 -28.450270 25.991547 47.598762 -0.794440 0.993148 0.027335 0.003826 -107847.000000 0 0 1
26.735761 -28.158870 25.323017 46.357071 -0.811317 0.992904 0.031863 0.009539 394686.000000 0 0 1
25.429561 -27.952470 26.135887 45.946575 -0.832624 0.965711 0.035694 0.006436 317911.000000 0 0 1
25.421061 -26.831570 27.009497 45.778558 -0.812386 0.939733 0.032523 -0.003481 752437.000000 0 0 1
24.124861 -26.596070 27.590507 45.283506 -0.834081 0.915639 0.044881 -0.014659 654011.000000 0 0 1
24.152961 -25.693270 28.804707 45.532634 -0.816290 0.885869 0.047878 -0.002918 -170426.000000 0 0 1
22.884161 -25.549870 29.425547 45.192294 -0.840381 0.861739 0.066820 -0.000602 239403.000000 0 0 1
22.769561 -24.417470 30.199557 45.018651 -0.820307 0.835478 0.066156 -0.004228 -245170.000000 0 0 1
22.296461 -23.144570 29.505367 43.627628 -0.804060 0.828068 0.064994 -0.005436 -531488.000000 0 0 1
23.124961 -22.772170 28.429997 43.146266 -0.777712 0.851412 0.077291 -0.009450 43024.100000 0 0 1
22.873061 -21.425970 27.978517 42.012456 -0.752743 0.842020 0.091438 -0.003487 310598.000000 0 0 1
23.679961 -20.255070 28.682207 42.351829 -0.707602 0.826796 0.098269 -0.003811 228759.000000 0 0 1
23.331361 -20.074670 30.027687 43.000078 -0.710510 0.797753 0.114770 -0.002233 -133390.000000 0 0 1
24.343661 -19.348870 30.647067 43.660455 -0.671575 0.792677 0.116901 -0.003439 -428821.000000 0 0 1
24.022761 -18.888770 32.070883 44.299212 -0.666323 0.761270 0.167155 -0.017939 -262852.000000 0 0 1
23.884261 -19.963570 33.017525 45.377957 -0.696219 0.755963 0.105799 -0.012765 498157.000000 0 0 1
23.230961 -19.553870 -33.805330 45.440419 -0.699665 2.409756 0.110735 -0.022304 327715.000000 0 0 1
22.873661 -20.688470 -32.817520 45.035617 -0.735278 2.387220 0.074769 -0.014744 -418208.000000 0 0 1
24.012061 -20.952970 -32.070290 45.211830 -0.717470 2.359349 0.059452 0.000924 -396019.000000 0 0 1
23.828161 -21.981970 -31.100810 44.924922 -0.745119 2.335446 0.050420 0.001993 93252.800000 0 0 1
25.094761 -22.267070 -30.268460 45.185718 -0.725765 2.304827 0.037859 0.005135 291562.000000 0 0 1
26.191461 -22.966870 -30.820300 46.511941 -0.719896 2.295124 0.034423 0.007559 -45693.500000 0 0 1
27.062061 -23.342370 -29.758090 46.505541 -0.711735 2.265142 0.030693 0.002831 692552.000000 0 0 1
28.291761 -24.276170 -30.161080 47.952549 -0.709158 2.251034 0.022305 0.002430 824748.000000 0 0 1
29.291461 -23.553270 -30.874320 48.641236 -0.677236 2.258463 0.024520 0.006133 233032.000000 0 0 1
29.016261 -23.383470 -32.290770 49.309471 -0.678313 2.284793 0.023972 0.002668 -177649.000000 0 0 1
29.501361 -24.641270 -33.127740 50.744159 -0.695874 2.282122 0.023683 -0.007312 -249466.000000 0 0 1
28.933761 -25.803070 -32.649930 50.685095 -0.728265 2.270737 0.049339 -0.017806 -111157.000000 0 0 1
29.267161 -27.050870 -33.303710 51.937014 -0.746065 2.266900 0.042368 -0.025200 -91202.900000 0 0 1
28.762761 -27.218670 33.271110 51.721554 -0.757823 0.872030 0.043218 -0.018534 -132193.000000 0 0 1
29.320361 -26.338170 32.318476 50.969271 -0.731869 0.883981 0.027124 -0.021461 20106.500000 0 0 1
28.806961 -26.552970 31.013237 49.967210 -0.744705 0.901197 0.028954 -0.016324 -108428.000000 0 0 1
29.638961 -25.832070 29.909807 49.400004 -0.716877 0.920451 0.039911 -0.023357 74844.900000 0 0 1
29.745061 -24.371970 29.905887 48.714717 -0.686436 0.909807 0.030066 -0.025393 205019.000000 0 0 1
30.237661 -23.677670 31.078877 49.404906 -0.664321 0.890447 0.033788 -0.017080 -1365850.000000 0 0 1
30.803961 -22.279170 30.745507 48.893063 -0.626165 0.890747 0.028457 -0.005905 166938.000000 0 0 1
32.123861 -22.126570 30.275217 49.377285 -0.603162 0.910766 0.036593 -0.010314 245433.000000 0 0 1
33.088561 -22.621170 31.238557 50.817493 -0.599672 0.908765 0.037110 -0.017123 -325697.000000 0 0 1
34.518061 -22.149670 30.825277 51.305965 -0.570507 0.926279 0.053051 -0.030862 204971.000000 0 0 1
35.032261 -22.607370 29.591757 51.127532 -0.573085 0.953561 0.063681 -0.036815 426541.000000 0 0 1
36.375261 -22.152470 29.428767 51.768174 -0.547010 0.966149 0.061723 -0.039275 484924.000000 0 0 1
36.877661 -22.332070 27.981587 51.397008 -0.544506 0.995098 0.077650 -0.039310 -294142.000000 0 0 1
-36.637917 -23.677870 27.630917 51.637641 0.573746 1.006179 0.080355 -0.039938 92333.200000 0 0 1
-36.390417 -23.873370 26.240877 50.821096 0.580606 1.028227 0.076617 -0.032389 -185900.000000 0 0 1
-36.248117 -25.309970 25.881617 51.228689 0.609545 1.041163 0.068496 -0.032532 -717014.000000 0 0 1
36.332061 -26.022370 26.005897 51.705793 -0.621540 1.043777 0.075931 -0.026574 -654524.000000 0 0 1
36.436861 -27.420670 25.738517 52.364198 -0.645133 1.056952 0.076798 -0.020836 39521.500000 0 0 1
-36.421017 -28.325270 26.611987 53.263582 0.661006 1.047627 0.081574 -0.026752 -271395.000000 0 0 1
-36.043617 -29.546870 25.907907 53.323348 0.686670 1.063445 0.078970 -0.021177 2311040.000000 0 0 1
-34.780317 -30.105370 26.499077 53.086767 0.713473 1.048161 0.083269 -0.029774 3592870.000000 0 0 1
-33.427817 -29.347970 26.114217 51.581727 0.720499 1.039944 0.098105 -0.023037 552352.000000 0 0 1
-32.943317 -29.509270 24.798047 50.705051 0.730467 1.059779 0.094437 -0.015644 199426.000000 0 0 1
-31.695517 -28.859670 24.597867 49.422074 0.738602 1.049840 0.080698 -0.016428 477631.000000 0 0 1
-31.098617 -29.077670 23.175537 48.474120 0.751827 1.072305 0.089786 -0.016362 -10724.900000 0 0 1
-30.821517 -30.433870 22.854877 48.974807 0.779070 1.085279 0.101466 -0.011817 281124.000000 0 0 1
-30.239617 -30.560470 21.589077 48.108887 0.790675 1.105425 0.088164 -0.010331 -381234.000000 0 0 1
-29.862617 -31.956770 21.094477 48.559118 0.819261 1.121415 0.105621 -0.004221 215441.000000 0 0 1
-28.820017 -32.666570 21.723477 48.678615 0.847876 1.108211 0.091123 -0.011451 740659.000000 0 0 1
-27.472517 -32.387270 21.294477 47.509253 0.867319 1.106026 0.116444 -0.009727 523858.000000 0 0 1
-26.643717 -33.681970 21.193177 47.890641 0.901544 1.112375 0.106150 -0.000642 -702334.000000 0 0 1
-26.979417 33.518181 20.147477 47.510822 -0.893063 1.132872 0.088667 -0.002411 761970.000000 0 0 1
-28.245117 32.829581 20.237077 47.802795 -0.860321 1.133662 0.099948 -0.001299 772132.000000 0 0 1
-28.420717 31.792181 21.386277 47.705898 -0.841332 1.105940 0.102782 -0.004933 -319576.000000 0 0 1
-27.736917 30.593481 21.111577 46.378834 -0.834331 1.098201 0.088541 -0.006106 -96068.700000 0 0 1
-27.832717 29.523481 22.041877 46.175105 -0.814868 1.073155 0.083547 -0.010611 -101641.000000 0 0 1
-27.010217 28.250981 21.645177 44.678668 -0.807847 1.065047 0.076253 -0.009867 850366.000000 0 0 1
-25.611817 28.534281 21.711577 44.063169 -0.839320 1.055563 0.080118 -0.017356 193049.000000 0 0 1
-24.787217 27.524981 21.230577 42.693888 -0.837686 1.050342 0.068387 -0.019182 378189.000000 0 0 1
-23.260117 27.836281 21.270577 42.051504 -0.874719 1.040462 0.052469 -0.007882 500930.000000 0 0 1
-22.737717 27.982781 22.597277 42.552047 -0.888443 1.010957 0.051944 -0.016234 -119317.000000 0 0 1
-21.370017 28.255481 22.605477 42.024485 -0.923266 1.002838 0.069316 -0.026421 -601366.000000 0 0 1
-20.845117 28.503781 24.017787 42.706422 -0.939364 0.973519 0.057632 -0.024564 -609581.000000 0 0 1
-20.771817 27.303581 24.774797 42.317188 -0.920436 0.945356 0.069012 -0.027691 348494.000000 0 0 1
-20.511817 27.533181 26.122027 43.141290 -0.930512 0.920403 0.065473 -0.031077 855773.000000 0 0 1
-18.964317 27.720581 26.432497 42.740529 -0.970805 0.904039 0.065510 -0.016207 745015.000000 0 0 1
-18.419117 29.010481 26.413677 43.342291 -1.005101 0.915467 0.034238 -0.021467 -1194310.000000 0 0 1
-17.128517 29.056681 26.856697 43.115646 -1.038143 0.898353 0.035828 -0.015275 -1540940.000000 0 0 1
-16.963017 29.319281 28.413347 44.211791 -1.046289 0.872825 0.016630 -0.012082 -542513.000000 0 0 1
-17.144417 28.155381 29.094767 43.967737 -1.023843 0.847673 0.025799 -0.018980 287915.000000 0 0 1
-17.270717 28.416481 30.491147 45.116339 -1.024682 0.828701 0.024365 -0.009520 -162029.000000 0 0 1
-17.355517 27.175581 31.340117 44.965865 -1.002446 0.799625 0.043254 -0.015255 -11156.200000 0 0 1
-16.016817 26.757981 31.549587 44.361068 -1.031421 0.779593 0.046263 -0.007352 383724.000000 0 0 1
-15.814917 25.827781 32.576835 44.479613 -1.021366 0.748957 0.062520 -0.009093 -547128.000000 0 0 1
-16.253017 26.166181 33.995226 45.874883 -1.014973 0.736175 0.049594 -0.010013 -513823.000000 0 0 1
-17.624917 25.932881 -33.900730 46.178041 -0.973869 2.395182 0.051906 -0.018537 -613963.000000 0 0 1
-18.247617 26.869081 -33.032320 46.325557 -0.974214 2.364632 0.049611 -0.022660 -552284.000000 0 0 1
-19.624217 26.368381 -32.635310 46.319163 -0.930996 2.352620 0.033442 -0.021321 -1228740.000000 0 0 1
-20.545217 26.395581 -33.655690 47.450375 -0.909392 2.359275 0.036691 -0.018316 -1739640.000000 0 0 1
-21.695917 25.803381 -33.209720 47.322434 -0.871658 2.348683 0.060898 -0.026157 -1648750.000000 0 0 1
-22.843117 25.937281 33.837766 48.368842 -0.848744 0.795990 0.060609 -0.041745 -866685.000000 0 0 1
-22.919717 25.079881 32.684924 47.144650 -0.830372 0.804752 0.067416 -0.029291 7154.320000 0 0 1
-22.983317 23.688181 32.883735 46.590801 -0.800500 0.787246 0.075751 -0.028153 -377771.000000 0 0 1
-23.497217 22.989781 31.665757 45.643941 -0.774483 0.804105 0.076418 -0.035657 -353505.000000 0 0 1
-24.879017 23.046481 31.453657 46.254062 -0.747180 0.823007 0.080859 -0.029134 -499338.000000 0 0 1
-25.324717 22.530581 30.229357 45.417864 -0.727077 0.842522 0.097798 -0.025429 421631.000000 0 0 1
-26.775017 21.984681 30.300947 46.025809 -0.687469 0.852176 0.074052 -0.014831 164183.000000 0 0 1
-27.001217 20.679681 30.876947 45.935833 -0.653587 0.833653 0.081303 -0.025834 -37791.900000 0 0 1
-28.107217 20.041781 30.284247 45.921936 -0.619429 0.850680 0.064223 -0.016151 -190946.000000 0 0 1
-28.522517 18.647181 30.870437 45.980813 -0.579021 0.834732 0.085820 -0.026295 -107467.000000 0 0 1
-29.125117 18.862381 32.172619 47.319544 -0.574709 0.823168 0.084224 -0.024202 294020.000000 0 0 1
-29.350717 17.764881 33.024301 47.619954 -0.544280 0.804465 0.065972 -0.008838 30326.600000 0 0 1
-30.205017 16.579881 32.457968 47.336615 -0.502007 0.815253 0.051439 -0.013563 383111.000000 0 0 1
-31.541017 16.965181 32.134956 48.117652 -0.493488 0.839492 0.053831 -0.015217 586370.000000 0 0 1
-32.303317 15.965481 31.498917 47.860031 -0.459026 0.852442 0.063695 -0.011331 662377.000000 0 0 1
-33.838117 16.242581 31.310407 48.879250 -0.447527 0.875561 0.066813 -0.002943 751087.000000 0 0 1
-34.468117 16.190381 32.589923 50.122675 -0.439132 0.862944 0.073028 -0.004612 57596.100000 0 0 1
-35.829417 16.510581 32.531653 51.133695 -0.431808 0.881223 0.081337 -0.010369 -186042.000000 0 0 1
-36.542917 16.741381 33.901949 52.583274 -0.429594 0.870128 0.079863 -0.003810 -624324.000000 0 0 1
35.853861 16.953981 33.852880 52.143593 0.441704 0.864232 0.069456 -0.008050 -1027600.000000 0 0 1
35.448261 17.547281 -33.024140 51.527469 0.459648 2.266471 0.050543 -0.013232 449300.000000 0 0 1
33.899261 17.655981 -32.863960 50.407672 0.480178 2.280967 0.049038 -0.016504 779359.000000 0 0 1
33.261261 16.364281 -32.687270 49.422250 0.457221 2.293464 0.053736 -0.003331 -451498.000000 0 0 1
31.938961 16.550781 -32.295680 48.342906 0.478102 2.302387 0.037759 0.003600 -926788.000000 0 0 1
31.124261 15.289481 -32.463050 47.500921 0.456615 2.323233 0.030031 0.010622 -444900.000000 0 0 1
30.987561 14.838981 -33.820610 48.210559 0.446600 2.348323 0.048552 -0.006909 -106832.000000 0 0 1
30.385361 13.571981 34.016112 47.587442 0.420074 0.774440 0.044748 -0.004773 -190516.000000 0 0 1
31.327361 12.363581 -33.833750 47.738709 0.375892 2.358490 0.043937 -0.002126 101602.000000 0 0 1
31.764161 12.148081 -32.470070 47.019605 0.365283 2.333066 0.051516 0.004563 190255.000000 0 0 1
32.726061 11.111181 -32.491960 47.436072 0.327309 2.325349 0.078470 -0.005418 -150077.000000 0 0 1
18.013461 -21.011219 10.014780 29.432158 -0.862065 1.223596 0.062064 -0.032467 24600.700000 0 0 1
17.708061 -22.246619 10.621580 30.353014 -0.898506 1.213295 0.068050 -0.033840 -23368.700000 0 0 1
18.867561 -22.976419 10.900980 31.665945 -0.883279 1.219357 0.051939 -0.034484 -303328.000000 0 0 1
18.507061 -24.206919 11.814080 32.681168 -0.918057 1.200925 0.057759 -0.034597 258850.000000 0 0 1
17.857161 -25.333289 11.186680 32.951412 -0.956797 1.224422 0.058088 -0.032542 -432880.000000 0 0 1
16.465461 -25.304129 11.241680 32.214682 -0.993927 1.214334 0.073534 -0.029405 -604381.000000 0 0 1
15.785361 -26.361629 10.347180 32.421864 -1.031259 1.245972 0.074482 -0.028821 -32143.400000 0 0 1
15.853561 -25.942429 8.985280 31.703001 -1.022251 1.283437 0.071444 -0.034556 -496922.000000 0 0 1
14.910161 -26.573559 8.221580 31.560439 -1.059479 1.307253 0.073384 -0.025768 -666509.000000 0 0 1
14.699161 -26.008659 6.766180 30.631632 -1.056385 1.348071 0.072835 -0.021777 524410.000000 0 0 1
13.896561 -24.768919 6.836780 29.212246 -1.059510 1.334567 0.074483 -0.030349 592310.000000 0 0 1
13.666261 -24.184019 5.565280 28.330299 -1.056438 1.373068 0.070952 -0.013366 76141.800000 0 0 1
12.892261 -22.848019 5.862580 26.881448 -1.057070 1.350939 0.086829 -0.021732 394179.000000 0 0 1
12.173261 -22.320519 4.748780 25.863967 -1.071504 1.386143 0.090901 -0.014396 290896.000000 0 0 1
11.379561 -21.190219 5.044980 24.575834 -1.077974 1.364044 0.097691 -0.019348 15110.500000 0 1 0
10.574361 -20.487419 3.963080 23.393535 -1.094321 1.400566 0.083874 -0.022153 -158564.000000 0 1 0
11.291661 -19.678419 3.060780 22.893452 -1.049857 1.436698 0.067541 -0.012326 185625.000000 0 1 0
10.421461 -19.298919 1.990780 22.023132 -1.075661 1.480278 0.051150 -0.007898 155787.000000 0 1 0
11.190461 -19.136519 0.689380 22.179000 -1.041651 1.539709 0.051516 0.001726 86974.600000 0 1 0
12.071761 -18.041119 0.743680 21.720093 -0.981094 1.536550 0.050934 0.002826 -289905.000000 0 1 0
12.794861 -17.909119 -0.467420 22.015074 -0.950450 1.592030 0.060509 -0.000192 187873.000000 0 1 0
13.966361 -16.893119 -0.367120 21.921941 -0.879957 1.587544 0.062053 0.002060 667014.000000 0 1 0
15.004361 -17.277719 0.514180 22.889186 -0.855704 1.548331 0.065436 -0.003181 -126986.000000 0 1 0
16.160061 -16.489419 0.597180 23.095565 -0.795486 1.544937 0.061055 -0.014731 339238.000000 0 1 0
17.338161 -17.209319 1.291780 24.463058 -0.781669 1.517966 0.046330 -0.001834 -192393.000000 0 1 0
17.960861 -18.248819 0.587580 25.611661 -0.793351 1.547852 0.052552 -0.003298 -327095.000000 0 0 1
19.028061 -18.676919 1.382880 26.698441 -0.776086 1.518977 0.044048 0.000674 57215.500000 0 0 1
19.639961 -20.101819 1.005880 28.121575 -0.797019 1.535020 0.031278 -0.006603 615815.000000 0 0 1
18.755461 -21.214119 1.257980 28.344112 -0.846834 1.526399 0.035875 0.004892 460779.000000 0 0 1
19.008061 -22.290819 0.354680 29.296976 -0.864719 1.558690 0.044757 0.001803 -413769.000000 0 0 1
17.868861 -23.291219 0.428780 29.359171 -0.916382 1.556191 0.041573 0.004682 -366897.000000 0 0 1
17.714161 -23.905319 1.700580 29.801808 -0.933072 1.513702 0.029050 0.005623 -710613.000000 0 0 1
16.678961 -24.816919 1.774780 29.953582 -0.979055 1.511511 0.028360 0.002166 -920588.000000 0 0 1
16.546861 -25.610259 3.081480 30.646036 -0.997166 1.470075 0.031022 -0.002704 642377.000000 0 0 1
17.511161 -26.655429 3.411180 32.074738 -0.989554 1.464244 0.046709 -0.006673 397444.000000 0 0 1
18.731761 -26.110779 3.873080 32.367459 -0.948491 1.450849 0.033129 0.000677 37781.100000 0 0 1
19.915961 -27.128159 3.868980 33.875530 -0.937521 1.456335 0.041992 0.002387 273531.000000 0 0 1
20.363261 -27.520819 2.554580 34.330508 -0.933776 1.496316 0.049777 0.005305 666004.000000 0 0 1
21.452261 -28.466279 2.654780 35.743201 -0.924994 1.496454 0.071570 0.005060 854193.000000 0 0 1
20.904061 -29.934649 2.865180 36.623384 -0.961197 1.492483 0.072161 0.003485 227248.000000 0 0 1
20.611761 -30.231129 4.234180 36.833329 -0.972386 1.455587 0.098305 -0.005428 -86065.600000 0 0 1
20.175461 -31.584729 4.246780 37.718424 -1.002354 1.457965 0.078780 -0.014588 -362446.000000 0 0 1
19.900761 -32.160449 5.641480 38.238215 -1.016671 1.422721 0.087824 -0.019553 -504650.000000 0 0 1
20.974561 -32.561339 6.416580 39.259974 -0.998541 1.406622 0.074055 -0.023776 -536440.000000 0 0 1
20.486961 -33.147099 7.587980 39.699159 -1.017202 1.378476 0.071676 -0.026918 120832.000000 0 0 1
21.511561 -34.000339 8.371980 41.095746 -1.006689 1.365641 0.071923 -0.027980 -120927.000000 0 0 1
22.513961 -33.258599 8.972580 41.152400 -0.975717 1.350998 0.078389 -0.027566 -579638.000000 0 0 1
23.615461 -33.973149 9.441380 42.438244 -0.963352 1.346446 0.093600 -0.029861 -86213.600000 0 0 1
24.555961 -33.096949 10.294480 42.477989 -0.932473 1.326010 0.094967 -0.027092 -323697.000000 0 0 1
25.477761 -32.349209 9.581880 42.277654 -0.903671 1.342168 0.080714 -0.020083 -405634.000000 0 0 1
26.410261 -31.620269 10.321080 42.471967 -0.874939 1.325329 0.070638 -0.016785 209191.000000 0 0 1
27.300261 -30.733849 9.393280 42.167611 -0.844494 1.346151 0.065687 -0.019670 -181018.000000 0 0 1
26.581961 -29.720719 8.788580 40.830882 -0.841088 1.353855 0.051254 -0.021182 -250121.000000 0 0 1
27.322461 -28.977019 7.835980 40.590480 -0.814778 1.376527 0.060432 -0.026109 24036.500000 0 0 1
26.857961 -27.499739 7.844180 39.231580 -0.797204 1.369494 0.050903 -0.030801 -93091.400000 0 0 1
27.155161 -26.926539 9.083280 39.305817 -0.781171 1.337596 0.045603 -0.032672 -23851.900000 0 0 1
26.817161 -25.540129 9.210380 38.161360 -0.761012 1.327036 0.042549 -0.029419 -219478.000000 0 0 1
27.547761 -24.941319 10.431880 38.597573 -0.735782 1.297120 0.036612 -0.027291 -239733.000000 0 0 1
28.909861 -24.772819 10.181180 39.409758 -0.708485 1.309491 0.043109 -0.025898 -938454.000000 0 0 1
29.524461 -23.935519 11.145480 39.608391 -0.681232 1.285552 0.037445 -0.029425 -918668.000000 0 0 1
30.969361 -23.697019 10.819580 40.468671 -0.653143 1.300147 0.040877 -0.031116 -907648.000000 0 0 1
31.044861 -23.000119 9.608880 39.813559 -0.637630 1.327043 0.036680 -0.027548 307224.000000 0 0 1
32.398761 -22.808419 9.192880 40.674473 -0.613399 1.342816 0.040981 -0.033308 649830.000000 0 0 1
32.442761 -22.169019 7.854080 40.070996 -0.599448 1.373515 0.050378 -0.013132 -663032.000000 0 0 1
31.889061 -20.902119 7.775980 38.913708 -0.580206 1.369616 0.058978 -0.002457 -146555.000000 0 0 1
31.937861 -20.432919 6.448680 38.459285 -0.569151 1.402325 0.053969 -0.009867 -128350.000000 0 0 1
31.519361 -18.906619 6.398280 37.307752 -0.540303 1.398444 0.069117 -0.014701 -90209.100000 0 0 1
32.228961 -18.030919 7.263780 37.637514 -0.510080 1.376585 0.079349 -0.011558 184108.000000 0 0 1
31.754161 -16.674019 7.223780 36.585963 -0.483523 1.372044 0.082040 -0.010903 40536.800000 0 0 1
32.276661 -16.022319 8.498980 37.023374 -0.460768 1.339174 0.084186 -0.036840 54113.800000 0 0 1
33.664461 -15.780819 8.518980 38.143193 -0.438351 1.345555 0.090041 -0.028708 -323517.000000 0 0 1
34.106561 -15.178619 9.700680 38.571378 -0.418718 1.316567 0.079027 -0.035067 -318389.000000 0 0 1
35.624561 -15.094219 9.824680 39.918281 -0.400771 1.322121 0.062160 -0.035798 -468819.000000 0 0 1
36.260361 -14.121219 9.022480 39.945310 -0.371370 1.342959 0.082930 -0.022828 457403.000000 0 0 1
-36.095517 -14.318319 9.223380 39.912045 0.377640 1.337596 0.073682 -0.029039 909214.000000 0 0 1
-35.258217 -13.375219 8.308080 38.614279 0.362579 1.353945 0.079009 -0.031156 82697.600000 0 0 1
-35.483817 -13.651019 6.939380 38.647206 0.367257 1.390260 0.103303 -0.040088 1060530.000000 0 0 1
-34.423517 -12.962619 6.209980 37.303778 0.360140 1.403547 0.106053 -0.034268 1704940.000000 0 0 1
-33.196617 -13.826219 5.748580 36.417384 0.394645 1.412281 0.081816 -0.023415 569467.000000 0 0 1
-32.400417 -14.423819 6.791780 36.110412 0.418833 1.381586 0.087231 -0.019020 429468.000000 0 0 1
-31.407217 -15.228619 6.178580 35.447129 0.451476 1.395597 0.076362 -0.006298 60042.300000 0 0 1
-30.632117 -16.087619 7.179280 35.336668 0.483594 1.366204 0.051781 -0.012464 192539.000000 0 0 1
-31.504217 -17.074819 7.736880 36.659575 0.496669 1.358151 0.073432 -0.024287 582094.000000 0 0 1
-31.077517 -17.195419 9.094280 36.663339 0.505379 1.320131 0.036167 -0.017058 197013.000000 0 0 1
-32.244717 -17.752719 9.919780 38.121947 0.503275 1.307555 0.017056 -0.023604 -517663.000000 0 0 1
-33.369217 -16.881319 10.043180 38.721428 0.468352 1.308426 0.036109 -0.017893 1319710.000000 0 0 1
-34.467117 -17.451419 10.813580 40.118171 0.468691 1.297878 0.051607 -0.031516 974660.000000 0 0 1
-35.157517 -18.763119 10.474980 41.204743 0.490233 1.313757 0.067563 -0.034167 -1085280.000000 0 0 1
-34.306317 -19.897419 10.657080 41.065850 0.525578 1.308279 0.066425 -0.027646 -175460.000000 0 0 1
-34.055717 -20.304519 12.003980 41.426572 0.537632 1.276815 0.058802 -0.039175 237330.000000 0 0 1
-35.295517 -20.867319 12.839580 42.965955 0.533937 1.267328 0.056456 -0.044946 745491.000000 0 0 1
-35.708417 -22.155919 12.431780 43.823794 0.555333 1.283170 0.057520 -0.041412 175569.000000 0 0 1
-36.659217 -22.125119 11.364280 44.300857 0.543015 1.311371 0.063983 -0.043790 -479971.000000 0 0 1
36.613361 -23.506119 11.061780 44.893639 -0.570737 1.321833 0.058503 -0.031604 -356035.000000 0 0 1
35.841661 -23.982519 12.156580 44.805896 -0.589702 1.296036 0.109032 -0.024040 38704.800000 0 0 1
35.373361 -25.288659 11.883980 45.077932 -0.620661 1.304011 0.064760 -0.010753 -341934.000000 0 0 1
34.645961 -25.738789 13.149080 45.119022 -0.638947 1.275074 0.068986 -0.034096 310686.000000 0 0 1
33.387961 -25.095749 13.366780 43.854571 -0.644550 1.261070 0.069660 -0.029877 239670.000000 0 0 1
32.892661 -25.283109 14.681380 44.008018 -0.655334 1.230669 0.067448 -0.015171 -265483.000000 0 0 1
32.662061 -23.910819 15.392980 43.306828 -0.631925 1.207412 0.074868 -0.021841 -629626.000000 0 0 1
33.809061 -23.220319 15.770280 43.942435 -0.601817 1.203723 0.073170 -0.024820 -336460.000000 0 0 1
34.444661 -22.400819 14.765680 43.660699 -0.576616 1.225802 0.073313 -0.028556 293831.000000 0 0 1
35.677661 -21.623819 15.292580 44.433636 -0.544884 1.219445 0.075408 -0.035624 -109893.000000 0 0 1
35.579661 -20.458519 16.061180 44.072948 -0.521839 1.197784 0.073818 -0.018691 41578.400000 0 0 1
34.679561 -20.443519 17.165480 43.763719 -0.532661 1.167741 0.075314 -0.017479 139492.000000 0 0 1
34.671661 -19.079319 17.922680 43.443837 -0.503063 1.145547 0.061638 -0.004822 -387875.000000 0 0 1
34.267661 -17.986919 17.129980 42.323020 -0.483365 1.154098 0.052576 -0.011135 39103.600000 0 0 1
34.144461 -16.758119 17.846080 42.013823 -0.456261 1.132092 0.035027 -0.004802 370413.000000 0 0 1
35.432161 -15.996719 18.322380 42.977234 -0.424079 1.130367 0.034285 -0.011633 210419.000000 0 0 1
35.990461 -16.446619 19.507480 44.117415 -0.428636 1.112778 0.040551 -0.002650 -607684.000000 0 0 1
-36.588917 -15.756019 19.730180 44.455382 0.406623 1.110939 0.036637 -0.000625 -600657.000000 0 0 1
-36.111717 -15.829319 21.183180 44.758804 0.413118 1.077793 0.030236 0.006783 -684368.000000 0 0 1
-35.379617 -16.916719 21.557180 44.750471 0.446014 1.068180 0.050956 -0.000125 -245987.000000 0 0 1
-34.926217 -16.720219 22.896380 44.985004 0.446487 1.036799 0.047360 0.003509 233365.000000 0 0 1
-33.924217 -17.831719 23.376980 44.892158 0.483944 1.023083 0.053004 -0.001202 -400067.000000 0 0 1
-34.422717 -19.134219 23.363480 45.791855 0.507331 1.035367 0.053838 -0.003442 -76447.000000 0 0 1
-33.602017 -20.064619 24.004280 45.911762 0.538303 1.020623 0.043307 -0.005268 107104.000000 0 0 1
-32.413617 -20.667419 23.185280 44.892560 0.567620 1.028083 0.047990 -0.004694 576186.000000 0 0 1
-31.324817 -19.773919 23.028880 43.618589 0.563084 1.014599 0.049448 0.004009 -12581.400000 0 0 1
-30.199217 -20.391719 22.458180 42.804027 0.593915 1.018464 0.056776 0.007134 145744.000000 0 0 1
-28.917117 -19.531419 22.370080 41.449927 0.594043 1.000728 0.063181 0.006862 313436.000000 0 0 1
-28.403217 -19.213919 23.703280 41.686483 0.594759 0.965983 0.054490 0.002296 770629.000000 0 0 1
-27.214117 -18.422719 23.712080 40.524899 0.595091 0.945764 0.072140 -0.000055 347628.000000 0 0 1
-26.922917 -17.898619 25.121880 40.942800 0.586716 0.910204 0.068968 -0.003646 -495235.000000 0 0 1
-25.931317 -16.865619 25.026480 39.789534 0.576653 0.890567 0.069855 -0.007088 517475.000000 0 0 1
-25.457417 -16.453419 26.358580 40.169264 0.573778 0.855041 0.056518 -0.011239 648706.000000 0 0 1
-24.345417 -17.354419 26.962780 40.259988 0.619292 0.836969 0.045295 -0.001212 -613025.000000 0 0 1
-24.925917 -18.593619 27.240480 41.340872 0.640907 0.851409 0.046626 -0.000533 -371884.000000 0 0 1
-23.988317 -19.422619 27.862880 41.581457 0.680610 0.836481 0.050150 0.005190 -589374.000000 0 0 1
-24.498917 -20.733919 28.380380 42.843182 0.702354 0.846746 0.044445 0.000998 -643366.000000 0 0 1
-25.373117 -20.488119 29.447080 43.939602 0.679281 0.836356 0.034633 -0.006343 -124054.000000 0 0 1
-26.012217 -21.712719 29.819780 45.136425 0.695552 0.849100 0.027432 -0.007694 -384687.000000 0 0 1
-27.106117 -21.451119 30.901880 46.366133 0.669460 0.841325 0.035826 -0.006025 -869839.000000 0 0 1
-26.815117 -20.834219 32.122280 46.743513 0.660532 0.813165 0.045962 -0.012947 67336.700000 0 0 1
-27.883717 -20.690919 33.050780 47.937145 0.638389 0.810052 0.057479 -0.011280 958852.000000 0 0 1
-29.060717 -19.660219 32.734080 47.985096 0.594795 0.820068 0.044997 -0.012972 745720.000000 0 0 1
-29.978917 -20.176519 31.783280 48.124882 0.592391 0.849401 0.055053 -0.022401 -623484.000000 0 0 1
-31.198017 -19.550619 31.932780 48.736489 0.559794 0.856332 0.067763 -0.028963 -584876.000000 0 0 1
-32.326117 -20.116119 31.026680 49.115078 0.556646 0.887034 0.068260 -0.019595 -49264.300000 0 0 1
-32.452517 -19.557019 29.729780 48.161215 0.542355 0.905494 0.057411 -0.031847 933335.000000 0 0 1
-33.704317 -19.936819 29.122580 48.801459 0.534162 0.931344 0.066543 -0.035187 588749.000000 0 0 1
-34.121517 -19.088319 27.898780 48.031071 0.510048 0.951026 0.068084 -0.027866 -208158.000000 0 0 1
-35.489717 -19.329819 27.685880 48.986425 0.498734 0.970152 0.063449 -0.027938 174354.000000 0 0 1
-36.067517 -18.464319 26.679080 48.513608 0.473152 0.988516 0.055578 -0.016212 -89599.900000 0 0 1
36.525861 -19.153819 25.976880 48.742236 -0.482969 1.008720 0.045623 -0.009332 -74069.500000 0 0 1
35.303261 -19.098019 26.680380 48.196444 -0.495884 0.984145 0.058239 -0.019489 224193.000000 0 0 1
34.399461 -20.125719 26.303880 47.752085 -0.529361 0.987423 0.079352 -0.012805 34120.300000 0 0 1
33.179761 -20.292519 27.221680 47.473179 -0.548900 0.960132 0.068932 -0.013884 317550.000000 0 0 1
32.215661 -19.238419 27.136280 46.307054 -0.538340 0.944674 0.054595 -0.016989 507957.000000 0 0 1
30.907861 -19.644519 27.451180 45.768660 -0.566174 0.927569 0.040992 -0.012848 -355700.000000 0 0 1
-29.798289 -5.871419 33.937839 45.543260 0.194547 0.729994 0.049987 -0.004480 -328695.000000 0 0 1
-30.822009 -5.669019 33.014704 45.520377 0.181895 0.759365 0.053996 0.002359 119261.000000 0 0 1
-30.663539 -4.402919 32.329679 44.775512 0.142613 0.764051 0.062941 -0.004417 -72904.600000 0 0 1
-31.526629 -4.352619 31.057317 44.468310 0.137194 0.797616 0.068927 -0.007607 184314.000000 0 0 1
-31.133989 -5.254119 29.976927 43.537882 0.167183 0.811343 0.054939 -0.008877 434523.000000 0 0 1
-29.886649 -5.005919 29.320837 42.166130 0.165956 0.801869 0.051434 -0.016008 297440.000000 0 0 1
-29.383549 -5.959319 28.238817 41.186614 0.200097 0.815326 0.041364 -0.025515 -299090.000000 0 0 1
-29.998059 -5.864119 26.954897 40.753379 0.193049 0.848092 0.066759 -0.025772 -165645.000000 0 0 1
-29.578079 -6.818719 26.024197 39.982703 0.226574 0.862045 0.082277 -0.023964 -11298.100000 0 0 1
-30.179429 -6.530819 24.620987 39.492310 0.213114 0.897665 0.079444 -0.026527 137486.000000 0 0 1
-29.735829 -5.323619 24.001307 38.582680 0.177154 0.899407 0.092965 -0.025215 181940.000000 0 0 1
-30.609459 -4.981219 22.933277 38.570542 0.161321 0.934053 0.097405 -0.024067 178160.000000 0 0 1
-30.254239 -3.691219 22.211077 37.713075 0.121407 0.941039 0.109883 -0.027461 -301636.000000 0 0 1
-28.966719 -3.705619 21.669877 36.364625 0.127236 0.932404 0.121418 -0.024687 -515945.000000 0 0 1
-28.748439 -2.533419 20.926977 35.648693 0.087897 0.943407 0.131794 -0.024707 1265800.000000 0 0 1
-27.272059 -2.430019 20.351077 34.115048 0.088868 0.931610 0.135038 -0.021583 1194870.000000 0 0 1
-27.125789 -3.225219 19.242877 33.414051 0.118343 0.957102 0.146257 -0.019337 179260.000000 0 0 1
-25.878249 -2.993619 18.586877 32.001836 0.115169 0.951077 0.125335 -0.013292 287114.000000 0 0 1
-25.500809 -3.817619 17.341977 31.074260 0.148602 0.978724 0.126933 -0.021942 425819.000000 0 0 1
-26.432689 -3.511219 16.275177 31.239352 0.132063 1.022794 0.150947 -0.018875 476433.000000 0 0 1
-26.442349 -4.322019 15.117977 30.764117 0.162018 1.057082 0.148823 -0.026695 -7902.520000 0 0 1
-27.803219 -4.348719 14.374177 31.599799 0.155154 1.098557 0.156644 -0.030763 319398.000000 0 0 1
-28.312859 -3.176919 13.803877 31.658456 0.111740 1.119619 0.155961 -0.031664 625274.000000 0 0 1
-29.663699 -3.262719 13.336077 32.686868 0.109550 1.150540 0.136244 -0.029918 409428.000000 0 0 1
-30.009599 -2.033119 12.522777 32.581123 0.067646 1.176285 0.126580 -0.016658 -307088.000000 0 0 1
-29.432429 -1.911719 11.214277 31.554438 0.064862 1.207460 0.146179 -0.024993 205468.000000 0 0 1
-29.663579 -0.672619 10.554977 31.492664 0.022671 1.229025 0.147752 -0.023868 49736.100000 0 0 1
-30.860599 -0.745019 9.570477 32.319122 0.024137 1.270164 0.142125 -0.015194 355127.000000 0 0 1
-30.607779 -1.524619 8.425477 31.782845 0.049770 1.302494 0.120122 -0.023177 -335828.000000 0 0 1
-31.852719 -1.805119 7.885577 32.863909 0.056610 1.328486 0.108504 -0.022495 -417712.000000 0 0 1
-31.588909 -2.467819 6.481577 32.341307 0.077965 1.369018 0.123936 -0.026849 -78028.200000 0 0 1
-31.221249 -1.644419 5.398577 31.727199 0.052621 1.399808 0.140302 -0.039296 378428.000000 0 0 1
-32.173549 -0.656219 5.075277 32.578004 0.020393 1.414371 0.128693 -0.033490 -132269.000000 0 0 1
-31.929899 -0.136119 3.610977 32.133723 0.004263 1.458185 0.138911 -0.031819 36976.600000 0 0 1
-32.278319 -1.055919 2.607377 32.400668 0.032701 1.490236 0.140441 -0.049044 397536.000000 0 0 1
-31.736289 -0.515019 1.428977 31.772618 0.016227 1.525806 0.138632 -0.051979 -206734.000000 0 0 1
-32.266849 -1.301619 0.239377 32.293979 0.040317 1.563384 0.132781 -0.053149 -161150.000000 0 0 1
-33.649439 -1.080819 0.134977 33.667063 0.032109 1.566787 0.116637 -0.045158 -312812.000000 0 0 1
-34.231651 -1.612519 -1.007823 34.284426 0.047071 1.600197 0.113545 -0.047034 428526.000000 0 0 1
-35.760602 -1.296319 -1.110823 35.801327 0.036234 1.601829 0.118648 -0.040692 546653.000000 0 0 1
-36.545319 -2.032219 -0.161523 36.602136 0.055551 1.575209 0.124575 -0.033688 388391.000000 0 0 1
35.880869 -1.541719 -0.219723 35.914647 -0.042941 1.576914 0.127023 -0.031688 185300.000000 0 0 1
34.822029 -2.574219 0.182077 34.917523 -0.073791 1.565582 0.147424 -0.028284 -491782.000000 0 0 1
34.934619 -2.783619 1.564777 35.080260 -0.079513 1.526176 0.133507 -0.031793 208444.000000 0 0 1
34.057819 -3.819219 1.989677 34.329000 -0.111673 1.512805 0.143245 -0.023695 29742.900000 0 0 1
34.237479 -4.216119 3.464877 34.669669 -0.122527 1.470689 0.130833 -0.026994 -135685.000000 0 0 1
33.637739 -3.404419 4.414677 34.096582 -0.100865 1.440956 0.134876 -0.032549 -75043.300000 0 0 1
33.728029 -3.934319 5.721877 34.435427 -0.116124 1.403860 0.133190 -0.041074 13858.400000 0 0 1
33.162549 -2.959719 6.768377 33.975366 -0.089013 1.370240 0.138325 -0.035843 -8012.620000 0 0 1
31.772589 -2.742819 6.655677 32.577883 -0.086113 1.365047 0.150680 -0.040695 -238637.000000 0 0 1
31.364159 -1.716619 7.475477 32.288388 -0.054677 1.337154 0.157690 -0.039971 102899.000000 0 0 1
29.861599 -1.591519 7.827877 30.911546 -0.053246 1.314774 0.156272 -0.041603 -1156870.000000 0 0 1
29.034339 -1.096819 6.795677 29.839186 -0.037759 1.341037 0.167996 -0.043248 823267.000000 0 0 1
27.664339 -0.921119 7.201777 28.601218 -0.033284 1.316257 0.147991 -0.034365 938737.000000 0 0 1
26.925439 -2.321819 7.327377 28.001081 -0.086019 1.306032 0.161316 -0.046711 -1513340.000000 0 0 1
27.457539 -3.311219 8.147777 28.831699 -0.120015 1.284295 0.141638 -0.052798 -4110.920000 0 0 1
26.814339 -4.594919 7.944477 28.341432 -0.169712 1.286676 0.152479 -0.061136 -1177.710000 0 0 1
26.999239 -5.697919 8.981777 29.018916 -0.207988 1.256114 0.142059 -0.053425 -790276.000000 0 0 1
26.155739 -5.521119 10.058177 28.561729 -0.208032 1.210923 0.149171 -0.049827 135.982000 0 0 1
26.555039 -6.265319 11.147277 29.473481 -0.231700 1.182930 0.146144 -0.043908 -173223.000000 0 0 1
25.518439 -6.205319 12.283777 28.992893 -0.238540 1.133290 0.140971 -0.037801 -491830.000000 0 0 1
24.385739 -6.978319 12.081677 28.094983 -0.278715 1.126271 0.158987 -0.047336 -718763.000000 0 0 1
23.467339 -6.677819 13.116577 27.701152 -0.277230 1.077533 0.154183 -0.044486 287682.000000 0 0 1
22.193539 -7.541319 13.127077 26.865308 -0.327557 1.060283 0.138684 -0.048886 136173.000000 0 0 1
22.633539 -8.814519 13.434077 27.756931 -0.371374 1.065588 0.129849 -0.048019 -333529.000000 0 0 1
21.595539 -9.723519 13.344877 27.184552 -0.423067 1.057675 0.173018 -0.071670 -734414.000000 0 0 1
21.839439 -10.958919 14.210777 28.266679 -0.465083 1.044031 0.157430 -0.061495 -170780.000000 0 0 1
21.712039 -10.677019 15.584777 28.780143 -0.457030 0.998562 0.117933 -0.053961 81077.700000 0 0 1
22.233039 -11.697519 16.370177 29.985374 -0.484334 0.993287 0.116254 -0.052047 -208917.000000 0 0 1
22.327239 -11.405319 17.868177 30.787313 -0.472270 0.951608 0.125277 -0.052089 5289.690000 0 0 1
21.057939 -11.582419 18.450877 30.298912 -0.502863 0.916045 0.111749 -0.052114 -232658.000000 0 0 1
21.004039 -12.109319 19.772377 31.285014 -0.522978 0.886655 0.130345 -0.037873 -8232.180000 0 0 1
21.343039 -11.172919 20.988077 31.950881 -0.482264 0.854115 0.102869 -0.036843 828119.000000 0 0 1
20.357039 -10.150519 21.358277 31.202853 -0.462547 0.816882 0.094695 -0.039028 598461.000000 0 0 1
20.377939 -8.993619 20.497377 30.270250 -0.415630 0.826919 0.097879 -0.030411 -465425.000000 0 0 1
21.261439 -7.749019 20.925377 30.821542 -0.349501 0.824505 0.097508 -0.015224 1501770.000000 0 0 1
22.689439 -7.856119 20.977477 31.883911 -0.333326 0.852726 0.118048 -0.030530 586448.000000 0 0 1
23.350639 -8.177619 19.808277 31.693747 -0.336862 0.895678 0.121168 -0.042023 -355092.000000 0 0 1
24.793539 -8.716219 20.085377 33.077400 -0.338057 0.918235 0.126584 -0.039419 431064.000000 0 0 1
24.847639 -10.029919 20.616277 33.808805 -0.383655 0.915001 0.108986 -0.040794 319520.000000 0 0 1
26.101339 -10.610019 20.261977 34.704468 -0.386091 0.947342 0.097352 -0.043683 526811.000000 0 0 1
26.051639 -12.145219 20.475577 35.290841 -0.436242 0.951828 0.067953 -0.040300 -99562.800000 0 0 1
25.132039 -12.718919 19.574377 34.300823 -0.468503 0.963477 0.094058 -0.048207 19142.700000 0 0 1
25.068039 -14.143219 19.717177 34.888455 -0.513675 0.970182 0.074725 -0.042388 -308255.000000 0 0 1
24.045239 -14.765419 18.773577 33.891567 -0.550700 0.983718 0.092215 -0.040941 -535752.000000 0 0 1
24.336239 -14.595619 17.401977 33.288337 -0.540234 1.020705 0.081131 -0.037393 852473.000000 0 0 1
23.294839 -15.098119 16.518777 32.302828 -0.575061 1.034015 0.065359 -0.026281 604272.000000 0 0 1
22.969039 -16.641119 16.535277 32.831676 -0.626982 1.042992 0.053513 -0.029806 487085.000000 0 0 1
24.023639 -17.467219 15.963877 33.720681 -0.628673 1.077633 0.076547 -0.031800 879818.000000 0 0 1
23.745639 -18.852919 16.156277 34.355686 -0.671043 1.081205 0.058143 -0.014619 -136338.000000 0 0 1
25.024039 -19.716619 16.244177 35.760605 -0.667324 1.099269 0.043809 -0.012032 -261232.000000 0 0 1
25.686839 -19.824319 15.023077 35.756260 -0.657289 1.137183 0.053073 -0.024125 -147985.000000 0 0 1
26.361239 -21.068819 14.895277 36.887387 -0.674274 1.155125 0.041980 -0.022738 -190786.000000 0 0 1
26.978839 -21.105119 13.513977 36.822702 -0.663845 1.195013 0.047183 -0.030096 242265.000000 0 0 1
26.000439 -21.147519 12.459077 35.755684 -0.682830 1.214879 0.048543 -0.023427 830926.000000 0 0 1
26.707839 -21.059719 11.235477 35.819776 -0.667703 1.251744 0.059768 -0.028063 -229227.000000 0 0 1
25.833239 -21.066219 9.972877 34.793679 -0.684103 1.280090 0.035932 -0.023327 -161416.000000 0 0 1
25.287539 -22.306419 9.537077 35.042714 -0.722843 1.295164 0.027118 -0.025045 1088600.000000 0 0 1
23.880139 -22.297819 9.893777 34.137085 -0.751146 1.276752 0.025958 -0.016108 768235.000000 0 0 1
23.044939 -23.233419 9.029477 33.946906 -0.789471 1.301567 0.032636 -0.019940 -556038.000000 0 0 1
23.443439 -24.597319 9.152977 35.190907 -0.809412 1.307676 0.030212 -0.019237 29762.400000 0 0 1
23.297339 -25.426919 8.007677 35.403631 -0.829077 1.342640 0.042757 -0.013390 -141440.000000 0 0 1
21.834639 -25.884879 7.803977 34.751697 -0.870071 1.344301 0.056610 -0.004183 -378926.000000 0 0 1
20.886439 -24.864119 7.684277 33.369385 -0.872123 1.338432 0.045518 -0.006430 -1108130.000000 0 0 1
19.672839 -25.570039 7.817277 33.195742 -0.915013 1.333073 0.065051 -0.018951 -77800.300000 0 0 1
18.427939 -24.647519 7.701677 31.723886 -0.928795 1.325574 0.063907 -0.033999 -117759.000000 0 0 1
18.199139 -24.195619 6.395977 30.944227 -0.925910 1.362602 0.062946 -0.023296 228327.000000 0 0 1
17.274939 -23.102019 6.520777 29.574437 -0.928726 1.348483 0.074096 -0.018799 114249.000000 0 0 1
16.936639 -22.444919 5.179477 28.591102 -0.924366 1.388634 0.070118 -0.006593 -816420.000000 0 0 1
16.238539 -21.260119 5.332377 27.278509 -0.918520 1.374050 0.105589 -0.011521 -192794.000000 0 0 1
15.929439 -20.796019 4.022377 26.502848 -0.917143 1.418436 0.100593 -0.006737 -190362.000000 0 0 1
14.974439 -19.617119 3.999277 25.001188 -0.918815 1.410143 0.108915 0.002105 -141316.000000 0 0 1
15.627239 -18.441819 4.410177 24.571547 -0.867825 1.390335 0.077637 -0.002014 -130829.000000 0 1 0
14.844439 -17.317019 4.188477 23.190081 -0.862127 1.389185 0.054106 0.011685 87297.900000 0 1 0
15.656739 -15.982619 4.363177 22.795063 -0.795698 1.378199 0.041151 0.002008 -28.872300 0 1 0
16.002439 -15.619319 5.700177 23.076681 -0.773283 1.321203 0.056261 -0.012695 70139.900000 0 1 0
16.930039 -14.564119 5.760977 23.063578 -0.710417 1.318336 0.057695 -0.018331 879862.000000 0 1 0
18.445739 -14.983419 5.691877 24.436562 -0.682194 1.335712 0.078975 -0.027680 478968.000000 0 1 0
19.221239 -13.889419 5.265277 24.291874 -0.625738 1.352312 0.101762 -0.039322 689.388000 0 1 0
20.584639 -14.224619 5.124877 25.540781 -0.604681 1.368770 0.125067 -0.038052 245912.000000 0 0 1
21.592739 -13.046119 5.055177 25.729407 -0.543495 1.373035 0.121568 -0.043283 225693.000000 0 0 1
21.843139 -12.451519 6.338477 25.929507 -0.518101 1.323844 0.140347 -0.054351 794707.000000 0 0 1
23.024439 -11.632719 6.344677 26.565012 -0.467826 1.329630 0.146583 -0.052299 639662.000000 0 0 1
23.171439 -10.852519 7.692377 26.718260 -0.438015 1.278756 0.159189 -0.059404 -100315.000000 0 0 1
23.616439 -11.570519 8.818877 27.737802 -0.455563 1.247243 0.156191 -0.046027 267987.000000 0 0 1
23.636839 -10.803519 10.026577 27.855850 -0.428712 1.202587 0.180571 -0.059322 -101992.000000 0 0 1
24.170939 -11.642319 11.183377 29.066231 -0.448873 1.175854 0.144407 -0.048165 27071.100000 0 0 1
23.180639 -12.557419 11.608577 28.806073 -0.496464 1.156014 0.141930 -0.050768 613914.000000 0 0 1
23.806139 -13.569019 12.447877 30.096514 -0.518053 1.144393 0.130907 -0.045813 10137.800000 0 0 1
22.897539 -14.776619 12.694277 30.063107 -0.573090 1.134866 0.099872 -0.047221 -744396.000000 0 0 1
21.773539 -14.381219 13.378577 29.323928 -0.583715 1.097038 0.098673 -0.052357 -1494710.000000 0 0 1
20.784639 -15.330119 13.485477 29.135405 -0.635498 1.089583 0.075263 -0.050827 -127873.000000 0 0 1
19.484839 -14.696719 14.078077 28.175250 -0.646225 1.047589 0.071262 -0.044963 -478156.000000 0 0 1
19.566139 -14.341619 15.413177 28.741639 -0.632520 1.004789 0.079156 -0.047151 -232361.000000 0 0 1
18.977839 -13.159919 15.745677 27.951175 -0.606307 0.972388 0.087839 -0.058145 867634.000000 0 0 1
17.388839 -13.077519 15.739077 26.853524 -0.644821 0.944549 0.086217 -0.055248 1192580.000000 0 0 1
16.735339 -13.123119 14.433977 25.702675 -0.665005 0.974508 0.091937 -0.061989 977667.000000 0 0 1
15.308039 -13.202619 14.608177 24.940810 -0.711685 0.945036 0.113035 -0.050242 797831.000000 0 1 0
14.629539 -11.865019 14.313277 23.657387 -0.681431 0.921001 0.087524 -0.044126 -536780.000000 0 1 0
14.767739 -10.909919 15.313977 23.908792 -0.636273 0.875626 0.068490 -0.033316 -117486.000000 0 1 0
14.257039 -9.644919 15.015577 22.841960 -0.594781 0.853475 0.046577 -0.028377 -643349.000000 0 1 0
14.919839 -8.501419 15.796577 23.332543 -0.517922 0.827092 0.051724 -0.028233 -409846.000000 0 1 0
16.320239 -8.531919 15.841977 24.292222 -0.481706 0.860390 0.054740 -0.039481 -292002.000000 0 1 0
16.818139 -9.197619 17.023577 25.636851 -0.500450 0.844604 0.076801 -0.035228 -563787.000000 0 0 1
18.355439 -9.330719 16.998977 26.701117 -0.470294 0.880664 0.093472 -0.041814 -137027.000000 0 0 1
18.908639 -8.086719 17.233777 26.831599 -0.404133 0.873309 0.078376 -0.039980 -382610.000000 0 0 1
20.237239 -8.097019 16.769277 27.501203 -0.380597 0.915032 0.073913 -0.028255 55431.900000 0 0 1
21.009539 -6.711419 16.807577 27.729740 -0.309201 0.919622 0.066698 -0.005736 518643.000000 0 0 1
21.566139 -6.337119 18.111277 28.866516 -0.285801 0.892568 0.100031 -0.016559 637318.000000 0 0 1
22.204839 -5.019819 18.145177 29.111868 -0.222331 0.897852 0.106964 -0.016226 428795.000000 0 0 1
-5.847239 -33.330470 -6.302220 34.421336 1.397131 1.754926 0.051841 -0.032037 -229661.000000 0 0 1
-6.264439 -32.010870 -6.491820 33.257822 1.377541 1.767254 0.049626 -0.032466 -72844.800000 0 0 1
-5.977539 -31.151770 -5.433420 32.182073 1.381216 1.740443 0.070835 -0.040468 -1005270.000000 0 0 1
-6.619539 -29.782070 -5.600920 31.018709 1.352086 1.752358 0.081879 -0.044008 1105700.000000 0 0 1
-8.021439 -29.688570 -5.278620 31.202860 1.306911 1.740785 0.075104 -0.043609 1115380.000000 0 0 1
-8.908139 -30.298070 -6.207920 32.184876 1.284838 1.764896 0.067353 -0.035976 -333752.000000 0 0 1
-10.397239 -30.012370 -5.913020 32.308029 1.237304 1.754854 0.067869 -0.029244 710655.000000 0 0 1
-11.363439 -30.449970 -6.878820 33.221177 1.213619 1.779367 0.055621 -0.033830 537865.000000 0 0 1
-12.684839 -30.367870 -6.362820 33.520115 1.175120 1.761776 0.058704 -0.028101 154806.000000 0 0 1
-13.797139 -30.910570 -7.233220 34.614215 1.150976 1.781315 0.074803 -0.035027 -282305.000000 0 0 1
-13.895839 -30.145270 -8.441920 34.250513 1.138863 1.819838 0.090926 -0.043648 -797100.000000 0 0 1
-14.996039 -30.468070 -9.192420 35.180748 1.113417 1.835156 0.102317 -0.042294 -741608.000000 0 0 1
-15.156239 -29.567170 -10.466120 34.834879 1.097117 1.875960 0.124090 -0.037391 -235488.000000 0 0 1
-15.532539 -28.169770 -10.350220 33.792348 1.066886 1.882088 0.127390 -0.036981 306108.000000 0 0 1
-14.532439 -27.390470 -9.729120 32.497468 1.082996 1.874840 0.119360 -0.037606 -141566.000000 0 0 1
-15.009839 -25.980370 -9.310320 31.415871 1.046907 1.871673 0.114389 -0.029867 -79307.500000 0 0 1
-15.240139 -25.132570 -10.456320 31.196835 1.025692 1.912585 0.123148 -0.033067 261673.000000 0 0 1
-15.844639 -23.911770 -10.077820 30.403746 0.985594 1.908654 0.106144 -0.024373 -415297.000000 0 0 1
-16.574039 -23.093170 -11.126520 30.525280 0.948288 1.943894 0.116271 -0.023467 528272.000000 0 0 1
-17.833639 -23.735370 -11.443620 31.817651 0.926430 1.938703 0.117985 -0.033943 750629.000000 0 0 1
-18.533939 -22.899670 -12.414820 31.969197 0.890378 1.969623 0.129618 -0.029743 -81424.600000 0 0 1
-20.049239 -23.148770 -12.475320 33.067675 0.857027 1.957639 0.115296 -0.023214 -236728.000000 0 0 1
-20.323639 -24.460570 -13.009820 34.360227 0.877512 1.959112 0.131804 -0.017815 -4246.430000 0 0 1
-20.045539 -25.569870 -12.173920 34.696487 0.905918 1.929295 0.140473 -0.025098 -1360250.000000 0 0 1
-20.119839 -26.967070 -12.845520 36.014416 0.929803 1.935505 0.131024 -0.022127 67785.300000 0 0 1
-19.222839 -27.316770 -13.879620 36.171360 0.957591 1.964616 0.136682 -0.031299 1388240.000000 0 0 1
-17.814839 -27.165770 -13.552420 35.199654 0.990367 1.966021 0.148476 -0.033717 646186.000000 0 0 1
-16.910539 -28.387670 -13.757220 35.792279 1.033544 1.965314 0.131936 -0.032021 -311457.000000 0 0 1
-16.648239 -28.578770 -15.126520 36.369239 1.043315 1.999745 0.124642 -0.040173 -48939.300000 0 0 1
-15.755439 -29.676070 -15.287620 36.913606 1.082725 1.997801 0.132293 -0.040323 -238136.000000 0 0 1
-16.360739 -31.069870 -15.323520 38.312150 1.086112 1.982275 0.119682 -0.046682 -460063.000000 0 0 1
-16.877739 -31.420570 -14.079220 38.344944 1.077868 1.946764 0.126821 -0.048378 78111.300000 0 0 1
-17.002839 -32.824470 -13.833320 39.470281 1.092858 1.928874 0.085118 -0.033199 -804414.000000 0 0 1
-17.474239 -33.110270 -12.391120 39.435756 1.085189 1.890421 0.100072 -0.031343 907084.000000 0 0 1
-18.862939 -32.951870 -12.035320 39.830706 1.050889 1.877756 0.107402 -0.022032 1397380.000000 0 0 1
-19.540939 -31.671670 -12.162020 39.151727 1.017982 1.886661 0.113389 -0.026978 220052.000000 0 0 1
-18.985939 -30.507770 -11.250520 37.653208 1.014118 1.874224 0.127047 -0.031875 -178209.000000 0 0 1
-19.209539 -30.749770 -9.895320 37.582870 1.012409 1.837231 0.116668 -0.029257 185730.000000 0 0 1
-18.709839 -29.658070 -9.179520 36.248073 1.008000 1.826826 0.117510 -0.029864 -210634.000000 0 0 1
-18.827839 -29.979770 -7.664920 36.221887 1.010030 1.784018 0.121786 -0.027417 -18395.700000 0 0 1
-17.893439 -30.876670 -7.133520 36.392733 1.045577 1.768089 0.109537 -0.030203 -1669.270000 0 0 1
-18.222139 -31.061570 -5.791520 36.474775 1.040254 1.730253 0.120111 -0.037792 103302.000000 0 0 1
-17.381439 -32.237270 -5.209620 36.993190 1.076304 1.712092 0.114510 -0.036131 -607183.000000 0 0 1
-16.080639 -31.954770 -4.858520 36.101239 1.104567 1.705786 0.106999 -0.033523 -797041.000000 0 0 1
-15.942639 -31.686170 -3.465620 35.639748 1.104638 1.668191 0.093531 -0.033699 49616.700000 0 0 1
-14.608339 -30.999870 -3.071120 34.406791 1.130421 1.660174 0.096789 -0.029598 -1114470.000000 0 0 1
-13.497739 -31.728470 -3.291920 34.636996 1.168575 1.665981 0.060429 -0.029156 -1518550.000000 0 0 1
-12.413139 -31.035870 -2.689420 33.534225 1.190324 1.651082 0.063224 -0.018858 -223200.000000 0 0 1
-11.079739 -31.760770 -2.823920 33.756209 1.235147 1.654551 0.067181 -0.028349 -730277.000000 0 0 1
-11.041339 -32.900270 -1.960020 34.758892 1.247007 1.627215 0.078347 -0.018245 -185233.000000 0 0 1
-9.784639 -33.473070 -1.708720 34.915688 1.286406 1.619754 0.074819 -0.021672 319518.000000 0 0 1
-8.698439 -32.751170 -0.852820 33.897334 1.311198 1.595958 0.084388 -0.022664 -160414.000000 0 0 1
-9.137139 -32.463770 0.438480 33.727969 1.296438 1.557795 0.096639 -0.020178 -185735.000000 0 0 1
-8.113339 -32.119270 1.359780 33.156037 1.323372 1.529773 0.099638 -0.016669 776221.000000 0 0 1
-7.107139 -33.208970 1.810780 34.009205 1.359964 1.517527 0.106633 -0.018609 204846.000000 0 0 1
-7.860339 33.949381 2.583980 34.943130 -1.343274 1.496781 0.123169 -0.024959 246768.000000 0 0 1
-7.106239 32.886381 3.147480 33.792296 -1.357984 1.477519 0.109540 -0.022800 19220.500000 0 0 1
-6.365639 33.252181 4.474180 34.150361 -1.381650 1.439404 0.116939 -0.026114 424691.000000 0 0 1
-5.373139 -33.857570 4.264380 34.545486 1.413411 1.447038 0.117699 -0.022348 61440.600000 0 0 1
-4.802639 -33.405270 5.450580 34.186053 1.428006 1.410674 0.113895 -0.023165 418224.000000 0 0 1
-3.465439 -32.592870 5.330380 33.207189 1.464869 1.409580 0.103775 -0.018827 591492.000000 0 0 1
-3.562639 -31.358170 4.667180 31.903131 1.457670 1.423977 0.101090 -0.017111 191458.000000 0 0 1
-3.120139 -31.442470 3.294280 31.768167 1.471887 1.466912 0.111803 -0.026575 -129298.000000 0 0 1
-3.565939 -30.245670 2.478080 30.555807 1.453439 1.489607 0.093871 -0.024042 -72839.900000 0 0 1
-3.099739 -29.037370 2.972480 29.353243 1.464449 1.469357 0.086431 -0.028647 118066.000000 0 0 1
-3.611539 -27.986270 2.158480 28.300769 1.442459 1.494453 0.090921 -0.032876 196669.000000 0 0 1
-2.810639 -26.752370 2.534080 27.018707 1.466119 1.476868 0.083023 -0.040267 69586.800000 0 0 1
-3.215839 -25.574470 1.820780 25.840092 1.445709 1.500275 0.082557 -0.044317 -297566.000000 0 0 1
-2.961539 -24.341570 2.458780 24.644032 1.449725 1.470858 0.061203 -0.037539 -21354.600000 0 1 0
-3.962039 -23.922970 3.578080 24.511403 1.406670 1.424297 0.047124 -0.026188 46447.200000 0 1 0
-4.090739 -24.689470 4.760980 25.474909 1.406600 1.382802 0.063875 -0.026916 -322754.000000 0 0 1
-5.206039 -24.256670 5.485680 25.408297 1.359381 1.353182 0.054371 -0.016362 -108970.000000 0 0 1
-5.690339 -25.297570 6.606980 26.758161 1.349543 1.321301 0.061678 -0.017456 -420903.000000 0 0 1
-4.706539 -25.608870 7.527480 27.104034 1.389039 1.289371 0.048477 -0.021824 -433290.000000 0 0 1
-5.187739 -26.641070 8.347480 28.396120 1.378476 1.272423 0.049367 -0.021826 -225355.000000 0 0 1
-4.284339 -26.900270 9.542980 28.862580 1.412855 1.233820 0.048833 -0.021410 -354171.000000 0 0 1
-4.173939 -25.924870 10.542380 28.295979 1.411165 1.189014 0.050698 -0.028572 455939.000000 0 0 1
-5.382539 -25.577970 11.232280 28.449400 1.363386 1.164929 0.047053 -0.027998 607687.000000 0 0 1
-4.996739 -24.521170 12.294780 27.882195 1.369776 1.114134 0.033463 -0.023297 261031.000000 0 0 1
-4.258939 -25.073070 13.345780 28.721198 1.402541 1.087538 0.036274 -0.022191 -411876.000000 0 0 1
-3.792439 -24.076670 14.230580 28.223714 1.414565 1.042333 0.036473 -0.021482 -111722.000000 0 0 1
-2.812339 -24.813770 15.172180 29.220326 1.457940 1.024842 0.043623 -0.019886 -243546.000000 0 0 1
-3.385039 -25.333770 16.342780 30.337186 1.437965 1.001898 0.042781 -0.021001 -351219.000000 0 0 1
-2.447139 -26.140770 17.017580 31.287799 1.477454 0.995713 0.046989 -0.013145 -33672.700000 0 0 1
-2.763039 -26.467570 18.449780 32.381492 1.466780 0.964579 0.068993 -0.028519 -136016.000000 0 0 1
-2.643539 -25.396870 19.412880 32.075679 1.467081 0.920753 0.065094 -0.023388 -142279.000000 0 0 1
-3.514539 -25.493270 20.515580 32.911211 1.433798 0.897762 0.111297 -0.031937 -368577.000000 0 0 1
-3.321239 -24.370570 21.499280 32.667634 1.435350 0.852475 0.095406 -0.029837 -231072.000000 0 0 1
-2.277839 -24.706470 22.402780 33.428771 1.478860 0.836366 0.054642 -0.032905 19105.300000 0 0 1
-2.152639 -23.722570 23.418380 33.403812 1.480302 0.793901 0.054486 -0.027562 207998.000000 0 0 1
-1.300339 -22.510070 22.978680 32.193382 1.513093 0.775930 0.060902 -0.034190 -195713.000000 0 0 1
-2.045539 -21.673570 22.128280 31.041724 1.476696 0.777234 0.081884 -0.027502 -232604.000000 0 0 1
-1.304939 -20.542670 21.703780 29.912509 1.507358 0.758926 0.079015 -0.025035 -465416.000000 0 0 1
-2.130939 -19.529170 20.828380 28.631290 1.462111 0.756170 0.078348 -0.011318 -146697.000000 0 0 1
-2.978139 -18.692870 21.700080 28.795593 1.412805 0.717289 0.091101 -0.034557 1553950.000000 0 0 1
-4.240439 -19.356570 22.021480 29.624377 1.355133 0.732722 0.103753 -0.039116 393801.000000 0 0 1
-5.300739 -19.266170 20.899280 28.914755 1.302307 0.762966 0.085074 -0.048426 -804558.000000 0 0 1
-5.115339 -20.006970 19.712680 28.548823 1.320481 0.808630 0.095594 -0.052049 -362936.000000 0 0 1
-5.574939 -21.329370 19.945380 29.729449 1.315142 0.835379 0.081753 -0.035207 90204.800000 0 0 1
-5.669939 -22.131670 18.658380 29.497358 1.319999 0.885963 0.056334 -0.031835 -40652.200000 0 0 1
-6.077539 -23.457270 18.914680 30.739959 1.317281 0.908014 0.052121 -0.027976 -208783.000000 0 0 1
-5.918339 -24.189970 17.751480 30.582616 1.330849 0.951523 0.047045 -0.027406 -40367.200000 0 0 1
-6.572239 -25.624970 17.836880 31.905919 1.319730 0.977561 0.049800 -0.028287 359657.000000 0 0 1
-7.973639 -25.537370 18.010180 32.250624 1.268154 0.978287 0.060961 -0.026701 -416331.000000 0 0 1
-8.582239 -26.799270 17.881280 33.340604 1.260874 1.004724 0.069490 -0.029736 423609.000000 0 0 1
-10.126039 -26.716770 18.046680 33.793566 1.208511 1.007440 0.063449 -0.024117 -202158.000000 0 0 1
-10.706439 -25.983070 16.982780 32.835386 1.179942 1.027209 0.078624 -0.025972 -240950.000000 0 0 1
-12.114339 -26.003870 16.919780 33.305216 1.134826 1.037910 0.071428 -0.021654 329396.000000 0 0 1
-12.808839 -25.087070 17.981580 33.418029 1.098724 1.002638 0.071189 -0.016577 -686090.000000 0 0 1
-12.699139 -23.714970 17.688880 32.195720 1.079161 0.989130 0.069848 -0.018858 67079.200000 0 0 1
-13.122239 -22.874870 18.750180 32.357720 1.049975 0.952724 0.066786 -0.008621 -526432.000000 0 0 1
-12.001639 -22.122670 19.476580 31.824346 1.073726 0.912206 0.051999 -0.009430 392956.000000 0 0 1
-11.182539 -22.945670 20.355180 32.647914 1.117321 0.897616 0.060392 -0.014142 978668.000000 0 0 1
-9.878839 -23.156270 19.776180 32.014084 1.167558 0.904939 0.070059 -0.025389 910673.000000 0 0 1
-9.007239 -23.973970 20.811480 32.999989 1.211404 0.888404 0.067106 -0.023233 231283.000000 0 0 1
-8.768639 -23.366770 22.075280 33.319858 1.211797 0.846610 0.072130 -0.024696 137715.000000 0 0 1
-7.777939 -24.115770 22.754280 34.056188 1.258805 0.839091 0.069380 -0.025569 205257.000000 0 0 1
-7.503939 -23.612870 24.214780 34.644369 1.263099 0.796864 0.074557 -0.021404 128315.000000 0 0 1
-6.618539 -24.445770 24.936180 35.541719 1.306391 0.793152 0.087707 -0.024284 -166914.000000 0 0 1
-6.575439 -23.991070 26.275080 36.182698 1.303287 0.758050 0.083342 -0.019489 279138.000000 0 0 1
-5.417239 -24.630470 27.116880 37.031496 1.354303 0.749154 0.091131 -0.018335 1011850.000000 0 0 1
-4.156139 -24.117070 26.644980 36.178191 1.400141 0.742925 0.084607 -0.011846 433762.000000 0 0 1
-3.144939 -24.319870 27.641380 36.951219 1.442194 0.725677 0.064455 -0.006513 854877.000000 0 0 1
-1.843539 -23.522970 27.289480 36.075538 1.492584 0.712922 0.063957 -0.016142 -440830.000000 0 0 1
-1.986039 -22.121970 27.202680 35.118538 1.481260 0.684720 0.070497 -0.014881 -235.849000 0 0 1
-0.820039 -21.368670 26.845580 34.321679 1.532439 0.672646 0.079186 -0.019110 897933.000000 0 0 1
0.282361 -21.322070 27.968480 35.170247 -1.557554 0.651407 0.067121 -0.013975 101533.000000 0 0 1
0.834661 -22.588370 28.358680 36.264939 -1.533862 0.672950 0.068253 -0.012415 -301164.000000 0 0 1
1.693761 -22.284370 29.421980 36.947461 -1.494936 0.649611 0.051907 -0.018541 -345643.000000 0 0 1
2.454861 -23.512670 29.959480 38.163365 -1.466767 0.668048 0.068475 -0.030757 -768621.000000 0 0 1
3.412361 -23.980170 29.050780 37.823809 -1.429446 0.694997 0.062937 -0.034760 -301679.000000 0 0 1
3.982261 -25.171970 29.465980 38.958060 -1.413894 0.713079 0.064006 -0.025991 -641871.000000 0 0 1
5.186961 -25.050270 30.447180 39.767466 -1.366620 0.698776 0.059077 -0.026812 153795.000000 0 0 1
6.371261 -24.573770 29.812280 39.156547 -1.317111 0.705386 0.062743 -0.029909 100569.000000 0 0 1
7.144761 -25.535770 29.168880 39.420131 -1.297978 0.737802 0.062838 -0.029253 -632409.000000 0 0 1
8.361761 -24.993270 28.381380 38.730935 -1.247942 0.748393 0.065507 -0.028230 29138.100000 0 0 1
8.077361 -24.136670 27.309180 37.331138 -1.247860 0.750220 0.069266 -0.027022 491916.000000 0 0 1
9.259161 -23.906470 26.530180 36.893113 -1.201279 0.768277 0.046849 -0.018064 660624.000000 0 0 1
8.958461 -22.770570 25.530580 35.363306 -1.195973 0.764178 0.055923 -0.010100 193910.000000 0 0 1
8.143961 -23.069070 24.417080 34.564431 -1.231429 0.786366 0.056152 -0.011151 -34908.000000 0 0 1
7.717661 -21.883370 23.793680 33.235273 -1.231743 0.772860 0.050469 -0.007385 28004.500000 0 0 1
7.079561 -22.031170 22.421780 32.221559 -1.259876 0.801176 0.061455 -0.006888 -33213.800000 0 0 1
7.959261 -22.695770 21.529480 32.279503 -1.233504 0.840661 0.055795 -0.007064 381806.000000 0 0 1
7.457861 -22.549170 20.183680 31.168344 -1.251384 0.866405 0.072136 -0.010765 108501.000000 0 0 1
8.128961 -23.556470 19.265880 31.498594 -1.238508 0.912661 0.084176 -0.024159 281315.000000 0 0 1
9.529361 -23.433170 19.141080 31.722281 -1.184561 0.923044 0.071252 -0.026288 -241000.000000 0 0 1
10.070961 -24.204970 18.126480 31.872780 -1.176514 0.965855 0.081520 -0.033658 -232220.000000 0 0 1
11.336361 -23.702170 17.445080 31.537862 -1.124672 0.984659 0.086161 -0.037113 -137757.000000 0 0 1
11.108361 -22.601670 16.650280 30.190445 -1.113985 0.986625 0.098413 -0.030647 646976.000000 0 0 1
12.348861 -22.239470 16.014680 30.059247 -1.063918 1.008925 0.093203 -0.039123 865912.000000 0 0 1
-12.702039 22.247381 11.588080 28.117100 -1.052015 1.145999 0.018783 -0.005349 -1152.270000 0 0 1
-13.757039 21.371381 11.243080 27.792065 -0.998853 1.154317 0.001775 -0.012531 339166.000000 0 0 1
-13.192839 20.202481 10.684980 26.388634 -0.992294 1.153918 0.029338 -0.016591 109262.000000 0 0 1
-14.090839 19.522181 9.614380 25.924961 -0.945598 1.190868 0.038714 -0.021653 -954142.000000 0 0 1
-14.135039 20.294681 8.455880 26.137622 -0.962430 1.241356 0.042735 -0.024768 -137983.000000 0 0 1
-14.789339 19.667381 7.386180 25.692140 -0.926034 1.279193 0.042092 -0.025884 102226.000000 0 0 1
-16.325139 19.597181 7.542180 26.597822 -0.876234 1.283288 0.044923 -0.024774 -714701.000000 0 0 1
-16.842339 18.740881 8.526980 26.600646 -0.838703 1.244481 0.037019 -0.030547 -567724.000000 0 0 1
-18.214139 18.912581 8.725780 27.669113 -0.804208 1.249958 0.049781 -0.019609 -452191.000000 0 0 1
-18.788839 17.821281 9.735380 27.665794 -0.758976 1.211204 0.051466 -0.021331 -87997.800000 0 0 1
-18.807139 16.539581 9.189380 26.677911 -0.721334 1.219137 0.061785 -0.019968 152626.000000 0 0 1
-19.214339 15.658081 10.269980 26.829812 -0.683770 1.177990 0.066014 -0.025882 -768423.000000 0 0 1
-18.154239 15.112581 11.217480 26.149538 -0.694219 1.127439 0.049186 -0.019904 -335627.000000 0 0 1
-17.435339 14.050081 10.529780 24.744132 -0.678291 1.131231 0.039886 -0.005077 353539.000000 0 1 0
-16.615139 13.252681 11.353880 24.095788 -0.673292 1.080148 0.028913 -0.003322 -31964.100000 0 1 0
-17.374939 12.149781 12.103080 24.412911 -0.610236 1.052080 0.040906 -0.008652 117802.000000 0 1 0
-18.225839 11.411181 11.230680 24.259522 -0.559389 1.089488 0.033737 -0.004436 -231440.000000 0 1 0
-19.194339 10.707181 11.917180 25.001711 -0.508835 1.073951 0.052599 -0.002230 -419343.000000 0 0 1
-20.265939 10.017581 11.053580 25.164297 -0.459082 1.116025 0.059971 -0.002650 -212480.000000 0 0 1
-19.851039 8.826681 10.360480 24.068934 -0.418392 1.125805 0.064080 -0.005217 360646.000000 0 1 0
-18.990939 9.063681 9.271480 22.994921 -0.445293 1.155789 0.059090 -0.003141 -586848.000000 0 1 0
-19.779239 9.499381 8.022080 23.362583 -0.447740 1.220290 0.060020 -0.008979 -7551.280000 0 1 0
-20.360239 8.399581 7.380480 23.228512 -0.391277 1.247458 0.048726 -0.017798 613086.000000 0 1 0
-21.120739 8.798781 6.214280 23.709100 -0.394730 1.305593 0.059196 -0.021768 299708.000000 0 1 0
-21.400739 7.597281 5.250780 23.308389 -0.341123 1.343572 0.062140 -0.018708 -235706.000000 0 1 0
-22.274639 6.638781 5.759680 23.945915 -0.289660 1.327886 0.085202 -0.016183 164753.000000 0 1 0
-22.400139 5.602781 4.800880 23.584016 -0.245094 1.365799 0.112928 -0.010572 -114668.000000 0 1 0
-23.096439 4.327981 5.273080 24.082821 -0.185239 1.350052 0.109443 -0.018961 198164.000000 0 1 0
-24.469739 4.561081 5.577780 25.508493 -0.184282 1.350352 0.147639 -0.008338 790527.000000 0 0 1
-25.245419 3.354081 5.571880 26.069654 -0.132085 1.355404 0.167102 -0.022542 -74881.300000 0 0 1
-26.312279 3.379181 4.469980 26.902335 -0.127727 1.403866 0.161517 -0.021149 -760249.000000 0 0 1
-25.851819 3.282881 3.165780 26.251019 -0.126312 1.449906 0.158790 -0.022538 450106.000000 0 0 1
-26.913649 2.978281 2.285380 27.174209 -0.110212 1.486596 0.148981 -0.026977 3950.990000 0 0 1
-26.375459 2.847081 0.841980 26.542035 -0.107528 1.539069 0.152816 -0.034355 -41370.500000 0 0 1
-26.061579 4.123281 0.360280 26.388201 -0.156912 1.557143 0.152546 -0.043705 348274.000000 0 0 1
-25.885469 4.231581 -1.024620 26.249069 -0.162040 1.609841 0.151936 -0.038836 -587908.000000 0 0 1
-27.116199 4.791581 -1.714720 27.589631 -0.174900 1.632987 0.149392 -0.043786 -232120.000000 0 0 1
-28.209579 3.889081 -1.727420 28.528745 -0.137000 1.631384 0.138032 -0.040959 222604.000000 0 0 1
-29.429809 4.609681 -1.867820 29.847137 -0.155371 1.633417 0.119092 -0.023414 -318012.000000 0 0 1
-30.584459 3.635181 -2.034320 30.866845 -0.118302 1.636750 0.101324 -0.020153 -942004.000000 0 0 1
-30.606719 3.040781 -3.285020 30.932329 -0.099025 1.677197 0.109876 -0.028291 573111.000000 0 0 1
-31.518279 1.942281 -3.270520 31.746979 -0.061546 1.673998 0.121679 -0.034778 -244885.000000 0 0 1
-31.792489 1.398081 -4.681820 32.165765 -0.043947 1.716868 0.121953 -0.046712 -75723.200000 0 0 1
-30.647499 0.861381 -5.336320 31.120532 -0.028099 1.743121 0.142103 -0.045640 474145.000000 0 0 1
-30.887189 0.250881 -6.623620 31.590406 -0.008122 1.782036 0.144286 -0.049948 -206547.000000 0 0 1
-31.499019 1.054181 -7.800520 32.467639 -0.033455 1.813425 0.140046 -0.045963 80317.600000 0 0 1
-32.911879 1.198481 -7.683520 33.818111 -0.036399 1.799999 0.148570 -0.047118 434821.000000 0 0 1
-33.345809 1.902181 -8.842820 34.550785 -0.056982 1.829613 0.148713 -0.039706 -847888.000000 0 0 1
-34.829535 2.211981 -8.787020 35.988902 -0.063424 1.817449 0.162507 -0.035323 -627343.000000 0 0 1
-35.228601 3.151281 -7.758720 36.210256 -0.089215 1.786739 0.139825 -0.028280 -111516.000000 0 0 1
-36.615599 3.068081 -7.573820 37.516369 -0.083596 1.774074 0.143512 -0.017655 -537907.000000 0 0 1
36.833149 3.785381 -6.260320 37.552650 0.102411 1.738286 0.158597 -0.019964 -453400.000000 0 0 1
35.440879 3.688781 -6.141120 36.157659 0.103709 1.741467 0.168531 -0.027217 -23212.900000 0 0 1
34.916309 4.294481 -4.938320 35.524332 0.122379 1.710260 0.164819 -0.021904 -91988.500000 0 0 1
33.463079 3.903081 -4.663220 34.011135 0.116114 1.708338 0.163612 -0.027768 -270501.000000 0 0 1
33.271499 2.689781 -3.953920 33.613405 0.080668 1.688699 0.165230 -0.034319 -674706.000000 0 0 1
32.209909 1.947781 -4.415720 32.569474 0.060398 1.706794 0.190645 -0.038453 -608086.000000 0 0 1
32.214589 0.599381 -3.756120 32.438363 0.018604 1.686849 0.214583 -0.033709 25962.200000 0 0 1
33.329439 -0.191519 -4.112620 33.582760 -0.005746 1.693567 0.170479 -0.039250 -171354.000000 0 0 1
33.346519 -1.469419 -3.567320 33.568963 -0.044037 1.677266 0.181983 -0.032843 -26942.800000 0 0 1
34.557719 -2.354019 -3.898520 34.856503 -0.068013 1.682876 0.156465 -0.041454 -61364.600000 0 0 1
34.294149 -3.667219 -3.412920 34.658118 -0.106529 1.669430 0.144788 -0.039403 -180159.000000 0 0 1
35.366169 -4.546319 -3.548820 35.833351 -0.127849 1.669996 0.146718 -0.041200 -153797.000000 0 0 1
34.901859 -5.939619 -2.997520 35.530324 -0.168566 1.655262 0.150803 -0.033911 338154.000000 0 0 1
34.841389 -5.962919 -1.572620 35.382932 -0.169503 1.615257 0.172425 -0.023006 -97755.000000 0 0 1
34.888509 -7.309219 -1.070520 35.662007 -0.206515 1.600819 0.163210 -0.032634 -146674.000000 0 0 1
34.385219 -7.481519 0.330280 35.191270 -0.214240 1.561411 0.148136 -0.020558 133026.000000 0 0 1
32.971489 -7.309119 0.400380 33.774289 -0.218152 1.558941 0.132336 -0.027616 327868.000000 0 0 1
32.464499 -7.588919 1.703680 33.383198 -0.229637 1.519740 0.122127 -0.032737 -438093.000000 0 0 1
32.165729 -9.122719 1.984680 33.493239 -0.276359 1.511505 0.122985 -0.035013 320162.000000 0 0 1
30.958339 -9.769919 1.558680 32.500762 -0.305691 1.522820 0.111775 -0.040634 623581.000000 0 0 1
29.777599 -9.297819 2.185580 31.271898 -0.302650 1.500850 0.098539 -0.049906 -1207980.000000 0 0 1
28.717519 -10.449919 2.214580 30.639860 -0.348992 1.498456 0.112647 -0.045682 293165.000000 0 0 1
27.439339 -10.243919 2.839180 29.426453 -0.357305 1.474162 0.146105 -0.049756 1130190.000000 0 0 1
26.725939 -9.101819 2.353480 28.331216 -0.328242 1.487630 0.145934 -0.044001 -762210.000000 0 0 1
25.961039 -9.323819 0.969280 27.601606 -0.344800 1.535672 0.128118 -0.040646 -340627.000000 0 0 1
26.862339 -9.316119 -0.119920 28.432195 -0.333830 1.575014 0.116171 -0.042684 433194.000000 0 0 1
26.277139 -9.390219 -1.435020 27.941430 -0.343210 1.622177 0.101067 -0.028989 -369633.000000 0 0 1
25.609739 -10.671019 -1.884820 27.807947 -0.394801 1.638628 0.088413 -0.021335 -854413.000000 0 0 1
24.297639 -10.875919 -1.485420 26.662095 -0.420866 1.626538 0.102942 -0.020953 -555763.000000 0 0 1
23.891739 -12.151819 -1.904620 26.872094 -0.470520 1.641733 0.088932 -0.014730 -996985.000000 0 0 1
22.458739 -12.486519 -1.603120 25.746419 -0.507420 1.633102 0.111328 -0.016790 -1003940.000000 0 0 1
21.468539 -11.833819 -2.366020 24.627941 -0.503777 1.667015 0.092743 -0.016932 25958.900000 0 1 0
20.206639 -12.302819 -1.940420 23.736740 -0.546902 1.652635 0.114184 -0.017799 -158905.000000 0 1 0
19.036639 -11.757519 -2.774620 22.546206 -0.553279 1.694173 0.100304 -0.017076 -155678.000000 0 1 0
18.911339 -12.366219 -4.044920 22.954814 -0.579116 1.747934 0.083338 -0.023576 1004640.000000 0 1 0
17.688239 -11.965719 -4.692420 21.864835 -0.594765 1.787089 0.070466 -0.026609 504716.000000 0 1 0
17.739239 -12.357419 -6.221920 22.496637 -0.608451 1.851021 0.070163 -0.035454 -421774.000000 0 1 0
17.258039 -13.658719 -6.494720 22.947372 -0.669500 1.857745 0.074020 -0.028889 252830.000000 0 1 0
17.387239 -13.920019 -7.869820 23.622385 -0.675100 1.910440 0.068664 -0.031008 -405642.000000 0 1 0
16.713739 -15.211219 -8.354920 24.094293 -0.738369 1.924910 0.075038 -0.027787 -662156.000000 0 1 0
15.320939 -15.133119 -8.163520 23.030100 -0.779231 1.933145 0.088705 -0.027355 -257683.000000 0 1 0
14.578839 -16.154719 -8.730920 23.446673 -0.836629 1.952361 0.084771 -0.028264 -181328.000000 0 1 0
14.342939 -16.118319 -10.246720 23.885464 -0.843616 2.014175 0.086271 -0.030322 -600075.000000 0 1 0
13.508739 -15.074719 -10.764220 22.926003 -0.840130 2.059544 0.080347 -0.027476 415951.000000 0 1 0
13.873039 -13.728219 -10.465820 22.146300 -0.780151 2.063008 0.078765 -0.025514 -305362.000000 0 1 0
13.756539 -12.700219 -11.626520 22.038918 -0.745493 2.126504 0.078882 -0.016840 -28058.000000 0 1 0
14.845339 -12.769119 -12.517420 23.240488 -0.710353 2.139576 0.085013 -0.015808 -83571.900000 0 1 0
14.512239 -12.270519 -13.752620 23.458586 -0.701893 2.197220 0.095767 -0.020485 -573853.000000 0 1 0
15.650639 -11.853719 -14.697220 24.524711 -0.648217 2.213400 0.098531 -0.026607 -112165.000000 0 1 0
16.507039 -12.918419 -15.011620 25.782099 -0.664041 2.192289 0.104400 -0.023261 148575.000000 0 0 1
17.496439 -12.686419 -15.998920 26.889330 -0.627364 2.208051 0.101431 -0.019532 -86016.800000 0 0 1
18.494039 -13.829019 -16.182820 28.198491 -0.642063 2.182044 0.091365 -0.020386 -646443.000000 0 0 1
19.475239 -13.790619 -15.202320 28.294463 -0.616148 2.138016 0.077687 -0.019189 -415409.000000 0 0 1
20.586339 -14.593219 -15.529420 29.629753 -0.616660 2.122473 0.076365 -0.018462 -109403.000000 0 0 1
21.624339 -14.677319 -14.384220 29.831887 -0.596315 2.073933 0.060306 -0.020882 -208407.000000 0 0 1
22.356539 -13.486119 -14.386620 29.810486 -0.542791 2.074420 0.053271 -0.016177 -55295.400000 0 0 1
23.338239 -13.391419 -13.367620 30.044912 -0.520930 2.031883 0.056202 -0.015458 475471.000000 0 0 1
24.147339 -12.051019 -13.353520 30.110422 -0.462897 2.030280 0.066877 -0.018587 -349226.000000 0 0 1
23.486439 -10.970619 -12.783920 28.903216 -0.436987 2.028959 0.062415 -0.013542 -127644.000000 0 0 1
24.055339 -9.699819 -13.048320 29.034539 -0.383287 2.036898 0.075713 -0.017844 859017.000000 0 0 1
25.290539 -9.281119 -12.148620 29.552318 -0.351721 1.994444 0.081797 -0.016812 864867.000000 0 0 1
26.473839 -10.054119 -12.151820 30.815843 -0.362951 1.976142 0.075477 -0.019322 820295.000000 0 0 1
27.449839 -9.423819 -11.282520 31.138357 -0.330703 1.941568 0.082492 -0.012989 385900.000000 0 0 1
28.828399 -10.110119 -11.299720 32.572607 -0.337298 1.925069 0.087400 -0.016970 83757.700000 0 0 1
29.560619 -9.867719 -12.481720 33.570752 -0.322182 1.951747 0.077977 -0.018515 -308155.000000 0 0 1
30.807549 -10.499019 -12.550620 34.883413 -0.328450 1.938837 0.077859 -0.019155 -438200.000000 0 0 1
31.572049 -10.050619 -13.807820 35.895196 -0.308196 1.965647 0.073199 -0.014799 -365117.000000 0 0 1
31.032229 -10.650619 -14.990920 36.071631 -0.330614 1.999385 0.067686 -0.015258 556118.000000 0 0 1
31.692349 -10.143019 -16.164020 36.994072 -0.309745 2.022985 0.055767 -0.018986 -284859.000000 0 0 1
31.180529 -10.779219 -17.465620 37.329142 -0.332842 2.057689 0.024406 -0.006160 -103160.000000 0 0 1
29.867629 -10.509519 -17.891620 36.368053 -0.338340 2.085136 0.029982 -0.010839 132113.000000 0 0 1
29.629219 -9.244319 -18.536020 36.151516 -0.302429 2.109160 0.011721 -0.001057 -673416.000000 0 0 1
28.197039 -8.986419 -18.996220 35.166534 -0.308524 2.141446 -0.008380 -0.007618 -519042.000000 0 0 1
27.909939 -9.609119 -20.237620 35.789120 -0.331579 2.171798 -0.014676 0.008072 463463.000000 0 0 1
26.542439 -9.309019 -20.491720 34.800424 -0.337318 2.200413 0.032070 0.004564 242616.000000 0 0 1
26.263139 -9.792719 -21.905820 35.574074 -0.356901 2.234172 0.056343 -0.009042 -176599.000000 0 0 1
26.158639 -11.210919 -22.108620 36.038177 -0.404894 2.231253 0.059324 -0.013140 270877.000000 0 0 1
25.409339 -11.545419 -23.271120 36.338358 -0.426488 2.265817 0.075333 -0.019141 -991005.000000 0 0 1
25.615139 -13.020119 -23.637120 37.207154 -0.470264 2.259173 0.078782 -0.011147 -107292.000000 0 0 1
26.807739 -13.352319 -24.289620 38.560666 -0.462108 2.252229 0.066522 -0.008180 63199.000000 0 0 1
27.942139 -13.219119 -23.434320 38.790148 -0.441888 2.219471 0.038360 -0.004834 -613745.000000 0 0 1
29.280119 -13.766019 -23.986020 40.276020 -0.439483 2.208735 0.030372 0.001555 178293.000000 0 0 1
29.597599 -13.225319 -25.238220 41.083995 -0.420221 2.232305 0.022610 -0.008720 183293.000000 0 0 1
30.979469 -13.442019 -25.471340 42.298990 -0.409386 2.217017 -0.009438 -0.004188 157738.000000 0 0 1
31.587819 -12.926819 -26.764650 43.373257 -0.388442 2.235819 0.007606 -0.011666 -137303.000000 0 0 1
31.232019 -13.750219 -27.885680 44.069476 -0.414725 2.255917 0.013766 -0.020994 302560.000000 0 0 1
32.021409 -13.220619 -28.920290 45.128024 -0.391550 2.266401 0.015323 -0.023545 -14429.200000 0 0 1
31.955569 -14.063619 -30.194120 46.158733 -0.414590 2.283837 0.027187 -0.026742 168169.000000 0 0 1
32.448929 -15.423719 -30.005050 46.809477 -0.443712 2.266602 0.025921 -0.025610 91669.400000 0 0 1
32.680169 -16.114819 -31.219530 47.982704 -0.458118 2.279225 0.017267 -0.019260 327411.000000 0 0 1
31.453749 -16.734719 -31.990300 47.882862 -0.488952 2.302442 0.015586 -0.014525 699810.000000 0 0 1
30.706689 -15.679119 -32.645400 47.481129 -0.472099 2.328899 0.011629 -0.020846 -47731.100000 0 0 1
29.611709 -16.274419 -33.279220 47.425905 -0.502532 2.348591 0.025515 -0.015083 -177069.000000 0 0 1
28.867319 -15.438219 33.667801 46.959360 -0.491098 0.771370 0.064089 -0.019203 301634.000000 0 0 1
28.101939 -14.311019 -33.887620 46.291414 -0.471023 2.392122 0.075101 -0.027996 681493.000000 0 0 1
28.906879 -13.176019 -33.559950 46.211312 -0.427674 2.383615 0.071302 -0.029582 371472.000000 0 0 1
28.038739 -11.913919 -33.174720 45.040808 -0.401794 2.398749 0.082616 -0.033318 582591.000000 0 0 1
27.222139 -11.333219 33.852084 44.893766 -0.394499 0.716592 0.112215 -0.033558 342793.000000 0 0 1
26.684539 -10.123119 -33.615460 44.096953 -0.362590 2.437668 0.083306 -0.034909 9235.720000 0 0 1
21.511861 -29.682170 9.238680 37.804029 -0.943658 1.323912 0.064382 -0.016110 389051.000000 0 0 1
22.130261 -29.034370 8.066180 37.387248 -0.919527 1.353340 0.081913 -0.020885 389772.000000 0 0 1
23.350261 -29.647070 7.708480 38.517582 -0.903657 1.369307 0.079179 -0.019380 188481.000000 0 0 1
23.737261 -29.431870 6.219680 38.319407 -0.892095 1.407764 0.065694 -0.014684 121434.000000 0 0 1
23.915161 -28.085670 5.792480 37.340228 -0.865428 1.415040 0.065075 -0.010956 -285855.000000 0 0 1
24.661661 -27.936070 4.653880 37.553696 -0.847572 1.446551 0.050121 -0.003367 -413256.000000 0 0 1
24.826261 -26.402870 4.345980 36.501264 -0.816164 1.451449 0.041263 -0.007274 256696.000000 0 0 1
25.812561 -25.748370 5.129980 36.818250 -0.784153 1.431009 0.035772 -0.009303 187168.000000 0 0 1
25.618161 -24.348170 5.034480 35.699713 -0.759987 1.429302 0.036069 -0.003691 157224.000000 0 0 1
26.578961 -23.627870 5.986580 36.063230 -0.726687 1.404022 0.035240 -0.003973 -202193.000000 0 0 1
27.888561 -23.344070 5.550880 36.790348 -0.696927 1.419339 0.017121 -0.005676 -5228.240000 0 0 1
28.611661 -22.526670 6.464480 36.984693 -0.666964 1.395106 0.031375 -0.014199 7839.960000 0 0 1
28.144061 -21.075370 6.613380 35.777034 -0.642758 1.384877 0.039374 -0.009597 -552400.000000 0 0 1
28.217361 -20.333670 5.385780 35.194946 -0.624424 1.417166 0.041787 -0.002402 199743.000000 0 0 1
27.830661 -18.974470 5.563880 34.139903 -0.598395 1.407093 0.059105 -0.004109 -132078.000000 0 0 1
27.589561 -18.159870 4.293880 33.307689 -0.582129 1.441521 0.059384 -0.000060 517986.000000 0 0 1
28.834261 -17.746770 3.732480 34.063086 -0.551721 1.461000 0.074242 -0.004393 641328.000000 0 0 1
28.595361 -16.996070 2.557180 33.363157 -0.536266 1.494074 0.068963 0.002525 684136.000000 0 0 1
29.827361 -16.070870 2.243980 33.955556 -0.494201 1.504662 0.083240 -0.020934 808420.000000 0 0 1
29.723861 -14.943670 3.109280 33.413901 -0.465845 1.477608 0.092556 -0.026595 -1205190.000000 0 0 1
30.956461 -14.500770 3.469580 34.360046 -0.438070 1.469647 0.088184 -0.028416 -1248300.000000 0 0 1
30.965261 -13.283070 4.451380 33.986793 -0.405226 1.439445 0.112363 -0.030012 44073.500000 0 0 1
30.493461 -13.663870 5.703680 33.898148 -0.421266 1.401733 0.097809 -0.024847 -54858.300000 0 0 1
30.276261 -12.631870 6.570780 33.457305 -0.395263 1.373118 0.091368 -0.031006 -144742.000000 0 0 1
29.948561 -12.973470 8.059280 33.618138 -0.408789 1.328708 0.107809 -0.025490 455982.000000 0 0 1
28.636661 -13.506270 8.327680 32.738783 -0.440705 1.313603 0.089027 -0.018524 738537.000000 0 0 1
28.142861 -13.031870 9.573780 32.457780 -0.433662 1.271382 0.104403 -0.010019 180297.000000 0 0 1
28.490261 -14.028570 10.710980 33.514487 -0.457548 1.245497 0.099190 -0.005529 -1373740.000000 0 0 1
29.762261 -13.918970 11.189980 34.709445 -0.437452 1.242543 0.083874 0.001195 -1549290.000000 0 0 1
30.044661 -15.176970 11.797180 35.667850 -0.467757 1.233697 0.084135 -0.011618 115823.000000 0 0 1
30.933661 -15.133170 13.052880 36.827732 -0.454981 1.208491 0.082799 -0.008306 -4053.140000 0 0 1
32.300861 -14.869870 12.883980 37.821364 -0.431432 1.223184 0.055555 -0.002230 -93971.300000 0 0 1
33.043461 -15.142270 14.068180 38.975278 -0.429696 1.201509 0.040755 -0.000978 339616.000000 0 0 1
34.561061 -14.906570 13.902980 40.124377 -0.407204 1.216962 0.050600 -0.003291 85129.500000 0 0 1
35.024561 -13.568570 13.696280 39.980171 -0.369599 1.221138 0.055447 -0.004445 2007940.000000 0 0 1
36.464861 -13.457770 13.426080 41.122467 -0.353554 1.238208 0.051281 -0.003159 1769190.000000 0 0 1
-36.688917 -12.058570 13.373780 40.869838 0.317548 1.237427 0.059762 -0.009548 -662978.000000 0 0 1
-35.556417 -12.058270 12.571280 39.594163 0.326959 1.247701 0.064369 -0.010178 -349107.000000 0 0 1
-34.925717 -10.769070 12.442480 38.608210 0.299092 1.242664 0.060505 -0.016366 -33172.600000 0 0 1
-33.727617 -10.803670 11.491480 37.233392 0.309994 1.257040 0.060650 -0.008999 41514.900000 0 0 1
-32.672717 -11.674970 11.894980 36.678357 0.343191 1.240519 0.047981 -0.009706 416123.000000 0 0 1
-32.728217 -12.994370 11.299580 36.982027 0.377951 1.260288 0.045395 -0.010950 -463697.000000 0 0 1
-31.751917 -14.041970 11.871880 36.691997 0.416382 1.241312 0.027004 -0.012301 409421.000000 0 0 1
-30.379517 -13.748170 11.651480 35.322573 0.424970 1.234642 0.039820 -0.006537 -171599.000000 0 0 1
-29.638017 -14.888670 11.868780 35.227155 0.465526 1.227151 0.047447 -0.001976 -820131.000000 0 0 1
-28.260117 -14.897070 11.225280 33.860948 0.485124 1.232892 0.051469 0.006351 -396178.000000 0 0 1
-28.316417 -14.965070 9.810980 33.496688 0.486182 1.273544 0.046934 0.009661 559482.000000 0 0 1
-26.961317 -15.063470 9.380880 32.277262 0.509503 1.275907 0.047608 0.013213 506744.000000 0 0 1
-26.677417 -14.821370 7.882380 31.519668 0.507115 1.318035 0.078559 0.012342 -153955.000000 0 0 1
-27.329617 -15.723470 7.051480 32.308804 0.522080 1.350773 0.084017 0.013706 5440.200000 0 0 1
-27.185617 -15.291370 5.728180 31.712707 0.512374 1.389172 0.097983 0.004227 -294510.000000 0 0 1
-27.461817 -16.278070 4.593080 32.252493 0.535074 1.427900 0.082008 -0.003549 -11197.200000 0 0 1
-28.829717 -16.463570 4.284280 33.474718 0.518870 1.442459 0.054653 -0.010271 78713.600000 0 0 1
-29.040817 -17.348970 3.229480 33.982132 0.538505 1.475618 0.061568 -0.013320 183326.000000 0 0 1
-30.475417 -17.938270 3.226780 35.509782 0.532006 1.479801 0.074253 -0.017441 293154.000000 0 0 1
-31.484917 -17.030970 2.810480 35.906165 0.495849 1.492443 0.082138 -0.015492 168204.000000 0 0 1
-32.749517 -17.525270 3.229580 37.283993 0.491356 1.484067 0.085810 -0.019158 966238.000000 0 0 1
-33.950817 -16.607670 2.751880 37.895191 0.454945 1.498114 0.095094 -0.030962 707806.000000 0 0 1
-34.084017 -16.578170 1.357880 37.926241 0.452702 1.534985 0.100940 -0.027613 450777.000000 0 0 1
-35.398917 -16.038770 1.153380 38.880017 0.425418 1.541127 0.124901 -0.035988 406842.000000 0 0 1
-35.960417 -16.692370 -0.076620 39.645840 0.434589 1.572729 0.111166 -0.032382 -484864.000000 0 0 1
-35.161917 -16.618770 -1.264520 38.911989 0.441517 1.603299 0.115485 -0.030480 96779.100000 0 0 1
-35.546817 -17.464770 -2.301220 39.672282 0.456677 1.628835 0.104646 -0.020318 387998.000000 0 0 1
-34.344717 -17.842270 -3.253320 38.839287 0.479130 1.654658 0.082067 -0.021663 446596.000000 0 0 1
-34.632517 -18.957770 -4.113420 39.695446 0.500843 1.674607 0.076423 -0.026016 228758.000000 0 0 1
-33.485417 -19.689470 -4.554920 39.111324 0.531550 1.687522 0.062554 -0.015681 25773.600000 0 0 1
-33.778917 -20.791670 -5.576120 40.054985 0.551755 1.710462 0.078776 -0.019898 4484.800000 0 0 1
-34.487717 -21.886570 -4.964920 41.146992 0.565487 1.691754 0.095260 -0.030322 270533.000000 0 0 1
-34.932517 -22.806270 -5.925520 42.136901 0.578388 1.711889 0.086768 -0.021739 -25294.100000 0 0 1
-35.445117 -24.113070 -5.354720 43.202656 0.597377 1.695060 0.095526 -0.026248 195064.000000 0 0 1
-34.425617 -25.001570 -4.969620 42.835718 0.628126 1.687074 0.101538 -0.025647 -63962.400000 0 0 1
-35.051317 -26.235870 -4.658420 44.029723 0.642540 1.676796 0.092851 -0.014136 73605.300000 0 0 1
-34.111917 -27.268570 -4.097220 43.863253 0.674366 1.664342 0.096553 -0.022051 -877406.000000 0 0 1
-33.061217 -27.642770 -4.989920 43.382785 0.696374 1.686072 0.089766 -0.022853 827063.000000 0 0 1
-32.148717 -28.642370 -4.492720 43.290991 0.727783 1.674763 0.092454 -0.018748 1045120.000000 0 0 1
-31.207517 -28.186570 -3.301720 42.181669 0.734579 1.649150 0.089300 -0.021791 -186869.000000 0 0 1
-31.949117 -27.980070 -2.113020 42.521703 0.719266 1.620510 0.077851 -0.024252 102607.000000 0 0 1
-31.076317 -27.905470 -0.998620 41.778582 0.731690 1.594701 0.066587 -0.030441 494862.000000 0 0 1
-31.800517 -27.886270 0.427380 42.297749 0.719912 1.560692 0.074634 -0.025797 320326.000000 0 0 1
-32.179217 -29.197170 0.806480 43.458338 0.736850 1.552238 0.072498 -0.015599 -172634.000000 0 0 1
-33.028117 -29.120070 1.941080 44.074967 0.722598 1.526742 0.075165 -0.010897 -269469.000000 0 0 1
-33.757817 -30.394470 2.240380 45.480032 0.733019 1.521516 0.047248 -0.007983 -333956.000000 0 0 1
-34.676317 -30.319670 3.352180 46.184049 0.718469 1.498149 0.043377 -0.007270 620693.000000 0 0 1
-35.128217 -31.534670 3.898880 47.366953 0.731544 1.488391 0.041327 0.000363 208929.000000 0 0 1
-35.989517 -32.475270 3.015980 48.569379 0.734114 1.508660 0.023317 0.003828 -587419.000000 0 0 1
-36.702517 -33.390670 3.740080 49.759419 0.738184 1.495562 0.046129 -0.003003 362434.000000 0 0 1
35.916561 -33.834670 2.982480 49.433586 -0.755560 1.510427 0.042724 -0.003575 53972.100000 0 0 1
34.859861 33.450881 3.771580 48.460253 0.764775 1.492889 0.046648 -0.002046 -357748.000000 0 0 1
34.078561 -33.959670 4.707980 48.340175 -0.783651 1.473249 0.044077 -0.002341 762986.000000 0 0 1
33.240961 -32.858170 4.259980 46.933658 -0.779607 1.479905 0.045186 0.001356 381607.000000 0 0 1
32.221761 -33.044070 3.073480 46.255796 -0.797997 1.504302 0.039220 0.006805 -313819.000000 0 0 1
32.813461 -33.422470 1.849180 46.874345 -0.794592 1.531336 0.044261 0.002899 128227.000000 0 0 1
31.822361 -33.262670 0.820280 46.040642 -0.807524 1.552979 0.042025 0.006210 -401845.000000 0 0 1
32.194861 34.004481 -0.442420 46.829579 0.812727 1.580244 0.052151 0.002666 719487.000000 0 0 1
33.354661 -33.756870 -1.192920 47.470862 -0.791391 1.595928 0.029616 0.017273 455077.000000 0 0 1
34.613361 -33.681770 -0.528120 48.299330 -0.771758 1.581731 0.025209 0.009863 -442430.000000 0 0 1
35.713261 -33.108770 -1.414620 48.719901 -0.747572 1.599836 0.016719 0.008962 -270271.000000 0 0 1
36.128261 33.994281 -2.301820 49.660454 0.754975 1.617164 0.026795 -0.004016 840030.000000 0 0 1
-36.544817 -33.685570 -3.152620 49.801408 0.744708 1.634143 0.025267 -0.006868 437509.000000 0 0 1
-35.779017 33.380481 -3.956620 49.092254 -0.750731 1.651479 0.035050 -0.011618 91433.800000 0 0 1
-34.759017 32.705981 -3.227320 47.836032 -0.754976 1.638314 0.054178 -0.014384 240939.000000 0 0 1
-34.103617 31.708181 -4.019120 46.739905 -0.749016 1.656892 0.070668 -0.025213 345978.000000 0 0 1
-32.836617 31.100481 -3.370620 45.352446 -0.758251 1.645185 0.078407 -0.029375 -87556.400000 0 0 1
-31.768517 32.016781 -3.198820 45.216649 -0.789290 1.641600 0.050090 -0.028596 442169.000000 0 0 1
-30.460517 31.441681 -3.246420 43.897171 -0.801247 1.644819 0.075676 -0.025236 791564.000000 0 0 1
-30.017017 30.996081 -1.812520 43.186381 -0.801444 1.612778 0.050001 -0.018352 -498341.000000 0 0 1
-30.878617 30.147381 -1.052420 43.167825 -0.773416 1.595178 0.042952 -0.014901 -368271.000000 0 0 1
-30.566117 30.069481 0.280880 42.878200 -0.777208 1.564246 0.042133 -0.011490 -611428.000000 0 0 1
-31.727217 29.472881 1.062980 43.317397 -0.748579 1.546255 0.046765 -0.016319 -397856.000000 0 0 1
-32.004317 28.113581 0.648980 42.603649 -0.720770 1.555563 0.052929 -0.026085 -75270.500000 0 0 1
-33.038417 28.031581 -0.315720 43.329045 -0.703596 1.578083 0.067468 -0.023052 -296973.000000 0 0 1
-33.320217 26.655481 -0.934020 42.680486 -0.674728 1.592682 0.099144 -0.025618 172755.000000 0 0 1
-33.779817 25.734581 0.084080 42.465889 -0.651031 1.568816 0.101932 -0.032648 63382.600000 0 0 1
-33.977017 24.448981 -0.482320 41.861951 -0.623742 1.582318 0.105320 -0.026900 -92925.000000 0 0 1
-33.869817 23.320181 0.576880 41.125759 -0.602982 1.556769 0.116888 -0.030458 -227967.000000 0 0 1
-32.573817 23.185681 1.096580 39.997897 -0.618594 1.543377 0.128809 -0.033839 -173648.000000 0 0 1
-32.390417 23.901681 2.287080 40.319476 -0.635728 1.514042 0.112122 -0.033183 -445213.000000 0 0 1
-30.867617 23.791181 2.641980 39.061619 -0.656649 1.503108 0.096452 -0.035948 507568.000000 0 0 1
-30.010517 24.496581 1.804280 38.781039 -0.684581 1.524255 0.096484 -0.034160 -305444.000000 0 0 1
-29.991017 25.869381 2.069180 39.660654 -0.711747 1.518601 0.068683 -0.034219 -393464.000000 0 0 1
-29.233417 26.720781 0.996980 39.618010 -0.740523 1.545629 0.038909 -0.026566 1579240.000000 0 0 1
-27.804217 26.444681 0.839780 38.380996 -0.760342 1.548914 0.027876 -0.021895 1209630.000000 0 0 1
-27.323817 27.166981 -0.222820 38.531616 -0.782520 1.576579 0.018054 -0.013564 233245.000000 0 0 1
-26.143317 26.435981 -0.948920 37.191861 -0.790964 1.596313 0.018734 -0.015359 58206.100000 0 0 1
-26.485417 25.316081 -1.776320 36.681556 -0.762829 1.619241 0.040186 -0.023758 -253888.000000 0 0 1
-25.361317 24.740981 -2.427820 35.513474 -0.773017 1.639213 0.032069 -0.011128 -218632.000000 0 0 1
-24.543917 23.821481 -1.581620 34.239864 -0.770462 1.617005 0.017863 -0.004862 -623218.000000 0 0 1
-25.154617 22.625281 -1.196320 33.853940 -0.732510 1.606141 0.037305 -0.003890 567062.000000 0 0 1
-24.130517 21.733481 -0.660920 32.481731 -0.733182 1.591145 0.034422 -0.012561 248059.000000 0 0 1
-24.632917 20.307481 -0.268620 31.925640 -0.689445 1.579210 0.048699 -0.007201 401514.000000 0 0 1
-25.606217 20.149081 0.819780 32.593494 -0.666691 1.545642 0.056199 -0.013928 1713880.000000 0 0 1
-26.877217 20.811481 0.687380 33.999632 -0.658883 1.550578 0.043927 -0.017261 200956.000000 0 0 1
-27.790217 20.305581 -0.411820 34.420667 -0.631017 1.582761 0.052051 -0.024720 -1185970.000000 0 0 1
-28.279517 19.011781 -0.296020 34.077360 -0.591879 1.579483 0.064494 -0.028226 221230.000000 0 0 1
-29.132117 18.573481 -1.342820 34.575390 -0.567580 1.609644 0.076541 -0.025273 -124024.000000 0 0 1
-29.505317 17.111881 -1.140420 34.127419 -0.525553 1.604219 0.068918 -0.020269 87231.500000 0 0 1
-30.344917 16.796181 -0.028020 34.683230 -0.505533 1.571604 0.070874 -0.025445 451278.000000 0 0 1
-30.655817 15.412481 0.123380 34.312372 -0.465852 1.567201 0.079177 -0.032337 -284763.000000 0 0 1
-29.521017 14.534681 0.671480 32.911977 -0.457509 1.550393 0.111171 -0.032848 -405273.000000 0 0 1
-29.286617 14.651681 2.065280 32.812239 -0.463876 1.507812 0.120408 -0.037536 545719.000000 0 0 1
-27.985817 14.233181 2.492780 31.496084 -0.470492 1.491568 0.139491 -0.035128 500017.000000 0 0 1
-27.635017 12.712481 2.469080 30.518808 -0.431150 1.489804 0.158488 -0.041967 -294052.000000 0 0 1
-27.562217 12.078181 1.187980 30.115935 -0.413011 1.531339 0.143745 -0.040807 266674.000000 0 0 1
-27.084317 10.762981 1.248180 29.171217 -0.378253 1.527995 0.175444 -0.040556 -69105.200000 0 0 1
-26.812017 10.281781 -0.167420 28.716324 -0.366181 1.576627 0.146579 -0.031167 -159736.000000 0 0 1
-28.020517 9.971181 -0.820120 29.753090 -0.341879 1.598364 0.135470 -0.033150 118688.000000 0 0 1
-27.797417 9.314181 -2.037120 29.387075 -0.323316 1.640172 0.133404 -0.040724 181963.000000 0 0 1
-29.160817 8.863181 -2.611920 30.589726 -0.295069 1.656286 0.128475 -0.046441 100460.000000 0 0 1
-29.030117 8.192281 -3.833520 30.406529 -0.275047 1.697208 0.128942 -0.038326 22473.300000 0 0 1
-30.280517 8.014081 -4.444720 31.636857 -0.258729 1.711754 0.114683 -0.036483 -238595.000000 0 0 1
-11.144839 17.598481 -19.366920 28.442777 -1.006262 2.319798 0.127756 -0.035904 20612.400000 0 0 1
-11.482939 16.767181 -20.520420 28.880510 -0.970313 2.361045 0.133928 -0.040127 -502140.000000 0 0 1
-10.674839 16.897781 -21.632120 29.452263 -1.007372 2.395698 0.117055 -0.033104 -593032.000000 0 0 1
-10.736439 15.639181 -22.510520 29.437707 -0.969182 2.441346 0.104731 -0.024240 -89121.400000 0 0 1
-9.955139 14.563081 -22.042920 28.232578 -0.971171 2.466681 0.128882 -0.032922 5774.140000 0 0 1
-9.986739 13.514581 -22.964420 28.455991 -0.934398 2.509877 0.105809 -0.033964 -111119.000000 0 0 1
-9.087039 12.339281 -22.540820 27.256572 -0.936036 2.544523 0.108113 -0.031922 -425886.000000 0 0 1
-7.725339 12.581981 -22.774720 27.141757 -1.020146 2.566428 0.078981 -0.025434 -488754.000000 0 0 1
-6.998939 11.517381 -22.207720 25.977260 -1.024745 2.596137 0.061939 -0.019347 894297.000000 0 0 1
-5.437839 11.568981 -22.405120 25.795364 -1.131406 2.623109 0.036955 -0.012464 1008590.000000 0 0 1
-5.026139 11.187981 -23.697420 26.683341 -1.148571 2.663987 0.027239 -0.017495 72353.300000 0 0 1
-3.628439 11.299681 -23.899320 26.683813 -1.260087 2.680684 0.026474 -0.016092 311612.000000 0 0 1
-3.116839 11.164781 -25.350930 27.875378 -1.298560 2.712727 0.058441 -0.031280 -279465.000000 0 0 1
-3.127839 9.855881 -25.901960 27.889663 -1.263492 2.761768 0.056975 -0.034583 31129.800000 0 0 1
-2.361439 9.631681 -27.062640 28.822425 -1.330365 2.790344 0.065493 -0.036792 -380366.000000 0 0 1
-2.371739 8.140481 -27.336170 28.620950 -1.287293 2.840829 0.072565 -0.015266 -245782.000000 0 0 1
-1.486239 7.307581 -26.615420 27.640373 -1.370150 2.868414 0.079380 -0.031645 19534.600000 0 0 1
-1.577739 7.268081 -25.195070 26.269865 -1.357035 2.854554 0.084679 -0.043177 -67990.100000 0 0 1
-0.691939 6.236381 -24.419720 25.212972 -1.460296 2.890084 0.004529 -0.032836 77724.200000 0 0 1
0.691361 6.505881 -24.418620 25.279903 1.464927 2.879810 0.035034 -0.010834 470778.000000 0 0 1
1.547361 5.785881 -23.498520 24.249767 1.309474 2.892030 0.027428 0.002359 627835.000000 0 1 0
1.573161 6.206481 -22.086720 22.996053 1.322554 2.859435 0.025409 -0.002843 -173869.000000 0 1 0
2.445061 7.318281 -21.963420 23.279334 1.248353 2.803753 0.019964 -0.013654 241223.000000 0 1 0
2.286361 8.000881 -20.764520 22.369775 1.292451 2.760449 0.025853 -0.011253 -295119.000000 0 1 0
3.027061 9.295381 -20.777920 22.962778 1.255975 2.701829 0.027442 -0.021068 -504775.000000 0 1 0
2.679361 10.160281 -19.697220 22.324667 1.312957 2.651539 0.030282 -0.023815 -111808.000000 0 1 0
3.240261 11.427381 -19.735720 23.034387 1.294497 2.599816 0.031287 -0.022987 -551601.000000 0 1 0
4.376761 11.598081 -18.729820 22.460581 1.209950 2.556928 0.026345 -0.027678 -88402.900000 0 1 0
5.546061 10.939681 -19.168720 22.756872 1.101590 2.572382 0.037390 -0.025703 -510449.000000 0 1 0
6.472661 10.666081 -18.148220 22.023136 1.025359 2.539324 0.037828 -0.024695 -3030.400000 0 1 0
7.622961 9.774681 -18.667420 22.408179 0.908452 2.555418 0.070081 -0.027728 -138142.000000 0 1 0
7.287861 8.412781 -18.793220 21.841999 0.856924 2.606883 0.058852 -0.025596 33911.600000 0 1 0
6.726761 8.196781 -20.045220 22.677023 0.883585 2.655027 0.045058 -0.019029 -210840.000000 0 1 0
6.417661 6.733081 -20.337420 22.363618 0.809379 2.712630 0.049937 -0.013932 -338441.000000 0 1 0
7.604561 5.998181 -20.467620 22.643564 0.667850 2.699608 0.052316 -0.010719 -56624.700000 0 1 0
7.508561 4.641181 -20.848620 22.640318 0.553636 2.741083 0.049902 -0.004361 -461331.000000 0 1 0
7.574661 4.425281 -22.407820 24.063853 0.528737 2.768437 0.061080 -0.014821 -1088720.000000 0 1 0
6.497961 4.957881 -23.060620 24.466227 0.651763 2.800977 0.060656 -0.020614 -809166.000000 0 1 0
6.485461 4.648681 -24.441920 25.711455 0.621902 2.826036 0.054373 -0.029288 103628.000000 0 0 1
5.318661 5.404481 -25.145240 26.263657 0.793401 2.848711 0.037763 -0.032601 175345.000000 0 0 1
5.535461 6.819181 -25.280340 26.762626 0.888932 2.807212 0.046520 -0.039873 127694.000000 0 0 1
5.411061 7.551181 -24.095220 25.824011 0.949026 2.773610 0.057831 -0.043556 -966023.000000 0 0 1
5.204761 9.058781 -24.341720 26.489062 1.049297 2.736167 0.063404 -0.046314 620981.000000 0 0 1
4.048861 9.414881 -25.090650 27.103025 1.164657 2.753813 0.071829 -0.043799 127282.000000 0 0 1
2.768661 9.202581 -24.579220 26.391117 1.278553 2.768884 0.061860 -0.030597 -213648.000000 0 0 1
1.598461 9.681781 -25.503540 27.326224 1.407172 2.774289 0.079971 -0.024958 309730.000000 0 0 1
1.504661 11.130181 -25.505180 27.868605 1.436423 2.726785 0.108279 -0.043587 514188.000000 0 0 1
0.558061 11.599181 -26.487000 28.920816 1.522721 2.728405 0.131541 -0.048915 39601.200000 0 0 1
0.407561 13.161381 -26.514790 29.604428 1.539840 2.680655 0.126168 -0.057118 99563.700000 0 0 1
-0.290439 13.796681 -25.417330 28.921850 -1.549748 2.644197 0.111008 -0.051747 276577.000000 0 0 1
-0.530339 15.151181 -25.772580 29.900927 -1.535807 2.609865 0.105538 -0.053449 -277224.000000 0 0 1
-1.061439 15.886581 -24.565220 29.273882 -1.504082 2.566518 0.112903 -0.042083 -1181100.000000 0 0 1
-2.251739 15.308081 -24.239920 28.757284 -1.424749 2.573473 0.092436 -0.031802 -1539770.000000 0 0 1
-2.685539 15.677781 -22.955020 27.927368 -1.401147 2.535630 0.084898 -0.038204 -90578.800000 0 0 1
-3.972839 14.941981 -22.437420 27.248561 -1.310924 2.538235 0.066322 -0.031754 1762400.000000 0 0 1
-5.269739 15.354381 -22.932420 28.096673 -1.240185 2.525594 0.070511 -0.032931 891596.000000 0 0 1
-5.392339 15.082581 -24.327820 29.127382 -1.227437 2.559332 0.064989 -0.035480 -1559820.000000 0 0 1
-6.825139 15.165281 -24.802020 29.861488 -1.147901 2.550925 0.050115 -0.031070 -711275.000000 0 0 1
-7.407839 16.404981 -25.048550 30.845248 -1.146646 2.518490 0.052223 -0.033588 -549575.000000 0 0 1
-8.745539 16.324481 -25.422680 31.452914 -1.078974 2.512017 0.064534 -0.025974 -757371.000000 0 0 1
-9.548839 17.580381 -25.707280 32.574750 -1.073225 2.480266 0.065757 -0.023359 -52475.000000 0 0 1
-9.997639 18.193581 -24.487420 32.102849 -1.068326 2.438398 0.068709 -0.030979 277764.000000 0 0 1
-11.076239 19.078581 -24.793020 33.186882 -1.044794 2.414444 0.073693 -0.022250 533534.000000 0 0 1
-11.317539 19.869581 -23.455720 32.757560 -1.053036 2.368909 0.067853 -0.033635 -144482.000000 0 0 1
-10.589839 21.065581 -23.303720 33.150667 -1.104985 2.350353 0.076682 -0.034006 -53692.700000 0 0 1
-11.192539 22.257281 -23.832620 34.476851 -1.104855 2.334034 0.075301 -0.036374 -168876.000000 0 0 1
-10.806039 22.775481 -25.286010 35.705396 -1.127789 2.357720 0.061071 -0.029835 -626315.000000 0 0 1
-11.286839 22.070081 -26.400370 36.214096 -1.098063 2.387668 0.065132 -0.033870 1839.350000 0 0 1
-11.027139 22.758181 -27.607680 37.439506 -1.119597 2.400001 0.051258 -0.023710 -158965.000000 0 0 1
-11.644839 22.209281 -28.913620 38.273383 -1.087880 2.427137 0.046647 -0.022663 -24652.200000 0 0 1
-11.045739 21.016881 -29.425600 37.809834 -1.086906 2.462675 0.039922 -0.020098 33714.300000 0 0 1
-11.083639 19.857081 -28.632300 36.564454 -1.061702 2.470373 0.052752 -0.018262 -517165.000000 0 0 1
-10.130539 18.854581 -29.228690 36.227605 -1.077757 2.509524 0.042342 -0.020796 -157024.000000 0 0 1
-8.780139 19.192381 -28.902000 35.787762 -1.141739 2.510858 0.037349 -0.021046 496084.000000 0 0 1
-7.799239 18.422381 -29.616380 35.739925 -1.170318 2.547513 0.039944 -0.021349 744018.000000 0 0 1
-7.395739 17.024281 -29.007330 34.437600 -1.160971 2.572362 0.048329 -0.028227 -1002840.000000 0 0 1
-8.505239 16.181681 -29.121100 34.383490 -1.086872 2.581019 0.038661 -0.024282 -312914.000000 0 0 1
-8.353339 14.854481 -28.712920 33.389604 -1.058525 2.605940 0.039841 -0.032616 -488121.000000 0 0 1
-9.653839 14.027481 -28.574650 33.263756 -0.968028 2.604173 0.042698 -0.016699 -340526.000000 0 0 1
-10.371939 14.589381 -27.500380 32.813078 -0.952776 2.564573 0.065277 -0.019044 245658.000000 0 0 1
-11.611039 13.862481 -27.383630 32.815359 -0.873553 2.557978 0.106792 -0.020493 721260.000000 0 0 1
-12.604739 14.409781 -26.351940 32.572166 -0.852116 2.513300 0.101758 -0.018962 281349.000000 0 0 1
-13.294439 15.594881 -26.711250 33.666501 -0.864860 2.487183 0.092203 -0.015760 -116612.000000 0 0 1
-14.284939 16.038781 -25.811320 33.578657 -0.843171 2.447575 0.081355 -0.021931 240514.000000 0 0 1
-15.158239 17.172181 -26.322330 34.892995 -0.847610 2.425495 0.063254 -0.017022 -168327.000000 0 0 1
-14.433339 18.373681 -26.368910 35.231135 -0.904932 2.416525 0.061843 -0.013367 18829.000000 0 0 1
-15.258039 19.436681 -26.823420 36.470374 -0.905261 2.397179 0.045891 -0.019095 -128553.000000 0 0 1
-14.778239 20.880281 -26.636210 36.930613 -0.954881 2.376402 0.043415 -0.020366 -127449.000000 0 0 1
-15.634139 21.867781 -27.160510 38.214126 -0.950114 2.361353 0.023816 -0.028206 27582.400000 0 0 1
-15.138839 23.184781 -26.947990 38.638228 -0.992340 2.342621 0.032203 -0.028261 82352.800000 0 0 1
-14.868539 23.770781 -25.551990 37.934518 -1.011840 2.309840 0.017361 -0.028938 251445.000000 0 0 1
-14.129939 24.978281 -25.587930 38.448821 -1.055988 2.298968 0.045732 -0.035242 -20825.000000 0 0 1
-14.053139 25.626181 -24.339320 38.034121 -1.069190 2.265208 0.055689 -0.037854 -207574.000000 0 0 1
-13.889139 27.157381 -24.518420 39.135463 -1.098045 2.247853 0.075527 -0.034477 -462433.000000 0 0 1
-15.005839 27.760881 -25.074420 40.305933 -1.075246 2.242222 0.081369 -0.043265 -793068.000000 0 0 1
-15.760539 28.387081 -24.067820 40.416345 -1.063969 2.208681 0.071201 -0.040662 81437.300000 0 0 1
-17.160339 28.842881 -24.556020 41.585901 -1.034091 2.202461 0.070721 -0.041404 386579.000000 0 0 1
-18.136439 27.838481 -24.631820 41.359860 -0.993376 2.208745 0.053300 -0.041918 -37814.100000 0 0 1
-19.354339 28.242381 -25.252050 42.542785 -0.970008 2.206282 0.046970 -0.031301 810811.000000 0 0 1
-20.532539 27.256581 -24.969620 42.284610 -0.925183 2.202491 0.030584 -0.028335 201474.000000 0 0 1
-20.813039 27.100081 -23.563820 41.507235 -0.915870 2.174510 0.039922 -0.034522 -157907.000000 0 0 1
-21.940339 26.279281 -23.388920 41.461074 -0.875139 2.170160 0.047715 -0.039108 -435787.000000 0 0 1
-22.563939 26.387281 -22.003620 41.104492 -0.863345 2.135670 0.033378 -0.029341 -623055.000000 0 0 1
-23.322739 27.545181 -21.926320 42.230921 -0.868216 2.116712 0.035072 -0.019591 -460512.000000 0 0 1
-23.763239 27.795181 -20.611120 41.977159 -0.863441 2.084043 0.027250 -0.013313 -47729.200000 0 0 1
-25.078939 28.620281 -20.641520 43.291408 -0.851251 2.067812 0.022514 -0.009909 144367.000000 0 0 1
-26.150249 27.824481 -21.074720 43.614001 -0.816407 2.075114 0.019520 -0.005043 -285224.000000 0 0 1
-27.414709 28.368381 -20.768420 44.583165 -0.802493 2.055375 0.033220 -0.005853 555726.000000 0 0 1
-28.655069 27.545081 -21.212820 45.053615 -0.765650 2.061033 0.038025 -0.008603 314105.000000 0 0 1
-28.715999 27.207881 -22.578120 45.548314 -0.758437 2.089432 0.032137 -0.002917 -312637.000000 0 0 1
-30.024699 26.848581 -22.932020 46.348747 -0.729611 2.088368 0.036148 -0.002933 -134427.000000 0 0 1
-30.092789 26.197281 -24.367920 46.751139 -0.716304 2.119083 0.027444 0.005110 158849.000000 0 0 1
-29.626319 24.865181 -24.543420 45.808028 -0.698246 2.136238 0.035923 0.002691 -38919.400000 0 0 1
-29.638509 24.563281 -25.912160 46.402974 -0.692035 2.163271 0.047484 -0.005063 -78123.400000 0 0 1
-29.770449 23.042681 -26.201130 45.866589 -0.658692 2.178820 0.050525 -0.013127 301641.000000 0 0 1
-28.525349 22.351981 -26.235140 44.739123 -0.664650 2.197407 0.051642 -0.008823 550551.000000 0 0 1
-28.866869 21.045281 -26.713070 44.607041 -0.629955 2.212865 0.074188 -0.023599 90476.600000 0 0 1
-27.706459 20.044781 -26.512840 43.270912 -0.626304 2.230291 0.077894 -0.023397 58719.200000 0 0 1
-27.571449 19.583881 -25.205080 42.178303 -0.617602 2.211281 0.075249 -0.013742 45237.000000 0 0 1
-26.916549 18.300381 -25.224570 41.178678 -0.597104 2.230097 0.064507 -0.021367 44536.900000 0 0 1
-27.773519 16.992481 -25.201750 41.173304 -0.549068 2.229497 0.063981 -0.017839 39297.800000 0 0 1
-28.618089 16.896981 -26.339720 42.406177 -0.533353 2.240979 0.067068 -0.021035 -69801.300000 0 0 1
-29.351919 15.721881 -26.351730 42.463235 -0.491747 2.240275 0.047472 -0.022201 -385365.000000 0 0 1
-30.192669 15.557081 -27.623410 43.779822 -0.475781 2.253589 0.039269 -0.026485 178898.000000 0 0 1
-31.370049 16.364281 -27.615770 44.883186 -0.480820 2.233539 0.036464 -0.028383 341928.000000 0 0 1
-32.146259 15.961381 -28.750270 45.986147 -0.460863 2.246177 0.043122 -0.023524 355810.000000 0 0 1
-33.508129 16.607981 -29.068890 47.366867 -0.460154 2.231531 0.049818 -0.022328 794322.000000 0 0 1
-34.632946 16.201881 -28.279390 47.556974 -0.437571 2.207617 0.042017 -0.016912 720886.000000 0 0 1
-35.883285 16.691481 -28.753690 48.918201 -0.435389 2.199122 0.047647 -0.014697 797825.000000 0 0 1
36.725299 16.290981 -27.781530 48.846259 0.417511 2.175787 0.041422 -0.011552 124698.000000 0 0 1
36.429629 17.283081 -26.802560 48.416939 0.442978 2.157451 0.044786 -0.010262 -125725.000000 0 0 1
35.363769 16.872681 -25.975980 47.011010 0.445175 2.156218 0.055590 -0.003563 -75523.100000 0 0 1
34.911069 18.028981 -25.118900 46.634601 0.476702 2.139609 0.064006 -0.001105 -121438.000000 0 0 1
34.406319 19.094281 -25.894960 47.105576 0.506647 2.152827 0.059424 -0.015287 149208.000000 0 0 1
33.808879 20.079081 -25.079840 46.639127 0.535922 2.138554 0.067219 -0.014603 -147920.000000 0 0 1
33.085929 21.285581 -25.784680 47.038328 0.571681 2.150963 0.067755 -0.023080 1161320.000000 0 0 1
31.720549 21.196981 -26.222920 46.294133 0.589092 2.172978 0.064275 -0.017683 1211460.000000 0 0 1
30.771339 21.401381 -25.145750 45.135387 0.607698 2.161708 0.073663 -0.010830 575888.000000 0 0 1
29.290689 21.158181 -25.534620 44.245111 0.625570 2.185991 0.038657 -0.011223 400217.000000 0 0 1
28.886359 19.801581 -25.692970 43.435619 0.600928 2.203737 0.043758 -0.014383 -212660.000000 0 0 1
27.590739 19.728081 -26.240020 42.883385 0.620739 2.229247 0.044527 -0.011031 -189124.000000 0 0 1
27.183939 18.233881 -26.455290 42.087092 0.590831 2.250528 0.071707 -0.007500 -254028.000000 0 0 1
27.966139 17.468681 -27.320990 42.821679 0.558338 2.262718 0.060229 -0.002201 163420.000000 0 0 1
29.062439 16.829581 -26.660570 42.879437 0.524898 2.241780 0.056396 0.001003 227774.000000 0 0 1
29.720479 15.616181 -27.431150 43.354815 0.483788 2.255848 0.039584 0.006752 85664.200000 0 0 1
28.963829 14.454681 -27.753380 42.639081 0.462895 2.279553 0.056868 0.010245 69914.800000 0 0 1
28.293439 13.775081 -26.739680 41.295060 0.453084 2.275131 0.079439 -0.001263 -35517.800000 0 0 1
29.318099 12.917781 -25.940750 41.223082 0.415016 2.251419 0.068220 -0.005756 571915.000000 0 0 1
30.078959 13.676081 -24.991620 41.428975 0.426733 2.218354 0.065007 -0.012088 -96960.300000 0 0 1
31.073959 12.946581 -24.346920 41.544884 0.394766 2.196958 0.054753 -0.012390 -405767.000000 0 0 1
-14.849939 -31.693670 -23.794720 42.322548 1.132627 2.167868 0.098462 -0.006260 482074.000000 0 0 1
-14.144639 -30.486170 -24.177420 41.400785 1.136387 2.194425 0.097789 -0.016178 620872.000000 0 0 1
-14.802739 -29.983970 -25.337570 41.954165 1.112211 2.219225 0.075967 -0.013467 191656.000000 0 0 1
-13.954939 -28.969470 -26.185090 41.468415 1.121886 2.254214 0.098748 -0.021201 51710.600000 0 0 1
-14.186839 -27.637670 -25.714310 40.327818 1.096553 2.262217 0.089375 -0.014009 90060.900000 0 0 1
-13.694939 -26.596470 -26.508830 39.970510 1.095288 2.295896 0.088488 -0.014120 -412748.000000 0 0 1
-14.093839 -25.162970 -26.082550 38.885869 1.060230 2.306011 0.060479 -0.011451 -156852.000000 0 0 1
-13.370739 -24.742970 -24.954020 37.599127 1.075365 2.296532 0.082316 -0.017385 240441.000000 0 0 1
-13.942639 -23.549070 -24.462720 36.706683 1.036230 2.300217 0.081852 -0.019854 208078.000000 0 0 1
-13.258039 -23.012670 -23.131720 35.219810 1.048121 2.287339 0.077698 -0.004190 772818.000000 0 0 1
-12.021939 -22.299270 -23.303720 34.421619 1.076346 2.314486 0.092105 -0.008375 389407.000000 0 0 1
-11.422639 -22.183270 -22.068520 33.310565 1.095283 2.294959 0.090995 -0.001504 -333295.000000 0 0 1
-9.961339 -21.707470 -22.066120 32.517014 1.140574 2.316654 0.090468 -0.000074 -188685.000000 0 0 1
-9.627239 -20.456370 -22.598220 31.966019 1.130925 2.355966 0.091119 -0.009937 566114.000000 0 0 1
-8.213439 -20.237670 -22.621320 31.444363 1.185258 2.373746 0.097369 -0.014856 674357.000000 0 0 1
-7.877139 -19.061670 -23.563120 31.314808 1.178924 2.422584 0.100985 -0.016251 -141137.000000 0 0 1
-8.137039 -17.806770 -22.916820 30.140888 1.142167 2.434607 0.094402 -0.013111 -222926.000000 0 0 1
-8.171839 -16.694170 -23.780820 30.182804 1.115582 2.478176 0.093528 -0.015472 -235509.000000 0 0 1
-6.896339 -16.275370 -24.519620 30.226792 1.170003 2.516978 0.093843 -0.021588 -394922.000000 0 0 1
-6.627639 -17.016770 -25.754450 31.571946 1.199394 2.524801 0.103020 -0.022560 -53944.900000 0 0 1
-5.621139 -16.442270 -26.542340 31.724458 1.241381 2.561939 0.086674 -0.023207 -316147.000000 0 0 1
-5.487939 -17.252370 -27.848250 33.215761 1.262820 2.565146 0.077185 -0.024775 -735226.000000 0 0 1
-6.497639 -17.070170 -28.793470 34.098005 1.207088 2.576302 0.094940 -0.025130 -209186.000000 0 0 1
-6.410839 -17.898270 -29.967270 35.489212 1.226851 2.576250 0.087902 -0.028528 -209593.000000 0 0 1
-7.194339 -17.306670 -31.160430 36.362780 1.176831 2.600084 0.094410 -0.024842 18460.000000 0 0 1
-6.727139 -16.090470 -31.772200 36.244038 1.174800 2.639586 0.093098 -0.029221 -28477.100000 0 0 1
-6.818939 -14.904770 -31.008580 35.073952 1.141723 2.655342 0.083854 -0.028294 -44800.000000 0 0 1
-7.518539 -13.790270 -31.865060 35.525794 1.071641 2.683631 0.089286 -0.027459 108596.000000 0 0 1
-6.821539 -13.508770 -33.062150 36.361051 1.103180 2.712332 0.101309 -0.032509 -397489.000000 0 0 1
-7.555539 -12.846070 34.016019 37.137544 1.039129 0.412935 0.111869 -0.033606 -269162.000000 0 0 1
-7.975239 -11.321170 -33.788130 36.515902 0.957088 2.752620 0.093086 -0.033106 112691.000000 0 0 1
-6.863639 -10.459170 -33.681480 35.929735 0.990053 2.785960 0.087072 -0.032701 -12077.300000 0 0 1
-6.424639 -9.918170 33.080944 35.128264 0.995994 0.343093 0.066837 -0.033516 -267215.000000 0 0 1
-5.115339 -9.125970 33.101194 34.715113 1.059908 0.306121 0.078909 -0.032867 -130621.000000 0 0 1
-4.756939 -8.770870 31.772497 33.302375 1.073840 0.304286 0.064233 -0.028699 15719.900000 0 0 1
-3.609639 -7.931770 31.774547 32.947903 1.143721 0.267678 0.063314 -0.037719 -501003.000000 0 0 1
-3.618739 -6.916270 30.546377 31.527943 1.088745 0.250184 0.053880 -0.030078 482663.000000 0 0 1
-4.727939 -6.003270 30.565547 31.506274 0.903687 0.244982 0.059021 -0.028122 -143312.000000 0 0 1
-5.924739 -6.581670 30.140347 31.414350 0.837877 0.285769 0.053247 -0.022371 -1053670.000000 0 0 1
-7.109739 -5.603570 30.253167 31.578513 0.667476 0.290747 0.042486 -0.018157 -476311.000000 0 0 1
-8.279839 -6.254870 29.911297 31.660145 0.646970 0.333929 0.048561 -0.014033 -1095080.000000 0 0 1
-9.452239 -5.475470 29.868907 31.803729 0.525043 0.350609 0.040185 -0.016150 20435.600000 0 0 1
-10.600639 -6.116370 29.114657 31.582381 0.523322 0.397933 0.051843 -0.015625 -306325.000000 0 0 1
-10.346739 -6.092670 27.712867 30.202295 0.532180 0.408859 0.040051 -0.008096 269477.000000 0 0 1
-11.393539 -6.747270 27.018787 30.089088 0.534666 0.455685 0.052588 -0.015012 154010.000000 0 0 1
-11.228839 -6.520270 25.554927 28.664526 0.526086 0.470112 0.046259 -0.016646 571168.000000 0 0 1
-10.170139 -7.336970 25.004527 27.973009 0.624959 0.464869 0.048329 -0.009403 615096.000000 0 0 1
-9.617439 -6.794870 23.803407 26.556874 0.615085 0.459401 0.041978 -0.011643 -229186.000000 0 0 1
-10.497039 -6.737370 22.527777 25.750353 0.570614 0.505664 0.043636 -0.010432 -444070.000000 0 0 1
-11.565039 -5.845770 22.503677 25.968031 0.468013 0.522465 0.039503 -0.012335 -327537.000000 0 0 1
-12.265439 -5.960070 21.262077 25.259440 0.452323 0.570284 0.045100 -0.012304 -382478.000000 0 0 1
-13.486839 -5.056270 21.223277 25.649331 0.358686 0.596263 0.046859 -0.005018 -428963.000000 0 0 1
-13.193439 -3.766870 20.820277 24.934716 0.278112 0.582679 0.037528 -0.006903 -34678.200000 0 1 0
-14.373539 -3.008770 20.894477 25.538803 0.206348 0.612617 0.039007 -0.007059 173177.000000 0 0 1
-14.134539 -1.596770 20.285177 24.775457 0.112492 0.611547 0.033072 -0.009130 -207524.000000 0 1 0
-13.221939 -0.847770 21.039977 24.864010 0.064031 0.561979 0.025559 -0.010154 -201705.000000 0 1 0
-13.277539 0.582230 20.870177 24.742601 -0.043823 0.567046 0.029194 -0.020677 -313691.000000 0 1 0
-12.639839 1.118230 19.535877 23.295202 -0.088239 0.576047 0.034886 -0.024216 192994.000000 0 1 0
-13.318739 0.830230 18.272677 22.626728 -0.062255 0.630775 0.039123 -0.020090 1038300.000000 0 1 0
-14.607639 1.491230 18.165377 23.357821 -0.101733 0.679798 0.031077 -0.019801 1060220.000000 0 1 0
-15.565039 0.694230 17.211677 23.216249 -0.044572 0.735697 0.039664 -0.012775 -103216.000000 0 1 0
-16.116639 -0.401770 17.923277 24.107080 0.024924 0.732528 0.032010 -0.004220 21259.100000 0 1 0
-16.984239 -1.131770 17.116577 24.139645 0.066538 0.782625 0.034809 -0.008710 -398449.000000 0 1 0
-16.960739 -2.655770 17.366277 24.419405 0.155322 0.779639 0.042510 -0.007052 144550.000000 0 1 0
-17.626239 -3.040770 18.580377 25.790715 0.170832 0.766376 0.049563 -0.000151 237326.000000 0 0 1
-17.663139 -4.454270 18.738777 26.133671 0.247028 0.771256 0.055821 -0.000691 -265667.000000 0 0 1
-18.335339 -4.905970 20.045877 27.605984 0.261445 0.758102 0.046004 0.010169 -107137.000000 0 0 1
-17.600039 -4.636670 21.248077 27.977506 0.257594 0.708298 0.045299 0.011623 626861.000000 0 0 1
-18.368039 -4.891470 22.445977 29.413147 0.260263 0.702658 0.047398 0.005112 -165079.000000 0 0 1
-18.412939 -6.349070 22.941577 30.094235 0.332049 0.703899 0.068203 -0.005722 386463.000000 0 0 1
-17.262139 -6.888770 23.588737 30.031069 0.379703 0.667329 0.036864 -0.009355 -201391.000000 0 0 1
-16.227539 -7.263470 22.746177 28.870046 0.420857 0.663435 0.057676 -0.000351 -466972.000000 0 0 1
-15.077939 -7.860470 23.612937 29.098144 0.480560 0.624094 0.073174 -0.004502 302436.000000 0 0 1
-15.613239 -9.059370 24.244517 30.226512 0.525761 0.640002 0.060079 -0.014349 678075.000000 0 0 1
-14.899039 -9.415570 25.434637 30.944387 0.563587 0.605976 0.075345 -0.008723 277013.000000 0 0 1
-15.742439 -10.286570 26.396487 32.410067 0.578782 0.619010 0.065988 -0.019219 -134610.000000 0 0 1
-15.851939 -11.637070 26.194897 32.754816 0.633254 0.643957 0.068396 -0.027479 214100.000000 0 0 1
-14.789639 -12.343370 26.836107 33.034358 0.695483 0.622592 0.076930 -0.024541 274896.000000 0 0 1
-15.011339 -13.852170 26.935837 33.804766 0.745259 0.648806 0.057734 -0.029361 42857.200000 0 0 1
-16.195539 -14.238370 27.607267 35.031241 0.721178 0.663120 0.056453 -0.030213 82694.400000 0 0 1
-16.493939 -15.627870 27.532837 35.697863 0.758443 0.689956 0.063149 -0.013678 -22831.500000 0 0 1
-15.498239 -16.603270 28.190397 36.201691 0.819808 0.678199 0.060419 -0.017980 578635.000000 0 0 1
-14.292339 -16.846170 27.455057 35.239815 0.867230 0.677580 0.075290 -0.020549 937605.000000 0 0 1
-13.282239 -17.523470 28.218397 35.773842 0.922215 0.661943 0.090765 -0.020969 804166.000000 0 0 1
-11.938839 -17.706670 27.441627 34.772186 0.977558 0.661318 0.084251 -0.027741 2525.580000 0 0 1
-10.966339 -18.365470 28.229317 35.418151 1.032499 0.648435 0.095418 -0.034409 -758389.000000 0 0 1
-9.956739 -18.677370 27.327387 34.565400 1.081028 0.659009 0.085212 -0.029591 232768.000000 0 0 1
-8.680239 -19.322970 28.017207 35.123889 1.148592 0.647378 0.107439 -0.035555 749148.000000 0 0 1
-8.924739 -20.630270 28.442197 36.252139 1.162503 0.668800 0.094612 -0.019186 221668.000000 0 0 1
-7.876739 -21.167270 29.258997 36.961943 1.214554 0.657377 0.104846 -0.018976 415317.000000 0 0 1
-8.215839 -22.534270 29.950087 38.370575 1.221181 0.675254 0.098502 -0.016670 135519.000000 0 0 1
-8.310339 -23.651570 29.071037 38.387285 1.232906 0.711614 0.096080 -0.021133 6886.200000 0 0 1
-8.516639 -24.734670 29.928737 39.750048 1.239191 0.718304 0.084532 -0.018699 -105694.000000 0 0 1
-8.735639 -26.069870 29.180227 40.092831 1.247470 0.755664 0.074302 -0.014510 196108.000000 0 0 1
-9.945939 -26.074970 28.431487 39.839367 1.206395 0.776097 0.071046 -0.014146 392751.000000 0 0 1
-10.235339 -27.349570 27.904777 40.391060 1.212691 0.808111 0.067893 -0.019218 1230490.000000 0 0 1
-11.648439 -27.489870 27.149827 40.354580 1.169997 0.832834 0.058010 -0.016414 1367170.000000 0 0 1
-11.801039 -26.873570 25.868847 39.123529 1.157017 0.848367 0.068365 -0.022627 112381.000000 0 0 1
-12.157039 -25.514670 25.928367 38.354559 1.126147 0.828451 0.057696 -0.010586 -235441.000000 0 0 1
-12.195239 -24.851570 24.545777 36.997561 1.114598 0.845385 0.065610 -0.021916 51815.600000 0 0 1
-13.344239 -25.189070 23.804217 37.137564 1.083623 0.875030 0.052067 -0.012784 214069.000000 0 0 1
-13.176039 -24.616970 22.503777 35.861165 1.079354 0.892426 0.059635 -0.012459 -177868.000000 0 0 1
-14.504839 -24.773370 21.780077 36.034455 1.041106 0.921754 0.062874 -0.012249 -311666.000000 0 0 1
-14.905539 -26.094870 21.396877 36.890970 1.051818 0.952064 0.068150 -0.017966 834452.000000 0 0 1
-16.192539 -26.088870 20.752777 37.060831 1.015318 0.976452 0.068029 -0.017627 826253.000000 0 0 1
-16.619539 -27.469670 20.197577 37.930646 1.026698 1.009260 0.069901 -0.024881 140479.000000 0 0 1
-15.839839 -27.900770 19.097377 37.337156 1.054450 1.033885 0.062874 -0.019842 24523.600000 0 0 1
-16.122739 -29.216470 18.700077 38.252290 1.066544 1.060012 0.078572 -0.012223 494539.000000 0 0 1
-15.047239 -29.620170 17.640177 37.615817 1.100764 1.082688 0.078130 -0.021057 494830.000000 0 0 1
-15.249639 -29.037870 16.357477 36.651281 1.087221 1.108170 0.085387 -0.028179 -787378.000000 0 0 1
-14.076039 -29.044370 15.631277 35.861499 1.119513 1.119782 0.074967 -0.030239 -891930.000000 0 0 1
-14.268139 -28.474170 14.184877 34.865009 1.106277 1.151792 0.073395 -0.016881 -341402.000000 0 0 1
-14.441239 -27.061270 14.100277 33.759140 1.080593 1.139914 0.068843 -0.016087 -122547.000000 0 0 1
-14.650339 -26.494770 12.791777 32.866926 1.065689 1.171034 0.075813 -0.024276 579348.000000 0 0 1
-13.530939 -26.685570 11.682477 32.119873 1.101524 1.198543 0.069012 -0.019867 652820.000000 0 0 1
-13.894539 -26.114570 10.470477 31.379290 1.081830 1.230597 0.064166 -0.020961 -310855.000000 0 0 1
-13.087839 -26.625970 9.444977 31.135854 1.113936 1.262593 0.073918 -0.022493 18747.100000 0 0 1
-13.339339 -25.772370 8.140577 30.140040 1.093182 1.297308 0.076656 -0.020098 199839.000000 0 0 1
-14.571139 -26.001570 7.485177 30.731541 1.060008 1.324755 0.080634 -0.031526 -106972.000000 0 0 1
-14.489239 -25.426870 6.222677 29.919650 1.052849 1.361287 0.073616 -0.027595 275695.000000 0 0 1
-15.613039 -25.843370 5.221277 30.641614 1.027338 1.399563 0.076294 -0.022042 289922.000000 0 0 1
-15.384739 -27.129570 4.639277 31.531360 1.054932 1.423128 0.083479 -0.025244 67445.200000 0 0 1
-16.317239 -27.422270 3.621277 32.114589 1.034035 1.457795 0.098769 -0.019338 -62417.700000 0 0 1
-15.901939 -28.657870 2.804077 32.893890 1.064207 1.485447 0.092520 -0.017012 193342.000000 0 0 1
-14.645439 -28.516070 2.159677 32.129727 1.096340 1.503528 0.099135 -0.008455 113386.000000 0 0 1
-14.431339 -29.620970 1.310177 32.975475 1.117441 1.531054 0.100082 -0.009466 676388.000000 0 0 1
-13.019239 -29.512270 0.606877 32.262098 1.155329 1.551984 0.071608 -0.009740 876333.000000 0 0 1
-12.980539 -28.815070 -0.618523 31.609891 1.147545 1.590365 0.080990 -0.003535 -100734.000000 0 0 1
-12.946839 -27.404570 -0.421323 30.311856 1.129444 1.584696 0.072033 -0.007382 -508998.000000 0 0 1
-12.381339 -26.516870 -1.638423 29.310858 1.133959 1.626724 0.082075 -0.014475 99085.100000 0 0 1
-11.030839 -26.848270 -1.869223 29.086131 1.180964 1.635106 0.093730 -0.018359 -394927.000000 0 0 1
-10.575239 -26.185370 -3.054623 28.404929 1.186966 1.678543 0.107794 -0.025136 1612270.000000 0 0 1
-9.167739 -26.663170 -3.631023 28.428092 1.239624 1.698873 0.099424 -0.028262 1193480.000000 0 0 1
-8.613039 -25.883570 -4.598123 27.663810 1.249561 1.737786 0.102893 -0.025606 -519088.000000 0 0 1
-7.217739 -26.105270 -4.663223 27.483204 1.301049 1.741297 0.094660 -0.023853 184220.000000 0 0 1
-6.515639 -24.927770 -5.367523 26.318388 1.315135 1.776183 0.075539 -0.026983 -374045.000000 0 0 1
-6.682339 -25.019170 -6.803723 26.775047 1.309800 1.827720 0.083325 -0.012318 -43084.000000 0 0 1
-6.392939 -23.770470 -7.387923 25.699928 1.308068 1.862379 0.066197 -0.011224 -455347.000000 0 0 1
-6.732639 -23.681270 -8.861823 26.166064 1.293803 1.916306 0.068819 -0.010757 423139.000000 0 0 1
-5.799039 -24.475270 -9.658123 26.943404 1.338152 1.937414 0.051994 -0.012825 667656.000000 0 0 1
-6.004739 -24.460070 -11.064723 27.509635 1.330065 1.984729 0.046058 -0.004610 1030480.000000 0 0 1
-7.273339 -25.348970 -11.471223 28.758663 1.291375 1.981090 0.055392 -0.008716 1209740.000000 0 0 1
-7.588639 -25.156170 -12.831523 29.241551 1.277816 2.025072 0.076207 -0.004212 140379.000000 0 0 1
-8.611939 -26.006770 -13.333623 30.468067 1.251019 2.023753 0.094932 -0.012820 -86057.100000 0 0 1
-8.708539 -25.970770 -14.849123 31.157920 1.247258 2.067552 0.097661 -0.011311 490206.000000 0 0 1
-7.684739 -26.703270 -15.523123 31.829031 1.290585 2.080253 0.088482 -0.010404 191419.000000 0 0 1
-6.448439 -26.111070 -15.761223 31.173490 1.328679 2.100870 0.085687 -0.010075 -384390.000000 0 0 1
-5.504339 -26.931470 -16.671923 32.148948 1.369190 2.115990 0.070371 -0.001786 26430.100000 0 0 1
-5.811239 -26.668570 -18.062223 32.729605 1.356244 2.155392 0.101745 -0.001000 112689.000000 0 0 1
-4.861939 -27.407070 -18.754023 33.563363 1.395226 2.163692 0.077499 -0.004447 -140844.000000 0 0 1
-24.766139 14.234081 -6.086220 29.206382 -0.521639 1.780721 0.079258 -0.031613 -443736.000000 0 0 1
-24.960539 13.223681 -5.140020 28.710870 -0.487190 1.750794 0.076276 -0.027399 -200232.000000 0 0 1
-23.769339 12.589781 -4.790220 27.320876 -0.487097 1.747039 0.090349 -0.034994 -1045800.000000 0 0 1
-24.017239 11.185281 -4.161120 26.818896 -0.435849 1.726582 0.102138 -0.042341 -146915.000000 0 0 1
-24.560539 10.191681 -5.011320 27.059264 -0.393337 1.757070 0.088068 -0.038858 -375789.000000 0 0 1
-25.923479 10.359181 -5.247120 28.405486 -0.380167 1.756585 0.094440 -0.036829 -899700.000000 0 0 1
-26.417039 9.412781 -6.400820 28.765098 -0.342289 1.795195 0.105551 -0.038534 46435.500000 0 0 1
-26.060669 10.017881 -7.630720 28.943813 -0.366992 1.837589 0.127045 -0.035789 -66967.100000 0 0 1
-26.615099 9.346581 -8.714920 29.524090 -0.337722 1.870440 0.122460 -0.040803 -508929.000000 0 0 1
-27.121739 10.366381 -9.733320 30.623326 -0.365083 1.894247 0.096274 -0.032801 -483307.000000 0 0 1
-26.163479 11.164781 -10.332320 30.264448 -0.403336 1.919204 0.099523 -0.025154 -401523.000000 0 0 1
-26.807099 11.999981 -11.260620 31.455074 -0.420891 1.936911 0.082497 -0.025211 -151883.000000 0 0 1
-25.935599 12.919581 -12.143620 31.417167 -0.462159 1.967661 0.077691 -0.021017 -176633.000000 0 0 1
-25.454979 14.018881 -11.371520 31.205712 -0.503405 1.943790 0.083879 -0.023996 33213.200000 0 0 1
-24.646239 14.883481 -12.102220 31.231696 -0.543271 1.968712 0.071376 -0.026648 -226205.000000 0 0 1
-24.606939 16.340281 -11.558120 31.719022 -0.586190 1.943775 0.085113 -0.014723 -574626.000000 0 0 1
-23.802239 16.523981 -10.481020 30.812989 -0.606836 1.917872 0.085678 -0.009605 -484324.000000 0 0 1
-23.823939 17.852681 -10.088820 31.433781 -0.643091 1.897534 0.057066 -0.007769 465221.000000 0 0 1
-22.740739 18.266781 -9.015620 30.530278 -0.676727 1.870567 0.055639 -0.016418 287430.000000 0 0 1
-23.064439 17.811981 -7.702720 30.142444 -0.657602 1.829207 0.068659 -0.024061 341056.000000 0 0 1
-23.731039 18.747781 -6.870420 31.013613 -0.668620 1.794179 0.047614 -0.016035 -255769.000000 0 0 1
-24.099339 18.219881 -5.456220 30.700367 -0.647351 1.749470 0.043915 -0.016507 -250117.000000 0 0 1
-23.035339 17.789481 -4.648020 29.473659 -0.657602 1.729158 0.054779 -0.024914 -191873.000000 0 0 1
-23.490839 17.375081 -3.333020 29.407856 -0.636846 1.684378 0.053892 -0.017580 121052.000000 0 0 1
-22.440839 17.058481 -2.219120 28.275564 -0.649968 1.649359 0.078220 -0.024052 124187.000000 0 0 1
-21.582739 18.147581 -1.942720 28.265234 -0.699151 1.639582 0.068435 -0.020168 456429.000000 0 0 1
-20.611439 17.965681 -0.938220 27.358314 -0.716922 1.605097 0.124942 -0.037786 311867.000000 0 0 1
-19.918239 19.269281 -0.450220 27.717217 -0.768839 1.587040 0.102759 -0.029151 221486.000000 0 0 1
-20.837239 20.010581 0.327080 28.891536 -0.765163 1.559475 0.102243 -0.017737 609938.000000 0 0 1
-20.254439 21.255281 0.739180 29.369638 -0.809505 1.545626 0.095807 -0.023120 293742.000000 0 0 1
-21.110239 22.005981 1.803280 30.547622 -0.806170 1.511730 0.081041 -0.016119 164746.000000 0 0 1
-21.057439 21.351581 3.097980 30.148022 -0.792334 1.467856 0.087155 -0.019624 -24023.900000 0 0 1
-22.282439 21.464881 3.754480 31.166397 -0.766712 1.450037 0.075551 -0.012964 -286720.000000 0 0 1
-22.085939 21.116781 5.261580 31.006311 -0.762969 1.400277 0.086589 -0.012555 -236640.000000 0 0 1
-21.531539 22.200581 5.941680 31.492483 -0.800696 1.380989 0.078458 -0.011828 61532.200000 0 0 1
-20.713739 21.775781 7.003880 30.859325 -0.810388 1.341840 0.068105 -0.009174 -27823.300000 0 0 1
-21.430039 21.679581 8.390380 31.617231 -0.791187 1.302205 0.070731 -0.017145 -843298.000000 0 0 1
-22.317739 20.632981 8.488180 31.557100 -0.746193 1.298464 0.088671 -0.016867 24474.600000 0 0 1
-22.612839 20.174981 9.824780 31.857442 -0.728484 1.257288 0.087824 -0.016780 8243.570000 0 0 1
-23.321739 21.108481 10.842980 33.272236 -0.735625 1.238847 0.089437 -0.014716 702117.000000 0 0 1
-24.593339 21.685081 10.428480 34.406805 -0.722638 1.262859 0.096238 -0.015843 1502040.000000 0 0 1
-25.079939 22.631681 11.371980 35.644330 -0.734129 1.246080 0.096416 -0.015134 660528.000000 0 0 1
-26.520929 23.170481 11.045980 36.908597 -0.718075 1.266859 0.104037 -0.018449 589027.000000 0 0 1
-27.068779 23.888281 12.101580 38.076462 -0.723064 1.247364 0.108284 -0.017370 7656.490000 0 0 1
-27.148719 25.299781 11.947580 38.985594 -0.750160 1.259323 0.102205 -0.015891 73500.400000 0 0 1
-27.644889 25.960781 13.259580 40.174849 -0.753992 1.234443 0.116256 -0.017995 267328.000000 0 0 1
-26.708249 25.750281 14.307680 39.763265 -0.767139 1.202720 0.085677 -0.016399 319197.000000 0 0 1
-27.170579 26.305881 15.534780 40.884827 -0.769230 1.181038 0.104268 -0.016481 207282.000000 0 0 1
-26.118749 26.462681 16.677980 40.750675 -0.791939 1.149144 0.082081 -0.017751 -78847.100000 0 0 1
-25.659429 25.256981 17.184580 39.895252 -0.777494 1.125481 0.088114 -0.012690 -69181.100000 0 0 1
-24.672439 25.414781 18.168680 39.808809 -0.800218 1.096853 0.065824 -0.008518 -565986.000000 0 0 1
-24.167039 24.037881 18.589480 38.825690 -0.782719 1.071517 0.063922 -0.005464 -375724.000000 0 0 1
-23.286739 24.139781 19.694580 38.895729 -0.803383 1.039858 0.072634 -0.018401 432545.000000 0 0 1
-22.819539 22.905981 20.200180 38.124304 -0.787289 1.012372 0.072875 -0.016196 339048.000000 0 0 1
-21.283039 22.936681 20.471180 37.391554 -0.822777 0.991445 0.065625 -0.027960 -230276.000000 0 0 1
-20.432139 22.807181 19.393080 36.245432 -0.840271 1.006231 0.060857 -0.024164 665313.000000 0 0 1
-19.080239 22.477581 19.762280 35.494293 -0.866967 0.980300 0.068352 -0.023899 353146.000000 0 0 1
-18.800339 20.946881 19.728480 34.372045 -0.839351 0.959452 0.072106 -0.009672 -66477.600000 0 0 1
-19.529039 20.201081 20.757480 34.933365 -0.802312 0.934523 0.075979 -0.008302 612669.000000 0 0 1
-18.954439 20.349181 22.037080 35.482289 -0.820870 0.900686 0.085389 -0.013614 33534.200000 0 0 1
-19.928639 19.871781 23.163080 36.449507 -0.783970 0.882161 0.089556 -0.007644 529629.000000 0 0 1
-20.956839 20.851681 23.322980 37.655585 -0.782883 0.902848 0.085762 -0.008717 -185108.000000 0 0 1
-21.966739 20.523581 24.197080 38.590849 -0.751447 0.893080 0.077359 -0.001011 -394551.000000 0 0 1
-22.977739 21.678681 24.436580 39.938554 -0.756316 0.912393 0.082336 -0.011448 -386585.000000 0 0 1
-22.448939 22.835181 25.075780 40.671797 -0.793927 0.906456 0.101251 -0.026676 249925.000000 0 0 1
-23.362539 23.886881 25.386480 41.962658 -0.796495 0.921058 0.097248 -0.031263 -32682.000000 0 0 1
-23.992839 24.653781 24.174880 42.046284 -0.798984 0.958243 0.075518 -0.028356 539484.000000 0 0 1
-24.969339 23.787081 23.564080 41.767918 -0.761155 0.971372 0.060251 -0.019486 248420.000000 0 0 1
-25.513979 24.309281 22.376480 41.744594 -0.761223 1.005065 0.055380 -0.018976 71942.000000 0 0 1
-26.546589 23.385581 21.683580 41.494390 -0.722176 1.020938 0.052280 -0.016202 -258411.000000 0 0 1
-27.707309 23.098281 22.405180 42.464310 -0.694927 1.014995 0.058517 -0.014239 -165422.000000 0 0 1
-28.564509 22.307681 21.577080 42.179784 -0.663022 1.033808 0.057258 -0.009084 -1246380.000000 0 0 1
-29.945679 22.119781 22.083080 43.286150 -0.636206 1.035420 0.060256 -0.006799 -2216680.000000 0 0 1
-30.669019 23.319281 22.092580 44.412382 -0.650094 1.050149 0.081759 -0.000568 5050.510000 0 0 1
-32.043279 23.244881 22.405080 45.487183 -0.627584 1.055770 0.087790 -0.005014 687622.000000 0 0 1
-33.021019 22.474381 21.445080 45.336265 -0.597593 1.078078 0.084133 -0.010702 -992341.000000 0 0 1
-32.920279 21.051681 21.610280 44.653356 -0.568940 1.065626 0.068274 -0.002993 523505.000000 0 0 1
-33.691859 20.377381 20.618280 44.446512 -0.543953 1.088415 0.089265 -0.007959 -117886.000000 0 0 1
-35.217834 20.361181 20.773780 45.677384 -0.524198 1.098656 0.127188 -0.018333 -474026.000000 0 0 1
-35.944860 19.779581 19.705080 45.514338 -0.503055 1.123042 0.119879 -0.019608 507938.000000 0 0 1
36.415489 19.771881 19.946680 45.987880 0.497416 1.122159 0.138688 -0.032295 608344.000000 0 0 1
35.675399 18.963481 18.819380 44.570357 0.488573 1.134882 0.146297 -0.043380 -35259.500000 0 0 1
36.058209 17.591381 18.808680 44.310467 0.453889 1.132414 0.144248 -0.038962 440139.000000 0 0 1
35.561459 16.869381 17.675280 43.146365 0.442936 1.148717 0.158160 -0.052076 -75540.400000 0 0 1
35.826379 15.355181 17.734780 42.823281 0.404916 1.143800 0.161128 -0.058360 -170111.000000 0 0 1
34.947359 14.702481 16.867680 41.496981 0.398226 1.152199 0.185261 -0.056615 38970.500000 0 0 1
35.346779 13.315081 16.658380 41.281809 0.360259 1.155426 0.162156 -0.045892 46156.000000 0 0 1
34.349749 12.512181 15.817880 39.832966 0.349320 1.162436 0.154355 -0.048481 -231208.000000 0 0 1
34.277949 12.883281 14.409680 39.352199 0.359513 1.195904 0.156443 -0.045322 -209793.000000 0 0 1
33.471599 12.143881 13.568480 38.104139 0.348042 1.206717 0.154309 -0.031283 -608189.000000 0 0 1
33.656579 12.491481 12.114780 37.888920 0.355387 1.245336 0.175831 -0.035114 -266022.000000 0 0 1
34.860589 12.177381 11.452980 38.661609 0.336066 1.270046 0.155062 -0.027804 259331.000000 0 0 1
34.697869 12.269981 10.039080 38.148101 0.339899 1.304499 0.136977 -0.028178 738064.000000 0 0 1
36.154519 12.283081 9.456580 39.337643 0.327504 1.328023 0.110861 -0.013811 637053.000000 0 0 1
36.878189 11.076581 9.531580 39.667902 0.291783 1.328137 0.134195 -0.019710 -265788.000000 0 0 1
-35.610658 11.073881 8.961180 38.354303 -0.301491 1.334975 0.129047 -0.018721 -187847.000000 0 0 1
-35.505569 10.987281 7.381280 37.892599 -0.300106 1.374748 0.111807 -0.023553 -356960.000000 0 0 1
-35.788640 12.255181 6.816980 38.438099 -0.329917 1.392504 0.109318 -0.032256 -125593.000000 0 0 1
-35.404624 12.268481 5.479080 37.868501 -0.333573 1.425600 0.115912 -0.035102 -521396.000000 0 0 1
-36.335979 12.886681 4.461180 38.810721 -0.340814 1.455595 0.105463 -0.040809 -278271.000000 0 0 1
36.245269 12.130381 4.189480 38.450193 0.322957 1.461621 0.107608 -0.040338 471132.000000 0 0 1
35.030929 12.851881 4.096380 37.538209 0.351626 1.461453 0.089924 -0.038057 485018.000000 0 0 1
34.439409 13.317281 5.473280 37.328000 0.368977 1.423639 0.105216 -0.034272 -1064040.000000 0 0 1
33.949339 14.626181 5.386480 37.356350 0.406793 1.426100 0.095743 -0.023313 -199651.000000 0 0 1
33.619159 15.256381 6.587680 37.502033 0.426010 1.394218 0.086389 -0.020674 379718.000000 0 0 1
32.283109 14.864181 7.304180 36.283523 0.431495 1.368103 0.117967 -0.030409 281246.000000 0 0 1
32.411489 13.612581 7.935680 36.038618 0.397622 1.348778 0.142368 -0.030581 37845.200000 0 0 1
31.162359 12.989681 8.152480 34.731647 0.394938 1.333858 0.150786 -0.031707 -134337.000000 0 0 1
31.092569 11.658381 7.391980 34.019216 0.358733 1.351761 0.150607 -0.034374 -208039.000000 0 0 1
30.810129 11.838981 6.034380 33.553528 0.366861 1.389969 0.130564 -0.041724 250854.000000 0 0 1
31.053109 10.651381 5.301680 33.254402 0.330430 1.410685 0.149826 -0.048240 -400646.000000 0 0 1
30.637899 10.793981 3.854680 32.711610 0.338730 1.452684 0.120223 -0.050273 358906.000000 0 0 1
29.231879 10.687681 3.658380 31.338682 0.350519 1.453793 0.101229 -0.044057 391959.000000 0 0 1
28.938629 11.079481 2.347580 31.075879 0.365645 1.495181 0.118495 -0.050936 -388197.000000 0 0 1
27.480939 10.828581 1.948680 29.601647 0.375358 1.504919 0.127387 -0.033478 -304819.000000 0 0 1
27.191739 9.509281 1.633380 28.852816 0.336418 1.514155 0.109570 -0.039520 -205297.000000 0 0 1
25.821039 9.236581 1.799680 27.482345 0.343532 1.505264 0.113426 -0.036515 -351873.000000 0 0 1
25.617339 7.769181 1.546880 26.814195 0.294462 1.513075 0.126920 -0.039019 -93485.600000 0 0 1
25.965139 6.869381 2.572480 26.981373 0.258636 1.475308 0.136087 -0.036340 1421040.000000 0 0 1
27.385039 6.558481 2.575380 28.276962 0.235064 1.479593 0.159089 -0.044271 976221.000000 0 0 1
27.896339 6.043081 3.945780 28.814817 0.213330 1.433429 0.159795 -0.054509 -120221.000000 0 0 1
29.305649 5.981781 4.013380 30.177971 0.201351 1.437411 0.181012 -0.050670 8615.530000 0 0 1
29.688849 5.627081 5.281780 30.675543 0.187313 1.397752 0.169106 -0.040262 121962.000000 0 0 1
31.191669 5.348281 5.569180 32.133161 0.169814 1.396601 0.164566 -0.041778 459869.000000 0 0 1
31.897749 6.560981 5.805180 33.078890 0.202859 1.394388 0.159491 -0.042540 -322498.000000 0 0 1
33.105569 6.379281 6.499580 34.335382 0.190362 1.380350 0.128403 -0.032290 -14844.600000 0 0 1
33.570769 7.511081 7.368380 35.181044 0.220114 1.359792 0.127136 -0.035883 -242690.000000 0 0 1
32.719219 7.697681 8.465680 34.662217 0.231063 1.324067 0.129219 -0.034485 58880.500000 0 0 1
33.083889 8.841781 9.242080 35.470224 0.261150 1.307195 0.150838 -0.032859 -59869.600000 0 0 1
32.509069 8.686781 10.652280 35.295478 0.261111 1.264213 0.140577 -0.026094 -351992.000000 0 0 1
31.204019 9.188481 10.806480 34.276799 0.286371 1.250054 0.134792 -0.030885 -33038.400000 0 0 1
30.861219 9.150081 12.198980 34.423159 0.288235 1.208542 0.111913 -0.024594 -787648.000000 0 0 1
29.447219 9.666181 12.434280 33.394386 0.317173 1.189260 0.103132 -0.027908 -818644.000000 0 0 1
29.255889 11.088581 12.487380 33.686767 0.362291 1.191043 0.129713 -0.041702 200186.000000 0 0 1
29.275929 11.710781 11.229680 33.471302 0.380518 1.228659 0.139261 -0.046911 -201734.000000 0 0 1
28.036939 11.535581 10.308380 32.021902 0.390331 1.243043 0.114448 -0.041627 -115838.000000 0 0 1
28.120439 12.452381 9.265080 32.119504 0.416870 1.278182 0.098776 -0.026916 6264.110000 0 0 1
27.018839 12.390081 8.385780 30.884511 0.429959 1.295824 0.084909 -0.027066 -178638.000000 0 0 1
26.870239 13.612681 7.451380 31.029629 0.468920 1.328289 0.071767 -0.027294 -13550.100000 0 0 1
26.387939 14.787081 8.099680 31.314308 0.510772 1.309164 0.067172 -0.022637 389278.000000 0 0 1
26.407539 15.923181 7.309480 31.691233 0.542607 1.338054 0.050875 -0.018149 -772936.000000 0 0 1
26.255439 17.251081 8.115880 32.447116 0.581314 1.317986 0.078324 -0.025430 -115226.000000 0 0 1
24.998639 17.805681 8.396680 31.819466 0.618911 1.303749 0.083762 -0.024747 -802799.000000 0 0 1
24.093639 17.044281 9.103480 30.885017 0.615687 1.271598 0.078866 -0.020754 -861442.000000 0 0 1
22.799839 17.869681 9.272080 30.415943 0.664762 1.261023 0.075681 -0.020051 -674275.000000 0 0 1
22.224039 18.146981 8.026880 29.793482 0.684750 1.298008 0.088103 -0.027974 356399.000000 0 0 1
21.014139 18.890081 8.235680 29.432220 0.732219 1.287191 0.115997 -0.036072 329848.000000 0 0 1
20.354339 19.313181 6.947180 28.906078 0.759157 1.328084 0.110423 -0.038794 -190566.000000 0 0 1
21.065439 20.339281 6.293580 29.950763 0.767862 1.359088 0.084066 -0.025245 32332.500000 0 0 1
20.375039 20.711581 5.143480 29.505375 0.793589 1.395578 0.091446 -0.034055 11099.100000 0 0 1
17.832461 16.977581 32.943282 41.127786 0.760845 0.641836 0.076903 -0.015430 6848.870000 0 0 1
17.440661 17.737181 31.795577 40.370075 0.793827 0.663888 0.073795 -0.022601 332051.000000 0 0 1
16.791361 16.839781 30.885767 38.980233 0.786838 0.656154 0.079029 -0.028137 37048.200000 0 0 1
16.371161 17.515881 29.558527 38.059526 0.819166 0.681483 0.082745 -0.037147 127636.000000 0 0 1
17.467161 17.823281 28.722037 38.049000 0.795489 0.715341 0.089014 -0.037405 -38646.000000 0 0 1
17.036561 18.291681 27.466417 37.138040 0.820911 0.738356 0.101681 -0.042398 -178228.000000 0 0 1
18.215061 18.727681 26.599567 37.283393 0.799273 0.776397 0.089208 -0.030907 -399280.000000 0 0 1
18.604661 20.044081 26.892047 38.354671 0.822625 0.793799 0.095708 -0.034245 547608.000000 0 0 1
19.797761 20.383281 26.164617 38.626631 0.799969 0.826611 0.071121 -0.022584 378455.000000 0 0 1
20.254161 21.820581 26.443387 39.819863 0.822610 0.844540 0.082437 -0.028043 -438494.000000 0 0 1
19.348361 22.771881 25.998447 39.608545 0.866500 0.854780 0.087102 -0.034662 -264385.000000 0 0 1
19.737061 24.072281 26.490547 40.875119 0.884034 0.865729 0.083089 -0.030413 410295.000000 0 0 1
18.757061 25.255181 26.140077 40.901774 0.931983 0.877477 0.106120 -0.030314 258662.000000 0 0 1
19.046561 25.741781 24.848087 40.531940 0.933785 0.910882 0.112374 -0.028989 362569.000000 0 0 1
18.277561 26.887881 24.437647 40.672176 0.973777 0.926239 0.119087 -0.043960 -204579.000000 0 0 1
18.637261 27.480181 23.156537 40.481267 0.974847 0.961817 0.094200 -0.042775 -474304.000000 0 0 1
19.891761 28.097681 23.261727 41.548402 0.954755 0.976567 0.100562 -0.040354 -352149.000000 0 0 1
19.980761 29.034081 22.175177 41.640691 0.968045 1.009202 0.082257 -0.044283 841210.000000 0 0 1
21.401361 29.698081 22.046677 42.732309 0.946358 1.028709 0.084727 -0.036153 664596.000000 0 0 1
22.365161 28.915781 21.379677 42.348712 0.912450 1.041590 0.093565 -0.038350 -51948.500000 0 0 1
23.587861 29.612381 21.159777 43.370686 0.898160 1.061135 0.073123 -0.037480 352581.000000 0 0 1
23.845961 30.052981 19.705277 43.128986 0.900053 1.096299 0.058558 -0.032206 -275716.000000 0 0 1
23.020261 31.105981 19.298877 43.243047 0.933688 1.108183 0.062286 -0.022844 -32939.900000 0 0 1
23.175361 31.252381 17.887377 42.822505 0.932722 1.139873 0.072792 -0.012218 81976.400000 0 0 1
22.191861 32.187581 17.158277 42.695732 0.967183 1.157235 0.084398 -0.016275 -268578.000000 0 0 1
22.709061 33.490981 17.187377 43.963089 0.974944 1.169133 0.081881 -0.014046 108138.000000 0 0 1
22.681861 -33.825470 15.966077 43.744083 -0.980106 1.197176 0.078874 -0.017832 -459599.000000 0 0 1
23.681161 33.973981 14.874277 44.003101 0.962061 1.225976 0.071524 -0.014855 -383721.000000 0 0 1
23.364261 32.803681 14.125277 42.678960 0.951899 1.233469 0.095995 -0.013901 -52725.100000 0 0 1
22.356961 32.957781 13.147577 41.939335 0.974748 1.251930 0.068455 -0.009947 -164095.000000 0 0 1
22.081161 31.661681 12.400677 40.544007 0.961811 1.259958 0.068454 -0.022061 321756.000000 0 0 1
23.175561 31.267481 11.554177 40.598780 0.932949 1.282213 0.093095 -0.031812 246249.000000 0 0 1
22.887161 30.108581 10.789177 39.328808 0.920828 1.292901 0.073304 -0.030290 -289290.000000 0 0 1
24.015461 29.587181 9.842177 39.357491 0.888971 1.318042 0.079161 -0.030164 1000930.000000 0 0 1
25.158061 28.935581 10.403977 39.729568 0.855118 1.305837 0.091695 -0.026923 572782.000000 0 0 1
26.049461 29.706681 11.164477 41.057360 0.850897 1.295405 0.100660 -0.030119 -819788.000000 0 0 1
27.435561 29.121681 11.420877 41.607916 0.815202 1.292739 0.115258 -0.032070 -145309.000000 0 0 1
27.496161 28.152681 12.476077 41.282742 0.797195 1.263786 0.106965 -0.028284 -150420.000000 0 0 1
28.850661 27.990281 12.847277 42.200343 0.770263 1.261451 0.108237 -0.020876 231483.000000 0 0 1
29.062261 26.870981 13.913077 41.955194 0.746241 1.232779 0.093005 -0.028457 26227.800000 0 0 1
30.295561 26.994181 14.578077 43.116437 0.727836 1.225889 0.079207 -0.030570 -205575.000000 0 0 1
30.662461 25.831881 15.269577 42.902594 0.700100 1.206906 0.076998 -0.032056 -163133.000000 0 0 1
31.854261 26.073681 16.203677 44.239009 0.685938 1.195793 0.074110 -0.034650 -880200.000000 0 0 1
33.086761 26.011581 15.559877 44.871437 0.666246 1.216676 0.073666 -0.028620 -1054860.000000 0 0 1
34.029561 25.992681 16.613877 45.930941 0.652292 1.200690 0.055096 -0.030046 -742834.000000 0 0 1
35.444561 26.249681 16.133677 46.964435 0.637448 1.220124 0.067352 -0.028482 -786864.000000 0 0 1
35.563161 27.430081 15.472377 47.503076 0.656998 1.239030 0.068508 -0.019513 300141.000000 0 0 1
-36.837617 27.862981 15.340577 48.669179 -0.647567 1.250128 0.083720 -0.016184 870753.000000 0 0 1
-36.556217 29.076581 14.422677 48.885766 -0.671926 1.271311 0.069069 -0.021402 212755.000000 0 0 1
36.486161 30.216581 14.866677 49.651785 0.691681 1.266713 0.070847 -0.019178 89349.100000 0 0 1
36.693761 31.354881 14.020877 50.260776 0.707102 1.288083 0.055570 -0.005564 348787.000000 0 0 1
35.855961 32.620981 14.469377 50.587955 0.738191 1.280721 0.037078 -0.007899 -201025.000000 0 0 1
35.610861 33.520081 13.407577 50.709884 0.755164 1.303217 0.016066 -0.010445 627931.000000 0 0 1
34.519961 -33.731470 13.754877 50.186018 -0.773846 1.293166 0.012689 -0.008189 902570.000000 0 0 1
33.110261 33.830281 13.373177 49.189624 0.796154 1.295461 0.053333 -0.003756 72574.700000 0 0 1
32.643661 32.776781 14.228477 48.398094 0.787433 1.272399 0.045068 -0.011550 419033.000000 0 0 1
31.472861 32.200181 13.626577 47.043344 0.796820 1.276925 0.075713 -0.002372 119867.000000 0 0 1
30.859261 31.047781 14.440477 46.095401 0.788443 1.252158 0.092716 -0.014761 68004.700000 0 0 1
30.197961 31.395681 15.670177 46.294277 0.804841 1.225484 0.079387 -0.017044 109133.000000 0 0 1
29.801861 30.311381 16.416677 45.567949 0.793874 1.202241 0.078414 -0.014397 -372319.000000 0 0 1
28.796561 30.640981 17.503277 45.546419 0.816419 1.176352 0.065094 -0.012125 -325728.000000 0 0 1
28.444761 29.557281 18.340877 44.934675 0.804577 1.150350 0.054203 -0.012732 170329.000000 0 0 1
29.240861 29.545981 19.550277 45.936981 0.790588 1.131184 0.040549 -0.017583 113653.000000 0 0 1
28.921061 28.576881 20.681677 45.615761 0.779412 1.100233 0.036482 -0.024646 68446.300000 0 0 1
27.688861 28.742481 21.365977 45.269285 0.804067 1.079267 0.040916 -0.024381 50244.800000 0 0 1
27.621861 27.899281 22.510977 45.255730 0.790395 1.050177 0.034713 -0.023222 -610120.000000 0 0 1
26.348861 27.885581 23.344087 44.908958 0.813725 1.024169 0.052036 -0.027109 -944445.000000 0 0 1
25.291161 27.272881 22.630477 43.538389 0.823081 1.024200 0.066556 -0.033084 -20282.700000 0 0 1
24.140961 27.132481 23.467647 43.239888 0.843677 0.997111 0.077956 -0.041346 269187.000000 0 0 1
24.061461 25.922281 24.385547 42.960138 0.822609 0.967170 0.089460 -0.039264 -364593.000000 0 0 1
25.070761 25.918881 25.384117 44.098581 0.802030 0.957432 0.057111 -0.034355 215210.000000 0 0 1
24.771561 24.892981 26.293407 43.870650 0.787843 0.928121 0.072941 -0.035826 916919.000000 0 0 1
25.990061 24.604781 27.307547 45.017559 0.758025 0.919022 0.078889 -0.042235 1160930.000000 0 0 1
26.405761 25.754981 27.992567 46.305151 0.772922 0.921628 0.097651 -0.035589 460055.000000 0 0 1
27.375561 26.587181 27.344677 46.947107 0.770789 0.949048 0.056734 -0.017816 -193833.000000 0 0 1
27.651061 27.990181 28.027097 48.306827 0.791493 0.951835 0.033444 -0.014081 69297.000000 0 0 1
28.401061 27.802881 29.238097 49.340518 0.774756 0.936541 0.051515 -0.007510 218643.000000 0 0 1
28.686661 28.976681 29.928627 50.579593 0.790428 0.937614 0.059061 -0.009074 121696.000000 0 0 1
30.194261 29.180881 30.216967 51.732797 0.768332 0.947029 0.045278 -0.005723 232590.000000 0 0 1
30.895161 29.383181 28.998467 51.563489 0.760320 0.973531 0.031478 -0.005407 -1805550.000000 0 0 1
32.232061 29.534081 29.175967 52.558584 0.741745 0.982297 0.054316 -0.008298 -1621240.000000 0 0 1
32.917461 30.016181 27.909517 52.568731 0.739330 1.011117 0.048363 -0.010892 -252789.000000 0 0 1
32.547461 31.342181 27.596687 52.945695 0.766535 1.022509 0.045198 -0.011063 112623.000000 0 0 1
32.970761 31.775981 26.316877 52.814411 0.766947 1.049171 0.051222 -0.013813 -24174.900000 0 0 1
32.676561 33.275481 26.104737 53.445978 0.794479 1.060504 0.053787 -0.012904 -21359.400000 0 0 1
33.582561 -34.044270 26.814707 54.825443 -0.792225 1.059747 0.067889 -0.017652 102352.000000 0 0 1
33.224661 -32.718370 26.591117 53.679207 -0.777721 1.052535 0.065053 -0.015156 186879.000000 0 0 1
34.227261 -31.644170 27.161067 53.949814 -0.746204 1.043209 0.070806 -0.020471 263057.000000 0 0 1
34.237661 -31.582570 28.575047 54.646221 -0.745081 1.020535 0.077965 -0.027616 857448.000000 0 0 1
35.329261 -30.784970 29.070797 55.145102 -0.716772 1.015531 0.075239 -0.031048 329777.000000 0 0 1
35.160161 -30.370770 30.538857 55.598942 -0.712442 0.989305 0.076834 -0.030803 -152988.000000 0 0 1
35.086961 -31.396470 31.490027 56.643225 -0.729945 0.981307 0.080446 -0.028349 729034.000000 0 0 1
33.905961 -32.216570 31.457897 56.365954 -0.759854 0.978701 0.073682 -0.029977 122670.000000 0 0 1
33.909061 -33.233770 32.591306 57.589071 -0.775341 0.969237 0.081001 -0.027558 -569605.000000 0 0 1
33.696161 -32.605270 33.843790 57.826784 -0.768946 0.945594 0.065808 -0.032599 124809.000000 0 0 1
33.950261 -33.435270 -33.053860 57.992199 -0.777756 2.177267 0.071094 -0.032921 41556.200000 0 0 1
33.098461 33.385881 -32.828910 57.339886 0.789721 2.180387 0.068323 -0.029770 45908.900000 0 0 1
33.408461 32.396781 -33.774730 57.501383 0.770026 2.198605 0.083563 -0.029305 -208294.000000 0 0 1
32.576361 31.284081 -33.734380 56.373056 0.765165 2.212315 0.087357 -0.021624 -168250.000000 0 0 1
32.808961 30.390781 33.075373 55.623806 0.747154 0.933996 0.072993 -0.010548 334843.000000 0 0 1
34.065061 29.725281 33.097048 56.030664 0.717471 0.938876 0.071698 -0.013215 254010.000000 0 0 1
34.189661 28.835481 31.979517 54.982791 0.700649 0.950068 0.055662 -0.011206 -1032870.000000 0 0 1
35.466061 28.040481 31.985387 55.382082 0.669000 0.955084 0.051878 -0.004209 -870281.000000 0 0 1
35.624561 26.960181 32.867771 55.463962 0.647830 0.936517 0.050841 0.000672 23470.400000 0 0 1
36.876361 26.321781 32.766808 55.913914 0.619918 0.944655 0.026662 0.003515 -33132.600000 0 0 1
-36.797617 24.968481 33.402667 55.616794 -0.596174 0.926563 0.028033 0.015754 -53465.000000 0 0 1
36.435861 23.887081 32.701216 54.475078 0.580297 0.926924 0.021608 0.016561 28317.700000 0 0 1
36.435661 22.729581 33.560954 54.502558 0.557756 0.907435 0.030878 0.001880 -75926.100000 0 0 1
36.056161 21.396881 32.868911 53.275121 0.535576 0.905915 0.028049 -0.013889 205900.000000 0 0 1
-36.766517 21.001381 31.861147 52.990258 -0.518981 0.925714 0.034284 -0.006841 499692.000000 0 0 1
36.569061 19.886781 31.046007 51.929132 0.498082 0.929976 0.041478 -0.007106 -80008.600000 0 0 1
-36.012717 19.303281 30.263987 50.847235 -0.492041 0.933289 0.047391 -0.021283 -201754.000000 0 0 1
-35.517117 20.154581 29.242077 50.227201 -0.516150 0.949369 0.033954 -0.012274 -71329.800000 0 0 1
-34.438417 19.495081 28.593847 48.822851 -0.515109 0.945096 0.041062 -0.004004 -106894.000000 0 0 1
-34.738417 18.364981 27.528607 47.977644 -0.486316 0.959683 0.072384 -0.004961 -119995.000000 0 0 1
-35.516717 17.311781 28.137947 48.506484 -0.453538 0.951962 0.073902 -0.004868 312410.000000 0 0 1
-35.837117 16.338081 27.206377 47.868766 -0.427748 0.966293 0.092415 -0.014133 55746.300000 0 0 1
-36.432517 15.027681 27.812257 48.235683 -0.391218 0.956246 0.102343 -0.033505 388422.000000 0 0 1
-35.453517 14.154281 28.370207 47.562213 -0.379847 0.931680 0.086753 -0.027511 449682.000000 0 0 1
-36.069417 13.294981 29.304267 48.337350 -0.353143 0.919466 0.089935 -0.033429 -137515.000000 0 0 1
-35.119117 12.169781 29.729397 47.595094 -0.333579 0.896137 0.091494 -0.023683 -220984.000000 0 0 1
-33.927517 12.728581 30.223227 47.186191 -0.358920 0.875634 0.089171 -0.014849 -97533.400000 0 0 1
-33.099617 11.734981 30.803877 46.713737 -0.340709 0.850752 0.078968 -0.021849 286586.000000 0 0 1
-31.581717 12.042481 30.719917 45.674276 -0.364293 0.833097 0.077527 -0.015857 -481399.000000 0 0 1
-30.971417 12.000781 29.408057 44.363061 -0.369666 0.846117 0.063856 -0.015792 1382210.000000 0 0 1
-29.596917 12.467581 29.490207 43.601495 -0.398687 0.827990 0.041551 -0.015849 1338410.000000 0 0 1
-28.560317 11.464481 30.037937 43.004693 -0.381724 0.797524 0.049341 -0.009908 -869038.000000 0 0 1
-28.137917 10.529781 29.065367 41.802083 -0.358087 0.801947 0.067401 -0.014016 -468107.000000 0 0 1
-27.232117 9.647881 29.627237 41.381674 -0.340485 0.772811 0.054047 -0.013236 -803381.000000 0 0 1
-26.870117 8.477281 28.602397 40.149278 -0.305607 0.777882 0.052929 -0.018612 244892.000000 0 0 1
-27.825017 7.430881 28.419357 40.461208 -0.260967 0.792053 0.061042 -0.021025 1803290.000000 0 0 1
-29.110417 7.820581 27.816747 41.016451 -0.262455 0.825506 0.077249 -0.024507 1973400.000000 0 0 1
-30.200217 6.676381 27.778317 41.572371 -0.217571 0.839021 0.094878 -0.021727 582193.000000 0 0 1
-30.670417 6.208881 29.048157 42.696839 -0.199739 0.822577 0.100078 -0.026817 341540.000000 0 0 1
-31.309417 4.929681 29.025887 42.977708 -0.156168 0.829329 0.122107 -0.025762 -53485.400000 0 0 1
-31.842417 4.455881 30.397247 44.246887 -0.139033 0.813455 0.117715 -0.029388 207700.000000 0 0 1
-33.032617 5.178481 30.702897 45.394254 -0.155503 0.827986 0.124580 -0.032814 122234.000000 0 0 1
-33.474617 5.035681 32.023197 46.598210 -0.149313 0.813142 0.124735 -0.032652 1075400.000000 0 0 1
-35.003417 5.419581 32.181812 47.856870 -0.153610 0.833269 0.127699 -0.022637 1063450.000000 0 0 1
-35.359817 6.759781 32.136706 48.257426 -0.188892 0.842039 0.120987 -0.028076 959905.000000 0 0 1
-36.786517 6.969981 32.198282 49.381756 -0.187251 0.860540 0.101079 -0.023060 1117640.000000 0 0 1
36.583561 8.415881 32.608428 49.724175 0.226112 0.855573 0.090641 -0.010336 -81688.000000 0 0 1
36.773861 8.603681 33.936897 50.774532 0.229828 0.838762 0.092485 -0.012670 357493.000000 0 0 1
36.353761 9.935681 -33.707110 50.561675 0.266790 2.300506 0.091085 -0.023415 116480.000000 0 0 1
36.466261 10.028181 -32.138400 49.630932 0.268365 2.275158 0.084337 -0.018913 -158120.000000 0 0 1
35.368161 9.465981 -31.434140 48.255743 0.261512 2.280234 0.100505 -0.010137 -10498.000000 0 0 1
35.367361 9.446481 -30.031700 47.349649 0.261003 2.257839 0.087347 -0.007535 113267.000000 0 0 1
34.010861 9.006481 -29.419280 45.862287 0.258870 2.267209 0.067272 -0.006297 198326.000000 0 0 1
33.728761 7.609781 -29.525540 45.467523 0.221902 2.277561 0.052861 -0.000988 992529.000000 0 0 1
32.415061 7.332781 -29.001680 44.108993 0.222471 2.288293 0.052893 -0.003220 596731.000000 0 0 1
35.672789 5.836781 -18.893620 40.787066 0.162183 2.052428 0.071762 -0.020023 -380122.000000 0 0 1
35.093769 6.849881 -18.043820 40.050879 0.192764 2.038147 0.071008 -0.009628 521009.000000 0 0 1
35.556839 8.153881 -18.443120 40.876928 0.225422 2.038891 0.050894 -0.013077 -392666.000000 0 0 1
-36.725139 8.451581 -18.147320 41.826909 -0.226192 2.019577 0.060793 -0.020063 -646006.000000 0 0 1
-35.792979 7.748581 -18.879020 41.201884 -0.213193 2.046774 0.062075 -0.025870 -854687.000000 0 0 1
-35.323379 8.516681 -19.906920 41.431394 -0.236591 2.071997 0.056400 -0.018349 -708405.000000 0 0 1
-34.301736 7.715081 -20.792120 40.846589 -0.221236 2.104853 0.038310 -0.006086 -98389.000000 0 0 1
-34.617342 6.639381 -21.680220 41.382046 -0.189492 2.122224 0.031441 -0.003588 -60172.400000 0 0 1
-35.387480 7.022881 -22.814020 42.685760 -0.195911 2.134670 0.025652 0.002015 101560.000000 0 0 1
-35.574961 5.829781 -23.800320 43.197447 -0.162429 2.154318 0.051389 -0.004054 -210040.000000 0 0 1
-34.477706 5.646781 -24.640620 42.752292 -0.162339 2.185061 0.055510 -0.014788 -224946.000000 0 0 1
-34.498395 4.356081 -25.162240 42.921475 -0.125604 2.197205 0.075794 -0.013190 1658.880000 0 0 1
-33.273729 4.060881 -26.075840 42.468591 -0.121444 2.231918 0.095466 -0.012906 1144530.000000 0 0 1
-32.024429 4.071281 -25.339280 41.039231 -0.126452 2.236281 0.086193 -0.016904 -3926.730000 0 0 1
-31.026629 3.598481 -26.168070 40.747622 -0.115465 2.268160 0.091742 -0.018917 745053.000000 0 0 1
-29.570659 3.929181 -25.602990 39.311264 -0.132100 2.280078 0.095449 -0.031560 1078590.000000 0 0 1
-29.240459 5.272281 -25.435300 39.112094 -0.178391 2.278799 0.066965 -0.016656 -851780.000000 0 0 1
-27.919599 5.454281 -25.060480 37.911487 -0.192927 2.292982 0.068863 -0.017457 -672312.000000 0 0 1
-27.389009 6.881581 -25.244020 37.878418 -0.246158 2.300232 0.053615 -0.019780 199926.000000 0 0 1
-28.027509 7.792881 -24.316420 37.915149 -0.271194 2.267037 0.047717 -0.027354 267959.000000 0 0 1
-27.607869 9.102881 -24.655420 38.117537 -0.318495 2.274212 0.024704 -0.020465 476471.000000 0 0 1
-26.234799 9.532981 -24.072920 36.859841 -0.348537 2.282459 0.060328 -0.014953 -265544.000000 0 0 1
-26.275629 9.966981 -22.704020 36.127855 -0.362556 2.250336 0.028789 -0.013820 1401420.000000 0 0 1
-24.932739 10.200681 -22.188420 34.900163 -0.388350 2.259800 0.069106 -0.018054 1053050.000000 0 0 1
-25.037139 10.689081 -20.724320 34.214211 -0.403503 2.221470 0.088656 -0.035290 -735140.000000 0 0 1
-25.495989 12.044481 -20.462720 34.840176 -0.441330 2.198554 0.065045 -0.035238 1139930.000000 0 0 1
-26.915719 12.265781 -20.415220 35.940041 -0.427593 2.174913 0.054917 -0.019066 372471.000000 0 0 1
-27.560859 11.581181 -19.188320 35.523462 -0.397801 2.141422 0.032257 -0.011860 -1070400.000000 0 0 1
-27.201889 12.063381 -17.882820 34.716900 -0.417415 2.111926 0.035489 -0.019917 43382.900000 0 0 1
-28.058929 11.602681 -16.889620 34.744567 -0.392099 2.078427 0.026411 -0.021455 -883442.000000 0 0 1
-27.462929 11.814581 -15.455720 33.655253 -0.406268 2.047932 0.052682 -0.024680 519394.000000 0 0 1
-26.484389 10.807081 -15.189320 32.387209 -0.387431 2.058945 0.067266 -0.028702 636892.000000 0 0 1
-25.165269 11.033681 -15.631620 31.612979 -0.413206 2.088019 0.075409 -0.016803 -615902.000000 0 0 1
-24.370939 9.716581 -15.771220 30.611860 -0.379381 2.112037 0.071554 -0.004773 -1196390.000000 0 0 1
-23.008339 9.833481 -15.883120 29.637046 -0.403891 2.136395 0.092025 -0.005758 -1080970.000000 0 0 1
-22.364839 8.605181 -15.758820 28.680578 -0.367303 2.152514 0.103966 -0.012436 135369.000000 0 0 1
-20.823339 8.626181 -15.618020 27.421616 -0.392735 2.176756 0.135318 -0.020667 303027.000000 0 0 1
-20.096639 9.003781 -16.779920 27.685893 -0.421210 2.221922 0.145823 -0.034318 -257638.000000 0 0 1
-18.745939 9.186981 -16.488120 26.602048 -0.455679 2.239292 0.153583 -0.040286 -455775.000000 0 0 1
-17.877239 9.560681 -17.743420 26.941256 -0.491096 2.289749 0.118890 -0.026915 90190.000000 0 0 1
-17.731239 8.540881 -18.733620 27.171529 -0.448889 2.331536 0.160659 -0.045732 524718.000000 0 0 1
-16.658239 7.631181 -18.489320 26.030498 -0.429571 2.360713 0.169502 -0.047029 -406136.000000 0 0 1
-16.194439 6.781481 -19.656320 26.355631 -0.396568 2.412548 0.152920 -0.048656 -281562.000000 0 0 1
-17.078639 5.872181 -20.237920 27.124451 -0.331169 2.413002 0.142629 -0.044434 -319815.000000 0 0 1
-18.092739 6.363981 -21.073120 28.494278 -0.338226 2.403207 0.141143 -0.044195 -14909.700000 0 0 1
-19.022839 5.328281 -21.737820 29.373318 -0.273101 2.403946 0.132285 -0.035390 295040.000000 0 0 1
-19.941539 4.708381 -20.835620 29.222541 -0.231863 2.364561 0.159839 -0.034782 978515.000000 0 0 1
-20.796739 3.728081 -21.504320 30.146952 -0.177379 2.365015 0.112702 -0.017222 558920.000000 0 0 1
-21.811439 3.089981 -20.529920 30.112530 -0.140731 2.320980 0.119771 -0.019390 12266.300000 0 0 1
-22.570139 1.993881 -21.037520 30.918667 -0.088113 2.319125 0.121020 -0.018926 921683.000000 0 0 1
-23.421139 1.491181 -19.982620 30.823343 -0.063582 2.276139 0.116077 -0.021960 -331123.000000 0 0 1
-24.144839 0.186081 -20.231720 31.501276 -0.007707 2.268228 0.101479 -0.010917 -793223.000000 0 0 1
-23.351539 -0.983019 -20.198720 30.890921 0.042072 2.283488 0.117046 -0.020254 102672.000000 0 0 1
-23.963739 -2.233119 -20.549820 31.647160 0.092919 2.277515 0.103780 -0.026178 -746999.000000 0 0 1
-24.426139 -2.468619 -21.994720 32.962070 0.100723 2.301339 0.105574 -0.030430 -223129.000000 0 0 1
-23.507639 -2.567719 -23.055220 33.026436 0.108798 2.343514 0.087830 -0.031263 -39576.000000 0 0 1
-22.600839 -3.673519 -22.981720 32.441519 0.161130 2.358032 0.083738 -0.038848 114778.000000 0 0 1
-21.573539 -3.598019 -24.128220 32.565846 0.165258 2.405214 0.077313 -0.033094 -248504.000000 0 0 1
-22.104239 -3.892619 -25.369500 33.872724 0.174316 2.417296 0.076274 -0.033396 309589.000000 0 0 1
-21.077039 -3.860219 -26.346770 33.960200 0.181141 2.458799 0.076706 -0.036215 -109990.000000 0 0 1
-21.735539 -3.889219 -27.759940 35.470748 0.177060 2.469652 0.074593 -0.042106 433932.000000 0 0 1
-22.441939 -5.139519 -27.918850 36.187256 0.225132 2.452008 0.073554 -0.033185 525436.000000 0 0 1
-23.099339 -5.293419 -29.155630 37.571938 0.225269 2.459087 0.042912 -0.025921 -541031.000000 0 0 1
-22.473239 -6.498319 -29.937850 37.994072 0.281481 2.478287 0.049042 -0.024293 297615.000000 0 0 1
-21.251239 -6.194419 -30.601300 37.768050 0.283627 2.515363 0.043089 -0.028156 143879.000000 0 0 1
-20.683239 -7.451919 -30.942300 37.957258 0.345810 2.523850 0.037778 -0.020850 -927666.000000 0 0 1
-19.266639 -7.277319 -31.473350 37.612957 0.361150 2.562152 0.049225 -0.018699 -997890.000000 0 0 1
-19.068639 -6.606819 -32.742190 38.461852 0.333532 2.589235 0.054008 -0.027542 423527.000000 0 0 1
-19.426539 -7.492719 -33.818550 39.714300 0.368114 2.589723 0.042859 -0.026907 -587848.000000 0 0 1
-19.381239 -6.912219 32.803975 38.723532 0.342582 0.560230 0.047946 -0.031877 398385.000000 0 0 1
-18.051239 -6.861319 32.282705 37.617788 0.363236 0.539089 0.059183 -0.027701 601218.000000 0 0 1
-17.354939 -5.679619 32.569169 37.339024 0.316277 0.511001 0.054085 -0.031585 465291.000000 0 0 1
-15.945739 -5.617319 31.869837 36.076410 0.338702 0.487731 0.061234 -0.031269 536734.000000 0 0 1
-16.119839 -5.527019 30.448937 34.893193 0.330309 0.510229 0.055768 -0.029348 -176608.000000 0 0 1
-14.999739 -5.130719 29.712597 33.677216 0.329578 0.490121 0.052890 -0.021091 -266511.000000 0 0 1
-15.306839 -5.317219 28.254717 32.571478 0.334335 0.520706 0.056211 -0.015574 442743.000000 0 0 1
-16.282039 -4.364119 27.839887 32.545501 0.261877 0.544446 0.051159 -0.018766 354678.000000 0 0 1
-16.871439 -4.451319 26.529757 31.753546 0.257959 0.581773 0.062796 -0.010455 144811.000000 0 0 1
-15.902839 -4.082719 25.395317 30.240552 0.251302 0.573924 0.063403 -0.013203 -45283.100000 0 0 1
-15.679139 -2.681119 25.411447 29.979417 0.169361 0.559294 0.059124 -0.010693 -92807.100000 0 0 1
-14.779339 -2.373819 24.379337 28.607970 0.159257 0.550646 0.041496 -0.009298 -147861.000000 0 0 1
-14.452539 -0.891619 24.252877 28.246644 0.061615 0.538243 0.040188 -0.011221 -145060.000000 0 0 1
-15.405239 -0.176419 23.499307 28.099287 0.011451 0.580305 0.041269 -0.020927 95336.000000 0 0 1
-15.511839 1.092581 24.067767 28.654289 -0.070319 0.573631 0.018804 -0.010734 -12429.300000 0 0 1
-16.357739 2.119981 23.193397 28.460562 -0.128883 0.618186 0.020273 -0.015395 -91899.400000 0 0 1
-15.664939 2.655181 22.129077 27.242179 -0.167903 0.622695 0.018156 -0.012327 137627.000000 0 0 1
-16.328939 3.801781 21.638577 27.373633 -0.228750 0.659188 0.012556 -0.007473 -386601.000000 0 0 1
-15.455639 4.538681 20.639577 26.181454 -0.285629 0.662709 0.010054 -0.000961 -814704.000000 0 0 1
-14.369839 5.186081 21.222677 26.149373 -0.346352 0.623921 0.007254 -0.009315 -692630.000000 0 0 1
-13.476639 5.330781 20.163077 24.831164 -0.376670 0.623214 0.011004 -0.010146 -375415.000000 0 1 0
-12.312439 6.307081 20.473977 24.709495 -0.473402 0.594216 0.009356 -0.006651 99605.200000 0 1 0
-12.709739 7.662581 20.281877 25.131795 -0.542542 0.631707 0.018451 -0.007600 1113840.000000 0 0 1
-11.600039 8.590481 20.471077 25.048398 -0.637430 0.614155 0.011927 -0.007732 624990.000000 0 0 1
-11.989439 10.097481 20.545077 25.841941 -0.699947 0.651742 0.005083 -0.004151 -231889.000000 0 0 1
-12.326239 10.638781 19.294477 25.246716 -0.712050 0.700939 0.014238 -0.009627 321796.000000 0 0 1
-12.934639 11.894681 19.452477 26.214255 -0.743538 0.734662 0.009985 -0.001058 -532494.000000 0 0 1
-13.258639 12.618881 18.190777 25.805659 -0.760681 0.788494 0.010371 -0.000911 -110942.000000 0 0 1
-12.282539 13.368881 17.432477 25.169008 -0.827723 0.805686 0.014337 -0.001704 308421.000000 0 0 1
-12.052039 14.674581 17.926877 26.114515 -0.883210 0.814171 0.020317 -0.002051 244644.000000 0 0 1
-13.206239 15.770781 17.692677 27.132141 -0.873671 0.860455 0.021620 0.001482 777901.000000 0 0 1
-13.357839 16.283781 16.393677 26.689811 -0.883790 0.909387 0.018440 -0.009590 72433.400000 0 0 1
-13.824339 15.275281 15.499277 25.781275 -0.835218 0.925815 0.030000 -0.010405 -573576.000000 0 0 1
-14.046739 15.848581 14.041377 25.409617 -0.845597 0.985315 0.020991 -0.018916 -624230.000000 0 0 1
-15.077439 16.759881 14.020577 26.548057 -0.838194 1.014410 0.021710 -0.015140 -762860.000000 0 0 1
-15.479839 17.023481 12.758777 26.309897 -0.832854 1.064499 0.002956 -0.013593 -1032830.000000 0 0 1
-16.520739 18.099381 12.652677 27.579206 -0.830966 1.094179 0.022529 -0.017188 -167065.000000 0 0 1
-17.815939 17.662181 13.082977 28.293543 -0.781064 1.090095 0.035681 -0.019507 853870.000000 0 0 1
-18.757839 18.751681 13.153377 29.605631 -0.785234 1.110419 0.049152 -0.023046 -237328.000000 0 0 1
-20.133039 18.339281 13.633377 30.455499 -0.738807 1.106662 0.058206 -0.015686 -825778.000000 0 0 1
-20.823539 17.626981 12.645077 30.070387 -0.702455 1.136782 0.062626 -0.018173 65692.600000 0 0 1
-21.997839 17.010181 13.166577 30.767026 -0.658226 1.128579 0.108377 -0.031010 594363.000000 0 0 1
-22.890739 16.354881 12.050377 30.605222 -0.620375 1.166104 0.104482 -0.029399 173678.000000 0 0 1
-22.404539 15.096481 11.535377 29.375704 -0.592934 1.167248 0.103810 -0.022707 272574.000000 0 0 1
-22.974939 14.815181 10.275577 29.204878 -0.572740 1.211255 0.116445 -0.021482 -41730.600000 0 0 1
-22.397739 13.484381 9.704477 27.886629 -0.541920 1.215362 0.116416 -0.016101 -123638.000000 0 0 1
-22.678539 12.284381 10.468977 27.835618 -0.496429 1.185213 0.114283 -0.022138 551552.000000 0 0 1
-24.023739 11.826081 10.592677 28.795851 -0.457442 1.194096 0.136424 -0.029917 397721.000000 0 0 1
-24.785539 11.270681 9.393477 28.802580 -0.426779 1.238586 0.149403 -0.018106 -468489.000000 0 0 1
-25.244599 12.225581 8.467477 29.299365 -0.450997 1.277616 0.162641 -0.026904 -992.959000 0 0 1
-26.229549 11.502581 7.749577 29.670769 -0.413279 1.306546 0.183529 -0.029775 -495483.000000 0 0 1
-26.836309 12.501781 6.720277 30.358592 -0.435959 1.347584 0.167056 -0.024914 62149.400000 0 0 1
-26.062739 12.809581 5.520177 29.560515 -0.456817 1.382952 0.171171 -0.032039 1207010.000000 0 0 1
-24.726439 13.305481 5.613477 28.634659 -0.493667 1.373481 0.173500 -0.034397 295609.000000 0 0 1
-24.476039 14.718881 6.290677 29.245419 -0.541418 1.354003 0.167987 -0.032791 827255.000000 0 0 1
-23.121039 15.258281 6.283977 28.405738 -0.583325 1.347729 0.135182 -0.027096 1581090.000000 0 0 1
-23.147839 16.642881 6.703777 29.287345 -0.623352 1.339852 0.133305 -0.028786 591032.000000 0 0 1
-21.680939 17.181781 6.857777 28.500979 -0.670141 1.327796 0.108926 -0.022612 626373.000000 0 0 1
-21.140139 17.470881 5.590577 27.989135 -0.690651 1.369703 0.115769 -0.027279 -412140.000000 0 0 1
-19.778139 17.724181 5.672877 27.157005 -0.730684 1.360355 0.101635 -0.029948 -792716.000000 0 0 1
-19.234839 18.545381 4.463577 27.089365 -0.767151 1.405269 0.101400 -0.026561 278558.000000 0 0 1
-17.842939 18.856781 4.519277 26.350949 -0.813016 1.398441 0.084237 -0.028501 821445.000000 0 0 1
-17.375239 19.744181 3.462177 26.527689 -0.849131 1.439911 0.079439 -0.028164 110265.000000 0 0 1
-17.485139 21.237781 3.796977 27.770316 -0.882007 1.433639 0.081218 -0.023260 -384199.000000 0 0 1
-16.672539 21.561881 4.896777 27.692358 -0.912586 1.393034 0.063188 -0.026611 -65528.700000 0 0 1
-16.958139 22.900781 5.262077 28.977814 -0.933400 1.388193 0.045941 -0.022786 -105173.000000 0 0 1
-16.412039 23.419781 6.616177 29.353278 -0.959549 1.343445 0.043978 -0.008429 -344786.000000 0 0 1
-16.851139 22.691881 7.682977 29.290109 -0.932044 1.305385 0.044488 -0.009302 75778.900000 0 0 1
-16.119139 22.982681 8.867677 29.439191 -0.959158 1.264824 0.039663 -0.013138 81632.500000 0 0 1
-16.820339 22.462381 10.139477 29.837750 -0.928049 1.224070 0.028951 -0.014013 321287.000000 0 0 1
-17.890239 23.277881 10.631677 31.224236 -0.915528 1.223354 0.019657 -0.010368 804303.000000 0 0 1
-18.924339 22.409181 11.164877 31.384016 -0.869510 1.207079 0.018778 -0.010088 299307.000000 0 0 1
-20.136139 23.184381 11.673077 32.851793 -0.855647 1.207534 0.024693 -0.009150 -191853.000000 0 0 1
-21.002439 23.797881 10.709877 33.498403 -0.847715 1.245370 0.037016 -0.007050 267293.000000 0 0 1
-20.682239 25.111281 10.388177 34.150339 -0.881816 1.261709 0.019749 -0.008519 -18150.400000 0 0 1
-21.855639 25.910781 9.735677 35.267845 -0.870090 1.291115 0.032974 -0.011645 119101.000000 0 0 1
-22.794039 26.285281 10.718577 36.405660 -0.856413 1.271947 0.039088 -0.014017 -369342.000000 0 0 1
-23.716439 27.131381 10.137877 37.434714 -0.852458 1.296557 0.058325 -0.017010 -577002.000000 0 0 1
-24.309939 28.173281 11.188477 38.857289 -0.858877 1.278724 0.061170 -0.010300 -342338.000000 0 0 1
-23.418739 29.167681 11.620877 39.169321 -0.894289 1.269579 0.072732 -0.019605 74495.500000 0 0 1
-24.006439 30.124381 12.443377 40.479934 -0.897942 1.258341 0.078929 -0.022256 -516543.000000 0 0 1
9.140061 -32.214170 27.383237 43.256619 -1.294334 0.885320 0.058968 -0.030890 -640289.000000 0 0 1
10.521961 -32.383070 27.454577 43.739326 -1.256635 0.892219 0.064295 -0.032803 -462769.000000 0 0 1
11.079961 -31.905170 26.233167 42.765458 -1.236549 0.910413 0.078900 -0.032310 173736.000000 0 0 1
12.610661 -32.170070 26.283597 43.413933 -1.197206 0.920505 0.038117 -0.026696 73573.900000 0 0 1
12.913361 -33.553270 26.235027 44.506780 -1.203408 0.940404 0.050593 -0.027116 -769767.000000 0 0 1
14.279561 -33.700870 26.043507 44.921250 -1.170015 0.952363 0.070833 -0.024429 -671212.000000 0 0 1
14.696061 32.892781 25.932987 44.389515 1.150618 0.946885 0.094788 -0.027139 -141337.000000 0 0 1
14.691161 32.414081 24.622827 43.275703 1.145256 0.965536 0.086987 -0.029591 -137807.000000 0 0 1
15.533761 31.323981 24.555827 42.725614 1.110429 0.958518 0.100268 -0.036539 -680555.000000 0 0 1
15.921661 30.906081 23.124907 41.754598 1.095092 0.983840 0.106614 -0.043384 -166981.000000 0 0 1
15.040461 30.155581 22.275377 40.395135 1.108140 0.986710 0.094556 -0.040768 57515.700000 0 0 1
15.038561 28.726281 22.432177 39.427910 1.088516 0.965578 0.099107 -0.035969 267916.000000 0 0 1
14.352461 28.142581 23.784077 39.543398 1.099188 0.925459 0.110407 -0.037137 -220891.000000 0 0 1
15.178261 28.347681 24.878757 40.656157 1.079206 0.912297 0.109162 -0.032922 19872.000000 0 0 1
14.573761 27.984281 26.113947 40.956717 1.090660 0.879419 0.104225 -0.031417 -364487.000000 0 0 1
15.382461 28.420881 27.325397 42.320726 1.074705 0.868891 0.101009 -0.035122 -87933.900000 0 0 1
15.522361 29.837381 27.483917 43.434763 1.091094 0.885680 0.100075 -0.032916 107418.000000 0 0 1
16.367061 30.130981 28.569947 44.631811 1.073191 0.876135 0.120502 -0.038116 -32256.200000 0 0 1
16.488061 31.574981 29.035177 45.955163 1.089557 0.886903 0.119034 -0.042800 -6039.980000 0 0 1
17.207661 32.443481 28.177437 46.288778 1.083134 0.916336 0.097242 -0.034928 38652.400000 0 0 1
17.205761 33.773681 28.649897 47.513328 1.099623 0.923557 0.104943 -0.025248 -444667.000000 0 0 1
18.109361 -33.449370 27.856447 47.146484 -1.074583 0.938686 0.086737 -0.018156 -698857.000000 0 0 1
17.674061 -33.351470 26.512577 46.126020 -1.083490 0.958454 0.084755 -0.014813 -79549.300000 0 0 1
17.825861 -32.021670 25.955877 44.909422 -1.062838 0.954569 0.083443 -0.015973 721613.000000 0 0 1
19.234361 -31.304270 25.790227 44.889350 -1.019832 0.958768 0.071147 -0.007655 764133.000000 0 0 1
19.844961 -31.012470 27.003617 45.659512 -1.001552 0.937987 0.062663 -0.006150 476125.000000 0 0 1
21.010361 -30.177070 26.805467 45.504108 -0.962601 0.940879 0.069088 -0.006012 748958.000000 0 0 1
21.328161 -29.463970 28.114767 45.972340 -0.944227 0.912768 0.075441 -0.008326 404175.000000 0 0 1
20.171861 -28.673870 28.441937 45.144640 -0.957730 0.889220 0.071015 -0.008108 657373.000000 0 0 1
20.348861 -27.723670 29.481247 45.297041 -0.937621 0.862103 0.083491 -0.011246 577347.000000 0 0 1
18.944661 -27.195270 29.948007 44.669520 -0.962345 0.836001 0.075582 -0.014337 509948.000000 0 0 1
18.324161 -26.455570 28.978507 43.306188 -0.965028 0.837727 0.090705 -0.013862 -334589.000000 0 0 1
17.070761 -25.990370 29.433227 42.816177 -0.989648 0.812849 0.074686 -0.014006 -196816.000000 0 0 1
16.313761 -25.239470 28.342617 41.309485 -0.996985 0.814676 0.064433 -0.009949 -765687.000000 0 0 1
15.750561 -26.086970 27.326457 40.930983 -1.027609 0.839785 0.060000 -0.006107 635335.000000 0 0 1
14.956061 -25.407870 26.341037 39.535981 -1.038772 0.841621 0.062766 -0.014690 -2901.430000 0 0 1
13.565361 -24.821170 26.791727 38.960315 -1.070626 0.812525 0.047847 -0.012461 583527.000000 0 0 1
12.548261 -25.794670 27.040667 39.421079 -1.118033 0.814896 0.045983 -0.014408 579288.000000 0 0 1
12.123761 -26.536970 25.866427 38.990619 -1.142250 0.845441 0.047166 -0.020651 -299335.000000 0 0 1
11.092361 -27.717970 26.064767 39.632037 -1.190129 0.853076 0.063034 -0.028683 1359200.000000 0 0 1
9.731361 -27.395870 26.385377 39.260937 -1.229485 0.833820 0.051753 -0.032948 743752.000000 0 0 1
8.918561 -28.551070 26.322057 39.844134 -1.268028 0.849144 0.054838 -0.032491 -109027.000000 0 0 1
7.448761 -28.349470 26.831047 39.737659 -1.313856 0.829554 0.050025 -0.032907 269415.000000 0 0 1
6.428061 -28.170970 25.899417 38.803393 -1.346457 0.840014 0.056460 -0.037721 -290228.000000 0 0 1
6.638561 -27.035670 25.096207 37.480895 -1.330012 0.837162 0.056951 -0.037793 -1130700.000000 0 0 1
5.576061 -26.652070 24.014837 36.306166 -1.364554 0.848041 0.065751 -0.033891 -437802.000000 0 0 1
5.375761 -27.577970 22.985177 36.300986 -1.378281 0.885137 0.053464 -0.030221 -301584.000000 0 0 1
4.619561 -28.730670 23.256227 37.251091 -1.411372 0.896548 0.057781 -0.033683 554799.000000 0 0 1
3.122761 -28.573770 23.731167 37.274391 -1.461941 0.880635 0.054135 -0.035277 192801.000000 0 0 1
2.173361 -28.361370 22.706877 36.396333 -1.494315 0.897101 0.055588 -0.025057 17909.400000 0 0 1
0.933361 -27.807670 23.086467 36.154151 -1.537244 0.878175 0.063435 -0.027900 221141.000000 0 0 1
0.883161 -26.273170 23.412917 35.202615 -1.537194 0.843182 0.068063 -0.026903 -442946.000000 0 0 1
1.628561 -25.996270 24.565117 35.803676 -1.508232 0.814673 0.057182 -0.026015 -72787.600000 0 0 1
1.411461 -24.678870 25.053527 35.195426 -1.513665 0.778681 0.067488 -0.023943 -181871.000000 0 0 1
2.532761 -24.312970 26.064007 35.733287 -1.466997 0.753346 0.072522 -0.017280 644626.000000 0 0 1
3.742061 -23.968670 25.360117 35.094667 -1.415924 0.763211 0.066594 -0.019568 894954.000000 0 0 1
4.731961 -23.238170 26.098317 35.263666 -1.369914 0.737591 0.060236 -0.015912 572428.000000 0 0 1
4.379561 -21.741470 26.383957 34.467162 -1.372018 0.699008 0.060298 -0.005649 -395420.000000 0 0 1
4.490861 -21.017170 25.199087 33.119227 -1.360286 0.706159 0.061073 -0.008425 404217.000000 0 0 1
3.848661 -19.734470 25.359057 32.362683 -1.378192 0.670374 0.067671 -0.017571 267757.000000 0 0 1
3.623861 -19.045370 24.008427 30.858759 -1.382769 0.679304 0.081649 -0.023096 328922.000000 0 0 1
4.697961 -18.189670 23.620977 30.180879 -1.318043 0.671889 0.080220 -0.015276 57543.000000 0 0 1
4.671661 -17.874770 22.232877 28.907311 -1.315159 0.693350 0.088054 -0.017932 -698655.000000 0 0 1
5.917261 -17.146370 21.771777 28.337647 -1.238491 0.694617 0.060364 -0.007254 -355829.000000 0 0 1
7.057261 -17.942770 21.965377 29.227140 -1.196061 0.720402 0.043289 -0.012575 -376323.000000 0 0 1
8.226061 -17.383970 21.399777 28.771877 -1.128819 0.732097 0.036406 -0.012509 1081080.000000 0 0 1
9.589461 -17.674670 22.134777 29.904850 -1.073688 0.737468 0.052595 -0.002638 942369.000000 0 0 1
9.499861 -17.085670 23.428347 30.513192 -1.063348 0.695380 0.058409 0.006079 -476548.000000 0 0 1
10.720861 -17.063170 24.090797 31.407883 -1.009824 0.696597 0.064309 0.007256 -705883.000000 0 0 1
10.550861 -16.489070 25.509047 32.154651 -1.001575 0.654547 0.074461 -0.011607 -8670.230000 0 0 1
10.675961 -15.086570 25.537337 31.523583 -0.954957 0.626469 0.089327 -0.013948 63052.300000 0 0 1
10.698861 -14.503970 26.802677 32.298827 -0.935246 0.591986 0.082249 -0.017936 -318130.000000 0 0 1
10.880261 -12.994370 26.735737 31.654910 -0.873718 0.564979 0.082988 -0.015552 -276819.000000 0 0 1
10.005261 -12.247970 25.934167 30.375961 -0.885840 0.547607 0.083609 -0.017428 -224444.000000 0 0 1
10.335161 -10.896270 25.909547 29.947435 -0.811820 0.525312 0.083208 -0.014286 93491.800000 0 0 1
9.307961 -10.061370 25.080077 28.581105 -0.824276 0.500161 0.076473 -0.011729 -110334.000000 0 0 1
8.070561 -9.927570 25.725557 28.731426 -0.888212 0.461512 0.056611 -0.009236 -702983.000000 0 0 1
7.252161 -9.223570 24.807767 27.442547 -0.904487 0.441787 0.048768 -0.003622 525669.000000 0 0 1
5.736561 -9.329570 25.180777 27.459434 -1.019508 0.410260 0.036506 -0.006550 83808.200000 0 0 1
5.248261 -8.453270 26.182587 28.009460 -1.015183 0.363167 0.036974 -0.004633 455733.000000 0 0 1
3.899761 -8.546370 26.622097 28.230916 -1.142711 0.339227 0.027835 -0.007280 1152720.000000 0 0 1
2.704161 -8.434670 25.630547 27.117910 -1.260549 0.332737 0.030692 -0.009940 -12217.300000 0 0 1
2.793661 -7.282270 24.808907 26.006112 -1.204486 0.304608 0.039519 -0.011082 130949.000000 0 0 1
1.641761 -7.093370 23.996267 25.076525 -1.343351 0.294589 0.042288 -0.017615 140050.000000 0 0 1
1.684761 -5.762970 23.248657 24.011461 -1.286379 0.252737 0.035750 -0.020438 10674.800000 0 1 0
1.683261 -4.593770 24.002207 24.495755 -1.219567 0.201079 0.044336 -0.017420 -266653.000000 0 1 0
2.147161 -3.472070 23.272267 23.627610 -1.016950 0.173650 0.042020 -0.017923 -1184430.000000 0 1 0
1.284961 -2.711770 22.228477 22.430114 -1.128290 0.134187 0.041046 -0.023639 634960.000000 0 1 0
0.151761 -2.043770 22.818977 22.910821 -1.496677 0.089571 0.036964 -0.019032 31529.400000 0 1 0
-0.928539 -2.842770 23.170617 23.362812 1.255089 0.128358 0.042093 -0.023943 -755718.000000 0 1 0
-2.022639 -1.934770 23.837657 24.001422 0.763198 0.116884 0.046871 -0.031570 204254.000000 0 1 0
-1.515239 -1.244770 24.946117 25.023072 0.687714 0.078447 0.047292 -0.027555 322786.000000 0 0 1
-2.300239 -0.044770 25.169277 25.274208 0.019461 0.091155 0.057918 -0.027022 110804.000000 0 0 1
-1.962639 0.816230 26.400217 26.485649 -0.394124 0.080341 0.074690 -0.023212 -373234.000000 0 0 1
-2.123839 0.178230 27.665877 27.747850 -0.083723 0.076885 0.084417 -0.024597 267660.000000 0 0 1
-1.201239 -0.893770 27.899517 27.939664 0.639676 0.053615 0.076422 -0.025326 -82486.700000 0 0 1
0.161361 -0.404770 28.481347 28.484680 -1.191455 0.015298 0.086447 -0.022663 -47035.600000 0 0 1
1.102661 0.110230 27.516917 27.539221 0.099636 0.040250 0.064405 -0.017791 363515.000000 0 0 1
1.842961 -0.770770 26.717077 26.791655 -0.396117 0.074632 0.055398 -0.016758 -737218.000000 0 0 1
2.918361 -1.531770 27.459237 27.656334 -0.483348 0.119458 0.063288 -0.018658 -1478970.000000 0 0 1
2.443061 -2.543770 28.354967 28.573475 -0.805590 0.123750 0.063368 -0.017337 -189702.000000 0 0 1
3.388261 -3.470470 28.856637 29.261407 -0.797384 0.166523 0.057503 -0.015205 -97639.100000 0 0 1
4.040861 -4.412870 27.847077 28.482655 -0.829375 0.211651 0.058994 -0.014092 -7240.100000 0 0 1
4.909661 -3.832770 26.900337 27.612008 -0.662836 0.227532 0.060581 -0.010998 -213116.000000 0 0 1
5.382761 -4.731270 25.909387 26.882250 -0.721072 0.269853 0.049267 -0.010614 99631.800000 0 0 1
6.617861 -4.175370 25.179057 26.366924 -0.562848 0.301310 0.052684 -0.005071 2155660.000000 0 0 1
7.967661 -4.215270 25.802377 27.331571 -0.486615 0.336093 0.053978 -0.005720 2046700.000000 0 0 1
8.735161 -5.375570 25.724577 27.693928 -0.551662 0.379395 0.051000 -0.005658 -112328.000000 0 0 1
9.471161 -5.609570 24.387767 26.756930 -0.534723 0.423987 0.050512 -0.010399 -584973.000000 0 0 1
8.670661 -5.980770 23.282297 25.554164 -0.603828 0.424861 0.053356 -0.008606 16045.500000 0 0 1
9.356061 -5.763370 22.020377 24.609943 -0.552104 0.462868 0.060308 -0.009099 274031.000000 0 1 0
9.483661 -4.300370 21.323577 23.730317 -0.425720 0.454275 0.065022 -0.018202 310777.000000 0 1 0
8.222261 -3.710870 21.067377 22.917471 -0.423951 0.404571 0.050690 -0.016032 -354521.000000 0 1 0
8.249661 -2.503770 20.332377 22.084640 -0.294664 0.401036 0.041247 -0.018106 337908.000000 0 1 0
6.810861 -1.917770 20.209777 21.412630 -0.274469 0.336776 0.036217 -0.008547 333470.000000 0 1 0
6.298061 -1.469770 21.392077 22.348305 -0.229265 0.293585 0.038282 -0.002470 -908847.000000 0 1 0
5.056361 -0.896770 21.152477 21.766907 -0.175530 0.238166 0.019608 -0.001025 -674508.000000 0 1 0
4.523361 -0.235770 22.455977 22.908236 -0.052076 0.199035 0.025872 -0.004549 -351942.000000 0 1 0
3.242161 0.295230 22.259177 22.495993 0.090809 0.145228 0.020061 -0.006832 -375073.000000 0 1 0
2.665861 0.562230 23.514267 23.671579 0.207854 0.115352 0.033366 -0.008269 408749.000000 0 1 0
1.216461 1.137230 23.540417 23.599243 0.751749 0.070623 0.027361 -0.008276 332643.000000 0 1 0
1.029461 2.407230 23.012577 23.161028 1.166680 0.113282 0.029192 -0.009226 -127111.000000 0 1 0
-0.338839 2.654230 22.818077 22.974429 -1.443823 0.116732 0.025442 -0.013075 -122587.000000 0 1 0
-0.721539 4.105230 22.435177 22.819086 -1.396812 0.183692 0.040553 -0.011028 -210581.000000 0 1 0
-0.639139 5.072230 23.500897 24.050534 -1.445449 0.214201 0.048134 -0.005263 149192.000000 0 1 0
-1.531439 6.160230 23.247017 24.098081 -1.327135 0.266558 0.045560 -0.003201 242639.000000 0 1 0
-1.240639 7.407230 24.170927 25.310866 -1.404846 0.301263 0.056430 0.001817 8905.310000 0 0 1
-0.195739 8.220230 23.678787 25.065822 -1.546989 0.334227 0.048329 -0.003222 -87941.900000 0 0 1
-0.199839 9.464230 24.340207 26.116226 -1.549684 0.370916 0.068372 -0.002109 14309.100000 0 0 1
0.690961 10.558230 23.646057 25.905398 1.505447 0.420745 0.062717 -0.009549 111749.000000 0 0 1
2.086361 10.503230 23.706747 26.013085 1.374709 0.424270 0.047865 -0.008007 -383435.000000 0 0 1
2.647061 10.960230 24.954927 27.383972 1.333819 0.424374 0.062291 -0.011050 -780391.000000 0 0 1
3.981361 11.670230 24.835307 27.727928 1.242023 0.460842 0.050583 -0.017854 508582.000000 0 0 1
5.138361 10.990230 24.241547 27.107942 1.133453 0.464021 0.044960 -0.015365 1324560.000000 0 0 1
5.029461 10.583230 22.894677 25.718990 1.127161 0.473044 0.051747 -0.016286 -591683.000000 0 0 1
6.422861 10.198230 22.320577 25.366616 1.008752 0.495104 0.042706 -0.013890 529090.000000 0 0 1
7.333161 11.286230 22.178677 25.943168 0.994601 0.545448 0.045538 -0.016683 -245822.000000 0 0 1
8.428661 10.882230 21.426877 25.467161 0.911777 0.571014 0.057199 -0.017655 -478688.000000 0 0 1
9.350561 12.080230 21.131677 26.075136 0.912087 0.625936 0.051186 -0.018432 -817894.000000 0 0 1
8.791061 12.832230 20.095977 25.412539 0.970156 0.658698 0.042912 -0.010188 417655.000000 0 0 1
9.658661 13.756230 19.439977 25.698955 0.958642 0.712928 0.060681 -0.010221 -176468.000000 0 0 1
11.009661 13.349230 18.862877 25.597318 0.881150 0.742311 0.047863 -0.009106 11450.600000 0 0 1
12.045261 13.109230 19.814377 26.637375 0.827670 0.731975 0.061278 -0.015430 778086.000000 0 0 1
13.288361 12.722230 19.217977 26.603878 0.763636 0.763566 0.064399 -0.017267 784464.000000 0 0 1
14.515261 12.672230 20.151777 27.881397 0.717712 0.762997 0.077897 -0.016676 24243.000000 0 0 1
14.992761 13.903230 20.554777 28.992784 0.747711 0.782771 0.082475 -0.019923 581628.000000 0 0 1
16.074461 13.765230 21.504777 30.171597 0.708164 0.777387 0.090812 -0.023401 642804.000000 0 0 1
16.788161 15.034230 21.959577 31.465750 0.730338 0.798352 0.096183 -0.024693 -342025.000000 0 0 1
16.161761 15.709230 22.984777 32.191340 0.771200 0.775594 0.096828 -0.023600 -44192.100000 0 0 1
16.955661 16.739230 23.516607 33.477262 0.778975 0.791941 0.082959 -0.018874 -599763.000000 0 0 1
-21.421439 12.538981 -24.802920 35.089727 -0.529576 2.355821 0.031501 -0.009038 56634.700000 0 0 1
-21.391339 12.270781 -26.172380 35.960463 -0.520806 2.385919 0.032429 -0.027604 183514.000000 0 0 1
-22.107339 13.315181 -26.854790 37.245244 -0.542107 2.376078 0.047148 -0.026178 214567.000000 0 0 1
-21.924039 13.231981 -28.400440 38.240473 -0.543017 2.407860 0.039604 -0.027591 477036.000000 0 0 1
-20.684939 13.796881 -28.830490 38.071220 -0.588234 2.429931 0.043959 -0.014352 498262.000000 0 0 1
-20.834839 14.020981 -30.224320 39.296157 -0.592346 2.448294 0.054157 -0.034140 -523535.000000 0 0 1
-19.563839 14.737581 -30.618040 39.209750 -0.645614 2.466867 0.032982 -0.022315 -495747.000000 0 0 1
-18.410239 13.906281 -30.466880 38.217173 -0.646920 2.493446 0.029121 -0.021249 609363.000000 0 0 1
-17.309539 14.862381 -30.399640 38.008534 -0.709479 2.497776 0.032816 -0.016465 1139810.000000 0 0 1
-16.066339 14.404481 -29.571710 36.607409 -0.730913 2.511218 0.070121 -0.004320 373822.000000 0 0 1
-16.371639 14.469181 -28.205470 35.678233 -0.723790 2.482505 0.069528 -0.009707 138355.000000 0 0 1
-16.942239 13.267381 -27.655060 35.040908 -0.664348 2.480338 0.083113 -0.005941 -42170.300000 0 0 1
-17.761339 13.527781 -26.365850 34.548865 -0.650910 2.438965 0.068991 -0.020949 -90897.300000 0 0 1
-17.050939 13.944481 -25.191660 33.463455 -0.685509 2.423119 0.111877 -0.021701 913018.000000 0 0 1
-17.959039 14.343481 -24.099820 33.302610 -0.673934 2.379889 0.108407 -0.018106 510714.000000 0 0 1
-17.221439 14.843181 -22.850820 32.234422 -0.711363 2.358727 0.134287 -0.026743 -115265.000000 0 0 1
-16.572339 16.050581 -23.187720 32.709845 -0.769406 2.358721 0.098439 -0.031393 -120621.000000 0 0 1
-15.941439 16.607981 -22.045720 31.874257 -0.805873 2.334563 0.101755 -0.029947 -627395.000000 0 0 1
-15.524939 18.072281 -22.253020 32.601042 -0.861073 2.322092 0.088601 -0.031204 613161.000000 0 0 1
-16.541139 19.099981 -22.420320 33.780013 -0.857070 2.296572 0.054429 -0.028019 967408.000000 0 0 1
-17.558739 18.806381 -23.391620 34.772937 -0.819693 2.308643 0.038731 -0.025535 -319745.000000 0 0 1
-18.756539 19.737281 -23.309420 35.842671 -0.810871 2.278810 0.020790 -0.022213 -491703.000000 0 0 1
-18.560239 21.071981 -23.777620 36.795191 -0.848690 2.273411 0.022933 -0.027553 427482.000000 0 0 1
-19.824639 21.741781 -23.730620 37.800313 -0.831488 2.249506 0.025974 -0.034018 225093.000000 0 0 1
-19.705739 23.230081 -23.927220 38.735832 -0.867299 2.236614 0.020568 -0.041064 -221250.000000 0 0 1
-19.034039 23.757081 -22.833320 38.053305 -0.895328 2.214341 0.023777 -0.039525 -224436.000000 0 0 1
-18.179139 24.813081 -23.262120 38.565481 -0.938496 2.218285 0.028908 -0.034584 -191920.000000 0 0 1
-17.061539 25.059081 -22.221920 37.588128 -0.973037 2.203336 0.044510 -0.039919 457648.000000 0 0 1
-15.894139 24.224381 -22.119620 36.451637 -0.990130 2.222851 0.056055 -0.047680 510967.000000 0 0 1
-16.220039 22.856081 -21.837020 35.529502 -0.953617 2.232696 0.052584 -0.035211 -508798.000000 0 0 1
-15.024639 21.852181 -21.783720 34.318917 -0.968470 2.258473 0.083892 -0.034255 108421.000000 0 0 1
-14.225039 22.118681 -20.676420 33.452984 -0.999271 2.237087 0.094229 -0.033307 -626334.000000 0 0 1
-13.216339 21.170581 -20.479220 32.284107 -1.012716 2.257956 0.090934 -0.033924 -266101.000000 0 0 1
-12.291639 21.579781 -19.309320 31.458245 -1.053037 2.231671 0.089173 -0.033184 -164147.000000 0 0 1
-12.880839 21.547181 -18.026720 30.905657 -1.031998 2.193560 0.100264 -0.028020 108156.000000 0 0 1
-13.569939 22.749381 -17.688520 31.852179 -1.032956 2.159558 0.094784 -0.034881 -122451.000000 0 0 1
-14.356339 22.668681 -16.341320 31.416752 -1.006242 2.117819 0.098902 -0.033510 -299620.000000 0 0 1
-13.733339 22.943081 -15.105220 30.710865 -1.031419 2.085013 0.104626 -0.034295 -484664.000000 0 0 1
-14.622839 23.165381 -14.066820 30.795092 -1.007725 2.045177 0.107238 -0.031615 -59848.900000 0 0 1
-13.903639 23.783581 -12.808920 30.381546 -1.041785 2.006008 0.118291 -0.028076 202424.000000 0 0 1
-13.403239 25.098881 -12.857120 31.223487 -1.080307 1.995200 0.109423 -0.032223 140628.000000 0 0 1
-12.404039 25.270981 -11.891520 30.559629 -1.114503 1.970478 0.091731 -0.018399 -204320.000000 0 0 1
-11.743939 26.682581 -11.841820 31.465996 -1.156176 1.956636 0.106643 -0.022739 178572.000000 0 0 1
-10.889239 26.954381 -12.941820 31.821453 -1.186857 1.989636 0.100089 -0.033968 257469.000000 0 0 1
-10.834739 28.303781 -13.330120 33.108725 -1.205203 1.985170 0.083316 -0.016799 -277973.000000 0 0 1
-10.108539 28.466481 -14.718320 33.602858 -1.229582 2.024178 0.121309 -0.042748 2260170.000000 0 0 1
-8.660439 28.456581 -14.963720 33.297044 -1.275364 2.036891 0.103982 -0.045890 1847360.000000 0 0 1
-7.975539 27.318181 -14.476420 31.928967 -1.286741 2.041367 0.100886 -0.038997 -1151610.000000 0 0 1
-6.497639 27.366881 -14.802620 31.784950 -1.337686 2.055235 0.087775 -0.040498 -297684.000000 0 0 1
-5.791039 28.423081 -14.129520 32.265322 -1.369803 2.024076 0.060843 -0.035360 1438930.000000 0 0 1
-4.348339 28.290581 -14.362220 32.024028 -1.418287 2.035863 0.067744 -0.038946 1822160.000000 0 0 1
-3.533039 29.127281 -13.370020 32.243422 -1.450089 1.998364 0.032312 -0.025032 -629845.000000 0 0 1
-3.378639 30.541381 -13.530420 33.574744 -1.460619 1.985582 0.020519 -0.021862 52276.500000 0 0 1
-4.570239 31.285181 -13.354820 34.322017 -1.425739 1.970455 0.017138 -0.021425 -85902.100000 0 0 1
-4.362939 32.693281 -13.784120 35.747557 -1.438130 1.966650 0.024486 -0.019010 -52549.000000 0 0 1
-3.553739 33.446281 -12.920920 36.031000 -1.464941 1.937570 -0.012215 -0.015106 -308200.000000 0 0 1
-3.603539 -33.265770 -13.231420 35.981487 1.462891 1.947362 -0.001892 -0.007602 121805.000000 0 0 1
-2.612639 -32.527470 -12.308820 34.876485 1.490647 1.931493 0.010656 -0.017110 -78555.100000 0 0 1
-2.857939 -32.751170 -10.950320 34.651356 1.483755 1.892322 0.015490 -0.029695 368991.000000 0 0 1
-2.174839 -31.671170 -10.288020 33.371189 1.502235 1.884192 0.024900 -0.024470 219274.000000 0 0 1
-2.648439 -31.706570 -8.831720 33.019995 1.487460 1.841558 0.030516 -0.020929 -120175.000000 0 0 1
-1.905839 -30.847370 -7.988620 31.921944 1.509092 1.823740 0.044064 -0.022354 -48896.600000 0 0 1
-2.170239 -31.108270 -6.630720 31.881042 1.501145 1.780309 0.033593 -0.028762 1127320.000000 0 0 1
-0.919739 -30.682970 -5.713420 31.223929 1.540830 1.754815 0.046156 -0.028378 1120550.000000 0 0 1
-1.096939 -30.748970 -4.314120 31.069504 1.535137 1.710100 0.052622 -0.034760 41792.000000 0 0 1
-0.013239 -30.191370 -3.576720 30.402498 1.570358 1.688715 0.045094 -0.030637 96668.800000 0 0 1
-0.042739 -30.539970 -2.095520 30.611808 1.569397 1.639305 0.052789 -0.020980 -467835.000000 0 0 1
0.162461 -31.923170 -1.717620 31.969757 -1.565707 1.624549 0.062719 -0.023238 62846.800000 0 0 1
1.381661 -32.557970 -2.047020 32.651503 -1.528385 1.633530 0.049682 -0.021079 -103366.000000 0 0 1
2.683661 -32.005270 -1.428620 32.149344 -1.487141 1.615248 0.049553 -0.018860 -890186.000000 0 0 1
2.786361 -32.207070 -0.008020 32.327376 -1.484497 1.571044 0.052973 -0.018750 136668.000000 0 0 1
4.044661 -31.901370 0.588080 32.162129 -1.444683 1.552510 0.049161 -0.015572 582070.000000 0 0 1
4.526461 -30.404570 0.592080 30.745362 -1.423007 1.551538 0.043086 -0.014439 -290272.000000 0 0 1
4.797561 -29.871970 -0.681820 30.262453 -1.411552 1.593328 0.038502 -0.025191 60529.400000 0 0 1
4.779661 -28.488470 -0.589620 28.892659 -1.404569 1.591205 0.052126 -0.025635 -198700.000000 0 0 1
4.326061 -27.783870 -1.921420 28.184217 -1.416333 1.639023 0.040588 -0.022087 49589.500000 0 0 1
2.988961 -28.058170 -2.299420 28.310459 -1.464669 1.652107 0.047592 -0.021411 2836.140000 0 0 1
2.392061 -27.093870 -3.109020 27.376372 -1.482737 1.684608 0.042196 -0.024835 -43671.400000 0 0 1
2.895561 -27.107870 -4.594020 27.646445 -1.464384 1.737741 0.029420 -0.019368 -377478.000000 0 0 1
2.235761 -28.045870 -5.374520 28.643584 -1.491247 1.759549 0.025659 -0.019416 -210530.000000 0 0 1
2.911761 -28.212470 -6.611420 29.122718 -1.467952 1.799812 0.039359 -0.023159 -374696.000000 0 0 1
2.227361 -29.109370 -7.651820 30.180572 -1.494428 1.827129 0.037485 -0.018816 -888377.000000 0 0 1
1.015461 -28.518970 -7.958020 29.625882 -1.535205 1.842753 0.040221 -0.017341 -1046030.000000 0 0 1
0.620861 -28.654370 -9.331820 30.142018 -1.549132 1.885563 0.041483 -0.009724 208588.000000 0 0 1
-0.805639 -28.094470 -9.534220 29.679111 1.542128 1.897839 0.035030 -0.011572 -471005.000000 0 0 1
-0.892339 -26.706370 -9.246920 28.275997 1.537396 1.903949 0.031624 -0.011906 231619.000000 0 0 1
-2.219239 -26.226670 -9.053820 27.834060 1.486380 1.902103 0.057119 -0.019694 949121.000000 0 0 1
-3.153139 -26.768970 -7.915920 28.092380 1.453546 1.856447 0.059716 -0.012626 -53715.400000 0 0 1
-2.829539 -26.540270 -6.553120 27.483369 1.464584 1.811555 0.062051 -0.019306 -319358.000000 0 0 1
-1.664439 -27.219270 -6.114120 27.947119 1.509723 1.791355 0.041839 -0.027115 228934.000000 0 0 1
-1.107939 -26.725270 -4.780720 27.172097 1.529363 1.747659 0.060672 -0.027988 -103216.000000 0 0 1
-1.830039 -27.293570 -3.717620 27.606316 1.503846 1.705872 0.078964 -0.039288 -163332.000000 0 0 1
-1.679239 -26.556570 -2.583120 26.734692 1.507648 1.667568 0.077851 -0.038911 358610.000000 0 0 1
-2.784439 -26.803670 -1.489420 26.989038 1.467285 1.626010 0.061735 -0.031789 1000400.000000 0 0 1
-4.047839 -26.220970 -1.792820 26.592075 1.417631 1.638267 0.071720 -0.023725 107904.000000 0 0 1
-4.957139 -26.199270 -0.716720 26.673745 1.383798 1.597669 0.091776 -0.031314 -152700.000000 0 0 1
-6.212639 -25.394070 -1.129420 26.167370 1.330860 1.613971 0.091602 -0.009203 -348131.000000 0 0 1
-6.167839 -23.960770 -1.041420 24.763790 1.318852 1.612863 0.074931 -0.020334 -205283.000000 0 1 0
-6.672539 -23.522570 0.168180 24.451224 1.294392 1.563918 0.073677 -0.007275 -311254.000000 0 1 0
-6.202639 -22.092870 0.453480 22.951542 1.297090 1.551037 0.042703 -0.010426 125281.000000 0 1 0
-5.000039 -21.943270 1.184780 22.536885 1.346759 1.518201 0.036530 -0.016593 62821.200000 0 1 0
-4.665239 -20.585270 1.462380 21.157891 1.347931 1.501624 0.011785 -0.008263 691947.000000 0 1 0
-3.475139 -20.323770 2.441480 20.762780 1.401445 1.452934 0.017994 -0.009721 526713.000000 0 1 0
-3.956639 -20.533870 3.781180 21.250697 1.380441 1.391912 0.009686 0.007758 375071.000000 0 1 0
-2.994939 -20.244670 4.803680 21.021219 1.423924 1.340244 0.030903 -0.006860 45037.200000 0 1 0
-2.003839 -21.340270 5.133280 22.040260 1.477171 1.335733 0.035755 -0.022657 -376788.000000 0 1 0
-1.026839 -21.635370 4.164580 22.056458 1.523371 1.380842 0.057020 -0.026663 -78440.500000 0 1 0
-0.260739 -22.765870 4.631980 23.233770 1.559344 1.370087 0.069132 -0.028591 -98385.400000 0 1 0
0.750761 -23.348270 3.568280 23.631292 -1.538653 1.419218 0.073577 -0.039393 1742480.000000 0 1 0
1.944661 -22.550170 3.325480 22.876859 -1.484772 1.424915 0.058848 -0.041555 1335450.000000 0 1 0
2.878461 -22.515170 4.415180 23.123845 -1.443641 1.378680 0.081903 -0.047729 -695367.000000 0 1 0
3.943461 -21.412270 4.328880 22.198545 -1.388669 1.374531 0.080504 -0.045595 256555.000000 0 1 0
4.970661 -21.781970 3.396980 22.598698 -1.346437 1.419907 0.055841 -0.025665 -925884.000000 0 1 0
6.107661 -21.069470 3.710680 22.248488 -1.288648 1.403230 0.073327 -0.021902 -210443.000000 0 1 0
7.055561 -20.742870 2.525080 22.055013 -1.242929 1.456055 0.079545 -0.012992 -189787.000000 0 1 0
7.523461 -21.807670 1.817380 23.140436 -1.238590 1.492178 0.075765 -0.009443 -331979.000000 0 1 0
7.198761 -21.799070 0.422380 22.960836 -1.251839 1.552400 0.064896 -0.016340 -341325.000000 0 1 0
8.210661 -22.545170 -0.424520 23.997497 -1.221539 1.588487 0.059592 -0.009230 21371.400000 0 1 0
9.358461 -21.767570 -0.716120 23.704867 -1.164760 1.601011 0.062429 -0.006112 -426214.000000 0 1 0
10.245261 -22.450370 -1.551720 24.726349 -1.142673 1.633593 0.055391 -0.007844 -25840.000000 0 1 0
11.552761 -21.802670 -2.052620 24.759563 -1.083533 1.653794 0.061223 -0.005054 237221.000000 0 1 0
11.500561 -20.709470 -2.951820 23.871705 -1.063871 1.694767 0.064943 0.000396 -557420.000000 0 1 0
12.561361 -20.792270 -3.863520 24.597420 -1.027341 1.728520 0.063864 0.006665 -71287.700000 0 1 0
12.654561 -19.463170 -4.620120 23.670623 -0.994295 1.767241 0.059908 -0.020517 -230801.000000 0 1 0
13.136461 -18.379770 -3.878720 22.922195 -0.950257 1.740827 0.088974 -0.012638 -14212.800000 0 1 0
13.109461 -17.150970 -4.685320 22.089952 -0.918170 1.784522 0.085615 -0.029269 -994487.000000 0 1 0
13.681661 -15.931370 -3.955220 21.369140 -0.861223 1.756960 0.110543 -0.023137 581493.000000 0 1 0
15.019161 -15.974270 -3.466620 22.198422 -0.816205 1.727603 0.091928 -0.015694 299498.000000 0 1 0
15.973561 -16.013770 -4.500820 23.061935 -0.786655 1.767219 0.088408 -0.015548 -322463.000000 0 1 0
17.416361 -15.566670 -4.074420 23.711848 -0.729377 1.743484 0.082127 -0.015513 636640.000000 0 1 0
18.058861 -16.548670 -3.302220 24.716100 -0.741788 1.704803 0.087651 -0.019551 -124832.000000 0 1 0
19.445161 -16.307270 -3.273220 25.588187 -0.697855 1.699067 0.056985 -0.007162 -468272.000000 0 0 1
20.169761 -17.155070 -2.250620 26.574066 -0.704804 1.655590 0.056834 -0.011896 -314165.000000 0 0 1
21.557661 -16.978370 -2.381420 27.543946 -0.667121 1.657363 0.047776 -0.005190 -91755.400000 0 0 1
22.290961 -17.697570 -1.400120 28.496513 -0.671032 1.619949 0.041682 -0.000799 26698.600000 0 0 1
23.821261 -17.716270 -1.452720 29.722535 -0.639468 1.619692 0.045596 -0.004354 -173677.000000 0 0 1
24.462961 -16.477570 -1.263120 29.521894 -0.592768 1.613595 0.050114 -0.005567 858788.000000 0 0 1
25.739261 -16.657770 -0.607220 30.665283 -0.574386 1.590599 0.064842 -0.009310 1155920.000000 0 0 1
26.322961 -15.236870 -0.143820 30.415147 -0.524718 1.575525 0.062596 -0.010839 -111897.000000 0 0 1
25.677561 -14.740170 0.939880 29.622510 -0.521119 1.539062 0.065471 -0.015694 18498.900000 0 0 1
26.530561 -13.798670 1.610280 29.947737 -0.479602 1.517001 0.068342 -0.022823 480541.000000 0 0 1
25.870061 -12.908070 2.727880 29.039966 -0.462814 1.476722 0.097680 -0.029747 -177436.000000 0 0 1
25.441261 -13.530070 3.947980 29.084482 -0.488775 1.434634 0.114983 -0.022091 791780.000000 0 0 1
26.464761 -14.085470 4.819680 30.364673 -0.489102 1.411396 0.109592 -0.018241 629569.000000 0 0 1
25.796761 -14.701270 6.034280 30.298725 -0.517984 1.370296 0.109655 -0.013506 44945.000000 0 0 1
25.058561 -15.836770 5.731980 30.192555 -0.563610 1.379790 0.105513 -0.016400 -240361.000000 0 0 1
24.334261 -16.252570 6.865680 30.057276 -0.588848 1.340342 0.089026 -0.013138 -130621.000000 0 0 1
23.769961 -17.670070 6.699480 30.366518 -0.639250 1.348346 0.074948 -0.015591 -405945.000000 0 0 1
24.758361 -18.649270 6.724380 31.717329 -0.645579 1.357165 0.070797 -0.011775 -402903.000000 0 0 1
24.219061 -19.940370 6.736980 32.086885 -0.688808 1.359262 0.039662 -0.001945 4456.850000 0 0 1
1.748861 23.729881 -2.979120 23.980011 1.497231 1.695352 0.053537 -0.025839 -269741.000000 0 1 0
2.760461 24.607681 -2.622320 24.900495 1.459085 1.676304 0.062805 -0.031637 -220875.000000 0 1 0
3.719561 24.875581 -3.655220 25.416339 1.422369 1.715111 0.074441 -0.036441 598165.000000 0 0 1
4.815461 25.817381 -3.055620 26.439792 1.386395 1.686624 0.065004 -0.032153 -6473.140000 0 0 1
5.478961 25.215581 -1.954820 25.877903 1.356837 1.646408 0.049144 -0.031639 -613733.000000 0 0 1
6.308461 26.196381 -1.396920 26.981446 1.334482 1.622593 0.046507 -0.026737 -650506.000000 0 0 1
7.491661 25.479481 -0.753220 26.568708 1.284828 1.599150 0.035647 -0.039048 -1131850.000000 0 0 1
8.503361 25.165281 -1.623820 26.612690 1.244941 1.631851 0.024845 -0.039958 -1215540.000000 0 0 1
9.448661 24.330381 -0.989720 26.119421 1.200375 1.608698 0.014945 -0.033768 -488177.000000 0 0 1
10.632261 24.197281 -1.924520 26.500135 1.156793 1.643483 0.031177 -0.030980 -1761690.000000 0 0 1
11.438561 25.382181 -2.118820 27.921052 1.147399 1.646755 0.034393 -0.022879 143608.000000 0 0 1
12.377761 25.200981 -3.153720 28.253218 1.114244 1.682653 0.057159 -0.022352 242151.000000 0 0 1
13.448061 24.068381 -3.081020 27.742206 1.061265 1.682085 0.055498 -0.028257 -1110300.000000 0 0 1
12.887661 22.792381 -3.284620 26.388883 1.056178 1.695590 0.070325 -0.033080 -199810.000000 0 0 1
12.835061 22.437281 -4.673820 26.268136 1.051188 1.749676 0.098592 -0.034017 -528655.000000 0 0 1
11.914761 21.276481 -5.001620 24.893099 1.060310 1.773097 0.092552 -0.038237 661067.000000 0 1 0
10.534361 21.577081 -4.694020 24.465833 1.116617 1.763854 0.074979 -0.033140 794202.000000 0 1 0
9.815961 20.341781 -4.670720 23.064188 1.121205 1.774716 0.060540 -0.027251 141336.000000 0 1 0
8.286761 20.553781 -4.827220 22.681057 1.187556 1.785267 0.040065 -0.023879 158238.000000 0 1 0
7.791261 20.999681 -3.559420 22.679502 1.215521 1.728392 0.038307 -0.030087 126900.000000 0 1 0
6.438561 21.402281 -3.738820 22.660350 1.278573 1.736548 0.037416 -0.022100 464667.000000 0 1 0
5.918561 22.108881 -2.436720 23.016724 1.309229 1.676862 0.035754 -0.025978 158292.000000 0 1 0
5.560861 21.271881 -1.357020 22.028563 1.315100 1.632438 0.028363 -0.031074 -113881.000000 0 1 0
4.683261 21.884281 -0.444320 22.384193 1.359975 1.590647 0.038673 -0.030205 153013.000000 0 1 0
4.317361 20.979481 0.811780 21.434486 1.367840 1.532915 0.022098 -0.026705 -282237.000000 0 1 0
3.752661 21.622381 1.903680 22.028023 1.398954 1.484268 0.034979 -0.023199 134467.000000 0 1 0
3.407361 20.766381 3.019880 21.259641 1.408165 1.428267 0.032333 -0.023482 269174.000000 0 1 0
2.419061 21.363681 4.068680 21.881793 1.458044 1.383769 0.031356 -0.022752 272717.000000 0 1 0
1.099461 21.608781 3.621180 21.937665 1.519960 1.404971 0.026180 -0.015934 -302739.000000 0 1 0
0.232861 21.910381 4.665480 22.402806 1.560169 1.361007 0.026843 -0.025632 -1095630.000000 0 1 0
-1.128539 22.194181 4.096480 22.597265 -1.519992 1.388506 0.035609 -0.016884 -875758.000000 0 1 0
-2.150439 22.305081 5.081380 22.977411 -1.474683 1.347806 0.037634 -0.026855 154671.000000 0 1 0
-3.336739 22.742481 4.417080 23.406513 -1.425117 1.380946 0.039011 -0.019788 880756.000000 0 1 0
-4.588739 22.794781 5.372680 23.864707 -1.372145 1.343719 0.039731 -0.029016 674618.000000 0 1 0
-4.874939 24.124781 5.858680 25.300083 -1.371409 1.337108 0.067247 -0.020205 887383.000000 0 0 1
-6.109739 24.114481 6.616280 25.741256 -1.322654 1.310848 0.071128 -0.023056 918255.000000 0 0 1
-6.613439 25.444381 7.058980 27.221008 -1.316506 1.308477 0.080872 -0.020772 -250467.000000 0 0 1
-5.836739 26.015981 8.077480 27.859369 -1.350099 1.276635 0.062292 -0.025193 -108840.000000 0 0 1
-6.372739 27.212581 8.599480 29.241878 -1.340758 1.272302 0.085829 -0.024145 -246526.000000 0 0 1
-6.419039 28.473281 7.734580 30.195289 -1.349062 1.311757 0.101266 -0.021964 -1145.370000 0 0 1
-7.525539 28.590081 6.874380 30.352653 -1.313413 1.342330 0.088219 -0.030649 -490169.000000 0 0 1
-7.495339 29.796681 6.038780 31.312763 -1.324360 1.376727 0.111637 -0.032839 -1320400.000000 0 0 1
-8.851539 30.136781 5.496780 31.887143 -1.285118 1.397549 0.099443 -0.031298 -300267.000000 0 0 1
-9.778239 30.533981 6.513680 32.716448 -1.260875 1.370362 0.101104 -0.023486 116198.000000 0 0 1
-10.631139 29.512081 7.046780 32.150290 -1.225037 1.349820 0.085316 -0.023593 130076.000000 0 0 1
-11.564739 30.199381 8.127380 33.343666 -1.205077 1.324570 0.064899 -0.022781 226875.000000 0 0 1
-10.895039 30.707381 9.256280 33.872169 -1.229850 1.294005 0.070696 -0.021050 -245583.000000 0 0 1
-11.844539 30.972981 10.245280 34.707123 -1.205541 1.271139 0.066023 -0.019027 -7431.390000 0 0 1
-11.202739 31.557781 11.527480 35.415783 -1.229682 1.239267 0.060842 -0.025986 -137573.000000 0 0 1
-11.039039 32.957481 11.469680 36.600676 -1.247593 1.252053 0.074145 -0.024879 -16933.000000 0 0 1
-9.962439 33.332681 12.280780 36.893568 -1.280368 1.231450 0.065827 -0.033471 -73283.800000 0 0 1
-9.639439 -33.254570 12.351580 36.760668 1.288661 1.228130 0.060760 -0.029047 349506.000000 0 0 1
-10.496639 -32.543270 13.249780 36.671522 1.258787 1.201124 0.063608 -0.021019 306318.000000 0 0 1
-9.992639 -31.231570 13.452680 35.443453 1.261136 1.181483 0.065616 -0.015500 499928.000000 0 0 1
-11.091939 -30.334570 14.102680 35.243479 1.220245 1.159116 0.049931 -0.016991 -77279.800000 0 0 1
-11.245839 -30.512570 15.548180 36.044857 1.217680 1.124801 0.042211 -0.030530 -729158.000000 0 0 1
-10.100739 -30.369870 16.310080 35.921757 1.249714 1.099497 0.063627 -0.031126 -831430.000000 0 0 1
-10.327539 -30.771670 17.796380 37.017089 1.246991 1.069274 0.062852 -0.036051 -129741.000000 0 0 1
-11.150439 -29.865070 18.476380 36.846049 1.213464 1.045525 0.064666 -0.032255 86128.900000 0 0 1
-11.728339 -30.397070 19.631880 38.038750 1.202558 1.028502 0.064226 -0.034553 -19328.300000 0 0 1
-11.942639 -29.448470 20.806580 37.983585 1.185520 0.991090 0.076386 -0.030180 -12894.300000 0 0 1
-10.742839 -29.192770 21.523980 37.827346 1.218180 0.965500 0.065517 -0.027966 341609.000000 0 0 1
-10.980739 -28.592670 22.770380 38.165529 1.204124 0.931512 0.060663 -0.024698 -507247.000000 0 0 1
-9.715339 -28.364370 23.571780 38.138617 1.240801 0.904530 0.065642 -0.028671 -277233.000000 0 0 1
-9.300739 -29.539570 24.288380 39.357532 1.265766 0.905717 0.065202 -0.020638 779899.000000 0 0 1
-8.021239 -29.512770 24.946480 39.467337 1.305418 0.886563 0.082381 -0.017895 833279.000000 0 0 1
-7.789439 -30.719170 25.839280 40.890233 1.322461 0.886771 0.094603 -0.018869 -369104.000000 0 0 1
-7.840339 -31.981770 25.213380 41.473112 1.330387 0.917326 0.105523 -0.015798 148215.000000 0 0 1
-7.798939 -32.958170 26.257880 42.854879 1.338439 0.911303 0.110468 -0.016193 -264237.000000 0 0 1
-7.825739 33.655081 25.803480 43.124543 -1.342329 0.929359 0.101678 -0.017220 200670.000000 0 0 1
-6.554739 33.461581 25.187280 42.391521 -1.377357 0.934577 0.100804 -0.008871 465814.000000 0 0 1
-6.337739 32.199681 24.547580 40.982558 -1.376454 0.928574 0.090302 -0.000915 -5102.770000 0 0 1
-7.254739 31.889781 23.322280 40.168621 -1.347109 0.951319 0.084063 0.001833 199367.000000 0 0 1
-8.481939 31.281981 23.672680 40.136036 -1.306018 0.939971 0.081008 -0.006460 -380217.000000 0 0 1
-9.253039 31.154681 22.536580 39.549087 -1.282091 0.964487 0.057241 0.001300 -589210.000000 0 0 1
-10.077439 29.847881 22.569080 38.753247 -1.245187 0.949144 0.049764 -0.010340 -21828.300000 0 0 1
-9.328539 28.674481 22.420080 37.575357 -1.256270 0.931452 0.042833 -0.002360 -21707.100000 0 0 1
-10.177039 27.548381 22.553980 37.029278 -1.216923 0.915890 0.041691 -0.007609 -358732.000000 0 0 1
-9.446939 26.243781 22.352480 35.743727 -1.225268 0.895211 0.033917 -0.008247 -820821.000000 0 0 1
-8.332939 26.044681 23.152980 35.830486 -1.261141 0.868227 0.018752 -0.006393 -475814.000000 0 0 1
-7.781739 24.775581 22.796980 34.555566 -1.266464 0.850351 0.012617 -0.009086 364183.000000 0 0 1
-6.411539 24.563381 23.495880 34.590806 -1.315473 0.824053 0.006401 -0.003102 519551.000000 0 0 1
-5.316239 25.269381 22.963080 34.555854 -1.363438 0.843944 -0.001075 0.000590 1380900.000000 0 0 1
-3.997839 24.898081 23.476980 34.453820 -1.411587 0.821117 0.027039 0.000776 1636930.000000 0 0 1
-2.860939 25.406481 22.571380 34.104859 -1.458662 0.847548 0.034269 0.000782 -323994.000000 0 0 1
-2.738539 24.609181 21.419580 32.740033 -1.459971 0.857630 0.038665 -0.002997 166489.000000 0 0 1
-1.703839 25.145781 20.616180 32.561330 -1.503141 0.885181 0.049663 -0.003248 85899.700000 0 0 1
-1.304539 24.227081 19.439280 31.089208 -1.517002 0.895313 0.047096 -0.010267 298847.000000 0 0 1
-0.329939 23.274081 19.941580 30.650584 -1.556621 0.862409 0.048113 -0.013014 458053.000000 0 0 1
0.032261 22.278981 19.053580 29.315404 1.569348 0.863276 0.038251 -0.012053 530841.000000 0 0 1
1.308261 21.436681 19.463980 28.984295 1.509843 0.834517 0.032033 -0.005950 1205910.000000 0 0 1
2.517561 22.163881 19.265980 29.474628 1.457693 0.858404 0.038694 -0.012365 -95639.100000 0 0 1
3.658361 21.385881 19.469280 29.151198 1.401372 0.839450 0.035385 -0.002720 -691579.000000 0 0 1
4.998061 22.059281 19.223680 29.684042 1.347984 0.866353 0.044302 -0.003510 6590.150000 0 0 1
6.036961 21.076181 19.337580 29.233410 1.291830 0.847994 0.048585 -0.005160 622697.000000 0 0 1
7.265261 21.450981 18.714380 29.379527 1.244231 0.880213 0.061613 -0.011884 511028.000000 0 0 1
8.136961 20.186981 18.370680 28.481682 1.187638 0.869773 0.057495 -0.007017 60972.700000 0 0 1
8.444561 19.509881 19.565980 28.892449 1.162308 0.826845 0.062721 -0.010453 4869.070000 0 0 1
9.454661 18.550881 19.327680 28.409241 1.099450 0.822583 0.059306 -0.008920 -105850.000000 0 0 1
9.885661 17.931881 20.660880 29.088668 1.066963 0.780911 0.085610 -0.011883 -312317.000000 0 0 1
9.034961 16.925681 21.159380 28.562712 1.080474 0.736529 0.075233 -0.013400 -79326.300000 0 0 1
9.622761 16.310481 22.310880 29.264392 1.037781 0.703798 0.074225 -0.019042 -129261.000000 0 0 1
8.860861 15.261381 23.133080 29.095773 1.044759 0.651679 0.059261 -0.017532 229140.000000 0 0 1
7.662461 15.734581 23.773980 29.521051 1.117617 0.634576 0.053743 -0.011311 467608.000000 0 0 1
6.685961 14.763181 24.019980 28.976076 1.145549 0.593552 0.052475 -0.012292 -95473.400000 0 0 1
6.950061 13.682581 25.116880 29.434232 1.100809 0.548472 0.064087 -0.019793 -801085.000000 0 0 1
6.866061 14.221681 26.426780 30.785933 1.121013 0.538645 0.067171 -0.027594 293924.000000 0 0 1
7.364861 13.334581 27.435080 31.380501 1.066179 0.506863 0.075881 -0.031286 -958766.000000 0 0 1
8.449861 13.922681 28.327280 32.675311 1.025309 0.521782 0.067728 -0.031790 396184.000000 0 0 1
9.781861 14.025881 27.818280 32.653741 0.961807 0.551161 0.107303 -0.031071 703832.000000 0 0 1
9.976961 15.048481 26.873980 32.376030 0.985345 0.591585 0.094292 -0.027987 -802306.000000 0 0 1
11.388061 15.059581 26.257980 32.341311 0.923339 0.623393 0.109972 -0.037602 -103722.000000 0 0 1
11.434261 14.084281 25.259780 31.099289 0.888874 0.622831 0.103810 -0.040216 400238.000000 0 0 1
12.746561 13.786081 24.791880 31.099327 0.824557 0.648180 0.120505 -0.047005 -197233.000000 0 0 1
12.767561 12.600481 23.774280 29.782530 0.778812 0.646391 0.094998 -0.035958 329.939000 0 0 1
12.321361 11.379281 24.343880 29.562281 0.745670 0.603283 0.101562 -0.025775 -545258.000000 0 0 1
10.945461 11.199781 24.334580 28.938037 0.796882 0.571815 0.100997 -0.025602 -1099370.000000 0 0 1
10.561461 9.831781 24.860480 28.744596 0.749633 0.525895 0.096825 -0.021784 -195955.000000 0 0 1
10.916861 8.806781 23.976280 27.777675 0.678821 0.529323 0.098626 -0.016698 256807.000000 0 0 1
10.477361 7.553481 24.458780 27.659755 0.624638 0.485861 0.107353 -0.018691 -40867.900000 0 0 1
10.778461 6.426481 23.496680 26.637733 0.537645 0.490532 0.105404 -0.024432 225894.000000 0 0 1
12.167061 6.238781 23.234580 26.959330 0.473803 0.531913 0.115302 -0.025873 635995.000000 0 0 1
12.407961 5.258881 22.307780 26.062432 0.400880 0.543438 0.118353 -0.033631 -57675.100000 0 0 1
12.128461 3.767381 22.757380 26.061294 0.301174 0.509014 0.106297 -0.035288 -573991.000000 0 0 1
13.143961 3.344081 23.606280 27.225044 0.249134 0.521487 0.112638 -0.029582 -207586.000000 0 0 1
12.770261 2.144381 24.203080 27.449353 0.166368 0.491267 0.098934 -0.028329 -606996.000000 0 0 1
13.869461 1.468081 25.088380 28.704425 0.105457 0.507371 0.072212 -0.020206 479502.000000 0 0 1
14.760061 0.672581 24.267080 28.411317 0.045536 0.546912 0.082677 -0.026446 -420475.000000 0 0 1
15.901861 1.375881 23.961480 28.790880 0.086308 0.587626 0.070036 -0.027380 -1533250.000000 0 0 1
16.955761 0.603281 23.157380 28.707595 0.035565 0.632311 0.064264 -0.027202 -384581.000000 0 0 1
17.278261 -0.574919 23.795280 29.412313 -0.033262 0.628306 0.061846 -0.025833 113352.000000 0 0 1
18.512361 -1.096719 23.341080 29.811345 -0.059173 0.671387 0.056770 -0.012848 -73329.500000 0 0 1
18.632461 -2.598219 23.625680 30.200862 -0.138552 0.672471 0.053846 -0.011176 -309389.000000 0 0 1
17.690861 -3.471019 23.051380 29.263982 -0.193743 0.663722 0.046046 -0.006559 2556.630000 0 0 1
18.042861 -4.860519 23.352280 29.908167 -0.263141 0.674852 0.052980 -0.012050 -93996.300000 0 0 1
17.040861 -5.940419 22.939680 29.187470 -0.335426 0.666577 0.053492 -0.017933 -164634.000000 0 0 1
16.844361 -6.070519 21.518080 27.993061 -0.345900 0.694001 0.049971 -0.016828 -457485.000000 0 0 1
15.803861 -6.951719 21.296780 27.416077 -0.414402 0.681230 0.057442 -0.022476 -799261.000000 0 0 1
16.251761 -8.386519 21.056680 27.889733 -0.476395 0.715146 0.064352 -0.023883 -251813.000000 0 0 1
16.769061 -8.925719 22.261880 29.265358 -0.489131 0.706420 0.065536 -0.021724 -3207.780000 0 0 1
17.188861 -10.313319 22.113380 29.846659 -0.540420 0.736387 0.063179 -0.025792 -24479.000000 0 0 1
17.012661 -11.104419 23.409180 30.995620 -0.578281 0.714774 0.081265 -0.019684 161029.000000 0 0 1
15.776861 -11.793419 23.494280 30.659016 -0.641908 0.697720 0.098834 -0.027217 94223.700000 0 0 1
15.854361 -12.819419 24.421380 31.813552 -0.679947 0.695645 0.098800 -0.020688 572957.000000 0 0 1
14.673061 -13.840019 24.217880 31.517464 -0.756190 0.694466 0.099817 -0.021185 554326.000000 0 0 1
14.743761 -14.660019 23.093380 31.074086 -0.782550 0.732998 0.101712 -0.025657 576377.000000 0 0 1
13.547961 -15.422919 22.910180 30.761827 -0.850027 0.730621 0.101841 -0.023497 167958.000000 0 0 1
13.712661 -16.197719 21.577280 30.265198 -0.868291 0.777114 0.097895 -0.028273 227519.000000 0 0 1
14.657161 -17.260519 21.742680 31.392706 -0.866783 0.805705 0.117771 -0.031703 303334.000000 0 0 1
14.600861 -18.143419 20.647880 31.124006 -0.893168 0.845434 0.106449 -0.024171 -41421.300000 0 0 1
-24.614139 -32.352570 26.400497 48.471959 0.920413 0.994819 0.063765 -0.033415 -520475.000000 0 0 1
-24.372139 -33.773370 26.291527 49.253285 0.945696 1.007705 0.086679 -0.027278 439179.000000 0 0 1
-25.471299 33.462281 26.527337 49.721332 -0.920169 1.008039 0.089113 -0.038508 347714.000000 0 0 1
-26.013569 33.464681 28.003727 50.801568 -0.910023 0.986950 0.093491 -0.034251 -78561.700000 0 0 1
-26.718739 -33.521770 28.455177 51.451892 0.897853 0.984783 0.117026 -0.036687 -152251.000000 0 0 1
-26.700169 -33.368270 29.827727 52.115581 0.895954 0.961442 0.093286 -0.038442 -179030.000000 0 0 1
-28.023029 -32.811870 30.389867 52.777391 0.863955 0.957199 0.075248 -0.044178 -211483.000000 0 0 1
-28.237529 -31.442870 30.116187 51.894092 0.839055 0.951651 0.061400 -0.035444 26217.400000 0 0 1
-28.988719 -30.824470 31.123667 52.527863 0.816080 0.936616 0.052651 -0.008941 -279710.000000 0 0 1
-29.271569 -29.278070 30.820937 51.613567 0.785509 0.930856 0.046309 -0.011535 41805.700000 0 0 1
-30.033799 -29.047970 29.637217 51.226734 0.768714 0.953847 0.055333 -0.013882 333759.000000 0 0 1
-30.422869 -27.704170 29.636287 50.708791 0.738661 0.946606 0.050029 -0.011904 -341796.000000 0 0 1
-31.091799 -27.287670 28.307077 50.125916 0.720328 0.970703 0.051322 -0.021524 -296841.000000 0 0 1
-30.251579 -27.319770 27.175177 48.989979 0.734517 0.982783 0.059405 -0.020489 14884.400000 0 0 1
-29.539449 -26.099470 27.084497 47.826053 0.723650 0.968771 0.051205 -0.024200 -87296.500000 0 0 1
-28.543209 -26.012870 25.912607 46.506423 0.739051 0.979806 0.046481 -0.013126 -358123.000000 0 0 1
-29.190959 -26.160970 24.694607 46.328523 0.730712 1.008616 0.048115 -0.021216 -212555.000000 0 0 1
-28.309799 -26.031470 23.599097 45.122051 0.743496 1.020423 0.056427 -0.008979 -413089.000000 0 0 1
-28.835579 -26.320870 22.190277 44.907540 0.739837 1.053960 0.047874 -0.004066 -84330.800000 0 0 1
-29.406219 -25.171970 21.535177 44.295797 0.707972 1.063098 0.042922 -0.007562 219439.000000 0 0 1
-29.769339 -25.433370 20.185877 44.051555 0.707013 1.094790 0.043415 0.004169 -186141.000000 0 0 1
-30.497829 -24.239070 19.570877 43.596666 0.671550 1.105254 0.040651 0.005338 430001.000000 0 0 1
-31.790909 -24.048770 20.162477 44.671363 0.647627 1.102517 0.059967 -0.007202 309295.000000 0 0 1
-32.369529 -22.905570 19.591277 44.229737 0.615827 1.111917 0.059489 -0.000562 331750.000000 0 0 1
-33.826599 -22.678670 20.113077 45.421325 0.590610 1.112065 0.067034 0.001790 661251.000000 0 0 1
-34.779524 -23.585270 19.555277 46.349640 0.595901 1.135248 0.049958 0.000591 -57544.500000 0 0 1
-36.084573 -23.259370 19.953977 47.341904 0.572555 1.135712 0.054783 -0.011260 -205951.000000 0 0 1
36.570559 -23.740870 19.004677 47.562721 -0.575798 1.159748 0.058293 -0.015910 88629.200000 0 0 1
36.153939 -25.095470 19.207277 48.018844 -0.606774 1.159285 0.051559 -0.006675 -447060.000000 0 0 1
35.185299 -25.567870 18.335077 47.200596 -0.628398 1.171847 0.053002 0.003212 -66683.200000 0 0 1
34.821429 -27.106270 18.596377 47.886397 -0.661453 1.171963 0.050461 0.009447 212247.000000 0 0 1
33.982429 -27.468370 19.707177 47.934222 -0.679788 1.147103 0.048605 0.000182 47461.800000 0 0 1
34.371789 -27.082070 21.019677 48.545702 -0.667329 1.122992 0.060947 -0.011635 438997.000000 0 0 1
33.101579 -27.007270 21.994177 48.050504 -0.684356 1.095356 0.048910 -0.012345 1362090.000000 0 0 1
32.021989 -26.289370 21.441977 46.650799 -0.687403 1.093221 0.035105 -0.004458 -287067.000000 0 0 1
30.959699 -26.087370 22.355877 46.247584 -0.700196 1.066267 0.042650 -0.004273 -244955.000000 0 0 1
29.888609 -25.198770 21.752877 44.738066 -0.700468 1.063029 0.059526 0.002998 -438804.000000 0 0 1
30.340119 -23.930070 21.231877 44.090403 -0.667829 1.068370 0.057380 -0.001443 287883.000000 0 0 1
31.044879 -23.006770 22.105377 44.516779 -0.637768 1.051162 0.069458 -0.012925 817522.000000 0 0 1
31.973689 -21.988070 21.333777 44.282299 -0.602418 1.068126 0.064878 -0.015043 523904.000000 0 0 1
31.263279 -20.760870 21.104677 43.055937 -0.586200 1.058513 0.062030 -0.022038 8611.000000 0 0 1
32.000849 -19.767370 20.439577 42.808638 -0.553343 1.073030 0.056165 -0.015275 -878363.000000 0 0 1
31.324799 -18.359770 20.284777 41.590820 -0.530143 1.061317 0.038221 -0.004483 -10420.900000 0 0 1
31.044979 -17.738870 21.497577 41.720546 -0.519119 1.029467 0.043263 -0.002354 314192.000000 0 0 1
29.837429 -18.191770 22.098877 41.346983 -0.547519 1.006911 0.060368 -0.016884 -231576.000000 0 0 1
29.789809 -18.006570 23.594687 42.052093 -0.543688 0.975104 0.052349 -0.010993 -90996.200000 0 0 1
29.650259 -16.610270 23.946567 41.574956 -0.510646 0.956987 0.063163 -0.007294 125502.000000 0 0 1
29.676889 -16.387070 25.309277 42.306185 -0.504518 0.929493 0.061547 -0.004910 -189651.000000 0 0 1
29.707879 -14.905770 25.775857 42.061084 -0.465042 0.911173 0.078228 -0.016623 -342147.000000 0 0 1
28.486639 -14.255170 26.024737 41.133750 -0.463980 0.885780 0.095726 -0.020112 -195995.000000 0 0 1
28.584839 -12.908570 26.536967 41.084483 -0.424174 0.868579 0.090687 -0.023652 89010.700000 0 0 1
29.098299 -11.835370 25.521017 40.473562 -0.386301 0.888522 0.102952 -0.036270 38699.900000 0 0 1
28.177439 -11.671270 24.458817 39.095016 -0.392693 0.894864 0.100878 -0.027585 121351.000000 0 0 1
28.586939 -10.788770 23.424427 38.500836 -0.360875 0.916736 0.096988 -0.022924 253422.000000 0 0 1
29.693019 -11.288670 22.424377 38.883957 -0.363304 0.956113 0.079815 -0.030056 258232.000000 0 0 1
29.299879 -12.316470 21.503677 38.374294 -0.397933 0.975968 0.072874 -0.030614 -81080.500000 0 0 1
29.378859 -13.658370 22.068577 39.200644 -0.435179 0.972828 0.077097 -0.033073 -390844.000000 0 0 1
28.816229 -14.641770 21.007477 38.549585 -0.470113 0.994471 0.079115 -0.033106 -520766.000000 0 0 1
29.403419 -14.705670 19.739077 38.346433 -0.463755 1.030073 0.064518 -0.024033 -394863.000000 0 0 1
28.908939 -15.826470 19.010877 38.047566 -0.500891 1.047589 0.067790 -0.034994 -66218.400000 0 0 1
29.499389 -15.914670 17.604377 37.860332 -0.494739 1.087182 0.078135 -0.034615 -273937.000000 0 0 1
29.103139 -16.982170 16.722677 37.616947 -0.528211 1.110123 0.070465 -0.037218 790437.000000 0 0 1
27.735139 -17.185270 16.315277 36.479579 -0.554722 1.107115 0.088386 -0.037355 860338.000000 0 0 1
27.046139 -16.006570 15.522377 35.052076 -0.534386 1.112035 0.083801 -0.022745 -268168.000000 0 0 1
27.221039 -16.058270 14.138977 34.623166 -0.532976 1.150131 0.088588 -0.029872 -210069.000000 0 0 1
26.423739 -17.026870 13.524677 34.220537 -0.572413 1.164488 0.081622 -0.035403 -615188.000000 0 0 1
26.660739 -17.429970 12.109877 34.077088 -0.579020 1.207490 0.080724 -0.023093 -371332.000000 0 0 1
26.361639 -16.481470 11.089377 33.008319 -0.558748 1.228175 0.084875 -0.022111 -160534.000000 0 0 1
26.344239 -17.041670 9.775477 32.863313 -0.574182 1.268767 0.075610 -0.026354 -318228.000000 0 0 1
27.686539 -17.271270 9.047677 33.862983 -0.557747 1.300326 0.078642 -0.014598 -178501.000000 0 0 1
28.229839 -18.393670 9.712077 35.065301 -0.577477 1.290156 0.069069 -0.013093 -1318700.000000 0 0 1
29.589369 -18.514170 9.464577 36.164671 -0.559105 1.306005 0.062695 -0.002376 -1018250.000000 0 0 1
30.280469 -19.575870 10.332277 37.508364 -0.573900 1.291722 0.063181 -0.023766 -143446.000000 0 0 1
30.398359 -19.050670 11.618777 37.709206 -0.559821 1.257585 0.075435 -0.030824 39200.700000 0 0 1
30.718449 -20.078670 12.586077 38.796719 -0.578927 1.240407 0.047351 -0.030017 45195.500000 0 0 1
30.695319 -19.564070 14.030077 39.010235 -0.567440 1.202902 0.069065 -0.026637 89866.200000 0 0 1
30.595529 -20.625270 15.001377 39.831262 -0.593150 1.184648 0.075499 -0.027362 51216.400000 0 0 1
30.425199 -19.999970 16.272377 39.880844 -0.581524 1.150507 0.086799 -0.026326 -33516.900000 0 0 1
30.149859 -20.977370 17.416577 40.649737 -0.607881 1.128014 0.081209 -0.031746 -874840.000000 0 0 1
28.832119 -21.375070 17.369977 39.873560 -0.637951 1.120062 0.043824 -0.021491 -1020690.000000 0 0 1
28.598439 -22.324670 18.347377 40.655723 -0.662815 1.102590 0.055602 -0.024072 101548.000000 0 0 1
27.196239 -22.946970 18.237577 39.985097 -0.700857 1.097178 0.057310 -0.013737 -351915.000000 0 0 1
26.092639 -22.225470 18.682377 39.036246 -0.705533 1.071748 0.061530 -0.017116 -137366.000000 0 0 1
24.925939 -22.922870 18.235077 38.461388 -0.743560 1.076839 0.048347 -0.011152 574003.000000 0 0 1
23.610539 -22.389270 18.883677 37.620874 -0.758855 1.044948 0.043046 -0.006827 181841.000000 0 0 1
23.198039 -21.069770 18.491377 36.387020 -0.737358 1.037719 0.040668 -0.011863 608208.000000 0 0 1
22.029039 -20.561070 19.163477 35.710992 -0.750944 1.004362 0.043807 -0.011688 757040.000000 0 0 1
22.250639 -20.123970 20.662777 36.428223 -0.735253 0.967671 0.038284 -0.011826 -243454.000000 0 0 1
22.284939 -21.223370 21.523077 37.553865 -0.761004 0.960481 0.052601 -0.005373 -211357.000000 0 0 1
22.318639 -20.762770 22.849777 38.096280 -0.749299 0.927557 0.053044 0.000046 197742.000000 0 0 1
22.710939 -21.814070 23.957487 39.567683 -0.765258 0.920426 0.053236 -0.000760 -107653.000000 0 0 1
21.652239 -22.701070 24.220847 39.633413 -0.809041 0.913319 0.055571 0.004699 -174604.000000 0 0 1
22.036139 -23.711770 25.130297 40.980132 -0.822009 0.910652 0.057257 0.008658 -582379.000000 0 0 1
20.899939 -24.407170 25.869717 41.252389 -0.862654 0.892961 0.075011 0.002883 -773583.000000 0 0 1
20.128039 -25.203170 25.052347 40.840639 -0.896891 0.910416 0.070028 0.001489 -249410.000000 0 0 1
19.130539 -25.838570 25.821227 41.235239 -0.933476 0.894135 0.070115 0.002073 -538606.000000 0 0 1
18.345339 -26.875670 25.067227 41.075771 -0.971844 0.914398 0.083613 -0.001306 -437104.000000 0 0 1
17.497239 -26.241470 24.122367 39.707136 -0.982717 0.917878 0.088799 -0.005158 -60589.900000 0 0 1
17.035039 -27.125870 23.187397 39.543150 -1.010043 0.944211 0.089709 -0.009886 -922563.000000 0 0 1
16.133839 -26.423070 22.213477 38.104041 -1.022622 0.948418 0.089728 -0.016123 -1260700.000000 0 0 1
14.905639 -26.118970 22.768877 37.720026 -1.052213 0.922752 0.076024 -0.017805 -807903.000000 0 0 1
14.255939 -25.123270 21.941677 36.274614 -1.054662 0.921185 0.051096 -0.019773 71796.200000 0 0 1
12.817539 -24.833570 22.408477 35.820878 -1.094322 0.894934 0.054562 -0.018531 77308.500000 0 0 1
11.822039 -25.648670 21.796277 35.674817 -1.138897 0.913510 0.054091 -0.022001 -22807.900000 0 0 1
10.561139 -25.049970 22.019377 34.984162 -1.171807 0.890003 0.047973 -0.021858 349114.000000 0 0 1
9.395839 -26.039170 22.299677 35.547092 -1.224502 0.892679 0.046455 -0.026156 250404.000000 0 0 1
9.108839 -26.827670 21.126077 35.341278 -1.243478 0.930076 0.057615 -0.031149 -335598.000000 0 0 1
7.807939 -27.327870 21.132577 35.416976 -1.292497 0.931440 0.051996 -0.028827 -608758.000000 0 0 1
7.453139 -28.181270 19.892577 35.290903 -1.312245 0.971969 0.061142 -0.030361 -69856.400000 0 0 1
8.056739 -29.441470 19.861377 36.416829 -1.303683 0.993942 0.071763 -0.029310 46742.800000 0 0 1
7.514639 -30.245470 18.815477 36.404401 -1.327272 1.027633 0.059853 -0.029070 286082.000000 0 0 1
8.295039 -31.578870 18.558177 37.555807 -1.313923 1.053940 0.064630 -0.027319 -30429.600000 0 0 1
8.029739 -32.541870 19.598377 38.827134 -1.328878 1.041693 0.071703 -0.031192 193732.000000 0 0 1
8.871939 -33.668170 19.586677 39.948653 -1.313142 1.058367 0.075466 -0.033759 -291184.000000 0 0 1
8.418739 33.455681 20.662977 40.213385 1.324276 1.031149 0.086801 -0.037827 11847.100000 0 0 1
7.516739 32.502881 20.171977 38.985218 1.343528 1.026956 0.082565 -0.043410 -162327.000000 0 0 1
7.524539 31.424881 21.100877 38.592600 1.335776 0.992307 0.082543 -0.049065 -162224.000000 0 0 1
6.581239 30.282481 20.703977 37.269236 1.356796 0.981803 0.098710 -0.045414 1301820.000000 0 0 1
5.188539 30.593981 21.018077 37.478956 1.402801 0.975449 0.096246 -0.048125 1598480.000000 0 0 1
4.344939 29.576581 20.395577 36.188840 1.424935 0.972074 0.096770 -0.039711 426963.000000 0 0 1
2.892139 29.625481 20.890677 36.365560 1.473481 0.958848 0.078610 -0.028952 -199825.000000 0 0 1
2.720239 29.005081 22.184477 36.617556 1.477285 0.919972 0.060764 -0.022440 -735098.000000 0 0 1
1.369839 28.808681 22.444577 36.545527 1.523283 0.909483 0.047590 -0.008983 -605733.000000 0 0 1
0.972539 28.271881 23.827917 36.986682 1.536410 0.870781 0.053776 -0.004814 -64702.400000 0 0 1
0.993939 29.259481 24.812077 38.376350 1.536840 0.867748 0.057247 -0.011253 -48257.300000 0 0 1
0.680039 28.754581 26.093147 38.834787 1.547151 0.834023 0.050855 -0.008994 -129971.000000 0 0 1
1.783339 28.190181 27.034897 39.099261 1.507620 0.807312 0.034843 -0.003781 53759.300000 0 0 1
2.357639 26.983781 26.522027 37.909112 1.483645 0.795929 0.040337 -0.008345 505031.000000 0 0 1
3.370539 26.414581 27.354367 38.175280 1.443881 0.771958 0.017857 0.006105 95939.400000 0 0 1
3.829439 25.074881 26.689827 36.820661 1.419247 0.759965 0.021727 0.017715 574317.000000 0 0 1
2.805339 24.053681 26.481117 35.884523 1.454693 0.740763 0.038337 0.008596 534828.000000 0 0 1
3.368339 22.789381 26.377767 35.021253 1.424056 0.717893 0.042784 0.014201 -2970.770000 0 0 1
2.242439 21.747381 26.308777 34.207146 1.468046 0.693362 0.051239 0.013580 91629.100000 0 0 1
2.688439 20.433581 26.661507 33.698588 1.439978 0.658067 0.055197 0.012028 150691.000000 0 0 1
3.274039 19.712381 25.576537 32.456995 1.406208 0.663221 0.049927 0.008601 -205222.000000 0 0 1
3.780039 18.293081 25.915077 31.945527 1.367027 0.624549 0.044501 -0.003064 -90242.400000 0 0 1
4.967339 18.243681 26.713057 32.727568 1.304963 0.615950 0.049758 -0.008034 -197547.000000 0 0 1
6.014539 17.959081 25.849017 32.044889 1.247634 0.632334 0.064786 -0.006256 -1452440.000000 0 0 1
7.381039 17.736381 26.531207 32.756127 1.176443 0.626710 0.050350 -0.017738 44162.900000 0 0 1
7.903539 18.844681 27.254867 34.064874 1.173675 0.643356 0.055903 -0.014231 33783.200000 0 0 1
8.274639 20.026481 26.529037 34.253750 1.178976 0.684895 0.051760 -0.018409 -180737.000000 0 0 1
8.867439 21.116481 27.524767 35.807122 1.173228 0.693997 0.039754 -0.016023 -259543.000000 0 0 1
9.995339 20.712881 28.228797 36.411470 1.121193 0.683651 0.060040 -0.036328 -460603.000000 0 0 1
10.380539 21.800181 29.069097 37.789097 1.126396 0.693137 0.075146 -0.035095 -463234.000000 0 0 1
11.462439 21.620481 30.122357 38.809652 1.083308 0.682249 0.090266 -0.041706 203286.000000 0 0 1
12.749939 21.394281 29.563667 38.656003 1.033360 0.700083 0.085144 -0.048094 100451.000000 0 0 1
13.738239 21.305981 30.575257 39.718136 0.998081 0.692259 0.085178 -0.036332 999322.000000 0 0 1
15.188139 20.907081 30.111337 39.679695 0.942532 0.709235 0.074323 -0.039071 883116.000000 0 0 1
15.795039 21.966981 29.411007 39.962968 0.947409 0.743718 0.072724 -0.045525 -671493.000000 0 0 1
17.124139 21.613581 29.170267 40.140845 0.900777 0.757294 0.117682 -0.032338 -524093.000000 0 0 1
-8.682239 16.711981 4.339380 19.326194 -1.091653 1.344332 0.022637 -0.019101 -190678.000000 0 1 0
-8.692939 18.041881 4.736680 20.579426 -1.121798 1.338548 0.029818 -0.021466 1153370.000000 0 1 0
-7.430239 18.345481 5.384080 20.512275 -1.185972 1.305204 0.038274 -0.014167 822509.000000 0 1 0
-7.357239 19.784381 5.898080 21.916615 -1.214772 1.298323 0.044797 -0.012925 -17321.400000 0 1 0
-7.422339 20.835481 4.933280 22.661545 -1.228577 1.351345 0.051848 -0.016439 1018600.000000 0 1 0
-8.787139 21.071181 4.525980 23.274298 -1.175703 1.375087 0.054421 -0.022592 951078.000000 0 1 0
-8.969639 22.171881 3.459880 24.166454 -1.186374 1.427134 0.082129 -0.029415 334401.000000 0 1 0
-8.315639 21.853681 2.198280 23.485435 -1.207200 1.477057 0.067541 -0.032795 -185675.000000 0 1 0
-8.891239 20.875281 1.404980 22.733355 -1.168145 1.508954 0.084975 -0.030672 -954695.000000 0 1 0
-8.241539 20.732981 -0.003220 22.310972 -1.192440 1.570941 0.066299 -0.020597 790466.000000 0 1 0
-6.864039 20.364881 -0.013420 21.490546 -1.245702 1.571421 0.063940 -0.016134 709584.000000 0 1 0
-5.943839 21.418081 0.336780 22.230088 -1.300093 1.555646 0.075652 -0.023246 -1165360.000000 0 1 0
-4.537639 21.164781 -0.117520 21.646060 -1.359598 1.576226 0.068094 -0.020895 -1062110.000000 0 1 0
-4.287239 21.328081 -1.490420 21.805706 -1.372426 1.639200 0.058357 -0.026113 261324.000000 0 1 0
-2.943539 21.668681 -1.806520 21.942189 -1.435780 1.653221 0.054239 -0.013522 174596.000000 0 1 0
-2.723339 21.524381 -3.315720 21.947882 -1.444942 1.722449 0.057903 -0.017635 -1158910.000000 0 1 0
-1.502839 21.994381 -3.694720 22.353126 -1.502574 1.736847 0.061803 -0.023790 -1221130.000000 0 1 0
-1.430739 22.233781 -5.120020 22.860504 -1.506535 1.796680 0.074445 -0.034489 -340860.000000 0 1 0
-0.182539 22.860181 -5.734720 23.569221 -1.562811 1.816577 0.075967 -0.038667 -541034.000000 0 1 0
0.932761 21.995381 -5.809720 22.768831 1.528415 1.828811 0.051137 -0.030553 325907.000000 0 1 0
1.929461 22.593981 -6.691420 23.642882 1.485606 1.857738 0.057004 -0.029949 20173.000000 0 1 0
3.196261 21.777881 -6.762720 23.026649 1.425070 1.868882 0.047512 -0.016488 -727573.000000 0 1 0
3.000961 20.544181 -7.430620 22.051831 1.425749 1.914484 0.041191 -0.030167 -770079.000000 0 1 0
4.093061 19.707881 -7.367120 21.434276 1.366021 1.921658 0.032761 -0.023833 -455440.000000 0 1 0
4.024361 18.628181 -8.486020 20.861858 1.358030 1.989714 0.020288 -0.022081 111031.000000 0 1 0
4.223861 19.160881 -9.765920 21.916969 1.353825 2.032626 0.024815 -0.015823 68992.900000 0 1 0
3.163361 18.800281 -10.689320 21.856783 1.404096 2.081810 0.026719 -0.018284 247131.000000 0 1 0
3.423661 19.159981 -12.191920 22.966698 1.393974 2.130402 0.028327 -0.017595 -62203.000000 0 1 0
3.416261 20.534481 -12.504920 24.283920 1.405939 2.111742 0.059203 -0.017503 -98132.600000 0 1 0
3.604461 20.776181 -13.903720 25.257776 1.399016 2.153727 0.070647 -0.008167 893.159000 0 0 1
3.951161 22.230881 -14.187620 26.666689 1.394900 2.131799 0.081102 -0.011493 56522.900000 0 0 1
2.838461 23.087581 -14.305820 27.308419 1.448467 2.122174 0.099898 -0.014446 -301504.000000 0 0 1
3.240561 24.395881 -14.665320 28.648418 1.438737 2.108199 0.090469 -0.020404 281698.000000 0 0 1
2.113661 25.346881 -15.181820 29.621269 1.487599 2.108926 0.088119 -0.009626 839090.000000 0 0 1
1.043361 25.566281 -14.247020 29.286531 1.530009 2.078841 0.085937 -0.013264 390158.000000 0 0 1
0.824261 26.955781 -14.112420 30.437706 1.540228 2.052906 0.057468 -0.006922 -306310.000000 0 0 1
0.012661 27.376981 -12.855420 30.245017 1.570334 2.009805 0.058204 -0.011316 762277.000000 0 0 1
-1.392039 27.106881 -12.830920 30.022546 -1.519488 2.012385 0.034696 -0.018358 427706.000000 0 0 1
-1.912039 25.796681 -12.888420 28.900450 -1.496812 2.033042 0.038391 -0.016538 -462452.000000 0 0 1
-1.654439 24.854681 -11.695820 27.518803 -1.504330 2.009771 0.070845 -0.024222 -81105.000000 0 0 1
-2.371539 25.178481 -10.489120 27.378856 -1.476884 1.963957 0.068203 -0.017270 332540.000000 0 0 1
-2.935439 23.927981 -10.012420 26.103900 -1.448728 1.964445 0.111754 -0.018342 246985.000000 0 0 1
-3.737939 23.943681 -8.692220 25.745421 -1.415933 1.915186 0.090879 -0.022769 -137754.000000 0 0 1
-3.040739 24.267781 -7.525620 25.589182 -1.446147 1.869304 0.090264 -0.030917 -340829.000000 0 0 1
-2.535139 25.554581 -7.471220 26.744769 -1.471915 1.853916 0.080133 -0.034160 -51034.300000 0 0 1
-2.462539 26.115481 -6.066720 26.923735 -1.476780 1.798078 0.088363 -0.034668 345064.000000 0 0 1
-1.479239 25.455981 -5.273920 26.038612 -1.512752 1.774750 0.091517 -0.037964 67149.100000 0 0 1
-1.412539 26.103881 -4.007320 26.447428 -1.516737 1.722902 0.095851 -0.038838 -112597.000000 0 0 1
-2.405239 25.551881 -2.944020 25.833138 -1.476941 1.685007 0.096117 -0.036807 895013.000000 0 0 1
-3.800139 25.723481 -3.183320 26.196795 -1.424127 1.692613 0.092149 -0.034826 550930.000000 0 0 1
-4.602639 25.312881 -2.089820 25.812663 -1.390931 1.651846 0.091851 -0.031117 390123.000000 0 0 1
-5.873339 24.527881 -2.541620 25.349021 -1.335766 1.671230 0.075610 -0.029399 455390.000000 0 0 1
-6.879739 25.294581 -3.195320 26.407512 -1.305236 1.692094 0.071987 -0.026377 -278081.000000 0 0 1
-7.958939 24.479381 -3.554220 25.984943 -1.256448 1.708006 0.074754 -0.022288 18639.400000 0 0 1
-9.260239 25.249881 -3.875720 27.172223 -1.219283 1.713920 0.054714 -0.013124 -139374.000000 0 0 1
-9.879339 25.697481 -2.699520 27.663139 -1.203769 1.668537 0.063057 -0.018104 -939950.000000 0 0 1
-11.152539 26.221881 -2.897720 28.641979 -1.168660 1.672140 0.063891 -0.010998 -339588.000000 0 0 1
-11.889039 26.408581 -1.539420 29.002279 -1.147779 1.623901 0.070776 -0.013182 103950.000000 0 0 1
-12.471339 25.206581 -0.976620 28.140003 -1.111345 1.605509 0.077655 -0.011660 177600.000000 0 0 1
-11.554439 24.288281 -0.408620 26.899677 -1.126760 1.585987 0.085840 -0.017297 -100374.000000 0 0 1
-12.139239 22.873481 -0.102420 25.895323 -1.082882 1.574751 0.081571 -0.018428 -1239.660000 0 0 1
-12.730939 22.903581 1.192580 26.231147 -1.063473 1.525316 0.081589 -0.021443 69234.700000 0 0 1
-13.340139 21.654881 1.466980 25.476365 -1.018671 1.513182 0.076112 -0.028418 181779.000000 0 0 1
-14.011639 21.471281 2.886880 25.800698 -0.992612 1.458670 0.079936 -0.035021 -478870.000000 0 0 1
-13.092939 21.557081 3.925580 25.525340 -1.024982 1.416392 0.087715 -0.034542 -313878.000000 0 0 1
-13.082239 22.854781 4.527580 26.720497 -1.050913 1.400533 0.079930 -0.029475 -71389.000000 0 0 1
-12.717339 22.849881 6.030680 26.836856 -1.062930 1.344144 0.079467 -0.028051 -366106.000000 0 0 1
-11.396939 22.457181 6.301780 25.960116 -1.101170 1.325598 0.069982 -0.027162 -237206.000000 0 0 1
-11.302039 22.028481 7.639780 25.910544 -1.096752 1.271496 0.051008 -0.022295 -202649.000000 0 0 1
-9.880039 21.687181 8.099880 25.170559 -1.143320 1.243167 0.040398 -0.019280 -156210.000000 0 0 1
-9.049739 22.777381 8.429880 25.918521 -1.192609 1.239525 0.044632 -0.019888 -330129.000000 0 0 1
-8.176339 22.604081 9.500680 25.846855 -1.223719 1.194395 0.050605 -0.017700 -593571.000000 0 0 1
-8.691439 22.470681 10.954780 26.466579 -1.201729 1.144051 0.052874 -0.023047 -385210.000000 0 0 1
-9.205139 21.150581 11.162780 25.625950 -1.160302 1.120087 0.056775 -0.018645 7073.680000 0 0 1
-9.242139 20.754381 12.551380 25.955704 -1.151849 1.066068 0.050571 -0.014727 -739418.000000 0 0 1
-10.230439 19.636081 12.764280 25.557081 -1.090489 1.047842 0.048378 -0.016455 -843821.000000 0 0 1
-10.127939 18.449181 12.027780 24.240769 -1.068749 1.051603 0.052977 -0.026112 -321994.000000 0 1 0
-10.946539 17.430081 12.536680 24.099850 -1.010024 1.023714 0.044903 -0.026889 -369879.000000 0 1 0
-10.885939 16.151381 11.731780 22.737753 -0.977738 1.028668 0.043439 -0.030782 -289107.000000 0 1 0
-10.985239 15.010781 12.542080 22.434411 -0.939030 0.977550 0.034380 -0.025713 132044.000000 0 1 0
-11.324339 13.961681 11.617080 21.403872 -0.889323 0.997081 0.029952 -0.013441 1221.040000 0 1 0
-11.700639 12.621381 12.299680 21.153873 -0.823236 0.950300 0.018502 -0.023710 19905.800000 0 1 0
-12.877339 12.727781 13.086880 22.340293 -0.779557 0.944933 0.028739 -0.017289 74382.400000 0 1 0
-13.247239 11.495281 13.565680 22.173373 -0.714709 0.912462 0.026315 -0.008364 -252622.000000 0 1 0
-14.053239 11.600281 14.821080 23.488815 -0.690069 0.887975 0.033482 -0.011542 38872.700000 0 1 0
-15.355439 12.147081 14.692580 24.478827 -0.669266 0.927025 0.043935 -0.016815 430970.000000 0 1 0
-16.054739 12.086481 15.959180 25.661899 -0.645310 0.899627 0.045382 -0.015255 344745.000000 0 0 1
-17.244539 13.076781 16.052380 26.945412 -0.648801 0.932613 0.055757 -0.015283 -192567.000000 0 0 1
-18.365839 12.807581 15.272680 27.103375 -0.608951 0.972183 0.060280 -0.014208 -84903.800000 0 0 1
-19.258339 13.919481 15.163980 28.188328 -0.625849 1.002790 0.080991 -0.021783 -122040.000000 0 0 1
-20.476439 13.584681 14.316480 28.439228 -0.585758 1.043260 0.089410 -0.024427 -531114.000000 0 0 1
-21.454139 12.823581 14.983880 29.141739 -0.538742 1.030754 0.094670 -0.013189 774579.000000 0 0 1
-22.568739 12.576781 14.086180 29.426924 -0.508404 1.071642 0.088249 -0.014334 298276.000000 0 0 1
-23.627939 11.659881 14.663780 30.153918 -0.458417 1.062949 0.099521 -0.007675 3110.590000 0 0 1
-24.443239 12.242981 15.702780 31.526811 -0.464346 1.049417 0.106863 -0.024289 581681.000000 0 0 1
-25.288699 11.271481 16.323080 32.140434 -0.419282 1.038089 0.103799 -0.021244 433523.000000 0 0 1
-26.301799 11.939981 17.301080 33.670093 -0.426143 1.031140 0.094736 -0.028000 165905.000000 0 0 1
-27.254169 12.835681 16.763780 34.475625 -0.440149 1.063003 0.094930 -0.026369 110533.000000 0 0 1
-28.238339 13.051381 17.749380 35.815958 -0.432942 1.052303 0.099114 -0.006973 2590.260000 0 0 1
-29.321769 14.053281 17.308680 36.835462 -0.446933 1.081628 0.090363 -0.012019 70431.000000 0 0 1
-28.730399 15.311981 17.068680 36.759113 -0.489662 1.087909 0.084020 -0.014753 247340.000000 0 0 1
-29.709589 16.355981 17.050580 37.959189 -0.503249 1.104947 0.082849 -0.013642 -43846.400000 0 0 1
-29.170179 17.842281 16.926680 38.154408 -0.548950 1.111144 0.089451 -0.014584 -281359.000000 0 0 1
-28.465739 18.340681 18.036580 38.366614 -0.572363 1.081379 0.068710 -0.009423 207484.000000 0 0 1
-29.226769 18.659781 19.208980 39.640590 -0.568212 1.064915 0.077416 -0.010146 -777824.000000 0 0 1
-28.349139 18.754981 20.471480 39.680026 -0.584467 1.028722 0.061442 -0.007976 62543.200000 0 0 1
-27.965609 17.521981 20.982280 39.106920 -0.559716 1.004469 0.065264 -0.009610 433451.000000 0 0 1
-26.948989 16.851681 20.215180 37.668032 -0.558828 1.004315 0.057415 -0.006761 -410125.000000 0 0 1
-26.564419 15.505881 20.811580 37.137886 -0.528354 0.975944 0.067507 -0.009011 -385450.000000 0 0 1
-27.611499 14.584281 20.856080 37.550928 -0.485949 0.981943 0.066853 -0.020033 66587.800000 0 0 1
-27.169789 13.329281 21.401280 37.065913 -0.456093 0.955275 0.064058 -0.014691 21320.700000 0 0 1
-28.349279 12.391981 21.687580 37.783514 -0.412090 0.959419 0.078031 -0.017574 111054.000000 0 0 1
-29.263489 12.122781 20.636780 37.804633 -0.392741 0.993358 0.087091 -0.017947 -652012.000000 0 0 1
-30.302779 11.334481 21.017480 38.580608 -0.357930 0.994684 0.110559 -0.017497 -1074300.000000 0 0 1
-31.293029 11.052581 19.870880 38.681586 -0.339519 1.031300 0.118598 -0.025819 -416389.000000 0 0 1
-30.793689 10.432881 18.680080 37.497222 -0.326662 1.049307 0.139016 -0.035280 129238.000000 0 0 1
-30.230069 9.174681 18.788180 36.756327 -0.294660 1.034268 0.166848 -0.037626 -537048.000000 0 0 1
-29.495619 8.611981 17.552780 35.387255 -0.284078 1.051787 0.186505 -0.050186 -425483.000000 0 0 1
-30.135789 8.300581 16.312680 35.258601 -0.268775 1.089805 0.193120 -0.038910 138910.000000 0 0 1
-30.738479 9.411581 15.641280 35.750267 -0.297119 1.117963 0.172567 -0.040648 44621.900000 0 0 1
-29.775899 10.527981 15.058280 34.988489 -0.339855 1.125885 0.152205 -0.030714 265500.000000 0 0 1
-29.241839 10.263881 13.796180 33.922956 -0.337565 1.151967 0.142015 -0.034734 1184500.000000 0 0 1
-28.080799 11.099281 13.479480 33.066927 -0.376415 1.150926 0.116018 -0.023945 1068220.000000 0 0 1
-27.797859 11.251481 11.969080 32.288940 -0.384604 1.191048 0.130821 -0.024252 -227755.000000 0 0 1
-27.232819 10.109481 11.354980 31.189158 -0.355456 1.198164 0.162081 -0.018560 732904.000000 0 0 1
-28.195569 9.093181 11.167780 31.660628 -0.311973 1.210305 0.158820 -0.017055 18319.200000 0 0 1
-27.481899 7.905081 10.498780 30.462591 -0.280085 1.218936 0.167432 -0.015926 43635.200000 0 0 1
-27.077869 8.217581 9.208080 29.757829 -0.294646 1.256199 0.161945 -0.012808 107646.000000 0 0 1
-26.447249 7.088181 8.613380 28.703477 -0.261858 1.266018 0.169299 -0.015630 -89825.700000 0 0 1
-25.679379 7.579181 7.378380 27.772558 -0.286998 1.301896 0.164870 -0.003752 -155680.000000 0 0 1
-26.542819 8.011681 6.374180 28.448874 -0.293144 1.344821 0.169262 -0.013244 300951.000000 0 0 1
-25.730279 8.384381 5.291080 27.574275 -0.315006 1.377714 0.168510 -0.021821 332959.000000 0 0 1
-26.648009 8.868581 4.149880 28.389956 -0.321275 1.424096 0.150887 -0.021602 216665.000000 0 0 1
-27.484389 8.056081 3.359280 28.837074 -0.285128 1.454040 0.164340 -0.027527 424637.000000 0 0 1
-26.853779 6.884481 2.814080 27.864683 -0.250964 1.469633 0.172447 -0.026788 50735.800000 0 0 1
-25.961079 7.015581 1.528780 26.935723 -0.263930 1.514009 0.173385 -0.024805 -19746.300000 0 0 1
-24.803239 7.728081 1.814480 26.042585 -0.302042 1.501066 0.158735 -0.025538 -588339.000000 0 0 1
-23.710039 7.481081 0.994080 24.882136 -0.305637 1.530834 0.148793 -0.019955 -390940.000000 0 1 0
-22.422739 8.211281 1.412580 23.920697 -0.351036 1.511709 0.119384 -0.018971 -340053.000000 0 1 0
-22.547039 9.641081 1.394780 24.561450 -0.404070 1.513978 0.109214 -0.026946 1068050.000000 0 1 0
-21.402039 10.425981 1.825080 23.876333 -0.453314 1.494283 0.107357 -0.023869 343901.000000 0 1 0
-21.766239 11.651281 2.643580 24.829620 -0.491481 1.464125 0.109401 -0.031769 -805409.000000 0 1 0
-20.750939 12.555181 2.876180 24.423481 -0.544118 1.452760 0.115826 -0.026895 -528273.000000 0 1 0
-21.177439 13.635581 3.665780 25.452916 -0.572056 1.426272 0.134145 -0.035668 -187568.000000 0 0 1
-20.088839 14.360881 4.501280 25.100954 -0.620635 1.390494 0.102968 -0.026623 -97499.700000 0 0 1
-19.551739 13.473381 5.430780 24.357665 -0.603383 1.345947 0.093337 -0.029021 551595.000000 0 1 0
-18.689839 14.120481 6.402880 24.283635 -0.647022 1.303971 0.084503 -0.025123 224958.000000 0 1 0
-17.989139 13.261781 7.458680 23.560897 -0.635265 1.248685 0.030774 -0.017989 -259974.000000 0 1 0
-17.154939 12.268581 6.942280 22.203722 -0.620830 1.252801 0.041682 -0.013788 -179704.000000 0 1 0
-16.413939 11.718781 8.002180 21.697514 -0.620029 1.193072 0.028122 -0.009731 -152785.000000 0 1 0
9.968061 -33.678470 -14.342920 37.938383 -1.283034 1.958494 0.047962 -0.006127 -881613.000000 0 0 1
11.143361 -33.315970 -13.710820 37.710939 -1.248019 1.942901 0.048766 -0.015327 -488390.000000 0 0 1
11.625861 -32.036570 -13.997820 36.843472 -1.222682 1.960513 0.056072 -0.022143 -160663.000000 0 0 1
12.994961 -31.722670 -13.374320 36.797680 -1.182005 1.942771 0.048599 -0.023377 -554439.000000 0 0 1
14.133161 -32.288670 -13.966920 37.912785 -1.158207 1.948079 0.062163 -0.023311 -223861.000000 0 0 1
15.224761 -31.693370 -13.269420 37.581120 -1.122970 1.931665 0.047870 -0.018840 -824026.000000 0 0 1
16.571461 -32.263970 -13.627420 38.746402 -1.096311 1.930191 0.074226 -0.021290 -697161.000000 0 0 1
16.798661 -33.607570 -13.194020 39.821426 -1.107271 1.908509 0.072771 -0.027283 47280.900000 0 0 1
17.961161 33.967681 -13.819020 40.833466 1.084397 1.916038 0.079503 -0.012101 590533.000000 0 0 1
18.209861 32.433181 -13.518520 39.576011 1.059199 1.919398 0.057210 -0.017395 -46636.900000 0 0 1
18.644661 32.227481 -12.188420 39.176415 1.046311 1.887164 0.060603 -0.018827 -261050.000000 0 0 1
18.787561 30.821281 -11.889720 38.003806 1.023374 1.888995 0.045629 -0.014212 406075.000000 0 0 1
19.594161 30.379081 -10.586520 37.668211 0.997952 1.855681 0.045177 -0.017835 2228340.000000 0 0 1
21.029661 30.192781 -10.844220 38.359455 0.962415 1.857404 0.042837 -0.018555 1500010.000000 0 0 1
21.621961 29.887781 -9.605320 38.118904 0.944513 1.825525 0.043630 -0.014659 -138141.000000 0 0 1
22.880961 29.035181 -9.724820 38.225021 0.903389 1.828034 0.047382 -0.007880 -925058.000000 0 0 1
24.070361 29.590181 -10.126120 39.465167 0.887903 1.830282 0.055801 -0.016181 -826742.000000 0 0 1
25.138861 28.699681 -9.956620 39.430550 0.851441 1.826070 0.056122 -0.007753 -50545.300000 0 0 1
26.394061 29.101481 -10.763820 40.735764 0.834146 1.838207 0.043600 -0.013311 25071.200000 0 0 1
26.965961 30.360481 -10.384620 41.913747 0.844543 1.821166 0.051449 -0.024116 -87966.200000 0 0 1
28.044461 30.613681 -11.242920 43.012702 0.829170 1.835254 0.049679 -0.018970 -315228.000000 0 0 1
28.651361 32.025381 -11.288320 44.429176 0.840947 1.827687 0.043975 -0.025727 -537322.000000 0 0 1
27.843361 33.082781 -11.734420 44.804238 0.871183 1.835791 0.055230 -0.022457 -403361.000000 0 0 1
28.349561 -33.774470 -11.405820 45.546736 -0.872501 1.823911 0.043478 -0.014510 -49023.700000 0 0 1
27.334061 -32.651170 -11.750220 44.173719 -0.873807 1.840038 0.037250 -0.010569 161982.000000 0 0 1
26.216961 -32.709770 -10.885720 43.310010 -0.895140 1.824865 0.062351 -0.019625 110127.000000 0 0 1
25.144461 -31.817270 -11.237720 42.081694 -0.902012 1.841122 0.073485 -0.022120 599285.000000 0 0 1
25.359361 -30.346770 -10.784820 40.991901 -0.874691 1.837027 0.041126 -0.013897 -564220.000000 0 0 1
26.190461 -29.675470 -11.715720 41.277498 -0.847699 1.858581 0.033449 -0.009551 -277381.000000 0 0 1
26.627261 -28.481670 -11.107320 40.541203 -0.819035 1.848321 0.022078 -0.005912 -157006.000000 0 0 1
27.554461 -27.567770 -11.984020 40.778021 -0.785640 1.869084 0.036052 -0.005364 974515.000000 0 0 1
28.837261 -28.124970 -12.293720 42.115758 -0.772894 1.867012 0.025702 -0.001880 359329.000000 0 0 1
28.693061 -29.117770 -13.339420 43.000888 -0.792745 1.886213 0.041327 -0.011040 -1105240.000000 0 0 1
29.940761 -29.733270 -13.942620 44.439995 -0.781921 1.889926 0.040095 -0.006985 -222184.000000 0 0 1
30.500261 -30.787570 -13.129220 45.282632 -0.790086 1.864960 0.041597 -0.011765 -208198.000000 0 0 1
31.743861 -31.254170 -13.557220 46.564945 -0.777625 1.866221 0.045919 -0.018185 -356477.000000 0 0 1
32.270861 -32.374270 -12.644920 47.427796 -0.786998 1.840675 0.052161 -0.018933 821672.000000 0 0 1
33.560361 -32.866170 -13.062720 48.755693 -0.774948 1.842032 0.042598 -0.019995 920986.000000 0 0 1
34.340361 -33.665270 -12.181620 49.608494 -0.775472 1.818889 0.047106 -0.016956 45051.800000 0 0 1
33.701161 33.118681 -11.631820 48.661222 0.776681 1.812170 0.046839 -0.024001 -142084.000000 0 0 1
33.066461 33.364581 -10.405620 48.113023 0.789886 1.788793 0.036505 -0.021722 -278805.000000 0 0 1
32.306061 32.249781 -10.035220 46.737946 0.784526 1.787194 0.029580 -0.022791 -213926.000000 0 0 1
31.600461 32.345781 -8.639920 46.037885 0.797053 1.759586 0.013837 -0.018102 816571.000000 0 0 1
30.539561 33.328081 -8.651820 46.024773 0.829031 1.759903 0.021897 -0.017853 15781.200000 0 0 1
29.961161 33.583981 -7.430120 45.615366 0.842348 1.734412 0.023840 -0.011134 61121.800000 0 0 1
28.816561 -33.541470 -7.594820 44.867646 -0.861024 1.740887 0.023483 -0.015479 -711919.000000 0 0 1
29.371961 -32.270070 -7.754320 44.319285 -0.832379 1.746666 0.007718 -0.016592 101609.000000 0 0 1
28.504661 -31.231770 -8.219420 43.075492 -0.831019 1.762788 0.013484 -0.013041 215298.000000 0 0 1
27.434361 -30.665470 -7.262220 41.782234 -0.840954 1.745495 0.021536 -0.013361 211151.000000 0 0 1
26.622161 -29.730970 -7.965520 40.695449 -0.840509 1.767803 0.024729 -0.022687 -607169.000000 0 0 1
25.792961 -29.128770 -7.039020 39.538714 -0.846061 1.749779 0.035836 -0.028805 -184327.000000 0 0 1
24.799261 -28.129770 -7.724920 38.287879 -0.848239 1.773950 0.071896 -0.024898 453690.000000 0 0 1
23.731761 -28.779770 -8.419720 38.240859 -0.881235 1.792791 0.086352 -0.023968 156469.000000 0 0 1
22.978461 -27.895570 -9.197120 37.292888 -0.881752 1.819986 0.098146 -0.025606 -363025.000000 0 0 1
21.858761 -28.673970 -9.905620 37.391487 -0.919456 1.838914 0.115336 -0.023923 -272352.000000 0 0 1
22.239761 -29.471270 -11.047520 38.538428 -0.924342 1.861538 0.128157 -0.021208 434068.000000 0 0 1
21.130661 -30.218670 -11.589020 38.652015 -0.960568 1.875310 0.109623 -0.022599 655972.000000 0 0 1
20.719261 -31.537570 -10.926120 39.284681 -0.989536 1.852640 0.108678 -0.033079 9785.010000 0 0 1
21.753461 -32.497370 -10.961020 40.613250 -0.980910 1.844073 0.088157 -0.031799 -454833.000000 0 0 1
21.395361 -33.812770 -10.631620 41.401645 -1.006636 1.830498 0.061988 -0.029012 -459127.000000 0 0 1
22.515561 33.293281 -10.595520 41.565106 0.976168 1.828555 0.063680 -0.020950 369388.000000 0 0 1
23.488761 33.425881 -9.525820 41.949406 0.958253 1.799873 0.074226 -0.020170 528999.000000 0 0 1
24.663961 32.689481 -9.764620 42.098229 0.924426 1.804877 0.068337 -0.016209 975048.000000 0 0 1
25.928361 33.081581 -8.857720 42.954977 0.906030 1.778496 0.059730 -0.016945 362933.000000 0 0 1
25.909961 32.769581 -7.470820 42.438009 0.901770 1.747759 0.050684 -0.022578 50964.900000 0 0 1
26.332561 31.449781 -7.253120 41.654534 0.873728 1.745814 0.058490 -0.023013 -240183.000000 0 0 1
25.995861 30.998381 -5.772720 40.865740 0.872946 1.712531 0.049689 -0.014637 -193781.000000 0 0 1
26.866061 31.579981 -4.787620 41.737294 0.865878 1.685758 0.045236 -0.004694 377187.000000 0 0 1
28.015261 30.793781 -4.507020 41.873918 0.832610 1.678638 0.052478 -0.014078 -54813.300000 0 0 1
27.911661 29.700381 -3.488520 40.906518 0.816436 1.656180 0.073706 -0.007900 -662545.000000 0 0 1
27.515861 30.190481 -2.228120 40.909073 0.831714 1.625288 0.071221 -0.011008 170211.000000 0 0 1
27.170661 29.128181 -1.294120 39.854366 0.820154 1.603273 0.068919 -0.008737 151688.000000 0 0 1
25.836861 28.402281 -1.527420 38.426110 0.832661 1.610556 0.065496 -0.004761 -234329.000000 0 0 1
24.628261 29.070381 -1.215820 38.119765 0.867933 1.602696 0.068899 -0.005379 -149797.000000 0 0 1
23.525061 28.309181 -1.645420 36.844886 0.877434 1.615469 0.075505 -0.001863 155405.000000 0 0 1
22.184061 28.869681 -1.109220 36.425560 0.915610 1.601253 0.075874 -0.009509 124646.000000 0 0 1
22.062061 28.564181 0.241680 36.093010 0.913133 1.564100 0.079500 -0.009458 -158678.000000 0 0 1
20.818261 29.151481 0.533280 35.825873 0.950643 1.555910 0.075392 -0.013967 -452620.000000 0 0 1
20.092261 28.626381 1.759280 35.018048 0.958810 1.520536 0.073148 -0.028926 -454937.000000 0 0 1
19.570161 27.353081 1.466080 33.664991 0.949767 1.527233 0.076814 -0.020990 19780.900000 0 0 1
18.796861 26.920181 2.570080 32.933621 0.961250 1.492679 0.081115 -0.023385 -375142.000000 0 0 1
18.133261 25.590281 2.205480 31.441084 0.954322 1.500592 0.092577 -0.024495 -51110.200000 0 0 1
18.991161 24.505281 1.833280 31.056946 0.911497 1.511732 0.096297 -0.031610 625679.000000 0 0 1
19.958161 24.083681 2.825080 31.405938 0.878798 1.480721 0.088930 -0.026788 273653.000000 0 0 1
21.188561 23.379781 2.213680 31.630201 0.834524 1.500753 0.104847 -0.030984 -430675.000000 0 0 1
20.947861 22.179781 1.509180 30.545592 0.813955 1.521369 0.113884 -0.027829 515403.000000 0 0 1
22.115861 21.422181 1.137880 30.810970 0.769467 1.533857 0.091929 -0.033363 559992.000000 0 0 1
21.825661 20.438681 -0.051920 29.901536 0.752593 1.572533 0.107188 -0.029279 -69344.400000 0 0 1
21.597061 21.043981 -1.336120 30.183893 0.772428 1.615077 0.085454 -0.022460 343642.000000 0 0 1
21.922061 20.139581 -2.341720 29.860729 0.743046 1.649298 0.113093 -0.022177 -55059.600000 0 0 1
21.875861 20.796381 -3.735220 30.413724 0.760107 1.693921 0.094005 -0.017443 101880.000000 0 0 1
22.980761 21.647281 -3.990420 31.822061 0.755527 1.696525 0.091394 -0.014323 361260.000000 0 0 1
22.773861 22.301381 -5.215820 32.298686 0.774917 1.732994 0.085751 -0.012054 107662.000000 0 0 1
23.773761 23.496681 -5.338220 33.849406 0.779537 1.729162 0.080928 -0.001826 204435.000000 0 0 1
23.416161 24.613281 -4.553420 34.276286 0.810318 1.704035 0.077997 -0.002507 121749.000000 0 0 1
23.551861 24.557481 -3.125420 34.169113 0.806298 1.662394 0.088942 -0.009768 -347747.000000 0 0 1
22.287961 24.323381 -2.287320 33.069803 0.829038 1.640018 0.089589 -0.018435 -634941.000000 0 0 1
21.362961 25.416381 -2.194920 33.274407 0.871832 1.636808 0.086602 -0.006408 1801760.000000 0 0 1
20.259061 25.240481 -1.239920 32.389023 0.894447 1.609088 0.087859 -0.007718 1477180.000000 0 0 1
19.189361 24.152081 -1.608420 30.889182 0.899405 1.622891 0.105406 -0.020430 -583848.000000 0 0 1
18.382361 24.494681 -2.706520 30.744525 0.926999 1.658943 0.093431 -0.015833 -12937.000000 0 0 1
17.888261 23.289881 -3.274520 29.548789 0.915830 1.681842 0.096860 -0.022820 -21099.000000 0 0 1
17.340661 23.545681 -4.683920 29.614806 0.936012 1.729625 0.094290 -0.024162 -43019.200000 0 0 1
16.724761 22.396581 -5.254220 28.441717 0.929375 1.756600 0.101527 -0.035907 247181.000000 0 0 1
16.376061 22.761781 -6.572720 28.800602 0.947133 1.801040 0.098865 -0.032037 -237660.000000 0 0 1
15.653461 21.709881 -7.389720 27.766125 0.946096 1.840184 0.112073 -0.032349 -145341.000000 0 0 1
16.477661 20.604481 -7.751320 27.498016 0.896231 1.856556 0.114441 -0.034817 958282.000000 0 0 1
15.664661 19.593681 -8.395120 26.453203 0.896375 1.893738 0.143953 -0.041290 88301.500000 0 0 1
16.468961 18.370981 -8.722620 26.168754 0.839937 1.910621 0.132023 -0.038944 -318101.000000 0 0 1
17.513761 18.604181 -9.636920 27.307830 0.815580 1.931465 0.112433 -0.035452 149557.000000 0 0 1
18.308261 17.421581 -9.767920 27.094578 0.760587 1.939613 0.103080 -0.033424 448619.000000 0 0 1
19.676961 17.710381 -10.466620 28.467359 0.732846 1.947300 0.082781 -0.032610 199741.000000 0 0 1
19.575961 18.061781 -11.845820 29.150808 0.745189 1.989267 0.079003 -0.031884 333591.000000 0 0 1
20.844861 18.511881 -12.305720 30.473410 0.726190 1.986483 0.075695 -0.024691 347521.000000 0 0 1
20.883361 18.827681 -13.826020 31.332972 0.733678 2.027800 0.080419 -0.024999 -77966.100000 0 0 1
20.959461 17.627681 -14.586920 31.029218 0.699267 2.060203 0.074437 -0.029715 182088.000000 0 0 1
21.162161 17.997081 -15.921820 32.019312 0.704748 2.091230 0.068684 -0.026943 -17235.600000 0 0 1
21.332661 16.885381 -16.976220 32.068529 0.669553 2.128658 0.072514 -0.028325 430511.000000 0 0 1
22.586661 16.191281 -16.838920 32.494062 0.621946 2.115559 0.083094 -0.027041 598069.000000 0 0 1
22.769761 15.288581 -17.896720 32.748974 0.591302 2.148954 0.088969 -0.039711 -368383.000000 0 0 1
23.775361 15.679181 -18.978520 34.224096 0.583005 2.158603 0.098064 -0.034050 129195.000000 0 0 1
25.078061 15.955481 -18.440320 34.979021 0.566636 2.126078 0.112691 -0.027541 477081.000000 0 0 1
25.967361 16.313781 -19.430420 36.304056 0.560927 2.135557 0.130536 -0.024802 -1484700.000000 0 0 1
27.369361 16.638681 -19.027120 37.255321 0.546231 2.106821 0.096487 -0.021665 -1068980.000000 0 0 1
27.535961 17.823381 -18.292320 37.556771 0.574458 2.079514 0.087004 -0.024397 480900.000000 0 0 1
28.885061 18.100381 -17.910820 38.506727 0.559774 2.054583 0.083626 -0.035669 334033.000000 0 0 1
29.098761 19.333581 -16.948520 38.830112 0.586440 2.022478 0.087365 -0.034000 102610.000000 0 0 1
28.406861 19.193381 -15.705620 37.709443 0.594203 2.000378 0.074681 -0.032361 254077.000000 0 0 1
27.071261 19.659581 -15.761220 36.983352 0.628105 2.011052 0.068211 -0.026630 92458.400000 0 0 1
26.196761 19.115781 -14.571020 35.552749 0.630382 1.993077 0.062167 -0.027613 194524.000000 0 0 1
26.583861 19.530881 -13.258020 35.551822 0.633630 1.952951 0.058260 -0.027605 258131.000000 0 0 1
25.552561 19.189181 -12.365220 34.264511 0.644121 1.940003 0.077025 -0.032216 51406.700000 0 0 1
25.928761 19.478081 -10.889020 34.209166 0.644278 1.894739 0.073980 -0.029026 -59127.600000 0 0 1
26.054561 20.869281 -10.752920 35.071246 0.675341 1.882418 0.069387 -0.029543 194886.000000 0 0 1
26.674761 21.347081 -9.537220 35.471105 0.674907 1.843019 0.062041 -0.023247 85112.500000 0 0 1
25.893161 21.238281 -8.223820 34.484077 0.686954 1.811598 0.070503 -0.020286 -704875.000000 0 0 1
25.929661 19.918381 -7.706520 33.592851 0.655029 1.802267 0.079501 -0.022579 438585.000000 0 0 1
24.958561 19.732281 -6.676920 32.509598 0.668984 1.777651 0.088074 -0.022102 687576.000000 0 0 1
23.555961 19.262381 -7.203420 31.269984 0.685458 1.803246 0.111284 -0.026798 26131.600000 0 0 1
22.885961 20.347981 -7.740820 31.586830 0.726762 1.818383 0.096993 -0.020267 351782.000000 0 0 1
21.522761 20.029581 -8.054420 30.484209 0.749479 1.838187 0.079638 -0.022627 468433.000000 0 0 1
20.694261 21.275181 -8.392520 30.843478 0.799239 1.846371 0.091457 -0.025011 -762301.000000 0 0 1
20.989561 22.030281 -9.568420 31.897486 0.809585 1.875462 0.081750 -0.022944 382429.000000 0 0 1
20.179361 21.832981 -10.764720 31.619058 0.824738 1.918192 0.083400 -0.017560 -244019.000000 0 0 1
18.674961 22.089181 -10.681220 30.834632 0.868959 1.924531 0.084921 -0.019615 -677071.000000 0 0 1
18.410861 23.474081 -10.535020 31.638251 0.905698 1.910262 0.077088 -0.015396 382758.000000 0 0 1
17.037861 23.843981 -10.483620 31.124434 0.950368 1.914344 0.077561 -0.017464 340368.000000 0 0 1
16.758161 25.218381 -9.880020 31.849921 0.984280 1.886205 0.069443 -0.011776 -125417.000000 0 0 1
17.169261 26.353881 -10.621320 33.198238 0.993375 1.896459 0.086634 -0.002944 141910.000000 0 0 1
17.525661 27.347981 -9.678320 33.892930 1.000888 1.860383 0.090120 -0.016066 -76537.200000 0 0 1
20.206961 28.865681 32.906643 48.211989 0.960047 0.819563 0.057569 0.004539 377690.000000 0 0 1
18.868161 29.218281 33.195295 48.079549 0.997404 0.808721 0.076258 -0.017502 -515536.000000 0 0 1
18.077561 28.099781 33.378946 47.228698 0.999121 0.785901 0.076200 -0.019363 -515051.000000 0 0 1
16.593261 28.461281 33.443424 46.945110 1.042962 0.777892 0.109323 -0.030910 -356071.000000 0 0 1
15.950261 28.794281 32.228364 46.067221 1.064934 0.795967 0.109698 -0.030580 -129952.000000 0 0 1
14.611661 29.158181 32.492724 46.037780 1.106255 0.787267 0.103135 -0.041537 493713.000000 0 0 1
13.636461 29.097381 31.243777 44.819462 1.132543 0.799448 0.099059 -0.043159 482688.000000 0 0 1
13.248061 27.803981 30.767227 43.533834 1.126141 0.785913 0.090909 -0.039532 2111200.000000 0 0 1
11.784561 27.683581 30.663567 42.959409 1.168343 0.775916 0.086817 -0.028698 1965010.000000 0 0 1
11.181161 26.255481 30.597707 41.840032 1.168197 0.750567 0.058427 -0.024136 -49324.300000 0 0 1
11.271361 25.647381 29.308147 40.543793 1.156730 0.762840 0.062560 -0.016514 649893.000000 0 0 1
12.593361 25.120181 29.142797 40.483562 1.106090 0.767185 0.047422 -0.017393 493440.000000 0 0 1
12.929061 24.323081 27.867587 39.183865 1.082224 0.779592 0.079760 -0.026778 -321112.000000 0 0 1
12.824361 25.151181 26.744807 38.888698 1.099267 0.812443 0.064115 -0.025313 157352.000000 0 0 1
12.783161 24.549281 25.433387 37.589008 1.090715 0.827637 0.077479 -0.027639 -134571.000000 0 0 1
11.721661 23.481881 25.112007 36.323669 1.107806 0.807454 0.070708 -0.017922 -243358.000000 0 0 1
11.734761 23.292581 23.690927 35.235053 1.104115 0.833393 0.088563 -0.022208 64834.000000 0 0 1
10.863261 22.211981 23.431507 34.064909 1.115929 0.812275 0.090151 -0.023668 150265.000000 0 0 1
10.918461 21.890181 21.916477 32.843945 1.108122 0.840230 0.097258 -0.030155 158636.000000 0 0 1
10.461761 23.024781 21.150577 32.968710 1.144315 0.874299 0.099817 -0.026591 229283.000000 0 0 1
10.542361 22.777581 19.736777 31.929609 1.137317 0.904430 0.098105 -0.025699 -653433.000000 0 0 1
10.322361 23.991981 18.863877 32.218195 1.164494 0.945295 0.089605 -0.027206 318368.000000 0 0 1
9.002761 24.506581 18.857977 32.206296 1.218740 0.945254 0.083081 -0.029210 64681.600000 0 0 1
8.428761 25.242181 19.922977 33.243596 1.248522 0.928167 0.082154 -0.031364 -623125.000000 0 0 1
6.963261 25.562081 19.679977 33.003158 1.304843 0.931905 0.089542 -0.032839 -760302.000000 0 0 1
6.887961 26.398281 18.523877 32.976465 1.315562 0.974321 0.090925 -0.045194 -678296.000000 0 0 1
5.616961 26.871481 18.222277 32.949630 1.364733 0.984794 0.083258 -0.046485 -713539.000000 0 0 1
5.740061 28.047981 17.296177 33.448397 1.368932 1.027337 0.094381 -0.046470 85375.100000 0 0 1
6.154961 27.663881 15.999477 32.544694 1.351871 1.056852 0.094152 -0.042589 -36803.600000 0 0 1
7.025161 28.648081 15.460677 33.303122 1.330319 1.088019 0.081295 -0.040428 96877.600000 0 0 1
7.751061 28.224081 14.147477 32.508903 1.302778 1.120550 0.083205 -0.041530 -158068.000000 0 0 1
6.949461 28.253381 13.003077 31.868927 1.329615 1.150515 0.085014 -0.042621 -460647.000000 0 0 1
6.558761 27.018681 12.545177 30.502589 1.332654 1.146936 0.069620 -0.042686 -143435.000000 0 0 1
5.771361 27.145881 11.239077 29.942015 1.361310 1.186010 0.065904 -0.043218 63731.800000 0 0 1
6.589361 27.586481 10.088477 30.103338 1.336328 1.229055 0.058833 -0.032237 786432.000000 0 0 1
6.971061 28.933781 10.066877 31.418169 1.334371 1.244628 0.050770 -0.030123 -267160.000000 0 0 1
7.269161 29.279081 8.621977 31.375847 1.327445 1.292418 0.041359 -0.018143 -1248850.000000 0 0 1
6.207161 29.353081 7.758377 30.989105 1.362401 1.317746 0.044216 -0.029582 -906111.000000 0 0 1
5.872261 28.088881 7.217077 29.589776 1.364705 1.324407 0.035546 -0.016075 217699.000000 0 0 1
4.355561 27.838481 6.994077 29.032207 1.415596 1.327496 0.042163 -0.024472 386315.000000 0 0 1
3.742961 28.749581 6.074377 29.621718 1.441333 1.364266 0.046444 -0.018572 370875.000000 0 0 1
2.318761 28.660381 6.072877 29.388329 1.490067 1.362654 0.058011 -0.024557 504404.000000 0 0 1
1.792061 29.788281 5.205777 30.292792 1.510709 1.398090 0.075289 -0.021867 -411751.000000 0 0 1
2.247961 29.674981 3.850977 30.008129 1.495188 1.442110 0.063597 -0.031542 351700.000000 0 0 1
1.626961 30.633781 2.993177 30.822632 1.517736 1.473533 0.052239 -0.039820 -113672.000000 0 0 1
0.232661 30.234081 2.510377 30.339014 1.563101 1.487957 0.096632 -0.034200 -663110.000000 0 0 1
0.248261 29.421781 1.388277 29.455562 1.562359 1.523648 0.093773 -0.035699 205331.000000 0 0 1
-0.844639 28.492481 1.385377 28.538643 -1.541161 1.522233 0.094316 -0.028624 490064.000000 0 0 1
-1.240139 28.087181 -0.046023 28.114583 -1.526672 1.572433 0.099464 -0.039895 141670.000000 0 0 1
-2.059339 29.102081 -0.626623 29.181580 -1.500151 1.592271 0.113280 -0.046077 -252509.000000 0 0 1
-1.689839 29.471081 -1.949423 29.583786 -1.513520 1.636739 0.098324 -0.041703 -208723.000000 0 0 1
-2.716939 30.468581 -2.575823 30.697737 -1.481860 1.654804 0.114471 -0.038987 480080.000000 0 0 1
-4.015439 30.014581 -2.891423 30.419716 -1.437803 1.665991 0.086170 -0.041018 143985.000000 0 0 1
-3.945039 29.174181 -4.032523 29.714599 -1.436388 1.706925 0.070753 -0.037979 -896491.000000 0 0 1
-5.340039 28.737981 -4.484323 29.571890 -1.387074 1.723025 0.068152 -0.031438 -311876.000000 0 0 1
-5.946739 29.710781 -5.301523 30.760370 -1.373252 1.744010 0.061747 -0.027357 -218013.000000 0 0 1
-7.052839 29.211281 -6.017923 30.647298 -1.333888 1.768441 0.058250 -0.027424 -178726.000000 0 0 1
-7.629139 30.352781 -6.911023 32.050855 -1.324548 1.788130 0.064501 -0.023401 -387087.000000 0 0 1
-8.393239 31.202681 -6.117823 32.885886 -1.308025 1.757918 0.051511 -0.022395 -343943.000000 0 0 1
-8.749139 32.378881 -6.861723 34.234816 -1.306888 1.772594 0.055854 -0.027966 -105810.000000 0 0 1
-9.672439 33.352281 -6.134223 35.264138 -1.288531 1.745637 0.048512 -0.029672 954611.000000 0 0 1
-11.076839 33.070981 -6.181523 35.420296 -1.247599 1.746214 0.065297 -0.029506 432029.000000 0 0 1
-11.934439 -34.016370 -5.767723 36.507683 1.233370 1.729448 0.060847 -0.026583 142683.000000 0 0 1
-13.424539 33.721281 -5.821623 36.759139 -1.191926 1.729838 0.083712 -0.027470 91830.200000 0 0 1
-13.847439 33.404581 -7.156723 36.862396 -1.177821 1.766184 0.086394 -0.029897 92627.600000 0 0 1
-15.258439 33.473881 -7.228023 37.490865 -1.143104 1.764805 0.084427 -0.029929 -280984.000000 0 0 1
-15.867839 33.167681 -8.619223 37.764724 -1.124567 1.801061 0.100878 -0.032213 -214821.000000 0 0 1
-17.250139 33.069181 -8.775323 38.316371 -1.089989 1.801870 0.116744 -0.027352 -119241.000000 0 0 1
-17.988239 -33.818970 -8.736623 39.289032 1.081957 1.795039 0.116403 -0.026952 214500.000000 0 0 1
-19.526839 -34.034070 -8.977823 40.251915 1.049907 1.795729 0.102858 -0.021105 748608.000000 0 0 1
-20.293839 33.296981 -8.115723 39.829559 -1.023435 1.775995 0.092146 -0.022914 -16574.700000 0 0 1
-20.288439 33.734581 -6.740423 39.938403 -1.029338 1.740378 0.091442 -0.030649 -720450.000000 0 0 1
-20.985239 32.888581 -5.674823 39.423884 -1.002853 1.715242 0.083808 -0.024979 -906122.000000 0 0 1
-20.621139 33.220081 -4.345923 39.340719 -1.015264 1.681491 0.079234 -0.032098 469327.000000 0 0 1
-21.669839 33.299181 -3.357323 39.870904 -0.993886 1.655101 0.076659 -0.027249 313174.000000 0 0 1
-22.647339 -33.641870 -3.515923 40.706745 0.978292 1.657276 0.104249 -0.033602 -197600.000000 0 0 1
-23.322939 -33.723070 -4.762423 41.278149 0.965729 1.686428 0.106199 -0.039040 -49430.500000 0 0 1
-24.273239 -32.633870 -4.823123 40.956344 0.931272 1.688833 0.117462 -0.045964 451575.000000 0 0 1
-24.839139 -32.498970 -6.279423 41.383536 0.918202 1.723122 0.128182 -0.026434 -73999.900000 0 0 1
-23.893139 -31.956770 -7.175723 40.541439 0.928788 1.748731 0.129184 -0.013850 -45524.100000 0 0 1
-23.855439 -32.422570 -8.524323 41.145706 0.936467 1.779482 0.104760 -0.011125 -77556.600000 0 0 1
-25.027239 -31.913670 -9.385323 41.628468 0.905754 1.798206 0.098687 -0.010474 414730.000000 0 0 1
-26.295519 -32.572470 -9.129923 42.845952 0.891624 1.785530 0.086478 -0.001811 1297010.000000 0 0 1
-27.470209 -31.991370 -9.682623 43.264458 0.861287 1.796509 0.054092 0.001594 598387.000000 0 0 1
-27.768239 -30.487370 -9.350823 42.284663 0.832040 1.793779 0.050534 0.013921 -950330.000000 0 0 1
-27.046269 -29.529770 -10.119223 41.302623 0.829267 1.818318 0.042555 0.017198 125199.000000 0 0 1
-27.626579 -29.227370 -11.402823 41.803007 0.813547 1.847073 0.023283 0.011351 264451.000000 0 0 1
-26.634549 -28.400070 -12.280023 40.825998 0.817467 1.876316 0.047992 0.013849 627058.000000 0 0 1
-25.409099 -29.082670 -12.512123 40.595286 0.852711 1.884114 0.052392 -0.000251 219052.000000 0 0 1
-24.563939 -28.443770 -13.444123 39.914654 0.858462 1.914336 0.059476 -0.001233 -578658.000000 0 0 1
-23.268839 -29.148070 -13.783223 39.762119 0.897094 1.924785 0.089956 -0.017014 -895706.000000 0 0 1
-23.267939 -30.420070 -14.417623 40.922433 0.917835 1.930841 0.095230 -0.017763 -22483.800000 0 0 1
-23.938539 -31.492570 -13.737423 41.875439 0.920842 1.905040 0.082195 -0.019655 -180.624000 0 0 1
-23.548939 -32.830870 -14.381423 42.886407 0.948567 1.912760 0.080692 -0.013315 19036.500000 0 0 1
-23.789239 -33.934370 -13.552923 43.602191 0.959375 1.886864 0.066472 -0.019429 -21339.100000 0 0 1
-23.966539 32.951781 -14.218323 43.155250 -0.941968 1.906538 0.059581 -0.021159 -281775.000000 0 0 1
-24.468039 31.819681 -13.277623 42.278509 -0.915271 1.890254 0.039828 -0.016572 -180251.000000 0 0 1
-23.615239 31.416381 -12.226823 41.160220 -0.926217 1.872403 0.033936 -0.011853 135205.000000 0 0 1
-23.483439 32.341081 -11.142523 41.491845 -0.942756 1.842681 0.070533 -0.013724 90657.900000 0 0 1
-22.662739 31.747981 -9.978623 40.262972 -0.950847 1.821242 0.067018 -0.014625 -269570.000000 0 0 1
-23.474039 30.904381 -9.222423 39.889401 -0.921199 1.804107 0.062422 -0.013052 -179464.000000 0 0 1
-22.938039 30.393381 -8.027223 38.914619 -0.924291 1.778566 0.066516 -0.011427 -410121.000000 0 0 1
-23.842239 29.377381 -7.300623 38.532869 -0.889031 1.761413 0.055044 -0.015125 -230390.000000 0 0 1
-23.979739 28.167481 -8.024023 37.852606 -0.865532 1.784398 0.055058 -0.001170 294181.000000 0 0 1
-24.496239 27.000981 -7.352623 37.191125 -0.833998 1.769806 0.036946 -0.005707 569680.000000 0 0 1
-23.475639 26.538781 -6.236923 35.976544 -0.846567 1.745037 0.030437 -0.000625 479749.000000 0 0 1
-23.399639 27.287481 -5.057723 36.300555 -0.861951 1.710580 0.033783 0.002657 -439165.000000 0 0 1
-22.448839 26.673181 -4.261823 35.122245 -0.871184 1.692439 0.026843 0.006081 514966.000000 0 0 1
-21.038439 27.376481 -4.120623 34.771643 -0.915569 1.689581 0.033696 -0.000222 1483770.000000 0 0 1
-20.205839 27.244381 -5.300823 34.331195 -0.932660 1.725819 0.049744 -0.003866 -777363.000000 0 0 1
-19.093139 28.012181 -5.370223 34.323017 -0.972525 1.727903 0.063720 -0.006531 -1322980.000000 0 0 1
-18.277039 27.870881 -6.657423 33.987607 -0.990372 1.767949 0.077976 -0.008643 -593574.000000 0 0 1
-18.727739 28.250481 -7.954523 34.815116 -0.985394 1.801311 0.087517 -0.010643 -203655.000000 0 0 1
-18.913939 29.691281 -8.009523 36.103486 -1.003600 1.794507 0.105045 -0.011301 -44010.800000 0 0 1
-18.749139 30.322581 -9.445123 36.880882 -1.017013 1.829780 0.087149 -0.011740 378312.000000 0 0 1
-17.439739 30.220381 -10.004623 36.297498 -1.047396 1.850040 0.096858 -0.017192 392785.000000 0 0 1
-17.388539 30.882181 -11.279323 37.192654 -1.057981 1.878916 0.094769 -0.021027 735919.000000 0 0 1
-15.951939 31.145181 -11.895923 36.959432 -1.097452 1.898494 0.105294 -0.025878 947242.000000 0 0 1
-15.841939 31.884481 -13.074823 37.928065 -1.109669 1.922744 0.108076 -0.027348 -247006.000000 0 0 1
-16.184339 31.093781 -14.219923 37.828062 -1.090883 1.956174 0.103242 -0.033564 55988.400000 0 0 1
-15.687239 31.773881 -15.513723 38.682613 -1.112189 1.983461 0.147378 -0.038399 -35454.700000 0 0 1
-14.295639 31.877981 -15.643423 38.279076 -1.149233 1.991790 0.134990 -0.046889 -576661.000000 0 0 1
-13.972139 32.096481 -17.017323 38.922924 -1.160220 2.023286 0.098338 -0.052468 736883.000000 0 0 1
-12.409639 32.176781 -17.204223 38.539975 -1.202704 2.033534 0.125789 -0.057767 462471.000000 0 0 1
-11.782239 30.915781 -16.928623 37.164297 -1.206682 2.043739 0.131251 -0.069453 39177.500000 0 0 1
-10.420139 30.798781 -17.282023 36.821360 -1.244556 2.059348 0.131649 -0.065581 305242.000000 0 0 1
-10.107539 30.864581 -18.811023 37.531844 -1.254323 2.095783 0.133330 -0.070634 -304787.000000 0 0 1
-10.836839 29.854081 -19.529223 37.283961 -1.222593 2.122098 0.117719 -0.073617 563801.000000 0 0 1
-10.337139 29.739881 -20.849523 37.762674 -1.236274 2.155701 0.110572 -0.073244 -348164.000000 0 0 1
-11.476139 29.221381 -21.792323 38.216439 -1.196572 2.177587 0.105448 -0.059997 426124.000000 0 0 1
-12.292639 30.324881 -22.120123 39.496927 -1.185674 2.165238 0.112005 -0.057851 -498409.000000 0 0 1
-13.483439 30.380781 -21.392323 39.527541 -1.153098 2.142660 0.103321 -0.052572 -593521.000000 0 0 1
-14.381039 31.613181 -21.740123 40.973655 -1.143870 2.130090 0.121240 -0.049083 254275.000000 0 0 1
-15.201239 31.486581 -22.879423 41.784572 -1.121016 2.150238 0.102085 -0.042831 186135.000000 0 0 1
-15.958639 32.689281 -23.107823 43.095693 -1.116640 2.136723 0.094904 -0.041022 497471.000000 0 0 1
-16.736439 32.612081 -24.431223 44.051571 -1.096647 2.158685 0.083087 -0.030645 40192.700000 0 0 1
-15.814039 32.647681 -25.507823 44.346408 -1.119719 2.183639 0.087823 -0.033445 4165.960000 0 0 1
-16.337839 32.806781 -26.825123 45.418026 -1.108748 2.202632 0.097640 -0.025466 -4325.270000 0 0 1
-16.765239 -33.881470 -27.239823 46.594369 1.111301 2.195203 0.084954 -0.014439 159456.000000 0 0 1
-18.028639 -33.541870 -26.696323 46.505726 1.077603 2.182232 0.069742 -0.005340 -43234.400000 0 0 1
-18.551539 -32.369970 -27.332323 46.249653 1.050384 2.203062 0.046846 0.001943 676682.000000 0 0 1
-20.014239 -31.976470 -26.916223 46.341639 1.011546 2.190534 0.042082 -0.007120 813624.000000 0 0 1
-20.844839 -33.096870 -27.162523 47.620508 1.008743 2.177784 0.048542 -0.006817 -175095.000000 0 0 1
-22.213539 -32.716570 -27.278523 48.040952 0.974325 2.174649 0.041794 -0.003003 758984.000000 0 0 1
-23.216739 -33.897070 -27.328923 49.344689 0.970264 2.157762 0.011832 0.007257 -22001.200000 0 0 1
-23.223639 33.562581 -26.104923 48.448439 -0.965493 2.139830 0.042783 -0.004332 -463816.000000 0 0 1
-24.217739 32.573381 -26.052523 48.231297 -0.931479 2.141421 0.017018 -0.000029 -152020.000000 0 0 1
-24.048439 31.188481 -26.728623 47.596933 -0.913947 2.167069 0.028684 -0.009417 -544726.000000 0 0 1
-23.072039 30.444481 -26.061423 46.242655 -0.922297 2.169509 0.030791 -0.025580 -493350.000000 0 0 1
-23.587639 29.465581 -25.178823 45.371470 -0.895741 2.159097 0.028888 -0.018862 -123022.000000 0 0 1
31.749409 9.844381 -26.415620 42.458471 0.300665 2.242285 0.042978 -0.013843 -35048.200000 0 0 1
31.310389 8.579281 -25.985140 41.583314 0.267443 2.245791 0.025008 -0.004751 1751850.000000 0 0 1
29.863079 8.597281 -25.743200 40.353798 0.280310 2.262613 0.029012 -0.011493 1823080.000000 0 0 1
29.247629 7.264581 -25.199400 39.283682 0.243455 2.267212 0.009883 0.007128 -56150.300000 0 0 1
29.559569 6.904281 -23.891120 38.629300 0.229458 2.237592 0.005590 -0.003749 28081.800000 0 0 1
29.053799 5.631681 -23.552620 37.822810 0.191462 2.242997 0.003832 -0.001504 -144866.000000 0 0 1
29.118829 5.269581 -22.022320 36.887088 0.179031 2.210577 0.013011 -0.003774 331353.000000 0 0 1
30.426029 5.102081 -21.475320 37.589411 0.166142 2.178901 0.030940 -0.004384 577510.000000 0 0 1
30.305209 4.645381 -20.158720 36.692768 0.152103 2.152433 0.044698 -0.013482 1552940.000000 0 0 1
31.731469 4.337181 -19.475720 37.483342 0.135842 2.117160 0.053299 -0.015499 1588750.000000 0 0 1
32.338709 3.073781 -19.657320 37.969072 0.094765 2.114979 0.063920 -0.014397 394498.000000 0 0 1
33.384959 2.786081 -18.749420 38.390864 0.083260 2.081031 0.082601 -0.020956 55631.700000 0 0 1
33.921489 1.355081 -18.774920 38.794346 0.039926 2.075971 0.096047 -0.021718 -48479.200000 0 0 1
32.930069 0.407281 -18.416020 37.732017 0.012367 2.080678 0.100810 -0.026414 52343.600000 0 0 1
33.382839 -0.884419 -18.202220 38.033103 -0.026487 2.069843 0.110229 -0.023376 -110748.000000 0 0 1
32.146929 -1.821319 -18.077220 36.925981 -0.056596 2.082373 0.090526 -0.018721 421761.000000 0 0 1
31.860109 -1.945619 -16.695620 36.022155 -0.060992 2.052717 0.109116 -0.027451 -206499.000000 0 0 1
30.530199 -1.570119 -16.467620 34.723779 -0.051383 2.064904 0.100837 -0.031000 -657905.000000 0 0 1
30.158259 -1.865819 -15.027120 33.746351 -0.061789 2.032301 0.110849 -0.029092 -409766.000000 0 0 1
29.934079 -3.257519 -14.732220 33.521617 -0.108397 2.025821 0.083700 -0.026783 329485.000000 0 0 1
29.113729 -3.421719 -13.603920 32.316931 -0.116993 2.005292 0.075835 -0.022959 -365941.000000 0 0 1
29.095279 -4.914019 -13.161220 32.309450 -0.167315 1.990346 0.076872 -0.024221 -563699.000000 0 0 1
28.506339 -5.691619 -14.100120 32.308192 -0.197070 2.022418 0.059344 -0.024906 25824.700000 0 0 1
28.394239 -7.056319 -13.703720 32.308147 -0.243578 2.008827 0.059923 -0.023625 -293682.000000 0 0 1
27.760539 -7.977019 -14.784720 32.447932 -0.279812 2.043892 0.038562 -0.017622 21100.600000 0 0 1
26.362639 -7.865719 -14.947920 31.309720 -0.289957 2.068514 0.044805 -0.015310 126616.000000 0 0 1
25.943039 -8.545319 -16.134620 31.723646 -0.318195 2.104353 0.038258 -0.018122 -777829.000000 0 0 1
24.561339 -8.228919 -16.648720 30.792115 -0.323282 2.142043 0.043464 -0.020258 -1155410.000000 0 0 1
24.319639 -6.928419 -17.054720 30.501005 -0.277537 2.164160 0.034375 -0.016588 337828.000000 0 0 1
22.984839 -6.733719 -17.512720 29.670543 -0.284989 2.202152 0.055795 -0.019064 433571.000000 0 0 1
22.625039 -7.213819 -18.943420 30.377372 -0.308652 2.244140 0.045153 -0.011256 -180888.000000 0 0 1
23.481739 -6.618419 -19.913420 31.491901 -0.274727 2.255359 0.030512 -0.011052 632081.000000 0 0 1
23.239739 -7.139319 -21.261520 32.297176 -0.298052 2.289366 0.057082 -0.017871 -4490.770000 0 0 1
23.902939 -6.188219 -22.280320 33.257438 -0.253328 2.304917 0.052312 -0.022718 -106866.000000 0 0 1
23.715839 -6.628019 -23.588820 34.099913 -0.272523 2.334714 0.072877 -0.031600 269110.000000 0 0 1
23.927439 -5.607619 -24.528420 34.721911 -0.230205 2.355231 0.054290 -0.024970 -459727.000000 0 0 1
24.005839 -6.021419 -26.010770 35.904010 -0.245761 2.381037 0.080163 -0.029769 -825070.000000 0 0 1
22.797639 -6.376319 -26.589120 35.600156 -0.272723 2.414157 0.084741 -0.026753 -581896.000000 0 0 1
22.840939 -6.319219 -28.008620 36.689560 -0.269911 2.439349 0.078351 -0.028290 545940.000000 0 0 1
21.573839 -7.018019 -28.599400 36.504915 -0.314505 2.470978 0.076090 -0.029090 653472.000000 0 0 1
21.598639 -8.406319 -28.321410 36.596033 -0.371167 2.455761 0.077445 -0.025301 1397420.000000 0 0 1
20.275839 -8.937919 -28.606870 36.184929 -0.415191 2.482542 0.080348 -0.035322 1103580.000000 0 0 1
20.194339 -10.443919 -28.288860 36.292511 -0.477290 2.464613 0.095512 -0.026969 -440640.000000 0 0 1
18.906339 -10.717119 -27.795540 35.283117 -0.515690 2.478002 0.101801 -0.022307 145395.000000 0 0 1
18.772439 -11.924619 -27.085960 35.046401 -0.565914 2.454132 0.107198 -0.031500 -288767.000000 0 0 1
18.824939 -13.173219 -27.934640 36.169824 -0.610575 2.453280 0.093115 -0.021532 -859655.000000 0 0 1
17.735939 -13.422519 -28.754320 36.352971 -0.647838 2.483199 0.088772 -0.020555 -404147.000000 0 0 1
18.007239 -14.514419 -29.616200 37.577231 -0.678408 2.478581 0.068438 -0.020181 -323431.000000 0 0 1
16.940439 -14.956519 -30.657040 38.085825 -0.723280 2.506381 0.047496 -0.021925 198350.000000 0 0 1
15.768739 -15.415519 -30.001010 37.233748 -0.774072 2.507733 0.040717 -0.023633 703193.000000 0 0 1
14.711839 -15.841319 -30.866680 37.684712 -0.822349 2.530597 0.037496 -0.030025 177904.000000 0 0 1
13.498539 -16.400719 -30.118280 36.855189 -0.882160 2.527343 0.047258 -0.038732 -526968.000000 0 0 1
13.672439 -17.627619 -29.546040 37.022115 -0.911095 2.494873 0.044073 -0.038466 212894.000000 0 0 1
12.591239 -18.151719 -28.772240 36.274867 -0.964334 2.486798 0.049324 -0.033637 -36272.400000 0 0 1
12.933739 -19.449419 -28.044370 36.497236 -0.983953 2.447129 0.055291 -0.028519 122010.000000 0 0 1
13.920239 -19.279419 -27.027770 35.999575 -0.945440 2.420039 0.063956 -0.024080 219306.000000 0 0 1
14.000939 -20.421719 -26.173750 36.029684 -0.969807 2.383938 0.066058 -0.018011 -276753.000000 0 0 1
15.000839 -20.402819 -25.004850 35.588520 -0.936813 2.349855 0.061146 -0.008804 -955772.000000 0 0 1
16.304639 -20.545219 -25.447140 36.544551 -0.899971 2.341070 0.075387 -0.015249 -1002140.000000 0 0 1
17.189639 -20.439319 -24.373220 36.156650 -0.871546 2.310543 0.072027 -0.015366 55582.600000 0 0 1
18.687939 -20.746419 -24.726220 37.296634 -0.837551 2.295564 0.071875 -0.014281 486511.000000 0 0 1
19.109739 -22.077619 -24.938220 38.399456 -0.857332 2.277647 0.078488 -0.015318 361153.000000 0 0 1
18.901539 -22.950819 -23.846420 38.113777 -0.881850 2.246779 0.077975 -0.023345 -625240.000000 0 0 1
19.446839 -24.394819 -23.994620 39.357700 -0.897783 2.226422 0.067136 -0.023212 1138530.000000 0 0 1
20.894939 -24.568319 -23.996720 40.200042 -0.866022 2.210469 0.075903 -0.023726 1562510.000000 0 0 1
21.326239 -25.853099 -23.637520 41.011261 -0.881055 2.185072 0.081077 -0.037997 -73641.000000 0 0 1
21.292639 -26.043219 -22.089620 40.243969 -0.885422 2.151835 0.093151 -0.032714 -353087.000000 0 0 1
19.964039 -26.094989 -21.609520 39.325344 -0.917731 2.152569 0.075982 -0.025645 12136.200000 0 0 1
19.853639 -26.139579 -20.200220 38.542100 -0.921228 2.122464 0.074661 -0.022158 -635363.000000 0 0 1
18.613739 -26.746449 -19.582420 38.017299 -0.962805 2.111912 0.064438 -0.019780 -982547.000000 0 0 1
18.497939 -28.153709 -19.834320 39.092267 -0.989492 2.102929 0.064496 -0.016156 -107347.000000 0 0 1
17.583639 -28.856089 -19.016520 38.774815 -1.023526 2.083385 0.059523 -0.011068 406235.000000 0 0 1
16.090539 -28.668259 -19.405920 38.175441 -1.059344 2.104047 0.059036 -0.018409 -136463.000000 0 0 1
15.461639 -27.545069 -18.767420 36.742471 -1.059303 2.106891 0.072094 -0.018449 -254372.000000 0 0 1
14.213639 -27.341919 -19.382220 36.404375 -1.091397 2.132247 0.060842 -0.010572 135451.000000 0 0 1
13.194139 -26.379559 -18.727520 34.938324 -1.107017 2.136508 0.046763 -0.017473 -261426.000000 0 0 1
12.588239 -26.873869 -17.538320 34.471166 -1.132731 2.104566 0.039573 -0.012612 65923.000000 0 0 1
11.480539 -26.150389 -17.035320 33.254289 -1.157111 2.108627 0.046821 -0.018283 93379.900000 0 0 1
10.144339 -26.502449 -17.707020 33.448856 -1.205231 2.128661 0.048260 -0.019100 -906854.000000 0 0 1
9.495839 -27.650689 -17.204820 33.922521 -1.239994 2.102706 0.048782 -0.002640 -386925.000000 0 0 1
8.115239 -27.481769 -17.072720 33.355397 -1.283661 2.108125 0.042817 0.008065 -196660.000000 0 0 1
7.197139 -27.989219 -18.181520 34.143270 -1.319109 2.132356 0.046153 0.000029 -285162.000000 0 0 1
7.361339 -27.359379 -19.426920 34.353023 -1.307960 2.171846 0.062255 -0.010098 -284669.000000 0 0 1
6.581839 -27.963709 -20.394320 35.230923 -1.339633 2.188145 0.063269 -0.009947 -389515.000000 0 0 1
6.699839 -27.207719 -21.739820 35.465020 -1.329352 2.230640 0.057390 -0.012670 -358747.000000 0 0 1
5.998039 -26.016589 -21.596820 34.340385 -1.344209 2.250940 0.058934 -0.015879 -35218.900000 0 0 1
5.855039 -25.234249 -22.796120 34.506694 -1.342803 2.292453 0.050560 -0.015798 776672.000000 0 0 1
4.384639 -24.686019 -23.021020 34.038096 -1.395013 2.313567 0.040110 -0.006067 706405.000000 0 0 1
3.572839 -25.732469 -23.469020 35.010285 -1.432833 2.305472 0.035341 -0.002980 -561988.000000 0 0 1
2.292739 -25.229779 -23.789920 34.752823 -1.480171 2.324778 0.037290 -0.008693 205155.000000 0 0 1
1.348939 -26.265119 -24.438720 35.901632 -1.519483 2.319532 0.024375 -0.010984 -216476.000000 0 0 1
1.942239 -26.946879 -25.503840 37.153095 -1.498844 2.327396 0.022048 -0.010403 -693389.000000 0 0 1
1.040739 -27.557279 -26.343420 38.137417 -1.533048 2.333322 0.031655 -0.021652 -686736.000000 0 0 1
1.626339 -28.576729 -27.346510 39.586690 -1.513946 2.333392 0.029360 -0.017129 -966774.000000 0 0 1
2.230439 -27.856479 -28.376100 39.826641 -1.490898 2.363837 0.029997 -0.024776 -226561.000000 0 0 1
2.709139 -28.660829 -29.404010 41.150679 -1.476552 2.366770 0.044195 -0.023366 -289918.000000 0 0 1
4.156539 -29.144239 -29.182910 41.452452 -1.429132 2.351823 0.035492 -0.025899 -567536.000000 0 0 1
4.408839 -30.036199 -28.095060 41.363553 -1.425053 2.317499 0.029382 -0.034856 -214592.000000 0 0 1
5.495239 -30.864069 -28.470930 42.348345 -1.394596 2.308112 0.043800 -0.030394 173074.000000 0 0 1
5.857339 -32.027089 -27.522840 42.632729 -1.389908 2.272579 0.067904 -0.042568 114760.000000 0 0 1
4.802439 -32.983449 -27.459110 43.185346 -1.426211 2.259897 0.053905 -0.048310 111399.000000 0 0 1
5.150839 33.929855 -26.768350 43.523681 1.420138 2.233220 0.062432 -0.055960 -81154.700000 0 0 1
3.917639 33.046599 -26.481310 42.528642 1.452798 2.242947 0.087927 -0.060674 -141302.000000 0 0 1
3.355139 32.497036 -27.649790 42.799827 1.467916 2.273163 0.081954 -0.060563 909336.000000 0 0 1
1.995839 32.131257 -27.358860 42.248175 1.508761 2.275194 0.062757 -0.055768 1255810.000000 0 0 1
0.933039 32.066014 -28.530500 42.931216 1.541707 2.297705 0.071616 -0.039974 349355.000000 0 0 1
0.865539 30.866491 -29.338930 42.594158 1.542762 2.330631 0.091237 -0.046278 328482.000000 0 0 1
-0.248061 31.037351 -30.222480 43.321785 -1.562804 2.342877 0.095109 -0.043789 463570.000000 0 0 1
-0.387961 30.013931 -31.354530 43.406142 -1.557871 2.377994 0.087977 -0.041136 300415.000000 0 0 1
0.743639 30.061631 -32.250720 44.094939 1.546064 2.391158 0.091851 -0.042490 592801.000000 0 0 1
0.616439 29.133201 -33.290380 44.242206 1.549640 2.422582 0.109995 -0.045392 -138950.000000 0 0 1
1.967539 28.842451 -33.977170 44.611728 1.502685 2.436605 0.092632 -0.035265 156042.000000 0 0 1
2.398639 29.919801 33.176614 44.739643 1.490798 0.735421 0.087243 -0.032303 -104074.000000 0 0 1
3.572939 29.662461 32.441970 44.103389 1.450921 0.744261 0.057405 -0.023188 -499646.000000 0 0 1
3.355139 28.850801 31.175207 42.608910 1.455024 0.750043 0.055182 -0.012716 -348530.000000 0 0 1
2.913639 27.489461 31.231627 41.708204 1.465199 0.724528 0.075670 -0.021817 -196568.000000 0 0 1
3.886839 26.538111 31.558267 41.416217 1.425368 0.704434 0.059097 -0.013007 -647743.000000 0 0 1
3.341539 25.190421 31.909567 40.791465 1.438915 0.672509 0.076878 -0.023209 -643663.000000 0 0 1
2.664639 24.590321 30.874467 39.560294 1.462856 0.675426 0.082903 -0.009480 -239758.000000 0 0 1
2.852539 23.179621 30.943277 38.767489 1.448350 0.646535 0.070237 -0.004094 -172900.000000 0 0 1
1.921139 22.291731 30.076647 37.486221 1.484827 0.639593 0.063081 0.008782 219999.000000 0 0 1
0.601639 22.232231 30.608897 37.835679 1.543741 0.628355 0.065726 -0.004462 320331.000000 0 0 1
-0.231361 21.663031 29.577577 36.662972 -1.560117 0.632178 0.061802 0.002041 387622.000000 0 0 1
-1.657061 21.244131 29.975917 36.777908 -1.492953 0.617977 0.051480 0.002345 -234034.000000 0 0 1
-2.566561 22.258731 30.232147 37.630055 -1.455997 0.637806 0.059849 -0.001534 509997.000000 0 0 1
-3.904461 21.765131 30.385587 37.579910 -1.393294 0.629097 0.044545 -0.007465 924993.000000 0 0 1
-4.926461 22.925531 30.593767 38.546447 -1.359126 0.653952 0.030185 -0.015024 729.715000 0 0 1
-4.867861 23.296501 31.951767 39.841416 -1.364808 0.640204 0.042506 -0.019440 428715.000000 0 0 1
-5.848561 24.293091 32.239849 40.789310 -1.334542 0.659336 0.028537 -0.025642 271477.000000 0 0 1
-5.650861 24.888621 33.634664 42.221633 -1.347535 0.649111 0.067302 -0.026155 75995.100000 0 0 1
-6.755761 25.697571 33.989985 43.143071 -1.313719 0.663497 0.065425 -0.017194 63227.600000 0 0 1
-6.712761 26.046781 -32.652380 42.304538 -1.318566 2.452528 0.069143 -0.018043 388516.000000 0 0 1
-8.081861 26.492581 -32.048170 42.358689 -1.274703 2.428879 0.079323 -0.012300 218574.000000 0 0 1
-8.593261 27.711981 -32.599320 43.640735 -1.270107 2.414324 0.084707 -0.020675 -176702.000000 0 0 1
-9.893361 28.058771 -32.191380 43.834441 -1.231812 2.395557 0.081977 -0.024013 72067.800000 0 0 1
-10.105461 28.514291 -30.716840 43.112752 -1.230207 2.363818 0.072914 -0.018733 -386419.000000 0 0 1
-9.606961 29.811221 -30.459850 43.689874 -1.259045 2.342257 0.079069 -0.014313 102697.000000 0 0 1
-9.518361 30.094741 -29.099310 42.930904 -1.264472 2.315586 0.089050 -0.017569 -731309.000000 0 0 1
-8.911061 31.419341 -28.705870 43.481134 -1.294437 2.291870 0.082581 -0.017401 756720.000000 0 0 1
-7.494461 31.364761 -28.966650 43.347226 -1.336249 2.302646 0.071216 -0.020123 690461.000000 0 0 1
-6.869461 32.584865 -28.617480 43.908121 -1.363021 2.280697 0.081928 -0.015922 248672.000000 0 0 1
-5.310261 32.579435 -28.705350 43.744892 -1.409223 2.286567 0.080002 -0.020660 254575.000000 0 0 1
-4.828761 33.868140 -28.489570 44.519922 -1.429175 2.265202 0.092965 -0.020781 -115614.000000 0 0 1
-4.636061 -33.365959 -29.580910 44.830911 1.432734 2.291393 0.094735 -0.023248 456411.000000 0 0 1
-3.530761 -33.690969 -30.684120 45.706268 1.466379 2.306802 0.089658 -0.040835 482959.000000 0 0 1
-3.816361 33.445927 -31.653530 46.207582 -1.457182 2.325440 0.081636 -0.025867 129253.000000 0 0 1
-4.640361 33.842334 -32.765000 47.332671 -1.434529 2.335368 0.094382 -0.027746 110623.000000 0 0 1
-3.977161 -33.249099 -33.719980 47.522179 1.451745 2.359674 0.066844 -0.038536 -71563.700000 0 0 1
-3.992761 -31.973999 -33.151960 46.231280 1.446564 2.370414 0.062121 -0.034653 223385.000000 0 0 1
-3.142961 -31.060959 -33.864490 46.059365 1.469953 2.396811 0.052840 -0.041247 278166.000000 0 0 1
32.879189 18.471681 12.270577 39.658682 0.511861 1.256230 0.131379 -0.031705 468218.000000 0 0 1
34.154799 18.248581 12.862177 40.804369 0.490702 1.250112 0.123633 -0.039819 272380.000000 0 0 1
34.278579 16.907981 13.273577 40.460951 0.458235 1.236548 0.125860 -0.028065 -807337.000000 0 0 1
35.556409 16.586081 14.006177 41.659684 0.436468 1.227912 0.124544 -0.046408 567415.000000 0 0 1
36.779419 16.045181 13.433177 42.315762 0.411364 1.247756 0.111914 -0.012213 1180590.000000 0 0 1
36.630459 14.724281 12.841077 41.514915 0.382202 1.256326 0.148015 -0.032218 -1282330.000000 0 0 1
-35.900395 13.953681 12.402577 40.464398 -0.370708 1.259276 0.146394 -0.023406 -703216.000000 0 0 1
-35.178671 13.397981 13.446077 39.973013 -0.363894 1.227727 0.124576 -0.023469 -165627.000000 0 0 1
-35.693525 12.102981 13.785477 40.131649 -0.326914 1.220148 0.128103 -0.022059 100699.000000 0 0 1
-34.874948 11.395381 14.903877 39.601038 -0.315814 1.184942 0.129754 -0.033846 133688.000000 0 0 1
-35.155507 11.930981 16.150177 40.485629 -0.327180 1.160467 0.133741 -0.029515 226336.000000 0 0 1
-34.388038 11.335381 17.171977 40.073742 -0.318415 1.127954 0.127493 -0.034002 -50766.700000 0 0 1
-34.442956 12.364681 18.365277 40.944913 -0.344661 1.105669 0.122628 -0.033345 760286.000000 0 0 1
-35.722039 12.472581 19.018377 42.347704 -0.335923 1.105038 0.132332 -0.037818 854068.000000 0 0 1
-35.544740 13.202081 20.213077 42.968499 -0.355630 1.081034 0.131446 -0.036755 -511900.000000 0 0 1
36.876429 13.297381 20.908577 44.428143 0.346080 1.080808 0.140339 -0.049713 -508588.000000 0 0 1
36.547319 12.017981 21.407877 44.027668 0.317695 1.063018 0.125561 -0.036699 -276849.000000 0 0 1
35.440769 12.029781 22.253277 43.542761 0.327231 1.034370 0.128230 -0.044169 -312160.000000 0 0 1
35.286549 10.588481 22.891977 43.373944 0.291522 1.014809 0.094508 -0.030557 484998.000000 0 0 1
36.422589 10.366181 23.744537 44.697491 0.277277 1.010748 0.093042 -0.019763 583236.000000 0 0 1
36.238559 10.916381 25.046837 45.384408 0.292591 0.986177 0.105229 -0.020913 234340.000000 0 0 1
-36.196769 10.948081 25.949977 45.863579 -0.293712 0.969384 0.102766 -0.023815 1444900.000000 0 0 1
-35.240701 11.941081 25.618567 45.175296 -0.326701 0.967825 0.095431 -0.029094 -121551.000000 0 0 1
-34.505792 11.747481 24.462217 43.898212 -0.328141 0.979728 0.102679 -0.031963 -1271740.000000 0 0 1
-33.685239 13.004581 24.121047 43.423949 -0.368433 0.981859 0.103806 -0.029794 1072310.000000 0 0 1
-32.565309 13.382281 24.968437 43.162572 -0.389899 0.953939 0.093609 -0.029102 1022730.000000 0 0 1
-33.057049 13.894881 26.223767 44.424342 -0.397909 0.939364 0.085916 -0.024420 -523956.000000 0 0 1
-32.035469 14.514381 27.203857 44.463337 -0.425406 0.912428 0.068151 -0.016526 -162687.000000 0 0 1
-31.528489 15.772281 26.790377 44.277926 -0.463851 0.920967 0.069670 -0.015269 -131626.000000 0 0 1
-31.001489 16.519281 27.861687 44.835840 -0.489584 0.900248 0.051040 -0.013180 -40466.500000 0 0 1
-30.523459 17.938981 27.451497 44.800371 -0.531335 0.911259 0.047165 0.000079 -163634.000000 0 0 1
-31.557889 18.754481 26.969817 45.552189 -0.536209 0.937179 0.052656 -0.021744 184660.000000 0 0 1
-30.930879 19.873481 26.340377 45.227093 -0.571094 0.949115 0.042841 -0.017061 -228273.000000 0 0 1
-31.833159 20.873981 25.636007 45.894204 -0.580393 0.978112 0.051337 -0.000352 -720981.000000 0 0 1
-32.543849 21.598281 26.589647 47.250367 -0.585923 0.973100 0.053758 -0.007436 380563.000000 0 0 1
-33.637249 22.286281 25.967937 47.984128 -0.585146 0.998959 0.063284 -0.005128 33282.800000 0 0 1
-33.486399 23.782781 25.997427 48.608906 -0.617554 1.006492 0.058339 -0.005786 148427.000000 0 0 1
-34.498425 24.257281 25.111667 49.083121 -0.612831 1.033733 0.071130 -0.005507 309529.000000 0 0 1
-34.750212 25.651681 25.184897 49.998650 -0.635889 1.042907 0.072943 -0.010735 234205.000000 0 0 1
-35.756144 26.183281 24.131007 50.461584 -0.632059 1.072186 0.093024 -0.007928 210873.000000 0 0 1
-35.347731 25.889281 22.774577 49.380141 -0.632153 1.091439 0.099310 -0.014538 269899.000000 0 0 1
-36.246389 26.542581 21.910477 49.983780 -0.632065 1.117032 0.104045 -0.022389 101423.000000 0 0 1
-35.798090 26.308181 20.466477 48.913191 -0.633770 1.139086 0.115685 -0.026666 143467.000000 0 0 1
-36.016006 25.009181 19.957977 48.176059 -0.606951 1.143654 0.110084 -0.024563 39526.900000 0 0 1
-35.485156 24.947081 18.655077 47.218270 -0.612756 1.164639 0.108250 -0.027665 30365.100000 0 0 1
-35.494845 23.567381 17.872477 46.203148 -0.586131 1.173612 0.107263 -0.021610 251923.000000 0 0 1
-36.746659 23.465881 17.220677 46.877673 -0.568309 1.194634 0.104197 -0.028898 57457.500000 0 0 1
-36.653369 22.700281 16.031977 45.997788 -0.554507 1.214785 0.102983 -0.032248 103742.000000 0 0 1
35.785479 22.674781 15.205977 45.010753 0.564782 1.226186 0.090642 -0.030928 655275.000000 0 0 1
34.906829 21.692081 15.812077 44.034700 0.556027 1.203512 0.118428 -0.047057 -212845.000000 0 0 1
33.786299 21.550181 14.984877 42.784002 0.567778 1.212964 0.114024 -0.044945 -957872.000000 0 0 1
32.701499 20.593781 15.516777 41.644473 0.562008 1.188986 0.142461 -0.045709 613921.000000 0 0 1
31.758809 21.069081 16.498077 41.529684 0.585744 1.162267 0.128967 -0.048641 285629.000000 0 0 1
30.816159 21.964781 15.984877 41.080452 0.619244 1.171129 0.103541 -0.037593 -680036.000000 0 0 1
29.830679 22.540081 17.021977 41.081289 0.647076 1.143569 0.094609 -0.032618 255164.000000 0 0 1
30.469619 23.315181 18.011477 42.384061 0.653155 1.131880 0.059371 -0.026181 12895.100000 0 0 1
29.468849 23.941581 18.777477 42.358068 0.682279 1.111516 0.051140 -0.013142 258216.000000 0 0 1
30.080799 24.799181 19.863577 43.754034 0.689454 1.099566 0.050102 -0.026241 274126.000000 0 0 1
30.969169 25.788781 19.390877 44.723112 0.694379 1.122339 0.056189 -0.020165 774135.000000 0 0 1
31.942519 26.137981 20.417877 46.047890 0.685789 1.111402 0.053589 -0.015083 1078200.000000 0 0 1
33.177489 27.033481 20.021377 47.248390 0.683709 1.133218 0.065191 -0.018668 549137.000000 0 0 1
33.985439 27.496081 21.111977 48.546473 0.680238 1.120889 0.070363 -0.013575 253976.000000 0 0 1
33.473219 28.428081 22.083277 49.155704 0.704075 1.104869 0.043218 -0.003908 -630602.000000 0 0 1
34.307969 28.648681 23.340137 50.423661 0.695747 1.089554 0.051318 -0.009605 -101545.000000 0 0 1
35.492299 29.393581 23.156947 51.574509 0.691682 1.105151 0.084504 -0.014434 -24402.200000 0 0 1
36.005619 29.867281 24.399577 52.761713 0.692482 1.090042 0.093308 -0.009592 121982.000000 0 0 1
-36.407329 30.627181 24.386817 53.462460 -0.699384 1.097134 0.092712 -0.011737 464612.000000 0 0 1
-35.294305 29.721981 24.328237 52.162699 -0.699901 1.085589 0.105211 -0.011029 -144630.000000 0 0 1
-34.197072 30.500081 24.725207 52.067557 -0.728317 1.075983 0.116885 -0.004906 1044940.000000 0 0 1
-32.706709 30.006781 24.456467 50.677949 -0.742373 1.067191 0.132948 -0.017826 1259440.000000 0 0 1
-32.339059 29.964981 23.073287 49.760339 -0.747312 1.088643 0.122225 -0.008751 151351.000000 0 0 1
-32.740899 28.748181 22.395577 48.989654 -0.720555 1.096009 0.116104 -0.005238 -107929.000000 0 0 1
-32.074679 27.423181 22.834377 47.981503 -0.707378 1.074810 0.095961 -0.002582 -63737.300000 0 0 1
-30.671859 27.367781 22.576077 46.898162 -0.728532 1.068562 0.089848 -0.004443 355467.000000 0 0 1
-30.084359 26.303081 23.271637 46.243808 -0.718440 1.043455 0.077778 -0.006100 -73379.900000 0 0 1
-29.691539 26.537881 24.775137 46.900469 -0.729371 1.014259 0.078043 -0.008337 -609797.000000 0 0 1
-30.778999 26.943981 25.581887 48.246842 -0.719057 1.011925 0.068618 -0.011430 -109490.000000 0 0 1
-30.455759 27.281581 26.939247 48.964895 -0.730477 0.988223 0.084767 -0.021170 -363636.000000 0 0 1
-31.701109 27.736381 27.755467 50.444356 -0.718793 0.988169 0.084619 -0.031502 539603.000000 0 0 1
-32.533239 26.605081 28.038627 50.521347 -0.685490 0.982451 0.058312 -0.022908 196455.000000 0 0 1
-33.543269 26.866681 28.995787 51.843274 -0.675324 0.977259 0.060358 -0.016457 330318.000000 0 0 1
-34.284642 25.562881 29.416587 51.906003 -0.640684 0.968267 0.047505 -0.015754 -234612.000000 0 0 1
-33.614189 25.000381 30.449877 51.789263 -0.639486 0.942265 0.039466 -0.009067 -151622.000000 0 0 1
-34.121637 23.681781 30.655297 51.622283 -0.606715 0.934975 0.023011 -0.013027 219161.000000 0 0 1
-33.324429 22.863081 31.722367 51.376518 -0.601320 0.905301 0.039990 -0.018788 729373.000000 0 0 1
-32.182129 22.124681 31.187647 49.978598 -0.602276 0.896920 0.041973 -0.018898 1223160.000000 0 0 1
-31.420229 21.293881 32.082469 49.698541 -0.595611 0.869064 0.053971 -0.016718 410188.000000 0 0 1
-30.668599 22.017181 33.235010 50.297963 -0.622643 0.848962 0.051511 -0.020616 -441216.000000 0 0 1
-31.483259 22.728981 -33.843810 51.509277 -0.625299 2.287686 0.073743 -0.022260 165181.000000 0 0 1
-31.421779 22.296381 -32.440170 50.366868 -0.617129 2.270613 0.063609 -0.015914 426053.000000 0 0 1
-30.022459 22.429881 -31.734950 49.107582 -0.641645 2.273434 0.066299 -0.023012 474910.000000 0 0 1
-29.609179 23.773381 -31.587120 49.392543 -0.676510 2.264660 0.058277 -0.020563 223878.000000 0 0 1
-28.478299 23.877381 -30.732510 48.224786 -0.697745 2.261755 0.085028 -0.019748 -166354.000000 0 0 1
-28.494179 25.064281 -29.786670 48.242949 -0.721445 2.236268 0.052752 -0.021583 -66382.200000 0 0 1
-28.469819 26.418181 -30.270730 49.241933 -0.748037 2.232846 0.045711 -0.023631 826526.000000 0 0 1
-29.671939 26.715881 -31.016860 50.558954 -0.733022 2.231255 0.036963 -0.010626 381262.000000 0 0 1
-29.548549 28.085881 -31.621300 51.593023 -0.760025 2.230520 0.046844 -0.017049 -105924.000000 0 0 1
-29.703799 29.127181 -30.656690 51.677277 -0.775597 2.205866 0.043140 -0.022994 42959.400000 0 0 1
-29.227779 30.335481 -31.253410 52.452646 -0.803993 2.209108 0.055246 -0.033955 -17481.100000 0 0 1
-29.535119 31.630081 -30.539430 52.966424 -0.819636 2.185334 0.047092 -0.017233 -285763.000000 0 0 1
-28.856749 31.818481 -29.351490 52.025356 -0.834172 2.170232 0.024372 -0.010360 -152161.000000 0 0 1
-29.303569 32.989681 -28.737000 52.657700 -0.844503 2.148059 0.012822 -0.010899 -322963.000000 0 0 1
-28.523859 33.193281 -27.387240 51.628145 -0.860913 2.129953 0.000214 -0.008274 -62736.700000 0 0 1
-27.177549 33.557481 -27.518750 51.205520 -0.890060 2.138168 0.017249 -0.005155 -272662.000000 0 0 1
-26.899149 -33.163170 -27.676620 50.885709 0.889315 2.145871 0.022268 0.011255 -431060.000000 0 0 1
-27.183149 -32.224570 -26.457760 49.773081 0.870057 2.131247 0.017840 0.015288 -214212.000000 0 0 1
-28.553349 -31.995270 -26.206530 50.257072 0.842183 2.119345 -0.001428 0.003017 -220444.000000 0 0 1
-28.775829 -30.997270 -25.270550 49.269461 0.822546 2.109362 -0.000204 0.002180 971487.000000 0 0 1
-30.323609 -30.736970 -25.136390 49.961192 0.792168 2.098000 -0.008500 -0.000811 1090150.000000 0 0 1
-30.926679 -29.857870 -26.079630 50.280205 0.767816 2.116109 -0.004543 -0.000681 282652.000000 0 0 1
-32.333029 -29.845170 -25.922540 51.069923 0.745408 2.103181 0.000393 -0.005729 -139558.000000 0 0 1
-32.994669 -28.845270 -26.904510 51.425193 0.718400 2.121372 0.019412 -0.011020 217466.000000 0 0 1
-34.418141 -28.902670 -26.906650 52.382636 0.698514 2.110237 0.022826 -0.013567 355879.000000 0 0 1
-34.858803 -28.184170 -28.037260 52.873165 0.679917 2.129720 0.038441 -0.015912 557779.000000 0 0 1
-36.390899 -28.430070 -28.291150 54.156769 0.663198 2.120452 0.029522 -0.019860 856533.000000 0 0 1
36.584309 -27.789470 -27.287550 53.434789 -0.649617 2.106760 0.013894 -0.013695 62477.600000 0 0 1
35.209199 -27.993970 -27.601800 52.775083 -0.671731 2.121173 0.017682 -0.014880 249422.000000 0 0 1
34.323079 -27.339270 -26.531500 51.277967 -0.672620 2.114613 0.020882 -0.012332 -291391.000000 0 0 1
34.089399 -28.159970 -25.347680 50.966419 -0.690432 2.091327 0.023787 -0.012663 335497.000000 0 0 1
33.087909 -27.564570 -24.544620 49.568675 -0.694583 2.088820 0.034633 -0.011482 75545.700000 0 0 1
32.713349 -28.223970 -23.171220 49.027146 -0.711859 2.063058 0.032181 -0.011808 53870.300000 0 0 1
32.215499 -29.551570 -23.310620 49.543099 -0.742296 2.060667 0.050088 -0.017883 -87854.000000 0 0 1
31.898959 -30.143870 -22.065220 49.123013 -0.757117 2.036647 0.062085 -0.025537 53649.300000 0 0 1
33.047739 -30.321070 -21.033820 49.537278 -0.742396 2.009323 0.041248 -0.013892 -1068020.000000 0 0 1
34.085729 -31.177570 -21.430520 50.922931 -0.740867 2.005170 0.022522 -0.014563 -186266.000000 0 0 1
35.066079 -31.359870 -20.433020 51.289176 -0.729661 1.980556 0.012545 -0.004285 714067.000000 0 0 1
36.104689 -30.166570 -20.330420 51.253258 -0.696034 1.978678 0.001056 0.002617 -407638.000000 0 0 1
35.531819 -28.984470 -19.829920 49.958336 -0.684261 1.978965 -0.000656 0.011640 -180551.000000 0 0 1
35.950559 -27.865770 -20.622320 49.942205 -0.659381 1.996458 -0.010003 0.007192 -298972.000000 0 0 1
35.199779 -26.573970 -20.303620 48.553448 -0.646660 2.002227 -0.011983 0.008067 -411046.000000 0 0 1
33.876219 -26.624070 -20.743920 47.819970 -0.666098 2.019493 0.006451 0.002272 -725272.000000 0 0 1
33.121449 -25.583370 -20.228420 46.483633 -0.657691 2.021027 0.033745 0.002357 491560.000000 0 0 1
31.834379 -25.264070 -21.073520 45.779844 -0.670832 2.049155 0.045189 -0.010397 1000260.000000 0 0 1
30.755519 -26.171470 -21.076420 45.552862 -0.705046 2.051813 0.073053 -0.016399 523412.000000 0 0 1
29.616549 -25.874370 -21.864420 44.996398 -0.718062 2.078206 0.080044 -0.025264 347066.000000 0 0 1
28.941979 -27.113770 -22.468820 45.581164 -0.752796 2.086263 0.090345 -0.031626 -9178.060000 0 0 1
28.328839 -27.880470 -21.431520 45.156990 -0.777422 2.065306 0.093451 -0.032329 -167436.000000 0 0 1
27.902739 -29.098470 -21.978220 45.916510 -0.806372 2.069920 0.091339 -0.034471 -462550.000000 0 0 1
27.253639 -29.930470 -20.902620 45.557803 -0.832175 2.047458 0.091473 -0.023906 -378535.000000 0 0 1
28.014639 -30.623170 -19.923520 46.038518 -0.829854 2.018346 0.094598 -0.026384 -230629.000000 0 0 1
28.664239 -31.797170 -20.342120 47.397262 -0.837169 2.014385 0.103035 -0.026531 253455.000000 0 0 1
29.657249 -32.446570 -19.332720 48.021728 -0.830282 1.985133 0.069862 -0.021295 75599.000000 0 0 1
29.115439 -33.036370 -18.177520 47.639613 -0.848401 1.962283 0.077187 -0.017861 -413029.000000 0 0 1
28.708959 -32.112570 -17.238820 46.396103 -0.841300 1.951482 0.069962 -0.017594 -63137.700000 0 0 1
28.067739 -32.723070 -15.958120 45.970195 -0.861829 1.925317 0.069928 -0.013978 -557608.000000 0 0 1
26.795239 -33.196470 -16.246820 45.650297 -0.891698 1.934670 0.072247 -0.009583 -743951.000000 0 0 1
26.290539 -34.052170 -15.226420 45.635365 -0.913322 1.910973 0.075243 -0.009521 199796.000000 0 0 1
24.740739 34.029681 -15.247620 44.750567 0.942156 1.918484 0.081382 -0.010250 430111.000000 0 0 1
24.176739 -32.869870 -14.685420 43.365938 -0.936621 1.916267 0.073811 -0.007376 -580245.000000 0 0 1
22.808339 -33.023770 -14.513820 42.678339 -0.966363 1.917793 0.083778 -0.014926 -725826.000000 0 0 1
0.430861 -6.797819 -29.169760 29.954480 -1.507499 2.912192 0.118074 -0.039562 -80499.300000 0 0 1
0.377161 -8.158919 -28.892770 30.025029 -1.524602 2.866093 0.107889 -0.034521 -83899.100000 0 0 1
0.097661 -8.887119 -30.072930 31.358756 -1.559808 2.854236 0.100400 -0.038624 -841.321000 0 0 1
0.162961 -10.438819 -29.842660 31.616133 -1.555187 2.805062 0.111395 -0.029986 -298436.000000 0 0 1
1.443361 -10.862819 -29.486780 31.457183 -1.438698 2.785776 0.057391 -0.030409 -499738.000000 0 0 1
1.479561 -12.266219 -29.286890 31.786336 -1.450755 2.742380 0.067634 -0.029317 -752028.000000 0 0 1
2.816761 -12.708919 -28.735780 31.546725 -1.352686 2.716246 0.074954 -0.027390 -873523.000000 0 0 1
3.781561 -12.618319 -29.792960 32.575185 -1.279626 2.725291 0.074721 -0.037440 148288.000000 0 0 1
5.127561 -12.772519 -29.392630 32.455444 -1.189038 2.703660 0.072278 -0.035860 359380.000000 0 0 1
5.670061 -14.137219 -29.023890 32.777992 -1.189365 2.658298 0.081576 -0.037387 -810305.000000 0 0 1
5.214761 -14.574119 -27.787250 31.807703 -1.227181 2.633350 0.087639 -0.034130 -261534.000000 0 0 1
6.001761 -15.613819 -27.237140 31.963640 -1.203821 2.590836 0.086463 -0.029600 -191481.000000 0 0 1
5.639561 -17.128819 -27.492060 32.878785 -1.252731 2.561048 0.086340 -0.030307 -265089.000000 0 0 1
5.918261 -17.508819 -28.820670 34.237634 -1.244837 2.571375 0.079450 -0.043962 97297.100000 0 0 1
5.625461 -18.872819 -28.974650 35.033691 -1.281109 2.544638 0.074454 -0.035121 -333323.000000 0 0 1
5.917361 -19.451319 -30.401100 36.573158 -1.275478 2.552132 0.071200 -0.044543 -381454.000000 0 0 1
7.252261 -19.448719 -30.828030 37.164707 -1.213876 2.549004 0.063067 -0.038475 -267907.000000 0 0 1
7.435761 -20.151519 -32.028520 38.564237 -1.217303 2.550844 0.060701 -0.030450 -471024.000000 0 0 1
8.824161 -20.013919 -32.636830 39.288490 -1.155535 2.551155 0.061294 -0.036834 -454417.000000 0 0 1
9.160761 -18.675319 -32.991850 39.001914 -1.114755 2.579053 0.054302 -0.042905 463881.000000 0 0 1
10.283961 -18.645219 -33.879680 40.015457 -1.066756 2.580482 0.053580 -0.036106 172221.000000 0 0 1
10.645161 -17.248119 33.608154 39.246975 -1.017842 0.542686 0.042131 -0.032087 -74736.500000 0 0 1
9.615561 -16.686819 32.828445 38.060685 -1.048033 0.530550 0.052571 -0.025738 291783.000000 0 0 1
9.894161 -15.322619 32.492807 37.262039 -0.997434 0.511506 0.047796 -0.018702 -70907.800000 0 0 1
8.771161 -14.965419 31.523847 35.981244 -1.040664 0.503045 0.054483 -0.027139 -260640.000000 0 0 1
8.851761 -15.622919 30.278447 35.202466 -1.055307 0.535286 0.048175 -0.022529 -65311.800000 0 0 1
7.735361 -15.512519 29.419467 34.146436 -1.108227 0.532446 0.059076 -0.022158 -546055.000000 0 0 1
7.825461 -16.404519 28.181927 33.534566 -1.125692 0.572804 0.053008 -0.020379 -463401.000000 0 0 1
7.598361 -17.733719 28.497817 34.414320 -1.165991 0.595122 0.059861 -0.023390 335475.000000 0 0 1
7.945661 -18.645719 27.434937 34.109707 -1.167962 0.636275 0.044642 -0.019271 154475.000000 0 0 1
7.540661 -20.098719 27.844717 35.158901 -1.211867 0.656771 0.056852 -0.018451 273780.000000 0 0 1
8.392561 -20.533919 28.900777 36.432565 -1.182798 0.654639 0.070265 -0.014748 318782.000000 0 0 1
7.733161 -21.512719 29.649347 37.439052 -1.225711 0.656823 0.055280 -0.011154 -179922.000000 0 0 1
7.978461 -21.468819 31.170227 38.680086 -1.214983 0.633692 0.066304 -0.021766 -423590.000000 0 0 1
7.336061 -20.481919 31.922647 38.631363 -1.226859 0.598219 0.077053 -0.031645 129426.000000 0 0 1
7.142461 -19.136919 31.446657 37.498382 -1.213579 0.576063 0.064154 -0.023113 -323364.000000 0 0 1
6.462761 -18.256219 32.518336 37.848368 -1.230560 0.537143 0.073413 -0.024191 158468.000000 0 0 1
5.125161 -18.618819 32.806623 38.068388 -1.302181 0.532026 0.079558 -0.033543 -231954.000000 0 0 1
4.607661 -17.747919 33.790127 38.444659 -1.316787 0.497184 0.085475 -0.031567 430321.000000 0 0 1
3.060661 -17.818219 33.959753 38.472346 -1.400685 0.489208 0.083504 -0.029321 545814.000000 0 0 1
2.656761 -19.055819 -33.464340 38.601097 -1.432269 2.619800 0.076060 -0.035018 -59730.300000 0 0 1
2.375861 -18.885319 -32.079040 37.301003 -1.445649 2.606075 0.077967 -0.042605 -341139.000000 0 0 1
2.049061 -20.179619 -31.342640 37.333320 -1.469602 2.567224 0.073400 -0.031380 72831.500000 0 0 1
0.745761 -20.600219 -31.771910 37.873203 -1.534611 2.566059 0.053876 -0.026682 611379.000000 0 0 1
0.061361 -21.349019 -30.786540 37.464589 -1.567922 2.535272 0.054135 -0.031634 -111619.000000 0 0 1
-0.705239 -20.494619 -29.761610 36.142499 1.536399 2.538265 0.058213 -0.026590 -1085340.000000 0 0 1
-1.860939 -20.016319 -30.393800 36.440352 1.478092 2.557241 0.060723 -0.035197 -315899.000000 0 0 1
-2.543539 -18.959819 -29.699520 35.327126 1.437438 2.569371 0.089940 -0.024393 -25745.400000 0 0 1
-1.892539 -17.580819 -29.732210 34.592936 1.463561 2.605063 0.073178 -0.018908 -281273.000000 0 0 1
-2.689539 -16.589319 -29.095080 33.600042 1.410070 2.617791 0.085535 -0.024769 -278981.000000 0 0 1
-2.227639 -15.265019 -29.384240 33.187600 1.425888 2.658146 0.089270 -0.024966 -156465.000000 0 0 1
-3.209539 -14.107719 -29.191890 32.580598 1.347101 2.681452 0.101492 -0.023575 -81651.800000 0 0 1
-3.200339 -13.681419 -27.833270 31.178748 1.341009 2.674098 0.098260 -0.025010 406486.000000 0 0 1
-4.331339 -12.834219 -27.633860 30.775118 1.245315 2.685837 0.104519 -0.027687 331552.000000 0 0 1
-4.515939 -12.533419 -26.123190 29.324075 1.224965 2.669997 0.103771 -0.022452 -378208.000000 0 0 1
-4.866439 -13.635519 -25.342760 29.186728 1.227993 2.622556 0.097880 -0.020189 214871.000000 0 0 1
-4.858739 -13.343919 -23.974720 27.864937 1.221601 2.606831 0.083300 -0.018040 104139.000000 0 0 1
-6.016539 -12.449919 -23.386720 27.168694 1.120631 2.607629 0.080248 -0.021364 554905.000000 0 0 1
-7.297039 -13.076619 -23.520520 27.882963 1.061815 2.574646 0.073465 -0.019938 624172.000000 0 0 1
-8.280339 -12.154619 -23.016220 27.313828 0.972765 2.572997 0.064118 -0.020571 -334975.000000 0 0 1
-9.713739 -12.598619 -23.218420 28.145639 0.913980 2.540890 0.078591 -0.024327 -748613.000000 0 0 1
-10.201539 -13.635319 -22.410420 28.146408 0.928467 2.491799 0.073045 -0.024304 345644.000000 0 0 1
-11.373439 -14.204519 -23.014320 29.339094 0.895634 2.472565 0.082969 -0.022572 508074.000000 0 0 1
-12.078239 -15.344219 -22.188320 29.557579 0.903939 2.419889 0.082899 -0.026326 -57974.200000 0 0 1
-11.463939 -16.618219 -22.172920 29.987089 0.966921 2.402998 0.093000 -0.020594 -479725.000000 0 0 1
-12.179639 -17.706919 -21.591520 30.464280 0.968274 2.358519 0.092233 -0.013855 101323.000000 0 0 1
-12.920939 -18.523519 -22.696320 32.018657 0.961722 2.358658 0.072832 -0.008264 -267073.000000 0 0 1
-13.925839 -17.738719 -23.243220 32.385775 0.905236 2.371288 0.071429 -0.009046 -762972.000000 0 0 1
-14.599939 -18.353119 -24.319620 33.785191 0.898804 2.374355 0.051290 -0.014359 89492.100000 0 0 1
-15.781939 -17.487419 -24.814220 34.214397 0.836616 2.382203 0.070204 -0.022778 -321859.000000 0 0 1
-16.947639 -17.641819 -24.036020 34.295576 0.805465 2.347383 0.069634 -0.018682 -74735.300000 0 0 1
-18.031539 -17.055219 -24.763820 35.060857 0.757579 2.355068 0.048877 -0.024104 269904.000000 0 0 1
-18.708539 -15.815919 -24.184120 34.424183 0.701809 2.349747 0.058338 -0.021851 -616926.000000 0 0 1
-19.631839 -15.978119 -23.160020 34.308832 0.683152 2.311823 0.057964 -0.018134 -60324.000000 0 0 1
-20.171639 -14.716719 -22.804020 33.815680 0.630300 2.310897 0.062219 -0.022036 -73844.000000 0 0 1
-20.654039 -14.561219 -21.313920 33.059063 0.614078 2.271456 0.055365 -0.023394 427837.000000 0 0 1
-19.670739 -14.580919 -20.257320 31.778927 0.637877 2.261974 0.063259 -0.018094 560161.000000 0 0 1
-20.333039 -14.663119 -18.990920 31.449874 0.624778 2.219115 0.054645 -0.021016 57943.200000 0 0 1
-20.924939 -13.395119 -18.361520 30.893814 0.569420 2.207245 0.053768 -0.019156 -886812.000000 0 0 1
-22.077939 -12.937319 -18.983220 31.861768 0.530050 2.209057 0.050231 -0.023436 -319149.000000 0 0 1
-22.596339 -11.855019 -18.190920 31.337607 0.483167 2.190117 0.049969 -0.020376 581978.000000 0 0 1
-24.082739 -11.505119 -18.531720 32.492626 0.445676 2.177711 0.067536 -0.024622 525941.000000 0 0 1
-24.277039 -10.839519 -19.740920 33.114555 0.419933 2.209481 0.049922 -0.026499 175744.000000 0 0 1
-25.671289 -10.730719 -19.982120 34.255635 0.395931 2.193611 0.053882 -0.025071 151143.000000 0 0 1
-26.045179 -9.728119 -21.096320 34.900464 0.357463 2.219898 0.049754 -0.017733 -163612.000000 0 0 1
-25.942459 -10.245219 -22.390320 35.767333 0.376120 2.247208 0.041880 -0.014047 504102.000000 0 0 1
-26.624089 -9.338519 -23.271720 36.573529 0.337347 2.260488 0.023484 -0.013044 -2272.110000 0 0 1
-26.729749 -9.941719 -24.692720 37.723304 0.356081 2.284416 0.036520 -0.009489 606606.000000 0 0 1
-25.556449 -9.825219 -25.519850 37.428996 0.367031 2.321044 0.021885 -0.013798 784587.000000 0 0 1
-24.926039 -11.083019 -25.790710 37.540664 0.418384 2.328159 0.039168 -0.009627 -219864.000000 0 0 1
-23.806339 -10.944119 -26.798440 37.478953 0.430903 2.367458 0.047067 -0.013413 -568971.000000 0 0 1
-24.276539 -11.186519 -28.091840 38.776798 0.431795 2.381032 0.050675 -0.009907 -151970.000000 0 0 1
-23.333939 -11.060319 -29.126270 38.924838 0.442633 2.416246 0.046636 -0.009692 -159919.000000 0 0 1
-23.890039 -11.346719 -30.553340 40.410254 0.443413 2.428097 0.051632 -0.009255 265507.000000 0 0 1
-24.865939 -10.441519 -31.041620 41.120827 0.397554 2.426280 0.046487 -0.008526 207233.000000 0 0 1
-24.281639 -9.345119 -31.708590 41.016630 0.367390 2.454458 0.041605 -0.010870 -193707.000000 0 0 1
-25.310749 -8.318019 -32.305660 41.874564 0.317517 2.451971 0.049056 -0.012439 -434895.000000 0 0 1
-26.162229 -8.920319 -33.317630 43.290863 0.328600 2.449046 0.043720 -0.011344 1687550.000000 0 0 1
-27.413949 -9.514219 -32.924180 43.886748 0.334051 2.419173 0.046222 -0.012579 341846.000000 0 0 1
-28.313439 -8.755419 -31.934360 43.567322 0.299905 2.393502 0.034940 -0.003050 -1190160.000000 0 0 1
-29.661509 -9.188519 -32.081080 44.647841 0.300404 2.372491 0.050773 -0.006100 204986.000000 0 0 1
-30.408219 -8.786819 -30.953370 44.271651 0.281300 2.345031 0.056323 -0.002308 -179037.000000 0 0 1
-31.895169 -9.183719 -31.034460 45.439853 0.280351 2.322629 0.060133 -0.011311 -142832.000000 0 0 1
-32.132509 -10.563219 -30.963510 45.856501 0.317610 2.312068 0.061243 -0.017356 42934.900000 0 0 1
-33.484499 -10.793919 -30.634760 46.649854 0.311838 2.287225 0.055030 -0.018968 -252862.000000 0 0 1
-33.844239 -12.253919 -30.907720 47.443421 0.347385 2.280310 0.059266 -0.027890 -212278.000000 0 0 1
-35.173209 -12.653719 -30.632030 48.327968 0.345338 2.257300 0.038795 -0.025050 104525.000000 0 0 1
-35.477133 -13.943019 -31.113640 49.204607 0.374470 2.255356 0.034110 -0.029373 15861.600000 0 0 1
-36.875109 -14.436119 -30.680270 50.094453 0.373146 2.229951 0.036999 -0.031576 98627.500000 0 0 1
36.776779 -14.579419 -29.290940 49.224487 -0.377425 2.208122 0.026835 -0.031442 -136481.000000 0 0 1
36.134719 -15.782019 -28.990940 48.941441 -0.411785 2.204781 0.023101 -0.027046 -179586.000000 0 0 1
36.154409 -16.103419 -27.503030 48.196245 -0.419028 2.178090 0.026240 -0.019914 1233680.000000 0 0 1
-36.281429 -16.393519 -26.973560 48.090150 0.424386 2.166264 0.038456 -0.032449 1369440.000000 0 0 1
-36.215199 -16.318819 -25.548550 47.228942 0.423359 2.142364 0.043483 -0.031757 616238.000000 0 0 1
-34.886008 -15.688019 -24.963420 45.676250 0.422599 2.149011 0.072556 -0.034285 785203.000000 0 0 1
-33.784539 -16.558719 -25.026700 45.187631 0.455718 2.157765 0.064243 -0.027780 -798532.000000 0 0 1
-32.635069 -15.992619 -24.507520 43.834121 0.455651 2.164092 0.080324 -0.015355 208934.000000 0 0 1
-31.309039 -16.749919 -24.894520 43.365342 0.491244 2.182258 0.078316 -0.021001 628591.000000 0 0 1
-30.974589 -17.929419 -24.206620 43.207056 0.524717 2.165480 0.075763 -0.028811 -170643.000000 0 0 1
-31.713309 -19.065719 -24.594320 44.431028 0.541294 2.157404 0.061814 -0.031846 -203809.000000 0 0 1
-31.588849 -20.329819 -23.715120 44.424811 0.571846 2.133915 0.063239 -0.030682 516676.000000 0 0 1
-30.304379 -20.941819 -23.864620 43.891175 0.604693 2.145663 0.060551 -0.022198 521372.000000 0 0 1
-30.306379 -22.056119 -23.026620 43.990615 0.629122 2.121684 0.051095 -0.019313 -830493.000000 0 0 1
-29.043179 -22.913819 -23.020620 43.571761 0.667971 2.127438 0.054112 -0.015439 569247.000000 0 0 1
-27.795399 -22.325119 -22.592020 42.206570 0.676686 2.135627 0.065363 -0.020276 955243.000000 0 0 1
-27.715679 -22.165819 -21.225820 41.352362 0.674593 2.109812 0.062967 -0.019636 -627245.000000 0 0 1
-27.441429 -23.371719 -20.321920 41.379339 0.705477 2.084163 0.059250 -0.016296 -212570.000000 0 0 1
-27.474599 -22.926419 -18.920420 40.477853 0.695402 2.057174 0.058725 -0.017016 142527.000000 0 0 1
-27.276209 -23.992519 -17.993520 40.538862 0.721437 2.030696 0.053345 0.003786 -136586.000000 0 0 1
-27.135409 -23.559919 -16.482520 39.535727 0.714986 2.000831 0.045036 0.005893 -274907.000000 0 0 1
-28.280199 -22.957819 -15.914620 39.750550 0.681894 1.982708 0.055364 -0.000619 -275330.000000 0 0 1
-28.180229 -21.548219 -15.661620 38.778053 0.652816 1.986549 0.050298 -0.006066 381734.000000 0 0 1
-29.440759 -20.867519 -15.015420 39.085477 0.616606 1.965104 0.046200 -0.002683 572516.000000 0 0 1
-30.412909 -20.410719 -15.916320 39.935845 0.591080 1.980729 0.038713 -0.000351 193314.000000 0 0 1
-31.609409 -20.066919 -15.221520 40.416960 0.565644 1.956933 0.042272 -0.002311 193108.000000 0 0 1
-32.753599 -19.454019 -16.016820 41.325484 0.535960 1.968798 0.041176 -0.017119 -493839.000000 0 0 1
-33.517929 -20.344019 -16.767620 42.643684 0.545521 1.974909 0.027436 -0.014531 -356791.000000 0 0 1
-34.259306 -19.687119 -17.778120 43.328331 0.521571 1.993592 0.026569 -0.011333 279811.000000 0 0 1
-35.345319 -20.630419 -18.421720 44.880570 0.528334 1.993756 0.011674 -0.007997 927180.000000 0 0 1
-36.492689 -20.872119 -17.597920 45.574648 0.519542 1.967233 0.007112 0.002786 539246.000000 0 0 1
-36.253199 -21.925219 -16.650320 45.521894 0.543927 1.945251 0.028690 -0.007325 -770693.000000 0 0 1
36.719099 -23.205219 -16.874520 46.599612 -0.563593 1.941335 0.008678 0.012194 -773736.000000 0 0 1
35.355939 -23.036819 -16.633820 45.358807 -0.577477 1.946273 0.013739 -0.002676 -591125.000000 0 0 1
34.704349 -24.283819 -16.550620 45.475474 -0.610548 1.943297 0.012089 -0.000574 -695669.000000 0 0 1
33.259599 -24.174119 -16.079220 44.148955 -0.628508 1.943574 0.020983 -0.011170 -839527.000000 0 0 1
32.384279 -23.989319 -17.147420 43.797979 -0.637568 1.973070 0.014058 -0.010322 75429.100000 0 0 1
31.086699 -24.376719 -16.680820 42.881896 -0.665003 1.970336 0.037231 -0.011581 524699.000000 0 0 1
29.907259 -24.205019 -17.662820 42.335591 -0.680408 2.001169 0.064726 -0.015446 66459.000000 0 0 1
29.566129 -22.861219 -17.879920 41.430458 -0.658199 2.017023 0.062448 -0.016499 -622204.000000 0 0 1
28.238239 -22.794119 -18.265320 40.627477 -0.679120 2.037092 0.087040 -0.025544 -768376.000000 0 0 1
34.850419 29.289681 -18.307020 49.067138 0.698918 1.953146 0.056241 -0.018014 -448510.000000 0 0 1
33.800149 29.441181 -19.195020 48.761480 0.716581 1.975397 0.039652 -0.029637 -519220.000000 0 0 1
34.124469 28.952581 -20.446720 49.201622 0.703588 1.999366 0.044469 -0.022964 -541762.000000 0 0 1
33.122479 29.343781 -21.523920 49.208081 0.724980 2.023509 0.047631 -0.016490 -763442.000000 0 0 1
31.989599 28.500181 -21.501820 47.936656 0.727776 2.035935 0.047521 -0.019869 396014.000000 0 0 1
31.081419 28.609181 -22.614620 47.916186 0.744004 2.062311 0.066050 -0.010868 1050060.000000 0 0 1
30.153779 29.885681 -22.580620 48.086263 0.780933 2.059618 0.049160 -0.011901 -447107.000000 0 0 1
30.857279 31.081381 -22.870220 49.409218 0.789016 2.052031 0.068942 -0.025199 167772.000000 0 0 1
29.960389 32.188281 -22.893520 49.576442 0.821231 2.050800 0.060306 -0.016738 -133766.000000 0 0 1
30.682689 33.535681 -22.653920 50.786508 0.829795 2.033157 0.067756 -0.014817 67077.100000 0 0 1
31.107179 33.585181 -21.321020 50.499572 0.823684 2.006669 0.071921 -0.018332 -653502.000000 0 0 1
32.472829 33.336181 -21.187620 51.134145 0.798516 1.998029 0.063758 -0.017869 -967913.000000 0 0 1
32.957449 33.081681 -19.790520 50.717410 0.787279 1.971658 0.058227 -0.023383 -375093.000000 0 0 1
32.993749 -33.896370 -19.024220 50.985020 -0.798891 1.953181 0.054493 -0.022126 103194.000000 0 0 1
33.185729 33.974481 -17.633920 50.660764 0.797142 1.926317 0.044801 -0.032234 -336397.000000 0 0 1
33.074979 -32.802470 -16.866120 49.542126 -0.781262 1.918181 0.048946 -0.024493 81716.400000 0 0 1
34.173179 -31.926070 -17.025620 49.768984 -0.751415 1.919940 0.043657 -0.017167 627698.000000 0 0 1
35.239299 -32.262570 -16.091820 50.414564 -0.741328 1.895671 0.042587 -0.015968 261237.000000 0 0 1
36.492209 -31.393270 -16.207020 50.792580 -0.710428 1.895557 0.038731 -0.003403 -261236.000000 0 0 1
-36.516299 -31.760970 -17.363120 51.416702 0.715863 1.915262 0.032181 -0.011907 -603892.000000 0 0 1
-35.343240 -30.986170 -17.424420 50.128812 0.719804 1.925799 0.017125 0.000743 143477.000000 0 0 1
-34.358349 -31.571070 -18.489020 50.190362 0.743147 1.948060 0.016504 -0.008663 -496599.000000 0 0 1
-33.744239 -32.740670 -18.050520 50.363145 0.770305 1.937358 0.026333 -0.013693 -43969.700000 0 0 1
-32.926029 -33.494770 -18.941720 50.643971 0.793961 1.954133 0.039500 -0.010808 307708.000000 0 0 1
-31.512319 -32.919670 -19.142920 49.428558 0.807237 1.968481 0.022377 -0.011116 -1282670.000000 0 0 1
-31.547319 -31.829570 -20.081420 49.108230 0.789852 1.992068 0.019056 -0.009799 268931.000000 0 0 1
-30.336209 -31.249470 -20.596320 48.177000 0.800226 2.012537 0.030677 -0.012960 259516.000000 0 0 1
-29.476389 -32.266770 -21.365620 48.646600 0.830561 2.025505 0.031997 -0.008389 -713860.000000 0 0 1
-30.104939 -32.833170 -22.479420 49.896380 0.828719 2.038146 0.028199 0.003100 -701984.000000 0 0 1
-29.348799 -33.828070 -23.009220 50.349921 0.856180 2.045400 0.023991 -0.005960 -650659.000000 0 0 1
-30.138509 33.620881 -24.181220 51.219379 -0.839961 2.062480 0.010790 -0.011643 79113.100000 0 0 1
-31.238049 32.847181 -23.687720 51.145489 -0.810502 2.052336 0.004658 -0.017972 113229.000000 0 0 1
-31.780469 32.067581 -24.747720 51.485703 -0.789895 2.072217 0.012486 -0.013654 98565.600000 0 0 1
-32.582309 32.643781 -25.919910 52.906191 -0.786341 2.082797 0.019036 -0.027080 -599574.000000 0 0 1
-31.895269 33.516281 -26.827630 53.482436 -0.810175 2.096262 0.012803 -0.021756 -412732.000000 0 0 1
-32.764929 -33.673570 -27.424230 54.401639 0.799074 2.099144 0.015308 -0.030531 -137250.000000 0 0 1
-32.037269 -32.832470 -28.475330 53.992612 0.797656 2.126326 0.015137 -0.026189 -109312.000000 0 0 1
-31.834369 -33.398070 -29.782090 54.916582 0.809365 2.143986 0.019544 -0.024517 703952.000000 0 0 1
-33.065719 -33.574670 -30.501290 56.133136 0.793035 2.145247 0.038756 -0.022842 540623.000000 0 0 1
-32.924629 33.595581 -31.710350 56.729539 -0.795484 2.163945 0.060778 -0.027352 758722.000000 0 0 1
-31.900719 -34.032570 -32.621130 56.921084 0.817720 2.181073 0.056600 -0.033482 902917.000000 0 0 1
-32.300319 33.678081 -33.928760 57.694753 -0.806277 2.199471 0.065801 -0.047017 -124832.000000 0 0 1
-31.293259 -33.957470 33.050589 56.786612 0.826206 0.949593 0.074183 -0.048663 413656.000000 0 0 1
-29.957919 33.696581 33.022814 55.887769 -0.844064 0.938650 0.086859 -0.048332 152873.000000 0 0 1
-29.807529 32.355581 32.717308 54.825128 -0.826365 0.931342 0.095477 -0.055183 -913084.000000 0 0 1
-28.377779 31.830681 32.813249 53.807061 -0.842685 0.914948 0.095770 -0.049630 -803385.000000 0 0 1
-27.950519 31.723881 -33.910570 54.199289 -0.848547 2.246779 0.088919 -0.051006 385214.000000 0 0 1
-26.555019 31.473081 -33.753410 53.244873 -0.869949 2.257418 0.081248 -0.049257 209003.000000 0 0 1
-26.010009 30.105781 33.952088 52.303182 -0.858257 0.864343 0.081898 -0.045323 -918205.000000 0 0 1
-26.375729 29.142581 -33.166220 51.429245 -0.835194 2.271676 0.073384 -0.036144 140829.000000 0 0 1
-26.086719 27.776181 -33.613820 50.812617 -0.816754 2.293647 0.074695 -0.037037 -315615.000000 0 0 1
-26.100599 26.737581 -32.470750 49.502415 -0.797453 2.286227 0.077661 -0.044601 -543659.000000 0 0 1
-25.051239 26.719481 -31.522370 48.323442 -0.817611 2.281438 0.070263 -0.037159 -71057.100000 0 0 1
-25.006639 27.902481 -30.670650 48.420752 -0.840076 2.256761 0.056235 -0.029420 430261.000000 0 0 1
-23.780639 27.874681 -29.700960 47.166340 -0.864490 2.251972 0.057708 -0.023077 475447.000000 0 0 1
-22.513539 28.025181 -30.317740 47.025903 -0.894027 2.271431 0.050673 -0.026474 -128089.000000 0 0 1
-21.405939 27.967381 -29.462930 45.917893 -0.917518 2.267436 0.021397 -0.024851 107365.000000 0 0 1
-21.089739 29.075281 -28.472310 45.834719 -0.943259 2.241063 0.023459 -0.012252 -585510.000000 0 0 1
-20.602739 30.246681 -29.100930 46.756804 -0.972829 2.242588 0.021170 -0.004215 158967.000000 0 0 1
-20.231939 31.317681 -28.195350 46.745120 -0.997222 2.218268 0.028420 -0.002712 174936.000000 0 0 1
-19.777939 32.546281 -28.996600 47.866795 -1.024744 2.221538 0.030066 0.003330 436475.000000 0 0 1
-18.688039 32.419181 -29.928750 47.916346 -1.047873 2.245421 0.034997 -0.005169 287971.000000 0 0 1
-18.526039 33.462281 -30.835360 49.130009 -1.065163 2.249299 0.038752 0.001906 928567.000000 0 0 1
-17.011739 33.619581 -31.259690 48.957570 -1.102355 2.263351 0.044898 0.002563 994695.000000 0 0 1
-16.178539 -34.056670 -30.171450 48.289940 1.127309 2.245669 0.061663 -0.007055 897876.000000 0 0 1
-14.770139 -34.016870 -30.467130 47.995317 1.161159 2.258538 0.081075 -0.001536 1597310.000000 0 0 1
-14.011939 32.699881 -30.572160 46.907074 -1.165964 2.280699 0.090934 -0.011937 -279528.000000 0 0 1
-13.994339 32.063881 -29.288340 45.626098 -1.159266 2.267797 0.106354 -0.028342 88317.800000 0 0 1
-13.301039 30.829781 -29.366500 44.606999 -1.163488 2.289405 0.095467 -0.028871 -348435.000000 0 0 1
-13.072539 30.213681 -27.977310 43.202866 -1.162447 2.275201 0.084779 -0.036960 -197840.000000 0 0 1
-11.971739 30.738581 -27.262790 42.795357 -1.199401 2.261462 0.089207 -0.020974 -250488.000000 0 0 1
-11.926239 30.242281 -25.930930 41.584178 -1.195165 2.244106 0.067136 -0.028295 -1031160.000000 0 0 1
-10.712039 30.638281 -25.173620 41.075092 -1.234452 2.230482 0.077784 -0.023677 -716069.000000 0 0 1
-9.563839 29.850781 -25.499570 40.407477 -1.260741 2.253716 0.093340 -0.017809 -222532.000000 0 0 1
-8.463939 30.514781 -24.915320 40.293465 -1.300226 2.237433 0.105345 -0.020754 -1297620.000000 0 0 1
-7.138839 30.007081 -25.351930 39.926286 -1.337233 2.258764 0.089553 -0.024251 -1257370.000000 0 0 1
-6.870639 28.687481 -24.873020 38.585546 -1.335725 2.271323 0.087631 -0.039739 469423.000000 0 0 1
-5.712039 28.107981 -25.512560 38.387194 -1.370309 2.297770 0.083983 -0.050057 692845.000000 0 0 1
-5.249439 26.822081 -24.735320 36.862131 -1.377526 2.306383 0.093528 -0.040249 -322423.000000 0 0 1
-6.085639 25.731481 -24.823020 36.267429 -1.338558 2.324637 0.094329 -0.035930 -296726.000000 0 0 1
-5.477739 24.687681 -24.073720 34.914627 -1.352452 2.331598 0.091820 -0.046008 72883.800000 0 0 1
-6.312039 23.391281 -24.046020 34.135098 -1.307228 2.352426 0.078780 -0.043709 -15094.900000 0 0 1
-6.428139 22.863881 -25.334900 34.726577 -1.296723 2.388465 0.078278 -0.041303 -94123.300000 0 0 1
-7.426439 21.892781 -25.395370 34.341967 -1.243758 2.403101 0.062109 -0.041361 -846375.000000 0 0 1
-7.225839 21.095281 -26.725210 34.806041 -1.240789 2.446247 0.053682 -0.032236 696653.000000 0 0 1
-6.099639 20.221081 -26.981620 34.265223 -1.277829 2.477432 0.074736 -0.045831 288068.000000 0 0 1
-6.033839 19.134981 -26.113770 32.931500 -1.265335 2.486469 0.065554 -0.041883 -749376.000000 0 0 1
-4.762739 18.366281 -26.386100 32.499696 -1.317066 2.518174 0.087603 -0.050357 -522730.000000 0 0 1
-4.827739 17.516381 -27.505680 32.965028 -1.301860 2.557821 0.080779 -0.049315 -1296960.000000 0 0 1
-3.685639 16.778081 -27.683960 32.580509 -1.354561 2.586230 0.089219 -0.052835 -949538.000000 0 0 1
-3.371339 16.366981 -29.131070 33.583675 -1.367653 2.620785 0.087553 -0.048626 -124565.000000 0 0 1
-2.781939 17.467781 -29.765370 34.624266 -1.412862 2.605416 0.092247 -0.052152 -251896.000000 0 0 1
-2.221039 17.190481 -30.986910 35.505411 -1.442306 2.631579 0.085484 -0.056369 -394982.000000 0 0 1
-1.482639 18.408481 -31.526330 36.537376 -1.490429 2.611681 0.092546 -0.044273 -215676.000000 0 0 1
-0.278739 18.695281 -30.850210 36.073906 -1.555888 2.596723 0.117217 -0.050349 -131247.000000 0 0 1
0.488961 19.675081 -31.547530 37.183256 1.545950 2.583816 0.127581 -0.036648 372768.000000 0 0 1
0.513761 21.091581 -30.823800 37.352716 1.546443 2.541369 0.114209 -0.041997 191880.000000 0 0 1
1.326061 21.134381 -29.648810 36.434495 1.508134 2.521383 0.141242 -0.064365 -319461.000000 0 0 1
1.037061 22.163881 -28.787200 36.345784 1.524040 2.484935 0.136595 -0.070395 -606711.000000 0 0 1
2.088161 22.371281 -27.735040 35.694076 1.477725 2.460715 0.151923 -0.065496 -399436.000000 0 0 1
3.305561 22.791281 -28.317340 36.499876 1.426764 2.458810 0.132196 -0.066705 -957750.000000 0 0 1
4.335561 22.752481 -27.392980 35.872661 1.382500 2.439693 0.126503 -0.065684 -429016.000000 0 0 1
4.981861 24.143881 -27.196130 36.706613 1.367312 2.405214 0.128585 -0.062231 -193687.000000 0 0 1
5.674461 24.636381 -28.332280 37.971948 1.344416 2.413037 0.114645 -0.060739 97596.800000 0 0 1
5.970461 26.015681 -28.224970 38.847278 1.345208 2.384102 0.116666 -0.064971 -470913.000000 0 0 1
6.910161 26.523681 -29.314730 40.132398 1.315934 2.389778 0.125115 -0.056990 412558.000000 0 0 1
8.309561 26.293381 -29.126050 40.108820 1.264697 2.383539 0.104242 -0.046477 421756.000000 0 0 1
9.020161 27.167381 -29.947580 41.428100 1.250227 2.378759 0.105866 -0.042084 -344987.000000 0 0 1
10.522761 27.210981 -29.640710 41.590115 1.201799 2.364117 0.095783 -0.041949 123439.000000 0 0 1
11.314661 28.068181 -30.458540 42.936779 1.187609 2.359416 0.088105 -0.041092 287497.000000 0 0 1
12.615361 28.238681 -29.931020 43.039939 1.150656 2.339807 0.087020 -0.037132 442029.000000 0 0 1
13.554861 29.268681 -30.659070 44.501332 1.137087 2.330832 0.099898 -0.038269 431172.000000 0 0 1
13.044461 30.655681 -30.642790 45.264879 1.168489 2.314429 0.099047 -0.039098 286801.000000 0 0 1
13.805561 31.467381 -31.486620 46.606832 1.157357 2.312547 0.130024 -0.046052 -231426.000000 0 0 1
13.242361 32.882981 -31.680480 47.542648 1.187954 2.300112 0.130671 -0.053451 464389.000000 0 0 1
12.106761 32.940681 -32.536200 47.856728 1.218589 2.318377 0.110154 -0.051306 -74791.900000 0 0 1
11.012861 33.677881 -32.085510 47.801284 1.254751 2.306659 0.105818 -0.042410 -280626.000000 0 0 1
9.983661 33.803281 -33.225750 48.438474 1.283615 2.326687 0.083566 -0.031586 -395234.000000 0 0 1
10.398161 -33.429170 33.834568 48.686847 -1.269233 0.802456 0.061735 -0.017108 197850.000000 0 0 1
9.464861 -33.391170 32.755860 47.723162 -1.294588 0.814307 0.059929 -0.020676 217055.000000 0 0 1
9.771161 -32.331670 31.723267 46.337653 -1.277307 0.816726 0.068130 -0.021694 -119702.000000 0 0 1
9.274361 -31.061170 31.898757 45.479014 -1.280639 0.793443 0.058746 -0.026415 -254962.000000 0 0 1
9.680961 -30.262670 30.829637 44.272076 -1.261186 0.800473 0.090551 -0.025433 -111589.000000 0 0 1
9.121661 -28.796870 30.866077 43.187719 -1.264036 0.774607 0.081452 -0.031593 584436.000000 0 0 1
7.729661 -28.522970 30.797657 42.682586 -1.306155 0.764757 0.060361 -0.023269 130675.000000 0 0 1
6.978861 -28.696570 31.982587 43.532556 -1.332233 0.745598 0.051829 -0.009935 -328466.000000 0 0 1
5.463661 -28.642170 31.741587 43.101668 -1.382305 0.743011 0.055192 -0.010683 -468053.000000 0 0 1
4.828061 -29.690770 31.085007 43.256556 -1.409596 0.768981 0.052120 -0.013895 -273177.000000 0 0 1
5.107661 -29.917470 29.718737 42.477600 -1.401702 0.795912 0.054127 -0.020439 -373580.000000 0 0 1
4.478361 -28.839170 28.754367 40.970319 -1.416739 0.792827 0.039707 -0.020384 -321404.000000 0 0 1
3.084561 -28.959570 28.629527 40.838964 -1.464684 0.793949 0.058659 -0.022374 -209716.000000 0 0 1
2.607161 -28.210170 27.534217 39.506253 -1.478639 0.799649 0.064285 -0.034376 1092540.000000 0 0 1
1.146661 -28.707570 27.146287 39.526703 -1.530875 0.813742 0.055340 -0.026624 1135510.000000 0 0 1
1.191861 -29.960970 26.491187 40.010789 -1.531037 0.847177 0.062256 -0.027719 76511.900000 0 0 1
0.830361 -31.006370 27.374447 41.369612 -1.544022 0.847707 0.087885 -0.031372 -281841.000000 0 0 1
1.328861 -32.414670 26.941197 42.169951 -1.529824 0.877765 0.086838 -0.033579 561156.000000 0 0 1
2.741161 -32.615670 26.881707 42.354717 -1.486949 0.883202 0.063803 -0.027206 696755.000000 0 0 1
3.314661 -32.298270 25.586287 41.337916 -1.468528 0.903386 0.061515 -0.037252 304181.000000 0 0 1
4.797861 -31.860170 25.681007 41.201990 -1.421328 0.897847 0.070048 -0.016282 316480.000000 0 0 1
5.409761 -31.642570 24.418117 40.333140 -1.401469 0.920514 0.073362 -0.040220 433683.000000 0 0 1
6.816961 -31.526870 24.601827 40.566789 -1.357848 0.919205 0.071344 -0.040582 80893.800000 0 0 1
7.644561 -31.135670 23.363087 39.669926 -1.330035 0.941053 0.069818 -0.037372 -550987.000000 0 0 1
8.998261 -31.092170 23.703127 40.118947 -1.289087 0.938720 0.068205 -0.030006 -566444.000000 0 0 1
9.836861 -30.995670 22.575477 39.587214 -1.263488 0.963959 0.059805 -0.031678 706938.000000 0 0 1
11.007161 -29.945070 22.687377 39.148204 -1.218548 0.952650 0.055410 -0.023965 1114340.000000 0 0 1
12.177861 -30.341670 23.413027 40.213021 -1.189120 0.949334 0.058795 -0.021702 143763.000000 0 0 1
13.092761 -29.301870 23.428767 39.735715 -1.150587 0.940214 0.071041 -0.011699 117888.000000 0 0 1
14.398361 -29.520870 24.258537 40.832232 -1.117009 0.934647 0.091961 -0.014951 280046.000000 0 0 1
14.176861 -29.478570 25.636317 41.559478 -1.122528 0.906051 0.071676 -0.015130 133769.000000 0 0 1
15.263761 -28.884570 26.306287 41.944266 -1.084656 0.892879 0.075060 -0.008817 -198269.000000 0 0 1
-10.861239 -14.165719 26.247757 31.742383 0.916676 0.597225 0.088030 -0.037181 686499.000000 0 0 1
-9.515139 -14.306319 25.780557 30.981377 0.983879 0.587858 0.084015 -0.035189 116399.000000 0 0 1
-8.621739 -14.647519 26.791007 31.727626 1.038791 0.565340 0.106657 -0.044466 291985.000000 0 0 1
-7.128739 -14.478219 26.377127 30.922331 1.113266 0.549066 0.104445 -0.035727 111369.000000 0 0 1
-6.694739 -15.464619 25.461337 30.532829 1.162248 0.584659 0.101928 -0.034048 -19308.800000 0 0 1
-6.903739 -15.079719 24.058467 29.221043 1.141462 0.603549 0.100474 -0.034083 -388832.000000 0 0 1
-6.407739 -16.091819 23.048477 28.831199 1.191844 0.644453 0.102657 -0.043097 37624.400000 0 0 1
-7.074739 -17.368019 22.940477 29.630483 1.183976 0.685316 0.113850 -0.044254 -151906.000000 0 0 1
-7.248739 -18.098619 24.163487 31.048000 1.189847 0.678903 0.114544 -0.038279 -312333.000000 0 0 1
-7.967039 -19.427719 23.972287 31.868174 1.181625 0.719352 0.106868 -0.037420 671165.000000 0 0 1
-9.358339 -19.388919 23.644717 31.977826 1.121113 0.738603 0.080361 -0.033032 600604.000000 0 0 1
-9.984639 -20.644519 23.461257 32.807313 1.120317 0.773997 0.064953 -0.021242 398015.000000 0 0 1
-11.530939 -20.697019 23.568687 33.418740 1.062495 0.788016 0.042097 -0.010520 243492.000000 0 0 1
-11.816339 -20.909719 24.930057 34.617192 1.056425 0.766758 0.044385 -0.014184 1262480.000000 0 0 1
-13.262939 -20.860419 25.106837 35.233732 1.004472 0.777628 0.056666 -0.012084 1370980.000000 0 0 1
-13.611039 -20.721319 26.662437 36.407678 0.989613 0.749059 0.061553 -0.012853 -170252.000000 0 0 1
-13.579139 -21.905919 27.478517 37.674012 1.015884 0.753387 0.066228 -0.007079 234617.000000 0 0 1
-12.421039 -21.956519 28.317407 37.924220 1.055971 0.727733 0.080638 -0.013875 416513.000000 0 0 1
-12.134039 -23.325319 29.045067 39.178072 1.091113 0.735701 0.068172 -0.012526 -220894.000000 0 0 1
-13.145439 -23.835519 29.864607 40.408282 1.066797 0.739105 0.073176 -0.002845 -94579.000000 0 0 1
-12.672639 -25.036719 30.464837 41.419070 1.102231 0.744352 0.066504 0.007101 264600.000000 0 0 1
-13.798139 -25.522069 31.386287 42.741826 1.075171 0.746128 0.063019 -0.018345 156601.000000 0 0 1
-13.787239 -24.911519 32.641134 43.314147 1.065309 0.717289 0.088032 -0.023946 -188331.000000 0 0 1
-14.930639 -25.277069 33.369546 44.445256 1.037259 0.721522 0.088630 -0.024461 -257355.000000 0 0 1
-15.011439 -24.716319 -33.196770 44.025734 1.024990 2.424974 0.086593 -0.027608 -19670.600000 0 0 1
-15.151439 -23.303419 -32.964440 43.119251 0.994294 2.441053 0.097892 -0.035858 76923.000000 0 0 1
-16.265139 -22.670319 -33.563390 43.646298 0.948445 2.448050 0.100134 -0.036443 -329604.000000 0 0 1
-16.262839 -21.147519 -33.290780 42.661148 0.915234 2.466027 0.091420 -0.039563 44473.200000 0 0 1
-16.428039 -20.861419 -31.939770 41.535866 0.903734 2.448022 0.084099 -0.041374 238984.000000 0 0 1
-16.499739 -19.493219 -31.737910 40.737230 0.868376 2.464007 0.065898 -0.041836 -166633.000000 0 0 1
-16.594439 -19.097119 -30.284540 39.461738 0.855403 2.445636 0.069593 -0.038447 153378.000000 0 0 1
-17.814339 -19.518719 -29.688010 39.745554 0.831020 2.414262 0.069592 -0.036950 394106.000000 0 0 1
-17.797939 -19.288319 -28.295800 38.593500 0.825563 2.393776 0.065852 -0.032113 -250869.000000 0 0 1
-16.895339 -20.127519 -27.393350 37.960047 0.872480 2.376960 0.064706 -0.027681 275373.000000 0 0 1
-15.496239 -19.949119 -27.577830 37.398362 0.910370 2.400020 0.063516 -0.033360 208441.000000 0 0 1
-14.776339 -21.032419 -27.043700 37.310382 0.958361 2.381585 0.065207 -0.025277 -555642.000000 0 0 1
-13.293139 -21.024119 -27.353500 36.972086 1.006979 2.403632 0.090895 -0.026135 -871718.000000 0 0 1
-12.494839 -20.129419 -26.602100 35.622833 1.015277 2.413990 0.088793 -0.032151 1144750.000000 0 0 1
-11.078139 -20.268919 -26.804890 35.384409 1.070600 2.430323 0.076037 -0.040313 969071.000000 0 0 1
-10.344839 -21.373119 -26.015560 35.222653 1.120021 2.401792 0.089544 -0.034001 -634961.000000 0 0 1
-10.583339 -22.735519 -26.420070 36.427064 1.135129 2.382247 0.083509 -0.034615 215271.000000 0 0 1
-10.098039 -23.649819 -25.444160 36.175816 1.167248 2.350892 0.114915 -0.032147 -138426.000000 0 0 1
-10.241439 -25.149619 -25.749300 37.422144 1.184081 2.329631 0.108802 -0.029479 -642367.000000 0 0 1
-9.405339 -25.556949 -26.780990 38.194757 1.218164 2.347832 0.113736 -0.038801 -114220.000000 0 0 1
-9.689539 -26.842149 -27.282940 39.480970 1.224371 2.333724 0.105689 -0.033070 -278586.000000 0 0 1
-9.506539 -28.116419 -26.398210 39.721189 1.244750 2.297738 0.132111 -0.023472 -518609.000000 0 0 1
-10.478539 -28.387259 -25.431310 39.527052 1.217183 2.269715 0.110796 -0.022044 -349623.000000 0 0 1
-10.220539 -29.501129 -24.664120 39.788125 1.237291 2.239394 0.133220 -0.022320 -460720.000000 0 0 1
-11.084039 -29.671369 -23.409720 39.386052 1.213289 2.207273 0.133736 -0.021546 -315828.000000 0 0 1
-10.920439 -28.618569 -22.431320 37.966335 1.206264 2.202873 0.122466 -0.024568 -118768.000000 0 0 1
-11.520139 -27.393679 -22.744920 37.422703 1.172709 2.224063 0.112331 -0.022156 -419385.000000 0 0 1
-11.431839 -26.185349 -21.839320 35.962694 1.159163 2.223425 0.125875 -0.011373 53798.100000 0 0 1
-12.133739 -26.470159 -20.624220 35.682705 1.140985 2.187059 0.108092 -0.009757 350330.000000 0 0 1
-12.420939 -25.288599 -19.900520 34.493821 1.114240 2.185761 0.095011 -0.001713 -66428.600000 0 0 1
-13.077939 -25.604219 -18.540820 34.210679 1.098568 2.143564 0.113526 -0.011026 235066.000000 0 0 1
-14.425439 -26.044499 -18.651920 35.132654 1.064982 2.130458 0.134635 -0.016265 147748.000000 0 0 1
-14.858839 -26.321439 -17.344620 34.848804 1.056878 2.091754 0.131359 -0.018851 -20260.000000 0 0 1
-16.388139 -26.523319 -17.247320 35.630431 1.017336 2.076087 0.133088 -0.027941 -730205.000000 0 0 1
-17.188139 -25.380399 -17.581820 35.337193 0.975522 2.091562 0.123267 -0.017188 544669.000000 0 0 1
-18.453839 -25.460739 -16.924520 35.710402 0.943622 2.064554 0.118111 -0.016900 550748.000000 0 0 1
-19.524639 -26.295459 -17.685220 37.221361 0.932106 2.065915 0.099930 -0.014964 -900325.000000 0 0 1
-19.194639 -27.686969 -17.796820 38.101565 0.964599 2.056792 0.100178 -0.024785 113640.000000 0 0 1
-19.722839 -28.477739 -16.709920 38.460284 0.965074 2.020248 0.108825 -0.028546 -47472.700000 0 0 1
-21.227739 -28.804659 -16.633120 39.458662 0.935696 2.005931 0.098320 -0.020154 -285106.000000 0 0 1
-21.699539 -29.654479 -17.608720 40.747088 0.939081 2.017668 0.092031 -0.018991 416199.000000 0 0 1
-23.050139 -30.096259 -17.416420 41.718406 0.917209 2.001462 0.094221 -0.014408 700034.000000 0 0 1
-23.444439 -31.110289 -18.478420 43.115471 0.925001 2.013717 0.072383 -0.018380 114511.000000 0 0 1
-22.722439 -32.358189 -18.405520 43.613356 0.958585 2.006464 0.070755 -0.019960 313368.000000 0 0 1
-23.049439 -33.180879 -19.472620 44.848972 0.963663 2.019926 0.057570 -0.008679 -104261.000000 0 0 1
-22.398539 33.555186 -19.478520 44.800199 -0.982208 2.020597 0.056955 -0.013092 -126018.000000 0 0 1
-23.057139 32.611166 -18.652620 44.079928 -0.955366 2.007720 0.052156 -0.010138 10320.300000 0 0 1
-22.201139 31.554311 -18.282720 42.694531 -0.957668 2.013320 0.046523 -0.016612 -332037.000000 0 0 1
-22.890239 30.342911 -17.739720 41.944642 -0.924495 2.007475 0.054047 -0.025437 44789.600000 0 0 1
-23.651839 30.350891 -16.520120 41.874819 -0.908818 1.976333 0.042755 -0.023604 374649.000000 0 0 1
-24.399839 29.134981 -16.331620 41.363282 -0.873618 1.976683 0.041969 -0.017368 332554.000000 0 0 1
-23.620839 27.771731 -16.067220 39.841795 -0.865992 1.985890 0.041906 -0.022980 23758.100000 0 0 1
-22.932039 27.340841 -17.212120 39.618898 -0.872872 2.020215 0.038030 -0.026506 -158834.000000 0 0 1
-22.360339 26.085601 -16.998320 38.332574 -0.862142 2.030233 0.041844 -0.027458 -411175.000000 0 0 1
-21.834139 25.537281 -18.309420 38.263785 -0.863412 2.069748 0.049004 -0.027455 -1243910.000000 0 0 1
-21.387139 24.200871 -18.226020 37.084764 -0.847041 2.084572 0.053949 -0.033400 286668.000000 0 0 1
-20.624539 23.732921 -19.342420 36.915476 -0.855360 2.122296 0.044949 -0.027257 313710.000000 0 0 1
-19.190439 24.322211 -19.330620 36.517335 -0.902793 2.128636 0.041512 -0.035889 -1528670.000000 0 0 1
-18.362639 23.720591 -18.374220 35.177620 -0.912035 2.120374 0.063940 -0.036583 -50170.900000 0 0 1
-17.100639 24.359551 -18.362920 34.971652 -0.958723 2.123606 0.084023 -0.045356 -147365.000000 0 0 1
-16.940739 25.664591 -17.502020 35.383338 -0.987366 2.088217 0.077214 -0.043271 -619881.000000 0 0 1
-17.659439 26.728331 -18.077020 36.783667 -0.986935 2.084540 0.054433 -0.037163 -54709.200000 0 0 1
-17.626239 27.932301 -17.330220 37.299253 -1.007870 2.054009 0.069703 -0.040675 -969603.000000 0 0 1
-18.955239 28.651151 -17.453820 38.533432 -0.986318 2.040871 0.057214 -0.033063 -467640.000000 0 0 1
-19.295539 29.393601 -18.612120 39.783321 -0.989898 2.057638 0.059031 -0.035836 249695.000000 0 0 1
-19.612239 28.569811 -19.764720 39.893837 -0.969211 2.089129 0.053043 -0.031185 -347594.000000 0 0 1
-19.660039 29.288491 -21.065720 41.086463 -0.979624 2.109143 0.054632 -0.036113 457407.000000 0 0 1
-20.742539 30.220581 -21.180320 42.333703 -0.969276 2.094763 0.053559 -0.030980 481331.000000 0 0 1
-21.109939 30.359031 -22.529020 43.299620 -0.963203 2.118005 0.055353 -0.029503 -134127.000000 0 0 1
-21.648139 31.748321 -22.792220 44.677546 -0.972344 2.106155 0.048826 -0.022277 -341083.000000 0 0 1
-20.670539 32.752809 -22.684320 44.884252 -1.007817 2.100637 0.044101 -0.018812 -182856.000000 0 0 1
-20.802639 33.798995 -23.620220 46.184810 -1.019071 2.107642 0.041140 -0.008295 149685.000000 0 0 1
-19.751739 -33.139629 -23.595220 45.222789 1.033312 2.119703 0.064629 -0.007182 343211.000000 0 0 1
-19.590639 -32.189359 -22.530820 43.904281 1.024073 2.109683 0.063133 -0.013120 -41631.300000 0 0 1
-19.242939 -32.764629 -21.332320 43.576135 1.039761 2.082360 0.071939 -0.022372 -347244.000000 0 0 1
-19.105439 -31.698129 -20.210820 42.169497 1.028371 2.070626 0.092960 -0.030161 -561463.000000 0 0 1
-17.921439 -30.987799 -20.343420 41.173735 1.046457 2.087581 0.095415 -0.027508 -358047.000000 0 0 1
-17.751039 -30.002419 -19.340020 39.865786 1.036536 2.077306 0.100676 -0.030856 -455404.000000 0 0 1
-16.440139 -29.230079 -19.468920 38.777759 1.058453 2.096780 0.114282 -0.024112 -309129.000000 0 0 1
-15.272539 -29.959699 -19.194720 38.720425 1.099364 2.089467 0.119787 -0.030851 -24721.500000 0 0 1
-14.144639 -29.218199 -19.619020 37.929935 1.119946 2.114424 0.110453 -0.028620 -324865.000000 0 0 1
-12.787039 -29.919689 -19.770120 38.073007 1.166913 2.116791 0.137287 -0.037170 -77687.700000 0 0 1
-12.162939 -30.355309 -18.602120 37.622078 1.189699 2.087995 0.135424 -0.041470 72110.400000 0 0 1
-11.498339 -29.393539 -17.798120 36.234859 1.197911 2.084249 0.121248 -0.033952 -411822.000000 0 0 1
-10.626839 -30.054189 -16.703420 35.988724 1.230928 2.053448 0.118633 -0.021348 -117360.000000 0 0 1
-11.294939 -30.817269 -15.703720 36.385252 1.219487 2.017057 0.138786 -0.034380 -214593.000000 0 0 1
-11.884339 -32.023399 -16.054920 37.742497 1.215437 2.010179 0.140975 -0.038790 -86122.700000 0 0 1
-12.940839 -32.521109 -15.040120 38.095841 1.192083 1.976643 0.143483 -0.045766 -361749.000000 0 0 1
-12.422439 -32.939399 -13.786220 37.807154 1.210159 1.944049 0.130780 -0.042192 612226.000000 0 0 1
-13.464839 -33.455019 -12.925020 38.309220 1.188157 1.914936 0.129376 -0.040129 341347.000000 0 0 1
-12.955439 -33.994659 -11.529220 38.162851 1.206687 1.877697 0.110404 -0.032769 30266.100000 0 0 1
-12.269839 -32.923619 -10.925220 36.795028 1.214065 1.872263 0.087788 -0.028128 -27922.500000 0 0 1
-11.761839 -33.392349 -9.696020 36.706984 1.232135 1.838115 0.099086 -0.033070 -400283.000000 0 0 1
-10.457639 -32.729539 -9.234520 35.578945 1.261532 1.833353 0.084370 -0.041162 44803.600000 0 0 1
-9.336139 -33.219179 -9.938620 35.908962 1.296817 1.851230 0.066938 -0.035745 -179818.000000 0 0 1
-8.114439 -32.620019 -9.576920 34.951784 1.326988 1.848350 0.052664 -0.042541 -591240.000000 0 0 1
-6.868839 -33.294469 -10.075420 35.457252 1.367345 1.858923 0.045415 -0.042353 -581094.000000 0 0 1
-6.567439 33.600943 -9.475020 35.523663 -1.377776 1.840789 0.035708 -0.023233 -662823.000000 0 0 1
-5.374839 33.120828 -9.998420 35.012092 -1.409919 1.860398 0.035946 -0.015677 -286818.000000 0 0 1
-4.527139 32.198054 -9.091020 33.761758 -1.431109 1.843431 0.037275 -0.020391 72145.600000 0 0 1
-4.041239 32.765857 -7.924920 33.951986 -1.448079 1.806385 0.053000 -0.026685 -546861.000000 0 0 1
-3.314839 31.868931 -7.177020 32.834837 -1.467154 1.791155 0.049436 -0.031792 -240930.000000 0 0 1
-2.986739 32.349227 -5.771720 32.995543 -1.478729 1.746625 0.060793 -0.026901 -760999.000000 0 0 1
-1.963539 33.288566 -5.852520 33.856109 -1.511879 1.744534 0.053000 -0.022257 -656470.000000 0 0 1
-1.488739 33.813646 -4.674620 34.167691 -1.526797 1.708041 0.054778 -0.023086 -445486.000000 0 0 1
-0.559339 32.956272 -3.842520 33.184239 -1.553826 1.686850 0.064636 -0.030574 417381.000000 0 0 1
0.809061 32.951131 -4.346420 33.246398 1.546248 1.701905 0.061472 -0.027560 1266820.000000 0 0 1
1.675461 32.246665 -3.467720 32.475832 1.518885 1.677779 0.060115 -0.030090 114024.000000 0 0 1
3.158861 32.317211 -3.863820 32.700300 1.473360 1.689232 0.055310 -0.021521 -330916.000000 0 0 1
3.788361 33.478291 -3.524420 33.875791 1.458117 1.675024 0.050456 -0.014162 -545123.000000 0 0 1
5.137961 33.518128 -3.922820 34.135789 1.418691 1.685969 0.065882 -0.006585 435348.000000 0 0 1
5.961561 -33.313709 -3.610620 34.034982 -1.393719 1.677082 0.068741 -0.005346 550039.000000 0 0 1
5.470561 -32.197599 -4.321020 32.943644 -1.402498 1.702339 0.066072 -0.008269 -174425.000000 0 0 1
6.307761 -31.142639 -3.978020 32.023062 -1.370956 1.695342 0.053917 -0.017145 21527.800000 0 0 1
6.033361 -29.918309 -4.859420 30.905026 -1.371804 1.728689 0.048935 -0.013065 340446.000000 0 0 1
6.923061 -29.826979 -5.985820 31.199479 -1.342727 1.763850 0.070951 -0.007714 185512.000000 0 0 1
6.621361 -28.674789 -6.801320 30.205031 -1.343862 1.797916 0.060351 -0.006722 128247.000000 0 0 1
7.015861 -27.265759 -6.190920 28.826575 -1.318946 1.787247 0.062757 -0.011435 238975.000000 0 0 1
6.260361 -26.893539 -5.050720 28.070703 -1.342086 1.751710 0.050801 -0.015160 -437231.000000 0 0 1
6.622061 -25.610419 -4.536720 26.838910 -1.317769 1.740647 0.048641 -0.013953 -197213.000000 0 0 1
5.736961 -25.015819 -3.432120 25.893694 -1.345361 1.703734 0.044893 -0.018897 -485656.000000 0 0 1
4.596561 -24.371019 -3.939920 25.111709 -1.384379 1.728343 0.026719 -0.023837 -346014.000000 0 0 1
3.873461 -23.866319 -2.802620 24.340493 -1.409901 1.686195 0.033057 -0.027501 -192563.000000 0 1 0
2.516761 -23.238519 -3.091620 23.577977 -1.462916 1.702298 0.044490 -0.027489 -560289.000000 0 1 0
1.507961 -24.136519 -3.447220 24.428034 -1.508401 1.712386 0.048561 -0.022115 -442838.000000 0 1 0
0.437761 -23.367319 -3.987620 23.709162 -1.552065 1.739789 0.028573 -0.020048 11029.800000 0 1 0
-15.819439 23.184781 18.093377 33.393996 -0.972035 0.998201 0.010050 -0.008727 -165214.000000 0 0 1
-16.053039 22.704581 19.402577 33.906607 -0.955361 0.961567 0.039500 -0.006945 184981.000000 0 0 1
-15.429639 23.553481 20.407077 34.774833 -0.990852 0.943652 0.047806 -0.009319 -478438.000000 0 0 1
-15.324939 22.833681 21.791177 35.086837 -0.979693 0.900697 0.066392 -0.015931 264706.000000 0 0 1
-14.250439 21.936181 22.132677 34.265528 -0.994680 0.868573 0.064826 -0.014247 1126630.000000 0 0 1
-12.889039 22.345681 22.039677 33.929399 -1.047609 0.863772 0.034268 -0.020112 457182.000000 0 0 1
-12.422339 23.375981 23.107947 35.138699 -1.082334 0.853140 0.060929 -0.007250 -558816.000000 0 0 1
-12.129439 22.717881 24.341637 35.436431 -1.080386 0.813568 0.049316 -0.003020 61344.200000 0 0 1
-11.993539 23.702181 25.369497 36.732135 -1.102352 0.808392 0.067383 -0.008845 161734.000000 0 0 1
-11.484139 23.102081 26.737487 37.154876 -1.109468 0.767538 0.066392 -0.009912 -379186.000000 0 0 1
-10.094039 23.010581 26.800597 36.737562 -1.157405 0.753184 0.028189 0.000687 -789806.000000 0 0 1
-9.730039 22.257081 27.908497 36.999128 -1.158666 0.716207 0.024317 -0.005984 1667070.000000 0 0 1
-8.138639 22.106981 28.096647 36.665755 -1.218046 0.697748 0.024909 -0.010994 2287690.000000 0 0 1
-7.294339 23.206181 28.476857 37.452177 -1.266247 0.706941 0.017096 -0.007356 278272.000000 0 0 1
-7.328239 24.398981 27.660447 37.604703 -1.279018 0.744306 0.020465 -0.001061 -1123510.000000 0 0 1
-6.264239 25.432981 28.009037 38.348186 -1.329299 0.751907 0.023856 -0.008550 -351012.000000 0 0 1
-4.987339 24.944781 27.657127 37.577018 -1.373463 0.743636 0.015311 -0.005729 -736214.000000 0 0 1
-4.011439 25.623681 28.376527 38.443360 -1.415505 0.740489 0.031049 -0.002165 -722310.000000 0 0 1
-2.600039 25.070881 28.231827 37.846338 -1.467458 0.728822 0.041770 -0.005607 -510736.000000 0 0 1
-2.016239 25.273581 26.984007 37.026419 -1.491188 0.754262 0.042443 -0.007227 -181177.000000 0 0 1
-0.710539 24.743381 26.868627 36.533038 -1.542088 0.744449 0.060635 0.002664 347100.000000 0 0 1
-0.157839 24.565581 25.464117 35.382395 -1.564371 0.767450 0.050167 -0.004253 -269551.000000 0 0 1
-0.703039 23.451681 24.799677 34.139414 -1.540827 0.757693 0.047041 0.001226 -267551.000000 0 0 1
-0.123639 23.277481 23.574377 33.130162 -1.565485 0.779068 0.047874 0.001813 -499971.000000 0 0 1
-0.428839 21.905681 22.937977 31.720554 -1.551222 0.762478 0.033840 -0.000335 305766.000000 0 0 1
0.273361 20.721881 23.398137 31.256101 1.557605 0.724857 0.050918 -0.000917 177503.000000 0 0 1
-0.054639 19.584781 22.541677 29.861243 -1.568006 0.715324 0.052127 -0.002466 -301119.000000 0 0 1
0.840061 18.371981 22.783077 29.279753 1.525103 0.679134 0.053545 0.003032 -708967.000000 0 0 1
2.093261 18.655181 22.243577 29.106257 1.459056 0.700966 0.046256 -0.000939 -662271.000000 0 0 1
2.970261 17.528381 22.323977 28.538159 1.402937 0.672527 0.033306 -0.002659 -410898.000000 0 0 1
4.360661 17.866381 21.821777 28.537920 1.331406 0.700284 0.040712 -0.003894 -873689.000000 0 0 1
5.170161 18.606581 22.707277 29.808653 1.299766 0.704759 0.039786 -0.002704 -741927.000000 0 0 1
6.326461 18.909081 21.962277 29.663429 1.247931 0.737157 0.051020 -0.008578 25854.400000 0 0 1
7.494261 19.542381 22.800377 30.950376 1.204605 0.742656 0.063304 -0.012426 63334.700000 0 0 1
7.184761 20.822681 23.385307 32.125961 1.238543 0.755505 0.055662 -0.004150 47693.400000 0 0 1
6.964561 21.842281 22.476477 32.105799 1.262131 0.795293 0.064663 -0.012934 -409093.000000 0 0 1
5.984061 22.866381 23.034877 33.004331 1.314839 0.798286 0.042142 -0.002447 -311164.000000 0 0 1
5.824461 24.108481 22.376277 33.404205 1.333745 0.836771 0.046143 -0.013825 -73097.200000 0 0 1
4.684261 24.816981 22.781077 34.011796 1.384239 0.836858 0.018719 -0.002350 -527305.000000 0 0 1
4.285661 26.129181 22.054477 34.460135 1.408226 0.876298 0.054288 -0.013316 40287.500000 0 0 1
3.788261 26.070681 20.702077 33.505332 1.426499 0.904760 0.063920 -0.019447 465772.000000 0 0 1
2.667761 25.220981 20.426077 32.564389 1.465413 0.892777 0.056522 -0.017190 -51042.200000 0 0 1
2.203561 25.429681 18.962577 31.797856 1.484359 0.931853 0.056951 -0.024561 -495509.000000 0 0 1
1.413061 26.591281 18.966177 32.692641 1.517706 0.951901 0.060058 -0.025768 144433.000000 0 0 1
0.760661 26.904481 17.732677 32.231623 1.542531 0.988236 0.068070 -0.023748 231518.000000 0 0 1
-0.256739 28.070681 17.945277 33.317593 -1.561650 1.002007 0.046654 -0.011634 3755.750000 0 0 1
0.270361 29.317581 18.354777 34.590338 1.561575 1.011449 0.068337 -0.013169 -720727.000000 0 0 1
-0.756139 30.189681 18.587877 35.461214 -1.545755 1.019050 0.048544 -0.001854 -807569.000000 0 0 1
-0.360539 31.558681 19.160477 36.921595 -1.559372 1.025174 0.048147 0.000881 -308207.000000 0 0 1
0.136961 31.455381 20.441877 37.514398 1.566442 0.994518 0.051920 -0.007279 -110171.000000 0 0 1
0.528861 32.748281 20.926077 38.866827 1.554648 1.002254 0.051668 -0.012791 35029.900000 0 0 1
1.389861 32.734281 22.185877 39.568649 1.528363 0.975573 0.056049 -0.023960 475984.000000 0 0 1
0.458961 32.489981 23.256257 39.958265 1.556671 0.949594 0.058951 -0.012898 852423.000000 0 0 1
1.087561 32.480181 24.525157 40.713981 1.537325 0.924321 0.065793 -0.017287 351504.000000 0 0 1
0.089361 32.245881 25.729957 41.253309 1.568025 0.897321 0.067453 -0.010250 477639.000000 0 0 1
-0.831939 33.317381 25.980627 42.257933 -1.545831 0.908650 0.069078 -0.004029 356391.000000 0 0 1
-1.627339 32.965881 27.132807 42.726885 -1.521472 0.882750 0.082629 -0.005640 -71597.500000 0 0 1
-1.148439 33.276681 28.585107 43.883536 -1.536298 0.861387 0.104538 -0.019715 -987768.000000 0 0 1
-0.123839 32.412181 28.924837 43.442041 -1.566976 0.842196 0.085738 -0.012464 -641780.000000 0 0 1
0.413161 32.697581 30.183687 44.501207 1.558161 0.825395 0.080918 -0.019454 -278660.000000 0 0 1
1.622561 31.758581 30.424967 44.010439 1.519750 0.807492 0.067251 -0.014971 239038.000000 0 0 1
2.862661 32.040481 29.780867 43.837053 1.481688 0.823915 0.043331 -0.007881 504107.000000 0 0 1
2.929461 31.651881 28.382157 42.614201 1.478507 0.841928 0.037033 -0.011917 -172126.000000 0 0 1
4.412861 31.361981 28.022467 42.288365 1.431007 0.846442 0.009497 -0.006148 404981.000000 0 0 1
4.922361 30.183681 28.700997 41.940809 1.409139 0.817124 0.014369 -0.011807 760964.000000 0 0 1
6.333461 30.087881 28.436627 41.881201 1.363327 0.824420 0.015911 -0.017765 1065690.000000 0 0 1
7.012461 28.991281 29.348087 41.844703 1.333473 0.793496 0.015258 -0.012014 40737.200000 0 0 1
7.046361 29.220081 30.788157 43.027606 1.334166 0.773393 0.027832 -0.015929 -87261.500000 0 0 1
7.561561 28.180081 31.517127 42.949079 1.308642 0.746860 0.023013 -0.013013 -314329.000000 0 0 1
7.514461 28.417581 33.050667 44.230901 1.312283 0.726912 0.050081 -0.038439 -377135.000000 0 0 1
6.177661 28.410381 33.511262 44.365729 1.356686 0.714622 0.061993 -0.039718 -119683.000000 0 0 1
6.038561 28.110481 -33.134700 43.869941 1.359197 2.426899 0.097772 -0.046221 -36927.100000 0 0 1
6.252461 26.573781 -32.812870 42.684231 1.339713 2.447658 0.099899 -0.044824 -116224.000000 0 0 1
7.610461 26.220081 -32.952850 42.793715 1.288305 2.449699 0.072199 -0.042105 -14981.000000 0 0 1
7.733261 24.811881 -32.819350 41.863379 1.268663 2.471821 0.094077 -0.042786 -353539.000000 0 0 1
9.150461 24.290981 -33.031920 42.010599 1.210534 2.475555 0.074370 -0.038100 -527583.000000 0 0 1
9.501861 24.029481 33.625755 42.407460 1.194240 0.655209 0.047048 -0.023735 569238.000000 0 0 1
10.688461 23.292981 33.312297 42.029933 1.140590 0.655759 0.065473 -0.038613 429906.000000 0 0 1
10.546061 21.797181 33.669829 41.472809 1.120171 0.623477 0.069092 -0.038978 -537580.000000 0 0 1
9.658661 21.102081 32.817903 40.194555 1.141548 0.615515 0.055079 -0.035981 -18830.000000 0 0 1
9.239261 19.793881 33.203657 39.744741 1.134081 0.581895 0.063268 -0.032891 -596309.000000 0 0 1
8.081861 19.734781 -33.878400 40.031538 1.182107 2.579784 0.098046 -0.039614 -1018830.000000 0 0 1
8.422261 20.226481 -32.616210 39.292012 1.176234 2.550079 0.099763 -0.036627 -833955.000000 0 0 1
7.334061 20.631481 -31.888620 38.682432 1.229249 2.539884 0.115747 -0.040966 -949523.000000 0 0 1
7.684961 21.120781 -30.498780 37.885638 1.221830 2.506509 0.129023 -0.053810 -202604.000000 0 0 1
8.055061 22.498881 -30.475940 38.728111 1.226994 2.476599 0.138791 -0.051436 65421.600000 0 0 1
8.470861 23.067281 -29.228080 38.185542 1.218860 2.442494 0.102024 -0.049100 973763.000000 0 0 1
10.027361 22.980681 -29.014350 38.346997 1.159361 2.428934 0.102742 -0.045500 948288.000000 0 0 1
10.572261 21.661681 -28.833080 37.581214 1.116744 2.445293 0.096862 -0.044753 -1178170.000000 0 0 1
11.941561 21.806481 -28.699660 37.970962 1.069786 2.427720 0.082553 -0.040549 -961145.000000 0 0 1
12.544961 20.397281 -28.755340 37.420512 1.019398 2.447193 0.084255 -0.045664 -348857.000000 0 0 1
12.626061 19.655281 -29.937400 37.973615 0.999800 2.478957 0.071097 -0.038812 706768.000000 0 0 1
11.346161 19.113881 -30.302270 37.580625 1.035090 2.508712 0.109786 -0.042010 502723.000000 0 0 1
11.369661 18.190381 -31.528600 38.134129 1.012170 2.544159 0.098099 -0.042145 -264089.000000 0 0 1
12.013061 16.943681 -31.229090 37.505440 0.954056 2.554681 0.094168 -0.032431 335974.000000 0 0 1
11.840861 15.961081 -32.229400 37.864183 0.932526 2.589034 0.077841 -0.021722 177709.000000 0 0 1
12.839561 16.058181 -33.441370 39.256143 0.896321 2.590353 0.056541 -0.003424 60702.300000 0 0 1
12.851061 17.332181 34.014657 40.280903 0.932785 0.565284 0.068636 -0.019113 -316921.000000 0 0 1
13.475561 17.612481 32.827503 39.616097 0.917692 0.594122 0.067382 -0.017423 -353456.000000 0 0 1
12.683361 17.120781 31.591417 38.105202 0.933198 0.593376 0.079985 -0.036695 -431337.000000 0 0 1
13.008661 17.715081 30.354097 37.475599 0.937402 0.626696 0.069928 -0.032454 161686.000000 0 0 1
12.113561 17.345981 29.304547 36.143850 0.961179 0.625321 0.071897 -0.038490 1030660.000000 0 0 1
10.627761 17.850081 29.334227 35.945397 1.033773 0.616205 0.068987 -0.037000 753497.000000 0 0 1
9.824361 16.954481 30.119427 35.932608 1.045620 0.576786 0.072640 -0.036344 952103.000000 0 0 1
8.446161 17.384981 30.167717 35.828289 1.118548 0.569801 0.077383 -0.031220 1220130.000000 0 0 1
7.602461 16.605381 31.209837 36.160614 1.141449 0.529442 0.091433 -0.033165 63063.200000 0 0 1
8.061761 16.781081 32.501847 37.456197 1.122945 0.520180 0.108421 -0.036108 -44994.900000 0 0 1
7.605061 15.708981 33.278116 37.577147 1.119932 0.483024 0.136179 -0.039241 -91973.100000 0 0 1
7.547561 15.978181 -33.250100 37.654178 1.129499 2.653095 0.145177 -0.043904 -580359.000000 0 0 1
6.565861 16.857881 -32.845620 37.498446 1.199389 2.638135 0.139011 -0.048646 -516667.000000 0 0 1
6.613961 17.005181 -31.440340 36.351281 1.199862 2.615754 0.138364 -0.052245 -594694.000000 0 0 1
5.562861 17.854281 -30.777030 36.013141 1.268759 2.595587 0.139569 -0.053961 -1352340.000000 0 0 1
5.551061 17.810981 -29.357050 34.783354 1.268672 2.575489 0.133464 -0.064057 264667.000000 0 0 1
4.709061 18.819181 -28.788060 34.714395 1.325604 2.548620 0.139647 -0.067362 641968.000000 0 0 1
3.190061 18.506981 -28.838220 34.414064 1.400103 2.564363 0.148127 -0.068441 -780737.000000 0 0 1
2.672961 17.596581 -27.860360 33.060309 1.420046 2.573100 0.158484 -0.065950 1515360.000000 0 0 1
1.227461 17.463881 -27.965670 32.993522 1.500626 2.582263 0.147157 -0.063610 1654070.000000 0 0 1
0.307661 18.632581 -27.535620 33.248731 1.554286 2.546632 0.136679 -0.068636 -494077.000000 0 0 1
0.118261 18.836681 -26.135590 32.216511 1.564518 2.517080 0.147063 -0.068692 -247684.000000 0 0 1
-0.661839 19.994881 -26.051290 32.846659 -1.537708 2.486708 0.144842 -0.063928 -273436.000000 0 0 1
-1.077839 20.208381 -24.583020 31.841251 -1.517511 2.452856 0.135454 -0.061362 491548.000000 0 0 1
-2.280439 19.576481 -24.132520 31.157945 -1.454830 2.456756 0.123608 -0.051509 424522.000000 0 0 1
-2.665839 19.949381 -22.813220 30.422484 -1.437953 2.418677 0.119443 -0.047196 141864.000000 0 0 1
-3.740539 19.015781 -22.207420 29.474753 -1.376569 2.424073 0.074919 -0.036953 1321270.000000 0 0 1
-5.103239 19.407981 -22.581220 30.209672 -1.313671 2.415061 0.063227 -0.032346 1680650.000000 0 0 1
-5.957139 18.393181 -21.934120 29.238711 -1.257580 2.419121 0.054480 -0.041507 783362.000000 0 0 1
-7.458539 18.790881 -21.942620 29.836313 -1.192945 2.397102 0.082261 -0.034197 518410.000000 0 0 1
-8.043839 19.752081 -21.009120 29.937120 -1.184064 2.348682 0.058340 -0.025780 318904.000000 0 0 1
-7.708439 21.083681 -21.281820 30.933113 -1.220282 2.329519 0.061214 -0.035668 -238022.000000 0 0 1
-8.156539 22.172981 -20.288020 31.141194 -1.218301 2.280336 0.062604 -0.037928 -473409.000000 0 0 1
-7.434139 22.127881 -19.113920 30.170374 -1.246681 2.256907 0.075018 -0.040401 -340674.000000 0 0 1
-7.557639 23.332581 -18.375520 30.646158 -1.257551 2.213801 0.094707 -0.042696 -468264.000000 0 0 1
-6.795039 23.496681 -17.059920 29.821258 -1.289285 2.179827 0.096755 -0.036772 -202233.000000 0 0 1
-5.422039 23.678681 -17.315120 29.831055 -1.345693 2.190065 0.092836 -0.039053 -580659.000000 0 0 1
-4.736239 23.904481 -16.105420 29.210284 -1.375198 2.154791 0.086973 -0.022421 -922980.000000 0 0 1
-3.262139 24.188581 -16.216620 29.303716 -1.436742 2.157235 0.080398 -0.014742 -762210.000000 0 0 1
-2.905839 25.456881 -16.701620 30.584977 -1.457141 2.148465 0.052328 -0.017378 -1160100.000000 0 0 1
-1.618039 25.453781 -17.186620 30.755372 -1.507314 2.163755 0.054324 -0.026139 -861537.000000 0 0 1
-1.083139 26.868681 -17.460420 32.061901 -1.530506 2.146690 0.027624 -0.039820 42639.400000 0 0 1
-1.880139 27.632581 -18.349320 33.223365 -1.502860 2.155919 0.039733 -0.041131 -1045.040000 0 0 1
-1.240439 28.875081 -18.566720 34.351595 -1.527864 2.141817 0.057378 -0.053165 -500733.000000 0 0 1
-2.142039 29.832981 -19.368020 35.633064 -1.499118 2.145446 0.107596 -0.056057 752649.000000 0 0 1
-3.280239 30.368081 -18.687020 35.807611 -1.463197 2.119841 0.074963 -0.050659 671462.000000 0 0 1
-4.411739 29.510981 -18.506320 35.111897 -1.422400 2.125942 0.038775 -0.057824 -338398.000000 0 0 1
-5.537439 30.085181 -17.663920 35.324148 -1.388775 2.094455 0.077035 -0.043935 -282303.000000 0 0 1
-6.182339 31.185581 -18.211320 36.638968 -1.375090 2.090990 0.111684 -0.041778 -43406.600000 0 0 1
-5.740139 32.440581 -17.668620 37.383427 -1.395666 2.063072 0.102821 -0.063907 -329336.000000 0 0 1
-6.404539 33.732881 -18.220220 38.870320 -1.383169 2.058664 0.102585 -0.042380 -84439.800000 0 0 1
-7.760139 33.723181 -17.806220 38.917016 -1.344621 2.046027 0.116844 -0.059600 108195.000000 0 0 1
-8.229639 -33.085570 -18.149420 38.623611 1.327006 2.059979 0.168074 -0.053526 -82195.000000 0 0 1
30.004661 -20.528219 -25.942880 44.662294 -0.600021 2.190590 0.054410 0.004587 342318.000000 0 0 1
29.387261 -21.819119 -25.866110 44.818977 -0.638664 2.185999 0.068573 -0.007337 -460897.000000 0 0 1
28.022161 -21.842819 -26.156200 44.119124 -0.662105 2.205395 0.064074 -0.003573 -423602.000000 0 0 1
27.439461 -23.174819 -25.642050 44.130613 -0.701339 2.190813 0.070170 -0.005891 -57984.100000 0 0 1
27.944661 -24.368619 -26.175630 45.386091 -0.717146 2.185520 0.053977 0.008908 -475721.000000 0 0 1
29.192461 -24.790319 -25.689250 46.116128 -0.704031 2.161633 0.059638 0.011543 -317300.000000 0 0 1
29.676661 -26.066539 -26.325380 47.467824 -0.720725 2.158672 0.056032 -0.004334 -241155.000000 0 0 1
29.396561 -27.278019 -25.608660 47.582051 -0.748035 2.139096 0.076855 -0.022511 -187181.000000 0 0 1
29.870561 -28.462899 -26.143710 48.845477 -0.761272 2.135580 0.063661 -0.018575 -74778.900000 0 0 1
28.844661 -29.087199 -27.106010 49.120418 -0.789585 2.155351 0.053638 -0.017864 -85972.400000 0 0 1
28.489161 -28.478919 -28.354090 49.260893 -0.785218 2.184122 0.039339 -0.019855 479612.000000 0 0 1
29.399661 -28.640589 -29.466090 50.525972 -0.772321 2.193443 0.016321 -0.018161 -104201.000000 0 0 1
29.628361 -30.096699 -30.015390 51.812882 -0.793240 2.188670 0.029137 -0.018013 -1284390.000000 0 0 1
30.244261 -31.076379 -29.217740 52.288938 -0.798967 2.163704 0.039767 -0.016936 640218.000000 0 0 1
31.620861 -30.933719 -28.851780 52.812868 -0.774414 2.148739 0.041095 -0.016794 495305.000000 0 0 1
32.634261 -30.627929 -29.958950 53.857253 -0.753694 2.160682 0.027151 -0.016028 -1453060.000000 0 0 1
32.640561 -29.270759 -30.244780 53.262842 -0.731022 2.174676 0.033127 -0.023378 -115564.000000 0 0 1
33.784761 -28.880579 -30.969610 54.172084 -0.707297 2.179360 0.030914 -0.013854 -304065.000000 0 0 1
33.614361 -27.504559 -31.653510 53.743565 -0.685763 2.200584 0.024420 -0.005533 26983.000000 0 0 1
33.446061 -26.352239 -30.798500 52.551186 -0.667321 2.196992 0.016671 0.001436 -683457.000000 0 0 1
32.229961 -26.368949 -30.132990 51.401255 -0.685711 2.197195 0.024725 0.000395 -986607.000000 0 0 1
32.019361 -25.054719 -29.324240 50.128729 -0.663970 2.195650 0.028342 0.000041 -116350.000000 0 0 1
32.944661 -24.850919 -28.275540 50.024245 -0.646262 2.171517 0.025435 0.006967 150771.000000 0 0 1
32.737061 -23.609619 -27.623560 48.910023 -0.624806 2.170967 0.018878 0.006173 140831.000000 0 0 1
33.808661 -23.342719 -26.524640 48.902604 -0.604278 2.144084 0.013294 0.000611 -81425.500000 0 0 1
33.572261 -24.059019 -25.332930 48.452972 -0.621803 2.120970 0.024027 -0.004756 551090.000000 0 0 1
32.639561 -23.510419 -24.377320 47.035460 -0.624223 2.115629 0.042759 -0.000999 217458.000000 0 0 1
33.070461 -22.243119 -23.628120 46.332492 -0.592098 2.105945 0.030818 0.006803 -316944.000000 0 0 1
33.407561 -21.072519 -24.361520 46.406895 -0.562738 2.123458 0.026465 0.000647 289751.000000 0 0 1
33.603361 -19.915419 -23.495320 45.583329 -0.535006 2.112313 0.009718 -0.004984 -110793.000000 0 0 1
33.732061 -18.603519 -24.213720 45.499968 -0.504001 2.131958 0.001019 -0.005512 -80113.300000 0 0 1
32.559861 -18.134919 -24.847620 44.793125 -0.508180 2.158822 0.007566 -0.007439 173640.000000 0 0 1
32.794361 -17.034419 -25.680230 45.001286 -0.479072 2.178100 0.003977 -0.013433 -169998.000000 0 0 1
31.881161 -16.994519 -26.942730 45.068091 -0.489743 2.211579 0.008922 -0.007776 136008.000000 0 0 1
30.567561 -16.621519 -26.587620 43.789865 -0.498042 2.223283 0.023351 -0.005802 -34076.600000 0 0 1
29.712661 -16.478219 -27.702760 43.838532 -0.506357 2.254834 0.037316 -0.004087 -118528.000000 0 0 1
28.342261 -15.883519 -27.324160 42.452087 -0.510807 2.270050 0.050697 -0.001298 1219650.000000 0 0 1
27.298661 -16.681819 -26.648840 41.637251 -0.548531 2.265326 0.049985 0.009292 1349350.000000 0 0 1
27.530761 -16.944119 -25.307840 41.055240 -0.551711 2.235002 0.066503 0.002924 -443271.000000 0 0 1
26.478261 -17.911519 -24.763920 40.437267 -0.594753 2.229894 0.077386 -0.002360 -123106.000000 0 0 1
26.409961 -17.759219 -23.374820 39.487443 -0.591992 2.204280 0.085980 0.003934 79890.400000 0 0 1
25.507761 -18.637519 -22.753420 38.932263 -0.631009 2.194981 0.097649 -0.000396 -172012.000000 0 0 1
25.489361 -18.384819 -21.236120 37.929961 -0.624862 2.165034 0.089214 -0.007896 -138790.000000 0 0 1
24.856561 -17.189919 -20.785820 36.679589 -0.605042 2.173275 0.091966 -0.012335 212497.000000 0 0 1
25.387661 -15.899919 -21.173420 36.683164 -0.559523 2.186089 0.093855 -0.007421 -190706.000000 0 0 1
26.690761 -15.355519 -20.598620 37.047157 -0.522069 2.160375 0.069726 -0.008946 -256971.000000 0 0 1
26.426961 -14.668019 -19.366720 35.897143 -0.506704 2.140646 0.070549 -0.018946 879072.000000 0 0 1
27.515161 -13.786519 -19.023420 36.180695 -0.464489 2.124439 0.048923 -0.017698 290304.000000 0 0 1
27.239761 -12.729919 -17.939720 35.012697 -0.437171 2.108747 0.058986 -0.019473 -348980.000000 0 0 1
27.317061 -13.246319 -16.600520 34.601504 -0.451503 2.071181 0.052192 -0.014991 183899.000000 0 0 1
27.375461 -12.181819 -15.694820 33.825138 -0.418680 2.053300 0.044222 -0.011905 -183690.000000 0 0 1
27.925861 -12.671019 -14.300420 33.836526 -0.425958 2.007145 0.057175 -0.012413 -331511.000000 0 0 1
27.316061 -13.702319 -13.555420 33.431574 -0.464944 1.988287 0.075950 -0.024192 111545.000000 0 0 1
27.972361 -14.008519 -12.337920 33.629093 -0.464286 1.946452 0.095868 -0.020915 138492.000000 0 0 1
27.232661 -15.233119 -11.713320 33.329681 -0.510008 1.929903 0.082176 -0.030927 323247.000000 0 0 1
25.912661 -14.927419 -11.285720 31.963437 -0.522636 1.931660 0.068712 -0.026340 260649.000000 0 0 1
25.305161 -16.210019 -11.162820 32.058142 -0.569726 1.926452 0.050603 -0.029963 373975.000000 0 0 1
23.812061 -16.242619 -10.692320 30.743498 -0.598623 1.926011 0.058863 -0.025156 344387.000000 0 0 1
23.654561 -15.838119 -9.338220 29.959750 -0.590002 1.887770 0.046822 -0.020048 -142172.000000 0 0 1
22.290561 -15.934119 -9.072120 28.862928 -0.620614 1.890534 0.047741 -0.016892 -695692.000000 0 0 1
22.030661 -15.512119 -7.559920 27.984429 -0.613482 1.844342 0.044424 -0.018361 -406840.000000 0 0 1
22.414561 -14.185319 -7.254820 27.500332 -0.564233 1.837765 0.051081 -0.006936 323447.000000 0 0 1
22.162761 -13.849219 -5.911820 26.794374 -0.558518 1.793263 0.056717 -0.008729 -203360.000000 0 0 1
22.994861 -14.569619 -4.791520 27.640479 -0.564762 1.745028 0.055947 -0.009950 -673441.000000 0 0 1
24.350261 -14.275119 -4.921320 28.651939 -0.530241 1.743415 0.052102 -0.009647 -296590.000000 0 0 1
25.100961 -14.932019 -3.911320 29.467302 -0.536645 1.703923 0.052323 -0.016594 869907.000000 0 0 1
26.659161 -14.736719 -4.079420 30.733100 -0.504977 1.703926 0.053224 -0.013636 868029.000000 0 0 1
27.043061 -13.478419 -3.523720 30.420578 -0.462371 1.686890 0.059561 -0.016741 321788.000000 0 0 1
28.304261 -13.079719 -4.044320 31.441482 -0.432880 1.699784 0.063911 -0.019754 189444.000000 0 0 1
28.918261 -11.861919 -3.328920 31.433305 -0.389258 1.676900 0.103077 -0.035426 -512923.000000 0 0 1
29.468961 -12.144219 -2.023720 31.937394 -0.390895 1.634204 0.120065 -0.041759 404909.000000 0 0 1
30.201161 -11.184419 -1.325820 32.232889 -0.354671 1.611940 0.126259 -0.040195 -207366.000000 0 0 1
31.597561 -10.786419 -1.827120 33.437869 -0.328965 1.625466 0.128708 -0.035625 -556169.000000 0 0 1
31.578961 -10.085719 -3.068320 33.292148 -0.309141 1.663091 0.128204 -0.035839 -518271.000000 0 0 1
32.708261 -10.360419 -3.811020 34.520899 -0.306754 1.681419 0.154922 -0.041404 -628835.000000 0 0 1
32.382261 -10.273719 -5.344920 34.390817 -0.307219 1.726846 0.145641 -0.035333 83861.400000 0 0 1
31.431761 -11.265719 -5.705820 33.873713 -0.344155 1.740047 0.120425 -0.031995 296115.000000 0 0 1
31.201161 -11.018719 -7.091420 33.840994 -0.339479 1.781912 0.117995 -0.027425 -119716.000000 0 0 1
29.906861 -11.741019 -7.517520 32.996742 -0.374099 1.800641 0.089280 -0.024519 -15686.400000 0 0 1
30.092461 -13.124419 -7.545820 33.685991 -0.411265 1.796718 0.086540 -0.023243 427216.000000 0 0 1
28.866261 -13.820019 -7.710320 32.919644 -0.446512 1.807209 0.079982 -0.019559 216562.000000 0 0 1
29.096961 -15.341719 -7.869820 33.822116 -0.485219 1.805631 0.079278 -0.018802 97271.500000 0 0 1
29.557161 -15.809319 -9.149420 34.745823 -0.491155 1.837263 0.097857 -0.029780 341857.000000 0 0 1
29.783161 -17.196119 -9.148220 35.586980 -0.523619 1.830782 0.095614 -0.027640 -309920.000000 0 0 1
30.087661 -17.774119 -10.487820 36.485354 -0.533586 1.862363 0.095525 -0.031661 393003.000000 0 0 1
31.348061 -17.341219 -11.029920 37.484369 -0.505284 1.869471 0.099430 -0.023657 1093790.000000 0 0 1
31.742361 -17.891419 -12.301920 38.457998 -0.513259 1.896398 0.092206 -0.014264 257761.000000 0 0 1
31.014361 -17.228019 -13.535420 37.972396 -0.507045 1.935266 0.086991 -0.019504 70020.200000 0 0 1
31.626161 -16.001619 -13.854420 38.055365 -0.468405 1.943419 0.080243 -0.016914 101870.000000 0 0 1
31.029161 -15.372919 -14.960220 37.721926 -0.459989 1.978598 0.076013 -0.025177 -1046680.000000 0 0 1
31.884561 -14.295919 -15.684920 38.301635 -0.421493 1.992714 0.062548 -0.015024 -269938.000000 0 0 1
32.922361 -14.712619 -16.518620 39.663684 -0.420263 2.000352 0.036749 -0.022245 -118083.000000 0 0 1
34.074361 -15.088919 -15.767020 40.464015 -0.416870 1.971054 0.054313 -0.019537 -681631.000000 0 0 1
35.224861 -15.131319 -16.827920 41.867966 -0.405730 1.984418 0.045665 -0.021624 -1248620.000000 0 0 1
36.456561 -15.243219 -16.251820 42.726552 -0.396029 1.960991 0.047615 -0.021365 -471265.000000 0 0 1
-36.244517 -15.413719 -17.231120 42.990223 0.402100 1.983202 0.046994 -0.019607 1682540.000000 0 0 1
-34.772817 -15.527919 -16.679720 41.574970 0.419984 1.983619 0.055302 -0.021272 522599.000000 0 0 1
-34.493817 -16.614119 -15.792120 41.415497 0.448864 1.962009 0.039805 -0.019382 229601.000000 0 0 1
-35.025317 -16.482919 -14.487420 41.332128 0.439852 1.928914 0.027362 -0.014751 -286988.000000 0 0 1
-34.305117 -17.496219 -13.483320 40.801454 0.471630 1.907589 0.024677 -0.009095 -746478.000000 0 0 1
-33.020417 -17.024019 -13.260620 39.446282 0.476018 1.913643 0.042340 -0.013241 -740464.000000 0 0 1
-32.454117 -17.568419 -12.109320 38.840117 0.496163 1.887855 0.047787 -0.003011 50572.000000 0 0 1
-31.208417 -16.835519 -11.569220 37.299421 0.494711 1.886170 0.091835 -0.012941 75602.700000 0 0 1
-31.571317 -15.566219 -11.106320 36.910778 0.458072 1.876429 0.074546 -0.030741 296697.000000 0 0 1
-30.587917 -15.024519 -10.222220 35.578794 0.456576 1.862216 0.120589 -0.050316 -350685.000000 0 0 1
-30.581217 -15.351919 -8.753920 35.320297 0.465250 1.821250 0.109564 -0.036554 -252619.000000 0 0 1
-30.417617 -16.724319 -8.480020 35.732968 0.502708 1.810399 0.075942 -0.024800 63862.600000 0 0 1
-30.523117 -17.062019 -7.119520 35.685581 0.509717 1.771651 0.121945 -0.027230 -53605.000000 0 0 1
-30.475417 -18.594219 -6.887320 36.358372 0.547841 1.761377 0.098114 -0.028808 170746.000000 0 0 1
-31.581617 -19.207419 -7.538220 37.724637 0.546415 1.771973 0.065483 -0.019433 156595.000000 0 0 1
-31.312517 -19.668019 -8.841720 38.019478 0.560840 1.805503 0.059706 -0.011265 -415684.000000 0 0 1
-32.491217 -20.375119 -9.496120 39.509504 0.560105 1.813523 0.048026 -0.007922 126885.000000 0 0 1
-33.661217 -19.572119 -9.719420 40.132437 0.526664 1.815412 0.034630 -0.011018 215174.000000 0 0 1
-34.723817 -20.452919 -9.909320 41.500120 0.532305 1.811904 0.020835 -0.008934 -338874.000000 0 0 1
-36.069817 -19.803119 -10.304620 42.419104 0.502092 1.816175 0.032170 -0.016771 121068.000000 0 0 1
-36.225617 -19.438619 -11.669020 42.735480 0.492496 1.847361 0.019806 -0.016527 1336400.000000 0 0 1
36.177861 -19.010719 -11.966720 42.584592 -0.483823 1.855643 0.065376 -0.028358 1228870.000000 0 0 1
35.909961 -18.702819 -13.437920 42.660268 -0.480169 1.891251 0.052850 -0.025910 -444830.000000 0 0 1
35.511561 -19.879819 -14.052620 43.055247 -0.510346 1.903274 0.037137 -0.022881 -56903.700000 0 0 1
35.066361 -19.583819 -15.358620 43.000731 -0.509330 1.936034 0.030489 -0.018578 -681992.000000 0 0 1
33.710661 -20.202319 -15.679220 42.312886 -0.539894 1.950402 0.046666 -0.023824 -1377050.000000 0 0 1
32.718061 -19.840719 -14.763320 41.013184 -0.545123 1.939027 0.066104 -0.025975 -246515.000000 0 0 1
31.547361 -20.604719 -14.979020 40.548261 -0.578577 1.949173 0.071388 -0.033127 258991.000000 0 0 1
30.570761 -20.227319 -16.121420 40.045175 -0.584525 1.985131 0.068086 -0.024112 -708663.000000 0 0 1
29.755661 -19.121319 -15.790520 38.734542 -0.571163 1.990686 0.061246 -0.018574 115106.000000 0 0 1
29.025261 -18.634419 -16.901520 38.410529 -0.570736 2.026421 0.058567 -0.019401 58456.000000 0 0 1
28.273761 -17.331819 -16.509320 37.045312 -0.549924 2.032699 0.063423 -0.007799 -942348.000000 0 0 1
27.073261 -17.540719 -15.858320 35.946135 -0.574896 2.027697 0.073159 -0.020487 -555460.000000 0 0 1
26.405761 -16.253919 -15.834520 34.816464 -0.551771 2.042944 0.058158 -0.021678 510676.000000 0 0 1
24.932061 -16.525019 -15.279520 33.587910 -0.585322 2.043069 0.048128 -0.020034 1663490.000000 0 0 1
24.006761 -17.134719 -16.224520 33.662416 -0.619892 2.073706 0.056141 -0.015188 786271.000000 0 0 1
23.663861 -16.341219 -17.357420 33.590085 -0.604359 2.113838 0.068194 -0.017637 -951023.000000 0 0 1
22.671661 -17.097219 -18.268920 33.764961 -0.646135 2.142495 0.074746 -0.016049 -426548.000000 0 0 1
21.445061 -17.231919 -17.597220 32.657187 -0.676894 2.139864 0.079394 -0.009668 -465319.000000 0 0 1
20.515161 -17.745819 -18.543120 32.857773 -0.713144 2.170436 0.078343 -0.022950 633504.000000 0 0 1
19.106261 -18.051719 -17.949920 31.829443 -0.757026 2.169946 0.081194 -0.019187 618821.000000 0 0 1
18.257461 -16.984919 -17.524120 30.478142 -0.749306 2.183368 0.089826 -0.019347 -254444.000000 0 0 1
16.953361 -17.460619 -17.513920 29.983780 -0.800137 2.194583 0.084905 -0.020234 -1557000.000000 0 0 1
15.912461 -16.498619 -17.110320 28.603739 -0.803481 2.212030 0.082669 -0.006525 -820183.000000 0 0 1
15.361761 -15.640419 -18.114820 28.438585 -0.794386 2.261371 0.072381 0.001247 341144.000000 0 0 1
14.200561 -14.953019 -17.677920 27.161693 -0.811203 2.279487 0.067732 0.003140 20360.200000 0 0 1
13.350761 -14.556319 -18.894220 27.333511 -0.828570 2.334010 0.053839 -0.002069 -111863.000000 0 0 1
13.593261 -13.247719 -19.416920 27.153188 -0.772525 2.367546 0.060664 -0.015663 31420.200000 0 0 1
12.930661 -13.065019 -20.662020 27.655303 -0.790567 2.414525 0.049771 -0.002974 80535.200000 0 0 1
13.064661 -11.682419 -21.309020 27.590553 -0.729601 2.453298 0.064384 -0.005542 -412805.000000 0 0 1
14.363961 -11.319019 -21.737420 28.407024 -0.667390 2.442168 0.063019 -0.005583 -217023.000000 0 0 1
14.420561 -9.969219 -22.190320 28.279820 -0.604877 2.472960 0.059473 -0.009798 -39585.800000 0 0 1
15.675161 -9.397019 -22.890920 29.291788 -0.540041 2.467829 0.063365 -0.003292 32480.500000 0 0 1
16.018761 -9.985519 -24.118920 30.627334 -0.557422 2.477533 0.079944 -0.005587 131443.000000 0 0 1
17.340661 -9.693719 -24.514620 31.553658 -0.509739 2.460553 0.087702 -0.022772 -174005.000000 0 0 1
21.993661 5.400281 -7.026120 23.711822 0.240775 1.871626 0.107291 0.010806 -405257.000000 0 1 0
21.709761 6.719181 -7.345720 23.883482 0.300150 1.883429 0.103392 -0.001082 537464.000000 0 1 0
21.873361 7.506481 -6.220120 23.947465 0.330585 1.833550 0.120594 -0.003131 -294277.000000 0 1 0
21.577561 8.997281 -6.552520 24.279162 0.395053 1.844067 0.104076 0.006116 -86673.800000 0 1 0
20.216661 9.299381 -6.810620 23.271794 0.431127 1.867799 0.048045 -0.015000 584905.000000 0 1 0
19.916161 10.723581 -6.923920 23.655640 0.493922 1.867842 0.057828 -0.007883 103681.000000 0 1 0
19.599761 11.456881 -5.532220 23.366990 0.528976 1.809819 0.086768 -0.006149 218533.000000 0 1 0
20.732961 11.440081 -4.673920 24.136625 0.504211 1.765672 0.104932 -0.005664 612674.000000 0 1 0
20.523361 12.400981 -3.635420 24.253019 0.543529 1.721259 0.136384 -0.023283 -519803.000000 0 1 0
21.753061 12.397181 -2.781720 25.191739 0.517997 1.681444 0.128627 -0.036992 -1517420.000000 0 0 1
22.952061 12.818381 -3.355220 26.502179 0.509334 1.697739 0.122142 -0.040582 722721.000000 0 0 1
23.986561 13.054781 -2.375120 27.412107 0.498421 1.657550 0.133452 -0.040440 606463.000000 0 0 1
24.773861 11.831581 -1.797320 27.512921 0.445554 1.636169 0.111662 -0.040567 215023.000000 0 0 1
25.933461 11.354581 -2.514420 28.421703 0.412692 1.659380 0.085326 -0.032005 1027150.000000 0 0 1
26.672561 10.341181 -1.913620 28.671021 0.369866 1.637590 0.114824 -0.038106 -308882.000000 0 0 1
28.116961 10.076481 -2.337920 29.959386 0.344118 1.648912 0.109754 -0.036876 292793.000000 0 0 1
29.014761 11.164181 -2.016020 31.153806 0.367314 1.635553 0.092983 -0.037273 531405.000000 0 0 1
30.378061 10.800881 -2.025020 32.304587 0.341609 1.633523 0.103156 -0.031729 363631.000000 0 0 1
31.242761 12.026281 -1.511920 33.511602 0.367448 1.615928 0.073589 -0.026493 -408735.000000 0 0 1
31.257961 12.293781 -0.108120 33.588820 0.374718 1.574015 0.084121 -0.036700 -381449.000000 0 0 1
32.097261 13.306281 0.236480 34.746902 0.392996 1.563990 0.063031 -0.029095 -407152.000000 0 0 1
33.594361 12.869581 0.371780 35.977012 0.365842 1.560462 0.074006 -0.030491 -272983.000000 0 0 1
34.450661 13.950181 0.472780 37.170944 0.384751 1.558077 0.065545 -0.034155 -84193.300000 0 0 1
35.203761 14.245381 -0.722120 37.983643 0.384513 1.589809 0.084319 -0.031360 -72035.400000 0 0 1
34.642761 15.414581 -1.577320 37.950206 0.418653 1.612371 0.042224 -0.007603 805630.000000 0 0 1
33.394461 15.000581 -2.178620 36.673612 0.422183 1.630237 0.055629 -0.004517 544505.000000 0 0 1
32.863261 16.045281 -2.978920 36.692219 0.454198 1.652072 0.035121 0.012433 809933.000000 0 0 1
31.520861 15.605981 -3.687820 35.365397 0.459720 1.675264 0.040044 -0.007165 68316.800000 0 0 1
31.624361 14.544881 -4.612420 35.113077 0.431078 1.702536 0.041300 -0.007614 594517.000000 0 0 1
30.503061 14.264481 -5.469220 34.114872 0.437427 1.731809 0.041137 -0.019719 692601.000000 0 0 1
29.204861 13.728081 -4.807020 32.626547 0.439411 1.718669 0.058871 -0.026693 -205918.000000 0 0 1
28.224761 13.296581 -5.710020 31.718142 0.440258 1.751807 0.083285 -0.035966 370546.000000 0 0 1
26.997761 12.969981 -5.067720 30.377315 0.447853 1.738406 0.087181 -0.021960 17060.200000 0 0 1
25.858661 12.712681 -6.054820 29.443903 0.456923 1.777913 0.079167 -0.020835 -540109.000000 0 0 1
26.096561 11.654181 -6.977020 29.419878 0.420006 1.810231 0.078052 -0.020815 269569.000000 0 0 1
25.052261 11.492781 -7.921220 28.678311 0.430108 1.850644 0.093905 -0.023611 58396.700000 0 0 1
24.925361 12.626781 -8.953220 29.340575 0.468901 1.880890 0.094354 -0.018061 -60248.400000 0 0 1
24.112161 13.726481 -8.554920 29.034449 0.517522 1.869883 0.094934 -0.026166 203608.000000 0 0 1
24.010661 14.695081 -9.569920 29.732820 0.549213 1.898494 0.096522 -0.025453 -596256.000000 0 0 1
23.103961 15.948681 -9.194520 29.541371 0.604187 1.887296 0.091413 -0.026731 1022080.000000 0 0 1
21.705161 15.706381 -9.135520 28.306574 0.626406 1.899414 0.103800 -0.028512 493303.000000 0 0 1
21.182361 14.776381 -8.212320 27.101219 0.609100 1.878661 0.117972 -0.034095 -339724.000000 0 0 1
19.671161 14.406181 -8.363720 25.776820 0.632109 1.901244 0.138714 -0.025663 -52515.600000 0 0 1
18.872261 14.948281 -7.418820 25.192305 0.669891 1.869716 0.178802 -0.051761 433947.000000 0 0 1
17.507261 14.487081 -7.492620 23.927370 0.691280 1.889294 0.186657 -0.062531 1199980.000000 0 1 0
16.570661 14.994681 -6.339420 23.229626 0.735512 1.847205 0.175856 -0.040240 144758.000000 0 1 0
16.685761 14.195881 -5.220320 22.520866 0.704946 1.804723 0.149874 -0.042090 616726.000000 0 1 0
16.137061 14.729981 -3.986320 22.209633 0.739844 1.751260 0.136154 -0.037300 -111483.000000 0 1 0
15.994861 13.533281 -3.039320 21.171271 0.702227 1.714853 0.107514 -0.031176 622552.000000 0 1 0
17.248261 12.994381 -2.558920 21.746368 0.645657 1.688741 0.111845 -0.026602 1392110.000000 0 1 0
17.066861 12.254481 -1.350220 21.054053 0.622723 1.634971 0.104047 -0.024048 -215858.000000 0 1 0
17.080061 13.178881 -0.092920 21.573595 0.657179 1.575103 0.115469 -0.024918 351077.000000 0 1 0
15.916661 14.034081 -0.037320 21.220201 0.722625 1.572555 0.106120 -0.031780 1225670.000000 0 1 0
16.091361 14.964881 1.054480 21.999806 0.749142 1.522847 0.104986 -0.023587 -407225.000000 0 1 0
14.863161 15.817881 1.404580 21.750672 0.816506 1.506175 0.095917 -0.020249 -261204.000000 0 1 0
14.643861 16.849881 0.444980 22.328438 0.855330 1.550866 0.101655 -0.022119 -51569.100000 0 1 0
13.585161 17.630781 0.914080 22.276368 0.914281 1.529751 0.073686 -0.031302 -409141.000000 0 1 0
13.415961 19.021281 0.303580 23.278516 0.956513 1.557755 0.064197 -0.034303 -349987.000000 0 1 0
12.938461 18.936581 -1.040220 22.958221 0.971399 1.616121 0.073525 -0.042381 69874.500000 0 1 0
12.526061 20.188381 -1.483420 23.804904 1.015469 1.633152 0.067674 -0.044179 -990663.000000 0 1 0
11.045661 20.451681 -1.371720 23.284318 1.075597 1.629742 0.061046 -0.042055 -1159830.000000 0 1 0
10.559561 20.426581 -0.056220 22.994623 1.093679 1.573241 0.053646 -0.044393 -593775.000000 0 1 0
9.169361 20.246681 -0.010320 22.226231 1.145548 1.571261 0.043955 -0.042988 -72444.700000 0 1 0
8.677061 20.273881 1.454780 22.100634 1.166394 1.504923 0.032552 -0.034775 65134.300000 0 1 0
8.621461 21.539781 2.052180 23.291698 1.190068 1.482574 0.040076 -0.029857 1365710.000000 0 1 0
7.298661 21.694181 2.653080 23.042282 1.246258 1.455401 0.027210 -0.029645 1166680.000000 0 1 0
6.969861 23.071681 3.279180 24.323537 1.277418 1.435569 0.035385 -0.024320 205083.000000 0 1 0
7.654461 23.349381 4.511080 24.982678 1.254013 1.389232 0.036377 -0.029017 252807.000000 0 1 0
7.370361 24.658281 4.900980 26.198714 1.280349 1.382618 0.034174 -0.026752 44618.500000 0 0 1
7.831261 24.992581 6.372180 26.954822 1.267143 1.332135 0.039489 -0.024737 233732.000000 0 0 1
7.109261 24.312781 7.408680 26.392071 1.286319 1.286256 0.042119 -0.026337 220155.000000 0 0 1
7.472561 24.760981 8.710680 27.291414 1.277700 1.245940 0.046112 -0.026038 -162663.000000 0 0 1
7.052261 23.775881 9.828080 26.676170 1.282449 1.193486 0.052285 -0.027311 -552717.000000 0 0 1
5.877061 24.031381 10.544280 26.892916 1.330946 1.167901 0.051491 -0.026936 -230950.000000 0 0 1
5.443361 22.762781 11.080080 25.894836 1.336070 1.128642 0.048821 -0.030460 -327803.000000 0 0 1
4.141261 22.934581 11.872280 26.155230 1.392153 1.099641 0.044172 -0.033976 92527.500000 0 0 1
3.043561 23.158681 10.992480 25.815158 1.440123 1.130934 0.025945 -0.030967 143431.000000 0 0 1
1.836561 23.435581 11.691180 26.254201 1.492590 1.109279 0.026499 -0.029107 29023.600000 0 0 1
0.660761 23.602481 10.728280 25.934720 1.542808 1.144321 0.037090 -0.023986 -570593.000000 0 0 1
0.701961 24.788481 9.923080 26.710092 1.542486 1.190161 0.037244 -0.024868 293537.000000 0 0 1
-0.329139 24.864481 8.944580 26.426431 -1.557560 1.225505 0.037923 -0.028246 707781.000000 0 0 1
-1.655639 25.558981 9.363680 27.270518 -1.506110 1.220301 0.044158 -0.031170 468288.000000 0 0 1
-2.459839 24.857981 10.319280 27.026978 -1.472162 1.179038 0.041980 -0.027892 35341.100000 0 0 1
-3.681439 25.556581 10.436980 27.849997 -1.427730 1.186662 0.051217 -0.028603 -471716.000000 0 0 1
-4.793139 24.689881 11.056580 27.473848 -1.379048 1.156616 0.057726 -0.025015 -174479.000000 0 0 1
-5.117339 24.851381 12.428980 28.253457 -1.367717 1.115298 0.051369 -0.025264 69081.100000 0 0 1
-5.916939 25.937681 12.798780 29.522571 -1.346513 1.122395 0.052894 -0.018771 -364484.000000 0 0 1
-6.603739 25.786181 14.212480 30.175007 -1.320088 1.080370 0.039629 -0.020409 552670.000000 0 0 1
-7.789439 24.963781 14.105080 29.712270 -1.268340 1.076148 0.030826 -0.016498 729463.000000 0 0 1
-8.142339 24.507381 15.430880 30.083574 -1.250030 1.032197 0.034415 -0.004642 -362768.000000 0 0 1
-9.432239 23.719881 15.561780 29.895967 -1.192316 1.023324 0.031803 -0.012166 -701371.000000 0 0 1
-10.613639 24.450881 15.680980 30.925524 -1.161260 1.039030 0.029470 -0.013662 -684210.000000 0 0 1
-11.719339 23.575281 15.688480 30.647433 -1.109469 1.033399 0.019316 -0.011704 -433641.000000 0 0 1
-13.002539 24.365481 15.450380 31.645804 -1.080596 1.060738 0.018528 -0.008364 -638129.000000 0 0 1
-13.430939 25.231681 16.475480 32.991958 -1.081640 1.047915 0.009246 -0.013858 -235486.000000 0 0 1
-14.130339 26.307181 15.962380 33.860476 -1.077889 1.079900 0.004725 -0.000399 -853408.000000 0 0 1
-14.792939 27.216381 16.983480 35.327058 -1.072933 1.069287 0.018499 -0.001850 -815820.000000 0 0 1
-15.895039 26.665581 17.602180 35.686723 -1.033258 1.054984 0.020966 -0.004501 -514920.000000 0 0 1
-16.317639 27.405481 18.738580 36.992703 -1.033755 1.039620 0.040710 -0.013913 -354964.000000 0 0 1
-17.576939 26.922981 19.457180 37.581611 -0.992413 1.026599 0.040479 -0.015076 211326.000000 0 0 1
-18.791139 27.242081 18.801780 38.062380 -0.966960 1.054143 0.038121 -0.009698 -36215.300000 0 0 1
-19.888439 26.423681 19.127480 38.204992 -0.925586 1.046442 0.057606 -0.012235 620610.000000 0 0 1
-21.020839 26.589381 18.034980 38.394418 -0.901830 1.081812 0.050502 -0.010802 347547.000000 0 0 1
-21.763639 27.801281 18.182180 39.713459 -0.906614 1.095239 0.051326 -0.016586 604124.000000 0 0 1
-22.547439 28.014081 16.994680 39.774299 -0.893098 1.129316 0.052085 -0.019664 -179827.000000 0 0 1
-23.469139 29.261881 16.998180 41.182475 -0.894814 1.145322 0.059186 -0.018370 178665.000000 0 0 1
-24.648639 28.977181 17.761380 41.984509 -0.865941 1.133992 0.066186 -0.018076 391937.000000 0 0 1
-25.503429 30.099081 17.565280 43.184703 -0.867863 1.151905 0.066908 -0.020829 -56639.300000 0 0 1
-26.890819 30.011681 18.235580 44.230685 -0.840189 1.145837 0.081311 -0.010957 356757.000000 0 0 1
-27.852259 29.228081 17.521280 44.011638 -0.809497 1.161346 0.100504 -0.009351 263567.000000 0 0 1
-29.208099 29.323581 17.871780 45.081991 -0.787371 1.163173 0.129937 -0.006274 242708.000000 0 0 1
-29.679089 28.211281 18.865280 45.084626 -0.760049 1.139068 0.117392 -0.009988 -397702.000000 0 0 1
-29.921699 26.888281 18.356180 44.218062 -0.732053 1.142712 0.104819 -0.008409 123482.000000 0 0 1
-30.207279 25.926781 19.318680 44.248040 -0.709291 1.118981 0.101108 -0.011947 -81108.500000 0 0 1
-30.170219 24.442681 18.862380 43.167999 -0.680905 1.118588 0.099906 -0.010557 343091.000000 0 0 1
-31.293569 24.012681 18.079880 43.390994 -0.654504 1.141013 0.118765 -0.012779 458065.000000 0 0 1
-30.906699 23.194881 17.036080 42.230967 -0.643809 1.155564 0.109805 -0.014898 -189485.000000 0 0 1
-31.171049 21.655881 17.186580 41.665213 -0.607189 1.145608 0.107376 -0.014114 -1391700.000000 0 0 1
-32.492869 21.404781 16.993780 42.458683 -0.582504 1.159015 0.108401 -0.015273 -1507250.000000 0 0 1
-32.721299 19.993881 16.822880 41.874192 -0.548494 1.157371 0.086874 -0.014952 55479.000000 0 0 1
-34.152463 19.572681 16.435180 42.656719 -0.520403 1.175275 0.089479 -0.020871 -21490.200000 0 0 1
-34.436490 19.782081 15.100980 42.488141 -0.521422 1.207437 0.077384 -0.019094 219614.000000 0 0 1
-35.741294 19.319781 14.773180 43.231249 -0.495555 1.222045 0.100474 -0.029214 267132.000000 0 0 1
-36.061127 19.592881 13.318180 43.146956 -0.497703 1.257002 0.102232 -0.023499 -112004.000000 0 0 1
-36.223499 20.962781 13.017880 43.829730 -0.524615 1.269236 0.079608 -0.026172 -93930.800000 0 0 1
-36.480779 21.269081 11.656380 43.807445 -0.527842 1.301470 0.072644 -0.015482 214044.000000 0 0 1
-35.278988 21.013781 10.683580 42.430235 -0.537212 1.316265 0.088929 -0.022071 290220.000000 0 0 1
-35.136583 19.678781 10.177780 41.538188 -0.510538 1.323254 0.094280 -0.016628 117664.000000 0 0 1
-33.841369 19.499881 9.637680 40.228951 -0.522746 1.328873 0.118689 -0.017941 328362.000000 0 0 1
-33.004929 18.416381 10.424980 39.206742 -0.508956 1.301661 0.108805 -0.025484 91860.600000 0 0 1
-32.490369 18.982781 11.616580 39.381658 -0.528765 1.271368 0.117844 -0.026684 404291.000000 0 0 1
-31.691989 17.989681 12.301280 38.462089 -0.516286 1.245248 0.113002 -0.036161 335274.000000 0 0 1
-31.062389 18.421481 13.640780 38.604324 -0.535292 1.209648 0.097950 -0.019863 523040.000000 0 0 1
-29.941869 19.296581 13.481980 38.087233 -0.572477 1.208977 0.105048 -0.019077 337787.000000 0 0 1
-30.351259 20.650981 13.483180 39.108286 -0.597450 1.218808 0.106250 -0.013819 578110.000000 0 0 1
-29.088959 21.553281 13.669380 38.698364 -0.637680 1.209776 0.115930 -0.020360 598072.000000 0 0 1
-28.506449 21.383281 14.930580 38.636570 -0.643578 1.174032 0.111087 -0.013435 254303.000000 0 0 1
-27.468899 22.310481 15.264180 38.539501 -0.682141 1.163568 0.103606 -0.013759 108373.000000 0 0 1
-26.894559 22.134781 16.668980 38.615032 -0.688621 1.124452 0.090286 -0.013340 221331.000000 0 0 1
-25.945119 21.033381 16.677880 37.332345 -0.681224 1.107677 0.092210 -0.017481 739877.000000 0 0 1
-25.677729 20.616481 18.015580 37.535932 -0.676503 1.070192 0.071853 -0.008517 -263293.000000 0 0 1
-24.550139 19.597481 18.211980 36.310423 -0.673681 1.045391 0.085600 -0.014807 -206191.000000 0 0 1
-24.120439 19.379181 19.535980 36.592386 -0.676831 1.007613 0.090832 -0.011000 -152601.000000 0 0 1
-23.169539 18.362181 19.527880 35.430711 -0.670160 0.987046 0.083812 -0.008550 -139555.000000 0 0 1
-22.430139 18.104181 20.892080 35.599881 -0.679077 0.943623 0.081923 -0.001051 37361.700000 0 0 1
-23.122739 17.239181 21.743980 36.119954 -0.640648 0.924801 0.092392 -0.001251 233809.000000 0 0 1
-23.941939 17.858081 22.711480 37.522511 -0.640866 0.920684 0.080916 -0.014170 -178557.000000 0 0 1
-24.529639 16.854981 23.683780 38.035707 -0.602034 0.898643 0.072512 -0.009408 -230662.000000 0 0 1
-23.614639 16.400481 24.669980 37.884493 -0.607028 0.861646 0.076710 -0.024709 379651.000000 0 0 1
-24.239239 15.452981 25.534780 38.449451 -0.567551 0.844490 0.073231 -0.024906 38257.400000 0 0 1
20.846261 24.737581 33.433134 46.521919 0.870558 0.768933 0.066879 -0.012206 -77320.700000 0 0 1
21.751761 23.768181 32.962843 46.093541 0.829667 0.773987 0.080396 -0.030067 -73583.900000 0 0 1
21.537061 22.451681 33.441743 45.675739 0.806187 0.749315 0.074741 -0.026820 221990.000000 0 0 1
20.451861 21.524581 32.790490 44.235759 0.810948 0.735841 0.066377 -0.026718 281454.000000 0 0 1
20.797761 20.932281 31.553997 43.201411 0.788622 0.751900 0.082431 -0.030948 -146364.000000 0 0 1
19.871961 19.918381 31.312747 42.096613 0.786565 0.732013 0.082204 -0.036754 -386354.000000 0 0 1
20.114461 19.206681 29.984537 40.896951 0.762316 0.747820 0.078322 -0.024766 -626990.000000 0 0 1
21.420561 18.735281 29.868387 41.254960 0.718626 0.761220 0.075235 -0.027547 -666730.000000 0 0 1
21.544961 18.137481 28.599967 40.138655 0.699740 0.777700 0.067837 -0.022173 -394650.000000 0 0 1
22.676861 17.110181 28.510897 40.247603 0.646389 0.783585 0.080620 -0.023030 -496765.000000 0 0 1
23.914461 17.757081 28.558667 41.265152 0.638700 0.806434 0.079026 -0.025916 -863896.000000 0 0 1
24.997261 16.894981 28.667107 41.618583 0.594349 0.810956 0.071317 -0.014641 469196.000000 0 0 1
26.409061 17.549781 28.899487 42.902373 0.586526 0.831713 0.067779 -0.025530 421116.000000 0 0 1
27.070061 17.727481 27.670477 42.575898 0.579794 0.863331 0.062678 -0.018039 -360245.000000 0 0 1
28.300261 18.328881 27.995587 43.824713 0.574727 0.877848 0.062478 -0.017552 -335652.000000 0 0 1
29.434461 18.230381 26.975327 43.890802 0.554530 0.908916 0.062153 -0.000665 -184964.000000 0 0 1
29.186661 18.967481 25.799867 43.327354 0.576283 0.932954 0.083179 -0.010119 -48636.600000 0 0 1
30.274961 18.987981 24.905587 43.559212 0.560169 0.962142 0.072979 -0.002398 -354667.000000 0 0 1
30.375661 20.176581 23.991097 43.650291 0.586317 0.988886 0.085094 -0.004234 -631764.000000 0 0 1
29.401661 20.234581 23.010977 42.466469 0.602771 0.998145 0.069083 -0.007791 -262557.000000 0 0 1
29.668761 21.258681 22.052477 42.643623 0.621737 1.027297 0.077861 -0.020458 18163.100000 0 0 1
30.628761 20.809481 20.885877 42.513237 0.596773 1.057238 0.107920 -0.019886 695110.000000 0 0 1
29.946161 19.830481 20.053077 41.135707 0.584907 1.061588 0.096627 -0.029858 470018.000000 0 0 1
30.667561 19.441981 18.926577 40.947591 0.565016 1.090305 0.114090 -0.031854 -850924.000000 0 0 1
31.708861 18.362081 19.031177 41.289267 0.524898 1.091761 0.135368 -0.048584 -606099.000000 0 0 1
31.343861 16.971381 19.230677 40.500424 0.496261 1.076029 0.134964 -0.047661 858869.000000 0 0 1
32.520861 16.183281 19.547477 41.250561 0.461748 1.077114 0.132464 -0.037476 349741.000000 0 0 1
32.168161 14.647881 19.989777 40.607169 0.427297 1.056098 0.128467 -0.037497 223367.000000 0 0 1
31.649861 14.462981 21.282777 40.790294 0.428634 1.021883 0.105691 -0.034826 568637.000000 0 0 1
30.340361 14.971081 21.511377 40.092519 0.458384 1.004461 0.098710 -0.021908 -60559.700000 0 0 1
29.653261 14.587881 22.820077 40.160653 0.457186 0.966456 0.068431 -0.013770 95337.700000 0 0 1
29.115061 13.273181 22.787577 39.282792 0.427739 0.951956 0.063828 -0.004545 144155.000000 0 0 1
28.182661 13.037581 23.831797 39.143268 0.433291 0.916205 0.054222 0.004842 180643.000000 0 0 1
27.801961 11.529181 23.860937 38.408532 0.393105 0.900472 0.067279 0.002114 -198308.000000 0 0 1
26.891861 11.202681 22.860477 37.030712 0.394719 0.905442 0.089346 0.004534 -346645.000000 0 0 1
26.431461 9.899381 22.888377 36.338652 0.358359 0.889419 0.063662 0.011570 -63990.900000 0 0 1
25.299861 9.621081 21.877177 34.803147 0.363393 0.891048 0.065149 0.002729 1470190.000000 0 0 1
23.928261 9.910381 22.320977 34.190691 0.392662 0.859472 0.073685 0.008875 2152350.000000 0 0 1
23.002061 9.141581 21.557177 32.823394 0.378284 0.854279 0.068657 0.016933 -441293.000000 0 0 1
21.560761 9.086481 22.027577 32.134789 0.398848 0.815541 0.058337 0.005427 -687340.000000 0 0 1
21.263861 8.415581 23.215057 32.587001 0.376854 0.777881 0.050914 0.010024 -431614.000000 0 0 1
19.887361 8.466981 23.411797 31.863916 0.402503 0.745508 0.083679 -0.003994 -755591.000000 0 0 1
19.498261 7.652581 24.617307 32.322685 0.374003 0.705001 0.077186 -0.000935 -306750.000000 0 0 1
19.754661 6.273281 24.423017 32.032553 0.307488 0.703715 0.061123 -0.004668 425821.000000 0 0 1
19.250461 5.693481 25.614327 32.543658 0.287561 0.664742 0.073352 -0.011889 -204337.000000 0 0 1
19.312961 4.200981 25.724157 32.440267 0.214185 0.655128 0.069463 -0.019557 -572776.000000 0 0 1
20.595061 3.660781 25.695287 33.133150 0.175913 0.683264 0.073123 -0.014212 -483886.000000 0 0 1
20.580261 2.282781 25.557317 32.892775 0.110469 0.680928 0.061788 -0.016983 -39823.500000 0 0 1
21.994961 1.712881 25.279527 33.552448 0.077719 0.717528 0.051737 -0.013099 -29990.100000 0 0 1
22.825761 1.960781 26.387967 34.945455 0.085692 0.714961 0.054759 -0.022085 -178173.000000 0 0 1
24.128061 2.287181 25.922277 35.487448 0.094511 0.751796 0.061988 -0.009271 156235.000000 0 0 1
25.029161 2.738581 27.088247 36.982859 0.108982 0.748877 0.043059 -0.009886 -405769.000000 0 0 1
25.367861 1.737981 28.035027 37.848536 0.068404 0.736660 0.062458 -0.019764 320541.000000 0 0 1
26.113961 2.054681 29.217457 39.240546 0.078520 0.730901 0.056373 -0.008434 2596.590000 0 0 1
27.605161 2.302081 28.991887 40.098304 0.083201 0.762632 0.043189 -0.012643 -1080310.000000 0 0 1
28.029561 3.550881 28.331857 40.011988 0.126012 0.784015 0.055791 0.001430 686550.000000 0 0 1
29.432861 3.617181 28.108017 40.858756 0.122283 0.812161 0.056783 0.000303 370201.000000 0 0 1
29.960761 2.653881 26.984197 40.408380 0.088348 0.839564 0.077181 -0.005445 -730895.000000 0 0 1
29.397061 2.956881 25.695427 39.155910 0.100247 0.854980 0.067701 0.009764 313466.000000 0 0 1
29.617361 1.962281 24.707327 38.619821 0.066158 0.876613 0.094286 0.013278 -412595.000000 0 0 1
29.183661 2.320681 23.248447 37.383979 0.079353 0.899652 0.077015 0.016161 -70972.300000 0 0 1
29.994261 3.262281 22.584877 37.687860 0.108338 0.928218 0.074213 0.016099 -844419.000000 0 0 1
31.297761 2.876981 22.278077 38.524532 0.091665 0.954174 0.056461 0.012058 -715921.000000 0 0 1
32.117961 4.096281 21.880377 39.078048 0.126854 0.976513 0.062238 0.005048 -685472.000000 0 0 1
31.709861 4.684781 20.602377 38.104073 0.146678 0.999543 0.057687 0.005193 -122886.000000 0 0 1
32.324361 5.819681 20.030677 38.470261 0.178132 1.023150 0.067348 0.000105 -796654.000000 0 0 1
33.822861 5.622081 19.743377 39.565068 0.164715 1.048340 0.054467 -0.009666 -211771.000000 0 0 1
34.790861 5.623081 20.788777 40.916944 0.160240 1.037851 0.072738 -0.008920 471194.000000 0 0 1
34.947561 6.871681 21.399277 41.550945 0.194151 1.029774 0.084322 -0.009866 -314274.000000 0 0 1
35.876661 6.747181 22.649577 42.961175 0.185895 1.015482 0.104983 -0.019537 170453.000000 0 0 1
35.131461 6.108881 23.680757 42.805563 0.172165 0.984575 0.093655 -0.003221 122358.000000 0 0 1
35.808961 5.721581 24.819367 43.943363 0.158441 0.970601 0.116374 -0.015213 -390266.000000 0 0 1
34.899661 4.863981 25.722067 43.626475 0.138478 0.940236 0.113336 -0.007954 158247.000000 0 0 1
34.559361 3.622581 25.113937 42.874029 0.104441 0.944978 0.110547 -0.010592 363765.000000 0 0 1
33.480961 3.019481 25.816257 42.385978 0.089942 0.915902 0.093299 -0.005302 59902.700000 0 0 1
33.541561 1.486881 25.814957 42.351613 0.044300 0.915317 0.098079 -0.005060 192232.000000 0 0 1
32.930661 0.810981 24.667197 41.152846 0.024622 0.928040 0.101506 -0.011116 220228.000000 0 0 1
33.110061 -0.597519 24.702467 41.313981 -0.018044 0.929892 0.091365 -0.013455 -335168.000000 0 0 1
32.201861 -1.307819 23.740167 40.028312 -0.040591 0.935912 0.103889 0.000694 -478643.000000 0 0 1
30.837561 -1.358619 24.048887 39.129911 -0.044029 0.908929 0.094502 0.000092 -562886.000000 0 0 1
30.191561 -2.276419 23.169987 38.125591 -0.075257 0.917600 0.104630 0.000380 95346.200000 0 0 1
28.656861 -2.263119 23.319537 37.015378 -0.078809 0.889248 0.093449 0.009107 -243634.000000 0 0 1
28.155261 -1.021619 23.000877 36.370355 -0.036269 0.886139 0.086344 0.009435 60747.000000 0 0 1
26.731761 -1.144419 23.076857 35.333243 -0.042785 0.859099 0.066499 0.011907 512346.000000 0 0 1
25.979561 0.180281 23.022077 34.712910 0.006939 0.845692 0.065026 0.012148 -149211.000000 0 0 1
26.080061 0.887881 21.803777 34.005332 0.034031 0.874752 0.060300 0.009684 300861.000000 0 0 1
25.088061 1.900781 21.833077 33.312265 0.075620 0.856076 0.055576 0.011924 176844.000000 0 0 1
25.262761 2.862881 20.598277 32.721433 0.112843 0.889881 0.061137 0.008314 -13261.000000 0 0 1
24.836261 2.348581 19.337477 31.564120 0.094282 0.911398 0.072528 0.003229 677332.000000 0 0 1
24.210461 3.430381 18.540677 30.686652 0.140753 0.922043 0.068193 0.007797 258348.000000 0 0 1
23.915761 3.059581 17.051877 29.531190 0.127240 0.955232 0.085380 -0.004962 -381615.000000 0 0 1
25.028961 2.817281 16.245677 29.971786 0.112089 0.997943 0.078995 -0.009366 -275840.000000 0 0 1
24.828461 3.142181 14.891177 29.121692 0.125886 1.034049 0.089040 -0.014568 -286423.000000 0 0 1
24.177661 2.052681 14.016477 28.022034 0.084697 1.046973 0.091657 -0.005118 705495.000000 0 0 1
22.783861 1.831381 14.258277 26.939872 0.080208 1.013065 0.093849 -0.000188 848454.000000 0 0 1
22.269361 0.816081 13.384377 25.994845 0.036630 1.029922 0.094117 -0.013986 161466.000000 0 0 1
20.775661 0.458381 13.684077 24.881563 0.022060 0.988470 0.093010 -0.016332 511451.000000 0 1 0
19.738561 1.172381 13.027977 23.679389 0.059326 0.988214 0.089112 -0.013903 642269.000000 0 1 0
19.542361 0.976781 11.652577 22.773680 0.049941 1.033671 0.075207 -0.015998 -1089730.000000 0 1 0
19.239461 -0.433519 11.082677 22.207443 -0.022529 1.048291 0.062076 -0.011727 583753.000000 0 1 0
20.391161 -1.304019 11.072877 23.240235 -0.063863 1.074181 0.083565 -0.028962 1037870.000000 0 1 0
21.456661 -0.938819 10.225877 23.787355 -0.043726 1.126429 0.092813 -0.031073 -1092480.000000 0 1 0
22.676461 -1.846219 10.335777 24.989171 -0.081236 1.144381 0.122625 -0.043835 -267350.000000 0 1 0
23.321761 -1.561819 11.604177 26.095991 -0.066868 1.109987 0.122842 -0.042629 187525.000000 0 0 1
24.101361 -2.636419 12.083677 27.089510 -0.108956 1.108433 0.108692 -0.037275 -21470.200000 0 0 1
24.488061 -2.485419 13.558677 28.101248 -0.101149 1.067297 0.154790 -0.028078 114590.000000 0 0 1
25.514361 -1.557719 13.856177 29.075810 -0.060977 1.074066 0.127481 -0.026798 106247.000000 0 0 1
25.778261 -1.472819 15.274677 30.000061 -0.057072 1.036594 0.100426 -0.017493 487326.000000 0 0 1
26.937361 -0.482519 15.679777 31.172257 -0.017911 1.043725 0.120512 -0.013246 776937.000000 0 0 1
28.188061 -1.034619 15.292477 32.085777 -0.036688 1.073999 0.124008 -0.015668 -29208.600000 0 0 1
29.223361 -0.111019 15.503077 33.081151 -0.003799 1.083048 0.099315 -0.011647 823978.000000 0 0 1
30.660561 -0.667819 15.826077 34.510588 -0.021778 1.094393 0.090224 -0.008391 1151920.000000 0 0 1
31.245261 -1.494819 14.804077 34.607246 -0.047805 1.128768 0.106020 -0.014158 1516190.000000 0 0 1
32.644961 -1.784219 15.051777 35.992123 -0.054601 1.139337 0.100221 -0.018983 1098920.000000 0 0 1
33.308261 -2.565219 13.938177 36.197975 -0.076863 1.175530 0.113243 -0.033340 -171734.000000 0 0 1
33.560061 -1.797419 12.784477 35.957631 -0.053507 1.207302 0.111949 -0.032799 286886.000000 0 0 1
34.433661 -2.423419 11.855377 36.497944 -0.070264 1.239972 0.110636 -0.037134 166872.000000 0 0 1
34.231461 -1.919219 10.374477 35.820470 -0.056007 1.276962 0.158402 -0.038448 -164557.000000 0 0 1
34.727561 -0.627219 10.097377 36.171175 -0.018059 1.287882 0.116658 -0.026927 -290488.000000 0 0 1
33.727361 0.311681 9.933677 35.161200 0.009241 1.284378 0.128256 -0.035508 -922369.000000 0 0 1
34.218361 1.683381 9.466677 35.543607 0.049156 1.301203 0.125728 -0.035461 -230018.000000 0 0 1
34.841861 1.672981 8.210077 35.835171 0.047980 1.339636 0.115469 -0.031536 235372.000000 0 0 1
34.958061 3.008381 7.676577 35.917213 0.085845 1.355405 0.112569 -0.031713 106478.000000 0 0 1
35.467361 3.092481 6.195477 36.136976 0.086972 1.398501 0.095298 -0.031003 5495.460000 0 0 1
35.966861 4.335281 5.851177 36.696676 0.119957 1.410666 0.089535 -0.021591 168237.000000 0 0 1
36.560561 4.372781 4.544477 37.100513 0.119038 1.447997 0.097507 -0.018324 -1693.270000 0 0 1
-36.834817 5.800581 4.103077 37.513807 -0.156193 1.461202 0.103791 -0.033191 -143206.000000 0 0 1
35.791161 6.610581 4.007377 36.616472 0.182640 1.461135 0.124611 -0.043152 -293544.000000 0 0 1
36.160861 7.958781 3.654577 37.206263 0.216640 1.472413 0.114224 -0.046607 -287149.000000 0 0 1
35.003761 9.007281 3.733077 36.336349 0.251859 1.467878 0.140975 -0.048806 1578800.000000 0 0 1
33.868361 8.872881 2.829177 35.125463 0.256223 1.490164 0.144640 -0.053306 1231160.000000 0 0 1
33.123461 7.656081 2.838777 34.115068 0.227149 1.487488 0.161260 -0.051144 -503615.000000 0 0 1
31.843761 7.730381 1.976377 32.828189 0.238153 1.510556 0.177870 -0.050880 285851.000000 0 0 1
32.109961 7.412281 0.642977 32.960657 0.226867 1.551288 0.185784 -0.050342 -49177.300000 0 0 1
30.886861 7.319681 -0.022023 31.742344 0.232691 1.571490 0.171654 -0.048773 -381491.000000 0 0 1
31.154661 7.210581 -1.514723 32.014056 0.227440 1.618128 0.150030 -0.039462 -377172.000000 0 0 1
30.082861 6.807481 -2.324123 30.930921 0.222543 1.646006 0.154583 -0.041819 137857.000000 0 0 1
30.514161 6.751981 -3.649523 31.464620 0.217765 1.687046 0.156865 -0.033404 -782621.000000 0 0 1
29.559761 6.018781 -4.541523 30.506239 0.200868 1.720224 0.173582 -0.033961 -740448.000000 0 0 1
29.623361 4.628181 -4.592323 30.332376 0.154981 1.722781 0.182202 -0.038030 136458.000000 0 0 1
28.485261 4.213581 -5.269823 29.273459 0.146857 1.751804 0.180264 -0.035573 -620714.000000 0 0 1
28.059761 2.734581 -5.189523 28.666344 0.097149 1.752832 0.189338 -0.027728 -206479.000000 0 0 1
27.642361 2.287781 -3.907923 28.010818 0.082575 1.710768 0.192909 -0.037399 434940.000000 0 0 1
27.439061 0.875481 -3.956023 27.736594 0.031896 1.713913 0.173075 -0.028948 -37480.900000 0 0 1
27.531661 0.241881 -2.622423 27.657331 0.008785 1.665757 0.175752 -0.026065 -342568.000000 0 0 1
28.850361 0.234981 -2.169723 28.932788 0.008145 1.645859 0.187506 -0.032069 -364592.000000 0 0 1
28.921761 0.006181 -0.798223 28.932775 0.000214 1.598389 0.192722 -0.030864 -554434.000000 0 0 1
30.202861 0.326081 -0.033223 30.204639 0.010796 1.571896 0.197250 -0.034491 -366090.000000 0 0 1
31.262261 -0.510219 -0.483223 31.270158 -0.016319 1.586250 0.181927 -0.033164 -222636.000000 0 0 1
32.453661 -0.057819 0.102377 32.453874 -0.001782 1.567642 0.135720 -0.030647 -762921.000000 0 0 1
-3.191739 -21.503419 -8.533020 23.353729 1.423443 1.944839 0.019430 0.015902 127875.000000 0 1 0
-3.576339 -21.826219 -7.232220 23.269703 1.408384 1.886831 0.029697 0.000282 -346913.000000 0 1 0
-2.848039 -22.968719 -6.756220 24.110577 1.447430 1.854818 0.034096 -0.003237 -91725.200000 0 1 0
-3.230239 -23.592419 -5.403120 24.417830 1.434724 1.793921 0.035445 -0.004758 -728221.000000 0 1 0
-3.020539 -22.641219 -4.343120 23.251046 1.438171 1.758692 0.036907 -0.013390 -11024.700000 0 1 0
-3.354539 -23.259919 -3.094120 23.703383 1.427564 1.701705 0.043825 -0.029445 -228839.000000 0 1 0
-2.964439 -22.458519 -1.839120 22.727854 1.439559 1.651804 0.043397 -0.042498 -388434.000000 0 1 0
-1.591539 -22.598519 -1.617520 22.712165 1.500486 1.642075 0.042811 -0.037126 -1001000.000000 0 1 0
-1.165539 -22.450219 -0.292220 22.482354 1.518926 1.583794 0.046594 -0.037414 -200055.000000 0 1 0
0.346661 -22.485219 -0.086320 22.488057 -1.555380 1.574635 0.055105 -0.038481 -386610.000000 0 1 0
1.120461 -21.423519 -0.657620 21.462877 -1.518543 1.601441 0.036779 -0.034436 -230449.000000 0 1 0
2.264161 -21.309419 0.154380 21.429923 -1.464942 1.563592 0.037438 -0.029810 -295648.000000 0 1 0
3.283461 -20.300919 -0.389320 20.568423 -1.410445 1.589726 0.048399 -0.024992 133668.000000 0 1 0
3.927061 -20.689619 -1.602220 21.119878 -1.383219 1.646732 0.033877 -0.020800 -350494.000000 0 1 0
4.631361 -19.641319 -2.225320 20.302290 -1.339229 1.680626 0.043807 -0.016612 -101068.000000 0 1 0
5.573661 -20.170019 -3.359820 21.193956 -1.301190 1.729995 0.044797 -0.008707 -238944.000000 0 1 0
6.764861 -20.731319 -2.834820 21.990615 -1.255379 1.700067 0.055792 -0.023603 -228651.000000 0 1 0
7.452261 -21.620719 -3.714220 23.168667 -1.238867 1.731803 0.050818 -0.012723 425087.000000 0 1 0
8.538061 -20.896219 -4.570920 23.031365 -1.182904 1.770588 0.066240 -0.011343 200661.000000 0 1 0
8.027061 -19.976619 -5.576820 22.239603 -1.188720 1.824262 0.057290 -0.007988 226267.000000 0 1 0
9.202561 -19.401919 -6.123320 22.329726 -1.127910 1.848578 0.069849 -0.013464 54285.400000 0 1 0
9.042461 -18.093919 -7.001520 21.405077 -1.107348 1.904025 0.060311 -0.014681 -864969.000000 0 1 0
10.265261 -17.586319 -7.417620 21.671993 -1.042443 1.920125 0.076569 -0.024107 -528040.000000 0 1 0
10.225461 -16.497719 -8.286820 21.104648 -1.015937 1.974312 0.075114 -0.014805 38616.400000 0 1 0
10.553561 -16.783619 -9.808120 22.119375 -1.009468 2.030204 0.071860 -0.007146 -13352.000000 0 1 0
9.508061 -17.511419 -10.412520 22.482740 -1.073371 2.052324 0.060531 -0.013621 165581.000000 0 1 0
9.125461 -16.832419 -11.607220 22.390443 -1.074011 2.115776 0.050771 -0.009381 222134.000000 0 1 0
8.376661 -17.637819 -12.712020 23.299283 -1.127408 2.147898 0.054375 -0.010933 4969.500000 0 1 0
7.174961 -18.231119 -12.293620 23.129783 -1.195858 2.131174 0.039556 -0.009370 17233.200000 0 1 0
6.575161 -18.804619 -13.428920 24.024620 -1.234427 2.163933 0.039075 -0.007824 827685.000000 0 1 0
5.291061 -19.706419 -13.285320 24.348265 -1.308488 2.147946 0.034443 0.001329 771883.000000 0 1 0
5.704461 -20.946119 -12.856920 25.230561 -1.304905 2.105490 0.052640 -0.006867 -96165.200000 0 0 1
4.613561 -21.790919 -12.571020 25.576545 -1.362158 2.084614 0.059391 -0.003391 -62074.000000 0 0 1
4.958461 -23.231919 -12.080920 26.650648 -1.360518 2.041268 0.046437 -0.001999 -462239.000000 0 0 1
5.612761 -23.946819 -13.097820 27.865860 -1.340568 2.060122 0.055669 -0.012649 -89764.700000 0 0 1
5.068061 -25.224449 -13.408320 29.012775 -1.372518 2.051217 0.044156 -0.013221 779574.000000 0 0 1
3.688861 -25.365919 -14.177320 29.292217 -1.426383 2.076012 0.046855 -0.017408 1068320.000000 0 0 1
2.623661 -24.806019 -13.406820 28.318987 -1.465421 2.063968 0.063604 -0.018273 -110024.000000 0 0 1
1.323761 -25.056719 -13.879920 28.674792 -1.518015 2.076069 0.058056 -0.018651 120524.000000 0 0 1
0.641161 -26.223669 -13.188320 29.360240 -1.546351 2.036655 0.044317 -0.011217 -762442.000000 0 0 1
1.205361 -27.421379 -13.683320 30.669499 -1.526868 2.033260 0.049473 -0.008777 141738.000000 0 0 1
0.758261 -28.569829 -12.997520 31.396586 -1.544262 1.997617 0.039196 -0.001396 1241110.000000 0 0 1
-0.725439 -29.060379 -13.295620 31.965691 1.545838 1.999766 0.032526 -0.004727 1866390.000000 0 0 1
-1.772439 -28.366079 -12.585720 31.083377 1.508393 1.987668 0.035207 -0.011398 1403560.000000 0 0 1
-3.088539 -28.894059 -12.861420 31.777694 1.464309 1.987481 0.045323 -0.013671 795308.000000 0 0 1
-4.253639 -28.012999 -12.325820 30.898987 1.420102 1.981121 0.035479 -0.007356 183051.000000 0 0 1
-4.641839 -28.059239 -10.960320 30.479439 1.406851 1.938632 0.040291 -0.021217 167729.000000 0 0 1
-5.212639 -29.315579 -10.631520 31.616515 1.394824 1.913744 0.033777 -0.017910 -732977.000000 0 0 1
-5.729439 -29.562609 -9.179920 31.480872 1.379363 1.866699 0.044357 -0.022863 103615.000000 0 0 1
-6.981039 -29.092979 -8.718220 31.163179 1.335293 1.854341 0.063196 -0.023455 -61223.700000 0 0 1
-7.240339 -27.649839 -8.804520 29.907452 1.314688 1.869616 0.064957 -0.022497 -57471.000000 0 0 1
-8.715539 -27.244789 -8.402820 29.813530 1.261186 1.856514 0.074475 -0.029240 1574570.000000 0 0 1
-9.787339 -27.446889 -9.353320 30.604058 1.228261 1.881390 0.088311 -0.031621 621648.000000 0 0 1
-9.918139 -28.790849 -9.750720 31.974350 1.239039 1.880687 0.092564 -0.041358 -1420180.000000 0 0 1
-11.153739 -28.973279 -10.634620 32.816946 1.203317 1.900813 0.097617 -0.039415 -423207.000000 0 0 1
-11.232139 -28.279059 -11.824120 32.644693 1.192715 1.941430 0.108591 -0.039611 495685.000000 0 0 1
-12.151939 -28.976029 -12.691820 33.887493 1.173696 1.954684 0.112126 -0.039796 57405.600000 0 0 1
-12.451239 -28.292209 -14.081920 33.967381 1.156210 1.998269 0.122727 -0.030319 13820.700000 0 0 1
-13.527039 -27.362069 -14.178420 33.655478 1.111661 2.005654 0.114623 -0.044077 200472.000000 0 0 1
-13.550739 -26.267549 -13.272420 32.400059 1.094531 1.992858 0.121223 -0.036514 -647781.000000 0 0 1
-14.589339 -25.195919 -13.549320 32.113350 1.045934 2.006360 0.138618 -0.032061 -599605.000000 0 0 1
-14.256239 -24.255819 -14.609120 31.701917 1.039437 2.049724 0.137258 -0.025362 687203.000000 0 0 1
-15.285639 -23.288419 -14.893220 31.588119 0.989962 2.061767 0.146510 -0.023109 312329.000000 0 0 1
-14.942739 -22.405119 -16.136620 31.395308 0.982609 2.110617 0.136034 -0.016278 -8599.860000 0 0 1
-14.310139 -21.191319 -15.780320 30.047805 0.976852 2.123716 0.111772 -0.011575 324566.000000 0 0 1
-13.742539 -20.554119 -16.906320 29.952510 0.981455 2.170548 0.098798 -0.003402 -232106.000000 0 0 1
-13.777639 -19.017419 -16.990820 28.985747 0.943833 2.197130 0.094582 -0.010029 511063.000000 0 0 1
-12.534439 -18.395019 -17.352720 28.224206 0.972660 2.232950 0.086785 -0.000840 840275.000000 0 0 1
-12.728839 -17.008519 -17.409120 27.466171 0.928333 2.257302 0.090168 -0.003182 1333310.000000 0 0 1
-11.354939 -16.236619 -17.664620 26.544326 0.960513 2.298928 0.091268 -0.007827 1466470.000000 0 0 1
-10.615639 -15.995819 -16.456320 25.285737 0.984885 2.279453 0.095280 -0.008960 677134.000000 0 0 1
-9.298739 -15.520819 -16.755220 24.659679 1.031029 2.317820 0.092274 -0.006818 220085.000000 0 1 0
-8.582639 -14.843819 -15.547320 23.145622 1.046563 2.307321 0.074279 -0.007664 -343793.000000 0 1 0
-8.187539 -15.740819 -14.505820 22.917853 1.091161 2.256152 0.076819 -0.002662 577872.000000 0 1 0
-6.958639 -16.437619 -14.759320 23.161509 1.170336 2.261701 0.070641 -0.005292 208390.000000 0 1 0
-6.470539 -17.260619 -13.554820 22.880778 1.212137 2.204844 0.058563 -0.007454 -636340.000000 0 1 0
-5.962539 -16.574719 -12.469420 21.581465 1.225474 2.186807 0.054895 -0.009284 62735.700000 0 1 0
-5.738539 -17.326919 -11.267820 21.450332 1.250974 2.123862 0.048113 -0.014595 -159592.000000 0 1 0
-4.652539 -18.436519 -11.377120 22.158299 1.323603 2.109994 0.053791 -0.011412 -483277.000000 0 1 0
-3.369239 -17.897219 -11.630020 21.608322 1.384719 2.139119 0.048590 -0.006497 -539550.000000 0 1 0
-2.517939 -19.040419 -11.564520 22.419093 1.439317 2.112777 0.031617 0.008756 168436.000000 0 1 0
-1.057539 -18.636719 -11.880320 22.126629 1.514112 2.137583 0.028940 0.015671 -481759.000000 0 1 0
-0.862039 -18.444419 -13.295020 22.752962 1.524093 2.194839 0.038824 0.011772 -297309.000000 0 1 0
0.343661 -17.839719 -13.700820 22.496359 -1.551535 2.225626 0.035442 0.013225 350787.000000 0 1 0
1.559261 -18.832019 -13.734120 23.360272 -1.488186 2.199289 0.032553 0.002017 -141887.000000 0 1 0
1.501361 -19.720919 -14.797820 24.701098 -1.494813 2.213142 0.049636 0.005002 143898.000000 0 1 0
0.920861 -20.977619 -14.511220 25.524185 -1.526927 2.175512 0.062587 0.000455 -540113.000000 0 0 1
0.836261 -21.834019 -15.785420 26.955579 -1.532514 2.196427 0.067456 -0.011385 36035.600000 0 0 1
2.037361 -22.396119 -16.268720 27.756229 -1.480077 2.197069 0.068342 -0.012365 -66284.200000 0 0 1
2.986461 -21.539419 -16.845320 27.506915 -1.433024 2.229893 0.069035 -0.006004 225466.000000 0 0 1
4.443661 -22.106319 -16.867120 28.159105 -1.372427 2.213040 0.065076 -0.010989 340036.000000 0 0 1
4.538261 -23.261719 -17.659820 29.556262 -1.378121 2.211174 0.054376 -0.010587 78673.800000 0 0 1
5.856461 -23.779919 -17.571420 30.141956 -1.329324 2.193158 0.062995 -0.015831 290977.000000 0 0 1
6.439461 -23.725119 -19.017120 31.080521 -1.305762 2.229214 0.061591 -0.011932 -221769.000000 0 0 1
6.598961 -22.405919 -19.462520 30.403309 -1.284376 2.265483 0.069539 -0.020311 93081.100000 0 0 1
7.063061 -22.443019 -20.820720 31.417803 -1.265899 2.295221 0.059741 -0.010118 -159611.000000 0 0 1
7.358561 -20.976119 -21.266420 30.763723 -1.233403 2.334059 0.052151 -0.013644 259846.000000 0 0 1
6.173561 -20.232119 -21.514020 30.171254 -1.274634 2.364654 0.075686 -0.017340 192126.000000 0 0 1
6.451261 -18.927419 -21.926720 29.675698 -1.242303 2.402200 0.076253 -0.016746 -151402.000000 0 0 1
5.236061 -18.111819 -22.394620 29.274107 -1.289373 2.441834 0.079782 -0.017334 -1035020.000000 0 0 1
4.621261 -18.575519 -23.635420 30.414455 -1.326964 2.460859 0.078002 -0.017617 512605.000000 0 0 1
3.781461 -17.594219 -24.257020 30.203626 -1.359091 2.503303 0.093075 -0.011452 722295.000000 0 0 1
2.464361 -17.295519 -23.461120 29.251192 -1.429263 2.501528 0.101472 -0.007631 -438752.000000 0 0 1
2.599961 -16.575619 -22.261520 27.876267 -1.415210 2.495734 0.091506 -0.005077 402780.000000 0 0 1
1.311361 -16.147719 -21.785820 27.149410 -1.489764 2.502172 0.092629 -0.008464 885195.000000 0 0 1
1.503061 -15.110319 -20.685120 25.660381 -1.471650 2.508347 0.090560 -0.016503 38665.900000 0 0 1
2.064161 -13.889419 -21.139220 25.378009 -1.423262 2.555257 0.078643 -0.009722 -143258.000000 0 0 1
2.075261 -12.999319 -20.045820 23.981741 -1.412488 2.560527 0.078051 -0.021583 422487.000000 0 1 0
3.390061 -12.185819 -19.847420 23.535225 -1.299460 2.574204 0.063081 -0.020128 617430.000000 0 1 0
4.534361 -12.904319 -19.343820 23.691038 -1.232890 2.526125 0.052074 -0.018339 170289.000000 0 1 0
5.699861 -12.123619 -19.347020 23.532483 -1.131317 2.535958 0.050028 -0.014443 -18098.400000 0 1 0
5.927761 -11.040219 -18.291620 22.172239 -1.078048 2.540960 0.047720 -0.013640 -72641.000000 0 1 0
5.050461 -9.897319 -18.342120 21.445220 -1.098954 2.596928 0.027233 -0.002312 237223.000000 0 1 0
5.572061 -8.865719 -19.183220 21.855086 -1.009688 2.641934 0.046076 -0.011553 -73699.600000 0 1 0
4.976361 -8.972819 -20.553220 22.971951 -1.064425 2.678576 0.058548 -0.020571 -326526.000000 0 1 0
3.580361 -8.809219 -20.587720 22.677644 -1.184756 2.708905 0.058203 -0.022239 -387381.000000 0 1 0
3.066461 -8.880119 -21.930820 23.858344 -1.238299 2.736865 0.065493 -0.023606 6010.170000 0 1 0
1.542261 -8.711619 -21.945520 23.661715 -1.395577 2.758384 0.066050 -0.025540 -157590.000000 0 1 0
1.106961 -7.377019 -21.773420 23.015812 -1.421852 2.811524 0.047670 -0.024947 -468506.000000 0 1 0
-0.296739 -7.291119 -21.739520 22.931533 1.530120 2.817747 0.054351 -0.024563 24893.200000 0 1 0
-0.819739 -6.371219 -22.873920 23.758801 1.442837 2.867812 0.072696 -0.022384 -22448.700000 0 1 0
-0.444439 -6.795519 -24.199620 25.139575 1.505488 2.867276 0.079881 -0.018751 -128016.000000 0 0 1
-0.961039 -5.975119 -25.272910 25.987413 1.411322 2.906556 0.082443 -0.027766 51584.600000 0 0 1
-0.425239 -4.526919 -25.483610 25.886062 1.477136 2.965028 0.081270 -0.032285 32787.600000 0 0 1
-0.853639 -3.974919 -26.734270 27.041632 1.359253 2.990676 0.078078 -0.031373 154963.000000 0 0 1
-0.245739 -2.712119 -27.018350 27.155243 1.480435 3.041140 0.062512 -0.021764 -127283.000000 0 0 1
-0.849839 -1.499419 -26.169050 26.225744 1.055162 3.075827 0.056109 -0.028566 1061310.000000 0 0 1
-2.272139 -1.316219 -26.146020 26.277546 0.525050 3.041498 0.059177 -0.023538 579517.000000 0 0 1
-2.830239 -0.848819 -27.333630 27.492873 0.291375 3.033910 0.066607 -0.018930 -108788.000000 0 0 1
-4.373339 -1.032019 -27.288180 27.655667 0.231740 2.978390 0.080665 -0.026157 436827.000000 0 0 1
-5.072739 -0.210419 -26.385680 26.869706 0.041457 2.951497 0.076695 -0.029144 394785.000000 0 0 1
-6.471639 -0.470219 -26.356450 27.143428 0.072531 2.900203 0.084983 -0.042935 335817.000000 0 0 1
-7.309039 0.580981 -25.586580 26.616399 -0.079321 2.862511 0.079926 -0.032533 -546885.000000 0 0 1
-7.697939 1.795881 -26.218430 27.384111 -0.229194 2.848768 0.096074 -0.038102 824704.000000 0 0 1
-8.707139 1.759781 -27.246640 28.658166 -0.199421 2.826430 0.121726 -0.042765 437687.000000 0 0 1
-10.132139 1.317781 -26.839360 28.718427 -0.129333 2.777843 0.118833 -0.041347 -455964.000000 0 0 1
-11.158039 1.972481 -27.560040 29.798462 -0.174969 2.751520 0.115083 -0.044115 536339.000000 0 0 1
-12.441039 1.536881 -27.134060 29.889775 -0.122910 2.708814 0.080464 -0.033252 732672.000000 0 0 1
-13.621739 2.006581 -28.049070 31.246255 -0.146255 2.685267 0.056234 -0.028570 713501.000000 0 0 1
-14.908739 1.498181 -27.690820 31.484863 -0.100154 2.645599 0.051598 -0.026039 1091240.000000 0 0 1
-15.928739 1.893381 -28.615540 32.804859 -0.118311 2.630674 0.039882 -0.019486 658456.000000 0 0 1
-16.900839 3.107581 -28.334210 33.137937 -0.181840 2.596421 0.044448 -0.007060 -24345.800000 0 0 1
-16.341139 4.424081 -28.258800 32.941844 -0.264395 2.601846 0.048741 -0.007813 54782.900000 0 0 1
-15.942439 4.941981 -29.481420 33.878292 -0.300596 2.626436 0.039910 -0.015248 36980.600000 0 0 1
-17.049539 5.716281 -30.287300 35.223333 -0.323497 2.605801 0.024484 0.000839 304749.000000 0 0 1
-17.610939 6.802181 -29.556190 35.071117 -0.368595 2.573168 0.027761 0.009521 353908.000000 0 0 1
-18.575139 7.434781 -30.382840 36.378960 -0.380726 2.559249 0.015243 0.006971 -110603.000000 0 0 1
-19.378939 8.516481 -29.622380 36.408229 -0.414064 2.521144 0.009990 -0.003721 -646146.000000 0 0 1
-18.629839 9.643881 -29.360230 36.084601 -0.477674 2.521199 0.015346 0.001014 -328980.000000 0 0 1
-19.307739 10.667281 -28.676840 36.179287 -0.504751 2.485909 0.034481 -0.002660 -427131.000000 0 0 1
-9.283239 25.060081 30.859377 40.822632 -1.216030 0.713711 0.059328 -0.018120 -549722.000000 0 0 1
-10.019139 26.276181 31.082097 41.915600 -1.206513 0.735433 0.068236 -0.019990 297074.000000 0 0 1
-9.541139 27.144281 32.126485 43.127211 -1.232788 0.730376 0.080809 -0.022346 -791165.000000 0 0 1
-8.110339 27.623381 31.982847 43.031747 -1.285218 0.732898 0.072439 -0.020274 -941818.000000 0 0 1
-7.807139 28.422081 30.843197 42.662265 -1.302722 0.762716 0.092696 -0.007090 144465.000000 0 0 1
-6.403439 28.565881 30.789777 42.485573 -1.350278 0.760181 0.096497 -0.005166 337907.000000 0 0 1
-5.870539 29.510281 29.626097 42.225887 -1.374428 0.793142 0.116362 -0.016426 7029.180000 0 0 1
-6.313939 30.807781 29.909647 43.400140 -1.368649 0.810467 0.121378 -0.021336 389870.000000 0 0 1
-5.881739 31.799081 28.973087 43.419076 -1.387898 0.840233 0.127212 -0.017096 -35065.500000 0 0 1
-6.430739 33.110381 29.451847 44.777930 -1.378963 0.852993 0.112760 -0.021065 -285632.000000 0 0 1
-5.755339 33.600381 30.604467 45.812039 -1.401155 0.839219 0.119412 -0.032041 92883.600000 0 0 1
-6.462439 -33.627170 31.465977 46.504380 1.380932 0.827628 0.108331 -0.035353 -294251.000000 0 0 1
-7.523439 33.970781 32.433023 47.565923 -1.352846 0.820502 0.085201 -0.034213 -376171.000000 0 0 1
-7.088939 33.155981 33.469354 47.642101 -1.360162 0.791869 0.101880 -0.034276 -295230.000000 0 0 1
-7.167939 31.800881 33.077524 46.441339 -1.349101 0.778108 0.100853 -0.028092 -95471.600000 0 0 1
-7.164539 30.819781 -33.764250 46.273255 -1.342387 2.388637 0.094834 -0.023807 556871.000000 0 0 1
-5.868139 30.652381 -33.172110 45.545498 -1.381643 2.386677 0.090970 -0.023068 465661.000000 0 0 1
-5.886539 30.277281 -31.805200 44.305032 -1.378771 2.371533 0.084042 -0.024708 152596.000000 0 0 1
-4.459139 29.992981 -31.235380 43.532882 -1.423205 2.371021 0.066470 -0.025530 593049.000000 0 0 1
-3.980839 28.692681 -31.497270 42.792465 -1.432936 2.398009 0.086342 -0.022371 329656.000000 0 0 1
-3.406139 28.523581 -32.827630 43.621666 -1.451944 2.422727 0.070926 -0.028669 -512153.000000 0 0 1
-2.675939 27.215681 -33.052840 42.899233 -1.472788 2.450384 0.075004 -0.037242 -892175.000000 0 0 1
-1.563639 26.957681 -32.224560 42.042643 -1.512858 2.444128 0.086089 -0.034273 191409.000000 0 0 1
-0.831739 25.784381 -32.492510 41.488424 -1.538550 2.470545 0.095834 -0.035609 268674.000000 0 0 1
-0.241339 25.497581 -33.905970 42.424046 -1.561331 2.496786 0.085787 -0.020567 -453230.000000 0 0 1
-1.239439 25.121381 33.183450 41.638459 -1.521498 0.648580 0.081003 -0.017155 283130.000000 0 0 1
-0.776239 24.895981 31.854327 40.436500 -1.539627 0.663630 0.088506 -0.010958 57361.700000 0 0 1
-0.262939 26.164581 31.082217 40.629529 -1.560747 0.699731 0.070728 -0.012526 488713.000000 0 0 1
-1.305139 27.132681 30.865277 41.116311 -1.522731 0.721702 0.079336 -0.019452 560250.000000 0 0 1
-0.834839 28.283781 30.164137 41.358728 -1.541288 0.753455 0.085508 -0.016993 22184.000000 0 0 1
-1.858739 29.418581 30.240557 42.230310 -1.507698 0.772617 0.097611 -0.016063 -60435.800000 0 0 1
-2.005939 29.835881 31.535187 43.458849 -1.503665 0.758842 0.112395 -0.025643 -398587.000000 0 0 1
-2.830239 30.931081 31.679737 44.366065 -1.479549 0.775525 0.107037 -0.026414 -393254.000000 0 0 1
-2.545339 31.675781 32.983502 45.801149 -1.490613 0.766784 0.122302 -0.028787 133133.000000 0 0 1
-1.274139 32.262581 32.837419 46.052075 -1.531324 0.776958 0.123416 -0.036829 -406777.000000 0 0 1
-0.695139 32.718381 -34.008590 47.197032 -1.549553 2.375415 0.099457 -0.034405 1203710.000000 0 0 1
0.756261 33.290781 33.707688 47.382024 1.548083 0.779305 0.109573 -0.033192 1086690.000000 0 0 1
0.746461 -33.479370 33.299878 47.226129 -1.548504 0.788210 0.127081 -0.028517 -246078.000000 0 0 1
2.020261 -32.978670 33.010632 46.705202 -1.509613 0.785850 0.086611 -0.021689 -340476.000000 0 0 1
2.093361 -31.469170 32.641101 45.388680 -1.504373 0.768223 0.089922 -0.020031 -44391.000000 0 0 1
1.801761 -30.638970 33.777550 45.638971 -1.512058 0.737572 0.086276 -0.015241 157793.000000 0 0 1
2.241961 -29.332370 33.563661 44.631084 -1.494512 0.719668 0.061624 -0.027663 -16208.900000 0 0 1
1.666861 -28.384270 -33.353220 43.827874 -1.512139 2.435657 0.061837 -0.031021 12942.100000 0 0 1
0.267661 -28.253070 -33.383330 43.735047 -1.561323 2.439215 0.057515 -0.030266 -229806.000000 0 0 1
-0.172439 -27.618070 -32.220610 42.437663 1.564553 2.432950 0.059873 -0.033747 161520.000000 0 0 1
-1.685239 -27.281170 -32.290380 42.305684 1.509102 2.439145 0.085809 -0.035923 83279.700000 0 0 1
-2.180839 -26.659070 -31.139110 41.050046 1.489173 2.431904 0.091349 -0.031593 -167197.000000 0 0 1
-3.538439 -26.319870 -31.225350 40.991201 1.437158 2.436818 0.093991 -0.038877 -371607.000000 0 0 1
-4.061239 -25.548270 -30.009030 39.620066 1.413152 2.430149 0.099373 -0.037184 -474632.000000 0 0 1
-4.396139 -26.468570 -28.979930 39.493640 1.406210 2.394676 0.105247 -0.038060 -133400.000000 0 0 1
-4.780339 -25.827070 -27.793420 38.240860 1.387777 2.384446 0.101889 -0.025189 -250715.000000 0 0 1
-3.712939 -25.302570 -26.823230 37.060648 1.425095 2.380040 0.098166 -0.027053 -163172.000000 0 0 1
-2.991239 -24.142470 -27.262320 36.538206 1.447525 2.413030 0.094635 -0.028815 214877.000000 0 0 1
-1.897439 -23.953570 -26.397130 35.695690 1.491748 2.403131 0.086585 -0.024295 -844538.000000 0 0 1
-0.883239 -22.971870 -27.006230 35.465806 1.532367 2.436378 0.080349 -0.026146 67353.100000 0 0 1
-0.194339 -23.380370 -28.190690 36.625053 1.562484 2.449184 0.055307 -0.029366 1176840.000000 0 0 1
0.873961 -24.353570 -27.959390 37.088916 -1.534925 2.424695 0.049476 -0.026028 1422180.000000 0 0 1
1.882961 -24.752070 -29.154930 38.291258 -1.494870 2.436265 0.033137 -0.031887 776227.000000 0 0 1
2.725261 -23.669570 -29.486580 37.909550 -1.456163 2.461977 0.043790 -0.030701 -316418.000000 0 0 1
3.421661 -24.096870 -30.643750 39.133187 -1.429743 2.470372 0.039803 -0.022778 -591351.000000 0 0 1
4.603861 -23.180570 -31.032840 39.007327 -1.374739 2.490735 0.050111 -0.028922 -725690.000000 0 0 1
5.693361 -23.067870 -30.124900 38.367311 -1.328823 2.473769 0.048140 -0.028528 955169.000000 0 0 1
6.649961 -24.147370 -30.201820 39.236047 -1.302067 2.449241 0.052788 -0.017605 406673.000000 0 0 1
7.469361 -24.310170 -31.513750 40.495582 -1.272699 2.462594 0.062949 -0.015980 -668025.000000 0 0 1
6.631761 -25.039270 -32.414550 41.492751 -1.311887 2.467398 0.033946 -0.019254 336555.000000 0 0 1
6.828561 -24.862770 -33.838290 42.541938 -1.302755 2.490480 0.050287 -0.019570 -29499.800000 0 0 1
6.279861 -23.506670 33.648884 41.524060 -1.309741 0.626053 0.057615 -0.020634 -516564.000000 0 0 1
4.894361 -23.399170 33.766401 41.372040 -1.364601 0.616054 0.065981 -0.024930 -696268.000000 0 0 1
4.440661 -22.210870 33.140453 40.141398 -1.373466 0.599544 0.084824 -0.028485 -17541.700000 0 0 1
2.940561 -21.887570 33.367746 40.013986 -1.437248 0.584656 0.062342 -0.026694 509110.000000 0 0 1
1.996661 -22.868370 32.954121 40.161214 -1.483706 0.608431 0.058614 -0.029590 119751.000000 0 0 1
1.779561 -23.877170 33.862059 41.471980 -1.496404 0.615466 0.055754 -0.024760 -1791630.000000 0 0 1
0.466061 -24.522570 33.620259 41.616048 -1.551793 0.630271 0.054599 -0.021419 -1179190.000000 0 0 1
0.448261 -25.322970 32.408241 41.130862 -1.553096 0.663356 0.058796 -0.014998 -1191470.000000 0 0 1
-0.753939 -25.948470 32.289148 41.430430 1.541749 0.677155 0.058873 -0.016675 -1213660.000000 0 0 1
-0.897339 -26.747870 31.007687 40.960107 1.537261 0.712054 0.059519 -0.026232 174566.000000 0 0 1
-2.199539 -27.283270 30.834657 41.230945 1.490352 0.725975 0.067899 -0.019486 238391.000000 0 0 1
-2.334539 -27.873370 29.567187 40.701270 1.487236 0.757663 0.071381 -0.030771 250184.000000 0 0 1
-3.791039 -27.850570 29.030917 40.408172 1.435507 0.769237 0.082635 -0.025269 -20494.100000 0 0 1
-4.691739 -28.646270 29.738887 41.557461 1.408456 0.773301 0.090903 -0.022847 -425458.000000 0 0 1
-5.839239 -28.891570 28.952547 41.316697 1.371374 0.794352 0.066170 -0.022232 -824495.000000 0 0 1
-6.943639 -29.523570 29.753877 42.487039 1.339805 0.794972 0.059333 -0.019157 -741759.000000 0 0 1
-7.928539 -30.094670 28.895947 42.467948 1.313196 0.822464 0.081858 -0.012485 766397.000000 0 0 1
-9.250939 -30.275070 29.405827 43.207203 1.274244 0.822247 0.069443 -0.015753 459055.000000 0 0 1
-9.481539 -31.325870 30.524927 44.754674 1.276888 0.820234 0.051776 -0.014374 -649323.000000 0 0 1
-9.422239 -32.701270 30.155307 45.469706 1.290264 0.845716 0.077586 -0.015979 558105.000000 0 0 1
-10.573339 -33.073570 29.394117 45.493633 1.261373 0.868313 0.065933 -0.007836 78665.800000 0 0 1
-10.440139 33.608081 28.898357 45.536959 -1.269603 0.883288 0.083236 -0.010891 -179002.000000 0 0 1
-10.702839 32.657881 29.910097 45.559871 -1.254101 0.854626 0.081053 -0.007124 189232.000000 0 0 1
-10.676139 31.337381 29.362667 44.251300 -1.242445 0.845251 0.089159 -0.020272 -216560.000000 0 0 1
-11.157039 30.281381 30.312277 44.275000 -1.217784 0.816692 0.089249 -0.005676 -35209.400000 0 0 1
-12.538639 30.439481 30.562907 44.920716 -1.180056 0.822523 0.078931 0.000438 4989.710000 0 0 1
-13.184639 29.229681 30.988707 44.592700 -1.147053 0.802477 0.072395 0.001058 157473.000000 0 0 1
-13.151639 28.954881 32.517643 45.483489 -1.144446 0.774268 0.084504 -0.014447 164336.000000 0 0 1
-14.055439 29.803781 33.270191 46.826555 -1.130126 0.780590 0.071471 -0.009970 704961.000000 0 0 1
-14.057839 29.368981 -33.396140 46.641849 -1.124364 2.368870 0.070551 -0.011352 -457607.000000 0 0 1
-15.280139 29.926581 -32.689880 46.879752 -1.098715 2.342439 0.052838 -0.011415 -414500.000000 0 0 1
-15.434539 29.357781 -31.410540 45.680700 -1.086770 2.328990 0.046622 -0.016554 -206676.000000 0 0 1
-16.587539 29.853581 -30.771060 45.970000 -1.063641 2.304160 0.049691 -0.017306 -109715.000000 0 0 1
-16.865039 29.196781 -29.397990 44.733917 -1.046985 2.287860 0.066381 -0.027385 18946.900000 0 0 1
-17.137539 27.819881 -29.389200 43.947310 -1.018682 2.303305 0.057269 -0.037029 22102.900000 0 0 1
-17.130639 27.372881 -28.029920 42.759909 -1.011604 2.285666 0.062448 -0.034324 -214191.000000 0 0 1
-17.679039 25.961881 -27.746830 41.910073 -0.972963 2.294356 0.045314 -0.040531 -1428850.000000 0 0 1
-19.042839 25.914581 -27.790720 42.503169 -0.937074 2.283459 0.041316 -0.035445 -1505610.000000 0 0 1
-19.489839 24.589781 -27.508790 41.728224 -0.900584 2.290600 0.025974 -0.030395 630706.000000 0 0 1
-20.995139 24.460681 -27.944600 42.661709 -0.861491 2.285016 0.027277 -0.026974 -8254.810000 0 0 1
-21.857839 24.993481 -26.980670 42.783125 -0.852226 2.253172 0.026855 -0.024094 -1157730.000000 0 0 1
-23.099239 24.697481 -27.520620 43.599598 -0.818824 2.253912 0.041647 -0.030238 -413737.000000 0 0 1
-24.382539 24.862481 -26.653110 43.852474 -0.795144 2.224071 0.059783 -0.035660 446252.000000 0 0 1
-24.827839 26.198581 -26.364970 44.697862 -0.812255 2.201668 0.032516 -0.021920 191366.000000 0 0 1
-25.880159 26.197581 -25.387750 44.728444 -0.791493 2.174381 0.033469 -0.018641 387455.000000 0 0 1
-25.552319 25.813581 -23.940420 43.501789 -0.790484 2.153558 0.027951 -0.006663 -913079.000000 0 0 1
-25.265859 24.427981 -23.742720 42.412341 -0.768539 2.164949 0.043158 -0.006230 -616067.000000 0 0 1
-26.379279 23.592681 -23.679920 42.581916 -0.729693 2.160486 0.056225 -0.003108 5685.610000 0 0 1
-27.298819 23.710581 -22.393020 42.530748 -0.715169 2.125291 0.038410 -0.002593 210754.000000 0 0 1
-26.674159 23.227381 -21.209720 41.241656 -0.716436 2.110963 0.036035 -0.003511 254073.000000 0 0 1
-25.869329 24.224881 -20.599120 40.992570 -0.752583 2.097294 0.038957 -0.001612 180416.000000 0 0 1
-24.931439 23.771881 -19.440520 39.555187 -0.761594 2.084583 0.039567 -0.010726 117868.000000 0 0 1
-25.565939 23.569781 -18.164620 39.231432 -0.744795 2.052187 0.039591 -0.004060 98792.100000 0 0 1
-24.598439 23.357381 -17.174720 38.021329 -0.759525 2.039481 0.046329 -0.012328 -589672.000000 0 0 1
-25.062839 23.372681 -15.703920 37.696700 -0.750517 2.000483 0.036957 -0.011206 -67681.000000 0 0 1
-25.583609 24.707081 -15.315620 38.723754 -0.767971 1.977419 0.043324 -0.018915 507065.000000 0 0 1
-26.135739 24.657481 -13.984020 38.556725 -0.756303 1.941946 0.018134 -0.015394 130248.000000 0 0 1
-26.343929 25.987681 -13.260120 39.308942 -0.778591 1.914876 0.015917 -0.013629 -391499.000000 0 0 1
-25.106079 26.578881 -12.978720 38.796898 -0.813886 1.911903 0.030600 -0.017808 -376139.000000 0 0 1
-25.167429 27.432181 -11.917220 39.088926 -0.828428 1.880603 0.036359 -0.012940 92765.400000 0 0 1
-23.826439 27.985181 -11.369320 38.472470 -0.865493 1.870794 0.045255 -0.012078 312795.000000 0 0 1
-23.005839 26.962181 -10.791320 37.049702 -0.864411 1.866346 0.042269 -0.016416 725776.000000 0 0 1
-21.745039 27.485881 -10.368420 36.548933 -0.901484 1.858432 0.040414 -0.014275 492425.000000 0 0 1
-20.714539 26.411881 -9.989120 35.020881 -0.905709 1.860046 0.075107 -0.019207 -93834.400000 0 0 1
-20.168739 25.600981 -10.996220 34.396295 -0.903532 1.896201 0.079314 -0.021927 31716.200000 0 0 1
-19.355739 24.613181 -10.421020 33.000772 -0.904405 1.892076 0.087173 -0.011966 -523846.000000 0 0 1
-18.724539 23.720081 -11.488220 32.330014 -0.902555 1.934077 0.090847 -0.014096 -347419.000000 0 0 1
-18.214739 22.581181 -10.858320 30.977243 -0.892024 1.928929 0.074053 -0.013639 192305.000000 0 0 1
-17.819639 21.462181 -11.674020 30.239833 -0.877862 1.967140 0.088891 -0.010628 235889.000000 0 0 1
-17.456539 20.127081 -10.912020 28.790664 -0.856335 1.959525 0.067202 -0.005505 589626.000000 0 0 1
-18.604139 19.294181 -10.664820 28.846452 -0.803604 1.949493 0.056611 -0.004321 583266.000000 0 0 1
-18.263639 18.029581 -10.191720 27.613356 -0.778949 1.948822 0.080136 -0.017136 -859085.000000 0 0 1
-19.479239 17.115781 -10.316720 27.907444 -0.720904 1.949457 0.070913 -0.008581 -260709.000000 0 0 1
-19.909939 16.620581 -11.595320 28.409520 -0.695596 1.991222 0.073401 -0.002254 -34350.500000 0 0 1
-20.494439 17.633981 -12.350920 29.724141 -0.710517 1.999309 0.068910 0.000264 -1043240.000000 0 0 1
-21.079739 17.059981 -13.676420 30.371744 -0.680390 2.037899 0.064929 -0.001164 106901.000000 0 0 1
-20.207539 16.630381 -14.696020 30.014783 -0.688596 2.082457 0.066881 -0.003298 242933.000000 0 0 1
-21.064439 16.585481 -15.828820 31.134231 -0.666991 2.104129 0.068025 -0.005189 264174.000000 0 0 1
-20.375739 16.559181 -17.184720 31.379799 -0.682432 2.150333 0.078432 -0.015040 -546578.000000 0 0 1
-19.743739 17.742981 -17.613120 31.856720 -0.732076 2.156620 0.064098 -0.020195 136255.000000 0 0 1
-19.096039 17.562581 -18.856420 32.072847 -0.743592 2.199287 0.074579 -0.013762 -717201.000000 0 0 1
-18.276739 18.822381 -19.170720 32.493657 -0.800105 2.201835 0.061123 -0.017129 -465771.000000 0 0 1
-17.096539 18.727181 -18.395820 31.327386 -0.830885 2.198407 0.077456 -0.014075 -64149.300000 0 0 1
-16.291739 19.861581 -18.592120 31.710725 -0.883821 2.197285 0.082669 -0.025048 -128948.000000 0 0 1
34.083299 30.682081 1.940680 45.900191 0.732930 1.528503 0.070539 -0.025239 -394987.000000 0 0 1
35.278749 30.265981 1.367280 46.502571 0.709068 1.541390 0.090517 -0.028030 -268699.000000 0 0 1
35.239499 30.728081 0.056480 46.755111 0.717116 1.569588 0.067185 -0.023809 -110687.000000 0 0 1
36.664629 30.691681 -0.519320 47.817820 0.696953 1.581657 0.037525 -0.017081 70133.300000 0 0 1
-36.244799 31.613681 0.165980 48.095091 -0.717257 1.567345 0.027634 -0.009312 -309487.000000 0 0 1
-34.987554 31.625081 -0.424820 47.164130 -0.734963 1.579804 0.052097 -0.008330 -282649.000000 0 0 1
-34.001329 32.732781 0.057180 47.196701 -0.766391 1.569585 0.043045 -0.003511 445288.000000 0 0 1
-33.467219 32.701681 1.383380 46.812054 -0.773829 1.541240 0.040921 -0.010618 355392.000000 0 0 1
-32.656069 33.849881 1.657780 47.063590 -0.803347 1.535565 0.031748 0.004154 -232899.000000 0 0 1
-32.177999 33.714881 3.096580 46.708732 -0.808718 1.504452 0.047932 -0.005085 -207721.000000 0 0 1
-31.851719 -33.104970 3.733080 46.091289 0.804689 1.489714 0.040991 0.008152 178748.000000 0 0 1
-31.349869 -33.300870 5.037380 46.012362 0.815567 1.461098 0.048919 -0.008641 -196409.000000 0 0 1
-31.305239 -32.013670 5.976780 45.173166 0.796586 1.438099 0.053655 -0.008401 112080.000000 0 0 1
-32.537379 -31.563270 6.494580 45.794111 0.770203 1.428495 0.061297 -0.008312 37042.900000 0 0 1
-33.067409 -32.309570 7.571380 46.847493 0.773807 1.408467 0.055419 -0.024124 -1335440.000000 0 0 1
-34.196337 -31.530270 8.236880 47.237629 0.744857 1.395529 0.067869 -0.023232 780291.000000 0 0 1
-35.517346 -31.466370 7.672280 48.067434 0.724995 1.410496 0.045780 -0.021051 746600.000000 0 0 1
-36.186469 -32.672970 7.433780 49.317792 0.734418 1.419487 0.039524 -0.016564 -1144100.000000 0 0 1
36.080359 -32.436470 7.179980 49.045580 -0.732266 1.423874 0.041205 -0.011222 -367542.000000 0 0 1
35.427689 -32.302670 8.399880 48.673828 -0.739292 1.397353 0.033151 -0.006333 -398498.000000 0 0 1
34.032399 -32.314070 8.265880 47.652157 -0.759505 1.396452 0.014285 0.008429 -152964.000000 0 0 1
33.241819 -32.276370 9.614380 47.320385 -0.770664 1.366196 0.025524 -0.000573 202340.000000 0 0 1
31.844069 -32.093770 9.373780 46.172746 -0.789304 1.366360 0.026924 -0.006113 307977.000000 0 0 1
31.123659 -32.219970 10.556780 46.024495 -0.802704 1.339363 0.040851 0.001253 -176406.000000 0 0 1
31.157499 -30.902170 11.461880 45.355358 -0.781284 1.315313 0.043934 -0.010091 -480183.000000 0 0 1
30.533789 -29.754370 10.801880 43.980852 -0.772471 1.322653 0.028472 -0.018359 601905.000000 0 0 1
31.321319 -29.058470 9.826480 43.840385 -0.747939 1.344734 0.022190 -0.016239 -53111.100000 0 0 1
30.614089 -27.731670 9.307980 42.342726 -0.736036 1.349161 0.016075 -0.019857 131822.000000 0 0 1
30.947269 -27.318270 7.998480 42.047556 -0.723195 1.379405 0.018027 -0.026313 -90336.900000 0 0 1
30.394949 -26.051470 7.713480 40.767999 -0.708601 1.380445 0.013350 -0.018206 -187664.000000 0 0 1
30.416349 -25.684070 6.213980 40.291925 -0.701244 1.415954 0.004653 -0.006743 1270430.000000 0 0 1
31.769229 -25.395470 5.783380 41.081154 -0.674359 1.429548 0.019193 -0.015487 867136.000000 0 0 1
31.734709 -24.546270 4.631780 40.386439 -0.658362 1.455857 0.021359 -0.008428 639725.000000 0 0 1
33.197479 -24.244670 4.180780 41.320159 -0.630784 1.469443 0.029652 -0.011212 917577.000000 0 0 1
33.971429 -25.405070 3.861780 42.595644 -0.642115 1.480010 0.017007 0.004036 -564273.000000 0 0 1
35.312769 -25.107370 3.583680 43.476596 -0.618070 1.488275 0.030283 -0.003513 -6715.000000 0 0 1
36.070139 -26.436370 3.397980 44.849558 -0.632477 1.494960 0.034587 -0.003322 -93839.900000 0 0 1
35.953499 -27.126270 4.599880 45.273032 -0.646363 1.469018 0.010141 -0.004235 -286245.000000 0 0 1
36.501819 -28.410970 4.567580 46.480413 -0.661396 1.472369 0.018761 -0.005129 -745922.000000 0 0 1
36.065099 -29.330170 5.817280 46.848596 -0.682772 1.446303 0.026571 -0.005296 989406.000000 0 0 1
34.706289 -29.766770 5.848380 46.095451 -0.708934 1.443578 0.010723 0.003042 654880.000000 0 0 1
33.657269 -28.786770 5.895680 44.679401 -0.707558 1.438455 0.000620 0.005605 -606835.000000 0 0 1
32.329099 -29.546270 6.027280 44.209510 -0.740454 1.434036 -0.001279 0.000928 -335919.000000 0 0 1
31.775599 -30.097170 4.847280 44.034355 -0.758278 1.460493 -0.011251 0.002714 169155.000000 0 0 1
30.877409 -29.187570 4.185880 42.694850 -0.757272 1.472597 0.004085 -0.003968 248637.000000 0 0 1
29.517669 -29.824970 3.803080 42.134131 -0.790577 1.480412 0.010781 0.003349 201691.000000 0 0 1
29.625759 -30.968570 3.018080 42.963318 -0.807555 1.500491 0.019300 0.012672 818110.000000 0 0 1
28.358239 -31.700370 3.072580 42.644389 -0.840989 1.498683 0.041958 0.006811 1153720.000000 0 0 1
28.344039 -33.200470 2.633980 43.733209 -0.864144 1.510531 0.049205 0.006947 -287847.000000 0 0 1
28.324839 -33.260870 1.214780 43.704206 -0.865376 1.542997 0.053357 -0.001633 143995.000000 0 0 1
28.350039 33.549981 0.671480 43.929225 0.869207 1.555510 0.051630 0.002742 -386864.000000 0 0 1
28.224039 33.523681 -0.885520 43.831697 0.871016 1.591000 0.044704 0.002748 28580.600000 0 0 1
29.308139 -34.054670 -1.643020 44.959838 -0.860169 1.607349 0.034434 -0.000723 -30920.700000 0 0 1
29.053359 34.014881 -3.009720 44.834899 0.863906 1.637976 0.047367 -0.000466 180046.000000 0 0 1
30.119749 -33.335070 -3.838920 45.090614 -0.836026 1.656037 0.020685 0.003888 184569.000000 0 0 1
30.086069 -31.915070 -3.772520 44.022439 -0.814889 1.656597 0.011906 0.007646 86712.800000 0 0 1
30.965149 -31.343770 -4.735420 44.313616 -0.791475 1.677862 0.001181 0.014072 -61459.100000 0 0 1
31.252069 -29.822270 -4.609720 43.443171 -0.761992 1.677106 -0.003911 0.015073 -1418870.000000 0 0 1
30.264049 -28.928570 -4.934220 42.155917 -0.762840 1.688112 0.000516 0.004908 -832313.000000 0 0 1
30.622679 -27.556770 -4.854820 41.481240 -0.732749 1.688102 0.004485 -0.003687 52511.700000 0 0 1
31.654909 -27.030270 -5.884120 42.039167 -0.706756 1.711225 0.026260 -0.006640 -432277.000000 0 0 1
32.886529 -27.683370 -5.809020 43.377845 -0.699705 1.705117 0.027833 0.003396 -1573570.000000 0 0 1
33.745479 -27.173470 -6.717320 43.843781 -0.677933 1.724612 0.044712 -0.009332 -801526.000000 0 0 1
33.971079 -28.081870 -7.937020 44.784170 -0.690775 1.748966 0.051045 -0.022188 -523499.000000 0 0 1
32.832409 -28.201570 -8.759820 44.159144 -0.709670 1.770490 0.050588 -0.023549 -300893.000000 0 0 1
32.798319 -29.283770 -9.641820 45.013704 -0.728847 1.786666 0.041313 -0.011994 160768.000000 0 0 1
32.576649 -30.717470 -9.088620 45.688117 -0.756033 1.771060 0.034023 -0.008676 -689389.000000 0 0 1
33.711569 -31.242070 -8.516020 46.744619 -0.747397 1.754001 0.041935 -0.006033 -1252190.000000 0 0 1
33.571609 -32.531270 -8.006420 47.428253 -0.769661 1.740420 0.042809 -0.014491 -201854.000000 0 0 1
34.721329 -32.983570 -7.113820 48.415834 -0.759737 1.718262 0.040832 -0.013583 -431249.000000 0 0 1
34.580189 33.918081 -6.361220 48.853769 0.775732 1.701377 0.024142 -0.010929 8797.960000 0 0 1
33.706469 33.991681 -5.232420 48.155359 0.789611 1.679668 0.031823 -0.009923 181344.000000 0 0 1
33.600339 32.574381 -4.586520 47.022433 0.769896 1.668491 0.006473 -0.004734 405354.000000 0 0 1
32.816629 31.646181 -5.391820 45.907337 0.767243 1.688518 0.016642 -0.016541 463904.000000 0 0 1
32.638969 30.388581 -4.798320 44.853004 0.749708 1.677980 0.022356 -0.003943 398255.000000 0 0 1
31.372229 29.679281 -5.362020 43.518131 0.757675 1.694324 0.037044 -0.020524 86448.900000 0 0 1
31.550669 29.273481 -6.722120 43.561086 0.747977 1.725730 0.019869 -0.011511 955367.000000 0 0 1
30.298989 28.955781 -7.396420 42.557878 0.762734 1.745480 0.019098 -0.016344 1131340.000000 0 0 1
30.560639 28.642381 -8.865820 42.812865 0.753008 1.779389 0.031727 -0.009842 -305752.000000 0 0 1
31.225239 27.438281 -9.092420 42.550521 0.720934 1.786142 0.036542 -0.006844 4266.390000 0 0 1
31.653799 27.236881 -10.473920 43.052452 0.710536 1.816545 0.034147 -0.001800 -78335.300000 0 0 1
32.879859 27.995181 -10.954220 44.551209 0.705329 1.819223 0.048246 -0.008344 -1016040.000000 0 0 1
34.078849 27.721581 -10.265520 45.113577 0.682891 1.800356 0.049704 -0.011789 185210.000000 0 0 1
35.145959 28.582281 -10.623220 46.529969 0.682765 1.801137 0.063175 -0.011428 74102.800000 0 0 1
35.244339 30.022981 -10.021020 47.370493 0.705569 1.783952 0.054215 -0.014929 -704088.000000 0 0 1
35.917849 29.980381 -8.782720 47.603059 0.695540 1.756358 0.037061 -0.007452 50588.500000 0 0 1
35.739409 31.221981 -8.075720 48.138702 0.718037 1.739353 0.030019 -0.010991 -708274.000000 0 0 1
36.664379 31.240581 -6.859720 48.654972 0.705694 1.712255 0.033232 -0.010553 162047.000000 0 0 1
-35.709054 31.349481 -7.020420 48.033455 -0.720478 1.717479 0.056447 -0.007708 -108241.000000 0 0 1
-35.008591 30.253081 -7.598020 46.889020 -0.712658 1.733557 0.069738 -0.006599 30250.500000 0 0 1
-33.531639 30.547281 -8.000520 46.059912 -0.738859 1.745380 0.111830 -0.013023 617101.000000 0 0 1
-32.667099 31.098481 -6.986420 45.640606 -0.760803 1.724475 0.101042 -0.025619 425855.000000 0 0 1
-31.356119 31.339681 -7.456420 44.955311 -0.785136 1.737429 0.107357 -0.029207 187347.000000 0 0 1
-31.073989 32.580381 -8.336420 45.788316 -0.809059 1.753882 0.083827 -0.021647 -323746.000000 0 0 1
-31.282929 33.827881 -7.777920 46.727328 -0.824465 1.738028 0.068350 -0.012816 983676.000000 0 0 1
-30.086239 -33.838370 -7.094820 45.831796 0.844027 1.726223 0.097871 -0.023021 959990.000000 0 0 1
-30.308469 -32.388570 -6.493220 44.830622 0.818563 1.716147 0.080791 -0.022306 339059.000000 0 0 1
-31.396629 -32.186770 -5.593720 45.310332 0.797824 1.694566 0.068588 -0.025410 211566.000000 0 0 1
-31.181529 -32.767470 -4.328220 45.439282 0.810193 1.666194 0.076321 -0.027024 -440420.000000 0 0 1
-32.454899 -32.912570 -3.493620 46.354753 0.792400 1.646235 0.061291 -0.021412 -737075.000000 0 0 1
-32.990269 -31.663070 -3.193420 45.837820 0.764873 1.640521 0.047269 -0.011496 -415392.000000 0 0 1
-33.675639 -31.648770 -1.979920 46.255955 0.754380 1.613613 0.066941 -0.011067 -303060.000000 0 0 1
-34.631325 -30.429570 -1.907720 46.140295 0.720906 1.612154 0.076446 -0.006361 49104.600000 0 0 1
-35.369952 -30.472770 -0.691820 46.691561 0.711158 1.585614 0.061444 -0.001800 -321913.000000 0 0 1
-36.214709 -29.352370 -0.632320 46.620453 0.681116 1.584360 0.080067 -0.006967 84171.500000 0 0 1
36.489699 -29.366870 0.511880 46.842002 -0.677660 1.559868 0.069323 -0.002865 -869124.000000 0 0 1
35.371719 -30.180770 0.253180 46.498403 -0.706375 1.565351 0.018193 0.000716 -221414.000000 0 0 1
34.464249 -30.214670 1.332180 45.852867 -0.719790 1.541739 0.015976 0.001066 378044.000000 0 0 1
33.651889 -28.878370 1.544480 44.371108 -0.709207 1.535981 -0.003274 0.023275 -1162200.000000 0 0 1
32.797339 -28.603370 0.455380 43.520404 -0.717199 1.560333 -0.009196 0.010904 -146221.000000 0 0 1
32.227709 -27.328670 0.642880 42.259847 -0.703324 1.555583 -0.002404 0.007648 799088.000000 0 0 1
30.921229 -27.077270 -0.247020 41.101848 -0.719218 1.576806 -0.006711 -0.003752 2622700.000000 0 0 1
29.621989 -27.641570 0.157980 40.515967 -0.750828 1.566897 -0.000882 0.010236 1687950.000000 0 0 1
29.521069 -29.041370 0.120880 41.411463 -0.777207 1.567877 0.002301 0.009008 -650396.000000 0 0 1
29.107739 -29.658870 -1.171920 41.572616 -0.794776 1.598990 0.002815 0.007818 466897.000000 0 0 1
27.725239 -29.372270 -1.442920 40.416594 -0.814236 1.606505 0.021117 0.011113 541762.000000 0 0 1
27.460739 -29.839970 -2.763120 40.646658 -0.826896 1.638828 0.024829 0.008418 11986.400000 0 0 1
25.984739 -30.181170 -2.985620 39.937746 -0.859975 1.645623 0.041365 -0.003407 131621.000000 0 0 1
25.013739 -29.160570 -3.021620 38.537724 -0.861795 1.649284 0.058010 -0.002089 -778561.000000 0 0 1
23.752739 -29.653470 -3.329420 38.139296 -0.895440 1.658204 0.049413 -0.000796 -587207.000000 0 0 1
22.716439 -28.518170 -3.323920 36.611078 -0.898156 1.661712 0.053923 0.001756 -191731.000000 0 0 1
22.541139 -27.962470 -4.579220 36.207346 -0.892334 1.697608 0.059958 -0.004395 -59166.600000 0 0 1
22.257239 -26.604370 -4.607120 34.991466 -0.874133 1.702844 0.068000 -0.009551 -292410.000000 0 0 1
21.622739 -26.037870 -5.899320 34.355720 -0.877771 1.743364 0.069020 -0.022556 -529458.000000 0 0 1
20.276539 -26.403970 -5.962420 33.820971 -0.915915 1.748016 0.075367 -0.020658 -802792.000000 0 0 1
19.779539 -25.776170 -7.153620 33.268835 -0.916279 1.787513 0.084196 -0.018798 435857.000000 0 0 1
18.256439 -25.940970 -7.402420 32.573414 -0.957546 1.800053 0.087598 -0.017846 885530.000000 0 0 1
17.420039 -25.117070 -6.563520 31.263473 -0.964410 1.782312 0.082527 -0.018586 217439.000000 0 0 1
16.038239 -25.299370 -6.772120 30.710663 -1.005795 1.793137 0.082141 -0.019450 1370.180000 0 0 1
15.153739 -24.442870 -5.853920 29.348902 -1.015825 1.771603 0.058901 -0.010811 -239721.000000 0 0 1
15.085139 -25.014570 -4.551220 29.563554 -1.028134 1.725358 0.038481 -0.001639 -10598.300000 0 0 1
14.859939 -24.065070 -3.502420 28.499339 -1.017616 1.694003 0.053012 -0.003611 -120982.000000 0 0 1
14.886539 -24.815070 -2.147520 29.017384 -1.030451 1.644872 0.044380 0.000748 -234317.000000 0 0 1
14.005939 -25.856070 -1.942320 29.469904 -1.074357 1.636753 0.048540 0.001839 -163110.000000 0 0 1
14.682539 -27.055670 -2.290420 30.867981 -1.073591 1.645065 0.041291 -0.003338 102507.000000 0 0 1
13.775339 -28.285070 -2.259320 31.542188 -1.117588 1.642486 0.045661 0.003191 -60039.100000 0 0 1
13.208439 -28.514570 -0.977420 31.440402 -1.137006 1.601889 0.068047 -0.009348 767.924000 0 0 1
12.482139 -29.729870 -0.875320 32.255777 -1.173294 1.597937 0.076418 -0.015090 322368.000000 0 0 1
13.412739 -30.924470 -0.494020 33.711548 -1.161558 1.585451 0.070173 -0.016856 43850.300000 0 0 1
14.350739 -31.286570 -1.451520 34.451416 -1.140742 1.612941 0.077262 -0.015753 -797313.000000 0 0 1
14.859739 -32.554870 -1.235420 35.807229 -1.142590 1.605305 0.078501 -0.022907 -444979.000000 0 0 1
16.307239 -32.632770 -1.758520 36.522816 -1.107373 1.618963 0.058996 -0.014437 -166318.000000 0 0 1
17.127239 -31.701970 -1.086920 36.049114 -1.075463 1.600952 0.051023 -0.005708 -768588.000000 0 0 1
18.401539 -31.719570 -1.657320 36.708234 -1.045114 1.615960 0.055137 -0.007336 -781681.000000 0 0 1
19.347639 -30.693170 -1.058020 36.297675 -1.008354 1.599949 0.052244 -0.005781 -360134.000000 0 0 1
18.977739 -29.345670 -1.394320 34.975234 -0.996747 1.610673 0.041276 0.000375 138663.000000 0 0 1
19.183839 -28.450670 -0.330620 34.315734 -0.977539 1.580431 0.043100 0.003472 -119682.000000 0 0 1
18.875139 -26.948370 -0.736420 32.909388 -0.959790 1.593175 0.036666 0.000615 201818.000000 0 0 1
19.665139 -26.336870 -1.758420 32.915656 -0.929425 1.624244 0.042930 -0.004846 1041860.000000 0 0 1
18.857139 -26.276370 -2.996420 32.481038 -0.948325 1.663179 0.055255 0.003417 751009.000000 0 0 1
32.978729 -28.914270 13.742280 45.961743 -0.719823 1.267158 0.029938 -0.029070 73616.400000 0 0 1
33.787549 -29.319170 14.840280 47.132219 -0.714709 1.250482 0.040600 -0.016288 53690.600000 0 0 1
33.026539 -29.986870 15.805480 47.326291 -0.737197 1.230286 0.032420 -0.012540 24043.600000 0 0 1
33.799119 -30.266670 17.114180 48.490688 -0.730316 1.210088 0.029701 -0.004419 -186387.000000 0 0 1
32.983319 -30.786070 18.131680 48.625500 -0.750956 1.188681 0.029019 -0.009149 66832.100000 0 0 1
33.776349 -30.953270 19.285980 49.708104 -0.741812 1.172352 0.025027 0.001915 232426.000000 0 0 1
34.471649 -32.380770 19.328080 51.091912 -0.754132 1.182837 0.022607 0.003001 85092.200000 0 0 1
35.489099 -32.502470 18.353680 51.504798 -0.741500 1.206439 0.032824 0.006111 -4366.610000 0 0 1
36.188149 -33.734870 18.463080 52.806333 -0.750327 1.213612 0.045227 0.004780 -682332.000000 0 0 1
-36.469909 -33.906070 17.468980 52.771594 0.748984 1.233401 0.056024 0.005955 -272764.000000 0 0 1
-35.382752 -33.032770 17.786680 51.570040 0.751063 1.218661 0.079124 0.007738 712384.000000 0 0 1
-34.345242 -32.985070 16.818780 50.502295 0.765199 1.231281 0.089700 0.008707 -122255.000000 0 0 1
-33.095869 -32.146870 17.145180 49.221083 0.770854 1.215007 0.077473 0.001954 -51128.200000 0 0 1
-32.088359 -32.232370 16.163980 48.268651 0.787637 1.229323 0.092712 -0.010323 -146689.000000 0 0 1
-32.276109 -31.388670 15.053780 47.472224 0.771460 1.248119 0.101788 -0.011596 -20664.800000 0 0 1
-31.017129 -31.429570 14.096780 46.352986 0.792003 1.261784 0.092348 -0.023015 853414.000000 0 0 1
-29.851899 -31.020770 14.777680 45.517072 0.804598 1.240142 0.092218 -0.026876 -1075910.000000 0 0 1
-28.799189 -30.866570 13.908080 44.447420 0.820034 1.252540 0.080635 -0.022135 -579123.000000 0 0 1
-27.505589 -30.358170 14.546280 43.471487 0.834657 1.229598 0.074837 -0.025178 -565293.000000 0 0 1
-26.377449 -30.557270 13.799780 42.660878 0.858681 1.241395 0.073653 -0.026082 -1243070.000000 0 0 1
-25.212609 -29.970570 14.316780 41.699891 0.871407 1.220337 0.060095 -0.021815 487605.000000 0 0 1
-24.004739 -29.882770 13.325480 40.580486 0.894048 1.236217 0.080832 -0.021355 717270.000000 0 0 1
-23.264139 -31.116270 13.231680 41.042901 0.928800 1.242547 0.088784 -0.026566 308394.000000 0 0 1
-22.043839 -31.016270 12.529880 40.061674 0.952913 1.252694 0.087788 -0.027414 365381.000000 0 0 1
-21.541539 -32.425970 12.161780 40.784682 0.984413 1.267995 0.074389 -0.024120 -340003.000000 0 0 1
-22.465739 -32.952070 11.280980 41.446458 0.972410 1.295136 0.064129 -0.031725 -268475.000000 0 0 1
-22.229739 33.792781 11.043480 41.929366 -0.988940 1.304269 0.076003 -0.027878 412237.000000 0 0 1
-23.215339 33.032181 10.061880 41.609114 -0.958187 1.326556 0.060697 -0.024939 344836.000000 0 0 1
-23.052239 33.494281 8.751280 41.591555 -0.968004 1.358802 0.044637 -0.019273 224930.000000 0 0 1
-24.135439 33.065181 7.940980 41.699937 -0.940261 1.379195 0.034475 -0.022185 -595701.000000 0 0 1
-23.865539 33.186081 6.416680 41.376970 -0.947338 1.415089 0.039778 -0.013606 -7049.760000 0 0 1
-22.936639 32.237081 5.856980 39.995287 -0.952395 1.423826 0.027236 -0.011263 942527.000000 0 0 1
-21.553939 32.314781 6.194080 39.334259 -0.982563 1.412665 0.048002 -0.013871 133479.000000 0 0 1
-20.703639 33.525781 5.717680 39.815958 -1.017577 1.426695 0.058888 -0.015344 -529158.000000 0 0 1
-20.748839 -33.442470 6.570380 39.900915 1.015487 1.405376 0.063617 -0.014598 108341.000000 0 0 1
-20.095039 -33.610370 7.820680 39.932826 1.031936 1.373676 0.064659 -0.014799 -306318.000000 0 0 1
-20.049439 -32.270670 8.609380 38.955071 1.014869 1.347948 0.071078 -0.020351 -111871.000000 0 0 1
-19.188739 -31.302870 8.001280 37.577890 1.020871 1.356228 0.097416 -0.032015 136829.000000 0 0 1
-18.994139 -30.024970 8.618480 36.558916 1.006742 1.332814 0.095382 -0.035075 -25611.600000 0 0 1
-18.369239 -30.011770 10.018080 36.585478 1.021551 1.293427 0.084221 -0.024661 269164.000000 0 0 1
-17.012539 -30.430270 9.940180 36.252379 1.061019 1.293045 0.087552 -0.034400 184687.000000 0 0 1
-16.347139 -30.276670 11.189480 36.181627 1.075721 1.256383 0.092669 -0.028821 39591.100000 0 0 1
-14.992039 -30.983170 11.345880 36.241510 1.120130 1.252380 0.082508 -0.026551 178128.000000 0 0 1
-13.946539 -30.273370 10.701780 35.007299 1.139091 1.260121 0.081683 -0.025489 -70804.500000 0 0 1
-12.883839 -31.124070 10.325180 35.232235 1.178321 1.273370 0.082352 -0.019705 187184.000000 0 0 1
-11.692939 -30.414170 9.620580 33.975022 1.203761 1.283702 0.089669 -0.012429 7102.210000 0 0 1
-10.815339 -29.882770 10.569480 33.491273 1.223537 1.249719 0.071787 -0.021119 -907314.000000 0 0 1
-9.928239 -29.015670 9.948680 32.240584 1.241116 1.257100 0.085447 -0.020336 -246227.000000 0 0 1
-8.947139 -28.377070 10.962380 31.709354 1.265367 1.217796 0.084388 -0.023153 23702.300000 0 0 1
-9.472639 -27.431870 11.836880 31.342465 1.238301 1.183526 0.067433 -0.025690 -1100760.000000 0 0 1
-8.583939 -27.169770 12.839080 31.252558 1.264783 1.147446 0.063629 -0.021820 -604502.000000 0 0 1
-8.990339 -25.913670 13.685080 30.653318 1.236855 1.108006 0.069118 -0.026714 120189.000000 0 0 1
-8.868739 -24.618970 13.103680 29.265246 1.225028 1.106543 0.051068 -0.024106 -262888.000000 0 0 1
-9.771439 -24.315270 12.062480 28.848168 1.188684 1.139403 0.054341 -0.020695 51160.500000 0 0 1
-9.329839 -23.020370 11.338080 27.304494 1.185741 1.142583 0.043820 -0.014146 310810.000000 0 0 1
-8.143739 -23.047470 10.559380 26.627183 1.231143 1.163026 0.028888 -0.017349 -159881.000000 0 0 1
-7.784539 -21.740670 10.257880 25.268159 1.226956 1.152767 0.024148 -0.009238 -326309.000000 0 0 1
-6.554539 -21.718370 9.326280 24.528128 1.277692 1.180754 0.023812 -0.010274 -43511.900000 0 1 0
-5.416339 -22.368470 9.839480 25.029993 1.333227 1.166787 0.035898 -0.016360 -766205.000000 0 0 1
-4.553939 -22.579470 8.765380 24.645541 1.371781 1.207178 0.033614 -0.017809 -91246.900000 0 1 0
-3.201539 -23.244370 9.126580 25.176279 1.433924 1.199840 0.045937 -0.025246 -15260.300000 0 0 1
-2.393039 -22.459370 9.969380 24.688833 1.464647 1.155128 0.048814 -0.024772 -517897.000000 0 1 0
-1.289239 -23.264370 10.337380 25.490282 1.515436 1.153225 0.060359 -0.032136 54470.100000 0 0 1
-0.471239 -22.615770 11.462080 25.358911 1.549963 1.101797 0.054814 -0.031194 -404675.000000 0 0 1
-1.160539 -22.489770 12.671280 25.839852 1.519239 1.058274 0.050416 -0.025923 -363452.000000 0 0 1
-0.310939 -22.435470 13.816180 26.350215 1.556938 1.018869 0.071701 -0.023312 466733.000000 0 0 1
0.536261 -21.095270 13.936380 25.288746 -1.545381 0.987126 0.057026 -0.026462 -320289.000000 0 0 1
1.608661 -21.017970 13.075080 24.805253 -1.494408 1.015601 0.062425 -0.028231 -894317.000000 0 1 0
2.046961 -19.668770 12.819980 23.566978 -1.467098 0.995623 0.048292 -0.027943 221889.000000 0 1 0
3.570361 -19.504170 12.609180 23.497905 -1.389745 1.004383 0.057030 -0.023823 241546.000000 0 1 0
4.054661 -20.255970 11.516180 23.650940 -1.373236 1.062233 0.064919 -0.011640 949305.000000 0 1 0
5.484261 -20.107370 11.287380 23.702075 -1.304524 1.074446 0.086538 -0.021427 1373690.000000 0 1 0
5.998061 -20.966770 10.148080 24.053393 -1.292164 1.135259 0.099768 -0.027773 -526454.000000 0 1 0
5.842961 -20.396370 8.890280 23.004112 -1.291798 1.174001 0.086521 -0.027794 -390093.000000 0 1 0
6.168361 -21.297870 7.834380 23.516493 -1.288886 1.231160 0.080341 -0.030775 41467.000000 0 1 0
7.653861 -21.734570 7.700180 24.295388 -1.232206 1.248295 0.076128 -0.022368 47417.400000 0 1 0
8.503961 -20.818170 6.990080 23.549411 -1.182995 1.269429 0.089512 -0.032583 92094.500000 0 1 0
8.959561 -19.680070 7.681580 22.947452 -1.143576 1.229460 0.093907 -0.026446 319466.000000 0 1 0
9.977961 -19.824270 8.864180 23.898432 -1.104496 1.190807 0.084940 -0.019019 285953.000000 0 1 0
9.272261 -20.316670 9.985180 24.463150 -1.142644 1.150345 0.099473 -0.019753 -235786.000000 0 1 0
9.997361 -20.066970 11.168180 25.047130 -1.108590 1.108632 0.097482 -0.011985 -79343.800000 0 0 1
9.126761 -20.195770 12.409180 25.399894 -1.146351 1.060366 0.102927 -0.016680 -206004.000000 0 0 1
8.937461 -21.571070 12.776280 26.616209 -1.178001 1.070120 0.084865 -0.027573 -204191.000000 0 0 1
8.155761 -21.616270 13.953480 26.990353 -1.210013 1.027477 0.099554 -0.028815 156937.000000 0 0 1
8.274561 -22.899670 14.798680 28.493230 -1.224055 1.024677 0.102338 -0.030961 145914.000000 0 0 1
7.856161 -24.054370 14.131080 28.983088 -1.255118 1.061500 0.099425 -0.030153 -354566.000000 0 0 1
7.626161 -25.214570 14.887380 30.258337 -1.277093 1.056400 0.096477 -0.032712 344477.000000 0 0 1
7.603961 -26.426470 13.940780 30.830567 -1.290625 1.101595 0.094755 -0.036566 933097.000000 0 0 1
8.931661 -26.813570 13.561880 31.347515 -1.249254 1.123388 0.096549 -0.026738 443854.000000 0 0 1
8.882461 -27.765670 12.563880 31.744001 -1.261177 1.163871 0.082226 -0.035046 161996.000000 0 0 1
10.235161 -28.057670 11.874980 32.140418 -1.221007 1.192356 0.083387 -0.031409 560475.000000 0 0 1
11.233261 -28.764970 12.621180 33.360213 -1.198490 1.182804 0.076802 -0.032158 925292.000000 0 0 1
12.438561 -28.864070 11.849280 33.589548 -1.163909 1.210270 0.080966 -0.023899 428981.000000 0 0 1
13.608261 -29.676370 12.419880 34.930289 -1.140851 1.207281 0.076426 -0.020997 -1251100.000000 0 0 1
14.280861 -28.882570 13.400080 34.895673 -1.111602 1.176667 0.074880 -0.020147 164294.000000 0 0 1
15.247561 -29.643570 14.136380 36.208653 -1.095724 1.169715 0.067802 -0.010049 174783.000000 0 0 1
16.515161 -29.931370 13.318280 36.688064 -1.066597 1.199296 0.073321 -0.008026 -1502490.000000 0 0 1
17.192761 -28.752170 12.995480 35.932726 -1.031875 1.200747 0.066861 -0.020912 1962000.000000 0 0 1
18.590361 -29.059370 12.612980 36.730583 -1.001670 1.220270 0.049859 -0.020597 1768150.000000 0 0 1
19.397561 -27.793270 12.201080 36.022182 -0.961466 1.225251 0.049479 -0.024312 -76740.900000 0 0 1
20.771361 -28.058470 12.133280 36.958675 -0.933540 1.236300 0.035140 -0.023984 -234953.000000 0 0 1
21.641861 -27.029470 11.753980 36.566630 -0.895643 1.243546 0.034536 -0.022547 170320.000000 0 0 1
23.060961 -27.428270 11.315480 37.578691 -0.871683 1.264935 0.045900 -0.026872 168299.000000 0 0 1
23.871461 -27.871870 12.416080 38.740764 -0.862557 1.244548 0.059271 -0.027264 -559404.000000 0 0 1
24.990061 -28.521770 11.952480 39.759983 -0.851301 1.265458 0.043465 -0.027608 -1700000.000000 0 0 1
25.968161 -28.970870 13.028880 41.029360 -0.839999 1.247652 0.057280 -0.024379 -84247.000000 0 0 1
26.970261 -28.045970 13.458180 41.171519 -0.804948 1.237795 0.047978 -0.028220 188267.000000 0 0 1
28.116261 -28.199170 12.634880 41.777476 -0.786870 1.263552 0.033064 -0.027282 -255288.000000 0 0 1
29.404161 -27.580870 13.266580 42.441857 -0.753413 1.252886 0.043634 -0.029539 -3436.900000 0 0 1
29.417361 -26.182370 13.373780 41.590331 -0.727280 1.243420 0.047162 -0.024755 -418228.000000 0 0 1
28.685761 -25.563970 14.372780 41.023971 -0.727917 1.212851 0.051853 -0.029209 -324753.000000 0 0 1
29.370161 -25.373970 15.789780 41.901812 -0.712530 1.184427 0.047786 -0.022084 -423515.000000 0 0 1
29.629761 -26.591470 16.424480 43.067302 -0.731409 1.179521 0.052962 -0.022716 142053.000000 0 0 1
30.108661 -26.287570 17.732180 43.726399 -0.717747 1.153242 0.054073 -0.003571 -25205.700000 0 0 1
30.627861 -27.511370 18.517180 45.142300 -0.731845 1.148128 0.048965 0.003935 -723125.000000 0 0 1
29.612761 -28.290670 18.981380 45.139455 -0.762569 1.136794 0.033362 0.000120 -876090.000000 0 0 1
30.050761 -29.229870 19.907280 46.408332 -0.771552 1.127456 0.046645 -0.003392 112637.000000 0 0 1
28.793161 -29.981470 20.383680 46.297182 -0.805613 1.114887 0.029550 0.007930 -677508.000000 0 0 1
27.912861 -29.099070 21.075480 45.497907 -0.806201 1.089173 0.026962 0.011387 1216190.000000 0 0 1
26.670361 -29.675570 21.577780 45.360205 -0.838683 1.075038 0.034865 0.006600 1632050.000000 0 0 1
25.675961 -30.259970 20.528680 44.680504 -0.867166 1.093415 0.048923 0.002449 -1084700.000000 0 0 1
26.156461 -31.414270 19.836680 45.436887 -0.876473 1.119006 0.036188 0.005791 -440872.000000 0 0 1
25.464761 -31.780270 18.675380 44.801891 -0.895278 1.140826 0.061409 -0.005076 -450183.000000 0 0 1
25.872461 -31.107270 17.292680 44.000946 -0.877012 1.166897 0.057215 -0.004462 800609.000000 0 0 1
27.189461 -31.360370 16.773680 44.767130 -0.856515 1.186737 0.062956 -0.015945 349512.000000 0 0 1
27.608161 -30.219170 16.068680 43.972847 -0.830519 1.196709 0.069164 -0.031408 -505936.000000 0 0 1
28.975761 -30.464970 15.419580 44.782503 -0.810447 1.219280 0.079789 -0.027490 -487168.000000 0 0 1
29.090361 -31.570170 14.559680 45.331104 -0.826256 1.243816 0.110810 -0.022399 121369.000000 0 0 1
29.197661 -32.865270 15.163380 46.503306 -0.844425 1.238652 0.104963 -0.022066 -695422.000000 0 0 1
28.469161 -33.953570 14.409680 46.593743 -0.873032 1.256379 0.113498 -0.022217 -338594.000000 0 0 1
28.830161 34.024481 13.005580 46.454156 0.867851 1.287038 0.119325 -0.017210 89528.700000 0 0 1
27.931461 33.199381 12.308380 45.098355 0.871360 1.294366 0.107766 -0.020380 -308214.000000 0 0 1
28.272261 32.926581 10.846180 44.733881 0.861304 1.325896 0.111768 -0.019729 -282992.000000 0 0 1
29.360661 32.033381 10.842980 44.785668 0.828905 1.326258 0.097102 -0.010878 -20986.000000 0 0 1
29.596161 31.383881 9.624080 44.198457 0.814706 1.351291 0.096384 -0.018478 37517.000000 0 0 1
31.110561 31.057181 9.494280 44.972845 0.784540 1.358084 0.071908 -0.015522 402936.000000 0 0 1
31.568461 30.152481 10.501080 44.900028 0.762461 1.334733 0.071555 -0.010770 -35293.400000 0 0 1
32.970761 30.018381 10.526580 45.814661 0.738561 1.338961 0.069075 -0.009272 84717.600000 0 0 1
33.504261 29.109181 11.644780 45.885518 0.715319 1.314211 0.064501 -0.007586 3456.150000 0 0 1
33.248261 27.741381 11.353280 44.765255 0.695350 1.314377 0.065716 -0.020368 151843.000000 0 0 1
33.495061 26.943981 12.486980 44.764069 0.677428 1.288095 0.072329 -0.024367 -112273.000000 0 0 1
33.258061 25.450781 12.211780 43.623026 0.653191 1.287066 0.076753 -0.034701 98726.400000 0 0 1
34.208561 24.775681 11.376380 43.743365 0.626819 1.307701 0.070378 -0.023088 374124.000000 0 0 1
34.424861 23.385381 11.612480 43.206444 0.596709 1.298683 0.087192 -0.024429 -233158.000000 0 0 1
33.256861 22.511881 11.072980 41.658306 0.595060 1.301758 0.078073 -0.026852 -157302.000000 0 0 1
32.208461 22.437781 11.999980 41.046784 0.608469 1.274114 0.108483 -0.043577 105515.000000 0 0 1
31.012561 22.076181 11.317280 39.714198 0.618632 1.281823 0.107639 -0.033926 617878.000000 0 0 1
29.661061 22.006181 12.075580 38.857048 0.638311 1.254794 0.099636 -0.031149 233891.000000 0 0 1
29.110161 23.213281 12.419780 39.249316 0.673171 1.248829 0.104601 -0.028440 -1071300.000000 0 0 1
27.920461 22.996981 13.079880 38.464224 0.689002 1.223823 0.112945 -0.022990 -766489.000000 0 0 1
24.488561 9.275681 25.922157 36.846792 0.362077 0.790469 0.051072 0.009718 -82798.400000 0 0 1
24.157261 8.080781 26.542497 36.788264 0.322807 0.764839 0.041301 0.005354 -249742.000000 0 0 1
22.804161 7.745481 26.402357 35.736629 0.327427 0.739503 0.042187 0.006374 -580310.000000 0 0 1
22.549961 6.368681 27.089657 35.817738 0.275256 0.713127 0.056926 0.001695 -337236.000000 0 0 1
22.594661 6.458081 28.541497 36.970834 0.278400 0.688814 0.055348 -0.004325 -26453.300000 0 0 1
23.890761 6.174081 28.989027 38.069035 0.252897 0.705194 0.044965 -0.003679 -460099.000000 0 0 1
24.044861 6.190681 30.491087 39.321575 0.251991 0.683402 0.054172 -0.013163 -285543.000000 0 0 1
23.967261 7.448781 31.135057 39.991320 0.301326 0.678452 0.068627 -0.011048 250735.000000 0 0 1
23.982261 7.314781 32.520446 41.063783 0.296045 0.656801 0.072023 -0.013101 -155788.000000 0 0 1
23.933961 8.587181 33.356311 41.943028 0.344481 0.651333 0.087283 -0.009470 -90946.800000 0 0 1
25.090961 9.398581 33.178955 42.646602 0.358403 0.679324 0.075409 -0.010358 -149429.000000 0 0 1
25.754361 9.616381 -33.640470 43.444713 0.357357 2.456449 0.076172 -0.011009 236993.000000 0 0 1
27.036161 10.461781 -33.944560 44.638952 0.369210 2.434763 0.049640 -0.009478 50681.800000 0 0 1
26.847961 11.766481 33.566547 44.564292 0.413051 0.717858 0.045982 -0.016990 66143.400000 0 0 1
26.883861 12.742081 -33.484550 44.791938 0.442606 2.415173 0.052135 -0.009753 -409316.000000 0 0 1
26.327461 14.077881 34.000849 45.247979 0.491038 0.720564 0.055435 -0.008314 -504817.000000 0 0 1
27.191061 14.829281 33.199637 45.403494 0.499284 0.750697 0.032850 -0.014956 -11356.200000 0 0 1
26.591161 16.087681 32.868494 45.235398 0.544089 0.757421 0.056720 -0.019911 49910.600000 0 0 1
27.055161 17.246481 33.787176 46.593949 0.567506 0.759557 0.040665 -0.014086 -9181.330000 0 0 1
26.587861 17.167481 -32.883420 45.639414 0.573338 2.375326 0.045671 -0.013099 5160.520000 0 0 1
27.550861 16.611581 -32.028400 45.396178 0.542580 2.353968 0.037759 -0.008617 -280420.000000 0 0 1
26.942161 16.008081 -30.714100 43.880458 0.536118 2.346123 0.035803 -0.002738 242198.000000 0 0 1
26.272261 14.759681 -30.808030 43.095413 0.511855 2.367248 0.046081 0.001577 80698.000000 0 0 1
25.619661 14.390981 -29.595570 41.705697 0.511794 2.359768 0.068527 -0.009522 -275017.000000 0 0 1
24.818861 13.165281 -29.932320 41.051727 0.487713 2.387856 0.078327 -0.011495 -109388.000000 0 0 1
23.696261 13.428681 -30.808290 41.121685 0.515575 2.417647 0.072765 -0.009523 875922.000000 0 0 1
23.128061 12.218681 -31.390600 40.860410 0.486035 2.446884 0.074981 -0.006242 180862.000000 0 0 1
22.209361 11.358481 -30.497550 39.400144 0.472748 2.456004 0.070253 -0.010302 -563472.000000 0 0 1
21.005561 12.031781 -30.211560 38.713508 0.520172 2.466083 0.080232 -0.014168 -366240.000000 0 0 1
20.344161 11.295581 -29.252640 37.379031 0.506846 2.469620 0.084528 -0.011285 -556700.000000 0 0 1
19.091561 11.879881 -28.581140 36.366205 0.556625 2.474988 0.074748 -0.006994 -193170.000000 0 0 1
18.126061 12.150281 -29.565970 36.746837 0.590528 2.505773 0.051041 0.004251 -1092840.000000 0 0 1
17.077461 12.852181 -29.037650 36.055559 0.645151 2.507076 0.050369 -0.009637 -1315500.000000 0 0 1
16.063361 13.250081 -30.131470 36.626516 0.689719 2.536885 0.033049 -0.010106 229091.000000 0 0 1
15.352161 12.194281 -30.787790 36.500375 0.671258 2.574549 0.021709 -0.005302 510112.000000 0 0 1
14.138161 11.798581 -30.131540 35.312941 0.695438 2.593024 0.034222 -0.009531 529837.000000 0 0 1
13.075761 11.267881 -31.136020 35.600455 0.711269 2.635399 0.045861 -0.009184 265576.000000 0 0 1
12.575761 12.228681 -32.086160 36.567910 0.771406 2.641296 0.054715 -0.007998 17801.400000 0 0 1
11.467261 11.685681 -32.767380 36.629966 0.794832 2.678222 0.075919 -0.004960 -75607.000000 0 0 1
10.881261 12.557481 -33.888990 37.743288 0.856792 2.685729 0.091828 -0.017672 -36849.500000 0 0 1
11.729061 12.741981 33.030265 37.295138 0.826767 0.482914 0.070815 -0.008645 320689.000000 0 0 1
10.997461 13.256181 31.883927 36.238864 0.878259 0.495298 0.091278 -0.024193 150291.000000 0 0 1
11.750861 13.225181 30.545877 35.299274 0.844359 0.524968 0.082698 -0.022681 -251615.000000 0 0 1
11.951261 11.910581 30.049037 34.462141 0.783693 0.511639 0.075007 -0.019288 -56648.300000 0 0 1
12.094161 11.884481 28.620207 33.265986 0.776654 0.534851 0.087429 -0.020040 -292344.000000 0 0 1
12.449861 10.503681 28.013777 32.405216 0.700813 0.526674 0.098551 -0.011811 438328.000000 0 0 1
11.544661 9.404681 28.280797 31.961394 0.683601 0.484641 0.095126 -0.021985 543092.000000 0 0 1
12.109261 8.195381 27.848177 31.453448 0.594976 0.483491 0.092475 -0.022627 -25444.900000 0 0 1
11.277461 6.964381 28.300607 31.250729 0.553223 0.438008 0.084544 -0.021228 -299640.000000 0 0 1
10.076861 6.861381 27.598947 30.171568 0.597795 0.415948 0.078155 -0.024678 -654550.000000 0 0 1
9.299161 5.704281 27.868957 29.928113 0.550228 0.373114 0.079540 -0.029677 -332301.000000 0 0 1
9.662661 4.355381 27.279967 29.266584 0.423472 0.370573 0.081074 -0.023640 -577789.000000 0 0 1
10.704261 3.760881 28.001987 30.213187 0.337872 0.384960 0.076462 -0.021335 -50857.800000 0 0 1
11.045661 2.540681 27.338657 29.594997 0.226084 0.393013 0.047054 -0.013860 -87397.500000 0 0 1
11.584361 1.390581 28.247817 30.562563 0.119468 0.391698 0.037874 -0.014770 503989.000000 0 0 1
10.554061 0.962181 29.139397 31.006748 0.090916 0.348822 0.040176 -0.007993 380179.000000 0 0 1
11.022361 0.012481 30.080157 32.036049 0.001132 0.351239 0.044575 -0.013339 306574.000000 0 0 1
10.004361 -0.111819 31.261987 32.823948 -0.011177 0.309736 0.056084 -0.011059 343977.000000 0 0 1
9.959561 1.038681 32.079151 33.605708 0.103914 0.302568 0.054713 -0.012030 940665.000000 0 0 1
8.599661 1.307081 32.494323 33.638425 0.150838 0.261558 0.061056 -0.007766 625506.000000 0 0 1
8.484061 2.494181 33.492796 34.640548 0.285929 0.258139 0.050659 -0.017411 -116404.000000 0 0 1
8.886161 3.826581 33.014512 34.402974 0.406623 0.285073 0.062657 -0.024377 642592.000000 0 0 1
10.147961 3.949681 32.368156 34.150821 0.371170 0.324532 0.050432 -0.017053 -61451.900000 0 0 1
10.417061 5.336581 31.673127 33.766569 0.473433 0.353974 0.058291 -0.021190 94700.400000 0 0 1
10.593461 6.415581 32.609199 34.881814 0.544539 0.362965 0.047019 -0.017441 23105.700000 0 0 1
10.936561 7.603281 31.908077 34.576634 0.607509 0.395454 0.060180 -0.017191 -577597.000000 0 0 1
11.021061 8.904181 32.745945 35.679758 0.679554 0.408359 0.090495 -0.029981 775429.000000 0 0 1
9.806161 9.451281 33.337622 36.012283 0.766972 0.387837 0.094681 -0.032389 846384.000000 0 0 1
9.172261 8.528981 -33.851800 36.094574 0.749073 2.787219 0.077888 -0.029605 -773903.000000 0 0 1
7.908061 9.070481 -33.160100 35.276101 0.853756 2.793474 0.082008 -0.029383 -259548.000000 0 0 1
7.266961 8.080581 -32.418820 34.191876 0.838362 2.818141 0.089785 -0.029339 -236231.000000 0 0 1
6.029761 8.613081 -31.993100 33.676426 0.960023 2.824079 0.078571 -0.030674 349431.000000 0 0 1
5.385561 7.946881 -30.696890 32.162964 0.975198 2.838498 0.085407 -0.028648 -280513.000000 0 0 1
5.981061 8.387381 -29.503940 31.250660 0.951331 2.805669 0.084363 -0.034931 -83534.600000 0 0 1
5.627061 7.686881 -28.306890 29.866904 0.938893 2.816959 0.069381 -0.031657 621844.000000 0 0 1
4.128561 7.687481 -27.823830 29.160039 1.077950 2.837693 0.066888 -0.027562 710625.000000 0 0 1
3.221361 7.149181 -28.770170 29.819635 1.147451 2.875502 0.063098 -0.032813 -188638.000000 0 0 1
1.901361 7.186881 -28.272670 29.233719 1.312162 2.884469 0.093891 -0.030334 918951.000000 0 0 1
0.791961 6.508881 -29.200500 29.927612 1.449718 2.920709 0.094607 -0.032387 612912.000000 0 0 1
0.653061 7.298181 -30.329790 31.202341 1.481551 2.904546 0.080703 -0.030270 48427.000000 0 0 1
0.128761 6.623581 -31.468030 32.157819 1.551359 2.934097 0.098434 -0.027946 -524506.000000 0 0 1
-0.046039 7.527181 -32.723660 33.578245 -1.564680 2.915499 0.117943 -0.034105 111393.000000 0 0 1
1.103261 8.018981 -33.399000 34.365891 1.434073 2.903819 0.094949 -0.023672 260582.000000 0 0 1
2.093061 7.128281 -33.894650 34.699288 1.285196 2.925819 0.086968 -0.027340 92652.600000 0 0 1
1.727061 6.533781 32.768894 33.458533 1.312379 0.203386 0.099893 -0.035215 -180667.000000 0 0 1
0.726961 5.536081 32.799923 33.271784 1.440230 0.168616 0.105106 -0.033999 -176209.000000 0 0 1
0.282461 5.158581 31.476567 31.897727 1.516095 0.162681 0.117954 -0.027952 387648.000000 0 0 1
1.209461 4.230381 30.606857 30.921491 1.292326 0.142776 0.115066 -0.029875 401354.000000 0 0 1
0.715261 4.215281 29.268627 29.579261 1.402714 0.145053 0.093934 -0.026124 100729.000000 0 0 1
1.505561 3.334381 28.550417 28.783869 1.146674 0.127448 0.071628 -0.015119 -126252.000000 0 0 1
1.445861 3.700281 27.071837 27.361779 1.198295 0.145708 0.065958 -0.010290 -34353.500000 0 0 1
2.070461 4.906081 26.793107 27.317156 1.171453 0.196191 0.067704 -0.014067 -93020.200000 0 0 1
1.855161 5.273181 25.448767 26.055475 1.232509 0.216223 0.049246 -0.005109 -426567.000000 0 0 1
2.280361 6.659481 25.030887 26.001808 1.240887 0.274136 0.051677 -0.001966 1080600.000000 0 0 1
3.721961 6.842381 24.955127 26.142485 1.072604 0.302545 0.051791 0.000282 1233810.000000 0 0 1
4.225761 6.819581 23.624027 24.949116 1.016053 0.327379 0.056110 -0.007664 306873.000000 0 1 0
5.791661 6.822481 23.654197 25.290524 0.866936 0.361694 0.051169 -0.010274 790867.000000 0 0 1
6.474461 5.839681 24.453137 25.961056 0.733895 0.342506 0.064402 -0.014223 184476.000000 0 0 1
6.241961 4.426681 24.277727 25.455168 0.616861 0.305341 0.061433 -0.015433 -542128.000000 0 0 1
6.521461 3.809181 22.845477 24.061486 0.528646 0.319278 0.058492 -0.012649 678552.000000 0 1 0
5.544761 4.184581 21.864077 22.941075 0.646497 0.307631 0.033242 -0.015398 387192.000000 0 1 0
4.320161 3.477081 21.829577 22.522973 0.677691 0.248779 0.034195 -0.017715 180254.000000 0 1 0
3.288761 4.049581 20.827977 21.471368 0.888706 0.245422 0.007823 -0.017245 9190.170000 0 1 0
2.909761 5.367981 21.207677 22.069152 1.074070 0.280328 0.008717 -0.011659 -191162.000000 0 1 0
1.766361 5.763881 20.507977 21.375674 1.273430 0.285904 0.008864 -0.005921 -419570.000000 0 1 0
1.444861 7.292181 20.668577 21.964826 1.375191 0.345267 0.016071 0.008034 79115.500000 0 1 0
2.337861 8.160281 20.003177 21.729769 1.291777 0.401329 0.012354 0.004298 479.013000 0 1 0
1.926261 9.490881 20.266077 22.461103 1.370557 0.445781 0.015736 0.004900 -50321.600000 0 1 0
2.889361 10.524981 19.716677 22.535993 1.302873 0.505573 0.028939 -0.005733 -864024.000000 0 1 0
2.911661 10.512381 18.270777 21.279314 1.300595 0.538231 0.008408 -0.009695 -175935.000000 0 1 0
3.838061 11.398081 17.718177 21.414498 1.245993 0.596349 0.009755 -0.013810 256108.000000 0 1 0
5.357461 11.070581 17.860177 21.685157 1.120082 0.603044 0.022284 -0.015378 12959.500000 0 1 0
5.653761 9.905481 17.103177 20.557291 1.052146 0.588136 0.021848 -0.015860 -1395070.000000 0 1 0
6.949461 9.521181 17.261777 20.902555 0.940287 0.599139 0.026647 -0.015031 -1609400.000000 0 1 0
7.020861 8.137381 17.893577 20.873178 0.858923 0.540887 0.038157 -0.008969 -212056.000000 0 1 0
6.594661 8.122381 19.255977 21.914727 0.888834 0.497711 0.046068 -0.007463 64636.900000 0 1 0
6.573061 6.816881 19.824577 21.970181 0.803605 0.445628 0.040738 -0.010461 37995.200000 0 1 0
7.955161 6.213781 20.212277 22.592737 0.663110 0.463180 0.063085 -0.010025 569170.000000 0 1 0
8.720461 5.917081 19.020277 21.744636 0.596170 0.505957 0.055065 -0.013646 1436470.000000 0 1 0
10.092761 5.468081 19.223577 22.389945 0.496512 0.538301 0.064839 -0.017558 1457210.000000 0 1 0
10.370761 3.946481 19.303077 22.265133 0.363618 0.521718 0.070558 -0.013287 -174899.000000 0 1 0
9.720961 3.326181 20.407977 22.848328 0.329679 0.466399 0.077205 -0.015603 352281.000000 0 1 0
9.796161 1.925081 20.263477 22.589360 0.194041 0.457779 0.072276 -0.026574 -314968.000000 0 1 0
8.970361 1.203281 21.309677 23.152053 0.133344 0.401636 0.071357 -0.019766 -505145.000000 0 1 0
9.444061 1.214781 22.646777 24.567101 0.127927 0.398012 0.070268 -0.018263 -191359.000000 0 1 0
8.760161 0.402481 23.549247 25.129055 0.045912 0.356477 0.066789 -0.021428 -690855.000000 0 0 1
9.306661 0.421381 24.982497 26.663020 0.045246 0.356936 0.063905 -0.015946 999907.000000 0 0 1
10.624361 -0.169519 25.192867 27.342025 -0.015954 0.399136 0.061581 -0.016006 1336510.000000 0 0 1
10.638161 -1.586119 25.090217 27.298447 -0.148007 0.404986 0.061924 -0.014987 -726284.000000 0 0 1
12.062661 -2.118519 25.121457 27.947871 -0.173853 0.453616 0.051333 -0.015036 -443850.000000 0 0 1
12.143661 -3.536319 24.862287 27.894576 -0.283370 0.470604 0.049932 -0.007965 -895503.000000 0 0 1
13.402461 -4.099219 24.942777 28.610691 -0.296820 0.511933 0.049401 -0.004113 -715679.000000 0 0 1
13.255861 -5.606519 25.011307 28.856825 -0.400130 0.522172 0.054819 -0.007976 -43361.500000 0 0 1
13.085661 -6.317819 23.782277 27.870164 -0.449797 0.548469 0.059568 -0.016990 288506.000000 0 0 1
12.602661 -7.653419 24.083807 28.238832 -0.545760 0.549355 0.067205 -0.019548 150990.000000 0 0 1
12.835761 -8.616419 22.948977 27.670471 -0.591191 0.592823 0.082485 -0.022681 281461.000000 0 0 1
12.285861 -9.918419 23.294387 28.141533 -0.679178 0.595696 0.082161 -0.017059 -8498.680000 0 0 1
12.590061 -10.825519 22.228677 27.745550 -0.710183 0.641562 0.084331 -0.019352 29343.600000 0 0 1
11.745861 -12.106719 22.266877 27.934776 -0.800526 0.648315 0.090945 -0.018407 915232.000000 0 0 1
10.333661 -11.847219 22.197177 27.200291 -0.853530 0.616229 0.084192 -0.020648 466236.000000 0 0 1
9.595861 -12.978719 22.613677 27.783198 -0.934144 0.619905 0.077008 -0.017764 971120.000000 0 0 1
8.056561 -12.729019 22.806877 27.332942 -1.006516 0.583735 0.058346 -0.016280 1131430.000000 0 0 1
7.259361 -12.669519 21.612077 26.082502 -1.050483 0.594186 0.054122 -0.016928 -402622.000000 0 0 1
5.945061 -12.324419 21.908077 25.830193 -1.121343 0.558299 0.029123 -0.018289 -618642.000000 0 0 1
5.398661 -11.066819 21.197377 24.514257 -1.116937 0.526252 0.011644 -0.011423 60096.600000 0 1 0
5.711861 -9.874319 21.880977 24.675994 -1.046369 0.480571 0.024337 -0.004655 -181365.000000 0 1 0
5.154161 -8.752819 21.239177 23.543149 -1.038610 0.446096 0.018842 -0.000751 -10540.400000 0 1 0
5.595961 -7.467319 21.914077 23.818111 -0.927683 0.402564 0.025400 -0.001752 24226.300000 0 1 0
5.044461 -6.372519 21.209977 22.713844 -0.901201 0.365932 0.028500 -0.005193 -176149.000000 0 1 0
5.358361 -5.069819 21.716777 22.935420 -0.757736 0.327448 0.039401 -0.012793 27457.300000 0 1 0
-8.481239 -15.320319 -20.267420 26.784546 1.065198 2.429021 0.077888 0.000281 129730.000000 0 0 1
-7.642839 -14.844119 -19.220520 25.459561 1.095321 2.426364 0.067542 -0.007157 4810.090000 0 0 1
-6.863339 -13.764519 -19.695020 24.989222 1.108249 2.478578 0.068549 -0.016807 19852.000000 0 1 0
-6.002039 -13.157119 -18.557420 23.526838 1.142813 2.479613 0.063371 -0.021064 -387127.000000 0 1 0
-4.958039 -13.965419 -18.133320 23.418633 1.229654 2.456423 0.058798 -0.008140 -543767.000000 0 1 0
-4.641839 -13.741019 -16.799920 22.194585 1.245023 2.429411 0.067931 -0.015904 224698.000000 0 1 0
-3.473839 -14.641619 -16.305820 22.188383 1.337846 2.396287 0.057906 -0.002715 -619887.000000 0 1 0
-2.283939 -14.403819 -16.926620 22.342714 1.413541 2.430410 0.050953 -0.013715 -1800290.000000 0 1 0
-1.254439 -15.146519 -16.424620 22.377641 1.488165 2.394952 0.053545 -0.004634 -9725.280000 0 1 0
-0.004539 -15.389719 -17.366920 23.204599 1.570501 2.416482 0.046546 0.009322 698574.000000 0 1 0
0.062061 -16.327619 -18.405220 24.603803 -1.566995 2.415936 0.075342 -0.008414 -408443.000000 0 1 0
-0.428239 -17.583719 -18.049520 25.202297 1.546447 2.369118 0.059827 -0.002829 -337739.000000 0 0 1
-0.802039 -18.480519 -19.249220 26.696542 1.527424 2.376095 0.076479 -0.016149 245769.000000 0 0 1
-2.070239 -18.045419 -19.720220 26.810635 1.456572 2.397256 0.082174 -0.017465 125864.000000 0 0 1
-2.058139 -17.989319 -21.095420 27.800509 1.456883 2.432287 0.081811 -0.020429 610028.000000 0 0 1
-3.290539 -17.221319 -21.742920 27.931274 1.381998 2.462979 0.086569 -0.019559 830515.000000 0 0 1
-3.199439 -15.830719 -21.712520 27.060702 1.371379 2.502041 0.085485 -0.008730 -135889.000000 0 0 1
-3.277839 -15.219919 -20.421120 25.679025 1.358671 2.490208 0.080718 -0.008323 -608394.000000 0 0 1
-2.455639 -13.943719 -20.340620 24.783024 1.396473 2.533516 0.081037 -0.019400 -368044.000000 0 1 0
-2.759839 -12.889719 -21.247220 25.004118 1.359869 2.586305 0.084038 -0.037579 283556.000000 0 0 1
-1.828439 -11.797819 -21.232420 24.358723 1.417038 2.629367 0.076265 -0.024494 318624.000000 0 1 0
-1.812039 -10.945719 -22.548420 25.130132 1.406737 2.684334 0.083496 -0.018885 228145.000000 0 0 1
-2.973839 -10.147319 -22.712720 25.053532 1.285713 2.705875 0.081129 -0.012957 379441.000000 0 0 1
-3.023039 -9.630619 -24.007020 26.042746 1.266638 2.743576 0.087252 -0.015321 104198.000000 0 0 1
-4.121239 -8.559819 -24.244420 26.039336 1.122088 2.768128 0.093300 -0.016240 602469.000000 0 0 1
-5.460939 -9.069419 -24.367620 26.567972 1.028815 2.731742 0.081805 -0.012642 788636.000000 0 0 1
-6.254839 -7.945619 -24.025220 26.066589 0.903905 2.743202 0.093367 -0.025105 -687079.000000 0 0 1
-7.741039 -8.262119 -23.693120 26.259289 0.817948 2.695815 0.058021 -0.031202 296772.000000 0 0 1
-8.582239 -8.727319 -24.717920 27.582540 0.793779 2.681798 0.055692 -0.029129 43844.500000 0 0 1
-8.987739 -7.598319 -25.482840 28.069361 0.701823 2.708930 0.049791 -0.030370 -1061030.000000 0 0 1
-10.048039 -7.968619 -26.515760 29.454160 0.670490 2.691113 0.054678 -0.030216 -350942.000000 0 0 1
-10.339539 -6.862519 -27.289490 29.978601 0.585957 2.714802 0.067521 -0.037613 -173865.000000 0 0 1
-11.133139 -7.250819 -28.371310 31.328141 0.577276 2.703630 0.071904 -0.030727 -473763.000000 0 0 1
-11.851239 -6.136919 -29.125390 32.037509 0.477809 2.711922 0.061659 -0.034960 211619.000000 0 0 1
-11.002539 -5.266519 -29.894070 32.286956 0.446434 2.754173 0.061327 -0.030310 221873.000000 0 0 1
-11.761739 -4.711919 -30.913520 33.409376 0.381036 2.752608 0.055476 -0.037254 174569.000000 0 0 1
-10.935039 -3.634819 -31.722310 33.750436 0.320911 2.793158 0.040403 -0.036142 -74215.200000 0 0 1
-9.812139 -4.173619 -32.367600 34.078713 0.402169 2.823358 0.042564 -0.028525 -235019.000000 0 0 1
-9.283439 -3.179619 -33.203650 34.623325 0.329982 2.854237 0.038993 -0.021201 233852.000000 0 0 1
-8.158839 -3.725419 33.879669 35.046788 0.428338 0.258798 0.038193 -0.025418 513118.000000 0 0 1
-6.843339 -3.668319 -33.664190 34.548018 0.492064 2.914910 0.045595 -0.030355 -603008.000000 0 0 1
-5.947739 -4.319619 33.551506 34.347318 0.628135 0.215683 0.048157 -0.028549 -1094460.000000 0 0 1
-4.484139 -4.095119 33.833918 34.374576 0.740085 0.177594 0.051910 -0.036860 -911170.000000 0 0 1
-4.305539 -2.710019 33.574423 33.957676 0.561776 0.150383 0.068694 -0.042877 -909776.000000 0 0 1
-2.979239 -2.381119 33.803100 34.017571 0.674276 0.112351 0.065345 -0.041779 -597946.000000 0 0 1
-2.875739 -0.891419 -33.849720 33.983350 0.300587 3.052882 0.078655 -0.038045 -90876.300000 0 0 1
-3.144939 -0.699519 -32.484270 32.643648 0.218864 3.042736 0.071366 -0.041321 44202.300000 0 0 1
-3.512339 0.636881 -32.248110 32.445073 -0.179378 3.031349 0.095195 -0.037674 -609326.000000 0 0 1
-3.886639 0.777081 -30.726920 30.981502 -0.197334 3.013308 0.120677 -0.051257 544840.000000 0 0 1
-4.977939 -0.053219 -30.322190 30.728129 0.010691 2.978867 0.088921 -0.051573 283919.000000 0 0 1
-6.243239 0.500981 -30.529130 31.164993 -0.080072 2.939242 0.099191 -0.048503 -410174.000000 0 0 1
-7.500139 -0.389319 -30.565200 31.474357 0.051862 2.900654 0.079726 -0.053240 153165.000000 0 0 1
-7.814839 -0.981419 -29.305260 30.345233 0.124930 2.879032 0.078299 -0.045290 3335.170000 0 0 1
-8.903839 -1.863919 -29.426430 30.800444 0.206359 2.841773 0.063526 -0.032068 -253822.000000 0 0 1
-9.327939 -2.684219 -28.202610 29.826208 0.280191 2.810122 0.069173 -0.039867 -548901.000000 0 0 1
-10.106639 -2.031019 -27.286410 29.168774 0.198317 2.780373 0.075572 -0.042044 -216866.000000 0 0 1
-10.234139 -2.780319 -26.113320 28.184628 0.265269 2.755824 0.065146 -0.034665 -14679.900000 0 0 1
-11.100439 -2.175019 -24.984120 27.425476 0.193489 2.716456 0.079872 -0.033048 438137.000000 0 0 1
-10.461039 -1.011819 -24.370120 26.539779 0.096423 2.734432 0.071281 -0.027132 408218.000000 0 0 1
-11.384039 -0.374319 -23.529920 26.141798 0.032869 2.690768 0.085373 -0.032489 6784.690000 0 0 1
-10.809039 0.847881 -22.794720 25.241900 -0.078282 2.697616 0.086577 -0.033925 56743.300000 0 0 1
-10.711539 1.968681 -23.664720 26.050561 -0.181762 2.710273 0.076442 -0.035331 130861.000000 0 0 1
-9.840839 2.949381 -23.123920 25.303293 -0.291189 2.723512 0.067641 -0.033192 -322048.000000 0 0 1
-9.718439 4.239081 -23.916520 26.161380 -0.411310 2.724306 0.086842 -0.040326 -438397.000000 0 0 1
-10.831939 5.068581 -24.137520 26.937730 -0.437663 2.681584 0.099595 -0.035758 -199064.000000 0 0 1
-11.571939 4.642781 -25.270910 28.179498 -0.381549 2.683242 0.085447 -0.037294 907549.000000 0 0 1
-13.090639 5.070481 -25.357690 28.984255 -0.369542 2.635980 0.080974 -0.014844 1019430.000000 0 0 1
-13.323739 6.425281 -25.643040 29.603577 -0.449341 2.618372 0.072084 -0.011676 1360390.000000 0 0 1
-14.717639 6.620381 -26.026690 30.623960 -0.422709 2.586554 0.071918 -0.020524 1461290.000000 0 0 1
-14.886039 8.068481 -26.471590 31.423552 -0.496693 2.572541 0.087435 -0.006320 -173722.000000 0 0 1
-14.660239 8.952981 -25.390790 30.655680 -0.548249 2.546787 0.114367 -0.014248 200278.000000 0 0 1
-15.068339 10.278781 -25.658050 31.480847 -0.598641 2.523589 0.106223 -0.011411 -164090.000000 0 0 1
-14.963039 11.183381 -24.447420 30.767465 -0.641835 2.489123 0.109906 -0.020332 76832.700000 0 0 1
-15.762039 10.829881 -23.316520 30.156066 -0.602006 2.454660 0.139036 -0.021502 230251.000000 0 0 1
-15.405539 11.564981 -22.181120 29.378249 -0.643951 2.426479 0.144080 -0.026322 282087.000000 0 0 1
-16.417539 11.377481 -20.989420 28.974789 -0.606018 2.380964 0.150621 -0.027097 382610.000000 0 0 1
-17.572439 12.187481 -21.076220 30.025528 -0.606388 2.348919 0.126097 -0.024487 40291.400000 0 0 1
-17.905239 12.738881 -19.835420 29.602712 -0.618377 2.305078 0.118590 -0.020458 17740.300000 0 0 1
-19.372139 13.239081 -19.848020 30.732669 -0.599504 2.272904 0.079082 -0.020783 29602.600000 0 0 1
-19.685039 14.393281 -20.642020 31.949339 -0.631346 2.273242 0.062615 -0.021935 -302393.000000 0 0 1
-21.072439 14.557281 -20.663520 32.908102 -0.604539 2.249669 0.027610 -0.019893 -427809.000000 0 0 1
-21.537639 15.846581 -21.338820 34.210075 -0.634326 2.244338 0.029491 -0.009734 -182093.000000 0 0 1
-21.237639 15.946681 -22.753220 34.972031 -0.644057 2.279186 0.034560 -0.014204 92487.300000 0 0 1
-21.844539 17.044281 -23.341620 36.228754 -0.662584 2.270884 0.026344 -0.007117 -266314.000000 0 0 1
-21.586839 16.991081 -24.882220 37.064988 -0.666828 2.306776 0.022253 -0.004457 594011.000000 0 0 1
-20.282839 17.347581 -25.357490 36.814867 -0.707554 2.330607 0.022326 -0.007036 576806.000000 0 0 1
-20.066639 16.572881 -26.525010 37.160551 -0.690331 2.365698 0.021260 -0.013553 331875.000000 0 0 1
-18.949039 17.221881 -27.422870 37.518969 -0.737684 2.390446 0.011710 -0.013071 387282.000000 0 0 1
-19.324539 18.486781 -28.018250 38.732689 -0.763246 2.379474 0.000641 -0.024033 397339.000000 0 0 1
-19.074039 19.539381 -27.060460 38.443138 -0.797449 2.351682 0.000589 -0.037604 -1248020.000000 0 0 1
-19.626739 20.970681 -27.328190 39.646038 -0.818490 2.331325 0.036973 -0.024989 -166476.000000 0 0 1
-20.679439 21.441081 -26.542410 39.898104 -0.803479 2.298632 0.044853 -0.019404 225802.000000 0 0 1
-21.961239 20.897681 -26.916730 40.540343 -0.760588 2.296884 0.079728 -0.026044 5867.380000 0 0 1
-22.983239 21.274781 -25.833430 40.598173 -0.746815 2.260515 0.071967 -0.010385 -251957.000000 0 0 1
-22.757739 20.680081 -24.552620 39.349861 -0.737604 2.244592 0.027715 -0.006184 121377.000000 0 0 1
-23.848439 21.050381 -23.725020 39.683034 -0.723159 2.211629 0.031423 -0.021413 76395.900000 0 0 1
-23.600039 20.585281 -22.270620 38.427804 -0.717274 2.188966 0.033895 -0.007632 657312.000000 0 0 1
-22.493439 21.253881 -21.628720 37.755579 -0.757071 2.180789 0.035554 -0.012856 93833.700000 0 0 1
-21.567839 20.458481 -20.976420 36.383119 -0.759008 2.185287 0.028090 -0.012630 -546429.000000 0 0 1
-22.026539 19.786281 -19.665520 35.544311 -0.731871 2.157078 0.033728 -0.022762 -899928.000000 0 0 1
-22.892339 18.637781 -19.799020 35.544722 -0.683309 2.161586 0.046691 -0.019722 484446.000000 0 0 1
-23.417239 18.160581 -18.580920 34.977484 -0.659636 2.130842 0.040438 -0.015632 -75955.200000 0 0 1
-24.565939 19.067581 -18.058520 35.960647 -0.660047 2.096908 0.040363 -0.010539 -1182060.000000 0 0 1
-25.612089 19.189581 -18.967520 37.201961 -0.643014 2.105810 0.040828 -0.008619 -206505.000000 0 0 1
-26.438929 20.313781 -18.609720 38.183614 -0.655128 2.079877 0.048508 -0.003336 36404.800000 0 0 1
-27.871839 20.061081 -19.202120 39.344730 -0.623866 2.080648 0.038190 0.003537 659479.000000 0 0 1
-28.679189 18.995681 -18.701920 39.154739 -0.585009 2.068764 0.022687 0.003556 401147.000000 0 0 1
-29.072789 19.154681 -17.354420 38.901218 -0.582573 2.033216 0.019184 0.006344 -869573.000000 0 0 1
-30.046039 18.040781 -16.932920 38.922462 -0.540741 2.020882 0.006842 0.003584 -232941.000000 0 0 1
-29.455829 16.817081 -16.714020 37.812941 -0.518767 2.028644 0.021139 -0.012405 85005.000000 0 0 1
-30.494829 15.926081 -16.332620 38.083187 -0.481293 2.014034 0.010327 -0.010015 259774.000000 0 0 1
-30.037779 14.555381 -15.753920 36.909528 -0.451227 2.011776 0.053179 -0.006993 173094.000000 0 0 1
-29.239449 14.609281 -14.509420 35.761708 -0.463362 1.988568 0.052003 -0.005978 478863.000000 0 0 1
-29.984879 14.897981 -13.359520 36.048850 -0.461124 1.950446 0.019603 -0.001804 -74781.500000 0 0 1
-29.186859 15.460181 -12.114920 35.180410 -0.487122 1.922359 0.032780 -0.012433 253913.000000 0 0 1
-28.916759 16.838881 -12.053120 35.566903 -0.527320 1.916529 0.037202 -0.002706 159875.000000 0 0 1
-29.991199 17.585681 -11.511720 36.623051 -0.530331 1.890547 0.016522 0.002897 35778.900000 0 0 1
-29.755159 19.141481 -11.619520 37.239482 -0.571650 1.888116 0.065488 -0.004295 471004.000000 0 0 1
-28.679689 19.611181 -10.790320 36.380681 -0.599771 1.871921 0.007197 -0.011917 408898.000000 0 0 1
-27.937599 20.575081 -11.505820 36.554443 -0.634783 1.890998 -0.002890 -0.014786 138651.000000 0 0 1
-26.956349 21.377881 -10.591720 35.997820 -0.670492 1.869448 0.024835 -0.013291 458073.000000 0 0 1
-27.604139 22.272281 -9.708620 36.773636 -0.678901 1.837974 0.013340 -0.013275 198296.000000 0 0 1
-26.991589 23.561281 -9.869920 37.163089 -0.717646 1.839606 0.022138 -0.010329 19554.000000 0 0 1
-27.431299 24.641181 -8.881520 37.928160 -0.731868 1.807158 0.046436 0.001571 -112172.000000 0 0 1
-26.973179 24.435581 -7.556420 37.171891 -0.736077 1.775506 0.036721 -0.005216 -132557.000000 0 0 1
-27.838269 24.949381 -6.580720 37.957169 -0.730726 1.745049 0.058815 -0.012938 36365.500000 0 0 1
-27.568679 24.213181 -5.258820 37.067039 -0.720688 1.713150 0.061793 -0.007217 79104.000000 0 0 1
-27.850009 22.815681 -5.406020 36.406089 -0.686360 1.719840 0.062622 -0.012584 167801.000000 0 0 1
-27.570209 22.154581 -4.174620 35.614173 -0.676914 1.688284 0.056401 -0.009649 61488.500000 0 0 1
-27.753409 20.616481 -4.486120 34.862821 -0.638906 1.699833 0.067188 -0.011767 173407.000000 0 0 1
-26.792419 20.191081 -5.451920 33.988776 -0.645809 1.731896 0.048329 -0.019638 142579.000000 0 0 1
-27.128759 20.255281 -6.864020 34.545054 -0.641344 1.770825 0.033727 -0.013424 -135659.000000 0 0 1
-28.318179 19.318381 -7.287220 35.046008 -0.598673 1.780258 0.027811 -0.011179 207052.000000 0 0 1
-28.015409 17.939481 -7.201520 34.037479 -0.569557 1.783984 0.033222 -0.009401 227992.000000 0 0 1
-27.638309 17.441581 -8.479820 33.763771 -0.562949 1.824666 0.023795 -0.011003 -160680.000000 0 0 1
-27.291089 15.979081 -8.347520 32.708037 -0.529694 1.828864 0.061614 -0.006972 -15974.700000 0 0 1
-28.367819 15.159981 -7.952920 33.133172 -0.490793 1.813192 0.042276 -0.009121 73471.400000 0 0 1
-27.968819 13.795981 -8.027920 32.202972 -0.458243 1.822745 0.063445 -0.019228 248274.000000 0 0 1
-28.746979 12.840881 -7.054320 32.265159 -0.420095 1.791213 0.055659 -0.013933 669279.000000 0 0 1
-30.107809 12.630981 -7.423020 33.483176 -0.397224 1.794348 0.063202 -0.019020 376863.000000 0 0 1
-30.781469 11.672781 -6.623520 33.580108 -0.362460 1.769344 0.077993 -0.024725 -87618.200000 0 0 1
-31.269389 10.538981 -7.478220 33.834429 -0.325081 1.793661 0.072071 -0.023404 108418.000000 0 0 1
-30.212239 9.745081 -8.013220 32.740765 -0.312018 1.818056 0.073899 -0.022242 520545.000000 0 0 1
-30.774389 8.464181 -8.302320 32.979295 -0.268403 1.825278 0.063865 -0.017495 -410462.000000 0 0 1
-29.779719 7.393681 -8.755320 31.908523 -0.243358 1.848750 0.092664 -0.018303 -587465.000000 0 0 1
-29.260199 7.671981 -10.032120 31.869452 -0.256426 1.891030 0.088924 -0.031124 67870.000000 0 0 1
-28.321529 6.679681 -10.385220 30.896277 -0.231619 1.913603 0.103468 -0.034440 -362828.000000 0 0 1
-27.562099 6.860281 -11.721820 30.726761 -0.243946 1.962199 0.077785 -0.026529 -511126.000000 0 0 1
-26.711749 7.929281 -11.821620 30.267833 -0.288561 1.972044 0.097908 -0.030620 -497128.000000 0 0 1
-25.839369 7.730981 -12.864320 29.881964 -0.290717 2.015848 0.077937 -0.009409 -674484.000000 0 0 1
-32.289779 25.884281 -33.565600 53.284851 -0.675731 2.252256 0.033376 0.004649 -170170.000000 0 0 1
-33.075079 26.989381 -33.900240 54.512511 -0.684423 2.241937 0.034387 -0.006676 36020.400000 0 0 1
-32.683999 27.528081 32.877429 53.916272 -0.699977 0.915005 0.035603 -0.015078 185427.000000 0 0 1
-33.503599 28.810781 32.516383 54.862258 -0.710231 0.936400 0.040791 -0.024845 207582.000000 0 0 1
-33.076809 29.394281 31.320047 54.212954 -0.726519 0.954861 0.071641 -0.025394 27748.500000 0 0 1
-33.567889 30.723181 31.139227 55.139536 -0.741180 0.970684 0.097242 -0.031289 -228712.000000 0 0 1
-33.154169 31.473781 29.885047 54.616058 -0.759403 0.991800 0.101004 -0.032497 -528469.000000 0 0 1
-31.791499 31.773281 29.976757 54.026352 -0.785112 0.982608 0.093595 -0.025933 -502798.000000 0 0 1
-31.374479 32.287381 28.724207 53.403305 -0.799737 1.002884 0.095740 -0.017663 -186013.000000 0 0 1
-29.900789 32.037581 28.372217 52.205808 -0.819883 0.996233 0.115720 -0.020486 -308681.000000 0 0 1
-29.688449 30.742281 27.860987 51.016923 -0.802835 0.993080 0.135380 -0.031223 -207556.000000 0 0 1
-28.775089 30.614481 26.808917 49.839444 -0.816360 1.002846 0.105911 -0.018099 -453303.000000 0 0 1
-29.027209 31.227681 25.404667 49.630071 -0.821901 1.033424 0.111937 -0.020244 -301040.000000 0 0 1
-28.926559 32.653981 25.513757 50.536918 -0.845854 1.041584 0.110187 -0.025228 -143063.000000 0 0 1
-29.595179 33.395181 24.567687 50.938040 -0.845652 1.067512 0.124327 -0.019499 -235773.000000 0 0 1
-29.781329 -33.263970 25.152547 51.245193 0.840582 1.057757 0.132580 -0.016955 367582.000000 0 0 1
-30.691929 -33.161770 26.248887 52.256115 0.824059 1.044526 0.128981 -0.029221 341572.000000 0 0 1
-30.584109 -31.866970 26.857267 51.693368 0.805937 1.024473 0.116423 -0.029195 47134.300000 0 0 1
-31.105779 -31.785170 28.326587 52.728190 0.796200 1.003660 0.113311 -0.041454 -22702.500000 0 0 1
-32.454209 -32.149770 28.540527 53.865063 0.780686 1.012370 0.095740 -0.038433 -43807.000000 0 0 1
-32.712439 -32.551470 29.883977 54.979577 0.782932 0.996139 0.085274 -0.033893 -8400.650000 0 0 1
-34.226919 -32.698470 30.126067 56.109285 0.762564 1.004017 0.092757 -0.037598 -16530.100000 0 0 1
-34.520129 -33.028370 31.414867 57.178723 0.763317 0.989132 0.085266 -0.045583 108476.000000 0 0 1
-35.899224 -33.292370 31.643357 58.296125 0.747740 0.997024 0.075043 -0.043281 303243.000000 0 0 1
-36.254559 -33.726570 33.098106 59.559711 0.749290 0.981576 0.071948 -0.030460 -35016.300000 0 0 1
-35.737503 33.095281 33.441932 59.083242 -0.747031 0.969134 0.051220 -0.023558 -43869.400000 0 0 1
-36.311799 32.623781 -33.420000 59.158721 -0.731950 2.171134 0.065333 -0.020869 -152940.000000 0 0 1
-35.905973 31.172981 -33.106710 57.940037 -0.714956 2.179002 0.049678 -0.019824 600211.000000 0 0 1
-34.651395 31.131981 -32.426570 56.757395 -0.731949 2.178908 0.047697 -0.020964 -16967.700000 0 0 1
-34.285974 29.763381 -32.109570 55.609454 -0.714904 2.186352 0.037335 -0.015153 -98826.200000 0 0 1
-33.394699 29.783181 -30.890330 54.373305 -0.728296 2.175011 0.034074 -0.011794 -262244.000000 0 0 1
-34.008879 29.985681 -29.603860 54.149178 -0.722613 2.149225 0.051982 -0.021993 -307474.000000 0 0 1
-34.160326 31.342981 -29.230460 54.806296 -0.742414 2.133342 0.034677 -0.015399 -253019.000000 0 0 1
-35.329703 31.611881 -28.300100 55.212268 -0.729917 2.108970 0.030119 -0.017559 -269404.000000 0 0 1
-35.131275 30.969181 -27.044060 54.080291 -0.722515 2.094479 0.021230 -0.031658 -31242.300000 0 0 1
-36.357619 30.916981 -26.342410 54.512923 -0.704702 2.075139 0.058447 -0.032405 95810.400000 0 0 1
-36.257169 30.514881 -24.854820 53.511703 -0.699611 2.053837 0.050935 -0.030994 -241650.000000 0 0 1
-35.859059 31.560881 -24.035420 53.475814 -0.721732 2.036961 0.053550 -0.035953 -140137.000000 0 0 1
-35.635525 31.083081 -22.675220 52.442484 -0.717270 2.017930 0.048702 -0.033263 53888.300000 0 0 1
-36.856709 30.814381 -21.732120 52.727868 -0.696345 1.995616 0.045399 -0.028621 587558.000000 0 0 1
36.009559 31.933381 -21.516220 52.719796 0.725476 1.991195 0.060423 -0.032641 592071.000000 0 0 1
36.593699 33.117081 -20.904820 53.598986 0.735567 1.971453 0.061088 -0.038015 -201499.000000 0 0 1
36.837749 33.159781 -19.382620 53.219139 0.732902 1.943574 0.059782 -0.034854 738732.000000 0 0 1
-35.858902 32.281981 -18.949120 51.836824 -0.732953 1.945023 0.059939 -0.036826 582168.000000 0 0 1
-35.583908 32.300481 -17.544520 51.160001 -0.737068 1.920835 0.073524 -0.026464 461848.000000 0 0 1
-34.269402 31.477281 -17.330920 49.654526 -0.742956 1.927332 0.068330 -0.020205 436907.000000 0 0 1
-33.988379 31.167881 -15.985620 48.807651 -0.742137 1.904477 0.074144 -0.012296 215028.000000 0 0 1
-32.734369 30.504881 -15.854620 47.470577 -0.750158 1.911328 0.075860 -0.009775 174848.000000 0 0 1
-32.406109 30.201581 -14.404220 46.580822 -0.750201 1.885180 0.086641 -0.006419 -548645.000000 0 0 1
-33.343809 29.433281 -13.732020 46.547782 -0.723186 1.870261 0.076157 -0.000762 -430846.000000 0 0 1
-33.049109 29.262481 -12.371520 45.843112 -0.724704 1.844051 0.091270 0.000996 25282.500000 0 0 1
-34.055649 28.313681 -11.691520 45.805495 -0.693593 1.828895 0.089249 -0.007643 61019.200000 0 0 1
-33.652649 28.025681 -10.376120 45.006704 -0.694419 1.803435 0.099865 -0.002811 529561.000000 0 0 1
-34.435663 26.948281 -9.816420 44.815029 -0.664022 1.791630 0.099038 -0.010548 626753.000000 0 0 1
-33.756889 26.297281 -8.541920 43.635295 -0.661816 1.767826 0.108043 -0.007690 321188.000000 0 0 1
-33.538019 27.142981 -7.454220 43.784764 -0.680398 1.741877 0.111087 -0.011103 -951164.000000 0 0 1
-32.288749 26.806481 -6.996020 42.545211 -0.692893 1.735984 0.102071 -0.018061 -1031580.000000 0 0 1
-31.884919 27.578381 -5.700920 42.540753 -0.713101 1.705212 0.106591 -0.025842 61410.700000 0 0 1
-30.704339 27.118981 -5.069920 41.278319 -0.723472 1.693930 0.105298 -0.020277 109558.000000 0 0 1
-30.663509 27.403081 -3.674520 41.287791 -0.729307 1.659912 0.110970 -0.024986 -591500.000000 0 0 1
-29.865409 26.488581 -2.790720 40.017192 -0.725548 1.640591 0.094371 -0.019915 -603722.000000 0 0 1
-30.328049 25.163781 -2.723120 39.502175 -0.692602 1.639787 0.084882 -0.017876 -280565.000000 0 0 1
-29.501099 24.346181 -1.946420 38.299346 -0.689957 1.621639 0.097862 -0.019280 -422883.000000 0 0 1
-30.216069 23.145681 -1.317620 38.085030 -0.653666 1.605400 0.111779 -0.028233 -181768.000000 0 0 1
-30.760969 22.292381 -2.289520 38.058236 -0.627110 1.630991 0.080831 -0.020461 14027.600000 0 0 1
-31.631349 21.352381 -1.710420 38.201989 -0.593776 1.615584 0.080754 -0.022000 5347.260000 0 0 1
-32.333829 20.538881 -2.813620 38.408835 -0.565910 1.644117 0.096513 -0.016480 429408.000000 0 0 1
-31.352329 19.653881 -3.325420 37.152416 -0.559944 1.660424 0.083918 -0.016890 747519.000000 0 0 1
-31.990009 18.776181 -4.252820 37.336204 -0.530760 1.684950 0.083963 -0.013796 1024230.000000 0 0 1
-30.913779 17.823781 -4.960720 36.027179 -0.523009 1.708929 0.070699 -0.013236 599289.000000 0 0 1
-30.355999 16.831881 -4.221520 34.965985 -0.506278 1.691824 0.091904 -0.016381 -179683.000000 0 0 1
-29.813709 15.767981 -4.948620 34.087759 -0.486487 1.716484 0.072386 -0.021496 -398621.000000 0 0 1
-29.390739 14.707481 -3.963620 33.103411 -0.463977 1.690819 0.075963 -0.015329 -86147.700000 0 0 1
-30.484459 14.089281 -3.306920 33.745308 -0.432936 1.668950 0.097261 -0.022340 311277.000000 0 0 1
-30.137779 12.860281 -2.682920 32.876597 -0.403323 1.652493 0.091687 -0.028010 -57720.700000 0 0 1
-31.325429 12.100081 -2.045120 33.643379 -0.368615 1.631622 0.106395 -0.027915 -181607.000000 0 0 1
-32.305139 11.647681 -2.940420 34.466455 -0.346044 1.656213 0.095669 -0.010902 20930.600000 0 0 1
-32.994699 10.569281 -2.364220 34.726782 -0.310005 1.638930 0.097268 -0.011467 161952.000000 0 0 1
-34.198037 10.034481 -3.197920 35.783002 -0.285412 1.660286 0.089682 -0.004207 175316.000000 0 0 1
-33.741899 9.166081 -4.185220 35.214327 -0.265252 1.689928 0.086622 -0.013846 519667.000000 0 0 1
-34.730121 8.851481 -5.146620 36.207979 -0.249552 1.713420 0.098728 -0.010286 -236063.000000 0 0 1
-34.086269 8.174781 -6.306220 35.615575 -0.235381 1.748798 0.099379 -0.028413 -255458.000000 0 0 1
-33.436329 6.965681 -5.912820 34.662231 -0.205389 1.742219 0.094361 -0.023515 578522.000000 0 0 1
-32.993369 6.153081 -7.022720 34.289086 -0.184376 1.777065 0.092823 -0.024412 -373241.000000 0 0 1
-32.078409 4.969581 -6.570620 33.119392 -0.153698 1.770513 0.090489 -0.023464 78042.600000 0 0 1
-30.776159 5.445981 -6.341320 31.891112 -0.175141 1.770973 0.087731 -0.031285 -219426.000000 0 0 1
-29.861649 4.507781 -5.861020 30.763448 -0.149824 1.762487 0.082740 -0.030515 445607.000000 0 0 1
-28.364489 4.943881 -5.818020 29.374063 -0.172565 1.770181 0.107327 -0.037787 690882.000000 0 0 1
-27.752419 5.147481 -7.096720 29.104240 -0.183395 1.817118 0.109708 -0.030402 794155.000000 0 0 1
-26.327469 5.184981 -6.988620 27.728333 -0.194453 1.825583 0.136967 -0.038009 828935.000000 0 0 1
-25.648489 5.513381 -8.364120 27.535447 -0.211737 1.879431 0.127496 -0.031905 -19196.100000 0 0 1
-25.973199 4.476181 -9.298220 27.948169 -0.170662 1.909956 0.127302 -0.042651 1151430.000000 0 0 1
-24.852939 4.320481 -10.207020 27.212468 -0.172122 1.955286 0.134935 -0.040407 609120.000000 0 0 1
-25.101669 3.507981 -11.504120 27.834232 -0.138852 1.996881 0.120736 -0.040211 -479669.000000 0 0 1
-25.924139 4.245481 -12.348520 29.027074 -0.162325 2.010215 0.100148 -0.023662 -95730.400000 0 0 1
-26.460289 3.373381 -13.347520 29.827553 -0.126804 2.034753 0.092520 -0.019873 44694.400000 0 0 1
-27.438379 4.109881 -14.292920 31.209667 -0.148680 2.046500 0.074972 -0.012165 -187645.000000 0 0 1
-26.748829 5.154881 -14.950220 31.073811 -0.190380 2.072728 0.054526 -0.007937 821391.000000 0 0 1
-27.576559 6.158981 -15.618720 32.285354 -0.219735 2.075755 0.083305 -0.010285 71355.400000 0 0 1
-28.383309 5.775981 -16.834620 33.501920 -0.200758 2.097281 0.045579 0.008389 -1053610.000000 0 0 1
-29.579919 5.133881 -16.613020 34.312108 -0.171848 2.076215 0.051739 -0.005663 -862915.000000 0 0 1
-30.117779 4.687381 -17.863320 35.329172 -0.154396 2.100903 0.058893 0.008042 486898.000000 0 0 1
-31.535609 4.058981 -17.642120 36.362266 -0.128007 2.077361 0.068653 -0.004760 404673.000000 0 0 1
-31.624039 2.924781 -16.755520 35.907961 -0.092224 2.056266 0.070514 -0.010245 21719.200000 0 0 1
-31.122259 1.737781 -17.235620 35.618555 -0.055779 2.075896 0.095574 -0.012572 -258837.000000 0 0 1
-31.332449 0.563281 -16.263120 35.306214 -0.017976 2.049502 0.086453 -0.013954 -390633.000000 0 0 1
-30.602359 -0.579719 -16.632020 34.834818 0.018941 2.068551 0.082461 -0.003355 496079.000000 0 0 1
-31.044279 -1.700919 -15.822520 34.885420 0.054735 2.041549 0.098402 -0.021230 81488.700000 0 0 1
-30.882319 -3.088719 -16.521220 35.159757 0.099684 2.059963 0.094895 -0.013759 -755862.000000 0 0 1
-31.841009 -3.332619 -17.471220 36.471903 0.104285 2.070348 0.096657 -0.013545 -563152.000000 0 0 1
-31.608789 -4.509719 -18.205920 36.754709 0.141717 2.089018 0.108625 -0.015481 -30571.200000 0 0 1
-32.708409 -4.820119 -19.240120 38.252527 0.146313 2.097835 0.113635 -0.013689 -112324.000000 0 0 1
-32.554599 -6.061119 -19.828720 38.596855 0.184076 2.110334 0.120733 -0.016671 -263642.000000 0 0 1
-33.594059 -6.274319 -20.727820 39.969619 0.184641 2.115997 0.125587 -0.015177 -456216.000000 0 0 1
-33.355269 -7.479919 -21.582720 40.426934 0.220600 2.133967 0.131162 -0.022198 -377094.000000 0 0 1
-32.159019 -7.347919 -22.314720 39.826388 0.224631 2.165544 0.125400 -0.023687 -165624.000000 0 0 1
-32.012839 -8.304719 -23.358920 40.489868 0.253823 2.185734 0.105640 -0.014711 1050260.000000 0 0 1
-30.573569 -8.332719 -24.048220 39.780576 0.266084 2.219962 0.085778 -0.014189 971791.000000 0 0 1
-30.313629 -7.091319 -24.748720 39.770618 0.229799 2.242457 0.081747 -0.015020 80186.200000 0 0 1
-30.162119 -7.303119 -26.148330 40.581081 0.237557 2.270966 0.066098 -0.011102 45400.400000 0 0 1
-31.477119 -7.368719 -26.979560 42.107051 0.229957 2.266255 0.086776 -0.007472 -359036.000000 0 0 1
-32.191129 -8.483619 -26.666450 42.653724 0.257680 2.246164 0.092334 -0.018750 -477647.000000 0 0 1
-33.468189 -8.445419 -27.286890 44.000218 0.247181 2.239735 0.091248 -0.018192 432604.000000 0 0 1
-34.496088 -9.412919 -26.669110 44.607450 0.266384 2.211628 0.090139 -0.021483 -346310.000000 0 0 1
-34.175974 -10.726819 -26.991790 44.851071 0.304133 2.216561 0.089581 -0.020547 -286429.000000 0 0 1
-35.038576 -11.751519 -26.592370 45.529707 0.323599 2.194526 0.064174 -0.018711 464939.000000 0 0 1
-36.302879 -11.995119 -27.530980 47.114083 0.319124 2.194872 0.043949 -0.011997 819380.000000 0 0 1
36.523789 -10.943319 -27.548690 47.039066 -0.291110 2.196485 0.038221 -0.013931 282231.000000 0 0 1
35.593319 -11.034219 -28.627990 46.991490 -0.300613 2.225869 0.044494 -0.021752 964478.000000 0 0 1
34.456639 -9.918219 -28.616810 45.875406 -0.280270 2.244384 0.041185 -0.011092 334775.000000 0 0 1
33.452369 -10.200919 -27.685890 44.605249 -0.295981 2.240415 0.021161 -0.015280 -304568.000000 0 0 1
32.596699 -9.067019 -27.555340 43.635449 -0.271299 2.254269 0.007421 -0.009698 -335596.000000 0 0 1
31.360109 -9.352719 -26.736480 42.258362 -0.289838 2.255819 0.000324 -0.001273 -588076.000000 0 0 1
31.682089 -9.516419 -25.353070 41.678473 -0.291798 2.224715 -0.010553 0.012629 124971.000000 0 0 1
30.552979 -9.939619 -24.624120 40.479968 -0.314525 2.224718 -0.019966 0.011875 -73523.700000 0 0 1
30.893089 -10.148519 -23.115920 39.896380 -0.317398 2.188787 -0.021305 0.009942 59324.800000 0 0 1
31.758449 -11.186519 -22.708220 40.612812 -0.338667 2.164144 -0.030143 0.007308 209994.000000 0 0 1
31.838329 -11.187919 -21.290420 39.901512 -0.337920 2.133617 -0.013440 0.004534 388517.000000 0 0 1
32.899319 -12.192219 -20.714320 40.744306 -0.354900 2.104120 0.014328 0.003431 788589.000000 0 0 1
34.270969 -11.810019 -20.799220 41.792145 -0.331862 2.091721 0.032850 0.001459 551876.000000 0 0 1
35.066749 -12.673219 -19.991220 42.307638 -0.346797 2.062945 0.054436 -0.001016 -429398.000000 0 0 1
36.536329 -12.829119 -20.405920 43.770894 -0.337684 2.055785 0.064214 -0.008252 -684023.000000 0 0 1
-36.450549 -11.658119 -20.401220 43.367777 0.309552 2.060567 0.089508 -0.006789 210769.000000 0 0 1
-36.718489 -10.735819 -21.409620 43.839219 0.284453 2.081014 0.102464 -0.005649 -1087450.000000 0 0 1
-36.158849 -11.128819 -22.820220 44.182298 0.298575 2.113556 0.081992 -0.009018 150633.000000 0 0 1
-36.776789 -12.223219 -23.512720 45.329762 0.320876 2.116130 0.069929 -0.007443 399295.000000 0 0 1
35.665979 -11.990319 -23.965920 44.611603 -0.324314 2.137925 0.068849 -0.003850 -169563.000000 0 0 1
35.093319 -13.188819 -24.721120 44.906790 -0.359491 2.153758 0.034041 -0.014191 -335174.000000 0 0 1
35.029179 -14.449719 -24.057220 44.884157 -0.391240 2.136470 0.024970 -0.019421 180159.000000 0 0 1
33.968259 -14.658319 -23.159020 43.646869 -0.407389 2.130104 -0.000603 -0.014393 -333734.000000 0 0 1
-30.378599 8.423781 -18.879220 36.745671 -0.270497 2.110382 0.029457 0.007210 32720.400000 0 0 1
-29.439489 7.556181 -19.474120 36.097379 -0.251245 2.140626 0.030052 0.001022 -300845.000000 0 0 1
-28.802229 8.243081 -20.523020 36.314062 -0.278745 2.171416 0.041484 -0.013744 -75187.100000 0 0 1
-27.523679 7.458081 -20.932520 35.374373 -0.264615 2.204015 0.058483 -0.017032 154970.000000 0 0 1
-26.480749 7.481981 -19.959720 33.994125 -0.275366 2.198332 0.061995 -0.011205 254484.000000 0 0 1
-25.633919 6.367781 -20.170720 33.234085 -0.243484 2.222987 0.107213 -0.018452 285264.000000 0 0 1
-24.202339 6.433081 -19.556020 31.773820 -0.259797 2.233786 0.075057 -0.019223 549890.000000 0 0 1
-23.441639 7.381681 -20.308920 31.881843 -0.305066 2.261404 0.080972 -0.025046 -72365.500000 0 0 1
-22.179239 7.579281 -19.700520 30.618208 -0.329287 2.269760 0.065134 -0.017842 76080.100000 0 0 1
-21.394139 8.817581 -20.135020 30.673734 -0.390936 2.286867 0.076708 -0.008191 -59496.200000 0 0 1
-20.990939 8.784581 -21.480820 31.292395 -0.396347 2.327399 0.108154 -0.032317 228126.000000 0 0 1
-20.248939 9.932381 -21.920220 31.451038 -0.456030 2.341950 0.091437 -0.024700 328116.000000 0 0 1
-19.149539 9.506281 -22.931720 31.351842 -0.460782 2.391215 0.111593 -0.015959 -27998.700000 0 0 1
-19.659439 8.853881 -24.100420 32.337517 -0.423156 2.411747 0.106007 -0.021501 -179726.000000 0 0 1
-18.642439 8.404181 -24.960020 32.267219 -0.423527 2.455206 0.081594 -0.016987 -356403.000000 0 0 1
-19.136939 7.467181 -26.033610 33.162179 -0.372027 2.473556 0.064759 -0.013762 -305456.000000 0 0 1
-19.397039 6.216881 -25.455750 32.601993 -0.310162 2.466747 0.097773 -0.016307 2707.920000 0 0 1
-20.009839 5.327281 -26.341710 33.506108 -0.260198 2.475394 0.095193 -0.022852 -797606.000000 0 0 1
-20.386139 3.937981 -25.740860 33.071048 -0.190819 2.462830 0.092637 -0.007138 355469.000000 0 0 1
-19.411439 2.883781 -25.551420 32.217933 -0.147482 2.486646 0.093067 -0.009168 8664.590000 0 0 1
-18.307339 3.336881 -24.824120 31.024674 -0.180291 2.498327 0.100638 -0.016146 -861784.000000 0 0 1
-17.538539 2.192981 -24.080020 29.870669 -0.124392 2.508400 0.102287 -0.015691 -30712.700000 0 0 1
-18.184039 1.513381 -23.027820 29.380778 -0.083034 2.471512 0.110117 -0.015879 -475175.000000 0 0 1
-19.323939 0.778981 -23.313420 30.290873 -0.040290 2.449092 0.092915 -0.010220 -583529.000000 0 0 1
-19.696039 -0.161319 -22.115020 29.614761 0.008190 2.413968 0.114359 -0.012273 361669.000000 0 0 1
-18.893139 -1.351219 -22.012920 29.040406 0.071397 2.431053 0.118066 -0.010343 478714.000000 0 0 1
-19.338839 -2.123119 -20.923520 28.570825 0.109347 2.392546 0.116346 -0.010656 -132545.000000 0 0 1
-18.737339 -3.526219 -20.768220 28.192926 0.186016 2.398894 0.091788 -0.024422 -230424.000000 0 0 1
-19.116939 -4.467219 -21.752920 29.301927 0.229559 2.407400 0.099003 -0.033200 417928.000000 0 0 1
-19.375439 -5.779719 -21.185620 29.285548 0.289898 2.379533 0.097456 -0.031352 -225382.000000 0 0 1
-19.282039 -6.881119 -22.232620 30.223108 0.342779 2.397373 0.075825 -0.038387 -607985.000000 0 0 1
-18.022139 -6.906519 -22.835120 29.898833 0.365961 2.439893 0.084315 -0.028240 -396490.000000 0 0 1
-17.942539 -7.843119 -23.891820 30.891233 0.412095 2.455011 0.094876 -0.036272 208024.000000 0 0 1
-16.520639 -8.041219 -24.497820 30.622474 0.452982 2.498083 0.083388 -0.040666 -668710.000000 0 0 1
-16.436239 -8.827719 -25.687200 31.747612 0.492877 2.513426 0.072930 -0.057881 514538.000000 0 0 1
-15.159239 -8.806019 -26.346870 31.646581 0.526258 2.554464 0.082585 -0.050525 1327320.000000 0 0 1
-14.003339 -9.527519 -25.528040 30.635730 0.597433 2.555805 0.083495 -0.043263 -74738.400000 0 0 1
-13.493939 -9.037919 -24.296820 29.225089 0.590152 2.552362 0.067275 -0.041529 807285.000000 0 0 1
-12.405039 -9.861419 -23.819820 28.609726 0.671656 2.554542 0.062223 -0.035210 335907.000000 0 0 1
-11.671839 -9.233519 -22.653820 27.105078 0.669287 2.560344 0.061747 -0.031978 -544804.000000 0 0 1
-12.428039 -8.926019 -21.520020 26.405326 0.622847 2.523505 0.066267 -0.036625 -292877.000000 0 0 1
-11.730239 -7.984319 -20.792920 25.173267 0.597629 2.542756 0.073922 -0.029344 -1057570.000000 0 0 1
-12.354239 -7.681719 -19.446420 24.285784 0.556286 2.499314 0.067781 -0.027489 -23837.100000 0 1 0
-13.454839 -6.798819 -19.464420 24.619510 0.467884 2.482600 0.069778 -0.017267 1337670.000000 0 1 0
-14.750139 -7.394219 -19.771920 25.752086 0.464686 2.446164 0.090667 -0.028712 1205320.000000 0 0 1
-15.972039 -6.466719 -19.481520 26.008732 0.384704 2.417405 0.102870 -0.015593 129779.000000 0 0 1
-16.198639 -6.247519 -18.095020 25.077025 0.368102 2.376875 0.086862 -0.011497 78645.400000 0 0 1
-15.372439 -5.281119 -17.531720 23.907390 0.330912 2.393986 0.100185 -0.016339 -684444.000000 0 1 0
-15.511839 -5.093019 -15.997820 22.857958 0.317242 2.346025 0.112727 -0.005448 -366114.000000 0 1 0
-16.665139 -4.476519 -15.498020 23.193851 0.262421 2.302577 0.137172 -0.014764 54413.500000 0 1 0
-16.582339 -3.069519 -15.634220 22.996190 0.183036 2.318370 0.078103 -0.018919 133244.000000 0 1 0
-17.693439 -2.401119 -14.779620 23.178877 0.134883 2.262218 0.066149 -0.020670 36535.200000 0 1 0
-17.485239 -2.589219 -13.412120 22.188344 0.147012 2.219893 0.089537 -0.028985 734458.000000 0 1 0
-18.375239 -1.898619 -12.527920 22.320460 0.102960 2.166722 0.084694 -0.034885 -227986.000000 0 1 0
-17.820639 -0.593119 -12.010820 21.498529 0.033270 2.163591 0.069048 -0.027349 -145782.000000 0 1 0
-17.565539 0.397581 -13.015220 21.865548 -0.022630 2.208359 0.100691 -0.027536 631279.000000 0 1 0
-16.779239 1.478881 -12.557920 21.010267 -0.087910 2.211430 0.094158 -0.017477 -664984.000000 0 1 0
-16.278739 2.469781 -13.629220 21.374115 -0.150570 2.262241 0.096319 -0.007978 155402.000000 0 1 0
-15.499439 2.023181 -14.720620 21.471435 -0.129799 2.326211 0.082864 -0.014283 227510.000000 0 1 0
-14.217439 1.576781 -14.330220 20.247889 -0.110453 2.357089 0.075548 -0.010382 -792578.000000 0 1 0
-13.713839 0.553981 -15.363520 20.601311 -0.040374 2.412463 0.074725 -0.009652 -371219.000000 0 1 0
-13.432239 1.168481 -16.579120 21.369549 -0.086772 2.458825 0.079947 -0.014863 414181.000000 0 1 0
-12.898139 0.197581 -17.478120 21.722931 -0.015317 2.505786 0.051489 -0.007264 33353.400000 0 1 0
-12.243839 0.765581 -18.754920 22.410817 -0.062447 2.562335 0.062108 -0.007794 243904.000000 0 1 0
-10.948239 1.338281 -18.625020 21.645931 -0.121634 2.606928 0.035361 -0.001630 57010.300000 0 1 0
-10.591839 2.220881 -19.598420 22.387886 -0.206684 2.637065 0.042230 -0.008223 249671.000000 0 1 0
-9.155839 2.732881 -19.301420 21.537011 -0.290066 2.681920 0.025950 -0.012692 -872792.000000 0 1 0
-8.178839 1.752281 -19.581020 21.292728 -0.211055 2.737885 0.027129 -0.007506 663600.000000 0 1 0
-6.817639 2.201981 -19.408420 20.688540 -0.312406 2.787970 0.024181 -0.001332 1241540.000000 0 1 0
-6.419439 3.351581 -20.392620 21.640269 -0.481170 2.800369 0.024586 0.002212 -1465550.000000 0 1 0
-6.249939 2.916481 -21.703220 22.772733 -0.436606 2.833902 0.027550 0.002962 109882.000000 0 1 0
-6.015639 3.976481 -22.568620 23.692677 -0.584086 2.832325 0.026690 0.003734 -626052.000000 0 1 0
-5.352339 3.444581 -23.864820 24.699035 -0.571839 2.880951 0.045750 -0.012055 -303890.000000 0 1 0
-4.072839 2.937681 -23.574220 24.103150 -0.624869 2.931711 0.048696 -0.021576 -475400.000000 0 1 0
-3.587439 2.412581 -24.812820 25.186630 -0.592036 2.969091 0.076092 -0.023367 151923.000000 0 0 1
-2.182239 1.779081 -24.622220 24.782676 -0.683974 3.027737 0.060374 -0.028290 -308815.000000 0 1 0
-1.165139 2.761181 -24.532920 24.715296 -1.171494 3.020035 0.053971 -0.028977 1359080.000000 0 1 0
0.204261 2.302581 -24.701120 24.809050 1.482318 3.048281 0.054353 -0.026080 1460530.000000 0 1 0
0.807361 1.369181 -23.615420 23.668852 1.038009 3.074387 0.050565 -0.023044 -902799.000000 0 1 0
0.279761 0.071181 -23.566920 23.568688 0.249147 3.129344 0.047202 -0.026567 19666.700000 0 1 0
0.878961 -0.658519 -22.501120 22.527908 -0.642990 3.092821 0.048605 -0.024264 -292303.000000 0 1 0
0.482261 -2.195219 -22.486820 22.598864 -1.354545 3.041973 0.052164 -0.031326 1074060.000000 0 1 0
-0.774139 -2.472019 -21.815320 21.968577 1.267310 3.023404 0.055421 -0.031292 1608550.000000 0 1 0
-1.975139 -2.482119 -22.600720 22.822240 0.898654 3.002150 0.072125 -0.032784 311212.000000 0 1 0
-2.828539 -1.233119 -22.722520 22.931074 0.411114 3.006621 0.071667 -0.031576 -1575680.000000 0 1 0
-3.584839 -1.117419 -21.533920 21.858852 0.302162 2.968954 0.056695 -0.026034 -140770.000000 0 1 0
-4.589539 -0.150819 -21.572020 22.055355 0.032850 2.931854 0.036866 -0.025168 417732.000000 0 1 0
-5.812639 -0.431919 -22.542620 23.283966 0.074171 2.888572 0.051754 -0.011785 5738.150000 0 1 0
-6.652039 -1.527619 -22.166320 23.193296 0.225733 2.842897 0.057984 -0.000603 -250758.000000 0 1 0
-7.802139 -1.088119 -21.510420 22.907544 0.138570 2.790537 0.044941 -0.014192 -331722.000000 0 1 0
-8.627239 -2.348719 -20.987620 22.812846 0.265803 2.738855 0.041341 -0.018038 287024.000000 0 1 0
-9.436239 -2.994219 -21.956520 24.085197 0.307262 2.718002 0.101294 -0.030884 145868.000000 0 1 0
-9.429039 -4.379919 -21.743620 24.101359 0.434858 2.695579 0.064193 -0.026578 -423196.000000 0 1 0
-10.138939 -5.112719 -22.873420 25.536862 0.467054 2.680804 0.054986 -0.030743 1181050.000000 0 0 1
-11.574139 -4.977119 -22.687820 25.951293 0.406116 2.634677 0.056230 -0.031001 1345010.000000 0 0 1
-12.279239 -5.686519 -23.723620 27.311653 0.433695 2.623219 0.051036 -0.042592 -228296.000000 0 0 1
-13.797039 -5.752319 -23.574520 27.914252 0.395011 2.576490 0.080060 -0.036809 -326921.000000 0 0 1
-14.434139 -4.513019 -23.870420 28.257896 0.303033 2.576865 0.068324 -0.037416 -220253.000000 0 0 1
-15.815339 -4.436819 -23.653920 28.797886 0.273508 2.534617 0.079267 -0.037086 -167751.000000 0 0 1
-16.344239 -3.021519 -23.726420 28.969065 0.182804 2.530508 0.086703 -0.034117 -314638.000000 0 0 1
-16.285539 -2.652919 -25.056210 30.001174 0.161482 2.559246 0.077926 -0.039262 415550.000000 0 0 1
-17.015739 -1.487619 -25.468060 30.665461 0.087204 2.550824 0.075263 -0.032564 967296.000000 0 0 1
-18.459939 -1.709419 -26.065080 31.985620 0.092338 2.523353 0.085101 -0.025579 292457.000000 0 0 1
-18.482639 -2.038619 -27.421470 33.131570 0.109855 2.545711 0.088478 -0.039514 33346.600000 0 0 1
-18.089239 -1.025719 -28.308270 33.609981 0.056643 2.572254 0.067730 -0.029467 -476280.000000 0 0 1
-18.217639 -1.597519 -29.699760 34.878506 0.087467 2.589675 0.054392 -0.027576 -199929.000000 0 0 1
-19.450539 -2.163419 -30.056200 35.866126 0.110771 2.564424 0.064996 -0.028580 -189744.000000 0 0 1
-19.329739 -2.898519 -31.275890 36.881181 0.148842 2.583030 0.069137 -0.033570 -68305.600000 0 0 1
-20.700539 -3.482019 -31.773210 38.081146 0.166649 2.557759 0.050062 -0.024483 889302.000000 0 0 1
-21.682139 -2.554119 -32.235710 38.933015 0.117258 2.546290 0.056873 -0.024392 682502.000000 0 0 1
-22.352039 -1.824919 -31.214010 38.435120 0.081464 2.518576 0.044802 -0.007892 -428725.000000 0 0 1
-23.527639 -0.889519 -31.558900 39.373916 0.037789 2.500626 0.041524 -0.000257 16817.300000 0 0 1
-23.065839 0.293381 -32.189270 39.601365 -0.012719 2.519794 0.047449 -0.007514 430358.000000 0 0 1
-24.091939 1.139781 -32.712060 40.642336 -0.047274 2.506264 0.045615 -0.016212 -2088.840000 0 0 1
-23.663639 2.512881 -33.220400 40.864133 -0.105795 2.519992 0.055278 -0.019138 -457098.000000 0 0 1
-23.158039 3.445781 -32.213570 39.823138 -0.147710 2.513102 0.039404 -0.015780 541979.000000 0 0 1
-24.061139 4.003881 -31.247850 39.640858 -0.164894 2.478795 0.045306 -0.020957 -436072.000000 0 0 1
-25.029039 4.984781 -31.941540 40.884751 -0.196588 2.467475 0.042615 -0.024343 -1047760.000000 0 0 1
-26.159879 4.310881 -32.380240 41.849766 -0.163322 2.455498 0.054711 -0.032937 -738122.000000 0 0 1
-26.877849 5.131981 -33.256710 43.066980 -0.188666 2.453107 0.059467 -0.039878 -514089.000000 0 0 1
-28.079589 4.426981 -33.888330 44.232120 -0.156371 2.443621 0.076251 -0.036732 -701611.000000 0 0 1
-27.842939 3.367081 33.235384 43.487437 -0.120347 0.700915 0.091855 -0.034581 -28570.600000 0 0 1
-28.951739 2.934981 32.480464 43.609607 -0.101030 0.730560 0.110905 -0.037224 -285850.000000 0 0 1
-29.192289 1.389281 32.590084 43.774803 -0.047555 0.731020 0.112931 -0.014644 -154107.000000 0 0 1
-29.595019 0.880881 33.852346 44.973575 -0.029756 0.718618 0.108813 -0.007551 390432.000000 0 0 1
-29.980079 -0.487619 33.673154 45.087961 0.016263 0.727510 0.100471 -0.001993 -316909.000000 0 0 1
-29.863079 -1.186519 -33.016740 44.534441 0.039711 2.405914 0.073773 0.007381 -87763.400000 0 0 1
-28.563379 -1.549819 -32.613780 43.381185 0.054206 2.421577 0.081268 -0.010342 561251.000000 0 0 1
-27.718809 -0.566519 -32.007490 42.345398 0.020435 2.427774 0.078225 -0.006043 -67513.700000 0 0 1
-27.947699 -0.377319 -30.500190 41.370012 0.013500 2.399793 0.103600 -0.009584 -677497.000000 0 0 1
-27.205439 -1.281619 -29.768600 40.347838 0.047074 2.400600 0.074857 -0.013201 62555.200000 0 0 1
-27.253729 -0.940919 -28.409090 39.379277 0.034511 2.376650 0.083417 -0.018811 86889.700000 0 0 1
-26.140789 -1.628419 -27.552340 38.014787 0.062214 2.381511 0.077085 -0.016174 118921.000000 0 0 1
-26.327319 -2.968919 -27.111890 37.907741 0.112295 2.367717 0.068082 -0.017523 152597.000000 0 0 1
-25.212849 -3.461419 -26.398810 36.668329 0.136435 2.374505 0.073341 -0.020096 -238518.000000 0 0 1
-25.594549 -4.746119 -25.686090 36.570231 0.183352 2.349528 0.061703 -0.027283 785063.000000 0 0 1
-26.669809 -4.600319 -24.727320 36.658996 0.170811 2.311114 0.074535 -0.023911 622515.000000 0 0 1
-26.819229 -5.701519 -23.872220 36.354659 0.209472 2.287162 0.047271 -0.019391 -374379.000000 0 0 1
-27.958309 -5.547919 -22.882520 36.552102 0.195891 2.247241 0.063920 -0.017055 -391775.000000 0 0 1
-28.156719 -6.608019 -21.984920 36.329099 0.230515 2.220763 0.054519 -0.019535 -419071.000000 0 0 1
-29.283839 -6.286719 -21.232220 36.713393 0.211472 2.187469 0.080416 -0.015860 -490556.000000 0 0 1
-29.582919 -7.424819 -20.213420 36.590428 0.245904 2.156065 0.081588 -0.018222 807702.000000 0 0 1
-28.499219 -7.545419 -19.237620 35.202626 0.258820 2.148955 0.066387 -0.022718 1143530.000000 0 0 1
-28.808869 -8.539019 -18.295320 35.179320 0.288153 2.117716 0.082305 -0.023434 14277.500000 0 0 1
-29.630679 -8.104719 -17.092820 35.154347 0.266994 2.078557 0.084778 -0.024802 -23020.300000 0 0 1
-28.841639 -7.325019 -16.182220 33.872707 0.248715 2.068872 0.068671 -0.027672 582686.000000 0 0 1
-29.565449 -6.603119 -15.199720 33.893192 0.219733 2.035837 0.071545 -0.024917 86586.000000 0 0 1
-28.587589 -5.653619 -14.445020 32.524948 0.195245 2.030990 0.075619 -0.022350 305358.000000 0 0 1
-28.350999 -4.505519 -15.220520 32.492200 0.157601 2.058316 0.068300 -0.017861 376237.000000 0 0 1
-27.414989 -3.662619 -14.533020 31.244281 0.132813 2.054591 0.081929 -0.023215 225240.000000 0 0 1
-14.509839 21.143581 -4.829220 26.094210 -0.969356 1.756938 0.061889 -0.009702 26433.500000 0 0 1
-14.704339 20.597281 -6.133120 26.039983 -0.950804 1.808557 0.095468 -0.016037 -72754.700000 0 0 1
-15.359039 19.367881 -6.097220 25.459595 -0.900328 1.812633 0.086288 -0.033081 -333599.000000 0 0 1
-15.557339 18.760981 -7.540420 25.512019 -0.878479 1.870842 0.101197 -0.040013 -378918.000000 0 0 1
-14.401939 18.259081 -8.174420 24.650173 -0.902950 1.908814 0.095775 -0.030654 -223172.000000 0 1 0
-14.579639 17.135581 -9.040320 24.247090 -0.865815 1.952866 0.084568 -0.036280 -326279.000000 0 1 0
-14.938439 15.761781 -8.411720 23.288360 -0.812210 1.940349 0.088539 -0.042327 -56871.600000 0 1 0
-16.322439 15.708681 -8.159220 24.078155 -0.766239 1.916506 0.088891 -0.039718 -155331.000000 0 1 0
-16.700439 14.756381 -7.174520 23.412159 -0.723676 1.882252 0.098154 -0.030777 284247.000000 0 1 0
-18.102739 15.145481 -6.615120 24.512335 -0.696687 1.844053 0.104761 -0.035354 -100133.000000 0 1 0
-19.135239 14.735681 -7.464220 25.278691 -0.656229 1.870542 0.097357 -0.036730 -106594.000000 0 0 1
-20.379239 15.129781 -6.868320 26.294438 -0.638627 1.835070 0.083460 -0.032148 233395.000000 0 0 1
-21.539139 14.820081 -7.828820 27.292118 -0.602663 1.861736 0.085595 -0.017925 -560698.000000 0 0 1
-21.890539 13.451081 -7.718020 26.827134 -0.550991 1.862615 0.115530 -0.033967 -148806.000000 0 0 1
-22.696539 13.008981 -8.777120 27.593555 -0.520458 1.894506 0.108328 -0.030935 -289408.000000 0 0 1
-23.192839 11.606381 -8.456620 27.278751 -0.463991 1.885997 0.110299 -0.029771 -331356.000000 0 0 1
-22.200839 10.629281 -8.341720 25.989289 -0.446527 1.897547 0.123256 -0.031377 -605690.000000 0 0 1
-22.719339 9.536281 -7.773320 25.836670 -0.397409 1.876395 0.128915 -0.038727 -253759.000000 0 0 1
-21.618039 8.613881 -7.193520 24.357448 -0.379176 1.870599 0.127738 -0.023233 124161.000000 0 1 0
-21.166239 7.577981 -8.075020 23.888102 -0.343803 1.915625 0.107552 -0.023106 476249.000000 0 1 0
-20.268039 6.660581 -7.480420 22.607818 -0.317507 1.908030 0.105412 -0.013579 -161783.000000 0 1 0
-19.952639 5.412781 -8.386320 22.310006 -0.264906 1.956164 0.086664 -0.023864 -600510.000000 0 1 0
-20.883139 4.405081 -8.314020 22.904872 -0.207892 1.942261 0.105568 -0.027963 -202067.000000 0 1 0
-20.556139 3.418381 -9.259420 22.803005 -0.164787 1.988936 0.101567 -0.026349 -741062.000000 0 1 0
-21.388739 2.193581 -9.279220 23.417811 -0.102200 1.978221 0.092227 -0.021812 -642647.000000 0 1 0
-21.110639 1.320181 -8.193120 22.683236 -0.062455 1.940348 0.089780 -0.022536 310491.000000 0 1 0
-22.037339 0.269981 -8.005820 23.448035 -0.012250 1.919232 0.094131 -0.020476 -273913.000000 0 1 0
-21.868639 -0.927019 -8.980620 23.659000 0.042365 1.960145 0.084435 -0.036316 -203123.000000 0 1 0
-20.674439 -1.630319 -8.749020 22.508570 0.078694 1.970014 0.066039 -0.023485 197498.000000 0 1 0
-20.650839 -2.907419 -9.266020 22.820372 0.139870 1.988915 0.057017 -0.023538 -124853.000000 0 1 0
-21.485739 -3.987619 -8.468420 23.436131 0.183506 1.940501 0.054643 -0.025156 244459.000000 0 1 0
-21.111239 -4.302519 -7.130520 22.694502 0.201049 1.890406 0.048417 -0.024929 133588.000000 0 1 0
-22.177439 -4.928519 -6.440120 23.613645 0.218678 1.847025 0.074525 -0.024596 -359655.000000 0 1 0
-22.350239 -6.460819 -6.499020 24.156006 0.281401 1.843196 0.085437 -0.025764 204114.000000 0 1 0
-21.204839 -7.209019 -6.063620 23.203074 0.327712 1.835194 0.063740 -0.025488 853857.000000 0 1 0
-21.468539 -8.611919 -6.104520 23.923388 0.381490 1.828819 0.080469 -0.024242 -106814.000000 0 1 0
-20.393039 -9.523919 -5.480620 23.165023 0.436916 1.809651 0.075278 -0.022807 357356.000000 0 1 0
-19.330739 -9.949219 -6.330720 22.643817 0.475326 1.854151 0.071908 -0.009275 590432.000000 0 1 0
-18.411839 -10.836419 -5.703520 22.112303 0.531963 1.831680 0.075689 -0.000822 -200798.000000 0 1 0
-17.405739 -11.396419 -6.676420 21.849776 0.579708 1.881323 0.050473 -0.002997 -1256000.000000 0 1 0
-16.457739 -10.498619 -7.091620 20.769431 0.567832 1.919250 0.061365 -0.031069 -313303.000000 0 1 0
-16.598239 -10.082119 -8.471020 21.187469 0.545858 1.982109 0.046907 -0.032035 -132494.000000 0 1 0
-15.611939 -10.698419 -9.504720 21.178492 0.600773 2.036208 0.048590 -0.022004 167315.000000 0 1 0
-15.757539 -12.064919 -9.701120 22.090135 0.653448 2.025461 0.062593 -0.026944 218940.000000 0 1 0
-14.966539 -12.405719 -10.834020 22.254778 0.692114 2.079239 0.071474 -0.010370 182324.000000 0 1 0
-15.174239 -13.835119 -11.326920 23.451379 0.739269 2.074869 0.076861 -0.013789 -80302.100000 0 1 0
-16.270139 -14.062419 -12.170820 24.710280 0.712742 2.085803 0.082745 -0.015602 -127687.000000 0 1 0
-16.061139 -15.250319 -12.938820 25.650448 0.759509 2.099516 0.058486 -0.015754 -91194.900000 0 0 1
-16.828839 -15.186219 -14.248620 26.774134 0.734135 2.131968 0.087177 -0.019210 -225504.000000 0 0 1
-17.026839 -16.333819 -15.054920 27.988525 0.764628 2.138736 0.077858 -0.014783 131415.000000 0 0 1
-17.306639 -15.984619 -16.396120 28.702971 0.745708 2.178805 0.077461 -0.013626 -112481.000000 0 0 1
-17.859739 -17.134619 -17.285520 30.188651 0.764680 2.180450 0.092257 -0.026544 -359486.000000 0 0 1
-19.106239 -17.618119 -16.867620 30.983271 0.744899 2.146483 0.058071 -0.020141 -98644.600000 0 0 1
-19.933839 -17.904719 -18.049320 32.306576 0.731824 2.163600 0.051326 -0.013763 1516000.000000 0 0 1
-21.481239 -17.960619 -17.715520 33.134078 0.696373 2.134904 0.045578 -0.021405 1298780.000000 0 0 1
-22.027439 -16.705219 -17.253820 32.587831 0.648844 2.128755 0.041645 -0.012375 420993.000000 0 0 1
-21.808639 -16.562919 -15.845020 31.638769 0.649532 2.095331 0.043543 -0.020830 -516231.000000 0 0 1
-21.589539 -15.134019 -15.226520 30.446570 0.611389 2.094518 0.064169 -0.030611 -230562.000000 0 0 1
-22.762139 -14.387019 -15.052620 30.849355 0.563659 2.080524 0.087389 -0.030621 306886.000000 0 0 1
-22.448739 -13.167119 -14.315520 29.702745 0.530465 2.073686 0.092282 -0.036415 618909.000000 0 0 1
-23.727639 -12.410819 -13.790620 30.119935 0.481920 2.046379 0.103984 -0.045039 211342.000000 0 0 1
-24.369639 -13.031619 -12.752120 30.435489 0.491058 2.003127 0.140974 -0.041740 1197020.000000 0 0 1
-25.619759 -12.317719 -12.496820 31.052677 0.448162 1.984976 0.141857 -0.045874 1206470.000000 0 0 1
-26.546979 -12.936519 -11.415720 31.660927 0.453441 1.939666 0.154783 -0.048052 853136.000000 0 0 1
-27.674319 -12.137719 -10.971520 32.149128 0.413326 1.919064 0.138706 -0.047330 1077330.000000 0 0 1
-28.219459 -12.533319 -9.728720 32.373909 0.417968 1.876025 0.128566 -0.039975 -686920.000000 0 0 1
-29.011509 -11.452719 -9.082720 32.485816 0.375985 1.854164 0.145282 -0.044554 -361091.000000 0 0 1
-28.254989 -10.358619 -8.524320 31.277938 0.351397 1.846823 0.145127 -0.046094 959613.000000 0 0 1
-29.133389 -9.425319 -7.805120 31.599223 0.312895 1.820383 0.148826 -0.045718 706673.000000 0 0 1
-28.420639 -8.096419 -7.331420 30.447240 0.277526 1.813977 0.142819 -0.033959 226696.000000 0 0 1
-27.601979 -8.405619 -6.188120 29.509600 0.295607 1.782063 0.136079 -0.037199 173317.000000 0 0 1
-26.866929 -7.308019 -5.650820 28.410751 0.265582 1.771029 0.128969 -0.026639 -30280.400000 0 0 1
-27.514399 -6.116219 -4.850720 28.600346 0.218735 1.741224 0.142631 -0.034001 -708561.000000 0 0 1
-28.166329 -6.432919 -3.660620 29.122580 0.224539 1.696827 0.138162 -0.035555 186577.000000 0 0 1
-27.327169 -6.713319 -2.551920 28.255179 0.240894 1.661236 0.155438 -0.035665 -165312.000000 0 0 1
-26.831049 -5.460919 -1.791720 27.439699 0.200787 1.636139 0.156767 -0.029906 193651.000000 0 0 1
-27.869789 -4.662319 -1.260120 28.285160 0.165754 1.615362 0.165682 -0.036904 175639.000000 0 0 1
-27.278479 -3.605119 -0.533520 27.520846 0.131398 1.590184 0.146940 -0.042621 18922.300000 0 0 1
-28.252989 -2.529519 0.041980 28.366029 0.089293 1.569316 0.148982 -0.041434 603852.000000 0 0 1
-29.237729 -2.932619 1.015580 29.401981 0.099968 1.536248 0.159307 -0.033652 570722.000000 0 0 1
-28.687929 -3.291219 2.321880 28.969303 0.114225 1.490561 0.145146 -0.034277 321309.000000 0 0 1
-29.711089 -3.758519 3.421080 30.142645 0.125834 1.457055 0.125958 -0.037585 180244.000000 0 0 1
-30.228689 -5.092319 3.193980 30.820559 0.166893 1.466978 0.126891 -0.039077 49772.000000 0 0 1
-31.253949 -5.335319 4.124780 31.973251 0.169079 1.441429 0.142118 -0.040737 -226406.000000 0 0 1
-32.005089 -6.651519 3.823580 32.911825 0.204910 1.454357 0.129063 -0.030732 86694.800000 0 0 1
-31.249179 -7.842319 4.066680 32.473852 0.245883 1.445237 0.118052 -0.021834 382068.000000 0 0 1
-32.045749 -8.968419 3.822380 33.495868 0.272882 1.456432 0.133864 -0.023711 -128593.000000 0 0 1
-31.329869 -10.293819 4.221880 33.246769 0.317451 1.443466 0.115919 -0.020580 175314.000000 0 0 1
-31.333059 -10.507219 5.601880 33.519297 0.323555 1.402884 0.098556 -0.013328 136841.000000 0 0 1
-30.311649 -11.391419 5.948580 32.923337 0.359481 1.389119 0.085714 -0.012884 -362491.000000 0 0 1
-30.444429 -11.807919 7.418380 33.486155 0.369990 1.347407 0.070921 -0.017159 -116668.000000 0 0 1
-30.388689 -10.648019 8.212380 33.230948 0.337026 1.321079 0.084707 -0.006638 458395.000000 0 0 1
-30.122879 -11.001819 9.546080 33.459760 0.350179 1.281477 0.067020 -0.006947 -339556.000000 0 0 1
-30.058579 -9.833019 10.503980 33.324766 0.316156 1.250129 0.060632 -0.010909 -492694.000000 0 0 1
-28.920319 -9.033419 10.470080 32.056358 0.302753 1.238077 0.059805 -0.014359 -167482.000000 0 0 1
-29.171519 -8.041619 11.434780 32.348097 0.268986 1.209495 0.062971 -0.015465 627083.000000 0 0 1
-28.160579 -6.814319 11.418980 31.142355 0.237417 1.195369 0.091419 -0.020411 447953.000000 0 0 1
-28.411769 -6.010219 10.328980 30.822706 0.208466 1.229075 0.094866 -0.019447 394096.000000 0 0 1
-27.736229 -4.768419 10.488980 30.034229 0.170256 1.214043 0.109486 -0.026816 -212402.000000 0 0 1
-27.788089 -3.871319 9.247780 29.541267 0.138425 1.252398 0.109322 -0.027534 -438982.000000 0 0 1
-27.141339 -4.357219 8.121680 28.663554 0.159180 1.283516 0.115278 -0.022213 4637.960000 0 0 1
-27.210679 -3.448619 7.037380 28.316757 0.126066 1.319641 0.117581 -0.040486 -64533.700000 0 0 1
-26.416169 -3.890619 5.770580 27.317586 0.146230 1.357952 0.116808 -0.027904 293375.000000 0 0 1
-25.010239 -3.954419 5.974980 26.016339 0.156814 1.339065 0.145336 -0.041784 564216.000000 0 0 1
-24.402139 -4.327619 4.740480 25.232218 0.175521 1.381799 0.155059 -0.034062 -511202.000000 0 0 1
-22.872739 -4.273319 4.777080 23.753819 0.184701 1.368308 0.151177 -0.025575 -265452.000000 0 1 0
-22.438839 -2.925619 4.804780 23.133237 0.129651 1.361573 0.118189 -0.025880 -306887.000000 0 1 0
-21.146439 -2.740819 4.321880 21.756898 0.128893 1.370822 0.102082 -0.017048 -828048.000000 0 1 0
-20.487239 -1.321819 4.493180 21.015776 0.064430 1.355333 0.069002 -0.025021 -461682.000000 0 1 0
-20.892939 -0.245019 3.700580 21.219548 0.011727 1.395505 0.083772 -0.016568 321512.000000 0 1 0
-22.113239 0.320381 4.115380 22.495207 -0.014487 1.386815 0.084342 -0.039974 -319170.000000 0 1 0
-22.530439 1.500381 3.255680 22.813840 -0.066495 1.427601 0.119964 -0.026934 -511047.000000 0 1 0
-21.505339 2.422081 3.051280 21.855352 -0.112154 1.430726 0.071293 -0.014591 318512.000000 0 1 0
-21.918739 3.336081 2.016180 22.262649 -0.151043 1.480109 0.104623 -0.016317 -268269.000000 0 1 0
-20.734839 4.155181 1.521580 21.201752 -0.197776 1.498968 0.068301 -0.006763 -602440.000000 0 1 0
-20.942939 5.157381 0.541480 21.575414 -0.241454 1.545697 0.085482 -0.013488 658991.000000 0 1 0
-21.753939 4.830581 -0.623020 22.292522 -0.218510 1.598747 0.095636 -0.017235 326923.000000 0 1 0
-21.208139 3.760581 -1.667220 21.603397 -0.175494 1.648047 0.077507 -0.013911 -313156.000000 0 1 0
-21.193739 2.470281 -1.089920 21.365037 -0.116034 1.621833 0.057126 -0.009845 352392.000000 0 1 0
-20.678439 1.526781 -1.953920 20.826586 -0.073701 1.664753 0.046598 -0.007779 -791213.000000 0 1 0
-19.990939 0.456881 -1.144420 20.028881 -0.022850 1.627966 0.053114 -0.010685 -651390.000000 0 1 0
-20.820439 -0.495619 -0.516920 20.832751 0.023800 1.595612 0.069417 -0.016962 633598.000000 0 1 0
-20.150639 -1.168019 0.567080 20.192427 0.057900 1.542709 0.066485 -0.018791 -63440.400000 0 1 0
-19.161639 -2.266419 0.142580 19.295735 0.117732 1.563407 0.035154 -0.016309 -429156.000000 0 1 0
-18.415639 -2.736019 1.232580 18.658532 0.147492 1.504688 0.036451 -0.013328 725072.000000 0 1 0
-17.520939 -3.832119 1.038480 17.965157 0.215326 1.512959 0.017627 -0.011103 96217.800000 0 1 0
-18.252639 -5.137819 0.545580 18.969810 0.274384 1.542032 0.005408 -0.014190 -416477.000000 0 1 0
-19.120339 -5.555819 1.536880 19.970390 0.282784 1.493762 0.047344 -0.023406 63004.400000 0 1 0
-19.865039 -6.679319 1.109080 20.987214 0.324360 1.517926 0.047529 -0.024846 -531034.000000 0 1 0
-20.828539 -7.150919 2.162580 22.127820 0.330714 1.472909 0.085150 -0.026509 -1010210.000000 0 1 0
-20.140039 -7.716919 3.197880 21.803634 0.365908 1.423598 0.083791 -0.025875 461762.000000 0 1 0
-21.008739 -8.292219 4.147480 22.963658 0.375932 1.389189 0.093427 -0.033142 -13874.300000 0 1 0
-20.238639 -9.083619 5.230780 22.792010 0.421877 1.339232 0.086111 -0.019696 -44144.200000 0 1 0
-19.815939 -10.343819 4.771980 22.856899 0.481088 1.360473 0.092969 -0.015594 1165870.000000 0 1 0
-18.966339 -11.031819 5.787280 22.691753 0.526819 1.312908 0.113571 -0.013181 807414.000000 0 1 0
-18.285939 -12.308219 5.318780 22.675036 0.592441 1.334025 0.092068 -0.009611 376087.000000 0 1 0
-19.250039 -13.340719 5.109880 23.971852 0.606028 1.355986 0.112915 -0.010737 1205830.000000 0 1 0
-18.470639 -14.578619 4.940680 24.043938 0.668174 1.363837 0.094572 -0.009982 852218.000000 0 1 0
-19.325639 -15.911519 4.913180 25.510706 0.688810 1.376993 0.102015 -0.006843 649630.000000 0 0 1
-18.529439 -17.101319 4.760280 25.660388 0.745339 1.384205 0.101672 -0.020823 300706.000000 0 0 1
-19.298739 -18.217919 5.090080 27.023005 0.756597 1.381303 0.106529 -0.021894 -341218.000000 0 0 1
-18.519539 -19.499219 5.052880 27.362830 0.811161 1.385068 0.102950 -0.035755 -500117.000000 0 0 1
-18.217639 -19.885419 3.696380 27.220865 0.829140 1.434583 0.099785 -0.034610 159163.000000 0 0 1
-17.495039 -21.090919 3.589680 27.636734 0.878321 1.440540 0.089010 -0.032946 -60287.300000 0 0 1
-15.971239 -20.896219 3.514180 26.534542 0.918198 1.437968 0.081214 -0.025792 -360249.000000 0 0 1
-15.197639 -22.037819 3.723580 27.027741 0.967073 1.432588 0.069784 -0.027936 -77880.600000 0 0 1
-13.817939 -21.699419 3.759480 25.998729 1.003765 1.425685 0.057173 -0.023341 170708.000000 0 0 1
-12.982439 -22.930819 4.170580 26.678829 1.055633 1.413827 0.059328 -0.017139 -318891.000000 0 0 1
-12.891139 -23.852719 3.123380 27.292658 1.075317 1.456105 0.073097 -0.020704 -166621.000000 0 0 1
-12.149739 -24.972619 3.464580 27.986625 1.117989 1.446684 0.092985 -0.023415 -388112.000000 0 0 1
19.264861 19.207781 -24.349020 36.509567 0.783915 2.300866 0.082198 -0.025798 -811697.000000 0 0 1
18.236761 19.510781 -25.196110 36.716399 0.819136 2.327098 0.061345 -0.032013 -996685.000000 0 0 1
18.567561 19.112181 -26.475440 37.562996 0.799851 2.352977 0.064129 -0.028411 -356108.000000 0 0 1
17.536861 19.333681 -27.569990 37.966262 0.834093 2.383532 0.041917 -0.022222 -439955.000000 0 0 1
17.406461 20.692981 -27.894860 38.849808 0.871447 2.371747 0.040765 -0.014429 462934.000000 0 0 1
16.448261 20.824581 -28.950910 39.272938 0.902276 2.399672 0.025384 -0.010193 119282.000000 0 0 1
16.103561 22.308381 -29.299030 40.192309 0.945548 2.387614 0.032898 -0.009832 -662542.000000 0 0 1
15.348861 22.973481 -28.344060 39.582245 0.981794 2.368967 0.038372 -0.014054 48686.200000 0 0 1
15.221961 24.383681 -28.639780 40.577198 1.012723 2.354362 0.044912 -0.008725 -266165.000000 0 0 1
14.477361 25.180081 -27.573820 40.049295 1.048997 2.330211 0.047926 -0.015860 2347780.000000 0 0 1
13.013761 24.912081 -27.542580 39.351791 1.089399 2.346063 0.056492 -0.023648 2441030.000000 0 0 1
12.387061 25.612281 -26.437670 38.837850 1.120324 2.319540 0.061290 -0.024492 291959.000000 0 0 1
10.863361 25.303481 -26.369590 38.126553 1.165270 2.334544 0.086002 -0.034730 468226.000000 0 0 1
10.129661 25.992181 -25.410600 37.734627 1.199184 2.309598 0.087593 -0.039005 -3853.660000 0 0 1
9.738061 27.360081 -25.770520 38.826841 1.228855 2.296590 0.101948 -0.043918 -101717.000000 0 0 1
9.220761 28.203881 -24.580920 38.531843 1.254818 2.262614 0.110354 -0.050468 -401803.000000 0 0 1
10.227761 28.510581 -23.686820 38.451603 1.226361 2.234472 0.100654 -0.041365 -127405.000000 0 0 1
9.716961 29.426881 -22.712820 38.421776 1.251862 2.203273 0.119285 -0.052542 -105823.000000 0 0 1
10.713661 29.703881 -21.586120 38.250015 1.224637 2.170433 0.103447 -0.052485 -136560.000000 0 0 1
11.859261 30.400981 -22.011020 39.361742 1.198858 2.164215 0.094963 -0.054137 21210.500000 0 0 1
12.753161 30.632381 -20.942220 39.237258 1.176293 2.133805 0.079467 -0.046994 289454.000000 0 0 1
14.021261 31.476881 -21.299920 40.510201 1.151736 2.124442 0.068755 -0.033480 879951.000000 0 0 1
15.013961 30.702681 -21.993720 40.642310 1.115978 2.142604 0.061252 -0.029784 548520.000000 0 0 1
15.904961 31.526581 -22.768320 42.015348 1.103560 2.143498 0.058040 -0.015459 748633.000000 0 0 1
17.198361 30.818181 -23.270520 42.273644 1.061787 2.153728 0.028432 -0.006387 758268.000000 0 0 1
18.136861 30.488281 -22.238220 41.869075 1.034150 2.130738 0.023066 -0.002377 746184.000000 0 0 1
19.343461 29.978381 -22.813420 42.347667 0.997770 2.139710 0.018973 -0.002324 964123.000000 0 0 1
20.399461 29.372981 -21.817720 41.891800 0.963773 2.118597 0.024577 0.000095 547689.000000 0 0 1
21.008561 30.248681 -20.892220 42.341790 0.963752 2.086812 0.023864 0.002747 -194814.000000 0 0 1
22.031061 29.574981 -20.232120 42.064068 0.930553 2.072572 0.030133 0.003287 -362948.000000 0 0 1
22.589461 30.350781 -19.033120 42.352253 0.930966 2.036890 0.040631 -0.005877 14474.300000 0 0 1
23.343661 31.541181 -19.368720 43.759798 0.933661 2.029309 0.041987 -0.004056 32168.100000 0 0 1
24.025561 31.972781 -18.255920 43.963222 0.926376 1.999019 0.053180 -0.000170 -32539.200000 0 0 1
25.357561 32.721281 -18.618220 45.390817 0.911514 1.993443 0.054570 -0.004528 499384.000000 0 0 1
26.402561 31.775681 -18.782120 45.382344 0.877493 1.997491 0.055872 -0.005850 -1286230.000000 0 0 1
27.599861 32.441081 -18.856920 46.580677 0.865856 1.987581 0.060391 -0.010393 -830226.000000 0 0 1
28.787661 31.546281 -19.287720 46.860574 0.831089 1.995003 0.065478 -0.015853 132944.000000 0 0 1
29.327661 30.812881 -18.218820 46.276028 0.810089 1.975448 0.054286 -0.005366 159136.000000 0 0 1
30.438561 30.040681 -18.677620 46.666926 0.778819 1.982567 0.041603 -0.011092 317266.000000 0 0 1
30.922961 28.948281 -17.679320 45.899791 0.752428 1.966191 0.046496 -0.020502 -336287.000000 0 0 1
31.354861 29.436081 -16.446620 46.044560 0.753845 1.936053 0.045764 -0.014907 108658.000000 0 0 1
31.732061 28.322981 -15.629320 45.314353 0.728693 1.922938 0.057382 -0.014104 -476331.000000 0 0 1
32.114261 28.684181 -14.196220 45.339173 0.729041 1.889264 0.068076 -0.014185 1035000.000000 0 0 1
33.427861 29.288881 -14.043920 46.610000 0.719499 1.876859 0.053764 -0.011718 870274.000000 0 0 1
33.601161 30.636281 -14.468320 47.717418 0.739276 1.878854 0.051107 -0.013329 -1061730.000000 0 0 1
35.041361 31.013781 -14.758620 49.066979 0.724501 1.876312 0.051928 -0.019572 -500956.000000 0 0 1
35.848961 31.202581 -13.633220 49.443035 0.716213 1.850152 0.055963 -0.018158 149912.000000 0 0 1
-36.690217 31.884381 -13.900820 50.557082 -0.715431 1.849337 0.059629 -0.025913 1082060.000000 0 0 1
-35.845817 32.189981 -12.578920 49.793038 -0.731716 1.826188 0.062301 -0.015379 122464.000000 0 0 1
-36.514817 33.129381 -11.828420 50.703049 -0.736826 1.806254 0.061915 -0.025127 -232820.000000 0 0 1
-35.884317 33.371081 -10.586020 50.133592 -0.749125 1.783554 0.072425 -0.017846 -57112.300000 0 0 1
-36.624217 -33.778170 -9.612120 50.741412 0.744995 1.761381 0.066346 -0.015086 119314.000000 0 0 1
-35.703317 -32.976970 -8.860620 49.403623 0.745723 1.751124 0.065081 -0.015179 265875.000000 0 0 1
-35.136717 -33.699270 -7.756920 49.299082 0.764519 1.728797 0.054318 -0.012459 233565.000000 0 0 1
-34.685117 -32.749070 -6.629420 48.161272 0.756696 1.708885 0.060242 -0.014945 117539.000000 0 0 1
-35.786417 -31.950170 -6.211920 48.374259 0.728824 1.699566 0.053750 -0.005606 19374.400000 0 0 1
-35.477017 -30.912670 -5.313120 47.354420 0.716755 1.683232 0.082624 -0.014024 -76254.600000 0 0 1
-36.787217 -30.177770 -4.989420 47.842360 0.687017 1.675275 0.056376 -0.012678 -16545.900000 0 0 1
36.114361 -30.938170 -4.168220 47.736689 -0.708355 1.658225 0.029806 -0.006552 142449.000000 0 0 1
34.798461 -30.420770 -4.088820 46.401235 -0.718376 1.659030 0.021365 0.001201 -124266.000000 0 0 1
34.593561 -29.458170 -2.889420 45.528529 -0.705394 1.634303 0.018332 0.006478 -426757.000000 0 0 1
35.123961 -28.131970 -2.961320 45.098445 -0.675310 1.636507 0.055223 -0.009552 320351.000000 0 0 1
34.172661 -27.283270 -2.366820 43.792116 -0.673761 1.624869 0.054863 -0.004761 -211205.000000 0 0 1
34.312061 -25.747470 -2.600020 42.976852 -0.643751 1.631331 0.092628 -0.022878 -335962.000000 0 0 1
34.022261 -25.310670 -3.903520 42.583820 -0.639614 1.662592 0.073300 -0.026929 363125.000000 0 0 1
34.278561 -23.940370 -4.060920 42.007763 -0.609656 1.667618 0.071317 -0.029422 -138932.000000 0 0 1
34.056661 -23.343370 -5.474720 41.650230 -0.600879 1.702623 0.075302 -0.028806 -355601.000000 0 0 1
35.011761 -23.841570 -6.374220 42.835436 -0.597832 1.720158 0.084496 -0.030314 162972.000000 0 0 1
34.828561 -23.250470 -7.686820 42.575817 -0.588627 1.752336 0.067155 -0.033123 -21549.100000 0 0 1
36.168961 -23.098670 -8.445520 43.738645 -0.568342 1.765107 0.063853 -0.030604 103233.000000 0 0 1
36.674761 -24.323370 -8.969520 44.912322 -0.585611 1.771860 0.064008 -0.020541 -352962.000000 0 0 1
-35.837117 -24.151770 -9.575920 44.264039 0.593015 1.788857 0.075855 -0.021065 -318590.000000 0 0 1
-35.340217 -25.436370 -10.233420 44.728768 0.623863 1.801629 0.073185 -0.024130 -235202.000000 0 0 1
-34.644017 -26.329570 -9.391420 44.515760 0.649873 1.783362 0.075140 -0.020940 151660.000000 0 0 1
-35.454217 -27.436970 -8.952320 45.715783 0.658604 1.767896 0.075323 -0.020428 91230.200000 0 0 1
-34.659417 -28.585370 -8.356020 45.697063 0.689652 1.754688 0.076069 -0.019252 -245566.000000 0 0 1
-33.778917 -29.221970 -9.244120 45.611320 0.713192 1.774882 0.065032 -0.014606 -150021.000000 0 0 1
-33.137717 -30.267570 -8.561520 45.689536 0.740162 1.759295 0.066840 -0.025128 -3574.990000 0 0 1
-32.369717 -31.270870 -9.474720 45.993871 0.768133 1.778281 0.058211 -0.016898 330702.000000 0 0 1
-31.222717 -30.789970 -10.158620 45.011974 0.778420 1.798445 0.035730 0.012673 202030.000000 0 0 1
-30.836517 -31.531870 -11.281220 45.523790 0.796547 1.821215 0.021027 0.011384 -298075.000000 0 0 1
-31.262317 -31.032370 -12.696120 45.842468 0.781707 1.851416 0.016726 0.009694 -262028.000000 0 0 1
-30.664317 -29.822070 -13.116320 44.740295 0.771474 1.868333 0.009688 0.014162 -142166.000000 0 0 1
-31.032917 -29.519070 -14.422520 45.193213 0.760403 1.895608 0.002892 0.025341 -110871.000000 0 0 1
-30.223017 -28.299670 -14.943220 44.018199 0.752545 1.917158 0.003881 0.005322 978210.000000 0 0 1
-28.917517 -28.816370 -15.279220 43.589683 0.783646 1.928927 0.017727 0.002958 570884.000000 0 0 1
-28.154617 -27.880470 -16.025320 42.741244 0.780506 1.955126 0.049689 0.008747 -48568.900000 0 0 1
-26.792917 -28.331470 -16.557520 42.363711 0.813301 1.972343 0.063955 0.002374 -531187.000000 0 0 1
-26.877617 -29.148870 -17.693420 43.417969 0.825915 1.990526 0.055530 0.000502 87617.100000 0 0 1
-26.985717 -28.510470 -18.947620 43.590000 0.812866 2.020477 0.054454 0.001904 365905.000000 0 0 1
-25.614217 -27.912670 -19.401720 42.563270 0.828312 2.044104 0.066781 -0.002336 361438.000000 0 0 1
-25.245017 -26.839170 -18.609220 41.278990 0.815996 2.038475 0.064976 -0.006061 -139410.000000 0 0 1
-23.893917 -26.461970 -18.793220 40.303104 0.836352 2.055897 0.079158 -0.017928 200621.000000 0 0 1
-23.509217 -25.284370 -17.930020 38.903319 0.821763 2.049790 0.071133 -0.014706 -190065.000000 0 0 1
-23.588917 -25.507970 -16.522820 38.472030 0.824465 2.014709 0.075865 -0.011170 140149.000000 0 0 1
-23.135417 -24.372670 -15.824520 37.144178 0.811435 2.010896 0.080632 -0.014307 -63572.400000 0 0 1
-23.655817 -24.445170 -14.354820 36.921875 0.801807 1.970113 0.068650 -0.011413 184620.000000 0 0 1
-24.958517 -23.918170 -14.207720 37.374667 0.764116 1.960747 0.037255 0.006082 -317966.000000 0 0 1
-25.318017 -24.024770 -12.852320 37.193732 0.759195 1.923622 0.024350 0.004831 -410392.000000 0 0 1
-26.830517 -23.811170 -12.712020 38.058427 0.725847 1.911355 0.014916 0.016618 -759776.000000 0 0 1
-27.454217 -25.026870 -13.150320 39.408237 0.739179 1.911017 0.024002 0.015495 1406800.000000 0 0 1
-28.838217 -25.304870 -12.780620 40.439132 0.720231 1.892355 0.013132 0.015300 1616260.000000 0 0 1
-29.917617 -24.339570 -13.374320 40.820961 0.682951 1.904594 0.014005 0.011414 -906573.000000 0 0 1
-30.107417 -23.063670 -12.695820 39.994665 0.653692 1.893823 0.029721 0.011532 77572.200000 0 0 1
-30.620317 -23.057670 -11.357220 39.978074 0.645430 1.858850 0.039416 0.007876 -1013580.000000 0 0 1
-32.021317 -23.619070 -11.135320 41.318525 0.635521 1.843670 0.031723 -0.002745 -877479.000000 0 0 1
-33.149717 -22.891870 -11.516720 41.899597 0.604362 1.849245 0.051208 -0.013340 -147274.000000 0 0 1
-33.367217 -22.853570 -12.892620 42.448515 0.600527 1.879395 0.048129 -0.006717 -1040120.000000 0 0 1
-34.775517 -22.348870 -13.256620 43.411364 0.571199 1.881126 0.030918 -0.017528 395051.000000 0 0 1
-35.759517 -23.297070 -12.855720 44.573154 0.577424 1.863371 0.048740 -0.016353 782922.000000 0 0 1
36.631161 -22.991470 -13.109820 45.192002 -0.560501 1.865119 0.061945 -0.029288 1164640.000000 0 0 1
35.601361 -24.079870 -12.663820 44.807024 -0.594694 1.857331 0.061198 -0.018465 86790.400000 0 0 1
35.710761 -25.294070 -13.382020 45.761631 -0.616277 1.867562 0.044675 -0.003815 188249.000000 0 0 1
34.971561 -26.304570 -12.696720 45.564758 -0.644889 1.853187 0.048521 -0.010183 317350.000000 0 0 1
34.771161 -27.585370 -13.561120 46.410023 -0.670667 1.867325 0.033972 -0.013172 501848.000000 0 0 1
33.929761 -27.330470 -14.688420 45.977527 -0.678086 1.895966 0.031733 -0.009908 -104101.000000 0 0 1
34.028661 -28.299770 -15.657920 46.946749 -0.693741 1.910837 0.022992 0.001070 180874.000000 0 0 1
33.258861 -28.122170 -17.024920 46.763834 -0.701907 1.943421 0.018119 -0.007934 473147.000000 0 0 1
31.887061 -28.469270 -16.908720 45.969433 -0.728832 1.947466 0.078319 -0.012653 86170.800000 0 0 1
31.158261 -27.920770 -18.000520 45.545860 -0.730654 1.977101 0.068347 -0.019365 582283.000000 0 0 1
29.627661 -28.208270 -17.880920 44.645628 -0.760861 1.982867 0.079239 -0.026128 422984.000000 0 0 1
29.063461 -27.535170 -16.770220 43.406343 -0.758402 1.967472 0.071800 -0.024800 -793517.000000 0 0 1
27.680761 -27.499670 -16.961120 42.545693 -0.782116 1.980848 0.092020 -0.023085 -445756.000000 0 0 1
27.016661 -26.619370 -15.870020 41.113846 -0.777991 1.967090 0.081365 -0.023490 -27401.400000 0 0 1
26.869461 -25.263970 -16.261220 40.307113 -0.754612 1.986062 0.084313 -0.026813 -22274.500000 0 0 1
26.346761 -24.556170 -15.167620 39.079585 -0.750236 1.969389 0.073805 -0.017416 -45716.700000 0 0 1
26.064461 -23.067970 -15.337620 38.035903 -0.724486 1.985852 0.062751 -0.017555 329071.000000 0 0 1
24.907661 -22.626470 -16.042120 37.278658 -0.737444 2.015655 0.076059 -0.017599 86123.800000 0 0 1
24.820961 -21.205070 -15.889720 36.307276 -0.706997 2.023775 0.073716 -0.020145 34268.800000 0 0 1
23.491061 -20.446370 -16.184820 35.097470 -0.716213 2.050075 0.076417 -0.015703 439246.000000 0 0 1
22.439261 -20.803970 -15.281220 34.202943 -0.747600 2.033960 0.068635 -0.018306 115802.000000 0 0 1
21.437861 -19.829570 -15.212220 32.927274 -0.746445 2.051039 0.078174 -0.029065 -372990.000000 0 0 1
21.483661 -18.647270 -14.180420 31.786045 -0.714837 2.033223 0.078168 -0.019599 -415372.000000 0 0 1
21.229761 -19.095270 -12.831520 31.304632 -0.732515 1.993132 0.065830 -0.026555 291867.000000 0 0 1
20.850761 -17.966970 -12.083120 30.059408 -0.711244 1.984469 0.049935 -0.025965 -38168.000000 0 0 1
19.814161 -18.294470 -10.946320 29.105163 -0.745541 1.956375 0.053704 -0.009024 212967.000000 0 0 1
20.352061 -18.971570 -9.780820 29.492224 -0.750307 1.908838 0.050113 -0.027627 466427.000000 0 0 1
19.364361 -19.013970 -8.758920 28.517156 -0.776268 1.882989 0.052250 -0.030184 269604.000000 0 0 1
19.972461 -19.557270 -7.411020 28.919011 -0.774895 1.829956 0.058525 -0.030873 -83061.700000 0 0 1
20.850561 -18.630770 -6.863420 28.791631 -0.729233 1.811496 0.055055 -0.030181 -317529.000000 0 0 1
21.543761 -19.131170 -5.741920 29.378648 -0.726154 1.767508 0.058602 -0.019040 -188888.000000 0 0 1
22.897061 -18.450870 -5.494720 29.914912 -0.678279 1.755523 0.058664 -0.019900 -378794.000000 0 0 1
23.742461 -18.537770 -6.614920 30.840080 -0.662914 1.786967 0.045574 -0.031920 -585961.000000 0 0 1
24.777261 -17.608970 -6.481620 31.080539 -0.617865 1.780881 0.042982 -0.026002 -744975.000000 0 0 1
25.774161 -17.903470 -7.647020 32.300442 -0.607112 1.809812 0.054245 -0.033711 -125852.000000 0 0 1
26.403661 -19.172770 -7.460720 33.472537 -0.628055 1.795575 0.073182 -0.043373 -41614.000000 0 0 1
27.046461 -19.579770 -8.629720 34.486961 -0.626607 1.823716 0.071949 -0.047590 -865135.000000 0 0 1
27.903061 -20.797970 -8.476520 35.818818 -0.640528 1.809713 0.074965 -0.053366 -577042.000000 0 0 1
29.161361 -20.563970 -7.895720 36.545919 -0.614193 1.788563 0.073188 -0.031913 -333432.000000 0 0 1
29.883461 -21.770270 -8.138220 37.857582 -0.629602 1.787457 0.073596 -0.038847 -82507.600000 0 0 1
-29.871229 29.732781 4.905380 42.431018 -0.783075 1.454929 0.038494 -0.009267 253127.000000 0 0 1
-29.332219 30.355581 3.751280 42.378207 -0.802542 1.482161 0.029462 -0.012426 -288382.000000 0 0 1
-28.531339 31.434281 4.141380 42.653280 -0.833770 1.473549 0.020112 0.003060 -170593.000000 0 0 1
-28.401489 32.436781 2.994580 43.217552 -0.851629 1.501450 0.022696 0.004629 -60290.400000 0 0 1
-27.488929 32.060181 1.951380 42.276522 -0.862012 1.524622 0.026656 -0.002086 522548.000000 0 0 1
-26.986839 33.215981 1.272280 42.815996 -0.888501 1.541077 0.049648 -0.020562 -77560.600000 0 0 1
-25.809229 34.010181 1.871180 42.735348 -0.921644 1.526997 0.053349 -0.013735 -174202.000000 0 0 1
-24.536439 33.468981 1.561580 41.528882 -0.938193 1.533185 0.042253 -0.013371 -392121.000000 0 0 1
-23.544739 34.003381 2.400380 41.428812 -0.965173 1.512824 0.054002 -0.018022 -205710.000000 0 0 1
-22.147039 33.538281 2.001480 40.240695 -0.987179 1.521038 0.059181 -0.021852 -262320.000000 0 0 1
-21.584439 33.968081 0.771480 40.253120 -1.004730 1.551629 0.086033 -0.024486 563417.000000 0 0 1
-20.166739 33.821681 0.834980 39.386554 -1.033126 1.549595 0.083012 -0.027112 458845.000000 0 0 1
-19.341739 -33.814570 -0.435920 38.957901 1.051224 1.581986 0.094343 -0.028645 274296.000000 0 0 1
-19.207339 -32.440170 -0.723120 37.706888 1.036217 1.589975 0.091246 -0.029334 520877.000000 0 0 1
-18.484339 -31.748070 0.310880 36.738364 1.043553 1.562334 0.095985 -0.025353 -128691.000000 0 0 1
-18.357739 -30.237070 0.102580 35.373684 1.025153 1.567896 0.104895 -0.030232 -163801.000000 0 0 1
-17.424239 -29.844470 -0.872620 34.569610 1.042348 1.596041 0.105040 -0.023316 36056.000000 0 0 1
-17.313839 -28.441370 -0.883220 33.308567 1.023964 1.597316 0.083977 -0.024583 -428693.000000 0 0 1
-16.271239 -27.906070 -1.842120 32.355762 1.042917 1.627760 0.072747 -0.015292 -695756.000000 0 0 1
-16.680539 -28.093370 -3.247520 32.833279 1.034982 1.669868 0.066827 -0.016895 68613.000000 0 0 1
-15.736839 -27.631970 -4.146920 32.068221 1.053093 1.700475 0.056102 -0.007901 -188115.000000 0 0 1
-16.492939 -27.571570 -5.501120 32.595564 1.031711 1.740377 0.087699 -0.024491 376235.000000 0 0 1
-17.315339 -26.436270 -5.538420 32.083819 0.990925 1.744289 0.094385 -0.019614 -546486.000000 0 0 1
-17.979839 -26.176270 -6.702820 32.456117 0.968933 1.778813 0.112857 -0.032250 -36958.700000 0 0 1
-18.605639 -24.793570 -6.774720 31.729919 0.927025 1.785965 0.100750 -0.026329 441238.000000 0 0 1
-17.558239 -23.819470 -6.824120 30.368199 0.935578 1.797445 0.080471 -0.012962 434478.000000 0 0 1
-18.012939 -22.538570 -6.900120 29.665885 0.896540 1.805541 0.054204 -0.016400 -100410.000000 0 0 1
-16.803939 -21.596670 -6.780520 28.191558 0.909565 1.813694 0.074357 -0.006785 272192.000000 0 0 1
-15.914839 -21.659870 -7.872720 28.007352 0.937119 1.855731 0.095226 -0.014981 -503160.000000 0 0 1
-14.652639 -21.108170 -7.603020 26.796652 0.963994 1.858478 0.115748 -0.036059 -63984.700000 0 0 1
-13.746239 -21.067970 -8.805920 26.652630 0.992686 1.907519 0.105384 -0.026698 -124582.000000 0 0 1
-14.374239 -20.241470 -9.759320 26.675460 0.953299 1.945346 0.110609 -0.033492 44569.800000 0 0 1
-13.494139 -20.147770 -10.852720 26.567009 0.980656 1.991610 0.106065 -0.022125 69307.600000 0 0 1
-14.004339 -19.334870 -12.064120 26.748864 0.943944 2.038698 0.108428 -0.020734 -434273.000000 0 0 1
-15.168239 -19.879570 -12.643920 28.020376 0.919023 2.038951 0.089802 -0.005729 -165182.000000 0 0 1
-15.677739 -19.118970 -13.738820 28.285715 0.883973 2.077978 0.097507 -0.022372 188556.000000 0 0 1
-16.932339 -19.784270 -14.362820 29.739066 0.862917 2.074830 0.113568 -0.018045 990023.000000 0 0 1
-18.132439 -19.618470 -13.569120 29.963156 0.824742 2.040767 0.109702 -0.022171 811095.000000 0 0 1
-19.286139 -19.661670 -14.370620 31.065272 0.795040 2.051716 0.086377 -0.015695 51630.700000 0 0 1
-20.661939 -19.451770 -13.711220 31.516418 0.755239 2.020890 0.057335 -0.012253 407111.000000 0 0 1
-21.743539 -19.848270 -14.537720 32.834138 0.739861 2.029473 0.062230 -0.016886 -907917.000000 0 0 1
-22.969939 -19.500370 -14.011520 33.229584 0.703885 2.006069 0.051953 -0.012774 -1766770.000000 0 0 1
-24.053439 -20.276170 -14.674420 34.713536 0.700395 2.007251 0.055558 -0.017026 -1247440.000000 0 0 1
-24.094139 -19.886570 -16.010820 35.104837 0.690020 2.044388 0.050335 -0.028578 141140.000000 0 0 1
-24.575239 -20.894470 -16.863920 36.399355 0.704624 2.052515 0.059873 -0.026838 -279825.000000 0 0 1
-25.135639 -20.468370 -18.273920 37.211432 0.683410 2.084129 0.060794 -0.025323 -214914.000000 0 0 1
-24.139739 -19.954670 -19.132420 36.701027 0.690770 2.119176 0.064702 -0.024562 25949.100000 0 0 1
-24.406539 -19.698070 -20.511320 37.475423 0.679044 2.149964 0.063046 -0.024719 -649656.000000 0 0 1
-23.236239 -18.996570 -21.205620 36.748752 0.685345 2.185900 0.048475 -0.020366 132101.000000 0 0 1
-22.082839 -19.811770 -21.406020 36.583818 0.731242 2.195828 0.054735 -0.021122 30540.100000 0 0 1
-21.016039 -18.986870 -21.768220 35.721570 0.734716 2.226082 0.051882 -0.018658 -228429.000000 0 0 1
-19.644839 -19.653370 -21.995420 35.439712 0.785615 2.240359 0.063207 -0.017113 -114421.000000 0 0 1
-19.577639 -20.691970 -22.938620 36.573513 0.813063 2.248739 0.057083 -0.014761 -285725.000000 0 0 1
-18.252939 -21.093970 -23.175320 36.265973 0.857478 2.264043 0.058430 -0.009855 -199780.000000 0 0 1
-18.138839 -22.566570 -23.712220 37.423748 0.893747 2.257012 0.064779 -0.009603 -193885.000000 0 0 1
-18.263339 -22.608170 -25.102550 38.403345 0.891305 2.283201 0.066960 -0.014819 163819.000000 0 0 1
-18.089739 -23.961770 -25.572050 39.437733 0.924140 2.276298 0.072102 -0.015797 -104254.000000 0 0 1
-18.062239 -24.026270 -27.058810 40.443607 0.926163 2.303727 0.080403 -0.008910 -326111.000000 0 0 1
-16.836339 -23.622270 -27.589470 40.033146 0.951577 2.331133 0.072404 -0.019545 -381161.000000 0 0 1
-16.834839 -23.728770 -28.987580 41.070015 0.953743 2.354361 0.094438 -0.025482 -794367.000000 0 0 1
-15.493939 -23.545870 -29.665400 40.920729 0.988795 2.381755 0.067590 -0.029158 -820906.000000 0 0 1
-14.542739 -24.533370 -29.405230 40.963948 1.035707 2.371480 0.067365 -0.024834 -1395180.000000 0 0 1
-13.348439 -24.230270 -29.987030 40.798392 1.067263 2.396471 0.070047 -0.028346 -940464.000000 0 0 1
-12.335939 -25.374770 -29.807550 41.043201 1.118290 2.383645 0.072888 -0.024361 -883429.000000 0 0 1
-12.841239 -26.478470 -30.544280 42.414147 1.119246 2.374806 0.075047 -0.019118 267976.000000 0 0 1
-12.164539 -27.716970 -30.444460 42.931010 1.157225 2.359086 0.076989 -0.022642 587651.000000 0 0 1
-10.731839 -27.695370 -31.102470 43.006622 1.201116 2.379224 0.067055 -0.030264 157945.000000 0 0 1
-9.796939 -26.894370 -30.473450 41.808113 1.221462 2.387493 0.093573 -0.045589 -477396.000000 0 0 1
-8.616739 -26.749270 -31.245850 42.024693 1.259163 2.409103 0.077711 -0.036614 219133.000000 0 0 1
-7.581939 -25.778170 -30.600040 40.722995 1.284740 2.421007 0.103354 -0.036574 -445122.000000 0 0 1
-7.899239 -24.393470 -30.484640 39.834064 1.257627 2.442289 0.108948 -0.032388 61318.100000 0 0 1
-8.725239 -24.096770 -29.365020 38.975486 1.223390 2.424048 0.103042 -0.028294 -81074.800000 0 0 1
-9.076239 -22.597570 -29.241670 38.053956 1.188871 2.447175 0.108078 -0.040071 10696.900000 0 0 1
-9.664539 -22.069170 -30.470290 38.844435 1.158033 2.472554 0.094870 -0.038746 184460.000000 0 0 1
-9.895839 -20.684570 -30.411480 38.087231 1.124564 2.495544 0.117449 -0.042344 -230887.000000 0 0 1
-11.014439 -20.286770 -31.382290 38.957914 1.073392 2.507388 0.090083 -0.035882 -224138.000000 0 0 1
-11.349739 -18.892870 -31.359850 38.330110 1.029831 2.528986 0.098385 -0.039577 184821.000000 0 0 1
-12.343639 -18.810670 -32.373820 39.424243 0.990072 2.534246 0.105290 -0.028699 -336174.000000 0 0 1
-13.205339 -17.532970 -32.241720 39.004032 0.925268 2.543881 0.097805 -0.034888 -270036.000000 0 0 1
-12.663339 -16.210970 -32.499590 38.462697 0.907650 2.577294 0.107190 -0.036511 340410.000000 0 0 1
-11.666039 -15.774170 -31.562090 37.162971 0.934007 2.585433 0.087799 -0.030732 368797.000000 0 0 1
-11.617539 -14.210470 -31.533800 36.486781 0.885455 2.614459 0.082003 -0.027228 -57001.500000 0 0 1
-11.026239 -13.437070 -32.558630 36.907956 0.883630 2.651220 0.087269 -0.028828 -51730.200000 0 0 1
-11.503939 -13.646870 -33.860880 38.277106 0.870396 2.656485 0.094566 -0.033985 -306616.000000 0 0 1
-12.221739 -12.481270 33.494944 37.776504 0.795904 0.480723 0.086973 -0.027130 -742836.000000 0 0 1
-13.376539 -12.098270 -33.907050 38.405572 0.735262 2.652731 0.081000 -0.022490 -1241460.000000 0 0 1
-14.271239 -11.511370 33.235487 37.957575 0.678760 0.504129 0.057385 -0.024294 56267.500000 0 0 1
-15.399139 -10.730970 33.922307 38.768674 0.608612 0.505376 0.059869 -0.017039 298356.000000 0 0 1
-14.891439 -9.515570 -33.560110 37.928644 0.568601 2.656909 0.077618 -0.020536 -154569.000000 0 0 1
-15.827939 -9.008670 -32.671320 37.404478 0.517436 2.633061 0.054346 -0.019290 -58308.100000 0 0 1
-15.185539 -7.952970 -31.753000 36.084669 0.482443 2.646571 0.059580 -0.031182 304822.000000 0 0 1
-14.779639 -6.694370 -32.390700 36.227197 0.425301 2.677212 0.051253 -0.039038 1109380.000000 0 0 1
-15.789539 -5.640170 -32.261840 36.358594 0.343083 2.662305 0.059723 -0.029202 813806.000000 0 0 1
-16.116339 -4.995970 -30.881710 35.190569 0.300600 2.641538 0.068484 -0.040651 292894.000000 0 0 1
-16.863039 -5.746370 -29.878490 34.786593 0.328426 2.603930 0.079115 -0.042722 288215.000000 0 0 1
-16.923839 -5.197870 -28.566550 33.607766 0.297988 2.586779 0.084466 -0.049990 413270.000000 0 0 1
-15.589339 -4.806270 -27.835510 32.263654 0.299058 2.611482 0.076885 -0.049779 609677.000000 0 0 1
-15.113539 -3.532070 -28.284440 32.263046 0.229582 2.639718 0.078595 -0.042347 -940998.000000 0 0 1
-13.904739 -3.200070 -27.714430 31.171651 0.226204 2.666151 0.075583 -0.040464 -852626.000000 0 0 1
-13.376539 -1.900770 -28.307340 31.366387 0.141152 2.696275 0.056627 -0.027714 -126527.000000 0 0 1
-13.043339 -1.958770 -29.678050 32.476948 0.149060 2.723387 0.049947 -0.030586 32589.200000 0 0 1
-13.242839 -0.714770 -30.354750 33.125436 0.053922 2.729682 0.041693 -0.031572 -93047.900000 0 0 1
-13.363439 -0.880770 -31.870400 34.569924 0.065814 2.743782 0.029998 -0.033216 -9784.030000 0 0 1
-14.607839 -1.411770 -32.327270 35.502598 0.096345 2.715435 0.038143 -0.036546 456917.000000 0 0 1
-14.654739 -1.498770 -33.723070 36.800179 0.101918 2.729746 0.015661 -0.027151 646984.000000 0 0 1
-15.980639 -2.040770 33.639806 37.298553 0.127015 0.446633 0.030343 -0.026507 749751.000000 0 0 1
-15.935939 -2.034770 32.233709 36.015364 0.126997 0.462368 0.030059 -0.027297 -19156.300000 0 0 1
-17.220239 -1.955770 31.660407 36.093532 0.113089 0.500846 0.043759 -0.026526 17251.200000 0 0 1
-17.312539 -1.850770 30.135047 34.803310 0.106499 0.523915 0.046362 -0.022342 -212742.000000 0 0 1
-16.574739 -0.773770 29.671077 33.995492 0.046650 0.509898 0.033903 -0.013592 -109131.000000 0 0 1
-16.787639 -0.590770 28.269037 32.883313 0.035176 0.536159 0.029454 -0.020550 -87818.400000 0 0 1
-16.518639 0.844230 27.758947 32.313113 -0.051063 0.537363 0.029590 -0.020160 175066.000000 0 0 1
-17.343939 1.862230 28.383617 33.315309 -0.106961 0.551062 0.028124 -0.013693 1168380.000000 0 0 1
-18.648239 2.042230 27.787957 33.527572 -0.109079 0.593820 0.034184 -0.021260 608690.000000 0 0 1
-18.677239 2.708230 26.399057 32.451255 -0.143998 0.620653 0.039288 -0.028453 -869068.000000 0 0 1
-18.276339 4.086230 26.384227 32.355050 -0.219963 0.617274 0.027802 -0.020054 143944.000000 0 0 1
-18.537539 4.676230 25.175377 31.611819 -0.247102 0.649492 0.024782 -0.012803 -489883.000000 0 0 1
-18.411639 6.196230 25.173467 31.797565 -0.324633 0.657244 0.026664 -0.014156 206173.000000 0 0 1
-17.100539 6.728230 25.126767 31.129599 -0.374848 0.631460 0.030914 -0.007511 -99366.400000 0 0 1
-16.525139 6.739230 23.849657 29.787641 -0.387227 0.642407 0.024689 -0.009479 562389.000000 0 0 1
-15.289139 7.705230 23.707437 29.243305 -0.466817 0.625456 0.021040 -0.004869 1001620.000000 0 0 1
-14.076039 7.410230 24.403417 29.130279 -0.484577 0.577677 0.016278 -0.003292 711470.000000 0 0 1
-13.033239 8.020230 23.623457 28.147062 -0.551642 0.574826 0.016422 -0.006752 153459.000000 0 0 1
-11.670139 7.972230 24.341327 28.146914 -0.599314 0.526053 0.020357 0.002815 -107688.000000 0 0 1
-10.651639 8.703230 23.700407 27.402790 -0.685069 0.525865 0.016397 -0.001868 317084.000000 0 0 1
-9.419739 8.797230 24.387217 27.583674 -0.751240 0.486194 0.021604 0.002000 -106401.000000 0 0 1
-9.246139 10.119230 25.123217 28.619328 -0.830453 0.499461 0.020274 -0.008197 -1078180.000000 0 0 1
-10.121339 10.296230 26.187237 29.903599 -0.793964 0.503867 0.020129 -0.008245 -16360.300000 0 0 1
-10.064739 11.630230 26.703277 30.816006 -0.857432 0.522570 0.022611 -0.016891 -386691.000000 0 0 1
-10.768539 12.717230 25.832947 30.741349 -0.868182 0.572900 0.013952 -0.025055 521696.000000 0 0 1
-12.180839 12.471230 25.797727 31.135625 -0.797177 0.594266 0.018450 -0.021803 732009.000000 0 0 1
-12.661039 11.820230 24.643217 30.121552 -0.751067 0.612652 0.012938 -0.015059 38872.600000 0 0 1
-14.178439 11.454230 24.612487 30.626819 -0.679517 0.637434 0.020464 -0.013652 87980.700000 0 0 1
-14.961439 12.632230 24.445017 31.320548 -0.701187 0.675365 0.023522 -0.015233 663531.000000 0 0 1
-16.233839 12.278230 23.851657 31.355924 -0.647544 0.706445 0.039344 -0.004897 674819.000000 0 0 1
-16.285039 11.887230 22.351077 30.101152 -0.630544 0.733953 0.033533 -0.001373 -635742.000000 0 0 1
-16.260539 10.502230 22.125677 29.398087 -0.573468 0.718760 0.033183 -0.006233 223888.000000 0 0 1
-16.224739 10.199230 20.727677 28.229471 -0.561200 0.746225 0.020036 -0.008624 -157313.000000 0 0 1
-16.441939 8.705230 20.423377 27.626667 -0.486931 0.738821 0.009371 -0.009989 408249.000000 0 0 1
-17.802239 8.443230 20.732477 28.601459 -0.442860 0.759944 0.019345 -0.000819 96311.400000 0 0 1
-18.200039 7.133230 20.568277 28.375666 -0.373534 0.759971 0.012590 0.000571 16847.700000 0 0 1
-19.668839 6.967230 21.042777 29.634507 -0.340435 0.781189 0.022075 -0.007444 161067.000000 0 0 1
-19.986639 7.167230 22.416877 30.876387 -0.344317 0.758280 0.021899 -0.014430 921025.000000 0 0 1
-21.416939 7.207230 22.588577 31.951107 -0.324616 0.785587 0.024290 -0.016826 905382.000000 0 0 1
-21.897939 8.047230 23.818157 33.340399 -0.352169 0.775040 0.039008 -0.022652 -651715.000000 0 0 1
-21.830339 9.483230 23.672327 33.568950 -0.409811 0.788112 0.044109 -0.019690 -193583.000000 0 0 1
-20.590839 10.124230 23.550497 32.880216 -0.456974 0.772381 0.039843 -0.013552 110090.000000 0 0 1
-19.521939 9.990230 24.708107 33.036364 -0.472998 0.725894 0.035362 -0.020778 -72725.000000 0 0 1
-19.873639 10.451230 25.986467 34.343648 -0.484140 0.712607 0.047994 -0.019087 202440.000000 0 0 1
-19.313139 9.629230 27.039017 34.595200 -0.462515 0.673597 0.037940 -0.014335 210336.000000 0 0 1
-31.283879 -13.825819 21.026177 40.148904 0.416137 1.019602 0.066831 -0.004151 -15396.700000 0 0 1
-30.907919 -15.161919 21.075577 40.365371 0.456060 1.021461 0.074692 -0.004568 374273.000000 0 0 1
-31.894039 -16.013219 20.474077 41.144146 0.465307 1.049946 0.061712 0.000424 468857.000000 0 0 1
-31.750589 -16.090419 18.949177 40.324593 0.469053 1.081601 0.058765 0.002472 168791.000000 0 0 1
-32.132169 -14.910519 18.254777 39.850179 0.434466 1.094956 0.059430 -0.001131 -71428.300000 0 0 1
-31.672509 -14.939919 16.923977 38.894344 0.440752 1.120617 0.055164 -0.006171 -770368.000000 0 0 1
-32.393079 -13.791619 16.107277 38.716465 0.402513 1.141719 0.041692 -0.003760 -781212.000000 0 0 1
-33.664819 -14.107319 15.696777 39.733176 0.396822 1.164669 0.052316 -0.005000 252763.000000 0 0 1
-34.752143 -14.118019 16.678277 41.051125 0.385882 1.152416 0.058106 -0.003185 328383.000000 0 0 1
-35.273897 -12.769919 17.151977 41.249351 0.347344 1.141961 0.045127 -0.000728 -363487.000000 0 0 1
-36.380079 -12.933819 18.023477 42.610322 0.341583 1.134061 0.016960 0.003788 -124788.000000 0 0 1
36.820679 -11.701319 18.350077 42.771586 -0.307699 1.127383 0.018235 0.009021 138084.000000 0 0 1
35.873479 -11.856919 19.582077 42.555267 -0.319217 1.092625 0.029678 0.011472 309609.000000 0 0 1
36.588779 -12.363419 20.718777 43.827623 -0.325857 1.078406 0.027295 0.010008 220726.000000 0 0 1
35.968339 -11.909719 21.900177 43.762776 -0.319754 1.046702 0.026704 0.001997 -1140510.000000 0 0 1
36.737479 -12.360719 23.164567 45.155585 -0.324563 1.032127 0.021492 -0.002067 852949.000000 0 0 1
-35.749072 -11.727319 23.376337 44.294235 0.316984 1.014845 0.027343 -0.007032 162498.000000 0 0 1
-34.763286 -12.285819 22.568677 43.229302 0.339713 1.021521 0.030070 -0.010855 -1780620.000000 0 0 1
-33.481239 -11.470019 22.762677 42.079617 0.330050 0.999238 0.056921 -0.016878 -644457.000000 0 0 1
-33.516069 -10.193119 22.174677 41.460136 0.295238 1.006474 0.065005 -0.014504 486791.000000 0 0 1
-32.243139 -9.546419 21.998977 40.183443 0.287853 0.991466 0.092597 -0.022892 152932.000000 0 0 1
-32.447249 -8.165819 21.298477 39.662699 0.246545 1.003931 0.098810 -0.018584 98055.900000 0 0 1
-32.726299 -8.160119 19.900577 39.161603 0.244362 1.037743 0.087314 -0.015595 362325.000000 0 0 1
-34.059709 -8.510719 19.567577 40.191867 0.244862 1.062312 0.074334 -0.019314 -155879.000000 0 0 1
-34.315534 -8.534719 18.055577 39.703919 0.243767 1.098699 0.068893 -0.012148 -126870.000000 0 0 1
-35.681693 -8.747319 17.773877 40.811879 0.240408 1.120194 0.021190 -0.006907 -11690.700000 0 0 1
-35.958198 -8.706019 16.403577 40.470534 0.237544 1.153466 0.039989 -0.003693 -55616.000000 0 0 1
36.297029 -8.598119 16.122177 40.636517 -0.232595 1.162832 0.038545 -0.005655 24295.000000 0 0 1
35.591109 -9.805019 16.337777 40.370637 -0.268822 1.154152 0.029435 0.006993 -1431510.000000 0 0 1
34.315899 -9.659619 15.865277 39.020458 -0.274391 1.152079 0.032603 0.009340 -1054900.000000 0 0 1
33.430029 -10.908819 15.966577 38.619952 -0.315424 1.144580 0.025716 0.007923 64980.000000 0 0 1
33.252239 -11.363519 17.268877 39.154247 -0.329295 1.114031 0.012000 0.000821 449934.000000 0 0 1
32.150089 -12.282419 17.415377 38.571769 -0.364923 1.102344 0.031088 -0.002997 579486.000000 0 0 1
31.905519 -12.722819 18.862777 39.187199 -0.379442 1.068602 0.028791 -0.007824 542596.000000 0 0 1
32.803339 -13.772419 19.311577 40.480558 -0.397499 1.073492 0.022190 -0.001777 265687.000000 0 0 1
32.776939 -13.722819 20.715277 41.131085 -0.396499 1.042989 0.027238 -0.002435 -49712.400000 0 0 1
33.572479 -14.909519 21.330477 42.478163 -0.417936 1.044711 0.017191 0.003439 177955.000000 0 0 1
33.648689 -14.988819 22.744377 43.292096 -0.419064 1.017646 0.023186 -0.002287 -176871.000000 0 0 1
34.330629 -16.194619 23.044117 44.405958 -0.440773 1.025184 0.016127 0.004331 4735.870000 0 0 1
34.905259 -16.171519 24.459177 45.586691 -0.433857 1.004462 0.027045 0.002170 -47673.600000 0 0 1
35.950529 -15.235619 24.613787 46.156290 -0.400849 1.008334 0.037843 -0.000910 -126996.000000 0 0 1
36.168229 -15.024719 26.007687 47.013644 -0.393722 0.984602 0.039339 -0.003173 166661.000000 0 0 1
-36.350179 -14.163319 26.428467 47.121110 0.371540 0.975369 0.041008 -0.008728 643115.000000 0 0 1
-35.123505 -14.811219 26.087787 46.190967 0.399063 0.970628 0.029226 -0.006420 -182957.000000 0 0 1
-34.075639 -13.981519 26.487427 45.367564 0.389361 0.947345 0.039355 -0.015438 -232245.000000 0 0 1
-32.684479 -14.514019 26.077087 44.259986 0.417907 0.940753 0.039678 -0.011982 -466414.000000 0 0 1
-32.585649 -14.750519 24.680647 43.457297 0.425071 0.966809 0.042257 -0.008229 942949.000000 0 0 1
-31.241949 -15.174519 24.339147 42.411313 0.452150 0.959556 0.056195 -0.012468 1054460.000000 0 0 1
-30.792259 -16.548719 24.732997 42.822242 0.493142 0.955043 0.062665 -0.006357 -775560.000000 0 0 1
-30.546019 -16.661619 26.125477 43.511026 0.499351 0.926753 0.055065 -0.009111 -43985.800000 0 0 1
-30.539189 -18.030519 26.501327 44.272588 0.533335 0.929051 0.071066 -0.014943 -213935.000000 0 0 1
-30.051459 -18.111119 27.966497 44.869007 0.542381 0.897851 0.066861 -0.029836 407689.000000 0 0 1
-28.725329 -17.623319 28.148397 43.909659 0.550295 0.874928 0.071819 -0.022372 297284.000000 0 0 1
-28.241409 -17.895019 29.452307 44.556114 0.564792 0.848624 0.078372 -0.028723 424666.000000 0 0 1
-27.020459 -17.031219 29.878367 43.736534 0.562407 0.818737 0.051303 -0.015480 120530.000000 0 0 1
-27.332519 -15.697819 30.152557 43.619546 0.521329 0.807562 0.071163 -0.021154 52691.600000 0 0 1
-26.170929 -14.898719 29.993177 42.502706 0.517529 0.787418 0.048902 -0.019779 -101177.000000 0 0 1
-26.073489 -13.635819 30.893017 42.663109 0.481859 0.761045 0.050529 -0.015195 -146901.000000 0 0 1
-25.483929 -13.674419 32.167932 43.257326 0.492489 0.732296 0.052738 -0.013393 163269.000000 0 0 1
-25.049639 -12.384519 32.560782 42.907636 0.459157 0.709239 0.047283 -0.012538 -150603.000000 0 0 1
-24.330639 -12.313319 33.902068 43.508022 0.468502 0.677385 0.065259 -0.010828 286709.000000 0 0 1
-22.995839 -12.796019 34.011072 43.003485 0.507781 0.658533 0.027154 -0.008632 158016.000000 0 0 1
-22.744739 -14.216419 -33.881800 43.213495 0.558630 2.471970 0.030288 -0.010720 -213853.000000 0 0 1
-22.696039 -14.859919 -32.456450 42.300692 0.579698 2.445384 0.039803 -0.014088 236489.000000 0 0 1
-21.536339 -14.552619 -31.681180 40.979139 0.594247 2.454518 0.015177 -0.011102 355534.000000 0 0 1
-21.538339 -15.416219 -30.561800 40.442348 0.621223 2.427500 0.035904 -0.016368 876311.000000 0 0 1
-20.178639 -15.462419 -29.745930 39.129072 0.653837 2.434418 0.040632 -0.011336 887862.000000 0 0 1
-19.908739 -14.420419 -28.817670 37.878285 0.626866 2.435336 0.022455 -0.015923 27332.600000 0 0 1
-20.653939 -14.491419 -27.622620 37.411169 0.611819 2.401420 0.034675 -0.014646 -217400.000000 0 0 1
-20.507739 -13.227019 -26.785020 36.234772 0.572836 2.402689 0.037797 -0.011299 -218439.000000 0 0 1
-19.178839 -13.063819 -26.361070 35.119756 0.597968 2.419774 0.039842 -0.015006 -131646.000000 0 0 1
-18.973539 -11.815019 -25.713950 34.070473 0.556951 2.426036 0.045607 -0.018968 -172647.000000 0 0 1
-17.591539 -11.847219 -25.067060 32.835596 0.592692 2.439374 0.065411 -0.025043 -850365.000000 0 0 1
-17.625539 -12.485519 -23.775720 32.122153 0.616326 2.404113 0.072778 -0.022339 578884.000000 0 0 1
-16.336039 -12.704819 -23.211420 31.097406 0.661005 2.413448 0.075496 -0.031958 253630.000000 0 0 1
-15.300539 -13.601519 -23.882120 31.455739 0.726680 2.432925 0.064887 -0.026585 -641886.000000 0 0 1
-14.482039 -12.910019 -24.818420 31.501620 0.728071 2.478100 0.067767 -0.032574 306605.000000 0 0 1
-13.792139 -13.815419 -25.674080 32.252865 0.786241 2.491495 0.075105 -0.033326 -2151.250000 0 0 1
-12.784039 -13.179819 -26.702850 32.406504 0.800640 2.539225 0.082264 -0.029393 445660.000000 0 0 1
-13.336539 -12.139819 -27.581670 32.954317 0.738459 2.562513 0.074255 -0.025471 366255.000000 0 0 1
-12.381539 -11.602819 -28.501060 33.169841 0.752942 2.604591 0.068288 -0.025389 91247.300000 0 0 1
-13.015539 -10.434819 -29.251150 33.673721 0.675789 2.623295 0.062743 -0.023341 272338.000000 0 0 1
-12.177339 -9.617119 -30.103300 33.867171 0.668463 2.665656 0.059835 -0.015718 122952.000000 0 0 1
-11.785839 -10.222619 -31.297390 34.970482 0.714489 2.679151 0.070820 -0.018939 66159.400000 0 0 1
-10.995839 -9.241519 -32.190230 35.249469 0.698927 2.721894 0.068752 -0.018587 37167.800000 0 0 1
-9.711339 -8.887919 -31.740570 34.362320 0.741155 2.748432 0.079196 -0.026320 -304531.000000 0 0 1
-9.418639 -7.570019 -32.186800 34.380315 0.677010 2.782450 0.070954 -0.029111 185403.000000 0 0 1
-7.904739 -7.262819 -31.995870 33.748617 0.743102 2.817891 0.092183 -0.029329 242722.000000 0 0 1
-7.396839 -7.169819 -30.682930 32.366058 0.769815 2.817679 0.081437 -0.030305 501.833000 0 0 1
-7.805139 -6.068219 -29.879330 31.472494 0.660848 2.822050 0.083556 -0.029426 -603073.000000 0 0 1
-7.093739 -4.771119 -30.269200 31.453286 0.592086 2.866331 0.074707 -0.035445 158429.000000 0 0 1
-5.681539 -4.795619 -30.070450 30.975956 0.701042 2.899204 0.090637 -0.042844 485328.000000 0 0 1
-5.172339 -3.570719 -30.655980 31.293646 0.604219 2.939373 0.091210 -0.047319 498252.000000 0 0 1
-3.673439 -3.330419 -30.289850 30.693010 0.736461 2.979333 0.069506 -0.035518 146719.000000 0 0 1
-2.723839 -4.235319 -30.933560 31.340746 0.999269 2.980221 0.064236 -0.036331 825140.000000 0 0 1
-1.383739 -3.973419 -30.555760 30.844080 1.235682 3.004755 0.067990 -0.030830 282981.000000 0 0 1
-0.801639 -2.583519 -31.022190 31.139902 1.269927 3.054616 0.052718 -0.022247 413694.000000 0 0 1
0.613661 -2.522719 -30.641310 30.751107 -1.332177 3.057063 0.048792 -0.022080 1959930.000000 0 0 1
1.308661 -1.308919 -31.033830 31.088977 -0.785497 3.082022 0.025178 -0.008767 261580.000000 0 0 1
1.395661 -0.227319 -29.952740 29.986100 -0.161458 3.094418 0.035989 -0.019002 -637945.000000 0 0 1
0.218561 0.296981 -29.442750 29.445059 0.936352 3.129069 0.058268 -0.021836 -718644.000000 0 0 1
0.544261 1.528281 -28.787140 28.832816 1.228674 3.085297 0.087419 -0.036082 107579.000000 0 0 1
-0.678639 2.151481 -28.082400 28.172870 -1.265245 3.061431 0.080667 -0.035321 230894.000000 0 0 1
-1.437839 2.909381 -29.086920 29.267402 -1.111793 3.030480 0.064115 -0.044922 207576.000000 0 0 1
-2.105339 3.939081 -28.356410 28.706006 -1.079951 2.985366 0.101386 -0.041584 210443.000000 0 0 1
-3.500039 4.332381 -28.916290 29.447778 -0.891270 2.951314 0.121736 -0.042828 201886.000000 0 0 1
-3.367439 4.907881 -30.195160 30.776202 -0.969441 2.946968 0.117637 -0.045187 -718753.000000 0 0 1
-4.561539 5.384381 -30.717560 31.517736 -0.867942 2.915777 0.139731 -0.038569 -1068660.000000 0 0 1
-4.558339 5.809681 -32.268590 33.102761 -0.905510 2.916622 0.135779 -0.033815 -93216.000000 0 0 1
-4.292539 4.894981 -33.317040 33.947193 -0.850876 2.948614 0.138055 -0.033874 495522.000000 0 0 1
-3.099039 4.116281 -33.178000 33.575698 -0.925459 2.987526 0.121156 -0.034953 242651.000000 0 0 1
-2.627639 3.575381 33.498821 33.791402 -0.937013 0.131689 0.098798 -0.027613 -29537.400000 0 0 1
-3.552239 2.658681 32.926410 33.224019 -0.642510 0.133948 0.093953 -0.035612 118285.000000 0 0 1
-3.157739 2.100081 31.654547 31.880903 -0.586888 0.119235 0.086783 -0.027774 -8083.300000 0 0 1
-3.001039 3.101281 30.469467 30.773569 -0.801823 0.140700 0.091444 -0.028933 854909.000000 0 0 1
-4.260639 3.740181 30.182827 30.710666 -0.720439 0.185672 0.083148 -0.023394 778010.000000 0 0 1
-4.085139 4.594881 29.065597 29.708756 -0.844057 0.208458 0.079611 -0.022385 -413887.000000 0 0 1
-5.325539 5.398581 28.741037 29.724623 -0.792209 0.257969 0.090501 -0.017689 -580029.000000 0 0 1
-5.290339 6.064381 27.470227 28.624775 -0.853462 0.284984 0.079662 -0.006486 -599562.000000 0 0 1
-6.393239 6.883981 27.257727 28.831343 -0.822343 0.331915 0.070803 -0.001531 -643855.000000 0 0 1
-6.351039 7.593281 25.934327 27.759375 -0.874249 0.364633 0.059559 0.001340 -309586.000000 0 0 1
-5.409939 8.629081 25.928457 27.857016 -1.010801 0.374285 0.061536 -0.001482 -205466.000000 0 0 1
-5.415139 9.360181 24.760907 27.019238 -1.046314 0.411760 0.051548 -0.006320 -545931.000000 0 0 1
-4.546539 10.566081 24.830497 27.365428 -1.164449 0.433818 0.055031 -0.006401 -980510.000000 0 0 1
-4.659039 11.289681 23.589727 26.563862 -1.179406 0.477736 0.059786 -0.013017 454662.000000 0 0 1
-4.025239 12.571981 23.718397 27.144421 -1.260934 0.507864 0.049714 -0.005395 -1162090.000000 0 0 1
-2.531839 12.808081 23.814317 27.158402 -1.375637 0.501490 0.060498 -0.006491 -936307.000000 0 0 1
-1.881239 12.398381 25.027477 27.993454 -1.420212 0.464496 0.059180 -0.005745 249911.000000 0 0 1
-2.291939 13.083081 26.192067 29.367403 -1.397373 0.469321 0.065910 -0.005898 -800562.000000 0 0 1
-1.469839 12.595281 27.387977 30.181166 -1.454624 0.433616 0.071107 -0.004989 68364.000000 0 0 1
-0.110539 12.954981 27.326807 30.242323 -1.562264 0.442708 0.064917 -0.007298 -233501.000000 0 0 1
0.632161 12.332481 28.383677 30.953559 1.519581 0.410363 0.069217 -0.017554 927971.000000 0 0 1
2.171461 12.605481 28.336587 31.089798 1.400207 0.424018 0.065300 -0.015980 695728.000000 0 0 1
2.536561 13.935481 28.520857 31.844482 1.390746 0.460952 0.061842 -0.017007 64531.800000 0 0 1
3.915261 14.165681 28.265747 31.858252 1.301138 0.479480 0.076156 -0.024256 94640.300000 0 0 1
4.338661 15.629181 28.454817 32.753196 1.300015 0.518094 0.069068 -0.022503 -297742.000000 0 0 1
4.206961 15.972281 29.778287 34.052293 1.313254 0.506419 0.076051 -0.022108 195057.000000 0 0 1
3.207661 16.926381 30.091317 34.673892 1.383511 0.519962 0.067646 -0.019837 -16600.300000 0 0 1
3.474061 18.386581 29.618467 35.034112 1.384052 0.563449 0.066543 -0.011725 -454156.000000 0 0 1
4.598161 18.991681 30.184027 35.956953 1.333253 0.574528 0.091585 -0.008500 -201953.000000 0 0 1
5.006761 20.167181 29.509467 36.091432 1.327453 0.613512 0.074545 -0.007046 -245844.000000 0 0 1
6.228861 20.813681 30.160987 37.171133 1.280012 0.624238 0.084794 -0.006415 -416751.000000 0 0 1
5.923861 21.594081 31.340697 38.517992 1.303055 0.620369 0.075461 -0.018492 89638.500000 0 0 1
7.003361 22.366181 31.819757 39.519489 1.267344 0.634841 0.054384 -0.018672 -339220.000000 0 0 1
7.286661 23.739381 31.097587 39.795898 1.272981 0.673847 0.042710 -0.005282 -1939.160000 0 0 1
7.846761 23.618781 29.788197 38.816944 1.250043 0.696017 0.024241 0.001374 240490.000000 0 0 1
7.916161 24.896681 29.146887 39.141427 1.262945 0.730777 0.017122 -0.000089 -46924.000000 0 0 1
8.459061 24.892781 27.718767 38.203878 1.243219 0.758965 0.033109 -0.003679 -130670.000000 0 0 1
7.482461 24.439781 26.824077 37.051602 1.273699 0.761263 0.034736 -0.002518 251451.000000 0 0 1
7.920261 24.639181 25.506817 36.337549 1.259779 0.792677 0.051239 -0.009272 -102003.000000 0 0 1
28.995319 2.239681 6.577980 29.816346 0.077090 1.348350 0.153010 -0.031616 -84850.600000 0 0 1
29.246259 3.243081 7.495180 30.365094 0.110438 1.321383 0.145262 -0.034025 267440.000000 0 0 1
28.458239 3.093081 8.680580 29.913057 0.108263 1.276367 0.137266 -0.026147 242355.000000 0 0 1
28.871709 4.103181 9.804480 30.765882 0.141172 1.246459 0.120960 -0.022485 151308.000000 0 0 1
28.459539 5.433681 9.518880 30.497201 0.188656 1.253369 0.122986 -0.015703 78399.100000 0 0 1
29.524199 6.221181 9.033480 31.495796 0.207677 1.279895 0.121952 -0.030485 -124674.000000 0 0 1
29.151049 7.682881 8.789980 31.401816 0.257694 1.287086 0.141397 -0.033402 -26328.000000 0 0 1
28.225439 7.797081 7.721680 30.283563 0.269521 1.312970 0.131443 -0.040221 35505.500000 0 0 1
28.288239 9.085581 7.094180 30.546679 0.310772 1.336416 0.139808 -0.058926 -712313.000000 0 0 1
27.325439 9.283181 5.946780 29.465594 0.327493 1.367579 0.128319 -0.053824 -698682.000000 0 0 1
26.025039 9.577181 6.379580 28.455651 0.352618 1.344681 0.112156 -0.047669 -148002.000000 0 0 1
25.159739 9.748781 5.243880 27.487260 0.369663 1.378845 0.129531 -0.046731 -565678.000000 0 0 1
23.800739 10.259981 5.654380 26.527615 0.407008 1.355998 0.075931 -0.041947 -959579.000000 0 0 1
23.701639 11.614781 6.098780 27.089960 0.455649 1.343719 0.065586 -0.036465 153784.000000 0 0 1
22.386239 11.967181 6.471080 26.196030 0.490926 1.321187 0.074692 -0.025422 -97492.000000 0 0 1
22.336039 13.442081 6.784180 26.937209 0.541750 1.316203 0.071384 -0.008932 -157391.000000 0 0 1
22.370239 14.224981 5.583780 27.091627 0.566391 1.363201 0.068524 -0.009732 334748.000000 0 0 1
22.204839 15.578381 5.891280 27.756945 0.611783 1.356924 0.086609 -0.021346 -253656.000000 0 0 1
21.765139 16.526381 4.792480 27.745457 0.649430 1.397195 0.075643 -0.026994 -3579.130000 0 0 1
20.406239 16.392281 4.397680 26.541685 0.676748 1.404339 0.094288 -0.025645 499340.000000 0 0 1
20.173339 17.313081 3.389780 26.799197 0.709245 1.443968 0.101236 -0.026754 524498.000000 0 0 1
18.637439 17.460581 3.125080 25.729207 0.752808 1.449035 0.096203 -0.023899 400877.000000 0 0 1
17.980239 18.488081 3.860980 26.076911 0.799323 1.422189 0.100553 -0.029576 440826.000000 0 0 1
16.612639 18.370081 3.480480 25.011065 0.835593 1.431186 0.074720 -0.033246 245721.000000 0 0 1
15.698839 19.344181 4.329980 25.286352 0.889050 1.398710 0.084280 -0.035481 997899.000000 0 0 1
14.318639 18.974481 4.249380 24.147703 0.924341 1.393901 0.077035 -0.037564 857876.000000 0 1 0
13.402339 20.069681 4.205680 24.496990 0.982016 1.398260 0.054120 -0.038836 836648.000000 0 1 0
11.944139 19.605981 3.869380 23.281517 1.023633 1.403822 0.048042 -0.036980 864490.000000 0 1 0
11.265339 19.047681 5.018080 22.691477 1.036703 1.347809 0.036521 -0.038925 32714.500000 0 1 0
9.863439 19.134281 4.841280 22.064589 1.094837 1.349583 0.037398 -0.025231 152627.000000 0 1 0
9.061439 18.734981 6.070580 21.678586 1.120303 1.286975 0.020939 -0.016797 -844118.000000 0 1 0
9.186539 19.713381 7.078080 22.871578 1.134712 1.256160 0.034879 -0.014220 -286879.000000 0 1 0
8.706839 19.058881 8.251080 22.519553 1.142270 1.195663 0.039591 -0.013147 809874.000000 0 1 0
7.451739 19.817481 8.868580 22.954578 1.211133 1.174122 0.036705 -0.014984 845266.000000 0 1 0
6.365639 19.990881 8.010380 22.457134 1.262521 1.206067 0.036513 -0.022989 -383678.000000 0 1 0
6.443639 21.284981 7.305980 23.408294 1.276835 1.253382 0.046266 -0.014103 29551.600000 0 1 0
5.223939 21.615981 6.356080 23.128768 1.333673 1.292401 0.035561 -0.008075 1583120.000000 0 1 0
3.898539 21.631881 6.935380 23.048565 1.392488 1.265157 0.027699 -0.015788 1021020.000000 0 1 0
3.519339 22.645081 7.857580 24.226576 1.416617 1.240485 0.035339 -0.024634 -494218.000000 0 1 0
3.346039 24.082181 7.288780 25.382547 1.432738 1.279539 0.056477 -0.024181 -290338.000000 0 0 1
2.247539 24.167681 6.424280 25.107760 1.478065 1.312051 0.019341 -0.023304 -83632.600000 0 0 1
2.478839 25.082181 5.420180 25.780589 1.472288 1.358973 0.041437 -0.026388 -276618.000000 0 0 1
1.217539 25.318781 4.567380 25.756242 1.522745 1.392523 0.046375 -0.027400 -809314.000000 0 0 1
0.213539 25.910781 5.295780 26.447295 1.562555 1.369194 0.056617 -0.027685 -1226780.000000 0 0 1
-0.809861 26.276781 4.447880 26.662871 -1.539986 1.403194 0.067934 -0.024858 -383273.000000 0 0 1
-2.174661 26.722481 5.008480 27.274622 -1.489596 1.386117 0.076998 -0.023665 635687.000000 0 0 1
-3.142161 27.140381 4.024280 27.616449 -1.455535 1.424555 0.102721 -0.027405 423792.000000 0 0 1
-4.188961 27.822181 4.702680 28.526064 -1.421357 1.405185 0.094483 -0.026960 96483.000000 0 0 1
-5.199661 28.388981 3.641380 29.090039 -1.389646 1.445291 0.100511 -0.032195 -26497.000000 0 0 1
-4.724161 29.467781 2.873280 29.982054 -1.411833 1.474816 0.104994 -0.034640 -310234.000000 0 0 1
-5.517561 29.677181 1.747180 30.236256 -1.386976 1.512980 0.117133 -0.038340 -543162.000000 0 0 1
-4.795361 30.528781 0.639780 30.909728 -1.414993 1.550097 0.114650 -0.041323 129113.000000 0 0 1
-4.277661 31.793481 0.998280 32.095488 -1.437054 1.539688 0.115001 -0.037409 28716.900000 0 0 1
-3.114561 31.641181 1.791380 31.844526 -1.472679 1.514513 0.107353 -0.033718 -925152.000000 0 0 1
-2.366861 32.977881 1.979180 33.121893 -1.499148 1.511006 0.104083 -0.034962 -8049.550000 0 0 1
-1.657661 33.472581 0.838380 33.524087 -1.521314 1.545785 0.087894 -0.031161 93492.200000 0 0 1
-0.889961 -33.478570 0.884480 33.502074 1.544220 1.544393 0.083377 -0.031967 130193.000000 0 0 1
0.537539 -33.691170 1.427780 33.725694 -1.554843 1.528449 0.071160 -0.022731 -637542.000000 0 0 1
0.618639 -33.582970 2.843680 33.708828 -1.552377 1.486336 0.061962 -0.022122 207536.000000 0 0 1
1.856339 -33.950070 3.435580 34.173915 -1.516172 1.470094 0.044933 -0.015869 240746.000000 0 0 1
1.713439 -33.843270 4.944580 34.245462 -1.520211 1.425903 0.042509 -0.016844 1195500.000000 0 0 1
0.651339 33.433481 5.517880 33.892018 1.551317 1.407261 0.076903 -0.029564 736136.000000 0 0 1
0.335139 33.687681 6.860580 34.380804 1.560848 1.369901 0.077966 -0.024681 368610.000000 0 0 1
1.408339 33.385581 7.990280 34.357313 1.528637 1.336083 0.051035 -0.020119 323413.000000 0 0 1
1.676739 32.008781 8.157480 33.074431 1.518460 1.321585 0.060502 -0.025185 95794.800000 0 0 1
2.520739 31.794281 9.278180 33.216186 1.491679 1.287703 0.064518 -0.023963 35074.100000 0 0 1
3.044039 30.348481 9.408480 31.918896 1.470828 1.271590 0.057513 -0.025476 609031.000000 0 0 1
2.051339 29.513681 10.034080 31.240168 1.501403 1.243809 0.075767 -0.040191 795135.000000 0 0 1
2.547339 28.205281 10.122580 30.074797 1.480726 1.227514 0.070318 -0.041241 -228958.000000 0 0 1
1.983039 27.409481 11.295180 29.711835 1.498574 1.180830 0.058251 -0.046497 -362221.000000 0 0 1
2.622539 27.829581 12.492280 30.617321 1.476838 1.150519 0.063564 -0.039361 119819.000000 0 0 1
2.295739 27.014281 13.600580 30.331791 1.486018 1.105829 0.066637 -0.037214 -636859.000000 0 0 1
0.862439 26.831381 14.173180 30.356973 1.538664 1.085033 0.053404 -0.036226 -359015.000000 0 0 1
0.347139 27.973281 14.763280 31.631936 1.558387 1.085217 0.060376 -0.035391 -196639.000000 0 0 1
-0.148861 28.925081 13.883280 32.084699 -1.565650 1.123303 0.065097 -0.037338 -1201050.000000 0 0 1
-0.958261 30.026881 14.518580 33.366465 -1.538894 1.120619 0.057897 -0.027553 -571023.000000 0 0 1
-2.192261 29.559181 15.005580 33.222261 -1.496767 1.102157 0.046703 -0.022818 -237978.000000 0 0 1
-2.846661 30.728481 15.478480 34.524286 -1.478421 1.105893 0.040379 -0.011714 -1288930.000000 0 0 1
-4.200961 30.548081 16.087480 34.779884 -1.434134 1.089926 0.023139 0.005059 18206.400000 0 0 1
-5.220461 30.163081 15.075280 34.122261 -1.399420 1.113190 0.030037 -0.006734 537448.000000 0 0 1
-6.355961 29.783781 15.766880 34.293824 -1.360547 1.093073 0.032073 -0.006286 -906157.000000 0 0 1
-7.574461 29.314481 14.940680 33.762926 -1.317940 1.112392 0.028474 -0.017247 1210910.000000 0 0 1
-8.766861 28.974481 15.706980 34.104070 -1.276982 1.092170 0.029575 -0.013435 1236660.000000 0 0 1
-9.786361 28.474381 14.842580 33.568816 -1.239754 1.112798 0.034590 -0.016643 244689.000000 0 0 1
-11.024561 27.996081 15.632680 33.907258 -1.195655 1.091627 0.035219 -0.012918 71640.300000 0 0 1
-11.727761 29.086581 16.321080 35.354592 -1.187533 1.090954 0.022663 -0.016531 706717.000000 0 0 1
-11.405461 29.185381 17.710380 35.993451 -1.198252 1.056360 0.029285 -0.018199 -429517.000000 0 0 1
-12.115361 30.368881 18.343080 37.490258 -1.191204 1.059537 0.029684 -0.013089 87329.000000 0 0 1
-13.461661 30.047181 18.672280 37.851069 -1.149592 1.054906 0.039315 -0.014167 272167.000000 0 0 1
-14.230061 31.205381 18.898380 39.158897 -1.142953 1.067167 0.053977 -0.021446 625771.000000 0 0 1
-15.250161 31.055681 20.118880 40.022394 -1.114327 1.044088 0.059448 -0.018936 564263.000000 0 0 1
-14.664761 30.794781 21.372580 40.251223 -1.126362 1.011040 0.055943 -0.022710 111908.000000 0 0 1
-15.699061 30.652581 22.338680 41.049456 -1.097467 0.995374 0.050036 -0.014835 185459.000000 0 0 1
-15.277061 30.434581 23.812080 41.553188 -1.105579 0.960573 0.047151 -0.006251 -1178760.000000 0 0 1
-14.352461 29.416681 23.921880 40.541221 -1.116874 0.939659 0.035928 -0.010162 -209543.000000 0 0 1
-13.935761 29.013881 25.253980 40.911786 -1.123022 0.905517 0.059548 -0.005637 -3386.230000 0 0 1
-13.274161 30.136881 26.107580 42.024287 -1.155902 0.900460 0.056309 -0.002589 -687085.000000 0 0 1
-14.236961 31.017381 26.608780 43.275815 -1.140484 0.908582 0.051692 0.006219 349413.000000 0 0 1
-13.627961 32.226181 27.037880 44.218718 -1.170719 0.912895 0.051664 0.001171 655058.000000 0 0 1
-14.818261 33.194981 27.393380 45.517962 -1.150940 0.925025 0.062587 0.000020 1228850.000000 0 0 1
-15.606561 32.819681 28.558380 46.219879 -1.126920 0.904752 0.016400 -0.002957 599795.000000 0 0 1
-14.910561 32.936781 29.809080 46.858698 -1.145697 0.881300 0.059773 0.002360 -284891.000000 0 0 1
-15.532761 32.067381 30.862280 47.138773 -1.119724 0.856996 0.031523 -0.004012 -673330.000000 0 0 1
-16.689661 32.691181 31.311480 48.245900 -1.098764 0.864530 0.026678 0.000059 -777594.000000 0 0 1
-17.168161 32.127081 32.545280 48.847623 -1.080022 0.841612 0.017319 0.002583 145910.000000 0 0 1
-18.661461 32.403181 32.784680 49.729785 -1.048275 0.850967 0.011454 0.000730 -58054.400000 0 0 1
-18.793161 33.693281 33.188780 50.891209 -1.062006 0.860377 0.027737 0.001475 -184607.000000 0 0 1
-20.156061 34.043181 33.246880 51.677461 -1.036226 0.871926 0.028919 -0.002870 -227211.000000 0 0 1
-20.358161 -32.598470 33.510880 50.991117 1.012547 0.853711 0.047453 0.000017 -182087.000000 0 0 1
-20.116961 -31.980970 -33.260317 50.336103 1.009305 2.292633 0.054716 0.000396 13437.800000 0 0 1
-21.114061 -32.211170 -32.291417 50.260309 0.990572 2.268531 0.041609 0.001990 -89987.600000 0 0 1
-20.856761 -31.436870 -30.999317 48.828669 0.985025 2.258622 0.052414 -0.005707 34558.500000 0 0 1
-20.873361 -30.075570 -31.221417 48.114592 0.964088 2.276930 0.077634 -0.006276 245950.000000 0 0 1
-20.368261 -29.271170 -30.132617 46.686637 0.962863 2.272373 0.073454 0.000367 168527.000000 0 0 1
-20.881261 -27.804270 -30.262817 46.097100 0.926650 2.286968 0.080864 -0.008264 -3086.280000 0 0 1
-22.247861 -27.778670 -29.933817 46.504357 0.895508 2.270091 0.070020 -0.000243 -302527.000000 0 0 1
-22.752861 -26.490370 -30.147517 46.133558 0.861152 2.282974 0.077859 -0.005346 84293.900000 0 0 1
-24.009361 -26.138970 -29.306017 46.027577 0.827839 2.261015 0.081158 -0.006904 -12764.800000 0 0 1
-23.881361 -26.158970 -27.877617 45.075189 0.830882 2.237590 0.079877 -0.003305 -23578.100000 0 0 1
-23.084361 -25.150270 -27.327517 43.728904 0.828202 2.245839 0.097891 -0.013555 -295935.000000 0 0 1
-22.821761 -25.344770 -25.815117 42.773946 0.837731 2.218710 0.097083 -0.007670 118163.000000 0 0 1
-23.962061 -25.247570 -24.965617 42.835759 0.811515 2.192993 0.083234 -0.013420 286365.000000 0 0 1
-23.701461 -25.671270 -23.685417 42.211045 0.825274 2.166533 0.080954 -0.006001 -400910.000000 0 0 1
-24.895061 -25.483070 -22.685617 42.234916 0.797070 2.137827 0.065003 -0.002242 374143.000000 0 0 1
-26.048161 -26.263170 -22.915617 43.513059 0.789508 2.125437 0.060195 -0.000391 -72916.300000 0 0 1
-25.924361 -27.695370 -23.013117 44.370143 0.818415 2.116082 0.063135 0.005136 -1905610.000000 0 0 1
-27.268661 -28.356770 -23.044717 45.593259 0.804957 2.100690 0.040896 0.004227 -455510.000000 0 0 1
-28.093761 -28.051470 -21.914517 45.347442 0.784645 2.075169 0.039972 0.007734 51584.500000 0 0 1
-29.325561 -27.471270 -22.259017 45.936076 0.752762 2.076662 0.041802 0.002641 144557.000000 0 0 1
-30.130961 -26.825470 -21.069117 45.512508 0.727428 2.052095 0.052940 0.001736 283342.000000 0 0 1
-30.591061 -27.815270 -20.099617 45.972784 0.737908 2.023287 0.032129 0.010039 258872.000000 0 0 1
-31.192161 -27.200970 -18.972717 45.528098 0.717154 2.000636 0.028699 0.008683 -742806.000000 0 0 1
-32.160861 -28.110170 -18.242617 46.446698 0.718291 1.974432 0.018399 0.010100 190158.000000 0 0 1
-33.470861 -28.398870 -18.766317 47.738549 0.703603 1.974804 0.013383 0.011760 1064470.000000 0 0 1
-34.437561 -27.367970 -18.743717 47.815043 0.671509 1.973606 0.002802 0.018761 -122435.000000 0 0 1
-35.147961 -27.151070 -17.384417 47.694630 0.657733 1.943886 0.020785 0.016992 -296494.000000 0 0 1
-34.318161 -26.348970 -16.563617 46.328801 0.654787 1.936411 0.012664 0.018072 188896.000000 0 0 1
-35.011961 -25.864170 -15.480817 46.200091 0.636245 1.912489 0.017064 0.009315 -74666.400000 0 0 1
-34.422661 -26.392070 -14.129117 45.618997 0.654108 1.885695 0.051599 0.005035 486549.000000 0 0 1
-35.003461 -27.668570 -13.838017 46.714910 0.668892 1.871532 0.048518 0.007897 527697.000000 0 0 1
-34.394161 -28.130070 -12.661017 46.201304 0.685545 1.848388 0.042166 -0.000209 354592.000000 0 0 1
-35.070461 -29.501370 -12.336317 47.460013 0.699365 1.833747 0.051694 -0.008131 324850.000000 0 0 1
-34.601561 -30.463770 -13.252617 47.968127 0.721889 1.850717 0.050061 -0.008958 135036.000000 0 0 1
-35.131661 -31.772470 -13.054617 49.133965 0.735231 1.839720 0.041242 -0.014274 -262218.000000 0 0 1
-34.736861 -32.827570 -14.097717 49.830157 0.757147 1.857629 0.036286 0.002367 -940251.000000 0 0 1
-33.373861 -33.070170 -13.957817 49.012972 0.780828 1.859571 0.033138 -0.001222 -620206.000000 0 0 1
-32.944361 -33.840070 -15.090617 49.580319 0.798809 1.880070 0.053709 -0.017445 194355.000000 0 0 1
-31.415261 34.046181 -15.155417 48.741643 -0.825567 1.886972 0.057037 -0.009817 68277.000000 0 0 1
-30.985161 33.225681 -16.217117 48.239206 -0.820277 1.913656 0.075058 -0.013636 683753.000000 0 0 1
-29.593461 32.927681 -15.950917 47.057804 -0.838677 1.916612 0.061985 -0.013042 620161.000000 0 0 1
9.083861 20.294281 -9.436220 24.154019 1.149934 1.972154 0.057575 -0.025671 296894.000000 0 1 0
7.660661 20.131681 -9.465920 23.528152 1.207188 1.984849 0.051891 -0.026893 490457.000000 0 1 0
7.099261 19.985481 -10.750120 23.777805 1.229478 2.039923 0.062276 -0.023575 -50703.600000 0 1 0
7.122761 18.616481 -11.469920 22.997090 1.205375 2.092958 0.047325 -0.017062 345445.000000 0 1 0
8.468961 18.360181 -11.891320 23.456833 1.138612 2.102433 0.084829 -0.018476 499043.000000 0 1 0
8.513261 17.130881 -12.501020 22.852094 1.109588 2.149621 0.068124 -0.027482 610881.000000 0 1 0
9.925661 16.780281 -13.098820 23.487777 1.036645 2.162393 0.095899 -0.029354 785065.000000 0 1 0
9.990461 15.477681 -13.670520 22.940162 0.997608 2.209208 0.103770 -0.043751 157153.000000 0 1 0
11.235361 15.269481 -14.325520 23.761543 0.936442 2.217911 0.133781 -0.050662 110172.000000 0 1 0
11.316361 14.027581 -15.228820 23.595551 0.891970 2.272357 0.108761 -0.052336 -442126.000000 0 1 0
11.265761 12.697281 -14.635520 22.412870 0.845066 2.282330 0.113196 -0.040413 657096.000000 0 1 0
12.458361 12.234781 -13.985120 22.371504 0.776344 2.246096 0.144086 -0.041581 182688.000000 0 1 0
13.532661 11.635481 -14.875020 23.233242 0.710160 2.265616 0.155022 -0.044550 -645044.000000 0 1 0
14.119461 12.516881 -15.727320 24.563796 0.725305 2.265639 0.137918 -0.041311 -107076.000000 0 1 0
14.936461 11.821881 -16.674720 25.316023 0.669523 2.289836 0.129774 -0.045356 29918.000000 0 0 1
15.507561 12.657781 -17.786220 26.777854 0.684561 2.297238 0.095191 -0.045822 401738.000000 0 0 1
16.630561 13.431681 -17.332420 27.520872 0.679388 2.252082 0.081328 -0.042085 180053.000000 0 0 1
17.266761 13.937681 -18.452520 28.859929 0.679114 2.264491 0.064099 -0.036717 -744754.000000 0 0 1
18.465061 14.860681 -18.308820 29.950145 0.677661 2.228511 0.050542 -0.023903 -881425.000000 0 0 1
18.321261 16.113581 -17.604020 30.086835 0.721374 2.195808 0.052503 -0.025867 -32087.900000 0 0 1
17.420061 16.971781 -18.269920 30.418577 0.772364 2.215069 0.055934 -0.019490 -228115.000000 0 0 1
17.441361 18.372481 -17.720620 30.915522 0.811391 2.181196 0.063629 -0.012486 157822.000000 0 0 1
18.648061 19.061981 -18.000720 32.173517 0.796374 2.164565 0.061070 -0.011114 264519.000000 0 0 1
18.536661 20.421781 -17.584520 32.708902 0.833748 2.138392 0.055200 -0.007200 -200997.000000 0 0 1
19.702761 21.362681 -17.987520 34.177680 0.825797 2.125033 0.063233 -0.009415 227257.000000 0 0 1
20.722961 21.424381 -17.002520 34.315170 0.802039 2.089185 0.058345 -0.010622 -210407.000000 0 0 1
20.451261 22.423381 -16.000920 34.308767 0.831363 2.055990 0.052784 -0.009908 -41473.700000 0 0 1
21.618561 22.905381 -15.088120 34.923774 0.814292 2.017539 0.051877 -0.012356 -366697.000000 0 0 1
21.904561 22.032381 -13.972820 34.065750 0.788307 1.993439 0.057426 -0.012838 -311644.000000 0 0 1
22.772161 22.540281 -13.016820 34.584291 0.780281 1.956682 0.054571 -0.013510 28579.600000 0 0 1
24.284461 22.389181 -13.358720 35.629564 0.744813 1.955121 0.045986 -0.018222 12283.100000 0 0 1
24.709961 23.050481 -14.547320 36.790370 0.750666 1.977312 0.049282 -0.009881 -116299.000000 0 0 1
26.110561 23.039881 -14.713620 37.803282 0.723004 1.970576 0.050075 -0.007590 13388.800000 0 0 1
26.506661 23.821281 -16.025620 39.075273 0.732091 1.993384 0.045585 -0.000233 407446.000000 0 0 1
27.371661 23.164981 -16.995220 39.682007 0.702349 2.013391 0.046051 -0.014470 650347.000000 0 0 1
27.307861 23.790181 -18.290820 40.573958 0.716665 2.038460 0.032077 -0.012582 -1144000.000000 0 0 1
27.741961 22.831981 -19.424920 40.844134 0.688616 2.066427 0.029839 -0.015458 -1114680.000000 0 0 1
29.117461 22.808781 -19.587620 41.853816 0.664498 2.057824 0.025577 -0.018299 -918732.000000 0 0 1
29.467361 21.937881 -20.630420 42.133244 0.639959 2.082481 0.037209 -0.017678 -177549.000000 0 0 1
30.936561 21.945281 -21.079920 43.393884 0.616983 2.078053 0.065870 -0.019917 -175628.000000 0 0 1
31.296161 23.188881 -21.621720 44.549665 0.637684 2.077548 0.048572 -0.019985 -643587.000000 0 0 1
32.583361 23.568281 -21.250920 45.483413 0.626208 2.056944 0.072819 -0.010911 -404553.000000 0 0 1
33.054561 24.889881 -21.910520 46.820733 0.645414 2.057784 0.072591 -0.018277 -168955.000000 0 0 1
33.289261 24.913381 -23.340120 47.682414 0.642471 2.082302 0.066205 -0.016346 616289.000000 0 0 1
32.144861 24.746981 -24.190620 47.232311 0.656090 2.108497 0.060448 -0.022276 131235.000000 0 0 1
32.508361 25.127481 -25.656810 48.440228 0.658031 2.128995 0.068309 -0.023658 -222850.000000 0 0 1
32.407261 26.501081 -25.950680 49.254194 0.685472 2.125713 0.074876 -0.021700 260912.000000 0 0 1
31.063361 26.809081 -26.307440 48.741570 0.712019 2.140916 0.064911 -0.011061 534648.000000 0 0 1
30.484961 26.478081 -27.718370 48.976828 0.715172 2.172380 0.075578 -0.010184 -377284.000000 0 0 1
30.175661 25.130981 -27.852200 48.144385 0.694437 2.187702 0.063171 -0.020985 -62473.500000 0 0 1
29.843461 24.849781 -29.197920 48.586647 0.694347 2.215480 0.065949 -0.019767 -297858.000000 0 0 1
28.960861 23.596781 -29.415640 47.548075 0.683689 2.237820 0.065205 -0.020762 753050.000000 0 0 1
27.584661 23.773681 -29.070490 46.596082 0.711330 2.244497 0.067646 -0.020419 556504.000000 0 0 1
26.792461 22.582181 -29.205530 45.615281 0.700332 2.265630 0.074137 -0.022595 -322831.000000 0 0 1
25.426561 22.945481 -28.641260 44.646689 0.734151 2.267260 0.060038 -0.018561 -871661.000000 0 0 1
25.386061 23.021381 -27.260380 43.790003 0.736587 2.242762 0.038428 -0.009726 -360693.000000 0 0 1
24.117161 23.246681 -26.748400 42.866333 0.767022 2.244642 0.042475 -0.017659 -710192.000000 0 0 1
24.310461 23.243881 -25.232890 42.047298 0.762973 2.214432 0.042799 -0.018182 -56244.800000 0 0 1
24.649961 22.050081 -24.553520 41.191043 0.729784 2.209417 0.041281 -0.020018 367216.000000 0 0 1
25.226261 22.368781 -23.299320 40.982739 0.725433 2.175497 0.037224 -0.012587 -13784.400000 0 0 1
25.719461 21.177681 -22.391620 40.141867 0.688854 2.162544 0.054184 -0.011991 -145443.000000 0 0 1
27.034161 20.712581 -22.542120 40.841205 0.653766 2.155492 0.030137 -0.010887 -315507.000000 0 0 1
27.170961 19.293381 -22.289520 40.091375 0.617455 2.160323 0.073006 -0.011556 -18596.100000 0 0 1
28.543461 18.692481 -22.598220 40.924535 0.579797 2.155788 0.082357 -0.014540 -809075.000000 0 0 1
29.660761 19.005181 -21.869020 41.463378 0.569846 2.126369 0.089582 -0.020851 -681188.000000 0 0 1
30.667261 18.031681 -22.122020 41.892794 0.531533 2.127114 0.078122 -0.013213 539474.000000 0 0 1
31.998261 18.241881 -21.324420 42.560378 0.518136 2.095596 0.084221 -0.008275 114630.000000 0 0 1
32.848661 19.073581 -22.096520 43.944194 0.526070 2.097668 0.066070 -0.011955 821441.000000 0 0 1
34.173961 19.213681 -21.525620 44.725579 0.512186 2.072913 0.054589 -0.014036 1196650.000000 0 0 1
34.308261 20.278881 -20.434920 44.787004 0.533834 2.044594 0.045050 -0.018281 -310820.000000 0 0 1
33.685661 19.863581 -19.188020 43.559909 0.532793 2.026949 0.054677 -0.016828 365259.000000 0 0 1
33.817361 20.906181 -18.252420 43.747379 0.553701 2.001184 0.034822 -0.002520 -210834.000000 0 0 1
33.034961 20.711981 -16.960320 42.519963 0.560016 1.981090 0.055731 -0.018184 -432141.000000 0 0 1
33.460161 19.602681 -16.230420 42.038958 0.529951 1.967175 0.056364 -0.034302 281543.000000 0 0 1
33.209461 19.771981 -14.849620 41.404236 0.537010 1.937617 0.063447 -0.033283 -200290.000000 0 0 1
33.704261 18.521281 -14.029520 40.937055 0.502477 1.920596 0.063005 -0.028884 -1541950.000000 0 0 1
35.068261 18.297981 -14.048720 41.975774 0.480921 1.912069 0.050366 -0.024635 -830596.000000 0 0 1
35.424161 17.184281 -13.271620 41.548846 0.451657 1.895916 0.054494 -0.014787 -22465.300000 0 0 1
35.548361 17.444281 -11.783120 41.313809 0.456196 1.860022 0.055234 -0.026528 -371694.000000 0 0 1
36.325961 18.619081 -11.477520 42.402583 0.473642 1.844895 0.043356 -0.027347 394208.000000 0 0 1
36.175061 19.099981 -10.140420 42.145847 0.485786 1.813783 0.047505 -0.020771 319312.000000 0 0 1
34.877861 19.951481 -9.833820 41.367025 0.519606 1.810815 0.048049 -0.021381 581488.000000 0 0 1
33.713961 19.157381 -10.004420 40.046533 0.516734 1.823291 0.067571 -0.041135 -1131530.000000 0 0 1
32.657161 20.015881 -9.763820 39.527937 0.549858 1.820390 0.038852 -0.024257 -955149.000000 0 0 1
31.269461 19.512181 -10.169620 38.235135 0.557881 1.840012 0.039380 -0.025569 -214529.000000 0 0 1
31.192961 19.145681 -11.579920 38.388181 0.550492 1.877223 0.063972 -0.036973 168597.000000 0 0 1
29.891461 18.700881 -11.923120 37.220736 0.559049 1.896880 0.058342 -0.040323 338362.000000 0 0 1
29.980561 18.012281 -13.314320 37.423888 0.541007 1.934535 0.099723 -0.041011 -176141.000000 0 0 1
30.793061 16.860681 -13.309720 37.545224 0.500959 1.933174 0.085300 -0.041823 39856.600000 0 0 1
30.728361 16.247081 -14.562320 37.686350 0.486368 1.967531 0.062426 -0.036723 44924.300000 0 0 1
32.070461 15.711481 -15.139920 38.788945 0.455539 1.971770 0.089829 -0.040049 -68215.400000 0 0 1
32.556961 14.629181 -14.391620 38.484898 0.422306 1.954066 0.080187 -0.037148 -17860.700000 0 0 1
33.772861 14.146181 -14.914620 39.536900 0.396661 1.957603 0.080571 -0.030769 25992.200000 0 0 1
34.543761 13.231281 -13.922120 39.524216 0.365792 1.930763 0.069073 -0.045459 -74936.700000 0 0 1
35.231261 13.886481 -12.872120 39.997095 0.375455 1.898454 0.074155 -0.026317 -172158.000000 0 0 1
36.034161 13.050181 -12.137920 40.200710 0.347468 1.877516 0.071279 -0.025884 -430204.000000 0 0 1
-36.833217 13.716681 -11.075220 40.834957 -0.356489 1.845456 0.095780 -0.019763 -4373.600000 0 0 1
-35.730817 14.274081 -11.772120 40.237090 -0.380066 1.867708 0.053652 -0.018679 -199748.000000 0 0 1
-34.857317 14.877381 -10.821120 39.414028 -0.403401 1.848918 0.034184 -0.004694 563466.000000 0 0 1
-33.402417 15.098681 -11.402020 38.388770 -0.424535 1.872361 0.050740 -0.016324 1205270.000000 0 0 1
-32.613217 13.934181 -11.746920 37.360051 -0.403780 1.890647 0.047808 -0.015441 386739.000000 0 0 1
-32.331417 12.968481 -10.791420 36.468572 -0.381464 1.871205 0.074797 -0.006009 -307853.000000 0 0 1
-31.225917 11.900781 -11.121020 35.218795 -0.364124 1.892064 0.086394 -0.017818 213051.000000 0 0 1
-31.484517 10.998281 -12.174520 35.502900 -0.336072 1.920816 0.070903 -0.017204 341494.000000 0 0 1
-30.652217 9.812881 -12.135320 34.396468 -0.309826 1.931366 0.088346 -0.030074 28021.200000 0 0 1
-30.702417 9.013881 -13.424820 34.700349 -0.285564 1.968040 0.092081 -0.032914 459461.000000 0 0 1
-31.879017 8.248981 -13.715920 35.671331 -0.253205 1.965471 0.070374 -0.028751 807113.000000 0 0 1
-31.572917 7.426781 -14.886020 35.687529 -0.231026 2.001072 0.077773 -0.030398 -43665.000000 0 0 1
-32.853717 7.121781 -15.673420 37.091004 -0.213470 2.007072 0.084515 -0.031244 -35972.100000 0 0 1
-33.808117 6.391881 -14.941320 37.511171 -0.186858 1.980477 0.109787 -0.037999 703344.000000 0 0 1
-34.897117 5.872381 -15.745920 38.732772 -0.166715 1.989446 0.092583 -0.041258 232316.000000 0 0 1
-35.841817 5.110181 -14.879020 39.142496 -0.141621 1.960727 0.110780 -0.034260 -633694.000000 0 0 1
36.829661 4.468481 -15.493020 40.204787 0.120738 1.966386 0.125014 -0.030410 -324845.000000 0 0 1
35.887061 4.143581 -14.528720 38.937567 0.114953 1.953175 0.130011 -0.034705 6761.340000 0 0 1
34.857161 3.056381 -14.977820 38.061769 0.087459 1.975247 0.131029 -0.036351 63151.900000 0 0 1
35.434961 1.773881 -15.167220 38.585330 0.050018 1.974778 0.136804 -0.032986 217381.000000 0 0 1
34.531261 0.686781 -15.072520 37.683690 0.019886 1.982285 0.131147 -0.033481 -58491.800000 0 0 1
33.908261 0.350981 -13.699420 36.572769 0.010351 1.954740 0.135021 -0.039834 -40315.800000 0 0 1
34.770061 -0.215219 -12.701520 37.017997 -0.006190 1.921030 0.150194 -0.042088 281930.000000 0 0 1
34.307061 -0.202519 -11.360220 36.139591 -0.005903 1.890561 0.155245 -0.033819 -347777.000000 0 0 1
34.424361 1.146181 -10.629420 36.046289 0.033283 1.870129 0.154942 -0.038724 -248409.000000 0 0 1
33.496261 2.124881 -11.024720 35.327880 0.063351 1.888166 0.145586 -0.026886 357563.000000 0 0 1
33.835261 3.493181 -10.622720 35.635227 0.102876 1.873494 0.141374 -0.025984 139605.000000 0 0 1
32.702461 4.433981 -11.108420 34.821088 0.134764 1.895485 0.131500 -0.024862 287359.000000 0 0 1
32.875061 4.908981 -12.431220 35.488068 0.148227 1.928680 0.130274 -0.028497 -276430.000000 0 0 1
31.752161 5.657081 -12.704620 34.664242 0.176314 1.946046 0.134614 -0.035818 -714553.000000 0 0 1
31.780761 6.489981 -13.953420 35.310544 0.201441 1.977042 0.101876 -0.033367 -259303.000000 0 0 1
31.702361 5.714181 -15.134420 35.591322 0.178330 2.010010 0.088974 -0.020040 223326.000000 0 0 1
32.047961 6.312681 -16.405220 36.552059 0.194486 2.036238 0.082907 -0.018834 -608303.000000 0 0 1
30.923761 7.223381 -16.961220 36.001933 0.229472 2.061356 0.088022 -0.022079 543609.000000 0 0 1
29.813861 6.591581 -17.605320 35.245745 0.217591 2.093820 0.061061 -0.015710 549578.000000 0 0 1
28.901061 6.008081 -16.687620 33.909365 0.204965 2.085325 0.053401 -0.008472 -939146.000000 0 0 1
27.478461 5.895381 -17.268320 32.985091 0.211342 2.121772 0.027409 -0.001111 -204979.000000 0 0 1
27.396461 4.943081 -18.302920 33.316618 0.178507 2.152398 0.034025 -0.004414 387309.000000 0 0 1
26.263461 5.201581 -19.128120 32.904571 0.195524 2.191148 0.017162 -0.006653 145458.000000 0 0 1
25.955561 4.012781 -20.011520 33.019002 0.153388 2.221895 0.022526 0.012222 -281892.000000 0 0 1
25.365661 2.973481 -19.296020 32.009291 0.116692 2.217834 0.033019 -0.000875 160235.000000 0 0 1
25.005461 1.807081 -20.066520 32.112363 0.072142 2.245780 0.034672 -0.004144 -856533.000000 0 0 1
23.985761 0.901081 -19.404720 30.865383 0.037550 2.250662 0.032303 -0.011058 -460890.000000 0 0 1
22.710461 1.510481 -19.476920 29.956585 0.066413 2.278607 0.040343 -0.016274 -173774.000000 0 0 1
21.791961 0.752481 -18.736020 28.748813 0.034516 2.280639 0.048132 -0.017886 -419839.000000 0 0 1
20.480861 1.505081 -18.489320 27.633058 0.073355 2.303795 0.058105 -0.025201 -395294.000000 0 0 1
19.655061 1.727381 -19.640620 27.839886 0.087660 2.353903 0.057762 -0.024482 843715.000000 0 0 1
18.551861 2.613381 -19.481220 27.028120 0.139948 2.375718 0.053902 -0.018972 1244500.000000 0 0 1
17.266961 2.128481 -18.712620 25.550744 0.122650 2.392594 0.074326 -0.025426 -113179.000000 0 0 1
17.433861 1.983581 -17.287020 24.631589 0.113290 2.348750 0.080233 -0.033379 487259.000000 0 1 0
16.172161 1.925781 -16.636820 23.281564 0.118522 2.366837 0.053367 -0.021115 597827.000000 0 1 0
15.360461 3.249481 -16.402120 22.705339 0.208475 2.378049 0.065283 -0.019057 11563.500000 0 1 0
14.878461 3.766281 -17.609320 23.358973 0.247928 2.424709 0.068016 -0.012222 679252.000000 0 1 0
13.789861 4.659581 -17.292620 22.603245 0.325854 2.441916 0.076619 -0.018458 509649.000000 0 1 0
-20.781939 -21.914819 -17.115320 34.714298 0.811925 2.086370 0.079209 -0.019512 -284461.000000 0 0 1
-20.558839 -22.465919 -18.384520 35.572095 0.829694 2.113933 0.084596 -0.020692 -189807.000000 0 0 1
-21.582339 -22.307819 -19.306620 36.553820 0.801926 2.127240 0.082991 -0.013283 -604840.000000 0 0 1
-21.158939 -22.875319 -20.675320 37.395853 0.824357 2.156610 0.077423 -0.009357 -14733.000000 0 0 1
-21.151439 -24.261719 -20.656420 38.245289 0.853780 2.141357 0.076072 -0.011059 46397.700000 0 0 1
-20.397439 -24.764019 -21.705620 38.735592 0.881787 2.165609 0.079153 -0.009518 -513776.000000 0 0 1
-20.232439 -26.309709 -21.576320 39.586487 0.915239 2.147236 0.080317 -0.006074 -153575.000000 0 0 1
-21.386339 -27.116189 -21.623920 40.746253 0.902988 2.130219 0.079626 0.000004 300442.000000 0 0 1
-20.973039 -28.465359 -21.352020 41.304404 0.935802 2.114072 0.091414 -0.013650 1009640.000000 0 0 1
-22.266539 -29.368009 -21.484420 42.659806 0.922074 2.098583 0.086679 -0.010299 1151670.000000 0 0 1
-22.938039 -29.338619 -22.766820 43.649013 0.907228 2.119508 0.072148 -0.003235 534789.000000 0 0 1
-22.216539 -29.907769 -23.844420 44.233535 0.931897 2.140114 0.071293 -0.006875 -563908.000000 0 0 1
-22.846439 -29.494569 -25.176610 45.008345 0.911737 2.164430 0.061942 0.002147 211862.000000 0 0 1
-24.093839 -30.127299 -25.445960 46.213246 0.896217 2.153904 0.050478 0.003037 378020.000000 0 0 1
-24.909239 -29.500829 -26.389390 46.767179 0.869587 2.170347 0.048230 0.005454 -568086.000000 0 0 1
-24.522639 -29.443479 -27.841850 47.365039 0.876331 2.199151 0.055626 0.004573 -738600.000000 0 0 1
-24.784439 -30.607589 -28.538800 48.636982 0.890140 2.197862 0.033410 0.011807 181527.000000 0 0 1
-24.566939 -30.447379 -29.955780 49.273991 0.891883 2.224264 0.068058 0.005436 -65357.400000 0 0 1
-24.968139 -31.695329 -30.777020 50.746693 0.903567 2.222426 0.033339 0.004879 -18024.700000 0 0 1
-24.198439 -32.847149 -30.514790 50.947543 0.935863 2.212980 0.028186 -0.005601 262838.000000 0 0 1
-24.860039 -33.960689 -31.123100 52.344984 0.938899 2.207535 0.033393 -0.009390 125951.000000 0 0 1
-24.075739 32.870807 -30.949200 51.166241 -0.938632 2.220406 0.046170 -0.013921 131652.000000 0 0 1
-23.173539 32.441543 -31.963140 51.099011 -0.950526 2.246586 0.039491 -0.022757 -76529.000000 0 0 1
-22.667439 31.211381 -31.620620 49.878119 -0.942666 2.257456 0.039890 -0.013287 -982801.000000 0 0 1
-21.445139 30.912131 -32.456560 49.687847 -0.964281 2.282611 0.040640 -0.006599 -737054.000000 0 0 1
-21.755339 30.535001 -33.784470 50.468520 -0.951749 2.304220 0.032793 -0.006121 324547.000000 0 0 1
-21.081939 29.368591 33.776052 49.475084 -0.948198 0.819361 0.018959 -0.002490 -25405.300000 0 0 1
-21.350639 29.196421 32.276276 48.477198 -0.939387 0.842226 0.024573 -0.015214 83457.400000 0 0 1
-20.659039 30.222461 31.564687 48.337589 -0.971185 0.859251 0.024347 -0.009652 446656.000000 0 0 1
-20.665039 29.950451 30.164327 47.264786 -0.966831 0.878640 0.042486 -0.014242 -225701.000000 0 0 1
-20.078539 31.097871 29.384307 47.261642 -0.997481 0.899838 0.023941 -0.021809 209100.000000 0 0 1
-21.065239 32.113633 29.323417 48.320725 -0.990243 0.918705 0.041481 -0.028502 678544.000000 0 0 1
-20.442939 33.277462 28.767467 48.506395 -1.019915 0.935936 0.022297 -0.025392 662329.000000 0 0 1
-21.367539 -33.590749 28.885177 49.186010 1.004245 0.943122 0.042432 -0.030047 383064.000000 0 0 1
-21.478739 -33.091999 30.193477 49.679600 0.995081 0.917554 0.030825 -0.018805 178201.000000 0 0 1
-22.543539 -32.149359 30.369027 49.639402 0.959257 0.912471 0.071996 -0.026059 332646.000000 0 0 1
-22.303839 -30.662779 29.954587 48.321264 0.941922 0.902175 0.060092 -0.014694 -187387.000000 0 0 1
-22.239639 -30.465269 28.598617 47.335136 0.940219 0.922069 0.061019 -0.012358 -30509.300000 0 0 1
-22.281339 -29.092339 28.220897 46.251933 0.917207 0.914539 0.067972 -0.021411 -200320.000000 0 0 1
-23.636339 -28.530279 27.727287 46.275866 0.878938 0.928328 0.070931 -0.022737 -416055.000000 0 0 1
-24.663439 -28.473819 28.698197 47.356416 0.856984 0.919768 0.071090 -0.021468 559606.000000 0 0 1
-25.666019 -29.492329 28.589327 48.434405 0.854657 0.939404 0.068338 -0.022788 60436.000000 0 0 1
-26.736769 -29.389919 27.502087 48.321703 0.832634 0.965330 0.054051 -0.018968 -858116.000000 0 0 1
-26.304399 -29.504319 26.155987 47.397910 0.842673 0.986229 0.058888 -0.019904 -65602.500000 0 0 1
-27.357149 -29.827889 25.273717 47.716636 0.828577 1.012594 0.067969 -0.014417 103615.000000 0 0 1
-26.785199 -30.110119 23.864777 46.835817 0.843771 1.036145 0.063021 -0.016513 -266598.000000 0 0 1
-26.170509 -28.971029 23.296827 45.463812 0.836142 1.032789 0.038776 -0.016434 617785.000000 0 0 1
-25.469839 -29.214689 22.055677 44.594435 0.853772 1.053441 0.053237 -0.017583 660309.000000 0 0 1
-24.169339 -30.065509 22.007077 44.411746 0.893688 1.052359 0.050878 -0.027859 -409810.000000 0 0 1
-24.464139 -31.438899 22.056077 45.534262 0.909522 1.065137 0.057787 -0.035558 1048060.000000 0 0 1
-23.294539 -32.199569 21.657077 45.260101 0.944510 1.071848 0.061496 -0.021278 570138.000000 0 0 1
-22.482639 -32.844199 22.805477 45.872653 0.970533 1.050488 0.062475 -0.023407 -182287.000000 0 0 1
-21.858439 -31.870589 23.624367 45.294994 0.969630 1.022110 0.070278 -0.030272 62300.600000 0 0 1
-21.283239 -32.481789 24.759127 46.054937 0.990749 1.003208 0.066577 -0.041683 -118862.000000 0 0 1
-20.353939 -31.569089 25.618627 45.466518 0.998126 0.972227 0.072126 -0.025475 -685868.000000 0 0 1
-19.149239 -31.290459 24.936767 44.357959 1.021612 0.973788 0.075950 -0.029315 -308796.000000 0 0 1
-18.282039 -30.445529 25.623287 43.791735 1.030021 0.945772 0.085520 -0.028886 -414230.000000 0 0 1
-17.440939 -31.128289 26.691677 44.560098 1.060086 0.928540 0.054645 -0.028052 -1020330.000000 0 0 1
-18.175839 -31.683469 27.796257 45.900275 1.049963 0.920303 0.050234 -0.016104 138841.000000 0 0 1
-17.341239 -32.270659 28.775387 46.584728 1.077703 0.904982 0.053460 -0.011989 -159257.000000 0 0 1
-17.556839 -31.711099 30.229187 47.197883 1.065155 0.875676 0.072134 -0.010964 210565.000000 0 0 1
-16.945339 -30.447949 30.461047 46.282799 1.062950 0.852437 0.076211 -0.007892 95701.500000 0 0 1
-17.645639 -29.833729 31.477037 46.821190 1.036675 0.833509 0.080372 -0.004438 -59829.000000 0 0 1
-17.571639 -28.296509 31.409247 45.782046 1.015091 0.814736 0.090069 -0.012692 389936.000000 0 0 1
-18.496639 -27.671729 30.481287 45.132683 0.981573 0.829329 0.092971 -0.009624 563423.000000 0 0 1
-18.297239 -27.823479 29.093807 44.219730 0.989084 0.852720 0.094697 -0.005339 476699.000000 0 0 1
-16.964939 -27.295069 28.435177 42.911412 1.014690 0.846447 0.083698 -0.007004 714843.000000 0 0 1
-16.869539 -25.861259 28.432257 41.973555 0.992799 0.826594 0.078392 -0.002257 -137792.000000 0 0 1
-15.652439 -25.498689 27.818527 40.854038 1.020253 0.821772 0.066656 -0.003303 -321219.000000 0 0 1
-15.697039 -24.171719 26.993597 39.488268 0.994845 0.818133 0.063944 0.009513 -611443.000000 0 0 1
-16.273039 -24.214719 25.725357 38.896766 0.979089 0.848146 0.096769 0.004374 -78951.400000 0 0 1
-16.196339 -22.953619 25.051957 37.640279 0.956314 0.842549 0.064613 0.003599 -246260.000000 0 0 1
-17.195739 -21.873219 25.516987 37.752454 0.904555 0.828607 0.071366 0.004024 -399292.000000 0 0 1
-16.900239 -20.636419 24.879657 36.475707 0.884606 0.820182 0.058494 0.004176 -30342.300000 0 0 1
-17.749439 -19.593519 25.247577 36.556651 0.834740 0.808419 0.065327 0.010868 -259167.000000 0 0 1
-17.425139 -18.303419 24.443637 35.158811 0.809975 0.802050 0.055819 -0.002188 962913.000000 0 0 1
-16.095139 -17.757619 24.589497 34.337005 0.834468 0.772566 0.049786 -0.005977 662971.000000 0 0 1
-15.869639 -16.714919 23.684027 33.047951 0.811333 0.771800 0.042626 -0.007980 -702946.000000 0 0 1
-14.437339 -16.225419 23.789997 32.212807 0.843647 0.739915 0.071028 -0.020465 -1278890.000000 0 0 1
-13.476239 -17.185319 23.439637 32.036866 0.905782 0.750063 0.038902 -0.014208 -675653.000000 0 0 1
-12.185139 -16.752819 23.749307 31.514507 0.941950 0.717276 0.042906 -0.023146 -341630.000000 0 0 1
-11.501439 -15.714419 22.731477 29.932359 0.938978 0.708363 0.067089 -0.022301 -381835.000000 0 0 1
-11.180339 -16.365019 21.498977 29.240722 0.971445 0.744774 0.094039 -0.016274 -206228.000000 0 0 1
-9.888939 -16.918019 21.610677 29.172450 1.041836 0.736550 0.081846 -0.025128 -713362.000000 0 0 1
-9.541739 -18.072019 20.593877 29.012935 1.085013 0.781558 0.086761 -0.022467 -19621.400000 0 0 1
-9.244339 -17.688119 19.249677 27.728639 1.089209 0.803466 0.085406 -0.024759 -258487.000000 0 0 1
-8.851639 -18.752819 18.488377 27.782005 1.129785 0.842659 0.082536 -0.026213 80372.300000 0 0 1
-8.566139 -18.409519 16.993277 26.477549 1.135284 0.873954 0.085313 -0.035496 37744.400000 0 0 1
-7.318639 -17.790919 16.761477 25.515219 1.180527 0.854069 0.079546 -0.036196 -361962.000000 0 0 1
-7.110939 -17.587819 15.416777 24.445324 1.186580 0.888388 0.098848 -0.037805 438002.000000 0 1 0
-5.885539 -16.751219 14.959777 23.217188 1.232919 0.870636 0.078612 -0.035487 188304.000000 0 1 0
-6.100839 -15.461419 15.332177 22.613080 1.194967 0.825727 0.091651 -0.044205 -1215610.000000 0 1 0
-4.979239 -14.800219 15.721977 22.158968 1.246261 0.781996 0.066110 -0.021940 -1539320.000000 0 1 0
-5.207039 -13.845219 16.921477 22.475314 1.211071 0.718352 0.041425 -0.009006 -410581.000000 0 1 0
-5.011639 -14.347419 18.219877 23.726122 1.234740 0.695201 0.060017 -0.004672 -230630.000000 0 1 0
-5.943839 -15.286619 18.714477 24.884565 1.199959 0.719627 0.088964 -0.028416 1033070.000000 0 1 0
-7.402239 -14.791019 19.023777 25.208560 1.106785 0.715668 0.104126 -0.032412 516782.000000 0 0 1
-7.184839 -13.921819 20.159377 25.531146 1.094364 0.660641 0.102701 -0.033708 -366741.000000 0 0 1
-8.330939 -13.243019 20.590077 25.859879 1.009267 0.649780 0.108338 -0.022232 -148923.000000 0 0 1
-8.074739 -12.207819 21.767077 26.230476 0.986421 0.591977 0.105577 -0.015701 -263502.000000 0 0 1
-7.370039 -11.095519 21.321677 25.140444 0.984479 0.558402 0.067582 -0.010558 -174978.000000 0 0 1
-7.017139 -10.153119 22.289677 25.478535 0.966047 0.505688 0.055966 -0.017647 -222056.000000 0 0 1
-5.707439 -10.317719 23.072637 25.910939 1.065524 0.472443 0.055708 -0.008613 -251738.000000 0 0 1
-5.681039 -11.342319 24.038487 27.180347 1.106452 0.485575 0.073850 -0.006666 -236401.000000 0 0 1
-4.346439 -11.643719 24.360237 27.347557 1.213529 0.471771 0.061964 -0.003022 -244355.000000 0 0 1
-4.201939 -12.850319 25.307137 28.692127 1.254765 0.490656 0.069591 -0.013629 299486.000000 0 0 1
-2.869139 -12.983319 25.845587 29.065321 1.353305 0.475150 0.059146 -0.013122 964234.000000 0 0 1
-2.778939 -14.086719 26.785227 30.390896 1.376024 0.492070 0.060449 -0.017760 -44420.900000 0 0 1
-2.767039 -15.567919 26.249857 30.644275 1.394894 0.542154 0.068631 -0.028100 392317.000000 0 0 1
-1.616839 -15.912919 25.466077 30.072516 1.469538 0.560814 0.056506 -0.031533 504554.000000 0 0 1
-1.815339 -17.282819 25.027597 30.469196 1.466143 0.606924 0.066484 -0.032928 -604862.000000 0 0 1
-0.496039 -18.063219 24.876767 30.747024 1.543342 0.628213 0.069434 -0.033121 340643.000000 0 0 1
0.242261 -18.362919 26.053537 31.875418 -1.557604 0.613991 0.079602 -0.032841 401043.000000 0 0 1
0.839861 -17.235519 26.725127 31.811961 -1.522106 0.573335 0.070127 -0.031138 -368043.000000 0 0 1
1.473561 -17.476119 28.147877 33.164576 -1.486677 0.557211 0.065087 -0.022023 -368743.000000 0 0 1
2.447961 -18.523119 28.211607 33.837748 -1.439401 0.584964 0.058946 -0.023162 578002.000000 0 0 1
3.141361 -18.554219 29.476357 34.971171 -1.403080 0.568191 0.056114 -0.031609 777351.000000 0 0 1
4.174261 -17.400019 29.686997 34.662702 -1.335346 0.542436 0.067293 -0.030640 -588875.000000 0 0 1
3.511361 -16.178219 29.949777 34.220660 -1.357069 0.504956 0.062336 -0.033235 -45227.100000 0 0 1
4.392061 -15.269619 30.525287 34.412855 -1.290723 0.479921 0.067957 -0.035740 -601640.000000 0 0 1
3.613761 -14.209119 31.288887 34.553622 -1.321749 0.438200 0.075199 -0.041188 -99746.300000 0 0 1
2.987061 -14.741719 32.419364 35.738718 -1.370877 0.434403 0.063345 -0.041880 -55911.000000 0 0 1
2.072861 -13.831319 33.010515 35.851029 -1.422036 0.400749 0.062303 -0.041348 43786.500000 0 0 1
1.201561 -14.487219 -33.968630 36.948493 -1.488046 2.737224 0.063928 -0.031148 -56229.900000 0 0 1
1.884461 -14.536619 -32.745570 35.876690 -1.441880 2.720702 0.084640 -0.026885 292509.000000 0 0 1
1.158461 -15.334719 -31.756600 35.284236 -1.495395 2.690617 0.074956 -0.032187 508577.000000 0 0 1
2.044861 -15.683319 -30.563100 34.412949 -1.441143 2.664052 0.085943 -0.027732 378028.000000 0 0 1
1.359861 -16.587619 -29.675150 34.023710 -1.488999 2.630459 0.092579 -0.027950 207716.000000 0 0 1
1.892761 -16.419819 -28.395400 32.855620 -1.456030 2.614450 0.094860 -0.028655 228887.000000 0 0 1
1.527461 -17.590919 -27.410350 32.605228 -1.484181 2.569322 0.104135 -0.033759 331370.000000 0 0 1
2.317161 -18.697919 -27.815940 33.596249 -1.447499 2.546235 0.097980 -0.028843 396009.000000 0 0 1
1.799161 -19.844319 -27.163890 33.688439 -1.480380 2.508712 0.097110 -0.025748 -183162.000000 0 0 1
2.670661 -21.124319 -27.315520 34.633899 -1.445038 2.479477 0.085574 -0.029621 605187.000000 0 0 1
3.996961 -21.148419 -26.782670 34.359027 -1.384004 2.464655 0.070854 -0.027653 568227.000000 0 0 1
4.093361 -21.206019 -25.353640 33.305524 -1.380113 2.436026 0.073421 -0.024942 -1329830.000000 0 0 1
5.548061 -21.472619 -24.952920 33.384167 -1.317948 2.415008 0.057222 -0.023937 -343680.000000 0 0 1
5.977561 -22.827219 -25.128890 34.471355 -1.314686 2.387625 0.056044 -0.022955 16751.600000 0 0 1
6.154961 -23.189419 -26.485540 35.736768 -1.311357 2.405546 0.050710 -0.018208 -1278350.000000 0 0 1
5.382661 -24.537119 -26.718180 36.672938 -1.354849 2.387003 0.039137 -0.018426 260417.000000 0 0 1
5.935061 -25.642569 -26.002910 36.998887 -1.343348 2.350126 0.048325 -0.012942 -91114.600000 0 0 1
5.328861 -26.868059 -26.367660 38.020296 -1.375003 2.337153 0.040071 -0.009247 -110354.000000 0 0 1
5.706961 -28.145049 -25.611150 38.479140 -1.370739 2.299074 0.046723 -0.014552 858861.000000 0 0 1
7.043861 -28.633469 -25.865450 39.223884 -1.329585 2.290858 0.069282 -0.021311 813878.000000 0 0 1
7.374461 -29.758829 -25.057910 39.596331 -1.327882 2.256004 0.074764 -0.026466 193672.000000 0 0 1
8.890461 -30.078559 -25.178650 40.220945 -1.283404 2.247220 0.085422 -0.033661 300902.000000 0 0 1
9.237361 -30.459839 -26.455350 41.388600 -1.276348 2.264246 0.087607 -0.029519 -521941.000000 0 0 1
10.590461 -30.319659 -26.786620 41.820601 -1.234751 2.265962 0.109514 -0.031483 -137687.000000 0 0 1
10.762661 -30.194109 -28.276080 42.744074 -1.228388 2.293641 0.110564 -0.035780 -81751.500000 0 0 1
10.303761 -31.380219 -28.934260 43.909874 -1.253536 2.290214 0.103995 -0.041780 183107.000000 0 0 1
10.571561 -31.288679 -30.323310 44.835728 -1.244967 2.313552 0.101904 -0.032350 75578.700000 0 0 1
-35.109547 -5.191419 -5.492820 35.913817 0.146800 1.724343 0.168604 -0.042052 -310609.000000 0 0 1
-35.065343 -4.418819 -4.348120 35.609133 0.125356 1.693209 0.152726 -0.051972 937824.000000 0 0 1
-33.942069 -3.514119 -4.244120 34.386417 0.103165 1.694536 0.144112 -0.058794 378488.000000 0 0 1
-34.127411 -2.212419 -5.038320 34.568188 0.064738 1.717068 0.193995 -0.044072 -352496.000000 0 0 1
-35.106128 -1.423219 -4.417220 35.411546 0.040518 1.695862 0.142365 -0.039412 76235.700000 0 0 1
-35.507993 -0.234719 -5.086420 35.871219 0.006610 1.713073 0.126481 -0.045299 -306555.000000 0 0 1
-36.704679 0.409781 -4.429920 36.973309 -0.011164 1.690899 0.152781 -0.041942 -395834.000000 0 0 1
-36.238439 1.031681 -3.233720 36.397057 -0.028462 1.659759 0.138202 -0.029688 215889.000000 0 0 1
36.509589 1.732881 -2.555820 36.639939 0.047428 1.640608 0.135962 -0.030737 -517766.000000 0 0 1
-36.714569 2.823381 -1.579620 36.856835 -0.076750 1.613668 0.119853 -0.035000 256391.000000 0 0 1
-36.014228 3.949181 -2.099420 36.290883 -0.109220 1.628678 0.146386 -0.050410 1257090.000000 0 0 1
-34.775876 3.711081 -2.820620 35.086886 -0.106312 1.651273 0.108336 -0.022999 304914.000000 0 0 1
-33.969379 5.022981 -3.054120 34.474290 -0.146804 1.659504 0.087107 -0.031886 -387989.000000 0 0 1
-33.352759 5.457481 -1.885220 33.848851 -0.162192 1.626520 0.094782 -0.035474 -87800.800000 0 0 1
-32.928569 6.746081 -1.965320 33.669909 -0.202074 1.629200 0.109629 -0.048664 -461181.000000 0 0 1
-32.469789 7.323781 -0.596720 33.290855 -0.221844 1.588722 0.111215 -0.052087 223280.000000 0 0 1
-31.105059 6.966181 -0.326520 31.877249 -0.220321 1.581040 0.121256 -0.045252 903571.000000 0 0 1
-30.652089 7.274081 0.985880 31.518800 -0.233001 1.539512 0.133032 -0.043225 -487.984000 0 0 1
-30.567339 8.813781 1.339880 31.840858 -0.280725 1.528703 0.140977 -0.048040 -1056590.000000 0 0 1
-31.810109 9.410881 1.493780 33.206612 -0.287641 1.525797 0.130122 -0.050683 -582974.000000 0 0 1
-31.683959 10.804981 1.785280 33.523247 -0.328656 1.517516 0.129131 -0.037790 952755.000000 0 0 1
-33.090699 11.527181 1.851080 35.089838 -0.335205 1.518019 0.118638 -0.043653 187097.000000 0 0 1
-33.575919 11.797181 0.551080 35.592408 -0.337884 1.555313 0.097990 -0.039040 16550.900000 0 0 1
-34.848527 12.384381 0.509080 36.987185 -0.341457 1.557032 0.092502 -0.026694 42893.000000 0 0 1
-36.066545 11.485281 0.809380 37.859773 -0.308294 1.549416 0.106433 -0.040247 -642321.000000 0 0 1
-36.417839 10.537481 -0.163420 37.912059 -0.281657 1.575107 0.109306 -0.026105 233429.000000 0 0 1
36.080489 9.998481 0.199180 37.440766 0.270332 1.565476 0.125423 -0.034096 305616.000000 0 0 1
35.549189 8.968481 -0.774820 36.671226 0.247127 1.591927 0.123666 -0.042757 71607.000000 0 0 1
35.095679 9.476881 -2.024920 36.409040 0.263740 1.626441 0.122169 -0.033570 39421.300000 0 0 1
34.668519 8.475881 -2.887320 35.806191 0.239780 1.651521 0.108968 -0.039368 10619.400000 0 0 1
34.115659 9.060481 -4.236520 35.551632 0.259589 1.690245 0.104083 -0.031898 572396.000000 0 0 1
32.728019 9.384981 -4.288720 34.316092 0.279263 1.696101 0.127399 -0.039201 442915.000000 0 0 1
32.378599 9.667081 -5.584120 34.249212 0.290139 1.734571 0.108525 -0.024140 241368.000000 0 0 1
30.921379 10.185581 -5.794420 33.067401 0.318209 1.746936 0.129714 -0.033037 631107.000000 0 0 1
29.930159 9.157481 -5.719520 31.818026 0.296917 1.751536 0.130227 -0.031970 502282.000000 0 0 1
28.644639 9.714481 -5.829920 30.803805 0.326965 1.761205 0.137491 -0.025569 -321692.000000 0 0 1
27.474939 8.731481 -5.966520 29.439945 0.307704 1.774878 0.160997 -0.024419 -378788.000000 0 0 1
27.539239 7.980081 -7.175020 29.556256 0.282046 1.816004 0.152877 -0.030604 690557.000000 0 0 1
26.426139 7.093281 -7.370220 28.336824 0.262238 1.833915 0.164197 -0.032034 338510.000000 0 0 1
26.562539 6.126281 -8.552220 28.569918 0.226672 1.874801 0.157823 -0.035862 128439.000000 0 0 1
27.556039 5.144981 -8.274220 29.227877 0.184584 1.857814 0.159609 -0.039087 603791.000000 0 0 1
27.437039 4.092181 -9.220420 29.232741 0.148057 1.891689 0.146791 -0.035984 -93241.900000 0 0 1
28.459339 2.930481 -9.019020 29.997740 0.102609 1.876177 0.142049 -0.031349 179212.000000 0 0 1
29.815379 3.317181 -9.218320 31.383720 0.110802 1.868922 0.168209 -0.022418 582545.000000 0 0 1
30.703039 2.904281 -8.209220 31.913989 0.094312 1.830950 0.146662 -0.031890 50899.000000 0 0 1
31.059349 1.334781 -8.030820 32.108548 0.042949 1.823595 0.151044 -0.036080 -270249.000000 0 0 1
29.904719 0.694081 -7.496220 30.837757 0.023206 1.816342 0.173198 -0.038374 580370.000000 0 0 1
30.050759 -0.696819 -7.121820 30.891001 -0.023184 1.803436 0.170851 -0.032277 -226165.000000 0 0 1
29.869059 -1.742719 -8.236420 31.032827 -0.058279 1.839425 0.164770 -0.025954 72011.300000 0 0 1
30.938649 -1.836119 -9.180720 32.324247 -0.059278 1.858780 0.154107 -0.026878 431881.000000 0 0 1
30.875759 -3.021219 -9.946220 32.578636 -0.097540 1.881049 0.132164 -0.035334 -732694.000000 0 0 1
31.975009 -3.116019 -10.962920 33.945491 -0.097145 1.899648 0.126170 -0.039509 -394823.000000 0 0 1
33.290749 -3.311919 -10.452920 35.050054 -0.099158 1.873632 0.154283 -0.039549 257826.000000 0 0 1
34.102009 -3.734419 -11.508820 36.184884 -0.109073 1.894475 0.140893 -0.046739 -25599.100000 0 0 1
35.605359 -3.975419 -11.221820 37.542972 -0.111192 1.874342 0.155597 -0.042042 157830.000000 0 0 1
35.727989 -5.064919 -10.342120 37.538008 -0.140825 1.849917 0.147648 -0.051091 -449573.000000 0 0 1
-36.683419 -5.193219 -10.061620 38.391131 0.140634 1.835975 0.151974 -0.044966 -781693.000000 0 0 1
-36.287999 -6.479119 -9.313220 38.020178 0.176685 1.818269 0.140896 -0.051810 -191140.000000 0 0 1
-36.696929 -6.484519 -7.950420 38.104104 0.174899 1.780991 0.158424 -0.047110 418860.000000 0 0 1
36.715929 -7.862219 -7.628820 38.315438 -0.210951 1.771242 0.140665 -0.036953 -174016.000000 0 0 1
36.281569 -8.131319 -6.207920 37.696271 -0.220474 1.736233 0.160874 -0.030933 -47708.700000 0 0 1
-36.362009 -7.992719 -5.337720 37.610777 0.216369 1.713197 0.134663 -0.029900 698876.000000 0 0 1
-36.438659 -8.755819 -4.145020 37.704395 0.235818 1.680954 0.157090 -0.031641 -229926.000000 0 0 1
-36.335119 -10.304319 -4.296220 38.011543 0.276336 1.684062 0.145639 -0.032865 240734.000000 0 0 1
36.271829 -10.800419 -4.977020 38.171525 -0.289404 1.701554 0.132332 -0.036175 766393.000000 0 0 1
36.620389 -11.919919 -5.800020 38.945829 -0.314684 1.720278 0.110856 -0.033156 -123267.000000 0 0 1
35.692389 -12.066219 -6.999220 38.321395 -0.326000 1.754473 0.101675 -0.033368 -252680.000000 0 0 1
35.942599 -11.067419 -7.953820 38.439842 -0.298706 1.779218 0.145406 -0.037943 143117.000000 0 0 1
35.603189 -11.466719 -9.219420 38.523634 -0.311580 1.812460 0.124510 -0.026482 -217892.000000 0 0 1
36.158419 -10.531319 -10.320220 39.049288 -0.283415 1.838261 0.102371 -0.025774 -118869.000000 0 0 1
35.404829 -9.361919 -10.511420 38.100359 -0.258508 1.850309 0.114585 -0.030888 191921.000000 0 0 1
35.701239 -8.892019 -11.787320 38.634018 -0.244101 1.880842 0.117792 -0.032031 -455373.000000 0 0 1
34.719229 -7.877519 -12.383720 37.693987 -0.223115 1.905546 0.126382 -0.039734 -259661.000000 0 0 1
34.991099 -7.511819 -13.704020 38.322377 -0.211468 1.936491 0.130538 -0.030123 325267.000000 0 0 1
34.026479 -6.542419 -13.996520 37.369868 -0.189956 1.954697 0.120541 -0.039050 22967.000000 0 0 1
34.521429 -5.721819 -15.205720 38.153403 -0.164254 1.980723 0.114347 -0.039032 -134733.000000 0 0 1
35.469869 -4.728419 -14.945220 38.779236 -0.132527 1.966429 0.120863 -0.032186 194609.000000 0 0 1
35.114459 -3.500019 -15.549420 38.562414 -0.099346 1.985837 0.149623 -0.039182 4221.940000 0 0 1
36.294459 -2.498719 -15.396620 39.504269 -0.068737 1.971152 0.146240 -0.046369 -632210.000000 0 0 1
-36.519789 -2.856419 -16.365420 40.120831 0.078057 1.990953 0.155239 -0.039453 1139750.000000 0 0 1
-35.243500 -2.133719 -16.315820 38.895540 0.060468 2.003666 0.133947 -0.030086 1289620.000000 0 0 1
-35.140386 -0.633119 -16.115620 38.664722 0.018015 2.000723 0.126604 -0.017786 -944142.000000 0 0 1
-35.700242 0.166781 -17.143820 39.603607 -0.004672 2.018487 0.116683 -0.015413 300841.000000 0 0 1
-35.322357 1.469681 -16.867620 39.170722 -0.041584 2.015974 0.111446 -0.021800 -148594.000000 0 0 1
-35.631118 2.529081 -17.910520 39.959474 -0.070861 2.035566 0.109750 -0.020137 -176010.000000 0 0 1
-34.980014 2.416681 -19.150520 39.952273 -0.068978 2.070693 0.084050 -0.008504 -23220.000000 0 0 1
-35.107081 3.518081 -20.003520 40.558906 -0.099877 2.086557 0.071699 -0.011133 -389617.000000 0 0 1
-34.086209 3.531081 -21.129120 40.258886 -0.103224 2.123313 0.065061 -0.003615 978310.000000 0 0 1
-32.742819 4.027081 -20.865020 39.034070 -0.122377 2.134752 0.072162 -0.007709 1528070.000000 0 0 1
-32.021999 4.400581 -22.055720 39.130913 -0.136568 2.169581 0.075170 -0.009718 1173700.000000 0 0 1
-30.530839 4.780881 -21.702520 37.762261 -0.155330 2.183052 0.072805 -0.013596 703704.000000 0 0 1
-29.733259 3.813681 -21.119720 36.669516 -0.127567 2.184559 0.075710 -0.010052 -352051.000000 0 0 1
-28.397229 3.857281 -21.560120 35.862515 -0.135007 2.215783 0.066314 -0.014796 -38267.500000 0 0 1
-27.549469 2.771981 -20.861920 34.668095 -0.100281 2.216501 0.093265 -0.017153 -162834.000000 0 0 1
-27.477459 3.081481 -19.442520 33.801152 -0.111679 2.183648 0.067255 0.001001 78974.600000 0 0 1
-26.798699 1.982081 -18.865920 32.833243 -0.073827 2.182909 0.070003 -0.010865 -783581.000000 0 0 1
-26.223909 2.311381 -17.477320 31.598934 -0.087913 2.156875 0.073987 -0.006056 -185082.000000 0 0 1
-25.050539 3.074781 -17.632720 30.787930 -0.122132 2.180611 0.074391 -0.009753 74644.500000 0 0 1
-24.323139 3.142681 -16.397920 29.502260 -0.128494 2.160144 0.088545 -0.016397 -48319.700000 0 0 1
-23.131739 4.117681 -16.440220 28.676009 -0.176165 2.181335 0.122990 -0.020878 66174.200000 0 0 1
-22.037239 3.623581 -17.217920 28.199770 -0.162972 2.227576 0.147384 -0.031003 356229.000000 0 0 1
-20.990839 4.564681 -17.015020 27.403696 -0.214127 2.240690 0.131886 -0.032588 776347.000000 0 0 1
-19.578539 4.115981 -17.554420 26.616126 -0.207212 2.291004 0.176049 -0.039640 909458.000000 0 0 1
-18.934539 3.082081 -16.831020 25.520565 -0.161360 2.290961 0.190945 -0.027955 547365.000000 0 0 1
-17.778139 2.499981 -17.435320 25.026037 -0.139705 2.341565 0.149060 -0.025963 -167049.000000 0 0 1
-17.605539 0.987281 -17.043120 24.523411 -0.056019 2.339179 0.154536 -0.023606 546046.000000 0 1 0
-18.510439 -0.046719 -17.521820 25.488286 0.002524 2.328763 0.134534 -0.025453 930387.000000 0 0 1
-19.887239 0.217481 -17.278420 26.345652 -0.010935 2.286085 0.141792 -0.035229 92475.300000 0 0 1
-20.904239 -0.844819 -17.747320 27.434801 0.040392 2.274296 0.118988 -0.033937 -4209.960000 0 0 1
-21.161139 -1.863319 -16.772020 27.065964 0.087827 2.239121 0.119825 -0.027045 87322.800000 0 0 1
-22.036339 -2.836919 -17.230720 28.116651 0.128034 2.230433 0.093632 -0.016988 -395396.000000 0 0 1
-22.289139 -4.124219 -16.350620 27.949198 0.182963 2.195691 0.112474 -0.020689 -14408.300000 0 0 1
-22.982339 -3.748819 -15.171720 27.792493 0.161693 2.148251 0.106266 -0.021934 449983.000000 0 0 1
-23.564239 -4.851819 -14.504320 28.092505 0.203060 2.113328 0.123831 -0.026042 -5116.030000 0 0 1
-23.784739 -4.524119 -12.973120 27.467860 0.187966 2.062697 0.122387 -0.033510 -222526.000000 0 0 1
-24.553239 -3.356819 -12.864820 27.921916 0.135874 2.049628 0.092334 -0.031980 217817.000000 0 0 1
-24.546939 -2.896219 -11.565520 27.289221 0.117444 2.008447 0.114268 -0.045111 53344.600000 0 0 1
-25.452139 -1.629519 -11.313520 27.900940 0.063936 1.988310 0.133074 -0.045815 38030.200000 0 0 1
-25.526539 -1.294819 -9.962920 27.432472 0.050681 1.942475 0.133795 -0.049195 495305.000000 0 0 1
-26.157479 -0.056119 -9.710120 27.901672 0.002145 1.926246 0.139328 -0.051065 -309549.000000 0 0 1
-26.381479 0.246081 -8.228120 27.635936 -0.009328 1.873113 0.146364 -0.044238 -83148.900000 0 0 1
-25.229439 0.505581 -7.448620 26.310875 -0.020037 1.857822 0.127918 -0.042257 369106.000000 0 0 1
-25.688689 0.809881 -6.173420 26.432476 -0.031516 1.806528 0.132994 -0.042561 770077.000000 0 0 1
-24.521439 1.252181 -5.191220 25.096169 -0.051020 1.779154 0.095028 -0.028124 531960.000000 0 0 1
-24.270239 2.614781 -5.350520 24.990191 -0.107322 1.786572 0.113747 -0.032810 262484.000000 0 1 0
-22.902339 2.857281 -5.100720 23.636805 -0.124118 1.788303 0.092207 -0.014115 -36220.400000 0 1 0
-22.509339 4.394981 -5.199920 23.516491 -0.192825 1.793757 0.108238 -0.023135 -289275.000000 0 1 0
-22.968439 5.313181 -4.240920 23.953381 -0.227327 1.748784 0.110014 -0.026011 544566.000000 0 1 0
-22.663039 6.680481 -4.554220 24.062067 -0.286656 1.761215 0.112895 -0.029714 -621867.000000 0 1 0
-23.145239 7.675081 -3.462220 24.629168 -0.320194 1.711837 0.107064 -0.022491 -388907.000000 0 1 0
-22.406639 7.615981 -2.255120 23.772804 -0.327647 1.665801 0.093994 -0.023136 617233.000000 0 1 0
-21.028539 7.930781 -2.285320 22.590251 -0.360649 1.672134 0.103399 -0.025159 -242864.000000 0 1 0
-20.649839 9.419481 -2.499620 22.833978 -0.427959 1.680485 0.097232 -0.024582 -702536.000000 0 1 0
-20.662839 9.658381 -3.892020 23.138389 -0.437252 1.739806 0.091425 -0.026956 513111.000000 0 1 0
-20.136839 10.958681 -4.047720 23.280228 -0.498387 1.745554 0.099814 -0.022848 -223689.000000 0 1 0
-20.034839 11.457981 -5.494720 23.724925 -0.519504 1.804520 0.099318 -0.027617 -143039.000000 0 1 0
-18.870839 10.923381 -6.083320 22.637040 -0.524723 1.842874 0.072933 -0.029662 108157.000000 0 1 0
-18.736439 11.502081 -7.425620 23.205427 -0.550569 1.896521 0.071914 -0.025803 431135.000000 0 1 0
-17.474939 11.007781 -8.199220 22.220980 -0.562128 1.948714 0.066979 -0.020743 246516.000000 0 1 0
-17.415839 9.608481 -8.505120 21.632647 -0.504155 1.974864 0.073480 -0.018896 426473.000000 0 1 0
-18.360539 9.128281 -9.483320 22.591332 -0.461380 2.003996 0.088085 -0.013467 237984.000000 0 1 0
-18.267239 9.765681 -10.903920 23.408460 -0.490944 2.055347 0.091411 -0.009107 684558.000000 0 1 0
-17.091539 9.450981 -11.686320 22.759873 -0.505115 2.110010 0.090887 -0.008539 731567.000000 0 1 0
-17.026339 10.326081 -12.774520 23.658244 -0.545168 2.141187 0.087563 -0.015814 160012.000000 0 1 0
-15.896339 9.953581 -13.772020 23.268775 -0.559430 2.204169 0.072201 -0.011209 50783.200000 0 1 0
-15.985139 8.750781 -14.536020 23.310871 -0.500870 2.244101 0.089083 -0.022227 99421.700000 0 1 0
-15.704839 7.543781 -13.797620 22.224422 -0.447802 2.240599 0.080427 -0.016922 -154708.000000 0 1 0
-15.780939 6.327081 -14.762220 22.516508 -0.381309 2.285797 0.094352 -0.012980 146219.000000 0 1 0
-14.688139 6.197481 -15.664420 22.350039 -0.399274 2.347410 0.098598 -0.017935 388705.000000 0 1 0
-14.644439 4.921681 -16.297420 22.456367 -0.324219 2.382902 0.086913 -0.017964 23079.800000 0 1 0
32.742789 -15.969319 27.797937 45.823953 -0.453776 0.918989 0.038064 -0.000224 -304379.000000 0 0 1
32.314519 -14.703319 28.212007 45.346808 -0.427010 0.899325 0.049518 -0.007076 -238138.000000 0 0 1
31.194439 -14.731919 29.064267 45.109356 -0.441211 0.870680 0.065828 -0.016676 -68763.700000 0 0 1
31.435239 -14.858119 30.592347 46.312305 -0.441536 0.849224 0.062412 -0.025965 -148712.000000 0 0 1
32.040039 -13.723619 31.146137 46.743808 -0.404685 0.841539 0.043656 -0.023082 -39088.000000 0 0 1
32.335569 -13.839319 32.511730 47.897060 -0.404401 0.824692 0.023389 -0.023544 -254606.000000 0 0 1
32.522109 -12.425019 33.100086 48.038363 -0.364936 0.810640 0.047887 -0.024148 -171061.000000 0 0 1
32.351559 -12.305519 -33.555320 48.207973 -0.363469 2.340682 0.021784 -0.032725 151885.000000 0 0 1
32.442579 -10.954919 -33.218670 47.707559 -0.325649 2.341023 0.049212 -0.023899 -117243.000000 0 0 1
32.145769 -10.637419 -31.745490 46.414236 -0.319570 2.323974 0.047843 -0.021550 393958.000000 0 0 1
30.785019 -10.934419 -31.449380 45.346912 -0.341288 2.337172 0.092406 -0.025827 484316.000000 0 0 1
30.341619 -10.361619 -30.231740 44.067393 -0.329081 2.326821 0.064046 -0.017284 -965063.000000 0 0 1
29.069649 -10.949919 -29.692910 42.972248 -0.360242 2.333638 0.068088 -0.021966 -904119.000000 0 0 1
28.772769 -10.417419 -28.390240 41.742072 -0.347377 2.318743 0.057339 -0.016196 907416.000000 0 0 1
27.763339 -11.223619 -27.717290 40.804666 -0.384174 2.317561 0.098693 -0.020356 -483026.000000 0 0 1
27.201839 -10.736119 -26.388610 39.389885 -0.375915 2.304916 0.083357 -0.014921 -812574.000000 0 0 1
26.366839 -9.537619 -26.377500 38.496089 -0.347084 2.325674 0.069759 -0.015241 1435950.000000 0 0 1
25.197639 -9.569319 -27.216380 38.304363 -0.362946 2.361047 0.079613 -0.022334 641075.000000 0 0 1
24.126339 -10.699519 -27.009970 37.763718 -0.417418 2.367758 0.087084 -0.011014 -542153.000000 0 0 1
24.689939 -11.982619 -27.329080 38.730542 -0.451838 2.354095 0.078707 -0.017356 32987.500000 0 0 1
23.760639 -13.040419 -27.173360 38.379838 -0.501940 2.357475 0.094990 -0.025372 274262.000000 0 0 1
24.340239 -14.262219 -27.901180 39.677878 -0.530026 2.350674 0.090344 -0.014111 245436.000000 0 0 1
24.600739 -14.016519 -29.256160 40.713414 -0.517887 2.372566 0.094417 -0.022789 -77859.900000 0 0 1
25.360939 -15.026319 -29.798190 41.915386 -0.534885 2.361592 0.085931 -0.018152 -659962.000000 0 0 1
25.540539 -14.954419 -31.355090 43.117229 -0.529702 2.385038 0.109520 -0.030803 -752539.000000 0 0 1
24.416839 -15.467419 -31.981470 43.107279 -0.564669 2.406702 0.123439 -0.031298 -492362.000000 0 0 1
24.382039 -15.792219 -33.362350 44.237138 -0.574756 2.425187 0.128555 -0.031990 72786.500000 0 0 1
24.667039 -14.595119 33.666160 44.214145 -0.534283 0.705274 0.103468 -0.033047 -396428.000000 0 0 1
23.546639 -13.805219 33.719087 43.382082 -0.530280 0.680500 0.117824 -0.030160 -600691.000000 0 0 1
23.707139 -12.737019 32.809348 42.434813 -0.493013 0.686971 0.114861 -0.030303 -335507.000000 0 0 1
22.682439 -11.561019 32.948438 41.638320 -0.471370 0.657863 0.111432 -0.030962 1234920.000000 0 0 1
21.296239 -11.912119 32.780369 40.865400 -0.509996 0.639901 0.097930 -0.026725 1070010.000000 0 0 1
20.902039 -12.325019 31.475087 39.742702 -0.532779 0.656765 0.096565 -0.016722 -1094450.000000 0 0 1
19.394639 -12.618619 31.370747 38.980833 -0.576814 0.635502 0.095234 -0.010498 19843.700000 0 0 1
18.636239 -11.425119 31.220807 38.112747 -0.549967 0.610835 0.070240 -0.012678 -1228720.000000 0 0 1
17.534539 -11.481819 32.010707 38.261960 -0.579750 0.579713 0.044106 -0.001868 -1172470.000000 0 0 1
16.720839 -10.201219 32.182784 37.674698 -0.547806 0.546732 0.044578 0.001992 -773445.000000 0 0 1
15.893639 -9.843919 31.126937 36.309733 -0.554535 0.540869 0.068856 -0.002675 976131.000000 0 0 1
14.918339 -8.736919 31.280097 35.739824 -0.529801 0.504912 0.071256 0.002403 1834070.000000 0 0 1
13.869839 -8.865319 32.434498 36.372558 -0.568731 0.469643 0.074698 -0.003816 -750903.000000 0 0 1
12.901239 -9.896319 32.388689 36.240947 -0.654345 0.465262 0.072968 -0.008618 306374.000000 0 0 1
11.806539 -9.807119 33.261627 36.632086 -0.693153 0.432331 0.066655 -0.008171 409214.000000 0 0 1
10.696039 -8.792219 32.809029 35.610964 -0.688017 0.399339 0.062524 -0.010770 -703696.000000 0 0 1
10.945539 -7.418119 32.882215 35.441125 -0.595623 0.382329 0.074802 -0.010448 367674.000000 0 0 1
9.797039 -6.708419 32.411388 34.517864 -0.600410 0.351160 0.070033 -0.012643 361429.000000 0 0 1
10.054939 -5.269619 32.115392 34.062722 -0.482728 0.339771 0.073348 -0.013337 -10542.300000 0 0 1
10.025739 -4.520119 33.303235 35.072102 -0.423562 0.318951 0.060670 -0.018786 180647.000000 0 0 1
10.436139 -3.205219 33.035435 34.792620 -0.297982 0.319172 0.053394 -0.014006 -193802.000000 0 0 1
10.335339 -2.199419 -33.781900 35.395952 -0.209678 2.838440 0.050010 -0.007329 -910398.000000 0 0 1
9.023239 -1.990119 -33.399660 34.654245 -0.217080 2.871691 0.048853 -0.003017 -850334.000000 0 0 1
8.825539 -1.258119 -32.257400 33.466593 -0.141600 2.871959 0.047114 0.000077 -415886.000000 0 0 1
7.318639 -1.129719 -32.016680 32.861932 -0.153153 2.914294 0.042883 0.000049 -442692.000000 0 0 1
6.755039 -0.191019 -32.892300 33.579316 -0.028271 2.938962 0.060142 -0.002919 -206999.000000 0 0 1
5.412139 0.122781 -32.615880 33.062092 0.022682 2.977114 0.065059 -0.001798 23509.000000 0 0 1
4.808739 1.314281 -33.400520 33.770491 0.266795 2.993434 0.070912 -0.009543 90231.200000 0 0 1
5.431839 2.555381 -33.125200 33.664725 0.439725 2.962320 0.055454 -0.012206 82462.300000 0 0 1
4.810439 3.527281 -33.991760 34.511184 0.632698 2.967876 0.068516 -0.012671 131366.000000 0 0 1
5.503739 4.873481 -34.011984 34.797371 0.724738 2.928728 0.063284 -0.016461 -28866.300000 0 0 1
5.121939 5.634281 32.938316 33.806982 0.832994 0.227181 0.084973 -0.040777 102060.000000 0 0 1
6.119739 6.627681 32.816530 34.033836 0.825224 0.268264 0.081532 -0.038583 22523.400000 0 0 1
5.790639 7.604381 31.722567 33.131244 0.919984 0.292653 0.102850 -0.038089 -332748.000000 0 0 1
4.645139 8.290681 32.184341 33.558076 1.060092 0.287118 0.107998 -0.034244 249143.000000 0 0 1
4.143239 9.462981 31.447967 33.101194 1.158103 0.317383 0.115194 -0.043084 202481.000000 0 0 1
3.603639 9.149781 30.013647 31.583598 1.195603 0.316623 0.105978 -0.041610 80601.000000 0 0 1
2.337539 8.526881 29.866937 31.148125 1.303232 0.287810 0.102020 -0.037411 100091.000000 0 0 1
1.963439 8.153181 28.563917 29.769561 1.334477 0.285572 0.062585 -0.015526 -801686.000000 0 0 1
0.555339 7.634781 28.385897 29.399956 1.498186 0.263408 0.071420 -0.016959 -625028.000000 0 0 1
-0.455161 8.614581 28.550687 29.825490 -1.518009 0.293428 0.085006 -0.012750 -774947.000000 0 0 1
-1.511261 8.341981 27.707157 28.975146 -1.391577 0.296932 0.080479 -0.008853 -933900.000000 0 0 1
-2.907761 8.528681 28.280687 29.681488 -1.242216 0.308449 0.077887 -0.008837 -572951.000000 0 0 1
-3.310961 9.859781 28.284247 30.135964 -1.246823 0.352378 0.080438 -0.007374 776652.000000 0 0 1
-4.512161 10.023981 29.085417 31.093428 -1.147829 0.361351 0.072231 0.000132 854449.000000 0 0 1
-4.754361 11.504181 29.559927 32.073968 -1.178901 0.398569 0.057748 -0.002779 26827.300000 0 0 1
-4.874961 12.635981 28.655747 31.695190 -1.202591 0.441518 0.053677 -0.006762 341239.000000 0 0 1
-6.067961 12.629981 27.885347 31.207838 -1.122918 0.465635 0.041981 -0.011560 155746.000000 0 0 1
-6.328961 14.034781 27.330327 31.368417 -1.147154 0.513015 0.029485 -0.005622 -34002.400000 0 0 1
-5.346361 14.449981 26.413927 30.579095 -1.216424 0.528052 0.034671 -0.001388 -152705.000000 0 0 1
-5.460561 15.840781 26.188357 31.089839 -1.238837 0.569177 0.031316 -0.002798 -289655.000000 0 0 1
-4.216461 16.443581 25.531897 30.660196 -1.319785 0.586762 0.051067 -0.007002 -361136.000000 0 0 1
-4.034161 16.001881 24.180627 29.275200 -1.323837 0.598864 0.044144 -0.003813 75215.800000 0 0 1
-3.110661 16.894281 23.553357 29.152248 -1.388711 0.630143 0.061364 -0.001433 260768.000000 0 0 1
-2.840561 16.486081 22.094077 27.712955 -1.400171 0.648075 0.051544 -0.003138 -245242.000000 0 0 1
-2.093661 15.375881 21.755877 26.723011 -1.435463 0.619575 0.049465 -0.008130 -211024.000000 0 0 1
-1.827761 15.255081 20.369177 25.513948 -1.451551 0.646239 0.037130 -0.006635 326991.000000 0 0 1
-1.046061 13.971981 19.963977 24.389974 -1.496067 0.611945 0.040316 -0.012376 738726.000000 0 1 0
-1.893361 12.761781 19.986077 23.788466 -1.423509 0.573221 0.040003 -0.012656 777133.000000 0 1 0
-1.339161 11.736181 19.192177 22.535992 -1.457182 0.551722 0.029463 -0.015546 -286061.000000 0 1 0
-2.316261 10.543781 18.901277 21.766824 -1.354551 0.518926 0.029598 -0.020269 -515417.000000 0 1 0
-2.435861 9.604881 19.982577 22.304496 -1.322426 0.460345 0.048745 -0.025158 689514.000000 0 1 0
-3.466561 9.955381 20.928077 23.433119 -1.235717 0.466610 0.063781 -0.015931 1294920.000000 0 1 0
-4.986861 9.769181 20.578277 23.318901 -1.098809 0.489704 0.059763 -0.015624 708968.000000 0 1 0
-5.516161 8.437581 20.727977 23.049291 -0.991782 0.452655 0.043770 -0.022959 196371.000000 0 1 0
-6.924561 8.447781 20.841077 23.530088 -0.884164 0.482753 0.044155 -0.015914 128565.000000 0 1 0
-7.636461 7.105381 20.972277 23.423031 -0.749388 0.461535 0.044332 -0.010181 -149603.000000 0 1 0
-7.734961 6.610781 22.272477 24.486634 -0.707195 0.428532 0.039933 -0.002603 121407.000000 0 1 0
-8.269561 5.294581 22.345277 24.407573 -0.569490 0.414033 0.042040 -0.008181 115964.000000 0 1 0
-8.448061 4.631381 23.718647 25.600657 -0.501474 0.385831 0.042375 -0.010100 135069.000000 0 0 1
-9.290161 5.330581 24.629147 26.857346 -0.520923 0.410213 0.010428 -0.002998 330997.000000 0 0 1
-9.300761 4.710081 25.897917 27.917577 -0.468769 0.382709 0.012156 0.003943 -12372.200000 0 0 1
-10.212361 5.384581 26.945377 29.314491 -0.485218 0.404796 0.018823 0.004359 -113717.000000 0 0 1
-9.564261 6.487481 27.542267 29.868695 -0.596016 0.397294 0.023691 0.000303 185869.000000 0 0 1
-10.352361 7.248781 28.487717 31.165144 -0.610864 0.417541 0.021032 0.004054 111481.000000 0 0 1
-9.563961 8.337081 29.264317 31.896340 -0.716968 0.409093 0.041614 0.002452 311285.000000 0 0 1
-8.561761 7.753081 30.097127 32.237417 -0.735872 0.366441 0.049641 -0.001043 299747.000000 0 0 1
-8.165661 8.557381 31.219507 33.385092 -0.808818 0.362162 0.062275 -0.010019 219771.000000 0 0 1
-7.032461 7.975181 32.100249 33.815455 -0.848132 0.319866 0.093017 -0.015132 1234290.000000 0 0 1
-5.689161 8.052781 31.589337 33.092296 -0.955732 0.302540 0.089198 -0.015295 765403.000000 0 0 1
-4.730261 7.342181 32.366839 33.524547 -0.998468 0.263567 0.103420 -0.016775 477511.000000 0 0 1
-3.292661 7.498081 31.828847 32.865458 -1.157015 0.251826 0.086770 -0.014162 191128.000000 0 0 1
-2.830561 8.823081 31.886887 33.205909 -1.260356 0.282801 0.083201 -0.013632 52280.900000 0 0 1
-1.442161 9.011581 31.627847 32.918218 -1.412108 0.280920 0.085020 -0.017023 662115.000000 0 0 1
-1.080461 10.457781 31.298137 33.016752 -1.467845 0.324070 0.082563 -0.015199 2994.610000 0 0 1
-1.363461 11.353381 32.389113 34.348405 -1.451276 0.339389 0.084650 -0.026184 28872.400000 0 0 1
-1.800961 12.618881 31.946507 34.395623 -1.429034 0.379647 0.076378 -0.030146 -1853.140000 0 0 1
-2.012061 13.550681 33.158225 35.876694 -1.423389 0.391789 0.073548 -0.032761 -980959.000000 0 0 1
-0.821761 14.133581 33.557905 36.422059 -1.512719 0.399226 0.112369 -0.035743 -867597.000000 0 0 1
-0.890661 14.837481 -33.285760 36.453888 -1.510840 2.721601 0.102555 -0.042592 -757048.000000 0 0 1
0.456339 15.206581 -32.712850 36.077402 1.540796 2.706286 0.091747 -0.040094 -1064340.000000 0 0 1
1.180039 16.145681 -33.455820 37.166751 1.497839 2.690921 0.104310 -0.046554 -1697310.000000 0 0 1
2.471239 16.087081 -33.033870 36.825776 1.418372 2.683802 0.120807 -0.043318 -1680280.000000 0 0 1
3.313539 17.016481 -33.909940 38.084435 1.378478 2.668994 0.133185 -0.036206 -246985.000000 0 0 1
3.041539 18.357781 -33.540770 38.356777 1.406607 2.635080 0.110421 -0.028559 -207555.000000 0 0 1
3.837239 19.229181 33.744361 39.027781 1.373831 0.526395 0.086375 -0.009758 -57273.300000 0 0 1
3.455039 20.730081 33.704820 39.720126 1.405646 0.557543 0.091018 -0.019023 -34336.400000 0 0 1
3.718839 21.328681 -33.081770 39.536640 1.398173 2.562093 0.108030 -0.047937 105810.000000 0 0 1
3.393839 22.666581 -33.041170 40.212075 1.422172 2.535136 0.099123 -0.041772 69254.100000 0 0 1
3.673239 23.297381 -31.655690 39.475858 1.414416 2.501265 0.109793 -0.042982 139239.000000 0 0 1
3.165939 24.623281 -31.709700 40.272003 1.442923 2.477357 0.115092 -0.050918 251976.000000 0 0 1
2.948139 25.077281 -30.363910 39.490867 1.453771 2.447891 0.119824 -0.055064 -103127.000000 0 0 1
2.462039 26.523881 -30.194990 40.265560 1.478238 2.418701 0.120193 -0.056983 -185048.000000 0 0 1
3.452839 27.490181 -30.419730 41.145985 1.445848 2.402845 0.123032 -0.056995 -66887.800000 0 0 1
3.049439 28.762881 -29.977770 41.656561 1.465171 2.374082 0.113342 -0.055091 -515917.000000 0 0 1
4.183439 29.810081 -29.908150 42.433943 1.431370 2.352961 0.121169 -0.063695 115395.000000 0 0 1
5.110439 29.471081 -28.876570 41.575443 1.399098 2.338602 0.122243 -0.072919 60031.200000 0 0 1
5.819039 30.611381 -28.432790 42.182240 1.382944 2.310469 0.120651 -0.070088 -117195.000000 0 0 1
6.905439 30.244081 -27.393470 41.385888 1.346321 2.294152 0.136828 -0.066979 -109037.000000 0 0 1
8.113839 29.585181 -27.723150 41.348402 1.303124 2.305648 0.134618 -0.061300 823740.000000 0 0 1
9.306039 30.360981 -27.604630 42.076206 1.273375 2.286386 0.137196 -0.063298 393906.000000 0 0 1
9.523039 31.590681 -28.518580 43.611567 1.278009 2.283554 0.147560 -0.072615 -1264870.000000 0 0 1
8.849939 32.728481 -28.059860 44.009438 1.306707 2.262159 0.142938 -0.062552 139417.000000 0 0 1
8.824039 33.836181 -28.939320 45.389812 1.315691 2.262140 0.121694 -0.054813 -206719.000000 0 0 1
7.659739 33.793681 -29.962860 45.808923 1.347901 2.283767 0.095571 -0.036132 -181257.000000 0 0 1
7.886539 33.005781 -31.124150 46.046626 1.336250 2.313018 0.084132 -0.035618 -282112.000000 0 0 1
6.682839 32.432281 -31.569240 45.750739 1.367585 2.332323 0.057284 -0.027408 -293647.000000 0 0 1
6.716839 31.721481 -32.884370 46.181707 1.362134 2.363231 0.069138 -0.044797 -162714.000000 0 0 1
6.567039 32.642481 -33.927390 47.536569 1.372266 2.365579 0.064288 -0.028638 142207.000000 0 0 1
6.275239 31.996881 32.852606 46.286852 1.377134 0.781637 0.057590 -0.016700 -135049.000000 0 0 1
5.690739 32.879181 31.708617 46.031092 1.399414 0.810892 0.045025 -0.012101 259988.000000 0 0 1
6.593239 33.933781 31.389747 46.693559 1.378890 0.833552 0.043608 -0.010080 256355.000000 0 0 1
6.080539 -33.331970 30.377077 45.505603 -1.390357 0.839889 0.025161 -0.011257 164990.000000 0 0 1
17.964061 -22.003419 29.422597 40.896786 -0.886122 0.767807 0.095720 -0.007114 -6593.260000 0 0 1
16.847261 -21.129219 29.576057 40.062666 -0.897677 0.740332 0.083746 -0.001870 560333.000000 0 0 1
15.561261 -21.725219 29.629197 39.900217 -0.949230 0.733879 0.090100 -0.001809 327578.000000 0 0 1
15.144061 -22.183319 31.012517 41.027045 -0.971791 0.713762 0.093196 -0.013100 -656460.000000 0 0 1
15.923861 -23.281119 31.469067 42.259697 -0.970902 0.730772 0.111902 -0.022022 276727.000000 0 0 1
15.694861 -23.317919 32.844269 43.229620 -0.978366 0.707848 0.106522 -0.027569 133943.000000 0 0 1
16.568561 -24.287919 33.688782 44.714139 -0.972135 0.717540 0.122336 -0.033149 167395.000000 0 0 1
16.347061 -25.615769 33.346398 45.115145 -1.002787 0.739004 0.114763 -0.042243 -474291.000000 0 0 1
17.358061 -26.348989 33.946232 46.345638 -0.988277 0.748871 0.115350 -0.042200 -178230.000000 0 0 1
17.047061 -27.903099 33.985699 47.161562 -1.022373 0.766096 0.098496 -0.022984 239159.000000 0 0 1
17.233561 -28.537899 32.701825 46.699215 -1.027526 0.795028 0.082493 -0.024469 -52006.600000 0 0 1
16.872261 -29.842089 32.768805 47.423813 -1.056218 0.807955 0.098458 -0.031699 -108272.000000 0 0 1
17.383961 -30.580289 31.521147 47.232816 -1.053884 0.840142 0.089706 -0.032785 -1163000.000000 0 0 1
18.665361 -31.022639 31.636387 48.079734 -1.029151 0.852639 0.082528 -0.035062 -1511610.000000 0 0 1
19.184361 -31.382559 30.398777 47.717820 -1.022105 0.880127 0.054387 -0.022705 413793.000000 0 0 1
20.562861 -32.132289 30.423077 48.794250 -1.001523 0.897588 0.028632 -0.023470 383206.000000 0 0 1
21.682261 -31.322699 30.684317 48.915838 -0.965310 0.892730 0.029887 -0.027442 360262.000000 0 0 1
22.864061 -32.139909 30.772807 50.027040 -0.952466 0.908254 0.037159 -0.029271 746931.000000 0 0 1
24.107461 -31.289769 31.183437 50.325203 -0.914330 0.902514 0.036537 -0.038508 236269.000000 0 0 1
24.616561 -30.489999 30.103877 49.415165 -0.891581 0.915741 0.033047 -0.027429 -389797.000000 0 0 1
25.414061 -29.455679 30.578127 49.482657 -0.858924 0.904656 0.017832 -0.020521 -242421.000000 0 0 1
26.600761 -29.179049 29.628687 49.364729 -0.831588 0.927046 0.026474 -0.014334 49526.700000 0 0 1
27.635361 -30.155979 29.758897 50.583477 -0.828986 0.941826 0.036607 -0.012049 94318.200000 0 0 1
28.570561 -30.047489 28.698487 50.425506 -0.810589 0.965353 0.033560 -0.029286 545940.000000 0 0 1
29.904261 -30.806009 28.958007 51.786496 -0.800250 0.977399 0.046132 -0.013692 481668.000000 0 0 1
29.597361 -32.242509 28.962427 52.482429 -0.828146 0.986215 0.041371 -0.019764 544430.000000 0 0 1
30.700061 -32.999179 29.440027 53.834513 -0.821476 0.992185 0.059598 -0.022027 -163145.000000 0 0 1
30.161561 33.663072 29.702077 54.084522 0.840205 0.989415 0.047867 -0.013525 350732.000000 0 0 1
29.501361 33.455980 30.980067 54.308355 0.848130 0.963746 0.043047 -0.009849 1206910.000000 0 0 1
28.330261 -33.887439 31.362477 54.171645 -0.874480 0.953360 0.025554 -0.001500 804399.000000 0 0 1
27.033361 33.918012 30.590777 53.075699 0.897875 0.956527 0.029227 -0.008607 -217764.000000 0 0 1
26.387861 32.663680 30.863647 52.113337 0.891278 0.936959 0.028299 -0.003230 -338261.000000 0 0 1
25.186561 32.604202 30.150417 51.053349 0.913054 0.939035 0.013824 0.000016 140823.000000 0 0 1
24.444061 31.227481 30.285787 49.898863 0.906648 0.918587 0.016190 -0.005003 55499.400000 0 0 1
24.917461 30.379521 29.288167 49.006039 0.883856 0.930237 0.022884 -0.012323 299112.000000 0 0 1
24.305961 29.090821 29.446167 48.001379 0.874769 0.910382 0.068832 -0.035697 43700.000000 0 0 1
23.595161 28.561421 28.207437 46.563353 0.880330 0.920043 0.070381 -0.038383 -13413.800000 0 0 1
22.410961 29.227711 27.822527 46.158458 0.916648 0.923839 0.082446 -0.041186 25154.200000 0 0 1
21.842161 28.616291 26.690177 44.814480 0.918852 0.932821 0.088120 -0.035141 187898.000000 0 0 1
20.570861 29.254871 26.084787 44.265380 0.957953 0.940627 0.111269 -0.034014 71488.000000 0 0 1
20.777161 30.582191 25.609207 44.975463 0.974039 0.965016 0.087743 -0.036619 488951.000000 0 0 1
19.532261 31.113011 25.149757 44.520096 1.010197 0.970475 0.091567 -0.039455 256854.000000 0 0 1
19.623361 32.591524 24.694037 45.355035 1.028834 0.995050 0.102862 -0.037743 -12782.000000 0 0 1
20.159961 32.726219 23.389357 44.994349 1.018682 1.024146 0.109082 -0.031674 -487557.000000 0 0 1
21.505861 33.097450 23.375717 45.873384 0.994580 1.036111 0.090330 -0.023097 -471724.000000 0 0 1
22.045861 33.320963 21.919077 45.571400 0.986295 1.069021 0.083156 -0.022427 -28965.900000 0 0 1
21.792361 -33.482009 21.491677 45.363467 -0.993811 1.077234 0.095039 -0.007697 181058.000000 0 0 1
22.194861 -33.275079 20.143077 44.783773 -0.982555 1.104272 0.094134 -0.011666 176697.000000 0 0 1
21.667361 -31.897689 19.531177 43.225039 -0.974114 1.101960 0.076904 -0.008556 98616.200000 0 0 1
22.315461 -30.786939 20.181077 43.047547 -0.943596 1.082854 0.072316 -0.001579 235709.000000 0 0 1
21.994161 -29.459869 19.720077 41.719401 -0.929487 1.078463 0.083772 -0.004151 -226324.000000 0 0 1
22.610261 -29.003659 18.394977 41.119476 -0.908640 1.106991 0.070520 -0.006763 -365293.000000 0 0 1
22.140261 -29.745239 17.318277 40.925458 -0.930934 1.133859 0.056363 -0.013978 118255.000000 0 0 1
22.577861 -28.991149 16.212777 40.163425 -0.909126 1.155271 0.059081 -0.018299 -129588.000000 0 0 1
22.059461 -29.565109 14.816277 39.752202 -0.929776 1.188862 0.064686 -0.025087 26463.000000 0 0 1
22.796961 -30.717219 14.457277 40.893298 -0.932334 1.209447 0.068611 -0.015224 44808.600000 0 0 1
22.691561 -31.087119 13.093277 40.654026 -0.940261 1.242885 0.067746 -0.022066 153250.000000 0 0 1
21.311061 -31.404579 12.413877 39.931357 -0.974580 1.254677 0.073512 -0.016294 202359.000000 0 0 1
20.616161 -32.521359 12.963077 40.628885 -1.005803 1.246058 0.075281 -0.015824 179201.000000 0 0 1
19.518661 -32.860759 12.118177 40.095609 -1.034814 1.263763 0.064499 -0.007023 117157.000000 0 0 1
18.487961 -33.744529 12.837777 40.562378 -1.069582 1.248764 0.061124 0.000316 -142010.000000 0 0 1
17.904961 -33.200139 14.016577 40.240543 -1.076202 1.215018 0.059872 -0.002542 279302.000000 0 0 1
18.618861 -33.483989 15.237477 41.231301 -1.063318 1.192260 0.047626 -0.003307 -440479.000000 0 0 1
18.325261 -32.526429 16.417777 40.783908 -1.057726 1.156490 0.053358 -0.005201 -421937.000000 0 0 1
17.031961 -32.309299 16.888577 40.239316 -1.085663 1.137678 0.074093 -0.007739 -856407.000000 0 0 1
16.300061 -33.360359 17.436777 41.020077 -1.116306 1.131747 0.074839 -0.002503 -665305.000000 0 0 1
16.801361 -33.975889 18.757277 42.290451 -1.111552 1.111258 0.069643 -0.016369 -84836.900000 0 0 1
17.781561 33.138147 18.507977 41.914984 1.078308 1.113460 0.060984 -0.012642 224731.000000 0 0 1
18.314261 32.563777 19.728577 42.249597 1.058474 1.084954 0.054982 -0.020002 403794.000000 0 0 1
19.271761 31.423181 19.374677 41.643669 1.020657 1.086880 0.068818 -0.026176 16755.400000 0 0 1
18.525261 30.239861 19.095777 40.277577 1.021156 1.076850 0.057418 -0.029890 -57095.900000 0 0 1
19.328861 29.188931 18.674377 39.677839 0.985894 1.080769 0.056358 -0.035807 -66467.100000 0 0 1
18.527261 27.859371 18.490777 38.227121 0.983929 1.065910 0.060564 -0.034043 93334.400000 0 0 1
18.080761 27.304611 19.702177 38.218209 0.985901 1.029184 0.067764 -0.038039 25286.800000 0 0 1
17.609961 25.971031 19.508077 36.948210 0.974946 1.014571 0.068491 -0.036222 -550404.000000 0 0 1
17.271661 25.158751 20.752477 36.904449 0.969184 0.973596 0.070456 -0.028177 -575767.000000 0 0 1
16.084161 25.423361 21.433377 36.938289 1.006713 0.951763 0.069646 -0.021203 -323579.000000 0 0 1
15.059161 24.548131 20.992877 35.638321 1.020543 0.940909 0.077940 -0.025722 -254409.000000 0 0 1
13.688161 24.843881 21.624377 35.667883 1.067211 0.919434 0.079955 -0.036175 -196849.000000 0 0 1
13.205961 26.141551 21.399677 36.272914 1.103020 0.939783 0.090294 -0.036300 -1208660.000000 0 0 1
11.893961 26.214171 21.827277 36.125878 1.144851 0.922034 0.076080 -0.035682 -1120330.000000 0 0 1
11.332661 27.426551 21.061477 36.389981 1.178962 0.953575 0.069366 -0.038142 -559133.000000 0 0 1
11.895261 28.631501 21.512977 37.736829 1.177033 0.964194 0.069461 -0.037830 -107338.000000 0 0 1
11.599361 29.580301 20.520377 37.823607 1.197092 0.997352 0.070728 -0.041208 -158032.000000 0 0 1
11.978561 31.099711 20.789377 39.279462 1.203143 1.013058 0.078016 -0.042188 -285471.000000 0 0 1
11.212061 31.676371 21.803677 40.056249 1.230601 0.995210 0.067936 -0.041124 -199225.000000 0 0 1
11.641061 31.368681 23.140577 40.681627 1.215445 0.965724 0.065212 -0.039300 366556.000000 0 0 1
10.901561 32.320645 24.146997 41.791693 1.245485 0.954773 0.049081 -0.035511 1938550.000000 0 0 1
9.464361 32.133940 24.283497 41.374539 1.284367 0.943548 0.039596 -0.032693 1174070.000000 0 0 1
8.969761 32.965852 25.277647 42.498982 1.305135 0.933801 0.053165 -0.025029 -543452.000000 0 0 1
7.567361 32.761715 25.869287 42.424226 1.343796 0.915018 0.080916 -0.033500 -42539.900000 0 0 1
6.484261 33.462362 25.260617 42.424923 1.379391 0.933009 0.067621 -0.030841 428566.000000 0 0 1
5.984661 32.893869 24.041037 41.180022 1.390826 0.947391 0.071926 -0.035797 133413.000000 0 0 1
5.051161 31.620561 24.185757 40.128854 1.412392 0.923913 0.066838 -0.037995 -32577.800000 0 0 1
5.743861 30.487821 24.666637 39.635113 1.384580 0.899064 0.045023 -0.022852 -425609.000000 0 0 1
4.960061 29.341041 24.625797 38.625494 1.403331 0.879479 0.049692 -0.021862 -852167.000000 0 0 1
5.758161 28.076121 25.112047 38.105641 1.368510 0.851293 0.046796 -0.014521 57583.700000 0 0 1
6.683861 27.521011 24.188487 37.244636 1.332545 0.863937 0.062383 -0.018923 445009.000000 0 0 1
7.804861 28.323711 23.856277 37.845349 1.301910 0.888777 0.062734 -0.029678 -399958.000000 0 0 1
9.038561 28.267821 24.799997 38.675640 1.261323 0.874696 0.035214 -0.025297 -631853.000000 0 0 1
8.837061 28.550161 26.210027 39.751363 1.270622 0.850844 0.033522 -0.019353 1139640.000000 0 0 1
10.067561 28.283061 26.957367 40.348320 1.228824 0.839122 0.061805 -0.015860 1181980.000000 0 0 1
11.095161 29.415381 26.868137 41.355338 1.210108 0.863620 0.066316 -0.022764 -564723.000000 0 0 1
10.764861 30.552821 27.618637 42.569311 1.232042 0.864800 0.061085 -0.026432 -86866.300000 0 0 1
11.896861 31.354611 27.792377 43.555288 1.208148 0.878776 0.058396 -0.017518 -397169.000000 0 0 1
11.528561 32.571406 28.678147 44.902565 1.230609 0.878021 0.042077 -0.015707 32613.800000 0 0 1
11.318361 32.355836 30.084717 45.608065 1.234292 0.850462 0.048735 -0.032021 -189858.000000 0 0 1
10.088361 31.764541 30.383717 45.099128 1.263274 0.831579 0.056805 -0.037924 -549384.000000 0 0 1
9.987261 31.485661 31.909017 45.926872 1.263635 0.802684 0.090816 -0.033373 178369.000000 0 0 1
10.674961 30.311631 32.395133 45.631068 1.232186 0.781389 0.062226 -0.033271 371859.000000 0 0 1
10.763161 30.284571 33.832362 46.665079 1.229318 0.759756 0.096143 -0.037543 -205800.000000 0 0 1
10.921261 28.856221 -33.641400 45.647555 1.208986 2.399390 0.086494 -0.038273 -319796.000000 0 0 1
12.141161 28.207161 -33.912680 45.750646 1.164337 2.405727 0.087638 -0.032894 -79948.100000 0 0 1
12.088961 26.894031 -33.397090 44.551066 1.148355 2.418308 0.090219 -0.034099 175511.000000 0 0 1
13.429161 26.169321 -33.719680 44.745867 1.096673 2.424291 0.101723 -0.028748 358422.000000 0 0 1
13.483261 24.830441 -33.403990 43.751294 1.073333 2.439507 0.066903 -0.031368 -353354.000000 0 0 1
13.719461 24.548861 -32.074740 42.657463 1.061174 2.421757 0.064453 -0.023282 -357877.000000 0 0 1
13.691361 23.054731 -31.884740 41.660661 1.034901 2.442372 0.042036 -0.035642 -642916.000000 0 0 1
14.665961 22.411731 -32.626540 42.212169 0.991343 2.454223 0.035204 -0.021166 -498829.000000 0 0 1
14.650761 21.026931 -32.653760 41.509573 0.962247 2.476170 0.028880 -0.021561 -11827.900000 0 0 1
15.918661 20.421031 -33.338640 42.212406 0.908667 2.481251 0.044349 -0.030825 440251.000000 0 0 1
17.024961 20.604431 -32.455170 42.044381 0.880237 2.452662 0.044095 -0.026166 -566103.000000 0 0 1
18.091561 19.826331 -32.934570 42.486161 0.831117 2.457802 0.048851 -0.029162 -579625.000000 0 0 1
19.299661 19.928231 -31.987210 42.341386 0.801420 2.427152 0.037343 -0.018548 -323659.000000 0 0 1
19.943061 21.182531 -32.094080 43.318071 0.815528 2.405196 0.037209 -0.016293 -64513.500000 0 0 1
20.804861 21.501931 -30.988190 43.074856 0.801873 2.373739 0.033683 -0.006982 443294.000000 0 0 1
20.191361 21.931131 -29.576810 41.993491 0.826677 2.352260 0.025369 -0.013909 -13154.200000 0 0 1
19.418061 23.113911 -29.643930 42.309297 0.872076 2.347102 0.021453 -0.006907 -159979.000000 0 0 1
19.344861 23.736521 -28.391990 41.758247 0.886986 2.318441 0.031810 0.001061 293169.000000 0 0 1
20.658161 24.291701 -27.714360 42.248457 0.866058 2.286283 0.035569 -0.002044 915325.000000 0 0 1
21.430061 25.288951 -28.438110 43.674989 0.867809 2.279869 0.038431 0.000540 313135.000000 0 0 1
20.819861 26.601991 -28.553930 44.231883 0.906729 2.272541 0.032544 0.001431 -516325.000000 0 0 1
21.657861 27.617221 -29.299130 45.718846 0.905754 2.266407 0.026767 0.002027 -489981.000000 0 0 1
21.778661 27.470091 -30.699520 46.598031 0.900453 2.290040 0.035749 0.002445 149921.000000 0 0 1
22.272061 26.256401 -31.338000 46.556563 0.867318 2.309211 0.035597 0.007890 643462.000000 0 0 1
23.685061 25.716701 -30.914730 46.669598 0.826500 2.294837 0.061448 -0.002869 869626.000000 0 0 1
24.741161 26.617311 -31.209480 47.902379 0.821912 2.280386 0.065329 -0.000315 -53657.000000 0 0 1
26.023961 26.284561 -30.766110 48.111103 0.790380 2.264619 0.076821 -0.014005 -516411.000000 0 0 1
27.119361 27.220811 -31.209220 49.501997 0.787265 2.252947 0.051938 -0.002478 -627103.000000 0 0 1
27.125761 28.404231 -30.425590 49.682228 0.808417 2.229894 0.036369 0.003093 -58382.100000 0 0 1
28.268061 29.201731 -30.612120 50.881492 0.801643 2.216344 0.040185 0.000313 -19180.000000 0 0 1
28.258861 30.411531 -29.652690 51.016728 0.822073 2.191041 0.029959 0.001198 -101061.000000 0 0 1
28.799061 30.138731 -28.341880 50.408245 0.808124 2.167897 0.050229 -0.006056 409322.000000 0 0 1
28.619161 31.192851 -27.417760 50.435939 0.828401 2.145535 0.036455 -0.003124 -709741.000000 0 0 1
29.165761 30.875991 -26.008620 49.803783 0.813874 2.120250 0.052113 -0.009533 -254314.000000 0 0 1
28.633461 29.805001 -25.272510 48.444948 0.805443 2.119609 0.038964 -0.003858 924310.000000 0 0 1
27.196361 29.736511 -25.159150 47.506684 0.829985 2.128916 0.027053 -0.000743 993221.000000 0 0 1
26.533261 29.262481 -23.803020 46.118223 0.834274 2.113123 0.025548 -0.001705 200133.000000 0 0 1
26.613561 30.259491 -22.843820 46.322333 0.849417 2.086502 0.046963 -0.002749 1262490.000000 0 0 1
25.605261 29.936351 -21.805220 45.025350 0.863220 2.076345 0.034735 -0.001465 1261750.000000 0 0 1
3.364261 -26.284599 -19.353920 32.814214 -1.443495 2.201611 0.051965 -0.006785 -307019.000000 0 0 1
2.969061 -27.340719 -18.537820 33.165962 -1.462625 2.163905 0.049829 0.001545 47149.700000 0 0 1
3.123861 -27.082419 -17.155120 32.210466 -1.455957 2.132460 0.064132 -0.004680 -169838.000000 0 0 1
3.046761 -28.403959 -16.332420 32.906164 -1.463940 2.090166 0.055833 0.002027 780925.000000 0 0 1
4.349661 -28.991099 -16.198920 33.493408 -1.421873 2.075611 0.051465 0.001342 659551.000000 0 0 1
4.253361 -30.022169 -15.201220 33.919004 -1.430059 2.035505 0.049044 -0.000783 5199.240000 0 0 1
5.611761 -30.545879 -14.699620 34.360172 -1.389107 2.012865 0.067188 -0.008707 -409386.000000 0 0 1
6.421161 -29.479809 -14.255720 33.369388 -1.356331 2.012201 0.054948 -0.005178 766844.000000 0 0 1
7.829161 -29.829809 -14.220720 33.960892 -1.314125 2.002852 0.060718 -0.007450 1433900.000000 0 0 1
8.285561 -30.545769 -12.912220 34.182159 -1.305919 1.958159 0.061336 -0.012216 -960296.000000 0 0 1
8.650761 -29.675279 -11.875920 33.113371 -1.287143 1.937611 0.056322 -0.010399 -66486.400000 0 0 1
8.816961 -30.349389 -10.607220 33.336727 -1.288064 1.894610 0.063341 -0.011265 1409060.000000 0 0 1
10.112161 -31.299179 -10.470620 34.518521 -1.258301 1.878985 0.065201 -0.009892 1633350.000000 0 0 1
11.377761 -30.715779 -10.153020 34.292803 -1.216046 1.871370 0.054737 -0.014276 374823.000000 0 0 1
12.288761 -31.735909 -9.848220 35.428365 -1.201356 1.852482 0.064017 -0.014388 -1294.690000 0 0 1
13.510261 -31.281599 -9.016320 35.247122 -1.163103 1.829475 0.077169 -0.011180 212685.000000 0 0 1
14.490761 -30.523069 -9.720720 35.158673 -1.127554 1.850927 0.076399 -0.023952 202535.000000 0 0 1
15.559261 -30.272159 -8.828220 35.162931 -1.096028 1.824578 0.081575 -0.016360 -109876.000000 0 0 1
16.706261 -29.431559 -9.436020 35.133379 -1.054518 1.842712 0.099300 -0.027908 -62939.500000 0 0 1
16.556561 -28.026439 -9.626620 33.945144 -1.037208 1.858336 0.093641 -0.028453 -58809.700000 0 0 1
15.719561 -27.626009 -10.689320 33.534498 -1.053473 1.895213 0.084095 -0.024913 -195780.000000 0 0 1
15.399861 -26.138049 -10.780220 32.195753 -1.038375 1.912225 0.075285 -0.020738 -284678.000000 0 0 1
14.452961 -25.667819 -9.781520 31.038737 -1.057969 1.891400 0.065675 -0.019885 781925.000000 0 0 1
13.811261 -24.421919 -10.012820 29.789892 -1.056110 1.913585 0.054877 -0.017608 284041.000000 0 0 1
13.158361 -24.215519 -11.433320 29.837135 -1.073046 1.964045 0.041984 -0.012371 -293755.000000 0 0 1
14.022061 -23.725219 -12.455120 30.242921 -1.037007 1.995264 0.043754 -0.014270 89882.000000 0 0 1
13.403461 -24.012119 -13.688120 30.718061 -1.061683 2.032646 0.053649 -0.020415 610401.000000 0 0 1
14.162761 -23.282219 -14.850120 31.035006 -1.024290 2.069737 0.060586 -0.020643 369260.000000 0 0 1
15.465761 -23.721319 -15.147720 32.114548 -0.993032 2.061989 0.060984 -0.024694 70642.400000 0 0 1
15.862561 -23.118719 -16.397520 32.480374 -0.969437 2.099998 0.064888 -0.029221 -538658.000000 0 0 1
16.609261 -24.156019 -17.305220 34.041907 -0.968453 2.104065 0.057223 -0.025375 728806.000000 0 0 1
17.958861 -24.465819 -16.988620 34.780889 -0.937589 2.081105 0.081321 -0.024243 235242.000000 0 0 1
18.931661 -23.512219 -17.336220 34.810584 -0.892902 2.092105 0.087447 -0.026810 -76293.800000 0 0 1
20.355561 -23.818719 -16.794620 35.549114 -0.863636 2.062847 0.077282 -0.021033 676185.000000 0 0 1
21.124361 -24.697119 -17.613720 36.965247 -0.863212 2.067459 0.091245 -0.016736 -582852.000000 0 0 1
22.356061 -25.044119 -17.106620 37.678082 -0.842047 2.042069 0.090974 -0.001997 -473300.000000 0 0 1
23.125861 -26.181899 -17.807320 39.209667 -0.847298 2.042221 0.103288 -0.013615 -7737.850000 0 0 1
23.419161 -25.872869 -19.162320 39.812774 -0.835136 2.072946 0.122539 -0.018082 -170693.000000 0 0 1
24.282761 -26.818459 -19.691420 41.190221 -0.834979 2.069242 0.110215 -0.024097 -301440.000000 0 0 1
25.584261 -26.187689 -20.227520 41.827049 -0.797053 2.075558 0.098772 -0.027472 -174817.000000 0 0 1
25.463561 -25.449629 -21.411420 41.887056 -0.785125 2.107342 0.111548 -0.033748 199294.000000 0 0 1
26.179461 -24.210719 -21.337220 41.554784 -0.746348 2.110022 0.113381 -0.033679 -509598.000000 0 0 1
25.199561 -23.055919 -21.032820 40.112003 -0.741005 2.122751 0.115424 -0.019936 356687.000000 0 0 1
24.661761 -22.334419 -22.156620 39.974299 -0.735917 2.158284 0.118569 -0.017185 594193.000000 0 0 1
23.860161 -23.112919 -23.060720 40.438980 -0.769492 2.177618 0.091551 -0.022079 -414710.000000 0 0 1
23.220961 -22.132919 -24.139420 40.147114 -0.761413 2.215891 0.085978 -0.011555 117695.000000 0 0 1
24.125361 -21.619619 -25.092620 40.976586 -0.730677 2.229845 0.077702 -0.006647 146142.000000 0 0 1
23.445361 -20.645519 -25.870840 40.561346 -0.721982 2.262461 0.072009 -0.003584 -58514.800000 0 0 1
24.139561 -20.034719 -27.110990 41.462202 -0.692740 2.283488 0.063010 -0.000258 -193316.000000 0 0 1
23.326361 -19.031919 -27.665180 40.886370 -0.684360 2.313980 0.065405 -0.002964 563690.000000 0 0 1
23.859261 -18.665519 -28.971810 41.916962 -0.663866 2.333905 0.072458 -0.004987 -90615.600000 0 0 1
23.062661 -17.519519 -29.624550 41.429867 -0.649648 2.367496 0.109720 -0.013503 -1390820.000000 0 0 1
21.906461 -18.092419 -30.123850 41.408635 -0.690332 2.385435 0.104841 -0.016150 -765946.000000 0 0 1
21.115361 -17.094419 -30.696750 40.992293 -0.680551 2.417109 0.109543 -0.022895 -87440.800000 0 0 1
19.709761 -17.556919 -31.147670 40.827655 -0.727694 2.438593 0.089415 -0.020193 -63956.200000 0 0 1
19.785761 -18.328619 -32.365910 42.130354 -0.747186 2.446872 0.096571 -0.021067 278029.000000 0 0 1
18.561561 -18.956319 -32.696410 42.106161 -0.795920 2.459925 0.092044 -0.026488 29995.300000 0 0 1
18.628961 -19.793719 34.015094 43.541430 -0.815703 0.674191 0.124565 -0.020009 -356348.000000 0 0 1
19.478661 -20.886419 -33.979460 44.387661 -0.820260 2.442639 0.122667 -0.015359 -127238.000000 0 0 1
19.520061 -21.590619 32.837169 43.880147 -0.835721 0.725244 0.108163 -0.021460 -337040.000000 0 0 1
20.422161 -22.809319 32.972418 44.994556 -0.840560 0.748355 0.095499 -0.022227 -330154.000000 0 0 1
20.060461 -23.845619 33.908414 46.052320 -0.871396 0.743208 0.114593 -0.023011 -43462.200000 0 0 1
20.585161 -23.653019 -32.859130 45.419562 -0.854636 2.379594 0.115322 -0.024503 -145935.000000 0 0 1
19.818061 -24.527619 -31.827380 44.803368 -0.891203 2.360833 0.115397 -0.025799 151604.000000 0 0 1
20.085961 -25.948639 -31.928450 45.784317 -0.912070 2.342513 0.118099 -0.040820 -36027.300000 0 0 1
21.162361 -26.304689 -31.090790 45.895745 -0.893312 2.315049 0.095182 -0.036572 125304.000000 0 0 1
21.402261 -27.829609 -31.027230 46.853313 -0.915217 2.294575 0.091832 -0.043270 64445.800000 0 0 1
20.185561 -28.364319 -30.550470 46.317629 -0.952292 2.291064 0.103095 -0.043927 66541.700000 0 0 1
20.179061 -29.754769 -30.315550 47.027368 -0.974866 2.271344 0.102881 -0.040908 270488.000000 0 0 1
18.737161 -30.093909 -29.797180 46.309789 -1.013908 2.269769 0.127298 -0.042226 1750560.000000 0 0 1
17.629761 -30.148519 -30.739390 46.525819 -1.041655 2.292541 0.131170 -0.052389 962082.000000 0 0 1
17.770261 -31.193919 -31.687310 47.884532 -1.052976 2.293939 0.132008 -0.049909 -212491.000000 0 0 1
16.361261 -31.826789 -31.838510 47.899124 -1.095955 2.297887 0.135889 -0.049182 978428.000000 0 0 1
15.388661 -31.023739 -32.524470 47.509204 -1.110331 2.324842 0.135023 -0.044613 664838.000000 0 0 1
14.173161 -31.713719 -32.839060 47.802117 -1.150515 2.328120 0.097975 -0.031038 821416.000000 0 0 1
13.247261 -30.850369 -33.764820 47.616156 -1.165202 2.359023 0.089580 -0.026183 471232.000000 0 0 1
12.613061 -29.795209 -32.980580 46.201325 -1.170345 2.365770 0.108105 -0.033813 241090.000000 0 0 1
11.832361 -28.985039 -33.881150 46.131005 -1.183221 2.395660 0.082585 -0.027970 242896.000000 0 0 1
10.764961 -28.111689 -33.211700 44.823749 -1.205087 2.405265 0.087008 -0.033296 397917.000000 0 0 1
9.595761 -28.787809 -32.753880 44.650121 -1.249051 2.394353 0.081940 -0.019136 345826.000000 0 0 1
8.690761 -27.847599 -32.166790 43.424883 -1.268291 2.404976 0.046358 -0.013359 759611.000000 0 0 1
7.636461 -28.577229 -31.260640 43.037207 -1.309676 2.383812 0.025406 -0.011527 271440.000000 0 0 1
6.572661 -29.343469 -31.755220 43.733661 -1.350443 2.383436 0.031068 -0.012565 -90559.100000 0 0 1
6.892461 -30.627759 -32.283540 45.031018 -1.349444 2.370167 0.033196 -0.010432 141239.000000 0 0 1
5.626061 -31.435299 -32.735060 45.731988 -1.393699 2.368569 0.065868 -0.015674 608516.000000 0 0 1
4.862561 -31.672449 -31.568570 44.981809 -1.418459 2.348728 0.073059 -0.030911 -203034.000000 0 0 1
4.033761 -32.802029 -31.664730 45.770072 -1.448438 2.334805 0.086814 -0.055361 245500.000000 0 0 1
3.016461 -33.079569 -30.455000 45.065108 -1.479860 2.312846 0.079601 -0.064019 978669.000000 0 0 1
2.023661 -32.127819 -30.159880 44.112474 -1.507892 2.323623 0.079101 -0.051504 171197.000000 0 0 1
0.910861 -32.064389 -31.031790 44.631006 -1.542397 2.339629 0.060994 -0.018367 -183269.000000 0 0 1
0.030461 -30.833459 -30.706980 43.515765 -1.569808 2.354139 0.047135 -0.009311 -155933.000000 0 0 1
-0.797939 -31.029269 -29.579800 42.876763 1.545086 2.332119 0.016262 -0.014903 264296.000000 0 0 1
-1.438239 -29.774019 -29.211120 41.735480 1.522529 2.346069 0.070626 -0.009314 -118748.000000 0 0 1
-2.239139 -29.841679 -27.947920 40.946621 1.495903 2.322036 0.078688 -0.010748 -304908.000000 0 0 1
-1.429639 -29.953609 -26.751920 40.186164 1.523104 2.299227 0.052844 -0.005739 325290.000000 0 0 1
-2.151639 -30.161759 -25.539890 39.580895 1.499580 2.272157 0.074648 -0.013737 725901.000000 0 0 1
-1.113739 -30.555009 -24.425020 39.133497 1.534362 2.244834 0.036854 -0.009167 720892.000000 0 0 1
-1.709939 -30.372999 -23.184020 38.248422 1.514558 2.221999 0.078294 -0.018249 39210.700000 0 0 1
-0.780439 -30.759299 -22.190920 37.936533 1.545429 2.195613 0.051623 -0.012609 206286.000000 0 0 1
-1.409339 -30.640119 -20.823720 37.073312 1.524832 2.167224 0.018448 0.004562 -153038.000000 0 0 1
-1.485139 -29.346259 -20.192620 35.653197 1.520232 2.172881 0.011916 0.007742 400202.000000 0 0 1
-0.231539 -28.974459 -19.613920 34.989695 1.562805 2.165862 0.031424 -0.002013 319407.000000 0 0 1
-0.178139 -27.549039 -18.904020 33.411724 1.564330 2.172187 0.030546 -0.005052 46527.000000 0 0 1
-1.095239 -27.479769 -17.789620 32.753746 1.530961 2.144960 0.033377 -0.008296 543422.000000 0 0 1
-1.052539 -26.191639 -17.186420 31.344582 1.530632 2.151133 0.041045 -0.009168 210128.000000 0 0 1
-2.019039 -25.987489 -15.983020 30.575857 1.493259 2.120850 0.041687 -0.009516 -96817.600000 0 0 1
-1.995139 -24.674419 -15.498820 29.206523 1.490113 2.130179 0.041232 -0.007461 49125.100000 0 0 1
-3.041439 -24.514619 -14.571220 28.679912 1.447361 2.103731 0.040573 -0.006458 -235210.000000 0 0 1
-2.844339 -23.401619 -13.542320 27.186770 1.449845 2.092228 0.041552 -0.004806 -317013.000000 0 0 1
-1.863739 -23.767519 -12.606720 26.968461 1.492541 2.057213 0.047059 -0.003392 -303511.000000 0 0 1
-1.419639 -22.599819 -11.971020 25.613913 1.508062 2.057103 0.046539 -0.001831 6809.090000 0 0 1
-0.045939 -22.771519 -11.280320 25.412395 1.568779 2.030732 0.054082 0.000123 115622.000000 0 0 1
0.288261 -21.518619 -10.712920 24.039566 -1.557401 2.032682 0.044979 0.002916 -38595.500000 0 1 0
1.606161 -21.449119 -10.200020 23.805144 -1.496053 2.013606 0.036394 0.002785 195203.000000 0 1 0
2.012961 -20.069019 -9.755320 22.404995 -1.470829 2.021288 0.036691 -0.003565 -655627.000000 0 1 0
2.519161 -19.277319 -10.818820 22.248777 -1.440853 2.078608 0.036821 0.005292 172857.000000 0 1 0
3.245561 -18.102419 -10.421720 21.138673 -1.393392 2.086350 0.023814 0.001580 890115.000000 0 1 0
4.674961 -18.310319 -9.808920 21.291735 -1.320818 2.049570 0.036136 -0.019280 246985.000000 0 1 0
4.625961 -18.928819 -8.524420 21.268885 -1.331107 1.983179 0.041524 -0.017396 -416957.000000 0 1 0
5.731261 -19.749519 -8.243520 22.155056 -1.288357 1.952049 0.051950 -0.018065 -265103.000000 0 1 0
5.398561 -20.754619 -7.108520 22.592692 -1.316322 1.890872 0.057566 -0.028428 -138306.000000 0 1 0
4.511361 -21.730519 -7.597320 23.458199 -1.366099 1.900610 0.047547 -0.025958 -202078.000000 0 1 0
4.329761 -22.839719 -6.802320 24.221296 -1.383448 1.855466 0.054159 -0.023889 -203489.000000 0 1 0
3.414861 -23.867119 -7.414420 25.224478 -1.428683 1.869140 0.043437 -0.016956 -26196.300000 0 0 1
3.985961 -24.389219 -8.599220 26.166171 -1.408797 1.905658 0.054938 -0.018242 -278823.000000 0 0 1
3.134561 -25.383229 -9.090620 27.143566 -1.447929 1.912305 0.040198 -0.009877 -114613.000000 0 0 1
3.646861 -26.333029 -10.168320 28.462656 -1.433182 1.936120 0.033218 -0.008370 -184919.000000 0 0 1
4.586961 -27.288959 -9.725420 29.331064 -1.404265 1.908768 0.044376 -0.016563 -128829.000000 0 0 1
5.172961 -27.927669 -10.821920 30.394542 -1.387645 1.934832 0.070925 -0.014751 97758.500000 0 0 1
5.094661 -29.462619 -10.628120 31.732609 -1.399570 1.912325 0.062977 -0.014537 460407.000000 0 0 1
3.766961 -29.860899 -10.971220 32.034840 -1.445309 1.920349 0.054852 -0.009901 456418.000000 0 0 1
3.687661 -31.246339 -11.068920 33.353464 -1.453321 1.909079 0.074875 -0.014326 425868.000000 0 0 1
2.288561 -31.861419 -11.400120 33.916814 -1.499091 1.913591 0.070598 -0.018282 261214.000000 0 0 1
2.055261 -31.793719 -12.813020 34.340037 -1.506243 1.953168 0.062565 -0.017657 308381.000000 0 0 1
1.172061 -32.868229 -13.111220 35.406190 -1.535152 1.950138 0.053141 -0.013757 -69098.100000 0 0 1
0.667461 -32.850289 -14.601020 35.955206 -1.550481 1.988967 0.044925 -0.001732 -239285.000000 0 0 1
-0.354939 -31.940569 -14.874620 35.236065 1.559684 2.006603 0.047317 -0.000806 -283415.000000 0 0 1
-0.773439 -32.058769 -16.186820 35.921805 1.546675 2.038248 0.021142 -0.001721 -112827.000000 0 0 1
-1.957039 -31.171789 -16.597420 35.369264 1.508096 2.059250 0.022638 0.003143 -195277.000000 0 0 1
-3.204839 -31.495199 -16.026720 35.483437 1.469389 2.039430 0.021621 -0.003549 -497495.000000 0 0 1
-4.147039 -30.613319 -16.626020 35.082728 1.436151 2.064521 0.032117 0.002378 152548.000000 0 0 1
-5.499639 -30.737209 -15.885320 35.033776 1.393745 2.041405 0.042900 -0.005073 -334907.000000 0 0 1
-5.609139 -29.934799 -14.732920 33.832138 1.385566 2.021358 0.040009 -0.002498 646283.000000 0 0 1
-6.951639 -29.658079 -14.315420 33.657959 1.340560 2.010112 0.063388 0.000732 982007.000000 0 0 1
-7.852739 -30.763579 -13.667320 34.566732 1.320872 1.977288 0.067280 -0.020320 130163.000000 0 0 1
-8.094039 -31.942809 -14.385120 35.955364 1.322628 1.982403 0.073152 -0.022522 -338079.000000 0 0 1
-8.832039 -32.790599 -13.557320 36.565411 1.307694 1.950633 0.084727 -0.024616 170963.000000 0 0 1
-9.133139 33.996427 -14.231820 37.969935 -1.308343 1.954997 0.112763 -0.027998 182613.000000 0 0 1
-7.986239 33.218062 -13.977120 36.913135 -1.334856 1.959132 0.096333 -0.028792 157735.000000 0 0 1
-8.010739 32.017711 -14.710220 36.134421 -1.325632 1.990070 0.118111 -0.040074 -307269.000000 0 0 1
-7.250939 -21.458319 -3.231220 22.879606 1.244934 1.712497 0.073251 -0.034521 163201.000000 0 1 0
-7.008739 -20.655719 -4.328620 22.237763 1.243674 1.766699 0.060239 -0.026498 -817642.000000 0 1 0
-5.878639 -20.965919 -5.053120 22.353125 1.297426 1.798826 0.048511 -0.019608 -787310.000000 0 1 0
-5.777539 -19.946319 -6.158220 21.660085 1.288858 1.859085 0.034270 -0.016890 101377.000000 0 1 0
-6.816439 -20.092419 -7.119420 22.379797 1.243726 1.894540 0.048314 -0.024115 48867.200000 0 1 0
-6.896439 -18.969219 -8.017120 21.717881 1.222093 1.948889 0.032966 -0.030386 -150512.000000 0 1 0
-7.872539 -19.308619 -9.167920 22.778288 1.183651 1.985026 0.035418 -0.028374 420165.000000 0 1 0
-7.314539 -20.159019 -10.182920 23.739848 1.222727 2.014113 0.038508 -0.011262 450480.000000 0 1 0
-8.418639 -20.682419 -10.932720 24.862830 1.184233 2.026085 0.067221 -0.006319 733130.000000 0 1 0
-8.045339 -21.533919 -12.184620 26.017343 1.213243 2.058192 0.073590 -0.004643 -421056.000000 0 0 1
-7.360839 -20.810819 -13.204720 25.722301 1.230827 2.109888 0.066689 -0.001936 67126.400000 0 0 1
-6.831039 -21.564519 -14.243120 26.731219 1.264024 2.132734 0.049853 0.001851 -279196.000000 0 0 1
-5.828139 -20.866719 -15.183020 26.455836 1.298434 2.182057 0.037951 0.011348 656104.000000 0 0 1
-4.518539 -20.840619 -14.557920 25.820179 1.357287 2.169800 0.034255 0.002449 1021100.000000 0 0 1
-3.506639 -20.178619 -15.311120 25.571539 1.398735 2.212744 0.046251 0.004542 211066.000000 0 0 1
-3.568839 -18.599419 -15.560920 24.511574 1.381221 2.258597 0.064672 0.005950 -879630.000000 0 1 0
-4.561639 -18.020419 -16.366620 24.767122 1.322867 2.292708 0.065791 0.007881 -257932.000000 0 1 0
-4.524439 -18.204919 -17.790520 25.853283 1.327203 2.329710 0.069508 -0.000249 -211879.000000 0 0 1
-5.924639 -18.005819 -18.423120 26.433355 1.252915 2.341953 0.073896 0.007548 774746.000000 0 0 1
-6.884339 -18.961919 -17.949620 27.002544 1.222533 2.297940 0.060887 0.010944 255057.000000 0 0 1
-8.198339 -18.805719 -18.440220 27.584589 1.159688 2.302983 0.058984 0.009991 -78677.600000 0 0 1
-9.115639 -19.793319 -17.750820 28.106262 1.139211 2.254361 0.079140 -0.003910 -259127.000000 0 0 1
-8.664839 -21.086019 -18.054020 29.080015 1.180905 2.240609 0.080037 0.002244 1058050.000000 0 0 1
-9.628839 -22.017619 -17.539920 29.751284 1.158533 2.201300 0.093284 -0.002395 595317.000000 0 0 1
-9.140839 -23.418919 -17.948220 30.889146 1.198664 2.190818 0.095667 -0.000649 -666232.000000 0 0 1
-9.232639 -23.733919 -19.320220 31.965786 1.199803 2.219813 0.087817 -0.004947 625750.000000 0 0 1
-8.266839 -24.676919 -19.784320 32.691135 1.247544 2.220800 0.101765 -0.016323 1513750.000000 0 0 1
-6.730139 -24.296119 -19.692220 31.990307 1.300567 2.233903 0.083462 -0.007666 180397.000000 0 0 1
-6.303639 -23.177919 -20.512120 31.586372 1.305252 2.277589 0.088299 -0.011556 298508.000000 0 0 1
-5.911539 -21.969819 -19.851020 30.194077 1.307946 2.288223 0.076348 -0.009668 198804.000000 0 0 1
-4.872039 -22.076919 -18.698620 29.338806 1.353593 2.261830 0.064400 -0.002269 -91738.600000 0 0 1
-3.590839 -22.532919 -19.050720 29.724679 1.412765 2.266474 0.064558 -0.012833 101793.000000 0 0 1
-2.604139 -22.325419 -18.056920 28.831550 1.454676 2.247582 0.049990 -0.016030 -392420.000000 0 0 1
-1.269539 -22.948919 -18.400220 29.442023 1.515532 2.245882 0.066972 -0.020194 -353822.000000 0 0 1
-0.470539 -22.223819 -19.359120 29.477026 1.549627 2.287301 0.089212 -0.023090 242692.000000 0 0 1
0.815561 -22.828119 -19.462620 30.009694 -1.535085 2.276467 0.063824 -0.023643 516965.000000 0 0 1
1.810961 -22.154319 -20.458820 30.210210 -1.489235 2.314768 0.071252 -0.027407 133214.000000 0 0 1
1.530461 -22.182619 -21.821520 31.154288 -1.501912 2.346802 0.069346 -0.029830 -294458.000000 0 0 1
1.083761 -20.958919 -22.334820 30.647920 -1.519134 2.387298 0.091209 -0.026052 -198069.000000 0 0 1
0.575761 -21.194319 -23.798720 31.873339 -1.543637 2.413831 0.096495 -0.029734 -131163.000000 0 0 1
0.021961 -20.142319 -24.515420 31.728841 -1.569706 2.453808 0.094965 -0.029954 1178620.000000 0 0 1
-1.381339 -19.879019 -24.217820 31.362180 1.501421 2.453090 0.093659 -0.027887 1148490.000000 0 0 1
-1.884839 -18.634819 -24.969520 31.213556 1.469993 2.498021 0.088830 -0.020679 -522706.000000 0 0 1
-1.317139 -17.431919 -24.663020 30.230303 1.495381 2.524973 0.099357 -0.022469 -465337.000000 0 0 1
-1.779339 -16.287619 -25.351470 30.185255 1.461983 2.567827 0.097844 -0.021743 -238659.000000 0 0 1
-1.173839 -14.913719 -24.944920 29.086869 1.492250 2.601383 0.101041 -0.020146 314577.000000 0 0 1
0.211261 -14.839419 -25.243290 29.282703 -1.556561 2.610106 0.104212 -0.028947 104827.000000 0 0 1
0.923561 -13.652219 -24.839120 28.358737 -1.503250 2.638073 0.093259 -0.028569 439712.000000 0 0 1
0.545661 -12.311419 -25.479470 28.303219 -1.526504 2.691099 0.085806 -0.019725 -613782.000000 0 0 1
1.224361 -11.228519 -24.985520 27.419973 -1.462185 2.717023 0.077939 -0.018489 -405308.000000 0 0 1
1.073961 -10.157519 -25.883990 27.826418 -1.465457 2.765740 0.064232 -0.019790 -395371.000000 0 0 1
1.956661 -8.883919 -25.715950 27.277512 -1.354010 2.801587 0.069626 -0.022041 391154.000000 0 0 1
3.324161 -8.874319 -26.061160 27.730627 -1.212392 2.792832 0.061206 -0.016639 -30332.000000 0 0 1
3.658661 -9.261219 -27.419030 29.171205 -1.194563 2.793236 0.055034 -0.016746 -698488.000000 0 0 1
5.114561 -9.044619 -27.839550 29.715390 -1.056145 2.784374 0.025431 -0.012248 -1331090.000000 0 0 1
5.306761 -7.729419 -28.323670 29.835146 -0.969143 2.821922 0.025222 -0.010541 390888.000000 0 0 1
6.622461 -7.480519 -28.809140 30.492322 -0.846166 2.807779 0.034296 -0.011643 590839.000000 0 0 1
7.773061 -7.418319 -27.688030 29.699814 -0.762051 2.771414 0.045887 -0.017121 -5724.530000 0 0 1
8.079661 -8.742819 -27.241540 29.729099 -0.824799 2.729603 0.033235 -0.016672 -293285.000000 0 0 1
8.902061 -9.469619 -28.097580 30.957946 -0.816281 2.708340 0.041325 -0.027329 -1026270.000000 0 0 1
9.294561 -10.843919 -27.608650 31.084032 -0.862182 2.664196 0.035289 -0.027619 -489725.000000 0 0 1
8.260361 -11.775119 -27.619330 31.140238 -0.959058 2.661460 0.050264 -0.031976 -329674.000000 0 0 1
8.467561 -12.880419 -26.762920 30.884603 -0.989238 2.619035 0.053485 -0.028958 -410899.000000 0 0 1
9.470261 -13.930319 -27.250490 32.036368 -0.973735 2.587943 0.059042 -0.036789 -332288.000000 0 0 1
9.039661 -14.540119 -28.493810 33.241958 -1.014570 2.600534 0.079712 -0.049453 -230294.000000 0 0 1
9.912661 -15.491119 -28.965300 34.310702 -1.001559 2.575878 0.060384 -0.049160 -706187.000000 0 0 1
9.240661 -16.235419 -30.083430 35.411741 -1.053357 2.585895 0.077365 -0.050818 -59490.600000 0 0 1
8.947361 -15.327719 -31.155670 35.856241 -1.042421 2.623782 0.075093 -0.050134 370139.000000 0 0 1
7.989161 -15.911919 -32.020090 36.637440 -1.105481 2.634112 0.084386 -0.043065 727227.000000 0 0 1
6.778861 -14.991119 -32.472610 36.402706 -1.146121 2.672632 0.089762 -0.040701 841990.000000 0 0 1
7.193061 -14.027219 -33.402130 36.935150 -1.096967 2.700640 0.076959 -0.037169 1230250.000000 0 0 1
6.044461 -13.316019 -33.959460 36.974272 -1.144684 2.734970 0.061146 -0.046385 1022380.000000 0 0 1
6.492861 -12.085819 33.294686 36.010559 -1.077810 0.390861 0.075574 -0.038225 -59421.000000 0 0 1
6.868961 -12.389819 31.961667 34.960526 -1.064578 0.417214 0.068263 -0.033173 197746.000000 0 0 1
7.237361 -11.200519 31.285427 34.008954 -0.997123 0.402927 0.065371 -0.030084 -359253.000000 0 0 1
7.536861 -11.514019 29.792397 32.817127 -0.991207 0.432715 0.065807 -0.024298 143926.000000 0 0 1
6.458261 -12.023119 29.013397 32.063090 -1.077870 0.439688 0.056346 -0.018093 218973.000000 0 0 1
6.840761 -12.085019 27.668217 30.957615 -1.055712 0.465170 0.056867 -0.022684 -157781.000000 0 0 1
5.947761 -12.854719 26.661097 30.189961 -1.137439 0.488343 0.040815 -0.032099 -48576.900000 0 0 1
6.121661 -14.263519 26.665417 30.853965 -1.165388 0.527147 0.043975 -0.023989 -101821.000000 0 0 1
5.716561 -14.733719 25.386557 29.903826 -1.200685 0.556820 0.030538 -0.017408 -104503.000000 0 0 1
4.279661 -15.223719 25.152367 29.710582 -1.296751 0.561271 0.030915 -0.023182 -270504.000000 0 0 1
3.368761 -14.177119 25.066767 28.994518 -1.337503 0.526573 0.018733 -0.028567 -844392.000000 0 0 1
2.043061 -14.563319 24.852737 28.877723 -1.431418 0.534311 0.024699 -0.025561 -44113.800000 0 0 1
1.047461 -13.408019 24.745357 28.163892 -1.492833 0.497832 0.030358 -0.026343 -428818.000000 0 0 1
1.402261 -12.605819 23.637447 26.825397 -1.460013 0.492488 0.016612 -0.015363 -65173.400000 0 0 1
0.519661 -11.526919 23.405477 26.095139 -1.525744 0.458023 0.024817 -0.002826 679114.000000 0 0 1
-0.894139 -11.877819 22.851877 25.769950 1.495660 0.480499 0.032939 -0.002802 -26179.200000 0 0 1
-0.817639 -12.490519 21.572577 24.941084 1.505429 0.525763 0.033547 -0.008403 97231.900000 0 1 0
-2.095539 -12.947819 21.152277 24.888875 1.410343 0.555060 0.053051 -0.022119 377414.000000 0 1 0
-2.161039 -13.602319 19.792677 24.113134 1.413240 0.607941 0.079777 -0.033301 340525.000000 0 1 0
-1.270439 -14.719119 19.696777 24.621728 1.484698 0.643542 0.096190 -0.043469 61724.600000 0 1 0
-1.415139 -15.260219 18.405677 23.950905 1.478327 0.694342 0.100940 -0.048630 401714.000000 0 1 0
-2.186039 -16.611919 18.442577 24.917128 1.439954 0.737493 0.086436 -0.041910 158407.000000 0 1 0
-2.572539 -17.156619 17.225577 24.447659 1.421961 0.788951 0.067130 -0.050546 192237.000000 0 1 0
-3.531339 -18.211119 17.462977 25.476867 1.379262 0.815582 0.071374 -0.034809 423501.000000 0 0 1
-3.263839 -19.550719 16.663677 25.895200 1.405380 0.871728 0.058608 -0.039426 -266884.000000 0 0 1
-2.217839 -20.218919 17.298777 26.701520 1.461542 0.866028 0.072004 -0.031433 -437276.000000 0 0 1
-2.371739 -21.642319 17.152377 27.716767 1.461644 0.903525 0.070636 -0.046075 464237.000000 0 0 1
-1.233739 -22.474519 17.868977 28.738936 1.515956 0.899797 0.083055 -0.034389 378431.000000 0 0 1
-0.039639 -22.575819 17.179977 28.369364 1.569041 0.920299 0.068895 -0.035657 -827394.000000 0 0 1
0.993261 -23.232819 17.878077 29.332168 -1.528070 0.915361 0.088066 -0.027565 202394.000000 0 0 1
2.363061 -23.165319 17.174677 28.934160 -1.469139 0.935299 0.082455 -0.031688 -238479.000000 0 0 1
2.996561 -21.956619 17.426777 28.191578 -1.435158 0.904402 0.091605 -0.036324 135609.000000 0 0 1
4.062861 -21.737519 16.478077 27.578136 -1.386023 0.930410 0.086298 -0.035499 585008.000000 0 0 1
4.948561 -20.549019 16.878677 27.048848 -1.334479 0.896936 0.082278 -0.028734 -649279.000000 0 0 1
5.667661 -20.677419 18.126477 28.075741 -1.303268 0.868951 0.073833 -0.023013 643891.000000 0 0 1
6.464061 -19.531919 18.481477 27.655830 -1.251194 0.838920 0.080776 -0.017903 567320.000000 0 0 1
7.508061 -18.926419 17.523077 26.863331 -1.193140 0.860175 0.080312 -0.024348 -595893.000000 0 0 1
6.987861 -18.163619 16.448177 25.481165 -1.203534 0.869114 0.071629 -0.026229 20639.600000 0 0 1
7.990461 -18.010119 15.456877 25.042502 -1.153223 0.905585 0.076317 -0.025727 174700.000000 0 0 1
7.548661 -17.048619 14.327877 23.514373 -1.153969 0.915588 0.068189 -0.019576 -165975.000000 0 1 0
6.472361 -17.583719 13.608377 23.157430 -1.218099 0.942650 0.058712 -0.015669 -102652.000000 0 1 0
5.714561 -16.635519 12.900777 21.813453 -1.239910 0.937985 0.039718 -0.010137 -45016.700000 0 1 0
6.114961 -16.611019 11.440677 21.076238 -1.218065 0.997001 0.036832 -0.017913 -581831.000000 0 1 0
7.424361 -16.204319 11.199677 21.050745 -1.141168 1.009797 0.047640 -0.017383 -486334.000000 0 1 0
7.850961 -16.516219 9.847177 20.769930 -1.127064 1.076846 0.048792 -0.020277 88385.600000 0 1 0
9.305861 -16.017419 9.779677 20.947526 -1.044477 1.085053 0.046010 -0.014723 -200537.000000 0 1 0
10.056661 -16.599919 8.746777 21.288491 -1.026104 1.147390 0.054537 -0.013250 -832371.000000 0 1 0
11.334561 -16.038519 8.832677 21.534218 -0.955582 1.148157 0.040393 -0.010791 -69463.500000 0 1 0
12.471161 -16.792919 8.087777 22.426416 -0.932020 1.201846 0.057045 -0.018273 257274.000000 0 1 0
12.771061 -18.002419 8.708577 23.728177 -0.953784 1.194999 0.077161 -0.023894 65180.100000 0 1 0
13.838161 -18.695519 8.088277 24.625949 -0.933606 1.236139 0.086317 -0.026557 315562.000000 0 1 0
14.351961 -20.012119 8.767877 26.140761 -0.948644 1.228756 0.082697 -0.031603 191963.000000 0 0 1
13.336461 -20.977819 8.859677 26.389846 -1.004510 1.228424 0.082778 -0.030487 -130799.000000 0 0 1
13.919661 -22.135019 9.409377 27.789430 -1.009432 1.225372 0.074772 -0.026459 -22857.200000 0 0 1
12.878861 -23.052119 10.013577 28.240697 -1.061310 1.208332 0.093405 -0.029726 -198767.000000 0 0 1
12.562361 -22.585819 11.309077 28.210412 -1.063201 1.158316 0.100870 -0.034194 -310586.000000 0 0 1
11.543061 -23.270019 12.029177 28.625813 -1.110315 1.137107 0.107465 -0.032183 -99914.000000 0 0 1
11.827661 -24.643019 12.574277 30.087944 -1.123309 1.139645 0.083093 -0.030010 49185.100000 0 0 1
12.883061 -24.724819 13.521277 30.985720 -1.090445 1.119235 0.073408 -0.029059 -40351.800000 0 0 1
12.961961 -26.024119 14.090977 32.308247 -1.108690 1.119490 0.072990 -0.033277 -438774.000000 0 0 1
14.174461 -26.168469 14.984377 33.320199 -1.074377 1.104357 0.073556 -0.030451 -509874.000000 0 0 1
14.083861 -25.469739 16.244077 33.330658 -1.065680 1.061731 0.070669 -0.031837 -188402.000000 0 0 1
15.159161 -25.822939 17.065277 34.465171 -1.039959 1.052794 0.080714 -0.027628 -313130.000000 0 0 1
15.104261 -25.197589 18.500777 34.717948 -1.030794 1.008787 0.087221 -0.023590 2818.820000 0 0 1
15.309361 -23.828719 18.707977 33.943671 -0.999729 0.987057 0.058518 -0.030932 -153853.000000 0 0 1
16.560661 -23.592019 19.323977 34.702377 -0.958756 0.980209 0.060982 -0.026319 144563.000000 0 0 1
16.839761 -22.091919 19.451077 33.911279 -0.919496 0.959918 0.045897 -0.037813 103898.000000 0 0 1
17.100161 -21.328019 18.284477 32.888022 -0.894977 0.981277 0.039029 -0.032155 182648.000000 0 0 1
15.901761 -20.737419 17.829377 31.635316 -0.916620 0.972070 0.065880 -0.026420 -256102.000000 0 0 1
16.112961 -19.714219 16.701077 30.450023 -0.885579 0.990257 0.053019 -0.021448 172131.000000 0 0 1
16.939461 -18.639219 17.113177 30.450397 -0.833136 0.973992 0.045374 -0.020976 651984.000000 0 0 1
18.320861 -18.738919 16.746577 31.100625 -0.796678 1.002183 0.044090 -0.022079 914521.000000 0 0 1
19.157261 -17.424819 17.068977 31.015721 -0.738076 0.988033 0.057542 -0.021144 136707.000000 0 0 1
19.448761 -17.239119 18.410777 31.849619 -0.725243 0.954455 0.053265 -0.020769 45171.600000 0 0 1
19.823061 -15.941419 18.685077 31.562869 -0.677288 0.937264 0.059596 -0.025679 -337677.000000 0 0 1
20.412161 -15.807719 20.113677 32.727669 -0.658952 0.908947 0.062414 -0.020777 -490477.000000 0 0 1
21.644161 -16.431419 20.282677 33.909412 -0.649339 0.929614 0.062103 -0.023742 -636391.000000 0 0 1
21.979361 -16.398419 21.647677 34.937406 -0.640989 0.902547 0.062219 -0.007347 147307.000000 0 0 1
33.986379 -1.899119 -7.545020 34.865569 -0.055821 1.788925 0.166882 -0.035419 -722053.000000 0 0 1
35.173659 -1.346119 -7.983820 36.093485 -0.038252 1.793839 0.144217 -0.035101 -587346.000000 0 0 1
36.235809 -2.277119 -7.976420 37.173140 -0.062759 1.787053 0.151945 -0.048531 -420176.000000 0 0 1
-36.223419 -1.604519 -8.387020 37.216296 0.044266 1.798108 0.120732 -0.049734 -172485.000000 0 0 1
-35.177290 -2.563619 -8.496720 36.279583 0.072749 1.807193 0.142869 -0.045069 567252.000000 0 0 1
-33.893709 -2.079419 -8.859020 35.094013 0.061274 1.825994 0.193759 -0.047568 84218.000000 0 0 1
-32.731579 -3.039219 -8.673420 33.997373 0.092587 1.828768 0.168583 -0.041014 -469761.000000 0 0 1
-32.368599 -3.238019 -7.320220 33.343614 0.099704 1.792138 0.160877 -0.041960 304884.000000 0 0 1
-31.109629 -3.895019 -7.260120 32.182131 0.124555 1.798350 0.153099 -0.046307 88178.600000 0 0 1
-30.655349 -4.101319 -5.810220 31.469508 0.132998 1.756492 0.146779 -0.061027 -357787.000000 0 0 1
-30.233849 -2.860519 -5.231020 30.816096 0.094332 1.741372 0.148802 -0.053749 451106.000000 0 0 1
-29.789799 -3.072019 -3.907720 30.201651 0.102760 1.700548 0.154893 -0.050577 -144919.000000 0 0 1
-29.545699 -1.703419 -3.120920 29.758866 0.057590 1.675863 0.175058 -0.049312 -468439.000000 0 0 1
-28.229489 -1.250619 -3.261420 28.444770 0.044273 1.685707 0.148892 -0.037455 24380.900000 0 0 1
-28.198449 0.084981 -2.817620 28.338997 -0.003014 1.670386 0.158434 -0.047686 877353.000000 0 0 1
-26.718839 0.541081 -2.460320 26.837330 -0.020248 1.662601 0.166918 -0.031744 902880.000000 0 0 1
-26.157949 -0.227419 -1.452320 26.199222 0.008694 1.626258 0.146777 -0.033572 -191264.000000 0 0 1
-24.777039 -0.001919 -1.311720 24.811737 0.000077 1.623688 0.121835 -0.028277 17297.100000 0 1 0
-24.209639 -0.830619 -0.107720 24.224123 0.034296 1.575243 0.115861 -0.034716 -146273.000000 0 1 0
-24.235639 -2.235019 -0.190220 24.339221 0.091960 1.578612 0.121601 -0.036773 409044.000000 0 1 0
-23.686439 -2.890119 0.983980 23.882387 0.121416 1.529584 0.112780 -0.030411 201887.000000 0 1 0
-23.475839 -4.429719 0.879380 23.906291 0.186500 1.534004 0.097719 -0.023559 296797.000000 0 1 0
-24.750739 -4.948919 1.221280 25.270188 0.197348 1.522449 0.111440 -0.030411 574477.000000 0 0 1
-24.595139 -6.371019 1.422580 25.446699 0.253465 1.514863 0.083729 -0.019010 -316744.000000 0 0 1
-25.871049 -7.051419 1.905780 26.882442 0.266097 1.499844 0.114212 -0.024715 -287463.000000 0 0 1
-26.186349 -6.722519 3.278480 27.233538 0.251292 1.450120 0.108096 -0.024855 -288758.000000 0 0 1
-27.379059 -7.368519 3.585780 28.579114 0.262901 1.444996 0.115996 -0.012185 -423620.000000 0 0 1
-27.600269 -7.449419 5.093580 29.038134 0.263622 1.394474 0.095383 -0.019243 -54436.600000 0 0 1
-26.691129 -8.359619 5.669880 28.538520 0.303521 1.370791 0.095305 0.006492 -10132.400000 0 0 1
-26.893719 -8.643319 7.041780 29.112983 0.310962 1.326496 0.070597 -0.006131 132763.000000 0 0 1
-26.335549 -7.554919 8.033980 28.551406 0.279369 1.285558 0.086975 -0.003737 165107.000000 0 0 1
-24.922839 -7.486719 8.057180 27.241825 0.291820 1.270540 0.113130 -0.014129 50812.200000 0 0 1
-24.548139 -6.273119 8.717780 26.794829 0.250189 1.239411 0.120965 -0.028052 -641507.000000 0 0 1
-23.146739 -5.764319 8.424880 25.297777 0.244069 1.231283 0.152375 -0.038531 -656435.000000 0 0 1
-22.109339 -6.617419 8.857680 24.719863 0.290818 1.204326 0.138621 -0.039473 -106889.000000 0 1 0
-20.942539 -6.211719 8.177280 23.324736 0.288342 1.212602 0.129187 -0.030640 741743.000000 0 1 0
-19.589939 -6.829019 8.736580 22.510643 0.335426 1.172218 0.138643 -0.037145 892885.000000 0 1 0
-18.958139 -5.954619 9.641280 22.086711 0.304336 1.119070 0.099740 -0.035194 -140113.000000 0 1 0
-17.936939 -6.608719 10.332280 21.729357 0.353009 1.075266 0.091559 -0.039789 -574293.000000 0 1 0
-17.295539 -5.681219 11.377180 21.467467 0.317375 1.012227 0.049689 -0.021786 -24220.600000 0 1 0
-18.071839 -5.455219 12.575880 22.682670 0.293165 0.983122 0.063801 -0.027904 559827.000000 0 1 0
-18.827539 -4.256319 12.567180 23.033161 0.222332 0.993677 0.098061 -0.025052 223103.000000 0 1 0
-20.143439 -4.233419 13.388580 24.554715 0.207149 0.994103 0.108409 -0.041165 70323.300000 0 1 0
-19.915939 -4.439319 14.776080 25.192950 0.219317 0.944045 0.107917 -0.030465 -21395.500000 0 0 1
-21.099739 -4.343619 15.532080 26.557702 0.203025 0.946110 0.102921 -0.008475 -63175.800000 0 0 1
-20.946539 -5.015619 16.888080 27.370078 0.235024 0.905837 0.093612 -0.002554 -103222.000000 0 0 1
-21.976539 -4.629019 17.770080 28.638642 0.207600 0.901425 0.092021 -0.005145 125344.000000 0 0 1
-21.862239 -5.294219 19.001680 29.445714 0.237589 0.869364 0.091695 -0.006497 -87251.900000 0 0 1
-23.034139 -5.154719 20.025480 30.954201 0.220159 0.867233 0.077385 0.010184 -213228.000000 0 0 1
-23.095839 -3.837619 20.458980 31.092040 0.164656 0.852619 0.072405 0.016761 245037.000000 0 0 1
-23.435939 -3.622219 21.840080 32.238995 0.153345 0.826516 0.065448 0.001376 23050.200000 0 0 1
-23.330839 -2.125019 22.267280 32.321440 0.090831 0.810782 0.058351 0.002004 -384230.000000 0 0 1
-24.383939 -1.385519 21.773780 32.719927 0.056760 0.842687 0.066624 -0.003398 -424312.000000 0 0 1
-24.059839 -0.058819 22.005780 32.605730 0.002445 0.829960 0.071452 -0.012308 143311.000000 0 0 1
-25.210569 0.876081 21.576580 33.194715 -0.034737 0.863211 0.087403 -0.023881 232815.000000 0 0 1
-26.326739 0.798881 22.440980 34.602500 -0.030336 0.865136 0.093167 -0.022718 -445308.000000 0 0 1
-27.449159 1.434081 21.907580 35.149039 -0.052198 0.897870 0.113451 -0.025889 -767012.000000 0 0 1
-28.566109 1.542981 22.915380 36.654031 -0.053962 0.895434 0.111916 -0.028243 -594878.000000 0 0 1
-28.133519 2.290381 24.066480 37.093614 -0.081232 0.864785 0.103080 -0.021513 -304318.000000 0 0 1
-29.057659 2.199681 25.080880 38.447844 -0.075556 0.860135 0.094211 -0.025284 -633317.000000 0 0 1
-28.694039 3.014181 26.334080 39.062987 -0.104662 0.830991 0.100053 -0.021018 137033.000000 0 0 1
-27.562669 2.623581 27.089180 38.735095 -0.094900 0.796316 0.083020 -0.028525 351975.000000 0 0 1
-27.248679 3.500681 28.203280 39.372202 -0.127772 0.772276 0.073107 -0.026099 256568.000000 0 0 1
-26.152129 2.877081 29.133880 39.255502 -0.109573 0.734508 0.067478 -0.028244 243546.000000 0 0 1
-26.549269 1.877781 30.055480 40.146253 -0.070611 0.724773 0.072377 -0.025055 1039240.000000 0 0 1
-25.460559 1.603381 31.001680 40.148662 -0.062892 0.688544 0.067982 -0.031132 969935.000000 0 0 1
-25.610889 0.290281 31.757480 40.798767 -0.011334 0.678694 0.074741 -0.037247 -80268.400000 0 0 1
-25.743779 -0.876419 30.984680 40.293432 0.034031 0.693559 0.068185 -0.033077 59426.600000 0 0 1
-26.291529 -1.905619 31.796780 41.302677 0.072354 0.692193 0.069557 -0.022049 -209402.000000 0 0 1
-27.198289 -2.950719 31.076380 41.402839 0.108066 0.721848 0.060892 -0.016257 655180.000000 0 0 1
-28.497449 -2.518419 30.655780 41.931180 0.088145 0.750867 0.070226 -0.012244 460907.000000 0 0 1
-28.528889 -1.474419 29.647880 41.171206 0.051636 0.766833 0.071166 -0.015303 -158308.000000 0 0 1
-29.962479 -1.287319 29.046380 41.750443 0.042938 0.801383 0.096540 -0.023807 1325870.000000 0 0 1
-30.850159 -0.657519 29.992980 43.031889 0.021310 0.799599 0.123712 -0.024519 -500612.000000 0 0 1
-32.161959 -0.504619 29.522880 43.660585 0.015689 0.828217 0.105065 -0.025250 -60860.600000 0 0 1
-33.048429 -0.107719 30.743380 45.137187 0.003259 0.821519 0.107616 -0.015835 3855.200000 0 0 1
-33.554429 -1.203919 31.435980 45.995325 0.035864 0.818304 0.099420 -0.012032 -64382.900000 0 0 1
-34.264874 -0.810319 32.606880 47.306943 0.023644 0.810326 0.125761 -0.013622 231290.000000 0 0 1
-34.419396 -1.908919 33.619980 48.152278 0.055404 0.797915 0.118098 -0.010217 132718.000000 0 0 1
-35.391189 -2.879419 33.271380 48.660169 0.081181 0.817907 0.076415 -0.006946 140793.000000 0 0 1
-35.248458 -4.068619 34.012180 49.151153 0.114918 0.806552 0.073027 -0.003276 -19764.100000 0 0 1
-36.416539 -5.021819 33.706780 49.875144 0.137035 0.828715 0.069088 -0.016991 -20720.400000 0 0 1
36.113679 -4.617819 -33.795317 49.675401 -0.127179 2.319000 0.070495 -0.022202 557908.000000 0 0 1
35.013019 -5.421419 33.711780 48.905903 -0.153620 0.810247 0.074786 -0.022528 1066140.000000 0 0 1
33.613419 -4.919119 -33.829317 47.942490 -0.145312 2.354098 0.079586 -0.026338 133170.000000 0 0 1
33.271769 -5.268719 -32.486217 46.798764 -0.157050 2.338060 0.081802 -0.029984 148196.000000 0 0 1
32.839529 -6.602619 -32.278417 46.518012 -0.198412 2.337675 0.089765 -0.029229 41239.500000 0 0 1
31.424649 -6.984119 -32.857317 45.998802 -0.218695 2.366431 0.087055 -0.026434 687717.000000 0 0 1
30.311939 -6.643719 -32.029917 44.596729 -0.215766 2.372026 0.082836 -0.025743 -6301.890000 0 0 1
29.169339 -7.293819 -32.518117 44.288577 -0.245027 2.395332 0.089602 -0.029168 -401536.000000 0 0 1
27.877139 -6.776819 -31.856217 42.870488 -0.238470 2.408458 0.088385 -0.032627 1214980.000000 0 0 1
26.631839 -7.415819 -32.268217 42.491023 -0.271577 2.433206 0.079394 -0.031866 1469980.000000 0 0 1
25.491839 -6.964819 -31.568217 41.169101 -0.266708 2.444628 0.071630 -0.034803 1072600.000000 0 0 1
24.103239 -7.372519 -32.241917 40.925070 -0.296836 2.478071 0.078186 -0.039331 1120870.000000 0 0 1
23.807139 -8.796919 -32.271917 41.056574 -0.353947 2.475165 0.092740 -0.045546 362661.000000 0 0 1
23.471839 -9.349119 -31.006017 39.996329 -0.379051 2.457862 0.095400 -0.047761 -486234.000000 0 0 1
23.452639 -10.881219 -31.018417 40.380309 -0.434407 2.446754 0.109245 -0.046859 374225.000000 0 0 1
22.290939 -11.456019 -31.633017 40.358073 -0.474731 2.471572 0.117848 -0.050489 358805.000000 0 0 1
22.254739 -12.879319 -31.617717 40.753286 -0.524627 2.458830 0.116015 -0.040604 -763462.000000 0 0 1
20.980339 -13.485719 -32.223817 40.748173 -0.571282 2.482918 0.098665 -0.028176 838198.000000 0 0 1
19.722339 -13.093519 -31.637717 39.513998 -0.586080 2.499211 0.079538 -0.020804 541662.000000 0 0 1
19.209139 -11.900919 -32.178917 39.320549 -0.554667 2.529372 0.070385 -0.024108 -893766.000000 0 0 1
17.850539 -11.436719 -31.649017 38.093314 -0.569805 2.551391 0.060410 -0.024357 27591.600000 0 0 1
16.766339 -12.078519 -32.322317 38.363171 -0.624288 2.572769 0.038319 -0.009866 612492.000000 0 0 1
15.539939 -11.734519 -31.651517 37.161905 -0.646770 2.590054 0.054211 -0.017481 1023580.000000 0 0 1
14.260539 -11.954319 -32.517617 37.465506 -0.697650 2.621825 0.043893 -0.012471 -415517.000000 0 0 1
13.970739 -13.350819 -32.737117 38.015059 -0.762712 2.608347 0.052885 -0.009637 486420.000000 0 0 1
12.653339 -13.454419 -33.279317 38.061021 -0.816072 2.634927 0.036349 -0.011160 290451.000000 0 0 1
11.536339 -13.512219 -32.240417 36.811841 -0.864117 2.637921 0.039443 -0.015030 -1261600.000000 0 0 1
11.338439 -12.310919 -31.519717 35.687694 -0.826496 2.653459 0.073334 -0.009136 352434.000000 0 0 1
10.073339 -12.386019 -30.822717 34.712037 -0.888008 2.663675 0.076870 -0.026524 827315.000000 0 0 1
9.055239 -11.608219 -31.694517 34.946967 -0.908326 2.706739 0.074359 -0.028828 -793535.000000 0 0 1
9.260239 -10.172119 -31.736517 34.589457 -0.832290 2.732595 0.064647 -0.019580 887397.000000 0 0 1
8.132939 -9.458419 -32.300217 34.625286 -0.860604 2.773042 0.058752 -0.014581 78711.900000 0 0 1
8.447939 -7.977119 -32.589017 34.598354 -0.756741 2.799110 0.066677 -0.013751 -274113.000000 0 0 1
8.774039 -7.150919 -31.466217 33.440129 -0.683826 2.796286 0.058086 -0.014447 247101.000000 0 0 1
9.226539 -5.898219 -31.912117 33.738720 -0.568793 2.811031 0.046483 -0.000509 -69186.800000 0 0 1
9.502539 -4.936119 -30.744517 32.555934 -0.479088 2.806439 0.041782 -0.003909 -27632.600000 0 0 1
8.303139 -4.575119 -30.098717 31.556403 -0.503619 2.836459 0.045451 -0.005828 -98434.900000 0 0 1
8.538439 -3.635019 -29.074017 30.519121 -0.402484 2.832629 0.039764 -0.001678 653016.000000 0 0 1
7.265539 -2.991919 -28.370617 29.438606 -0.390634 2.871407 0.032765 -0.001979 -66778.300000 0 0 1
6.563439 -2.182419 -29.304817 30.110031 -0.321011 2.909806 0.037643 0.001097 -263934.000000 0 0 1
5.243839 -1.914119 -28.948917 29.482223 -0.349995 2.951099 0.050546 -0.006985 189438.000000 0 0 1
4.179039 -3.071619 -28.947217 29.408172 -0.633836 2.964305 0.045201 -0.016465 -303237.000000 0 0 1
4.388639 -3.962319 -27.841117 28.462044 -0.734392 2.932329 0.039452 -0.009572 -150164.000000 0 0 1
3.268739 -4.798519 -27.680217 28.282589 -0.972801 2.934835 0.064394 -0.013745 62824.800000 0 0 1
3.306039 -5.621519 -26.369017 27.163513 -1.039170 2.899137 0.038637 -0.022428 -78939.000000 0 0 1
3.139839 -4.821219 -25.265517 25.912335 -0.993540 2.917689 0.056111 -0.027882 47382.100000 0 0 1
3.237139 -5.627519 -24.114417 24.973048 -1.048786 2.878605 0.052337 -0.034465 -73808.900000 0 1 0
3.068839 -4.834219 -22.808817 23.516581 -1.005170 2.895631 0.066268 -0.040450 -3698.570000 0 1 0
4.239139 -4.086019 -22.584217 23.339081 -0.767008 2.886566 0.056460 -0.031205 53493.200000 0 1 0
4.080639 -3.321819 -21.425817 22.062451 -0.683246 2.900778 0.058263 -0.029862 225725.000000 0 1 0
5.243239 -2.305919 -21.221717 21.981130 -0.414330 2.877967 0.073264 -0.028792 280474.000000 0 1 0
6.498939 -2.910619 -20.947017 22.124318 -0.421073 2.813899 0.068907 -0.027022 -199197.000000 0 1 0
7.307439 -1.813419 -20.553117 21.888759 -0.243247 2.790451 0.086401 -0.017365 -196408.000000 0 1 0
8.681239 -2.265719 -20.013417 21.932493 -0.255295 2.720153 0.071395 -0.028590 -824644.000000 0 1 0
9.547539 -2.723019 -21.023317 23.249735 -0.277830 2.700391 0.078528 -0.037025 563414.000000 0 1 0
10.693939 -3.442319 -20.528917 23.401844 -0.311420 2.640868 0.067406 -0.038323 1261250.000000 0 1 0
11.876439 -2.556819 -19.987317 23.389741 -0.212049 2.595448 0.067846 -0.031259 -195515.000000 0 1 0
11.583939 -1.993019 -18.750417 22.130023 -0.170382 2.581647 0.062949 -0.026386 746701.000000 0 1 0
12.780139 -1.478019 -18.155217 22.251481 -0.115138 2.525099 0.064256 -0.024319 473934.000000 0 1 0
12.996339 0.047081 -18.383217 22.513323 0.003623 2.526203 0.056345 -0.019521 -90919.600000 0 1 0
13.344839 0.424981 -19.705617 23.802871 0.031835 2.546091 0.060874 -0.021377 351518.000000 0 1 0
13.352939 1.843281 -19.784417 23.939963 0.137176 2.543512 0.071315 -0.026480 -211706.000000 0 1 0
13.704239 2.622281 -21.070617 25.271593 0.189063 2.556692 0.067084 -0.024842 -695534.000000 0 0 1
15.071039 2.727781 -21.353817 26.278556 0.179056 2.519387 0.075028 -0.025585 -328426.000000 0 0 1
15.306739 3.719581 -22.327617 27.324970 0.238382 2.527183 0.083602 -0.031358 -367070.000000 0 0 1
16.707939 3.807381 -22.976317 28.662912 0.224053 2.500770 0.079398 -0.025989 164444.000000 0 0 1
17.131439 2.659781 -23.714217 29.375580 0.154028 2.510319 0.067882 -0.019165 191797.000000 0 0 1
17.602839 1.606681 -22.920017 28.944231 0.091022 2.484658 0.057287 -0.018186 -592084.000000 0 0 1
9.979061 26.896381 3.279980 28.874820 1.215521 1.456958 0.016278 -0.014950 237952.000000 0 0 1
9.663561 27.304381 4.620080 29.330168 1.230634 1.412618 0.028912 -0.010868 -124053.000000 0 0 1
10.793361 27.876681 5.216080 30.344908 1.201388 1.398045 0.027250 -0.005309 -336874.000000 0 0 1
10.570861 28.274681 6.697180 30.920105 1.213023 1.352470 0.032729 -0.008787 15927.100000 0 0 1
10.485561 27.212781 7.541280 30.122306 1.203011 1.317749 0.029115 -0.017089 71259.900000 0 0 1
10.511761 27.664181 8.837780 30.885439 1.207669 1.280593 0.036314 -0.017981 -696794.000000 0 0 1
10.547461 26.514781 9.782080 30.165736 1.192192 1.240548 0.055037 -0.022177 220564.000000 0 0 1
11.770561 25.847081 10.044280 30.124828 1.143467 1.230865 0.043914 -0.021080 -145284.000000 0 0 1
12.408561 25.173381 9.027480 29.481636 1.112826 1.259590 0.038422 -0.026015 -241637.000000 0 0 1
13.711861 24.521281 9.578380 29.682549 1.060931 1.242222 0.059564 -0.027820 50510.500000 0 0 1
14.742061 25.435281 9.896180 31.019611 1.045519 1.246091 0.058820 -0.024325 -224823.000000 0 0 1
15.831361 24.736581 10.470280 31.179435 1.001485 1.228334 0.058461 -0.027358 536680.000000 0 0 1
17.006261 25.740781 10.741380 32.667690 0.986954 1.235756 0.063023 -0.029144 -596282.000000 0 0 1
17.658661 26.336481 9.692080 33.156823 0.980143 1.274155 0.049679 -0.029001 -1201870.000000 0 0 1
19.031361 26.367981 9.709380 33.937224 0.945615 1.280644 0.050519 -0.034561 -872254.000000 0 0 1
19.701161 27.251981 10.802480 35.319963 0.944849 1.259969 0.051599 -0.030711 -1058510.000000 0 0 1
19.713761 28.649281 10.665780 36.375438 0.968097 1.273210 0.057948 -0.039570 1169200.000000 0 0 1
18.365661 29.182281 10.733080 36.112353 1.009080 1.269023 0.041157 -0.019229 1114890.000000 0 0 1
18.423961 30.655381 11.259680 37.496334 1.029640 1.265802 0.043232 -0.007411 -265643.000000 0 0 1
19.050861 31.579381 10.373380 38.311873 1.027977 1.296612 0.058919 -0.025159 -69581.800000 0 0 1
18.454061 31.821681 9.112680 37.897396 1.045272 1.327960 0.064196 -0.026346 1000530.000000 0 0 1
16.996761 32.442981 9.144580 37.749970 1.088215 1.326122 0.056541 -0.018047 749341.000000 0 0 1
17.008861 33.761481 9.590080 39.001392 1.104117 1.322358 0.050995 -0.016968 -48568.200000 0 0 1
15.745561 -33.770770 9.813480 38.531701 -1.134513 1.313273 0.061546 -0.007482 61735.200000 0 0 1
15.887761 -32.237770 9.991680 37.303196 -1.112901 1.299635 0.073227 -0.005721 92711.600000 0 0 1
16.474661 -31.658670 8.809680 36.759982 -1.090975 1.328787 0.074085 -0.017901 280769.000000 0 0 1
16.571861 -30.204270 8.869780 35.575237 -1.068983 1.318814 0.057881 -0.023182 -194673.000000 0 0 1
17.249861 -29.642370 7.636480 35.136073 -1.043768 1.351708 0.058308 -0.022474 111916.000000 0 0 1
16.403061 -29.760870 6.507280 34.599342 -1.067061 1.381594 0.058258 -0.013652 135741.000000 0 0 1
16.984161 -29.116570 5.370880 34.133308 -1.042735 1.412790 0.062879 -0.017631 307671.000000 0 0 1
16.489061 -29.725270 3.991480 34.225907 -1.064340 1.453909 0.061711 -0.020275 134795.000000 0 0 1
17.010761 -31.009870 3.731480 35.565460 -1.069060 1.465684 0.057711 -0.019933 -160516.000000 0 0 1
16.821761 -31.353770 2.361880 35.659627 -1.078365 1.504514 0.065390 -0.021426 -130550.000000 0 0 1
17.181461 -32.816770 2.011780 37.097038 -1.088481 1.516540 0.057229 -0.015230 1209200.000000 0 0 1
18.614061 -33.068670 1.968480 37.998620 -1.058110 1.518969 0.067858 -0.000669 1324240.000000 0 0 1
18.878161 33.723881 1.623580 38.682310 1.060471 1.528812 0.087364 -0.007049 -88319.100000 0 0 1
20.308561 33.215481 1.886380 38.977740 1.022023 1.522381 0.099676 -0.011698 41046.800000 0 0 1
20.641261 33.063881 3.235980 39.112062 1.012712 1.487966 0.088758 -0.028219 -84403.100000 0 0 1
21.988261 32.703181 3.417180 39.555768 0.978864 1.484300 0.057935 -0.012402 -307106.000000 0 0 1
22.365161 32.604381 4.916380 39.842400 0.969558 1.447085 0.060739 0.001442 -303661.000000 0 0 1
21.778261 31.513781 5.600180 38.713990 0.966088 1.425632 0.081985 -0.015274 -5512.430000 0 0 1
22.354461 30.194781 5.466380 37.964826 0.933505 1.426309 0.063809 -0.019500 32577.200000 0 0 1
21.618261 29.153981 6.369980 36.849429 0.932745 1.397059 0.072577 -0.031289 -204138.000000 0 0 1
20.343461 28.924781 5.855680 35.843944 0.957844 1.406695 0.072239 -0.031200 -960335.000000 0 0 1
19.488561 28.388281 6.836380 35.106048 0.969188 1.374809 0.067451 -0.036302 327888.000000 0 0 1
17.984161 28.605381 6.467980 34.402509 1.009542 1.381662 0.074083 -0.029601 313892.000000 0 0 1
17.623161 30.011881 6.462180 35.398426 1.039837 1.387211 0.071667 -0.033574 23202.100000 0 0 1
17.874161 30.581281 5.220080 35.804324 1.041866 1.424480 0.080228 -0.033021 -363431.000000 0 0 1
17.856061 32.158081 5.286680 37.160867 1.063925 1.428047 0.089233 -0.028929 -1083880.000000 0 0 1
16.597061 32.670181 5.238380 37.016804 1.100754 1.428806 0.076733 -0.027472 -1510500.000000 0 0 1
16.576161 -34.057470 5.550480 38.281695 -1.117836 1.425293 0.073645 -0.028301 -329796.000000 0 0 1
15.211461 -33.368170 5.737580 37.117962 -1.143074 1.415597 0.066826 -0.031195 -325629.000000 0 0 1
14.435961 -33.454370 4.578680 36.722692 -1.163423 1.445788 0.066169 -0.028364 -581692.000000 0 0 1
13.343161 -32.573370 4.716380 35.514907 -1.182012 1.437603 0.051090 -0.025211 -112403.000000 0 0 1
12.407361 -32.595970 3.474580 35.050144 -1.207089 1.471502 0.052905 -0.020368 -361783.000000 0 0 1
11.462261 -31.587270 3.595880 33.794517 -1.222697 1.464190 0.054460 -0.022368 -378905.000000 0 0 1
10.826261 -31.361270 2.333880 33.259347 -1.238394 1.500566 0.053768 -0.013812 -308112.000000 0 0 1
10.259761 -29.924270 2.078880 31.702466 -1.240499 1.505175 0.064985 -0.011319 368186.000000 0 0 1
9.478761 -29.542970 0.931580 31.040326 -1.260326 1.540780 0.066888 -0.000523 164693.000000 0 0 1
8.389961 -30.377870 0.618980 31.521256 -1.301327 1.551158 0.055925 -0.008987 -469658.000000 0 0 1
8.498161 -31.075170 -0.858820 32.227667 -1.303852 1.597448 0.074097 -0.016314 938450.000000 0 0 1
9.730561 -31.834570 -0.904720 33.300783 -1.274155 1.597968 0.066614 -0.018961 686807.000000 0 0 1
9.904361 -32.528470 -2.144320 34.070454 -1.275232 1.633776 0.076719 -0.009043 -113588.000000 0 0 1
11.164661 -33.387170 -1.991220 35.260711 -1.248086 1.627298 0.070149 -0.010889 -186179.000000 0 0 1
10.978561 33.694981 -1.090720 35.455186 1.255821 1.601565 0.066331 -0.014585 -544596.000000 0 0 1
12.083461 32.863581 -1.125220 35.032714 1.218454 1.602921 0.076305 -0.017401 -730931.000000 0 0 1
12.302861 32.005381 0.117380 34.288753 1.203810 1.567373 0.066063 -0.020638 -285129.000000 0 0 1
12.671761 32.608381 1.329180 35.009238 1.200152 1.532821 0.057457 -0.015673 44315.700000 0 0 1
13.945861 33.209481 1.449580 36.047995 1.173223 1.530573 0.067040 -0.013190 -297211.000000 0 0 1
15.134061 32.273881 1.719880 35.687549 1.132316 1.522585 0.084881 -0.019876 -581799.000000 0 0 1
15.767861 31.924381 0.502880 35.609611 1.112030 1.556674 0.084628 -0.019739 -248021.000000 0 0 1
16.574461 30.819281 0.687380 35.000190 1.077372 1.551156 0.092062 -0.017352 -359516.000000 0 0 1
17.240561 30.163081 -0.563420 34.747170 1.051537 1.587012 0.092336 -0.013346 1021570.000000 0 0 1
18.474261 30.765381 -1.022820 35.900601 1.030018 1.599291 0.076136 -0.004557 834441.000000 0 0 1
18.272461 31.638581 -2.111720 36.597021 1.047057 1.628530 0.084417 -0.016131 22802.400000 0 0 1
19.576961 32.326081 -2.572320 37.879410 1.026263 1.638757 0.083604 -0.010553 64381.100000 0 0 1
20.057161 33.380981 -1.734920 38.981913 1.029748 1.615317 0.057938 -0.001964 -384382.000000 0 0 1
21.067061 33.996981 -2.499620 40.073231 1.016036 1.633213 0.056034 0.005060 -411676.000000 0 0 1
22.135661 -33.330770 -1.610320 40.043986 -0.984558 1.611021 0.053484 0.005296 791243.000000 0 0 1
23.042161 33.927281 -0.827720 41.020564 0.974192 1.590976 0.050900 -0.000041 1070970.000000 0 0 1
23.924561 33.035481 -1.464720 40.815108 0.944007 1.606691 0.061374 0.002594 13718.100000 0 0 1
24.851261 33.510081 -2.599820 41.800356 0.932689 1.633033 0.052033 0.001647 -768746.000000 0 0 1
24.051361 33.740681 -3.713920 41.601619 0.951512 1.660189 0.050893 -0.008512 -471149.000000 0 0 1
24.819461 -33.819670 -4.719120 42.214284 -0.937694 1.682820 0.050706 -0.008962 -418110.000000 0 0 1
23.969961 -33.327670 -5.878520 41.471069 -0.947286 1.713025 0.046041 -0.019583 -255733.000000 0 0 1
23.165461 -32.183270 -5.638820 40.052437 -0.946906 1.712052 0.053844 -0.012786 135599.000000 0 0 1
22.530561 -31.904770 -6.867520 39.657324 -0.955934 1.744845 0.055056 -0.021468 -219745.000000 0 0 1
21.618561 -30.662670 -6.827920 38.133738 -0.956692 1.750819 0.059117 -0.014930 -90245.300000 0 0 1
20.397361 -30.881170 -6.180720 37.521997 -0.987067 1.736273 0.075655 -0.008934 -18205.800000 0 0 1
19.678861 -29.654270 -5.819120 36.062383 -0.984913 1.732868 0.085630 -0.019738 494535.000000 0 0 1
18.457861 -29.817770 -4.922120 35.412135 -1.016507 1.710243 0.068709 -0.008188 271188.000000 0 0 1
17.269661 -30.282470 -5.549020 35.299586 -1.052512 1.728649 0.076336 -0.015500 133861.000000 0 0 1
16.177261 -30.166870 -4.653620 34.545622 -1.078564 1.705917 0.062308 -0.014563 1175470.000000 0 0 1
14.832261 -30.865470 -5.112120 34.623792 -1.122833 1.718986 0.062304 -0.011273 925450.000000 0 0 1
14.858861 -32.271370 -4.973320 35.874238 -1.139299 1.709876 0.062574 -0.004472 -55426.300000 0 0 1
13.623961 -32.866270 -5.331720 35.975426 -1.177830 1.719549 0.064232 0.001920 172848.000000 0 0 1
13.759761 33.689381 -5.340620 36.780805 1.183044 1.716513 0.064799 -0.001373 -12277.200000 0 0 1
14.008961 33.041681 -4.107420 36.123047 1.169791 1.684749 0.080024 -0.015803 -13084.900000 0 0 1
14.346061 31.669981 -4.227320 35.023812 1.145462 1.691790 0.073586 -0.011754 -170808.000000 0 0 1
13.176961 30.753281 -4.615020 33.774176 1.165987 1.707869 0.068117 -0.015699 78003.100000 0 0 1
12.228461 30.320181 -3.657020 32.897149 1.187439 1.682192 0.062444 -0.016949 2462.370000 0 0 1
12.737061 29.436981 -2.740320 32.191271 1.162431 1.656026 0.059787 -0.018507 -10240.600000 0 0 1
11.627361 28.567181 -2.018120 30.908771 1.184255 1.636136 0.047514 -0.015856 548598.000000 0 0 1
10.973661 29.265781 -0.984020 31.271000 1.212056 1.602269 0.039321 -0.018146 -588145.000000 0 0 1
9.949861 28.417281 -0.555520 30.113953 1.234002 1.589245 0.020345 -0.013249 159118.000000 0 0 1
8.784161 29.102181 0.232080 30.399873 1.277654 1.563162 0.021233 -0.005510 392114.000000 0 0 1
7.836861 28.217181 0.784680 29.295757 1.299890 1.544008 0.020048 -0.009963 54963.300000 0 0 1
6.685861 29.006781 1.114980 29.788206 1.344260 1.533357 0.031432 -0.005347 -135532.000000 0 0 1
5.706261 28.306981 2.017680 28.946806 1.371877 1.501037 0.030913 -0.017890 -265061.000000 0 0 1
4.995161 27.324481 1.255080 27.805649 1.389984 1.525643 0.045893 -0.027446 -271020.000000 0 0 1
3.896161 26.857081 1.987080 27.210868 1.426731 1.497706 0.050429 -0.032942 -164734.000000 0 0 1
3.288661 25.671781 1.196080 25.909192 1.443386 1.524616 0.064727 -0.035409 -282298.000000 0 0 1
2.034461 25.223081 1.634780 25.357747 1.490312 1.506283 0.066996 -0.035962 -281896.000000 0 0 1
1.444561 24.535581 0.554580 24.584325 1.511988 1.548236 0.059435 -0.033565 -38379.400000 0 1 0
0.082961 23.941381 0.948580 23.960309 1.567331 1.531196 0.056892 -0.026991 175651.000000 0 1 0
-0.946039 24.855381 1.275680 24.906069 -1.532753 1.519554 0.070957 -0.026260 -173716.000000 0 1 0
-2.206039 24.286581 1.029080 24.408269 -1.480211 1.528623 0.066207 -0.020069 340831.000000 0 1 0
-3.447039 25.096581 1.551180 25.379649 -1.434299 1.509639 0.098783 -0.034391 248331.000000 0 0 1
-4.573039 24.254981 1.678180 24.739302 -1.384444 1.502910 0.087007 -0.031652 433708.000000 0 1 0
-5.640339 24.930781 2.363780 25.669918 -1.348302 1.478582 0.074257 -0.025446 574141.000000 0 0 1
-6.895239 25.361681 1.578380 26.329650 -1.305337 1.510814 0.079988 -0.025517 -3680.580000 0 0 1
-6.702039 26.471081 0.652380 27.314118 -1.322824 1.546910 0.098807 -0.034549 -485345.000000 0 0 1
-7.825339 26.501381 -0.153220 27.632998 -1.283675 1.576341 0.093213 -0.028903 -603944.000000 0 0 1
-7.689039 27.569081 -1.247220 28.648405 -1.298807 1.614346 0.088070 -0.031163 -136405.000000 0 0 1
-7.925739 28.880481 -0.859220 29.960604 -1.302958 1.599479 0.099143 -0.039584 14434.900000 0 0 1
-7.886639 29.788081 -1.940420 30.875460 -1.311977 1.633684 0.099144 -0.039911 -102858.000000 0 0 1
-7.862139 31.221481 -1.471820 32.229805 -1.324107 1.616479 0.083881 -0.040802 -856357.000000 0 0 1
-7.994039 32.242081 -2.441420 33.307911 -1.327759 1.644161 0.074914 -0.029625 -529587.000000 0 0 1
-6.842339 32.532681 -3.165820 33.394840 -1.363496 1.665739 0.067395 -0.027665 -343850.000000 0 0 1
-5.574839 32.986081 -2.420220 33.541285 -1.403373 1.643016 0.082134 -0.036605 -815678.000000 0 0 1
-5.677339 -33.816470 -1.952520 34.345278 1.404461 1.627677 0.078999 -0.030940 22922.100000 0 0 1
-4.509039 -33.434770 -1.253620 33.760729 1.436744 1.607937 0.096274 -0.031797 187319.000000 0 0 1
-4.238639 -31.921570 -1.461020 32.234876 1.438786 1.616136 0.094230 -0.036027 55800.800000 0 0 1
-5.222139 -31.143770 -0.814220 31.589050 1.404663 1.596575 0.094585 -0.031535 -21199.100000 0 0 1
-5.339839 -29.968070 -1.568020 30.480449 1.394463 1.622263 0.107303 -0.027291 -531323.000000 0 0 1
-6.746139 -29.405970 -1.489220 30.206609 1.345285 1.620117 0.121478 -0.025357 -553744.000000 0 0 1
-7.076139 -28.852170 -0.203520 29.707926 1.330289 1.577647 0.109239 -0.020954 -113329.000000 0 0 1
-8.345139 -28.234670 -0.109220 29.442314 1.283415 1.574506 0.089772 -0.014042 257618.000000 0 0 1
-8.566939 -27.744870 1.332580 29.067955 1.271308 1.524937 0.084886 -0.007964 765423.000000 0 0 1
-7.539339 -26.754170 1.554080 27.839583 1.296119 1.514945 0.110997 -0.012882 390057.000000 0 0 1
-7.387039 -26.333970 2.923180 27.506205 1.297311 1.464322 0.097742 -0.008263 -179366.000000 0 0 1
-8.331939 -25.289570 3.499580 26.855737 1.252534 1.440114 0.079585 -0.006751 -340334.000000 0 0 1
-8.043239 -24.066070 2.970080 25.547814 1.248253 1.454277 0.085010 -0.010390 -419148.000000 0 0 1
-8.909039 -23.079470 3.485780 24.983666 1.202403 1.430817 0.074220 -0.013200 -234566.000000 0 1 0
-8.323739 -21.666870 3.505080 23.473889 1.204011 1.420918 0.037147 -0.004159 185825.000000 0 1 0
-7.451339 -21.643170 4.639680 23.355425 1.239225 1.370811 0.031714 -0.001325 -190653.000000 0 1 0
-6.911339 -20.348770 5.022880 22.069625 1.243377 1.341192 0.012344 -0.007907 160021.000000 0 1 0
-7.808539 -19.291770 5.742380 21.589826 1.186193 1.301580 0.022421 -0.012812 51890.400000 0 1 0
-8.150939 -19.621870 7.089480 22.399025 1.177084 1.248750 0.029322 -0.011238 333756.000000 0 1 0
-9.147439 -18.820470 7.718180 22.303722 1.118382 1.217440 0.031214 -0.013610 -185020.000000 0 1 0
-27.943759 29.187581 -5.716520 40.809890 -0.807166 1.711335 0.087462 -0.004888 -332564.000000 0 0 1
-27.094319 29.972781 -4.970520 40.708424 -0.835795 1.693202 0.084434 -0.013098 -218118.000000 0 0 1
-26.278589 29.195581 -4.071120 39.490761 -0.837933 1.674070 0.063545 -0.012024 329072.000000 0 0 1
-25.373319 30.112081 -3.238420 39.509873 -0.870597 1.652853 0.050414 -0.011146 -462124.000000 0 0 1
-26.046759 30.876581 -2.241320 40.457637 -0.870043 1.626224 0.046153 -0.014736 912317.000000 0 0 1
-25.179669 31.817481 -1.492220 40.602888 -0.901335 1.607556 0.048106 -0.014071 1320100.000000 0 0 1
-24.036739 31.230881 -0.562720 39.413822 -0.914840 1.585074 0.040434 -0.013033 930456.000000 0 0 1
-23.050039 30.543681 -1.339220 38.288565 -0.924321 1.605780 0.058618 -0.018605 580315.000000 0 0 1
-21.753739 30.761781 -0.755920 37.683998 -0.955276 1.590857 0.050640 -0.006572 359004.000000 0 0 1
-20.640839 29.972581 -1.449820 36.421173 -0.967723 1.610614 0.045378 -0.011231 -873846.000000 0 0 1
-19.414739 30.189381 -0.852220 35.903441 -0.999288 1.594535 0.061094 -0.010203 -781629.000000 0 0 1
-18.380339 29.392381 -1.359120 34.692883 -1.011950 1.609982 0.062939 -0.011745 161699.000000 0 0 1
-16.949039 29.672581 -0.854620 34.182778 -1.051821 1.595800 0.067004 -0.016719 98512.900000 0 0 1
-16.650239 29.182181 0.440880 33.600960 -1.052304 1.557675 0.058083 -0.016468 -511688.000000 0 0 1
-15.491139 29.823281 0.876480 33.618026 -1.091725 1.544722 0.063865 -0.015620 -79479.500000 0 0 1
-14.720839 28.934881 1.912880 32.520602 -1.100167 1.511942 0.079615 -0.024391 -310346.000000 0 0 1
-15.445839 28.898781 3.109780 32.914802 -1.079946 1.476176 0.066181 -0.022568 -30968.700000 0 0 1
-14.847039 28.201181 4.201880 32.146492 -1.086199 1.439711 0.073850 -0.032443 931511.000000 0 0 1
-13.551139 28.824481 4.871680 32.221380 -1.131332 1.419020 0.087884 -0.029016 770811.000000 0 0 1
-13.775839 30.010781 5.619380 33.496240 -1.140459 1.402238 0.091033 -0.028434 -227025.000000 0 0 1
-13.730339 31.152681 4.767380 34.376440 -1.155667 1.431666 0.107012 -0.025068 24855.300000 0 0 1
-13.506739 32.431481 5.647480 35.582678 -1.176173 1.411408 0.100698 -0.024535 497829.000000 0 0 1
-14.671139 32.846681 6.369780 36.533832 -1.150727 1.395548 0.094521 -0.022026 424678.000000 0 0 1
-14.444939 34.023081 7.146680 37.647063 -1.169296 1.379804 0.112712 -0.027811 963010.000000 0 0 1
-15.715839 -33.656370 7.997580 37.996054 1.133937 1.358726 0.101208 -0.024967 1000490.000000 0 0 1
-15.854639 33.534381 9.056280 38.182987 -1.129155 1.331333 0.071473 -0.020416 -110484.000000 0 0 1
-16.826139 -34.045670 9.918480 39.250514 1.111781 1.315330 0.079179 -0.020208 -849681.000000 0 0 1
-17.074939 33.333881 11.238280 39.102431 -1.097405 1.279279 0.070964 -0.015544 -253904.000000 0 0 1
-16.212039 33.565581 12.293580 39.250612 -1.120844 1.252228 0.069866 -0.022073 303433.000000 0 0 1
-14.892339 33.009681 12.090880 38.178661 -1.146986 1.248556 0.071863 -0.020737 836156.000000 0 0 1
-14.029439 33.170881 13.416780 38.433611 -1.170668 1.214197 0.068363 -0.021356 -214404.000000 0 0 1
-14.445739 32.307381 14.465680 38.232213 -1.150328 1.182768 0.049142 -0.015424 113757.000000 0 0 1
-13.889939 30.986881 14.467980 36.911240 -1.149397 1.168028 0.028046 -0.013879 -103625.000000 0 0 1
-14.796839 29.874081 13.884980 36.113707 -1.110910 1.176152 0.030170 -0.012641 3098.120000 0 0 1
-14.876039 29.949181 12.484380 35.694673 -1.109785 1.213487 0.039212 -0.009039 399568.000000 0 0 1
-16.025339 29.320681 11.949380 35.486638 -1.070603 1.227355 0.038895 -0.010051 -88534.200000 0 0 1
-15.908039 29.249481 10.434580 34.892381 -1.072668 1.267099 0.038436 -0.009340 209301.000000 0 0 1
-14.959339 28.293281 9.951980 33.516167 -1.084434 1.269320 0.029981 -0.008091 378750.000000 0 0 1
-14.861439 28.182981 8.565880 32.992682 -1.085533 1.308158 0.041390 -0.013205 11740.100000 0 0 1
-13.980539 26.950381 8.123680 31.428851 -1.092261 1.309350 0.043731 -0.013620 1155530.000000 0 0 1
-12.563339 27.063481 8.315280 30.974398 -1.136182 1.299006 0.046458 -0.013715 1201300.000000 0 0 1
-11.860639 25.834281 7.978780 29.525341 -1.140397 1.297159 0.051892 -0.014279 54726.000000 0 0 1
-10.725439 25.999481 6.992180 28.981004 -1.179539 1.327124 0.073522 -0.022834 -324097.000000 0 0 1
-11.231639 26.176281 5.678280 29.044625 -1.165478 1.374027 0.081766 -0.028810 -184987.000000 0 0 1
-10.193439 26.027481 4.807580 28.362806 -1.197516 1.400471 0.097208 -0.020969 -527309.000000 0 0 1
-10.640139 26.489381 3.358680 28.743357 -1.188846 1.453678 0.088659 -0.027744 195485.000000 0 0 1
-10.435539 27.890981 3.119380 29.942241 -1.212767 1.466427 0.103041 -0.025388 197054.000000 0 0 1
-10.996439 28.282981 1.883080 30.403859 -1.199982 1.508821 0.096481 -0.028926 133963.000000 0 0 1
-10.384439 29.646181 1.395580 31.443286 -1.233873 1.526398 0.117717 -0.035958 430113.000000 0 0 1
-10.983639 30.741381 2.083480 32.711064 -1.227640 1.507060 0.101436 -0.038253 152582.000000 0 0 1
-10.439839 31.955481 1.641080 33.657631 -1.255028 1.522019 0.100237 -0.032533 -168316.000000 0 0 1
-11.138839 33.100081 2.395580 35.006112 -1.246181 1.502310 0.096121 -0.026726 1072440.000000 0 0 1
-12.523339 33.329881 2.084580 35.665956 -1.211378 1.512316 0.118975 -0.027286 501015.000000 0 0 1
-12.688839 -33.866870 1.047580 36.181058 1.212317 1.541838 0.102292 -0.026859 -254739.000000 0 0 1
-14.189639 -33.671570 0.749280 36.546982 1.171968 1.550293 0.111097 -0.024747 300938.000000 0 0 1
-14.874339 33.300281 0.258980 36.472205 -1.150713 1.563696 0.092113 -0.019656 -26780.500000 0 0 1
-15.260339 33.423381 -1.112020 36.759175 -1.142487 1.601052 0.084379 -0.022578 -7278.260000 0 0 1
-14.122939 33.171281 -2.132320 36.115621 -1.168284 1.629872 0.079162 -0.022979 75904.300000 0 0 1
-13.873239 31.815181 -2.278820 34.783121 -1.159598 1.636358 0.075601 -0.019424 613255.000000 0 0 1
-12.443239 31.691081 -2.238320 34.119919 -1.196649 1.636445 0.075453 -0.017096 659207.000000 0 0 1
-12.043839 30.204581 -2.339020 32.601254 -1.191375 1.642604 0.069364 -0.023825 -78009.200000 0 0 1
-12.087139 29.650981 -3.615920 32.223508 -1.183715 1.683247 0.058695 -0.017441 -682237.000000 0 0 1
-10.939539 29.761881 -4.395520 32.011930 -1.218557 1.708540 0.059151 -0.022295 -491751.000000 0 0 1
-11.003439 29.055581 -5.804620 31.606899 -1.208783 1.755495 0.066510 -0.015371 -136144.000000 0 0 1
-11.293439 27.661881 -5.708220 30.418829 -1.183183 1.759570 0.061209 -0.003305 35831.800000 0 0 1
-11.128639 27.169181 -7.013620 30.186120 -1.182037 1.805285 0.056938 -0.002356 87044.600000 0 0 1
-11.555439 25.708481 -7.288420 29.113145 -1.148375 1.823836 0.070537 -0.004025 116538.000000 0 0 1
-10.941639 24.792881 -6.405120 27.846579 -1.155183 1.802889 0.043637 -0.000485 -118382.000000 0 0 1
-11.253839 23.433381 -6.716220 26.849206 -1.123075 1.823627 0.085022 -0.005520 140535.000000 0 0 1
-10.719539 22.313981 -5.721620 25.407857 -1.122955 1.797935 0.071412 -0.010520 1402180.000000 0 0 1
-9.288339 22.029481 -5.754920 24.590453 -1.171782 1.807018 0.070249 -0.016178 1291520.000000 0 1 0
-8.873939 20.923481 -4.990920 23.269038 -1.169676 1.786964 0.072074 -0.011426 -209679.000000 0 1 0
-9.120339 20.898481 -3.486120 23.066862 -1.159300 1.722509 0.069398 -0.014104 22279.600000 0 1 0
-10.445239 20.757281 -2.999520 23.429999 -1.104585 1.699169 0.085026 -0.017696 157132.000000 0 1 0
-11.013739 19.461181 -2.976920 22.558858 -1.055802 1.703145 0.085611 -0.017266 56393.500000 0 1 0
-12.318239 19.352281 -2.161220 23.041716 -1.003951 1.664730 0.084251 -0.013319 -174044.000000 0 1 0
-12.156039 19.223281 -0.793120 22.758138 -1.006922 1.605653 0.073858 -0.023276 158170.000000 0 1 0
-11.531139 18.006281 -0.381820 21.385488 -1.001203 1.588651 0.061364 -0.022185 61199.900000 0 1 0
-11.282339 17.963381 1.128880 21.242613 -1.009989 1.517629 0.053694 -0.025843 305120.000000 0 1 0
-12.515839 17.816981 1.813080 21.848988 -0.958417 1.487718 0.068309 -0.033286 448167.000000 0 1 0
-12.240039 18.057181 3.244980 22.054710 -0.975092 1.423127 0.062173 -0.030477 370163.000000 0 1 0
-13.530539 18.085281 4.100280 22.955722 -0.928479 1.391216 0.054813 -0.030200 211413.000000 0 1 0
-13.973839 16.784881 4.383080 22.275812 -0.876535 1.372740 0.038895 -0.026774 314893.000000 0 1 0
-15.239939 16.806081 5.040980 23.240300 -0.834231 1.352152 0.060955 -0.033339 346176.000000 0 1 0
-15.465739 15.432181 5.647080 22.566143 -0.784312 1.317862 0.036007 -0.033073 -343037.000000 0 1 0
-14.602339 15.008581 6.693780 21.983914 -0.799117 1.261398 0.033251 -0.026614 82737.300000 0 1 0
-14.993839 15.699381 7.871580 23.092153 -0.808381 1.222947 0.031181 -0.021561 -230115.000000 0 1 0
-13.871639 15.778581 8.976580 22.846553 -0.849624 1.167005 0.019305 -0.006108 1403080.000000 0 1 0
-12.717839 16.596281 8.717480 22.653353 -0.916940 1.175783 0.019386 -0.025797 397724.000000 0 1 0
-11.896939 16.192181 7.660080 21.503504 -0.937138 1.206572 0.022840 -0.020982 -1579670.000000 0 1 0
-10.705539 17.122081 7.547780 21.557903 -1.012019 1.213101 0.036366 -0.028942 -1171950.000000 0 1 0
-9.709639 16.921081 8.460580 21.264559 -1.049850 1.161600 0.038168 -0.033199 -1091570.000000 0 1 0
-9.242339 18.166681 8.881180 22.233409 -1.100171 1.159877 0.041844 -0.025636 -221952.000000 0 1 0
-7.970039 17.981281 9.734780 21.945704 -1.153577 1.111202 0.046774 -0.029023 348450.000000 0 1 0
-6.852439 17.516681 8.958280 20.833646 -1.197903 1.126314 0.029979 -0.021677 459291.000000 0 1 0
-5.620839 17.499681 9.656180 20.762333 -1.260008 1.087069 0.026224 -0.023738 942220.000000 0 1 0
-4.600339 18.673581 9.339780 21.379832 -1.329251 1.118702 0.018507 -0.021358 -798752.000000 0 1 0
-5.028439 19.956181 9.643780 22.727447 -1.323961 1.132582 0.030517 -0.026504 -343250.000000 0 1 0
-4.676039 20.894081 8.652380 23.093108 -1.350627 1.186752 0.031678 -0.026280 51916.900000 0 1 0
-3.269339 21.548981 8.709080 23.471157 -1.420228 1.190652 0.032922 -0.021711 861040.000000 0 1 0
-2.217639 20.624281 8.315080 22.347694 -1.463682 1.189550 0.025689 -0.013256 461115.000000 0 1 0
-1.008339 21.355881 8.178480 22.890564 -1.523615 1.205436 0.023764 -0.017707 644001.000000 0 1 0
0.299861 20.510481 8.070080 22.043047 1.556177 1.195976 0.022066 -0.009483 451368.000000 0 1 0
0.690661 19.893081 9.252980 21.950611 1.536092 1.135657 0.017089 -0.013265 -326467.000000 0 1 0
1.994261 19.372881 9.072380 21.484731 1.468217 1.134847 0.008782 -0.018438 374854.000000 0 1 0
2.575961 18.838181 10.442680 21.692445 1.434898 1.068548 -0.000793 -0.029438 1346150.000000 0 1 0
3.985161 18.492581 10.510980 21.641112 1.358542 1.063638 0.018537 -0.008252 1145470.000000 0 1 0
4.364161 18.049781 11.783080 21.992759 1.333565 1.005376 0.007698 -0.007616 -155158.000000 0 1 0
5.849461 18.160081 12.149280 22.618791 1.259185 1.003763 0.028732 -0.007761 -230123.000000 0 1 0
6.622861 17.205781 11.454780 21.705141 1.203357 1.014853 0.020376 -0.008019 -116770.000000 0 1 0
7.679061 16.769681 12.296380 22.167344 1.141381 0.982786 0.020491 0.004634 -89873.400000 0 1 0
8.917261 16.121981 11.629180 21.787006 1.065567 1.007748 0.031010 -0.003113 582009.000000 0 1 0
9.725961 17.140981 10.977380 22.559043 1.054685 1.062595 0.039038 -0.015418 430018.000000 0 1 0
10.933661 16.552781 10.514580 22.452080 0.987052 1.083417 0.038818 -0.010877 751989.000000 0 1 0
11.975761 17.542481 9.854680 23.415213 0.971795 1.136396 0.050097 -0.010904 -69186.200000 0 1 0
13.051361 16.874281 9.288280 23.266962 0.912457 1.160147 0.056103 -0.013119 -999205.000000 0 1 0
13.766261 17.876981 8.630480 24.157433 0.914583 1.205464 0.061391 -0.015562 -326901.000000 0 1 0
14.740761 17.370681 7.545280 23.999205 0.867116 1.250975 0.063914 -0.022593 -114818.000000 0 1 0
15.961961 16.962681 8.105380 24.661993 0.815783 1.235913 0.081093 -0.019014 80236.700000 0 1 0
16.880261 16.480981 7.119180 24.642416 0.773430 1.277719 0.095597 -0.021292 1592020.000000 0 1 0
18.365761 16.279781 7.652880 25.707956 0.725262 1.268529 0.084573 -0.019235 1086580.000000 0 0 1
18.619161 15.022181 8.328880 25.331982 0.678881 1.235775 0.089634 -0.017537 183349.000000 0 0 1
19.584661 15.094981 9.351180 26.435997 0.656653 1.209241 0.091518 -0.014576 -274309.000000 0 0 1
19.816761 13.972581 10.369980 26.371832 0.614133 1.166663 0.079205 -0.011706 -43042.700000 0 0 1
20.475461 12.886881 9.749580 26.083913 0.561744 1.187718 0.083141 -0.020230 400636.000000 0 0 1
20.847961 11.864081 10.697980 26.264818 0.517371 1.151287 0.093625 -0.024696 -570074.000000 0 0 1
21.784661 10.775881 10.266380 26.383510 0.459362 1.171119 0.090265 -0.016488 -1010530.000000 0 0 1
23.170661 11.030981 10.370380 27.678635 0.444325 1.186755 0.082289 -0.027562 580816.000000 0 0 1
23.901961 10.366381 9.354980 27.681785 0.409220 1.226061 0.099045 -0.031034 -382597.000000 0 0 1
24.186161 8.855181 9.551780 27.470368 0.350968 1.215666 0.126797 -0.035511 -927493.000000 0 0 1
23.078661 7.969681 9.518780 26.205869 0.332506 1.199063 0.129068 -0.035612 346180.000000 0 0 1
23.351261 6.618881 9.790480 26.171444 0.276204 1.187381 0.123950 -0.035420 -134609.000000 0 0 1
24.389261 5.858481 8.932680 26.626127 0.235741 1.228676 0.142083 -0.043889 201846.000000 0 0 1
23.898561 5.581181 7.583480 25.686572 0.229424 1.271099 0.140555 -0.036397 -87016.700000 0 0 1
24.820661 5.108681 6.657880 26.200977 0.202989 1.313871 0.136156 -0.044862 -675172.000000 0 0 1
24.283461 4.948281 5.210580 25.324338 0.201019 1.363562 0.131320 -0.052370 -625640.000000 0 0 1
23.344661 3.915981 5.136080 24.221631 0.166199 1.357129 0.118089 -0.044477 152505.000000 0 1 0
23.240561 3.505681 3.761280 23.802536 0.149714 1.412111 0.129248 -0.039751 -343010.000000 0 1 0
22.171761 2.427781 3.568180 22.587895 0.109064 1.412163 0.107240 -0.030193 -44859.300000 0 1 0
22.673261 1.137081 4.053780 23.060851 0.050109 1.394092 0.117415 -0.029820 933442.000000 0 1 0
21.961461 -0.019319 3.525180 22.242595 -0.000880 1.411637 0.092493 -0.024477 -21059.100000 0 1 0
22.476861 -1.384119 3.969980 22.866696 -0.061502 1.396298 0.099595 -0.027312 -734487.000000 0 1 0
22.415261 -1.712119 5.338280 23.105681 -0.076234 1.337652 0.086252 -0.027887 615816.000000 0 1 0
22.679261 -3.106019 5.587980 23.563144 -0.136107 1.331366 0.088568 -0.030422 -466177.000000 0 1 0
22.527261 -3.496919 7.077880 23.870532 -0.154001 1.269759 0.106840 -0.034122 -63536.900000 0 1 0
22.413261 -4.880819 7.327980 24.080614 -0.214417 1.261582 0.093665 -0.039342 488203.000000 0 1 0
22.495161 -5.152019 8.731380 24.674127 -0.225145 1.209093 0.121106 -0.044497 -21382.000000 0 1 0
22.243661 -6.641519 9.066580 24.921740 -0.290154 1.198450 0.123049 -0.049765 -92691.900000 0 1 0
20.915761 -7.092119 8.972680 23.838544 -0.326914 1.184896 0.111159 -0.037686 89739.100000 0 1 0
20.842961 -8.477319 9.372680 24.375010 -0.386289 1.176108 0.129552 -0.034881 -367956.000000 0 1 0
-26.916569 -32.794670 5.513280 42.783038 0.883524 1.441571 0.046448 -0.018735 177275.000000 0 0 1
-27.672289 -33.925670 5.966280 44.184875 0.886571 1.435353 0.043785 -0.016976 307098.000000 0 0 1
-27.678909 34.025681 7.354080 44.474166 -0.887895 1.404677 0.043135 -0.012050 -339510.000000 0 0 1
-28.520899 32.812081 7.808980 44.170742 -0.855250 1.393071 0.050309 -0.024800 688975.000000 0 0 1
-29.928189 32.982681 7.584880 45.178359 -0.833913 1.402110 0.053977 -0.017053 617260.000000 0 0 1
-30.679279 31.809681 7.969680 44.906455 -0.803486 1.392378 0.068587 -0.027589 324871.000000 0 0 1
-32.185069 32.133881 7.939880 46.168243 -0.784602 1.397960 0.075735 -0.021327 -53986.000000 0 0 1
-32.684869 32.272681 6.590480 46.403243 -0.779053 1.428288 0.061336 -0.017158 954863.000000 0 0 1
-34.123185 32.214981 6.580780 47.386743 -0.756641 1.431472 0.061587 -0.018252 948625.000000 0 0 1
-34.808146 32.138281 5.214880 47.662051 -0.745539 1.461163 0.052574 -0.011152 -263645.000000 0 0 1
-34.567233 30.910881 4.573480 46.597134 -0.729615 1.472489 0.060196 -0.012191 663304.000000 0 0 1
-35.451297 30.695181 3.457580 47.020670 -0.713619 1.497197 0.071570 -0.006416 374220.000000 0 0 1
-34.990696 29.356281 2.711980 45.754725 -0.698058 1.511489 0.077946 -0.023591 210404.000000 0 0 1
-35.348161 28.172681 3.514480 45.338108 -0.672912 1.493201 0.100662 -0.033973 269317.000000 0 0 1
-34.806978 26.973081 2.966980 44.134746 -0.659268 1.503520 0.095616 -0.033339 -160821.000000 0 0 1
-35.354723 25.696381 3.661880 43.859660 -0.628498 1.487208 0.113452 -0.032712 71444.800000 0 0 1
-36.767089 25.664881 3.583780 44.981645 -0.609409 1.491040 0.106693 -0.029390 -248632.000000 0 0 1
36.475559 24.674181 4.446880 44.261228 0.594751 1.470158 0.116002 -0.026422 -439808.000000 0 0 1
34.986179 24.429381 4.218580 42.879176 0.609556 1.472254 0.132878 -0.027429 -643464.000000 0 0 1
34.604849 23.530781 3.181480 41.968023 0.597166 1.494916 0.098405 -0.028010 309596.000000 0 0 1
34.954479 22.134481 3.440580 41.516122 0.564501 1.487828 0.088801 -0.024331 -611343.000000 0 0 1
34.283879 21.177381 2.412380 40.369362 0.553337 1.511003 0.088736 -0.025370 441750.000000 0 0 1
32.911439 20.870581 2.642380 39.060544 0.565148 1.503096 0.070512 -0.029039 593101.000000 0 0 1
32.578029 20.008581 3.708080 38.411211 0.550776 1.474109 0.052184 -0.016108 -562032.000000 0 0 1
32.943729 18.553181 3.577180 37.977704 0.512904 1.476465 0.052770 -0.022458 -593016.000000 0 0 1
32.491939 17.874481 2.419880 37.162871 0.502936 1.505635 0.041317 -0.028028 111555.000000 0 0 1
32.658659 16.505681 2.247680 36.661663 0.467958 1.509449 0.039492 -0.024613 -605638.000000 0 0 1
31.919499 15.602281 3.293980 35.681029 0.454648 1.478347 0.063810 -0.029828 -630971.000000 0 0 1
30.530459 15.601881 3.233380 34.438094 0.472430 1.476768 0.060072 -0.028466 -478252.000000 0 0 1
29.954749 14.672981 4.158780 33.613669 0.455485 1.446756 0.083236 -0.040737 210905.000000 0 0 1
28.422039 14.783081 4.315580 32.326088 0.479620 1.436895 0.072462 -0.031203 120927.000000 0 0 1
27.672939 14.346881 3.183780 31.333065 0.478294 1.469010 0.074355 -0.032069 -461138.000000 0 0 1
26.323839 14.661981 3.321880 30.314238 0.508190 1.460994 0.052417 -0.021254 -649098.000000 0 0 1
25.485439 14.014881 2.215880 29.169069 0.502780 1.494756 0.063033 -0.029215 -552296.000000 0 0 1
25.799239 14.556081 0.932280 29.636959 0.513684 1.539334 0.074939 -0.030769 224346.000000 0 0 1
26.916639 14.108881 0.208480 30.390943 0.482796 1.563936 0.075611 -0.028535 -1138100.000000 0 0 1
27.414839 15.037981 -0.899120 31.281347 0.501717 1.599543 0.086619 -0.027319 -38392.800000 0 0 1
28.065139 16.243981 -0.564920 32.432053 0.524682 1.588216 0.056582 -0.021870 444834.000000 0 0 1
29.246429 16.091081 0.215480 33.381475 0.502989 1.564341 0.051284 -0.015045 -599055.000000 0 0 1
29.933479 17.475281 0.305080 34.662540 0.528425 1.561995 0.061967 -0.010544 -414829.000000 0 0 1
30.439059 17.955881 -0.907520 35.352136 0.532957 1.596470 0.040624 -0.008263 125434.000000 0 0 1
31.143039 19.166881 -0.808920 36.577486 0.551700 1.592913 0.027956 0.002969 74095.600000 0 0 1
31.268169 19.959081 -2.148520 37.157495 0.568120 1.628651 0.039310 -0.007230 -15805.500000 0 0 1
32.168569 21.052281 -2.007520 38.497344 0.579488 1.622967 -0.000380 -0.000197 443324.000000 0 0 1
32.031149 21.873781 -3.187920 38.918114 0.599151 1.652802 0.016949 -0.012379 -295823.000000 0 0 1
32.940329 23.109981 -3.121620 40.359397 0.611780 1.648219 0.016649 -0.006937 -541501.000000 0 0 1
32.864899 23.990881 -2.012320 40.739580 0.630568 1.620211 0.033989 -0.005699 140781.000000 0 0 1
33.599259 23.486381 -0.916220 41.004386 0.610064 1.593143 0.044352 -0.000645 -643941.000000 0 0 1
33.508859 24.481281 0.271880 41.500008 0.630963 1.564245 0.052327 -0.022346 152635.000000 0 0 1
34.231979 25.720981 0.115780 42.818344 0.644379 1.568092 0.085380 -0.024894 745517.000000 0 0 1
35.575669 25.682581 0.610480 43.881612 0.625283 1.556884 0.091517 -0.031221 729342.000000 0 0 1
36.386219 26.950981 0.180080 45.280732 0.637517 1.566819 0.073128 -0.028472 -97433.900000 0 0 1
36.675059 26.941081 -1.180420 45.522249 0.633565 1.596730 0.082208 -0.034656 -98585.100000 0 0 1
35.657359 27.500081 -1.952520 45.072320 0.656951 1.614130 0.062544 -0.025493 -424836.000000 0 0 1
35.866369 27.062281 -3.401620 45.059233 0.646395 1.646360 0.077360 -0.020715 324056.000000 0 0 1
-36.852129 27.776881 -4.052920 46.325594 -0.645890 1.658396 0.063879 -0.018571 276567.000000 0 0 1
-36.460249 27.333181 -5.345420 45.880563 -0.643290 1.687569 0.062690 -0.017752 150376.000000 0 0 1
36.234769 27.355281 -6.487020 45.862308 0.646659 1.712718 0.044371 -0.001612 594297.000000 0 0 1
35.186869 26.414681 -6.268920 44.442665 0.643947 1.712325 0.049000 -0.002938 350272.000000 0 0 1
34.079239 26.582081 -7.156620 43.808889 0.662431 1.734892 0.029971 0.000260 1031690.000000 0 0 1
32.921699 25.548081 -6.860720 42.232833 0.659950 1.733969 0.034193 -0.010365 -131742.000000 0 0 1
33.094159 24.169481 -7.194720 41.607104 0.630790 1.744590 0.024386 -0.002592 18530.900000 0 0 1
34.240319 23.565081 -6.581320 42.083562 0.602780 1.727828 0.038365 -0.002438 507587.000000 0 0 1
34.393089 22.046381 -6.906820 41.432253 0.570031 1.738280 0.038027 0.004436 896402.000000 0 0 1
33.346659 21.227581 -6.291420 40.027388 0.566878 1.728629 0.008531 0.003808 953389.000000 0 0 1
33.679289 19.897681 -6.362720 39.632012 0.533626 1.732039 0.027977 -0.009838 -332895.000000 0 0 1
32.562999 19.014081 -5.803320 38.151837 0.528510 1.723500 0.032471 -0.003911 -752249.000000 0 0 1
31.431509 18.942281 -6.596120 37.286171 0.542368 1.748638 0.023755 -0.010275 -758456.000000 0 0 1
30.419439 18.287081 -5.874720 35.975991 0.541275 1.734826 0.061448 -0.018449 -1093800.000000 0 0 1
29.119439 18.115381 -6.596520 34.923098 0.556516 1.760825 0.046133 -0.022172 -974424.000000 0 0 1
29.107369 17.137781 -7.615420 34.625670 0.532127 1.792545 0.041925 -0.022260 -588613.000000 0 0 1
28.124839 17.414481 -8.537220 34.163647 0.554407 1.823365 0.059600 -0.030115 -627790.000000 0 0 1
28.084839 16.311981 -9.609220 33.869986 0.526190 1.858456 0.065495 -0.032659 -351542.000000 0 0 1
27.128639 16.516381 -10.599020 33.482728 0.546877 1.892889 0.078044 -0.030960 -103516.000000 0 0 1
27.153639 15.378281 -11.424320 33.231411 0.515304 1.921736 0.079041 -0.031588 90448.900000 0 0 1
26.375139 15.605881 -12.775420 33.202452 0.534286 1.965759 0.090866 -0.025960 -298511.000000 0 0 1
24.984339 15.665381 -12.536420 32.043457 0.560042 1.972766 0.087383 -0.031714 -80024.100000 0 0 1
24.228139 15.583981 -13.727820 31.911067 0.571593 2.015500 0.077354 -0.032610 -623012.000000 0 0 1
24.221439 14.171681 -14.482120 31.579209 0.529383 2.047212 0.068483 -0.041443 -1396160.000000 0 0 1
25.406339 13.617781 -14.964120 32.478468 0.492031 2.049625 0.089652 -0.046047 -369875.000000 0 0 1
26.010539 14.400881 -15.982920 33.754810 0.505645 2.064057 0.094973 -0.048227 -722069.000000 0 0 1
27.393739 13.905281 -16.414820 34.831309 0.469715 2.061522 0.126293 -0.046779 -183880.000000 0 0 1
27.290639 12.662381 -17.014020 34.562866 0.434421 2.085484 0.122392 -0.048099 641395.000000 0 0 1
28.618339 12.164981 -17.201220 35.536995 0.401935 2.076059 0.107648 -0.028090 690843.000000 0 0 1
28.610439 10.656681 -17.574620 35.227678 0.356555 2.093110 0.080339 -0.020672 -16881.100000 0 0 1
28.048239 10.589681 -18.875920 35.428031 0.361007 2.132698 0.068486 -0.024467 -70783.400000 0 0 1
28.218239 9.292081 -19.482020 35.526903 0.318110 2.151215 0.051302 -0.009572 139634.000000 0 0 1
29.627519 9.009781 -20.062120 36.897895 0.295216 2.145659 0.046113 -0.010659 30177.900000 0 0 1
30.160979 9.976581 -21.048020 38.108214 0.319449 2.155944 0.049458 -0.018513 619411.000000 0 0 1
30.664689 9.451181 -22.296920 39.074296 0.298972 2.178068 0.037115 -0.008799 -554367.000000 0 0 1
32.005879 8.724181 -22.227120 39.931597 0.266115 2.161120 0.037406 -0.004665 -1639500.000000 0 0 1
33.050589 9.594781 -22.160720 40.932856 0.282540 2.142888 0.051057 -0.004351 -1148500.000000 0 0 1
34.268779 8.900581 -22.053220 41.712277 0.254114 2.127863 0.027370 -0.002988 -4925.210000 0 0 1
35.505539 9.829281 -22.143220 42.983488 0.270074 2.111986 0.054647 -0.012643 -139847.000000 0 0 1
35.624449 10.516381 -20.944020 42.642087 0.287048 2.084215 0.049462 -0.012733 342328.000000 0 0 1
36.573829 11.574681 -20.920220 43.695237 0.306502 2.070056 0.019710 0.000454 61648.400000 0 0 1
36.503109 12.235781 -19.499420 43.155749 0.323428 2.039621 0.013766 0.003967 -198321.000000 0 0 1
-36.875479 11.449581 -18.400220 42.772210 -0.301055 2.015501 0.026442 -0.010095 236555.000000 0 0 1
36.676139 12.231781 -17.266420 42.342471 0.321908 1.990818 0.036283 -0.007512 -203132.000000 0 0 1
-36.689019 11.535581 -15.951820 41.636694 -0.304629 1.963967 0.033086 -0.018177 -424092.000000 0 0 1
36.303479 10.410481 -15.611120 40.865973 0.279269 1.962764 0.046430 -0.023350 457265.000000 0 0 1
36.854819 9.770581 -14.457420 40.776941 0.259149 1.933228 0.051894 -0.034715 218122.000000 0 0 1
36.071209 8.442281 -14.311120 39.714133 0.229907 1.939443 0.096312 -0.027473 1625880.000000 0 0 1
34.760479 8.532981 -13.672920 38.315159 0.240719 1.935694 0.114717 -0.032768 1817540.000000 0 0 1
34.893989 8.375481 -12.301020 37.934868 0.235570 1.901033 0.113275 -0.030705 -356714.000000 0 0 1
33.682899 8.917181 -11.515920 36.697005 0.258802 1.890000 0.125946 -0.029233 -209133.000000 0 0 1
33.701509 10.336181 -11.402120 37.049111 0.297590 1.883631 0.123848 -0.040397 297789.000000 0 0 1
32.917239 10.805081 -10.295920 36.142777 0.317169 1.859665 0.103287 -0.030175 -361735.000000 0 0 1
33.439469 10.537981 -8.828420 36.155056 0.305285 1.817473 0.114353 -0.027141 771516.000000 0 0 1
34.612969 11.308881 -8.467520 37.385121 0.315790 1.799273 0.107723 -0.021643 994643.000000 0 0 1
34.334069 12.650881 -7.957820 37.445960 0.353029 1.784944 0.100557 -0.021693 -258846.000000 0 0 1
34.125789 12.791181 -6.414020 37.004370 0.358617 1.745008 0.084740 -0.018546 -42400.300000 0 0 1
35.314479 12.584381 -5.676320 37.917010 0.342322 1.721065 0.093364 -0.012961 194207.000000 0 0 1
35.079209 12.699881 -4.327120 37.557447 0.347355 1.686266 0.080522 -0.009178 -472918.000000 0 0 1
36.410749 12.614781 -3.602020 38.702065 0.333516 1.664002 0.093562 -0.010669 -570586.000000 0 0 1
-36.622399 13.792381 -3.790620 39.316646 -0.360182 1.667359 0.090567 -0.009048 -585165.000000 0 0 1
-35.333577 13.641181 -3.259120 38.015330 -0.368439 1.656633 0.088005 -0.019903 -477749.000000 0 0 1
-34.604661 14.952681 -3.164020 37.829568 -0.407869 1.654533 0.077632 -0.015572 -468190.000000 0 0 1
-35.072668 15.807781 -2.168620 38.531557 -0.423448 1.627108 0.091147 -0.014013 158346.000000 0 0 1
-34.258584 16.946181 -1.881720 38.267016 -0.459362 1.619990 0.100088 -0.014477 186673.000000 0 0 1
-34.954058 17.989181 -0.910120 39.322069 -0.475300 1.593944 0.100930 -0.010501 -359731.000000 0 0 1
-35.993342 18.622581 -1.566520 40.555828 -0.477462 1.609432 0.088632 -0.006308 -572783.000000 0 0 1
-36.823599 19.240281 -0.628020 41.551898 -0.481484 1.585911 0.070130 -0.003887 -69948.200000 0 0 1
36.089769 20.354481 -1.265920 41.453333 0.513525 1.601340 0.067168 -0.007311 -95565.600000 0 0 1
-36.842269 21.384681 -1.723720 42.633655 -0.525912 1.611238 0.083684 -0.008388 73011.900000 0 0 1
36.389829 22.088181 -2.815820 42.661882 0.545542 1.636848 0.066130 -0.002603 -491688.000000 0 0 1
-36.544399 23.338281 -3.244820 43.482149 -0.568339 1.645490 0.097200 -0.015032 -112294.000000 0 0 1
-35.335060 23.016181 -3.875020 42.347690 -0.577337 1.662429 0.110178 -0.017760 -177073.000000 0 0 1
-34.614616 24.166181 -4.267820 42.431005 -0.609483 1.671549 0.112386 -0.021376 669871.000000 0 0 1
-33.109639 23.961781 -4.630120 41.132142 -0.626462 1.683602 0.109642 -0.027002 679522.000000 0 0 1
-32.851099 23.165681 -5.758420 40.607916 -0.614189 1.713081 0.095846 -0.018706 -501857.000000 0 0 1
-31.472579 22.974581 -5.951420 39.417940 -0.630569 1.722358 0.077780 -0.008766 4635.990000 0 0 1
-31.111259 22.366281 -7.376420 39.020155 -0.623307 1.760982 0.073178 -0.022389 84721.300000 0 0 1
-31.535129 23.126481 -8.516520 40.022863 -0.632764 1.785227 0.080509 -0.027177 22622.700000 0 0 1
-31.158269 22.564781 -9.763320 39.690420 -0.626783 1.819334 0.031167 -0.016788 314076.000000 0 0 1
-32.346439 22.314181 -10.757320 40.742296 -0.603881 1.837998 0.044454 -0.006963 50193.600000 0 0 1
-32.953339 23.492781 -11.166620 41.982457 -0.619338 1.840020 0.052532 -0.006996 -55495.600000 0 0 1
-33.527799 23.453681 -12.449520 42.768902 -0.610410 1.866160 0.041750 -0.001897 -519922.000000 0 0 1
-33.772029 24.878581 -12.991620 43.912139 -0.634910 1.871147 0.053139 -0.000866 281198.000000 0 0 1
-32.569219 25.612581 -13.082420 43.450064 -0.666396 1.876633 0.048102 -0.000321 -444587.000000 0 0 1
-31.765359 25.360281 -14.181920 43.050072 -0.673742 1.906495 0.041815 -0.004161 60741.600000 0 0 1
-30.338409 26.012081 -14.049120 42.360656 -0.708773 1.908854 0.043332 0.001105 1015240.000000 0 0 1
-29.414699 25.471681 -13.074520 41.048436 -0.713682 1.894958 0.032647 -0.004484 328853.000000 0 0 1
-29.829729 25.453781 -11.738020 40.932735 -0.706408 1.861643 0.043189 -0.004301 -1149750.000000 0 0 1
-29.850819 26.764481 -10.932520 41.556333 -0.730938 1.837007 0.056126 0.003877 942181.000000 0 0 1
-28.604359 27.428681 -10.573920 41.016456 -0.764419 1.831538 0.054166 -0.003235 551542.000000 0 0 1
-28.738489 28.640281 -9.771720 41.733116 -0.783687 1.807138 0.056976 -0.001432 528397.000000 0 0 1
-27.433939 29.462481 -9.524920 41.368864 -0.821036 1.803124 0.072869 -0.006279 443881.000000 0 0 1
-27.759919 30.651581 -8.778520 42.275228 -0.834863 1.779970 0.082439 -0.017037 -81463.700000 0 0 1
-26.688859 31.525781 -8.488820 42.169066 -0.868295 1.773486 0.082994 -0.009289 -227321.000000 0 0 1
35.082019 -25.023919 33.666604 54.684411 -0.619595 0.907582 0.036477 -0.005881 -77860.000000 0 0 1
34.628499 -23.691419 33.838669 53.902428 -0.600016 0.892103 0.035334 -0.009477 363576.000000 0 0 1
33.649769 -23.640519 -33.157340 52.826038 -0.612433 2.249353 0.026815 -0.004603 293566.000000 0 0 1
33.365129 -22.199619 -32.716440 51.734131 -0.587093 2.255438 0.021520 -0.001462 -66774.300000 0 0 1
32.746389 -21.487119 -33.738390 51.694306 -0.580699 2.281876 0.016178 -0.005740 -22587.400000 0 0 1
32.440679 -20.129119 -33.502220 50.793482 -0.555350 2.291052 0.009863 0.000337 238235.000000 0 0 1
32.092019 -19.294619 33.240111 50.070799 -0.541322 0.844825 0.013769 -0.010232 219350.000000 0 0 1
33.213039 -19.107519 32.395339 50.176301 -0.522061 0.868948 0.037313 -0.019507 197697.000000 0 0 1
32.846239 -18.588919 31.130327 48.923620 -0.514997 0.881098 0.044086 -0.013577 -953374.000000 0 0 1
34.041369 -18.406219 30.239787 49.112609 -0.495676 0.907493 0.045711 -0.019500 -933751.000000 0 0 1
34.928439 -17.500019 30.806777 49.752427 -0.464467 0.903071 0.035652 -0.022383 -268378.000000 0 0 1
36.072799 -17.327419 30.006107 50.018523 -0.447801 0.927420 0.054074 -0.027582 -7540.020000 0 0 1
-36.711269 -16.217219 30.498677 50.407190 0.415972 0.920972 0.054991 -0.026837 -103770.000000 0 0 1
-35.433340 -16.487819 29.962907 49.245767 0.435520 0.916708 0.054043 -0.022964 116535.000000 0 0 1
-34.533982 -15.500619 30.470277 48.593239 0.421898 0.893039 0.047320 -0.023534 -8794.280000 0 0 1
-33.043679 -15.777819 30.236017 47.487272 0.445473 0.880561 0.074837 -0.026282 -73956.800000 0 0 1
-32.140009 -14.822719 30.768177 46.897483 0.432122 0.855193 0.068443 -0.022470 474752.000000 0 0 1
-30.888939 -15.465919 31.031477 46.435695 0.464203 0.838919 0.079089 -0.025725 85368.700000 0 0 1
-29.881999 -14.559019 31.720047 45.946276 0.453369 0.808792 0.066372 -0.027967 -632422.000000 0 0 1
-30.305129 -14.076919 32.981307 46.950262 0.434852 0.791930 0.079465 -0.029859 249239.000000 0 0 1
-29.426979 -13.109719 33.560103 46.519806 0.419105 0.764952 0.070119 -0.030220 -79757.800000 0 0 1
-29.847779 -12.494219 -33.107920 46.293950 0.396436 2.367660 0.062468 -0.022530 -329688.000000 0 0 1
-29.790379 -13.489019 -32.132660 45.846790 0.425178 2.347413 0.080753 -0.022135 245069.000000 0 0 1
-29.991019 -12.806319 -30.899090 44.924568 0.403568 2.329249 0.089260 -0.020486 -377170.000000 0 0 1
-30.392969 -13.791719 -29.769570 44.723276 0.425993 2.299146 0.093678 -0.026528 -191610.000000 0 0 1
-31.650029 -14.403319 -29.917940 45.872248 0.427071 2.281281 0.087950 -0.031036 -161534.000000 0 0 1
-31.936029 -14.985619 -28.657440 45.450276 0.438737 2.253023 0.082616 -0.019703 -669911.000000 0 0 1
-33.086549 -15.939419 -28.667680 46.589921 0.448941 2.233587 0.070048 -0.026869 -745796.000000 0 0 1
-32.864549 -17.235219 -29.258940 47.256925 0.483002 2.238451 0.082430 -0.022607 -169348.000000 0 0 1
-34.040839 -17.999019 -29.239380 48.349610 0.486380 2.220247 0.063519 -0.018881 -340664.000000 0 0 1
-33.760549 -19.461019 -29.585710 48.926682 0.522918 2.220179 0.068840 -0.014497 -155679.000000 0 0 1
-34.874553 -20.273119 -29.868670 50.193339 0.526568 2.208152 0.029570 -0.011341 -166164.000000 0 0 1
-34.482852 -21.502519 -30.459220 50.785722 0.557571 2.213997 0.037671 -0.015212 428797.000000 0 0 1
-35.715799 -22.337919 -30.949990 52.273347 0.558912 2.204433 0.039372 -0.007948 872142.000000 0 0 1
-36.477929 -22.938119 -29.864810 52.428079 0.561343 2.176857 0.023494 -0.005786 687419.000000 0 0 1
36.202119 -23.772719 -30.288090 52.849825 -0.581047 2.181077 0.028751 -0.003526 399634.000000 0 0 1
36.540559 -25.241489 -30.550770 53.904497 -0.604511 2.173361 0.029690 -0.004166 -148589.000000 0 0 1
-36.717069 -25.564199 -31.835650 54.910655 0.608204 2.189245 0.051904 -0.006482 -240623.000000 0 0 1
-36.006282 -26.766689 -31.784420 54.983246 0.639257 2.187163 0.034545 0.001166 -212595.000000 0 0 1
-36.009492 -27.628589 -33.058460 56.150550 0.654455 2.200304 0.046588 -0.011743 102124.000000 0 0 1
36.502749 -28.186579 -33.414720 56.951536 -0.657544 2.197801 0.032780 -0.007690 -144300.000000 0 0 1
36.565949 -29.509049 -33.987580 57.991449 -0.679000 2.197008 0.037964 -0.010723 26444.100000 0 0 1
-36.601009 -30.656589 -33.074230 58.080677 0.697244 2.176637 0.046227 -0.024936 158166.000000 0 0 1
36.646039 -30.886869 -31.750030 57.489088 -0.700325 2.155892 0.052534 -0.029018 -178263.000000 0 0 1
-36.374879 -31.807699 -31.021250 57.421072 0.718514 2.141520 0.050060 -0.035468 -243371.000000 0 0 1
36.610499 -32.190449 -29.733510 57.101972 -0.721242 2.118478 0.038510 -0.035025 60186.200000 0 0 1
35.784039 -33.305869 -29.900420 57.304568 -0.749545 2.119733 0.061320 -0.032834 118100.000000 0 0 1
35.221269 -33.776039 -28.668520 56.597196 -0.764455 2.101959 0.062225 -0.029189 -271098.000000 0 0 1
34.085199 33.330486 -28.816690 55.705688 0.774204 2.114492 0.069801 -0.040745 -287851.000000 0 0 1
32.998919 33.929470 -29.481130 55.760870 0.799301 2.127872 0.072211 -0.038723 991016.000000 0 0 1
31.734629 33.296347 -29.124690 54.442456 0.809409 2.135260 0.069103 -0.038202 1313130.000000 0 0 1
30.441349 33.814447 -29.761970 54.367890 0.837845 2.150072 0.034977 -0.023616 -105907.000000 0 0 1
30.204549 33.333156 -31.061270 54.664582 0.834599 2.175132 0.039015 -0.018465 -162623.000000 0 0 1
28.976179 33.733817 -31.610600 54.560236 0.861120 2.188753 0.038888 -0.008732 -268325.000000 0 0 1
28.606339 33.148403 -32.971440 54.811085 0.858816 2.216233 0.037519 -0.012132 99553.100000 0 0 1
28.582239 31.695671 -32.945400 53.916225 0.837004 2.228180 0.025660 -0.005993 47563.400000 0 0 1
28.375839 31.146041 33.796558 54.013622 0.831906 0.894762 0.031101 -0.002536 -32474.400000 0 0 1
28.438839 29.642011 33.731816 53.153097 0.806111 0.883285 0.031880 -0.010142 -36742.400000 0 0 1
29.732239 29.168861 -34.018123 53.777887 0.775834 2.255660 0.042331 -0.004731 -405056.000000 0 0 1
29.696539 27.760291 -33.847160 52.897528 0.751712 2.265116 0.033025 -0.005925 121942.000000 0 0 1
31.018229 27.019181 -33.561180 53.089730 0.716602 2.255133 0.072519 -0.016421 52330.900000 0 0 1
31.736229 27.345171 -32.401060 52.960129 0.711212 2.229132 0.081705 -0.012974 141800.000000 0 0 1
32.924689 26.548931 -32.305320 53.221373 0.678603 2.223075 0.099624 -0.010879 612163.000000 0 0 1
33.756409 26.980051 -31.078840 53.228870 0.674288 2.194286 0.097755 -0.015010 55536.600000 0 0 1
34.525449 28.193421 -31.078580 54.339247 0.684780 2.179661 0.077808 -0.009886 788717.000000 0 0 1
33.741199 29.385791 -30.929130 54.393054 0.716513 2.175627 0.083918 -0.008947 560133.000000 0 0 1
32.776629 29.636501 -29.728860 53.258189 0.735129 2.163014 0.090043 -0.003903 861111.000000 0 0 1
33.506109 29.837691 -28.483540 53.143760 0.727550 2.136454 0.084063 -0.013839 604800.000000 0 0 1
32.545919 29.863091 -27.448870 52.004630 0.742437 2.126823 0.070546 -0.018980 -38081.100000 0 0 1
33.078909 30.325441 -26.086410 51.907103 0.741998 2.097353 0.086474 -0.024502 -195203.000000 0 0 1
33.349219 31.716231 -26.069840 52.893537 0.760306 2.086186 0.085568 -0.027541 102844.000000 0 0 1
33.778939 32.140954 -24.762420 52.794271 0.760555 2.058995 0.066639 -0.034820 236399.000000 0 0 1
34.339119 33.600880 -24.833620 54.082371 0.774533 2.047870 0.073258 -0.034440 1284770.000000 0 0 1
33.277649 -33.509629 -24.962920 53.417643 -0.788872 2.057049 0.069790 -0.025237 1112640.000000 0 0 1
33.800989 -32.232939 -24.767220 52.866666 -0.761657 2.058371 0.052264 -0.031209 -412313.000000 0 0 1
34.538899 -31.487959 -25.897720 53.433314 -0.739223 2.076786 0.039736 -0.031742 1507860.000000 0 0 1
35.903469 -31.981289 -26.027670 54.674505 -0.727685 2.066951 0.059487 -0.033973 1160490.000000 0 0 1
-36.876849 -31.137659 -25.424050 54.551243 0.701216 2.055627 0.060989 -0.032764 -841588.000000 0 0 1
-35.490027 -31.638109 -25.749690 54.069941 0.728079 2.067158 0.033676 -0.029229 -1390870.000000 0 0 1
-35.011755 -32.930479 -25.291450 54.312953 0.754775 2.055178 0.033665 -0.028117 -112244.000000 0 0 1
-34.963890 -33.176559 -23.884120 53.792275 0.759174 2.030862 0.043229 -0.027118 328568.000000 0 0 1
-33.865279 -32.313819 -23.159620 52.224592 0.761959 2.030254 0.025149 -0.021542 291092.000000 0 0 1
-34.231010 -30.997549 -23.123620 51.646025 0.735867 2.035025 -0.002988 -0.012534 -449356.000000 0 0 1
-33.640059 -30.371259 -22.040020 50.396721 0.734377 2.023424 0.018016 -0.017487 -504493.000000 0 0 1
-33.590029 -28.824349 -22.127420 49.484906 0.709191 2.034378 0.010983 -0.004980 401886.000000 0 0 1
-34.847169 -28.196149 -22.377420 50.100868 0.680288 2.033811 -0.002062 -0.001775 111623.000000 0 0 1
-35.151215 -28.029879 -23.734420 50.839008 0.673159 2.056527 0.003557 -0.006135 -315317.000000 0 0 1
-36.492719 -27.287169 -23.832420 51.422684 0.642055 2.052694 0.006368 -0.007220 -261847.000000 0 0 1
-36.462179 -25.981399 -23.269720 50.457938 0.619104 2.050110 -0.002740 0.001346 375082.000000 0 0 1
36.495989 -24.951819 -23.923820 50.268277 -0.599693 2.066809 0.002754 0.003297 192266.000000 0 0 1
-36.786029 -24.463719 -25.294150 50.906576 0.586867 2.090789 0.006665 -0.000307 -572363.000000 0 0 1
-35.651523 -23.648919 -25.197920 49.651160 0.585693 2.103076 0.005141 -0.007208 -375982.000000 0 0 1
-35.287461 -23.229819 -26.500770 49.871036 0.582190 2.131032 0.017671 -0.016341 857778.000000 0 0 1
-34.123201 -22.127719 -26.387360 48.480115 0.575296 2.146342 0.023563 -0.022731 719478.000000 0 0 1
-34.497619 -20.937119 -25.650630 47.816352 0.545488 2.137010 0.013977 -0.014444 -452979.000000 0 0 1
-35.490427 -20.127719 -26.181840 48.478699 0.515900 2.141315 0.014070 -0.010134 -787334.000000 0 0 1
-36.644179 -19.908219 -25.208530 48.729899 0.497673 2.114503 0.013706 -0.010569 -700708.000000 0 0 1
-36.357169 -19.256719 -23.999820 47.630414 0.487088 2.098876 0.012573 -0.017417 -476065.000000 0 0 1
-35.522643 -19.871119 -23.069220 46.785772 0.510026 2.086425 0.000333 -0.010940 -432511.000000 0 0 1
-35.981152 -21.236819 -22.444220 47.427722 0.533198 2.063750 0.009906 -0.005407 60537.900000 0 0 1
36.713769 -21.033919 -21.544720 47.481591 -0.520267 2.041764 0.007702 -0.009026 -228125.000000 0 0 1
36.160619 -22.246019 -21.215720 47.461379 -0.551521 2.034217 0.009905 0.003913 35648.900000 0 0 1
35.088409 -22.176419 -20.069720 46.106221 -0.563628 2.021160 0.000627 0.000230 -147078.000000 0 0 1
33.921899 -21.546319 -20.510420 45.117806 -0.565882 2.042716 0.023390 0.000174 -703031.000000 0 0 1
32.958939 -21.643819 -19.486920 43.982799 -0.581064 2.029803 0.039787 -0.000930 -258233.000000 0 0 1
31.541839 -21.252819 -19.924420 42.936609 -0.592923 2.053350 0.036909 -0.000498 -738732.000000 0 0 1
31.061649 -22.108619 -20.962320 43.509033 -0.618579 2.073495 0.042254 0.000335 -162709.000000 0 0 1
29.874899 -21.608419 -21.523620 42.693086 -0.626191 2.099191 0.078212 -0.002674 -397199.000000 0 0 1
29.753849 -20.281519 -22.287920 42.348352 -0.598300 2.125039 0.057810 0.002295 -592396.000000 0 0 1
29.987769 -19.134719 -21.529420 41.580280 -0.567953 2.115050 0.061578 -0.003544 -38675.900000 0 0 1
29.923849 -18.027619 -22.391120 41.494506 -0.542219 2.140778 0.050137 0.001356 -10162.000000 0 0 1
30.596939 -16.747319 -21.830720 41.148824 -0.500809 2.130023 0.034470 -0.005544 -143324.000000 0 0 1
30.026379 -16.224219 -20.606720 39.867852 -0.495390 2.113994 0.034684 -0.009983 437157.000000 0 0 1
30.977899 -15.576719 -19.757320 39.907594 -0.465912 2.088719 0.020632 -0.014484 29073.700000 0 0 1
31.936579 -16.483019 -18.998620 40.651969 -0.476458 2.057085 0.035477 -0.019853 -477155.000000 0 0 1
32.939639 -17.038419 -19.800520 42.040315 -0.477362 2.061208 0.022030 -0.020741 -651877.000000 0 0 1
33.875209 -17.754419 -19.054220 42.729527 -0.482751 2.033005 0.026845 -0.021645 -28995.400000 0 0 1
35.153719 -18.090819 -19.867820 44.246943 -0.475275 2.036466 0.012462 -0.023698 55821.600000 0 0 1
36.008529 -16.999219 -20.067920 44.590459 -0.441070 2.037617 0.018671 -0.021551 -726.250000 0 0 1
-36.734639 -17.294319 -20.999620 45.711172 0.440008 2.048114 0.020535 -0.016663 170497.000000 0 0 1
-35.830075 -16.053719 -21.239120 44.638732 0.421232 2.066670 0.037809 -0.017925 -120650.000000 0 0 1
-34.889070 -15.685719 -20.274120 43.293521 0.422512 2.058156 0.045091 -0.021203 16316.700000 0 0 1
-34.054069 -14.609919 -20.707920 42.449350 0.405272 2.080395 0.060635 -0.015287 338438.000000 0 0 1
-32.687319 -14.471219 -19.954220 40.939564 0.416781 2.079914 0.066682 -0.020412 592730.000000 0 0 1
-31.650959 -15.415519 -20.168020 40.573027 0.453232 2.091026 0.066809 -0.022033 338681.000000 0 0 1
-31.990509 -16.772319 -19.876120 41.228188 0.482891 2.073847 0.052507 -0.023690 -975490.000000 0 0 1
-30.829909 -17.770119 -19.881820 40.762080 0.522880 2.080310 0.043046 -0.027984 -388555.000000 0 0 1
-31.285849 -19.013219 -19.347720 41.408225 0.546081 2.056967 0.046956 -0.026648 776892.000000 0 0 1
-30.256459 -20.010419 -19.430920 41.151317 0.584320 2.062561 0.049967 -0.027036 212005.000000 0 0 1
-30.713559 -21.353319 -18.848420 41.887348 0.607525 2.037538 0.045571 -0.010254 -464116.000000 0 0 1
-31.653839 -21.876219 -19.728520 43.240594 0.604733 2.044573 0.036426 -0.010157 -255682.000000 0 0 1
-32.190149 -23.083719 -19.250420 44.041372 0.622114 2.023167 0.034289 0.001527 98935.600000 0 0 1
-33.195369 -23.704019 -20.237720 45.534365 0.620111 2.031356 0.020457 0.001964 415561.000000 0 0 1
-32.466979 -23.939619 -21.480920 45.701641 0.635358 2.060116 0.027088 -0.009551 576901.000000 0 0 1
-33.082679 -24.908519 -22.299420 47.033628 0.645366 2.064757 0.018998 -0.008957 -416332.000000 0 0 1
-32.683599 -24.971319 -23.739420 47.490468 0.652421 2.094254 0.017472 -0.002565 1120010.000000 0 0 1
-31.374619 -25.577679 -23.958020 47.037975 0.683962 2.105207 0.023973 -0.010177 986554.000000 0 0 1
-31.162919 -25.890339 -25.306280 47.768661 0.693245 2.129123 0.023144 -0.001559 -126833.000000 0 0 1
-29.717179 -26.129489 -25.787670 47.232032 0.721245 2.148353 0.037197 -0.004845 -90820.600000 0 0 1
-28.983449 -24.925919 -25.857900 46.151628 0.710274 2.165522 0.049187 -0.004098 -475762.000000 0 0 1
-27.612739 -25.239589 -25.904730 45.503355 0.740527 2.176442 0.047295 0.002462 -191382.000000 0 0 1
-26.786889 -23.992019 -26.251610 44.523044 0.730414 2.201383 0.068334 -0.001491 -303509.000000 0 0 1
-26.880209 -23.510619 -27.592560 45.129195 0.718628 2.228641 0.064428 -0.005852 260386.000000 0 0 1
-26.118759 -22.302319 -27.760280 44.161252 0.706743 2.250563 0.074785 -0.020145 300837.000000 0 0 1
-25.999119 -21.848519 -29.260340 44.827218 0.698869 2.281987 0.053557 -0.005917 394388.000000 0 0 1
-25.165759 -22.734519 -30.056320 45.316180 0.734685 2.295960 0.062704 -0.002382 721803.000000 0 0 1
-24.784939 -22.279419 -31.360690 45.761978 0.732212 2.325812 0.057857 -0.002025 111998.000000 0 0 1
-24.358439 -23.406919 -32.334170 46.762335 0.765480 2.334301 0.052102 -0.007781 1032950.000000 0 0 1
-25.508839 -24.095519 -32.878400 48.086215 0.756914 2.323670 0.023755 -0.009378 852827.000000 0 0 1
-25.044939 -24.962919 -33.907860 48.991217 0.783758 2.335220 0.052934 -0.002284 288139.000000 0 0 1
-19.633339 -15.795919 -11.883020 27.860101 0.677507 2.011443 0.061694 -0.014397 -180797.000000 0 0 1
-20.103639 -14.897719 -10.876720 27.283720 0.637746 1.980843 0.072143 -0.023528 530120.000000 0 0 1
-19.206739 -14.988219 -9.747420 26.240384 0.662652 1.951384 0.038389 -0.017500 182304.000000 0 0 1
-19.729039 -14.222019 -8.514720 25.768222 0.624594 1.907561 0.082241 -0.021867 -250892.000000 0 0 1
-20.834139 -14.851519 -7.907820 26.779892 0.619295 1.870555 0.138097 -0.037724 185376.000000 0 0 1
-21.278239 -14.097319 -6.750520 26.402034 0.585128 1.829349 0.105747 -0.030403 482099.000000 0 0 1
-22.597139 -14.515819 -6.011620 27.522341 0.570996 1.790998 0.135425 -0.036794 348247.000000 0 0 1
-22.491239 -15.736619 -5.357220 27.967782 0.610510 1.763537 0.111011 -0.030009 430400.000000 0 0 1
-21.931539 -15.597619 -4.050520 27.215526 0.618200 1.720183 0.113002 -0.034759 -570793.000000 0 0 1
-21.668139 -17.029719 -3.461220 27.775882 0.666105 1.695734 0.079553 -0.021214 -337225.000000 0 0 1
-22.839339 -17.732319 -3.149020 29.085854 0.660180 1.679275 0.090635 -0.021744 -21712.700000 0 0 1
-22.558439 -18.899919 -2.341320 29.522397 0.697381 1.650186 0.066889 -0.019068 -27220.500000 0 0 1
-23.737739 -19.876119 -2.176620 31.036721 0.697087 1.640984 0.082916 -0.027517 -17253.200000 0 0 1
-23.934839 -20.715619 -3.276420 31.823707 0.713424 1.673934 0.069233 -0.026526 625129.000000 0 0 1
-25.160749 -21.464319 -3.076920 33.215173 0.706284 1.663565 0.065079 -0.021760 956614.000000 0 0 1
-25.340309 -22.671819 -4.038520 34.241091 0.729876 1.689015 0.061308 -0.023903 -299763.000000 0 0 1
-24.369739 -23.671219 -3.817120 34.187442 0.770859 1.682682 0.062607 -0.023097 -288438.000000 0 0 1
-24.183539 -24.492819 -4.943920 34.773325 0.791752 1.713455 0.067565 -0.022315 745790.000000 0 0 1
-22.745039 -24.363519 -5.577420 33.793868 0.819741 1.736597 0.074385 -0.021833 985354.000000 0 0 1
-22.288839 -23.149819 -6.248320 32.737562 0.804344 1.762835 0.055836 -0.016723 248286.000000 0 0 1
-22.049439 -22.087819 -5.357020 31.666184 0.786268 1.740785 0.054049 -0.014808 -862206.000000 0 0 1
-21.855139 -20.665219 -5.968220 30.664606 0.757421 1.766675 0.067971 -0.013259 219482.000000 0 0 1
-20.546539 -20.345419 -6.432620 29.622204 0.780480 1.789696 0.045733 -0.008283 425406.000000 0 0 1
-20.436039 -19.045819 -6.958820 28.788889 0.750201 1.814933 0.034344 -0.014553 273509.000000 0 0 1
-19.122939 -18.898119 -7.773620 27.986691 0.779485 1.852259 0.042521 -0.019568 -53294.700000 0 0 1
-19.093039 -19.653919 -9.007120 28.843524 0.799873 1.888383 0.042718 -0.021134 37265.800000 0 0 1
-17.918039 -19.672619 -9.819320 28.363482 0.832040 1.924309 0.051467 -0.016741 224845.000000 0 0 1
-17.550839 -18.334019 -10.549820 27.485759 0.807220 1.964735 0.057224 -0.015390 -168045.000000 0 0 1
-17.168539 -17.184819 -9.791220 26.190547 0.785872 1.953948 0.064930 -0.019804 423022.000000 0 0 1
-15.856839 -17.274019 -9.223920 25.197456 0.828147 1.945574 0.078942 -0.020619 317281.000000 0 0 1
-15.639939 -16.046019 -8.260620 23.881379 0.798213 1.923996 0.071298 -0.017672 -163588.000000 0 1 0
-16.465939 -16.277919 -7.165720 24.237272 0.779656 1.870931 0.050859 -0.012179 16596.900000 0 1 0
-16.799039 -15.110019 -6.525320 23.518082 0.732515 1.851945 0.078973 -0.008799 -163933.000000 0 1 0
-17.440539 -15.365219 -5.159020 23.809197 0.722222 1.789211 0.084632 -0.014202 21220.800000 0 1 0
-17.923739 -14.234019 -4.444920 23.315768 0.671160 1.762610 0.094381 -0.009768 344624.000000 0 1 0
-18.492939 -14.608319 -3.207020 23.783960 0.668577 1.706048 0.096028 -0.006691 -187155.000000 0 1 0
-19.241739 -13.425119 -2.504720 23.595592 0.609186 1.677149 0.101235 -0.005736 -475957.000000 0 1 0
-20.588139 -13.326419 -2.842620 24.688973 0.574465 1.686189 0.128776 -0.022046 -252029.000000 0 1 0
-21.300439 -12.412119 -2.012520 24.734988 0.527614 1.652250 0.137184 -0.023189 1299400.000000 0 1 0
-22.849639 -12.294119 -2.334420 26.051888 0.493618 1.660523 0.125686 -0.024331 1213340.000000 0 0 1
-23.150539 -11.579119 -3.526820 26.123972 0.463781 1.706213 0.131513 -0.026172 -65785.600000 0 0 1
-24.490439 -11.750419 -3.921920 27.445135 0.447354 1.714188 0.122756 -0.023788 -77371.100000 0 0 1
-24.937839 -10.915819 -5.078920 27.691991 0.412596 1.755248 0.137716 -0.036356 -155110.000000 0 0 1
-24.294339 -11.396319 -6.225820 27.547266 0.438618 1.798771 0.146882 -0.041175 172325.000000 0 0 1
-24.824939 -10.900919 -7.444920 28.116445 0.413762 1.838781 0.159191 -0.043362 -137619.000000 0 0 1
-24.126039 -11.370719 -8.749820 28.069884 0.440429 1.887794 0.176681 -0.050890 -46070.100000 0 0 1
-22.957239 -10.647819 -9.000120 26.859133 0.434280 1.912493 0.152716 -0.040864 -814798.000000 0 0 1
-21.905339 -11.243619 -9.652120 26.446669 0.474217 1.944392 0.111131 -0.035801 -197863.000000 0 0 1
-20.624339 -10.376319 -9.411820 24.932182 0.466133 1.957888 0.092277 -0.040683 -13349.200000 0 1 0
-20.656139 -9.225319 -10.216120 24.822403 0.420034 1.994971 0.098394 -0.037547 469394.000000 0 1 0
-19.834339 -8.194619 -9.691720 23.547446 0.391794 1.994986 0.098919 -0.036878 -100496.000000 0 1 0
-19.990439 -6.814319 -10.445220 23.561732 0.328526 2.030088 0.109034 -0.049527 8562.070000 0 1 0
-19.445039 -6.885019 -11.762520 23.745945 0.340301 2.089032 0.106137 -0.043435 571896.000000 0 1 0
-19.815039 -5.741919 -12.466220 24.104192 0.282051 2.114350 0.124648 -0.042856 -208532.000000 0 1 0
-19.358239 -5.688519 -13.930320 24.518452 0.285810 2.175060 0.171988 -0.034435 -197646.000000 0 1 0
-19.937439 -6.684419 -14.701420 25.657644 0.323492 2.180939 0.139191 -0.041568 42340.000000 0 0 1
-19.360039 -6.572119 -15.973520 25.945273 0.327262 2.234022 0.136418 -0.044643 -160020.000000 0 0 1
-19.944839 -7.480619 -17.115220 27.325575 0.358828 2.247651 0.101888 -0.036871 -85271.300000 0 0 1
-21.260939 -7.191719 -17.542420 28.486573 0.326178 2.234215 0.097432 -0.035170 302152.000000 0 0 1
-21.578639 -7.890219 -18.722820 29.638442 0.350548 2.254550 0.090862 -0.039501 285990.000000 0 0 1
-23.051739 -7.652719 -19.186820 30.952881 0.320532 2.239376 0.081248 -0.035220 77479.700000 0 0 1
-23.253839 -6.362619 -19.670620 31.115225 0.267079 2.255168 0.081183 -0.035776 678300.000000 0 0 1
-24.455339 -6.068319 -20.395920 32.417305 0.243226 2.251278 0.060874 -0.032703 1837940.000000 0 0 1
-25.736009 -5.709219 -19.500220 32.790180 0.218303 2.207685 0.066844 -0.028275 737213.000000 0 0 1
-25.675239 -4.341019 -19.153620 32.325277 0.167490 2.204989 0.076735 -0.027967 -237099.000000 0 0 1
-26.783379 -3.947819 -18.404320 32.736122 0.146344 2.167843 0.093840 -0.026976 -695137.000000 0 0 1
-26.931039 -2.410919 -18.053620 32.511945 0.089284 2.159510 0.079550 -0.017255 -44024.700000 0 0 1
-27.306319 -1.532819 -19.106520 33.362310 0.056075 2.180589 0.090350 -0.020141 -35247.800000 0 0 1
-28.636389 -1.670119 -19.541020 34.708551 0.058256 2.168811 0.088054 -0.017227 -298918.000000 0 0 1
-28.996159 -0.606319 -20.641620 35.598053 0.020907 2.189344 0.091650 -0.009233 -61813.300000 0 0 1
-28.268979 -0.740919 -21.855020 35.739698 0.026204 2.228758 0.096139 -0.015162 43666.100000 0 0 1
-28.816379 -1.661219 -22.757420 36.756544 0.057585 2.238442 0.095281 -0.009662 -597609.000000 0 0 1
-28.162419 -1.748419 -24.115320 37.117752 0.062004 2.277983 0.096900 -0.013081 -855345.000000 0 0 1
-28.139489 -0.578519 -24.949420 37.611688 0.020556 2.296073 0.114710 -0.010664 284898.000000 0 0 1
-27.625429 0.688981 -24.477020 36.915627 -0.024935 2.295686 0.108909 -0.009345 1154410.000000 0 0 1
-26.131109 0.774481 -23.942020 35.449330 -0.029630 2.312286 0.117076 -0.019171 1028760.000000 0 0 1
-25.124449 0.709181 -24.934820 35.404606 -0.028219 2.352207 0.105919 -0.019895 -164452.000000 0 0 1
-23.863439 0.603281 -24.316720 34.075366 -0.025275 2.365443 0.099588 -0.024426 -86718.200000 0 0 1
-22.781939 0.084581 -25.292950 34.040523 -0.003713 2.408375 0.084455 -0.016876 -13321.400000 0 0 1
-22.766739 0.871981 -26.433460 34.897171 -0.038282 2.430221 0.060618 -0.011668 651099.000000 0 0 1
-21.683139 0.409081 -27.253080 34.828957 -0.018864 2.469440 0.051000 -0.011723 444302.000000 0 0 1
-21.560539 1.116581 -28.583030 35.820291 -0.051742 2.494693 0.045929 0.008170 12839.400000 0 0 1
-20.644839 2.228381 -28.557800 35.308965 -0.107523 2.512901 0.055497 0.009698 605456.000000 0 0 1
-20.472739 2.801581 -29.832120 36.289631 -0.136000 2.535809 0.033651 0.008521 -137722.000000 0 0 1
-19.715339 2.059481 -30.941550 36.746640 -0.104083 2.571821 0.029881 0.007625 -516308.000000 0 0 1
-18.320939 1.926581 -30.810460 35.897813 -0.104772 2.602710 0.018286 0.015387 -226850.000000 0 0 1
-17.891439 1.576081 -32.102230 36.785062 -0.087865 2.631496 0.003481 0.008968 522746.000000 0 0 1
-16.339939 1.638781 -32.285110 36.221645 -0.099959 2.671047 0.008688 -0.003134 548762.000000 0 0 1
-15.765439 2.941081 -32.271710 36.036957 -0.184432 2.680388 0.014261 0.008951 -192636.000000 0 0 1
-14.365439 2.852381 -32.352390 35.513083 -0.196009 2.716497 0.022161 -0.002294 -681529.000000 0 0 1
-13.777439 4.119381 -32.799390 35.813226 -0.290534 2.728406 0.041560 -0.001607 -796006.000000 0 0 1
-13.730639 5.104781 -31.784230 34.997522 -0.355945 2.709724 0.052387 -0.021804 111170.000000 0 0 1
-13.356839 6.326081 -32.364040 35.578864 -0.442323 2.713219 0.069939 -0.014963 -172221.000000 0 0 1
-13.053939 7.478481 -31.347060 34.770263 -0.520248 2.694130 0.072743 -0.020189 912447.000000 0 0 1
-11.919339 7.364481 -30.430700 33.501250 -0.553448 2.710107 0.105654 -0.035215 1130940.000000 0 0 1
-12.158639 6.328981 -29.447930 32.481827 -0.479939 2.705945 0.108109 -0.035353 1100.820000 0 0 1
-10.894339 5.560981 -28.956660 31.434047 -0.471970 2.741918 0.133541 -0.036062 64299.400000 0 0 1
-10.222039 4.729181 -29.888740 31.940445 -0.433320 2.781218 0.103653 -0.045104 725182.000000 0 0 1
-10.987039 3.576481 -30.333950 32.460049 -0.314700 2.777651 0.100016 -0.042095 -68740.600000 0 0 1
-10.156239 2.753481 -31.345440 33.064595 -0.264748 2.817708 0.082229 -0.038368 553631.000000 0 0 1
-10.952539 1.617481 -31.791820 33.664435 -0.146621 2.806483 0.082557 -0.033320 986382.000000 0 0 1
-10.315339 0.871581 -32.847080 34.439752 -0.084293 2.836286 0.058969 -0.021046 -344563.000000 0 0 1
-10.619539 1.278381 33.735659 35.390727 -0.119804 0.307033 0.063442 -0.020605 1257410.000000 0 0 1
-12.012639 1.011981 33.389285 35.498900 -0.084045 0.346484 0.033122 -0.017333 1234340.000000 0 0 1
-12.298239 1.482581 32.100869 34.408001 -0.119973 0.368280 0.017387 -0.003804 377160.000000 0 0 1
-13.746139 1.139481 31.631007 34.507613 -0.082706 0.411208 0.013877 -0.001319 213915.000000 0 0 1
-14.714539 2.033581 32.133540 35.400812 -0.137332 0.433011 0.008178 0.009418 -888798.000000 0 0 1
-15.938839 1.523681 31.734417 35.544921 -0.095306 0.467279 0.002551 0.015323 -848451.000000 0 0 1
-17.005439 2.548881 31.344807 35.751625 -0.148779 0.501759 0.015217 0.017817 -564061.000000 0 0 1
-17.607839 3.328681 32.332361 36.966169 -0.186840 0.506089 0.010480 0.009879 89852.600000 0 0 1
-16.846639 4.345981 32.983017 37.290430 -0.252469 0.485396 0.011595 0.009925 -485910.000000 0 0 1
-17.587939 5.018381 -33.877730 38.499615 -0.277945 2.646553 0.010747 0.013181 -263820.000000 0 0 1
-18.818339 5.553381 33.754494 39.042743 -0.286960 0.526537 0.001469 0.012164 -137059.000000 0 0 1
-19.821739 5.292881 -33.301360 39.113892 -0.260936 2.589435 -0.006264 0.020583 694438.000000 0 0 1
-21.210239 5.918881 -33.624310 40.193303 -0.272135 2.561779 0.001009 0.013845 99740.900000 0 0 1
-21.300839 7.273881 -33.233270 40.138327 -0.329067 2.546272 0.000711 0.002163 371898.000000 0 0 1
-20.815639 8.273581 33.860751 40.599180 -0.378323 0.584432 -0.009593 0.003204 -102091.000000 0 0 1
-20.849239 9.727981 -33.680870 40.788790 -0.436562 2.542306 0.001278 -0.000836 -153663.000000 0 0 1
-19.912739 9.971081 -32.622590 39.499026 -0.464238 2.542608 -0.000544 -0.002637 502345.000000 0 0 1
-19.803439 11.381481 -32.341360 39.593912 -0.521626 2.526685 0.023554 -0.014848 -38801.000000 0 0 1
-18.971339 12.260681 -33.304810 40.242346 -0.573751 2.545626 0.018398 -0.024973 -66616.700000 0 0 1
-19.622739 12.448381 33.440646 40.722117 -0.565320 0.607301 0.031785 -0.022000 659879.000000 0 0 1
-18.724739 12.905881 32.457331 39.631502 -0.603469 0.611168 0.030698 -0.015597 50148.500000 0 0 1
-19.308239 12.558881 31.067027 38.674200 -0.576686 0.637979 0.041355 -0.015459 66098.900000 0 0 1
-19.498739 11.162981 30.890197 38.197084 -0.519952 0.628848 0.020668 0.004849 -221271.000000 0 0 1
-18.323539 10.446381 30.636557 37.195128 -0.518149 0.602941 0.021003 0.001798 -288006.000000 0 0 1
-18.386339 8.909281 30.848777 37.001078 -0.451219 0.584974 0.018711 0.013530 146008.000000 0 0 1
-19.098339 8.203381 29.787827 36.322949 -0.405704 0.609241 0.017757 -0.004592 359017.000000 0 0 1
-19.250239 6.835981 30.036187 36.324576 -0.341221 0.597253 0.020311 -0.005081 -72521.900000 0 0 1
-19.789039 6.060181 28.839847 35.497445 -0.297171 0.622457 0.022382 -0.011022 844741.000000 0 0 1
-21.201539 6.221981 28.599557 36.140738 -0.285454 0.657801 0.038984 -0.014793 562408.000000 0 0 1
-21.603439 5.163881 27.841907 35.616654 -0.234628 0.673393 0.034926 -0.020647 -101984.000000 0 0 1
-23.112239 5.238581 27.519357 36.317121 -0.222892 0.710936 0.037115 -0.017568 33249.000000 0 0 1
-23.384739 5.905381 26.307407 35.690323 -0.247360 0.742025 0.052628 -0.027545 444513.000000 0 0 1
-24.796539 6.045881 26.207817 36.582382 -0.239153 0.772160 0.059788 -0.025654 325770.000000 0 0 1
-25.331629 6.691481 24.861417 36.118657 -0.258256 0.811617 0.070106 -0.031973 -160222.000000 0 0 1
-25.283639 5.973981 23.666387 35.143260 -0.232023 0.831963 0.074075 -0.023754 347237.000000 0 0 1
-26.173119 4.877381 23.566567 35.555647 -0.184238 0.846234 0.083491 -0.019464 -408513.000000 0 0 1
-26.365859 4.484081 22.079677 34.681085 -0.168460 0.880651 0.099286 -0.016895 -322787.000000 0 0 1
-27.212199 5.309781 21.327777 34.979588 -0.192704 0.915088 0.111359 -0.019823 -118290.000000 0 0 1
-27.115979 4.808881 19.994377 34.031996 -0.175520 0.942809 0.124887 -0.024557 19019.000000 0 0 1
-28.198769 5.299981 18.995177 34.410421 -0.185783 0.986014 0.173934 -0.042226 410535.000000 0 0 1
-29.491679 4.761081 19.221877 35.523338 -0.160057 0.999045 0.189685 -0.040757 536808.000000 0 0 1
-30.400379 5.066781 18.158677 35.771397 -0.165150 1.038363 0.198937 -0.042099 -227961.000000 0 0 1
-31.866279 4.805681 18.489477 37.153937 -0.149680 1.049915 0.187067 -0.047248 -539312.000000 0 0 1
-32.393519 5.871581 19.257477 38.140083 -0.179311 1.041514 0.168948 -0.028649 -428425.000000 0 0 1
-33.789469 5.854281 19.303877 39.352770 -0.171554 1.058094 0.165540 -0.023613 -580856.000000 0 0 1
-34.373728 7.098581 20.052177 40.423172 -0.203649 1.051745 0.135748 -0.015351 -277283.000000 0 0 1
-34.175261 7.205381 21.433977 40.979035 -0.207793 1.020374 0.131677 -0.026013 162018.000000 0 0 1
-34.615635 8.435081 21.953777 41.849266 -0.239020 1.018561 0.116154 -0.026810 -10189.000000 0 0 1
-0.618339 32.506381 11.165880 34.376213 -1.551777 1.239981 0.071208 -0.020798 -135344.000000 0 0 1
-0.839139 32.600281 12.589680 34.956866 -1.545062 1.202369 0.055429 -0.017092 149951.000000 0 0 1
-0.262339 33.798681 13.088980 36.245566 -1.563035 1.201328 0.046107 -0.023413 -141697.000000 0 0 1
-0.300839 33.906681 14.601180 36.918125 -1.561924 1.164182 0.049365 -0.012650 561318.000000 0 0 1
-1.590439 34.014181 15.206680 37.292588 -1.524072 1.150789 0.042346 0.002920 228369.000000 0 0 1
-1.405639 -33.801070 16.571080 37.670795 1.529235 1.115318 0.037997 -0.008534 -442192.000000 0 0 1
-2.633439 -33.418070 17.370880 37.755130 1.492156 1.092696 0.036078 -0.000069 -888905.000000 0 0 1
-3.358139 33.630281 17.878380 38.234923 -1.471272 1.084231 0.032257 0.007128 -126865.000000 0 0 1
-4.275539 34.048281 18.868080 39.160823 -1.445877 1.068077 0.030675 0.008126 -226249.000000 0 0 1
-5.333839 33.019681 19.255380 38.594285 -1.410645 1.048447 0.019802 0.000007 -448758.000000 0 0 1
-6.277539 32.809381 18.245880 38.062778 -1.381747 1.070868 0.020984 -0.011636 -397882.000000 0 0 1
-7.302339 31.982781 18.737680 37.779929 -1.346323 1.051846 0.026163 -0.019418 -423144.000000 0 0 1
-8.412739 31.719981 17.727480 37.298725 -1.311546 1.075510 0.018384 -0.027817 -225338.000000 0 0 1
-9.277839 32.827181 17.426780 38.306589 -1.295354 1.098504 0.026904 -0.021577 37868.500000 0 0 1
-10.155839 32.520181 16.379080 37.801818 -1.268100 1.122658 0.032957 -0.017931 74136.400000 0 0 1
-11.074339 33.761781 16.020180 38.976210 -1.253841 1.147219 0.053091 -0.030939 -185608.000000 0 0 1
-12.053639 33.900681 16.987480 39.788451 -1.229179 1.129685 0.049112 -0.026684 -850976.000000 0 0 1
-12.960739 -33.205670 16.647080 39.341105 1.198665 1.133880 0.038151 -0.025850 76270.300000 0 0 1
-14.346439 -33.519970 17.279580 40.348390 1.166390 1.128231 0.072436 -0.028947 86286.200000 0 0 1
-14.333239 -33.233070 18.650080 40.714913 1.163606 1.094979 0.065447 -0.021261 358745.000000 0 0 1
-15.651639 -33.241370 19.190080 41.451437 1.130741 1.089472 0.056273 -0.027479 608903.000000 0 0 1
-15.599939 -32.947670 20.682480 41.912671 1.128592 1.054726 0.055016 -0.043883 105072.000000 0 0 1
-15.092139 -31.645570 20.990480 40.863370 1.125789 1.031334 0.081689 -0.033382 253996.000000 0 0 1
-15.314439 -31.448670 22.320380 41.493978 1.117630 1.002830 0.059305 -0.022908 159331.000000 0 0 1
-14.989239 -30.006270 22.743280 40.525428 1.107519 0.974949 0.077218 -0.027877 -210968.000000 0 0 1
-15.204039 -29.767870 24.124280 41.222200 1.098583 0.945638 0.072768 -0.037081 -113379.000000 0 0 1
-15.069539 -28.389670 24.568080 40.455592 1.082805 0.918157 0.066924 -0.005550 326780.000000 0 0 1
-16.218139 -27.394070 24.180980 39.977280 1.036257 0.921196 0.080621 -0.006569 499076.000000 0 0 1
-17.399239 -27.450070 24.955580 40.975856 1.005858 0.915958 0.093657 -0.008375 542974.000000 0 0 1
-18.309339 -26.417770 24.523080 40.429097 0.964737 0.919057 0.090582 -0.005435 435725.000000 0 0 1
-19.473439 -26.023870 25.537080 41.335204 0.928390 0.904849 0.098994 -0.007845 1929060.000000 0 0 1
-20.467039 -26.992970 25.991380 42.697446 0.922045 0.916333 0.110536 -0.010938 1088220.000000 0 0 1
-21.033339 -27.756270 24.926580 42.826934 0.922330 0.949573 0.100409 -0.017813 -862409.000000 0 0 1
-22.516939 -27.541870 24.560580 43.229495 0.885444 0.966548 0.075085 -0.005729 -95468.500000 0 0 1
-22.807939 -26.244970 24.101880 42.307223 0.855352 0.964671 0.100093 -0.016208 -114428.000000 0 0 1
-24.162339 -26.201470 23.718180 42.812238 0.825864 0.983629 0.092310 -0.018879 -18222.000000 0 0 1
-24.709039 -24.760270 23.394480 42.082173 0.786434 0.981322 0.090320 -0.007748 -167511.000000 0 0 1
-25.162389 -23.967770 24.438380 42.483340 0.761088 0.957891 0.079916 -0.007401 61541.200000 0 0 1
-25.583899 -22.718870 23.920380 41.747665 0.726154 0.960665 0.062058 -0.002239 115257.000000 0 0 1
-26.279519 -21.844570 24.991280 42.336301 0.693501 0.939361 0.061222 -0.000104 -267283.000000 0 0 1
-27.486409 -22.294370 25.519280 43.632273 0.681476 0.946075 0.054695 0.002713 -101685.000000 0 0 1
-27.891149 -21.468770 26.616080 44.127542 0.656012 0.923336 0.048815 -0.003559 -862789.000000 0 0 1
-28.891749 -22.083470 27.631080 45.671538 0.652623 0.921036 0.043315 -0.012004 43823.800000 0 0 1
-30.274719 -22.114370 27.363180 46.414950 0.630876 0.940315 0.040339 -0.016329 265204.000000 0 0 1
-30.710019 -22.673070 26.167580 46.280834 0.635968 0.969868 0.047891 -0.017526 -512699.000000 0 0 1
-32.280689 -22.821370 26.167580 47.408860 0.615386 0.986089 0.060993 -0.025977 913240.000000 0 0 1
-32.770419 -23.328070 24.940480 47.329977 0.618644 1.015790 0.053689 -0.023522 100341.000000 0 0 1
-32.491699 -24.718270 24.702280 47.716936 0.650350 1.026655 0.047480 -0.022238 -512913.000000 0 0 1
-32.984839 -25.148570 23.299680 47.574418 0.651408 1.058991 0.050119 -0.012442 600602.000000 0 0 1
-34.334669 -25.614270 23.328980 48.777060 0.640948 1.072104 0.063058 -0.018021 209622.000000 0 0 1
-34.626767 -25.988770 22.011480 48.568862 0.643847 1.100443 0.063042 -0.009984 933403.000000 0 0 1
-36.089710 -26.580470 21.874380 49.874613 0.634812 1.116770 0.061048 -0.012146 294968.000000 0 0 1
-36.433109 -27.694370 22.659880 51.066816 0.649961 1.111040 0.066522 -0.006330 520940.000000 0 0 1
-35.636060 -28.933770 22.511480 51.125909 0.681969 1.114847 0.062141 -0.004474 280937.000000 0 0 1
-35.915862 -29.861370 21.246180 51.313261 0.693611 1.143899 0.076476 -0.002789 82860.000000 0 0 1
-35.528097 -29.324470 19.950980 50.201711 0.690031 1.162097 0.060023 0.008883 205298.000000 0 0 1
-36.082171 -30.151170 19.020680 50.722799 0.696089 1.186407 0.059062 0.006783 -516486.000000 0 0 1
-36.331429 -29.584670 17.594380 50.047853 0.683400 1.211569 0.052412 0.014535 -499286.000000 0 0 1
-35.198089 -29.453870 16.761580 48.860889 0.696783 1.220638 0.075726 0.013482 -59802.700000 0 0 1
-35.415186 -28.919870 15.456680 48.264927 0.684778 1.244807 0.055446 0.008197 231749.000000 0 0 1
-36.131489 -29.936370 14.490080 49.108382 0.691903 1.271275 0.042524 -0.002651 767623.000000 0 0 1
-35.218663 -30.957670 14.064580 48.954509 0.721098 1.279391 0.051215 -0.007530 631873.000000 0 0 1
-35.880091 -31.877870 13.152380 49.765094 0.726400 1.303329 0.049316 -0.012632 317469.000000 0 0 1
-36.040881 -31.362570 11.702980 49.188572 0.716102 1.330572 0.048272 -0.022092 78815.700000 0 0 1
36.651609 -30.466770 11.482580 49.024628 -0.693509 1.334379 0.041485 -0.022858 99602.800000 0 0 1
36.860409 -29.571370 10.431580 48.393941 -0.676113 1.353536 0.030551 -0.013932 -69276.400000 0 0 1
35.584969 -28.755270 10.146780 46.862700 -0.679644 1.352546 0.047678 -0.012223 245323.000000 0 0 1
35.903449 -27.632170 9.292380 46.248705 -0.655943 1.368497 0.054795 -0.048863 986088.000000 0 0 1
34.662269 -27.006170 8.916580 44.836497 -0.661881 1.370593 0.038045 -0.044409 747958.000000 0 0 1
34.826629 -25.922470 7.856880 44.120279 -0.639862 1.391763 0.020793 -0.036250 -165078.000000 0 0 1
35.436099 -24.740870 8.205480 43.990426 -0.609505 1.383169 0.045115 -0.044309 -219336.000000 0 0 1
35.463539 -23.899670 7.112480 43.352556 -0.593009 1.405990 0.036937 -0.038281 -404832.000000 0 0 1
36.198939 -22.559470 7.395880 43.289628 -0.557310 1.399108 0.045333 -0.041027 -260052.000000 0 0 1
35.608989 -21.656470 8.365680 42.508674 -0.546408 1.372704 0.056508 -0.039319 -24870.200000 0 0 1
35.877509 -20.314170 7.952880 41.989396 -0.515203 1.380243 0.067301 -0.040214 80522.000000 0 0 1
35.022499 -19.381870 8.797980 40.983371 -0.505459 1.354440 0.073531 -0.032993 145466.000000 0 0 1
35.534859 -19.355370 10.140380 41.715510 -0.498755 1.325252 0.060825 -0.041328 -167295.000000 0 0 1
34.699059 -18.641570 11.025380 40.903445 -0.492991 1.297874 0.075877 -0.028490 -131563.000000 0 0 1
35.154569 -18.635270 12.468980 41.696432 -0.487433 1.267108 0.065108 -0.038395 445271.000000 0 0 1
36.288059 -17.821470 12.820480 42.412176 -0.456511 1.263710 0.023073 -0.022365 726948.000000 0 0 1
36.630099 -17.964070 14.206680 43.200714 -0.455953 1.235708 0.026520 -0.017114 -841521.000000 0 0 1
-35.860916 -17.279770 14.621180 42.407248 0.449027 1.218792 0.048991 -0.011715 -711631.000000 0 0 1
-34.680283 -17.747970 14.003880 41.398323 0.473011 1.225717 0.045796 -0.018098 256734.000000 0 0 1
-33.551729 -17.136170 14.621880 40.412451 0.472202 1.200581 0.036097 -0.015876 -248494.000000 0 0 1
-32.239729 -17.469170 13.926080 39.223816 0.496566 1.207838 0.056609 -0.016499 -395759.000000 0 0 1
-31.764959 -18.846370 13.886380 39.459217 0.535484 1.211178 0.043942 -0.011643 1137760.000000 0 0 1
-30.586569 -18.877470 13.027580 38.231073 0.552957 1.223072 0.019833 -0.002224 924560.000000 0 0 1
-29.939199 -20.244670 12.818280 38.347237 0.594569 1.229967 0.014104 -0.013132 75268.000000 0 0 1
-30.761679 -21.006770 11.971580 39.126513 0.599149 1.259838 0.017926 -0.015295 -237227.000000 0 0 1
-29.961379 -21.616970 10.989580 38.545408 0.625007 1.281678 0.022452 -0.012799 -168633.000000 0 0 1
-30.712329 -22.355470 9.861280 39.246134 0.629206 1.316807 0.028474 -0.013820 124455.000000 0 0 1
-31.416979 -23.526170 10.244680 40.564279 0.642756 1.315477 0.032360 -0.018949 -347432.000000 0 0 1
-32.788159 -23.215670 10.299680 41.474258 0.616109 1.319831 0.054170 -0.027254 -593786.000000 0 0 1
-33.644769 -24.463170 10.582080 42.923159 0.628684 1.321693 0.085289 -0.027841 -429602.000000 0 0 1
-33.753049 -25.183770 9.395380 43.148160 0.641012 1.351291 0.078664 -0.020395 -153856.000000 0 0 1
-34.507265 -26.359070 9.541180 44.458813 0.652319 1.354507 0.079767 -0.020383 63235.400000 0 0 1
-34.815182 -27.016870 8.168580 44.818901 0.659940 1.387514 0.072487 -0.019924 170514.000000 0 0 1
-33.627869 -27.458770 7.523680 44.061586 0.684750 1.399202 0.067152 -0.021584 124533.000000 0 0 1
-33.821349 -28.148870 6.275780 44.448036 0.694117 1.429129 0.062713 -0.020012 851066.000000 0 0 1
-32.421329 -28.570970 5.670280 43.584343 0.722353 1.440327 0.064103 -0.014270 1260710.000000 0 0 1
-31.719319 -27.570670 4.914180 42.313192 0.715540 1.454395 0.080184 -0.012128 -297009.000000 0 0 1
-30.466019 -28.076170 4.529980 41.676976 0.744598 1.461889 0.072005 -0.016626 -78914.600000 0 0 1
-29.506549 -26.986470 3.998880 40.185781 0.740819 1.471122 0.084960 -0.018661 137757.000000 0 0 1
-29.755819 -26.627070 2.652680 40.018075 0.729964 1.504461 0.095959 -0.019744 -179067.000000 0 0 1
-29.046409 -25.417670 2.469480 38.676222 0.718870 1.506903 0.087972 -0.018527 -483685.000000 0 0 1
-29.392799 -24.618270 1.202680 38.359383 0.697228 1.539438 0.092302 -0.024198 -17413.100000 0 0 1
-28.724819 -25.075870 0.022580 38.130237 0.717678 1.570204 0.098420 -0.028217 -1907.300000 0 0 1
-28.949929 -24.329270 -1.140620 37.832695 0.698889 1.600950 0.090932 -0.034204 -167965.000000 0 0 1
-30.280149 -24.423770 -1.921220 38.949956 0.678748 1.620142 0.123452 -0.035750 -350411.000000 0 0 1
-31.263569 -23.530770 -1.487720 39.157645 0.645200 1.608799 0.112117 -0.028129 -572520.000000 0 0 1
-32.443439 -23.907870 -2.181320 40.359895 0.635070 1.624869 0.124985 -0.023291 -365156.000000 0 0 1
-33.466369 -22.787470 -2.196320 40.547385 0.597796 1.624990 0.105273 -0.025400 -542551.000000 0 0 1
-33.882279 -22.433870 -0.884320 40.645656 0.584843 1.592555 0.109920 -0.037209 477499.000000 0 0 1
-34.764742 -21.299470 -0.978620 40.782501 0.549687 1.594795 0.111228 -0.021710 117772.000000 0 0 1
-35.011931 -20.496070 0.329080 40.571326 0.529617 1.562685 0.105736 -0.036723 -88483.800000 0 0 1
-35.698945 -21.282770 1.281080 41.581392 0.537601 1.539982 0.096569 -0.031856 228436.000000 0 0 1
-35.898034 -20.685770 2.516580 41.507868 0.522763 1.510130 0.085952 -0.025841 -782040.000000 0 0 1
-36.792769 -21.531370 3.504680 42.773713 0.529471 1.488769 0.083542 -0.012607 576456.000000 0 0 1
35.583029 -21.482570 3.264780 41.693063 -0.543158 1.492411 0.072642 -0.012397 -174252.000000 0 0 1
34.988969 -20.265670 3.561680 40.590773 -0.524986 1.482937 0.072476 -0.025899 -1278670.000000 0 0 1
33.707009 -19.957670 2.809980 39.272980 -0.534585 1.499185 0.064998 -0.015612 -972593.000000 0 0 1
32.642679 -20.806770 2.994180 38.825652 -0.567474 1.493601 0.060754 -0.010581 -399592.000000 0 0 1
31.471639 -20.235670 2.361780 37.490324 -0.571425 1.507758 0.061144 -0.020168 510517.000000 0 0 1
30.271939 -21.114370 2.731380 37.009017 -0.609039 1.496926 0.045488 -0.003879 -495862.000000 0 0 1
30.073229 -22.317870 2.036080 37.505093 -0.638437 1.516482 0.031602 -0.005941 674452.000000 0 0 1
28.879899 -22.984170 2.528680 36.996146 -0.672208 1.502393 0.028165 0.000073 892634.000000 0 0 1
28.617739 -24.216670 1.610580 37.523540 -0.702291 1.527861 0.033058 -0.005498 -78566.600000 0 0 1
28.228439 -23.890670 0.311280 36.982506 -0.702362 1.562379 0.033279 -0.010595 -37165.000000 0 0 1
27.798639 -24.998270 -0.439320 37.388110 -0.732407 1.582547 0.014744 -0.011303 281709.000000 0 0 1
26.795639 -24.620270 -1.614820 36.424876 -0.743114 1.615144 0.045640 -0.014707 497587.000000 0 0 1
27.401939 -24.033670 -2.801620 36.555883 -0.720006 1.647511 0.016846 -0.026705 87876.800000 0 0 1
27.752539 -25.043370 -3.738120 37.567903 -0.734129 1.670464 0.021601 -0.024498 -857286.000000 0 0 1
26.615939 -25.738170 -4.534020 37.301728 -0.768634 1.692648 0.030241 -0.024065 330457.000000 0 0 1
25.983939 -24.994870 -5.606420 36.487539 -0.765999 1.725060 0.033941 -0.033800 596252.000000 0 0 1
25.153739 -23.969770 -5.070720 35.113710 -0.761301 1.715712 0.052184 -0.035288 -680109.000000 0 0 1
24.661239 -22.949170 -6.135120 34.241507 -0.749454 1.750941 0.064023 -0.040360 29903.800000 0 0 1
23.874439 -23.424770 -7.207820 34.214928 -0.775892 1.783049 0.067651 -0.036943 20598.400000 0 0 1
22.899639 -22.512470 -7.639020 33.008474 -0.776873 1.804340 0.066368 -0.033476 -70380.300000 0 0 1
23.384139 -21.204470 -8.413420 32.668534 -0.736553 1.831271 0.063783 -0.029310 -327739.000000 0 0 1
23.755539 -21.427470 -9.770820 33.450426 -0.733918 1.867217 0.058571 -0.027968 187777.000000 0 0 1
23.741239 -20.208270 -10.540920 32.910964 -0.705184 1.896828 0.051106 -0.026926 -134526.000000 0 0 1
24.472539 -20.142770 -11.921020 33.863654 -0.688654 1.930535 0.039932 -0.024363 -334743.000000 0 0 1
25.855839 -20.298370 -11.810220 34.928921 -0.665564 1.915716 0.054597 -0.027507 -480731.000000 0 0 1
26.476239 -20.049270 -13.053820 35.684263 -0.648128 1.945304 0.055303 -0.025226 204686.000000 0 0 1
28.003639 -20.339070 -13.101020 37.007003 -0.628160 1.932657 0.053460 -0.027136 354632.000000 0 0 1
28.342339 -21.767170 -13.181220 38.089925 -0.654928 1.924160 0.043242 -0.022811 144951.000000 0 0 1
28.532239 -22.427670 -12.011720 38.227875 -0.666175 1.890425 0.058407 -0.029373 -420078.000000 0 0 1
28.702359 -23.943070 -12.229820 39.327655 -0.695241 1.887012 0.043090 -0.022569 -344373.000000 0 0 1
29.844009 -24.090070 -13.047020 40.511986 -0.679116 1.898694 0.045711 -0.030200 240525.000000 0 0 1
30.110419 -25.465170 -13.365220 41.638219 -0.702008 1.897565 0.039782 -0.016663 -181010.000000 0 0 1
-3.347339 -8.861519 -27.740470 29.313220 1.209627 2.812533 0.083974 -0.024139 62884.800000 0 0 1
-3.334339 -7.564119 -27.243010 28.469551 1.155611 2.846990 0.084501 -0.019186 -551650.000000 0 0 1
-4.163239 -6.680919 -27.888620 28.978309 1.013526 2.866487 0.080150 -0.018346 -418715.000000 0 0 1
-4.176139 -5.261919 -27.254260 28.069960 0.899937 2.899926 0.073391 -0.029376 -119105.000000 0 0 1
-4.802839 -5.225019 -25.988380 26.940007 0.827474 2.875007 0.059389 -0.027427 261941.000000 0 0 1
-4.485239 -4.062019 -25.230650 25.946157 0.735923 2.906202 0.057685 -0.031019 -45223.700000 0 0 1
-5.291539 -4.041919 -23.886220 24.796956 0.652304 2.869730 0.054640 -0.026991 99565.100000 0 1 0
-4.877239 -5.031919 -22.938220 23.984779 0.801007 2.845095 0.051038 -0.030122 595042.000000 0 1 0
-5.444539 -4.814319 -21.634720 22.822835 0.724044 2.817506 0.049272 -0.021573 -7806.720000 0 1 0
-4.927039 -5.880219 -20.653520 22.032262 0.873369 2.785946 0.047972 -0.023087 -56696.500000 0 1 0
-5.526739 -7.164719 -20.936720 22.808426 0.913750 2.733647 0.049919 -0.020032 549217.000000 0 1 0
-4.738839 -8.193019 -20.406920 22.494990 1.046411 2.707320 0.054241 -0.018845 -362329.000000 0 1 0
-5.565139 -9.541119 -20.337820 23.143696 1.042762 2.644060 0.067507 -0.018724 997423.000000 0 1 0
-6.592439 -9.612419 -19.349620 22.589083 0.969647 2.599424 0.066438 -0.021592 663717.000000 0 1 0
-7.781339 -8.866119 -19.575220 22.854902 0.850468 2.599246 0.057384 -0.022069 -248534.000000 0 1 0
-8.867839 -9.134919 -18.497520 22.455368 0.800233 2.538783 0.050416 -0.014648 23347.900000 0 1 0
-9.520339 -10.399519 -18.751620 23.460821 0.829505 2.496882 0.078952 -0.008423 157349.000000 0 1 0
-9.886939 -11.066819 -17.583920 23.009135 0.841648 2.440619 0.063640 -0.012491 -565969.000000 0 1 0
-10.825739 -12.229919 -17.776620 24.140749 0.846227 2.398492 0.075020 -0.000336 568745.000000 0 1 0
-12.123639 -11.935619 -18.346520 25.020720 0.777583 2.393890 0.096093 -0.017291 1111000.000000 0 0 1
-12.121539 -11.977519 -19.776720 26.105772 0.779422 2.430365 0.092968 -0.029349 713373.000000 0 0 1
-13.576339 -11.745119 -20.389520 27.166107 0.713205 2.419690 0.095022 -0.029384 1207660.000000 0 0 1
-14.494839 -12.790519 -20.505120 28.180804 0.723016 2.385653 0.090495 -0.027672 19.889500 0 0 1
-15.177139 -13.039519 -19.270020 27.779638 0.709785 2.337374 0.084371 -0.022965 -1031180.000000 0 0 1
-16.305839 -14.015819 -19.475420 29.010611 0.710017 2.306785 0.083409 -0.017627 -878063.000000 0 0 1
-16.006839 -15.348319 -19.761320 29.703528 0.764399 2.298672 0.086006 -0.013031 -562335.000000 0 0 1
-16.866839 -15.957619 -20.675520 31.090401 0.757706 2.298308 0.081833 -0.015118 -263592.000000 0 0 1
-16.389039 -17.413519 -21.034120 31.847535 0.815697 2.292232 0.075462 -0.010790 51934.100000 0 0 1
-16.361439 -18.248419 -19.917020 31.581469 0.839866 2.253194 0.082964 -0.001264 39494.000000 0 0 1
-15.921439 -19.524319 -20.278520 32.340526 0.886695 2.248533 0.074914 -0.003081 -406858.000000 0 0 1
-16.595139 -20.705619 -19.606220 32.992805 0.895154 2.207138 0.084530 -0.008841 -357194.000000 0 0 1
-16.498939 -21.848619 -20.372820 34.126661 0.924009 2.210524 0.080235 -0.006736 165834.000000 0 0 1
-17.144139 -22.992219 -19.844420 34.876420 0.930085 2.176076 0.087143 -0.004737 -9356.100000 0 0 1
-16.499339 -24.332319 -20.327620 35.742161 0.974932 2.175757 0.085870 0.000356 -69256.400000 0 0 1
-16.887939 -24.798319 -21.604920 36.972039 0.972928 2.194885 0.064268 -0.004333 457844.000000 0 0 1
-16.243839 -26.065169 -21.810520 37.669008 1.013492 2.188303 0.065939 -0.002908 -19028.500000 0 0 1
-16.338839 -26.594009 -23.279120 38.937340 1.019870 2.211626 0.065485 -0.006898 -158002.000000 0 0 1
-17.546339 -27.133689 -23.762220 40.109278 0.996771 2.204877 0.087627 -0.004012 -114137.000000 0 0 1
-17.544439 -28.519729 -23.567720 40.946547 1.019298 2.184101 0.085338 0.000724 -178521.000000 0 0 1
-18.650339 -29.159819 -24.452520 42.379900 1.001774 2.185827 0.096437 -0.003989 -280478.000000 0 0 1
-18.463039 -29.231819 -25.873310 43.183460 1.007460 2.213234 0.086550 -0.002989 109648.000000 0 0 1
-18.535239 -27.953509 -26.517730 42.756798 0.985285 2.239793 0.105700 -0.013482 -1000590.000000 0 0 1
-17.367739 -27.673009 -27.408170 42.645534 1.010325 2.268810 0.105780 -0.018370 -1035460.000000 0 0 1
-17.333939 -28.170599 -28.722780 43.806920 1.019188 2.285863 0.110435 -0.014352 -192027.000000 0 0 1
-16.132839 -27.780589 -29.320380 43.493842 1.044671 2.310579 0.077627 -0.009881 -402670.000000 0 0 1
-16.156239 -28.050339 -30.786230 44.672559 1.048231 2.331116 0.094331 -0.009042 -26575.900000 0 0 1
-16.209439 -29.426629 -31.093230 45.776210 1.067306 2.317529 0.071755 -0.008894 36223.500000 0 0 1
-16.894339 -29.686189 -32.267850 46.988325 1.053409 2.327764 0.069216 -0.000259 -229977.000000 0 0 1
-16.734939 -31.086239 -32.825510 48.207122 1.076950 2.319823 0.059927 -0.001442 830753.000000 0 0 1
-15.449239 -31.378779 -33.410260 48.368918 1.113290 2.333306 0.057902 0.001175 515099.000000 0 0 1
-15.511239 -32.515479 33.768432 49.377747 1.125683 0.817729 0.042082 0.006614 -127518.000000 0 0 1
-14.217739 -33.212989 33.315019 49.144046 1.166322 0.825887 0.042698 -0.003905 -79315.600000 0 0 1
-13.527039 -33.999079 -33.758240 49.784907 1.192132 2.315946 0.055427 -0.007895 584547.000000 0 0 1
-12.437739 33.425957 33.627423 49.018318 -1.214572 0.814795 0.063108 -0.012077 597556.000000 0 0 1
-11.461139 32.748853 -33.418880 48.173298 -1.234148 2.337440 0.076211 -0.020173 -345255.000000 0 0 1
-10.502339 33.612289 -32.893850 48.188074 -1.267952 2.322130 0.077020 -0.019365 -444695.000000 0 0 1
-9.768239 32.986052 -31.868240 46.894380 -1.282892 2.317979 0.086202 -0.021847 160389.000000 0 0 1
-9.008739 34.044229 -31.036560 46.940760 -1.312107 2.293194 0.083234 -0.011789 -486295.000000 0 0 1
-9.903239 -33.354279 -30.244250 46.100941 1.282176 2.286362 0.091401 -0.021328 -458848.000000 0 0 1
-9.397439 -32.192029 -29.650040 44.763417 1.286770 2.294777 0.088442 -0.028642 -601401.000000 0 0 1
-10.424739 -31.337779 -28.841760 43.847220 1.249654 2.288662 0.085096 -0.021284 265936.000000 0 0 1
-10.716239 -31.814509 -27.581210 43.447945 1.245898 2.258560 0.118463 -0.025214 -4534.680000 0 0 1
-11.407039 -33.036869 -27.444080 44.437966 1.238331 2.236461 0.108758 -0.032540 -399404.000000 0 0 1
-11.800939 -33.233949 -25.967520 43.795772 1.229597 2.205480 0.129139 -0.024855 73265.500000 0 0 1
-10.681039 -33.516969 -25.149080 43.242896 1.262295 2.191462 0.128379 -0.035665 -49625.300000 0 0 1
-11.029739 -33.706799 -23.747220 42.681775 1.254552 2.160817 0.131187 -0.042892 -74583.500000 0 0 1
-9.861439 -33.786089 -22.754820 41.910973 1.286807 2.144721 0.130298 -0.048980 -150243.000000 0 0 1
-9.070639 33.167070 -22.759020 41.234743 -1.303841 2.155483 0.106490 -0.045407 -129579.000000 0 0 1
-8.170039 33.288570 -21.671620 40.552898 -1.330123 2.134598 0.121784 -0.048448 258465.000000 0 0 1
-7.289439 31.990381 -21.440920 39.194814 -1.346758 2.149614 0.122950 -0.050262 1065240.000000 0 0 1
-6.156239 31.768581 -22.327620 39.314942 -1.379385 2.174769 0.101914 -0.058552 886371.000000 0 0 1
-5.397339 30.616821 -21.990020 38.079942 -1.396302 2.186423 0.086458 -0.049027 -33382.400000 0 0 1
-4.011739 30.746931 -22.654320 38.401641 -1.441053 2.201770 0.090044 -0.055113 -214431.000000 0 0 1
-4.024339 30.768831 -24.055520 39.263015 -1.440742 2.230239 0.099918 -0.048934 554630.000000 0 0 1
-2.805939 31.427861 -24.454320 39.919889 -1.481751 2.230123 0.096146 -0.050044 703401.000000 0 0 1
-2.475739 31.361121 -25.969460 40.792917 -1.492017 2.260900 0.095575 -0.025581 -98256.600000 0 0 1
-1.522339 32.321662 -26.381250 41.748985 -1.523731 2.254801 0.093334 -0.042365 -228467.000000 0 0 1
-2.014439 33.612019 -26.502480 42.850989 -1.510936 2.237603 0.090832 -0.029980 -181175.000000 0 0 1
-1.045139 -33.471199 -27.134070 43.100711 1.539581 2.251771 0.029062 -0.008366 736037.000000 0 0 1
0.090561 -33.131329 -26.306740 42.305292 -1.568063 2.241875 0.057468 -0.024739 565720.000000 0 0 1
0.872361 -32.128069 -26.933400 41.933064 -1.543650 2.268285 0.034987 -0.006501 426235.000000 0 0 1
2.241961 -31.808209 -26.226520 41.287031 -1.500429 2.259095 0.029691 -0.010501 126373.000000 0 0 1
2.151061 -31.336669 -24.881620 40.071298 -1.502260 2.240730 0.017266 -0.001582 -125304.000000 0 0 1
3.400961 -30.883159 -24.428220 39.523082 -1.461115 2.237088 0.005984 -0.005782 -380411.000000 0 0 1
3.380661 -29.947089 -23.193520 38.028889 -1.458384 2.226721 0.014863 -0.005037 -232625.000000 0 0 1
3.160461 -30.704539 -22.035220 37.925034 -1.468226 2.190778 0.025711 -0.006369 426015.000000 0 0 1
3.298261 -29.890969 -20.844420 36.590141 -1.460898 2.176904 0.029235 0.003631 -454172.000000 0 0 1
3.298161 -30.704609 -19.486020 36.515146 -1.463791 2.133698 0.035198 0.002886 -156901.000000 0 0 1
2.089761 -31.328999 -19.094520 36.748796 -1.504191 2.117174 0.042268 0.000635 109105.000000 0 0 1
1.940061 -32.586349 -19.640720 38.097138 -1.511331 2.112438 0.040814 -0.005220 -398094.000000 0 0 1
2.389761 -33.795109 -18.820520 38.756062 -1.500201 2.077863 0.022946 -0.009816 1183930.000000 0 0 1
3.813761 -34.022459 -18.961820 39.135957 -1.459167 2.076601 0.031850 -0.006260 1030340.000000 0 0 1
4.189861 33.036395 -18.053220 37.879772 1.444644 2.067571 0.050459 -0.021937 183312.000000 0 0 1
5.286061 32.064517 -18.574820 37.431266 1.407409 2.090057 0.069880 -0.021718 45989.400000 0 0 1
6.499961 32.745644 -18.760920 38.294893 1.374845 2.082779 0.089452 -0.023820 -89085.400000 0 0 1
7.457161 31.898671 -19.443720 38.094524 1.341144 2.106455 0.090878 -0.041706 1032400.000000 0 0 1
8.833461 32.595936 -19.686020 39.090465 1.306154 2.098559 0.095568 -0.042872 791956.000000 0 0 1
9.575961 32.958361 -18.481320 38.980916 1.288034 2.064752 0.088729 -0.035044 1024350.000000 0 0 1
10.890961 33.408199 -18.863120 39.881551 1.255663 2.063465 0.087272 -0.028134 517728.000000 0 0 1
11.831161 33.580096 -17.687420 39.754799 1.232050 2.031873 0.069482 -0.025481 -223555.000000 0 0 1
12.670961 32.496819 -17.301520 38.935063 1.199015 2.031266 0.068097 -0.032538 439780.000000 0 0 1
13.399561 32.880804 -16.116520 38.992791 1.183825 1.996894 0.049511 -0.032482 907365.000000 0 0 1
14.626061 31.935661 -15.758120 38.498396 1.141322 1.992504 0.050240 -0.031681 918846.000000 0 0 1
14.327261 30.710931 -15.080920 37.092666 1.134290 1.989498 0.064841 -0.029815 -852255.000000 0 0 1
15.512561 30.012081 -14.928620 36.935461 1.093738 1.986880 0.063410 -0.024994 -546138.000000 0 0 1
15.484761 28.795431 -14.010420 35.570304 1.077406 1.975645 0.073383 -0.023256 -504853.000000 0 0 1
15.453161 29.028531 -12.627320 35.226482 1.081610 1.937415 0.063830 -0.023376 -75505.500000 0 0 1
14.190061 29.101141 -11.997120 34.527745 1.117108 1.925661 0.066155 -0.025163 187232.000000 0 0 1
13.491261 27.738401 -11.771820 33.015281 1.118108 1.935376 0.070268 -0.017697 -186825.000000 0 0 1
12.715161 27.166011 -12.810020 32.615397 1.133031 1.974427 0.079457 -0.023892 247885.000000 0 0 1
12.179161 25.836501 -12.680920 31.251600 1.130295 1.988616 0.098512 -0.025741 646050.000000 0 0 1
11.162861 25.538561 -11.514920 30.156607 1.158723 1.962580 0.104581 -0.021076 506313.000000 0 0 1
9.893761 26.171961 -11.639120 30.303914 1.209373 1.965007 0.104357 -0.025109 168688.000000 0 0 1
9.356361 26.369971 -10.392520 29.848306 1.229842 1.926423 0.080554 -0.015941 -255781.000000 0 0 1
8.294961 27.482671 -10.318520 30.505335 1.277666 1.915856 0.089123 -0.018446 48962.700000 0 0 1
8.812961 28.752551 -10.596920 31.885298 1.273377 1.909585 0.091705 -0.012957 -75793.700000 0 0 1
7.796861 29.731021 -10.455920 32.466151 1.314325 1.898697 0.084177 -0.012740 308771.000000 0 0 1
8.218961 31.118191 -10.918920 33.986997 1.312572 1.897864 0.102125 -0.016742 -353759.000000 0 0 1
9.243661 31.616061 -10.090820 34.450620 1.286352 1.868062 0.077513 -0.014947 -233489.000000 0 0 1
9.865161 32.749810 -10.738420 35.849479 1.278213 1.875009 0.094259 -0.017262 834692.000000 0 0 1
11.112261 32.404719 -11.648920 36.183498 1.240442 1.898574 0.070115 -0.029928 159957.000000 0 0 1
12.335661 32.542387 -10.937720 36.480258 1.208467 1.875306 0.048958 -0.018308 -383361.000000 0 0 1
13.282761 32.925270 -11.923420 37.452278 1.187344 1.894798 0.063987 -0.020795 368737.000000 0 0 1
14.737861 32.630342 -11.438720 37.587074 1.146562 1.880027 0.068878 -0.023926 436133.000000 0 0 1
15.141061 33.444371 -10.333320 38.138631 1.145680 1.845167 0.078286 -0.019048 172289.000000 0 0 1
16.556261 33.578706 -10.288320 38.826393 1.112717 1.838982 0.071483 -0.024206 235095.000000 0 0 1
16.977361 -33.572629 -9.208520 38.731758 -1.102607 1.810846 0.086854 -0.027852 -145978.000000 0 0 1
16.793261 -34.055869 -7.873520 38.778966 -1.112677 1.775254 0.074790 -0.028317 -17396.300000 0 0 1
17.213961 -33.167539 -6.894620 37.999236 -1.092064 1.753248 0.066541 -0.021772 -925693.000000 0 0 1
17.612361 -33.893659 -5.555920 38.598493 -1.091564 1.715239 0.073193 -0.016234 1095410.000000 0 0 1
18.640961 33.193839 -5.695320 38.493546 1.059107 1.719297 0.060513 -0.022107 1351790.000000 0 0 1
19.962961 33.629618 -6.037020 39.571665 1.035087 1.723954 0.058048 -0.016795 -112170.000000 0 0 1
20.724461 32.665805 -6.981220 39.310247 1.005438 1.749336 0.045427 -0.011979 218824.000000 0 0 1
21.007061 31.419121 -6.354620 38.325435 0.981451 1.737372 0.056185 -0.003207 34987.300000 0 0 1
22.120861 31.467821 -5.458620 38.850390 0.958081 1.711766 0.060831 -0.003855 -211828.000000 0 0 1
22.519761 30.073511 -4.931720 37.892975 0.928048 1.701315 0.056272 -0.010172 -206341.000000 0 0 1
23.213561 29.309861 -5.898720 37.851450 0.900949 1.727273 0.057761 -0.008124 91542.500000 0 0 1
23.554761 28.016551 -5.394120 36.997979 0.871700 1.717113 0.065108 -0.006739 -70080.000000 0 0 1
24.608761 27.260821 -6.258220 37.254648 0.836483 1.739582 0.051139 -0.001054 -615475.000000 0 0 1
25.861161 27.870051 -6.248120 38.530227 0.822769 1.733677 0.064518 -0.006092 -117063.000000 0 0 1
26.911461 27.127471 -6.876920 38.825487 0.789395 1.748860 0.043017 -0.005822 527747.000000 0 0 1
27.602061 26.184661 -5.871220 38.496513 0.759052 1.723907 0.035562 -0.000037 384453.000000 0 0 1
28.726361 26.688711 -5.075820 39.538021 0.748644 1.699530 0.038780 -0.006554 718520.000000 0 0 1
29.390661 25.663181 -4.450420 39.271059 0.717795 1.684366 0.031400 -0.005950 306063.000000 0 0 1
30.757261 26.196431 -3.885720 40.587694 0.705489 1.666680 0.040433 -0.009969 541727.000000 0 0 1
30.580861 27.085691 -2.782420 40.945886 0.724862 1.638802 0.056808 -0.019820 361937.000000 0 0 1
31.771561 27.049851 -1.998020 41.774617 0.705298 1.618643 0.065826 -0.038298 370836.000000 0 0 1
31.893861 28.270111 -1.024820 42.631770 0.725240 1.594838 0.066301 -0.024690 171836.000000 0 0 1
32.180661 29.503541 -1.677720 43.690601 0.742025 1.609206 0.038721 -0.011304 35805.900000 0 0 1
31.342861 30.504591 -1.138020 43.751573 0.771845 1.596810 0.063895 -0.015019 182006.000000 0 0 1
33.920959 22.665881 18.763677 44.904890 0.589061 1.139715 0.143148 -0.030542 236058.000000 0 0 1
34.098109 22.654281 20.172477 45.637991 0.586422 1.112957 0.122979 -0.025695 -72507.600000 0 0 1
34.804639 23.770181 20.624177 46.922713 0.599198 1.115715 0.117459 -0.020836 -270849.000000 0 0 1
34.883259 23.699381 22.174977 47.646951 0.596760 1.086708 0.090953 -0.005336 911626.000000 0 0 1
33.630179 24.140281 22.751077 47.237205 0.622583 1.068277 0.082766 -0.006109 1031480.000000 0 0 1
33.671489 24.288581 24.182827 48.046992 0.624905 1.043364 0.078140 -0.010616 705805.000000 0 0 1
32.297039 24.716181 24.834007 47.652032 0.653207 1.022595 0.064944 -0.008813 819966.000000 0 0 1
31.955059 26.060181 24.547647 47.987975 0.684137 1.033823 0.043621 -0.007108 -171437.000000 0 0 1
30.791279 26.421281 25.226137 47.775986 0.709164 1.014542 0.037565 -0.012076 -514231.000000 0 0 1
30.729769 27.934881 25.494737 48.730461 0.737792 1.020220 0.034746 -0.007601 -317186.000000 0 0 1
30.403779 28.731881 24.424527 48.440357 0.757133 1.042320 0.028477 -0.011093 115186.000000 0 0 1
29.842679 29.979181 24.751967 49.010168 0.787680 1.041371 0.027350 -0.003188 -185747.000000 0 0 1
30.047419 30.937881 23.567167 49.146833 0.799998 1.070682 0.023571 -0.007790 1563430.000000 0 0 1
31.436589 31.239481 23.211207 50.029235 0.782253 1.088344 0.028321 -0.014372 1296850.000000 0 0 1
31.561229 32.027381 22.049377 50.080328 0.792729 1.114886 0.020936 -0.003767 981753.000000 0 0 1
33.080399 32.259981 21.723977 51.058303 0.772843 1.131311 0.018996 -0.015558 1025370.000000 0 0 1
33.816609 32.993381 22.703677 52.417393 0.773077 1.122831 0.029300 0.003239 212423.000000 0 0 1
35.105479 33.281581 22.175677 53.214837 0.758734 1.140962 0.032441 0.009550 174803.000000 0 0 1
35.795169 -33.703870 22.942977 54.255185 -0.755316 1.134184 0.055920 0.009084 -172884.000000 0 0 1
35.030019 -32.523070 22.848277 52.980147 -0.748304 1.124906 0.037564 0.003698 123818.000000 0 0 1
35.318149 -31.601770 23.856287 53.058137 -0.729920 1.104450 0.047555 -0.003930 -316381.000000 0 0 1
34.440649 -30.300070 23.667247 51.617740 -0.721529 1.094479 0.046213 -0.010369 1308980.000000 0 0 1
33.023329 -30.440570 23.867127 50.860675 -0.744724 1.082338 0.041073 -0.005271 820164.000000 0 0 1
32.333719 -30.851070 22.722777 50.135640 -0.761937 1.100415 0.034827 0.005540 -684845.000000 0 0 1
31.517609 -32.128270 22.967877 50.528296 -0.794993 1.098924 0.026601 0.007351 203241.000000 0 0 1
30.437359 -31.973570 23.881337 50.190240 -0.810008 1.074904 0.033146 -0.003691 378275.000000 0 0 1
29.687539 -33.156870 24.098637 50.610989 -0.840547 1.074520 0.026342 0.002471 184977.000000 0 0 1
28.977559 -33.212870 25.467127 50.905483 -0.853395 1.046871 0.012657 -0.000962 66375.500000 0 0 1
28.399439 33.619981 25.562507 50.894724 0.869376 1.044583 0.010472 -0.007213 192643.000000 0 0 1
27.598339 33.357381 26.701807 50.866193 0.879598 1.018149 0.009378 -0.003330 -393616.000000 0 0 1
27.435339 31.782281 26.855017 49.839774 0.858673 1.001752 0.009779 -0.003201 560104.000000 0 0 1
26.724339 31.188381 25.724747 48.463058 0.862328 1.011239 -0.001405 -0.001389 1268890.000000 0 0 1
25.301039 31.420681 25.763687 47.866160 0.892871 1.002444 -0.002051 0.002505 943474.000000 0 0 1
24.523339 31.103481 24.400077 46.520795 0.903142 1.018671 0.034642 -0.017972 556104.000000 0 0 1
24.943739 31.929281 23.243537 46.711145 0.907613 1.049965 0.025460 -0.019438 1096820.000000 0 0 1
26.337139 31.899181 22.875877 47.270586 0.880617 1.065651 0.011566 -0.010943 654242.000000 0 0 1
26.626439 32.688381 21.546677 47.347194 0.887244 1.098336 0.024421 -0.010531 1342720.000000 0 0 1
27.997039 32.934681 21.115977 48.108334 0.866257 1.116394 0.032864 -0.008982 1225310.000000 0 0 1
27.986439 33.740181 19.940077 48.158563 0.878343 1.143897 0.033982 -0.011700 -104629.000000 0 0 1
29.307239 -33.845070 19.339977 48.769229 -0.857130 1.163029 0.051247 -0.017948 372683.000000 0 0 1
30.191339 33.226081 18.879777 48.702519 0.833215 1.172710 0.058711 -0.018057 273826.000000 0 0 1
31.329419 33.867981 18.326177 49.642938 0.824315 1.192692 0.056500 -0.014426 35960.300000 0 0 1
32.351479 32.882781 17.706277 49.410603 0.793543 1.204297 0.047473 -0.008439 146584.000000 0 0 1
33.097179 32.099781 18.653777 49.737134 0.770101 1.186349 0.033834 -0.016215 34443.300000 0 0 1
33.864059 31.161781 17.952877 49.397741 0.743865 1.198844 0.047187 -0.015678 -204627.000000 0 0 1
34.848229 30.404481 18.856977 49.944139 0.717403 1.183635 0.053690 -0.016309 -302347.000000 0 0 1
35.835169 31.237181 19.386077 51.339466 0.716953 1.183587 0.052871 -0.010715 14313.700000 0 0 1
36.813029 30.522281 20.137277 51.887557 0.692244 1.172233 0.083080 -0.013598 426079.000000 0 0 1
-35.798999 31.365781 20.721077 51.910919 -0.719489 1.160189 0.123821 -0.009800 38197.500000 0 0 1
-34.847138 31.831681 19.768977 51.170219 -0.740205 1.174139 0.119978 -0.010901 115828.000000 0 0 1
-33.675509 32.412981 20.276777 50.948885 -0.766297 1.161479 0.112558 -0.002290 -45863.700000 0 0 1
-33.767609 33.720181 21.028577 52.148855 -0.784695 1.155740 0.105614 0.002615 -617330.000000 0 0 1
-34.004869 33.593281 22.407477 52.791426 -0.779309 1.132439 0.117381 0.004685 218049.000000 0 0 1
-34.046909 -33.252470 23.044347 52.876844 0.773594 1.119856 0.106074 0.005455 -37451.000000 0 0 1
-34.021229 -33.322670 24.568867 53.586132 0.775026 1.094498 0.115780 -0.011921 96596.100000 0 0 1
-35.288129 -33.659270 25.081707 54.838768 0.761778 1.095759 0.102556 -0.003166 -184664.000000 0 0 1
-35.148863 33.913581 26.428027 55.533900 -0.767514 1.074821 0.109483 -0.009825 224004.000000 0 0 1
-36.503999 33.868981 27.135267 56.709545 -0.747972 1.071856 0.071527 -0.013496 140493.000000 0 0 1
-36.320239 32.943881 28.222787 56.577246 -0.736691 1.048541 0.088623 -0.023187 55892.300000 0 0 1
36.284429 32.858181 29.045427 56.919738 0.735885 1.035277 0.085735 -0.027829 112147.000000 0 0 1
36.338409 31.712081 30.128777 56.867207 0.717519 1.012421 0.084297 -0.016502 -75074.000000 0 0 1
36.146969 30.438781 29.541577 55.729951 0.699880 1.012096 0.075855 -0.024429 242662.000000 0 0 1
-36.547879 30.008381 28.727347 55.330921 -0.687457 1.024892 0.073754 -0.024321 -340628.000000 0 0 1
-36.799169 28.575181 28.284617 54.504489 -0.660257 1.025185 0.071621 -0.019888 -745386.000000 0 0 1
35.859769 28.399581 27.455177 53.350219 0.669821 1.030230 0.064543 -0.019862 -97242.500000 0 0 1
35.595769 27.056681 27.052547 52.258616 0.649940 1.026675 0.072065 -0.021143 358511.000000 0 0 1
35.016579 26.002881 28.103707 51.885729 0.638740 0.998402 0.066073 -0.023218 -132356.000000 0 0 1
36.091309 25.626881 28.924867 52.876909 0.617444 0.991993 0.044393 -0.020850 248393.000000 0 0 1
35.840109 24.334581 29.475487 52.397419 0.596476 0.973345 0.043677 -0.016292 -91617.700000 0 0 1
36.323639 23.193781 28.552807 51.697398 0.568271 0.985668 0.057250 -0.009171 -300537.000000 0 0 1
35.726999 23.078381 27.284737 50.532039 0.573533 1.000420 0.078069 -0.014289 42533.200000 0 0 1
36.433839 22.196981 26.404817 50.173149 0.547187 1.016584 0.077311 -0.015834 -186343.000000 0 0 1
36.105379 20.658581 26.478527 49.310118 0.519708 1.003944 0.083312 -0.021310 425724.000000 0 0 1
34.766459 20.384581 25.998417 47.959936 0.530307 0.997879 0.101499 -0.004740 1384980.000000 0 0 1
34.159669 19.164981 26.402477 47.236323 0.511281 0.977684 0.098906 -0.004528 48659.100000 0 0 1
34.029929 18.890381 27.921517 47.900873 0.506759 0.948501 0.086492 -0.011673 -273254.000000 0 0 1
32.940349 19.541481 28.588347 47.793615 0.535433 0.929590 0.070568 -0.017662 584059.000000 0 0 1
32.993479 20.964481 28.780807 48.542908 0.566052 0.936148 0.066053 -0.021996 -1270800.000000 0 0 1
31.766799 21.465181 29.513977 48.383451 0.594238 0.914734 0.062723 -0.031031 -154887.000000 0 0 1
30.496399 21.145181 28.928707 47.053364 0.606260 0.908656 0.068932 -0.040309 704207.000000 0 0 1
30.055739 21.944681 27.826367 46.467441 0.630664 0.928750 0.063610 -0.029531 -356313.000000 0 0 1
29.911879 23.467481 28.033177 47.236661 0.665251 0.935443 0.060437 -0.022905 430181.000000 0 0 1
31.147129 24.219181 28.198527 48.496074 0.660916 0.950274 0.059103 -0.026419 695367.000000 0 0 1
31.099649 25.458681 28.904927 49.505831 0.685990 0.947310 0.044631 -0.018226 -120642.000000 0 0 1
31.238679 25.308981 30.456537 50.438083 0.680918 0.922486 0.046561 -0.026689 277602.000000 0 0 1
32.516209 24.789981 30.801427 51.191551 0.651383 0.925181 0.051106 -0.021126 271710.000000 0 0 1
32.908849 24.744781 32.164927 52.248244 0.644728 0.907627 0.060663 -0.017597 -15361.700000 0 0 1
32.270899 23.595281 32.931120 51.793888 0.631336 0.881738 0.063302 -0.017709 -349816.000000 0 0 1
32.839069 23.536381 -33.829960 52.695653 0.621859 2.267884 0.054365 -0.020134 240814.000000 0 0 1
32.557579 22.326081 -33.096940 51.515602 0.601092 2.268506 0.045952 -0.019998 -168713.000000 0 0 1
33.149339 22.200981 -31.650210 50.926398 0.590118 2.241439 0.041757 -0.021415 -86603.200000 0 0 1
32.489559 23.204181 -30.860530 50.461646 0.620196 2.228832 0.031981 -0.020838 729207.000000 0 0 1
32.891189 23.077781 -29.457080 49.821018 0.611826 2.203414 0.065976 -0.029143 800602.000000 0 0 1
34.350769 23.646681 -29.205160 50.912495 0.602891 2.181732 0.070701 -0.004071 1053690.000000 0 0 1
35.024239 23.093781 -28.109780 50.499304 0.582931 2.161128 0.065121 -0.015128 -913726.000000 0 0 1
36.215669 23.734881 -27.835730 51.475694 0.580145 2.142131 0.080855 -0.013022 -426907.000000 0 0 1
-36.728119 23.170981 -26.621250 50.936628 -0.562815 2.120735 0.067191 -0.016497 -173638.000000 0 0 1
-36.031117 22.018381 -27.065000 50.155406 -0.548537 2.140785 0.048236 -0.014927 -42170.600000 0 0 1
-36.173309 20.952481 -26.212770 49.341910 -0.525004 2.130869 0.032509 -0.009072 -496994.000000 0 0 1
-35.207661 19.832781 -26.536760 48.343751 -0.513004 2.151866 0.045814 -0.000969 619804.000000 0 0 1
-33.857509 20.078881 -26.119220 47.240936 -0.535287 2.156629 0.049727 -0.007612 157960.000000 0 0 1
-33.066739 18.963381 -26.030270 46.158358 -0.520697 2.169938 0.023130 -0.012853 -291573.000000 0 0 1
-31.695959 19.102181 -25.362710 44.864175 -0.542380 2.171620 0.036615 -0.018326 -228896.000000 0 0 1
-31.811479 19.288981 -23.975120 44.258800 -0.545078 2.143258 0.039876 -0.013394 345715.000000 0 0 1
-30.587699 19.152481 -23.254820 42.932639 -0.559426 2.143205 0.045404 -0.003252 454618.000000 0 0 1
-30.833959 19.444981 -21.730720 42.438950 -0.562641 2.108362 0.037058 0.004225 2238.600000 0 0 1
-31.664819 18.550081 -21.032120 42.297947 -0.529932 2.091208 0.015254 0.001811 -105925.000000 0 0 1
-32.374679 19.230481 -20.015420 42.644440 -0.535994 2.059358 0.021181 0.007582 213641.000000 0 0 1
-33.396119 18.327881 -19.192820 42.656492 -0.501924 2.037493 0.006157 0.010107 991696.000000 0 0 1
-34.124677 18.731081 -18.009520 42.891605 -0.501999 2.004114 0.016172 0.001910 647402.000000 0 0 1
-34.992304 19.816381 -18.277220 44.172469 -0.515277 1.997387 0.020089 0.002255 -715950.000000 0 0 1
-36.145249 20.003081 -17.298120 44.786463 -0.505456 1.967343 0.020445 -0.003874 -395930.000000 0 0 1
-35.789204 20.705081 -16.138820 44.385009 -0.524482 1.942936 0.025611 -0.010852 151121.000000 0 0 1
-36.748709 20.541681 -15.122620 44.733901 -0.509709 1.915648 0.032175 -0.002649 -615519.000000 0 0 1
-36.485129 21.476881 -13.903820 44.561612 -0.532030 1.888108 0.047133 -0.001699 -140188.000000 0 0 1
-36.661829 22.876081 -14.164420 45.475659 -0.557862 1.887539 0.060038 -0.009435 643345.000000 0 0 1
35.751319 23.258081 -14.392420 45.013741 0.576763 1.896245 0.059936 -0.008900 204533.000000 0 0 1
35.632199 24.762681 -14.681620 45.808230 0.607330 1.897056 0.051219 -0.009612 -125075.000000 0 0 1
35.944309 25.619881 -13.552320 46.173986 0.619242 1.868688 0.062899 -0.006315 166499.000000 0 0 1
35.676369 27.001881 -13.799420 46.822311 0.647875 1.869958 0.057377 0.000317 191371.000000 0 0 1
36.674179 27.841481 -14.691120 48.331899 0.649336 1.879646 0.079945 0.009652 368441.000000 0 0 1
36.878659 27.366081 -16.037320 48.642918 0.638398 1.906777 0.085418 0.003269 402823.000000 0 0 1
-35.651058 27.869481 -16.529820 48.176144 -0.663501 1.921025 0.086623 -0.005707 -112890.000000 0 0 1
-35.394275 27.435381 -17.996520 48.263128 -0.659395 1.952911 0.083379 -0.012215 -177159.000000 0 0 1
-35.043929 26.118281 -18.291820 47.379661 -0.640487 1.967163 0.071420 -0.014629 -612462.000000 0 0 1
-33.763949 25.756981 -17.918720 46.092373 -0.651677 1.970078 0.077723 -0.006043 -1147210.000000 0 0 1
-33.159029 24.501181 -18.484420 45.182993 -0.636359 1.992265 0.063095 -0.002550 -318705.000000 0 0 1
-32.858719 24.545281 -19.865020 45.571759 -0.641575 2.021841 0.052771 -0.001523 132794.000000 0 0 1
-32.450449 23.300481 -20.320720 44.820483 -0.622726 2.041350 0.046218 0.000677 -285482.000000 0 0 1
-32.166049 23.310181 -21.793720 45.309883 -0.627100 2.072583 0.039986 0.000282 336855.000000 0 0 1
-33.300869 23.682781 -22.574020 46.684134 -0.618187 2.075500 0.049379 -0.009866 466589.000000 0 0 1
-32.991839 23.538281 -23.948620 47.074924 -0.619701 2.104510 0.049958 -0.005137 -7705.940000 0 0 1
-33.931439 24.305581 -24.911520 48.607485 -0.621592 2.108894 0.039460 -0.008129 -366751.000000 0 0 1
-33.658089 25.676281 -24.980120 49.154295 -0.651678 2.103888 0.037445 -0.004681 -461025.000000 0 0 1
-34.369235 26.342281 -25.947340 50.481923 -0.653946 2.110629 0.037670 -0.010449 -1099800.000000 0 0 1
-33.837229 27.691181 -26.138760 50.941087 -0.685839 2.109609 0.029440 -0.009300 -11285.700000 0 0 1
-32.525919 27.665081 -26.661330 50.340030 -0.704816 2.128955 0.011447 -0.011766 -53604.300000 0 0 1
-31.854229 28.960881 -26.618570 50.615934 -0.737858 2.124561 0.013674 -0.016031 91053.900000 0 0 1
-30.591259 29.028681 -27.448520 50.318095 -0.759195 2.147782 0.024237 -0.012848 -846952.000000 0 0 1
-29.529419 28.317781 -26.873250 48.949513 -0.764456 2.151963 0.010701 -0.008905 -488777.000000 0 0 1
-28.301039 28.360081 -27.553100 48.625264 -0.786440 2.173221 0.018225 -0.001378 243590.000000 0 0 1
-27.388249 29.550081 -27.270560 48.651895 -0.823348 2.165815 0.012395 -0.010420 -647263.000000 0 0 1
-26.865309 29.786681 -25.965980 47.783086 -0.836920 2.145295 0.011952 -0.010260 641381.000000 0 0 1
-27.861659 30.343081 -25.053970 48.214894 -0.828005 2.117216 0.019731 -0.003210 391841.000000 0 0 1
-27.379669 30.826681 -23.721720 47.567326 -0.844550 2.092892 0.001914 -0.009446 -116997.000000 0 0 1
-26.595739 32.008481 -23.731220 47.906649 -0.877498 2.089050 0.008001 -0.009684 125677.000000 0 0 1
-26.191369 32.379181 -22.418120 47.296631 -0.890655 2.064613 0.024807 0.002426 -313459.000000 0 0 1
-25.496969 33.716881 -22.489120 47.881980 -0.923334 2.059723 0.017598 0.013288 485846.000000 0 0 1
-26.396869 -33.239870 -22.440320 48.013036 0.899643 2.057121 0.012781 -0.005481 323692.000000 0 0 1
-25.661899 -32.068870 -22.577720 46.868955 0.895926 2.073413 0.028841 -0.001036 -33234.700000 0 0 1
16.767261 9.024681 -25.164560 31.556948 0.493764 2.493826 0.072623 -0.027546 659982.000000 0 0 1
15.489761 8.364781 -25.210960 30.748899 0.495149 2.532029 0.076714 -0.029688 872306.000000 0 0 1
15.683861 6.941681 -25.249330 30.523747 0.416683 2.544908 0.091967 -0.041213 -189702.000000 0 0 1
14.334761 6.247981 -25.163100 29.626074 0.411035 2.585561 0.085508 -0.039061 70317.100000 0 0 1
13.535061 6.280281 -23.978720 28.242146 0.434436 2.584962 0.081767 -0.041561 691490.000000 0 0 1
12.243061 5.725581 -24.173820 27.695639 0.437442 2.631785 0.066513 -0.037707 -206005.000000 0 0 1
11.470061 5.752081 -22.866820 26.220988 0.464836 2.630235 0.072954 -0.042166 -488661.000000 0 0 1
11.841461 4.841281 -21.841720 25.312427 0.388105 2.611747 0.069483 -0.031196 93923.600000 0 0 1
11.151961 5.128181 -20.614020 23.991713 0.431011 2.604528 0.073354 -0.028360 -247625.000000 0 1 0
11.467661 6.456981 -19.908520 23.865226 0.512815 2.557488 0.083750 -0.036205 -118355.000000 0 1 0
10.896861 6.582281 -18.622920 22.558394 0.543394 2.541960 0.063936 -0.024643 -360667.000000 0 1 0
11.097861 7.875381 -18.082120 22.630670 0.617160 2.496443 0.070383 -0.027408 177021.000000 0 1 0
12.528961 8.345481 -17.724520 23.254688 0.587607 2.437488 0.059086 -0.025455 1379.820000 0 1 0
12.998961 7.811081 -16.506920 22.415717 0.541081 2.398529 0.061873 -0.023090 -19806.500000 0 1 0
14.374861 8.072881 -16.379320 23.239840 0.511703 2.352930 0.057375 -0.018790 -231675.000000 0 1 0
14.936661 7.676581 -14.972520 22.499113 0.474739 2.298922 0.063729 -0.030622 469302.000000 0 1 0
16.240761 8.205781 -14.710620 23.398707 0.467845 2.250669 0.048963 -0.036410 803600.000000 0 1 0
16.548961 7.957981 -13.370720 22.715055 0.448231 2.200157 0.019425 -0.034109 -72470.300000 0 1 0
17.353361 9.148581 -12.766220 23.405385 0.485165 2.147710 0.069098 -0.044202 -35523.700000 0 1 0
16.571961 10.300081 -12.541820 23.195232 0.556105 2.142073 0.093566 -0.040939 201164.000000 0 1 0
17.332661 11.419381 -12.098320 24.024836 0.582562 2.098529 0.136789 -0.061774 -492417.000000 0 1 0
16.619861 12.774281 -12.176320 24.241799 0.655309 2.097037 0.159149 -0.048870 -178576.000000 0 1 0
15.388661 12.678281 -11.454220 22.994540 0.689128 2.092235 0.152820 -0.027872 433804.000000 0 1 0
15.335661 13.558181 -10.351620 22.938239 0.723958 2.038998 0.111490 -0.033685 -176270.000000 0 1 0
14.974961 15.033581 -10.698620 23.763806 0.787352 2.037793 0.116076 -0.034578 -460941.000000 0 1 0
13.703561 15.396281 -10.247820 23.018490 0.843502 2.032193 0.139336 -0.037480 -263526.000000 0 1 0
13.307961 16.719481 -10.618320 23.861927 0.898526 2.031959 0.138019 -0.032611 541539.000000 0 1 0
12.241061 17.304181 -9.642820 23.286525 0.955118 1.997744 0.133077 -0.025237 397417.000000 0 1 0
12.803261 17.574981 -8.369620 23.299227 0.941202 1.938232 0.132048 -0.016521 302168.000000 0 1 0
11.824561 17.916581 -7.404320 22.707885 0.987438 1.902938 0.113586 -0.013893 139878.000000 0 1 0
12.253361 17.581681 -5.961620 22.244129 0.962128 1.842122 0.101979 -0.014918 611083.000000 0 1 0
13.380761 18.301881 -5.454120 23.318470 0.939492 1.806880 0.127687 -0.026775 639801.000000 0 1 0
13.918761 17.840181 -4.207520 23.015368 0.908251 1.754644 0.132418 -0.024263 -123476.000000 0 1 0
15.207861 18.622681 -3.896820 24.357103 0.885996 1.731474 0.129082 -0.034133 -673668.000000 0 1 0
16.284061 18.295881 -4.727720 24.945164 0.843511 1.761474 0.145981 -0.052969 -274305.000000 0 1 0
17.143361 19.421281 -4.753120 26.337675 0.847616 1.752259 0.106924 -0.042460 -89715.900000 0 0 1
18.520961 19.217881 -5.403520 27.231433 0.803863 1.770552 0.114231 -0.027074 -284414.000000 0 0 1
19.546161 18.517781 -4.785020 27.346975 0.758388 1.746676 0.118292 -0.037528 -31853.900000 0 0 1
19.682961 17.186081 -5.237420 26.649782 0.717778 1.768612 0.141282 -0.051865 -471111.000000 0 0 1
20.794261 16.520381 -4.449620 26.928115 0.671359 1.736798 0.131116 -0.049573 -616398.000000 0 0 1
22.086261 17.025881 -4.628520 28.268476 0.656732 1.735271 0.100666 -0.042527 -458042.000000 0 0 1
22.977261 16.217781 -3.942820 28.399239 0.614620 1.710082 0.103116 -0.043724 749720.000000 0 0 1
24.519561 16.385181 -4.261820 29.796747 0.589098 1.714318 0.094030 -0.036116 1521320.000000 0 0 1
25.250161 17.341381 -3.491220 30.829900 0.601800 1.684281 0.087209 -0.029469 1275320.000000 0 0 1
26.668361 17.375881 -3.715920 32.045761 0.577467 1.687014 0.077834 -0.021924 981488.000000 0 0 1
27.388661 18.582981 -3.026420 33.235901 0.596145 1.661981 0.092433 -0.026428 -123038.000000 0 0 1
27.338561 19.713881 -3.855820 33.924937 0.624748 1.684700 0.083297 -0.026470 445033.000000 0 0 1
27.834561 20.837181 -3.103520 34.908204 0.642610 1.659819 0.123590 -0.016122 -289424.000000 0 0 1
27.568861 22.242981 -3.785620 35.624756 0.678883 1.677261 0.086213 -0.015185 331865.000000 0 0 1
28.538961 22.612881 -4.779020 36.724021 0.670060 1.701300 0.056476 -0.004944 588259.000000 0 0 1
28.721261 21.775981 -5.897420 36.522373 0.648718 1.732981 0.054469 -0.006855 -55586.400000 0 0 1
29.749561 22.352781 -6.893020 37.844378 0.644374 1.753960 0.039065 -0.005540 93361.900000 0 0 1
29.150761 23.375581 -7.701020 38.150889 0.675890 1.774050 0.030309 -0.007701 295042.000000 0 0 1
30.071561 24.229181 -8.355320 39.511560 0.678217 1.783870 0.028655 -0.000438 -522423.000000 0 0 1
30.870261 23.557881 -9.487120 39.974394 0.651849 1.810413 0.023834 -0.011785 -163749.000000 0 0 1
30.074861 23.248281 -10.599220 39.462936 0.658068 1.842722 0.031511 -0.012774 30849.000000 0 0 1
30.936161 22.907881 -11.674820 40.225843 0.637386 1.865265 0.013832 -0.015999 206826.000000 0 0 1
30.263461 22.306281 -12.936420 39.759253 0.635174 1.902198 0.043087 -0.015637 16604.300000 0 0 1
30.426461 23.207381 -13.999720 40.747322 0.651603 1.921516 0.049211 -0.015529 128841.000000 0 0 1
30.172361 22.606681 -15.273320 40.678098 0.643022 1.955698 0.050994 -0.015319 -264412.000000 0 0 1
30.547861 23.502081 -16.494420 41.923567 0.655772 1.975167 0.039966 -0.014795 381594.000000 0 0 1
31.945961 23.797081 -16.590920 43.152104 0.640240 1.965436 0.045797 -0.009635 478540.000000 0 0 1
32.195561 24.643481 -17.660220 44.223734 0.653304 1.981591 0.054991 -0.015556 193392.000000 0 0 1
33.653261 25.134881 -17.845520 45.637340 0.641500 1.972546 0.055003 -0.020355 158879.000000 0 0 1
34.472261 24.201481 -18.503220 46.004539 0.612105 1.984719 0.055226 -0.016603 -753915.000000 0 0 1
35.732961 24.714981 -18.806620 47.343043 0.605105 1.979305 0.066059 -0.018623 -491939.000000 0 0 1
36.828961 23.619781 -18.757620 47.603726 0.570261 1.975816 0.058125 -0.018679 -326102.000000 0 0 1
36.687861 22.655681 -19.791120 47.444362 0.553206 2.001097 0.047269 -0.006013 652277.000000 0 0 1
-36.227017 22.967781 -20.931420 47.728818 -0.565042 2.024780 0.050395 -0.012574 222717.000000 0 0 1
-36.133217 21.934381 -22.017320 47.660138 -0.545581 2.051006 0.049089 -0.008354 -291697.000000 0 0 1
-35.413617 20.833781 -21.558420 46.399743 -0.531771 2.054006 0.041421 -0.007251 42810.300000 0 0 1
-35.099217 20.112381 -22.718720 46.396154 -0.520341 2.082505 0.045892 -0.009223 -38066.800000 0 0 1
-34.988317 18.581781 -22.518520 45.569163 -0.488205 2.087666 0.022322 -0.000103 -58349.200000 0 0 1
-36.206717 17.968081 -22.164420 46.098154 -0.460654 2.072374 0.027052 -0.000854 -84040.900000 0 0 1
-36.059317 16.569581 -22.224120 45.483369 -0.430733 2.081305 0.013488 0.001575 168950.000000 0 0 1
36.466461 15.690981 -21.859920 45.319596 0.406339 2.074132 0.024474 0.001150 552124.000000 0 0 1
35.480661 15.830781 -22.908820 45.103270 0.419673 2.103564 0.066648 -0.000581 1755950.000000 0 0 1
34.319461 14.926581 -22.770820 43.807973 0.410252 2.117398 0.077356 0.004171 1201350.000000 0 0 1
34.527561 13.473881 -23.368920 43.815572 0.372060 2.133349 0.047002 -0.003510 -740218.000000 0 0 1
34.529061 13.524181 -24.804120 44.613943 0.373309 2.160329 0.057784 0.004229 354859.000000 0 0 1
35.060461 12.304181 -25.341790 44.975939 0.337514 2.169355 0.047157 0.002873 -146481.000000 0 0 1
35.016561 12.278981 -26.923020 45.845195 0.337265 2.198465 0.070431 -0.006348 -86818.400000 0 0 1
33.733061 12.259981 -27.511620 45.222956 0.348599 2.224783 0.060435 -0.000598 109226.000000 0 0 1
33.302461 13.505281 -28.083830 45.608640 0.385268 2.234142 0.058908 -0.001629 25704.500000 0 0 1
33.739161 13.660081 -29.552270 46.885664 0.384700 2.252742 0.056909 -0.008076 -270356.000000 0 0 1
35.134861 13.747081 -29.686750 48.007747 0.372955 2.237469 0.063280 -0.005472 -613254.000000 0 0 1
35.528461 13.831381 -30.994060 49.134615 0.371252 2.253379 0.068160 -0.008987 -1354510.000000 0 0 1
-36.775817 14.172881 -31.186130 50.258392 -0.367845 2.240197 0.083195 -0.017864 -216703.000000 0 0 1
-35.855417 13.101781 -30.866930 49.092107 -0.350333 2.250748 0.071010 -0.012618 426268.000000 0 0 1
-35.716217 12.769281 -29.451760 48.021962 -0.343359 2.231025 0.057473 -0.010454 -1091240.000000 0 0 1
-34.692717 11.738881 -28.976270 46.701286 -0.326274 2.240125 0.046593 -0.009165 -316359.000000 0 0 1
-34.904317 10.432981 -29.594200 46.935861 -0.290449 2.253025 0.047574 -0.015304 29008.400000 0 0 1
-33.753517 9.633181 -29.582930 45.904769 -0.278007 2.271089 0.049117 -0.018526 -149472.000000 0 0 1
-34.020017 8.219381 -30.147250 46.192818 -0.237061 2.281859 0.060400 -0.012695 -621234.000000 0 0 1
-34.117517 8.197581 -31.535760 47.177425 -0.235805 2.302919 0.063745 -0.018608 187842.000000 0 0 1
-34.545717 6.967381 -32.169060 47.715819 -0.199016 2.310650 0.076644 -0.016958 -705804.000000 0 0 1
-35.954417 6.447581 -31.818910 48.443105 -0.177441 2.287404 0.079659 0.003495 -534769.000000 0 0 1
-36.150217 5.949381 -30.522230 47.684797 -0.163112 2.265403 0.068687 -0.000219 -163979.000000 0 0 1
36.293961 5.513081 -30.355950 47.635379 0.150748 2.261729 0.051939 0.017665 -379257.000000 0 0 1
35.971561 5.042181 -28.963680 46.457201 0.139264 2.243942 0.063919 -0.004978 -92646.200000 0 0 1
36.790561 3.955781 -28.634210 46.787943 0.107110 2.229383 0.072961 -0.006948 349913.000000 0 0 1
36.179061 3.234381 -27.615550 45.628985 0.089162 2.220838 0.079924 -0.002216 -193682.000000 0 0 1
36.725461 1.813681 -27.546100 45.943841 0.049345 2.213748 0.133511 -0.003636 -600661.000000 0 0 1
-35.765517 1.821781 -26.974260 44.834159 -0.050893 2.216356 0.129754 -0.009969 -332455.000000 0 0 1
-35.150217 0.531481 -27.126350 44.403368 -0.015119 2.228003 0.146371 -0.007259 66185.800000 0 0 1
-33.861717 0.347781 -26.303030 42.878738 -0.010270 2.231191 0.137415 -0.016790 -169074.000000 0 0 1
-34.036617 0.502981 -24.908420 42.180252 -0.014777 2.202503 0.127050 -0.005430 339691.000000 0 0 1
-32.791517 0.372881 -24.234920 40.776880 -0.011371 2.207229 0.143466 -0.001968 254432.000000 0 0 1
-32.864517 0.255681 -22.691520 39.938038 -0.007780 2.175074 0.131114 0.006107 -82740.300000 0 0 1
-33.272617 -0.987319 -22.111520 39.961996 0.029665 2.157133 0.140518 -0.010542 262238.000000 0 0 1
-33.500417 -0.982919 -20.726020 39.405735 0.029332 2.124645 0.107752 -0.001390 361320.000000 0 0 1
-34.939517 -1.011619 -20.123020 40.332730 0.028945 2.093155 0.097385 0.000786 441927.000000 0 0 1
-35.575317 -2.295019 -20.140120 40.945021 0.064422 2.085046 0.103456 -0.010339 490219.000000 0 0 1
-36.865217 -2.184519 -19.554220 41.787365 0.059188 2.057761 0.099168 -0.008304 387817.000000 0 0 1
36.109261 -3.539719 -19.433520 41.159082 -0.097716 2.062532 0.116105 -0.018933 275970.000000 0 0 1
35.485261 -4.009219 -20.654120 41.253730 -0.112506 2.095158 0.101528 -0.019482 432494.000000 0 0 1
36.417161 -4.637119 -21.522220 42.554888 -0.126652 2.101050 0.091611 -0.018151 95073.800000 0 0 1
35.782661 -5.462919 -22.682420 42.716911 -0.151500 2.130569 0.091134 -0.015429 -710851.000000 0 0 1
35.432561 -6.776019 -22.350220 42.437167 -0.188956 2.125470 0.105726 -0.014721 131192.000000 0 0 1
34.843161 -7.361519 -23.481720 42.657110 -0.208214 2.153731 0.101843 -0.007818 150593.000000 0 0 1
33.330061 -7.158119 -23.747920 41.546304 -0.211551 2.179252 0.068295 -0.001003 -459404.000000 0 0 1
33.076161 -5.973719 -24.401620 41.535007 -0.178679 2.198756 0.074132 -0.007909 184716.000000 0 0 1
31.736561 -6.009019 -24.869320 40.765190 -0.187125 2.226936 0.017964 -0.004602 157414.000000 0 0 1
31.449461 -4.692619 -25.647020 40.851670 -0.148119 2.249531 0.032509 -0.024480 -319390.000000 0 0 1
32.097461 -4.655719 -26.874850 42.121020 -0.144045 2.262745 0.047038 -0.026373 300156.000000 0 0 1
31.596261 -3.606319 -27.716760 42.184690 -0.113646 2.287673 0.052591 -0.031354 -94834.500000 0 0 1
32.118561 -3.669119 -29.160510 43.536189 -0.113744 2.304735 0.062340 -0.029528 -269999.000000 0 0 1
31.422861 -2.890019 -30.113500 43.618474 -0.091714 2.332816 0.054214 -0.032548 -187904.000000 0 0 1
30.507461 -3.632319 -30.886430 43.564555 -0.118505 2.358848 0.061119 -0.032506 -606883.000000 0 0 1
29.995461 -2.863519 -32.112530 44.035690 -0.095177 2.388005 0.064701 -0.029438 387294.000000 0 0 1
28.959361 -1.894119 -31.847810 43.087298 -0.065313 2.402598 0.052140 -0.027244 1048320.000000 0 0 1
27.650061 -2.346019 -31.520920 41.995215 -0.084644 2.419741 0.059250 -0.030490 -233215.000000 0 0 1
26.715661 -2.666419 -32.635600 42.260132 -0.099478 2.453179 0.082964 -0.035250 -1222620.000000 0 0 1
27.217561 -3.864319 -33.322170 43.198329 -0.141036 2.451797 0.104228 -0.041357 245387.000000 0 0 1
26.595561 -4.142319 33.485115 42.962025 -0.154511 0.677070 0.102810 -0.032235 -282780.000000 0 0 1
27.389161 -5.235719 32.730612 42.998510 -0.188882 0.705630 0.088980 -0.043115 1403460.000000 0 0 1
28.729761 -4.926619 32.265166 43.482314 -0.169830 0.734703 0.098017 -0.037631 1080400.000000 0 0 1
28.824361 -4.106019 31.135237 42.627528 -0.141498 0.751886 0.113741 -0.041830 -331806.000000 0 0 1
29.413461 -2.689719 31.436527 43.135154 -0.091192 0.754241 0.089838 -0.038098 156387.000000 0 0 1
30.765561 -2.839719 31.838547 44.365266 -0.092041 0.770380 0.086733 -0.039243 -57276.200000 0 0 1
31.301461 -1.595419 32.227422 44.954794 -0.050925 0.771472 0.062531 -0.032431 707270.000000 0 0 1
32.789761 -1.681319 32.721712 46.354133 -0.051231 0.787093 0.055194 -0.038385 680449.000000 0 0 1
33.712061 -1.833419 31.689197 46.304100 -0.054331 0.817055 0.071904 -0.032985 -1253700.000000 0 0 1
35.008961 -1.987419 32.140213 47.566485 -0.056708 0.828896 0.068034 -0.028677 -103238.000000 0 0 1
36.035561 -2.603819 31.122467 47.685946 -0.072132 0.859713 0.080270 -0.018616 275063.000000 0 0 1
36.332161 -1.834819 29.996197 47.150443 -0.050458 0.881259 0.080020 -0.012243 -204997.000000 0 0 1
-36.436317 -2.426619 29.203137 46.758067 0.066501 0.896231 0.090390 -0.015303 -20324.900000 0 0 1
-36.001817 -1.681919 27.912077 45.585564 0.046684 0.911829 0.106937 -0.015329 733609.000000 0 0 1
36.633761 -1.488519 27.050187 45.562712 -0.040610 0.935158 0.104213 -0.029171 471119.000000 0 0 1
-36.677517 -0.860719 25.862757 44.887228 0.023463 0.956759 0.117777 -0.035474 319350.000000 0 0 1
-26.390769 14.914581 12.989480 32.979448 -0.514396 1.165963 0.116580 -0.023070 -24903.600000 0 0 1
-27.605279 14.199281 13.040580 33.670874 -0.475076 1.173100 0.102936 -0.023037 328148.000000 0 0 1
-28.665429 15.004481 13.497680 35.057505 -0.482219 1.175572 0.103139 -0.024569 1517470.000000 0 0 1
-30.124969 14.358181 13.580280 36.029087 -0.444770 1.184322 0.096093 -0.020530 2131350.000000 0 0 1
-31.123409 15.154681 14.244580 37.433127 -0.453131 1.180423 0.091220 -0.021611 923776.000000 0 0 1
-32.341039 14.455681 14.572180 38.304803 -0.420337 1.180538 0.099405 -0.026049 1268760.000000 0 0 1
-33.345969 15.305581 15.394980 39.789695 -0.430308 1.173519 0.090161 -0.027646 248843.000000 0 0 1
-32.787709 15.434981 16.706280 39.904540 -0.439979 1.138831 0.086370 -0.026231 -101083.000000 0 0 1
-33.654109 15.870081 17.726080 41.214954 -0.440641 1.126205 0.085631 -0.031377 -475109.000000 0 0 1
-32.951399 16.158381 19.029880 41.340347 -0.455914 1.092438 0.095777 -0.020257 -163580.000000 0 0 1
-32.344179 14.970881 19.605680 40.677461 -0.433498 1.067884 0.093300 -0.026020 1015620.000000 0 0 1
-31.141509 15.309981 20.342680 40.224541 -0.456926 1.040571 0.081430 -0.014632 985231.000000 0 0 1
-31.420529 15.811581 21.778280 41.370874 -0.466224 1.016417 0.090729 -0.026910 -319318.000000 0 0 1
-32.169919 17.020981 21.780280 42.414597 -0.486653 1.031527 0.080213 -0.022337 320840.000000 0 0 1
-32.657449 17.468681 23.031880 43.613430 -0.491181 1.014445 0.083750 -0.030447 -384303.000000 0 0 1
-33.670449 16.626781 23.880280 44.501873 -0.458683 1.004378 0.092832 -0.034791 66492.200000 0 0 1
-34.969089 16.336881 23.428780 45.151285 -0.437049 1.025238 0.126117 -0.023621 331687.000000 0 0 1
-35.796637 17.499281 23.365080 46.190378 -0.454690 1.040437 0.134842 -0.027401 146057.000000 0 0 1
36.429159 17.279281 23.176980 46.506231 0.442898 1.049087 0.101846 -0.029558 594001.000000 0 0 1
35.708129 16.685581 24.216880 46.259446 0.437128 1.019841 0.116432 -0.024184 185181.000000 0 0 1
34.520579 16.137881 23.654980 44.851528 0.437300 1.015251 0.135037 -0.031356 237553.000000 0 0 1
33.677889 15.217681 24.555880 44.370815 0.424399 0.984327 0.089481 -0.002700 -280950.000000 0 0 1
33.188729 15.964481 25.630580 44.869622 0.448350 0.962801 0.103123 -0.013508 60434.200000 0 0 1
33.026899 15.366981 26.917480 45.293165 0.435493 0.934408 0.091947 -0.012754 270775.000000 0 0 1
32.295759 13.981781 27.153280 44.450049 0.408568 0.913635 0.084132 -0.010934 440440.000000 0 0 1
32.988239 12.864981 26.542880 44.252187 0.371845 0.927533 0.084024 -0.012480 35761.400000 0 0 1
32.251169 11.690081 26.709580 43.476402 0.347740 0.909239 0.064085 -0.009185 -1132.540000 0 0 1
33.039299 10.329881 26.595580 43.653483 0.303025 0.915691 0.067503 -0.010616 -264349.000000 0 0 1
33.838919 10.021381 27.694180 44.860540 0.287921 0.905440 0.075943 -0.010332 -473111.000000 0 0 1
34.202819 8.663181 27.681380 44.845761 0.248071 0.905544 0.084283 -0.007613 575649.000000 0 0 1
35.344599 8.252181 28.695580 46.268514 0.229369 0.901803 0.094587 -0.016931 577493.000000 0 0 1
36.606499 8.834381 28.509480 47.232113 0.236806 0.922783 0.100706 -0.016769 -21461.800000 0 0 1
-36.120759 7.903781 28.714880 46.815845 -0.215420 0.910491 0.114802 -0.025054 -180521.000000 0 0 1
-34.672408 8.382481 28.741180 45.809358 -0.237211 0.892576 0.132064 -0.025698 -159145.000000 0 0 1
-34.090879 8.793481 27.520780 44.686762 -0.252440 0.907320 0.110638 -0.021776 -180689.000000 0 0 1
-32.889209 9.481081 27.726880 44.049640 -0.280664 0.889956 0.094748 -0.015504 -280550.000000 0 0 1
-32.251809 10.052281 26.430680 42.892987 -0.302139 0.906887 0.085570 -0.016840 234107.000000 0 0 1
-31.561579 9.024981 25.617380 41.639329 -0.278516 0.908130 0.089651 -0.018097 316445.000000 0 0 1
-30.694639 9.627981 24.707080 40.562281 -0.303950 0.915853 0.089163 -0.012612 -184583.000000 0 0 1
-29.699989 8.677681 24.027180 39.175207 -0.284265 0.910531 0.087190 -0.014033 299187.000000 0 0 1
-28.740639 9.290681 23.164680 38.064990 -0.312657 0.916557 0.094876 -0.018892 326700.000000 0 0 1
-27.998139 8.310381 22.477380 36.853641 -0.288536 0.914850 0.083194 -0.016133 378238.000000 0 0 1
-26.822089 8.870881 21.582280 35.551537 -0.319406 0.918428 0.085319 -0.013139 -224147.000000 0 0 1
-25.726249 9.276981 22.391580 35.345227 -0.346090 0.884714 0.085123 -0.015524 545466.000000 0 0 1
-24.710839 9.926781 21.631380 34.308645 -0.381986 0.888607 0.078789 -0.011741 726823.000000 0 0 1
-23.873539 9.230881 20.497980 32.792106 -0.368951 0.895551 0.070353 -0.012770 -88277.000000 0 0 1
-24.720239 9.088281 19.309380 32.657912 -0.352307 0.938174 0.072967 -0.011047 963110.000000 0 0 1
-24.288039 8.125981 18.353880 31.508813 -0.322861 0.948995 0.074949 -0.014516 -333091.000000 0 0 1
-24.187139 6.660081 18.759580 31.325648 -0.268697 0.928723 0.068175 -0.011107 -730479.000000 0 0 1
-22.920539 6.354481 19.288780 30.623317 -0.270447 0.889408 0.033013 -0.005098 382924.000000 0 0 1
-22.722439 5.016781 19.780880 30.541128 -0.217299 0.866261 0.031902 -0.009811 -291758.000000 0 0 1
-22.750139 3.870981 18.731080 29.722158 -0.168538 0.888978 0.063225 -0.009002 -917316.000000 0 0 1
-24.064339 3.717581 18.266180 30.439549 -0.153273 0.927195 0.119440 -0.021737 202757.000000 0 0 1
-24.218939 2.876581 17.125980 29.801525 -0.118220 0.958598 0.102635 -0.019252 -205936.000000 0 0 1
-24.208939 1.368781 17.520580 29.915163 -0.056480 0.945083 0.109058 -0.013832 -581615.000000 0 0 1
-22.960539 0.868181 17.897480 29.124901 -0.037794 0.909034 0.061198 -0.005498 -81147.200000 0 0 1
-23.110239 -0.412319 18.451880 29.575751 0.017840 0.897092 0.089070 -0.012877 213441.000000 0 0 1
-21.802639 -1.154419 18.874280 28.860461 0.052899 0.857957 0.086245 0.001880 38792.100000 0 0 1
-21.021239 -0.647719 19.904580 28.956939 0.030803 0.812913 0.053986 0.004692 -25430.600000 0 0 1
-20.070639 -1.669319 20.232180 28.547474 0.082981 0.783113 0.046049 0.003927 -310605.000000 0 0 1
-19.202139 -1.288819 21.407880 28.786811 0.067018 0.732254 0.040714 0.003745 -28497.000000 0 0 1
-19.760639 -1.295019 22.768780 30.175773 0.065442 0.715846 0.039718 0.005725 365451.000000 0 0 1
-18.753539 -0.913719 23.722480 30.253697 0.048684 0.669522 0.049271 -0.006305 3423.240000 0 0 1
-19.146439 -1.006419 25.200780 31.665096 0.052516 0.650380 0.048657 0.003721 182432.000000 0 0 1
-19.943839 0.004581 25.783580 32.596775 -0.000230 0.658378 0.050351 -0.016373 270146.000000 0 0 1
-21.335539 0.043581 25.477280 33.230993 -0.002043 0.697154 0.054971 -0.023946 88056.100000 0 0 1
-21.996439 1.316281 26.014280 34.092795 -0.059769 0.702788 0.051912 -0.034138 -787881.000000 0 0 1
-21.728339 2.445381 25.234580 33.389888 -0.112072 0.713990 0.040524 -0.030826 344184.000000 0 0 1
-22.869739 2.740181 24.445480 33.587424 -0.119248 0.755664 0.041480 -0.026101 -569925.000000 0 0 1
-22.568439 3.842781 23.419980 32.750525 -0.168655 0.774026 0.042253 -0.023109 -168784.000000 0 0 1
-21.873939 3.438681 22.258980 31.396750 -0.155928 0.782777 0.042064 -0.020078 551131.000000 0 0 1
-20.504739 3.122381 22.439580 30.556969 -0.151115 0.746084 0.029160 -0.011902 -588672.000000 0 0 1
-19.870239 2.345881 21.278780 29.208150 -0.117516 0.754634 0.017098 -0.010028 -289461.000000 0 0 1
-19.503039 3.174481 20.195380 28.254190 -0.161353 0.774494 0.014835 -0.003063 308026.000000 0 0 1
-19.086539 2.335181 19.090580 27.096112 -0.121742 0.789007 0.022335 -0.006369 5200.480000 0 0 1
-18.726139 3.207181 17.883080 26.091356 -0.169622 0.815640 0.009530 -0.002813 107490.000000 0 0 1
-17.374239 3.623381 17.718980 25.078982 -0.205602 0.786218 0.011459 -0.020648 526807.000000 0 0 1
-17.288239 4.432281 16.605680 24.377796 -0.250970 0.821422 0.026965 -0.013273 1417800.000000 0 1 0
-15.751139 4.819281 16.318180 23.186350 -0.296919 0.790086 0.034498 -0.024601 1427730.000000 0 1 0
-15.275539 5.795781 17.195680 23.719708 -0.362636 0.759830 0.032173 -0.030401 -223679.000000 0 1 0
-15.611039 7.202481 17.029580 24.198902 -0.432270 0.790157 0.019095 -0.031673 -1045200.000000 0 1 0
-15.185839 8.061781 15.785980 23.340933 -0.488041 0.828039 0.022414 -0.032813 -352885.000000 0 1 0
-15.697039 7.590281 14.553680 22.711649 -0.450400 0.875253 0.030417 -0.026931 852111.000000 0 1 0
-17.119739 7.682681 14.419980 23.665267 -0.421824 0.915580 0.022027 -0.020773 20588.900000 0 1 0
-17.643139 6.954481 13.193180 23.102059 -0.375475 0.962972 0.033910 -0.015543 -235621.000000 0 1 0
-17.482239 5.551781 13.256580 22.631568 -0.307494 0.944984 0.035395 -0.018975 251561.000000 0 1 0
-18.000639 4.869281 12.148480 22.255751 -0.264183 0.993384 0.041071 -0.024970 -39396.900000 0 1 0
-17.586639 3.376381 12.205680 21.671835 -0.189678 0.972537 0.039903 -0.016552 2213.950000 0 1 0
-18.017339 2.721681 13.396880 22.616552 -0.149925 0.936826 0.034097 -0.013712 157839.000000 0 1 0
-17.664539 1.395681 13.423580 22.230078 -0.078847 0.922477 0.031573 -0.011394 -316777.000000 0 1 0
-18.492039 0.649481 14.505880 23.511654 -0.035108 0.905915 0.041352 -0.016027 576905.000000 0 1 0
-19.847439 0.537181 14.068080 24.333521 -0.027059 0.954354 0.061136 -0.014436 606273.000000 0 1 0
-20.754339 0.103381 15.044580 25.633819 -0.004981 0.943567 0.080015 -0.018402 -520882.000000 0 0 1
-22.185239 -0.184519 14.643580 26.582951 0.008317 0.987398 0.104916 -0.021163 -639062.000000 0 0 1
-22.281939 -1.329319 13.742380 26.212686 0.059588 1.018945 0.127880 -0.035230 1799870.000000 0 0 1
-23.682139 -1.733019 13.587680 27.358218 0.073048 1.051052 0.164559 -0.035899 1520860.000000 0 0 1
-23.994839 -2.891719 12.659880 27.283455 0.119936 1.088276 0.164137 -0.044425 -306495.000000 0 0 1
-23.710539 -4.125019 13.181980 27.440300 0.172250 1.069700 0.147297 -0.041773 166872.000000 0 0 1
-23.776339 -5.178319 12.239580 27.238513 0.214444 1.104761 0.166180 -0.053385 -195488.000000 0 0 1
-23.743539 -6.593319 12.914280 27.820966 0.270864 1.088074 0.153376 -0.047162 178736.000000 0 0 1
-24.985439 -6.989719 13.471580 29.233744 0.272778 1.091874 0.141090 -0.040938 348382.000000 0 0 1
-25.227419 -8.397019 13.549980 29.841826 0.321318 1.099479 0.159272 -0.043138 -474019.000000 0 0 1
-26.253629 -8.720219 14.615980 31.287731 0.320688 1.084735 0.146222 -0.036013 -934243.000000 0 0 1
-27.515789 -8.209219 14.307280 32.081275 0.289938 1.108539 0.108765 -0.033140 -636435.000000 0 0 1
-28.268419 -8.332719 15.483280 33.290685 0.286653 1.087056 0.108532 -0.022871 -1304320.000000 0 0 1
-29.711449 -7.820519 15.489780 34.407325 0.257378 1.103820 0.084393 -0.021423 -744787.000000 0 0 1
-30.580579 -8.472619 14.615580 34.936689 0.270279 1.139174 0.071727 -0.013837 170251.000000 0 0 1
-30.967159 -9.824919 14.863280 35.726896 0.307224 1.141727 0.071067 -0.010989 -472789.000000 0 0 1
-31.377379 -10.254619 16.345580 36.835786 0.315873 1.111026 0.068802 -0.013932 -778980.000000 0 0 1
-30.227119 -10.275119 17.148080 36.239667 0.327676 1.077893 0.083779 -0.008876 51854.700000 0 0 1
-30.526549 -10.591319 18.484680 37.225390 0.333959 1.051164 0.088444 -0.005196 -406825.000000 0 0 1
-29.262609 -10.526119 19.324980 36.613581 0.345301 1.014777 0.108951 -0.011412 -922390.000000 0 0 1
-28.430559 -11.574219 19.097480 36.152081 0.386616 1.014253 0.120438 -0.011591 308950.000000 0 0 1
-27.134779 -11.457819 19.752280 35.464495 0.399544 0.980076 0.113206 -0.015882 1840350.000000 0 0 1
-26.104099 -12.406119 18.995880 34.585824 0.443657 0.989343 0.119364 -0.016050 478595.000000 0 0 1
-25.679939 -12.168119 17.655080 33.454809 0.442499 1.014871 0.107596 -0.012537 -376103.000000 0 0 1
-24.669939 -13.007719 17.259680 32.797915 0.485225 1.016620 0.099144 -0.020490 -681426.000000 0 0 1
-24.260439 -12.914219 15.804380 31.703697 0.489165 1.048926 0.084824 -0.023124 -328064.000000 0 0 1
-23.359039 -11.930219 15.416980 30.424630 0.472197 1.039412 0.085502 -0.024317 -581565.000000 0 0 1
-23.103139 -11.891619 14.073180 29.550297 0.475353 1.074417 0.081465 -0.024986 591167.000000 0 0 1
-21.717839 -11.250519 13.754880 28.061280 0.477968 1.058508 0.094462 -0.033204 289480.000000 0 0 1
-21.765439 -9.814019 13.875180 27.614669 0.423601 1.044358 0.109465 -0.044863 252336.000000 0 0 1
-20.510939 -9.148219 13.741080 26.328802 0.419536 1.021716 0.119027 -0.042946 455679.000000 0 0 1
-19.951439 -9.026719 12.295380 25.114099 0.424877 1.059187 0.125497 -0.029179 -199709.000000 0 0 1
-19.159639 -10.141119 11.922680 24.740339 0.486809 1.067960 0.106926 -0.033452 347415.000000 0 1 0
-19.092539 -10.214519 10.534980 24.080018 0.491254 1.117981 0.131522 -0.020707 -1140630.000000 0 1 0
-18.575239 -11.526819 9.959380 24.022829 0.555391 1.143315 0.121697 -0.014093 1336370.000000 0 1 0
-17.146139 -11.714119 9.801280 22.962486 0.599357 1.129802 0.126123 -0.033073 1518590.000000 0 1 0
-16.411439 -11.627619 11.011080 22.929909 0.616413 1.069907 0.108633 -0.031961 -1089600.000000 0 1 0
-14.924439 -11.972219 10.888080 22.014159 0.676074 1.053428 0.110030 -0.033782 -205949.000000 0 1 0
-14.577639 -13.355819 10.765080 22.511606 0.741686 1.072191 0.100760 -0.032784 1563220.000000 0 1 0
-13.170939 -13.656219 10.992980 21.927416 0.803485 1.045655 0.108622 -0.026886 1370100.000000 0 1 0
-12.813339 -15.124019 10.827380 22.586495 0.867920 1.070855 0.124117 -0.030500 -51322.400000 0 1 0
-12.993839 -15.776119 9.557580 22.562649 0.881806 1.133378 0.093094 -0.030916 204947.000000 0 1 0
-12.549839 -17.144619 9.685980 23.350688 0.938916 1.143068 0.092013 -0.026803 332127.000000 0 1 0
-12.889839 -18.013219 8.474180 23.715728 0.949693 1.205396 0.080119 -0.017331 119176.000000 0 1 0
-12.152139 -17.698319 7.281680 22.669977 0.969102 1.243796 0.065824 -0.022095 -50680.600000 0 1 0
-12.578339 -18.421219 6.151380 23.138613 0.971695 1.301712 0.048006 -0.016846 99524.300000 0 1 0
-11.548039 -18.278919 4.996080 22.190920 1.007345 1.343709 0.046288 -0.017172 105587.000000 0 1 0
-12.028339 -18.793019 3.798980 22.633841 1.001453 1.402153 0.054532 -0.021229 1410620.000000 0 1 0
-10.959739 -18.618419 2.788380 21.783858 1.038764 1.442442 0.054856 -0.030681 1431170.000000 0 1 0
-11.308139 -19.376919 1.458480 22.482575 1.042532 1.505879 0.071738 -0.031106 172591.000000 0 1 0
-11.084239 -20.780519 1.703180 23.613368 1.080790 1.498606 0.059755 -0.031716 193159.000000 0 1 0
-11.692739 -21.659519 0.717780 24.624584 1.075785 1.541643 0.080023 -0.027277 -84509.500000 0 1 0
-10.974039 -21.685919 -0.644920 24.313053 1.102325 1.597325 0.101942 -0.028328 -242839.000000 0 1 0
-11.102739 -20.579319 -1.495020 23.431054 1.076043 1.634645 0.100828 -0.047231 324004.000000 0 1 0
-12.280039 -20.482319 -2.301420 23.992109 1.030713 1.666868 0.123853 -0.041657 797793.000000 0 1 0
-13.484139 -19.764019 -1.623220 23.980686 0.972078 1.638537 0.141286 -0.037377 -101655.000000 0 1 0
-14.223939 -20.464519 -0.674320 24.931340 0.963398 1.597847 0.128242 -0.026657 62233.200000 0 1 0
-15.442539 -19.797619 -0.389420 25.111141 0.908358 1.586305 0.143742 -0.012339 -146333.000000 0 0 1
26.713261 -20.090919 -4.121120 33.678287 -0.644841 1.693471 0.061880 -0.022567 272440.000000 0 0 1
25.438061 -20.296519 -3.518320 32.732587 -0.673447 1.678491 0.063438 -0.021400 336389.000000 0 0 1
25.408061 -21.406319 -2.666920 33.330355 -0.700124 1.650897 0.049605 -0.017660 -396744.000000 0 0 1
24.086261 -21.647419 -1.928920 32.441940 -0.732122 1.630289 0.045777 -0.012330 -416979.000000 0 0 1
23.088461 -22.089419 -2.811920 32.076882 -0.763288 1.658571 0.057442 -0.015889 -374925.000000 0 0 1
21.877461 -22.169719 -2.083820 31.216375 -0.792033 1.637600 0.055312 -0.012977 482392.000000 0 0 1
20.746361 -22.952219 -2.855520 31.070402 -0.835834 1.662831 0.067684 -0.018483 601409.000000 0 0 1
20.006261 -22.193619 -3.802520 30.120863 -0.837185 1.697376 0.064266 -0.021724 -427609.000000 0 0 1
19.091661 -22.966119 -4.529320 30.206769 -0.877261 1.721308 0.065766 -0.022464 547957.000000 0 0 1
17.928561 -22.143019 -5.210120 28.963632 -0.890186 1.751666 0.053636 -0.013040 370321.000000 0 0 1
17.014661 -21.431419 -4.395720 27.715100 -0.899779 1.730073 0.056219 -0.012516 522396.000000 0 0 1
17.592561 -20.393319 -3.572920 27.168942 -0.858997 1.702686 0.050231 -0.017909 -774423.000000 0 0 1
16.561361 -20.004719 -2.559820 26.096363 -0.879289 1.669045 0.062178 -0.006487 -279803.000000 0 0 1
16.183861 -20.993419 -1.620420 26.556859 -0.914052 1.631851 0.058410 -0.012031 -150740.000000 0 0 1
15.316061 -20.329019 -0.748420 25.463913 -0.925117 1.600192 0.067068 0.000636 -376764.000000 0 0 1
14.987861 -21.062819 0.563580 25.857223 -0.952341 1.548999 0.056501 0.002850 157573.000000 0 0 1
14.075761 -22.144219 0.480980 26.243568 -1.004582 1.552468 0.056725 -0.004253 217284.000000 0 0 1
13.405061 -22.421019 1.716180 26.179057 -1.031938 1.505194 0.051737 -0.002077 155934.000000 0 0 1
12.605961 -23.737319 1.738580 26.933125 -1.082610 1.506200 0.057922 -0.007799 -49872.400000 0 0 1
13.293361 -24.898319 2.086780 28.301844 -1.080393 1.496996 0.048590 -0.013664 -79327.800000 0 0 1
12.676861 -25.978629 1.409480 28.940951 -1.116817 1.522075 0.040587 -0.006056 290040.000000 0 0 1
13.049761 -27.276079 2.107980 30.310466 -1.124551 1.501194 0.039112 -0.008585 308254.000000 0 0 1
12.355561 -27.404819 3.351180 30.247552 -1.147233 1.459777 0.064989 -0.016482 229484.000000 0 0 1
12.962561 -28.397779 4.127780 31.488100 -1.142580 1.439328 0.061043 -0.021259 -114165.000000 0 0 1
12.316161 -28.494579 5.516480 31.528724 -1.162819 1.394924 0.066959 -0.023488 -107488.000000 0 0 1
12.904361 -29.503189 6.270780 32.806758 -1.158479 1.378470 0.061164 -0.020350 -128402.000000 0 0 1
12.340061 -29.584719 7.576580 32.938386 -1.175628 1.338695 0.058940 -0.026396 75380.500000 0 0 1
12.972361 -30.841159 8.244480 34.459116 -1.172643 1.329199 0.063137 -0.018942 -7100.600000 0 0 1
12.519261 -31.196999 9.536580 34.941823 -1.189172 1.294362 0.054314 -0.012942 125646.000000 0 0 1
11.758661 -32.435949 9.556380 35.800577 -1.223012 1.300586 0.051746 -0.012822 367098.000000 0 0 1
11.265861 -32.705669 10.968780 36.289042 -1.239064 1.263732 0.053348 -0.006842 1505890.000000 0 0 1
12.430961 -33.036809 11.842380 37.231727 -1.210907 1.247101 0.044064 -0.003957 1764370.000000 0 0 1
12.077561 -33.286909 13.222180 37.798305 -1.222736 1.213429 0.054584 -0.000210 847652.000000 0 0 1
10.968861 33.734258 13.556980 37.975094 1.256424 1.205746 0.051904 -0.010172 710911.000000 0 0 1
11.376761 32.425575 13.269480 36.836500 1.233358 1.202286 0.058849 -0.010909 277741.000000 0 0 1
10.340261 31.468561 13.527880 35.779811 1.253321 1.183067 0.066319 -0.015655 397263.000000 0 0 1
10.424761 30.336241 12.471780 34.416689 1.239798 1.199980 0.072013 -0.016192 -57521.600000 0 0 1
10.093861 30.654311 11.105580 34.130730 1.252698 1.239379 0.060555 -0.010119 589621.000000 0 0 1
10.979561 31.558191 10.378980 34.988475 1.235980 1.269624 0.037802 -0.009796 481074.000000 0 0 1
10.523061 31.537461 8.908280 34.419525 1.248744 1.309001 0.037996 -0.010789 331853.000000 0 0 1
9.262461 32.189099 8.852780 34.645389 1.290614 1.312405 0.040466 -0.010117 -101559.000000 0 0 1
8.822961 32.503511 7.592780 34.524965 1.305737 1.349062 0.031910 -0.006739 -245280.000000 0 0 1
9.431261 33.813850 6.955280 35.786884 1.298792 1.375199 0.038015 0.001451 -22480.900000 0 0 1
8.957761 -33.097799 7.506180 35.100549 -1.306483 1.355284 0.035690 -0.006851 426384.000000 0 0 1
9.458461 -32.048259 6.641980 34.068597 -1.283812 1.374581 0.051778 -0.017409 143257.000000 0 0 1
8.648661 -30.777029 6.939480 32.713625 -1.296851 1.357044 0.051779 -0.012498 39114.200000 0 0 1
8.758361 -30.247799 8.256780 32.554764 -1.288951 1.314368 0.061938 -0.016404 -70734.300000 0 0 1
8.127161 -28.980559 8.358480 31.237602 -1.297384 1.299918 0.077445 -0.013345 -12590.300000 0 0 1
8.942561 -27.738409 7.825880 30.176699 -1.258928 1.308463 0.082772 -0.023556 -154692.000000 0 0 1
9.892561 -27.281869 8.789180 30.321821 -1.222936 1.276712 0.082926 -0.022466 127002.000000 0 0 1
10.731261 -26.209369 8.364780 29.530671 -1.182175 1.283607 0.083357 -0.033074 65979.700000 0 0 1
10.192661 -25.008119 7.558980 28.043440 -1.183778 1.297875 0.090549 -0.034474 -492299.000000 0 0 1
10.007661 -25.368809 6.254280 27.979381 -1.195052 1.345360 0.088029 -0.028635 -344952.000000 0 0 1
9.218261 -24.412819 5.573580 26.683832 -1.209749 1.360372 0.080082 -0.022781 251591.000000 0 0 1
8.875961 -24.745919 4.108480 26.608698 -1.226406 1.415773 0.067867 -0.017667 161375.000000 0 0 1
7.961061 -25.774039 3.824080 27.245241 -1.271214 1.429974 0.074721 -0.023917 -416208.000000 0 0 1
8.386061 -27.103349 4.141880 28.671811 -1.270729 1.425831 0.068070 -0.018747 419394.000000 0 0 1
7.317661 -28.169769 3.755880 29.346051 -1.316644 1.442458 0.070582 -0.023838 1286970.000000 0 0 1
6.044661 -28.221659 4.444580 29.201957 -1.359799 1.418001 0.058363 -0.013099 774996.000000 0 0 1
5.117661 -29.142519 3.905780 29.845134 -1.396961 1.439552 0.055702 -0.010085 197588.000000 0 0 1
5.274561 -30.630229 4.236780 31.368491 -1.400268 1.435317 0.046450 -0.007772 -190365.000000 0 0 1
6.309361 -31.242249 3.489880 32.063460 -1.371527 1.461737 0.048957 -0.009696 23002.700000 0 0 1
6.324161 -32.628979 3.777380 33.450170 -1.379350 1.457629 0.042204 -0.001199 -388920.000000 0 0 1
7.278961 -33.443049 2.945080 34.352501 -1.356486 1.484960 0.042337 -0.002626 -368919.000000 0 0 1
7.009161 -33.552659 1.539780 34.311517 -1.364858 1.525905 0.047042 -0.008072 -380235.000000 0 0 1
7.881661 33.643741 0.954780 34.567810 1.340678 1.543172 0.033611 -0.007122 -240515.000000 0 0 1
7.284761 33.040478 -0.368920 33.836031 1.353788 1.581700 0.054930 -0.006389 301102.000000 0 0 1
6.358761 32.007501 -0.088220 32.633139 1.374685 1.573500 0.038029 -0.005228 -828400.000000 0 0 1
5.074061 32.507581 -0.318620 32.902742 1.415957 1.580480 0.042526 -0.012633 -1087580.000000 0 0 1
3.953961 31.537481 -0.015720 31.784379 1.446074 1.571291 0.049183 -0.018080 -440776.000000 0 0 1
3.852761 30.532971 -1.006120 30.791531 1.445276 1.603477 0.055897 -0.016296 -33691.900000 0 0 1
2.801861 29.623011 -0.734120 29.764276 1.476493 1.595463 0.060355 -0.034448 170299.000000 0 0 1
2.618161 28.550691 -1.852420 28.730266 1.479350 1.635317 0.063639 -0.022929 -276049.000000 0 0 1
1.844461 29.030861 -2.899420 29.233535 1.507347 1.670141 0.064969 -0.026135 -216535.000000 0 0 1
1.568661 27.971691 -3.793320 28.271284 1.514775 1.705378 0.080769 -0.036858 -370353.000000 0 0 1
1.276661 28.638731 -5.153320 29.126680 1.526248 1.748660 0.080434 -0.037354 -632154.000000 0 0 1
0.219561 29.505431 -5.353620 29.987996 1.563355 1.750284 0.082155 -0.038149 -621885.000000 0 0 1
0.337661 30.378201 -6.467120 31.060791 1.559682 1.780539 0.068417 -0.028907 -160967.000000 0 0 1
0.236561 29.711181 -7.835220 30.727853 1.562834 1.828631 0.065887 -0.031790 -47482.900000 0 0 1
-1.021839 29.065511 -8.024520 30.170201 -1.535654 1.840012 0.057388 -0.028930 383211.000000 0 0 1
-1.243839 28.562081 -9.333420 30.074114 -1.527275 1.886355 0.051965 -0.020946 24056.100000 0 0 1
-1.573039 29.565491 -10.425720 31.389303 -1.517641 1.909370 0.030583 -0.018886 -217308.000000 0 0 1
-0.436739 30.357071 -10.778620 32.216784 -1.556411 1.911940 0.041073 -0.020585 183044.000000 0 0 1
-0.708739 31.572701 -11.414420 33.580154 -1.548352 1.917624 0.025833 -0.022694 -137855.000000 0 0 1
-0.935639 32.741050 -10.382420 34.360536 -1.542227 1.877755 0.033909 -0.025862 395207.000000 0 0 1
0.252261 33.050431 -9.657120 34.433336 1.563164 1.855068 0.029819 -0.030059 215693.000000 0 0 1
-0.093839 33.841146 -8.486620 34.889177 -1.568023 1.816506 0.041406 -0.022342 284240.000000 0 0 1
1.011661 -33.846169 -7.458420 34.672967 -1.540915 1.787598 0.046288 -0.021295 277414.000000 0 0 1
2.026961 -33.005749 -7.943320 34.008593 -1.509461 1.806542 0.050097 -0.015165 385085.000000 0 0 1
3.020061 -32.738329 -6.940520 33.601931 -1.478808 1.778845 0.055151 -0.017837 403516.000000 0 0 1
4.366261 -32.099809 -7.356320 33.220136 -1.435605 1.794089 0.042502 -0.011989 448950.000000 0 0 1
5.320861 -32.731479 -8.195120 34.158766 -1.409645 1.813072 0.065262 -0.009662 226146.000000 0 0 1
6.102961 -33.605679 -7.406720 34.949211 -1.391149 1.784344 0.085900 -0.004930 -898818.000000 0 0 1
6.454361 33.269678 -8.308220 34.893506 1.379175 1.811208 0.091343 -0.006624 391173.000000 0 0 1
5.423961 32.271971 -8.342620 33.771272 1.404282 1.820414 0.073846 -0.009415 846477.000000 0 0 1
4.461161 32.537557 -9.407820 34.162870 1.434538 1.849783 0.074526 -0.013521 768432.000000 0 0 1
3.483661 31.424271 -9.804020 33.101957 1.460388 1.871483 0.059711 -0.016160 211705.000000 0 0 1
4.086661 30.381941 -10.534920 32.415239 1.437089 1.901807 0.073783 -0.017750 145307.000000 0 0 1
3.217161 29.236521 -10.559720 31.251112 1.461198 1.915480 0.058054 -0.022226 480113.000000 0 0 1
3.629661 28.068821 -11.513920 30.554926 1.442197 1.957165 0.069623 -0.021994 -55674.800000 0 0 1
3.676661 28.427881 -12.891120 31.429974 1.442177 1.993419 0.061963 -0.015970 999942.000000 0 0 1
4.908461 28.096021 -13.597920 31.597197 1.397839 2.015679 0.075053 -0.029335 1128230.000000 0 0 1
4.900961 28.643021 -15.057320 32.728657 1.401333 2.048865 0.080851 -0.021081 68162.600000 0 0 1
3.879861 28.066091 -15.838820 32.459621 1.433427 2.080541 0.060483 -0.013270 -25376.500000 0 0 1
3.792261 28.730221 -17.099820 33.648339 1.439559 2.103881 0.097287 -0.025734 300774.000000 0 0 1
2.798861 27.996751 -18.050320 33.428517 1.471156 2.141195 0.079915 -0.027748 199186.000000 0 0 1
3.248061 26.775001 -18.590020 32.757281 1.450077 2.174272 0.097913 -0.017844 -637073.000000 0 0 1
2.367061 26.318441 -19.547320 32.868846 1.481098 2.207697 0.098164 -0.031393 -276313.000000 0 0 1
3.035661 25.289971 -20.466320 32.675192 1.451334 2.247667 0.113479 -0.033180 128807.000000 0 0 1
3.176461 24.117751 -19.715620 31.312322 1.439844 2.251891 0.105052 -0.031226 389828.000000 0 0 1
4.337161 23.353191 -20.065520 31.093530 1.387168 2.272249 0.110308 -0.030745 668492.000000 0 0 1
4.687761 22.234631 -19.034020 29.641995 1.363008 2.268070 0.115549 -0.028637 205924.000000 0 0 1
3.821761 21.104331 -19.049920 28.686201 1.391649 2.297058 0.118968 -0.018508 96428.400000 0 0 1
4.471061 19.959831 -18.464220 27.555629 1.350431 2.305100 0.095586 -0.003141 297526.000000 0 0 1
3.540261 18.783331 -18.087320 26.315359 1.384503 2.328602 0.085634 -0.014115 296630.000000 0 0 1
2.779961 18.998031 -16.903020 25.580568 1.425499 2.292648 0.071450 -0.005081 855347.000000 0 0 1
1.755861 18.023231 -16.548420 24.531003 1.473681 2.311208 0.056082 -0.003175 1249480.000000 0 1 0
2.382561 16.791231 -15.828120 23.198091 1.429844 2.321704 0.027115 -0.001597 1388640.000000 0 1 0
3.436361 15.970931 -16.456620 23.188350 1.358864 2.359859 0.033553 -0.003336 715919.000000 0 1 0
2.953761 14.934531 -17.299820 23.044494 1.375536 2.419938 0.040936 -0.012695 -160603.000000 0 1 0
3.008461 15.359631 -18.796720 24.459881 1.377377 2.447245 0.048199 -0.012492 -239670.000000 0 1 0
4.344361 15.568231 -19.181020 25.082959 1.298666 2.441377 0.063122 -0.018341 -642212.000000 0 0 1
4.501161 15.903231 -20.531720 26.357632 1.294976 2.463813 0.086564 -0.028949 -270780.000000 0 0 1
4.729161 14.778531 -21.620120 26.612019 1.261091 2.519086 0.059512 -0.047130 398004.000000 0 0 1
3.609361 13.917031 -21.804720 26.118137 1.317039 2.558656 0.051740 -0.034883 49143.000000 0 0 1
2.553161 14.420231 -22.593120 26.924167 1.395558 2.566495 0.064701 -0.035478 8997.510000 0 0 1
1.586761 13.251931 -22.887520 26.494718 1.451626 2.613664 0.073960 -0.028695 -289434.000000 0 0 1
0.790061 12.758931 -21.838420 25.304765 1.508953 2.612006 0.057357 -0.012335 559100.000000 0 0 1
-0.110039 11.726131 -22.328020 25.220126 -1.561413 2.657990 0.036945 -0.007690 388711.000000 0 0 1
-0.548339 10.711731 -21.280120 23.830346 -1.519650 2.674729 0.020260 -0.006606 -701432.000000 0 1 0
-1.545639 11.265731 -20.456620 23.404679 -1.434449 2.634252 0.020155 -0.005409 -121099.000000 0 1 0
-2.064639 10.362031 -19.488720 22.168551 -1.374122 2.644800 0.006092 0.000340 251784.000000 0 1 0
-3.139539 9.359831 -20.009920 22.312778 -1.247163 2.683261 0.008579 -0.002261 -785481.000000 0 1 0
-2.696739 8.283831 -20.744820 22.499818 -1.256074 2.744009 0.009300 -0.003455 -450668.000000 0 1 0
-3.692439 7.300931 -21.015820 22.552215 -1.102560 2.770341 0.017895 -0.000934 -178386.000000 0 1 0
-3.215139 5.937531 -21.649420 22.677936 -1.074507 2.839268 0.018923 -0.016316 -861322.000000 0 1 0
-2.304939 5.249031 -20.896520 21.668632 -1.157029 2.873838 0.018301 -0.011420 -551864.000000 0 1 0
-1.925139 4.081231 -21.628120 22.093850 -1.130039 2.935903 0.032793 -0.012532 -452885.000000 0 1 0
-1.035939 3.174431 -20.817520 21.083627 -1.255354 2.982545 0.035539 -0.013450 -29344.100000 0 1 0
0.323461 3.554831 -20.619420 20.926107 1.480054 2.970177 0.033572 -0.018453 349448.000000 0 1 0
1.008561 2.589731 -19.883520 20.076809 1.199421 3.002719 0.035696 -0.015090 1141070.000000 0 1 0
2.575361 2.430231 -19.966420 20.277979 0.756413 2.966071 0.032511 -0.017785 1350050.000000 0 1 0
3.142361 1.997731 -21.198020 21.522579 0.566287 2.967708 0.051796 -0.018306 28219.300000 0 1 0
4.550961 2.028331 -21.253120 21.829349 0.419266 2.911315 0.068770 -0.011822 27656.300000 0 1 0
5.134461 1.270831 -22.474420 23.088466 0.242634 2.910447 0.064779 -0.010217 -212362.000000 0 1 0
6.540761 1.221631 -22.419120 23.385698 0.184645 2.853079 0.059908 -0.016509 -101762.000000 0 1 0
7.089661 0.581331 -23.531020 24.582721 0.081814 2.848026 0.050254 -0.016295 -23839.800000 0 1 0
8.642161 0.726931 -23.588520 25.132323 0.083917 2.789268 0.043763 -0.022311 420226.000000 0 0 1
9.058561 2.003931 -23.947820 25.682121 0.217713 2.771989 0.045509 -0.021609 1665380.000000 0 0 1
10.517961 2.044031 -23.802420 26.102888 0.191945 2.718611 0.051630 -0.025905 1400190.000000 0 0 1
14.252361 -21.203819 22.453977 34.013421 -0.979000 0.849777 0.082265 -0.006014 462382.000000 0 0 1
13.026761 -21.913519 22.684277 34.124408 -1.034459 0.843634 0.070564 0.002840 271271.000000 0 0 1
11.844961 -21.252519 22.335777 33.028164 -1.062332 0.828116 0.056449 -0.003328 26392.200000 0 0 1
11.439261 -21.224519 20.835577 31.866254 -1.076465 0.858142 0.067690 -0.019402 -428324.000000 0 0 1
11.643161 -19.946619 20.203277 30.685554 -1.042436 0.852109 0.077325 -0.021026 128116.000000 0 0 1
11.454061 -19.935619 18.794277 29.695947 -1.049298 0.885516 0.089875 -0.030623 27846.800000 0 0 1
11.793961 -18.524319 18.209777 28.527949 -1.003846 0.878491 0.095330 -0.031058 328732.000000 0 0 1
10.918361 -17.532519 18.771777 27.910203 -1.013817 0.833110 0.097323 -0.032417 205854.000000 0 0 1
11.076561 -16.262719 18.177477 26.787813 -0.972867 0.824979 0.102568 -0.032663 99188.200000 0 0 1
10.012061 -15.194719 18.578377 26.005325 -0.988178 0.775021 0.104879 -0.025284 -33224.800000 0 0 1
8.715361 -15.532119 18.184777 25.453690 -1.059457 0.774993 0.078823 -0.024948 -729670.000000 0 0 1
7.804861 -14.576119 18.698277 24.960061 -1.079188 0.724052 0.055500 -0.020372 2307.530000 0 1 0
6.341461 -14.827319 18.293877 24.387075 -1.166651 0.722513 0.033497 -0.016796 -244791.000000 0 1 0
6.061461 -14.750119 16.928077 23.256550 -1.180892 0.755565 0.027899 -0.019322 958279.000000 0 1 0
4.678261 -15.024919 16.587377 22.864282 -1.268944 0.759078 0.009075 -0.017196 1148960.000000 0 1 0
4.198461 -16.508119 16.555377 23.753433 -1.321749 0.799636 0.006807 -0.014042 -129269.000000 0 1 0
2.817261 -16.591119 16.274877 23.410976 -1.402595 0.802124 0.008105 -0.007757 -395128.000000 0 1 0
2.316461 -17.881519 16.375477 24.357154 -1.441969 0.833476 0.014417 -0.017754 282091.000000 0 1 0
0.787061 -17.869419 16.114777 24.075333 -1.526780 0.837465 0.012845 -0.008499 378673.000000 0 1 0
0.411861 -17.441419 14.839177 22.903578 -1.547187 0.865975 0.018397 -0.015804 -222326.000000 0 1 0
-0.952039 -17.670719 14.553777 22.912292 1.516972 0.882535 0.020191 -0.012517 -226410.000000 0 1 0
-1.523839 -17.625519 13.130077 22.031340 1.484554 0.932320 0.017944 -0.035302 -415733.000000 0 1 0
-2.777139 -18.228319 12.959277 22.537235 1.419606 0.958172 0.022702 -0.029055 -322395.000000 0 1 0
-2.780739 -19.606119 12.615677 23.479517 1.429906 1.003557 0.028482 -0.028730 -478812.000000 0 1 0
-4.163539 -20.191419 12.298077 24.005649 1.367443 1.032936 0.019127 -0.021139 2928.500000 0 1 0
-4.825239 -20.561419 13.474777 25.052435 1.340293 1.002896 0.021976 -0.029162 -164326.000000 0 0 1
-6.138439 -21.045319 13.270377 25.625940 1.286993 1.026461 0.015293 -0.024713 191589.000000 0 0 1
-6.858239 -21.463019 14.579977 26.837890 1.261513 0.996480 0.029129 -0.019409 403037.000000 0 0 1
-8.269039 -21.313419 14.514677 27.079784 1.200701 1.005108 0.047750 -0.014794 230533.000000 0 0 1
-8.884239 -21.977719 15.630877 28.394967 1.186641 0.987857 0.047994 -0.021837 126511.000000 0 0 1
-10.387939 -21.656219 15.661477 28.673733 1.123541 0.992980 0.064124 -0.011349 -113778.000000 0 0 1
-10.708539 -20.319319 15.888177 27.928153 1.085773 0.965635 0.057705 -0.009240 95724.800000 0 0 1
-12.100339 -19.998419 15.856077 28.244825 1.026661 0.974744 0.081436 -0.014414 527536.000000 0 0 1
-12.459439 -18.806419 16.726377 28.083638 0.985677 0.932794 0.090135 -0.011562 -72135.100000 0 0 1
-12.347739 -19.078119 18.078577 29.039219 0.996378 0.898790 0.068641 -0.002592 -70533.400000 0 0 1
-12.977839 -18.077419 18.852577 29.165683 0.948156 0.867945 0.067931 -0.012571 23436.200000 0 0 1
-13.372639 -18.548919 20.275477 30.561166 0.946155 0.845390 0.057921 -0.009782 -632870.000000 0 0 1
-14.451239 -19.415019 20.220077 31.537799 0.930932 0.874816 0.060674 -0.005872 -535670.000000 0 0 1
-14.829739 -19.811419 21.524677 32.798250 0.928227 0.854925 0.046067 0.001130 -49109.700000 0 0 1
-16.088439 -20.702119 21.535977 33.929543 0.910151 0.883142 0.054715 -0.004362 -579848.000000 0 0 1
-15.921239 -21.885819 20.803777 34.136082 0.941872 0.915447 0.043262 -0.009715 169922.000000 0 0 1
-17.068739 -22.170319 20.029577 34.410011 0.914686 0.949505 0.078948 -0.004358 592012.000000 0 0 1
-18.252339 -22.875719 20.788977 35.897465 0.897342 0.953146 0.077255 -0.009274 337940.000000 0 0 1
-18.958939 -21.926419 21.611177 36.155943 0.857852 0.930141 0.073436 -0.007111 -317124.000000 0 0 1
-20.014439 -22.457719 22.337477 37.468517 0.842861 0.932078 0.096352 -0.012056 -235839.000000 0 0 1
-20.708939 -21.534119 23.381837 37.937959 0.804930 0.906738 0.088053 -0.007355 48433.900000 0 0 1
-21.499739 -20.539219 22.767077 37.449140 0.762554 0.917325 0.092417 -0.011279 20662.200000 0 0 1
-21.639639 -19.455519 23.607827 37.471598 0.732300 0.889218 0.085544 -0.004830 152140.000000 0 0 1
-22.754739 -18.485719 23.130417 37.343221 0.682250 0.902817 0.077028 0.004709 249136.000000 0 0 1
-22.401239 -17.728919 21.990777 36.051690 0.669491 0.914762 0.087852 0.007386 502050.000000 0 0 1
-23.399339 -16.707619 21.703777 36.023986 0.620074 0.924190 0.087485 -0.005750 488004.000000 0 0 1
-22.995639 -15.973119 20.397777 34.641150 0.607103 0.941185 0.097402 -0.004473 616212.000000 0 0 1
-21.801939 -15.192519 20.499877 33.561617 0.608604 0.913709 0.084104 -0.006333 75469.000000 0 0 1
-21.534439 -14.826119 19.149677 32.407653 0.602955 0.938623 0.075163 -0.010897 -185106.000000 0 0 1
-20.391739 -13.828819 18.985177 31.104601 0.595916 0.914274 0.061193 -0.019622 -151269.000000 0 0 1
-20.053939 -13.882919 17.605377 30.080645 0.605525 0.945580 0.064303 -0.019012 205019.000000 0 0 1
-19.051739 -12.956119 17.182377 28.741327 0.597210 0.930007 0.065656 -0.027180 -157800.000000 0 0 1
-18.748939 -13.041919 15.674677 27.700359 0.607772 0.969314 0.056960 -0.030988 44188.100000 0 0 1
-18.263139 -11.879319 15.016477 26.460443 0.576694 0.967322 0.064195 -0.033146 787875.000000 0 0 1
-16.951339 -11.446519 15.403877 25.605666 0.593927 0.925318 0.063645 -0.044453 368613.000000 0 0 1
-16.427639 -10.151319 14.725177 24.284716 0.553507 0.919327 0.076747 -0.054393 286911.000000 0 1 0
-17.091339 -8.948719 15.142977 24.525562 0.482335 0.905317 0.084209 -0.044855 396411.000000 0 1 0
-16.527639 -7.816119 14.498177 23.333489 0.441743 0.900337 0.067364 -0.039752 -449635.000000 0 1 0
-16.861739 -6.475619 15.204877 23.610171 0.366674 0.871085 0.084078 -0.030816 20183.900000 0 1 0
-16.255639 -6.213719 16.439877 23.940043 0.365112 0.813842 0.071877 -0.023143 1055920.000000 0 1 0
-14.828239 -6.012319 16.351477 22.877837 0.385208 0.774558 0.064549 -0.025103 386207.000000 0 1 0
-14.014139 -5.853319 17.625077 23.265871 0.395648 0.711244 0.052136 -0.022576 -71489.500000 0 1 0
-14.074039 -6.972519 18.555577 24.310574 0.459975 0.702434 0.050384 -0.019329 67829.800000 0 1 0
-13.524639 -8.173819 17.960577 23.922991 0.543623 0.721575 0.057089 -0.023246 -469562.000000 0 1 0
-13.627439 -9.444219 18.795977 25.063701 0.606033 0.722843 0.053489 -0.023524 104400.000000 0 0 1
-14.872239 -10.117619 18.801177 26.019876 0.597383 0.763284 0.059241 -0.022944 -51671.400000 0 0 1
-15.685139 -9.620419 19.860277 27.074095 0.550175 0.747262 0.046119 -0.015831 -1070650.000000 0 0 1
-16.989239 -10.434219 20.053777 28.278280 0.550771 0.782493 0.049126 -0.015656 864458.000000 0 0 1
-18.024639 -10.302219 19.043977 28.172618 0.519248 0.828510 0.066737 -0.025412 888664.000000 0 0 1
-18.490739 -8.992419 18.758777 27.832764 0.452644 0.831211 0.070100 -0.026871 -599646.000000 0 0 1
-19.682139 -8.971219 17.737477 27.972977 0.427671 0.883961 0.105262 -0.032826 -493794.000000 0 0 1
-20.904039 -9.250719 18.277977 29.268397 0.416627 0.896311 0.099726 -0.027120 -1401990.000000 0 0 1
-21.910139 -9.088319 17.315977 29.368262 0.393199 0.940214 0.135080 -0.038803 753248.000000 0 0 1
-23.378239 -9.214019 17.860877 30.829387 0.375434 0.952870 0.130931 -0.029222 573850.000000 0 0 1
-23.881239 -8.302819 18.763777 31.485389 0.334599 0.932346 0.122576 -0.021221 679680.000000 0 0 1
-25.302009 -8.304419 18.840977 32.621120 0.317134 0.955048 0.104176 -0.012256 832018.000000 0 0 1
-26.043759 -7.185919 19.753477 33.468114 0.269219 0.939468 0.108449 -0.016652 218959.000000 0 0 1
-25.929979 -7.331719 21.173877 34.270264 0.275558 0.904791 0.116135 -0.019797 153397.000000 0 0 1
-26.651589 -6.362919 21.927577 35.094338 0.234357 0.895898 0.110790 -0.018293 -851671.000000 0 0 1
-26.451619 -6.503019 23.439167 35.935664 0.241065 0.860243 0.102674 -0.014234 419007.000000 0 0 1
-25.219239 -6.107919 24.043787 35.375420 0.237617 0.823477 0.078480 -0.020325 842098.000000 0 0 1
-24.087939 -6.873319 23.595387 34.412405 0.277956 0.815279 0.084951 -0.016679 -443686.000000 0 0 1
-22.926739 -6.878019 24.602547 34.325323 0.291457 0.771671 0.074981 -0.009175 124915.000000 0 0 1
-22.292239 -5.573919 24.688427 33.727302 0.245015 0.749542 0.061691 -0.004813 148808.000000 0 0 1
-21.530839 -5.431719 25.853777 34.080763 0.247120 0.709630 0.071452 -0.011578 189181.000000 0 0 1
-20.948739 -3.965619 25.988797 33.615374 0.187087 0.687047 0.067047 -0.011027 435584.000000 0 0 1
-20.101439 -3.672719 27.141907 33.974105 0.180716 0.645332 0.056096 -0.013388 167749.000000 0 0 1
-20.645339 -3.594519 28.459987 35.342912 0.172380 0.634694 0.063528 -0.020361 492099.000000 0 0 1
-21.579439 -2.346219 28.828117 36.086524 0.108299 0.645397 0.069180 -0.030218 908618.000000 0 0 1
-22.742139 -2.321919 28.009417 36.154165 0.101745 0.684521 0.068988 -0.033459 -500273.000000 0 0 1
-23.586139 -1.341819 28.578177 37.078547 0.056829 0.690784 0.064260 -0.032116 -164538.000000 0 0 1
-24.811139 -1.054719 27.713887 37.212425 0.042484 0.730639 0.070611 -0.034729 -942610.000000 0 0 1
-24.564139 -0.162619 26.624457 36.225475 0.006620 0.745181 0.064109 -0.039704 -218746.000000 0 0 1
-25.674239 0.201781 25.824037 36.415493 -0.007859 0.782505 0.076328 -0.026108 141295.000000 0 0 1
-26.672399 -0.843619 25.214577 36.713805 0.031618 0.813736 0.069395 -0.022055 -61834.100000 0 0 1
-27.536079 -1.413419 26.168137 38.013218 0.051285 0.811521 0.067289 -0.020668 -160752.000000 0 0 1
-27.998649 -2.724319 25.877237 38.222737 0.096996 0.827102 0.063965 -0.023029 -107789.000000 0 0 1
-27.005469 -3.908419 25.983057 37.678778 0.143729 0.809868 0.063434 -0.023133 -32458.700000 0 0 1
-26.610209 -4.110019 27.304617 38.347589 0.153242 0.778412 0.049160 -0.021659 -45596.600000 0 0 1
-25.746239 -5.243119 27.437847 37.989401 0.200899 0.763746 0.063506 -0.023041 459826.000000 0 0 1
-25.245329 -5.628519 28.877157 38.767216 0.219365 0.730432 0.044413 -0.019545 405937.000000 0 0 1
-26.380759 -5.968019 29.652377 40.135086 0.222481 0.739487 0.056477 -0.023300 110232.000000 0 0 1
-26.054709 -6.879019 30.679347 40.833700 0.258132 0.720730 0.052681 -0.016469 -673036.000000 0 0 1
-27.182599 -7.408519 31.567527 42.311802 0.266084 0.728657 0.036321 -0.008251 -435072.000000 0 0 1
-28.020369 -8.264719 30.802137 42.452542 0.286821 0.758939 0.021441 -0.010369 410301.000000 0 0 1
-29.123289 -8.721219 31.587067 43.840260 0.290960 0.766268 0.031543 -0.006836 -120848.000000 0 0 1
-30.177559 -9.485619 30.803907 44.153626 0.304548 0.798680 0.021659 -0.015088 -688024.000000 0 0 1
-29.864149 -10.781119 30.319887 43.902112 0.346445 0.808444 0.031888 -0.014076 507452.000000 0 0 1
-30.892889 -11.207919 29.418467 44.107077 0.348032 0.840650 0.026894 -0.013574 -83894.000000 0 0 1
-30.460669 -12.453219 28.637167 43.623644 0.388095 0.854680 0.038191 -0.013740 53440.700000 0 0 1
-29.323239 -12.107119 27.876017 42.231588 0.391564 0.849878 0.046151 -0.011622 231573.000000 0 0 1
-28.545399 -13.280519 27.502547 41.804331 0.435457 0.852786 0.059007 -0.016663 1157340.000000 0 0 1
-27.154359 -12.888819 26.838617 40.296305 0.443163 0.841920 0.067030 -0.020490 1380220.000000 0 0 1
-26.168489 -12.250719 27.700377 40.027251 0.437843 0.806488 0.059938 -0.020535 473596.000000 0 0 1
-26.483599 -10.993419 28.374737 40.340575 0.393458 0.790655 0.064281 -0.025563 -960326.000000 0 0 1
-26.509289 -9.681219 27.483647 39.393137 0.350152 0.798648 0.069213 -0.019473 -200263.000000 0 0 1
-25.275949 -9.295119 26.934427 38.088531 0.352396 0.785333 0.059687 -0.025068 -192574.000000 0 0 1
-24.813539 -10.149819 25.888477 37.268536 0.388278 0.802867 0.055722 -0.026332 -112245.000000 0 0 1
-25.639509 -9.967319 24.573417 36.886104 0.370769 0.841698 0.072489 -0.023176 -514522.000000 0 0 1
-26.850079 -10.639819 24.503197 37.875311 0.377285 0.867227 0.075695 -0.020056 -558753.000000 0 0 1
-27.459679 -10.420819 23.242457 37.454496 0.362706 0.901350 0.094613 -0.015908 605844.000000 0 0 1
-28.876669 -11.099219 23.087707 38.601773 0.366957 0.929669 0.094337 -0.020107 1111300.000000 0 0 1
-29.960529 -10.448519 23.756067 39.637805 0.335554 0.928134 0.093849 -0.020529 -4113.260000 0 0 1
-30.128999 -10.637919 25.118167 40.642886 0.339415 0.904573 0.090728 -0.020919 -408825.000000 0 0 1
-31.571449 -10.464919 25.639227 41.995724 0.320071 0.914079 0.040862 -0.016351 -656431.000000 0 0 1
-31.994299 -9.164619 25.467267 41.907125 0.278975 0.917626 0.055619 -0.023718 866991.000000 0 0 1
-33.391789 -8.896219 25.747957 43.094217 0.260371 0.930441 0.047221 -0.012234 1437210.000000 0 0 1
-33.913419 -9.118819 27.204677 44.422599 0.262673 0.911696 0.031562 -0.008548 -712796.000000 0 0 1
-33.921469 -10.477319 27.714947 45.039522 0.299574 0.907970 0.031497 -0.019361 47143.100000 0 0 1
-34.352985 -10.435219 29.085587 46.205982 0.294907 0.889917 0.040220 -0.017064 -1038290.000000 0 0 1
-34.743298 -11.869119 29.531437 47.117709 0.329193 0.893410 0.047993 -0.013875 77323.100000 0 0 1
-35.946236 -12.385519 28.998417 47.816745 0.331817 0.919209 0.026070 -0.017612 1097050.000000 0 0 1
36.600549 -11.830319 29.561527 48.512271 -0.312628 0.915541 0.034338 -0.011391 791153.000000 0 0 1
35.338199 -12.266219 28.763657 47.186824 -0.334097 0.915279 0.035492 -0.013804 293939.000000 0 0 1
35.109249 -11.564419 27.537157 46.094361 -0.318192 0.930531 0.038613 -0.009012 -360389.000000 0 0 1
33.932069 -12.031419 26.930207 44.959719 -0.340744 0.928563 0.047491 -0.005389 -225384.000000 0 0 1
33.679759 -11.801319 25.471817 43.845304 -0.337029 0.950904 0.051971 -0.013450 -7224.520000 0 0 1
33.361169 -10.416019 25.210887 43.093501 -0.302630 0.945882 0.068802 -0.028407 -48147.400000 0 0 1
33.344209 -10.147119 23.850207 42.233075 -0.295410 0.970693 0.058190 -0.021314 -316293.000000 0 0 1
32.904949 -8.655419 23.540377 41.373920 -0.257216 0.965548 0.083239 -0.013514 -202293.000000 0 0 1
31.492669 -8.607019 23.486727 40.218096 -0.266787 0.947168 0.096086 -0.022275 -379465.000000 0 0 1
31.210439 -7.224719 23.232187 39.573003 -0.227477 0.943360 0.104287 -0.016132 634519.000000 0 0 1
29.651369 -7.200619 23.183377 38.321293 -0.238231 0.921063 0.110996 -0.011467 468941.000000 0 0 1
29.084739 -7.680519 22.010277 37.274182 -0.258180 0.939122 0.105939 -0.008798 -20978.900000 0 0 1
27.669939 -7.666419 21.973777 36.155862 -0.270287 0.917570 0.100994 -0.026432 -78016.700000 0 0 1
14.456861 -17.088319 26.641417 34.796215 -0.868624 0.698759 0.058724 -0.003301 95332.000000 0 0 1
13.826661 -18.341019 26.566517 35.119074 -0.924826 0.712898 0.040203 0.002784 56136.200000 0 0 1
14.864161 -19.274219 26.490027 35.974440 -0.913869 0.743126 0.052394 0.003179 -1045260.000000 0 0 1
14.427561 -20.708119 26.124607 36.324589 -0.962282 0.768148 0.033991 -0.007384 356174.000000 0 0 1
13.597161 -21.350119 27.096077 37.079749 -1.003710 0.751374 0.032778 -0.007658 626393.000000 0 0 1
12.278561 -20.833119 27.223057 36.412590 -1.038224 0.726314 0.044320 -0.006495 -618092.000000 0 0 1
11.633861 -21.273519 28.532267 37.443285 -1.070359 0.704380 0.038976 -0.007493 -512538.000000 0 0 1
12.215561 -20.778619 29.720907 38.266215 -1.039328 0.681406 0.036991 -0.012239 275902.000000 0 0 1
11.405561 -19.866219 30.524887 38.164410 -1.049625 0.643791 0.033126 -0.014787 314322.000000 0 0 1
11.084261 -18.456019 30.053167 36.968613 -1.029953 0.621618 0.029416 -0.008983 198144.000000 0 0 1
12.250561 -17.680919 30.169397 37.052445 -0.964872 0.619386 0.024790 0.002159 -356833.000000 0 0 1
12.038461 -16.401819 29.616517 35.931633 -0.937633 0.601926 0.038149 0.003335 726730.000000 0 0 1
13.070761 -15.225219 29.921987 36.027453 -0.861392 0.590732 0.037308 -0.002693 968742.000000 0 0 1
12.541761 -14.031219 29.397287 34.905177 -0.841391 0.569438 0.068398 -0.006893 544921.000000 0 0 1
13.485761 -12.993919 29.750337 35.153808 -0.766826 0.561813 0.065458 -0.004456 169354.000000 0 0 1
13.002361 -11.584019 29.669857 34.402780 -0.727774 0.530753 0.066734 -0.007208 -431737.000000 0 0 1
13.177761 -10.873919 28.480137 33.211650 -0.689902 0.540339 0.090670 -0.010974 508208.000000 0 0 1
14.480461 -10.714319 27.894217 33.204935 -0.637016 0.573398 0.091422 -0.013467 237241.000000 0 0 1
14.696461 -9.561319 26.856567 32.073041 -0.576787 0.578367 0.089022 -0.015477 56093.500000 0 0 1
14.865261 -8.215519 27.380657 32.220663 -0.504887 0.555218 0.081662 -0.014127 -838852.000000 0 0 1
16.129861 -8.064319 27.914627 33.232996 -0.463617 0.573574 0.077098 -0.017669 -1106750.000000 0 0 1
16.722861 -6.680019 27.548627 32.912058 -0.380036 0.578950 0.069760 -0.022470 -1351250.000000 0 0 1
18.026061 -6.471719 27.890827 33.833715 -0.344688 0.601743 0.066538 -0.028004 -1272030.000000 0 0 1
18.400461 -5.110519 27.552637 33.523755 -0.270911 0.606086 0.065702 -0.022942 132025.000000 0 0 1
19.911761 -4.954419 27.278777 34.134384 -0.243867 0.644903 0.066410 -0.020390 -741129.000000 0 0 1
20.282361 -5.800219 26.183287 33.624117 -0.278539 0.678196 0.064275 -0.016941 -221265.000000 0 0 1
21.609861 -5.737919 25.745897 34.099282 -0.259535 0.715100 0.074385 -0.016172 -292527.000000 0 0 1
22.712161 -6.223919 26.689057 35.593330 -0.267469 0.722987 0.078712 -0.020768 -668839.000000 0 0 1
23.268561 -5.201119 27.531167 36.420361 -0.219911 0.713726 0.073151 -0.018737 180775.000000 0 0 1
24.305161 -5.636919 28.395087 37.799427 -0.227894 0.720912 0.092520 -0.032856 193178.000000 0 0 1
24.923061 -4.402719 29.154447 38.607314 -0.174849 0.714908 0.091012 -0.029305 88495.700000 0 0 1
25.789361 -3.603319 28.357157 38.499395 -0.138822 0.742824 0.094509 -0.020226 279234.000000 0 0 1
25.846461 -2.280619 28.873527 38.819084 -0.088009 0.732063 0.086953 -0.024573 -56023.800000 0 0 1
26.954061 -1.509819 28.073877 38.947959 -0.055956 0.765834 0.078600 -0.023863 233766.000000 0 0 1
28.277761 -1.905619 28.289397 40.044389 -0.067288 0.786325 0.088239 -0.020090 -35624.600000 0 0 1
29.175061 -1.314019 27.313587 39.986783 -0.045009 0.818845 0.087064 -0.012822 201928.000000 0 0 1
30.626861 -1.340219 27.783957 41.373289 -0.043732 0.834507 0.068946 -0.020150 -555480.000000 0 0 1
30.954261 -0.365519 28.725327 42.230845 -0.011808 0.822764 0.057118 -0.012072 -491105.000000 0 0 1
32.322661 -0.347419 29.009807 43.433213 -0.010748 0.839389 0.079462 -0.019534 -215882.000000 0 0 1
32.751661 0.904881 29.826647 44.307098 0.027622 0.832296 0.081909 -0.025741 -336470.000000 0 0 1
32.749461 2.094181 29.049337 43.826667 0.063859 0.846213 0.082996 -0.016892 72743.000000 0 0 1
32.919361 3.130281 29.931967 44.602753 0.094804 0.835133 0.068745 -0.013131 -345171.000000 0 0 1
33.068961 4.525481 29.181737 44.335199 0.136005 0.852362 0.074746 -0.014809 -194829.000000 0 0 1
33.120161 5.709681 29.951777 45.018379 0.170715 0.842870 0.072862 -0.012921 940981.000000 0 0 1
31.861061 6.155081 30.504107 44.536645 0.190834 0.816300 0.065211 -0.006702 475183.000000 0 0 1
32.038961 7.160181 31.679707 45.622002 0.219871 0.803217 0.046522 -0.008604 -42135.100000 0 0 1
32.554061 6.532181 32.856704 46.711875 0.198027 0.790640 0.050300 -0.001179 143043.000000 0 0 1
32.792561 7.359981 33.923619 47.752835 0.220782 0.780730 0.061882 -0.008684 240832.000000 0 0 1
33.563361 6.508681 -33.016580 47.528483 0.191545 2.338756 0.059250 0.008175 191012.000000 0 0 1
32.746561 5.585281 -32.328550 46.353724 0.168935 2.342604 0.027710 0.011629 256974.000000 0 0 1
32.646461 4.269881 -32.894270 46.540910 0.130053 2.355735 0.036507 0.010223 8574.280000 0 0 1
32.291161 3.244781 -31.787300 45.427746 0.100149 2.345820 0.034118 0.002343 1425.730000 0 0 1
32.659561 1.940481 -32.184250 45.893772 0.059346 2.347984 0.025135 -0.003732 132737.000000 0 0 1
32.727561 1.074581 -31.033370 45.114499 0.032822 2.329361 0.007425 -0.009106 -243800.000000 0 0 1
33.033961 -0.415519 -31.348900 45.543043 -0.012578 2.329988 0.022309 -0.023020 144261.000000 0 0 1
34.269661 -0.756019 -31.994780 46.889734 -0.022057 2.321756 0.029161 -0.018973 477256.000000 0 0 1
34.820161 -2.036519 -31.658510 47.104695 -0.058420 2.307822 0.032856 -0.017410 336764.000000 0 0 1
35.606861 -2.022619 -30.341610 46.824703 -0.056743 2.275730 0.039352 -0.009984 -405058.000000 0 0 1
34.775461 -2.052619 -29.212950 45.463638 -0.058957 2.268626 0.036662 -0.012785 93560.000000 0 0 1
35.650161 -2.003419 -28.124480 45.452547 -0.056138 2.237967 0.070053 -0.018000 112824.000000 0 0 1
34.882961 -1.566619 -26.872750 44.061547 -0.044881 2.226720 0.053313 -0.020163 -79513.900000 0 0 1
34.540661 -0.203319 -26.776770 43.704622 -0.005886 2.230238 0.026968 -0.013923 497992.000000 0 0 1
33.493261 -0.031919 -25.830120 42.296509 -0.000953 2.227730 0.022214 -0.002880 87509.200000 0 0 1
32.951561 1.406581 -25.594720 41.747737 0.042660 2.230750 -0.003159 0.002910 -103505.000000 0 0 1
32.311561 1.875781 -26.773030 42.004174 0.057988 2.261902 0.007923 -0.007304 52127.800000 0 0 1
31.474661 2.937681 -26.522760 41.264283 0.093065 2.268883 -0.001607 0.006474 -447264.000000 0 0 1
30.883461 3.557081 -27.782910 41.693298 0.114672 2.300118 0.007125 0.009587 -509182.000000 0 0 1
29.832061 4.415981 -27.480360 40.799791 0.146961 2.309786 0.012030 0.004544 -138856.000000 0 0 1
29.178761 4.842081 -28.665980 41.189613 0.164447 2.340541 0.022263 0.000696 -294909.000000 0 0 1
27.945861 5.705381 -28.354940 40.218468 0.201391 2.353252 0.026825 -0.003478 -224352.000000 0 0 1
26.777261 4.940081 -28.097310 39.126525 0.182437 2.371885 0.036790 -0.008528 689599.000000 0 0 1
25.765261 5.785981 -27.529500 38.147079 0.220901 2.377004 0.043311 -0.016461 4572.590000 0 0 1
24.411161 5.093481 -27.337520 37.002545 0.205702 2.402086 0.060412 -0.016228 -251366.000000 0 0 1
23.629261 4.964181 -28.541850 37.384787 0.207075 2.439452 0.065527 -0.017667 -98884.600000 0 0 1
22.412861 4.379081 -28.162430 36.257898 0.192952 2.460246 0.070800 -0.019033 -754001.000000 0 0 1
21.589261 4.130481 -29.406960 36.714117 0.189037 2.499712 0.070838 -0.020122 -580423.000000 0 0 1
21.880561 2.942881 -30.092080 37.322283 0.133695 2.508627 0.064427 -0.018633 -213222.000000 0 0 1
21.190761 2.654381 -31.281560 37.876511 0.124612 2.542562 0.048559 -0.021408 -348897.000000 0 0 1
21.538461 3.496581 -32.581400 39.213251 0.160937 2.551479 0.053827 -0.021216 326337.000000 0 0 1
22.879661 3.247381 -32.981930 40.271976 0.140991 2.530427 0.043827 -0.018870 269663.000000 0 0 1
22.998361 3.485881 33.648547 40.905998 0.150426 0.604859 0.054131 -0.023386 -357623.000000 0 0 1
24.389361 3.023581 33.235169 41.334724 0.123342 0.636721 0.071352 -0.010876 -343579.000000 0 0 1
24.415361 1.641881 32.976074 41.063696 0.067147 0.638406 0.074678 -0.019046 239230.000000 0 0 1
25.705261 1.132081 32.664358 41.581274 0.044012 0.667205 0.087817 -0.027266 48954.000000 0 0 1
25.661761 -0.414819 32.568287 41.465544 -0.016163 0.667406 0.066813 -0.024175 -362506.000000 0 0 1
25.043961 -0.964519 31.433367 40.201826 -0.038494 0.673106 0.071471 -0.028129 592835.000000 0 0 1
23.641461 -0.919419 31.177147 39.137942 -0.038871 0.649152 0.083938 -0.031895 48474.400000 0 0 1
22.772461 -1.777819 32.090197 39.389419 -0.077911 0.618601 0.080797 -0.037622 -1041040.000000 0 0 1
23.057561 -3.127219 32.058960 39.613224 -0.134804 0.627838 0.088114 -0.044971 96182.800000 0 0 1
22.300961 -3.993219 32.902325 39.947987 -0.177183 0.603016 0.077542 -0.035776 -4247.240000 0 0 1
22.295361 -5.429219 32.350600 39.662587 -0.238864 0.616953 0.077867 -0.033496 -316199.000000 0 0 1
23.573861 -5.984819 32.467702 40.567187 -0.248623 0.642928 0.093783 -0.031720 -260480.000000 0 0 1
23.532561 -7.309319 32.141229 40.500199 -0.301157 0.654082 0.094075 -0.038636 -145044.000000 0 0 1
24.909061 -7.984519 31.926857 41.273939 -0.310199 0.686395 0.097643 -0.037288 24474.900000 0 0 1
25.474261 -7.855219 30.668077 40.634633 -0.299108 0.715558 0.108387 -0.037876 -89702.100000 0 0 1
26.707161 -8.540619 30.547007 41.464856 -0.309510 0.742625 0.110900 -0.032232 475358.000000 0 0 1
27.433561 -8.426819 29.160907 40.914179 -0.298023 0.777409 0.122366 -0.028979 415567.000000 0 0 1
26.703361 -9.119619 28.136177 39.848229 -0.329097 0.786844 0.114079 -0.023326 -67003.600000 0 0 1
26.966961 -8.686019 26.864077 39.042829 -0.311605 0.811975 0.127779 -0.021749 -306976.000000 0 0 1
26.119161 -9.329319 25.790207 37.873230 -0.343060 0.821722 0.102349 -0.029261 -1054690.000000 0 0 1
24.835261 -8.873319 25.580177 36.740596 -0.343152 0.800654 0.095014 -0.033944 -1062700.000000 0 0 1
24.273961 -9.555519 24.490727 35.781683 -0.375023 0.816949 0.090024 -0.031293 118399.000000 0 0 1
22.846161 -9.089619 24.141757 34.458564 -0.378662 0.794555 0.068885 -0.026715 1051740.000000 0 0 1
21.797861 -9.462419 25.083147 34.552111 -0.409552 0.758380 0.061087 -0.015799 2119430.000000 0 0 1
20.461161 -9.133219 24.621087 33.290730 -0.419830 0.738353 0.063531 -0.015255 1814340.000000 0 0 1
19.268461 -8.939819 25.601217 33.265842 -0.434403 0.692590 0.059804 -0.015173 295603.000000 0 0 1
18.608261 -10.081319 26.086637 33.591859 -0.496499 0.681583 0.073395 -0.013634 -206944.000000 0 0 1
19.254761 -10.750019 27.115887 34.951109 -0.509197 0.682777 0.071694 -0.015548 -677574.000000 0 0 1
18.400561 -11.752819 27.867497 35.402073 -0.568405 0.664587 0.076433 -0.010056 -225758.000000 0 0 1
17.990061 -12.877519 27.099917 34.983972 -0.621260 0.684654 0.082469 -0.013162 385171.000000 0 0 1
17.127861 -13.688219 27.906247 35.489288 -0.674240 0.665952 0.073019 -0.006503 63393.800000 0 0 1
17.701161 -15.060819 28.308817 36.627155 -0.704980 0.687411 0.079113 0.006949 241751.000000 0 0 1
16.712461 -15.994219 28.784747 36.928079 -0.763442 0.676959 0.063714 0.005912 465246.000000 0 0 1
17.273561 -17.180219 29.314897 38.116912 -0.782689 0.693398 0.086811 0.001612 103613.000000 0 0 1
17.813861 -18.210519 28.248137 38.038321 -0.796409 0.733818 0.084982 -0.000756 257389.000000 0 0 1
19.040861 -17.861319 27.619337 38.005380 -0.753445 0.757259 0.085650 0.002371 443669.000000 0 0 1
19.415761 -18.834119 26.668837 37.985822 -0.770193 0.792491 0.075079 0.009608 272143.000000 0 0 1
20.551461 -18.331219 25.738867 37.694634 -0.728359 0.819173 0.073798 0.001359 352671.000000 0 0 1
21.840261 -18.126219 26.285887 38.684683 -0.692735 0.823728 0.100166 -0.002011 151310.000000 0 0 1
22.686961 -17.590219 25.287777 38.256838 -0.659526 0.848645 0.082306 -0.001465 478270.000000 0 0 1
24.117861 -17.270719 25.816137 39.324571 -0.621448 0.854642 0.083467 -0.007631 458200.000000 0 0 1
24.938461 -18.383619 26.092577 40.505640 -0.635232 0.870857 0.073592 -0.008596 -117055.000000 0 0 1
26.280361 -18.051019 26.318407 41.341930 -0.601855 0.880711 0.064827 -0.010145 -427327.000000 0 0 1
27.163961 -19.278519 26.537837 42.588717 -0.617213 0.898072 0.044342 -0.008120 -500487.000000 0 0 1
26.893161 -20.089519 27.665737 43.499700 -0.641586 0.881495 0.053256 -0.006816 161550.000000 0 0 1
27.676061 -21.267019 27.657607 44.533063 -0.655190 0.900705 0.044591 -0.008397 42560.600000 0 0 1
27.031261 -22.344319 28.604227 45.256596 -0.690757 0.886606 0.053456 -0.004173 273662.000000 0 0 1
27.011861 -21.976619 29.934517 45.920450 -0.682974 0.860738 0.056247 -0.007357 -31543.200000 0 0 1
26.361361 -23.019019 30.625367 46.504943 -0.717816 0.851919 0.067404 -0.004697 -80065.800000 0 0 1
26.054061 -22.911519 32.154217 47.303757 -0.721307 0.823389 0.056549 -0.008972 13022.200000 0 0 1
25.705461 -24.121319 32.751837 48.117477 -0.753616 0.822128 0.051347 -0.008508 -11692.000000 0 0 1
25.350161 -24.065719 -33.947640 48.726089 -0.759412 2.341588 0.061302 -0.004961 -160231.000000 0 0 1
25.161861 -25.514499 -33.380260 48.972959 -0.792357 2.320751 0.061491 -0.011315 1229400.000000 0 0 1
23.951061 -26.238829 -33.752700 49.003819 -0.830949 2.330597 0.085230 -0.024434 785157.000000 0 0 1
23.769861 -26.728259 32.995593 48.663285 -0.843916 0.825705 0.072174 -0.024823 643035.000000 0 0 1
22.468961 -27.620499 32.924745 48.495206 -0.887885 0.824495 0.099534 -0.023349 914997.000000 0 0 1
22.574361 -28.843489 33.528925 49.656192 -0.906724 0.829531 0.099124 -0.031635 -1290640.000000 0 0 1
21.295561 -29.278049 33.698968 49.460343 -0.941946 0.821214 0.118270 -0.035211 -1320010.000000 0 0 1
21.174161 -30.833649 33.952142 50.515413 -0.969037 0.833736 0.083428 -0.036308 -235670.000000 0 0 1
21.547761 -31.457109 -32.912100 50.369257 -0.970216 2.282885 0.064978 -0.037976 -110490.000000 0 0 1
22.939461 -31.628889 -32.803820 51.016626 -0.943312 2.269209 0.034493 -0.018282 -655875.000000 0 0 1
23.430161 -32.521099 -31.700200 51.102808 -0.946470 2.239950 0.025133 -0.019825 1161190.000000 0 0 1
24.848261 -32.846409 -31.914730 52.104440 -0.923149 2.230034 0.021609 -0.005238 1535460.000000 0 0 1
25.333061 -33.520349 -30.846580 52.123788 -0.923624 2.204080 0.016611 -0.003395 -276648.000000 0 0 1
26.196961 -32.672419 -29.880360 51.445152 -0.894955 2.190532 0.017284 -0.015355 -448656.000000 0 0 1
26.547061 -33.359349 -28.728500 51.409331 -0.898627 2.163757 0.037586 -0.013725 -15380.400000 0 0 1
27.143661 -32.386379 -27.877920 50.624444 -0.873240 2.153976 0.034454 -0.012088 -250071.000000 0 0 1
27.530861 -32.874279 -26.400910 50.355482 -0.873628 2.122678 0.038200 -0.016426 139707.000000 0 0 1
28.655161 -33.665989 -26.125120 51.352108 -0.865629 2.104523 0.035721 -0.002365 291760.000000 0 0 1
29.880261 -32.939549 -25.973130 51.501916 -0.834059 2.099384 0.043357 -0.017095 635981.000000 0 0 1
-27.546339 -30.707570 9.771780 42.393907 0.839611 1.338205 0.048389 -0.022530 -862092.000000 0 0 1
-27.376289 -31.887770 10.460780 43.309571 0.861377 1.326849 0.055454 -0.027791 -23715.600000 0 0 1
-26.032439 -32.030570 10.891280 42.687999 0.888337 1.312807 0.052917 -0.028728 207127.000000 0 0 1
-25.791579 -33.124570 11.972480 43.655274 0.909226 1.292986 0.051445 -0.031185 -220073.000000 0 0 1
-25.913529 33.566181 11.706280 43.991323 -0.913355 1.301447 0.052622 -0.015345 640796.000000 0 0 1
-27.258709 33.081381 11.511380 44.383858 -0.881598 1.308437 0.041470 -0.029191 674602.000000 0 0 1
-27.426269 31.572081 11.142580 43.279945 -0.855553 1.310410 0.043043 -0.022528 -195159.000000 0 0 1
-26.961729 31.289781 9.886380 42.470292 -0.859561 1.335858 0.061924 -0.030149 -262737.000000 0 0 1
-27.241069 29.985781 9.410880 41.590715 -0.833323 1.342546 0.074277 -0.024768 -100719.000000 0 0 1
-26.567589 29.649181 8.026780 40.612066 -0.840160 1.371841 0.056426 -0.014833 629462.000000 0 0 1
-25.141179 29.648281 8.116880 39.711247 -0.867476 1.364948 0.046634 -0.015497 560751.000000 0 0 1
-24.570439 29.570281 6.826880 39.047590 -0.877486 1.395058 0.028448 -0.008682 215570.000000 0 0 1
-23.190439 28.831581 6.822880 37.624569 -0.893414 1.388446 0.039970 -0.006931 268560.000000 0 0 1
-23.116839 27.447981 7.152880 36.591578 -0.870845 1.374051 0.046643 -0.006491 193305.000000 0 0 1
-23.689639 26.689381 6.108980 36.205548 -0.844871 1.401255 0.034981 -0.010772 -589856.000000 0 0 1
-23.695139 25.164581 6.307080 35.135381 -0.815464 1.390310 0.050114 -0.002782 -501967.000000 0 0 1
-24.644439 24.846281 7.300180 35.748827 -0.789477 1.365142 0.069857 -0.008598 351352.000000 0 0 1
-24.857139 23.445081 7.564580 34.996743 -0.756173 1.352926 0.080600 -0.011727 -259522.000000 0 0 1
-25.478439 22.510381 6.514880 34.616640 -0.723628 1.381466 0.087702 -0.021125 -143787.000000 0 0 1
-26.797949 22.881981 6.135080 35.768063 -0.706737 1.398420 0.085208 -0.025398 390331.000000 0 0 1
-27.159429 22.208681 4.936880 35.429266 -0.685450 1.430997 0.077032 -0.020098 -55438.100000 0 0 1
-26.985269 23.004181 3.563980 35.638449 -0.705927 1.470625 0.063673 -0.022611 342068.000000 0 0 1
-25.620869 23.349881 3.320380 34.823423 -0.739057 1.475302 0.056514 -0.018389 688803.000000 0 0 1
-25.437859 24.273281 2.274380 35.234211 -0.761976 1.506201 0.035970 -0.011458 -649422.000000 0 0 1
-24.045339 24.868181 2.281680 34.667143 -0.802219 1.504932 0.028243 -0.003021 -641101.000000 0 0 1
-23.762039 25.628881 1.114380 34.967354 -0.823177 1.538922 0.011786 -0.008645 -813753.000000 0 0 1
-22.469839 26.106281 1.303180 34.469259 -0.860119 1.532980 0.028406 -0.010683 -1511530.000000 0 0 1
-21.980439 26.835781 0.059580 34.688649 -0.884534 1.569079 0.035307 -0.008591 -66947.100000 0 0 1
-21.736939 25.919881 -1.026820 33.843598 -0.872946 1.601141 0.029258 -0.001963 528265.000000 0 0 1
-20.639239 25.008581 -0.836420 32.436197 -0.880826 1.596586 0.040970 -0.007730 101779.000000 0 0 1
-20.272439 24.206481 -2.133220 31.646108 -0.873616 1.638256 0.046883 -0.018041 241084.000000 0 0 1
-21.298239 23.283881 -2.484120 31.653198 -0.829908 1.649356 0.031292 -0.022295 397904.000000 0 0 1
-20.955339 22.498781 -3.668720 30.964187 -0.820902 1.689558 0.033417 -0.021747 -377863.000000 0 0 1
-22.187839 21.849281 -4.300320 31.435394 -0.777710 1.708025 0.046213 -0.017842 -290679.000000 0 0 1
-22.874739 22.734881 -5.148820 32.659437 -0.782332 1.729109 0.032237 -0.007811 -9949.570000 0 0 1
-23.987539 22.072881 -5.731220 33.097749 -0.743854 1.744834 0.023537 -0.001868 134669.000000 0 0 1
-24.287639 22.614981 -7.152120 33.948190 -0.749751 1.783064 0.015335 0.000059 -307705.000000 0 0 1
-23.271139 22.249781 -8.031220 33.182814 -0.762965 1.815253 0.026031 -0.006278 -101638.000000 0 0 1
-23.335339 23.116781 -9.177320 34.104938 -0.780693 1.843245 0.024985 -0.009202 -42226.100000 0 0 1
-22.425239 22.563581 -10.285720 33.433554 -0.788473 1.883515 0.032078 -0.012993 -58198.300000 0 0 1
-22.973739 21.328481 -10.788620 33.152543 -0.748278 1.902256 0.026901 -0.015915 387725.000000 0 0 1
-22.397739 20.902081 -12.046520 32.919209 -0.750870 1.945441 0.031784 -0.013186 -26604.700000 0 0 1
-23.321939 20.909981 -13.282720 34.023092 -0.730922 1.971866 0.020992 -0.012756 282887.000000 0 0 1
-24.254739 19.818681 -13.277120 34.019912 -0.685084 1.971727 0.021096 -0.003816 629652.000000 0 0 1
-25.347359 20.057481 -14.157720 35.287848 -0.669416 1.983630 0.030199 -0.008101 704519.000000 0 0 1
-26.267689 18.761781 -14.314320 35.311410 -0.620228 1.988184 0.073873 -0.013069 451164.000000 0 0 1
-25.724329 17.856681 -15.234020 34.823520 -0.606793 2.023572 0.064198 -0.011989 48808.400000 0 0 1
-26.436849 16.641281 -15.271920 34.771695 -0.561809 2.025510 0.077890 -0.020433 -135725.000000 0 0 1
-26.269269 15.840181 -16.571920 34.865662 -0.542617 2.066110 0.085418 -0.022141 -244989.000000 0 0 1
-25.012639 15.233281 -16.712720 33.719430 -0.547028 2.089369 0.084292 -0.023323 -121084.000000 0 0 1
-24.928639 14.654581 -17.983220 34.052753 -0.531446 2.127157 0.081151 -0.019812 -664298.000000 0 0 1
-23.970139 13.515981 -17.953520 32.856935 -0.513428 2.148874 0.082630 -0.018985 -1600870.000000 0 0 1
-22.738639 13.816581 -17.432920 31.809595 -0.546008 2.150815 0.095034 -0.030149 -1188260.000000 0 0 1
-22.013239 12.635181 -17.287620 30.709808 -0.521068 2.168729 0.112718 -0.007593 -358637.000000 0 0 1
-20.914639 12.624181 -16.194620 29.309688 -0.543066 2.156199 0.114353 -0.022884 612606.000000 0 0 1
-19.733139 13.295181 -16.662520 29.048205 -0.592890 2.181710 0.094543 -0.015432 441501.000000 0 0 1
-18.765539 13.406981 -15.640520 27.866081 -0.620356 2.166721 0.088247 -0.005795 -313204.000000 0 0 1
-17.776339 14.513981 -15.933920 27.938212 -0.684708 2.177700 0.079106 -0.007093 -325946.000000 0 0 1
-16.827339 14.264181 -16.979220 27.837387 -0.703145 2.226785 0.099894 -0.021213 680495.000000 0 0 1
-16.038439 15.438781 -17.220520 28.144871 -0.766350 2.229197 0.088982 -0.012918 215321.000000 0 0 1
-15.309839 15.357281 -18.594020 28.565273 -0.786945 2.279606 0.108627 -0.022588 -192390.000000 0 0 1
-14.343539 14.351281 -18.534320 27.481219 -0.785668 2.310997 0.111723 -0.020426 -499926.000000 0 0 1
-13.435239 14.476881 -19.611120 27.833105 -0.822699 2.352651 0.140258 -0.028346 -189519.000000 0 0 1
-12.220739 13.576481 -19.443420 26.677966 -0.837904 2.387392 0.125571 -0.023587 -95555.500000 0 0 1
-12.606439 12.206481 -19.736520 26.409292 -0.769281 2.414835 0.141776 -0.033815 857839.000000 0 0 1
-11.423439 11.397881 -19.816820 25.556076 -0.784278 2.458184 0.109325 -0.019530 476361.000000 0 0 1
-11.572839 10.084481 -20.676420 25.751538 -0.716783 2.502974 0.118516 -0.028837 -126754.000000 0 0 1
-11.662639 10.304781 -22.094820 27.025668 -0.723664 2.527939 0.129114 -0.037611 -24355.800000 0 0 1
-11.727739 9.014281 -22.672620 27.071107 -0.655317 2.563527 0.121328 -0.020619 36483.000000 0 0 1
-11.646939 8.967181 -24.235720 28.344870 -0.656127 2.596405 0.106114 -0.020080 15130.100000 0 0 1
-10.312039 9.108681 -24.689120 28.264092 -0.723515 2.633174 0.103680 -0.018900 60436.300000 0 0 1
-10.143639 8.498581 -25.978520 29.154807 -0.697382 2.670459 0.079546 -0.025250 -57287.700000 0 0 1
-9.772239 9.443681 -27.097480 30.314241 -0.768302 2.676737 0.106685 -0.032628 -602983.000000 0 0 1
-8.516239 10.053881 -27.075770 30.111529 -0.868012 2.688695 0.084739 -0.038608 -278500.000000 0 0 1
-8.450739 11.257881 -26.337720 29.863529 -0.926879 2.650750 0.059050 -0.025475 -1310280.000000 0 0 1
-7.029739 11.720881 -26.407910 29.735063 -1.030552 2.664006 0.051959 -0.028471 -1203750.000000 0 0 1
-6.612039 12.085681 -27.685280 30.923413 -1.070185 2.679868 0.052375 -0.045321 -122338.000000 0 0 1
-5.316139 12.621981 -27.647300 30.853670 -1.172165 2.681651 0.070876 -0.042827 -376225.000000 0 0 1
-4.566739 12.736281 -28.993600 31.995262 -1.226515 2.704968 0.079360 -0.044201 426781.000000 0 0 1
-3.186139 13.091881 -28.961260 31.942189 -1.332070 2.706136 0.104734 -0.053498 649070.000000 0 0 1
-2.585439 12.865981 -30.217890 32.944481 -1.372486 2.731884 0.106904 -0.049979 423367.000000 0 0 1
-1.050539 12.660581 -30.302750 32.858037 -1.488009 2.744612 0.133540 -0.061345 -33542.300000 0 0 1
-0.604839 11.450181 -29.767470 31.899447 -1.518022 2.773918 0.111521 -0.039603 303558.000000 0 0 1
0.789761 11.182581 -29.872350 31.906600 1.500289 2.782578 0.127700 -0.046262 607461.000000 0 0 1
1.259961 10.684881 -31.263310 33.062800 1.453418 2.810149 0.131691 -0.043572 -441132.000000 0 0 1
1.422761 11.712081 -32.206530 34.299529 1.449911 2.790446 0.132244 -0.049524 165257.000000 0 0 1
1.840061 11.209481 -33.442310 35.318924 1.408095 2.814146 0.125479 -0.038243 17401.500000 0 0 1
1.967961 12.160081 33.363995 35.565384 1.410350 0.353684 0.127105 -0.040855 758761.000000 0 0 1
3.274661 12.748481 33.209972 35.723233 1.319365 0.377345 0.130997 -0.044809 602648.000000 0 0 1
3.408161 13.439781 31.996627 34.871584 1.322444 0.408907 0.128998 -0.040077 -1591560.000000 0 0 1
4.864161 13.612981 31.780907 34.914171 1.227617 0.426889 0.131552 -0.046107 -1879550.000000 0 0 1
5.437661 12.385181 31.568167 34.343995 1.157089 0.404814 0.122455 -0.044721 -989264.000000 0 0 1
6.827761 12.413681 31.634367 34.661952 1.067938 0.421066 0.113651 -0.035081 -322464.000000 0 0 1
7.541761 11.076381 31.270647 34.020842 0.973014 0.404850 0.091121 -0.031604 -63186.900000 0 0 1
7.403261 10.780581 29.922367 32.655432 0.969038 0.412039 0.086068 -0.030915 106503.000000 0 0 1
8.180361 9.678181 29.427457 32.039986 0.869074 0.406626 0.086690 -0.024088 198650.000000 0 0 1
7.593161 8.990881 28.150827 30.511655 0.869480 0.395964 0.072942 -0.020444 381528.000000 0 0 1
6.637361 8.011081 28.563057 30.398687 0.878904 0.349293 0.067936 -0.022830 34805.300000 0 0 1
6.062661 7.266781 27.531327 29.112470 0.875489 0.331090 0.077790 -0.024159 10202.700000 0 0 1
5.179361 6.117081 28.130637 29.250251 0.868218 0.277574 0.084614 -0.031206 150196.000000 0 0 1
5.921761 5.038081 28.672417 29.707861 0.704943 0.264796 0.076140 -0.029529 -134294.000000 0 0 1
5.198161 4.393281 29.680327 30.450675 0.701678 0.225413 0.079381 -0.032634 -347604.000000 0 0 1
5.962261 3.319381 30.526387 31.279820 0.507997 0.219928 0.087021 -0.031105 -13114.200000 0 0 1
6.115161 2.008481 29.969717 30.653109 0.317343 0.211555 0.078692 -0.020725 -36925.000000 0 0 1
7.105961 1.882481 28.968207 29.886375 0.258967 0.248518 0.078576 -0.019599 -108853.000000 0 0 1
7.026461 0.510081 28.370227 29.231851 0.072467 0.243399 0.066867 -0.023265 288984.000000 0 0 1
7.684161 -0.537019 29.102637 30.104787 -0.069773 0.258747 0.045024 -0.018017 -10395.900000 0 0 1
7.634961 -1.660819 28.260717 29.320966 -0.214191 0.269741 0.053114 -0.007398 -66152.200000 0 0 1
8.454961 -2.855519 28.765637 30.118138 -0.325705 0.300821 0.051224 -0.003600 -13931.900000 0 0 1
9.840361 -2.595919 28.833877 30.577180 -0.257927 0.339303 0.047709 -0.008221 -44263.300000 0 0 1
10.573361 -3.816419 28.713827 30.835772 -0.346393 0.373145 0.053088 -0.008447 162967.000000 0 0 1
12.112861 -3.720419 28.582967 31.265778 -0.298000 0.417283 0.051499 -0.007652 658288.000000 0 0 1
12.868161 -4.881519 28.201767 31.380861 -0.362578 0.454016 0.062629 -0.011926 245186.000000 0 0 1
12.940661 -5.938419 29.139387 32.431919 -0.430227 0.454505 0.071321 -0.012806 -678829.000000 0 0 1
12.180461 -7.238319 28.832147 32.125528 -0.536186 0.456765 0.078462 -0.011849 914596.000000 0 0 1
10.741161 -7.038419 28.823977 31.555245 -0.580075 0.419126 0.066193 -0.007615 615187.000000 0 0 1
10.199861 -8.286219 28.682157 31.549401 -0.682248 0.429632 0.064741 -0.010585 -1437890.000000 0 0 1
8.708261 -8.220219 28.660417 31.061637 -0.756577 0.395783 0.060700 -0.009741 -1128840.000000 0 0 1
8.010561 -7.899319 29.878697 31.926554 -0.778406 0.360112 0.064306 -0.018635 128785.000000 0 0 1
6.637661 -7.776719 29.565387 31.283350 -0.864257 0.332945 0.059862 -0.019997 -380012.000000 0 0 1
5.867361 -7.043319 30.599437 31.943071 -0.876232 0.291073 0.051966 -0.021325 -498454.000000 0 0 1
5.946061 -7.719019 31.860667 33.317278 -0.914421 0.296789 0.053987 -0.024163 -182673.000000 0 0 1
5.319161 -7.072619 32.926173 34.094696 -0.925967 0.262566 0.051343 -0.023190 -362544.000000 0 0 1
5.964661 -5.821919 33.625173 34.642808 -0.773288 0.242982 0.068185 -0.018877 -30942.200000 0 0 1
5.802161 -4.720119 32.714571 33.558721 -0.682925 0.224769 0.069571 -0.015784 -36762.300000 0 0 1
6.353561 -3.590319 33.346914 34.136121 -0.514353 0.215449 0.059437 -0.004882 -51434.300000 0 0 1
6.366661 -2.376519 32.408781 33.113612 -0.357258 0.206694 0.065529 -0.007434 749636.000000 0 0 1
5.016861 -1.976619 32.149788 32.598846 -0.375319 0.166175 0.064851 -0.012833 530161.000000 0 0 1
5.119661 -0.690419 31.539687 31.959966 -0.134048 0.162352 0.064772 -0.013558 369388.000000 0 0 1
3.740061 -0.145319 31.092337 31.316810 -0.038835 0.119803 0.070876 -0.023018 662675.000000 0 0 1
2.884461 0.252681 32.164696 32.294761 0.087378 0.089779 0.067488 -0.019216 1205490.000000 0 0 1
1.533261 0.596881 31.729187 31.771818 0.371238 0.051809 0.073234 -0.024981 1316740.000000 0 0 1
0.686261 0.852281 32.987920 33.006063 0.892889 0.033158 0.071113 -0.023302 -328089.000000 0 0 1
1.049261 1.961981 33.774910 33.848114 1.079700 0.065780 0.057183 -0.013086 -243809.000000 0 0 1
0.427761 1.965281 -33.046550 33.107700 1.356480 3.080805 0.045986 -0.013189 -451206.000000 0 0 1
0.885761 3.145481 -32.174380 32.339904 1.296306 3.040374 0.047622 -0.013230 989137.000000 0 0 1
2.220861 2.919781 -31.672640 31.884377 0.920529 3.026283 0.026490 -0.002012 651103.000000 0 0 1
2.636861 4.029481 -30.915970 31.288767 0.991340 2.987071 0.034508 -0.005868 -469932.000000 0 0 1
3.859861 3.819481 -30.024230 30.511332 0.780140 2.962667 0.033903 -0.004042 -286504.000000 0 0 1
3.616761 3.047581 -28.846970 29.232112 0.700198 2.979085 0.029166 -0.013881 321313.000000 0 0 1
4.719061 3.057281 -27.944620 28.504707 0.574868 2.943030 0.038513 -0.018824 155470.000000 0 0 1
4.327461 2.403981 -26.581700 27.038728 0.507069 2.957470 0.036026 -0.025446 45434.900000 0 0 1
4.455061 1.017781 -26.751770 27.139283 0.224600 2.972402 0.045491 -0.023405 522434.000000 0 0 1
3.607161 0.376181 -25.784720 26.038528 0.103912 3.001855 0.058947 -0.024992 38931.800000 0 0 1
3.963561 -1.065619 -25.537780 25.865490 -0.262643 2.982240 0.059542 -0.022559 60501.700000 0 0 1
5.276761 -1.196319 -25.031100 25.609205 -0.222946 2.928710 0.043081 -0.020089 -113218.000000 0 0 1
5.653761 -2.541219 -24.964120 25.722171 -0.422417 2.898214 0.040000 -0.017015 127721.000000 0 0 1
7.079561 -2.823419 -24.424920 25.586493 -0.379482 2.839118 0.039885 -0.021373 -147210.000000 0 0 1
8.139961 -2.304819 -25.136610 26.522072 -0.275926 2.816941 0.026457 -0.012306 -381685.000000 0 0 1
9.377861 -2.732119 -24.568820 26.439283 -0.283490 2.763186 0.028361 -0.012226 539874.000000 0 0 1
-29.936699 -4.517119 18.048577 35.247148 0.149759 1.033218 0.132350 -0.019939 -283850.000000 0 0 1
-31.291919 -4.175519 18.063177 36.371658 0.132654 1.051087 0.116902 -0.010899 -260549.000000 0 0 1
-31.998729 -5.048619 18.996977 37.553859 0.156486 1.040418 0.107959 -0.019859 708953.000000 0 0 1
-33.438109 -4.561419 19.326377 38.889877 0.135577 1.050714 0.089447 -0.014589 440122.000000 0 0 1
-34.298467 -4.650019 18.212877 39.111589 0.134754 1.086411 0.075709 -0.021629 907295.000000 0 0 1
-35.686073 -4.620519 18.590877 40.502663 0.128760 1.093923 0.072075 -0.009360 1598730.000000 0 0 1
-36.797589 -4.625919 17.467277 40.994725 0.125057 1.130634 0.055766 -0.005913 703693.000000 0 0 1
35.649809 -4.820919 17.928277 40.194194 -0.134414 1.108459 0.057583 -0.004646 -222161.000000 0 0 1
34.774989 -4.732819 16.808877 38.913208 -0.135267 1.124134 0.034544 -0.005605 216902.000000 0 0 1
33.326309 -5.138319 17.160577 37.835573 -0.152977 1.100044 0.035165 -0.001341 -38662.200000 0 0 1
32.635119 -4.343819 18.078677 37.560062 -0.132325 1.068628 0.057399 -0.008971 -136896.000000 0 0 1
31.459079 -5.012619 18.452577 36.814366 -0.158009 1.045773 0.098596 -0.015450 106258.000000 0 0 1
30.678019 -4.578219 19.755277 36.774609 -0.148141 1.003684 0.118350 -0.010243 568792.000000 0 0 1
29.764989 -3.486619 19.815377 35.927151 -0.116607 0.986583 0.122231 -0.009406 362677.000000 0 0 1
30.301569 -2.205219 19.413077 36.054342 -0.072648 1.002212 0.101779 -0.004077 469360.000000 0 0 1
29.386139 -0.967519 19.803677 35.449497 -0.032912 0.978045 0.099810 0.005530 665346.000000 0 0 1
29.943919 0.252981 19.329577 35.641756 0.008448 0.997589 0.074910 0.006128 -39309.400000 0 0 1
29.026809 1.321781 19.429777 34.954527 0.045505 0.981401 0.071027 0.006794 84619.900000 0 0 1
29.330289 2.586781 18.562377 34.806883 0.087967 1.008304 0.061647 0.006721 -145507.000000 0 0 1
29.362409 2.467081 17.144877 34.090825 0.083825 1.043825 0.057911 0.004097 139372.000000 0 0 1
29.220359 3.722081 16.505677 33.765672 0.126697 1.060048 0.061070 0.007556 86845.900000 0 0 1
28.707149 3.666181 15.019677 32.605704 0.127022 1.092074 0.070507 0.003263 -43487.500000 0 0 1
28.576139 4.957381 14.487077 32.419851 0.171770 1.107546 0.056713 0.001377 115103.000000 0 0 1
28.063339 4.830281 13.198677 31.386106 0.170451 1.136771 0.079930 -0.001362 -310044.000000 0 0 1
27.378639 6.125981 12.706577 30.798938 0.220125 1.145528 0.090237 -0.002675 -495447.000000 0 0 1
26.210839 6.331681 13.438177 30.127775 0.237026 1.108461 0.081269 -0.000499 36303.600000 0 0 1
25.545239 7.559681 13.020877 29.652170 0.287721 1.116177 0.103635 -0.017472 -457596.000000 0 0 1
24.276739 7.971281 13.749277 29.016271 0.317259 1.077142 0.109895 -0.019888 -71091.400000 0 0 1
23.050339 7.359581 13.381377 27.650367 0.309052 1.065634 0.109250 -0.014089 780580.000000 0 0 1
22.830839 6.073481 13.876777 27.398892 0.259999 1.039708 0.122081 -0.011137 -46315.500000 0 0 1
21.364939 5.545981 13.684077 25.970608 0.253978 1.015840 0.127921 -0.017260 429297.000000 0 0 1
20.942439 5.429081 12.326177 24.899704 0.253654 1.052923 0.122888 -0.030413 690862.000000 0 1 0
19.791039 4.620781 12.167377 23.687167 0.229370 1.031340 0.095368 -0.022305 26489.600000 0 1 0
19.446439 4.363781 10.646177 22.595301 0.220743 1.080182 0.093488 -0.022586 -588519.000000 0 1 0
20.444439 3.628381 10.050477 23.068426 0.175646 1.120002 0.102003 -0.031255 -73737.000000 0 1 0
20.315339 3.620481 8.630177 22.367405 0.176363 1.174681 0.116678 -0.032403 545749.000000 0 1 0
21.595139 3.052481 7.915077 23.201640 0.140420 1.222664 0.128020 -0.035042 -373544.000000 0 1 0
21.652239 1.625981 8.148877 23.191969 0.074955 1.211766 0.112390 -0.040915 610917.000000 0 1 0
22.538139 0.984581 7.253777 23.697138 0.043657 1.259699 0.107813 -0.031735 -417355.000000 0 1 0
24.067539 1.195081 7.294677 25.177111 0.049615 1.276847 0.120868 -0.036607 -601142.000000 0 0 1
24.697639 0.648481 8.428077 26.104144 0.026251 1.242043 0.123767 -0.024068 363307.000000 0 0 1
24.442239 1.421081 9.627777 26.308489 0.058075 1.196135 0.116924 -0.026073 -914444.000000 0 0 1
25.180839 0.825781 10.832077 27.424267 0.032782 1.164749 0.116111 -0.021795 -413254.000000 0 0 1
26.577239 0.982981 10.773277 28.694587 0.036969 1.185918 0.102758 -0.027675 53719.200000 0 0 1
27.222239 0.133381 11.722177 29.639121 0.004900 1.164188 0.108581 -0.024561 754250.000000 0 0 1
28.780189 0.065781 11.737477 31.081698 0.002286 1.183558 0.118874 -0.023424 1126570.000000 0 0 1
29.509589 1.234681 12.156677 31.939396 0.041816 1.180333 0.097856 -0.011498 739035.000000 0 0 1
30.909849 1.048181 12.304477 33.285396 0.033898 1.192147 0.103222 -0.015011 748410.000000 0 0 1
31.736539 2.311281 12.794477 34.296480 0.072699 1.188497 0.079301 -0.005514 213791.000000 0 0 1
31.965009 3.298581 11.828177 34.242491 0.102830 1.218106 0.099854 -0.025347 142400.000000 0 0 1
32.512709 4.472281 12.372277 35.073505 0.136697 1.210285 0.094577 -0.022861 -374900.000000 0 0 1
33.926219 4.788381 11.869677 36.260255 0.140215 1.237302 0.089620 -0.018588 -662133.000000 0 0 1
34.858379 3.867781 12.357077 37.185530 0.110505 1.232046 0.081156 -0.024524 -317571.000000 0 0 1
36.114479 4.186781 11.796077 38.222142 0.115416 1.257056 0.099128 -0.016045 214316.000000 0 0 1
-36.443669 3.430881 12.456477 38.666210 -0.093865 1.242792 0.138656 -0.010154 -86982.300000 0 0 1
-36.327789 1.994681 12.193777 38.371541 -0.054853 1.247407 0.118198 -0.012418 1020480.000000 0 0 1
36.338389 1.103381 12.528577 38.453363 0.030355 1.238926 0.092135 -0.005052 542026.000000 0 0 1
35.764979 0.956781 13.995777 38.417846 0.026746 1.197911 0.085908 -0.005853 -94981.500000 0 0 1
36.641749 0.293681 14.865977 39.543663 0.008015 1.185387 0.089907 -0.007258 160161.000000 0 0 1
36.061459 0.013981 16.112677 39.497435 0.000388 1.150597 0.085804 -0.024995 -217465.000000 0 0 1
-36.751089 -0.855519 16.960677 40.485047 0.023275 1.138522 0.093634 -0.020719 766805.000000 0 0 1
-35.505710 -0.225819 17.306677 39.499715 0.006360 1.117260 0.126935 -0.031350 784911.000000 0 0 1
-34.688701 -0.942419 18.231477 39.199246 0.027161 1.087051 0.112211 -0.023022 232366.000000 0 0 1
-34.944669 -0.643019 19.679677 40.110261 0.018399 1.057973 0.143852 -0.037277 -544966.000000 0 0 1
-35.684147 -1.668719 20.283177 41.079803 0.046730 1.054399 0.111705 -0.030205 -95076.600000 0 0 1
-35.677064 -1.502319 21.684177 41.776948 0.042084 1.025061 0.112829 -0.026440 192527.000000 0 0 1
-35.985995 -2.828819 22.427977 42.497155 0.078448 1.014844 0.082368 -0.020417 210017.000000 0 0 1
-34.962398 -3.799819 22.174377 41.575364 0.108258 1.008236 0.095233 -0.025380 311815.000000 0 0 1
-35.178391 -5.048419 22.805277 42.226607 0.142536 1.000277 0.085202 -0.024008 -48684.800000 0 0 1
-35.231008 -5.130619 24.325677 43.119436 0.144611 0.971397 0.085696 -0.032830 -29476.600000 0 0 1
-34.049049 -4.608819 24.891887 42.428587 0.134541 0.943847 0.092201 -0.035087 -306075.000000 0 0 1
-33.951569 -4.891019 26.322247 43.237620 0.143074 0.916273 0.094810 -0.036280 78841.800000 0 0 1
-32.787779 -4.178019 27.064447 42.719768 0.126743 0.884683 0.090640 -0.027987 38069.200000 0 0 1
-32.726669 -2.804019 26.907967 42.460995 0.085471 0.884456 0.099576 -0.021478 -337374.000000 0 0 1
-32.120499 -2.416719 25.713987 41.216212 0.075098 0.897098 0.107639 -0.027668 -598003.000000 0 0 1
-31.986349 -0.916719 25.464087 40.894824 0.028652 0.898643 0.118045 -0.028341 590249.000000 0 0 1
-33.218039 -0.183919 25.492217 41.872724 0.005537 0.916246 0.130016 -0.039769 452305.000000 0 0 1
-33.058899 1.066181 24.957167 41.435344 -0.032240 0.924397 0.124581 -0.027026 -295696.000000 0 0 1
-34.385570 1.797381 24.732507 42.394515 -0.052224 0.947901 0.141164 -0.026863 -49133.100000 0 0 1
-35.118299 1.299781 23.576037 42.318009 -0.036995 0.979888 0.141673 -0.020225 416047.000000 0 0 1
-36.366949 1.933581 23.355297 43.263883 -0.053119 1.000557 0.116744 -0.010836 460050.000000 0 0 1
-36.283279 3.174481 22.479277 42.800369 -0.087269 1.017832 0.115340 -0.006880 69656.300000 0 0 1
-35.827675 2.898181 21.131377 41.696005 -0.080716 1.039332 0.142843 -0.033581 476749.000000 0 0 1
-36.824529 3.312681 20.197577 42.130297 -0.089717 1.070817 0.106872 -0.025865 268198.000000 0 0 1
-36.560119 2.741181 18.798877 41.201385 -0.074837 1.097000 0.126929 -0.026829 189857.000000 0 0 1
-35.418961 3.282581 18.150377 39.933874 -0.092415 1.098973 0.168690 -0.038192 217112.000000 0 0 1
-35.162831 2.724881 16.831177 39.078615 -0.077339 1.125528 0.194695 -0.035236 105810.000000 0 0 1
-34.053109 3.424781 15.982077 37.772611 -0.100235 1.133918 0.187517 -0.035703 122333.000000 0 0 1
-34.331248 4.759981 15.680177 38.041556 -0.137770 1.145945 0.186624 -0.045819 194126.000000 0 0 1
-33.489999 5.177881 14.626577 36.909717 -0.153395 1.163335 0.204040 -0.042098 -57262.700000 0 0 1
-33.572659 6.722781 14.394677 37.141970 -0.197632 1.172815 0.206209 -0.049889 314877.000000 0 0 1
-32.660739 7.090081 13.363777 35.994217 -0.213766 1.190414 0.216298 -0.040910 366405.000000 0 0 1
-32.972219 8.418781 12.932077 36.404419 -0.249988 1.207632 0.191546 -0.037404 219099.000000 0 0 1
-32.044419 9.089981 11.869077 35.360253 -0.276407 1.228489 0.192107 -0.033997 282404.000000 0 0 1
-32.467129 10.459781 11.815677 36.098915 -0.311666 1.237337 0.156715 -0.029847 256563.000000 0 0 1
-31.745729 11.161381 10.835377 35.352130 -0.338088 1.259284 0.143362 -0.037087 -11313.800000 0 0 1
-32.056059 12.668581 10.793077 36.118892 -0.376362 1.267340 0.114865 -0.027345 -325842.000000 0 0 1
-31.246069 13.315681 9.898177 35.377932 -0.402849 1.287227 0.117338 -0.023211 -425889.000000 0 0 1
-31.394839 14.670581 10.019377 36.072840 -0.437141 1.289341 0.102741 -0.023656 35229.400000 0 0 1
-30.544349 15.515381 9.023377 35.427470 -0.469997 1.313259 0.108317 -0.022123 -25646.500000 0 0 1
-29.168409 15.254581 9.148677 34.164259 -0.481864 1.299703 0.127912 -0.021729 -94867.900000 0 0 1
-28.380529 16.167781 8.397677 33.724954 -0.517826 1.319144 0.119323 -0.030974 -146473.000000 0 0 1
-26.962239 16.349981 8.963877 32.781630 -0.545114 1.293827 0.131841 -0.024649 -406307.000000 0 0 1
-26.774549 16.811181 10.296777 33.249299 -0.560667 1.255936 0.125904 -0.030069 262686.000000 0 0 1
-27.148939 18.162981 10.469577 34.301178 -0.589625 1.260622 0.124790 -0.031986 -215975.000000 0 0 1
-27.009619 18.661981 11.942177 34.934290 -0.604618 1.221915 0.119304 -0.024914 -169936.000000 0 0 1
-25.685499 18.776781 12.416877 34.153934 -0.631247 1.198714 0.103840 -0.018982 199666.000000 0 0 1
-25.511239 19.264981 13.727577 34.790935 -0.646793 1.165193 0.099823 -0.018747 -96874.100000 0 0 1
-25.785029 18.285381 14.894677 34.943873 -0.616839 1.130458 0.091032 -0.018963 -581692.000000 0 0 1
-24.804939 17.352281 15.117577 33.836781 -0.610423 1.107634 0.102508 -0.022310 -190470.000000 0 0 1
-25.308169 16.486281 16.161577 34.256349 -0.577374 1.079484 0.105258 -0.020295 319601.000000 0 0 1
-24.362639 15.324281 16.556777 33.203895 -0.561476 1.048768 0.103671 -0.020993 1108390.000000 0 0 1
-23.208939 15.779581 17.343377 32.991555 -0.597103 1.017269 0.095336 -0.015087 1169360.000000 0 0 1
-22.284239 14.721581 17.551777 31.958991 -0.583810 0.989393 0.085589 -0.019681 23283.700000 0 0 1
-22.661739 13.700881 18.704377 32.421016 -0.543782 0.955842 0.088076 -0.022945 -343407.000000 0 0 1
-22.581639 14.200781 20.048077 33.369417 -0.561373 0.926305 0.086594 -0.021376 274701.000000 0 0 1
-22.763939 13.204481 21.037577 33.691763 -0.525630 0.896416 0.080014 -0.022102 -780484.000000 0 0 1
-22.376239 13.622581 22.464477 34.509759 -0.546863 0.861948 0.073252 -0.006187 -459357.000000 0 0 1
-21.001039 13.684081 22.691977 33.811588 -0.577493 0.835064 0.083119 -0.012478 -367623.000000 0 0 1
-20.370539 14.853081 22.274677 33.641256 -0.630020 0.847147 0.070630 -0.003629 -1055290.000000 0 0 1
-18.879639 15.044081 22.534877 33.024019 -0.672812 0.819785 0.056304 -0.009031 -149500.000000 0 0 1
-17.961639 14.613481 21.557577 31.637057 -0.682975 0.821119 0.048028 -0.010895 -20339.600000 0 0 1
-17.709739 15.514081 20.492777 31.213386 -0.719407 0.854576 0.053371 -0.011295 26622.600000 0 0 1
-16.437239 15.018481 19.663477 29.705048 -0.740325 0.847369 0.049461 -0.000992 2050350.000000 0 0 1
-15.198139 14.769081 20.354677 29.384044 -0.771082 0.805554 0.054375 0.001097 907521.000000 0 0 1
-14.625239 15.862781 21.073977 30.160204 -0.825967 0.797169 0.040608 -0.001976 -1263310.000000 0 0 1
-13.601639 15.358681 22.072977 30.134863 -0.845995 0.748849 0.030120 -0.008443 -516931.000000 0 0 1
-12.483339 14.788081 21.414877 28.863784 -0.869709 0.734854 0.008770 0.004667 -453087.000000 0 0 1
-11.535539 14.370081 22.364577 28.978305 -0.894383 0.689177 0.013730 0.003786 21719.800000 0 0 1
-10.370239 13.649081 21.635777 27.603371 -0.921068 0.670020 0.013857 -0.000820 -1257130.000000 0 0 1
-9.991839 12.484781 22.330577 27.465638 -0.895859 0.621447 0.024781 -0.006772 -539611.000000 0 0 1
-8.863739 11.832281 21.881577 26.407804 -0.927862 0.594189 0.031165 -0.005683 1103730.000000 0 0 1
-7.482539 12.613281 22.254977 26.652715 -1.035372 0.582666 0.025870 -0.001360 806689.000000 0 0 1
-7.211539 13.695681 21.410477 26.419434 -1.086131 0.625951 0.019614 0.003780 -62893.900000 0 0 1
-6.496939 14.774681 22.025377 27.306018 -1.156512 0.632398 0.020559 0.015493 149929.000000 0 0 1
-7.448539 15.763881 22.791377 28.695427 -1.129384 0.653022 0.022820 -0.012354 690894.000000 0 0 1
-8.364739 16.518281 21.994777 28.750524 -1.102048 0.699721 -0.003102 -0.001588 44391.200000 0 0 1
-7.757139 17.536481 21.178877 28.570022 -1.154328 0.735795 0.020489 0.008415 -391032.000000 0 0 1
-8.628539 18.043781 20.005177 28.288457 -1.124740 0.785287 0.022407 0.018714 1115990.000000 0 0 1
-9.840839 18.790381 20.152177 29.258003 -1.088356 0.810999 0.014761 0.009887 677886.000000 0 0 1
-10.952339 18.077381 20.647277 29.547512 -1.026080 0.797103 0.010632 0.003619 -548511.000000 0 0 1
-12.319639 18.728481 20.678677 30.498150 -0.988956 0.825716 0.010606 -0.003448 -319272.000000 0 0 1
-13.107839 18.757981 19.499777 30.065239 -0.960885 0.865076 0.016642 -0.001433 289787.000000 0 0 1
-14.262139 19.557181 19.739277 31.233491 -0.940706 0.886677 0.015640 -0.004139 440169.000000 0 0 1
-15.272839 19.613681 18.557177 31.021362 -0.909189 0.929535 0.025657 -0.000197 -27118.600000 0 0 1
-15.748739 18.330781 18.129077 30.210987 -0.861019 0.927192 0.039037 0.004416 269655.000000 0 0 1
-16.504039 18.415081 16.928077 29.967621 -0.840071 0.970510 0.040705 -0.003846 -781350.000000 0 0 1
-17.144839 17.087381 16.485677 29.286543 -0.783720 0.972894 0.043810 -0.006076 378948.000000 0 0 1
-18.228339 16.570781 17.245877 30.071305 -0.737802 0.960025 0.052693 -0.010007 1336670.000000 0 0 1
-19.465439 17.346781 17.187877 31.228788 -0.727908 0.987970 0.062648 -0.014729 715351.000000 0 0 1
35.059139 -9.552919 11.633880 38.154274 -0.266022 1.260945 0.059099 -0.015520 -280026.000000 0 0 1
33.684319 -9.836819 11.553280 36.944209 -0.284129 1.252739 0.065838 -0.017324 -126595.000000 0 0 1
33.412029 -11.008019 12.342580 37.281087 -0.318263 1.233361 0.042532 -0.009387 711021.000000 0 0 1
31.924699 -11.526419 12.299880 36.101686 -0.346485 1.223134 0.068723 -0.005460 1207780.000000 0 0 1
30.991539 -10.549819 12.837380 35.164932 -0.328106 1.197097 0.078929 -0.012721 1146200.000000 0 0 1
29.607669 -10.891919 12.768380 34.033505 -0.352509 1.186215 0.086914 -0.018062 819940.000000 0 0 1
29.100109 -11.797419 13.962180 34.364777 -0.385160 1.152403 0.076779 -0.007290 -621353.000000 0 0 1
29.100069 -11.079119 15.199580 34.649504 -0.363780 1.116682 0.093337 -0.016427 -35909.900000 0 0 1
28.535739 -11.804319 16.284680 34.911619 -0.392233 1.085518 0.099602 -0.021530 897903.000000 0 0 1
26.957339 -11.849319 16.388980 33.700195 -0.414137 1.062926 0.103530 -0.036820 1253870.000000 0 0 1
26.289239 -10.618019 16.611080 32.860225 -0.383857 1.040827 0.103275 -0.042355 -31636.700000 0 0 1
26.102839 -9.847319 15.470580 31.900889 -0.360743 1.064482 0.116564 -0.037471 -269208.000000 0 0 1
25.648439 -8.426919 15.719580 31.240367 -0.317444 1.043520 0.158647 -0.035691 598392.000000 0 0 1
26.751839 -7.604019 16.101380 32.136216 -0.276939 1.046002 0.136413 -0.027118 393195.000000 0 0 1
26.327739 -6.240919 16.150480 31.510901 -0.232751 1.032660 0.135045 -0.022768 361317.000000 0 0 1
27.481539 -5.236419 15.878380 32.167965 -0.188286 1.054562 0.142813 -0.021433 265899.000000 0 0 1
27.962539 -5.282019 14.539680 31.956307 -0.186696 1.098440 0.158286 -0.028479 212485.000000 0 0 1
28.816709 -4.170119 14.290980 32.434930 -0.143714 1.114524 0.135407 -0.020251 106047.000000 0 0 1
29.018689 -3.657619 12.844480 31.944375 -0.125382 1.156999 0.139962 -0.031668 360219.000000 0 0 1
29.889619 -4.480319 12.052380 32.538015 -0.148788 1.191347 0.122294 -0.040882 544590.000000 0 0 1
29.907029 -4.073719 10.698280 32.023097 -0.135380 1.230167 0.132692 -0.048941 -77348.800000 0 0 1
30.650229 -4.955719 9.655180 32.514891 -0.160299 1.269303 0.145102 -0.041755 1048900.000000 0 0 1
32.081969 -5.004419 9.858280 33.933503 -0.154741 1.276029 0.139014 -0.045664 1237980.000000 0 0 1
32.620049 -5.909519 8.907480 34.326858 -0.179218 1.308302 0.129936 -0.046680 -1128830.000000 0 0 1
33.985439 -6.462219 9.197580 35.796170 -0.187904 1.310939 0.113739 -0.034773 -641321.000000 0 0 1
34.990289 -5.447419 9.184380 36.583432 -0.154444 1.317028 0.124479 -0.040023 390122.000000 0 0 1
36.284149 -6.043219 9.113080 37.896018 -0.165038 1.327940 0.121081 -0.029237 620721.000000 0 0 1
-36.335569 -5.059919 8.788680 37.724226 0.138365 1.335664 0.106178 -0.029539 83776.000000 0 0 1
-36.229659 -4.749419 7.392080 37.279861 0.130349 1.371187 0.128912 -0.028754 64965.000000 0 0 1
-35.253769 -3.759419 7.120080 36.161540 0.106237 1.372605 0.096649 -0.023259 -65479.500000 0 0 1
-35.446715 -3.176319 5.750980 36.050414 0.089370 1.410586 0.120145 -0.031165 -250294.000000 0 0 1
-34.901774 -3.948819 4.741280 35.443007 0.112662 1.436622 0.123613 -0.037114 161226.000000 0 0 1
-35.129319 -3.274519 3.487380 35.453538 0.092945 1.472272 0.125229 -0.032868 201638.000000 0 0 1
-34.420271 -3.979719 2.278480 34.724411 0.115110 1.505133 0.152341 -0.037384 71519.200000 0 0 1
-35.025934 -5.183819 1.826180 35.454519 0.146933 1.519266 0.147562 -0.028672 413771.000000 0 0 1
-36.069527 -4.963519 0.871980 36.419880 0.136751 1.546852 0.131563 -0.024272 160363.000000 0 0 1
-35.514644 -5.046419 -0.553720 35.875659 0.141149 1.586231 0.145862 -0.034724 -1103410.000000 0 0 1
-35.109325 -6.369319 -0.775920 35.690825 0.179462 1.592538 0.134060 -0.042602 -52245.500000 0 0 1
-34.251850 -6.507119 -1.879520 34.915103 0.187741 1.624654 0.128864 -0.042967 736253.000000 0 0 1
-32.787929 -5.970619 -1.629220 33.366914 0.180124 1.619643 0.129790 -0.043970 2719.080000 0 0 1
-31.998209 -6.908519 -0.877820 32.747268 0.212639 1.597605 0.138647 -0.039307 -480029.000000 0 0 1
-30.859689 -6.191219 -0.470420 31.478134 0.197996 1.585741 0.147852 -0.047105 -382456.000000 0 0 1
-30.027119 -7.014019 0.541880 30.840201 0.229475 1.553225 0.133600 -0.044363 -391253.000000 0 0 1
-29.450179 -8.095019 -0.165220 30.542915 0.268247 1.576206 0.125484 -0.033644 344949.000000 0 0 1
-29.302059 -9.185719 0.704380 30.716189 0.303781 1.547862 0.127184 -0.026012 -273425.000000 0 0 1
-28.881949 -10.536819 0.105680 30.744149 0.349819 1.567359 0.109954 -0.030200 415167.000000 0 0 1
-27.591199 -10.627419 -0.511620 29.571575 0.367661 1.588098 0.120971 -0.033246 743876.000000 0 0 1
-27.116089 -11.933319 -0.798820 29.636540 0.414576 1.597753 0.107640 -0.027834 -3659.430000 0 0 1
-27.843769 -12.832019 -1.865820 30.715102 0.431847 1.631580 0.107202 -0.028510 -300406.000000 0 0 1
-29.040299 -13.386419 -1.388220 32.007223 0.431931 1.614182 0.113416 -0.035202 226741.000000 0 0 1
-29.628489 -14.305319 -2.310120 32.982210 0.449812 1.640895 0.115621 -0.034675 -536842.000000 0 0 1
-30.720709 -15.162119 -1.735820 34.302549 0.458472 1.621421 0.118394 -0.028925 -607592.000000 0 0 1
-30.207839 -16.310119 -1.103520 34.347508 0.495079 1.602930 0.083885 -0.020860 905921.000000 0 0 1
-31.198679 -17.017519 -0.300920 35.539332 0.499348 1.579264 0.092729 -0.011751 465065.000000 0 0 1
-31.248579 -18.545419 -0.594220 36.342253 0.535612 1.587148 0.093289 -0.009044 503641.000000 0 0 1
-30.136959 -19.309519 -0.050120 35.792406 0.569828 1.572197 0.109746 -0.022702 1026810.000000 0 0 1
-30.275049 -20.736119 -0.062020 36.695628 0.600536 1.572486 0.103433 -0.026442 -112622.000000 0 0 1
-31.289779 -21.354019 0.905780 37.892807 0.598857 1.546890 0.097605 -0.023138 36680.900000 0 0 1
-30.687669 -21.454619 2.210780 37.508949 0.610141 1.511822 0.090765 -0.018184 433395.000000 0 0 1
-31.647249 -21.759219 3.179680 38.537285 0.602325 1.488193 0.081581 -0.012706 -338120.000000 0 0 1
-30.949759 -22.072819 4.475380 38.276964 0.619518 1.453607 0.058539 -0.003410 -175314.000000 0 0 1
-30.161929 -20.985419 4.878380 37.066540 0.607874 1.438802 0.049966 -0.003079 -118282.000000 0 0 1
-29.521959 -21.171719 6.101580 36.837712 0.622145 1.404395 0.042412 -0.003074 83249.900000 0 0 1
-28.730799 -19.945919 6.629880 35.598509 0.606846 1.383462 0.046435 -0.001183 316225.000000 0 0 1
-27.951319 -20.176819 7.797380 35.343732 0.625244 1.348351 0.044584 -0.006178 -126151.000000 0 0 1
-27.569359 -18.924619 8.304280 34.455360 0.601565 1.327384 0.042901 -0.002157 185106.000000 0 0 1
-26.551059 -18.960519 9.487080 33.977415 0.620137 1.287818 0.051336 0.005778 262548.000000 0 0 1
-27.112329 -19.525119 10.685280 35.078254 0.624126 1.261265 0.044964 -0.003431 541511.000000 0 0 1
-26.199609 -19.731719 11.798080 34.856204 0.645501 1.225497 0.054919 0.001626 249339.000000 0 0 1
-25.794449 -18.499719 12.628080 34.162284 0.622175 1.192164 0.046565 0.000113 47180.200000 0 0 1
-24.803139 -17.640619 12.056580 32.737567 0.618220 1.193638 0.050391 0.004588 334234.000000 0 0 1
-24.497339 -16.446319 12.789880 32.158701 0.591239 1.161775 0.056654 0.011328 399529.000000 0 0 1
-23.667139 -16.572519 14.116580 32.156799 0.610883 1.116320 0.059511 -0.001543 -19154.700000 0 0 1
-24.356239 -17.233619 15.165180 33.469489 0.615785 1.100551 0.064891 -0.007309 -392528.000000 0 0 1
-23.537439 -17.590519 16.218780 33.563168 0.641798 1.066454 0.072979 -0.007033 -508112.000000 0 0 1
-24.321639 -18.193419 17.427180 35.017842 0.642242 1.049891 0.081672 0.003100 406526.000000 0 0 1
-25.288839 -17.357319 18.022680 35.575538 0.601515 1.039556 0.082947 0.008314 249580.000000 0 0 1
-26.107589 -18.006219 18.996880 36.969062 0.603775 1.031119 0.068243 0.014086 -113178.000000 0 0 1
-27.030419 -16.997119 19.675080 37.505391 0.561338 1.018559 0.075837 0.011368 -218445.000000 0 0 1
-26.481089 -16.366819 20.850780 37.468332 0.553591 0.980640 0.079236 0.006399 287875.000000 0 0 1
-27.330919 -15.312619 21.298680 37.882571 0.510692 0.973718 0.086670 -0.004858 74070.500000 0 0 1
-26.704699 -14.534919 22.455880 37.797769 0.498444 0.934643 0.090073 -0.011291 1264440.000000 0 0 1
-25.493629 -13.864019 21.952180 36.387283 0.498088 0.923173 0.101641 -0.013658 1345920.000000 0 0 1
-24.792239 -13.208719 23.002380 36.307504 0.489524 0.884672 0.086054 -0.016095 774212.000000 0 0 1
-23.480239 -12.447719 22.568180 34.865313 0.487465 0.866765 0.080564 -0.009970 502596.000000 0 0 1
-23.730239 -11.368319 21.754780 34.141373 0.446760 0.879941 0.106272 -0.012707 -84652.800000 0 0 1
-22.618739 -10.945919 21.019780 32.760520 0.450710 0.874189 0.098219 -0.017259 -480293.000000 0 0 1
-22.020439 -9.634019 21.605280 32.318759 0.412413 0.838598 0.100307 -0.015717 -3198.370000 0 0 1
-21.516739 -9.693619 22.930180 32.904855 0.423282 0.799782 0.094700 -0.022264 -11666.300000 0 0 1
-20.128839 -9.889419 22.998580 32.123285 0.456668 0.772816 0.067295 -0.011564 -421650.000000 0 0 1
-19.625539 -10.152219 24.442480 32.949418 0.477389 0.735019 0.051183 -0.011839 26665.800000 0 0 1
-19.996039 -11.321419 25.119780 34.044375 0.515183 0.740911 0.051341 -0.012542 28481.600000 0 0 1
-19.183239 -11.349119 26.265080 34.447839 0.534232 0.703691 0.052741 -0.011472 -836805.000000 0 0 1
-19.538039 -12.600419 27.136480 35.733655 0.572794 0.708391 0.049582 -0.030612 531065.000000 0 0 1
-20.724639 -12.624319 27.937480 37.005228 0.547117 0.715203 0.052440 -0.017192 252620.000000 0 0 1
-21.861239 -12.824519 27.076580 37.088047 0.530533 0.752383 0.046431 -0.016490 -115980.000000 0 0 1
-23.117139 -13.144919 27.925780 38.562160 0.517028 0.760958 0.044296 -0.014335 -225145.000000 0 0 1
-23.170039 -14.358919 28.716680 39.593901 0.554793 0.759355 0.036188 -0.008816 -240181.000000 0 0 1
-22.177739 -14.468519 29.733580 39.815524 0.578053 0.727584 0.031405 -0.007569 127661.000000 0 0 1
-22.564139 -15.567719 30.769480 41.209891 0.603937 0.727780 0.022995 -0.008156 -387350.000000 0 0 1
-22.315639 -16.931619 30.353780 41.303988 0.649067 0.745296 0.033793 -0.004737 -40890.300000 0 0 1
-22.640039 -17.881419 31.395080 42.637631 0.668499 0.743176 0.034787 -0.009632 -759614.000000 0 0 1
-24.073639 -18.165819 31.840180 43.855834 0.646435 0.758281 0.046757 -0.007508 -751020.000000 0 0 1
-24.597539 -17.069919 32.555680 44.230005 0.606667 0.743574 0.047672 -0.008930 69201.600000 0 0 1
-25.783569 -17.525019 33.209480 45.549844 0.596970 0.753820 0.057569 -0.017255 -26238.200000 0 0 1
-26.557679 -16.421919 33.978680 46.146944 0.553802 0.743188 0.061461 -0.015990 -151920.000000 0 0 1
-26.006769 -15.926119 -32.871017 44.838567 0.549475 2.393661 0.076619 -0.016976 -133951.000000 0 0 1
-26.793339 -14.902519 -32.259317 44.504288 0.507593 2.381625 0.085275 -0.021023 -6041.950000 0 0 1
-26.227039 -14.385019 -30.920517 43.021677 0.501676 2.372755 0.078870 -0.013136 -215233.000000 0 0 1
-26.286569 -15.346419 -29.914217 42.677356 0.528432 2.347509 0.096661 -0.009993 89874.200000 0 0 1
-25.705379 -14.935619 -28.720617 41.336583 0.526355 2.338937 0.109833 -0.011538 -311777.000000 0 0 1
-26.207099 -15.902519 -27.562417 41.223646 0.545406 2.303130 0.090160 -0.014739 -85562.500000 0 0 1
-27.515679 -15.779219 -27.052517 41.688548 0.520678 2.276960 0.094504 -0.026356 135893.000000 0 0 1
-27.800569 -14.539319 -26.354917 40.973712 0.481867 2.269486 0.084881 -0.019926 -536242.000000 0 0 1
-27.210609 -14.318119 -24.920717 39.578630 0.484384 2.251900 0.072370 -0.017874 -880331.000000 0 0 1
-25.870499 -13.969719 -25.093817 38.654048 0.495123 2.277315 0.063463 -0.015078 -305752.000000 0 0 1
-25.073339 -14.076219 -23.927517 37.407731 0.511555 2.264827 0.044076 -0.012495 -99610.700000 0 0 1
-24.447139 -15.433819 -23.587817 37.312873 0.563127 2.255138 0.043165 -0.011466 -1056070.000000 0 0 1
-23.528739 -15.676719 -24.588617 37.469470 0.587735 2.286609 0.057628 -0.005640 -524795.000000 0 0 1
-23.047439 -16.994819 -24.567617 37.730308 0.635378 2.279879 0.066352 -0.013383 -494673.000000 0 0 1
-22.122539 -17.268219 -25.756117 38.091675 0.662781 2.313336 0.053956 -0.011929 -658412.000000 0 0 1
-22.601039 -17.243219 -27.071717 39.255744 0.651731 2.331767 0.059986 -0.015925 -259575.000000 0 0 1
-23.336939 -18.421419 -27.319017 40.376851 0.668224 2.313933 0.070071 -0.018942 -470073.000000 0 0 1
-24.086839 -18.393919 -28.651917 41.706647 0.652180 2.328131 0.071068 -0.015943 -255850.000000 0 0 1
-23.313739 -18.681519 -29.803717 42.199421 0.675539 2.354996 0.070399 -0.010620 564968.000000 0 0 1
-24.128539 -18.280619 -30.884517 43.246050 0.648369 2.366217 0.054296 -0.008782 -239578.000000 0 0 1
-23.475839 -18.562519 -32.257417 44.002535 0.669049 2.393637 0.050438 -0.010845 -263057.000000 0 0 1
-22.205139 -18.018919 -32.555717 43.331563 0.681699 2.420851 0.042874 -0.008208 741693.000000 0 0 1
-21.095239 -18.822819 -32.097017 42.772960 0.728532 2.419470 0.046895 -0.017287 282884.000000 0 0 1
-20.643439 -19.997619 -32.998117 43.759937 0.769509 2.425035 0.056504 -0.019720 -529317.000000 0 0 1
-19.944939 -19.678819 33.860080 43.949534 0.778682 0.691280 0.051018 -0.020721 26584.400000 0 0 1
-19.794639 -20.775019 32.943580 43.688770 0.809559 0.716588 0.056143 -0.019671 -586907.000000 0 0 1
-21.035839 -21.177019 32.156380 43.874884 0.788743 0.748206 0.058914 -0.012416 16821.900000 0 0 1
-21.956539 -21.932019 32.976780 45.283232 0.784839 0.755055 0.050892 -0.011951 889651.000000 0 0 1
-23.149439 -22.418919 32.330080 45.647985 0.769368 0.783783 0.046063 -0.000625 697549.000000 0 0 1
-22.948339 -23.607819 31.326480 45.445613 0.799562 0.810249 0.063991 -0.000321 -558620.000000 0 0 1
-22.431939 -24.734319 31.973380 46.230677 0.834174 0.807087 0.063255 0.004135 -59451.500000 0 0 1
-22.516639 -25.903329 31.161580 46.357584 0.855229 0.833620 0.072385 0.004067 92013.100000 0 0 1
-21.845539 -27.165009 31.785780 47.175217 0.893512 0.831482 0.082227 -0.005821 -192404.000000 0 0 1
-22.617639 -27.623639 32.816080 48.492454 0.884710 0.827490 0.071538 -0.003520 -258221.000000 0 0 1
-22.041339 -28.767949 33.375280 49.267888 0.917022 0.826540 0.078831 -0.012132 -916864.000000 0 0 1
-23.101139 -29.496899 -33.841217 50.487203 0.906401 2.305400 0.064932 -0.005587 -613990.000000 0 0 1
-24.101539 -30.170449 33.455280 51.092034 0.896760 0.856873 0.055357 -0.012370 483196.000000 0 0 1
-25.153339 -29.327539 32.981380 50.799276 0.861866 0.864200 0.049726 -0.006194 -223890.000000 0 0 1
-26.277199 -29.060309 -34.011717 51.882460 0.835649 2.285711 0.039480 -0.006201 -345086.000000 0 0 1
-27.450899 -28.424979 33.579980 51.856980 0.802829 0.866432 0.032476 -0.003417 -262219.000000 0 0 1
-28.294949 -28.154469 -33.407917 52.051582 0.782910 2.267670 0.027774 0.009565 -338672.000000 0 0 1
-29.365809 -27.074719 -33.712017 52.267497 0.744827 2.271807 0.021701 0.000876 -220000.000000 0 0 1
-30.249739 -27.495689 33.338880 52.749792 0.737741 0.886640 0.036156 -0.007869 -599954.000000 0 0 1
-31.245109 -26.529669 33.169980 52.728813 0.703961 0.890443 0.036930 -0.009649 -368384.000000 0 0 1
