# x y z rho theta phi s1 s2 stress_xx np intf bulk
-0.763162 -10.810719 -14.315799 17.955394 1.500320 2.493602 -0.000920 0.000917 -415245.000000 1 0 0
2.153338 -13.386919 -13.065899 18.829875 -1.411309 2.337676 -0.004500 0.011875 477549.000000 1 0 0
2.077638 -11.063519 -14.721599 18.532229 -1.385167 2.488780 -0.004932 0.007064 -465312.000000 1 0 0
-5.586162 -6.251019 -16.472299 18.482886 0.841506 2.670822 0.016614 -0.005939 -401189.000000 1 0 0
4.528138 -14.184319 -11.567599 18.854927 -1.261787 2.231288 -0.000418 0.006280 816031.000000 1 0 0
14.003938 -10.603919 -7.985399 19.295594 -0.648099 1.997471 0.045739 -0.021124 -263507.000000 1 0 0
7.153338 10.797981 -10.926299 16.945520 0.985705 2.271545 0.038743 -0.011666 -915025.000000 1 0 0
5.738438 -4.264619 -12.585999 14.474945 -0.639114 2.624990 -0.001372 -0.000459 1566170.000000 1 0 0
13.626638 0.553581 -10.011799 16.918269 0.040603 2.204055 0.019258 -0.004844 1263940.000000 1 0 0
14.146938 5.005981 -10.362999 18.236980 0.340106 2.175163 0.011249 -0.005666 -444703.000000 1 0 0
4.007938 4.396381 -13.368599 14.632538 0.831585 2.722900 0.011735 -0.002980 1364410.000000 1 0 0
10.170738 -4.978719 -13.723999 17.792687 -0.455224 2.451722 0.014985 -0.000466 -1436560.000000 1 0 0
2.553338 -7.628619 -12.025199 14.467922 -1.247812 2.551992 -0.003340 0.001556 2116830.000000 1 0 0
-5.590462 -2.077619 -15.129399 16.262487 0.355818 2.766095 0.006839 -0.005165 -573523.000000 1 0 0
10.679938 0.033081 -9.628399 14.379438 0.003098 2.304460 0.010968 -0.003217 719628.000000 1 0 0
-1.671062 -9.521519 -16.914199 19.481835 1.397062 2.622367 0.009218 -0.008533 1847850.000000 1 0 0
8.608338 1.520781 -17.804899 19.835088 0.174860 2.685197 0.029578 -0.010094 -766383.000000 1 0 0
16.383538 -5.889719 -8.905099 19.555303 -0.345104 2.043596 0.068702 -0.019028 702964.000000 1 0 0
10.210638 7.519981 -9.925899 16.103749 0.634795 2.234923 0.019982 -0.006280 1727290.000000 1 0 0
13.629738 -2.291219 -10.624299 17.432589 -0.166547 2.226164 0.030310 -0.008711 -1487370.000000 1 0 0
7.219438 -1.936719 -13.641899 15.555468 -0.262094 2.640346 0.007055 -0.005397 1269660.000000 1 0 0
-2.863462 6.667381 -13.841599 15.628284 -1.165143 2.658745 0.007952 -0.004085 1569810.000000 1 0 0
11.239138 1.767381 -13.958599 18.007897 0.155975 2.457729 0.017974 -0.005187 579941.000000 1 0 0
-2.302962 10.763581 -12.949099 16.995220 -1.360016 2.437078 0.011443 -0.001390 -1371900.000000 1 0 0
2.823538 -1.112619 -15.108599 15.410388 -0.375368 2.943362 0.009164 -0.005803 1017240.000000 1 0 0
-9.059262 0.423781 -15.183999 17.686256 -0.046745 2.603172 0.012406 -0.003555 -1232200.000000 1 0 0
2.437338 -1.734819 -17.940499 18.188231 -0.618580 2.976357 0.021276 -0.014903 929801.000000 1 0 0
1.066438 7.881481 -13.152799 15.370464 1.436304 2.597735 0.007435 -0.003730 166330.000000 1 0 0
9.316438 -9.009919 -9.941399 16.334199 -0.768674 2.225123 0.011713 -0.001800 -37816.900000 1 0 0
3.920038 7.366481 -13.566199 15.927131 1.081764 2.590144 0.009292 -0.001989 1743020.000000 1 0 0
-2.709562 9.136681 -15.542599 18.231650 -1.282500 2.591558 0.008015 0.001584 -971006.000000 1 0 0
5.548038 -7.599319 -15.375899 18.026332 -0.940173 2.592443 0.016698 -0.004134 749416.000000 1 0 0
4.218438 7.188181 -16.383699 18.381805 1.040097 2.671000 0.014017 -0.000629 340872.000000 1 0 0
-0.243262 5.107781 -13.492399 14.428910 -1.523206 2.779323 0.010158 -0.006398 2962820.000000 1 0 0
8.776238 4.143981 -16.552399 19.187935 0.441147 2.611275 0.024189 -0.005897 -624990.000000 1 0 0
5.306838 0.278681 -14.295099 15.250903 0.052465 2.785678 0.000880 0.000050 737791.000000 1 0 0
6.360738 7.936881 -11.676899 15.485575 0.895193 2.425003 0.017728 -0.004059 -900074.000000 1 0 0
2.763738 -8.221019 -15.137599 17.446212 -1.246486 2.621298 0.007040 -0.004754 -779042.000000 1 0 0
3.863738 11.438181 -13.770799 18.313803 1.245037 2.421790 0.037616 -0.018125 -1511220.000000 1 0 0
0.594538 -4.625619 -13.777099 14.545044 -1.442966 2.815191 0.007431 -0.005009 1374140.000000 1 0 0
8.572838 -0.115119 -11.703799 14.508126 -0.013428 2.509354 0.001122 -0.001627 727844.000000 1 0 0
-0.951862 -5.142119 -16.264699 17.084726 1.387757 2.830509 0.004158 -0.008440 1733550.000000 1 0 0
4.494438 0.899181 -11.669999 12.537838 0.197458 2.767344 -0.000277 -0.001692 725206.000000 1 0 0
-2.950962 -7.216219 -15.571399 17.414088 1.182611 2.677402 0.004134 -0.007549 1333220.000000 1 0 0
11.185538 -3.811819 -11.323599 16.366738 -0.328438 2.334867 0.015518 -0.003671 980360.000000 1 0 0
6.371538 -7.091019 -12.566899 15.773586 -0.838790 2.492620 0.007261 0.003621 -1230040.000000 1 0 0
3.363838 -4.047419 -14.596599 15.516369 -0.877373 2.795551 0.009892 -0.007299 3480610.000000 1 0 0
-0.516762 -1.415319 -18.207599 18.269834 1.220715 3.059029 0.017089 -0.011919 1804700.000000 1 0 0
14.978638 2.819081 -8.560699 17.481201 0.186031 2.082552 0.021263 -0.002584 -1612890.000000 1 0 0
6.867838 4.279781 -14.262599 16.398337 0.557277 2.625510 0.009725 -0.001803 3073050.000000 1 0 0
10.078838 -9.632719 -14.045699 19.790248 -0.762770 2.359909 0.042181 -0.007434 -799447.000000 1 0 0
8.993938 -3.271419 -15.718199 18.402578 -0.348859 2.594673 0.028441 -0.009345 -257182.000000 1 0 0
-5.227062 -2.086619 -18.083299 18.938898 0.379812 2.839861 0.001899 0.005302 -442419.000000 1 0 0
4.978738 -9.238519 -11.234799 15.373964 -1.076507 2.390243 -0.009536 0.006072 1679350.000000 1 0 0
-2.442762 4.002081 -17.062299 17.694796 -1.022785 2.873414 0.016599 0.001100 1406830.000000 1 0 0
9.602338 9.239681 -14.486099 19.683081 0.766153 2.397890 0.057264 -0.013512 59270.700000 1 0 0
9.857438 9.950581 -11.683099 18.239462 0.790100 2.265997 0.030516 -0.010064 -239915.000000 1 0 0
11.990938 -5.923419 -9.665599 16.501312 -0.458829 2.196598 0.025193 -0.008530 -443017.000000 1 0 0
8.169438 6.886881 -13.779299 17.436684 0.700419 2.482009 0.023141 -0.001815 -317952.000000 1 0 0
4.080238 -4.114019 -17.535799 18.468290 -0.789521 2.822462 0.032404 -0.018882 1018010.000000 1 0 0
9.244138 -7.459719 -12.421399 17.186991 -0.678975 2.378528 0.018266 -0.001161 -1293920.000000 1 0 0
11.961938 -8.724219 -8.826999 17.237049 -0.630142 2.108418 0.031222 -0.013703 -364405.000000 1 0 0
-2.948462 -2.535119 -13.842799 14.378573 0.710162 2.867747 0.006782 -0.008958 -109186.000000 1 0 0
-0.458862 6.119181 -17.544399 18.586578 -1.495949 2.805130 0.016731 -0.001482 1528200.000000 1 0 0
1.044738 -8.378719 -17.519499 19.448066 -1.446747 2.692485 0.008668 -0.009446 2463550.000000 1 0 0
0.048438 8.548281 -15.938599 18.086304 1.565130 2.649302 0.010084 0.001674 -1583230.000000 1 0 0
1.735638 3.341881 -14.899199 15.367718 1.091781 2.894031 0.011964 -0.002011 2679860.000000 1 0 0
-1.971062 -0.437019 -15.706899 15.836122 0.218188 3.013756 0.013513 -0.007972 1717010.000000 1 0 0
14.088138 -4.256419 -8.417999 16.954511 -0.293408 2.090364 0.036609 -0.012693 -429136.000000 1 0 0
0.526938 0.602281 -14.463099 14.485222 0.852021 3.086318 0.009282 -0.002296 980050.000000 1 0 0
8.853238 2.736381 -12.545299 15.596542 0.299768 2.505401 0.008583 -0.000972 988473.000000 1 0 0
5.903438 1.051781 -17.070299 18.092870 0.176314 2.803781 0.022867 -0.002443 -1258070.000000 1 0 0
15.312238 1.588181 -12.364199 19.744882 0.103350 2.247463 0.034593 -0.011387 -911134.000000 1 0 0
8.751338 -11.219919 -11.972899 18.596312 -0.908381 2.270292 0.023820 -0.001365 -313968.000000 1 0 0
-4.668562 0.800581 -15.016999 15.746323 -0.169832 2.836047 0.010001 -0.005216 1645810.000000 1 0 0
2.369438 5.071481 -17.263799 18.148634 1.133725 2.828044 0.015057 0.000755 2468240.000000 1 0 0
5.952438 -11.778619 -12.502899 18.179380 -1.102870 2.329184 0.003699 0.007252 879406.000000 1 0 0
12.894438 7.186281 -8.672299 17.120687 0.508443 2.101963 0.013154 -0.004672 -19746.500000 1 0 0
-5.028062 3.599181 -15.613099 16.792986 -0.621264 2.764501 0.009634 -0.002375 959093.000000 1 0 0
-0.624062 -4.221919 -19.029299 19.502007 1.424044 2.920969 0.011315 -0.015074 -1429320.000000 1 0 0
9.803438 4.418381 -10.223099 14.837158 0.423434 2.330932 0.006866 -0.002677 685143.000000 1 0 0
13.341938 3.683781 -12.917999 18.932835 0.269394 2.321710 0.024903 -0.007983 646802.000000 1 0 0
-6.144662 5.959081 -17.035599 19.065130 -0.770067 2.675982 0.012686 0.001464 -236728.000000 1 0 0
-10.076662 3.225681 -15.431899 18.710630 -0.309806 2.540585 0.018733 -0.002626 -1379860.000000 1 0 0
10.803338 13.465181 -8.364899 19.183189 0.894644 2.022005 0.053367 -0.015298 619219.000000 1 0 0
7.438238 13.347081 -12.345499 19.643913 1.062371 2.250374 0.052811 -0.020608 1036040.000000 1 0 0
5.350238 15.161881 -11.285899 19.643808 1.231563 2.182823 0.026902 -0.016327 403162.000000 1 0 0
14.408938 9.505481 -9.841499 19.870248 0.583159 2.088963 0.066258 -0.010226 -1830690.000000 1 0 0
8.294438 -17.249719 -2.212199 19.267701 -1.122590 1.685864 0.020366 -0.000703 30968.600000 1 0 0
0.902738 -15.933519 0.013001 15.959077 -1.514200 1.569982 0.008813 -0.007931 2173360.000000 1 0 0
-9.086462 -11.646819 7.538701 16.584456 0.908266 1.098913 0.029182 -0.016778 -752146.000000 1 0 0
2.078838 -15.897219 -2.649499 16.250015 -1.440767 1.734573 0.012115 -0.006782 1562650.000000 1 0 0
-1.297562 -11.039719 -9.444199 14.586019 1.453797 2.275073 -0.002514 0.001773 2064580.000000 1 0 0
-4.633762 -12.664619 -13.083499 18.789419 1.220043 2.341057 0.020304 -0.002216 -2005340.000000 1 0 0
-8.117562 -17.887319 -1.794799 19.724916 1.144773 1.661914 0.026368 -0.016410 959840.000000 1 0 0
-11.423962 -7.053919 -8.898299 16.107278 0.553164 2.156085 0.015064 -0.006103 2571720.000000 1 0 0
-13.478462 -11.525219 -4.633799 18.329531 0.707438 1.826375 0.010687 0.000331 -924587.000000 1 0 0
-5.639262 -13.309719 9.754701 17.438580 1.170031 0.977165 0.015875 -0.020071 126191.000000 1 0 0
0.068038 -14.001019 -3.611899 14.459563 -1.565937 1.823263 0.007215 -0.002848 -489999.000000 1 0 0
-14.813362 -11.536719 2.050201 18.887427 0.661683 1.462034 0.014579 -0.003614 57907.100000 1 0 0
-3.849262 -16.557819 -7.479799 18.572172 1.342380 1.985307 0.009299 -0.010544 -758565.000000 1 0 0
0.544338 -15.301019 -9.209099 17.866869 -1.535236 2.112304 0.001693 -0.000269 1083820.000000 1 0 0
4.568238 -14.222119 -2.699499 15.179748 -1.259999 1.749583 0.006640 -0.001225 426667.000000 1 0 0
-3.462862 -18.041719 -2.381399 18.524743 1.381166 1.699705 0.011552 -0.013282 1726910.000000 1 0 0
-0.830762 -13.467219 0.678101 13.509847 1.509187 1.520582 0.010400 -0.003635 2731800.000000 1 0 0
-8.393462 -11.467319 -10.556299 17.702685 0.938950 2.209694 0.023338 -0.006772 1886160.000000 1 0 0
-3.657462 -14.066519 -0.450399 14.541212 1.316417 1.601775 0.003855 -0.000699 5040500.000000 1 0 0
-1.491162 -14.931119 -7.286699 16.681063 1.471257 2.022862 0.001275 -0.001230 752176.000000 1 0 0
-14.107762 -7.999519 -1.818099 16.319520 0.515824 1.682435 0.001087 -0.004435 2146800.000000 1 0 0
-10.779362 -7.301519 -11.665899 17.481420 0.595370 2.301416 0.021609 -0.008949 338331.000000 1 0 0
-9.392262 -14.587719 6.857601 18.655906 0.998759 1.194387 0.018808 -0.008734 -573071.000000 1 0 0
-2.391062 -14.400619 -12.389899 19.146922 1.406259 2.274566 0.017944 -0.000565 609453.000000 1 0 0
2.397438 -17.765419 -4.884999 18.580125 -1.436657 1.836839 0.024594 -0.011635 -873466.000000 1 0 0
-6.576762 -9.709519 -9.319299 14.979249 0.975433 2.242279 0.010171 -0.007144 -76389.500000 1 0 0
-10.909662 -15.483619 0.256701 18.942784 0.956994 1.557245 0.016944 -0.006561 21083.400000 1 0 0
-12.637062 -10.992819 4.059201 17.234109 0.715927 1.333029 0.025389 -0.005838 2174540.000000 1 0 0
-16.999162 -8.869219 -1.539299 19.235488 0.480891 1.650906 0.004943 -0.007681 -1608240.000000 1 0 0
-1.342162 -19.186719 -3.920699 19.629148 1.500957 1.771888 0.019689 -0.009940 -1443190.000000 1 0 0
3.332538 -14.356019 -8.803599 17.166958 -1.342701 2.109265 0.004150 0.000389 1850980.000000 1 0 0
-4.325662 -8.049919 -12.995899 15.887289 1.077713 2.528732 0.006175 -0.004621 1337730.000000 1 0 0
5.646938 -16.721119 1.278501 17.695149 -1.245109 1.498482 0.020404 -0.000287 4645550.000000 1 0 0
-2.800062 -13.813819 -3.203099 14.454127 1.370806 1.794256 0.002869 -0.000955 -1864670.000000 1 0 0
-0.386262 -14.008619 3.675301 14.487872 1.543230 1.314312 0.009290 -0.003239 -3134540.000000 1 0 0
1.263238 -16.232119 6.936301 17.697167 -1.493130 1.168052 0.019893 -0.009948 617768.000000 1 0 0
-5.591362 -10.296919 -14.457899 18.609694 1.073333 2.460526 0.023033 -0.015720 -263982.000000 1 0 0
-0.262362 -17.306219 -5.927699 18.295127 1.555637 1.900755 0.019368 -0.009301 -46753.600000 1 0 0
-6.464462 -13.373719 -1.419399 14.921807 1.120541 1.666063 0.006448 -0.003114 2829390.000000 1 0 0
-1.648562 -17.582319 -0.157799 17.660141 1.477307 1.579732 0.010623 -0.010214 2588640.000000 1 0 0
-9.411662 -9.797119 -4.944499 14.457213 0.805462 1.919851 0.016202 -0.002345 2906960.000000 1 0 0
-0.822762 -16.657519 4.867101 17.373501 1.521444 1.286851 0.019912 -0.009036 1433300.000000 1 0 0
-6.728862 -9.897819 -6.412699 13.578185 0.973734 2.062671 0.012430 -0.005060 1897150.000000 1 0 0
-5.883962 -14.618919 -8.653299 17.978136 1.188146 2.072960 0.005817 -0.008087 193854.000000 1 0 0
-5.636262 -12.269919 -10.355499 17.016308 1.140189 2.225045 0.015132 -0.006898 633269.000000 1 0 0
-10.466662 -12.298419 -8.759899 18.372206 0.865689 2.067809 0.022913 -0.011467 -327372.000000 1 0 0
4.087638 -17.170619 6.517801 18.815437 -1.337086 1.217058 0.033217 -0.010082 571058.000000 1 0 0
-6.639462 -14.505319 -4.252899 16.509812 1.141536 1.831332 0.009545 -0.006669 -1056440.000000 1 0 0
-2.770962 -12.215119 -7.142899 14.419028 1.347725 2.089069 0.002021 -0.001564 1624860.000000 1 0 0
-6.991162 -12.799319 4.376201 15.226623 1.070865 1.279280 0.005763 -0.004573 2372380.000000 1 0 0
2.707538 -16.451019 2.426101 16.847930 -1.407677 1.426294 0.009574 -0.005483 1812540.000000 1 0 0
-6.223762 -11.915619 7.181401 15.241053 1.089453 1.080159 0.008148 -0.007207 613226.000000 1 0 0
-11.313262 -12.824119 -0.926999 17.126215 0.847911 1.624950 0.020928 0.002566 1614240.000000 1 0 0
-14.235462 -8.647219 4.773101 17.326433 0.545874 1.291706 0.024587 -0.010583 -310674.000000 1 0 0
-7.950962 -15.518319 4.467901 17.999949 1.097310 1.319957 0.012557 0.002501 1245620.000000 1 0 0
-16.416462 -9.085519 1.251901 18.804631 0.505480 1.504173 -0.005469 -0.001825 -516933.000000 1 0 0
-6.624062 -16.985119 2.363001 18.383586 1.198947 1.441901 0.016857 -0.004178 823161.000000 1 0 0
-11.485062 -14.938319 -4.689099 19.417716 0.915351 1.814693 0.036202 -0.005903 -18837.700000 1 0 0
-9.974362 -9.942619 -12.517399 18.842210 0.783804 2.297390 0.026062 -0.007193 -3216090.000000 1 0 0
-4.261562 -16.080619 -4.543099 17.244911 1.311739 1.837389 0.002281 -0.005966 -1500430.000000 1 0 0
-11.737362 -8.252219 0.085101 14.348241 0.612785 1.564865 0.006242 -0.001853 2251920.000000 1 0 0
-9.568662 -11.168919 3.495201 15.116894 0.862413 1.337474 0.008739 -0.002436 2652870.000000 1 0 0
-14.227362 -12.930819 -0.437299 19.230578 0.737694 1.593538 0.020465 0.002435 1247370.000000 1 0 0
5.694738 -15.065419 -7.186699 17.636483 -1.209398 1.990501 0.006169 -0.007500 2062370.000000 1 0 0
-7.412562 -10.585419 -1.350699 12.993135 0.959895 1.674939 0.008034 0.000047 1626550.000000 1 0 0
-11.680162 -8.273519 -6.125599 15.569209 0.616301 1.975170 0.012425 -0.004751 -287759.000000 1 0 0
-14.425262 -6.548719 -9.296599 18.368469 0.426155 2.101473 0.030215 -0.014814 928964.000000 1 0 0
-3.873462 -16.262419 1.474601 16.782265 1.336968 1.482816 0.008992 -0.010371 2642830.000000 1 0 0
-7.895362 -15.582719 0.100901 17.469060 1.101824 1.565020 0.019698 -0.008389 2506900.000000 1 0 0
1.042138 -18.563819 3.733301 18.964149 -1.514717 1.372641 0.017323 -0.011386 1894770.000000 1 0 0
-14.019662 -8.825219 -4.560599 17.182389 0.561821 1.839439 0.011403 -0.006390 401608.000000 1 0 0
-3.267462 -14.474419 11.159401 18.566565 1.348777 0.925984 0.004991 -0.017464 901769.000000 1 0 0
-10.794462 -12.118819 -3.805499 16.669373 0.843133 1.801120 0.022604 -0.005203 954906.000000 1 0 0
-9.929662 -10.706519 0.560101 14.613058 0.823026 1.532458 0.007386 0.002683 1536680.000000 1 0 0
-0.020162 -13.163019 -11.126799 17.235752 1.569265 2.272559 0.001155 0.000534 795858.000000 1 0 0
-5.745762 -12.728719 -6.391999 15.358767 1.146778 2.000036 0.002075 -0.007623 1772510.000000 1 0 0
1.871138 -15.787019 9.802401 18.676675 -1.452823 1.018261 0.025069 -0.017653 -308660.000000 1 0 0
-8.928862 -15.868319 -5.557699 19.037231 1.058266 1.867049 0.025418 -0.005063 286474.000000 1 0 0
-3.223662 -15.490419 5.985201 16.916492 1.365618 1.209156 0.008502 -0.003620 -1222130.000000 1 0 0
-17.382762 -5.458519 -6.490499 19.341211 0.304268 1.913016 0.018826 -0.013582 -836556.000000 1 0 0
18.881538 5.490781 -2.925399 19.880118 0.282997 1.718485 0.031189 0.005842 -762167.000000 1 0 0
12.794038 -12.465719 -6.017499 18.849187 -0.772401 1.895729 0.033007 -0.012395 249718.000000 1 0 0
11.147738 -13.498019 -1.613999 17.580488 -0.880473 1.662732 0.024759 -0.007313 1172330.000000 1 0 0
18.711838 -2.720719 4.317401 19.395235 -0.144389 1.346315 0.061714 -0.014682 -39913.700000 1 0 0
8.789638 -16.852719 4.953501 19.642022 -1.090053 1.315855 0.033599 -0.018998 -1251080.000000 1 0 0
18.130038 -1.092419 6.651101 19.342409 -0.060182 1.219771 0.084323 -0.013607 -1038160.000000 1 0 0
18.004138 -4.214319 -5.056499 19.169706 -0.229935 1.837731 0.071298 -0.025524 -941037.000000 1 0 0
5.621338 -11.509619 14.735101 19.524189 -1.116469 0.715584 0.004644 -0.005299 1758770.000000 1 0 0
16.009638 -8.905719 -0.903199 18.342194 -0.507646 1.620058 0.035080 -0.009807 200445.000000 1 0 0
13.949638 -12.470419 -1.429799 18.765608 -0.729468 1.647063 0.033435 -0.004983 -16139.700000 1 0 0
11.349638 -2.027419 13.909601 18.066590 -0.176768 0.692100 0.030899 -0.000700 -695518.000000 1 0 0
16.948438 -6.100519 -1.488799 18.074357 -0.345508 1.653261 0.037994 -0.018078 -1560510.000000 1 0 0
17.722238 3.667581 -1.047399 18.128042 0.204067 1.628606 0.025641 0.008376 488118.000000 1 0 0
9.707538 -11.053919 9.441201 17.480323 -0.850158 1.000235 0.010454 -0.006393 669992.000000 1 0 0
9.100338 -11.034819 4.314501 14.939822 -0.881179 1.277832 0.003693 -0.005427 -495214.000000 1 0 0
14.162838 -9.996819 6.750501 18.603538 -0.614640 1.199460 0.034333 -0.010830 -112335.000000 1 0 0
16.221338 -0.526919 -4.856499 16.940928 -0.032472 1.861548 0.030584 -0.006316 738966.000000 1 0 0
15.852938 -0.446919 -1.796799 15.960697 -0.028184 1.683612 0.025330 -0.000262 1100880.000000 1 0 0
12.942838 -5.113319 -0.271899 13.918944 -0.376249 1.590332 0.007121 -0.008780 -78173.800000 1 0 0
14.259038 -7.532519 1.030101 16.159211 -0.486001 1.507006 0.020486 -0.007443 3254470.000000 1 0 0
15.498438 2.487481 3.702801 16.127612 0.159142 1.339136 0.030639 -0.004128 1488310.000000 1 0 0
15.994138 -7.037919 4.962701 18.165163 -0.414533 1.294080 0.052312 -0.013738 -1131990.000000 1 0 0
13.738138 -12.038219 3.290601 18.560258 -0.719545 1.392561 0.020659 -0.007823 1147080.000000 1 0 0
13.953338 -0.966719 9.075701 16.673288 -0.069172 0.995211 0.036178 -0.013698 2156830.000000 1 0 0
14.198638 -2.729119 -1.596699 14.546438 -0.189894 1.680784 0.005953 -0.006609 -234477.000000 1 0 0
15.038438 1.835281 9.005401 17.624418 0.121439 1.034493 0.048628 -0.008765 -2427620.000000 1 0 0
14.425338 -10.090819 -3.116199 17.878078 -0.610404 1.745994 0.034268 -0.008622 -1282130.000000 1 0 0
7.264838 -12.539619 6.131101 15.735638 -1.045698 1.170565 0.001187 -0.003875 205975.000000 1 0 0
12.410038 -4.640919 6.947801 14.960585 -0.357863 1.087831 0.019345 -0.009047 2726630.000000 1 0 0
14.864738 -8.851019 -5.747299 18.229987 -0.537058 1.891534 0.055309 -0.019497 102345.000000 1 0 0
14.342638 -4.530719 4.618201 15.734244 -0.305972 1.272897 0.022621 -0.010917 1659220.000000 1 0 0
17.136338 -4.291819 0.950801 17.691179 -0.245403 1.517026 0.029348 -0.012557 -693395.000000 1 0 0
10.275538 -14.485919 1.077501 17.792963 -0.953825 1.510202 0.024891 -0.005316 178103.000000 1 0 0
16.415738 -2.654519 8.467001 18.660467 -0.160318 1.099839 0.069036 -0.017272 669019.000000 1 0 0
15.984638 -2.513919 3.098001 16.475012 -0.155993 1.381628 0.026848 -0.006734 2711150.000000 1 0 0
7.875838 -15.235519 2.598301 17.346499 -1.093689 1.420442 0.012908 -0.007884 2205590.000000 1 0 0
16.740838 -7.004719 7.874901 19.782209 -0.396285 1.161373 0.069814 -0.012488 157925.000000 1 0 0
10.219138 -8.485519 5.094101 14.226196 -0.692978 1.204587 0.006859 -0.006756 2049780.000000 1 0 0
10.962838 -11.897319 2.231201 16.331205 -0.826254 1.433746 0.013434 -0.005516 -257806.000000 1 0 0
12.273938 -7.308519 11.923001 18.607040 -0.537067 0.875284 0.037015 -0.024241 -488523.000000 1 0 0
15.175638 -9.744619 4.231801 18.524732 -0.570818 1.340321 0.022708 -0.011019 308370.000000 1 0 0
7.296338 -10.195319 7.733601 14.730568 -0.949640 1.018077 -0.001441 -0.002444 1059070.000000 1 0 0
15.270238 -3.296819 -4.362499 16.219759 -0.212635 1.843112 0.041066 -0.009072 -282436.000000 1 0 0
11.779438 -8.964719 9.635401 17.662454 -0.650534 0.993775 0.031557 -0.015056 -821111.000000 1 0 0
17.014738 -6.740419 2.314601 18.447003 -0.377185 1.444992 0.050157 -0.012703 1697480.000000 1 0 0
17.523838 3.960981 1.939201 18.070273 0.222298 1.463275 0.030125 0.009684 1145240.000000 1 0 0
14.695238 -4.988719 8.721901 17.801935 -0.327271 1.058774 0.053276 -0.014615 -89488.800000 1 0 0
12.922838 -12.541019 6.137601 19.024905 -0.770405 1.242312 0.023014 -0.003314 82217.100000 1 0 0
18.256338 0.770381 -1.040999 18.302214 0.042173 1.627705 0.034768 0.000828 -2016030.000000 1 0 0
11.709638 -2.097619 10.982701 16.190594 -0.177256 0.825298 0.018448 -0.004498 1871100.000000 1 0 0
5.879238 -12.431619 10.623401 17.377204 -1.129041 0.913042 -0.003426 -0.000318 -1855980.000000 1 0 0
10.705538 -4.964619 11.074001 16.182999 -0.434224 0.817155 0.021000 -0.011241 455358.000000 1 0 0
17.895438 1.302981 5.045001 18.638575 0.072683 1.296702 0.065528 -0.006657 -1019270.000000 1 0 0
12.314338 -7.667119 7.075501 16.139713 -0.556884 1.116989 0.030700 -0.016507 -598446.000000 1 0 0
10.567838 -7.944219 14.159701 19.372324 -0.644611 0.751121 0.031187 -0.021565 682867.000000 1 0 0
14.103538 -0.230519 3.678401 14.577158 -0.016343 1.315699 0.009264 -0.002011 893660.000000 1 0 0
11.610638 -7.651719 2.478801 14.124453 -0.582695 1.394386 0.010332 -0.006154 1999820.000000 1 0 0
9.297938 6.076081 3.560201 11.663852 0.578823 1.260612 0.002816 0.000107 1282860.000000 1 0 0
-3.927462 14.731981 -9.953599 18.207976 -1.310261 2.149168 0.016617 -0.002172 1309670.000000 1 0 0
8.703338 -6.370119 9.374801 14.290325 -0.631827 0.855257 0.006142 -0.007072 786279.000000 1 0 0
5.851738 -10.690419 -8.578499 14.903642 -1.069966 2.184131 -0.007074 0.001637 1483450.000000 1 0 0
5.375438 1.040681 0.561301 5.503945 0.191234 1.468637 0.005303 -0.002928 3970410.000000 1 0 0
-0.612862 9.903981 10.947901 14.775689 -1.508995 0.736327 -0.003059 0.001542 -955345.000000 1 0 0
-6.201862 -5.217319 1.023301 8.168883 0.699392 1.445198 0.007577 -0.001497 4118680.000000 1 0 0
-1.022062 3.940081 -10.830999 11.570627 -1.316989 2.782105 0.012863 -0.006217 1048600.000000 1 0 0
10.973338 5.841981 1.241201 12.493337 0.489215 1.471283 0.006048 0.001668 373088.000000 1 0 0
-10.115862 -1.840419 -13.532699 16.995640 0.179966 2.491860 0.012557 -0.007497 1594620.000000 1 0 0
7.354638 10.834181 -6.058099 14.428123 0.974416 2.004111 0.004777 -0.004410 323112.000000 1 0 0
-12.484962 -2.848819 -9.641499 16.029615 0.224339 2.216149 0.006214 -0.005852 743941.000000 1 0 0
-3.942062 -8.650319 2.488801 9.826596 1.143202 1.314735 0.007711 -0.001482 -1245210.000000 1 0 0
8.034238 -6.701219 -5.822299 11.973073 -0.695180 2.078627 -0.004158 -0.002513 2265200.000000 1 0 0
14.427538 3.238281 -4.285299 15.394937 0.220792 1.852880 0.026350 -0.002944 834616.000000 1 0 0
-2.436862 -4.957519 9.833801 11.279137 1.113933 0.511814 0.000635 -0.001901 2925450.000000 1 0 0
3.522438 -1.866619 -4.560399 6.057151 -0.487298 2.423246 0.001661 -0.003026 -1636290.000000 1 0 0
-4.026962 8.471281 -3.431999 9.987875 -1.127049 1.921562 0.003718 -0.001055 2002600.000000 1 0 0
5.763138 0.138981 11.759101 13.096164 0.024111 0.455811 0.008178 -0.002453 1330240.000000 1 0 0
7.195138 4.748481 12.390001 15.094045 0.583343 0.607892 0.008083 0.001524 2034860.000000 1 0 0
1.303238 -14.506519 12.411701 19.136035 -1.481199 0.865048 0.011968 -0.010672 -1928.830000 1 0 0
3.062938 8.686081 -9.026299 12.895878 1.231784 2.346105 0.008481 -0.004316 1595550.000000 1 0 0
-4.410562 -8.841319 -4.665599 10.926564 1.108063 2.011964 0.012061 -0.002815 1338900.000000 1 0 0
5.728238 -6.585019 -4.028999 9.612909 -0.854868 2.003276 -0.001095 -0.003049 1751690.000000 1 0 0
-3.079162 3.390681 8.647401 9.785474 -0.833510 0.487092 -0.000986 -0.002114 282171.000000 1 0 0
-3.798862 3.167781 -11.065599 12.120796 -0.695059 2.721236 0.005955 -0.007853 986922.000000 1 0 0
3.043338 -6.104119 8.531201 10.922617 -1.108292 0.674438 -0.004281 0.000843 426018.000000 1 0 0
-5.060362 -8.698719 10.425601 14.490277 1.043914 0.767729 0.008467 -0.006097 862835.000000 1 0 0
-13.245962 -2.584919 6.512401 14.984949 0.192726 1.121207 0.022233 -0.005765 -456160.000000 1 0 0
3.926038 -5.975919 -8.284399 10.943338 -0.989532 2.429547 -0.006755 0.000614 2192770.000000 1 0 0
2.903838 -0.509019 12.426701 12.771619 -0.173529 0.232934 0.003178 -0.001563 1476900.000000 1 0 0
1.512338 -1.510119 -7.540199 7.837234 -0.784664 2.865396 0.001385 -0.004232 -651366.000000 1 0 0
3.670838 -3.492519 3.354401 6.076573 -0.760510 0.986009 0.003475 -0.003350 2888750.000000 1 0 0
1.560038 0.343081 -11.806099 11.913665 0.216473 3.007113 0.009218 -0.006963 -77236.900000 1 0 0
4.086038 3.514381 -10.581999 11.875407 0.710326 2.670527 0.002878 -0.002601 1185240.000000 1 0 0
2.878838 3.279381 3.292501 5.466499 0.850349 0.924411 -0.002622 -0.000763 -956363.000000 1 0 0
-5.288762 0.884381 2.604001 5.961037 -0.165686 1.118717 0.001959 -0.002025 649791.000000 1 0 0
-9.434662 -9.234319 5.654701 14.361794 0.774667 1.166108 0.017030 -0.007899 -1193630.000000 1 0 0
-3.046462 3.846381 -0.633299 4.947388 -0.900932 1.699155 0.002095 -0.006420 292976.000000 1 0 0
-15.877862 -6.445519 5.010501 17.853749 0.385620 1.286334 0.042148 -0.012600 495375.000000 1 0 0
1.028238 6.670581 -8.083399 10.530682 1.417855 2.445892 0.010821 -0.004675 1417410.000000 1 0 0
-1.559562 6.572481 -9.472599 11.634427 -1.337818 2.522124 0.009739 -0.003503 641747.000000 1 0 0
1.984938 -0.327119 5.179001 5.555991 -0.163332 0.370498 0.000935 -0.001061 2329520.000000 1 0 0
-3.505562 -0.634019 -6.317699 7.252880 0.178927 2.628154 0.011198 -0.008931 -806546.000000 1 0 0
1.850438 -1.191119 -2.424499 3.274306 -0.571931 2.404554 0.007766 -0.003094 -897028.000000 1 0 0
2.464638 -8.655519 -7.594499 11.775775 -1.293391 2.271722 -0.005845 0.001350 759347.000000 1 0 0
-2.546462 13.973381 -5.559899 15.252945 -1.390538 1.943906 0.005687 0.002112 2511060.000000 1 0 0
6.819938 -5.185519 -8.069899 11.769640 -0.650090 2.326298 -0.005724 -0.000586 3238800.000000 1 0 0
-14.198062 -5.042419 -2.151099 15.219665 0.341254 1.712608 -0.001679 -0.005508 1088260.000000 1 0 0
-2.785162 6.923881 -6.806899 10.101047 -1.188348 2.310245 0.008682 -0.003413 -2056080.000000 1 0 0
-5.678662 -1.170919 -8.100999 9.962151 0.203346 2.520388 0.016586 -0.012305 73097.400000 1 0 0
-5.687362 -10.591119 3.409901 12.495812 1.077994 1.294407 0.006097 -0.002629 -3732160.000000 1 0 0
8.054638 -7.463419 6.715201 12.871431 -0.747318 1.021938 0.001589 -0.005905 792319.000000 1 0 0
8.694038 -5.952519 13.186601 16.879135 -0.600361 0.674152 0.018367 -0.007961 848999.000000 1 0 0
-4.802262 9.552281 -0.749199 10.717700 -1.104963 1.640756 -0.000488 0.001728 607092.000000 1 0 0
2.710838 6.619981 12.108901 14.064077 1.182133 0.533601 0.007105 0.000072 1309350.000000 1 0 0
6.045038 -2.730819 10.921001 12.777641 -0.424305 0.545831 0.006348 -0.002494 396113.000000 1 0 0
-9.680162 -6.521819 -1.132799 11.727016 0.592877 1.667545 0.009844 -0.001861 -170284.000000 1 0 0
0.942838 -13.423919 6.267901 14.845104 -1.500676 1.134903 0.005665 -0.004292 624236.000000 1 0 0
-0.529562 -3.141419 8.750601 9.312463 1.403792 0.349145 -0.002777 -0.000884 1300690.000000 1 0 0
4.209538 0.769581 3.417901 5.476724 0.180822 0.896846 0.000784 0.000175 855720.000000 1 0 0
-10.230062 5.551081 8.297401 14.293899 -0.497163 0.951472 0.004299 -0.012066 1975690.000000 1 0 0
9.421438 8.041281 0.014801 12.386521 0.706528 1.569601 0.004729 -0.000520 -75697.200000 1 0 0
4.299338 2.859081 8.155201 9.652251 0.586851 0.564415 -0.001382 -0.000387 3364490.000000 1 0 0
1.306838 2.533681 -9.727699 10.136839 1.094600 2.856510 0.011249 -0.005001 2619050.000000 1 0 0
-1.430362 -10.135319 3.043601 10.678676 1.430596 1.281773 0.008373 -0.003572 -2994670.000000 1 0 0
-9.907362 9.521281 9.095301 16.478323 -0.765529 0.986089 0.007400 -0.009142 -563322.000000 1 0 0
9.790138 -2.036719 -7.625799 12.575684 -0.205112 2.222312 0.008003 -0.002768 1583520.000000 1 0 0
-5.201362 -1.798719 6.722801 8.688245 0.332943 0.686008 0.002376 -0.002425 934725.000000 1 0 0
3.176938 -7.826019 -4.868999 9.749188 -1.185175 2.093733 -0.004026 -0.001322 2218690.000000 1 0 0
-5.138862 4.918281 -13.053399 14.865686 -0.763469 2.642651 0.003482 -0.006830 3120370.000000 1 0 0
-5.710062 9.615981 5.506701 12.465779 -1.034941 1.113253 0.001245 -0.003239 829712.000000 1 0 0
-0.474362 -1.856419 -9.417699 9.610639 1.320624 2.940878 0.009135 -0.008584 -681382.000000 1 0 0
-16.837662 0.063981 6.467601 18.037207 -0.003800 1.204061 0.035603 -0.008169 508448.000000 1 0 0
-5.927262 -2.880019 4.135601 7.780112 0.452299 1.010354 0.000248 -0.000491 2760070.000000 1 0 0
1.008538 -5.767019 -5.184399 7.820080 -1.397667 2.295562 0.002027 -0.002061 806289.000000 1 0 0
-6.992962 1.413781 -8.470399 11.074654 -0.199483 2.441598 0.006296 -0.005558 -230440.000000 1 0 0
8.077238 1.990781 4.743501 9.576313 0.241652 1.052574 -0.003412 -0.000529 831807.000000 1 0 0
0.570338 -8.051819 -0.492599 8.087010 -1.500081 1.631746 0.004875 -0.001200 75190.000000 1 0 0
5.446338 5.439281 -3.408199 8.418088 0.784750 1.987629 0.003193 -0.003380 58464.000000 1 0 0
-0.733962 -0.339219 -1.194499 1.442428 0.432932 2.546537 0.004645 -0.003310 738163.000000 1 0 0
9.170238 6.354681 -6.387999 12.856196 0.605991 2.090797 0.007485 -0.005175 1183670.000000 1 0 0
-14.893262 -7.032319 2.572501 16.669749 0.441146 1.415856 0.001644 -0.010133 737761.000000 1 0 0
-6.485162 6.813381 8.881901 12.937065 -0.810074 0.814067 -0.000767 -0.002875 -282535.000000 1 0 0
-9.509762 -3.149919 -9.592199 13.869674 0.319856 2.334492 0.008763 -0.007006 1376510.000000 1 0 0
14.863338 3.472881 -1.255899 15.315254 0.229536 1.652892 0.010006 0.003320 1192800.000000 1 0 0
12.097038 1.669081 -5.759799 13.501831 0.137109 2.011520 0.012427 -0.003142 60597.900000 1 0 0
1.740538 -9.452419 12.669001 15.902241 -1.388699 0.649014 -0.005194 -0.002922 1010010.000000 1 0 0
-3.670162 6.293981 7.966101 10.795511 -1.042879 0.740830 -0.001511 -0.003121 1626050.000000 1 0 0
-4.019762 13.142881 -12.450799 18.544978 -1.273980 2.306871 0.016996 -0.002382 730887.000000 1 0 0
-10.264162 7.824981 6.458601 14.432494 -0.651364 1.106824 0.002037 -0.008341 -456527.000000 1 0 0
8.001538 -9.309719 -7.184799 14.223811 -0.860823 2.100323 -0.002968 -0.000049 2134350.000000 1 0 0
5.923038 -3.824119 -0.322299 7.057630 -0.573300 1.616479 0.005542 -0.004210 -855571.000000 1 0 0
-1.620562 -4.434819 4.165601 6.296512 1.220453 0.847882 0.000607 0.000510 156578.000000 1 0 0
9.894938 -2.006919 -2.630299 10.433407 -0.200108 1.825650 0.003734 -0.005248 -942292.000000 1 0 0
13.557038 7.148481 1.371801 15.387524 0.485240 1.481528 0.011281 0.000237 -405390.000000 1 0 0
5.455938 -3.722119 -3.249799 7.360884 -0.598689 2.028061 0.002615 -0.004514 -2549280.000000 1 0 0
-12.169162 -5.962519 1.956301 13.691868 0.455591 1.427425 0.001291 -0.002767 865942.000000 1 0 0
3.806838 -5.772019 -0.183099 6.916772 -0.987749 1.597271 0.004783 -0.004100 -1131690.000000 1 0 0
-5.280562 3.754381 -8.662799 10.817754 -0.618058 2.499417 0.005951 -0.004599 53602.100000 1 0 0
-1.656662 -9.285619 7.220701 11.878795 1.394242 0.917428 0.002480 -0.005150 2934290.000000 1 0 0
-7.426562 -7.397519 2.542001 10.786050 0.783439 1.332883 0.009453 -0.002735 -4007240.000000 1 0 0
-5.821862 13.081081 -8.536799 16.669904 -1.152058 2.108434 0.014710 -0.005305 2056170.000000 1 0 0
9.251038 -13.884619 -4.172899 17.198181 -0.983062 1.815879 0.014076 -0.003124 1781660.000000 1 0 0
-6.605762 -5.188519 -6.762299 10.783576 0.665808 2.248611 0.012376 -0.008292 -60714.800000 1 0 0
3.383538 0.422781 -6.233199 7.104917 0.124308 2.641020 0.004180 -0.004548 1033530.000000 1 0 0
-3.618062 5.786981 5.003201 8.462360 -1.012048 0.938213 0.001478 -0.001162 -602865.000000 1 0 0
-2.648962 -10.753319 -2.915999 11.452245 1.329266 1.828254 0.008227 -0.001325 2445520.000000 1 0 0
-12.543162 -0.429219 1.770701 12.674799 0.034206 1.430635 0.003046 -0.001145 660537.000000 1 0 0
8.402738 -11.997919 -6.124899 15.876727 -0.959836 1.966848 0.005579 -0.006895 268983.000000 1 0 0
6.150838 3.952981 0.969201 7.375515 0.571208 1.439007 0.001928 -0.001538 -1025390.000000 1 0 0
3.415838 -4.824219 -10.924999 12.421620 -0.954681 2.645638 -0.004142 0.000487 -1094380.000000 1 0 0
-7.655762 4.198481 8.608501 12.261494 -0.501620 0.792488 0.000563 -0.004128 1747380.000000 1 0 0
8.181638 8.769481 4.052501 12.659611 0.820063 1.244948 0.008522 -0.000274 2015650.000000 1 0 0
0.256838 10.446581 -6.271499 12.187236 1.546215 2.111332 0.008142 0.000389 2144240.000000 1 0 0
5.418938 7.998481 3.222401 10.184520 0.975334 1.248862 0.004732 -0.003041 2790140.000000 1 0 0
8.030738 6.678081 -3.809999 11.117806 0.693694 1.920579 0.005163 -0.002942 -347066.000000 1 0 0
10.468038 2.518281 -8.205399 13.536991 0.236083 2.222003 0.005794 -0.002663 950863.000000 1 0 0
3.413338 -12.564319 -0.328999 13.023871 -1.305529 1.596060 0.001716 -0.001498 -1312230.000000 1 0 0
0.636738 2.217381 5.154401 5.647128 1.291163 0.420837 0.000149 -0.000853 994631.000000 1 0 0
-4.901462 13.424681 1.477601 14.367662 -1.220726 1.467772 -0.002081 0.003629 1581550.000000 1 0 0
8.176138 4.084381 -8.005399 12.149807 0.463287 2.290140 0.001037 -0.001763 1025680.000000 1 0 0
-13.928962 -0.562219 -3.506999 14.374670 0.040341 1.817255 -0.001406 -0.002741 413960.000000 1 0 0
-8.633162 -0.011819 -0.476099 8.646288 0.001369 1.625888 0.002625 -0.002404 702132.000000 1 0 0
1.867438 -3.905219 -1.154999 4.480188 -1.124748 1.831543 0.003486 -0.000983 -748463.000000 1 0 0
8.145838 -5.599219 -0.289699 9.888875 -0.602200 1.600096 0.002243 -0.004358 2232740.000000 1 0 0
-2.278162 -1.143319 7.390701 7.817906 0.465135 0.332113 0.001305 -0.001840 1642140.000000 1 0 0
-5.909462 8.876381 -11.738699 15.859034 -0.983428 2.404149 0.005585 -0.002478 694638.000000 1 0 0
-6.266762 9.241881 -8.889799 14.272814 -0.974932 2.243175 0.005873 -0.000033 634777.000000 1 0 0
-1.558262 13.900581 -8.284599 16.256966 -1.459162 2.105520 0.017297 -0.002079 71753.800000 1 0 0
-1.461162 7.247281 9.772701 12.254132 -1.371848 0.647652 0.000111 -0.002691 244213.000000 1 0 0
10.055438 2.367481 -4.020899 11.085325 0.231232 1.941984 0.005981 -0.003185 -2126420.000000 1 0 0
-2.897462 -7.492119 -6.981799 10.642963 1.201778 2.286305 0.009020 -0.005256 620478.000000 1 0 0
-5.412162 -5.085519 -1.584699 7.593765 0.754292 1.781026 0.010735 -0.002342 776674.000000 1 0 0
5.764538 7.406581 -8.877399 12.918806 0.909428 2.328381 0.007704 -0.005464 -480632.000000 1 0 0
-9.596262 5.267481 -7.415599 13.222168 -0.502006 2.166204 -0.001231 -0.001582 568274.000000 1 0 0
-0.509662 6.168481 -5.370499 8.194643 -1.488360 2.285465 0.010153 -0.004266 -223696.000000 1 0 0
-8.299562 2.829681 -6.351199 10.827168 -0.328584 2.197649 0.001077 -0.003475 368545.000000 1 0 0
3.629938 1.419581 -2.026899 4.393174 0.372790 2.050340 0.002867 -0.003909 2716780.000000 1 0 0
-6.796362 12.503681 -3.506099 14.656921 -1.072919 1.812350 0.004683 0.001548 1334130.000000 1 0 0
-6.609262 3.052481 -2.395299 7.664036 -0.432664 1.888660 0.003400 -0.001601 -1168920.000000 1 0 0
12.091738 4.021181 -0.756299 12.765266 0.321051 1.630078 0.002514 0.001451 -25005.400000 1 0 0
2.224738 12.291181 -5.489499 13.643944 1.391732 1.984867 0.012646 -0.001682 -1488990.000000 1 0 0
-9.256062 -1.436019 -4.334499 10.321082 0.153917 2.004204 0.004440 -0.002254 -1388800.000000 1 0 0
-1.152262 5.767781 3.461501 6.824734 -1.373616 1.038864 0.000865 -0.002110 -27186.500000 1 0 0
11.619838 2.667781 12.042901 16.946066 0.225678 0.780360 0.014603 0.001944 -219175.000000 1 0 0
-7.097862 -2.299619 -5.837899 9.473593 0.313316 2.234741 0.013435 -0.008553 560728.000000 1 0 0
7.420938 -7.369319 10.921701 15.121532 -0.781908 0.763730 0.000814 -0.005957 -818245.000000 1 0 0
-5.451262 -1.982219 -10.924599 12.369007 0.348762 2.653489 0.011699 -0.008799 215475.000000 1 0 0
0.827238 -6.166519 4.392701 7.616173 -1.437443 0.956040 -0.000247 -0.000370 606536.000000 1 0 0
-4.717262 -9.323219 7.306601 12.749956 1.102385 0.960551 -0.000922 -0.004437 464981.000000 1 0 0
-8.806062 9.366981 1.682301 12.966002 -0.816254 1.440682 0.002435 -0.003631 766783.000000 1 0 0
-8.174062 7.233981 -9.078299 14.197229 -0.724461 2.264568 0.002613 0.000234 382772.000000 1 0 0
-1.187262 -10.583219 -0.082399 10.649925 1.459080 1.578533 0.007182 -0.003203 -521198.000000 1 0 0
-4.006362 10.263781 7.764501 13.479006 -1.198645 0.956916 0.002544 -0.003183 337326.000000 1 0 0
-7.455862 12.088281 2.024601 14.346269 -1.018127 1.429200 -0.001251 -0.001971 1932690.000000 1 0 0
-8.176662 -8.263719 -2.890099 11.979129 0.790693 1.814462 0.014709 -0.003980 497910.000000 1 0 0
5.380638 4.626981 -8.042599 10.725839 0.710232 2.418608 0.004233 -0.002471 83061.300000 1 0 0
-8.961062 -0.148419 -10.096999 13.500817 0.016561 2.415660 0.006788 -0.008224 430576.000000 1 0 0
-15.224162 -2.314119 -1.461499 15.468233 0.150848 1.665421 -0.000039 -0.003882 805729.000000 1 0 0
-7.107062 -5.786919 8.701401 12.637766 0.683369 0.811345 0.010516 -0.003782 -1140180.000000 1 0 0
8.126238 3.452681 -1.017399 8.887736 0.401770 1.685520 0.003955 -0.000799 603750.000000 1 0 0
11.939238 7.195181 -5.868899 15.124814 0.542366 1.969291 0.011081 -0.003934 23614.300000 1 0 0
3.845738 13.342681 -9.584199 16.872277 1.290174 2.174924 0.011255 -0.006401 664273.000000 1 0 0
-9.784862 5.451381 -0.462099 11.210469 -0.508296 1.612028 -0.000888 -0.001408 2425240.000000 1 0 0
11.347438 -1.315919 -5.177899 12.542194 -0.115450 1.996365 0.013412 -0.005562 -877365.000000 1 0 0
10.583838 1.765081 -1.244099 10.801894 0.165251 1.686227 0.003747 -0.000739 1132630.000000 1 0 0
14.579238 5.123781 4.808801 16.184309 0.337960 1.269114 0.030213 -0.005256 1487630.000000 1 0 0
0.822738 -0.801319 10.357701 10.421179 -0.772210 0.110431 0.001601 -0.000922 1649520.000000 1 0 0
-7.987862 1.377381 -12.475599 14.877624 -0.170755 2.565409 0.003151 -0.006969 -320668.000000 1 0 0
3.194838 -11.683319 -7.718799 14.362687 -1.303869 2.138171 -0.003333 0.003812 996806.000000 1 0 0
2.868938 4.945781 -6.692999 8.802715 1.045154 2.434623 0.005285 -0.002753 486646.000000 1 0 0
6.522338 8.028481 0.475401 10.354874 0.888540 1.524869 0.006862 -0.002561 -1055820.000000 1 0 0
-9.058562 -5.392219 6.824901 12.558377 0.536928 0.996250 0.006952 -0.001693 -2160220.000000 1 0 0
-0.317062 -6.957119 -11.899599 13.787766 1.525254 2.612083 0.002554 -0.003596 1232730.000000 1 0 0
6.465738 -13.414019 -4.745299 15.628804 -1.121641 1.879292 0.002765 -0.001865 2454780.000000 1 0 0
-3.268462 -0.312419 10.043701 10.566758 0.095296 0.315956 0.001345 -0.002872 -127433.000000 1 0 0
8.612838 8.462681 6.937101 13.925563 0.776605 1.049326 0.005003 -0.000865 -1362490.000000 1 0 0
-7.942862 5.655881 -2.663899 10.108136 -0.618781 1.837487 0.001441 -0.001808 491094.000000 1 0 0
-5.446862 5.837581 -6.410999 10.239462 -0.820009 2.247347 0.004879 -0.001293 -464161.000000 1 0 0
3.363238 -13.674919 2.594001 14.319344 -1.329641 1.388637 0.004445 -0.005970 -1009710.000000 1 0 0
-11.236462 -7.046819 6.575801 14.803949 0.560136 1.110524 0.023708 -0.009182 -559678.000000 1 0 0
-12.952362 -3.752719 -6.731899 15.071996 0.282011 2.033813 0.006437 -0.005106 -866651.000000 1 0 0
6.021338 0.342781 -7.251799 9.431999 0.056866 2.447838 0.000641 -0.000333 -7283.300000 1 0 0
-1.449562 2.198281 -2.591199 3.694318 -0.987836 2.348158 0.005801 -0.006059 3588000.000000 1 0 0
7.552238 0.926281 -4.949599 9.077049 0.122040 2.147528 0.004642 -0.002568 2010180.000000 1 0 0
3.707238 -4.476019 10.836301 12.296494 -0.879069 0.492293 -0.003393 -0.000628 756429.000000 1 0 0
6.094838 -2.527319 2.093001 6.922069 -0.393085 1.263622 0.008102 -0.004735 -1414970.000000 1 0 0
-6.341162 7.781081 1.076901 10.095310 -0.887008 1.463920 -0.000780 -0.002032 1388840.000000 1 0 0
6.039338 -3.339419 7.931601 10.513591 -0.505101 0.716035 0.002947 -0.002896 978913.000000 1 0 0
6.766338 -2.271519 -7.728799 10.520336 -0.323887 2.395952 -0.003412 -0.001311 843491.000000 1 0 0
11.990238 -8.138019 -5.800599 15.608975 -0.596301 1.951549 0.022035 -0.012121 -179152.000000 1 0 0
5.525038 -9.631619 9.915401 14.886547 -1.049988 0.841876 -0.011942 0.002060 1519290.000000 1 0 0
-6.695362 7.561681 -4.418899 11.024227 -0.846088 1.983225 0.003848 0.000460 760036.000000 1 0 0
-1.335662 -7.614619 9.779401 12.466078 1.397155 0.668938 -0.000699 -0.002701 -1477250.000000 1 0 0
10.193638 -9.335519 0.699301 13.840202 -0.741486 1.520248 0.003698 -0.003485 899629.000000 1 0 0
11.099138 6.144181 9.859101 16.066850 0.505582 0.910147 0.007246 -0.007294 3770490.000000 1 0 0
-15.332962 -4.234119 -4.913799 16.648511 0.269430 1.870408 0.009456 -0.008728 1440500.000000 1 0 0
-4.658762 -4.616519 7.843901 10.224631 0.780844 0.696399 0.004954 -0.003087 -1416090.000000 1 0 0
2.957238 10.875281 -10.984299 15.737593 1.305293 2.343349 0.010514 -0.004867 -988048.000000 1 0 0
9.924138 -1.435719 1.489501 10.137475 -0.143673 1.423332 0.001765 -0.003265 857485.000000 1 0 0
-1.648962 -2.532819 0.693101 3.100748 0.993691 1.345365 0.004274 -0.003370 206498.000000 1 0 0
1.602138 3.066781 0.806501 3.552807 1.089377 1.341796 -0.001357 -0.003275 50323.400000 1 0 0
-8.964062 -2.385619 4.433101 10.280952 0.260103 1.124979 0.003979 -0.002496 3215770.000000 1 0 0
9.912338 4.933481 -2.688999 11.394051 0.461815 1.809044 0.005484 -0.000371 1159360.000000 1 0 0
2.651338 8.481081 2.452201 9.218005 1.267804 1.301531 -0.000086 -0.002593 1031280.000000 1 0 0
-8.133562 -0.053919 2.497501 8.508540 0.006629 1.272880 0.002607 -0.003302 1059280.000000 1 0 0
6.777638 2.154181 13.776001 15.503389 0.307739 0.476556 0.013749 -0.002331 -1004980.000000 1 0 0
6.840538 4.359981 3.758101 8.940118 0.567448 1.136950 -0.001811 0.000006 -69344.000000 1 0 0
-0.316062 3.361781 7.741301 8.445662 -1.477056 0.411303 -0.000913 -0.000640 597282.000000 1 0 0
2.722638 -10.238119 9.131301 13.986153 -1.310880 0.859414 -0.004470 -0.005114 1543710.000000 1 0 0
1.330738 -4.539419 6.801701 8.284945 -1.285634 0.607687 -0.004021 0.000612 -396848.000000 1 0 0
-0.209762 10.685381 -1.946399 10.863234 -1.551168 1.750942 0.007183 -0.002325 3933840.000000 1 0 0
8.802938 5.536981 8.013201 13.128643 0.561465 0.914281 -0.001420 -0.001635 -680660.000000 1 0 0
2.653538 11.378181 -2.869599 12.030747 1.341679 1.811640 0.011029 -0.007553 2565840.000000 1 0 0
1.413538 2.453081 -6.680299 7.255487 1.048039 2.740727 0.007554 -0.005440 153333.000000 1 0 0
-13.554462 -2.213119 3.590701 14.195579 0.161848 1.315073 0.006648 -0.004174 2532550.000000 1 0 0
-0.927862 -10.640019 -5.341799 11.941765 1.483811 2.034564 0.001375 -0.000983 112115.000000 1 0 0
-5.674562 2.836981 0.409801 6.357441 -0.463605 1.506292 0.004096 -0.003296 191181.000000 1 0 0
3.751438 7.200381 -5.016599 9.543849 1.090486 2.124260 0.005454 -0.005031 -2560890.000000 1 0 0
3.021838 9.715781 -6.411399 12.026386 1.269257 2.133070 0.009731 -0.003120 1861970.000000 1 0 0
-12.272162 1.655281 -2.482799 12.629735 -0.134072 1.768669 0.000665 -0.002362 397166.000000 1 0 0
-2.535062 9.633381 -5.764599 11.509091 -1.313476 2.095404 0.005497 -0.000114 1182450.000000 1 0 0
-1.324062 3.409281 1.683801 4.026354 -1.200356 1.139339 -0.000660 -0.002953 529952.000000 1 0 0
12.894238 3.794781 9.641801 16.541646 0.286220 0.948527 0.027843 -0.006911 516193.000000 1 0 0
-2.535862 -9.530819 11.656301 15.268806 1.310751 0.702226 -0.000315 -0.006816 391534.000000 1 0 0
-0.398462 -8.919919 -7.556599 11.697261 1.526155 2.273148 0.002530 -0.000773 2120460.000000 1 0 0
2.356238 7.657081 -0.483299 8.025978 1.272272 1.631050 0.001991 -0.004494 1765180.000000 1 0 0
-11.928062 -1.290819 -5.534199 13.212579 0.107797 2.002984 0.002258 -0.000068 -845632.000000 1 0 0
-6.283862 -7.154419 -10.947199 14.509094 0.850090 2.425698 0.008395 -0.006633 1257960.000000 1 0 0
-4.676362 -2.292319 -1.436999 5.402597 0.455771 1.840020 0.005640 -0.002640 -1159610.000000 1 0 0
-10.465662 3.733481 4.458601 11.972806 -0.342663 1.189209 0.004705 -0.005278 4342190.000000 1 0 0
6.777738 9.309181 -3.599699 12.064677 0.941479 1.873777 0.005318 -0.002433 -468552.000000 1 0 0
1.272038 -2.783019 -11.501499 11.901587 -1.142078 2.881568 0.005435 -0.004739 -1272390.000000 1 0 0
1.192038 8.749881 7.501001 11.586474 1.435395 0.866638 -0.001959 0.003812 476748.000000 1 0 0
10.309838 0.420381 10.490001 14.714265 0.040752 0.777152 0.001916 -0.000118 1979620.000000 1 0 0
-5.318762 -0.902419 -3.941099 6.681007 0.168067 2.201726 0.008723 -0.006810 -814346.000000 1 0 0
11.710238 5.625281 5.458601 14.091479 0.447823 1.173020 -0.000298 0.000175 3724040.000000 1 0 0
10.023938 -3.495019 3.646401 11.224559 -0.335487 1.239934 0.010191 -0.007383 -1941550.000000 1 0 0
7.304838 -1.682219 -3.427999 8.242675 -0.226342 1.999711 0.003928 -0.003014 -4082490.000000 1 0 0
2.286638 9.256481 10.429701 14.131165 1.328614 0.740600 -0.000292 0.002145 2142700.000000 1 0 0
2.494038 -10.871319 6.269401 12.794967 -1.345284 1.058719 -0.006874 -0.000033 1192320.000000 1 0 0
5.914538 -7.503119 -1.224399 9.632118 -0.903244 1.698257 -0.000346 -0.004809 1090310.000000 1 0 0
-0.220662 -5.659319 -2.360199 6.135725 1.531825 1.965641 0.006496 -0.001746 754343.000000 1 0 0
7.783538 -5.000619 2.674001 9.630157 -0.571057 1.289429 0.003692 -0.004970 1272570.000000 1 0 0
-2.703662 -12.453119 4.700401 13.582479 1.357007 1.217424 0.007690 -0.003727 -847904.000000 1 0 0
4.933238 -10.346119 -1.105199 11.515228 -1.125864 1.666921 0.001837 -0.004021 999553.000000 1 0 0
0.962438 0.239781 1.027401 1.428052 0.244169 0.767798 -0.001498 -0.000758 -2064930.000000 1 0 0
-1.567062 8.610281 2.505001 9.103167 -1.390768 1.292020 0.000150 -0.000662 -673508.000000 1 0 0
-7.512162 0.555281 -3.050799 8.127010 -0.073783 1.955614 0.003940 -0.003605 -1134100.000000 1 0 0
4.401038 -6.246819 12.897301 14.991072 -0.957040 0.534875 0.004607 -0.006814 571037.000000 1 0 0
-5.192262 12.916381 8.493001 16.307163 -1.188575 1.022992 0.009713 -0.011084 1123040.000000 1 0 0
0.646938 6.069881 8.248701 10.261727 1.464616 0.637088 -0.000994 0.001859 1785450.000000 1 0 0
7.979438 -0.527519 -0.691599 8.026706 -0.066014 1.657066 0.004697 -0.003975 3647620.000000 1 0 0
2.514938 -9.197919 -2.359599 9.823153 -1.303895 1.813376 -0.002238 -0.001771 1938350.000000 1 0 0
-7.191762 12.134881 4.970401 14.955991 -1.035797 1.232018 0.000035 -0.006494 -319078.000000 1 0 0
-14.971262 0.219181 0.239301 14.974779 -0.014639 1.554815 0.009239 -0.005019 1169030.000000 1 0 0
6.864438 -0.436119 3.916801 7.915304 -0.063448 1.053147 0.002291 -0.001300 671081.000000 1 0 0
-4.170162 -5.024119 5.098001 8.283818 0.878012 0.907882 0.002753 -0.001705 -962956.000000 1 0 0
2.943138 5.085881 6.815801 8.999077 1.046195 0.711491 -0.000650 0.000103 -492837.000000 1 0 0
2.114338 -7.187319 1.807001 7.706700 -1.284691 1.334122 0.002949 -0.002539 2482190.000000 1 0 0
-2.473962 6.455381 -1.706299 7.120667 -1.204821 1.812777 0.004256 -0.003223 2024410.000000 1 0 0
2.737638 -3.859519 -6.513099 8.050528 -0.953842 2.513292 -0.002844 -0.001787 -893344.000000 1 0 0
-5.178562 0.921581 -12.114299 13.206933 -0.176117 2.731963 0.006292 -0.005146 -1276460.000000 1 0 0
-7.551262 6.430681 -11.951599 15.531129 -0.705424 2.448894 0.006705 -0.003977 1919230.000000 1 0 0
-1.042462 11.124781 -8.983699 14.337166 -1.477363 2.247982 0.010183 0.000099 1978340.000000 1 0 0
4.666538 5.917481 -0.622599 7.561798 0.903044 1.653224 0.002580 -0.002730 651206.000000 1 0 0
-2.707462 13.397981 3.657301 14.149633 -1.371402 1.309355 0.000561 0.001131 1427820.000000 1 0 0
1.433438 -7.959019 10.169901 12.993368 -1.392604 0.671805 -0.006676 -0.000196 -904664.000000 1 0 0
13.023438 -0.196719 -1.173899 13.077716 -0.015104 1.660681 0.005010 -0.002942 676372.000000 1 0 0
-1.096362 3.136581 -5.447599 6.380948 -1.234531 2.593901 0.009431 -0.007665 98267.200000 1 0 0
6.530838 1.109681 7.246701 9.818243 0.168307 0.740568 0.001559 0.001078 896911.000000 1 0 0
5.449638 -6.079619 6.862801 10.665756 -0.839986 0.871809 -0.004044 -0.000879 1424620.000000 1 0 0
12.276238 -4.849619 2.610401 13.455074 -0.376224 1.375550 0.008100 -0.006902 -892716.000000 1 0 0
4.487838 -9.064219 13.840901 17.142674 -1.111064 0.631074 -0.001507 -0.005526 367695.000000 1 0 0
-2.687562 -4.306219 -1.500399 5.293176 1.012836 1.858196 0.010139 -0.003243 465768.000000 1 0 0
-9.393562 -5.203719 -7.528399 13.114667 0.505883 2.182233 0.010886 -0.004636 473750.000000 1 0 0
-10.630262 -3.085119 7.917401 13.609029 0.282461 0.949886 0.009166 -0.002134 -63884.400000 1 0 0
12.080238 -0.539819 1.610901 12.199121 -0.044656 1.438359 0.005459 -0.004897 1273210.000000 1 0 0
-7.550062 4.740381 4.292201 9.894324 -0.560653 1.122085 0.004768 -0.005987 1276260.000000 1 0 0
-1.157262 10.544281 6.925301 12.668106 -1.461481 0.992412 -0.002259 0.002538 743509.000000 1 0 0
7.485338 -10.009219 1.793501 12.626614 -0.928676 1.428273 0.001780 -0.004330 2582250.000000 1 0 0
-4.406562 -1.674019 1.674701 5.002475 0.363053 1.229430 -0.000329 -0.000142 1656100.000000 1 0 0
6.703038 -15.074419 -0.993299 16.527415 -1.152389 1.630933 0.017336 -0.003982 -1131470.000000 1 0 0
-10.512762 1.747881 2.390801 10.921959 -0.164756 1.350111 0.002090 -0.001780 1055120.000000 1 0 0
-3.011962 8.361181 -11.406899 14.460243 -1.225036 2.479725 0.006365 -0.002852 -119253.000000 1 0 0
-1.269562 -5.171319 -6.974299 8.774690 1.330057 2.489507 0.005017 -0.005277 976583.000000 1 0 0
12.854938 -0.472219 6.346401 14.343961 -0.036718 1.112474 0.011312 -0.005650 1933420.000000 1 0 0
5.996638 -13.264419 3.669401 15.012294 -1.146210 1.323868 0.006503 -0.004474 504601.000000 1 0 0
-5.661762 3.429281 -4.961699 8.272484 -0.544594 2.214027 0.005525 -0.003888 2209520.000000 1 0 0
-4.437262 8.050881 3.343401 9.781836 -1.067069 1.221968 0.000169 -0.001770 523737.000000 1 0 0
14.081538 6.167881 -4.011299 15.887825 0.412840 1.826035 0.022726 0.001439 92580.400000 1 0 0
-6.687162 -8.421319 5.314801 11.995160 0.899678 1.111766 0.008994 -0.004044 -389508.000000 1 0 0
1.652238 11.415881 2.703101 11.847320 1.427063 1.340608 0.002141 -0.002961 2179990.000000 1 0 0
-7.452862 7.223981 5.956301 11.966979 -0.769805 1.049819 0.002323 -0.005739 -98506.100000 1 0 0
-17.467762 -4.091619 5.271601 18.699033 0.230090 1.285003 0.045843 -0.010823 -587936.000000 1 0 0
7.571638 -13.211919 -8.641399 17.508806 -1.050398 2.086958 0.006542 -0.005063 57232.700000 1 0 0
-2.377562 12.681481 -2.798599 13.202459 -1.385465 1.784392 0.003545 0.001536 105055.000000 1 0 0
-5.615162 13.978481 -5.820199 16.149387 -1.188825 1.939490 0.009786 0.003279 3171860.000000 1 0 0
-5.595462 2.398981 7.339101 9.535550 -0.405032 0.692493 0.003342 -0.003392 2131840.000000 1 0 0
-7.420962 5.103481 1.385601 9.112414 -0.602431 1.418148 0.005114 -0.003480 -166901.000000 1 0 0
10.729538 -5.633419 -4.990299 13.105780 -0.483477 1.961426 0.007961 -0.007567 2845100.000000 1 0 0
-9.645462 -0.670519 6.898801 11.877626 0.069405 0.951057 0.004758 -0.001637 1152770.000000 1 0 0
-11.267662 -4.604819 -2.545599 12.435620 0.387963 1.776956 0.003595 -0.002279 919976.000000 1 0 0
6.537638 -4.210619 13.555701 15.627765 -0.572187 0.520820 0.017232 -0.009976 -453367.000000 1 0 0
0.217738 10.238781 -11.655799 15.515725 1.549534 2.420712 0.008024 -0.000990 27890.600000 1 0 0
-11.734562 -3.233419 1.440201 12.256799 0.268874 1.453022 0.000060 -0.002027 3658930.000000 1 0 0
5.237438 5.948181 5.469901 9.629716 0.848854 0.966695 -0.000517 -0.000471 -4239980.000000 1 0 0
-7.165462 -0.005819 8.098201 10.813174 0.000812 0.724366 0.003380 -0.004048 1474770.000000 1 0 0
1.742738 2.080881 9.568001 9.945544 0.873604 0.276419 0.003162 -0.002439 2464120.000000 1 0 0
10.592438 -4.871319 -2.003699 11.829805 -0.431045 1.740994 -0.000155 -0.004726 1746960.000000 1 0 0
-9.654562 -2.396819 -1.694699 10.090952 0.243338 1.739538 0.004268 -0.001438 -1012340.000000 1 0 0
-1.976462 -5.314419 -9.999199 11.494931 1.214741 2.625753 0.011327 -0.009201 992846.000000 1 0 0
7.714138 -1.548419 6.447001 10.171988 -0.198092 0.884341 0.004173 -0.002778 1122310.000000 1 0 0
1.536838 -11.911719 -2.529299 12.273886 -1.442486 1.778355 0.002319 0.000348 -4040730.000000 1 0 0
-0.808162 -1.460019 4.731101 5.016781 1.065248 0.339098 0.002047 -0.001314 2134380.000000 1 0 0
7.628938 1.485781 9.960501 12.634073 0.192348 0.662619 0.003179 -0.001354 442484.000000 1 0 0
-3.875262 10.722281 -8.027399 13.943605 -1.223983 2.184262 0.012082 0.002593 1828280.000000 1 0 0
-9.601262 12.567181 6.401101 17.061429 -0.918398 1.186206 0.004071 -0.006680 1295300.000000 1 0 0
-2.503862 -2.563919 -11.061099 11.627163 0.797248 2.828272 0.013199 -0.009833 -1813820.000000 1 0 0
1.278938 -11.881019 11.056601 16.280132 -1.463564 0.824197 0.000355 -0.005400 1857270.000000 1 0 0
1.395238 3.476581 -2.014499 4.253412 1.189149 2.064192 0.003719 -0.003750 3025100.000000 1 0 0
-1.911662 -9.449219 -12.108499 15.477660 1.371182 2.469180 -0.000572 -0.001226 451875.000000 1 0 0
1.313338 -2.669019 1.544501 3.351716 -1.113515 1.091890 0.005718 -0.001845 2573760.000000 1 0 0
-1.068662 -2.200519 -6.631999 7.068786 1.118702 2.788215 0.006672 -0.008283 145596.000000 1 0 0
1.817138 5.878681 3.997701 7.337744 1.271006 0.994630 -0.003905 -0.000611 -631826.000000 1 0 0
-10.979362 8.578981 3.692301 14.414520 -0.663280 1.311758 -0.000583 -0.007116 934626.000000 1 0 0
-16.357262 -1.575819 4.014801 16.916319 0.096041 1.331177 0.025775 -0.006413 342511.000000 1 0 0
-12.398062 0.266281 6.781501 14.134058 -0.021474 1.070371 0.008596 -0.000398 973354.000000 1 0 0
-5.088162 3.094181 4.572201 7.507887 -0.546364 0.916014 0.003193 -0.002930 548874.000000 1 0 0
5.274338 -6.034519 3.925601 8.924371 -0.852517 1.115338 -0.004049 -0.003518 1775900.000000 1 0 0
9.954738 3.436281 6.257401 12.249894 0.332384 1.034667 -0.005521 0.002820 -639034.000000 1 0 0
-12.241562 5.846481 3.209001 13.940404 -0.445562 1.338519 0.003801 -0.004848 626212.000000 1 0 0
-4.943762 12.280981 -1.227199 13.295462 -1.188090 1.663230 0.000161 0.005298 1390840.000000 1 0 0
-1.669062 -12.145119 10.315301 16.021707 1.434225 0.871299 0.006923 -0.010296 1550450.000000 1 0 0
5.166538 6.433981 13.782701 16.063999 0.894224 0.539459 0.009617 -0.003125 1735010.000000 1 0 0
12.969438 -3.702119 -5.896399 14.720038 -0.278055 1.982935 0.011656 -0.008657 -592732.000000 1 0 0
3.504738 -2.534019 6.339201 7.673976 -0.626014 0.598707 -0.003243 0.000627 1140680.000000 1 0 0
7.334838 -11.896819 -0.703799 13.993908 -1.018305 1.621111 0.003581 0.000619 -601699.000000 1 0 0
-6.093162 -6.550919 -4.067499 9.827803 0.821586 1.997505 0.014371 -0.004239 -213959.000000 1 0 0
0.362738 -8.907019 5.046401 10.243667 -1.530094 1.055680 0.002332 -0.003235 1704950.000000 1 0 0
-10.295362 2.487681 -0.386299 10.598692 -0.237087 1.607252 0.000763 -0.000636 -1178350.000000 1 0 0
-1.892162 8.934681 -0.273299 9.136931 -1.362103 1.600712 0.004304 -0.000421 1371490.000000 1 0 0
-3.591162 2.242081 -6.605299 7.845595 -0.558120 2.571613 0.011922 -0.007436 -60952.900000 1 0 0
-12.703262 3.059681 6.372701 14.537738 -0.236356 1.117028 0.005424 -0.006081 181975.000000 1 0 0
11.329438 1.597181 7.981501 13.950322 0.140053 0.961687 0.003185 -0.004280 -1664130.000000 1 0 0
5.987438 2.596281 -3.214099 7.274649 0.409150 2.028425 0.002003 -0.002256 1036390.000000 1 0 0
10.481138 -2.396819 6.384701 12.504535 -0.224814 1.034925 0.012672 -0.006133 3872090.000000 1 0 0
-0.947962 10.982181 4.157801 11.781097 -1.484692 1.210105 0.004041 -0.000004 547028.000000 1 0 0
-1.488362 -12.184219 7.448401 14.357893 1.449244 1.025388 0.003340 -0.004718 -391719.000000 1 0 0
8.154938 8.616781 -7.820999 14.209854 0.812928 2.153631 0.009170 -0.003641 2244950.000000 1 0 0
-4.700162 -5.983119 -8.760999 11.603635 0.904916 2.426484 0.013644 -0.008924 971779.000000 1 0 0
-8.611062 -5.237819 -11.628699 15.388690 0.546475 2.427466 0.011455 -0.006604 1155460.000000 1 0 0
6.110738 -0.628619 -9.913399 11.662408 -0.102511 2.586839 -0.003179 0.001228 549377.000000 1 0 0
-11.261762 -5.536019 -5.328399 13.633291 0.456886 1.972337 0.001701 -0.005615 -949266.000000 1 0 0
3.937338 8.884381 -2.707899 10.087992 1.153632 1.842557 0.008481 -0.006059 907856.000000 1 0 0
11.732038 -10.429819 -4.012599 16.202555 -0.726706 1.821053 0.015496 -0.007968 -32822.400000 1 0 0
4.065438 -11.291819 3.936301 12.630416 -1.225211 1.253865 -0.002816 -0.001592 252535.000000 1 0 0
-1.063762 0.929981 3.160701 3.462150 -0.718398 0.420390 0.000025 -0.001519 -1701560.000000 1 0 0
-10.594262 -5.117519 4.556801 12.617124 0.449993 1.201285 0.009098 -0.004840 2156250.000000 1 0 0
4.678938 -8.639619 2.668101 10.181072 -1.074450 1.305635 -0.003589 -0.001078 5472060.000000 1 0 0
-3.632862 -5.721819 2.616901 7.265333 1.005100 1.202325 0.004467 0.000419 965386.000000 1 0 0
10.108238 5.098981 12.290601 16.710324 0.467192 0.744378 0.010424 0.001574 -423402.000000 1 0 0
1.600538 -12.375019 -5.244699 13.535497 -1.442174 1.968690 -0.000358 -0.000200 1597090.000000 1 0 0
9.924138 -10.864519 -1.743399 14.817750 -0.830603 1.688726 0.004254 -0.002985 -90596.200000 1 0 0
9.536638 -4.552919 -9.119699 13.958705 -0.445416 2.282777 0.007633 -0.006794 2821100.000000 1 0 0
-7.406262 -3.103219 -13.033799 15.308906 0.396777 2.589420 0.005271 -0.006077 2595490.000000 1 0 0
0.415638 6.268781 -2.550199 6.780405 1.504590 1.956394 0.006026 -0.005979 1582320.000000 1 0 0
-5.959062 -9.507119 0.967501 11.261962 1.010904 1.484782 0.008296 -0.000408 1069100.000000 1 0 0
-8.913562 -4.074819 0.569001 9.817306 0.428782 1.512805 0.002388 -0.000462 3928770.000000 1 0 0
1.872238 3.815181 12.050301 12.777739 1.114589 0.339054 0.002853 -0.003759 421853.000000 1 0 0
6.720838 4.306781 9.597401 12.483113 0.569888 0.693786 0.001260 -0.000689 3649300.000000 1 0 0
-8.278362 9.873181 -3.541899 13.362486 -0.873034 1.839065 -0.001677 0.001560 1752040.000000 1 0 0
16.419938 2.062681 -6.141999 17.652002 0.124966 1.926179 0.043862 -0.004470 -958643.000000 1 0 0
-10.982462 2.568081 -5.060999 12.362170 -0.229707 1.992586 -0.001992 -0.001209 2088550.000000 1 0 0
-13.817062 3.955581 1.539201 14.454306 -0.278825 1.464107 0.007179 -0.000815 635912.000000 1 0 0
-17.468362 10.444381 3.482801 20.648455 -0.538876 1.401315 0.055117 -0.016605 -433529.000000 1 0 0
-14.384462 2.799681 -1.075099 14.693768 -0.192229 1.644029 0.005430 -0.002190 611512.000000 1 0 0
-14.435862 5.091381 5.129901 16.144106 -0.339069 1.247434 0.010555 -0.004541 2272500.000000 1 0 0
-17.471962 7.529981 3.246101 19.300447 -0.406921 1.401805 0.037795 -0.006754 -2424460.000000 1 0 0
-14.886162 12.673081 -3.349699 19.834952 -0.705267 1.740488 0.041029 -0.010160 -12181.900000 1 0 0
-8.576262 12.593681 -9.532399 17.972749 -0.972938 2.129846 0.015414 -0.007637 1130160.000000 1 0 0
-12.479862 8.894181 -9.724799 18.150073 -0.619187 2.136251 0.002106 0.006830 -1368900.000000 1 0 0
-13.913062 -3.583719 -12.210999 18.855367 0.252099 2.275245 0.019309 -0.002868 -1517250.000000 1 0 0
-14.804062 5.737781 -7.572899 17.590657 -0.369755 2.015851 0.012860 0.007036 -59188.300000 1 0 0
-10.932362 13.574881 -8.153499 19.242492 -0.892809 2.008349 0.017335 -0.013117 314125.000000 1 0 0
-10.923962 13.537581 3.981101 17.845118 -0.891840 1.345811 0.009394 -0.006303 -351935.000000 1 0 0
-15.218262 3.250181 3.160201 15.879107 -0.210410 1.370442 0.010815 0.002679 1154400.000000 1 0 0
-11.103762 9.515581 -12.319099 19.120670 -0.708526 2.270880 0.014020 -0.007795 -788844.000000 1 0 0
-13.125362 11.686781 -8.923599 19.710064 -0.727484 2.040636 0.020417 -0.013609 -222236.000000 1 0 0
-8.898662 14.604781 -3.453599 17.447440 -1.023568 1.770055 0.012562 -0.008035 210993.000000 1 0 0
-16.724462 8.206381 -3.990499 19.051940 -0.456165 1.781813 0.033712 0.001079 -792566.000000 1 0 0
-16.852162 6.785081 0.474401 18.172995 -0.382766 1.544689 0.028297 -0.000148 -198553.000000 1 0 0
-10.542362 2.856381 -12.493099 16.594513 -0.264591 2.423171 0.005357 -0.006362 1405940.000000 1 0 0
-16.871562 0.888881 2.444401 17.070876 -0.052637 1.427111 0.021930 -0.004629 -303296.000000 1 0 0
-12.754662 1.188281 -7.011799 14.603382 -0.092896 2.071621 0.004129 -0.003990 1827600.000000 1 0 0
-12.320162 8.989381 -5.402799 16.179790 -0.630348 1.911258 0.002824 0.001975 -891126.000000 1 0 0
-9.626462 13.944281 1.309201 16.994875 -0.966575 1.493685 0.017077 -0.007608 -1425070.000000 1 0 0
-12.257562 11.070181 2.827201 16.756784 -0.734542 1.401266 0.007743 -0.009100 -146071.000000 1 0 0
-12.614762 6.794881 -3.573799 14.767352 -0.494084 1.815230 -0.004204 0.003521 1111440.000000 1 0 0
-15.745962 3.610881 -9.293699 18.637238 -0.225423 2.092852 0.015785 -0.002949 -2002910.000000 1 0 0
-15.135162 5.752781 -4.605299 16.833788 -0.363229 1.847904 0.010482 0.007438 1047840.000000 1 0 0
-17.966762 5.126681 7.545501 20.149987 -0.277956 1.186975 0.030206 -0.013169 560078.000000 1 0 0
-15.819862 10.177281 -2.020499 18.918972 -0.571667 1.677798 0.032623 -0.001836 -472048.000000 1 0 0
-8.823862 9.985381 -8.364199 15.733029 -0.847072 2.131324 0.003793 -0.000865 931026.000000 1 0 0
-17.010062 4.221081 -1.160999 17.564386 -0.243239 1.636944 0.016766 0.000572 -358321.000000 1 0 0
-10.248162 5.330281 -4.499899 12.397009 -0.479614 1.942263 -0.003301 -0.000974 797009.000000 1 0 0
-18.351362 2.602581 6.125801 19.521049 -0.140880 1.251599 0.046566 -0.010502 -729782.000000 1 0 0
-10.345662 10.077281 -5.677899 15.518469 -0.772258 1.945375 -0.005276 -0.001297 613008.000000 1 0 0
-15.364562 0.514181 -5.874699 16.457407 -0.033453 1.935812 0.003248 0.000009 -1167640.000000 1 0 0
-16.417562 -4.083019 -8.912599 19.121763 0.243753 2.055671 0.030456 -0.017369 -553465.000000 1 0 0
-10.055162 9.603181 -1.045399 13.943466 -0.762410 1.645841 -0.002853 0.000923 2433400.000000 1 0 0
-17.446962 -3.000519 -3.166999 17.984146 0.170313 1.747819 0.022386 -0.008382 -204927.000000 1 0 0
-12.069662 5.166181 -11.509899 17.459781 -0.404435 2.290582 0.011778 -0.003077 -542859.000000 1 0 0
-16.417262 7.060381 6.048901 18.867026 -0.406147 1.244426 0.028864 -0.005400 -320553.000000 1 0 0
-12.131762 6.040281 -8.735899 16.123914 -0.461958 2.143371 0.002304 0.002379 428016.000000 1 0 0
-14.561962 8.495081 -0.002999 16.858741 -0.528105 1.570974 0.024715 -0.003303 2395380.000000 1 0 0
-14.919062 11.864181 3.874501 19.451195 -0.671830 1.370264 0.026299 -0.015767 1667940.000000 1 0 0
-17.255862 4.008081 -3.959199 18.152266 -0.228227 1.790674 0.010718 0.002355 1057150.000000 1 0 0
-13.821962 13.437381 -0.703699 19.290025 -0.771291 1.607284 0.035770 -0.008341 -21889.800000 1 0 0
-10.108562 6.914381 -13.027699 17.880510 -0.599915 2.387069 -0.000060 -0.007523 1140940.000000 1 0 0
-15.926462 -1.058919 -8.283499 17.983044 0.066390 2.049499 0.011674 -0.008465 918905.000000 1 0 0
-11.438562 11.955781 0.050401 16.546418 -0.807503 1.567750 0.018210 -0.006289 90972.200000 1 0 0
-12.057362 7.407681 -0.816699 14.174651 -0.550919 1.628445 -0.003360 0.002541 1788310.000000 1 0 0
-11.447262 0.128581 -11.613299 16.307209 -0.011232 2.363363 0.006799 -0.012274 -1090050.000000 1 0 0
-19.055662 -1.248219 -4.687399 19.663368 0.065410 1.811496 0.019155 -0.005340 -992217.000000 1 0 0
-17.908162 1.442881 -5.077599 18.669928 -0.080397 1.846233 0.004155 0.000400 10961.100000 1 0 0
-13.382962 -0.063619 -9.468399 16.393850 0.004754 2.186530 0.009026 -0.007955 -439087.000000 1 0 0
-6.157062 11.292581 -13.291399 18.495759 -1.071622 2.372610 0.004518 0.000743 -350204.000000 1 0 0
16.372838 5.798881 7.082401 18.757858 0.340391 1.183626 0.064039 -0.014811 1016160.000000 1 0 0
14.828538 10.177981 -5.473399 18.799865 0.601525 1.866215 0.052686 -0.011551 440446.000000 1 0 0
2.350238 16.953981 4.410801 17.675301 1.433050 1.318585 0.014664 -0.010169 2065230.000000 1 0 0
-3.908762 18.137981 -5.891399 19.467238 -1.358541 1.878249 0.014285 -0.010427 1495850.000000 1 0 0
5.398238 14.547781 5.680601 16.524168 1.215476 1.219862 0.009439 -0.008791 -638168.000000 1 0 0
9.965538 6.105781 15.032301 19.041076 0.549698 0.660856 0.029543 -0.005553 -497055.000000 1 0 0
4.691038 12.760781 -1.139499 13.643380 1.218517 1.654414 0.010049 -0.008392 1945880.000000 1 0 0
3.397038 13.787881 12.894101 19.180807 1.329229 0.833566 0.017543 -0.013617 -224483.000000 1 0 0
-0.867462 12.341381 9.201001 15.418190 -1.500623 0.931336 -0.000878 -0.001680 1753410.000000 1 0 0
-7.884062 13.833381 8.444601 18.023101 -1.052780 1.083155 0.013598 -0.019019 2634330.000000 1 0 0
11.437038 12.809481 -4.213099 17.681596 0.841942 1.811387 0.040443 -0.013956 241303.000000 1 0 0
-5.840762 16.207481 0.900501 17.251315 -1.224909 1.518574 0.004034 0.007270 1123100.000000 1 0 0
3.157338 10.615381 6.730701 12.959839 1.281699 1.024705 -0.003653 0.003044 4279540.000000 1 0 0
-1.277162 15.636981 2.513201 15.889069 -1.489301 1.411958 0.005284 0.001335 -2754000.000000 1 0 0
9.867138 8.827181 9.466601 16.275628 0.729826 0.950050 0.020918 -0.008594 1236750.000000 1 0 0
7.225838 12.217881 6.293501 15.527315 1.036713 1.153470 0.011186 -0.004298 1643700.000000 1 0 0
11.921538 14.047781 -1.591899 18.493171 0.867091 1.656983 0.040645 -0.008848 -140174.000000 1 0 0
9.670138 15.835881 -1.200799 18.593779 1.022585 1.635422 0.020675 -0.011921 49395.000000 1 0 0
10.108338 13.731281 2.951201 17.304224 0.936216 1.399411 0.025801 -0.008682 2024310.000000 1 0 0
-6.134262 14.522881 6.396501 17.013479 -1.171142 1.185357 0.001035 -0.009113 636880.000000 1 0 0
-0.949362 18.152981 -6.231499 19.216233 -1.518546 1.901050 0.026357 -0.001953 1622960.000000 1 0 0
-3.604662 15.671681 5.557201 17.014043 -1.344717 1.238067 -0.000424 -0.004453 3806350.000000 1 0 0
6.990938 12.216681 10.560101 17.596484 1.051035 0.927138 0.012801 -0.008779 2035260.000000 1 0 0
1.436538 14.671481 6.237401 16.006910 1.473194 1.170524 0.002716 -0.007162 -911364.000000 1 0 0
17.583138 7.746681 -1.471899 19.270295 0.414988 1.647253 0.036667 0.008807 399985.000000 1 0 0
2.147038 16.267681 -3.338999 16.745033 1.439573 1.771544 0.008365 -0.003638 1333070.000000 1 0 0
6.616038 11.153281 0.579701 12.980897 1.035398 1.526123 0.013602 -0.005025 535174.000000 1 0 0
12.723938 9.349781 3.185401 16.107879 0.633714 1.371730 0.028680 0.000801 -799897.000000 1 0 0
6.053338 14.242281 -3.418999 15.848502 1.168904 1.788236 0.005868 -0.008080 1509860.000000 1 0 0
3.035538 16.567081 1.568501 16.915758 1.389579 1.477939 0.014884 -0.013495 -815332.000000 1 0 0
2.790938 18.900381 -2.545899 19.274215 1.424190 1.703272 0.015979 -0.012778 -1255290.000000 1 0 0
3.888138 11.942581 10.603201 16.436871 1.256050 0.869660 0.010072 -0.007514 3371750.000000 1 0 0
7.978038 11.532281 3.383901 14.425442 0.965595 1.334011 0.008789 -0.002784 1285870.000000 1 0 0
0.678938 12.552681 0.227701 12.573091 1.516762 1.552685 0.007913 -0.004383 -1708260.000000 1 0 0
12.005838 9.814481 -4.605099 16.176252 0.685306 1.859472 0.028774 -0.005791 469389.000000 1 0 0
-1.322062 16.387781 9.980801 19.233398 -1.490297 1.025197 0.006030 -0.011198 -221789.000000 1 0 0
8.245138 14.688681 -7.962199 18.631593 1.059299 2.012355 0.017640 -0.010539 856061.000000 1 0 0
14.616438 7.575081 -1.442299 16.525808 0.478147 1.658183 0.022168 0.005108 1789810.000000 1 0 0
12.577438 8.334781 6.010001 16.241325 0.585236 1.191740 0.025600 -0.008374 -99898.800000 1 0 0
-3.145662 14.160481 10.216201 17.742186 -1.352202 0.957197 0.007133 -0.018399 1569720.000000 1 0 0
-4.527262 17.114781 -3.168799 17.984803 -1.312196 1.747914 0.012138 -0.002942 7295.270000 1 0 0
-7.109162 16.493681 -1.782299 18.048776 -1.163835 1.669707 0.010327 -0.000871 945508.000000 1 0 0
8.352638 11.187281 -1.889899 14.088773 0.929463 1.705344 0.012122 -0.006809 395539.000000 1 0 0
8.554938 12.900181 -4.204999 16.040064 0.985222 1.836052 0.019921 -0.007637 367712.000000 1 0 0
2.591738 14.742681 -7.316199 16.661048 1.396776 2.025415 0.004911 -0.002269 1151160.000000 1 0 0
11.338738 11.394381 9.681601 18.765188 0.787846 1.028699 0.037668 -0.015203 494318.000000 1 0 0
8.504138 15.731581 1.431801 17.940264 1.075216 1.490902 0.011454 -0.010915 572568.000000 1 0 0
6.014138 9.851581 7.694301 13.871761 1.022711 0.982826 0.009009 0.003270 3552110.000000 1 0 0
14.464838 11.480181 2.612601 18.650785 0.670864 1.430254 0.047806 -0.002695 622520.000000 1 0 0
12.186338 12.744781 1.046401 17.664406 0.807794 1.511524 0.037414 -0.000841 4075700.000000 1 0 0
5.112638 15.982281 8.187601 18.671079 1.261189 1.116848 0.019699 -0.005788 -841902.000000 1 0 0
11.545438 15.010381 5.103501 19.612608 0.915143 1.307551 0.043428 -0.008989 309879.000000 1 0 0
5.946038 16.869181 1.709601 17.967954 1.231914 1.475505 0.006714 -0.017016 525448.000000 1 0 0
-0.676062 16.121481 -4.157999 16.662778 -1.528885 1.823000 0.011067 -0.001957 1379560.000000 1 0 0
15.986638 6.484681 2.514401 17.434044 0.385352 1.426068 0.016464 -0.001649 -852310.000000 1 0 0
7.730338 16.639981 -3.208799 18.626419 1.135897 1.743931 0.004275 -0.012538 -941654.000000 1 0 0
14.886538 8.229481 7.503001 18.591083 0.505001 1.155369 0.062694 -0.015534 251347.000000 1 0 0
2.024638 12.935781 8.592801 15.661092 1.415541 0.990022 0.002093 -0.003616 2011600.000000 1 0 0
16.004038 7.486281 -5.940999 18.640523 0.437537 1.895169 0.031375 -0.000778 6002.060000 1 0 0
-3.050362 17.041681 0.686301 17.326125 -1.393678 1.531175 0.001107 0.002158 1464150.000000 1 0 0
-3.041562 18.498181 4.627701 19.309309 -1.407830 1.328779 0.001896 -0.003002 1074950.000000 1 0 0
-0.874862 19.042381 0.853901 19.081583 -1.524886 1.526031 0.010502 -0.007174 -145217.000000 1 0 0
7.086338 16.698281 -6.040699 19.119070 1.169455 1.892256 0.004639 -0.009047 -633480.000000 1 0 0
11.020138 10.223281 0.811501 15.053818 0.747905 1.516864 0.015076 0.001865 -1567360.000000 1 0 0
9.165738 8.790081 14.282601 19.112011 0.764480 0.726792 0.034859 -0.010982 786844.000000 1 0 0
6.423638 12.305881 -8.410699 16.230764 1.089706 2.115535 0.019483 -0.007220 54977.300000 1 0 0
6.334538 9.079581 13.248201 17.264993 0.961637 0.696106 0.021818 -0.010152 1466120.000000 1 0 0
16.684038 9.498381 2.906501 19.417109 0.517547 1.420544 0.036725 -0.002591 -517111.000000 1 0 0
2.627238 14.708081 -0.724299 14.958430 1.394035 1.619236 0.009672 -0.008051 1380600.000000 1 0 0
9.035038 12.974881 8.353601 17.881893 0.962525 1.084727 0.026645 -0.009854 2201100.000000 1 0 0
7.171338 9.302881 10.455901 15.725697 0.914070 0.843446 0.013376 -0.006503 1389950.000000 1 0 0
4.443238 15.781681 -5.249899 17.215263 1.296356 1.880689 0.012852 -0.005604 2910250.000000 1 0 0
0.247038 16.272081 -8.093199 18.175300 1.555616 2.032290 0.016030 -0.001260 2342630.000000 1 0 0
-2.418862 15.555481 -1.920299 15.859112 -1.416533 1.692179 -0.002785 0.001776 92334.100000 1 0 0
13.301338 10.519181 7.654601 18.605689 0.669128 1.146794 0.054198 -0.018299 2862050.000000 1 0 0
-1.030762 15.846081 7.115901 17.401058 -1.505839 1.149510 0.006867 -0.008712 2462010.000000 1 0 0
13.285138 13.384781 6.728501 20.022986 0.789134 1.228088 0.058089 -0.015182 -216166.000000 1 0 0
5.370738 17.412781 4.501001 18.769890 1.271618 1.328638 0.015353 -0.016169 605370.000000 1 0 0
10.855038 9.528281 -1.834499 14.559718 0.720400 1.697130 0.015179 0.000558 648522.000000 1 0 0
3.126638 12.737481 4.739201 13.945584 1.330088 1.224055 0.001767 -0.000584 1876900.000000 1 0 0
-0.247762 18.079881 3.663501 18.448976 -1.557093 1.370893 0.008474 -0.006876 1892820.000000 1 0 0
-7.764562 15.965181 -5.772999 18.668234 -1.118133 1.885192 0.029860 -0.011093 1123060.000000 1 0 0
-12.456362 -9.084319 8.328201 17.522692 0.630115 1.075513 0.045925 -0.014451 -29329.400000 1 0 0
-13.192962 -11.696919 6.798201 18.896764 0.725364 1.202791 0.042716 -0.013134 -716570.000000 1 0 0
-6.445162 -12.336819 12.392401 18.636223 1.089364 0.843352 0.026156 -0.014864 -991825.000000 1 0 0
-1.768162 -10.697519 14.364801 17.997522 1.406990 0.646571 0.006706 -0.009308 805198.000000 1 0 0
-8.883362 2.808081 10.964901 14.388485 -0.306166 0.704306 0.006141 -0.006419 1077860.000000 1 0 0
0.487538 10.095781 15.202201 18.255667 1.522543 0.586760 0.004470 -0.003342 -857065.000000 1 0 0
0.989638 -6.762319 16.558601 17.913559 -1.425482 0.391438 0.017119 -0.014506 2905210.000000 1 0 0
6.045238 2.226881 17.792001 18.922452 0.352945 0.347407 0.022738 -0.005202 1067320.000000 1 0 0
-5.068962 -2.847919 17.585801 18.522025 0.511884 0.319306 0.023707 -0.012526 1167250.000000 1 0 0
-4.348562 8.207881 13.033901 16.005058 -1.083591 0.619168 -0.002768 0.000371 -190358.000000 1 0 0
0.050538 -4.826419 18.464901 19.085320 -1.560326 0.255677 0.022397 -0.018904 140424.000000 1 0 0
-11.701662 2.056181 11.097101 16.257381 -0.173941 0.819498 0.021758 -0.010580 -101767.000000 1 0 0
-3.418962 -6.073419 14.328001 15.933214 1.058074 0.452736 0.011458 -0.007369 1108160.000000 1 0 0
-7.541362 -2.292619 14.609801 16.600437 0.295128 0.494755 0.015619 -0.004795 1004340.000000 1 0 0
-6.134662 -1.126119 10.617601 12.314044 0.181545 0.531130 0.009027 -0.006052 1063640.000000 1 0 0
-4.017162 2.407481 11.121601 12.067459 -0.539904 0.398564 0.001754 -0.002528 -63954.300000 1 0 0
-6.445262 6.202681 13.455001 16.157094 -0.766221 0.586720 -0.008904 0.000254 642889.000000 1 0 0
-8.919162 5.343481 12.529101 16.281358 -0.539758 0.692681 0.001310 -0.009563 -294526.000000 1 0 0
-12.438462 -2.309119 15.729201 20.185518 0.183554 0.677357 0.046402 -0.004247 3127050.000000 1 0 0
-3.415562 -7.632219 16.973301 18.921146 1.150008 0.457738 0.021155 -0.004913 -697626.000000 1 0 0
-0.575962 -5.404019 14.291601 15.290029 1.464617 0.363380 0.007930 -0.002669 2217960.000000 1 0 0
-14.396562 -2.375619 13.634001 19.969741 0.163539 0.819300 0.051956 -0.009446 -65269.800000 1 0 0
-6.505262 1.440281 12.153701 13.860205 -0.217888 0.501469 0.006676 -0.007235 2099730.000000 1 0 0
2.152038 -2.150919 14.600101 14.913774 -0.785138 0.205459 0.003793 -0.004043 863328.000000 1 0 0
-12.606262 4.039481 9.148501 16.091312 -0.310097 0.966070 0.013172 -0.010545 407924.000000 1 0 0
-9.156162 -3.035419 12.559401 15.836275 0.320115 0.654951 0.008691 -0.000526 491976.000000 1 0 0
-7.128262 -7.271519 15.322301 18.397283 0.795346 0.586547 0.021505 -0.005597 1031670.000000 1 0 0
-3.309962 6.036381 19.430701 20.614215 -1.069232 0.340501 0.036329 -0.005136 1070360.000000 1 0 0
0.655938 5.465981 16.131701 17.045204 1.451364 0.328873 0.015031 -0.005243 1695470.000000 1 0 0
3.352038 1.421081 16.833501 17.222728 0.400977 0.213004 0.007925 -0.007850 1844820.000000 1 0 0
-11.807762 11.295481 7.847401 18.127130 -0.763228 1.123079 0.010807 -0.014179 -625215.000000 1 0 0
0.739538 -9.492519 15.432701 18.133479 -1.493046 0.552793 0.005698 -0.001328 -1191180.000000 1 0 0
-2.573762 -3.519019 18.997501 19.491351 0.939315 0.225587 0.024464 -0.011351 1717330.000000 1 0 0
-12.881862 2.395881 13.663601 18.930837 -0.183888 0.764448 0.028881 -0.022101 250033.000000 1 0 0
-5.494162 -0.537419 15.681301 16.624615 0.097506 0.338488 0.016435 -0.004481 2099060.000000 1 0 0
-4.528562 -5.992019 11.637601 13.850845 0.923615 0.573128 0.005940 -0.002272 70658.200000 1 0 0
2.416638 1.868981 14.013101 14.342253 0.658298 0.214654 0.005836 -0.006008 -933145.000000 1 0 0
0.068038 3.336181 14.206301 14.592934 1.550405 0.230705 0.008847 -0.005902 525210.000000 1 0 0
-13.035762 6.857481 12.347001 19.219900 -0.484271 0.873161 0.026526 -0.011584 1145000.000000 1 0 0
0.780138 1.538881 18.236401 18.317835 1.101603 0.094328 0.016283 -0.007468 1143510.000000 1 0 0
-2.115862 6.386481 12.509301 14.203754 -1.250874 0.493450 -0.003487 -0.001811 -266270.000000 1 0 0
-13.612862 -2.701619 10.790501 17.579638 0.195915 0.909923 0.045625 -0.010509 -66759.400000 1 0 0
-2.604762 3.566581 13.484301 14.189138 -0.940007 0.316516 0.001544 -0.003377 -1471400.000000 1 0 0
3.574638 6.090981 16.263601 17.730843 1.040084 0.409678 0.015489 -0.004505 1834800.000000 1 0 0
-3.841862 12.364081 12.385801 17.917546 -1.269527 0.807556 0.010530 -0.011242 185983.000000 1 0 0
3.616938 -1.512419 17.146001 17.588490 -0.396053 0.224785 0.020380 -0.011618 -406890.000000 1 0 0
-15.923762 0.492681 9.241301 18.417670 -0.030930 1.045161 0.040722 -0.011686 -6864.620000 1 0 0
-4.729262 4.592681 15.128701 16.502613 -0.770748 0.410940 0.003605 -0.003971 447681.000000 1 0 0
-7.938462 -8.202719 10.440001 15.469240 0.801768 0.829984 0.018426 -0.013992 3849990.000000 1 0 0
-2.733162 -0.446619 14.700901 14.959483 0.161976 0.186202 0.007879 -0.005438 1187430.000000 1 0 0
-1.936562 0.979481 17.177001 17.313550 -0.468264 0.125676 0.016250 -0.010351 869060.000000 1 0 0
-0.722562 -2.463919 14.412601 14.639537 1.285537 0.176306 0.008119 -0.002984 576366.000000 1 0 0
5.089538 -8.096119 16.522301 19.090232 -1.009584 0.524679 0.011132 -0.009669 1575400.000000 1 0 0
-4.505462 9.943081 10.646901 15.248624 -1.145346 0.797888 0.002019 -0.006474 -2118760.000000 1 0 0
-6.316062 2.145481 15.133201 16.538122 -0.327457 0.415166 0.010680 -0.005768 -569392.000000 1 0 0
-5.022962 6.812081 17.197001 19.166936 -0.935433 0.457358 0.016257 0.002024 247576.000000 1 0 0
-4.145362 9.151381 15.771501 18.699520 -1.145470 0.567184 0.007808 -0.000246 -1269120.000000 1 0 0
-4.628062 -9.835719 18.447701 21.412099 1.130996 0.532472 0.031467 -0.010370 173566.000000 1 0 0
-6.867462 -4.139219 11.071601 13.670242 0.542424 0.626806 0.012053 -0.001141 651562.000000 1 0 0
-2.427162 -0.688219 19.607801 19.769436 0.276296 0.127962 0.026048 -0.006755 -1140550.000000 1 0 0
-5.732862 -4.539719 15.297001 16.955028 0.669768 0.445929 0.017257 -0.006215 2617290.000000 1 0 0
-13.072062 0.067781 9.680601 16.266451 -0.005185 0.933373 0.021736 -0.005779 1978640.000000 1 0 0
-14.516762 8.732481 10.741801 20.059384 -0.541555 1.005697 0.025678 -0.011173 -1358870.000000 1 0 0
-8.389762 10.506681 12.777601 18.548465 -0.896960 0.810858 0.013060 -0.015395 -599785.000000 1 0 0
-10.529862 7.124181 10.835101 16.704232 -0.594827 0.864995 0.017708 -0.008799 217606.000000 1 0 0
-9.873362 -6.576819 14.794201 18.963286 0.587622 0.675891 0.035975 -0.010650 -952277.000000 1 0 0
-0.640562 -13.422219 14.392001 19.689996 1.523108 0.751113 0.006609 -0.016363 840654.000000 1 0 0
3.825638 -5.534619 16.955101 18.241243 -0.965988 0.377761 0.023913 -0.017036 2125630.000000 1 0 0
-7.286562 9.268081 10.357601 15.693031 -0.904527 0.849961 0.003408 -0.005692 1244690.000000 1 0 0
-10.304662 -6.717419 11.753701 17.013502 0.577697 0.808139 0.036453 -0.017109 1007690.000000 1 0 0
-11.000062 -3.943119 10.705701 15.848078 0.344195 0.829126 0.025597 -0.003129 -1080750.000000 1 0 0
-10.060762 -10.212519 9.772101 17.349594 0.792884 0.972487 0.040123 -0.021334 -109880.000000 1 0 0
-9.941162 -3.666019 15.255001 18.573676 0.353299 0.607069 0.035894 -0.011870 829525.000000 1 0 0
5.621338 -3.237319 16.098201 17.356029 -0.522509 0.383053 0.025214 -0.014916 209422.000000 1 0 0
-11.448262 0.465381 15.304801 19.118478 -0.040628 0.642627 0.036797 -0.012023 -46144.000000 1 0 0
-3.127562 3.218381 18.584901 19.119052 -0.799709 0.236936 0.023995 -0.013936 -1465970.000000 1 0 0
0.405938 7.376081 13.962501 15.796290 1.515817 0.486638 0.006689 -0.002200 2125460.000000 1 0 0
-13.142562 -7.456219 12.112501 19.365816 0.516054 0.895078 0.056515 -0.020267 -409605.000000 1 0 0
-1.536662 -1.101519 12.162801 12.308875 0.621929 0.154214 0.003108 -0.002239 -114492.000000 1 0 0
1.971738 -4.807819 13.011001 14.010318 -1.181604 0.379978 0.002318 -0.004089 782294.000000 1 0 0
-14.690062 -4.255919 8.527801 17.510973 0.281994 1.062148 0.044703 -0.014671 -2416780.000000 1 0 0
8.008838 0.867081 16.125501 18.025678 0.107845 0.463295 0.030012 -0.010524 291172.000000 1 0 0
-1.321062 11.363881 13.420401 17.634913 -1.455065 0.705923 0.002583 -0.003578 1071950.000000 1 0 0
2.811038 -12.135819 -13.824799 18.609275 -1.343179 2.408186 -0.003854 0.010474 -516253.000000 1 0 0
0.785938 -10.598819 -13.961899 17.546717 -1.496778 2.490957 -0.007965 0.007112 -1773900.000000 1 0 0
3.237538 -14.400819 -12.472299 19.324168 -1.349657 2.272376 0.000396 0.011099 -777393.000000 1 0 0
-5.266462 -10.108119 -16.019699 19.660632 1.090480 2.523199 0.028630 -0.020387 -197456.000000 1 0 0
-1.024762 -12.225419 -15.108499 19.462214 1.487170 2.459570 0.006993 0.003905 -483755.000000 1 0 0
5.713438 -15.104319 -12.138099 20.201913 -1.209166 2.215347 0.003916 0.005336 320609.000000 1 0 0
1.840938 -11.899019 -16.059499 20.071951 -1.417300 2.498253 -0.004163 0.005649 -903896.000000 1 0 0
1.190638 -14.211319 -14.052499 20.021287 -1.487211 2.348827 0.005311 0.011499 -79302.100000 1 0 0
-1.046262 -10.555519 -15.872999 19.090986 1.471999 2.552490 0.001728 -0.006427 -413600.000000 1 0 0
-5.905862 -5.621519 -15.023999 17.093895 0.760736 2.644369 0.013483 -0.005086 -192201.000000 1 0 0
-6.519362 -7.562019 -16.557999 19.335293 0.859308 2.598978 0.022031 -0.004526 467785.000000 1 0 0
4.993738 -12.649219 -11.523499 17.825016 -1.194793 2.273757 -0.005404 0.010208 135401.000000 1 0 0
-1.651462 -15.547619 -13.221499 20.475933 1.464973 2.272748 0.014070 0.001600 -136125.000000 1 0 0
15.691938 -7.332819 -8.824699 19.439199 -0.437146 2.042006 0.052424 -0.014953 728254.000000 1 0 0
19.282138 -3.709719 -4.263499 20.093289 -0.190069 1.784607 0.082167 -0.034547 -11712.000000 1 0 0
14.988938 -11.549319 -8.824699 20.878945 -0.656507 2.007175 0.063482 -0.027220 567565.000000 1 0 0
18.034238 -3.541419 -6.533999 19.505602 -0.193905 1.912381 0.092434 -0.022661 689390.000000 1 0 0
9.521538 -9.264719 -15.518899 20.428679 -0.771728 2.433590 0.057675 -0.010740 434040.000000 1 0 0
1.211338 1.861081 -15.156499 15.318304 0.993804 2.996118 0.009869 -0.004788 271580.000000 1 0 0
4.806438 -4.375819 -13.883899 15.330111 -0.738536 2.703735 0.004429 -0.004477 1202410.000000 1 0 0
13.005738 -5.416219 -8.618999 16.515804 -0.394605 2.119831 0.028636 -0.011997 -1332290.000000 1 0 0
2.982738 0.957881 -12.140699 12.538375 0.310738 2.889062 0.005868 -0.005272 -2581660.000000 1 0 0
0.643938 6.340881 -12.904199 14.392352 1.469590 2.682830 0.011314 -0.007507 399096.000000 1 0 0
3.125938 -1.168719 -16.673199 17.003910 -0.357786 2.944045 0.018315 -0.008349 -634452.000000 1 0 0
13.202338 4.412281 -11.503899 18.058506 0.322534 2.261442 0.011197 -0.004690 662179.000000 1 0 0
-3.810162 9.447381 -16.641499 19.511788 -1.187445 2.592301 0.007709 0.003373 -843186.000000 1 0 0
-0.285262 -5.071019 -17.718499 18.432087 1.514602 2.862427 0.007777 -0.010212 559754.000000 1 0 0
-0.565862 -8.542519 -17.539899 19.517759 1.504652 2.687510 0.004845 -0.008976 185479.000000 1 0 0
5.544538 -10.245219 -12.348399 16.976141 -1.074748 2.385318 -0.000019 0.007139 373280.000000 1 0 0
1.812738 -9.716719 -18.062599 20.590244 -1.386358 2.640880 0.015368 -0.009624 -81925.300000 1 0 0
11.117738 8.681181 -14.514399 20.239436 0.662949 2.370478 0.069272 -0.018577 23347.900000 1 0 0
10.741238 -3.727519 -12.853799 17.160674 -0.334025 2.417388 0.012009 -0.004697 769722.000000 1 0 0
4.988138 7.463381 -12.332799 15.253902 0.981630 2.512397 0.008568 -0.002338 142400.000000 1 0 0
9.423638 -5.943019 -12.741699 16.925582 -0.562652 2.423113 0.006845 -0.000067 -1937700.000000 1 0 0
-3.352262 0.367781 -15.829899 16.185136 -0.109274 2.931692 0.012282 -0.005099 -1111630.000000 1 0 0
-0.735062 10.810481 -12.853599 16.811360 -1.502905 2.441183 0.009079 -0.001494 -1324390.000000 1 0 0
6.695638 -5.526819 -12.377299 15.118691 -0.690059 2.529897 0.004635 -0.002464 -690039.000000 1 0 0
17.892338 -5.993419 -8.287899 20.609369 -0.323224 1.984652 0.074325 -0.024859 1275210.000000 1 0 0
13.279238 4.882881 -13.999499 19.903936 0.352362 2.350900 0.034632 -0.007771 430780.000000 1 0 0
14.158138 0.890081 -11.481299 18.250078 0.062784 2.251204 0.023464 -0.004961 448774.000000 1 0 0
15.124138 6.061681 -11.073899 19.700629 0.381192 2.167730 0.034169 -0.013342 71468.200000 1 0 0
8.308038 1.449081 -11.780799 14.488290 0.172682 2.520298 -0.000328 0.001883 617164.000000 1 0 0
9.866638 1.220581 -8.918799 13.356098 0.123083 2.302005 0.002158 -0.001528 436013.000000 1 0 0
-0.135662 -5.851919 -13.055199 14.307396 1.547618 2.720099 0.003497 -0.005405 133292.000000 1 0 0
10.536638 -5.796219 -9.013999 15.028941 -0.502921 2.214018 0.011379 -0.008564 -867864.000000 1 0 0
10.306238 8.498781 -11.206999 17.436876 0.689577 2.268838 0.030629 -0.012114 698598.000000 1 0 0
8.534938 8.070881 -14.789599 18.886941 0.757460 2.470366 0.044203 -0.005260 903331.000000 1 0 0
8.692838 10.512381 -10.767799 17.378754 0.879858 2.239024 0.036233 -0.009389 -1827960.000000 1 0 0
7.035138 1.694881 -17.884899 19.293403 0.236411 2.757118 0.025742 -0.001217 -3004610.000000 1 0 0
12.143638 2.643081 -13.026499 18.003986 0.214309 2.379705 0.015947 -0.005160 -1373040.000000 1 0 0
2.798338 -0.843319 -19.236099 19.456860 -0.292708 2.990810 0.030460 -0.013513 -312066.000000 1 0 0
10.319638 -2.346219 -15.714199 18.945599 -0.223555 2.548897 0.037354 -0.004678 467232.000000 1 0 0
8.336238 -0.926419 -13.052499 15.515117 -0.110677 2.570436 0.005009 -0.001659 999227.000000 1 0 0
0.463338 4.323981 -14.676899 15.307608 1.464048 2.853536 0.009143 -0.001323 286936.000000 1 0 0
4.012738 -7.554119 -15.799999 17.966824 -1.082502 2.645394 0.017691 -0.010857 -1763410.000000 1 0 0
11.391738 -5.828919 -14.263599 19.162418 -0.472948 2.410361 0.041688 -0.008439 -1378170.000000 1 0 0
-5.815562 4.449881 -16.703199 18.237847 -0.653138 2.728425 0.012724 -0.003817 -6824.060000 1 0 0
11.474038 7.747181 -9.021599 16.524576 0.593882 2.148319 0.024746 -0.008213 -2270110.000000 1 0 0
9.512838 6.129681 -13.395899 17.536168 0.572399 2.440133 0.019581 -0.003627 -789622.000000 1 0 0
12.039838 0.701581 -10.056599 15.703028 0.058206 2.265847 0.017241 -0.003301 -2441940.000000 1 0 0
5.515038 -7.303519 -13.828999 16.583071 -0.924026 2.556974 0.010810 0.001384 -1263630.000000 1 0 0
8.576638 -10.153019 -10.772499 17.108163 -0.869365 2.251925 0.012307 0.000062 50822.000000 1 0 0
10.069138 4.665881 -15.756299 19.272233 0.433928 2.527966 0.043608 -0.008333 -114766.000000 1 0 0
9.989838 -0.385019 -11.003399 14.866738 -0.038522 2.404068 0.005496 -0.000944 -438836.000000 1 0 0
-1.755262 5.491581 -13.972199 15.114919 -1.261431 2.750250 0.006669 -0.005189 1534500.000000 1 0 0
1.274638 -0.746919 -14.912599 14.985600 -0.530051 3.042847 0.008737 -0.005019 -310112.000000 1 0 0
11.483538 -10.379819 -14.053599 20.907318 -0.734958 2.307953 0.076738 -0.016588 -313075.000000 1 0 0
9.381038 -7.684019 -10.894899 16.301744 -0.686280 2.302754 0.012971 -0.002420 -213643.000000 1 0 0
13.886138 -0.986819 -9.753099 16.997693 -0.070946 2.181922 0.018706 -0.004147 610897.000000 1 0 0
3.965338 10.995481 -12.204199 16.898728 1.224680 2.377769 0.024431 -0.015778 -839845.000000 1 0 0
-1.295562 2.911581 -16.897399 17.195287 -1.152134 2.955184 0.014225 -0.002982 -327968.000000 1 0 0
5.826338 -0.477919 -17.551299 18.499263 -0.081844 2.820074 0.009355 -0.006865 -279112.000000 1 0 0
6.422138 -6.446919 -16.116999 18.508492 -0.787324 2.627602 0.024698 -0.008507 168252.000000 1 0 0
-1.733662 -5.051819 -19.848099 20.554160 1.240214 2.878725 0.010180 -0.016399 -1027780.000000 1 0 0
-0.018662 -4.356319 -15.216899 15.828199 1.566512 2.862766 0.004074 -0.008264 -134025.000000 1 0 0
0.522738 0.768281 -12.889799 12.923252 0.973347 3.069625 0.009068 -0.006263 94291.400000 1 0 0
15.691538 0.596881 -13.572299 20.755431 0.038020 2.283545 0.047790 -0.018332 611252.000000 1 0 0
-0.141962 7.060581 -16.281899 17.747456 -1.550693 2.732348 0.012466 0.002041 -449379.000000 1 0 0
-4.667962 -0.595019 -18.218499 18.816419 0.126785 2.888823 0.002785 -0.004398 -141261.000000 1 0 0
10.338638 -8.331619 -13.163999 18.697438 -0.678311 2.351886 0.019758 -0.008019 325376.000000 1 0 0
4.356738 8.211381 -17.621199 19.922716 1.082990 2.656170 0.029341 -0.009180 62158.800000 1 0 0
8.992438 0.340381 -16.807099 19.064585 0.037834 2.650011 0.019334 -0.010592 -890242.000000 1 0 0
3.312838 4.790281 -18.514599 19.409072 0.965747 2.836818 0.020837 0.001816 -441664.000000 1 0 0
1.502638 -7.963219 -16.055699 17.984890 -1.384292 2.674170 0.003318 -0.002979 -392558.000000 1 0 0
4.412938 7.934081 -14.980999 17.517249 1.063205 2.596760 0.013617 0.003714 535681.000000 1 0 0
-5.698362 -0.460919 -15.200699 16.240229 0.080710 2.781859 0.005211 -0.004631 163438.000000 1 0 0
2.853438 3.399881 -13.734199 14.433625 0.872561 2.829008 0.007309 -0.002614 -423036.000000 1 0 0
-2.442462 -10.337319 -18.084099 20.972850 1.338775 2.610516 0.012131 -0.009426 649523.000000 1 0 0
6.231038 -9.024819 -15.572599 19.046759 -0.966520 2.528024 0.019360 -0.003957 65933.300000 1 0 0
-1.880762 5.483881 -17.187999 18.139392 -1.240405 2.816281 0.016501 -0.002399 -41545.700000 1 0 0
10.041338 -12.075519 -11.661599 19.561174 -0.877114 2.209507 0.048545 -0.010512 -691365.000000 1 0 0
10.865538 3.643681 -9.293899 14.755097 0.323558 2.252191 0.005166 -0.004675 -1313490.000000 1 0 0
4.849138 -0.416419 -10.827099 11.870704 -0.085665 2.719139 -0.001975 -0.001118 -260626.000000 1 0 0
6.403038 9.513281 -11.492699 16.235256 0.978379 2.357296 0.028684 -0.009956 -60587.700000 1 0 0
10.773038 -9.496519 -9.485899 17.211174 -0.722504 2.154535 0.024167 -0.008930 -1617270.000000 1 0 0
3.202738 -2.483119 -14.436599 14.994626 -0.659505 2.867920 0.006433 -0.004921 -396950.000000 1 0 0
9.185238 -4.603019 -14.888199 18.089081 -0.464553 2.537555 0.022970 -0.002715 82437.600000 1 0 0
-4.042262 -6.612019 -16.571899 18.294440 1.022072 2.704163 0.002736 -0.008078 -906742.000000 1 0 0
5.783838 -7.854319 -11.301799 14.928957 -0.936063 2.429565 -0.004818 0.003126 -364292.000000 1 0 0
5.385638 6.151181 -16.660799 18.558673 0.851658 2.685401 0.018032 -0.018860 -1640720.000000 1 0 0
9.130038 1.065881 -19.229099 21.313187 0.116218 2.695677 0.052503 -0.016575 517163.000000 1 0 0
13.162538 5.692481 -9.295899 17.090070 0.408186 2.145917 0.003039 -0.006805 711629.000000 1 0 0
-1.512262 -0.609819 -17.193199 17.270348 0.383304 3.047036 0.012823 -0.007623 768913.000000 1 0 0
-0.340262 -0.552119 -19.554299 19.565051 1.018489 3.108438 0.026716 -0.013612 -189924.000000 1 0 0
2.790838 6.447881 -16.589499 18.015977 1.162312 2.740978 0.010741 0.004824 -95492.000000 1 0 0
7.640538 3.618281 -15.524699 17.677275 0.442276 2.642943 0.018845 -0.003490 522639.000000 1 0 0
3.000838 -9.780719 -15.064499 18.210069 -1.273102 2.545013 0.002032 0.007490 391254.000000 1 0 0
8.960438 -10.547619 -13.369399 19.242727 -0.866580 2.338906 0.036595 -0.004705 -23952.000000 1 0 0
3.784738 0.102781 -14.715799 15.195050 0.027150 2.889771 0.009837 -0.004117 -1666270.000000 1 0 0
-1.222862 -2.768019 -18.689799 18.933196 1.154797 2.981073 0.021576 -0.012387 449325.000000 1 0 0
9.255538 9.999081 -13.142899 18.930991 0.823995 2.338178 0.046882 -0.016357 -118206.000000 1 0 0
4.736838 2.103181 -10.696999 11.886412 0.417858 2.690417 -0.001205 -0.000518 34275.800000 1 0 0
-0.460962 7.037581 -18.871699 20.146490 -1.505390 2.783948 0.028687 -0.002319 191560.000000 1 0 0
0.889138 -1.782819 -17.556799 17.669471 -1.108169 3.028602 0.020331 -0.013819 -1729150.000000 1 0 0
-4.505062 -2.256419 -14.017599 14.895640 0.464338 2.796529 0.009664 -0.008450 -2957400.000000 1 0 0
10.157838 5.983581 -10.422999 15.736068 0.532337 2.294766 0.011572 -0.002702 56114.400000 1 0 0
8.212338 5.272381 -17.506599 20.042992 0.570736 2.633045 0.040191 -0.011767 -451571.000000 1 0 0
11.428338 0.164081 -13.586299 17.754474 0.014356 2.442199 0.017832 0.001681 283103.000000 1 0 0
6.815038 11.921981 -11.975799 18.220816 1.051494 2.287973 0.047631 -0.018521 -279906.000000 1 0 0
-0.995262 0.492481 -14.848699 14.890163 -0.459499 3.066948 0.011570 -0.003637 -1008670.000000 1 0 0
-4.324662 -2.913319 -19.048699 19.749508 0.592823 2.874397 0.008707 -0.000496 -625145.000000 1 0 0
5.809238 -12.073419 -14.081899 19.437453 -1.122335 2.381065 0.007878 0.007208 119128.000000 1 0 0
2.176038 -4.897519 -13.961199 14.954462 -1.152681 2.775075 0.004642 -0.003214 -472556.000000 1 0 0
11.618938 1.959981 -15.533299 19.496785 0.167115 2.492629 0.037971 -0.006559 397583.000000 1 0 0
9.687138 2.192281 -13.832899 17.029264 0.222560 2.518884 0.013550 -0.002805 470756.000000 1 0 0
-2.295662 -4.219419 -16.300099 16.993140 1.072517 2.855013 0.004887 -0.011009 -48079.200000 1 0 0
-2.819362 10.126781 -14.298399 17.746682 -1.299266 2.507643 0.010384 -0.003143 37352.600000 1 0 0
3.492338 5.825581 -13.664999 15.259949 1.030757 2.680308 0.010475 -0.001949 -434758.000000 1 0 0
-5.154162 -2.572919 -16.564699 17.537804 0.463001 2.806908 0.009803 -0.003126 283484.000000 1 0 0
-4.382962 6.212881 -13.612899 15.592347 -0.956413 2.632219 0.005635 -0.003943 -63426.200000 1 0 0
5.901338 -1.202119 -14.166099 15.393156 -0.200953 2.739606 0.003247 0.000632 -663985.000000 1 0 0
6.679838 -3.003819 -12.637799 14.606750 -0.422591 2.616351 0.000368 -0.002628 599170.000000 1 0 0
2.964238 -3.210219 -18.226799 18.743223 -0.825216 2.906305 0.028656 -0.020891 -47048.800000 1 0 0
7.449038 -12.106219 -12.019599 18.615033 -1.019198 2.272727 0.012258 0.001467 -1084390.000000 1 0 0
-5.964162 -5.251819 -17.633599 19.341579 0.721972 2.718184 0.023809 -0.008113 212610.000000 1 0 0
0.499738 8.682381 -11.916099 14.752183 1.513302 2.511124 0.007411 -0.002685 133064.000000 1 0 0
0.357938 8.589281 -14.397599 16.768862 1.529148 2.603312 0.007451 -0.001065 133104.000000 1 0 0
7.763238 -2.563919 -15.030899 17.110508 -0.318986 2.643426 0.013147 -0.011579 -347347.000000 1 0 0
14.384538 1.398681 -8.873299 16.958970 0.096930 2.121423 0.021102 -0.005411 411974.000000 1 0 0
2.612338 10.695481 -14.467199 18.180140 1.331240 2.491073 0.015413 -0.007692 -231265.000000 1 0 0
6.142538 0.985281 -15.473999 16.677716 0.159048 2.759335 0.012324 -0.001461 495601.000000 1 0 0
16.477038 -5.437519 -10.420399 20.239667 -0.318753 2.111629 0.081284 -0.022277 579255.000000 1 0 0
4.874438 -4.336719 -11.226399 12.984580 -0.727087 2.615140 -0.004898 0.002596 -1908900.000000 1 0 0
8.748138 -3.690119 -17.278299 19.715134 -0.399172 2.639127 0.024165 -0.010166 32769.500000 1 0 0
13.272138 -9.589219 -8.959699 18.664913 -0.625672 2.071484 0.056035 -0.022597 -896128.000000 1 0 0
2.414838 -7.745919 -13.666299 15.893346 -1.268589 2.605822 -0.001173 0.000223 166105.000000 1 0 0
-6.790862 -2.246819 -18.484699 19.820397 0.319522 2.772375 0.012226 -0.002323 410125.000000 1 0 0
-1.541062 -6.505719 -15.674099 17.040441 1.338205 2.738412 0.004924 -0.009322 -263801.000000 1 0 0
1.550438 -7.178319 -18.482099 19.887688 -1.358075 2.763373 0.026431 -0.017637 -523131.000000 1 0 0
5.131138 10.970581 -14.609099 18.976512 1.133306 2.449405 0.051842 -0.021578 -1225320.000000 1 0 0
5.520838 -3.389419 -17.334999 18.505945 -0.550601 2.783954 0.028885 -0.017751 396375.000000 1 0 0
3.763338 13.035781 -13.968899 19.473686 1.289745 2.370747 0.038810 -0.020010 93865.400000 1 0 0
9.465538 10.319181 -15.644199 20.995782 0.828518 2.411498 0.081319 -0.025972 275642.000000 1 0 0
2.468538 3.827081 -16.250499 16.876580 0.997931 2.868355 0.014921 -0.001023 486964.000000 1 0 0
16.580038 1.702281 -11.435199 20.212847 0.102312 2.172126 0.044730 -0.010735 -862485.000000 1 0 0
9.825638 -3.791219 -10.470399 14.850783 -0.368249 2.353276 0.011141 -0.003589 123634.000000 1 0 0
14.473538 -2.370019 -11.935899 18.909415 -0.162308 2.253915 0.044811 -0.010439 -65057.400000 1 0 0
-2.809562 -8.737219 -16.091699 18.524995 1.259677 2.623263 0.006235 -0.002889 15033.100000 1 0 0
14.107338 8.160681 -9.050799 18.642174 0.524439 2.077733 0.043503 -0.006890 707426.000000 1 0 0
-8.299262 -0.070119 -16.497999 18.467990 0.008449 2.675496 0.005883 -0.004593 -662150.000000 1 0 0
-3.475162 3.973181 -15.781099 16.640493 -0.852162 2.818806 0.008307 -0.005504 223053.000000 1 0 0
15.061138 3.841781 -9.771999 18.359987 0.249753 2.132046 0.015547 -0.003005 313691.000000 1 0 0
5.482838 1.103681 -12.906399 14.066086 0.198643 2.732682 -0.000364 -0.001343 267581.000000 1 0 0
7.783238 -7.831019 -12.790899 16.897063 -0.788458 2.429490 0.017452 0.001142 -2945680.000000 1 0 0
3.301038 -6.200619 -11.766899 13.704176 -1.081588 2.603399 -0.001599 0.001208 -914609.000000 1 0 0
-3.281362 3.757481 -18.393899 19.058372 -0.852937 2.876754 0.020831 -0.000251 -290452.000000 1 0 0
0.804738 5.144681 -17.698199 18.448350 1.415632 2.855443 0.020644 -0.006950 783663.000000 1 0 0
6.464838 7.109981 -10.296299 14.084024 0.832887 2.390674 0.010890 -0.003930 388070.000000 1 0 0
9.773038 3.681681 -11.634599 15.634287 0.360276 2.410091 0.013460 -0.002702 16321.900000 1 0 0
4.490638 1.744281 -17.441099 18.094206 0.370489 2.872097 0.017740 -0.001493 71544.700000 1 0 0
2.635038 8.188781 -13.180899 15.739621 1.259474 2.563368 0.010813 -0.003039 -1395510.000000 1 0 0
14.248138 -3.449519 -9.785199 17.625514 -0.237533 2.159367 0.039536 -0.011990 261989.000000 1 0 0
-1.317162 9.302281 -16.230899 18.753918 -1.430136 2.616878 0.010337 0.001848 -2603730.000000 1 0 0
-5.335762 2.050481 -15.772899 16.776745 -0.366891 2.793909 0.011837 -0.005339 807273.000000 1 0 0
4.349938 4.368581 -11.845499 13.353738 0.787537 2.661723 0.008550 -0.004175 547946.000000 1 0 0
9.254838 2.941481 -17.496799 20.011055 0.307735 2.634905 0.033778 -0.010084 775258.000000 1 0 0
-4.413262 14.438781 -13.279399 20.107156 -1.274161 2.292190 0.027232 -0.006532 -42466.100000 1 0 0
15.443438 -4.911619 -8.021599 18.082307 -0.307923 2.030426 0.047298 -0.014780 -800845.000000 1 0 0
1.221038 9.285181 -16.687899 19.136131 1.440043 2.630197 0.010572 0.003141 -641220.000000 1 0 0
0.463338 -3.383019 -12.771099 13.219700 -1.434683 2.880334 0.004915 -0.005657 247410.000000 1 0 0
7.586038 3.607181 -12.942499 15.429453 0.443858 2.565904 0.007451 -0.002537 374847.000000 1 0 0
-2.838862 7.620781 -15.160599 17.204047 -1.214205 2.649239 0.004718 0.000104 -687559.000000 1 0 0
12.016438 -5.146619 -11.055899 17.120612 -0.404661 2.272822 0.029151 -0.007288 -683392.000000 1 0 0
0.685138 -4.203219 -19.929099 20.379045 -1.409214 2.931067 0.029055 -0.019605 -968705.000000 1 0 0
3.496238 -4.569319 -16.107799 17.104489 -0.917666 2.798531 0.022697 -0.015857 502983.000000 1 0 0
-5.722062 4.065581 -14.250599 15.885545 -0.617745 2.683912 0.008174 -0.003595 714777.000000 1 0 0
12.257438 -7.485719 -9.813199 17.394817 -0.548256 2.170194 0.024747 -0.009041 76198.200000 1 0 0
-2.036962 -1.907919 -15.034799 15.291650 0.752698 2.958050 0.010059 -0.005502 1031380.000000 1 0 0
7.020838 5.892881 -14.296999 16.983003 0.698274 2.571483 0.014080 -0.003655 334636.000000 1 0 0
4.165938 -5.393619 -18.519599 19.733771 -0.913124 2.788976 0.039104 -0.019325 -90216.300000 1 0 0
7.623938 7.485381 -12.443899 16.401402 0.776228 2.432126 0.018737 -0.007202 -1552690.000000 1 0 0
12.085038 -2.568319 -10.940399 16.502628 -0.209405 2.295547 0.017239 -0.006877 -752060.000000 1 0 0
7.532138 -0.775219 -10.675699 13.088339 -0.102560 2.524674 -0.003156 -0.000067 487053.000000 1 0 0
5.300438 3.993081 -14.244899 15.714850 0.645641 2.705623 0.008611 -0.001660 -230867.000000 1 0 0
14.787238 2.977881 -12.946799 19.878375 0.198724 2.280094 0.032029 -0.015123 732042.000000 1 0 0
-6.519162 6.853981 -15.712799 18.340354 -0.810430 2.599699 0.012449 0.002561 404901.000000 1 0 0
-11.185162 3.778781 -16.452499 20.250229 -0.325800 2.519155 0.047758 -0.017298 -12695.700000 1 0 0
-4.883062 6.486481 -17.856099 19.615275 -0.925502 2.714843 0.014593 0.007667 -429985.000000 1 0 0
-9.944562 1.670281 -15.589399 18.566463 -0.166406 2.567442 0.030139 -0.013437 -309568.000000 1 0 0
-7.494862 6.002281 -17.921599 20.331849 -0.675261 2.649730 0.020875 0.000042 184558.000000 1 0 0
-8.718262 3.971881 -15.742999 18.428944 -0.427486 2.594911 0.009116 0.005984 -1797630.000000 1 0 0
9.021438 13.274081 -12.023199 20.053551 0.973874 2.213741 0.075763 -0.033218 -461515.000000 1 0 0
14.173638 9.264281 -11.402499 20.414110 0.578921 2.163445 0.055460 -0.005535 116106.000000 1 0 0
8.397738 15.865881 -9.047299 20.102284 1.083988 2.037633 0.035852 -0.019504 -45116.700000 1 0 0
7.202538 13.687881 -13.879999 20.781940 1.086411 2.302163 0.069993 -0.019774 46585.600000 1 0 0
4.925338 15.942081 -12.677199 20.955197 1.271147 2.220521 0.038621 -0.021613 284164.000000 1 0 0
11.143538 10.901481 -11.594899 19.428392 0.774419 2.210306 0.067114 -0.014257 -30422.400000 1 0 0
15.864238 9.947181 -9.424399 20.962818 0.560050 2.037088 0.079060 -0.010020 -661648.000000 1 0 0
13.307838 10.507081 -9.254699 19.317007 0.668331 2.070421 0.077473 -0.015071 37270.800000 1 0 0
10.569838 11.877081 -8.340599 17.954167 0.843570 2.053922 0.041156 -0.005074 154950.000000 1 0 0
5.344938 16.213781 -10.097299 19.834579 1.252361 2.104907 0.025388 -0.017033 -213171.000000 1 0 0
6.800738 14.527681 -11.429399 19.696059 1.132974 2.189879 0.040183 -0.016533 -555429.000000 1 0 0
10.748838 13.987581 -9.857699 20.208023 0.915588 2.080377 0.066330 -0.015513 -462708.000000 1 0 0
8.127838 -18.714719 -1.575699 20.464244 -1.161073 1.647870 0.039181 0.002265 31021.800000 1 0 0
7.442938 -17.206419 -3.574699 19.084985 -1.162533 1.759213 0.027526 -0.008760 -93716.500000 1 0 0
4.469738 -18.513519 5.728401 19.888276 -1.333899 1.278628 0.031276 0.006207 -222088.000000 1 0 0
9.841138 -17.024219 -2.664399 19.843665 -1.046660 1.705473 0.031409 -0.008230 115071.000000 1 0 0
-9.550962 -12.453119 -10.028299 18.624388 0.916533 2.139393 0.030549 -0.006868 -276424.000000 1 0 0
-5.103562 -7.009819 -12.035499 14.833649 0.941486 2.517279 0.004028 -0.007530 822521.000000 1 0 0
-10.747762 -9.533019 -5.813899 15.498202 0.725573 1.955337 0.011934 -0.004077 235385.000000 1 0 0
-4.504662 -11.424419 -14.030999 18.646133 1.195212 2.422629 0.018042 -0.006914 422286.000000 1 0 0
-2.795162 -15.510619 7.506301 17.456711 1.392500 1.126309 0.004846 -0.002153 20364.300000 1 0 0
-4.675762 -12.080619 -11.595099 17.385351 1.201506 2.300900 0.011230 -0.005370 309395.000000 1 0 0
-14.249062 -12.775219 -4.043499 19.559956 0.730914 1.779021 0.016045 -0.006564 -193546.000000 1 0 0
-3.229962 -12.237319 -3.262899 13.070239 1.312738 1.823108 0.007479 -0.002170 869244.000000 1 0 0
-2.324762 -17.267519 -1.532799 17.490603 1.436969 1.658544 0.002471 -0.008238 -310409.000000 1 0 0
-5.690262 -12.113219 3.715501 13.889352 1.131635 1.299991 0.006007 -0.003022 469899.000000 1 0 0
-8.752362 -10.685319 -11.924399 18.247498 0.884516 2.282971 0.021120 -0.004976 -1092630.000000 1 0 0
-9.544062 -12.177919 -7.453199 17.173847 0.906062 2.019708 0.021811 -0.004028 101155.000000 1 0 0
-10.784062 -14.915419 6.151901 19.406483 0.944791 1.248229 0.048217 -0.013574 -1086180.000000 1 0 0
-9.403462 -15.777919 0.639401 18.378701 1.033331 1.535999 0.023429 -0.003045 -1144210.000000 1 0 0
-14.832962 -7.518519 -8.088499 18.492396 0.469136 2.023497 0.026342 -0.013369 -172325.000000 1 0 0
-2.378262 -16.564119 5.149301 17.508325 1.428192 1.272276 0.013746 -0.004212 -817635.000000 1 0 0
4.556438 -15.884319 5.678301 17.473288 -1.291446 1.239816 0.025420 -0.009169 -55528.500000 1 0 0
4.270738 -14.713419 -10.091899 18.345853 -1.288298 2.153270 0.001287 -0.000070 184576.000000 1 0 0
-7.514762 -14.045319 -0.396699 15.934240 1.079514 1.595695 0.012193 -0.001342 1088960.000000 1 0 0
3.051638 -14.765919 9.490001 17.815863 -1.366998 1.009042 0.023606 -0.018734 -806934.000000 1 0 0
2.463138 -17.243719 10.215601 20.193350 -1.428914 1.040384 0.049525 -0.018575 -515023.000000 1 0 0
-8.293462 -17.298019 -5.737299 20.022976 1.123727 1.861405 0.028686 -0.006372 -621621.000000 1 0 0
-6.471162 -9.118119 -7.815199 13.641605 0.953587 2.180829 0.011494 -0.007034 404911.000000 1 0 0
-6.065962 -13.164419 -4.908999 15.303467 1.139010 1.897346 0.002897 -0.003961 361351.000000 1 0 0
2.240738 -19.337119 -5.025499 20.104744 -1.455433 1.823441 0.022911 -0.015184 -15867.800000 1 0 0
-5.401162 -12.657719 8.312101 16.077357 1.167479 1.027446 0.008919 -0.013951 973327.000000 1 0 0
2.222638 -17.485019 3.535901 17.976890 -1.444358 1.372814 0.011595 -0.009690 433974.000000 1 0 0
-17.698962 -10.109719 -2.286799 20.510708 0.518977 1.682522 0.028470 -0.012777 544674.000000 1 0 0
-3.512962 -15.188319 2.553801 15.797083 1.343500 1.408421 0.007127 -0.008423 -231600.000000 1 0 0
-10.059662 -10.277419 -14.083299 20.128623 0.796105 2.345725 0.043155 -0.012973 -588569.000000 1 0 0
6.171038 -14.656819 -5.733599 16.904976 -1.172289 1.916827 0.002781 -0.005434 364448.000000 1 0 0
-7.152362 -12.451919 -10.797199 17.966248 1.049414 2.215512 0.020955 -0.010626 -1401840.000000 1 0 0
-7.040162 -14.289919 3.971901 16.417724 1.113033 1.326444 0.004314 0.000772 1122970.000000 1 0 0
3.203338 -14.908019 -3.178599 15.576068 -1.359141 1.776309 0.006017 -0.005011 -694390.000000 1 0 0
-7.553762 -11.312619 7.794701 15.677756 0.982059 1.050448 0.017020 -0.017954 -2144100.000000 1 0 0
-12.841462 -12.308019 -1.015699 17.816344 0.764190 1.627837 0.017341 0.003481 623139.000000 1 0 0
-1.863162 -13.617219 4.058201 14.330702 1.434817 1.283686 0.004977 -0.003379 -2443040.000000 1 0 0
-2.922762 -13.945019 5.440201 15.251291 1.364195 1.206059 0.005671 -0.003251 -542043.000000 1 0 0
-14.452362 -10.313419 -4.433599 18.300114 0.619805 1.815503 0.015212 -0.003304 558763.000000 1 0 0
-6.468862 -8.665519 -10.517099 15.084654 0.929535 2.342288 0.014325 -0.006197 391817.000000 1 0 0
1.022638 -19.533519 2.444301 19.712401 -1.518491 1.446478 0.021323 -0.008890 121553.000000 1 0 0
6.451438 -14.280719 -8.328199 17.745954 -1.146481 2.059296 0.004590 -0.004525 -2395290.000000 1 0 0
-3.824262 -16.829219 -5.900199 18.238968 1.347351 1.900216 0.003989 -0.006692 -554055.000000 1 0 0
-3.495962 -13.710119 -13.299799 19.418388 1.321125 2.325273 0.027195 -0.000967 -1644280.000000 1 0 0
-8.126162 -14.868819 -4.608599 17.560053 1.070626 1.836355 0.016292 -0.004376 -1851110.000000 1 0 0
-4.506162 -14.401319 10.122001 18.170261 1.267548 0.979950 0.015596 -0.011028 115297.000000 1 0 0
-0.205962 -12.095919 -9.952399 15.665373 1.553771 2.259209 0.000935 0.002113 998320.000000 1 0 0
2.509538 -17.209119 6.740901 18.651844 -1.425991 1.201020 0.024803 -0.013343 -1130080.000000 1 0 0
-2.825362 -19.079419 -3.421299 19.588573 1.423780 1.746355 0.011080 -0.015738 -1348930.000000 1 0 0
0.636738 -15.362319 -3.029399 15.671105 -1.529372 1.765332 0.007087 -0.005658 -470661.000000 1 0 0
6.180938 -18.027819 0.549301 19.065885 -1.240500 1.541982 0.021288 -0.003861 -132539.000000 1 0 0
-7.073162 -16.754019 3.888801 18.597030 1.171319 1.360133 0.012261 0.002952 819547.000000 1 0 0
-5.045162 -13.537319 -9.509999 17.296033 1.214056 2.152965 0.007360 -0.007211 192259.000000 1 0 0
5.660938 -15.265219 -2.183099 16.426778 -1.215679 1.704089 0.013723 -0.000323 -495533.000000 1 0 0
-8.858262 -10.433119 -0.606599 13.699881 0.866853 1.615089 0.006596 0.001188 741724.000000 1 0 0
-7.167262 -18.113119 -3.042899 19.715830 1.194007 1.725754 0.021998 -0.023877 -267716.000000 1 0 0
7.933938 -16.071819 -1.244899 17.966650 -1.112237 1.640141 0.014328 0.000384 46382.400000 1 0 0
-8.007062 -10.349619 -9.490099 16.164456 0.912325 2.198264 0.020954 -0.007565 -1894790.000000 1 0 0
-8.983762 -15.271619 -7.056799 19.071674 1.039050 1.949821 0.027982 -0.005632 -5161.440000 1 0 0
-11.368562 -10.509919 -12.099799 19.649625 0.746172 2.234169 0.038685 0.002906 -1452260.000000 1 0 0
6.740738 -16.405119 2.429501 17.901618 -1.180935 1.434662 0.024646 -0.004913 544597.000000 1 0 0
-2.209362 -11.119119 -6.137199 12.891133 1.374652 2.066987 0.004327 -0.000908 -887618.000000 1 0 0
-12.194562 -15.306319 -3.280799 19.843245 0.898070 1.736895 0.026299 -0.009812 -77956.900000 1 0 0
-0.253162 -19.487819 -2.806199 19.690453 1.557806 1.713799 0.035895 -0.017054 -258547.000000 1 0 0
-5.770562 -15.757319 -4.684799 17.422394 1.219750 1.843042 0.005323 -0.008426 -3317710.000000 1 0 0
2.081238 -15.885419 -1.043599 16.055129 -1.440523 1.635843 0.012437 -0.009362 156188.000000 1 0 0
-13.231362 -11.909519 5.190601 18.543137 0.732869 1.287085 0.035525 -0.010338 361294.000000 1 0 0
2.118238 -15.398419 -8.930099 17.926096 -1.434092 2.092274 0.006863 0.001747 -495926.000000 1 0 0
-11.661462 -16.793819 -0.232099 20.446905 0.963845 1.582148 0.048568 -0.013195 116271.000000 1 0 0
-7.470862 -16.701119 -0.955499 18.320866 1.150167 1.622974 0.025007 -0.010186 613164.000000 1 0 0
-2.920362 -14.429119 -1.781399 14.829072 1.371100 1.691216 0.002504 -0.002167 86588.500000 1 0 0
-1.843562 -10.616019 -13.213499 17.049784 1.398853 2.457504 0.003562 -0.000652 -1053360.000000 1 0 0
1.522638 -19.508619 4.973501 20.190105 -1.492905 1.321901 0.031492 -0.013053 157955.000000 1 0 0
-17.431462 -9.261919 2.474701 19.893797 0.488399 1.446078 0.041424 -0.008013 -173747.000000 1 0 0
-2.624262 -15.745119 -8.037099 17.871499 1.405643 2.037244 0.001754 -0.004309 -1731680.000000 1 0 0
-10.618862 -12.153319 0.301101 16.141687 0.852679 1.552142 0.010837 0.002934 333975.000000 1 0 0
-6.744762 -11.480719 -6.615999 14.868429 1.039629 2.031937 0.009956 -0.004497 504763.000000 1 0 0
-2.070662 -13.537019 -6.732299 15.259829 1.419010 2.027707 -0.001724 0.001138 99336.200000 1 0 0
-14.291662 -14.469319 -0.856799 20.355513 0.791575 1.612901 0.038834 -0.002952 92171.200000 1 0 0
-9.579862 -11.296519 -4.416099 15.455971 0.867443 1.860555 0.018898 -0.004146 408911.000000 1 0 0
9.548638 -15.054319 -5.256899 18.586123 -1.005552 1.857550 0.015306 -0.009006 168273.000000 1 0 0
-5.494162 -10.899819 -9.560499 15.504677 1.103906 2.235239 0.010958 -0.007957 -269509.000000 1 0 0
-10.390662 -16.032319 -4.941399 19.733690 0.995753 1.823894 0.038495 -0.007569 -1645550.000000 1 0 0
2.290438 -17.347819 -3.332199 17.812818 -1.439525 1.758972 0.019301 -0.007881 359530.000000 1 0 0
-0.269562 -14.452319 -8.198799 16.618137 1.552147 2.086750 0.001003 -0.002532 -570261.000000 1 0 0
-0.640662 -18.355119 -7.062799 19.677499 1.535907 1.937915 0.018302 -0.007963 -61711.800000 1 0 0
-1.723562 -10.003219 -10.600999 14.677065 1.400171 2.377895 -0.000984 -0.002465 385151.000000 1 0 0
-5.058862 -17.188719 2.134301 18.044373 1.284565 1.452238 0.017802 -0.006239 83593.600000 1 0 0
0.216738 -12.751519 -2.667499 13.029342 -1.553801 1.776984 0.004433 -0.001817 -2412800.000000 1 0 0
2.714338 -15.027219 3.116001 15.585070 -1.392095 1.369505 0.008877 -0.003761 -725757.000000 1 0 0
-9.319562 -13.020019 6.754301 17.378024 0.949553 1.171610 0.020221 -0.013652 -876374.000000 1 0 0
-0.893762 -17.815319 -4.539099 18.406190 1.520670 1.819974 0.016654 -0.010636 23288.800000 1 0 0
-9.647762 -17.504919 -2.307199 20.120255 1.067074 1.685720 0.042032 -0.023308 1533960.000000 1 0 0
1.500738 -16.361719 1.435701 16.493007 -1.479330 1.483637 0.005969 -0.007978 -464329.000000 1 0 0
-0.445562 -17.984819 4.045001 18.439476 1.546027 1.349631 0.023243 -0.013892 1196060.000000 1 0 0
-17.393062 -8.975419 -0.005399 19.572348 0.476393 1.571072 0.005937 -0.008465 1006080.000000 1 0 0
-14.932462 -7.281619 -10.615999 19.715472 0.453708 2.139405 0.051125 -0.016134 596954.000000 1 0 0
2.810038 -12.828019 -8.788999 15.801927 -1.355148 2.160600 -0.003977 0.002337 710270.000000 1 0 0
-11.673862 -14.880419 1.526501 18.974618 0.905571 1.490260 0.028323 0.000151 -8495.400000 1 0 0
-2.225562 -15.573619 10.687301 19.018652 1.428851 0.974070 0.009359 -0.006275 -276482.000000 1 0 0
-6.997162 -15.789819 1.416501 17.328737 1.153659 1.488962 0.015663 -0.006948 -1261260.000000 1 0 0
-12.604562 -15.129019 -5.828999 20.536296 0.876173 1.858592 0.044793 -0.007177 226188.000000 1 0 0
0.917738 -13.792719 -5.038799 14.712948 -1.504356 1.920345 0.003574 -0.002338 923200.000000 1 0 0
6.165238 -16.575919 -7.324399 19.142050 -1.214712 1.963442 0.022668 -0.017483 67968.000000 1 0 0
-6.555262 -12.859019 5.933401 15.605482 1.099356 1.180770 0.009871 -0.004637 -311776.000000 1 0 0
-2.464862 -13.531619 0.535401 13.764698 1.390616 1.531890 0.007798 -0.003767 2626170.000000 1 0 0
-4.276062 -15.397119 0.217001 15.981335 1.299905 1.557218 0.006989 -0.006595 193152.000000 1 0 0
-17.617962 -7.578619 -2.258999 19.311425 0.406237 1.688042 0.003749 -0.011287 413286.000000 1 0 0
1.244438 -12.720319 -11.938299 17.489372 -1.473276 2.322115 -0.002058 0.007824 -543011.000000 1 0 0
1.311838 -17.073519 -5.860799 18.099031 -1.494112 1.900559 0.023630 -0.008371 -764985.000000 1 0 0
-12.840662 -6.332719 -9.253399 17.047326 0.458174 2.144571 0.015635 -0.004399 572336.000000 1 0 0
-11.403262 -13.606719 -8.629999 19.739657 0.873274 2.023269 0.039638 -0.012709 96188.400000 1 0 0
-4.282962 -9.863119 3.483001 11.302928 1.161125 1.257548 0.006142 -0.002705 -5543730.000000 1 0 0
-6.983362 -14.166219 9.647401 18.507335 1.112798 1.022453 0.017011 -0.021062 -1108520.000000 1 0 0
-5.202262 -15.949819 -8.063999 18.614197 1.255512 2.018856 0.009388 -0.011434 -850634.000000 1 0 0
-0.233762 -13.450119 2.171601 13.626305 1.553418 1.410746 0.008339 -0.005511 876224.000000 1 0 0
-10.859662 -13.445019 -4.669599 17.902680 0.891372 1.834681 0.031526 -0.004810 -500962.000000 1 0 0
-9.691862 -10.499519 6.628901 15.751648 0.825377 1.136427 0.028443 -0.009586 13230.100000 1 0 0
-15.476562 -8.123019 -4.712399 18.102876 0.483337 1.834142 0.019854 -0.008665 632994.000000 1 0 0
-14.546562 -7.226119 5.501701 17.148993 0.461051 1.244204 0.033421 -0.011480 -200192.000000 1 0 0
-1.613462 -19.156119 0.009101 19.223949 1.486768 1.570323 0.022812 -0.014252 -210017.000000 1 0 0
-15.483962 -12.212919 -1.112699 19.752128 0.667841 1.627159 0.016280 0.005540 57312.500000 1 0 0
-4.274962 -12.167319 -6.626099 14.499108 1.232921 2.045416 -0.001823 -0.002945 -1563420.000000 1 0 0
-7.344662 -18.310619 1.896101 19.819637 1.189329 1.474982 0.022622 -0.004939 -16248.500000 1 0 0
-2.548162 -11.714419 -8.647499 14.781745 1.356609 2.195691 -0.000054 0.001276 748565.000000 1 0 0
-1.261162 -20.280319 -5.062499 20.940648 1.508690 1.814970 0.032281 -0.009432 48381.400000 1 0 0
-5.458462 -8.856619 -13.778199 17.264799 1.018467 2.494851 0.018477 -0.008864 482993.000000 1 0 0
-8.169362 -19.180919 -0.869299 20.866284 1.168154 1.612469 0.028148 -0.005415 56512.700000 1 0 0
-17.116462 -7.250019 5.676101 19.435899 0.400659 1.274435 0.063306 -0.016584 -157891.000000 1 0 0
-3.522162 -14.714819 -4.295999 15.728545 1.335855 1.847446 0.000627 -0.002552 -2528850.000000 1 0 0
-3.054462 -14.974619 -11.089499 18.882424 1.369581 2.198505 0.016437 -0.004721 -332889.000000 1 0 0
-0.062662 -16.683919 6.291801 17.830979 1.567040 1.210173 0.028445 -0.012973 -2149950.000000 1 0 0
-11.120362 -11.483219 3.774001 16.424672 0.801450 1.338948 0.018711 -0.004401 765191.000000 1 0 0
-0.038162 -14.618919 -0.097399 14.619293 1.568186 1.577459 0.006032 -0.002340 1213030.000000 1 0 0
-7.225862 -9.515219 -2.507399 12.208175 0.921306 1.777655 0.011563 0.000010 256884.000000 1 0 0
-11.078962 -14.384119 -0.872099 18.177096 0.914478 1.618793 0.020237 -0.007587 276711.000000 1 0 0
0.352438 -14.641219 -10.612099 18.086076 -1.546729 2.197842 -0.002133 0.000117 345592.000000 1 0 0
-1.432562 -14.009519 -3.886499 14.609029 1.468894 1.840073 0.001356 -0.001299 -5836980.000000 1 0 0
-11.549562 -8.100019 -7.707899 16.075273 0.611616 2.070867 0.016204 -0.003180 570054.000000 1 0 0
-0.099162 -17.134819 -0.275099 17.137314 1.565009 1.586850 0.008601 -0.012179 663072.000000 1 0 0
-12.871562 -9.526619 4.664601 16.679091 0.637154 1.287349 0.023768 -0.007648 395972.000000 1 0 0
4.097838 -16.968019 1.782501 17.546602 -1.333830 1.469034 0.015986 -0.006121 2152360.000000 1 0 0
-3.697562 -18.030319 -8.134399 20.122943 1.368526 1.986939 0.028095 -0.013904 159961.000000 1 0 0
-13.438962 -11.092019 2.683401 17.630633 0.690016 1.418001 0.018085 -0.005588 -574968.000000 1 0 0
-8.492462 -12.227319 4.099401 15.441319 0.963739 1.302092 0.013482 -0.005715 1489700.000000 1 0 0
-8.180762 -9.434119 -5.923599 13.820872 0.856432 2.013737 0.015965 -0.004779 -23609.300000 1 0 0
3.817438 -17.430119 -5.453399 18.658013 -1.355187 1.867408 0.006175 -0.003690 -2009220.000000 1 0 0
-2.592362 -12.990019 11.281801 17.399424 1.373818 0.865314 0.006128 -0.013903 304573.000000 1 0 0
-0.024062 -16.787619 -9.406099 19.243166 1.569363 2.081512 0.006852 -0.003884 -146066.000000 1 0 0
-7.100762 -10.768219 -14.281299 19.243983 0.987829 2.407021 0.030509 -0.012527 -1633990.000000 1 0 0
-4.539262 -18.820719 -1.477699 19.416693 1.334132 1.646975 0.023043 -0.016273 -238129.000000 1 0 0
-2.459262 -16.996219 1.081701 17.207251 1.427099 1.507892 0.017606 -0.014067 1619110.000000 1 0 0
4.112338 -14.768119 -7.448499 17.043732 -1.299216 2.023082 0.003581 -0.002126 1066190.000000 1 0 0
-0.988262 -15.908519 -6.137399 17.079968 1.508754 1.938350 0.003671 -0.003697 -774324.000000 1 0 0
-9.465662 -15.083819 8.407201 19.692673 1.010374 1.129712 0.031404 -0.016483 -318316.000000 1 0 0
-7.198162 -12.037519 -1.978599 14.164401 1.031865 1.710943 0.007327 0.000526 937103.000000 1 0 0
-7.177362 -15.127419 -9.475199 19.238834 1.127788 2.085761 0.023247 -0.009359 87716.900000 1 0 0
-4.988662 -13.136119 -0.757499 14.071893 1.207853 1.624653 0.006409 -0.002119 3033590.000000 1 0 0
-6.308662 -13.777919 -7.400199 16.863962 1.141407 2.025078 0.005975 -0.006643 959.380000 1 0 0
5.781338 -15.514219 0.233301 16.558058 -1.214090 1.556706 0.012088 -0.000649 308077.000000 1 0 0
-14.390062 -12.740119 1.113901 19.251631 0.724657 1.512904 0.010092 -0.004579 921893.000000 1 0 0
1.020538 -15.298519 11.091701 18.923847 -1.504187 0.944531 0.023303 -0.013693 275998.000000 1 0 0
-9.216462 -10.907319 1.966101 14.414518 0.869224 1.433973 0.007455 0.000731 74490.000000 1 0 0
-9.453962 -8.869619 -3.610499 13.456718 0.753519 1.842429 0.011875 -0.001638 -594391.000000 1 0 0
-12.277162 -7.326619 -12.276599 18.844706 0.538040 2.280305 0.031042 -0.009271 348841.000000 1 0 0
-13.246762 -8.348719 -0.507599 15.666380 0.562363 1.603203 0.005363 -0.004726 637476.000000 1 0 0
-11.086862 -9.611219 0.584801 14.684551 0.714225 1.530962 0.008870 0.001837 321119.000000 1 0 0
-15.862362 -12.084819 3.142401 20.187423 0.651045 1.414499 0.051331 -0.001603 37867.600000 1 0 0
-10.481562 -12.450719 -2.266599 16.432316 0.871056 1.709173 0.023356 -0.004023 785800.000000 1 0 0
-3.406662 -8.948619 -12.036699 15.380678 1.207045 2.469605 0.002687 -0.003878 -1074350.000000 1 0 0
-0.315062 -15.556519 3.847001 16.028224 1.550546 1.328416 0.015602 -0.008288 -426335.000000 1 0 0
-15.619362 -7.702319 1.329001 17.465865 0.458134 1.494631 -0.006306 -0.008831 147507.000000 1 0 0
-5.966462 -13.421019 -13.367699 19.859955 1.152475 2.309186 0.018974 -0.005273 -1961080.000000 1 0 0
-15.415462 -10.335619 1.192201 18.597926 0.590632 1.506648 0.006127 -0.003118 110918.000000 1 0 0
-9.861662 -8.349319 -12.410699 17.916165 0.702543 2.336036 0.019291 -0.009178 20792.900000 1 0 0
-13.139662 -11.739519 -6.174299 18.670538 0.729180 1.907839 0.022386 -0.002805 -270761.000000 1 0 0
-12.175162 -11.311219 -3.756199 17.037819 0.748630 1.793085 0.013020 -0.001124 -1765230.000000 1 0 0
-11.509962 -11.081719 -8.877799 18.278376 0.766445 2.077960 0.026748 -0.013798 645140.000000 1 0 0
-13.195262 -8.509419 -5.850099 16.755561 0.572771 1.927454 0.015258 -0.006396 -2450880.000000 1 0 0
-13.352462 -8.272219 -3.187299 16.027374 0.554654 1.770997 0.007072 -0.005407 249425.000000 1 0 0
-4.279662 -16.974719 -3.234899 17.802280 1.323824 1.753524 0.004589 -0.011513 117212.000000 1 0 0
-15.463562 -8.879919 -1.740099 17.916547 0.521269 1.668072 0.004165 -0.004615 -2176380.000000 1 0 0
-9.342562 -15.484819 3.634101 18.446403 1.027927 1.372491 0.018585 -0.006955 -336151.000000 1 0 0
4.759038 -17.144119 7.963701 19.493326 -1.300024 1.149948 0.045633 -0.029473 -142302.000000 1 0 0
-8.232562 -15.393719 6.054501 18.476976 1.079698 1.236951 0.015198 0.000764 245440.000000 1 0 0
1.005338 -15.991919 8.467001 18.122976 -1.508014 1.084678 0.017555 -0.013692 96232.700000 1 0 0
-10.942362 -7.852819 -10.161099 16.871574 0.622476 2.217127 0.018920 -0.006702 872704.000000 1 0 0
-4.763862 -15.874719 5.878301 17.585662 1.279256 1.229969 0.009414 -0.006994 -1015970.000000 1 0 0
-1.340862 -13.231219 -12.026199 17.930213 1.469800 2.305979 0.002973 0.000747 -147767.000000 1 0 0
-6.290962 -14.358019 -2.671799 15.901806 1.157841 1.739616 0.010509 -0.006302 425416.000000 1 0 0
-17.537662 -6.911019 -7.166799 20.166675 0.375382 1.934115 0.032827 -0.020844 167678.000000 1 0 0
-17.319362 -4.103219 -10.254899 20.541657 0.232626 2.093500 0.056251 -0.017929 680650.000000 1 0 0
-15.199062 -5.168519 -9.068299 18.437981 0.327788 2.084983 0.016756 -0.017878 486235.000000 1 0 0
-16.075162 -5.421319 -5.644599 17.879123 0.325270 1.892000 0.014002 -0.011127 -1223710.000000 1 0 0
-15.267462 -4.405319 -12.290799 20.088952 0.280913 2.229154 0.048057 -0.016938 -1122820.000000 1 0 0
-18.726562 -5.213919 -5.604299 20.230602 0.271546 1.851489 0.037115 -0.018352 722295.000000 1 0 0
-17.366462 -4.395319 -7.678599 19.490350 0.247887 1.975743 0.028705 -0.016594 536069.000000 1 0 0
12.066838 -7.773019 8.625901 16.746180 -0.572261 1.029676 0.037905 -0.016199 282938.000000 1 0 0
16.089038 -3.402919 1.783701 16.541420 -0.208434 1.462754 0.025355 -0.010088 269949.000000 1 0 0
12.038938 -2.035719 12.512201 17.482429 -0.167510 0.773168 0.027796 -0.005313 -186861.000000 1 0 0
9.577638 -9.899719 5.253701 14.742352 -0.801933 1.206419 0.003993 -0.005840 -430189.000000 1 0 0
17.037038 -2.049819 7.177201 18.600393 -0.119740 1.174653 0.070940 -0.015387 -924022.000000 1 0 0
5.239738 -12.826019 9.186301 16.623770 -1.182963 0.985315 0.001722 -0.000428 -94715.200000 1 0 0
15.254938 -9.030219 -2.295399 17.875313 -0.534482 1.699564 0.030393 -0.010799 34965.100000 1 0 0
11.213438 -8.539419 6.321601 15.447508 -0.650842 1.149185 0.020989 -0.012487 -1509230.000000 1 0 0
19.941438 -2.837019 3.275301 20.406793 -0.141319 1.409599 0.083654 -0.016188 264447.000000 1 0 0
13.669538 -8.442319 6.804601 17.447968 -0.553261 1.170171 0.036906 -0.015759 -1845120.000000 1 0 0
8.265738 -10.993719 8.755401 16.304641 -0.926106 1.003933 -0.001141 -0.005367 -707250.000000 1 0 0
16.917538 0.081381 -0.716499 16.932899 0.004810 1.613123 0.028103 0.000047 -2263950.000000 1 0 0
12.457338 -12.360019 2.396001 17.711469 -0.781477 1.435101 0.013239 -0.006720 -1649260.000000 1 0 0
10.398038 -11.669519 3.647301 16.049911 -0.842952 1.341546 0.005191 -0.004417 -418730.000000 1 0 0
16.307538 2.992781 2.391201 16.751429 0.181502 1.427561 0.019550 0.003392 507842.000000 1 0 0
18.389338 -3.331719 0.444901 18.694010 -0.179232 1.546995 0.048141 -0.010766 1216450.000000 1 0 0
13.453938 -11.490519 -0.258899 17.694844 -0.706848 1.585428 0.027473 -0.003714 -255485.000000 1 0 0
16.968638 -7.605819 -0.999299 18.622077 -0.421379 1.624484 0.041162 -0.015323 477084.000000 1 0 0
10.045738 -5.578319 9.760101 15.076274 -0.506897 0.866653 0.018805 -0.013432 239006.000000 1 0 0
11.447038 -13.223319 5.956801 18.476317 -0.857275 1.242530 0.017851 -0.006770 438041.000000 1 0 0
13.081038 -1.744819 10.151701 16.649774 -0.132603 0.915089 0.027769 -0.005917 1026260.000000 1 0 0
15.595938 -1.976219 -1.398199 15.782702 -0.126042 1.659503 0.018867 -0.007207 -279092.000000 1 0 0
10.507338 -12.399819 8.984501 18.570969 -0.867826 1.065813 0.018308 -0.015193 620103.000000 1 0 0
14.496238 1.287281 3.289601 14.920438 0.088569 1.348494 0.011280 -0.003375 855247.000000 1 0 0
15.091438 -5.772419 5.254301 16.990585 -0.365326 1.256394 0.041676 -0.012555 -575560.000000 1 0 0
14.348138 -3.358219 -3.047299 15.047682 -0.229914 1.774716 0.012246 -0.006363 1125350.000000 1 0 0
14.033738 0.632281 9.386101 16.895102 0.045024 0.981770 0.034062 -0.008750 -211337.000000 1 0 0
15.383638 -3.313119 4.306101 16.314888 -0.212126 1.303695 0.034355 -0.008144 177377.000000 1 0 0
18.311438 4.768881 -4.267399 19.397466 0.254773 1.792609 0.011947 -0.001904 570696.000000 1 0 0
18.083938 -5.816019 -5.197899 19.694492 -0.311165 1.837887 0.069981 -0.024265 559003.000000 1 0 0
17.367238 0.072981 5.893501 18.340110 0.004202 1.243647 0.067205 -0.007427 811577.000000 1 0 0
17.130138 -6.741819 3.884401 18.814417 -0.374946 1.362842 0.065128 -0.015840 652845.000000 1 0 0
9.568338 -6.685319 14.261501 18.429242 -0.609847 0.685896 0.023786 -0.012633 -379877.000000 1 0 0
8.578338 -12.235419 5.198601 15.821466 -0.959328 1.235998 0.003016 -0.005749 -431991.000000 1 0 0
16.849038 -10.243419 -0.702199 19.730960 -0.546247 1.606393 0.045099 -0.007522 -219310.000000 1 0 0
14.926438 -8.774419 0.274501 17.316591 -0.531433 1.554944 0.028893 -0.009817 375851.000000 1 0 0
10.021438 -12.974819 1.533001 16.465881 -0.913128 1.477560 0.012584 -0.005683 190670.000000 1 0 0
16.945838 -8.238419 8.848501 20.816554 -0.452516 1.131757 0.062749 -0.008795 329535.000000 1 0 0
19.073438 -0.133919 -2.052599 19.184033 -0.007021 1.677997 0.053453 -0.003883 -681950.000000 1 0 0
13.418438 -1.247719 7.584501 15.464020 -0.092719 1.058178 0.015443 -0.007484 -286053.000000 1 0 0
12.881838 -9.823619 -3.044499 16.483756 -0.651513 1.756560 0.016630 -0.005585 -1798630.000000 1 0 0
8.889438 -15.239619 1.347701 17.694191 -1.042739 1.494556 0.021725 -0.004240 -214148.000000 1 0 0
11.435338 -8.342119 11.016301 17.936465 -0.630254 0.909444 0.036671 -0.020036 87756.100000 1 0 0
13.937138 -3.893519 -0.548899 14.481180 -0.272418 1.608710 0.007595 -0.009453 -589167.000000 1 0 0
7.178038 -13.310019 10.936601 18.662531 -1.076208 0.944659 0.008574 0.006016 -390689.000000 1 0 0
15.464338 -6.792419 1.848101 16.991120 -0.413863 1.461812 0.023182 -0.012560 672735.000000 1 0 0
15.758038 -6.039419 -2.551899 17.067587 -0.365992 1.720876 0.038952 -0.013931 -162827.000000 1 0 0
11.053938 -8.552719 3.700901 14.458050 -0.658514 1.311940 0.015269 -0.011060 761489.000000 1 0 0
10.911138 -14.589319 -0.396199 18.222462 -0.928650 1.592540 0.036454 -0.006526 1108100.000000 1 0 0
13.679338 -12.738319 4.728901 19.280860 -0.749792 1.323004 0.024665 -0.004273 71902.600000 1 0 0
12.918638 -10.993519 6.491501 18.162826 -0.705063 1.205308 0.020334 -0.008842 236188.000000 1 0 0
11.010538 -10.531919 1.436501 15.304143 -0.763184 1.476794 0.010007 -0.003880 663206.000000 1 0 0
13.843738 -7.457219 11.673201 19.583738 -0.494104 0.932204 0.055123 -0.030102 -729008.000000 1 0 0
15.307938 -1.852819 -5.025299 16.217877 -0.120451 1.885844 0.032340 -0.008199 -848909.000000 1 0 0
12.930738 -11.443919 -7.204699 18.710290 -0.724475 1.966076 0.046619 -0.015333 -153301.000000 1 0 0
17.674038 -5.369519 1.918101 18.571011 -0.294947 1.467327 0.064015 -0.012807 242265.000000 1 0 0
10.572338 -9.823019 9.022201 17.019581 -0.748675 1.012069 0.014673 -0.009153 -859558.000000 1 0 0
16.412438 1.661981 9.727901 19.151040 0.100920 1.037985 0.075519 -0.014381 -1407840.000000 1 0 0
18.097438 3.659581 0.463301 18.469554 0.199525 1.545709 0.022076 0.006513 689969.000000 1 0 0
13.323238 -4.030419 5.760401 15.064367 -0.293758 1.178419 0.022359 -0.012068 -816808.000000 1 0 0
12.133338 -6.152219 6.632201 15.134522 -0.469272 1.117183 0.021811 -0.012497 -286945.000000 1 0 0
16.563838 -9.901819 3.440601 19.602155 -0.538798 1.394361 0.024419 -0.015341 116626.000000 1 0 0
16.185038 -7.916719 -5.677699 18.890901 -0.454920 1.876068 0.058779 -0.020695 837407.000000 1 0 0
14.026038 -0.408519 5.248901 14.981575 -0.029118 1.212844 0.016888 -0.004027 569935.000000 1 0 0
18.409038 -4.210119 4.782001 19.480382 -0.224832 1.322784 0.088919 -0.015505 244880.000000 1 0 0
13.602238 -13.349319 7.357401 20.429306 -0.776014 1.202379 0.028009 0.002643 -117871.000000 1 0 0
14.983538 -13.532919 -0.798899 20.206052 -0.734572 1.610344 0.034702 -0.002325 365909.000000 1 0 0
17.997338 -5.992419 7.905601 20.550225 -0.321416 1.175917 0.092824 -0.016136 314109.000000 1 0 0
14.370538 3.270881 9.345201 17.451183 0.223797 1.005690 0.041004 -0.009305 -268950.000000 1 0 0
18.797538 3.754681 2.912201 19.388810 0.197149 1.420026 0.057692 0.003419 205597.000000 1 0 0
14.861238 -10.456219 8.119101 19.902479 -0.613131 1.150595 0.031016 -0.010705 -1115960.000000 1 0 0
14.868238 -4.850319 10.302501 18.727830 -0.315335 0.988292 0.055518 -0.016870 100908.000000 1 0 0
17.939938 -7.947319 1.736801 19.698165 -0.417014 1.482511 0.079572 -0.015114 413802.000000 1 0 0
18.353738 -5.770819 -2.179799 19.362685 -0.304635 1.683613 0.049405 -0.022212 10153.400000 1 0 0
14.279938 -12.992619 -5.721399 20.136017 -0.738231 1.858903 0.058781 -0.020729 -378413.000000 1 0 0
15.431838 -1.652219 9.151401 18.017202 -0.106659 1.038021 0.071842 -0.018047 309687.000000 1 0 0
13.024938 -9.934819 9.911301 19.146371 -0.651614 1.026683 0.033406 -0.029886 -1759950.000000 1 0 0
16.581538 2.139381 4.792901 17.392419 0.128313 1.291609 0.047353 -0.004277 -1346230.000000 1 0 0
14.950838 2.398781 -0.070199 15.142213 0.159089 1.575432 0.011700 0.003910 -1343700.000000 1 0 0
14.991438 -9.677319 -7.116399 19.210332 -0.573222 1.950286 0.058416 -0.020518 1307320.000000 1 0 0
16.225738 -0.052619 -3.305499 16.559096 -0.003243 1.771765 0.027227 -0.001825 -77175.100000 1 0 0
11.960938 2.608881 13.618901 18.312420 0.214753 0.732212 0.025359 -0.001165 -412286.000000 1 0 0
17.578938 -3.116519 9.476801 20.212409 -0.175464 1.082796 0.067308 -0.018375 86964.100000 1 0 0
7.838238 -18.060619 4.602401 20.218952 -1.161331 1.341155 0.043599 -0.017578 -750498.000000 1 0 0
6.764538 -11.082019 6.496301 14.517990 -1.022760 1.106867 0.002250 -0.004492 -149642.000000 1 0 0
17.962438 2.232581 -1.670199 18.177545 0.123657 1.662809 0.026384 0.006863 407880.000000 1 0 0
17.507338 -2.098419 3.457501 17.968432 -0.119290 1.377168 0.036760 -0.007032 108243.000000 1 0 0
12.688638 -13.334219 -1.930199 18.507528 -0.810201 1.675279 0.031307 -0.004447 -1020360.000000 1 0 0
15.014238 -8.184119 4.397501 17.656306 -0.499066 1.319086 0.025451 -0.008879 -112708.000000 1 0 0
12.027538 -3.168219 14.756801 19.299286 -0.257563 0.700330 0.050980 -0.012729 -325023.000000 1 0 0
11.902338 -13.713219 -6.614299 19.325293 -0.855975 1.920119 0.014075 -0.015255 -30209.900000 1 0 0
10.675238 -12.072119 -1.145999 16.155806 -0.846730 1.641790 0.016452 -0.004087 -1542750.000000 1 0 0
13.133538 -8.042319 2.080301 15.540153 -0.549451 1.436527 0.020096 -0.005574 476651.000000 1 0 0
8.648338 -7.850019 10.031701 15.396479 -0.737048 0.861160 0.004123 -0.006904 -1470370.000000 1 0 0
15.552938 -3.934419 7.955401 17.907035 -0.247772 1.110447 0.063022 -0.021513 -447294.000000 1 0 0
10.284038 -17.365619 5.171401 20.834335 -1.036127 1.319959 0.039728 -0.012771 -610286.000000 1 0 0
15.307138 -6.386919 8.265901 18.531765 -0.395289 1.108461 0.060416 -0.012537 456281.000000 1 0 0
16.597038 -4.992819 -0.371699 17.335745 -0.292214 1.592239 0.027810 -0.013452 -555242.000000 1 0 0
13.972938 -10.475819 3.392201 17.790244 -0.643323 1.378944 0.027075 -0.011314 1106540.000000 1 0 0
14.853638 -9.983319 -4.628599 18.485701 -0.591763 1.823877 0.049085 -0.021451 -151061.000000 1 0 0
13.707038 -6.443619 0.018201 15.146070 -0.439439 1.569595 0.011378 -0.009960 -552672.000000 1 0 0
17.766138 -0.993519 -5.137699 18.520764 -0.055864 1.851885 0.056829 -0.012186 953785.000000 1 0 0
14.474738 0.294481 -1.581299 14.563834 0.020342 1.679588 0.014429 0.000589 -1799900.000000 1 0 0
4.845838 -12.672019 11.765201 17.957788 -1.205550 0.856404 -0.003001 -0.003371 -1236050.000000 1 0 0
11.930038 -7.518519 13.448701 19.486443 -0.562342 0.809091 0.035634 -0.021213 385141.000000 1 0 0
11.941938 -5.814219 11.551001 17.602290 -0.453092 0.854996 0.031745 -0.015659 -366040.000000 1 0 0
13.210138 -4.694119 8.324301 16.304492 -0.341426 1.034969 0.032567 -0.012673 -2146370.000000 1 0 0
15.151238 -1.165019 2.915001 15.473025 -0.076742 1.381271 0.021523 -0.002898 -334576.000000 1 0 0
15.287238 -10.334319 5.684601 19.308352 -0.594443 1.271957 0.029841 -0.010069 -90264.200000 1 0 0
13.562338 -7.951819 -5.669499 16.712619 -0.530297 1.916899 0.038841 -0.017261 -1920430.000000 1 0 0
9.797138 -2.450619 13.767101 17.074030 -0.245107 0.632896 0.027975 -0.001385 -113179.000000 1 0 0
9.776138 -9.196419 13.512001 19.045239 -0.754852 0.782052 0.033145 -0.015770 6145.250000 1 0 0
20.348938 6.000981 -3.328899 21.474930 0.286775 1.726437 0.074687 -0.002861 -5901.660000 1 0 0
11.169238 -3.524819 10.577901 15.781895 -0.305691 0.836243 0.022241 -0.004896 611599.000000 1 0 0
10.331838 -14.024619 -2.927099 17.663655 -0.935866 1.737277 0.019270 -0.003089 1815190.000000 1 0 0
14.997238 -12.623819 2.452001 19.755765 -0.699681 1.446360 0.022437 -0.003822 572516.000000 1 0 0
11.407938 -0.625419 14.673501 18.596876 -0.054768 0.661567 0.041597 -0.000952 303955.000000 1 0 0
19.075838 -1.905819 5.616301 19.976550 -0.099577 1.285810 0.092716 -0.011419 909233.000000 1 0 0
18.978338 -0.471319 7.867601 20.549905 -0.024829 1.177913 0.096247 -0.015577 165209.000000 1 0 0
19.160338 0.806981 0.278501 19.179346 0.042092 1.556275 0.056310 -0.004084 -218174.000000 1 0 0
18.518738 0.803981 3.642101 18.890604 0.043387 1.376782 0.048321 -0.007332 189599.000000 1 0 0
16.727338 -3.808119 -4.202199 17.662505 -0.223843 1.811016 0.046655 -0.016498 -2125420.000000 1 0 0
11.064338 -8.502419 15.586701 20.920228 -0.655207 0.730180 0.054396 -0.022195 468262.000000 1 0 0
16.636838 -7.504519 6.328601 19.317178 -0.423750 1.237018 0.057537 -0.010935 495211.000000 1 0 0
18.877638 2.237881 5.850801 19.889826 0.117996 1.272219 0.073114 -0.007655 -102355.000000 1 0 0
15.233638 1.801581 7.437101 17.047577 0.117717 1.119363 0.044285 -0.007836 -7172.380000 1 0 0
8.764838 -15.747519 3.822701 18.423348 -1.062911 1.361786 0.019668 -0.014111 522897.000000 1 0 0
11.401438 -15.102519 2.037301 19.032326 -0.924144 1.463547 0.024680 -0.003257 136979.000000 1 0 0
8.189138 -16.084119 6.206701 19.086225 -1.099860 1.239581 0.026242 -0.013394 -10739.000000 1 0 0
14.558538 -11.636019 -2.655199 18.825462 -0.674288 1.712311 0.033859 -0.007210 337970.000000 1 0 0
13.702238 -5.029119 3.272201 14.958297 -0.351764 1.350258 0.015426 -0.008830 -1970870.000000 1 0 0
-1.081662 10.196181 -5.504099 11.637320 -1.465107 2.063455 0.006465 0.001565 -2069280.000000 1 0 0
8.256238 -1.653819 -7.778899 11.463501 -0.197695 2.316624 -0.003437 0.000207 -2516680.000000 1 0 0
2.989038 -10.088219 7.556501 12.954042 -1.282747 0.947972 -0.005977 -0.001917 603999.000000 1 0 0
-6.181162 1.188881 8.153901 10.300791 -0.190019 0.657406 0.002994 -0.003305 -708308.000000 1 0 0
7.133638 -6.313819 -7.067499 11.861814 -0.724509 2.209082 -0.004567 -0.000143 -95370.900000 1 0 0
-11.441662 -4.566019 -4.080599 12.977344 0.379704 1.890663 0.004039 -0.004696 42616.800000 1 0 0
2.135838 -3.172619 2.840801 4.764185 -0.978278 0.931934 0.003706 -0.000524 2180230.000000 1 0 0
-3.456562 -4.310019 8.799201 10.389900 0.894847 0.560669 0.002776 -0.002569 -2413350.000000 1 0 0
-4.856562 -1.138619 -2.461399 5.562476 0.230290 2.029182 0.005451 -0.000996 -466221.000000 1 0 0
5.037938 -5.202619 -3.647499 8.108780 -0.801478 2.037361 0.002655 -0.003242 -52774.100000 1 0 0
2.776538 14.214481 -8.806199 16.950215 1.377894 2.117101 0.013586 -0.008384 -112525.000000 1 0 0
5.396138 -5.317219 13.721901 15.674236 -0.778032 0.504445 0.012344 -0.009428 -868958.000000 1 0 0
-4.755662 -0.801719 9.886801 11.000359 0.167012 0.453839 0.007517 -0.004210 -3062950.000000 1 0 0
-1.172862 11.681981 -2.750799 12.058656 -1.470732 1.800941 -0.001574 -0.000019 -387796.000000 1 0 0
3.167338 9.374881 -10.450399 14.392056 1.244983 2.383462 0.010286 -0.003615 168890.000000 1 0 0
-10.696462 2.729481 1.133401 11.097251 -0.249844 1.468484 -0.000373 -0.001785 -134816.000000 1 0 0
5.622238 -8.969819 -0.690799 10.608695 -1.010907 1.635959 -0.000465 -0.003644 532074.000000 1 0 0
-6.977362 5.395881 9.374901 12.871980 -0.658273 0.754932 0.000242 -0.002933 111111.000000 1 0 0
-5.349862 -1.827019 5.154801 7.650555 0.329089 0.831482 0.003864 -0.002178 834242.000000 1 0 0
6.600738 -3.798419 -7.308099 10.554906 -0.522175 2.335591 -0.002772 -0.001137 328804.000000 1 0 0
6.387438 4.845881 11.035401 13.640454 0.649019 0.628313 0.007711 0.000431 48194.200000 1 0 0
3.889738 -9.831819 3.379101 11.100137 -1.194065 1.261467 -0.005290 -0.001153 1146260.000000 1 0 0
-6.683062 6.603581 -5.703099 10.990721 -0.779416 2.116361 0.002577 -0.001445 135789.000000 1 0 0
-11.018062 8.596481 5.303001 14.947207 -0.662561 1.208115 0.001491 -0.008208 35548.900000 1 0 0
-9.181762 -5.481719 5.182101 11.883104 0.538227 1.119547 0.007292 -0.003415 -1943140.000000 1 0 0
3.308438 9.770781 -7.942599 13.019171 1.244309 2.226945 0.009943 -0.003798 681691.000000 1 0 0
-8.073362 -8.517619 6.034501 13.196371 0.812169 1.095857 0.009015 -0.006216 -2451500.000000 1 0 0
-7.886662 -5.756119 -7.513699 12.320228 0.630483 2.226689 0.009683 -0.006010 -481017.000000 1 0 0
9.238138 -1.544519 6.937601 11.655858 -0.165657 0.933278 0.003185 -0.003667 79688.500000 1 0 0
-4.139762 -0.414119 -4.879599 6.412458 0.099703 2.435582 0.011721 -0.008091 -773520.000000 1 0 0
9.079838 1.201781 -4.510999 10.209645 0.131592 2.028442 0.003548 -0.002611 -1152350.000000 1 0 0
-1.836362 -10.639519 10.778101 15.255787 1.399882 0.786266 -0.002306 -0.007258 51701.800000 1 0 0
-12.938262 0.205781 -2.578799 13.194362 -0.015904 1.767510 -0.001071 -0.001371 -1470980.000000 1 0 0
-9.901162 -5.197819 -6.036199 12.707716 0.483424 2.065763 0.008332 -0.005341 -1745390.000000 1 0 0
-5.703462 8.334581 -0.187499 10.100984 -0.970676 1.589360 -0.000380 0.001279 465974.000000 1 0 0
6.202638 9.613081 0.397801 11.447370 0.997782 1.536039 0.012503 -0.004110 599839.000000 1 0 0
-0.473162 -12.043919 -0.012299 12.053216 1.531530 1.571817 0.008588 -0.002272 -128572.000000 1 0 0
6.241138 4.718581 2.376001 8.176930 0.647359 1.275970 0.003307 -0.001828 -19875.500000 1 0 0
3.468038 -7.529919 -8.144599 11.621595 -1.139189 2.347337 -0.006994 0.001108 205226.000000 1 0 0
-6.525462 -9.808619 4.550901 12.629385 0.983755 1.202162 0.008574 -0.004060 -2055010.000000 1 0 0
0.004038 6.558681 -9.259899 11.347337 1.570181 2.525325 0.011429 -0.003898 -2138050.000000 1 0 0
-17.320962 -2.743119 4.423801 18.086195 0.157065 1.323694 0.042485 -0.008808 -45933.200000 1 0 0
-8.366062 0.862881 -8.997799 12.316491 -0.102777 2.389922 0.004315 -0.006304 -35222.700000 1 0 0
-10.068862 -5.839719 -11.777899 16.559083 0.525567 2.362093 0.012658 -0.005860 -706836.000000 1 0 0
2.107638 9.408281 6.385501 11.564277 1.350415 0.985826 -0.002183 0.002213 255253.000000 1 0 0
-11.402162 1.656781 -1.181699 11.582342 -0.144294 1.673000 0.001743 -0.002491 -2343270.000000 1 0 0
-5.991462 -5.316819 -3.072299 8.579348 0.725810 1.937033 0.015206 -0.003125 756144.000000 1 0 0
-7.028662 -8.368619 1.340001 11.010517 0.872205 1.448792 0.009884 -0.001690 313757.000000 1 0 0
0.009238 10.815581 -7.826099 13.350083 1.569942 2.197183 0.010474 0.001143 612401.000000 1 0 0
-2.921862 9.259781 -4.270699 10.607530 -1.265141 1.985163 0.005092 -0.001868 32442.800000 1 0 0
3.520038 -4.804019 9.293901 11.038381 -0.938441 0.569886 -0.002580 0.000128 -1103610.000000 1 0 0
-9.048362 1.499581 -0.415899 9.181208 -0.164237 1.616111 0.000977 -0.001390 -1600960.000000 1 0 0
2.485738 3.485981 -10.375099 11.223798 0.951354 2.750214 0.006829 -0.004316 1079420.000000 1 0 0
-13.698462 0.482781 1.161901 13.756124 -0.035229 1.486231 0.004331 -0.002131 -746130.000000 1 0 0
9.434038 -12.570519 -5.077399 16.516628 -0.926982 1.883268 0.016619 -0.007521 -2061740.000000 1 0 0
-4.757062 9.414181 -8.309899 13.427989 -1.102911 2.238073 0.006045 0.000803 454242.000000 1 0 0
-2.344362 7.096281 8.429501 11.265422 -1.251720 0.725356 -0.000216 -0.000736 -178142.000000 1 0 0
-10.757262 -1.166219 -4.503099 11.719926 0.107990 1.965166 0.003555 -0.003465 -4259000.000000 1 0 0
2.679038 -7.150819 9.626601 12.287510 -1.212335 0.670605 -0.006913 0.000738 -824675.000000 1 0 0
-16.105862 -6.431019 3.430401 17.678361 0.379900 1.375512 0.029806 -0.013147 151710.000000 1 0 0
-10.895662 0.061981 6.237201 12.554759 -0.005689 1.050889 0.002682 -0.002549 -578341.000000 1 0 0
-8.462062 9.933281 9.472301 16.124548 -0.865206 0.942897 0.004704 -0.007317 -1329080.000000 1 0 0
0.218338 -6.199619 -3.832699 7.291950 -1.535593 2.124225 0.001859 -0.000909 625375.000000 1 0 0
4.903538 1.441981 -2.982299 5.917609 0.286007 2.098986 0.001180 -0.002066 30040.900000 1 0 0
0.316438 5.414881 3.841401 6.646610 1.512424 0.954583 -0.001368 -0.000394 -2794910.000000 1 0 0
6.097838 -11.326619 -1.553399 12.957197 -1.076931 1.690972 -0.003179 -0.001426 -1740530.000000 1 0 0
6.291738 -13.403919 5.242601 15.707828 -1.131931 1.230510 0.008823 -0.007306 -605143.000000 1 0 0
8.215938 -8.275719 -5.961599 13.096939 -0.789023 2.043382 -0.002249 -0.002039 610438.000000 1 0 0
-13.205462 -1.367319 -4.664299 14.071584 0.103174 1.908657 -0.001087 -0.001096 -3268990.000000 1 0 0
-6.854762 -1.486419 -7.131399 10.002703 0.213539 2.364489 0.012267 -0.009746 -1148440.000000 1 0 0
-5.793562 12.853281 -4.708999 14.864282 -1.147322 1.893150 0.003603 0.002813 325393.000000 1 0 0
-4.337162 6.904481 -6.735999 10.576225 -1.009923 2.261267 0.006572 -0.001742 -3244080.000000 1 0 0
-9.388862 -3.719119 -8.105699 12.949322 0.377157 2.247152 0.008862 -0.005145 526040.000000 1 0 0
-2.126062 -6.351419 9.137901 11.329691 1.247782 0.632513 0.000038 -0.001218 12392.000000 1 0 0
7.332138 -5.950819 10.141301 13.857073 -0.681779 0.749763 0.004859 -0.006295 444806.000000 1 0 0
9.627838 -4.993119 12.250201 16.361354 -0.478427 0.724656 0.022185 -0.006114 -27327.500000 1 0 0
-6.463562 2.799881 -9.149299 11.546716 -0.408778 2.485485 0.004978 -0.005633 -472372.000000 1 0 0
7.433838 5.519181 8.836101 12.798437 0.638645 0.808748 -0.000533 -0.000953 -436874.000000 1 0 0
12.739138 3.339181 11.174201 17.271321 0.256353 0.867179 0.028149 -0.002802 -1159190.000000 1 0 0
-7.518262 -7.245319 -3.935199 11.158168 0.766913 1.931224 0.013521 -0.006004 -471481.000000 1 0 0
2.207338 1.392081 -5.798799 6.358955 0.562660 2.718713 0.006141 -0.003087 160428.000000 1 0 0
12.889238 6.948681 -7.074299 16.262298 0.494442 2.020848 0.011274 -0.002670 -615949.000000 1 0 0
0.835038 -7.771119 1.020601 7.882208 -1.463753 1.440950 0.004572 -0.001178 1004060.000000 1 0 0
-10.244562 -6.051419 -8.587299 14.673528 0.533550 2.195952 0.010499 -0.003789 -540378.000000 1 0 0
-6.677262 0.269581 3.059301 7.349682 -0.040351 1.141480 0.002722 -0.002636 -1280130.000000 1 0 0
10.731538 -7.896619 1.188601 13.376668 -0.634372 1.481823 0.003781 -0.006544 -148075.000000 1 0 0
6.218838 1.091281 10.579501 12.320336 0.173711 0.538064 0.007126 -0.000878 -632013.000000 1 0 0
-13.030762 5.336581 1.905201 14.209492 -0.388701 1.436312 0.004830 -0.001573 250833.000000 1 0 0
2.049838 7.436981 3.523601 8.480937 1.301847 1.142334 -0.002601 -0.001102 215093.000000 1 0 0
10.144238 -9.539519 -0.872399 13.952385 -0.754686 1.633364 -0.000889 -0.002283 833839.000000 1 0 0
6.952838 -11.775919 -9.089599 16.420567 -1.037444 2.157417 -0.001989 -0.001581 147840.000000 1 0 0
10.339538 3.606181 11.858601 16.141158 0.335584 0.745600 0.005622 0.000211 -1118510.000000 1 0 0
-11.036562 -3.119719 -1.932199 11.630638 0.275484 1.737700 0.000600 -0.000260 -864710.000000 1 0 0
12.329238 0.981381 6.896101 14.160841 0.079430 1.062163 0.006653 -0.002423 -300578.000000 1 0 0
-9.575962 9.136181 3.098701 13.593043 -0.761900 1.340812 0.000047 -0.005358 780175.000000 1 0 0
-6.674562 7.706781 -8.783999 13.457448 -0.857050 2.281971 0.004491 -0.001801 -826469.000000 1 0 0
8.601538 5.495681 12.093401 15.825274 0.568546 0.701023 0.008541 0.001826 -2068990.000000 1 0 0
1.220738 4.870581 -2.786799 5.742736 1.325220 2.077473 0.005252 -0.005759 652325.000000 1 0 0
1.382038 0.500681 9.536501 9.649122 0.347570 0.152934 0.002645 -0.001252 852858.000000 1 0 0
2.475038 12.584581 -3.952699 13.420929 1.376603 1.869747 0.011599 -0.005416 482343.000000 1 0 0
2.130738 0.695481 13.053701 13.244729 0.315501 0.170046 0.003192 -0.005709 -365985.000000 1 0 0
-12.188762 -1.786719 0.869301 12.349655 0.145551 1.500347 -0.001851 -0.000604 -60546.500000 1 0 0
3.320538 8.712181 -1.186699 9.398741 1.206656 1.697396 0.005995 -0.004358 189840.000000 1 0 0
3.727038 -2.822919 -5.803999 7.452925 -0.648231 2.463474 -0.000467 -0.002462 -1027450.000000 1 0 0
-7.674062 -7.226419 9.167401 13.969739 0.755365 0.854981 0.011575 -0.005495 -106864.000000 1 0 0
-7.039762 10.917381 -3.517199 13.458015 -0.998070 1.835213 0.003651 0.002401 793508.000000 1 0 0
0.303938 0.635081 2.442701 2.542143 1.124430 0.280626 0.001300 -0.000297 -2009330.000000 1 0 0
-7.110662 4.504281 -2.014399 8.654933 -0.564656 1.805696 0.004341 -0.002531 -872674.000000 1 0 0
-6.981362 -3.864319 -5.982499 9.973098 0.505541 2.214127 0.011980 -0.007549 -29012.500000 1 0 0
2.884238 -6.070819 13.410101 15.000149 -1.127268 0.464607 0.003107 -0.005988 -255434.000000 1 0 0
-5.420262 -0.596419 -11.767899 12.969904 0.109594 2.707670 0.009121 -0.009521 -414822.000000 1 0 0
11.875438 2.439481 -0.561599 12.136411 0.202604 1.617087 0.001965 0.002046 -940600.000000 1 0 0
6.193938 -10.860819 10.718301 16.468279 -1.052501 0.862099 -0.003957 -0.000600 348193.000000 1 0 0
-8.226162 6.417081 -10.470799 14.781283 -0.662477 2.358000 0.001827 -0.001893 389649.000000 1 0 0
2.814338 7.892081 11.139901 13.939255 1.228252 0.644875 0.002657 0.002267 980734.000000 1 0 0
-6.233362 -10.174919 -0.413999 11.939647 1.021149 1.605478 0.012268 0.000094 -474329.000000 1 0 0
11.293138 4.257281 6.137401 13.539833 0.360505 1.100349 -0.001888 -0.000906 -732548.000000 1 0 0
-7.917862 10.702981 1.467701 13.394047 -0.933868 1.460997 -0.000986 -0.000881 799017.000000 1 0 0
4.381838 -2.581419 -3.458899 6.150464 -0.532379 2.168058 0.003847 -0.003958 -4443310.000000 1 0 0
6.420538 6.365581 6.356301 11.051990 0.781100 0.958037 0.002344 -0.000760 -5919300.000000 1 0 0
-0.474062 10.303181 -10.233299 14.529305 -1.524817 2.352263 0.008431 -0.001471 -601319.000000 1 0 0
14.161638 6.464581 -2.485999 15.764612 0.428234 1.729152 0.014330 0.003999 676819.000000 1 0 0
1.465138 9.358581 -6.081599 11.256799 1.415501 2.141543 0.009718 -0.003510 1267330.000000 1 0 0
0.657538 7.289981 7.196801 10.264995 1.480842 0.793856 -0.001741 0.001711 -27341.500000 1 0 0
12.217638 6.492881 1.914401 13.967573 0.488478 1.433303 0.006056 -0.000069 -2098040.000000 1 0 0
-6.814562 6.697481 -3.079699 10.038878 -0.776733 1.882602 -0.001034 -0.000919 537286.000000 1 0 0
0.976038 9.922881 11.012401 14.855611 1.472749 0.735798 -0.000607 0.000764 -1426670.000000 1 0 0
-3.611862 13.542881 -10.966199 17.796424 -1.310164 2.234708 0.011612 -0.000888 110915.000000 1 0 0
-10.020262 -5.552119 -2.309299 11.686083 0.505977 1.769717 0.007213 -0.002594 -482679.000000 1 0 0
-4.014362 3.941481 -12.469399 13.679777 -0.776238 2.717763 0.005244 -0.007046 -126897.000000 1 0 0
-3.133262 8.552581 2.601801 9.472769 -1.219628 1.292559 0.000272 0.001859 -2752920.000000 1 0 0
7.071838 8.874681 6.983001 13.324157 0.897976 1.019155 0.009698 0.001588 -664509.000000 1 0 0
-1.388762 -2.241819 -8.195199 8.609048 1.016176 2.830268 0.008597 -0.009026 -840736.000000 1 0 0
0.785638 -1.241719 4.697101 4.921569 -1.006678 0.303184 0.001556 -0.002418 -1006790.000000 1 0 0
2.731738 -8.858119 -6.034499 11.060915 -1.271662 2.147865 -0.007014 -0.000261 301376.000000 1 0 0
5.371438 3.881381 8.764201 10.987660 0.625731 0.647424 0.001982 -0.000632 1109940.000000 1 0 0
6.072838 -7.498519 -2.777099 10.040888 -0.890065 1.851029 -0.001154 -0.005221 774584.000000 1 0 0
1.816738 2.291781 -8.224399 8.728891 0.900511 2.799946 0.007201 -0.005107 273829.000000 1 0 0
-5.510662 10.937381 -0.588999 12.261347 -1.104083 1.618852 -0.001319 0.003210 549859.000000 1 0 0
-5.393562 3.171081 -3.423499 7.132084 -0.531503 2.071467 0.003517 -0.001284 431208.000000 1 0 0
1.998838 13.596581 -6.373699 15.148809 1.424832 2.005056 0.006723 0.000512 669855.000000 1 0 0
-5.280262 -2.548319 2.673001 6.443604 0.449641 1.143040 -0.002624 -0.000619 102573.000000 1 0 0
10.502438 -3.285419 -1.842799 11.157557 -0.303180 1.736718 0.002553 -0.005054 86420.800000 1 0 0
2.334938 -3.373919 6.969701 8.087768 -0.965422 0.532071 -0.002447 0.000293 -2084440.000000 1 0 0
-2.921962 9.952681 -11.716599 15.648400 -1.285235 2.416957 0.008703 -0.001477 -2370200.000000 1 0 0
0.487438 -1.984819 9.332901 9.554064 -1.329979 0.215585 -0.000823 -0.002201 593285.000000 1 0 0
9.525138 2.669281 4.922801 11.049311 0.273227 1.109030 -0.002240 -0.001149 177869.000000 1 0 0
13.453438 2.152881 -5.040399 14.527061 0.158679 1.925131 0.018783 -0.004150 -1007740.000000 1 0 0
-6.489462 3.708281 7.622101 10.675247 -0.519148 0.775605 0.001842 -0.004110 325130.000000 1 0 0
10.573038 0.062981 1.701001 10.709178 0.005957 1.411285 -0.001261 -0.002355 1914610.000000 1 0 0
15.383438 6.770081 -4.662099 17.441884 0.414581 1.841379 0.027255 0.001207 -378130.000000 1 0 0
7.999738 -5.069419 -9.145999 13.166021 -0.564830 2.338753 -0.002810 0.000567 657358.000000 1 0 0
4.453138 5.600081 -2.194199 7.483706 0.898994 1.868365 0.003323 -0.005110 127247.000000 1 0 0
-1.593162 -10.428319 1.512501 10.657188 1.419196 1.428392 0.007808 -0.002313 -736913.000000 1 0 0
-2.858162 12.227681 -13.002599 18.076307 -1.341174 2.373615 0.015873 -0.002773 -595472.000000 1 0 0
8.330538 4.231781 -9.612899 13.405733 0.470015 2.370391 0.003743 -0.002190 -733985.000000 1 0 0
4.222938 7.606281 -8.960299 12.489022 1.063977 2.370937 0.007647 -0.005381 -2530670.000000 1 0 0
-1.632462 -4.937519 -2.457299 5.751725 1.251486 2.012221 0.008188 -0.002610 -1617830.000000 1 0 0
-3.238062 -9.221319 6.870801 11.946785 1.233098 0.958049 0.002379 -0.003826 -1458860.000000 1 0 0
1.028338 7.160181 -1.306999 7.350777 1.428153 1.749551 0.004348 -0.005478 1482030.000000 1 0 0
0.332438 -1.032619 -2.201699 2.454444 -1.259338 2.683790 0.007520 -0.001171 -2713930.000000 1 0 0
4.163938 -6.726519 7.566101 10.946703 -1.016499 0.807681 -0.003228 -0.000002 -288896.000000 1 0 0
-13.977162 3.846681 5.957501 15.673220 -0.268563 1.180884 0.004704 -0.002975 -1505080.000000 1 0 0
4.254538 6.478781 12.469801 14.682358 0.989734 0.556129 0.010588 -0.002516 -1041030.000000 1 0 0
8.239038 10.079581 -7.232299 14.892476 0.885536 2.077885 0.016072 -0.006992 369671.000000 1 0 0
12.562238 5.376581 9.542601 16.666693 0.404405 0.961177 0.033082 -0.005527 2544690.000000 1 0 0
7.531338 4.065881 0.249301 8.562394 0.495026 1.541676 0.004723 -0.000033 -1878060.000000 1 0 0
-10.901662 -7.526119 -1.038899 13.287890 0.604230 1.649060 0.006271 -0.003168 -1599540.000000 1 0 0
10.415338 6.835981 0.202801 12.459977 0.580818 1.554519 0.007360 -0.000536 -901789.000000 1 0 0
14.627438 3.612981 4.319601 15.674008 0.242153 1.291593 0.025251 -0.004461 -12619.500000 1 0 0
2.202038 5.575281 8.158301 10.123764 1.194638 0.633676 -0.001725 0.002052 1055210.000000 1 0 0
4.175138 0.128481 11.688301 12.412278 0.030763 0.343230 0.005453 -0.001904 -1283770.000000 1 0 0
-1.643462 -1.347019 -0.402899 2.162812 0.686592 1.758176 0.009805 -0.006278 -877414.000000 1 0 0
3.073938 -5.314919 -9.462099 11.279574 -1.046440 2.566001 -0.006375 0.000432 390295.000000 1 0 0
-3.826262 -5.397319 -1.547399 6.794540 0.954109 1.800554 0.009575 -0.003628 -568319.000000 1 0 0
-1.385662 -8.749219 8.688701 12.408159 1.413725 0.795061 0.001033 -0.004386 -3142.930000 1 0 0
3.980438 8.487781 -5.944599 11.100657 1.132287 2.135917 0.009377 -0.003990 170253.000000 1 0 0
-14.295762 -1.805819 -2.651899 14.651361 0.125653 1.752800 -0.002926 -0.002193 -794796.000000 1 0 0
8.848238 -10.548719 -6.648499 15.289517 -0.872842 2.020657 -0.005735 -0.005205 509412.000000 1 0 0
14.726038 6.135281 1.656701 16.038782 0.394758 1.467318 0.011839 0.001453 -2000880.000000 1 0 0
-5.777962 0.387281 -8.485599 10.273278 -0.066927 2.542748 0.012447 -0.010232 -437932.000000 1 0 0
-8.151162 -4.531119 -12.974499 15.978427 0.507351 2.518369 0.009118 -0.006881 733158.000000 1 0 0
0.952338 -10.640019 11.976901 16.048772 -1.481529 0.728338 0.000319 -0.005610 -328835.000000 1 0 0
0.247138 11.728281 3.461901 12.231043 1.549728 1.283832 0.003124 -0.001724 -753899.000000 1 0 0
5.165838 -13.279619 -3.817399 14.751498 -1.199804 1.832556 0.000426 -0.000854 302928.000000 1 0 0
-7.455662 1.658781 -6.975199 10.343687 -0.218920 2.310872 0.005378 -0.004434 322567.000000 1 0 0
1.524938 2.771881 3.960201 5.068723 1.067842 0.674048 -0.000404 -0.002023 -1761650.000000 1 0 0
17.161638 5.503981 2.087901 18.143179 0.310351 1.455462 0.022063 0.003390 137532.000000 1 0 0
2.666238 -8.091619 -3.424299 9.181990 -1.252494 1.952968 -0.002514 -0.001689 252351.000000 1 0 0
-0.260762 -9.407019 -0.621299 9.431119 1.543083 1.636722 0.008331 -0.000501 -1117270.000000 1 0 0
0.794138 11.707181 -5.483799 12.952251 1.503067 2.007976 0.009384 -0.001719 -2587110.000000 1 0 0
5.995638 -4.936619 7.796901 11.004978 -0.688828 0.783442 -0.002002 -0.000021 -1318270.000000 1 0 0
-6.063662 -1.922819 -9.454999 11.395712 0.307075 2.549363 0.013587 -0.010571 -298072.000000 1 0 0
2.000938 -1.255919 11.291601 11.536088 -0.560514 0.206245 0.001981 -0.001863 -668799.000000 1 0 0
17.999138 2.010281 -5.875699 19.040326 0.111227 1.884509 0.041550 -0.005739 -306129.000000 1 0 0
-8.901062 4.733181 7.773401 12.730187 -0.488727 0.913944 0.004641 -0.008178 86788.500000 1 0 0
11.417538 -7.044819 -4.813799 14.253501 -0.552838 1.915298 0.009021 -0.008586 71889.300000 1 0 0
10.677638 0.503581 8.952201 13.943007 0.047127 0.873618 0.000775 -0.002652 67253.800000 1 0 0
-8.426462 -7.397419 -1.573399 11.322661 0.720459 1.710208 0.012211 -0.002496 -590686.000000 1 0 0
10.346438 -10.608219 -3.253699 15.171343 -0.797890 1.786939 0.007117 -0.005130 20123.700000 1 0 0
7.700738 -13.906519 -3.822699 16.349485 -1.065078 1.806792 0.010741 -0.005535 -1387220.000000 1 0 0
1.722338 -1.264019 -11.774399 11.966648 -0.633115 2.962101 0.006406 -0.006314 421045.000000 1 0 0
-11.867562 -2.649119 -6.356899 13.721044 0.219623 2.052507 0.004792 -0.004218 14845.200000 1 0 0
2.792338 -12.331019 -6.324699 14.136937 -1.348104 2.034639 -0.002383 0.001581 1082440.000000 1 0 0
-5.539662 1.434981 1.156401 5.838175 -0.253466 1.371402 0.002602 -0.003169 452655.000000 1 0 0
0.146838 6.867881 -4.025999 7.962288 1.549419 2.100912 0.009712 -0.005812 1193080.000000 1 0 0
5.555038 -11.735119 3.537901 13.456901 -1.128680 1.304763 -0.003678 -0.005323 -2244460.000000 1 0 0
-4.385762 -9.158719 1.067801 10.210643 1.124202 1.466028 0.009933 -0.001099 281830.000000 1 0 0
7.156538 -6.225919 -4.599999 10.542205 -0.715970 2.022325 0.001995 -0.003047 -733182.000000 1 0 0
-6.809262 -6.067519 2.172601 9.375555 0.727859 1.336940 0.006658 -0.001016 -737773.000000 1 0 0
-6.387862 -0.781519 7.009101 9.515411 0.121739 0.742759 0.003250 -0.002410 -1198280.000000 1 0 0
4.287538 -4.990319 3.152101 7.295341 -0.861002 1.124009 -0.000595 -0.003337 -231613.000000 1 0 0
-2.535362 10.537781 -8.815999 13.971211 -1.334687 2.253653 0.006625 0.000221 -953529.000000 1 0 0
-2.244162 -4.930219 2.772601 6.085280 1.143639 1.097723 0.001719 0.000366 -329165.000000 1 0 0
15.057438 5.109781 6.397701 17.139629 0.327158 1.188266 0.044121 -0.012292 1080670.000000 1 0 0
6.805838 0.277081 0.201501 6.814455 0.040690 1.541222 0.006256 -0.003528 4645190.000000 1 0 0
-9.762662 9.170581 0.486601 13.403205 -0.754136 1.534484 -0.004173 -0.004316 -2097310.000000 1 0 0
7.128738 10.489981 -2.606699 12.948108 0.973910 1.773501 0.006563 -0.003176 -217208.000000 1 0 0
1.647638 -4.308919 -5.402599 7.104194 -1.205573 2.434849 -0.000078 -0.001920 199155.000000 1 0 0
0.975338 -8.189119 -7.953899 11.457638 -1.452253 2.338105 -0.002896 -0.000376 -66926.600000 1 0 0
-10.485762 0.269081 -10.390099 14.764071 -0.025656 2.351447 0.004161 -0.008704 -3038920.000000 1 0 0
5.975838 -2.527019 0.536301 6.510306 -0.400067 1.488326 0.006671 -0.003084 -188426.000000 1 0 0
-3.364862 5.284081 -1.184999 6.375581 -1.003762 1.757749 0.003912 -0.005310 549427.000000 1 0 0
-0.435762 4.571681 -5.152099 6.901760 -1.475766 2.413569 0.008308 -0.005949 -692690.000000 1 0 0
3.940238 -9.709619 10.046201 14.516484 -1.185293 0.806465 -0.008739 -0.001319 -1995420.000000 1 0 0
7.275738 -13.542819 -0.769599 15.392744 -1.077803 1.620815 0.010478 -0.002527 717878.000000 1 0 0
13.060438 -0.031619 0.425601 13.067409 -0.002421 1.538221 0.001395 -0.002805 739045.000000 1 0 0
9.316538 2.511881 -0.608999 9.668418 0.263353 1.633827 0.004125 -0.001063 -1024320.000000 1 0 0
-0.724862 -5.779019 4.402301 7.300872 1.446018 0.923561 -0.000765 0.000512 -311049.000000 1 0 0
11.540838 -3.711419 3.304201 12.565162 -0.311145 1.304702 0.010362 -0.007353 -2691930.000000 1 0 0
1.676438 -8.183919 11.708201 14.382939 -1.368746 0.619732 -0.005721 -0.001890 479552.000000 1 0 0
9.424338 -5.886119 -5.900599 12.581002 -0.558287 2.058964 -0.002657 -0.005340 -121683.000000 1 0 0
3.228238 6.373881 -0.149999 7.146354 1.101979 1.591788 0.000094 -0.002589 -907206.000000 1 0 0
6.309238 -1.329519 11.592401 13.264911 -0.207687 0.507598 0.007509 0.000357 232203.000000 1 0 0
-4.862662 -7.506619 -3.893099 9.754539 0.995981 1.981338 0.015364 -0.002927 -384314.000000 1 0 0
-3.412262 -8.476219 -5.867999 10.859247 1.188077 2.141672 0.012141 -0.001129 -202806.000000 1 0 0
9.864238 5.391281 2.270301 11.468364 0.500189 1.371518 0.002999 0.000938 -372695.000000 1 0 0
8.819438 -1.545719 0.257401 8.957566 -0.173501 1.542057 0.002731 -0.002448 1122160.000000 1 0 0
-3.904162 9.611381 9.198501 13.864831 -1.184955 0.845388 0.001040 -0.002554 -33614.500000 1 0 0
-14.374062 -3.612719 -6.048799 16.007916 0.246236 1.958283 0.006318 -0.004449 -942213.000000 1 0 0
10.686638 6.195681 -5.993799 13.730125 0.525404 2.022550 0.006271 -0.003166 -1448040.000000 1 0 0
-1.771162 4.613281 2.599601 5.583664 -1.204222 1.086515 -0.000353 -0.002342 270634.000000 1 0 0
7.034838 -3.611219 2.756201 8.374156 -0.474258 1.235412 0.004222 -0.003942 -2092220.000000 1 0 0
8.396438 -11.245419 -1.696399 14.136385 -0.929440 1.691089 0.005123 -0.002336 -2249940.000000 1 0 0
4.478638 0.559581 1.817501 4.865659 0.124300 1.187978 0.004863 -0.002055 153543.000000 1 0 0
-10.737662 2.273781 3.873301 11.639155 -0.208675 1.231544 0.001785 -0.003667 183246.000000 1 0 0
-0.866062 -3.014819 4.298101 5.320983 1.291060 0.630447 0.000009 0.000433 387013.000000 1 0 0
8.595338 -8.686719 -8.553399 14.916419 -0.790686 2.181473 -0.000722 -0.001124 -506314.000000 1 0 0
12.110738 -4.744519 1.041201 13.048545 -0.373384 1.490917 0.005179 -0.006850 33403.700000 1 0 0
2.931138 4.854481 3.410801 6.617486 1.027587 1.029296 -0.003051 -0.002096 278889.000000 1 0 0
6.113338 7.477581 1.885201 9.840788 0.885442 1.378035 0.003227 -0.002274 42601.100000 1 0 0
-1.639062 -1.413319 -10.318999 10.543517 0.711576 2.934854 0.013417 -0.009117 223215.000000 1 0 0
-0.749362 -8.597919 6.119001 10.579599 1.483860 0.954058 0.001408 -0.002424 -651244.000000 1 0 0
-4.203162 -0.242019 2.365401 4.829106 0.057517 1.058911 0.000251 -0.001450 146725.000000 1 0 0
-8.486662 6.277481 -7.865599 13.164265 -0.636869 2.211171 -0.000423 -0.001801 -1005630.000000 1 0 0
6.551738 11.142081 -9.493599 16.037446 1.039234 2.204291 0.025036 -0.007795 -19425.200000 1 0 0
-11.169562 -5.795619 3.227201 12.990887 0.478634 1.319747 0.004850 -0.001946 -120970.000000 1 0 0
1.687638 -6.258519 3.029001 7.154860 -1.307407 1.133658 -0.001202 -0.001181 438153.000000 1 0 0
10.098538 2.206081 7.194801 12.594142 0.215077 0.962730 0.000143 0.001030 -952242.000000 1 0 0
-4.031862 -2.637219 -10.690599 11.726029 0.579248 2.718195 0.011558 -0.011634 -2396800.000000 1 0 0
-8.339862 11.661981 5.991901 15.538918 -0.949986 1.174932 0.004681 -0.008682 -68318.000000 1 0 0
6.900938 5.931081 -3.018399 9.587043 0.709961 1.891086 0.006868 -0.003587 -3688190.000000 1 0 0
3.979038 -9.902219 -2.298299 10.916449 -1.188711 1.782919 -0.002143 -0.003114 -207550.000000 1 0 0
8.560338 -12.935719 -7.392799 17.183297 -0.986199 2.015546 0.004398 -0.006644 811472.000000 1 0 0
-1.002762 9.440981 3.700601 10.189804 -1.464979 1.199132 0.004232 -0.001417 -165795.000000 1 0 0
0.529238 -13.183219 4.709001 14.008998 -1.530673 1.227980 0.006429 -0.005104 -822432.000000 1 0 0
-11.266662 -7.103419 -5.118199 14.268574 0.562531 1.937676 0.005106 -0.006289 -141501.000000 1 0 0
3.661538 10.277281 -3.366799 11.417736 1.228542 1.870121 0.013534 -0.006492 -620364.000000 1 0 0
11.563038 -8.075719 -7.361399 15.909471 -0.609657 2.051841 0.026811 -0.011934 274256.000000 1 0 0
11.755338 -4.739119 -5.848699 13.959029 -0.383216 2.003129 0.011044 -0.008995 139552.000000 1 0 0
1.399338 -10.321419 -2.676899 10.754330 -1.436042 1.822355 -0.002393 0.000502 -354317.000000 1 0 0
2.353538 -12.057019 -3.880899 12.883021 -1.378020 1.876791 0.000912 0.000440 -1530880.000000 1 0 0
-7.567962 -5.574319 7.208901 11.845477 0.634849 0.916529 0.008574 -0.000325 -3067370.000000 1 0 0
-7.224562 -0.755619 9.518101 11.973283 0.104211 0.651880 0.007032 -0.005355 -138225.000000 1 0 0
16.268538 2.618481 -7.639199 18.162575 0.159585 2.004904 0.043224 -0.006033 -493004.000000 1 0 0
-2.099262 6.349181 -5.492099 8.653448 -1.251476 2.258380 0.007347 -0.004006 -112747.000000 1 0 0
7.585438 1.151081 8.450701 11.413947 0.150600 0.737155 0.000859 -0.001621 71399.500000 1 0 0
7.902538 8.259781 -3.757399 12.032960 0.807498 1.888366 0.006552 -0.000518 -1153290.000000 1 0 0
8.093438 0.563381 3.980901 9.037074 0.069498 1.114632 0.002244 -0.001537 285915.000000 1 0 0
-6.960762 5.820181 5.333701 10.524974 -0.696393 1.039367 0.006716 -0.007253 -222554.000000 1 0 0
-6.147262 -2.106619 -4.515399 7.912996 0.330150 2.178070 0.010326 -0.006462 -741113.000000 1 0 0
-15.113962 -2.223519 3.182401 15.604601 0.146069 1.365416 0.011365 -0.005635 309810.000000 1 0 0
1.156338 1.136881 -10.464899 10.589794 0.776914 2.987858 0.009803 -0.008309 390881.000000 1 0 0
1.478538 -9.266319 9.314001 13.221246 -1.412570 0.789117 -0.005247 -0.002572 -566216.000000 1 0 0
-0.180962 -6.840719 -1.254599 6.957169 1.544349 1.752120 0.005170 -0.000992 689737.000000 1 0 0
-0.347162 -10.257519 -8.389399 13.255913 1.536965 2.256063 -0.001052 0.001802 204173.000000 1 0 0
-4.425062 6.509581 3.812901 8.746087 -0.973772 1.119697 0.002029 -0.002489 -153260.000000 1 0 0
10.812638 -1.202519 -8.556799 13.841171 -0.110759 2.237264 0.015056 -0.003884 563160.000000 1 0 0
2.910738 -1.097919 6.227301 6.961113 -0.360695 0.463297 0.001752 0.000945 570182.000000 1 0 0
1.957138 -12.290119 6.719301 14.143069 -1.412877 1.075724 0.001927 -0.003993 -300837.000000 1 0 0
3.026638 -4.983619 -1.267299 5.966828 -1.025014 1.784817 0.004912 -0.002195 -2286940.000000 1 0 0
-1.000062 9.339581 -1.548699 9.519788 -1.464125 1.734205 0.006806 -0.003623 477274.000000 1 0 0
4.574538 -2.549019 2.495201 5.800855 -0.508369 1.126144 0.005172 -0.003379 -1864740.000000 1 0 0
17.968538 6.765481 -2.652799 19.382400 0.360101 1.708094 0.036421 0.009608 493513.000000 1 0 0
-7.231362 3.478481 -5.389299 9.666281 -0.448354 2.162211 0.003267 -0.003818 -256811.000000 1 0 0
-13.713262 -5.993119 2.402501 15.157277 0.412017 1.411620 -0.003324 -0.005428 -132197.000000 1 0 0
6.782238 -6.038219 3.336401 9.674213 -0.727429 1.218690 0.000178 -0.005011 380091.000000 1 0 0
-4.586662 2.030581 3.491101 6.111343 -0.416779 0.962769 0.003392 -0.003814 509077.000000 1 0 0
6.862738 -12.076519 -5.589799 14.972820 -1.054034 1.953392 0.001870 -0.002508 719528.000000 1 0 0
3.005538 -12.316119 3.323701 13.105992 -1.331442 1.314395 0.000270 -0.003842 -808270.000000 1 0 0
3.292838 11.248981 -6.046399 13.188681 1.286029 2.047051 0.009909 -0.002887 -892750.000000 1 0 0
-5.514962 -8.302519 6.368801 11.828282 0.984467 1.002214 0.007010 -0.001351 -630800.000000 1 0 0
-4.005662 6.508981 6.382801 9.957525 -1.019126 0.874992 0.001590 -0.002074 525274.000000 1 0 0
4.366238 4.386181 -6.899699 9.268682 0.787677 2.410447 0.002623 -0.003015 -1176590.000000 1 0 0
-0.291662 -2.657919 1.563701 3.097541 1.461500 1.041623 0.001329 -0.000225 99495.300000 1 0 0
-13.338362 -0.957819 6.538301 14.885520 0.071686 1.116045 0.012814 -0.004395 -794143.000000 1 0 0
-0.380662 -9.307119 -6.009199 11.085028 1.529919 2.143731 -0.000256 0.000431 290353.000000 1 0 0
2.067438 -1.678019 -3.932099 4.748837 -0.681799 2.546351 0.002871 -0.003025 -683722.000000 1 0 0
11.408038 -1.931019 1.049201 11.617787 -0.167679 1.480363 0.003130 -0.005134 1345260.000000 1 0 0
0.614438 -4.368519 -2.039599 4.860191 -1.431062 2.003861 0.004474 -0.001645 -1067700.000000 1 0 0
1.091038 -7.448819 -11.338799 13.610424 -1.425359 2.555479 -0.001616 -0.001752 -69457.900000 1 0 0
-4.534262 4.139681 -9.988299 11.724445 -0.739939 2.590439 0.005636 -0.005253 77532.600000 1 0 0
-1.028162 5.824681 -2.082899 6.270765 -1.396078 1.909389 0.006179 -0.005670 -1135660.000000 1 0 0
-11.430462 1.653481 -3.841499 12.171548 -0.143659 1.891899 0.000217 -0.001865 -238680.000000 1 0 0
-1.720262 -11.272019 4.179501 12.144379 1.419351 1.219462 0.011146 -0.004305 38420.900000 1 0 0
-3.529162 -5.441719 -9.689199 11.659669 0.995449 2.551702 0.008418 -0.005434 -1036580.000000 1 0 0
-12.929262 -3.683719 -8.326299 15.813376 0.277559 2.125316 0.009107 -0.005352 -182184.000000 1 0 0
11.446238 4.528881 0.570601 12.322853 0.376764 1.524476 0.006751 0.000973 -51382.300000 1 0 0
-8.917962 -2.458819 -3.124399 9.764103 0.269031 1.896514 0.006215 -0.002821 -60774.500000 1 0 0
-2.456262 -6.073219 -6.391299 9.152372 1.186467 2.343846 0.007826 -0.004617 -230514.000000 1 0 0
-0.036362 2.688181 -1.970899 3.333479 -1.557270 2.203397 0.004801 -0.004477 1060780.000000 1 0 0
8.085138 6.068881 -5.242499 11.387913 0.643899 2.049193 0.006346 -0.002902 191538.000000 1 0 0
-9.857162 -0.963819 -0.977099 9.952252 0.097469 1.669133 0.004337 -0.001712 464613.000000 1 0 0
6.170638 0.552381 -8.853299 10.805684 0.089280 2.531018 -0.002175 0.000173 559190.000000 1 0 0
-4.099162 2.522881 7.866901 9.222591 -0.551712 0.549083 -0.000802 -0.001638 -1578670.000000 1 0 0
-10.094062 -3.367319 1.453501 10.739720 0.321985 1.435041 -0.000002 -0.000780 2300700.000000 1 0 0
-1.782962 -8.170019 -7.848699 11.468664 1.355933 2.324523 0.003050 -0.004538 -1019830.000000 1 0 0
-9.389162 -9.773119 4.160501 14.176741 0.805433 1.272938 0.007589 -0.004566 -233426.000000 1 0 0
-0.984662 -10.684119 7.310301 12.983083 1.478895 0.972708 0.005489 -0.004749 125745.000000 1 0 0
9.476438 3.825581 -3.796199 10.901792 0.383687 1.926466 0.005452 -0.002631 -614431.000000 1 0 0
12.751338 -0.699419 3.024501 13.123772 -0.054796 1.338246 0.006731 -0.004813 -1829820.000000 1 0 0
6.450638 11.758481 -6.898699 15.081932 1.069033 2.045882 0.005932 -0.002828 -703894.000000 1 0 0
-11.957362 -0.064719 -6.517399 13.618340 0.005412 2.069828 0.000617 -0.000698 270996.000000 1 0 0
-7.619562 -6.511019 -11.504199 15.257710 0.707109 2.424915 0.013020 -0.006117 -1023970.000000 1 0 0
4.153238 6.050681 6.629401 9.889847 0.969251 0.836151 -0.001344 0.000536 -2690020.000000 1 0 0
-4.281962 -1.543119 -7.379499 8.670261 0.345889 2.588926 0.012800 -0.011622 -683883.000000 1 0 0
9.667438 9.380281 0.879901 13.499009 0.770324 1.505567 0.010681 -0.000049 -1606290.000000 1 0 0
-8.880562 4.005181 4.770001 10.847063 -0.423690 1.115476 0.004253 -0.005032 1172640.000000 1 0 0
-7.024762 7.887881 -12.240799 16.167966 -0.843212 2.429662 0.005382 -0.003197 -1122920.000000 1 0 0
11.126438 -3.668319 7.216401 13.759746 -0.318472 1.018719 0.016045 -0.005681 755431.000000 1 0 0
11.947738 6.905381 6.418801 15.219518 0.524060 1.135424 0.014186 -0.005390 163658.000000 1 0 0
-9.994462 -0.761819 -14.716699 17.805923 0.076077 2.543668 0.012812 -0.003698 -83590.000000 1 0 0
1.853338 -13.053319 11.990701 17.821361 -1.429757 0.832772 0.006422 -0.007565 221176.000000 1 0 0
2.908738 3.049081 13.006501 13.672114 0.808950 0.313319 0.004660 -0.003635 -1188760.000000 1 0 0
-2.556662 -1.390119 10.987301 11.366166 0.498012 0.258919 0.004510 -0.002852 -348139.000000 1 0 0
2.576038 -10.225219 -8.074099 13.280894 -1.324002 2.224270 -0.009179 0.005590 -989419.000000 1 0 0
13.972538 3.501081 -7.565299 16.270315 0.245514 2.054403 0.021172 -0.003108 -3348200.000000 1 0 0
7.361938 -1.516419 4.939101 8.994018 -0.203140 0.989445 0.000210 -0.002069 346467.000000 1 0 0
-1.291862 8.752581 10.153801 13.467600 -1.424256 0.716753 0.001232 -0.000437 -506635.000000 1 0 0
-12.195362 -4.726219 0.949601 13.113571 0.369721 1.498319 -0.001279 -0.002231 84600.700000 1 0 0
-5.020962 4.827381 -5.286699 8.744305 -0.765744 2.220045 0.005981 -0.003241 -243888.000000 1 0 0
-11.204262 0.340481 2.022701 11.390467 -0.030379 1.392271 -0.000465 -0.000766 -2610310.000000 1 0 0
-1.356362 2.248581 -4.151499 4.912309 -1.028021 2.577589 0.006504 -0.006830 720508.000000 1 0 0
3.265938 -9.795219 13.078501 16.663128 -1.248966 0.668299 -0.003829 -0.004002 -84775.900000 1 0 0
8.855238 4.705081 -1.562199 10.148571 0.488399 1.725344 0.004838 -0.002589 -1515920.000000 1 0 0
4.010138 2.284581 3.791301 5.972811 0.517843 0.883099 -0.001534 0.001627 -358547.000000 1 0 0
-5.445762 -3.248719 7.427201 9.765952 0.537886 0.706683 0.004361 -0.003308 251039.000000 1 0 0
1.756938 -5.785619 7.673601 9.769563 -1.275973 0.667357 -0.005955 0.000658 -569926.000000 1 0 0
-5.891362 -6.283019 -9.717299 12.985006 0.817558 2.416364 0.008552 -0.006807 -666283.000000 1 0 0
-11.692162 -5.793119 5.590701 14.195873 0.460017 1.166006 0.011638 -0.006652 -1159980.000000 1 0 0
10.406438 6.145981 4.670101 12.956731 0.533475 1.202059 0.001764 0.000592 -613653.000000 1 0 0
1.384738 -3.732219 0.353501 3.996488 -1.215517 1.482228 0.010752 -0.001957 -311294.000000 1 0 0
8.827538 4.404581 6.833301 12.000823 0.462815 0.965017 -0.001756 0.000803 -531666.000000 1 0 0
-7.890762 12.102481 3.552101 14.877890 -0.993020 1.329718 0.002102 -0.004056 53870.600000 1 0 0
-6.293762 13.246081 -7.062799 16.277385 -1.127233 2.019616 0.013163 -0.003460 -4591.980000 1 0 0
4.458738 -6.940019 -0.923899 8.300469 -0.999734 1.682334 0.003056 -0.003507 -803382.000000 1 0 0
-1.972862 -8.106919 11.156001 13.930925 1.332081 0.642153 0.000280 -0.003273 -863457.000000 1 0 0
11.632338 8.778181 -5.770399 15.673712 0.646462 1.947823 0.020790 -0.006404 206786.000000 1 0 0
-3.290462 -2.910419 -2.030699 4.839568 0.724186 2.003805 0.010340 -0.003700 -741924.000000 1 0 0
-2.074762 5.951781 4.733301 7.882415 -1.235374 0.926684 -0.000716 -0.001610 -1429450.000000 1 0 0
0.394338 -11.432919 -5.649299 12.758594 -1.536319 2.029497 -0.004104 0.000442 -571572.000000 1 0 0
-8.909962 6.219281 -1.539599 10.974391 -0.609392 1.711551 0.000815 -0.000678 -547801.000000 1 0 0
2.899238 -0.001319 3.881501 4.844753 -0.000455 0.641538 0.000972 -0.000340 -198763.000000 1 0 0
-10.071062 3.975381 -0.989599 10.872408 -0.375958 1.661942 0.003740 -0.002052 -360803.000000 1 0 0
6.514038 5.594281 13.532901 16.027104 0.709583 0.565397 0.017000 -0.001352 -17928.300000 1 0 0
-8.859662 -1.592419 5.796201 10.706323 0.177839 0.998717 0.003087 -0.003839 -1969.030000 1 0 0
12.960238 -1.742119 -1.610099 13.175552 -0.133619 1.693306 0.004471 -0.005570 -1927320.000000 1 0 0
5.175138 -5.449419 5.449101 9.282829 -0.811208 0.943437 -0.001860 -0.003305 3868.030000 1 0 0
-8.934862 -1.232419 3.294901 9.602447 0.137069 1.220548 0.003460 -0.001642 656494.000000 1 0 0
2.021038 5.479081 5.539501 8.049285 1.217416 0.811794 -0.000748 -0.001826 -816218.000000 1 0 0
9.236138 3.076081 -7.363999 12.206433 0.321494 2.218414 0.003588 -0.003256 -958538.000000 1 0 0
2.274738 -2.400719 -1.491199 3.627886 -0.812337 1.994389 0.005451 -0.003222 -54365.100000 1 0 0
-6.235062 0.328781 -3.930899 7.378080 -0.052682 2.132679 0.005384 -0.003344 -3178080.000000 1 0 0
-4.024162 4.246381 5.003601 7.698159 -0.812260 0.863247 0.002243 -0.002758 559420.000000 1 0 0
-6.500062 1.769081 -12.120399 13.866670 -0.265727 2.634308 0.006529 -0.005094 -3071060.000000 1 0 0
-0.064962 3.228881 6.179301 6.972349 -1.550680 0.481593 -0.000848 -0.000468 1312180.000000 1 0 0
-8.757262 9.468081 -2.047599 13.058594 -0.824380 1.728247 -0.002489 0.002772 1566810.000000 1 0 0
-1.241662 -3.748519 -6.224399 7.371314 1.250930 2.576256 0.002670 -0.004769 345861.000000 1 0 0
-3.315962 7.136381 -2.870699 8.376423 -1.135822 1.920598 0.005214 -0.001007 926574.000000 1 0 0
6.949238 -0.426219 -4.353499 8.211366 -0.061256 2.129609 0.003648 -0.001931 -332242.000000 1 0 0
-5.146062 -10.799919 6.847501 13.784356 1.126132 1.050936 0.001837 -0.004720 424677.000000 1 0 0
9.859838 8.378681 -1.480999 13.023519 0.704366 1.684760 0.006955 0.000259 -285842.000000 1 0 0
13.786538 4.668181 -4.473999 15.227515 0.326487 1.869007 0.011560 -0.005562 731670.000000 1 0 0
4.675638 1.102981 -6.837799 8.356653 0.231664 2.529150 0.001500 -0.001556 -785230.000000 1 0 0
9.122638 -4.793619 3.495701 10.882151 -0.483811 1.243766 0.002039 -0.006190 -1187670.000000 1 0 0
-8.727462 -3.325619 -0.823999 9.375890 0.364066 1.658795 0.004571 -0.000576 183482.000000 1 0 0
-8.559562 -4.186019 -10.430499 14.127426 0.454846 2.401366 0.008654 -0.008529 182795.000000 1 0 0
10.473938 -1.131319 10.809001 15.093633 -0.107596 0.772555 0.010421 -0.001395 217789.000000 1 0 0
2.198338 -11.583119 9.784701 15.321282 -1.383239 0.878074 -0.004018 -0.006654 256073.000000 1 0 0
-6.315862 -10.619319 1.984201 12.513876 1.034244 1.411564 0.011625 0.000262 -1042290.000000 1 0 0
-3.757262 -1.202419 6.855601 7.909620 0.309726 0.522164 0.003077 0.001891 -2179870.000000 1 0 0
4.795538 -7.564719 3.833401 9.742541 -1.005798 1.166393 -0.004632 -0.000924 328992.000000 1 0 0
11.427138 -9.485819 -5.263599 15.756450 -0.692835 1.911404 0.013860 -0.008767 461440.000000 1 0 0
11.325138 1.227481 11.437001 16.142194 0.107964 0.783403 0.002979 0.001851 23914.600000 1 0 0
-10.169762 -3.507419 4.334001 11.597828 0.332113 1.187812 0.008561 -0.002424 676933.000000 1 0 0
1.954538 8.769681 8.919601 12.660442 1.351506 0.789042 -0.002386 0.003275 -202655.000000 1 0 0
6.554038 8.772181 4.026901 11.667155 0.929129 1.218399 0.005673 -0.000014 500434.000000 1 0 0
-4.269762 3.555581 0.345301 5.567069 -0.694385 1.508731 0.005159 -0.004933 -1363880.000000 1 0 0
4.851238 6.897281 4.267001 9.450624 0.957822 1.102345 0.002383 -0.002269 -1204590.000000 1 0 0
-8.211362 13.287781 1.283101 15.672841 -1.017273 1.488837 -0.000066 0.002317 -1077660.000000 1 0 0
8.908638 8.201881 -9.180899 15.196170 0.744116 2.219506 0.012400 -0.006486 -4542.970000 1 0 0
7.110838 1.951581 6.015201 9.516056 0.267856 0.886522 -0.000066 0.000790 -519865.000000 1 0 0
11.504738 -6.170719 3.021601 13.400255 -0.492313 1.343352 0.009957 -0.006378 -691066.000000 1 0 0
11.395038 4.676381 -2.109899 12.496684 0.389429 1.740446 0.004988 -0.000490 598681.000000 1 0 0
-4.042062 14.340981 -5.994199 16.060275 -1.296069 1.953286 0.007939 0.002150 264788.000000 1 0 0
7.162738 -2.911619 6.917901 10.374955 -0.386093 0.840905 0.002566 -0.003374 -948440.000000 1 0 0
-8.058062 -0.474619 0.958801 8.128772 0.058832 1.452570 0.002869 -0.002172 486829.000000 1 0 0
-3.212562 1.078681 10.753101 11.274453 -0.323942 0.305296 0.003053 -0.001517 76130.100000 1 0 0
7.076538 -1.131119 -1.883299 7.409698 -0.158500 1.827782 0.006502 -0.004311 -706000.000000 1 0 0
-7.705462 5.424381 2.915001 9.863837 -0.613383 1.270792 0.006477 -0.003931 826465.000000 1 0 0
9.538038 -2.200919 2.849301 10.194936 -0.226782 1.287542 0.002685 -0.005987 -1414710.000000 1 0 0
0.258738 3.571881 1.555301 3.904387 1.498485 1.161082 -0.000122 -0.002369 -1733880.000000 1 0 0
-7.530962 -3.066719 4.185801 9.145550 0.386710 1.095404 0.000960 0.000035 449368.000000 1 0 0
-2.257562 8.417781 -6.748699 11.022730 -1.308773 2.229703 0.006762 -0.001637 -724202.000000 1 0 0
4.453438 9.702481 7.313601 12.940634 1.140483 0.970162 -0.002292 0.004078 2588210.000000 1 0 0
-11.808362 -3.137519 6.848501 14.006549 0.259703 1.059911 0.018327 -0.007033 -1967830.000000 1 0 0
-4.872462 2.224581 -5.685899 7.811473 -0.428297 2.386037 0.008471 -0.006068 -891654.000000 1 0 0
-2.758862 2.914781 -1.910599 4.444959 -0.812873 2.015106 0.004118 -0.003453 1674150.000000 1 0 0
2.393238 5.190581 11.443601 12.791627 1.138772 0.463224 0.004570 -0.002577 325326.000000 1 0 0
-0.725362 1.712481 4.508601 4.877112 -1.170134 0.391230 0.000422 -0.001457 134349.000000 1 0 0
5.056138 1.559581 7.561801 9.229174 0.299194 0.610543 -0.002033 0.000730 -505109.000000 1 0 0
3.415938 -8.182319 1.771001 9.041870 -1.175314 1.373655 -0.000260 -0.001846 2660330.000000 1 0 0
5.053338 6.392581 -4.649399 9.381803 0.901875 2.089295 0.007423 -0.004653 -2901160.000000 1 0 0
-4.107562 2.954681 -7.953499 9.426577 -0.623580 2.574994 0.011962 -0.009404 101956.000000 1 0 0
-8.682562 -2.131219 -12.842499 15.647964 0.240701 2.533456 0.005202 -0.007287 821818.000000 1 0 0
-7.861062 8.139281 1.385301 11.400143 -0.802785 1.448979 0.003242 -0.001599 -1275760.000000 1 0 0
7.354038 0.882081 -6.539999 9.880867 0.119375 2.294127 0.000246 -0.001022 545492.000000 1 0 0
8.976638 8.861481 5.434101 13.734457 0.778943 1.164016 0.006914 0.000402 606733.000000 1 0 0
9.378538 -1.032619 -1.428499 9.542740 -0.109663 1.721056 0.003613 -0.004282 394940.000000 1 0 0
5.451438 0.229581 4.257101 6.920534 0.042089 0.908232 -0.000557 0.000650 -1260900.000000 1 0 0
-4.115662 -7.275419 -7.988899 11.562565 1.055984 2.333568 0.014576 -0.009248 71718.300000 1 0 0
-2.206462 7.391281 -0.467999 7.727777 -1.280696 1.631394 0.004531 -0.003113 481799.000000 1 0 0
13.373138 -3.283719 -7.366499 15.616944 -0.240782 2.062013 0.021111 -0.009786 989423.000000 1 0 0
-4.690862 -4.972319 1.593101 7.018982 0.814517 1.341831 0.005727 -0.000998 1781250.000000 1 0 0
-8.963362 1.347281 2.536201 9.412191 -0.149193 1.297965 0.002131 -0.002081 -280864.000000 1 0 0
-1.186062 11.149781 10.199101 15.157375 -1.464819 0.832701 -0.000498 -0.002637 361032.000000 1 0 0
-8.621862 0.408181 7.466801 11.412985 -0.047307 0.857623 0.002468 -0.003745 1067870.000000 1 0 0
-6.158562 12.882981 -2.094299 14.432089 -1.124872 1.716425 -0.000015 0.002731 534183.000000 1 0 0
-12.973862 -0.776619 3.295601 13.408401 0.059789 1.322466 0.005977 -0.002581 447684.000000 1 0 0
-6.745062 12.709081 8.815001 16.873673 -1.082870 1.021120 0.013358 -0.012938 666102.000000 1 0 0
-8.051962 0.838481 -13.999899 16.172023 -0.103760 2.617316 0.003588 -0.004763 -247203.000000 1 0 0
7.231338 2.856881 3.746201 8.630645 0.376249 1.121804 -0.000004 0.001522 -504276.000000 1 0 0
-1.577462 0.681281 -2.090499 2.706052 -0.407687 2.453608 0.004684 -0.004899 797427.000000 1 0 0
-6.307962 9.697581 -10.419099 15.568915 -0.994092 2.303961 0.007126 0.000731 -173605.000000 1 0 0
-9.999762 13.626981 5.257901 17.701282 -0.937731 1.269210 -0.005139 -0.004412 -382542.000000 1 0 0
-5.683662 8.360581 2.420501 10.395295 -0.973745 1.335793 -0.000719 -0.002224 -986369.000000 1 0 0
-2.307462 -10.621119 -1.271799 10.943035 1.356868 1.687280 0.006465 -0.000247 558165.000000 1 0 0
-2.251662 -12.334519 8.839201 15.340854 1.390235 0.956741 0.002760 -0.007785 782073.000000 1 0 0
-14.634662 -6.490419 -1.694799 16.098796 0.417432 1.676267 0.002431 -0.007236 556854.000000 1 0 0
-2.776162 -9.307719 3.340201 10.271205 1.280932 1.239573 0.005165 -0.001908 -382852.000000 1 0 0
4.627638 -2.681119 7.472601 9.189297 -0.525113 0.621192 -0.002906 0.001482 -203214.000000 1 0 0
-15.065362 -1.343219 -0.191199 15.126333 0.088924 1.583437 0.004424 -0.005269 25264.300000 1 0 0
5.504738 8.714181 -2.857599 10.696026 1.007394 1.841246 0.006802 -0.004555 -1985950.000000 1 0 0
-5.548962 -5.652619 8.572301 11.671650 0.794652 0.745933 0.006034 -0.001343 -3535130.000000 1 0 0
3.426738 3.554681 6.943001 8.519598 0.803722 0.618163 -0.001148 -0.000253 588594.000000 1 0 0
3.317438 2.373981 9.306501 10.161306 0.621124 0.413111 0.003764 -0.003841 570803.000000 1 0 0
9.902438 -3.271819 5.182201 11.645526 -0.319113 1.109628 0.011378 -0.006321 -587348.000000 1 0 0
6.508338 9.855181 -5.084499 12.858273 0.987146 1.977328 0.005919 -0.005021 277009.000000 1 0 0
-4.565262 12.061981 -8.503599 15.448114 -1.208975 2.153714 0.010611 -0.000569 82228.900000 1 0 0
-3.345562 -7.216119 2.175101 8.245982 1.136671 1.303861 0.006529 -0.002114 1011140.000000 1 0 0
-7.361162 -4.045819 1.084301 8.469420 0.502549 1.442419 0.006109 0.000392 3336920.000000 1 0 0
-1.934862 -4.070719 -11.034699 11.919691 1.127093 2.753821 0.011918 -0.008407 -847949.000000 1 0 0
-5.264762 8.275581 -4.462399 10.775712 -1.004198 1.997768 0.006479 -0.000764 56928.000000 1 0 0
-10.992662 -3.166719 -10.167799 15.305257 0.280481 2.297398 0.011407 -0.004280 -464569.000000 1 0 0
4.780838 -11.510319 -7.718899 14.660329 -1.177126 2.125294 -0.004305 -0.000906 -1186120.000000 1 0 0
-9.436462 -3.965319 7.348501 12.600438 0.397809 0.948141 0.007177 -0.003596 -953782.000000 1 0 0
-5.687562 -9.625519 -5.245499 12.349666 1.037107 2.009480 0.010934 -0.003915 -281069.000000 1 0 0
4.835138 4.343081 -9.518999 11.526156 0.731838 2.542523 0.003320 -0.000656 -275390.000000 1 0 0
-3.484462 -7.182519 -14.037499 16.148729 1.119115 2.624507 0.004782 -0.003919 -96379.700000 1 0 0
0.693838 -0.955819 -8.805899 8.884755 -0.942892 3.008262 0.005999 -0.007455 434283.000000 1 0 0
-7.738262 2.098381 -2.951699 8.543795 -0.264802 1.923545 0.003112 -0.002323 -798455.000000 1 0 0
-2.396762 7.496981 -12.582899 14.841784 -1.261368 2.582624 0.004953 -0.005253 96957.300000 1 0 0
-9.773762 8.864081 7.599001 15.226397 -0.736629 1.048274 0.002031 -0.008930 -514086.000000 1 0 0
-10.727462 -3.135819 -14.241199 18.103137 0.284393 2.476193 0.016398 -0.001924 -258487.000000 1 0 0
-3.376162 4.759781 8.028901 9.925585 -0.953849 0.628501 -0.000707 -0.002207 2809.400000 1 0 0
8.684838 -2.357019 -3.561699 9.678205 -0.265011 1.947667 0.003564 -0.002678 -5187660.000000 1 0 0
1.984138 -8.399519 -1.109199 8.701669 -1.338828 1.698614 0.002753 -0.000385 -1338470.000000 1 0 0
-13.576462 -2.922319 5.009001 14.763142 0.212014 1.224633 0.023144 -0.008214 227816.000000 1 0 0
6.989938 2.744081 -1.930799 7.753528 0.374090 1.822467 0.005168 -0.003132 1179630.000000 1 0 0
-11.092362 4.387981 8.844001 14.849620 -0.376695 0.932820 0.008429 -0.010313 -2781470.000000 1 0 0
-1.761062 -2.462919 7.984001 8.538827 0.950054 0.362472 -0.000657 -0.002421 -842667.000000 1 0 0
3.199138 11.899781 -9.838899 15.768425 1.308166 2.244599 0.009654 -0.008680 505556.000000 1 0 0
3.624638 -5.063219 -7.028299 9.389951 -0.949494 2.416581 -0.006139 -0.001070 -546511.000000 1 0 0
8.367838 -13.918019 -9.868399 19.003086 -1.029478 2.116834 0.006539 -0.000893 167424.000000 1 0 0
-6.151162 -5.875219 -0.432699 8.517172 0.762457 1.621621 0.012505 -0.002101 -56684.700000 1 0 0
-1.092362 -4.050919 9.941301 10.790396 1.307403 0.399360 -0.003738 -0.000117 1095170.000000 1 0 0
2.811138 3.406081 1.734601 4.744757 0.880801 1.196538 -0.002573 -0.000848 -1069370.000000 1 0 0
-9.282262 13.335281 7.768201 18.009305 -0.962714 1.124815 0.009724 -0.018163 1099130.000000 1 0 0
3.985738 -11.070719 -0.026499 11.766377 -1.225218 1.573048 0.001520 -0.002129 443508.000000 1 0 0
-12.649762 -1.383719 -9.043999 15.611697 0.108954 2.188677 0.007984 -0.004943 -215710.000000 1 0 0
-4.401362 1.007481 -13.488999 14.224631 -0.225025 2.818584 0.006792 -0.006358 214465.000000 1 0 0
3.987638 -3.062419 4.902901 7.022684 -0.654908 0.797983 0.000271 0.000636 22873.400000 1 0 0
1.727538 -1.151419 1.097501 2.348331 -0.587893 1.084502 0.003365 -0.001206 390292.000000 1 0 0
8.095538 -8.899119 7.402001 14.125214 -0.832647 1.019223 0.005538 -0.005506 -1019300.000000 1 0 0
-0.125462 2.341081 -6.424899 6.839279 -1.517256 2.791707 0.007069 -0.007819 -1785990.000000 1 0 0
-3.761662 -9.701219 -3.451799 10.962603 1.200893 1.891116 0.012467 -0.000692 885341.000000 1 0 0
-9.453062 2.255881 -5.456199 11.145380 -0.234259 2.082368 0.000116 -0.002743 -1013960.000000 1 0 0
8.970938 -7.455419 5.390301 12.849760 -0.693397 1.137917 0.003933 -0.005626 1952100.000000 1 0 0
-5.487162 -4.280419 4.672601 8.382370 0.662475 0.979507 0.001555 -0.000774 -1083670.000000 1 0 0
-0.099162 -12.462519 10.425301 16.248418 1.562840 0.874189 0.008993 -0.008526 90926.300000 1 0 0
-14.183562 -8.258419 3.267401 16.734719 0.527268 1.374287 0.009526 -0.010251 -1034680.000000 1 0 0
10.930538 -1.254419 -3.630999 11.585956 -0.114263 1.889564 0.010249 -0.004594 207863.000000 1 0 0
-13.652162 2.967181 2.805201 14.249732 -0.214013 1.372642 0.005180 -0.002094 -438321.000000 1 0 0
-6.347362 6.183081 0.955701 8.912512 -0.772288 1.463358 0.002874 -0.002413 402593.000000 1 0 0
7.202438 -6.913519 -0.488199 9.995508 -0.764933 1.619658 0.000359 -0.005450 360222.000000 1 0 0
-6.930762 7.740081 10.055501 14.458818 -0.840507 0.801739 -0.001336 -0.003875 169530.000000 1 0 0
-12.612262 -5.087919 -1.859299 13.726364 0.383443 1.706669 -0.000416 -0.004690 -1000580.000000 1 0 0
-9.391862 -5.595719 0.131601 10.933273 0.537329 1.558759 0.006177 -0.001890 -425854.000000 1 0 0
-1.812362 1.965381 2.171601 3.444304 -0.825881 0.888611 0.000396 -0.002192 -315196.000000 1 0 0
-7.157762 7.316381 7.517001 12.699145 -0.796357 0.937345 0.002043 -0.005956 -349881.000000 1 0 0
5.701538 7.132781 -0.506099 9.145504 0.896456 1.626163 0.005359 -0.004062 -1592340.000000 1 0 0
-0.008162 -3.998419 7.472801 8.475268 1.568755 0.491304 -0.001456 -0.000053 -707613.000000 1 0 0
6.330538 0.757181 13.121201 14.588178 0.119042 0.452308 0.012604 -0.001246 509813.000000 1 0 0
5.851438 6.118081 -7.899999 11.579302 0.807671 2.321634 0.004017 -0.003557 -675351.000000 1 0 0
10.027338 5.313681 9.027901 14.501231 0.487296 0.898785 -0.001154 -0.002758 -1433300.000000 1 0 0
-1.283062 -4.999019 -8.571699 10.005522 1.319557 2.599628 0.009707 -0.007318 440039.000000 1 0 0
9.988738 -3.546219 -7.980399 13.267906 -0.341141 2.216151 0.008645 -0.008266 539579.000000 1 0 0
8.432538 -5.457119 1.282401 10.125828 -0.574369 1.443809 0.002558 -0.004614 1396700.000000 1 0 0
15.727038 3.130181 -5.182599 16.852213 0.196464 1.883395 0.031870 -0.001248 -1302570.000000 1 0 0
-6.829562 3.698481 1.073801 7.840582 -0.496325 1.433410 0.004417 -0.003334 -23160.800000 1 0 0
-1.720162 3.793381 0.210901 4.170513 -1.145065 1.520205 0.003871 -0.006246 -1064140.000000 1 0 0
-2.658462 10.024581 6.983001 12.502878 -1.311569 0.978206 0.000320 0.001452 -1302170.000000 1 0 0
5.469338 -5.819619 -8.702399 11.811578 -0.816417 2.399075 -0.007376 0.000833 -126240.000000 1 0 0
-1.211462 -0.961119 6.207101 6.396834 0.670675 0.244165 0.000885 -0.000958 407607.000000 1 0 0
-5.772762 4.955581 -7.714799 10.835160 -0.709375 2.363160 0.004752 -0.002623 -251751.000000 1 0 0
6.758238 -1.190719 2.548601 7.320311 -0.174398 1.215194 0.002086 -0.001639 -898885.000000 1 0 0
8.782338 7.562181 3.193401 12.021391 0.710884 1.301925 0.005995 0.000185 132936.000000 1 0 0
-5.359762 -4.979919 -7.696399 10.618908 0.748678 2.381515 0.013392 -0.010732 376358.000000 1 0 0
-2.142862 7.914581 -10.088599 13.000473 -1.306387 2.459124 0.007198 -0.003390 716528.000000 1 0 0
-2.923362 -2.324319 1.610001 4.067014 0.671736 1.163784 0.000780 0.001749 48288.800000 1 0 0
6.125738 -2.060619 -9.207399 11.249312 -0.324496 2.529566 -0.005563 0.001052 1260800.000000 1 0 0
1.167038 -7.531019 5.093801 9.166516 -1.417055 0.981596 -0.002463 -0.000676 384871.000000 1 0 0
1.604438 11.705881 1.162601 11.872385 1.434583 1.472714 0.004027 -0.002337 -157085.000000 1 0 0
-1.102862 7.105181 2.595401 7.644345 -1.416806 1.224391 0.000998 -0.001633 528973.000000 1 0 0
8.821738 7.813881 -6.631299 13.522349 0.724888 2.083340 0.008552 -0.004982 -311488.000000 1 0 0
3.841738 -11.260819 5.504501 13.109711 -1.242019 1.137484 -0.000330 -0.001991 153131.000000 1 0 0
7.863238 -7.132219 12.433101 16.348732 -0.736687 0.706724 0.010000 -0.007697 -214539.000000 1 0 0
-8.657362 -0.019519 -3.986499 9.531132 0.002255 2.002326 0.006231 -0.003140 -988021.000000 1 0 0
-3.380362 -4.968419 11.163701 12.678338 0.973367 0.493810 0.003124 -0.001013 1124550.000000 1 0 0
-8.232062 0.146681 -11.502899 14.145850 -0.017816 2.520365 0.004138 -0.008285 -1743820.000000 1 0 0
1.409438 -4.947219 5.244701 7.346317 -1.293254 0.775712 -0.001716 0.000159 -609214.000000 1 0 0
6.642338 3.760981 -7.682899 10.830170 0.515206 2.359440 0.001485 -0.002113 -845742.000000 1 0 0
16.250738 4.274381 -1.238799 16.849078 0.257201 1.644386 0.018259 0.008173 -479003.000000 1 0 0
7.924338 7.556381 0.030701 10.949656 0.761634 1.567993 0.008103 -0.003397 -3596170.000000 1 0 0
5.665938 -10.086519 13.933501 18.110305 -1.058989 0.692944 0.001454 -0.006256 -747194.000000 1 0 0
-5.080262 -9.197219 8.884601 13.759870 1.066136 0.868871 0.000173 -0.007358 437651.000000 1 0 0
-12.481162 -3.167919 2.856801 13.190013 0.248567 1.352478 0.002597 -0.004212 -48279.600000 1 0 0
-2.202962 -1.382519 -5.933899 6.478855 0.560447 2.728508 0.009023 -0.008817 -2004260.000000 1 0 0
-2.593562 12.963681 -4.331799 13.912156 -1.373339 1.887429 0.005841 0.004314 514076.000000 1 0 0
3.895838 -0.363419 -4.913399 6.281013 -0.093015 2.469086 0.003908 -0.002161 -113422.000000 1 0 0
-8.824062 3.878781 -7.451499 12.183344 -0.414145 2.228895 0.002190 -0.003105 361621.000000 1 0 0
-4.561262 8.027481 -11.367299 14.644489 -1.054083 2.459439 0.008672 -0.002332 -613975.000000 1 0 0
-9.992262 -6.513819 7.434301 14.055033 0.577700 1.013443 0.007974 -0.004254 -1519240.000000 1 0 0
8.059038 5.294381 4.123401 10.487182 0.581245 1.166704 -0.000713 0.000783 -2565870.000000 1 0 0
-6.774162 -7.533519 3.996801 10.891171 0.838422 1.195040 0.008588 -0.001832 -386338.000000 1 0 0
-4.157762 11.783981 8.088301 14.885221 -1.231601 0.996341 0.001646 -0.006310 -266509.000000 1 0 0
-7.253662 10.049581 -7.997599 14.750298 -0.945597 2.143849 0.002076 -0.000991 -1352260.000000 1 0 0
13.068138 5.481981 4.584701 14.894557 0.397196 1.257905 0.009543 -0.003951 -589500.000000 1 0 0
5.321038 3.928081 -3.749099 7.602566 0.635917 2.086487 0.004337 -0.002698 307837.000000 1 0 0
-2.839162 -4.213719 5.114301 7.209184 0.977878 0.782129 0.001443 0.000671 -2791090.000000 1 0 0
12.493838 -2.346119 -5.225499 13.744311 -0.185620 1.960802 0.011002 -0.007600 -3216960.000000 1 0 0
-5.279462 9.679881 7.019201 13.070654 -1.071487 1.003896 0.000053 -0.003499 -537235.000000 1 0 0
1.701338 3.865981 -0.523699 4.256128 1.156223 1.694155 0.001146 -0.003517 560428.000000 1 0 0
-0.199062 9.512981 7.638601 12.201830 -1.549874 0.894356 -0.002165 0.002583 -554418.000000 1 0 0
-5.471062 2.094181 5.727501 8.192825 -0.365569 0.796676 0.003856 -0.003828 620185.000000 1 0 0
8.799738 0.877581 10.814801 13.970163 0.099399 0.685448 0.004431 0.001682 -1129620.000000 1 0 0
0.433138 -2.930619 -10.165199 10.588079 -1.424061 2.858016 0.005497 -0.005485 -1980550.000000 1 0 0
1.233038 10.554381 -2.706399 10.965398 1.454496 1.820186 0.008190 -0.003831 2104690.000000 1 0 0
2.235238 -4.354119 11.490301 12.489261 -1.096517 0.402679 -0.002063 -0.000243 427606.000000 1 0 0
6.494538 -2.821019 9.413001 11.778869 -0.409779 0.644928 0.005637 -0.002236 206159.000000 1 0 0
-10.608362 -8.160419 5.617101 14.514875 0.655704 1.173432 0.015061 -0.009760 -708955.000000 1 0 0
-3.098062 0.773881 -6.979499 7.675304 -0.244786 2.712503 0.013083 -0.008257 558872.000000 1 0 0
11.138938 2.653781 -5.015099 12.500788 0.233884 1.983604 0.005764 -0.003613 -3596840.000000 1 0 0
-1.968062 -3.908419 -0.088899 4.376861 1.104317 1.591109 0.005070 -0.001658 1388380.000000 1 0 0
-1.270662 -6.588419 -10.691599 12.622684 1.380273 2.581140 0.004705 -0.005504 488224.000000 1 0 0
0.250238 6.834881 -6.635899 9.529606 1.534201 2.341089 0.011895 -0.004037 -2385220.000000 1 0 0
2.047538 3.742981 -6.117699 7.458456 1.070233 2.532621 0.005505 -0.004845 -1521010.000000 1 0 0
1.638538 -14.825819 6.398001 16.230346 -1.460724 1.165599 0.013247 -0.007702 -206346.000000 1 0 0
-1.683162 5.357881 -10.467499 11.878909 -1.266412 2.649156 0.010137 -0.004494 -15035.600000 1 0 0
13.637238 4.370781 -0.818599 14.343922 0.310160 1.627897 0.006303 0.001783 -1404220.000000 1 0 0
-2.461162 3.270881 -6.182999 7.415219 -0.925731 2.556798 0.008523 -0.006897 -1988510.000000 1 0 0
5.686438 7.903781 14.196201 17.214454 0.947130 0.601182 0.017918 -0.003976 972453.000000 1 0 0
15.826938 0.625681 -5.884299 16.896994 0.039512 1.926495 0.026761 -0.007662 -106966.000000 1 0 0
6.134638 -8.327819 10.617601 14.822948 -0.935898 0.772318 -0.007618 -0.001210 965330.000000 1 0 0
0.093038 -5.955719 -6.497299 8.814428 -1.555176 2.399596 0.002302 -0.002589 759424.000000 1 0 0
8.661538 5.544081 -7.628099 12.804178 0.569370 2.208996 0.007447 -0.003628 -748804.000000 1 0 0
-16.016262 -0.813619 5.402801 16.922556 0.050756 1.245841 0.024297 -0.009789 -414424.000000 1 0 0
-0.377462 4.013581 -12.278899 12.923726 -1.477026 2.824369 0.008551 -0.006753 541401.000000 1 0 0
-11.328262 3.687381 5.814901 13.256673 -0.314687 1.116712 0.005726 -0.006823 224482.000000 1 0 0
5.100538 -9.901519 -9.796199 14.833108 -1.095121 2.292185 -0.013344 0.006185 577228.000000 1 0 0
1.530438 11.124281 -11.572299 16.124825 1.434078 2.371247 0.008224 -0.004298 -2945630.000000 1 0 0
5.920738 2.375381 1.219501 6.494979 0.381538 1.381915 0.003379 -0.001003 -108610.000000 1 0 0
5.729238 4.529681 4.917001 8.804492 0.668999 0.978262 -0.001656 -0.000332 150079.000000 1 0 0
0.391638 -1.556119 -6.419499 6.617013 -1.324241 2.896648 0.004883 -0.004822 -306455.000000 1 0 0
12.707038 6.739181 -4.557999 15.088430 0.487632 1.877676 0.011262 -0.004172 -152606.000000 1 0 0
7.474538 3.210381 12.818101 15.181534 0.405684 0.565498 0.007313 0.002554 -98133.200000 1 0 0
-2.395262 -0.204819 8.691901 9.018224 0.085302 0.269834 -0.001009 -0.002122 993050.000000 1 0 0
2.533338 -15.148519 13.275101 20.300830 -1.405096 0.858043 0.025795 -0.012600 1172960.000000 1 0 0
18.896138 4.545481 -1.665999 19.506434 0.236066 1.656308 0.027484 0.006726 872831.000000 1 0 0
-0.352962 -13.255819 7.178701 15.078961 1.544176 1.074611 0.001713 -0.005139 -1373700.000000 1 0 0
4.334038 1.585881 -0.596799 4.653501 0.350780 1.699398 0.004050 -0.003509 1118460.000000 1 0 0
2.750138 -0.537419 -7.391399 7.904737 -0.192983 2.779223 0.000321 -0.002545 61756.300000 1 0 0
7.331738 -11.327919 0.812301 13.517986 -0.996373 1.510670 -0.001087 0.000228 283421.000000 1 0 0
-11.783362 -7.397619 1.422301 13.985540 0.560612 1.468922 0.003641 -0.000375 155351.000000 1 0 0
0.131938 -7.107019 9.960401 12.236695 -1.552234 0.619829 -0.003821 -0.001402 -3188150.000000 1 0 0
-4.646262 -7.170119 10.553201 13.578233 0.995826 0.680569 0.005767 -0.001902 -1364040.000000 1 0 0
11.872938 0.850781 -1.688999 12.022612 0.071535 1.711748 0.001627 -0.002177 1556110.000000 1 0 0
6.431538 -9.656019 -7.504199 13.817250 -0.983210 2.144925 -0.010849 0.000655 1240020.000000 1 0 0
-11.081562 4.808181 3.502401 12.577219 -0.409377 1.288594 0.001199 -0.005385 -109159.000000 1 0 0
6.130838 -9.078319 2.001101 11.135863 -0.976822 1.390116 -0.000575 -0.002922 3662400.000000 1 0 0
11.601338 -1.317919 5.858401 13.063262 -0.113116 1.105750 0.014151 -0.008014 44019.800000 1 0 0
-6.457262 3.646381 4.072801 8.460499 -0.514055 1.068556 0.003395 -0.003984 -2473230.000000 1 0 0
9.470738 6.316281 -3.270999 11.844396 0.588182 1.850597 0.007560 -0.002280 -670018.000000 1 0 0
-2.307062 6.573181 10.927301 12.958979 -1.233248 0.567547 -0.000206 -0.002909 249133.000000 1 0 0
1.992338 9.870781 2.999301 10.507023 1.371630 1.281313 -0.000144 -0.001342 330908.000000 1 0 0
2.842738 6.047181 -5.538799 8.679162 1.131359 2.262918 0.003910 -0.004283 -1814080.000000 1 0 0
11.936738 0.091181 -5.685899 13.222083 0.007639 2.015323 0.012466 -0.004088 435981.000000 1 0 0
-2.581562 -12.418419 6.296501 14.160774 1.365834 1.110020 0.006024 -0.005030 200965.000000 1 0 0
10.874538 1.926781 -2.780499 11.388557 0.175363 1.817438 0.003666 -0.002357 260852.000000 1 0 0
-8.855762 5.290581 0.803601 10.347007 -0.538518 1.493053 0.002161 -0.002817 -1572430.000000 1 0 0
1.357438 -10.137919 5.432501 11.581541 -1.437691 1.082564 -0.002598 -0.002945 61654.500000 1 0 0
9.504438 -5.686719 -1.117499 11.132022 -0.539185 1.671352 0.000678 -0.005537 339373.000000 1 0 0
-7.821662 8.626781 -4.450399 12.466187 -0.834307 1.935848 -0.002345 -0.000028 -1431860.000000 1 0 0
-7.517462 -0.134419 -1.617199 7.690620 0.017879 1.782660 0.002075 -0.002978 -1567890.000000 1 0 0
4.178738 8.906281 2.718001 10.206430 1.132099 1.301241 0.002771 -0.003161 27771.400000 1 0 0
-1.266862 -10.549319 -3.750199 11.267522 1.451279 1.910102 0.005593 -0.000740 141495.000000 1 0 0
3.173638 7.826481 -3.688499 9.215791 1.185558 1.982572 0.008421 -0.006688 60638.400000 1 0 0
-4.314062 1.659081 -11.058699 11.985763 -0.367139 2.745701 0.007270 -0.008147 -819070.000000 1 0 0
1.302838 2.833381 10.917101 11.353789 1.139808 0.278248 0.002559 -0.002823 586635.000000 1 0 0
2.152738 5.515681 -8.032699 9.979042 1.198685 2.506399 0.006751 -0.002497 294949.000000 1 0 0
15.516438 6.173881 3.999501 17.171856 0.378689 1.335727 0.027620 -0.004544 548056.000000 1 0 0
-4.550362 8.956881 4.640901 11.066593 -1.100746 1.138055 0.000506 -0.001074 -86761.800000 1 0 0
-0.954462 -8.240019 -12.534699 15.030888 1.455478 2.556986 -0.000046 -0.002529 -270652.000000 1 0 0
14.317238 -4.189219 -5.298499 15.830570 -0.284654 1.912084 0.025389 -0.009070 -423887.000000 1 0 0
-6.040362 -6.132719 -5.609699 10.274480 0.792985 2.148359 0.014460 -0.005885 911875.000000 1 0 0
-8.966462 2.624781 -12.218999 15.381511 -0.284777 2.488808 0.003567 -0.006056 501883.000000 1 0 0
10.615538 5.459781 13.720201 18.186334 0.475038 0.716021 0.024990 -0.002427 507950.000000 1 0 0
-0.471462 10.932881 5.620801 12.302177 -1.527700 1.096295 -0.000631 0.002497 223265.000000 1 0 0
0.203738 11.321981 -0.574199 11.338363 1.552803 1.621460 0.006587 -0.003569 314151.000000 1 0 0
-1.547662 -0.509019 3.628101 3.977119 0.317751 0.422069 -0.000675 0.000201 156136.000000 1 0 0
-4.905162 6.748581 8.831201 12.148830 -0.942281 0.756973 0.000486 -0.003258 -1861770.000000 1 0 0
3.407238 -8.879819 -11.407999 14.852707 -1.204415 2.446627 -0.007314 0.003359 1129130.000000 1 0 0
6.699238 -3.752319 12.020201 14.263411 -0.510573 0.568462 0.012459 -0.005462 -512663.000000 1 0 0
-2.279462 -1.970119 -12.515799 12.873327 0.712732 2.905363 0.011321 -0.010262 1305330.000000 1 0 0
-16.106262 -4.920419 5.412101 17.689348 0.296492 1.259858 0.033289 -0.012065 289261.000000 1 0 0
-9.028562 7.148281 5.807101 12.897104 -0.669685 1.103735 0.000372 -0.006055 -3634980.000000 1 0 0
-12.921762 1.556581 5.997501 14.330558 -0.119884 1.138991 0.005915 -0.004855 211632.000000 1 0 0
-3.524162 3.527281 10.121601 11.283095 -0.785840 0.457728 0.000654 -0.001306 459829.000000 1 0 0
2.064738 -12.444719 -1.171199 12.669091 -1.406381 1.663374 0.005749 -0.002770 -2413160.000000 1 0 0
10.366038 -5.039319 -3.555599 12.061996 -0.452496 1.870018 0.005493 -0.004894 474475.000000 1 0 0
3.203438 -13.490619 0.995401 13.901425 -1.337658 1.499131 0.004713 -0.001082 615013.000000 1 0 0
10.120238 -1.835319 -6.074699 11.945274 -0.179402 2.104289 0.008987 -0.003141 117362.000000 1 0 0
12.066538 -5.312819 -1.568499 13.277333 -0.414753 1.689206 0.005170 -0.006151 -999175.000000 1 0 0
1.359838 1.003881 5.871201 6.109659 0.635930 0.280308 0.001831 -0.001849 336350.000000 1 0 0
-10.874462 11.631581 6.590501 17.233175 -0.819026 1.178370 0.004629 -0.007631 -253372.000000 1 0 0
4.844238 -14.114919 3.024401 15.226443 -1.240192 1.370838 0.005849 -0.005368 -3103960.000000 1 0 0
5.268038 -3.537519 -1.685499 6.565605 -0.591345 1.830420 0.005392 -0.002951 -1862100.000000 1 0 0
2.111538 -3.005519 -7.634899 8.472510 -0.958359 2.693183 -0.003431 -0.000812 -130368.000000 1 0 0
-2.761162 14.764181 -8.902199 17.460075 -1.385914 2.105819 0.017063 -0.002706 -1676950.000000 1 0 0
-2.274262 6.151481 -8.124699 10.441443 -1.216672 2.462464 0.011597 -0.004037 -374050.000000 1 0 0
2.657338 -3.511719 -11.290199 12.118672 -0.923017 2.769687 -0.002617 0.000099 -1631430.000000 1 0 0
14.642738 2.851881 -2.715399 15.162994 0.192356 1.750848 0.020446 0.001440 441903.000000 1 0 0
-3.531162 13.245081 2.296201 13.898699 -1.310255 1.404826 -0.002222 0.001786 -654323.000000 1 0 0
7.812638 -4.978819 14.058101 16.836156 -0.567379 0.582673 0.019830 -0.009753 -1857010.000000 1 0 0
-11.448162 7.218381 2.985601 13.859266 -0.562564 1.353672 0.000355 -0.003533 1116980.000000 1 0 0
-2.263562 11.900681 4.068401 12.778960 -1.382837 1.246790 0.001806 -0.000168 206435.000000 1 0 0
1.806538 1.510881 0.625001 2.436589 0.696511 1.311390 -0.001197 -0.002096 -1605440.000000 1 0 0
-6.928062 8.598981 5.358201 12.273990 -0.892599 1.119037 0.000174 -0.004016 -1016260.000000 1 0 0
-1.160662 9.201081 1.121301 9.341539 -1.445315 1.450472 0.001811 -0.001328 420097.000000 1 0 0
5.062338 12.989281 -8.640199 16.401272 1.199173 2.125628 0.015142 -0.011417 -3303430.000000 1 0 0
8.954638 6.896881 7.134901 13.366350 0.656306 1.007713 -0.000597 -0.001282 -1472480.000000 1 0 0
7.301438 -13.720419 2.833001 15.798316 -1.081754 1.390498 0.012399 -0.005129 213684.000000 1 0 0
4.225138 -13.392119 -1.402599 14.112686 -1.265186 1.670346 -0.000429 0.002394 -3082640.000000 1 0 0
12.199738 -11.862019 -4.629799 17.634515 -0.771364 1.836452 0.022513 -0.007756 -744245.000000 1 0 0
2.698138 0.091281 -1.921699 3.313791 0.033818 2.189414 0.005677 -0.005174 1302500.000000 1 0 0
-13.595462 -3.063819 -10.743099 17.596527 0.221653 2.227518 0.009361 -0.007718 -136610.000000 1 0 0
-6.671362 13.630381 5.152101 16.026182 -1.115626 1.243504 0.004438 -0.005199 207800.000000 1 0 0
7.420438 -4.229319 -0.680399 8.568137 -0.518035 1.650290 0.002925 -0.003864 -1139020.000000 1 0 0
11.714338 2.095381 -7.260399 13.940220 0.177001 2.118612 0.013035 -0.003205 -475229.000000 1 0 0
-7.488962 -4.577419 9.654601 13.047936 0.548630 0.737825 0.012335 -0.002908 191450.000000 1 0 0
0.977838 2.814581 8.446901 8.957018 1.236423 0.339118 0.000896 -0.000611 -2043450.000000 1 0 0
1.654438 8.024881 -8.626999 11.897941 1.367481 2.381952 0.009456 -0.004698 -370688.000000 1 0 0
-8.643862 -1.929419 -5.704399 10.534666 0.219612 2.143003 0.010901 -0.005916 -442978.000000 1 0 0
6.710038 -0.446419 7.057601 9.748519 -0.066432 0.761261 0.002386 -0.000473 610631.000000 1 0 0
-10.962162 6.567881 7.186201 14.661090 -0.539788 1.058529 0.006420 -0.009574 589773.000000 1 0 0
-5.971062 11.126381 5.091801 13.615299 -1.078254 1.187503 -0.001257 -0.002645 -283948.000000 1 0 0
5.963438 -1.240319 -6.868599 9.180340 -0.205064 2.416120 -0.000926 -0.000467 -1332260.000000 1 0 0
4.531338 -5.720619 11.395001 13.531613 -0.900887 0.569627 0.001723 -0.005010 -1411050.000000 1 0 0
-8.984562 -7.171519 2.651001 11.797493 0.673645 1.344152 0.008352 -0.003258 -3185330.000000 1 0 0
-1.109462 12.702081 -9.241199 15.747176 -1.483673 2.197957 0.014948 -0.001148 734564.000000 1 0 0
-4.744162 9.324481 -2.307999 10.713538 -1.100145 1.787927 -0.000577 -0.000196 727603.000000 1 0 0
-3.313762 9.702581 -0.241799 10.255709 -1.241683 1.594376 0.003016 -0.000693 -837901.000000 1 0 0
-3.501962 10.712181 -6.468699 12.994562 -1.254834 2.091857 0.010518 0.001868 587629.000000 1 0 0
5.014138 -4.907919 0.407501 7.028179 -0.774693 1.512783 0.004831 -0.004690 -851702.000000 1 0 0
-2.234562 2.952081 -10.820799 11.436685 -0.922865 2.811920 0.010578 -0.005667 -1208210.000000 1 0 0
-3.698962 12.056081 -2.221399 12.804922 -1.273101 1.745159 0.000803 0.003276 -1259170.000000 1 0 0
-0.178562 0.459981 0.000001 0.493424 -1.200508 1.570795 -0.001184 -0.001427 -2355050.000000 1 0 0
-4.811562 -1.712119 0.074501 5.107645 0.341863 1.556210 0.001285 0.000024 -92014.800000 1 0 0
2.640838 2.611881 -2.498599 4.476488 0.779886 2.162964 -0.003619 -0.003401 744246.000000 1 0 0
5.972238 -9.649319 8.414601 14.127366 -1.016575 0.932754 -0.006133 0.000157 -669892.000000 1 0 0
-4.137962 -5.438119 6.621801 9.515467 0.920344 0.801126 0.006167 -0.003138 352345.000000 1 0 0
-6.341662 5.379881 -12.041899 14.634451 -0.703529 2.537198 0.004767 -0.005294 1021610.000000 1 0 0
-12.928462 3.126581 7.932001 15.486681 -0.237281 1.033073 0.011075 -0.007136 491535.000000 1 0 0
4.757838 -7.465719 -5.007399 10.170940 -1.003407 2.085554 -0.004783 -0.001903 1414480.000000 1 0 0
-6.035162 2.438781 -1.075399 6.597524 -0.384032 1.734527 0.002456 -0.002886 -471693.000000 1 0 0
-6.872662 -2.720719 -14.475299 16.253310 0.376946 2.669473 0.005575 -0.006672 -855328.000000 1 0 0
2.803838 -6.080619 0.943401 6.762058 -1.138741 1.430826 0.004022 -0.002172 -738344.000000 1 0 0
4.879638 -7.775419 12.965701 15.886390 -1.010349 0.616077 -0.000109 -0.005897 -343713.000000 1 0 0
-10.128562 -1.595119 8.126501 13.083279 0.156204 0.900604 0.011002 -0.001556 -164553.000000 1 0 0
-4.551762 13.282181 -0.083799 14.040723 -1.240642 1.576765 -0.002525 0.005899 495967.000000 1 0 0
6.804938 2.260081 -4.480799 8.455336 0.320662 2.129323 0.003659 -0.001431 -1604130.000000 1 0 0
5.007538 4.566781 0.085001 6.777769 0.739395 1.558255 -0.000484 -0.002209 -1115760.000000 1 0 0
-5.850262 12.259081 2.069201 13.740169 -1.125539 1.419626 -0.004703 0.002854 204009.000000 1 0 0
6.513638 -7.227819 6.521601 11.713245 -0.837324 0.980302 -0.002800 -0.002992 -1995860.000000 1 0 0
-0.326362 4.915381 7.770701 9.200613 -1.504497 0.565006 -0.001473 -0.001102 -621768.000000 1 0 0
-5.713162 -3.491419 -1.566899 6.876438 0.548555 1.800681 0.008598 -0.001738 -1020030.000000 1 0 0
2.333938 -6.578619 -5.145799 8.672067 -1.229873 2.206043 -0.003571 -0.000907 -1977570.000000 1 0 0
-14.522462 -4.908119 -3.708699 15.771683 0.325915 1.808168 0.004257 -0.008070 22948.900000 1 0 0
-12.397362 -5.170919 -6.359099 14.861734 0.395159 2.012947 0.008387 -0.010537 -1609850.000000 1 0 0
-14.869862 -3.876219 -1.287099 15.420587 0.255001 1.654360 -0.001541 -0.004484 73516.800000 1 0 0
11.884738 2.917181 8.736201 15.035895 0.240697 0.950811 0.010390 -0.004342 -658370.000000 1 0 0
8.661138 -6.408419 7.787401 13.293861 -0.637009 0.944943 0.007000 -0.005120 242705.000000 1 0 0
-8.880162 -1.642119 -9.587299 13.170807 0.182854 2.386080 0.005654 -0.005852 66664.200000 1 0 0
-8.834862 5.037981 -3.793299 10.854730 -0.518249 1.927792 0.000900 -0.003485 -907593.000000 1 0 0
-4.128062 -6.203119 4.058301 8.484656 0.983614 1.072066 0.002944 -0.000953 -1122050.000000 1 0 0
-0.252662 -9.215619 3.581001 9.890148 1.543386 1.200301 0.002888 -0.003459 -125704.000000 1 0 0
8.024938 -10.447319 3.272601 13.574093 -0.915790 1.327306 0.000304 -0.001980 -121284.000000 1 0 0
-0.027262 6.543281 9.633101 11.645252 -1.566630 0.596667 -0.000529 -0.002573 -1617.810000 1 0 0
-0.004562 3.433481 -9.713299 10.302281 -1.569468 2.801818 0.013128 -0.006128 -815024.000000 1 0 0
4.497938 -3.120719 10.991901 12.279748 -0.606560 0.462086 0.001798 -0.002759 -1561500.000000 1 0 0
8.698838 -9.159119 1.230001 12.691420 -0.811167 1.473728 0.001089 -0.003965 -948930.000000 1 0 0
-0.319462 -0.377219 11.450901 11.461565 0.868111 0.043142 0.003423 -0.002198 -1402570.000000 1 0 0
10.871938 6.147581 11.409901 16.916785 0.514631 0.830547 0.015117 -0.004055 -269189.000000 1 0 0
-6.303662 -3.016219 -11.807599 13.720537 0.446289 2.607201 0.008238 -0.007772 538920.000000 1 0 0
-1.685162 2.747381 8.314301 8.917145 -1.020604 0.369813 -0.000492 -0.000669 -1006840.000000 1 0 0
-1.776562 13.398981 -6.769099 15.116533 -1.438976 2.035093 0.009605 -0.001276 -127474.000000 1 0 0
7.753838 3.050681 9.865201 12.913204 0.374840 0.701365 0.005161 -0.000870 1117790.000000 1 0 0
6.560738 8.423981 -7.957499 13.316476 0.909106 2.211261 0.012787 -0.006052 110880.000000 1 0 0
6.710038 -3.104319 -3.883499 8.351226 -0.433314 2.054455 0.002272 -0.002443 -3078460.000000 1 0 0
2.025238 8.270081 0.953301 8.567649 1.330635 1.459298 0.002207 -0.002172 1122810.000000 1 0 0
-17.698762 6.282681 6.480701 19.867505 -0.341103 1.238520 0.036923 -0.005738 -813496.000000 1 0 0
-14.502662 3.097781 -10.114599 17.950727 -0.210438 2.169370 0.020165 -0.004698 -1627630.000000 1 0 0
-18.187662 0.060081 -4.357499 18.702472 -0.003303 1.805948 0.015173 -0.004524 51712.100000 1 0 0
-13.057162 7.999181 0.308601 15.315731 -0.549653 1.550646 0.002899 -0.000130 86435.800000 1 0 0
-12.725862 -4.476019 -12.784399 18.585564 0.338212 2.329343 0.023268 -0.001011 -524619.000000 1 0 0
-17.480762 -0.624819 -8.504399 19.449737 0.035728 2.023335 0.036365 -0.014792 852362.000000 1 0 0
-16.734962 -2.207919 -2.004199 16.998549 0.131177 1.688975 0.016656 -0.007238 -136499.000000 1 0 0
-15.421862 3.978081 1.758601 16.023472 -0.252448 1.460823 0.011980 0.000427 -477183.000000 1 0 0
-13.230562 5.940981 4.399301 15.155754 -0.422051 1.276285 0.005382 -0.004001 111382.000000 1 0 0
-10.133062 14.206281 2.786401 17.670920 -0.951213 1.412453 0.017362 -0.008963 165493.000000 1 0 0
-11.781062 2.358781 -6.411599 13.618586 -0.197605 2.060991 0.000062 0.000150 561356.000000 1 0 0
-15.966862 10.667981 3.941001 19.603010 -0.589017 1.368376 0.028655 -0.011020 -669743.000000 1 0 0
-12.788062 1.141481 -8.611299 15.459366 -0.089026 2.161599 0.004775 -0.003568 248535.000000 1 0 0
-12.333162 14.306781 4.245801 19.360209 -0.859348 1.349694 0.034574 -0.014298 616437.000000 1 0 0
-10.477362 11.160981 -0.950099 15.337709 -0.816981 1.632781 0.002356 -0.000703 155684.000000 1 0 0
-17.113662 5.414381 8.869701 20.021602 -0.306414 1.111847 0.035737 -0.017830 163029.000000 1 0 0
-11.763962 12.499381 -9.000999 19.381520 -0.815699 2.053766 0.012300 -0.012924 -1573520.000000 1 0 0
-17.101262 -0.529819 3.085001 17.385371 0.030971 1.392404 0.022080 -0.004510 474925.000000 1 0 0
-13.197362 14.887881 -0.421299 19.899670 -0.845518 1.591969 0.046245 -0.010625 -173785.000000 1 0 0
-16.538162 4.595281 -10.269699 20.002354 -0.271022 2.109967 0.046438 -0.004605 322397.000000 1 0 0
-11.967162 7.647781 -8.849399 16.733601 -0.568649 2.128030 0.000165 0.006110 -60748.200000 1 0 0
-14.796562 13.439181 -1.944199 20.083072 -0.737362 1.667756 0.052632 -0.016181 274999.000000 1 0 0
-11.868562 10.543281 -5.362299 16.756426 -0.726334 1.896541 0.009642 -0.004370 1177480.000000 1 0 0
-17.711862 2.865681 -0.656099 17.954182 -0.160404 1.607347 0.028352 -0.003580 -142272.000000 1 0 0
-9.422462 15.363981 0.668601 18.035569 -1.020667 1.533717 0.022175 -0.009495 182189.000000 1 0 0
-8.196362 13.210981 -3.778899 15.999702 -1.015497 1.809235 0.005282 -0.002976 -903286.000000 1 0 0
-18.047362 11.568281 2.494001 21.581299 -0.570019 1.454975 0.098658 -0.008178 -68402.200000 1 0 0
-8.161862 15.686981 -7.304999 19.132705 -1.091045 1.962547 0.043553 -0.019684 -197268.000000 1 0 0
-6.336462 15.311981 -5.396999 17.427998 -1.178430 1.885647 0.009913 -0.002778 -707104.000000 1 0 0
-17.301462 5.332781 -0.068699 18.104803 -0.298987 1.574591 0.034866 0.000173 806977.000000 1 0 0
-5.399862 12.349981 -12.354299 18.284126 -1.158607 2.312689 0.003577 -0.002431 -394775.000000 1 0 0
-11.359862 3.714581 -11.424999 16.534062 -0.316032 2.333665 0.014853 -0.006464 857552.000000 1 0 0
-11.817662 11.032081 1.271701 16.216695 -0.751031 1.492297 0.006474 -0.004939 163299.000000 1 0 0
-12.936262 0.096081 -10.998399 16.980015 -0.007427 2.275392 0.011606 -0.013938 746369.000000 1 0 0
-13.950362 -2.337819 -13.239599 19.374339 0.166038 2.323148 0.023534 -0.000519 83872.200000 1 0 0
-18.798862 -2.296219 -3.586399 19.275168 0.121545 1.757950 0.024838 -0.005190 442109.000000 1 0 0
-18.217862 4.699581 -5.108299 19.495417 -0.252462 1.835917 0.028802 0.001927 374082.000000 1 0 0
-8.230162 15.509281 -2.318599 17.710146 -1.082922 1.702093 0.019578 -0.003196 -177166.000000 1 0 0
-16.176262 8.989381 -5.268499 19.241557 -0.507220 1.848147 0.031230 0.000253 -43930.800000 1 0 0
-18.269262 1.634281 2.270501 18.482208 -0.089218 1.447637 0.049024 -0.008379 -444008.000000 1 0 0
-15.796162 -2.622819 -8.653999 18.201363 0.164540 2.066282 0.013990 -0.009668 127497.000000 1 0 0
-9.714562 10.487081 -7.086299 15.955163 -0.823620 2.031009 0.001776 -0.005354 637091.000000 1 0 0
-13.969962 12.153581 -7.632099 20.027939 -0.715979 1.961753 0.027551 -0.012531 -278669.000000 1 0 0
-11.065462 6.420981 -3.713099 13.321433 -0.525788 1.853269 -0.003987 0.000774 -908550.000000 1 0 0
-13.194762 5.178481 -12.602499 18.966850 -0.373994 2.297552 0.040897 -0.012128 -590278.000000 1 0 0
-17.754262 9.060481 2.821201 20.131203 -0.471875 1.430193 0.052445 -0.011518 964641.000000 1 0 0
-13.392962 8.632381 -6.485999 17.203419 -0.572532 1.957371 -0.001284 0.000773 -1159770.000000 1 0 0
-15.861262 6.876681 -3.716899 17.682865 -0.409092 1.782574 0.013781 0.005439 -590394.000000 1 0 0
-14.961962 -0.264019 -9.329199 17.634171 0.017644 2.128266 0.018921 -0.010185 87943.000000 1 0 0
-10.039162 5.847281 -5.991599 13.071907 -0.527413 2.046942 -0.004384 0.001511 380983.000000 1 0 0
-12.710862 12.244281 -0.849499 17.669468 -0.766704 1.618892 0.022578 -0.007756 -357387.000000 1 0 0
-10.600362 3.503781 -13.985599 17.895283 -0.319229 2.467902 0.010366 -0.004839 607657.000000 1 0 0
-10.934062 6.260281 -11.823199 17.278104 -0.519990 2.324423 -0.003685 -0.005530 -511694.000000 1 0 0
-5.914162 11.602081 -14.855499 19.755290 -1.099379 2.421851 0.016227 -0.008376 -59983.300000 1 0 0
-15.647162 13.242281 3.467201 20.789737 -0.702345 1.403239 0.044067 -0.018929 55840.900000 1 0 0
-15.156062 11.133981 -3.144199 19.067191 -0.633587 1.736454 0.039011 -0.001933 904493.000000 1 0 0
-18.211662 7.737681 -4.364399 20.262881 -0.401765 1.787886 0.042007 0.001153 -153719.000000 1 0 0
-3.896862 16.230681 -10.583299 19.764280 -1.335164 2.135868 0.025007 -0.004585 60686.200000 1 0 0
-15.682062 4.296981 -4.265099 16.810181 -0.267442 1.827322 0.008373 0.006181 818983.000000 1 0 0
-18.628862 -1.838719 -6.125499 19.696120 0.098384 1.887042 0.026937 -0.010642 434166.000000 1 0 0
-10.816762 8.569481 -5.838399 14.984167 -0.669992 1.971035 -0.007083 0.002574 714406.000000 1 0 0
-11.312062 13.537181 -6.587499 18.831176 -0.874705 1.928174 0.021751 -0.009988 -59862.600000 1 0 0
-9.484362 10.407281 -4.379699 14.746064 -0.831762 1.872354 -0.009623 0.000760 -1596430.000000 1 0 0
-11.105162 6.339281 -0.155999 12.788098 -0.518703 1.582995 -0.002224 -0.000582 -396400.000000 1 0 0
-14.590662 9.439881 -1.281599 17.425306 -0.574250 1.644411 0.026379 -0.001086 575806.000000 1 0 0
-18.854362 3.175481 4.728701 19.695971 -0.166856 1.328343 0.055791 -0.009753 500215.000000 1 0 0
-14.744262 13.145081 0.556701 19.760980 -0.728121 1.542621 0.031553 -0.011937 -68116.000000 1 0 0
-16.728862 2.354081 -9.006699 19.144638 -0.139802 2.060603 0.019707 -0.004841 549390.000000 1 0 0
-9.183362 8.524581 -8.971499 15.410725 -0.748213 2.192178 -0.000124 0.003686 -2010750.000000 1 0 0
-17.638262 4.594381 -2.576399 18.408000 -0.254816 1.711218 0.020273 0.006358 664224.000000 1 0 0
-13.575962 5.723281 -4.303399 15.348679 -0.398966 1.854982 0.001676 0.007153 -1096610.000000 1 0 0
-12.159262 9.536981 3.298101 15.801239 -0.665118 1.360526 0.002137 -0.005065 119637.000000 1 0 0
-17.549162 2.446181 -3.901099 18.143194 -0.138498 1.787506 0.017088 0.002912 759141.000000 1 0 0
-11.285362 1.433081 -12.541099 16.931990 -0.126310 2.404871 0.011965 -0.006108 176655.000000 1 0 0
-11.179662 11.995081 3.594101 16.786434 -0.820569 1.355018 0.007775 -0.008686 585843.000000 1 0 0
-16.048062 13.292681 -4.287199 21.274768 -0.691763 1.773701 0.039531 -0.007412 670347.000000 1 0 0
-11.152062 4.051481 -4.532699 12.701510 -0.348469 1.935704 -0.005228 0.000248 -428050.000000 1 0 0
-11.297962 15.032881 -8.725799 20.730920 -0.926304 2.005242 0.032921 -0.017143 263775.000000 1 0 0
-15.485262 7.187981 -0.202599 17.073414 -0.434585 1.582663 0.022779 0.002286 -1128580.000000 1 0 0
-12.763462 8.320281 -4.053799 15.765987 -0.577698 1.830840 -0.000957 0.002689 676995.000000 1 0 0
-19.273362 1.905481 -5.817399 20.222153 -0.098546 1.862594 0.048208 -0.007240 691133.000000 1 0 0
-12.841562 10.092681 -8.760799 18.534280 -0.666108 2.063127 0.010933 -0.006009 615154.000000 1 0 0
-16.712162 11.020281 -1.004599 20.043757 -0.582967 1.620938 0.047680 -0.004155 261127.000000 1 0 0
-10.849062 6.537181 -14.427099 19.198388 -0.542298 2.421091 0.026581 -0.015338 -12720.100000 1 0 0
-13.474962 12.778881 -4.133899 19.025339 -0.758891 1.789827 0.029658 -0.014638 28944.900000 1 0 0
-18.045562 7.770781 -0.050199 19.647643 -0.406621 1.573351 0.056411 -0.005254 941750.000000 1 0 0
-12.839862 6.659881 -2.006299 14.602785 -0.478486 1.708624 -0.003067 0.003773 332692.000000 1 0 0
-13.784462 8.584081 -10.610199 19.397788 -0.556970 2.149549 0.013814 0.002204 -742336.000000 1 0 0
-14.996162 1.316281 -0.939199 15.083089 -0.087550 1.633105 0.008669 -0.002377 -1137970.000000 1 0 0
-13.367862 2.800881 -2.315399 13.853005 -0.206536 1.738725 0.000817 0.001557 -230315.000000 1 0 0
-11.359762 9.350681 -10.753799 18.224260 -0.688693 2.201956 0.004276 -0.000258 -612400.000000 1 0 0
-15.305362 4.238281 -7.882799 17.730078 -0.270146 2.031524 0.009901 0.000862 780592.000000 1 0 0
-18.443262 10.377581 4.781601 21.695894 -0.512523 1.348580 0.093725 -0.032946 920370.000000 1 0 0
-15.329462 6.186281 -6.132899 17.631646 -0.383567 1.926057 0.012178 0.008000 556124.000000 1 0 0
-7.733262 11.416281 -13.012199 18.959224 -0.975407 2.327221 0.009627 0.000719 -716231.000000 1 0 0
-16.741962 9.080881 -2.685499 19.234542 -0.496991 1.710873 0.033795 -0.002705 398535.000000 1 0 0
-20.599862 -0.793519 -4.743299 21.153791 0.038502 1.796948 0.050322 -0.007990 451580.000000 1 0 0
-15.540262 4.427981 4.187401 16.692546 -0.277580 1.317233 0.020893 -0.002126 102901.000000 1 0 0
-6.985362 12.653381 -9.506999 17.299895 -1.066377 2.152611 0.010836 -0.001702 -1274260.000000 1 0 0
-17.425162 1.386381 5.811801 18.421058 -0.079395 1.249815 0.039296 -0.011641 -229431.000000 1 0 0
-10.419362 14.276481 -3.114999 17.946706 -0.940331 1.745249 0.034390 -0.012790 -236834.000000 1 0 0
-10.000162 8.524681 -12.880699 18.400703 -0.705917 2.346210 -0.000674 -0.005720 -338085.000000 1 0 0
-13.743262 11.594981 2.845801 18.204929 -0.700816 1.413832 0.027409 -0.014433 -1111670.000000 1 0 0
-16.773862 6.730381 2.079001 18.192931 -0.381577 1.456271 0.024403 -0.002733 392029.000000 1 0 0
-9.383962 13.372781 -8.402299 18.370865 -0.958916 2.045833 0.026197 -0.010330 -1079170.000000 1 0 0
-5.628062 9.849881 -12.929199 17.200565 -1.051684 2.421391 0.005158 -0.003306 -447134.000000 1 0 0
-15.968662 1.854881 3.346601 16.420673 -0.115639 1.365554 0.014827 -0.001054 -659727.000000 1 0 0
-18.720662 -4.887919 4.639301 19.896685 0.255396 1.335461 0.066925 -0.010962 717354.000000 1 0 0
-5.290162 14.454181 -9.124199 17.893021 -1.219943 2.105900 0.017430 -0.003654 334566.000000 1 0 0
-15.446662 -0.828619 -6.802599 16.898560 0.053593 1.985103 0.006605 -0.005767 308328.000000 1 0 0
-9.094962 11.074781 -9.503799 17.195677 -0.883243 2.156379 0.008454 -0.005297 392832.000000 1 0 0
-16.688262 1.306681 -6.102399 17.816981 -0.078140 1.920378 0.000685 0.000094 -1546870.000000 1 0 0
-11.268162 8.660381 -1.451099 14.285635 -0.655281 1.672549 -0.005672 0.000212 -823458.000000 1 0 0
-10.752162 11.031581 -12.677899 19.950787 -0.798224 2.259399 0.021181 -0.008027 -221253.000000 1 0 0
-13.899762 11.866881 -10.303699 20.980765 -0.706665 2.084151 0.031014 -0.012051 -251614.000000 1 0 0
-13.215062 5.822081 -7.573499 16.306207 -0.414979 2.053815 0.003482 0.006380 -688157.000000 1 0 0
-8.934762 15.375081 -4.824199 18.425417 -1.044375 1.835707 0.028360 -0.013525 1022780.000000 1 0 0
-8.704862 6.156381 -12.993799 16.808167 -0.615565 2.454455 0.005452 -0.003968 -1104480.000000 1 0 0
-16.554362 7.464781 4.525901 18.715065 -0.423623 1.326543 0.038239 -0.002174 -205582.000000 1 0 0
-12.683562 5.503381 -10.121099 17.134661 -0.409384 2.202697 0.007747 0.001041 50119.600000 1 0 0
-12.457662 9.211281 -13.103299 20.291316 -0.636687 2.272813 0.040318 -0.018359 -1102970.000000 1 0 0
-10.807462 5.256681 -8.447599 14.689992 -0.452703 2.183472 -0.002393 0.000960 -1843630.000000 1 0 0
-17.782462 -4.460519 -2.597499 18.516457 0.245767 1.711541 0.019920 -0.012124 234144.000000 1 0 0
-9.024562 13.271181 -10.918499 19.410837 -0.973611 2.168197 0.028922 -0.008018 223270.000000 1 0 0
-15.116562 6.123781 6.144601 17.428921 -0.384899 1.210500 0.020739 -0.010763 -35025.700000 1 0 0
-16.378662 -3.151519 -4.393699 17.248108 0.190093 1.828370 0.009403 -0.007051 -29041.700000 1 0 0
-11.150862 -1.178519 -12.476199 16.774570 0.105298 2.409469 0.009022 -0.006832 459308.000000 1 0 0
-15.432062 6.817881 -8.594199 18.933893 -0.416014 2.041940 0.017750 0.008952 122421.000000 1 0 0
-15.046862 9.320081 1.305001 17.747535 -0.554565 1.497199 0.031978 -0.009588 -357788.000000 1 0 0
-19.552662 5.106081 7.935501 21.710616 -0.255440 1.196613 0.065635 -0.028964 866816.000000 1 0 0
-16.298662 0.616481 1.017501 16.342024 -0.037806 1.508493 0.017207 -0.004382 -572882.000000 1 0 0
-17.533662 3.706681 6.948601 19.221130 -0.208336 1.200911 0.027600 -0.009878 667585.000000 1 0 0
-15.449162 3.964681 -1.310299 16.003506 -0.251207 1.652764 0.010373 0.000868 -1813330.000000 1 0 0
-10.788462 13.315281 0.483301 17.144131 -0.889848 1.542602 0.017251 -0.010603 -1406440.000000 1 0 0
-13.499162 3.270081 0.170601 13.890641 -0.237665 1.558514 0.006034 -0.000244 -599008.000000 1 0 0
-15.084162 0.240881 -4.303899 15.688006 -0.015968 1.848703 0.001360 -0.000201 -493327.000000 1 0 0
-18.865262 6.804681 3.526301 20.362628 -0.346174 1.396744 0.042901 -0.004474 -6585.020000 1 0 0
-14.214362 1.459681 -6.413299 15.662349 -0.102332 1.992672 0.005528 0.002106 -921621.000000 1 0 0
-14.169462 12.077681 5.289801 19.355259 -0.705871 1.293974 0.022402 -0.015802 394922.000000 1 0 0
17.671338 5.555981 6.156901 19.520567 0.304621 1.249912 0.064438 -0.014629 195212.000000 1 0 0
18.642538 7.473481 -0.274199 20.086620 0.381268 1.584448 0.047233 0.005750 785778.000000 1 0 0
16.634538 5.100281 8.513801 19.370222 0.297508 1.115721 0.076106 -0.012904 295134.000000 1 0 0
11.728238 12.310381 10.954701 20.226283 0.809610 0.998448 0.051678 -0.017791 552009.000000 1 0 0
-2.406162 16.194181 -0.474799 16.378845 -1.423294 1.599789 -0.002128 0.001190 -97492.800000 1 0 0
15.089738 12.677381 3.412301 20.001499 0.698738 1.399355 0.059837 -0.009585 327111.000000 1 0 0
13.584038 11.813681 6.717901 19.215081 0.715805 1.213635 0.059333 -0.009477 970496.000000 1 0 0
-0.614462 15.826181 8.676001 18.058753 -1.531990 1.069649 0.002457 -0.008429 216639.000000 1 0 0
0.637438 12.882381 9.418001 15.970623 1.521355 0.940099 -0.002561 -0.003714 658364.000000 1 0 0
0.795738 15.572981 -3.910599 16.076185 1.519743 1.816516 0.009483 -0.000834 207724.000000 1 0 0
5.493138 10.426881 13.509601 17.927736 1.085920 0.717338 0.024886 -0.011254 261422.000000 1 0 0
-1.350662 16.358281 -2.756699 16.643829 -1.488416 1.737192 0.006513 -0.001014 -995278.000000 1 0 0
8.540838 10.109881 3.338601 13.649244 0.869328 1.323690 0.011208 -0.001677 124632.000000 1 0 0
12.458138 13.708481 -5.013799 19.190254 0.833146 1.835132 0.049122 -0.017910 -79533.200000 1 0 0
2.324438 11.626981 7.716501 14.146875 1.373480 0.993863 0.000293 0.000291 777648.000000 1 0 0
-0.370462 14.900581 -8.516699 17.166792 -1.545939 2.089915 0.017523 -0.003492 -1705630.000000 1 0 0
2.335038 15.879081 0.298601 16.052625 1.424792 1.552194 0.013535 -0.011451 -103330.000000 1 0 0
1.784538 13.423081 5.320901 14.549078 1.438626 1.196389 0.004297 -0.001534 535049.000000 1 0 0
17.782538 9.285781 -1.972299 20.157737 0.481238 1.668796 0.042032 0.009228 712209.000000 1 0 0
-7.327762 14.877981 7.395901 18.159014 -1.113147 1.151317 0.010751 -0.014368 -922757.000000 1 0 0
8.474738 15.709681 -0.140999 17.850354 1.076082 1.578695 0.006868 -0.018535 244797.000000 1 0 0
15.706338 10.565381 2.152401 19.051224 0.592156 1.457575 0.044602 -0.000729 536423.000000 1 0 0
14.173238 7.492381 8.752601 18.265390 0.486287 1.071064 0.056721 -0.016252 -1067540.000000 1 0 0
4.250538 18.618981 -1.960299 19.198341 1.346352 1.673082 0.023284 -0.012904 -305987.000000 1 0 0
-0.547262 17.558681 -4.830199 18.219155 -1.539639 1.839121 0.020135 -0.000912 469516.000000 1 0 0
1.416538 13.662481 -0.684299 13.752754 1.467485 1.620574 0.007036 -0.006558 -92577.000000 1 0 0
10.220638 14.724081 4.229501 18.415990 0.964011 1.339063 0.026477 -0.012055 635079.000000 1 0 0
-1.649962 15.250781 -5.134099 16.176145 -1.463027 1.893769 0.009837 -0.000667 939745.000000 1 0 0
15.118938 8.804981 -6.222799 18.569685 0.527364 1.912513 0.042337 -0.009680 503248.000000 1 0 0
-2.355562 18.474581 0.782301 18.640569 -1.443978 1.528816 0.004914 -0.004851 -812275.000000 1 0 0
-3.878062 19.174881 3.473601 19.869105 -1.371241 1.395069 0.016365 -0.010547 -86051.200000 1 0 0
1.872938 17.637481 -2.692899 17.939909 1.465002 1.721472 0.011175 -0.008056 -195473.000000 1 0 0
2.857338 12.336481 3.223001 13.066785 1.343193 1.321568 0.003699 -0.000532 603124.000000 1 0 0
-2.616562 16.257481 2.020001 16.590133 -1.411220 1.448734 0.001161 0.001343 -1705010.000000 1 0 0
11.861638 12.795081 -2.640399 17.646083 0.823238 1.720991 0.031919 -0.005585 481985.000000 1 0 0
7.152338 11.649181 4.779601 14.481158 1.020162 1.234433 0.009222 -0.002290 187714.000000 1 0 0
7.020038 15.727481 1.980801 17.336613 1.150978 1.456291 0.009191 -0.013121 -1124550.000000 1 0 0
5.444638 12.187581 10.147901 16.767859 1.150660 0.920780 0.011972 -0.003144 832617.000000 1 0 0
-1.431462 14.219481 3.179801 14.640829 -1.470465 1.351864 0.002497 0.000339 -562591.000000 1 0 0
4.555938 16.130881 1.610601 16.839119 1.295530 1.475004 0.007096 -0.014564 -2386400.000000 1 0 0
7.145838 12.968881 11.954701 19.030758 1.067187 0.891587 0.020904 -0.014757 318365.000000 1 0 0
0.713738 17.018181 -9.430399 19.469472 1.528881 2.076438 0.018813 -0.006808 448812.000000 1 0 0
9.850038 9.632581 15.492701 20.732430 0.774237 0.726854 0.043932 -0.018563 -195031.000000 1 0 0
13.581038 7.559881 -0.205699 15.544732 0.507934 1.584029 0.009186 0.004071 553101.000000 1 0 0
12.626238 13.589981 -0.226699 18.551573 0.822143 1.583017 0.046960 -0.008509 695515.000000 1 0 0
9.340238 12.403281 3.391401 15.892861 0.925349 1.355751 0.016211 -0.002353 1183840.000000 1 0 0
-0.710662 12.922381 0.880001 12.971792 -1.515857 1.502905 0.003579 -0.002832 -778975.000000 1 0 0
16.137638 7.333181 -0.958999 17.751580 0.426519 1.624846 0.032598 0.007113 -585899.000000 1 0 0
-4.094962 18.432681 -2.337899 19.026251 -1.352189 1.693985 0.008627 -0.002659 162697.000000 1 0 0
11.683538 9.207081 -3.148299 15.204841 0.667405 1.779364 0.023370 -0.002635 89832.100000 1 0 0
14.761638 9.800581 7.863101 19.385193 0.586100 1.153135 0.060861 -0.017680 1081810.000000 1 0 0
4.359138 13.761181 4.790501 15.209243 1.264026 1.250368 0.007473 -0.002654 -334515.000000 1 0 0
2.135938 15.976581 5.653701 17.081502 1.437893 1.233450 0.006286 -0.004216 265254.000000 1 0 0
6.058538 18.424981 5.525501 20.167225 1.253112 1.293263 0.025482 -0.022947 -620113.000000 1 0 0
10.666638 17.000981 -0.870299 20.089001 1.010464 1.614132 0.038923 -0.019626 -1471850.000000 1 0 0
9.991538 13.507881 -4.391699 17.366079 0.933931 1.826462 0.033413 -0.014725 -869334.000000 1 0 0
16.502338 7.987081 2.287101 18.475699 0.450763 1.446688 0.018960 -0.000820 -467472.000000 1 0 0
4.065638 14.028981 -0.382599 14.611232 1.288721 1.596985 0.011257 -0.008881 1389710.000000 1 0 0
5.653438 13.172881 -2.351099 14.526315 1.165397 1.733362 0.009537 -0.007147 -719352.000000 1 0 0
-6.094262 16.921581 -2.941599 18.224515 -1.225110 1.732914 0.012866 -0.002375 -1028280.000000 1 0 0
18.230338 9.822481 2.587601 20.869164 0.494203 1.446485 0.056970 -0.011832 457671.000000 1 0 0
7.814638 12.929081 9.386101 17.785629 1.027131 1.014864 0.027335 -0.008692 118435.000000 1 0 0
-2.607862 15.665681 6.845101 17.293638 -1.405839 1.163840 0.000399 -0.005429 683362.000000 1 0 0
11.207538 16.058981 6.242201 20.553950 0.961482 1.262224 0.044418 -0.010416 -52075.900000 1 0 0
13.627038 12.040881 1.407701 18.238986 0.723681 1.493539 0.050438 -0.001397 1162850.000000 1 0 0
17.541138 7.871781 -5.588199 20.022098 0.421823 1.853655 0.035227 0.010586 566680.000000 1 0 0
9.467138 9.234181 7.966801 15.439129 0.772942 1.028606 0.016872 -0.005503 -831297.000000 1 0 0
-1.987262 14.005181 -1.996999 14.285738 -1.429842 1.711045 -0.000949 0.002313 703292.000000 1 0 0
10.975338 11.770981 0.602201 16.105176 0.820363 1.533396 0.022367 0.006140 650241.000000 1 0 0
11.780738 9.794081 -0.501299 15.328441 0.693575 1.603506 0.016545 0.003174 -1177600.000000 1 0 0
-0.331262 16.030381 11.177101 19.545087 -1.550135 0.962022 0.006691 -0.010630 -617816.000000 1 0 0
1.955938 20.005981 -1.771599 20.179285 1.473338 1.658702 0.027722 -0.019242 -317862.000000 1 0 0
9.190438 14.366481 1.843501 17.153962 1.001686 1.463120 0.017420 -0.009583 -143630.000000 1 0 0
8.426738 11.677481 -5.242199 15.324951 0.945705 1.919915 0.012777 -0.004717 -279544.000000 1 0 0
10.510038 10.112381 10.152201 17.770434 0.766118 0.962711 0.018599 -0.012573 265380.000000 1 0 0
-5.199862 15.777781 5.964101 17.650707 -1.252438 1.226116 -0.000737 -0.007930 2388600.000000 1 0 0
14.535638 9.073581 -2.010999 17.252790 0.558045 1.687623 0.030924 0.002683 -201843.000000 1 0 0
12.191138 9.543581 6.957801 16.973944 0.664183 1.148440 0.028585 -0.011900 -663629.000000 1 0 0
3.166138 12.989181 9.687701 16.510445 1.331707 0.943742 0.006633 -0.006523 -1005150.000000 1 0 0
8.493538 12.559781 -2.641199 15.390394 0.976189 1.743264 0.014156 -0.007079 -802343.000000 1 0 0
9.469838 16.908781 1.960801 19.478949 1.060267 1.469963 0.018160 -0.011922 219629.000000 1 0 0
9.721038 14.307081 -7.482399 18.846152 0.973991 1.979070 0.041310 -0.017945 230089.000000 1 0 0
6.316938 11.383181 7.359801 14.954838 1.064171 1.056256 0.007660 0.000174 -278138.000000 1 0 0
5.622738 16.842681 -5.463899 18.578086 1.248591 1.869315 0.008665 -0.005445 -2240670.000000 1 0 0
-3.997562 17.141381 -4.635599 18.201545 -1.341680 1.828315 0.011789 -0.006346 -131283.000000 1 0 0
-0.118862 18.354981 -0.399099 18.359704 -1.564321 1.592536 0.015243 -0.014790 -221740.000000 1 0 0
6.586138 15.593981 -2.738499 17.147852 1.171171 1.731182 0.006684 -0.008184 568052.000000 1 0 0
-0.721362 20.624281 0.649301 20.647105 -1.535834 1.539344 0.018712 -0.009597 71104.300000 1 0 0
-1.449362 18.774081 4.438401 19.345960 -1.493749 1.339312 0.008337 -0.004158 409581.000000 1 0 0
7.252638 13.743981 -4.385599 16.147175 1.085239 1.845853 0.005336 -0.004388 -752642.000000 1 0 0
-1.056162 11.916781 7.693601 14.223806 -1.482399 0.999294 0.001317 0.002501 474287.000000 1 0 0
7.658038 10.797181 10.762801 17.060555 0.953881 0.888137 0.018851 -0.010795 117051.000000 1 0 0
1.608438 16.015581 -7.199699 17.632969 1.470702 1.991397 0.011378 -0.002623 1641460.000000 1 0 0
8.947938 7.323881 14.785201 18.769842 0.685920 0.663713 0.029020 -0.004379 403550.000000 1 0 0
11.393638 11.310481 -4.846099 16.769813 0.781736 1.863955 0.039559 -0.009426 12673.600000 1 0 0
-3.383962 16.925681 4.636601 17.872547 -1.373467 1.308369 -0.002792 -0.002047 -290406.000000 1 0 0
4.007238 15.175181 -6.652099 17.046833 1.312624 1.971672 0.014621 -0.011753 504537.000000 1 0 0
-4.561762 13.948781 9.531501 17.499362 -1.254723 0.994792 0.012066 -0.014010 -831622.000000 1 0 0
6.148038 17.668181 0.342301 18.710429 1.235929 1.552501 0.009554 -0.021384 -97775.400000 1 0 0
9.859038 10.708481 -2.155699 14.714593 0.826675 1.717826 0.018297 -0.002726 -372747.000000 1 0 0
7.448138 18.100481 -2.595699 19.744362 1.180426 1.702643 0.015922 -0.009311 49714.300000 1 0 0
3.448838 10.411081 10.328001 15.064949 1.250907 0.815417 0.003472 -0.000700 1139550.000000 1 0 0
-0.062262 18.681281 2.191401 18.809476 -1.567463 1.454026 0.010476 -0.006223 579595.000000 1 0 0
-0.945262 17.020181 -7.341299 18.560031 -1.515316 1.977456 0.027732 -0.003133 232368.000000 1 0 0
10.158138 8.802281 13.022001 18.714711 0.714010 0.801241 0.034849 -0.012059 22812.900000 1 0 0
3.613438 11.429481 5.481301 13.180843 1.264589 1.141915 -0.001368 -0.000280 637823.000000 1 0 0
12.890938 13.964181 8.188001 20.693429 0.825341 1.163987 0.055750 -0.018695 16662.900000 1 0 0
-0.614862 17.336281 6.753901 18.615582 -1.535344 1.199516 0.006752 -0.009237 -501675.000000 1 0 0
12.100938 13.651181 5.672701 19.104109 0.845524 1.269314 0.041068 -0.011919 -149730.000000 1 0 0
4.820938 14.491981 -4.437499 15.904413 1.249650 1.853560 0.008157 -0.006656 -140928.000000 1 0 0
3.781938 17.646681 4.635201 18.633129 1.359676 1.319395 0.015456 -0.013039 43298.600000 1 0 0
7.027538 11.603481 2.087401 13.725316 1.026240 1.418120 0.013035 -0.002484 529870.000000 1 0 0
6.369638 8.705181 11.700301 15.913815 0.939106 0.744792 0.012472 -0.003997 544682.000000 1 0 0
-5.443662 14.911581 1.682801 15.963099 -1.220766 1.465182 0.000458 0.006041 -194881.000000 1 0 0
6.720438 13.710981 6.014801 16.411372 1.115060 1.195550 0.012299 -0.005695 -43581.900000 1 0 0
5.774638 15.913781 4.911901 17.627298 1.222702 1.288405 0.009110 -0.013655 741030.000000 1 0 0
1.167338 18.074981 4.413101 18.642507 1.506303 1.331805 0.015918 -0.010140 582111.000000 1 0 0
7.415238 17.995481 -6.895699 20.648820 1.179936 1.911289 0.012013 -0.009921 366948.000000 1 0 0
-2.433262 18.776681 -6.051599 19.877283 -1.441925 1.880155 0.023700 -0.004147 434358.000000 1 0 0
13.573738 10.022681 -4.537999 17.472662 0.636028 1.833529 0.031419 -0.005482 -2312120.000000 1 0 0
-1.607262 17.955181 10.042601 20.635543 -1.481519 1.062528 0.017185 -0.008619 -9209.150000 1 0 0
3.410638 11.860381 -1.597599 12.444011 1.290786 1.699535 0.009795 -0.008347 394615.000000 1 0 0
4.290438 13.978881 -10.960299 18.274166 1.273000 2.214010 0.024054 -0.017451 326955.000000 1 0 0
11.546538 13.493881 2.295101 17.907397 0.863010 1.442278 0.038112 -0.004394 32099.300000 1 0 0
16.019638 6.412681 -7.135299 18.672541 0.380766 1.962894 0.028196 -0.002599 301888.000000 1 0 0
2.403238 16.129881 3.007401 16.582915 1.422891 1.388432 0.012103 -0.008839 181434.000000 1 0 0
13.550938 10.648981 3.618501 17.610288 0.666052 1.363846 0.044913 -0.000816 -587883.000000 1 0 0
-5.059562 19.270681 -5.842099 20.762670 -1.314039 1.856023 0.013471 -0.016787 400823.000000 1 0 0
5.332638 11.889981 0.017701 13.031078 1.149192 1.569438 0.011395 -0.006740 -359877.000000 1 0 0
4.614238 15.471181 9.655801 18.811782 1.280948 1.031788 0.018575 -0.002932 -77024.100000 1 0 0
7.777338 9.412981 13.862701 18.473377 0.880262 0.722107 0.027672 -0.017260 -1464580.000000 1 0 0
-5.127062 13.504081 7.067301 16.080849 -1.207940 1.115770 0.002675 -0.006984 -1433210.000000 1 0 0
-4.636362 17.171981 0.526801 17.794671 -1.307088 1.541188 0.007750 0.001220 -987827.000000 1 0 0
-0.648362 16.542281 3.622201 16.946616 -1.531622 1.355393 0.010212 -0.005077 -1570840.000000 1 0 0
7.981438 16.599481 -4.755699 19.022692 1.122606 1.823478 0.008184 -0.014284 997.497000 1 0 0
3.140038 16.443581 -4.520599 17.340329 1.382110 1.834542 0.010923 -0.005405 310274.000000 1 0 0
9.325538 14.497581 8.034401 19.018336 0.999182 1.134644 0.025113 -0.011298 18087.000000 1 0 0
12.697538 10.845281 9.079801 19.007640 0.706884 1.072770 0.046918 -0.022827 -289042.000000 1 0 0
3.558438 12.385581 12.120401 17.690936 1.291027 0.816029 0.014045 -0.009028 617804.000000 1 0 0
-3.554562 19.242581 5.923101 20.444925 -1.388132 1.276872 0.019690 -0.007269 208216.000000 1 0 0
-2.734062 15.669381 10.224401 18.908807 -1.398051 0.999502 0.008664 -0.019424 -22843.600000 1 0 0
1.937238 14.324381 7.778601 16.414853 1.436371 1.077109 0.004867 -0.002988 33086.600000 1 0 0
4.580438 17.432281 7.869601 19.667116 1.313848 1.159127 0.026366 -0.008559 -99975.500000 1 0 0
-2.047862 13.380681 9.379601 16.468554 -1.418929 0.964843 0.003686 -0.009435 -1276280.000000 1 0 0
5.868538 17.772481 3.023001 18.958886 1.251865 1.410662 0.008563 -0.017687 781054.000000 1 0 0
7.304338 15.334481 -6.846899 18.313375 1.126260 1.953979 0.007308 -0.008092 -105976.000000 1 0 0
10.980638 7.652681 9.475501 16.398873 0.608659 0.954748 0.011768 -0.009014 568121.000000 1 0 0
9.138938 16.150881 -2.682699 18.750147 1.055868 1.714365 0.020206 -0.019288 -539782.000000 1 0 0
14.578638 11.369581 -6.537699 19.609833 0.662351 1.910692 0.076798 -0.013020 463636.000000 1 0 0
11.141038 6.602981 16.022701 20.602160 0.535014 0.679767 0.055384 -0.024120 -174414.000000 1 0 0
8.515038 8.451281 10.219701 15.759832 0.781640 0.865230 0.013315 -0.005093 -392987.000000 1 0 0
16.381938 9.503681 4.489601 19.463924 0.525682 1.338038 0.049463 -0.009344 -28851.900000 1 0 0
-3.449162 14.348881 4.716001 15.492830 -1.334894 1.261489 -0.002026 0.000739 -642482.000000 1 0 0
4.729438 14.694281 12.805701 20.056806 1.259411 0.878286 0.023903 -0.005391 -178599.000000 1 0 0
16.096438 10.530581 -4.526899 19.760599 0.579335 1.801936 0.057415 -0.014023 611598.000000 1 0 0
14.637138 13.997281 6.130401 21.160139 0.763056 1.276868 0.062189 -0.012440 -505777.000000 1 0 0
6.150838 9.361181 9.211701 14.502412 0.989476 0.882550 0.009089 -0.002033 959169.000000 1 0 0
10.396738 12.107281 8.595801 18.126395 0.861263 1.076725 0.036419 -0.014987 1387310.000000 1 0 0
7.885138 11.357281 -0.350699 13.830626 0.963919 1.596156 0.009385 -0.006054 -206059.000000 1 0 0
7.560738 13.429381 -8.610199 17.653571 1.058027 2.080285 0.022157 -0.010026 -875760.000000 1 0 0
2.801538 15.276681 -2.246899 15.693125 1.389425 1.714467 0.009503 -0.007023 775222.000000 1 0 0
12.290138 13.811081 -7.852999 20.086390 0.843603 1.972472 0.064842 -0.022957 198915.000000 1 0 0
-8.226862 14.557981 9.840201 19.402207 -1.056426 1.038899 0.029162 -0.029048 260038.000000 1 0 0
11.542538 9.783281 2.228701 15.294112 0.703090 1.424553 0.024716 0.001858 -1836300.000000 1 0 0
12.193338 8.671681 4.533201 15.634112 0.618191 1.276616 0.022527 -0.001524 317600.000000 1 0 0
14.156638 8.054281 6.113601 17.397067 0.517268 1.211714 0.037465 -0.009210 -1718120.000000 1 0 0
16.253338 7.385181 7.362601 19.311131 0.426490 1.179635 0.075971 -0.016465 250377.000000 1 0 0
13.672638 8.460981 2.266201 16.237761 0.554147 1.430776 0.026187 -0.001005 -2415480.000000 1 0 0
-4.178162 17.162481 -7.143999 19.053727 -1.331994 1.955128 0.021102 -0.016207 97526.100000 1 0 0
2.967738 19.468081 -4.033899 20.101890 1.419520 1.772841 0.022558 -0.012856 474171.000000 1 0 0
-0.130962 14.775381 6.290601 16.059287 -1.561933 1.168306 0.005551 -0.005290 -1038690.000000 1 0 0
6.720038 16.140881 8.234401 19.325949 1.176287 1.130641 0.029418 -0.010332 -414771.000000 1 0 0
12.678838 15.287981 -2.234199 19.986669 0.878423 1.682815 0.053126 -0.016430 -795788.000000 1 0 0
12.636838 15.709281 4.150101 20.583841 0.893367 1.367785 0.051847 -0.011938 -122439.000000 1 0 0
2.925138 18.132781 1.322601 18.414762 1.410857 1.498912 0.020196 -0.014890 -267423.000000 1 0 0
10.427538 14.427081 -1.192299 17.840846 0.944948 1.637676 0.025818 -0.006648 -1090270.000000 1 0 0
-6.490562 15.770281 -0.522499 17.061717 -1.180356 1.601425 0.009514 0.002892 33464.400000 1 0 0
-3.861562 15.802381 -2.569999 16.469117 -1.331127 1.727486 0.001897 0.001130 -407550.000000 1 0 0
-6.962162 17.077381 1.712301 18.521356 -1.183684 1.478214 0.013980 0.001058 435510.000000 1 0 0
0.112438 19.263081 -6.596499 20.361551 1.564959 1.900717 0.034343 -0.009435 -207696.000000 1 0 0
4.746438 14.867981 7.106801 17.149115 1.261784 1.143500 0.015473 -0.006188 -217140.000000 1 0 0
8.687538 12.269781 6.969101 16.570733 0.954692 1.136726 0.023735 -0.006386 65585.200000 1 0 0
-7.690762 17.513981 -5.476499 19.896719 -1.157026 1.849642 0.040430 -0.017466 214199.000000 1 0 0
-7.865362 17.895881 -1.357799 19.595155 -1.156703 1.640145 0.042834 -0.003022 801236.000000 1 0 0
-13.749162 -9.254919 9.268101 18.989225 0.592461 1.060917 0.063503 -0.019224 -109099.000000 1 0 0
-12.375562 -12.871119 7.535101 19.380350 0.805024 1.171466 0.043620 -0.018306 3569.030000 1 0 0
-3.818562 -14.974519 12.604201 19.942003 1.321114 0.886610 0.010770 -0.018417 416924.000000 1 0 0
-1.919362 -14.147219 15.104301 20.783831 1.435949 0.757242 0.020036 -0.012457 408951.000000 1 0 0
-7.116362 -13.730319 12.763201 20.051523 1.092620 0.880818 0.031963 -0.019871 -153388.000000 1 0 0
-9.857962 -11.558519 8.911701 17.612416 0.864636 1.040267 0.037467 -0.019964 417588.000000 1 0 0
-10.607262 -10.551719 11.241601 18.714336 0.782773 0.926427 0.064985 -0.028278 640799.000000 1 0 0
-5.854162 -12.173419 10.907201 17.361750 1.122547 0.891518 0.023056 -0.016204 617183.000000 1 0 0
-12.520962 -10.326319 7.348401 17.815902 0.689635 1.145640 0.037776 -0.013145 212015.000000 1 0 0
-7.590562 -11.248719 12.592401 18.512668 0.977189 0.822755 0.027403 -0.020096 -308441.000000 1 0 0
-14.729162 -11.636019 7.253801 20.123687 0.668613 1.202034 0.061663 -0.011795 -210775.000000 1 0 0
-11.128462 -9.204019 9.204801 17.125565 0.691031 1.003340 0.042437 -0.014936 -556149.000000 1 0 0
-5.299362 -12.020219 13.484701 18.825675 1.155560 0.772321 0.023138 -0.018002 -435422.000000 1 0 0
4.152638 -12.236019 14.756701 19.614402 -1.243615 0.719189 0.000634 -0.007230 455875.000000 1 0 0
6.689338 -12.599019 14.155501 20.096286 -1.082703 0.789242 0.017529 -0.004523 168107.000000 1 0 0
6.639938 -8.200719 16.016501 19.179907 -0.890182 0.582542 0.011962 -0.015354 246232.000000 1 0 0
0.639638 -1.635819 14.445901 14.552288 -1.198055 0.120993 0.004631 -0.004186 -1502900.000000 1 0 0
-0.119762 -6.417519 15.455701 16.735518 1.552137 0.393620 0.012666 -0.009193 69738.000000 1 0 0
-1.527462 -4.613619 18.498301 19.126049 1.251078 0.256915 0.021206 -0.015221 -1520640.000000 1 0 0
-5.278762 12.866381 12.873101 18.950615 -1.181463 0.823992 0.016332 -0.009979 -163007.000000 1 0 0
-4.036962 8.854281 11.635901 15.168703 -1.143019 0.696489 -0.000186 0.003589 -388462.000000 1 0 0
-0.685062 -3.973819 14.907001 15.442772 1.400080 0.264184 0.007136 -0.005849 -202406.000000 1 0 0
-4.399862 9.267581 14.206501 17.523456 -1.127545 0.625427 -0.001881 -0.004294 476291.000000 1 0 0
-13.605062 -2.666919 16.807801 21.787894 0.193570 0.689713 0.055192 -0.003206 32999.800000 1 0 0
-0.367462 0.813681 17.357701 17.380647 -1.146609 0.051391 0.014432 -0.007360 -718308.000000 1 0 0
-3.299362 -7.246919 15.388401 17.326468 1.143562 0.477505 0.013378 -0.008439 281900.000000 1 0 0
-7.340762 5.418681 12.481101 15.460491 -0.635882 0.631251 -0.005751 -0.001986 -2101750.000000 1 0 0
-9.813062 9.981681 13.339501 19.335781 -0.793916 0.809464 0.024370 -0.017338 303218.000000 1 0 0
-5.576462 2.190381 11.083801 12.599418 -0.374276 0.495550 0.005585 -0.003682 -1913770.000000 1 0 0
-7.073862 -7.497019 16.903601 19.798397 0.814431 0.547581 0.019566 -0.008805 -356967.000000 1 0 0
-4.690862 3.163581 18.349101 19.201613 -0.593347 0.299100 0.017245 -0.010379 -1660260.000000 1 0 0
0.978038 -8.379719 16.514801 18.544942 -1.454607 0.472291 0.016947 -0.005658 618296.000000 1 0 0
-15.138362 -3.796219 13.862801 20.874830 0.245701 0.844518 0.071637 -0.014578 575873.000000 1 0 0
-14.361062 2.312981 13.032701 19.530522 -0.159688 0.840220 0.035260 -0.017183 -257786.000000 1 0 0
-5.549562 1.011381 15.950601 16.918694 -0.180267 0.339925 0.016373 -0.007660 294278.000000 1 0 0
4.540638 5.743781 15.030801 16.719252 0.901856 0.453289 0.011719 -0.002120 -224963.000000 1 0 0
-1.162062 -12.062319 13.744701 18.323938 1.474754 0.722590 0.005384 -0.008894 431210.000000 1 0 0
-5.858662 -4.015419 16.781801 18.222962 0.600847 0.400375 0.022663 -0.009904 170303.000000 1 0 0
-13.103262 -1.516519 9.828401 16.449704 0.115223 0.930439 0.027905 -0.003401 -446228.000000 1 0 0
-14.699862 10.297281 10.699701 20.895060 -0.611063 1.033205 0.026742 0.003859 302744.000000 1 0 0
-3.537762 -3.297119 17.727701 18.375476 0.750205 0.266313 0.020077 -0.010832 -996615.000000 1 0 0
-7.900662 9.294281 11.819801 16.985636 -0.866270 0.801165 -0.000007 -0.006856 -31821.500000 1 0 0
-4.231862 10.650281 16.356101 19.971459 -1.192579 0.611176 0.002372 -0.000773 -36368.900000 1 0 0
-12.642162 12.553081 8.391901 19.693352 -0.781863 1.130587 0.023068 -0.015816 68426.300000 1 0 0
-12.627162 3.176281 10.501201 16.727498 -0.246431 0.892098 0.021037 -0.010640 -65592.500000 1 0 0
-10.198762 -3.485119 13.699101 17.430610 0.329279 0.666610 0.024344 -0.004416 -1065480.000000 1 0 0
-4.164362 -6.460419 17.765601 19.357053 0.998229 0.408332 0.026739 -0.007678 -294346.000000 1 0 0
0.628538 -3.647619 17.549801 17.935877 -1.400158 0.207861 0.019696 -0.026555 -671091.000000 1 0 0
-6.025962 1.905581 13.580501 14.979101 -0.306278 0.435570 0.004947 -0.005028 -980665.000000 1 0 0
-10.540362 8.643981 10.270501 17.067537 -0.686868 0.925098 0.015799 -0.013635 -128931.000000 1 0 0
4.536138 2.380181 17.299601 18.042117 0.483224 0.287889 0.016081 -0.007301 -593317.000000 1 0 0
0.477138 -5.296019 13.088801 14.127709 -1.480945 0.385892 0.001467 -0.002612 -1417390.000000 1 0 0
-4.305362 5.696281 20.653201 21.852653 -0.923581 0.332860 0.062849 -0.006572 -73993.600000 1 0 0
-10.882962 10.758081 9.013201 17.759870 -0.779628 1.038511 0.015455 -0.015235 -116253.000000 1 0 0
0.651338 4.187081 13.010401 13.683070 1.416474 0.314862 0.008334 -0.004322 -2243530.000000 1 0 0
-3.237162 7.106981 13.344901 15.462043 -1.143386 0.529470 -0.001080 0.003810 -1327610.000000 1 0 0
0.699738 8.957981 14.120101 16.736556 1.492841 0.566717 0.003956 0.000377 17779.300000 1 0 0
-4.198062 -6.587719 13.094601 15.247634 1.003432 0.537882 0.011545 -0.003844 -567590.000000 1 0 0
-5.274562 8.232281 16.453301 19.139032 -1.000975 0.536168 0.018583 0.002055 483249.000000 1 0 0
1.779538 -10.645619 15.768901 19.109008 -1.405166 0.600226 0.010516 -0.005301 -636922.000000 1 0 0
-15.297262 -1.192419 14.301601 20.975316 0.077793 0.820535 0.053548 -0.008920 544301.000000 1 0 0
-13.544262 -5.326919 8.314501 16.761683 0.374715 1.051762 0.044482 -0.017667 -1031700.000000 1 0 0
-14.346062 -2.107719 12.038001 18.845834 0.145876 0.877908 0.050933 -0.010127 -80716.100000 1 0 0
9.419938 1.198481 16.812201 19.308591 0.126548 0.514150 0.043015 -0.010983 -463929.000000 1 0 0
4.966738 -6.627219 16.937001 18.853395 -0.927650 0.454791 0.020880 -0.011896 -76955.300000 1 0 0
-6.186462 -2.659619 11.008401 12.904680 0.406022 0.548984 0.009906 -0.004496 -34304.000000 1 0 0
0.464238 -6.286119 17.977801 19.050777 -1.497079 0.337220 0.023979 -0.015369 -105514.000000 1 0 0
-8.610762 11.849881 11.995601 18.933023 -0.942405 0.884623 0.017793 -0.018292 311870.000000 1 0 0
-6.628962 -5.775219 14.887701 17.289879 0.716679 0.533437 0.018720 -0.006750 -884886.000000 1 0 0
-4.370662 -8.899319 17.147801 19.807767 1.114275 0.524227 0.027206 -0.011430 113739.000000 1 0 0
2.477338 -6.122319 16.270201 17.559596 -1.186296 0.385607 0.016575 -0.013151 1290570.000000 1 0 0
2.243538 5.201481 15.986601 16.960550 1.163579 0.340537 0.014771 -0.006605 208405.000000 1 0 0
0.955738 -8.926719 13.956101 16.594351 -1.464138 0.571639 -0.000643 -0.004997 -214791.000000 1 0 0
-10.044662 -2.742619 11.270901 15.344393 0.266545 0.745824 0.008162 -0.002528 388686.000000 1 0 0
-1.208162 10.123881 12.394101 16.048874 -1.452020 0.688386 -0.000071 -0.000429 -312726.000000 1 0 0
-12.395562 -3.628319 11.325101 17.177676 0.284756 0.850920 0.032273 -0.005399 -2032660.000000 1 0 0
-2.018762 6.782381 20.093701 21.303354 -1.281499 0.338609 0.042580 0.000390 656839.000000 1 0 0
0.369138 -13.180919 15.607301 20.431855 -1.542798 0.701506 0.011990 -0.019046 -861356.000000 1 0 0
4.096938 -8.526919 15.317701 18.003477 -1.122894 0.553254 0.004054 -0.010539 -65844.400000 1 0 0
4.416538 -4.302819 16.105501 17.245498 -0.772357 0.365638 0.023770 -0.014852 -430044.000000 1 0 0
7.861538 1.824681 14.882201 16.929652 0.228064 0.496907 0.010005 0.000578 -113841.000000 1 0 0
-6.293962 -0.149319 11.882001 13.446866 0.023720 0.487245 0.010014 -0.007213 174937.000000 1 0 0
-3.508662 -10.996219 18.609301 21.898256 1.261929 0.555176 0.036524 -0.012957 13629.500000 1 0 0
3.189038 -1.447319 13.643601 14.085898 -0.426044 0.251260 0.005839 -0.003341 -93566.800000 1 0 0
-2.684162 8.614481 16.038201 18.402117 -1.268743 0.512460 0.007863 0.000262 -2019900.000000 1 0 0
-3.340262 3.897081 14.847101 15.709264 -0.862184 0.332842 0.005527 -0.005283 -1015460.000000 1 0 0
-4.696362 -8.974619 19.816901 22.255542 1.088688 0.472517 0.049991 -0.016192 -9197.650000 1 0 0
-5.699162 -2.809819 19.098401 20.127703 0.458051 0.321187 0.038028 -0.016173 -1206370.000000 1 0 0
-6.539262 -8.730219 11.024401 15.508581 0.927911 0.780079 0.021477 -0.013568 -698903.000000 1 0 0
-11.690362 2.411581 12.625401 17.374724 -0.203434 0.757358 0.030605 -0.020491 -431819.000000 1 0 0
-11.648362 -7.496019 11.516601 18.014070 0.571810 0.877194 0.052080 -0.017840 -650833.000000 1 0 0
-11.019862 -7.256519 15.667801 20.483515 0.582324 0.699913 0.049826 -0.024877 -441188.000000 1 0 0
0.170438 5.676081 17.660301 18.550827 1.540778 0.311107 0.018774 -0.002260 97657.800000 1 0 0
-2.273462 -0.150619 13.243201 13.437771 0.066154 0.170378 0.004295 -0.004346 -67799.200000 1 0 0
-6.114662 -10.463019 18.474501 22.094593 1.041921 0.580561 0.039931 -0.009582 39763.800000 1 0 0
0.254638 2.824281 19.039701 19.249717 1.480879 0.147851 0.023729 -0.012935 -595946.000000 1 0 0
-0.882362 10.869281 14.865401 18.436376 -1.489794 0.632913 0.006229 -0.001210 303684.000000 1 0 0
-12.920762 -2.371419 14.231901 19.367930 0.181515 0.745398 0.044372 -0.006778 -1106420.000000 1 0 0
-13.678462 8.308981 12.074301 20.048148 -0.545879 0.924461 0.027090 -0.006956 597960.000000 1 0 0
-18.091062 -0.796719 7.027801 19.424502 0.044011 1.200597 0.065489 -0.014508 438705.000000 1 0 0
-2.007862 -7.873119 17.709601 19.484544 1.321091 0.430146 0.023056 -0.008697 -1540580.000000 1 0 0
5.553038 2.828181 14.498801 15.781320 0.471063 0.405939 0.013650 -0.001940 -2386220.000000 1 0 0
-14.208762 -6.974419 11.050101 19.303786 0.456304 0.961328 0.069722 -0.015836 30209.200000 1 0 0
3.122138 7.622781 16.257701 18.225459 1.182059 0.468974 0.016859 -0.014532 -439675.000000 1 0 0
0.986338 2.128281 14.580301 14.767790 1.136819 0.159517 0.008981 -0.007640 -2931290.000000 1 0 0
-14.518962 0.728481 9.899801 17.587979 -0.050132 0.972939 0.029946 -0.006261 -2141400.000000 1 0 0
-9.570362 -5.166419 15.501101 18.935888 0.495006 0.611810 0.034022 -0.007790 -233750.000000 1 0 0
-2.697562 -0.051419 18.184701 18.383765 0.019059 0.147295 0.022428 -0.009819 324793.000000 1 0 0
6.811638 3.546381 17.369401 18.991348 0.480019 0.416290 0.033425 -0.014733 -437323.000000 1 0 0
-4.243462 -0.947719 14.689401 15.319387 0.219730 0.287779 0.013521 -0.004961 298903.000000 1 0 0
4.820038 -9.010919 17.807601 20.531441 -1.079612 0.520977 0.021009 -0.006773 -156679.000000 1 0 0
1.825638 6.874081 13.408501 15.178071 1.311206 0.487701 0.008188 -0.000798 -529681.000000 1 0 0
-3.834962 -0.665419 20.340201 20.709261 0.171803 0.189072 0.039202 -0.012908 -1168230.000000 1 0 0
-10.704062 1.461081 16.341301 19.589533 -0.135659 0.584142 0.035741 -0.009680 -153938.000000 1 0 0
-4.006362 7.044081 18.416701 20.120757 -1.053667 0.414523 0.023506 0.000058 -54966.300000 1 0 0
-12.723662 1.144681 14.662201 19.446902 -0.089723 0.716726 0.042810 -0.014450 -168616.000000 1 0 0
-16.079762 -4.974019 8.403601 18.812765 0.299998 1.107727 0.059714 -0.015321 -1959840.000000 1 0 0
-2.346162 0.747281 15.657801 15.850225 -0.308353 0.155979 0.012298 -0.007463 98779.100000 1 0 0
-13.538262 -8.970919 12.465701 20.473290 0.585206 0.916153 0.070945 -0.033454 588265.000000 1 0 0
6.107838 -3.055519 14.570201 16.091383 -0.463857 0.438320 0.019223 -0.011220 671553.000000 1 0 0
-15.799562 0.368681 7.660301 17.562525 -0.023331 1.119455 0.033407 -0.010334 425088.000000 1 0 0
-14.211662 5.734381 12.287601 19.642800 -0.383518 0.894957 0.042401 -0.024285 306959.000000 1 0 0
0.412438 9.435681 16.667601 19.157534 1.527114 0.515536 0.007682 -0.010167 -366687.000000 1 0 0
-10.392862 -5.435419 10.826501 15.961469 0.481874 0.825364 0.025617 -0.011249 351689.000000 1 0 0
-3.117362 -11.006819 15.150101 18.984034 1.294803 0.646754 0.014719 -0.011515 -1274180.000000 1 0 0
-3.562162 2.723781 12.592401 13.366994 -0.652807 0.342101 0.004426 -0.004997 -1913450.000000 1 0 0
-12.388462 -7.726519 7.459101 16.395465 0.557654 1.098481 0.041812 -0.013769 38091.500000 1 0 0
-8.291862 -1.906619 13.223701 15.724390 0.226010 0.571728 0.012322 -0.003923 -458885.000000 1 0 0
-9.892262 6.368281 9.626001 15.201044 -0.571979 0.885056 0.006508 -0.008052 -613493.000000 1 0 0
-17.976762 -3.726519 6.730001 19.553614 0.204401 1.219429 0.066719 -0.011569 350642.000000 1 0 0
-1.357962 0.032481 20.561901 20.606719 -0.023915 0.065966 0.027891 -0.006565 -824771.000000 1 0 0
-2.788862 2.614681 20.030101 20.391646 -0.753175 0.188588 0.038142 -0.013634 -363977.000000 1 0 0
-3.958462 11.306481 11.198101 16.398274 -1.234027 0.819095 0.006365 -0.008565 -584329.000000 1 0 0
-4.161062 -4.755319 14.888001 16.173437 0.851947 0.401382 0.013062 -0.007647 1640300.000000 1 0 0
-0.007162 -14.372819 13.294801 19.578807 1.570298 0.824342 0.008984 -0.018096 -395007.000000 1 0 0
-12.282562 0.513881 8.350601 14.861290 -0.041814 0.974112 0.010504 -0.000518 -340947.000000 1 0 0
-7.882862 2.118181 15.396401 17.426284 -0.262506 0.487480 0.012075 -0.006711 -1050700.000000 1 0 0
3.321538 -2.214519 18.549601 18.974309 -0.588036 0.211978 0.025887 -0.009574 -65137.100000 1 0 0
-2.224162 4.816481 12.577601 13.650693 -1.138188 0.399156 -0.003096 -0.001977 -343752.000000 1 0 0
-10.356762 -6.262719 13.298901 17.981794 0.543867 0.738356 0.030837 -0.012656 -217197.000000 1 0 0
2.274438 -3.690819 14.104001 14.755272 -1.018520 0.298217 0.003638 -0.007964 -521724.000000 1 0 0
6.813838 0.967181 17.165101 18.493364 0.141002 0.381315 0.023422 -0.001685 -489507.000000 1 0 0
-1.977562 -5.812219 13.688301 15.002074 1.242841 0.421620 0.003557 -0.003107 -1782450.000000 1 0 0
-12.751862 3.745181 14.492401 19.663826 -0.285664 0.742163 0.015584 -0.009312 -6629.570000 1 0 0
-13.305362 -6.487419 13.401501 19.967962 0.453662 0.835037 0.056207 -0.024999 -121478.000000 1 0 0
-9.581662 6.749681 12.079601 16.831019 -0.613698 0.770304 0.012604 -0.004240 -134818.000000 1 0 0
-1.141362 -2.484519 12.873601 13.160742 1.140161 0.209274 0.002633 0.000032 362960.000000 1 0 0
0.052138 6.680281 15.336201 16.728058 1.562992 0.410817 0.011402 -0.004093 437104.000000 1 0 0
-16.483462 -0.877619 9.862001 19.228463 0.053192 1.032254 0.057737 -0.011342 -234305.000000 1 0 0
-1.327962 2.731981 13.726101 14.058202 -1.118346 0.217793 0.004201 -0.005181 -2334520.000000 1 0 0
-11.217962 -3.342819 16.113601 19.916457 0.289610 0.628246 0.035676 -0.008312 16386.700000 1 0 0
-5.220162 -1.355119 17.032501 17.865960 0.253987 0.306653 0.027933 -0.004948 151503.000000 1 0 0
-11.972262 6.539481 11.232601 17.671197 -0.499936 0.881953 0.028187 -0.010520 -1438980.000000 1 0 0
-2.656462 4.739181 18.680101 19.454120 -1.059903 0.283032 0.024197 -0.004964 704148.000000 1 0 0
5.075638 -1.839219 16.584001 17.440582 -0.347645 0.314711 0.023605 -0.012893 -257785.000000 1 0 0
-8.077562 -4.077519 12.094501 15.104639 0.467477 0.642310 0.015374 -0.006229 -1967520.000000 1 0 0
-11.876062 -0.825019 16.112001 20.032925 0.069358 0.636340 0.055628 -0.006571 508028.000000 1 0 0
1.966838 2.038081 17.299501 17.529830 0.803185 0.162285 0.011615 -0.011797 -1417200.000000 1 0 0
-8.949962 -7.523719 11.500901 16.400576 0.699036 0.793647 0.027108 -0.016821 711640.000000 1 0 0
-7.327162 6.727781 14.729501 17.773816 -0.742778 0.593981 -0.001173 -0.001113 -528134.000000 1 0 0
-5.778562 3.526781 15.689901 17.088094 -0.547974 0.407341 0.003708 -0.002797 72812.700000 1 0 0
-9.381362 4.192181 11.536401 15.449041 -0.420242 0.727651 0.003075 -0.010485 -158203.000000 1 0 0
-10.382162 -0.044919 14.185701 17.579119 0.004327 0.631804 0.023497 -0.006951 16420.700000 1 0 0
8.050538 -0.687519 15.598001 17.566487 -0.085194 0.477948 0.025502 -0.011548 -42251.800000 1 0 0
-8.632462 -7.529519 14.767801 18.689596 0.717261 0.659724 0.035305 -0.010352 -1173340.000000 1 0 0
-0.097662 4.206281 15.571301 16.129716 -1.547582 0.263901 0.011034 -0.009916 10719.500000 1 0 0
-8.085662 3.056681 9.599201 12.917658 -0.361431 0.733095 -0.000256 -0.004729 -225434.000000 1 0 0
-2.105362 -9.695519 13.184801 16.500745 1.356968 0.645095 0.000788 -0.003298 493157.000000 1 0 0
-6.041862 10.224881 10.487201 15.844042 -1.037096 0.847443 0.011008 -0.008098 -3255700.000000 1 0 0
-8.667662 -2.769619 15.643101 18.097120 0.309281 0.526846 0.027039 -0.008772 5910.080000 1 0 0
4.163038 5.681081 17.709201 19.058367 0.938401 0.378530 0.013822 -0.009322 -9004.330000 1 0 0
-6.910962 -0.981119 15.186601 16.713971 0.141023 0.430836 0.018077 -0.003320 -1165010.000000 1 0 0
-0.715062 -10.079819 15.431601 18.445822 1.499975 0.579767 0.003605 -0.004994 -1219860.000000 1 0 0
-4.383862 5.757181 16.195801 17.738865 -0.920001 0.420188 0.007355 0.002012 218991.000000 1 0 0
3.625438 0.022981 17.519701 17.890898 0.006339 0.204059 0.013423 -0.007572 -280028.000000 1 0 0
1.209638 0.447181 19.330701 19.373672 0.354100 0.066616 0.015652 -0.003654 -693449.000000 1 0 0
-6.437362 6.281981 17.757501 19.905571 -0.773183 0.468853 0.012862 -0.001286 -287172.000000 1 0 0
-12.267762 0.579481 10.960801 16.461256 -0.047201 0.842158 0.023604 -0.007565 -470495.000000 1 0 0
-5.361862 5.098881 13.818101 15.674440 -0.760264 0.491621 -0.003043 -0.001641 -1643570.000000 1 0 0
-8.656262 -9.544619 9.908201 16.254324 0.834168 0.915274 0.030771 -0.014962 -1169750.000000 1 0 0
6.780438 -3.778619 17.057601 18.740705 -0.508417 0.427054 0.024706 -0.012272 -888701.000000 1 0 0
-16.928362 1.684781 9.618001 19.542617 -0.099198 1.056233 0.055177 -0.018999 -15763.400000 1 0 0
-4.101162 -9.628419 11.357101 15.443760 1.168127 0.744563 0.006278 -0.008193 -220177.000000 1 0 0
-11.134962 -3.866119 9.135501 14.912801 0.334183 0.911457 0.020873 -0.006535 -605329.000000 1 0 0
3.570938 -5.224419 18.489701 19.542650 -0.971224 0.329759 0.021046 -0.019248 -129229.000000 1 0 0
2.459538 -1.858919 16.150001 16.441637 -0.647203 0.188628 0.012165 -0.009548 -1078850.000000 1 0 0
-3.286262 -4.156219 20.332301 21.011333 0.901761 0.254924 0.027948 -0.011691 -752056.000000 1 0 0
-6.353362 -3.344919 14.429201 16.116933 0.484607 0.461732 0.016614 -0.003311 152077.000000 1 0 0
-9.522862 4.855681 13.917501 17.548771 -0.471534 0.654955 0.022301 -0.009407 56024.900000 1 0 0
-5.956462 -5.293119 11.683401 14.142079 0.726500 0.598566 0.009761 -0.001252 -833648.000000 1 0 0
6.062138 2.060081 19.392701 20.422299 0.327584 0.318888 0.036533 -0.014637 195342.000000 1 0 0
-2.833562 11.872081 13.480601 18.185213 -1.336505 0.735799 0.012128 -0.015734 -788449.000000 1 0 0
3.327438 1.368081 15.232801 15.651891 0.390083 0.231931 0.012812 -0.007260 -620184.000000 1 0 0
-5.729662 7.480581 12.858901 15.941752 -0.917173 0.632389 -0.009150 0.000007 -1456940.000000 1 0 0
-1.895862 -1.692119 15.215801 15.426540 0.728674 0.165482 0.009183 -0.005057 380022.000000 1 0 0
-7.344562 10.756081 13.970801 19.100239 -0.971688 0.750356 0.022513 -0.011979 95965.900000 1 0 0
-10.197062 1.994981 10.628101 14.863262 -0.193202 0.774089 0.008088 -0.005340 -1764860.000000 1 0 0
-13.674462 5.252581 9.103801 17.247020 -0.366739 1.014732 0.016802 -0.015479 327327.000000 1 0 0
0.601738 -4.628219 19.943301 20.482132 -1.441507 0.229885 0.036574 -0.024589 -221086.000000 1 0 0
-14.415362 -3.111019 7.454501 16.524245 0.212553 1.102771 0.031285 -0.010403 417142.000000 1 0 0
-2.317962 2.507981 17.418601 17.750227 -0.824752 0.193605 0.014908 -0.012464 -368034.000000 1 0 0
-6.268962 -8.396419 14.574801 17.950614 0.929460 0.623330 0.014094 -0.007647 -219500.000000 1 0 0
-8.037362 1.889981 11.930201 14.508649 -0.230954 0.605387 0.003018 -0.008081 41589.500000 1 0 0
-14.525262 -3.723719 10.008401 18.028239 0.250957 0.982251 0.034931 -0.008189 -9653.450000 1 0 0
-0.678062 6.933481 12.863901 14.629179 -1.473311 0.496339 0.003923 -0.002645 -998808.000000 1 0 0
-1.913662 -2.160719 19.424401 19.637672 0.845961 0.147513 0.022477 -0.009443 -85080.300000 1 0 0
-12.813662 10.177681 7.385901 17.953458 -0.671246 1.146816 0.010100 -0.016088 -508083.000000 1 0 0
-19.703062 2.167881 6.897401 20.987723 -0.109587 1.235933 0.077081 -0.015546 1066220.000000 1 0 0
-16.090762 8.293281 7.017601 19.414888 -0.475897 1.200969 0.026260 -0.003983 406688.000000 1 0 0
-12.372962 6.805381 13.812201 19.752982 -0.502859 0.796454 0.033409 -0.012438 37862.300000 1 0 0
-15.945762 8.058181 10.798501 20.876045 -0.467918 1.027141 0.032875 -0.011537 -1097570.000000 1 0 0
1.772938 10.961881 15.069101 18.718545 1.410448 0.635060 0.016141 -0.015261 -1623410.000000 1 0 0
2.107938 14.534681 12.320401 19.170097 1.426772 0.872794 0.012316 -0.014253 -755401.000000 1 0 0
-3.113462 13.621581 11.742801 18.251972 -1.346088 0.871902 -0.004873 -0.014252 16080.900000 1 0 0
9.207338 4.867781 15.760801 18.891088 0.486331 0.583938 0.027514 -0.000187 275063.000000 1 0 0
-0.321362 12.549581 12.972001 18.051816 -1.545195 0.769012 0.001691 -0.009427 -57229.000000 1 0 0
3.151438 13.562981 14.488501 20.094842 1.342492 0.765543 0.013396 -0.013597 39363.000000 1 0 0
-2.890962 -4.150819 -13.731799 14.633840 0.962437 2.788649 0.005265 -0.009019 -160173.000000 1 0 0
6.073438 -11.285919 16.248001 20.694350 -1.077102 0.667871 0.012931 -0.008451 -48946.500000 1 0 0
7.661438 -13.429019 7.349301 17.118656 -1.052340 1.127062 -0.007681 -0.008290 -379502.000000 1 0 0
-0.177662 15.577481 1.382101 15.639683 -1.559392 1.482310 0.006255 -0.003690 -2119860.000000 1 0 0
-13.744262 8.295381 9.418301 18.612428 -0.543027 1.040230 0.015696 -0.000292 69116.100000 1 0 0
-15.454062 -9.633319 5.106801 18.913178 0.557413 1.297390 0.044811 -0.013739 -988030.000000 1 0 0
9.438738 -11.077719 11.053201 18.275089 -0.865115 0.921252 0.015218 -0.007858 272702.000000 1 0 0
-5.635062 -10.810519 -16.542499 20.549344 1.090288 2.506495 0.037152 -0.019131 39835.700000 1 0 0
-1.561862 -12.830519 -14.610499 19.507135 1.449662 2.417321 0.015528 0.000173 -289160.000000 1 0 0
5.381938 -15.740019 -12.761399 20.965847 -1.241331 2.225187 0.014889 0.001557 262040.000000 1 0 0
2.573638 -11.788419 -16.653899 20.565573 -1.355850 2.514599 0.003019 0.004238 266710.000000 1 0 0
0.981838 -13.851119 -14.906399 20.371996 -1.500030 2.391624 0.030404 0.012032 217108.000000 1 0 0
-6.364162 -6.267119 -14.498999 17.029396 0.777716 2.589464 0.010782 -0.004750 -47948.100000 1 0 0
-6.212962 -8.180519 -17.210699 20.043202 0.921254 2.603485 0.020580 -0.010257 58573.400000 1 0 0
-2.105662 -16.380019 -13.279199 21.191413 1.442947 2.248019 0.018097 -0.002240 277312.000000 1 0 0
16.380038 -7.975619 -8.699399 20.188999 -0.453122 2.016284 0.080152 -0.027538 54696.300000 1 0 0
19.246238 -2.806919 -3.969899 19.850858 -0.144821 1.772140 0.081485 -0.028043 168693.000000 1 0 0
15.175738 -12.360919 -8.367499 21.286389 -0.683531 1.974788 0.033389 -0.007291 -32855.700000 1 0 0
18.755938 -3.846919 -7.070899 20.410331 -0.202298 1.924567 0.193658 -0.020905 -364179.000000 1 0 0
9.343838 -10.064519 -15.999899 21.085507 -0.822514 2.432281 0.072653 0.005146 88292.200000 1 0 0
-4.654762 9.514181 -16.211799 19.365146 -1.115790 2.562873 0.007152 -0.002678 465063.000000 1 0 0
2.752838 -9.580019 -18.055399 20.624071 -1.290983 2.637168 0.024355 -0.009613 333725.000000 1 0 0
11.234038 7.760381 -14.717299 20.075508 0.604519 2.393661 0.076133 -0.045251 404351.000000 1 0 0
18.540938 -6.285919 -8.917299 21.512726 -0.326868 1.998204 0.079920 -0.021750 26072.900000 1 0 0
12.448338 5.341481 -13.957799 19.450262 0.405331 2.371168 0.033964 -0.004018 119591.000000 1 0 0
16.021038 5.946481 -10.782899 20.206563 0.355406 2.133687 0.033792 -0.018084 282663.000000 1 0 0
3.481138 -0.203719 -19.071299 19.387477 -0.058454 2.960745 0.034341 -0.011941 155306.000000 1 0 0
10.329438 -1.945919 -14.852699 18.195784 -0.186203 2.525723 0.027815 -0.003666 293534.000000 1 0 0
12.123338 -5.884419 -13.660199 19.188610 -0.451883 2.362984 0.036832 -0.008485 450984.000000 1 0 0
10.061238 6.641881 -12.813299 17.593287 0.583474 2.386643 0.028695 -0.007357 374885.000000 1 0 0
10.708938 4.972481 -16.388099 20.198434 0.434707 2.517263 0.055980 -0.017474 306292.000000 1 0 0
11.944438 -10.339819 -14.883399 21.704770 -0.713515 2.326389 0.085941 -0.012187 337026.000000 1 0 0
-1.566862 2.029481 -17.122899 17.313796 -0.913332 2.992959 0.009371 -0.008619 324495.000000 1 0 0
6.640738 -0.961219 -17.476599 18.720440 -0.143747 2.775008 0.024573 0.011268 35806.300000 1 0 0
6.900038 -5.878519 -15.524499 17.977141 -0.705628 2.613102 0.011428 -0.010591 285415.000000 1 0 0
-2.297062 -4.440419 -20.307799 20.914123 1.093399 2.900212 0.017609 -0.022361 170683.000000 1 0 0
16.126138 -0.184919 -13.252199 20.873603 -0.011467 2.258647 0.047950 -0.015556 28987.900000 1 0 0
-3.757262 -0.496319 -18.470199 18.855016 0.131335 2.939212 0.003105 -0.007320 109544.000000 1 0 0
3.920638 9.046981 -17.502299 20.088548 1.161863 2.628555 0.033212 -0.022105 239893.000000 1 0 0
9.880638 0.021781 -16.917299 19.591388 0.002204 2.612979 0.042508 -0.020929 -40978.400000 1 0 0
4.212138 4.516881 -18.376899 19.386974 0.820296 2.817372 0.027115 0.001710 464541.000000 1 0 0
-2.103762 -11.220919 -17.999299 21.314540 1.385462 2.576355 0.017122 -0.013328 230056.000000 1 0 0
6.513438 -9.311319 -16.433199 19.979379 -0.960394 2.536603 0.040783 -0.006116 253446.000000 1 0 0
10.189138 -12.374019 -10.771899 19.312397 -0.881931 2.162494 0.026255 -0.003848 220366.000000 1 0 0
6.237038 6.503781 -16.891699 19.144955 0.806331 2.651535 0.038296 -0.021980 255597.000000 1 0 0
8.642438 1.376381 -19.982999 21.815280 0.157932 2.728813 0.060421 -0.018049 69081.700000 1 0 0
-0.876062 -0.841819 -20.283299 20.319655 0.765467 3.081764 0.027001 -0.011425 174026.000000 1 0 0
-0.685162 6.487181 -19.612799 20.669177 -1.465569 2.820500 0.030633 -0.007313 138128.000000 1 0 0
8.678038 5.731981 -18.195399 20.957970 0.583732 2.622330 0.058599 -0.018848 -249011.000000 1 0 0
11.716338 0.109081 -12.682699 17.266596 0.009310 2.395759 -0.009856 -0.008888 -218894.000000 1 0 0
-4.281862 -2.584419 -19.938899 20.556587 0.543043 2.895829 0.001847 -0.006048 397597.000000 1 0 0
5.782438 -11.259319 -14.570899 19.300776 -1.096352 2.426357 0.011857 -0.001576 64175.600000 1 0 0
11.838238 2.852581 -15.773299 19.926818 0.236456 2.484156 0.060197 -0.004197 -41114.200000 1 0 0
-2.911062 -4.277919 -17.021399 17.790529 0.973288 2.846473 0.005993 -0.011165 403081.000000 1 0 0
-6.729962 -4.771319 -17.341899 19.204149 0.616719 2.697565 0.022128 -0.013548 -37147.000000 1 0 0
2.922338 10.363881 -15.301699 18.710748 1.295959 2.528379 0.011385 -0.014157 188059.000000 1 0 0
16.907438 -6.154619 -10.870999 21.021879 -0.349108 2.114288 0.082647 -0.023386 -51699.400000 1 0 0
9.465738 -3.589319 -17.892499 20.557844 -0.362440 2.626707 0.019995 -0.011671 3487.750000 1 0 0
-7.215962 -1.403919 -18.591399 19.992029 0.192157 2.765048 0.010963 -0.002645 618172.000000 1 0 0
1.915038 -7.602119 -19.250199 20.785326 -1.324022 2.754853 0.033737 -0.020828 183636.000000 1 0 0
5.566738 10.391481 -13.994699 18.298171 1.078997 2.441549 0.042751 -0.019321 312827.000000 1 0 0
6.069538 -3.293919 -18.104599 19.376938 -0.497219 2.777192 0.033182 -0.017663 494356.000000 1 0 0
4.407038 13.366281 -14.584399 20.267811 1.252308 2.374000 0.044322 -0.023602 184886.000000 1 0 0
10.160238 10.965881 -15.602699 21.608452 0.823515 2.377578 0.114359 -0.026342 97311.500000 1 0 0
17.112538 0.916481 -11.472799 20.622900 0.053505 2.160739 0.063475 -0.010544 100450.000000 1 0 0
14.775338 -3.247119 -12.141199 19.397503 -0.216327 2.247101 0.049797 -0.011797 40906.500000 1 0 0
-8.698662 0.240281 -17.302099 19.367166 -0.027616 2.675593 0.022486 -0.011987 443194.000000 1 0 0
-3.223362 4.461881 -19.028799 19.808929 -0.945180 2.860012 0.026689 -0.001260 141504.000000 1 0 0
3.914738 1.891581 -16.700099 17.256783 0.450113 2.886901 0.012133 -0.008144 421217.000000 1 0 0
-5.064862 14.436881 -13.970699 20.718514 -1.233384 2.310826 0.021081 -0.007264 344754.000000 1 0 0
1.177438 9.217681 -17.634499 19.933077 1.443747 2.656615 0.019198 -0.008786 399414.000000 1 0 0
1.030538 -5.079119 -20.055799 20.714597 -1.370617 2.888715 0.026257 -0.004270 478611.000000 1 0 0
3.509638 -6.061719 -18.360499 19.651207 -1.045973 2.777141 0.029494 -0.014596 -482993.000000 1 0 0
-7.352762 7.276081 -15.541199 18.669048 -0.780156 2.554326 0.020886 -0.006701 204480.000000 1 0 0
-11.781962 3.115981 -16.779499 20.738264 -0.258551 2.513429 0.063100 -0.023325 352946.000000 1 0 0
-4.172062 6.891781 -17.373599 19.150580 -1.026439 2.707400 0.010975 0.013543 517057.000000 1 0 0
-8.012562 5.244281 -17.676699 20.103963 -0.579537 2.645112 0.018436 -0.005324 316005.000000 1 0 0
-8.173862 3.873081 -14.970899 17.491158 -0.442499 2.598109 -0.007193 -0.015667 246965.000000 1 0 0
9.422738 14.106581 -12.243199 20.920792 0.981894 2.195944 0.084996 -0.037878 412177.000000 1 0 0
14.505238 9.940781 -11.981099 21.278341 0.600808 2.168887 0.091096 -0.013412 143695.000000 1 0 0
8.799038 15.531781 -9.840899 20.383881 1.055360 2.074621 0.046692 -0.024067 -34892.100000 1 0 0
7.967438 13.950981 -14.378199 21.560208 1.051896 2.300818 0.085092 -0.034103 233904.000000 1 0 0
4.477338 15.420581 -13.332699 20.871075 1.288218 2.263750 0.033075 -0.017486 151763.000000 1 0 0
11.440438 11.065181 -10.707499 19.182607 0.768726 2.162997 0.081929 -0.042910 276915.000000 1 0 0
15.950838 10.875381 -9.241499 21.403468 0.598411 2.017257 0.077351 -0.029628 156643.000000 1 0 0
13.674238 11.328681 -8.949399 19.885058 0.691861 2.037625 0.100022 -0.019389 3180.980000 1 0 0
11.173738 11.505281 -7.708499 17.794518 0.800016 2.018831 0.052972 -0.009790 260966.000000 1 0 0
5.893738 16.979281 -10.220999 20.676096 1.236695 2.087871 0.044781 -0.011254 -59203.500000 1 0 0
11.390538 13.584181 -10.430499 20.568657 0.873008 2.102621 0.092920 -0.044467 47125.500000 1 0 0
8.496938 -19.426319 -2.085399 21.305603 -1.158476 1.668834 0.043560 -0.007388 131570.000000 1 0 0
7.801438 -16.736319 -4.318299 18.963505 -1.134603 1.800528 0.030337 -0.013197 65477.600000 1 0 0
4.098638 -18.609519 4.859201 19.665321 -1.354013 1.321115 0.038652 -0.027751 69948.100000 1 0 0
10.427238 -17.665519 -2.280099 20.639687 -1.037570 1.681494 0.035769 -0.019730 597305.000000 1 0 0
-3.212162 -14.817919 8.005101 17.145563 1.357324 1.085025 0.021240 -0.030659 107573.000000 1 0 0
-15.149862 -12.768619 -4.345099 20.283881 0.700311 1.786684 0.015157 -0.002560 86944.900000 1 0 0
-9.810362 -12.829619 -6.815399 17.529746 0.917975 1.970115 0.034795 -0.009126 234775.000000 1 0 0
-11.514062 -14.980019 6.756301 20.065448 0.915479 1.227372 0.051853 -0.010971 249502.000000 1 0 0
-14.838162 -7.062019 -7.255399 17.963407 0.444212 1.986571 0.051819 -0.029359 -213332.000000 1 0 0
4.679438 -15.147519 6.265201 17.046912 -1.271172 1.194448 0.023595 -0.019125 245729.000000 1 0 0
2.791738 -14.090219 8.874901 16.884665 -1.375197 1.017354 0.014163 -0.012333 377715.000000 1 0 0
3.313338 -17.140019 10.626601 20.437297 -1.379842 1.023991 0.046185 -0.020618 214493.000000 1 0 0
-7.540962 -17.485119 -5.188399 19.736134 1.163619 1.836811 -0.004298 -0.014273 -37900.200000 1 0 0
2.577838 -19.885619 -4.326899 20.513536 -1.441882 1.783322 0.038671 -0.007107 -40087.600000 1 0 0
-18.563762 -10.155319 -1.896099 21.244740 0.500576 1.660166 0.049583 -0.020001 -98885.400000 1 0 0
-4.232362 -14.677019 2.905401 15.548927 1.290046 1.382836 0.007452 -0.004138 67795.500000 1 0 0
-10.525562 -9.728019 -14.702599 20.532614 0.746041 2.368939 0.037068 -0.008323 60333.800000 1 0 0
1.434038 -20.384219 2.542601 20.592175 -1.500562 1.447006 0.035461 -0.008539 220566.000000 1 0 0
5.596238 -18.772919 0.476101 19.595077 -1.281082 1.546497 0.011886 0.005726 129621.000000 1 0 0
-7.256062 -18.994319 -3.386599 20.613191 1.205892 1.735837 0.010779 -0.024250 140615.000000 1 0 0
-9.155362 -15.898319 -7.749899 19.915776 1.048309 1.970487 0.041127 -0.005073 20752.800000 1 0 0
-11.674262 -11.273619 -12.575099 20.530855 0.767941 2.230013 0.030091 0.005902 405531.000000 1 0 0
-13.143362 -15.345619 -3.305799 20.473502 0.862547 1.732974 0.024538 -0.001841 235124.000000 1 0 0
-0.007762 -20.405419 -2.796099 20.596100 1.570416 1.706976 0.049280 -0.011988 368663.000000 1 0 0
-11.918962 -16.697419 -1.141399 20.546733 0.950855 1.626376 0.041072 -0.010970 132031.000000 1 0 0
0.844738 -20.173619 5.001301 20.801478 -1.528947 1.327987 0.038216 -0.014519 345729.000000 1 0 0
-18.151462 -8.643219 2.511401 20.260502 0.444404 1.446521 0.059862 -0.010387 -409437.000000 1 0 0
-14.791562 -14.876819 -0.159299 20.979405 0.788272 1.578390 0.041631 -0.015579 4073.290000 1 0 0
9.868938 -15.874719 -4.900799 19.324090 -1.014591 1.827208 0.015265 -0.002004 -67077.300000 1 0 0
-0.246062 -19.219219 -7.052099 20.473667 1.557994 1.922446 0.030438 -0.008040 146505.000000 1 0 0
-10.023162 -18.129619 -2.916499 20.920154 1.065759 1.710663 0.033824 0.023638 413373.000000 1 0 0
-14.668162 -6.843019 -11.416199 19.806855 0.436508 2.185084 0.047105 -0.013325 21876.100000 1 0 0
-12.467962 -15.307519 1.825601 19.826826 0.887277 1.478588 0.049979 -0.010166 302593.000000 1 0 0
-2.623962 -16.113719 10.014901 19.152946 1.409373 1.020557 0.011880 -0.020932 365722.000000 1 0 0
-12.610562 -14.390119 -6.426099 20.184067 0.851211 1.894811 0.046656 -0.006939 331874.000000 1 0 0
5.422938 -17.156819 -7.443099 19.472145 -1.264653 1.963019 0.020362 -0.012978 152140.000000 1 0 0
-17.236662 -7.443619 -3.118599 19.032489 0.407657 1.735395 -0.020399 -0.014217 -109216.000000 1 0 0
-12.247362 -13.401719 -9.014699 20.269898 0.830374 2.031673 0.067767 -0.029334 155538.000000 1 0 0
-7.769262 -13.759919 9.993601 18.696761 1.056790 1.006869 0.034244 -0.015179 538234.000000 1 0 0
-15.967162 -8.504919 -5.430699 18.888526 0.489426 1.862426 0.038957 -0.002183 138439.000000 1 0 0
-0.736662 -19.422219 0.259601 19.437918 1.532886 1.557441 0.021475 -0.016523 171065.000000 1 0 0
-15.267862 -11.568819 -1.776699 19.238031 0.648426 1.663282 0.017350 0.006328 247162.000000 1 0 0
-6.907862 -18.609719 1.107301 19.881306 1.215364 1.515072 0.026939 -0.015487 105793.000000 1 0 0
-2.114862 -20.640819 -5.271599 21.408078 1.468692 1.819599 0.034167 -0.012450 124927.000000 1 0 0
-9.037762 -19.350219 -0.523099 21.363187 1.133844 1.595285 0.039055 -0.025300 177364.000000 1 0 0
-17.719062 -7.563919 5.012101 19.907265 0.403462 1.316285 0.064971 -0.016807 -29053.500000 1 0 0
-3.167062 -15.917819 -11.101699 19.663544 1.374398 2.170724 0.019775 0.002588 123731.000000 1 0 0
-3.354962 -18.066119 -9.019799 20.469421 1.387183 2.027116 0.015499 -0.006565 63195.100000 1 0 0
4.356438 -18.190419 -5.637299 19.535840 -1.335733 1.863521 0.014443 0.022103 535408.000000 1 0 0
0.669638 -17.418319 -9.252499 19.734614 -1.532371 2.058780 0.015698 -0.004294 184948.000000 1 0 0
-7.791262 -10.124919 -14.389899 19.242842 0.914923 2.415547 0.032929 -0.022685 -334605.000000 1 0 0
-5.060362 -19.503119 -1.884099 20.236816 1.316930 1.664034 0.026974 -0.014405 436906.000000 1 0 0
-10.168762 -15.652619 8.698101 20.592842 0.994665 1.134722 0.040529 -0.021016 90426.000000 1 0 0
-6.959662 -15.257219 -10.390699 19.727804 1.142835 2.125514 0.013446 -0.012791 367258.000000 1 0 0
-12.550762 -8.226719 -12.408099 19.472069 0.580215 2.261689 0.034723 -0.011353 189417.000000 1 0 0
-15.736462 -12.962919 3.482401 20.683342 0.689056 1.401623 0.059139 -0.003921 70083.400000 1 0 0
-6.233362 -14.145719 -12.814499 20.079033 1.155742 2.262958 0.014552 -0.004827 498979.000000 1 0 0
-13.668962 -11.309819 -6.835899 19.012681 0.691232 1.938576 0.025828 -0.014055 228757.000000 1 0 0
-11.146962 -10.235619 -8.643599 17.427980 0.742803 2.089738 0.008918 -0.007360 249464.000000 1 0 0
-9.788962 -14.647119 3.595101 17.980173 0.981650 1.369491 0.011927 -0.008721 539122.000000 1 0 0
4.832038 -18.000319 8.368701 20.430252 -1.308537 1.148756 0.049740 -0.024550 293077.000000 1 0 0
-4.913762 -16.606719 5.291501 18.108786 1.283114 1.274263 0.012556 0.002719 376664.000000 1 0 0
-17.797162 -7.534519 -6.498599 20.389697 0.400477 1.895175 0.019330 -0.027311 43996.800000 1 0 0
-17.009662 -4.814019 -10.803899 20.717810 0.275804 2.119380 0.063536 -0.006374 -404257.000000 1 0 0
-15.806562 -4.189619 -13.042699 20.916795 0.259098 2.244074 0.056704 -0.019822 293171.000000 1 0 0
-19.496962 -5.668719 -5.923999 21.150879 0.282948 1.854677 0.063445 -0.015619 167799.000000 1 0 0
5.650438 -13.621019 8.867101 17.207123 -1.177569 1.029420 0.024158 -0.005662 260922.000000 1 0 0
19.910938 -3.592919 2.700601 20.411951 -0.178528 1.438102 0.071534 -0.013930 -5059.220000 1 0 0
18.215838 -2.564019 -0.087099 18.395611 -0.139839 1.575531 0.047919 -0.011855 235271.000000 1 0 0
14.178638 -11.303219 0.326101 18.135679 -0.673032 1.552814 0.027976 0.001010 100735.000000 1 0 0
11.283438 -13.780319 5.204801 18.555406 -0.884692 1.286481 0.017472 0.001756 453232.000000 1 0 0
10.288838 -12.662119 8.097901 18.214429 -0.888439 1.110083 0.022772 -0.030524 -45726.400000 1 0 0
17.802038 5.319281 -4.850499 19.202464 0.290357 1.826160 0.020594 0.008109 -2946.500000 1 0 0
18.554938 -6.330019 -4.552499 20.126602 -0.328769 1.798964 0.055499 -0.029213 -131200.000000 1 0 0
17.735138 -10.024119 -0.438999 20.376722 -0.514447 1.592342 0.062221 -0.012320 203174.000000 1 0 0
17.434338 -8.919019 8.400601 21.309038 -0.472867 1.165570 0.081109 -0.015162 -81978.100000 1 0 0
19.584538 0.419981 -2.630999 19.764935 0.021441 1.704307 0.049844 -0.002728 42398.300000 1 0 0
7.498738 -13.006419 11.777701 19.081725 -1.047804 0.905587 0.010187 -0.004503 241023.000000 1 0 0
15.955338 -6.261619 -3.454199 17.484626 -0.373978 1.769661 0.035203 -0.012088 267890.000000 1 0 0
14.301438 -6.734119 12.085701 19.898332 -0.440073 0.918047 0.060345 -0.030323 369870.000000 1 0 0
17.095838 2.019381 9.173201 19.506234 0.117576 1.081199 0.120233 -0.028131 262007.000000 1 0 0
16.384738 -10.051019 2.519701 19.386374 -0.550242 1.440455 0.003521 -0.009957 320060.000000 1 0 0
15.890838 -7.034719 -5.872899 18.343853 -0.416759 1.896691 0.051095 -0.019153 324459.000000 1 0 0
19.208738 -4.720319 4.833201 20.362142 -0.240963 1.331147 0.213349 -0.030153 -327428.000000 1 0 0
13.257738 -13.084019 8.202001 20.352689 -0.778803 1.156011 0.025370 -0.007997 169067.000000 1 0 0
15.231938 -14.144919 -1.481799 20.839539 -0.748412 1.641962 0.042230 -0.007098 129182.000000 1 0 0
18.774538 -6.202919 7.401401 21.112560 -0.319099 1.212618 0.107453 -0.024167 409365.000000 1 0 0
19.584738 3.807681 2.382901 20.093248 0.192025 1.451924 0.058978 0.006839 197990.000000 1 0 0
15.790038 -10.287419 8.012201 20.478077 -0.577438 1.168799 0.053129 -0.028404 -30380.900000 1 0 0
14.191338 -4.359719 10.753701 18.331484 -0.298058 0.943912 0.049824 -0.013229 -42264.900000 1 0 0
18.855238 -7.754419 1.902301 20.476077 -0.390176 1.477759 0.089969 -0.017101 35003.700000 1 0 0
18.494438 -4.840219 -2.050399 19.226962 -0.255971 1.677641 0.036493 -0.021707 263499.000000 1 0 0
14.320838 -13.885619 -6.043099 20.842645 -0.769970 1.864960 0.066764 -0.021304 493144.000000 1 0 0
13.870138 -9.583019 10.165101 19.686143 -0.604599 1.028203 0.046884 -0.022083 562661.000000 1 0 0
14.228638 2.193081 0.511701 14.405748 0.152928 1.535268 0.001032 0.001005 -201762.000000 1 0 0
12.805338 2.885481 13.955101 19.158484 0.221633 0.754808 0.015397 -0.007539 97612.100000 1 0 0
18.262138 -3.550419 8.979301 20.657662 -0.192019 1.121123 0.087241 -0.021562 146298.000000 1 0 0
6.914638 -17.875819 4.726201 19.740671 -1.201708 1.329034 0.029521 -0.033389 441633.000000 1 0 0
12.944338 -3.058419 14.980401 20.033028 -0.232020 0.726076 0.047331 -0.000269 433929.000000 1 0 0
11.080238 -13.462319 -7.018799 18.795458 -0.882154 1.953501 0.015632 -0.023592 57992.600000 1 0 0
10.858038 -17.198319 4.433101 20.816617 -1.007649 1.356193 0.041320 -0.020151 503105.000000 1 0 0
18.405038 -0.292419 -5.086499 19.097209 -0.015887 1.840398 0.080639 -0.020762 319912.000000 1 0 0
4.268338 -13.413019 11.623901 18.254940 -1.262706 0.880516 0.003095 -0.011836 19163.600000 1 0 0
9.483638 -2.553119 14.658001 17.644115 -0.262978 0.590327 0.038268 -0.004192 433026.000000 1 0 0
8.863038 -9.391219 13.686901 18.817005 -0.814325 0.756317 0.019002 -0.022115 552548.000000 1 0 0
21.044838 5.361281 -3.234199 21.956516 0.249449 1.718634 0.085220 -0.002948 527808.000000 1 0 0
14.817638 -13.235519 1.747701 19.944819 -0.729061 1.483057 0.027082 -0.005548 161881.000000 1 0 0
11.511738 0.181981 14.183801 18.268372 0.015807 0.681842 0.050202 -0.024233 74217.800000 1 0 0
19.731838 0.063681 7.647301 21.162010 0.003227 1.201060 0.132551 -0.018425 257812.000000 1 0 0
20.017838 1.153781 0.061701 20.051156 0.057574 1.567719 0.072960 -0.004174 -71547.900000 1 0 0
17.924038 0.614981 2.925701 18.171655 0.034297 1.409089 0.044840 -0.000319 13488.600000 1 0 0
10.418238 -8.493519 16.283101 21.114424 -0.683974 0.690098 0.050456 -0.010010 151672.000000 1 0 0
18.831638 3.112781 5.483601 19.859251 0.163814 1.291038 0.051386 -0.000703 71109.400000 1 0 0
14.836238 2.579681 7.064101 16.633407 0.172156 1.132173 0.040493 -0.007047 94890.300000 1 0 0
11.603538 -16.021919 1.908901 19.874302 -0.943994 1.474599 0.017301 0.000871 228301.000000 1 0 0
8.344838 -16.658719 6.947001 19.884920 -1.106406 1.213908 0.015361 0.002056 476289.000000 1 0 0
6.230338 6.754981 7.201701 11.675246 0.825779 0.906081 0.002960 0.000098 -965592.000000 1 0 0
18.512538 2.484881 -6.518899 19.783446 0.133429 1.906584 0.051225 -0.007552 345904.000000 1 0 0
13.996938 4.403481 -7.269599 16.375347 0.304800 2.030782 0.020387 -0.005746 256275.000000 1 0 0
-10.350562 -3.941419 -13.907499 17.778849 0.363840 2.469065 0.007269 -0.006408 -195867.000000 1 0 0
7.840738 -14.247519 -10.586799 19.404878 -1.067705 2.147870 0.005862 0.002011 -24046.700000 1 0 0
2.176038 -15.574819 14.045301 21.085080 -1.431980 0.841795 0.023943 -0.017438 376143.000000 1 0 0
-9.447062 -7.827219 2.142401 12.454004 0.691900 1.397911 0.011628 0.000617 177736.000000 1 0 0
-13.723962 3.122681 -9.570899 17.020587 -0.223726 2.167977 0.013551 -0.003923 302648.000000 1 0 0
-12.880162 -4.879119 -13.630699 19.377831 0.362106 2.350990 0.026235 0.000670 182032.000000 1 0 0
-18.048962 -1.315919 -8.823999 20.133545 0.072780 2.024473 0.064227 -0.024418 473225.000000 1 0 0
-12.537562 14.451281 5.162201 19.816112 -0.856187 1.307251 0.042922 -0.030901 414408.000000 1 0 0
-17.308762 6.242281 9.292801 20.613478 -0.346125 1.103122 0.030416 -0.022031 233260.000000 1 0 0
-13.607062 15.417881 0.252301 20.565186 -0.847706 1.558528 0.058196 -0.026841 110033.000000 1 0 0
-16.024662 5.337281 -10.566799 19.923193 -0.321511 2.129841 0.038889 -0.004867 9064.930000 1 0 0
-18.385162 2.972781 0.005501 18.623954 -0.160307 1.570501 0.059514 -0.003502 19802.700000 1 0 0
-9.898362 15.532081 -0.136199 18.418514 -1.003412 1.578191 0.025875 -0.011278 18537.400000 1 0 0
-18.897862 11.890781 2.768101 22.498495 -0.561623 1.447449 0.131877 -0.032114 -378292.000000 1 0 0
-8.532062 16.481881 -7.670499 20.081959 -1.093118 1.962712 0.054007 -0.022424 -15460.700000 1 0 0
-14.726262 -1.807719 -13.100799 19.792968 0.122144 2.294136 0.029720 -0.018927 155323.000000 1 0 0
-19.095862 4.800181 -4.759799 20.257082 -0.246270 1.807984 0.066957 -0.001893 -117563.000000 1 0 0
-16.484662 9.858481 -5.496299 19.978565 -0.538977 1.849500 0.029182 0.017604 -1721.710000 1 0 0
-18.910262 1.475281 2.953401 19.196277 -0.077857 1.416330 0.052144 -0.021248 462625.000000 1 0 0
-13.875062 11.536781 -6.915799 19.324672 -0.693641 1.936787 0.025940 -0.015240 244726.000000 1 0 0
-13.917662 4.562781 -12.575199 19.304298 -0.316799 2.280250 0.081175 -0.028607 127833.000000 1 0 0
-14.139362 9.188881 -6.675199 18.136025 -0.576290 1.947721 0.010522 -0.005171 374571.000000 1 0 0
-6.693062 11.494681 -15.388499 20.340371 -1.043512 2.428817 0.023298 -0.022613 6288.260000 1 0 0
-15.099362 13.946981 3.141901 20.793763 -0.745745 1.419117 0.056577 -0.026091 34709.200000 1 0 0
-18.622562 8.339381 -4.973999 21.002042 -0.421032 1.809902 0.058718 -0.002020 230554.000000 1 0 0
-4.587662 16.465681 -11.191699 20.430845 -1.299068 2.150510 0.023251 0.003307 72845.300000 1 0 0
-19.286262 -2.340719 -6.592699 20.515910 0.120776 1.897947 0.034144 -0.014622 -129230.000000 1 0 0
-12.091462 14.033481 -6.367099 19.587803 -0.859598 1.901865 0.053221 -0.008313 185995.000000 1 0 0
-19.772162 3.027381 4.533601 20.509924 -0.151933 1.347911 0.084447 -0.009632 189087.000000 1 0 0
-15.060962 12.250281 0.594801 19.423073 -0.682846 1.540168 0.029056 -0.015793 100568.000000 1 0 0
-17.404662 2.517381 -8.359299 19.471450 -0.143642 2.014526 0.015119 -0.006709 278327.000000 1 0 0
-15.900462 14.197281 -4.536899 21.793828 -0.728870 1.780504 0.009908 0.035102 66143.900000 1 0 0
-10.716762 15.739381 -8.469999 20.840298 -0.973012 1.989333 0.036426 -0.017600 77883.500000 1 0 0
-19.457762 1.511881 -6.662099 20.622169 -0.077545 1.899752 0.067845 -0.018457 258812.000000 1 0 0
-17.215662 10.516381 -0.376099 20.177085 -0.548367 1.589437 0.051573 -0.004329 29841.200000 1 0 0
-11.781662 6.357281 -14.407099 19.666904 -0.494817 2.392865 0.039476 -0.022745 439139.000000 1 0 0
-12.698562 12.513481 -3.655099 18.198913 -0.778057 1.773013 0.030472 -0.007949 407378.000000 1 0 0
-18.785162 7.306481 -0.424199 20.160529 -0.370944 1.591839 0.050075 -0.003356 34609.900000 1 0 0
-14.478062 9.227081 -10.521499 20.135920 -0.567406 2.120605 0.019141 0.006095 475389.000000 1 0 0
-18.661962 11.225481 5.150001 22.378623 -0.541534 1.338585 0.088674 -0.037867 175705.000000 1 0 0
-8.145462 12.066981 -13.568299 19.901240 -0.977032 2.320992 0.008033 -0.002857 475994.000000 1 0 0
-21.192762 -1.459319 -5.071299 21.839892 0.068751 1.805139 0.065805 -0.016769 285183.000000 1 0 0
-10.674462 13.436481 -3.477999 17.509416 -0.899456 1.770762 0.022385 -0.000014 231298.000000 1 0 0
-18.504462 -5.075319 3.733401 19.547692 0.267692 1.378626 0.041570 -0.011384 12717.300000 1 0 0
-11.508262 11.563381 -12.896999 20.796261 -0.787787 2.239742 0.038835 -0.009339 210250.000000 1 0 0
-14.785662 11.557181 -10.450899 21.480353 -0.663450 2.078913 0.038921 -0.002732 299504.000000 1 0 0
-12.650062 9.788881 -13.832599 21.146798 -0.658573 2.283818 0.058768 -0.020787 286977.000000 1 0 0
-18.131762 -5.042619 -3.261999 19.100509 0.271255 1.742418 -0.001429 -0.016244 -302390.000000 1 0 0
-9.329462 12.654381 -11.573599 19.522306 -0.935504 2.205377 0.024366 -0.006602 25501.700000 1 0 0
-15.529762 7.678881 -8.204699 19.169137 -0.459208 2.013093 0.012395 0.008039 14850.500000 1 0 0
-14.712562 8.966281 2.120701 17.359466 -0.547325 1.448326 0.030590 -0.008733 7654.150000 1 0 0
-19.819062 6.005681 8.084601 22.231154 -0.294230 1.198601 0.072228 -0.024373 271069.000000 1 0 0
-18.917162 5.872581 3.702301 20.150764 -0.301004 1.386017 0.046231 -0.003257 157454.000000 1 0 0
-14.688662 12.691981 5.795201 20.259011 -0.712604 1.280689 0.041271 -0.023650 278359.000000 1 0 0
18.192438 6.300981 5.881301 20.130992 0.333421 1.274321 0.068665 -0.014833 322980.000000 1 0 0
18.258538 7.426281 0.593501 19.719942 0.386294 1.540695 0.042545 0.002067 -163336.000000 1 0 0
15.937438 5.198981 9.151601 19.099296 0.315328 1.071100 0.043824 0.005724 -60310.600000 1 0 0
12.504838 12.846881 10.847401 20.954222 0.798889 1.026669 0.076490 -0.024983 143789.000000 1 0 0
15.361638 12.419381 4.285301 20.213479 0.679883 1.357173 0.059917 -0.010722 186580.000000 1 0 0
5.383838 10.597581 14.437701 18.701381 1.100749 0.688795 0.027017 -0.008298 217920.000000 1 0 0
12.072938 14.490081 -5.392099 19.616142 0.876145 1.849262 0.024712 0.023349 158794.000000 1 0 0
17.826838 9.299881 -2.921199 20.317907 0.480840 1.715071 0.034493 0.002070 -163240.000000 1 0 0
14.619038 7.681781 9.569801 19.086831 0.483811 1.045601 0.067894 -0.016336 210102.000000 1 0 0
4.412238 19.029481 -1.118999 19.566327 1.342959 1.628018 0.010862 -0.019806 462906.000000 1 0 0
-4.817762 19.156981 3.612201 20.081055 -1.324417 1.389931 0.018619 -0.010250 244418.000000 1 0 0
6.489838 12.839381 12.629601 19.143524 1.102788 0.850334 0.022599 -0.007027 -220667.000000 1 0 0
0.234538 16.779281 -10.215099 19.645548 1.556819 2.117612 0.019156 -0.000522 20548.100000 1 0 0
10.758138 9.412081 15.663601 21.205499 0.718762 0.739720 0.059571 -0.022810 89926.900000 1 0 0
-1.309962 12.211681 1.075601 12.328750 -1.463934 1.483442 -0.000127 -0.001110 433058.000000 1 0 0
-4.511062 19.239281 -2.618399 19.933781 -1.340485 1.702532 0.015958 0.005253 46361.400000 1 0 0
6.409638 17.975181 6.285001 20.092084 1.228269 1.252646 0.029229 -0.030316 -169493.000000 1 0 0
10.982338 17.358881 -1.691699 20.610782 1.006705 1.652967 0.036686 -0.014621 245160.000000 1 0 0
18.708838 10.220681 3.305201 21.573300 0.500000 1.416983 0.072961 -0.013759 371242.000000 1 0 0
11.752838 16.821981 6.393801 21.493928 0.960971 1.268755 0.058245 -0.000096 -184924.000000 1 0 0
18.283938 7.354281 -5.876299 20.564988 0.382424 1.860578 0.046143 0.007064 664489.000000 1 0 0
0.572238 16.017381 10.883701 19.373665 1.535085 0.974263 0.001894 0.003428 302855.000000 1 0 0
1.010938 19.911481 -1.745699 20.013409 1.520068 1.658134 0.025262 -0.022272 136187.000000 1 0 0
14.636838 9.838581 -1.456899 17.696250 0.591809 1.653218 0.038674 0.000780 58807.600000 1 0 0
10.375338 16.855181 1.678301 19.863571 1.019016 1.486204 0.045152 -0.026552 202940.000000 1 0 0
-0.007062 17.411881 -0.378499 17.415996 -1.570391 1.592531 0.006549 -0.011748 -87626.800000 1 0 0
0.008238 21.042181 1.091601 21.070478 1.570405 1.518966 0.022113 -0.007180 177514.000000 1 0 0
6.112438 17.259781 -0.514599 18.317389 1.230435 1.598894 0.013263 -0.026500 -145090.000000 1 0 0
6.583938 18.435781 -2.803699 19.775920 1.227785 1.713049 -0.003584 -0.018553 19000.500000 1 0 0
10.073638 9.584081 12.489001 18.689781 0.760499 0.838974 0.032587 -0.017656 149915.000000 1 0 0
12.435238 14.794081 8.265201 21.019361 0.871811 1.166667 0.055677 -0.018735 284382.000000 1 0 0
0.318038 17.507481 6.699501 18.748236 1.552633 1.205378 0.006369 -0.013707 -25980.200000 1 0 0
7.287538 17.814881 -7.819599 20.775571 1.182495 1.956687 0.015067 -0.018960 52399.700000 1 0 0
-1.348662 18.488281 9.300001 20.739466 -1.497978 1.105799 0.040449 -0.017801 84576.700000 1 0 0
16.268438 6.791381 -7.970199 19.347067 0.395465 1.995399 0.054455 -0.002929 -95646.600000 1 0 0
-5.107662 19.695681 -6.690299 21.418874 -1.317057 1.888468 0.008773 -0.013941 330362.000000 1 0 0
3.821338 15.931181 9.904901 19.144509 1.335379 1.027015 0.014640 -0.001489 172220.000000 1 0 0
8.703038 14.973081 7.497001 18.871700 1.044281 1.162265 0.024436 -0.006962 -158614.000000 1 0 0
-2.884762 19.766081 6.346901 20.959556 -1.425874 1.263150 0.022596 -0.003532 74515.700000 1 0 0
4.576338 18.045081 8.595601 20.504930 1.322427 1.138236 0.020882 -0.009567 -71522.700000 1 0 0
14.733338 12.184481 -6.074499 20.060717 0.690989 1.878432 0.055324 -0.008551 160178.000000 1 0 0
11.876238 6.942081 15.525701 20.743310 0.528971 0.725048 0.054095 -0.025453 206630.000000 1 0 0
17.059038 9.093581 5.014901 19.971310 0.489749 1.316974 0.062798 -0.014951 141738.000000 1 0 0
4.744538 14.964181 11.894901 19.695838 1.263763 0.922374 0.011477 -0.024339 517611.000000 1 0 0
15.883838 10.568681 -3.601699 19.415601 0.587107 1.757383 0.056575 -0.018431 158762.000000 1 0 0
15.387538 13.745581 6.655901 21.679906 0.729097 1.258749 0.077141 -0.009205 344580.000000 1 0 0
12.590238 14.672081 -8.119799 20.969387 0.861614 1.968413 0.090098 -0.029964 299631.000000 1 0 0
-8.806062 15.272981 9.603901 20.075996 -1.047777 1.071990 0.041174 -0.029294 123399.000000 1 0 0
-3.808162 17.515881 -7.944399 19.606674 -1.356716 1.987981 0.010254 0.034220 160143.000000 1 0 0
2.202538 19.482081 -4.596599 20.137810 1.458220 1.801084 0.020528 -0.019680 9469.080000 1 0 0
7.073538 16.260481 9.108101 19.934786 1.160474 1.096295 0.032198 -0.019078 567270.000000 1 0 0
13.357238 15.582781 -1.638199 20.589380 0.862149 1.650446 0.066380 -0.020399 129203.000000 1 0 0
12.663338 16.658581 4.173001 21.337347 0.920819 1.373955 0.064438 -0.019817 312121.000000 1 0 0
2.518038 18.376781 0.499701 18.555223 1.434622 1.543863 0.018263 -0.019219 -15141.400000 1 0 0
-7.703862 17.250681 1.144501 18.927371 -1.150788 1.510291 0.023739 0.000196 189711.000000 1 0 0
0.026038 19.990181 -5.991199 20.868697 1.569494 1.861984 0.036897 0.002747 294542.000000 1 0 0
-7.675662 18.126781 -6.202299 20.638908 -1.170245 1.876029 0.054559 -0.022674 184726.000000 1 0 0
-7.208462 18.579081 -1.423399 19.979246 -1.200688 1.642101 0.040516 -0.009057 262043.000000 1 0 0
-14.525462 -9.405319 8.741501 19.387184 0.574620 1.103033 0.067300 -0.017627 314224.000000 1 0 0
-13.022862 -13.516819 7.793101 20.323183 0.804008 1.177258 0.055399 -0.015002 247347.000000 1 0 0
-3.786662 -15.923419 12.636601 20.677953 1.337328 0.913328 0.030146 -0.015660 42546.500000 1 0 0
-2.345062 -14.793119 14.552801 20.883479 1.413581 0.799790 0.026678 -0.039680 280900.000000 1 0 0
-6.669862 -14.227119 13.438701 20.675992 1.132408 0.863256 0.000043 -0.011104 11972.400000 1 0 0
-9.926262 -10.989519 11.738701 18.897018 0.836190 0.900532 0.057015 -0.022866 -2234.880000 1 0 0
-7.414462 -10.621219 13.283601 18.553668 0.961360 0.772805 0.029140 -0.010605 345651.000000 1 0 0
-15.311362 -12.248519 6.819801 20.759906 0.674718 1.236073 0.073653 -0.015887 344196.000000 1 0 0
-4.444662 -12.352719 13.236601 18.642754 1.225407 0.781279 0.018065 -0.025626 318604.000000 1 0 0
3.830538 -12.644419 13.961801 19.222024 -1.276642 0.757809 0.001441 0.005673 412549.000000 1 0 0
6.295738 -13.462419 14.201301 20.556020 -1.133360 0.808121 -0.000309 -0.014062 241082.000000 1 0 0
7.336638 -8.226019 16.661801 19.977718 -0.842484 0.584444 0.033645 -0.018161 551948.000000 1 0 0
-5.265362 13.583081 13.496501 19.858995 -1.200989 0.823557 0.012720 -0.008058 385483.000000 1 0 0
-13.469262 -2.131719 17.580901 22.249794 0.156964 0.659726 0.055342 -0.005082 427915.000000 1 0 0
-10.489562 9.950481 12.673301 19.226428 -0.759031 0.851095 0.030873 -0.005842 487887.000000 1 0 0
-7.246762 -8.388019 17.184201 20.449234 0.858264 0.572896 0.025420 -0.007901 7064.950000 1 0 0
-5.000062 2.283281 18.170301 18.983514 -0.428371 0.293759 0.024771 -0.008663 537034.000000 1 0 0
-15.086762 -4.417819 13.146201 20.492684 0.284864 0.874335 0.060177 -0.025579 -22769.200000 1 0 0
-14.509062 3.068781 12.476501 19.380232 -0.208436 0.871376 0.033820 -0.012819 346586.000000 1 0 0
-14.237962 10.725681 9.988701 20.433647 -0.645620 1.060041 -0.014603 0.011175 33703.200000 1 0 0
-4.888262 11.236381 15.998201 20.151769 -1.160454 0.653624 0.028073 0.004899 156796.000000 1 0 0
-13.572262 12.418981 8.252601 20.162907 -0.741055 1.149114 0.034588 -0.036022 122635.000000 1 0 0
-3.899562 -6.372619 18.673701 20.112781 1.021655 0.380580 0.032128 -0.009878 314260.000000 1 0 0
0.888838 -2.831119 17.959801 18.203288 -1.266588 0.163743 0.017370 -0.017053 -19828.100000 1 0 0
-4.577062 6.539981 20.994901 22.461227 -0.960165 0.363333 0.052412 -0.004318 129365.000000 1 0 0
2.118138 -10.566819 16.653001 19.835992 -1.372966 0.574370 0.013394 -0.005859 361070.000000 1 0 0
-15.162562 -0.365019 13.854601 20.542310 0.024069 0.830587 0.035965 -0.008306 177603.000000 1 0 0
-13.741162 -6.209219 8.606601 17.362244 0.424408 1.052147 0.037660 -0.008559 46214.900000 1 0 0
9.909138 1.819981 16.285901 19.150298 0.181643 0.554003 0.031743 -0.005767 367913.000000 1 0 0
-8.017562 12.558381 12.216101 19.267261 -1.002603 0.884038 0.026514 -0.002389 123381.000000 1 0 0
-2.062562 7.727481 20.180301 21.707433 -1.309964 0.377336 0.053391 -0.004257 452168.000000 1 0 0
1.042738 -13.849919 15.642701 20.918930 -1.495650 0.726088 0.008072 -0.001660 468548.000000 1 0 0
-3.170562 -11.266419 17.763601 21.272756 1.296474 0.582591 0.021652 -0.028198 439608.000000 1 0 0
-2.325562 9.263181 16.632401 19.179456 -1.324826 0.521247 0.015153 0.001109 216032.000000 1 0 0
-5.482362 -9.141019 20.323801 22.949322 1.030558 0.483023 0.099537 -0.030777 233829.000000 1 0 0
-6.607562 -2.533119 19.072401 20.342887 0.366086 0.355288 0.041827 -0.019236 219591.000000 1 0 0
-10.900762 -8.130919 16.019501 21.013397 0.640874 0.703864 0.073362 -0.022558 158279.000000 1 0 0
-0.503462 6.344881 17.627601 18.741486 -1.491613 0.346504 0.025847 -0.011098 130538.000000 1 0 0
-6.140062 -11.258919 18.992501 22.916778 1.071529 0.593909 0.052455 -0.015305 518493.000000 1 0 0
0.606038 3.671881 18.793601 19.158534 1.407223 0.195494 0.023801 -0.007384 96801.100000 1 0 0
-17.939162 -1.427819 7.721401 19.582447 0.079425 1.165488 0.035359 -0.009381 81382.900000 1 0 0
-1.564562 -8.628919 17.342601 19.433782 1.391429 0.468172 0.023708 -0.013599 298890.000000 1 0 0
5.981638 3.478881 15.042301 16.557579 0.526775 0.431153 0.012254 -0.003315 577426.000000 1 0 0
-14.832162 -7.665919 10.861201 19.917957 0.477032 0.994053 0.113969 0.011058 77876.500000 1 0 0
3.329038 8.151781 17.019201 19.162130 1.183085 0.477452 0.029902 -0.007638 84630.500000 1 0 0
6.338638 4.364081 17.470101 19.089996 0.602958 0.414931 0.037022 -0.031782 165973.000000 1 0 0
5.586638 -9.530919 18.018201 21.135385 -1.040616 0.550021 0.029321 -0.004746 430042.000000 1 0 0
-4.554062 -0.289219 19.846501 20.364349 0.063423 0.225999 0.039656 -0.014988 600022.000000 1 0 0
-11.186862 1.600481 17.147501 20.536412 -0.142104 0.582699 0.050464 -0.010068 282810.000000 1 0 0
-16.630662 -4.401819 8.924701 19.380537 0.258748 1.092240 0.055964 -0.017079 71205.800000 1 0 0
-13.235962 -9.620119 11.841601 20.198042 0.628498 0.944344 0.087723 -0.041289 12018.400000 1 0 0
-15.113162 5.915481 12.526401 20.501495 -0.373082 0.913474 0.056237 -0.034676 643077.000000 1 0 0
1.224938 9.025581 16.940101 19.233528 1.435902 0.493334 0.016697 -0.023787 140250.000000 1 0 0
-3.781962 -10.370719 14.912901 18.553966 1.221107 0.637211 0.019233 -0.014659 547937.000000 1 0 0
-18.487262 -4.420419 7.130401 20.301763 0.234700 1.211922 0.108868 -0.005428 -44351.800000 1 0 0
-0.775262 -0.552819 21.031401 21.052944 0.619446 0.045243 0.030740 -0.012220 491265.000000 1 0 0
-1.857662 2.514681 20.189401 20.430037 -0.934549 0.153634 0.031282 -0.014829 -14678.500000 1 0 0
-8.167162 2.018881 16.297401 18.340766 -0.242337 0.476537 0.013757 0.003545 527792.000000 1 0 0
2.624438 -1.830719 19.068501 19.335121 -0.609091 0.166260 0.015909 -0.003735 104898.000000 1 0 0
-11.861662 3.956381 14.748101 19.335420 -0.321940 0.703241 -0.006487 -0.005017 178887.000000 1 0 0
-13.166162 -5.550319 13.331301 19.541685 0.398953 0.820032 0.038946 -0.016857 -120205.000000 1 0 0
-17.403162 -0.754219 10.065601 20.118529 0.043311 1.046834 0.067664 -0.018269 258755.000000 1 0 0
-7.523862 7.657081 14.737801 18.232997 -0.794173 0.629531 0.007558 -0.002836 107064.000000 1 0 0
-9.599262 0.492581 14.160701 17.114728 -0.051270 0.596337 0.019611 -0.006121 297063.000000 1 0 0
7.654738 -0.795119 14.741101 16.629109 -0.103502 0.481149 0.027682 -0.013174 138815.000000 1 0 0
3.570238 5.824781 18.437501 19.662556 1.020917 0.354857 0.011275 -0.015553 -72255.200000 1 0 0
1.817238 0.828281 19.953601 20.053293 0.427660 0.099755 0.020634 -0.007837 260902.000000 1 0 0
-7.233162 6.720081 17.479701 20.075310 -0.748643 0.514159 0.014444 -0.003201 719702.000000 1 0 0
7.607738 -3.649619 16.608801 18.629269 -0.447296 0.470055 0.025792 -0.007415 217410.000000 1 0 0
-16.629662 2.579881 9.507801 19.328728 -0.153910 1.056526 0.047341 -0.015694 276376.000000 1 0 0
3.922438 -5.847719 19.114601 20.370304 -0.979963 0.352953 0.036708 -0.023256 -73641.000000 1 0 0
-4.024662 -3.641619 20.636101 21.337946 0.735475 0.257192 0.033566 -0.014457 309241.000000 1 0 0
-9.711762 5.630281 14.434101 18.285559 -0.525388 0.661012 0.021587 -0.006363 6138.720000 1 0 0
6.698138 2.712181 19.662301 20.948199 0.384737 0.352202 0.054498 -0.022317 140086.000000 1 0 0
-7.233162 11.658781 14.245101 19.777985 -1.015508 0.766633 0.020970 -0.015369 143172.000000 1 0 0
-14.514462 5.078381 9.512001 18.081419 -0.336572 1.016829 0.022508 -0.014819 398554.000000 1 0 0
1.051638 -5.423119 20.204801 20.946363 -1.379256 0.266885 0.042773 -0.022014 309992.000000 1 0 0
-6.221062 -8.373719 13.626201 17.160831 0.931837 0.653387 0.016439 -0.004194 276549.000000 1 0 0
-13.178162 10.243681 6.511001 17.916196 -0.660759 1.198866 0.005674 -0.015688 180963.000000 1 0 0
-19.570762 1.953381 7.813401 21.163168 -0.099482 1.192650 0.049790 -0.021426 59340.900000 1 0 0
-15.645262 8.942381 6.485801 19.152181 -0.519254 1.225319 0.019467 -0.017291 132941.000000 1 0 0
-12.939562 6.608381 14.548901 20.561456 -0.472180 0.784727 0.039365 -0.018213 -8579.870000 1 0 0
-16.714762 8.611181 10.725901 21.646724 -0.475721 1.052389 0.047948 -0.026522 517032.000000 1 0 0
2.320138 10.610881 14.376401 18.018178 1.355528 0.647021 0.017338 -0.053597 202731.000000 1 0 0
1.505938 14.761881 13.019201 19.740329 1.469133 0.850612 0.018431 -0.025757 546033.000000 1 0 0
9.184738 4.960981 16.706001 19.699269 0.495236 0.558498 0.039602 -0.006489 166696.000000 1 0 0
-0.167562 13.116281 13.718701 18.980718 -1.558022 0.762994 -0.000335 0.003852 310617.000000 1 0 0
3.900838 13.134481 14.885001 20.231025 1.282101 0.744021 0.030211 -0.003897 204482.000000 1 0 0
-3.730462 -4.550619 -13.537399 14.760951 0.884116 2.731563 0.004660 -0.010116 144246.000000 1 0 0
5.675838 -11.938519 16.812401 21.386916 -1.127004 0.666312 -0.019108 0.010784 285061.000000 1 0 0
8.583938 -13.653719 7.381401 17.736772 -1.009549 1.141574 0.002030 -0.006901 31653.200000 1 0 0
-0.521062 15.287481 0.545201 15.306072 -1.536725 1.535169 0.006117 -0.002368 -440389.000000 1 0 0
-14.173362 7.701081 8.814001 18.381443 -0.497722 1.070705 0.018413 -0.002693 76336.800000 1 0 0
-16.009862 -9.718019 4.341101 19.225003 0.545552 1.343027 0.048232 -0.011068 163659.000000 1 0 0
9.212938 -10.249619 11.460301 17.924045 -0.838613 0.877103 0.013419 -0.002352 118099.000000 1 0 0
-26.183162 5.715781 31.250545 41.168249 -0.214928 0.708877 0.089666 -0.027350 511185.000000 0 0 1
-25.042562 4.907581 30.948645 40.112753 -0.193517 0.689536 0.086457 -0.028360 1180320.000000 0 0 1
-23.869562 5.296281 31.694795 40.029572 -0.218347 0.657071 0.073353 -0.023934 1151560.000000 0 0 1
-22.539762 4.548881 31.412935 38.929496 -0.199141 0.631880 0.077704 -0.027602 46741.500000 0 0 1
-22.483062 3.291481 32.000214 39.247110 -0.145366 0.617459 0.042692 -0.026126 -418074.000000 0 0 1
-21.212762 2.781781 31.749395 38.285032 -0.130393 0.592960 0.056409 -0.021977 -292239.000000 0 0 1
-20.954662 1.440381 32.457681 38.661009 -0.068630 0.574350 0.048955 -0.025684 -55267.100000 0 0 1
-21.783162 0.421381 31.976241 38.693200 -0.019342 0.598104 0.058862 -0.025870 83874.500000 0 0 1
-21.721462 -0.616019 32.858589 39.394013 0.028352 0.584295 0.050105 -0.018859 -31595.500000 0 0 1
-22.367562 -1.962819 32.388380 39.410248 0.087529 0.606187 0.052751 -0.028982 74231.900000 0 0 1
-21.528862 -2.810019 31.582355 38.325361 0.129790 0.602257 0.076779 -0.037396 267082.000000 0 0 1
-21.638862 -4.219119 31.851265 38.736861 0.192563 0.605448 0.079536 -0.039277 344013.000000 0 0 1
-23.001462 -4.880819 31.408395 39.234894 0.209095 0.642631 0.058532 -0.026238 1343670.000000 0 0 1
-24.168662 -4.591119 32.185669 40.510738 0.187725 0.652617 0.049488 -0.023331 450310.000000 0 0 1
-24.306162 -5.098819 33.510698 41.710363 0.206776 0.637789 0.038186 -0.022447 -705682.000000 0 0 1
-25.457452 -4.540919 -33.547709 42.357415 0.176516 2.484899 0.045840 -0.018493 -178440.000000 0 0 1
-25.504882 -5.014919 -32.193409 41.377096 0.194149 2.462351 0.047679 -0.020960 6073.200000 0 0 1
-26.645592 -4.546419 -31.510149 41.515624 0.168998 2.432564 0.051309 -0.021229 -203398.000000 0 0 1
-26.726952 -4.912719 -30.000569 40.478376 0.181782 2.405579 0.051885 -0.020815 -335860.000000 0 0 1
-27.271972 -6.223319 -29.862149 40.917455 0.224353 2.388847 0.056391 -0.024287 604246.000000 0 0 1
-27.001992 -6.717919 -28.534869 39.855700 0.243843 2.368787 0.051134 -0.025897 -64305.300000 0 0 1
-27.207072 -8.273719 -28.355669 40.158725 0.295216 2.354757 0.055905 -0.020867 -510136.000000 0 0 1
-28.528582 -8.687819 -28.504049 41.253352 0.295608 2.333600 0.067517 -0.015576 -768801.000000 0 0 1
-28.635972 -10.093119 -28.169559 41.417557 0.338867 2.318744 0.064883 -0.014499 731093.000000 0 0 1
-30.084842 -10.525619 -27.754489 42.263437 0.336554 2.287234 0.092665 -0.013932 864182.000000 0 0 1
-30.317752 -10.581819 -26.346669 41.536586 0.335811 2.257899 0.102364 -0.014110 321444.000000 0 0 1
-31.657012 -11.063019 -26.186249 42.547344 0.336198 2.233768 0.105993 -0.015850 591580.000000 0 0 1
-31.917872 -11.727419 -24.795799 42.084612 0.352113 2.200851 0.120296 -0.004761 -89929.500000 0 0 1
-31.455852 -10.977219 -23.717799 40.896259 0.335759 2.189464 0.120118 -0.001077 186667.000000 0 0 1
-31.324482 -11.793619 -22.566399 40.367747 0.360084 2.164000 0.124271 -0.004690 -661339.000000 0 0 1
-30.685472 -10.949719 -21.441799 39.003145 0.342753 2.152856 0.139473 -0.010446 26685.800000 0 0 1
-30.400982 -11.587219 -20.230199 38.311152 0.364148 2.127099 0.139905 -0.014653 -32424.000000 0 0 1
-29.550052 -12.698219 -20.300599 38.033731 0.405861 2.133828 0.126101 -0.016856 -765390.000000 0 0 1
-29.144662 -12.969319 -18.769999 37.012531 0.418687 2.102643 0.139498 -0.023308 -61958.800000 0 0 1
-28.414662 -11.939619 -18.189999 35.788596 0.397791 2.103962 0.144147 -0.020909 16238.700000 0 0 1
-28.094402 -12.144019 -16.797999 34.913399 0.408002 2.072743 0.148594 -0.023453 155021.000000 0 0 1
-27.777652 -10.848919 -15.938199 33.813063 0.372345 2.061631 0.152614 -0.025824 -154289.000000 0 0 1
-26.444322 -10.458419 -16.148399 32.702469 0.376611 2.087248 0.132345 -0.025622 2736.380000 0 0 1
-26.084252 -9.234419 -15.521199 31.726493 0.340254 2.081990 0.132141 -0.034231 -245840.000000 0 0 1
-24.704162 -8.596219 -15.750899 30.533284 0.334862 2.112808 0.120716 -0.029670 -241897.000000 0 0 1
-23.705362 -9.192819 -14.981699 29.511073 0.369941 2.103267 0.099904 -0.028033 718.985000 0 0 1
-22.564062 -8.353619 -14.831899 28.264909 0.354572 2.123213 0.122749 -0.055877 694763.000000 0 0 1
-21.523162 -8.945519 -13.804799 27.089506 0.393901 2.105516 0.090719 -0.027839 -191302.000000 0 0 1
-20.827862 -10.041919 -14.304999 27.189575 0.449257 2.124829 0.071458 -0.014467 -667491.000000 0 0 1
-19.638562 -10.029119 -13.579499 25.897088 0.472159 2.122764 0.089765 -0.008795 -666816.000000 0 0 1
-18.693062 -11.171619 -14.003399 25.890748 0.538678 2.142261 0.094549 -0.007121 -178876.000000 0 0 1
-17.958562 -11.066919 -15.218999 26.011624 0.552281 2.195781 0.114167 -0.027186 331463.000000 0 0 1
-18.703262 -10.942519 -16.437999 27.198503 0.529361 2.219773 0.096126 -0.031097 -192263.000000 0 0 1
-17.845662 -10.551519 -17.661799 27.234929 0.533972 2.276406 0.104773 -0.027738 167142.000000 0 0 1
-18.600662 -10.924019 -18.791699 28.608509 0.531023 2.287439 0.070745 -0.016885 733006.000000 0 0 1
-18.079562 -10.208419 -19.909199 28.765580 0.514013 2.335217 0.077556 -0.018650 123719.000000 0 0 1
-18.957062 -10.611619 -21.117199 30.297075 0.510314 2.342008 0.092080 -0.013623 374203.000000 0 0 1
-20.138762 -9.807619 -21.185199 30.831345 0.453195 2.328330 0.078977 -0.020833 305298.000000 0 0 1
-21.033362 -10.453319 -22.072099 32.231224 0.461235 2.325132 0.087554 -0.005813 26225.900000 0 0 1
-22.084762 -9.465319 -22.656399 33.024861 0.404908 2.326829 0.080132 -0.011894 -232141.000000 0 0 1
-21.628262 -8.526719 -23.580199 33.113630 0.375531 2.363280 0.077282 -0.034210 -529937.000000 0 0 1
-22.532462 -8.101719 -24.528899 34.278515 0.345164 2.368245 0.078416 -0.026142 -480838.000000 0 0 1
-21.802462 -7.392019 -25.720249 34.518409 0.326882 2.411506 0.079642 -0.033156 20875.700000 0 0 1
-20.912962 -8.210519 -26.421189 34.682039 0.374115 2.436902 0.083893 -0.040811 180293.000000 0 0 1
-20.112662 -7.470919 -27.360509 34.769689 0.355658 2.476577 0.074730 -0.057970 51450.400000 0 0 1
-19.095762 -8.488619 -27.957109 34.904223 0.418295 2.499704 0.088322 -0.060577 -278870.000000 0 0 1
-19.630262 -9.506519 -28.766429 36.100257 0.450992 2.492857 0.091907 -0.054595 98008.000000 0 0 1
-18.586162 -10.314119 -29.238219 36.148305 0.506624 2.512974 0.074382 -0.048806 -111665.000000 0 0 1
-19.085562 -11.458119 -30.189549 37.509413 0.540681 2.506223 0.078617 -0.036131 -238408.000000 0 0 1
-19.557062 -10.879719 -31.393749 38.554046 0.507672 2.522282 0.082726 -0.030682 296778.000000 0 0 1
-20.057962 -11.951119 -32.196629 39.771523 0.537347 2.514164 0.066547 -0.029436 -1724.780000 0 0 1
-20.726062 -11.559819 -33.524999 41.074623 0.508769 2.525595 0.071903 -0.032455 113518.000000 0 0 1
-19.804662 -11.091219 33.391633 40.376242 0.510512 0.597025 0.071839 -0.031880 -122619.000000 0 0 1
-20.358362 -11.173419 32.132436 39.645954 0.501950 0.625817 0.076082 -0.031681 -455005.000000 0 0 1
-19.761962 -12.185819 31.169745 38.866211 0.552558 0.640202 0.090141 -0.025797 -1566920.000000 0 0 1
-18.445862 -11.915819 30.857175 37.873498 0.573550 0.618510 0.096715 -0.030115 -721311.000000 0 0 1
-17.844662 -12.853519 29.942695 37.151176 0.624221 0.633486 0.086599 -0.025537 89300.200000 0 0 1
-17.788962 -14.362919 30.286645 37.947615 0.679241 0.646633 0.083679 -0.020027 923132.000000 0 0 1
-19.071562 -15.090619 30.164555 38.747279 0.669391 0.678532 0.075386 -0.019126 1432750.000000 0 0 1
-18.979262 -16.397619 30.692125 39.637114 0.712552 0.685144 0.083990 -0.024626 -41980.200000 0 0 1
-19.189562 -16.420219 32.218507 40.937698 0.707785 0.664844 0.060385 -0.028512 -694778.000000 0 0 1
-18.078362 -16.103019 32.976453 40.909423 0.727672 0.633291 0.068693 -0.020529 -552369.000000 0 0 1
-18.406862 -15.964719 -33.530159 41.448238 0.714466 2.513185 0.057565 -0.022120 -161123.000000 0 0 1
-17.166762 -15.475719 -32.781599 40.110209 0.733639 2.527485 0.046523 -0.017164 -103162.000000 0 0 1
-16.913962 -14.108519 -33.003639 39.678365 0.695211 2.553102 0.059776 -0.017253 -435772.000000 0 0 1
-15.697462 -13.623219 -32.490889 38.570200 0.714772 2.572487 0.053196 -0.010240 -16950.500000 0 0 1
-15.711562 -13.091519 -31.077399 37.202766 0.694684 2.559569 0.062197 -0.013867 -154824.000000 0 0 1
-15.901062 -14.194719 -30.212179 36.974445 0.728762 2.527176 0.049589 -0.015245 -164800.000000 0 0 1
-16.163962 -13.857119 -28.862359 35.865432 0.708708 2.506034 0.035955 -0.014838 -191491.000000 0 0 1
-16.234762 -15.086419 -27.945189 35.666527 0.748751 2.471096 0.035410 -0.007520 -90030.100000 0 0 1
-15.066062 -15.739919 -27.509869 35.093079 0.807269 2.471737 0.059440 -0.022934 -600113.000000 0 0 1
-14.506362 -16.601819 -28.442419 35.986472 0.852657 2.482200 0.054082 -0.021909 -1097930.000000 0 0 1
-13.190662 -17.115919 -27.932829 35.315594 0.914199 2.483155 0.074925 -0.024559 -1119200.000000 0 0 1
-12.139462 -16.191519 -27.841469 34.419170 0.927460 2.513065 0.059666 -0.024745 -952663.000000 0 0 1
-11.339062 -16.509819 -26.776439 33.438393 0.968980 2.499375 0.084468 -0.031566 979847.000000 0 0 1
-9.861462 -15.919819 -26.925809 32.797687 1.016201 2.533898 0.077251 -0.033525 1505880.000000 0 0 1
-9.854762 -14.525919 -26.852059 32.080395 0.974697 2.562618 0.069364 -0.027743 338690.000000 0 0 1
-8.485262 -14.105519 -26.828969 31.476323 1.029233 2.591266 0.084230 -0.030754 728851.000000 0 0 1
-8.285262 -12.582419 -27.093709 31.000515 0.988483 2.634121 0.072255 -0.036202 -18038.600000 0 0 1
-8.536262 -12.204719 -28.423269 32.089020 0.960458 2.658932 0.089631 -0.033088 185351.000000 0 0 1
-8.266262 -10.811819 -28.652209 31.720271 0.918043 2.698144 0.073831 -0.030491 -243564.000000 0 0 1
-7.373962 -10.515119 -29.859339 32.504203 0.959217 2.735396 0.068915 -0.018082 -675282.000000 0 0 1
-6.073562 -11.033519 -29.649039 32.213231 1.067596 2.739897 0.062127 -0.021761 495144.000000 0 0 1
-5.161962 -10.816819 -30.729299 32.983924 1.125541 2.769710 0.063815 -0.018913 218779.000000 0 0 1
-4.746962 -9.356019 -31.031779 32.757290 1.101270 2.815572 0.062021 -0.018527 124264.000000 0 0 1
-3.519362 -9.092019 -31.759849 33.222564 1.201475 2.843752 0.076863 -0.028445 892069.000000 0 0 1
-3.529462 -7.688019 -32.056839 33.154241 1.140412 2.883584 0.069075 -0.030072 -559494.000000 0 0 1
-2.239462 -7.112319 -32.595139 33.437156 1.265753 2.916700 0.078333 -0.035788 -628784.000000 0 0 1
-1.739762 -7.510619 -33.827839 34.695229 1.343171 2.917516 0.091918 -0.044819 672308.000000 0 0 1
-0.537262 -6.769119 33.734251 34.410889 1.491593 0.198637 0.092912 -0.035013 1336330.000000 0 0 1
0.331838 -7.214019 32.516672 33.308950 -1.524830 0.218544 0.087521 -0.033518 299204.000000 0 0 1
-0.334362 -7.008619 31.285505 32.062679 1.523125 0.220625 0.072910 -0.028029 363320.000000 0 0 1
0.268238 -7.813319 30.227735 31.222362 -1.536479 0.253088 0.065540 -0.031688 291666.000000 0 0 1
0.045838 -7.252019 28.824725 29.723032 -1.564476 0.246480 0.066120 -0.024425 48779.300000 0 0 1
0.897738 -6.144219 28.582045 29.248772 -1.425712 0.213926 0.065825 -0.024379 158244.000000 0 0 1
0.792038 -5.670719 27.268715 27.863367 -1.432023 0.206969 0.067385 -0.022198 -438886.000000 0 0 1
-0.397362 -4.751819 26.981275 27.399396 1.487367 0.174924 0.069400 -0.021265 480174.000000 0 0 1
-1.681562 -5.329419 27.168455 27.737255 1.265158 0.202865 0.051728 -0.012637 163516.000000 0 0 1
-2.755762 -4.431219 26.905695 27.407049 1.014431 0.191567 0.045660 -0.013656 791509.000000 0 0 1
-4.164562 -4.969519 27.271805 28.031965 0.873298 0.233414 0.042286 -0.010225 378101.000000 0 0 1
-4.664762 -5.981019 26.394725 27.462959 0.908415 0.279829 0.042577 -0.007755 486099.000000 0 0 1
-6.019562 -6.294819 26.766395 28.147820 0.807747 0.314593 0.039676 -0.011823 1129860.000000 0 0 1
-6.323762 -7.783819 26.692245 28.514097 0.888525 0.359403 0.048690 -0.014021 49507.700000 0 0 1
-5.660362 -8.453719 27.719455 29.527500 0.980786 0.351761 0.049464 -0.013919 -208808.000000 0 0 1
-5.864462 -9.840519 27.614485 29.896279 1.033360 0.393230 0.050408 -0.015734 97081.800000 0 0 1
-5.129162 -10.575319 28.762585 31.071401 1.119210 0.387932 0.048981 -0.014198 25677.600000 0 0 1
-5.404662 -11.945719 28.819815 31.662159 1.145919 0.426960 0.067405 -0.017574 -127773.000000 0 0 1
-5.094562 -12.494419 30.109465 32.994620 1.183629 0.421303 0.076844 -0.018538 -65051.500000 0 0 1
-5.351262 -14.039319 30.171525 33.705480 1.206634 0.462024 0.080475 -0.026636 544933.000000 0 0 1
-6.681762 -14.489519 29.923195 33.911498 1.138713 0.489877 0.084066 -0.028312 160617.000000 0 0 1
-6.750462 -15.927719 30.011255 34.640098 1.169927 0.522903 0.081752 -0.027382 257915.000000 0 0 1
-6.751562 -16.590819 31.415205 36.162881 1.184317 0.518196 0.097416 -0.027533 -437517.000000 0 0 1
-7.981862 -16.380419 32.028861 36.849372 1.117376 0.517248 0.098554 -0.024974 -768796.000000 0 0 1
-8.059962 -16.835319 33.345523 38.214066 1.124290 0.510300 0.103658 -0.020825 -478613.000000 0 0 1
-9.507462 -17.011019 33.799705 39.015211 1.061146 0.523007 0.102311 -0.020768 217639.000000 0 0 1
-10.241562 -18.108019 33.184888 39.166653 1.056069 0.559964 0.079295 -0.017841 902718.000000 0 0 1
-10.867262 -17.934819 31.879262 38.158124 1.026027 0.581843 0.070940 -0.024811 -169660.000000 0 0 1
-11.448262 -19.217819 31.283515 38.458362 1.033537 0.620757 0.055417 -0.026353 -1048510.000000 0 0 1
-12.520062 -19.701019 31.973139 39.587419 1.004680 0.630625 0.055422 -0.028628 -911446.000000 0 0 1
-12.725262 -21.110519 31.831335 40.259411 1.028326 0.658917 0.045054 -0.025397 55863.500000 0 0 1
-11.993162 -21.981019 32.915561 41.357409 1.071326 0.650336 0.043396 -0.022402 300213.000000 0 0 1
-10.588062 -22.152419 32.799294 40.971092 1.124932 0.642589 0.046414 -0.025035 414069.000000 0 0 1
-9.928262 -22.724219 -33.942889 42.036654 1.158888 2.510629 0.044682 -0.027016 318391.000000 0 0 1
-10.257162 -24.253919 -33.680949 42.753577 1.170699 2.478013 0.051529 -0.013102 -242091.000000 0 0 1
-9.783762 -25.140689 33.242047 42.811329 1.199669 0.681739 0.053938 -0.013418 -101121.000000 0 0 1
-10.145262 -26.501969 33.502929 43.905887 1.205195 0.702758 0.069822 -0.013938 -927764.000000 0 0 1
-9.437362 -27.426289 32.470089 43.538165 1.239388 0.729085 0.061903 -0.012822 621528.000000 0 0 1
-8.025262 -27.238609 32.441617 43.113863 1.284275 0.719002 0.071001 -0.021030 -29144.900000 0 0 1
-7.390562 -27.896279 33.501658 44.217461 1.311816 0.711081 0.064262 -0.021051 -717989.000000 0 0 1
-5.875762 -27.548299 33.560514 43.814854 1.360656 0.698260 0.078577 -0.034774 411849.000000 0 0 1
-5.575762 -26.258569 -33.828709 43.185451 1.361563 2.470811 0.081360 -0.022001 -137579.000000 0 0 1
-5.556162 -25.170039 33.158101 41.998351 1.353535 0.660787 0.087190 -0.027555 -8351.870000 0 0 1
-4.887562 -23.915219 33.798205 41.691062 1.369202 0.625480 0.104520 -0.030022 -328262.000000 0 0 1
-3.541062 -24.110219 -33.787759 41.658786 1.424969 2.516758 0.100380 -0.034323 -539846.000000 0 0 1
-3.015962 -22.893319 -33.239999 40.473419 1.439811 2.534447 0.098788 -0.036064 131886.000000 0 0 1
34.236712 -16.118219 2.276101 37.909499 -0.440006 1.510720 0.156204 -0.054888 80854.000000 0 0 1
35.117722 -16.395919 3.394701 38.905071 -0.436806 1.483429 0.170981 -0.052125 544115.000000 0 0 1
34.561082 -16.377519 4.669801 38.529191 -0.442527 1.449296 0.135128 -0.060455 -1100950.000000 0 0 1
35.657792 -16.232719 5.686201 39.589294 -0.427200 1.426668 0.106175 -0.040177 -284084.000000 0 0 1
36.607852 -17.294819 5.570701 40.869039 -0.441353 1.434065 0.122640 -0.042097 -45110.900000 0 0 1
-36.626022 -17.158819 6.534901 40.970666 0.438121 1.410610 0.102631 -0.030076 -620442.000000 0 0 1
-35.349099 -17.868619 6.122301 40.079033 0.468030 1.417440 0.102513 -0.025432 -957590.000000 0 0 1
-35.390518 -19.261819 6.064801 40.746635 0.498429 1.421399 0.107534 -0.030462 -315022.000000 0 0 1
-34.223068 -19.885919 6.549101 40.119308 0.526382 1.406822 0.085980 -0.031851 -131766.000000 0 0 1
-34.246412 -21.431619 6.914801 40.987138 0.559179 1.401279 0.100849 -0.027858 -279734.000000 0 0 1
-34.270712 -22.295919 5.818401 41.297016 0.576784 1.429434 0.119800 -0.031034 174189.000000 0 0 1
-34.448304 -23.660819 6.212601 42.250638 0.601846 1.423220 0.133615 -0.031757 -44955.500000 0 0 1
-33.903962 -24.684419 5.169101 42.255400 0.629317 1.448159 0.121649 -0.020603 117973.000000 0 0 1
-34.669543 -24.724919 3.973601 42.767842 0.619503 1.477751 0.120792 -0.016668 15738.900000 0 0 1
-33.989732 -25.371439 2.940301 42.516552 0.641222 1.501584 0.106990 -0.013197 -68285.800000 0 0 1
-34.433956 -24.886819 1.557301 42.514424 0.625826 1.534158 0.097952 -0.015629 1067130.000000 0 0 1
-35.734820 -25.437279 1.206801 43.880393 0.618625 1.543291 0.090726 -0.015746 1284000.000000 0 0 1
-36.282112 -24.893019 -0.033499 44.000627 0.601333 1.571558 0.087651 -0.007329 163118.000000 0 0 1
36.950322 -23.741719 0.161201 43.920628 -0.571107 1.567126 0.102457 -0.014557 -436966.000000 0 0 1
35.635392 -24.212619 0.259501 43.083633 -0.596803 1.564773 0.064266 -0.010081 -541071.000000 0 0 1
34.777392 -23.193019 0.664401 41.806992 -0.588164 1.554904 0.084552 -0.017096 259612.000000 0 0 1
33.239482 -23.326219 0.507001 40.610746 -0.611908 1.558312 0.036533 -0.008155 410640.000000 0 0 1
32.947842 -23.218219 -0.874399 40.316381 -0.613871 1.592486 0.036635 -0.012794 -770736.000000 0 0 1
31.578372 -23.092419 -1.038599 39.134794 -0.631408 1.597338 0.028744 -0.006966 -664200.000000 0 0 1
31.161972 -22.922819 -2.546399 38.768651 -0.634223 1.636526 0.018295 -0.000294 161221.000000 0 0 1
31.881192 -21.878919 -3.205299 38.799117 -0.601448 1.653503 0.052744 -0.010620 399124.000000 0 0 1
31.455542 -21.692319 -4.543799 38.479267 -0.603724 1.689157 0.049867 -0.036152 -24548.800000 0 0 1
31.570732 -20.201719 -4.822299 37.789882 -0.569233 1.698753 0.073639 -0.038726 -210364.000000 0 0 1
30.681922 -19.494719 -4.024499 36.573502 -0.566030 1.681058 0.076843 -0.034741 -264171.000000 0 0 1
30.783612 -18.066119 -4.229799 35.943103 -0.530713 1.688750 0.087608 -0.032134 144670.000000 0 0 1
29.699152 -17.357519 -3.362199 34.563384 -0.528903 1.668227 0.104139 -0.029705 -41469.300000 0 0 1
29.940582 -17.057019 -2.003999 34.516610 -0.517839 1.628888 0.098630 -0.027037 -113825.000000 0 0 1
30.387162 -18.144319 -1.152999 35.410808 -0.538288 1.603363 0.073818 -0.016486 -274805.000000 0 0 1
29.505932 -19.399619 -0.901499 35.323618 -0.581617 1.596320 0.065406 -0.018238 172537.000000 0 0 1
28.440722 -19.073919 0.001701 34.244548 -0.590759 1.570747 0.076230 -0.001359 468222.000000 0 0 1
27.772622 -20.255519 0.410301 34.376925 -0.630143 1.558861 0.068545 0.000687 265381.000000 0 0 1
26.606522 -19.988119 1.434901 33.309021 -0.644300 1.527705 0.066242 0.009141 -481074.000000 0 0 1
26.067322 -21.200019 1.966401 33.657285 -0.682786 1.512339 0.065022 0.017087 807314.000000 0 0 1
25.024922 -20.916619 2.937001 32.747178 -0.696211 1.480989 0.063724 0.010969 1725220.000000 0 0 1
23.622422 -20.456919 2.353001 31.337533 -0.713707 1.495640 0.058601 0.004989 117439.000000 0 0 1
23.591722 -19.071919 1.919901 30.397261 -0.679851 1.507594 0.095213 -0.012201 239505.000000 0 0 1
23.472422 -18.131519 2.951601 29.806351 -0.657722 1.471608 0.120367 -0.019126 -398961.000000 0 0 1
23.229322 -16.722419 2.453301 28.727328 -0.623947 1.485293 0.115688 -0.012339 424259.000000 0 0 1
21.891922 -16.441019 2.038801 27.453963 -0.644146 1.496465 0.101281 -0.011684 416000.000000 0 0 1
21.864422 -15.174819 1.408801 26.651694 -0.606716 1.517912 0.114845 -0.026979 585424.000000 0 0 1
20.549422 -15.100419 0.556001 25.507069 -0.633724 1.548997 0.090071 -0.005930 508422.000000 0 0 1
19.389322 -15.061019 1.369201 24.589730 -0.660414 1.515086 0.066876 -0.006027 -93747.800000 0 1 0
18.447422 -14.049119 1.136401 23.215868 -0.650869 1.521827 0.065878 -0.006028 -356319.000000 0 1 0
18.700622 -12.638319 1.772101 22.640246 -0.594315 1.492444 0.077820 -0.015467 -697686.000000 0 1 0
19.817022 -12.019319 1.217901 23.209086 -0.545196 1.518297 0.099162 -0.018887 7022.720000 0 1 0
19.897022 -10.721319 1.824401 22.675242 -0.494235 1.490251 0.097665 -0.018069 -157572.000000 0 1 0
20.804922 -9.775719 1.030601 23.010250 -0.439259 1.525993 0.104614 -0.027886 -239686.000000 0 1 0
20.276822 -9.442719 -0.217299 22.368766 -0.435825 1.580511 0.115169 -0.026219 160067.000000 0 1 0
21.184822 -8.653219 -0.868399 22.900415 -0.387781 1.608726 0.124839 -0.026876 -889720.000000 0 1 0
20.662222 -8.248919 -2.233499 22.359799 -0.379840 1.670852 0.133011 -0.030101 -276541.000000 0 1 0
21.572522 -7.625919 -3.136299 23.094691 -0.339791 1.707019 0.149058 -0.039958 512700.000000 0 1 0
22.609622 -8.420919 -3.665699 24.403775 -0.356532 1.721577 0.140529 -0.039401 -691598.000000 0 1 0
22.149322 -9.430419 -4.737799 24.535118 -0.402519 1.765120 0.124011 -0.042533 -379562.000000 0 1 0
21.664122 -8.835219 -5.909499 24.131255 -0.387236 1.818202 0.129873 -0.054604 -355709.000000 0 1 0
20.277522 -8.712419 -5.868799 22.836965 -0.405810 1.830699 0.118570 -0.039527 -785999.000000 0 1 0
19.515522 -8.874119 -7.241799 22.628505 -0.426773 1.896557 0.112566 -0.038040 4045.420000 0 1 0
19.603822 -10.094519 -7.954499 23.441059 -0.475517 1.917012 0.113236 -0.031868 1218560.000000 0 1 0
20.920622 -10.443219 -8.433599 24.856767 -0.462994 1.916956 0.117856 -0.025579 643146.000000 0 1 0
20.950122 -11.829219 -9.076499 25.714216 -0.514011 1.931546 0.100454 -0.025095 -226722.000000 0 0 1
20.025522 -11.996919 -10.126699 25.445975 -0.539744 1.980098 0.125306 -0.035048 118764.000000 0 0 1
19.967922 -13.275919 -10.678099 26.248614 -0.586752 1.989752 0.108394 -0.026018 -68027.700000 0 0 1
18.704822 -13.571519 -11.536399 25.829150 -0.627677 2.033806 0.121258 -0.027957 202262.000000 0 0 1
18.419622 -14.929619 -11.712199 26.445257 -0.681128 2.029610 0.113851 -0.035554 116279.000000 0 0 1
17.424122 -15.095519 -12.695599 26.318301 -0.713914 2.074174 0.120754 -0.035673 -246873.000000 0 0 1
17.245822 -16.585419 -13.123999 27.289813 -0.765880 2.072491 0.101046 -0.031379 -368782.000000 0 0 1
16.558522 -17.324119 -12.156799 26.871872 -0.807990 2.040249 0.092355 -0.026767 245673.000000 0 0 1
16.546722 -18.680219 -12.543199 27.929849 -0.845889 2.036550 0.089991 -0.025801 -675626.000000 0 0 1
15.466922 -19.388519 -11.739099 27.439876 -0.897437 2.012867 0.071707 -0.021809 94373.800000 0 0 1
14.159422 -19.167419 -12.260599 26.799281 -0.934551 2.045975 0.056230 -0.019424 17531.500000 0 0 1
13.209022 -19.983219 -11.648899 26.636519 -0.986723 2.023422 0.044260 -0.012834 49008.100000 0 0 1
11.730122 -19.749819 -12.071299 25.949323 -1.034848 2.054643 0.039018 -0.021763 346363.000000 0 0 1
10.981522 -20.670919 -11.285999 25.985660 -1.082459 2.020076 0.045426 -0.028743 -710969.000000 0 0 1
9.643722 -20.769319 -11.665799 25.699355 -1.136093 2.041971 0.041955 -0.024274 -459971.000000 0 0 1
8.742622 -21.474519 -10.671399 25.523855 -1.184170 2.002144 0.031129 -0.018601 -446864.000000 0 0 1
8.921422 -22.838219 -10.706899 26.754695 -1.198389 1.982518 0.067058 -0.028975 51214.600000 0 0 1
8.103022 -23.584719 -9.797799 26.793559 -1.239860 1.945157 0.075142 -0.035128 164598.000000 0 0 1
8.229622 -25.095309 -9.892599 28.202211 -1.253912 1.929194 0.088847 -0.031156 474059.000000 0 0 1
9.505022 -25.453109 -9.385999 28.745490 -1.213400 1.903417 0.076443 -0.027648 -203250.000000 0 0 1
9.842322 -26.783839 -9.618499 30.112470 -1.218641 1.895913 0.081510 -0.023673 479456.000000 0 0 1
11.331122 -27.050929 -9.258399 30.754919 -1.174120 1.876577 0.052180 -0.005823 442880.000000 0 0 1
11.496822 -27.183739 -7.874999 30.547474 -1.170680 1.831536 0.064257 -0.013881 1546610.000000 0 0 1
12.901222 -27.533579 -7.629399 31.348800 -1.132613 1.816637 0.047144 -0.000931 1029230.000000 0 0 1
13.207922 -27.784629 -6.149399 31.372758 -1.127048 1.768084 0.056969 -0.014607 108141.000000 0 0 1
12.575922 -28.938659 -5.559899 32.039230 -1.160846 1.745213 0.075696 -0.014865 1026490.000000 0 0 1
11.144122 -29.004349 -5.446999 31.545420 -1.203965 1.744338 0.091075 -0.018873 710845.000000 0 0 1
10.632122 -30.115799 -4.489399 32.251482 -1.231415 1.710450 0.102063 -0.025871 88380.300000 0 0 1
10.682722 -31.459629 -4.978599 33.594869 -1.243444 1.719539 0.099718 -0.022080 568234.000000 0 0 1
9.594422 -31.830259 -5.866599 33.758485 -1.278033 1.745465 0.105622 -0.020360 835591.000000 0 0 1
9.663722 -33.342689 -6.203399 35.264778 -1.288695 1.747626 0.097541 -0.016263 -165272.000000 0 0 1
9.301122 33.855380 -5.187799 35.490998 1.302680 1.717494 0.102301 -0.016582 10011.200000 0 0 1
9.891722 32.578526 -5.317699 34.459896 1.276015 1.725731 0.094657 -0.012972 52356.200000 0 0 1
9.355222 31.718462 -4.193899 33.334214 1.283983 1.696944 0.086734 -0.015424 73074.700000 0 0 1
7.987422 31.421292 -4.285899 32.702683 1.321865 1.702231 0.082486 -0.016147 -575543.000000 0 0 1
7.661622 30.324002 -3.424399 31.463822 1.323317 1.679848 0.064187 -0.014411 787329.000000 0 0 1
6.183522 29.766022 -3.496499 30.601920 1.365972 1.685304 0.065502 -0.014246 1028430.000000 0 0 1
5.838722 29.111642 -4.656999 30.054385 1.372859 1.726376 0.082781 -0.019066 -116336.000000 0 0 1
5.456122 29.981382 -5.705399 31.003292 1.390783 1.755877 0.074093 -0.021916 -407316.000000 0 0 1
5.446622 29.341762 -7.141699 30.685641 1.387258 1.805688 0.069675 -0.028132 62583.000000 0 0 1
4.509322 28.328942 -7.385099 29.620983 1.412943 1.822774 0.070979 -0.030015 -150098.000000 0 0 1
5.114222 27.076332 -7.109699 28.457527 1.384114 1.823307 0.081855 -0.024705 -347754.000000 0 0 1
4.558222 25.780812 -7.732199 27.298619 1.395798 1.857972 0.078108 -0.030676 1013120.000000 0 0 1
3.194122 25.544372 -7.319899 26.763750 1.446400 1.847827 0.080872 -0.028919 791695.000000 0 0 1
2.106822 26.088312 -8.017899 27.373809 1.490214 1.868059 0.086245 -0.032671 -50038.700000 0 0 1
1.600522 25.271962 -9.238199 26.955112 1.507549 1.920613 0.080298 -0.036368 -265165.000000 0 0 1
2.526422 25.278672 -10.325299 27.422726 1.471184 1.956837 0.070619 -0.031329 311294.000000 0 0 1
2.146022 24.506752 -11.421299 27.122544 1.483451 2.005454 0.076431 -0.027439 -633134.000000 0 0 1
2.172022 23.009632 -11.180199 25.674067 1.476679 2.021353 0.078265 -0.026784 -232139.000000 0 0 1
1.018922 22.563032 -10.506599 24.910184 1.525668 2.006203 0.090492 -0.024955 -396528.000000 0 1 0
0.952922 21.207032 -10.165599 23.536900 1.525892 2.017395 0.055732 -0.024294 -915185.000000 0 1 0
-0.234678 20.781732 -9.330999 22.781638 -1.559504 1.992795 0.056543 -0.013179 -344615.000000 0 1 0
-1.479178 20.870132 -9.965699 23.174675 -1.500039 2.015317 0.074871 -0.019401 -819184.000000 0 1 0
-2.527678 20.312732 -9.257499 22.465474 -1.446995 1.995528 0.054515 -0.012977 -792063.000000 0 1 0
-3.757278 20.036932 -10.081499 22.742744 -1.385431 2.030056 0.052058 -0.020785 -526230.000000 0 1 0
-4.844178 19.548632 -9.335099 22.198179 -1.327888 2.004831 0.045526 -0.023053 408519.000000 0 1 0
-5.904378 19.097332 -10.204899 22.443479 -1.270945 2.042824 0.047123 -0.023500 -391119.000000 0 1 0
-6.719378 17.998732 -9.510499 21.437210 -1.213495 2.030457 0.048993 -0.027405 -25532.300000 0 1 0
-7.757878 18.472732 -8.661999 21.827889 -1.173199 1.978859 0.065598 -0.024916 755741.000000 0 1 0
-8.958378 18.867032 -9.363599 22.888740 -1.127498 1.992255 0.072647 -0.026690 428980.000000 0 1 0
-10.042378 19.221232 -8.291599 23.217574 -1.089340 1.935986 0.077799 -0.029779 223600.000000 0 1 0
-10.309778 18.066532 -7.463999 22.099828 -1.052233 1.915311 0.072131 -0.025017 -468365.000000 0 1 0
-11.469878 18.221532 -6.702699 22.550133 -1.008990 1.872592 0.097902 -0.028465 -441613.000000 0 1 0
-11.854778 17.072632 -5.823999 21.585400 -0.963857 1.843994 0.069450 -0.028287 159087.000000 0 1 0
-12.930778 17.385832 -4.950199 22.225585 -0.931305 1.795405 0.089201 -0.023845 145228.000000 0 1 0
-13.420878 16.265932 -4.247199 21.511374 -0.880942 1.769542 0.081492 -0.021864 431155.000000 0 1 0
-14.568178 16.562932 -3.211299 22.290692 -0.849387 1.715364 0.067198 -0.025038 561988.000000 0 1 0
-15.811478 16.613132 -3.867199 23.258422 -0.810117 1.737843 0.104563 -0.039641 702889.000000 0 1 0
-16.940278 16.972532 -3.034499 24.171223 -0.786349 1.696670 0.107875 -0.034689 1218360.000000 0 1 0
-18.293878 17.103932 -3.789999 25.329322 -0.751794 1.720989 0.112504 -0.042251 399980.000000 0 0 1
-18.218078 18.134632 -4.778099 26.145620 -0.783103 1.754579 0.115862 -0.044898 -408456.000000 0 0 1
-19.548178 18.380232 -5.100099 27.312546 -0.754614 1.758630 0.096648 -0.043923 -417232.000000 0 0 1
-19.764878 19.311432 -6.338099 28.350543 -0.773795 1.796264 0.098459 -0.035406 -53366.100000 0 0 1
-19.418778 20.616032 -6.059199 28.962452 -0.815295 1.781562 0.100962 -0.052462 -9085.970000 0 0 1
-19.815478 21.367232 -7.143599 30.004046 -0.823060 1.811193 0.101960 -0.038443 -107929.000000 0 0 1
-19.512278 22.879032 -6.953599 30.863111 -0.864653 1.798052 0.110415 -0.042748 719975.000000 0 0 1
-18.114278 23.130932 -6.766599 30.148863 -0.906434 1.797164 0.108216 -0.046199 800004.000000 0 0 1
-17.833378 23.403462 -5.382199 29.911862 -0.919661 1.751717 0.110643 -0.050022 -525069.000000 0 0 1
-16.413678 23.910972 -5.151999 29.456519 -0.969223 1.746602 0.097042 -0.042774 -755819.000000 0 0 1
-16.291678 24.451522 -3.805899 29.627362 -0.983058 1.699611 0.088360 -0.049579 195117.000000 0 0 1
-15.022678 24.990622 -3.486099 29.366051 -1.029544 1.689789 0.097529 -0.041186 -1409.690000 0 0 1
-14.550978 26.308372 -4.248799 30.363032 -1.065582 1.711190 0.092379 -0.032432 -100001.000000 0 0 1
-15.320478 27.500552 -4.044999 31.738926 -1.062521 1.698590 0.116993 -0.037340 224402.000000 0 0 1
-14.932278 28.405622 -5.011599 32.480277 -1.086816 1.725712 0.094444 -0.030811 -29558.600000 0 0 1
-15.388378 29.866782 -4.745399 33.931485 -1.095036 1.711109 0.089058 -0.019521 653828.000000 0 0 1
-16.800678 29.991872 -4.902399 34.724756 -1.060175 1.712448 0.124634 -0.030528 467206.000000 0 0 1
-17.402378 31.182692 -4.443299 35.985357 -1.061772 1.694587 0.117812 -0.020761 156826.000000 0 0 1
12.829438 -8.346719 18.716145 24.177599 -0.576791 0.685487 0.077145 -0.020100 -64287.900000 0 1 0
13.441238 -9.521919 19.153145 25.262161 -0.616349 0.710286 0.069152 -0.014486 -135488.000000 0 0 1
13.661838 -10.366519 18.046045 24.895186 -0.649105 0.759935 0.082226 -0.023535 12057.800000 0 1 0
14.072438 -11.793319 18.576345 26.118891 -0.697512 0.779560 0.119112 -0.032590 -202081.000000 0 0 1
15.395138 -11.833319 19.055745 27.205865 -0.655324 0.794800 0.113674 -0.027784 -23354.100000 0 0 1
15.662838 -13.009319 19.805845 28.404900 -0.693114 0.799216 0.110854 -0.028300 42215.100000 0 0 1
16.352638 -14.158819 18.979345 28.776665 -0.713620 0.850590 0.119013 -0.033033 -58436.900000 0 0 1
15.579038 -14.552019 17.830445 27.791949 -0.751326 0.874255 0.126473 -0.035397 311640.000000 0 0 1
16.011438 -15.699019 17.221745 28.273907 -0.775546 0.915866 0.129954 -0.034006 -667154.000000 0 0 1
15.232938 -16.007119 15.946745 27.250118 -0.810175 0.945671 0.120740 -0.039184 76089.700000 0 0 1
13.875838 -16.346719 16.196145 26.871345 -0.866973 0.923879 0.135331 -0.042802 308002.000000 0 0 1
13.035738 -16.206719 15.078045 25.689212 -0.893414 0.943521 0.134037 -0.044376 -165680.000000 0 0 1
12.639138 -17.585419 14.524645 26.076044 -0.947611 0.980014 0.104548 -0.023401 149378.000000 0 0 1
13.711838 -18.222319 13.823245 26.667386 -0.925713 1.025867 0.093444 -0.026878 738760.000000 0 0 1
13.207338 -19.470419 13.296645 27.024651 -0.974764 1.056389 0.086140 -0.030308 -430504.000000 0 0 1
14.270438 -20.374619 12.701445 27.930220 -0.959800 1.098698 0.078264 -0.023740 201153.000000 0 0 1
15.089638 -21.015619 13.765445 29.305987 -0.948078 1.081829 0.069444 -0.019139 591487.000000 0 0 1
15.672538 -22.205619 13.230045 30.228332 -0.956194 1.117790 0.045133 -0.023033 -129540.000000 0 0 1
16.506838 -22.858019 14.325345 31.625626 -0.945361 1.100706 0.049323 -0.021615 14352.800000 0 0 1
17.806938 -22.381919 14.605745 32.114874 -0.898747 1.098652 0.040825 -0.017810 -135534.000000 0 0 1
18.398538 -23.198219 15.597045 33.465375 -0.900276 1.085958 0.049211 -0.028607 292936.000000 0 0 1
19.805238 -22.632519 15.937645 34.036552 -0.851922 1.083486 0.032002 -0.013568 485802.000000 0 0 1
20.877638 -23.201619 15.238045 34.733109 -0.838072 1.116625 0.029846 -0.022696 -116643.000000 0 0 1
22.149438 -22.628319 15.456445 35.235495 -0.796092 1.116688 0.026859 -0.011808 497431.000000 0 0 1
23.336538 -23.296019 14.706445 36.105097 -0.784529 1.151275 0.021975 -0.021215 251828.000000 0 0 1
23.771038 -24.423319 15.463445 37.425644 -0.798932 1.144855 0.026060 -0.018363 374978.000000 0 0 1
24.769538 -25.193649 14.784745 38.299329 -0.793886 1.174471 0.029682 -0.017082 186450.000000 0 0 1
25.267038 -26.350939 15.658145 39.723704 -0.806394 1.165625 0.031747 -0.016572 -461698.000000 0 0 1
25.692738 -25.937139 16.943445 40.248382 -0.790132 1.136280 0.039689 -0.013642 173034.000000 0 0 1
25.987238 -27.022939 17.823245 41.511972 -0.804933 1.127021 0.068347 -0.015724 7316.140000 0 0 1
26.422638 -26.537569 19.194445 42.081172 -0.787568 1.097156 0.071744 -0.016987 196257.000000 0 0 1
25.302738 -25.977419 19.866145 41.348743 -0.798554 1.069625 0.075150 -0.017478 266751.000000 0 0 1
25.554438 -25.458199 21.181145 41.830492 -0.783512 1.039842 0.079594 -0.013737 454882.000000 0 0 1
24.281938 -25.460779 22.110045 41.553795 -0.809092 1.009738 0.079531 -0.011776 666947.000000 0 0 1
23.833338 -26.779629 22.279445 42.208414 -0.843545 1.014737 0.079731 -0.018099 -308867.000000 0 0 1
22.761538 -27.145319 23.099275 42.291044 -0.873013 0.992978 0.082158 -0.013991 -201258.000000 0 0 1
22.322738 -28.580139 23.023255 42.955782 -0.907713 1.005133 0.093480 -0.015602 -325008.000000 0 0 1
23.348138 -29.434259 23.451575 44.288684 -0.900197 1.012766 0.097304 -0.025693 321928.000000 0 0 1
23.094038 -30.776549 22.993945 44.824681 -0.927053 1.032149 0.101605 -0.028051 -372230.000000 0 0 1
24.091338 -31.725119 23.650595 46.327382 -0.921321 1.035018 0.089258 -0.020809 -150988.000000 0 0 1
23.916338 -31.785229 25.058015 47.012723 -0.925738 1.008648 0.095599 -0.024539 632722.000000 0 0 1
25.050538 -32.374579 25.720845 48.344645 -0.912254 1.009799 0.104181 -0.031054 3268.250000 0 0 1
24.783038 -32.746679 27.182985 49.248945 -0.922951 0.986095 0.098053 -0.035352 -58189.000000 0 0 1
24.008738 -33.873649 27.453645 49.774955 -0.954206 0.986569 0.105433 -0.024352 707200.000000 0 0 1
22.606638 -33.817149 27.147445 48.904431 -0.981528 0.982299 0.106263 -0.027042 192766.000000 0 0 1
21.895338 33.043142 27.698335 48.357552 0.985594 0.960901 0.119710 -0.037909 -370289.000000 0 0 1
21.745038 33.021719 29.101885 49.093791 0.988464 0.936288 0.110253 -0.034540 114378.000000 0 0 1
21.330038 31.736642 29.524445 48.310225 0.979045 0.913293 0.103495 -0.031604 42445.300000 0 0 1
21.096238 31.649212 31.020725 49.081659 0.982865 0.886636 0.096081 -0.026928 -385292.000000 0 0 1
22.346438 31.836112 31.603655 50.116787 0.958782 0.888470 0.093977 -0.032588 -57515.000000 0 0 1
22.167238 32.545680 32.814840 51.258379 0.972860 0.876057 0.083602 -0.033058 -44584.600000 0 0 1
23.519538 32.636069 33.524420 52.365718 0.946338 0.876041 0.055111 -0.013644 -140359.000000 0 0 1
23.835138 31.536202 -33.558679 51.853937 0.923592 2.274672 0.044337 -0.007986 -185160.000000 0 0 1
25.129538 31.623722 -33.027329 52.176220 0.899331 2.256213 0.036925 -0.004769 -194745.000000 0 0 1
25.790938 30.327692 -32.567619 51.435311 0.866065 2.256446 0.036312 0.002873 -109961.000000 0 0 1
26.156838 29.438952 -33.680869 51.819234 0.844365 2.278339 0.046828 0.004132 255591.000000 0 0 1
25.097338 28.581032 33.786857 50.875372 0.850207 0.844493 0.054942 -0.006338 94008.300000 0 0 1
25.324538 27.873322 32.446307 49.709326 0.833273 0.859626 0.070040 -0.012100 -165332.000000 0 0 1
26.321238 26.877332 32.467526 49.692442 0.795851 0.858769 0.066382 -0.009823 157524.000000 0 0 1
26.174338 25.966692 31.410615 48.435439 0.781416 0.865178 0.083017 -0.025015 -704274.000000 0 0 1
27.452138 25.151462 31.193785 48.572298 0.741690 0.873414 0.067496 -0.013925 -271236.000000 0 0 1
27.801738 24.195232 32.202999 48.942609 0.716149 0.852670 0.081575 -0.017146 265379.000000 0 0 1
28.234338 24.709152 33.428209 50.251022 0.718912 0.843002 0.071301 -0.023335 -1089850.000000 0 0 1
28.080338 23.669672 -33.349179 49.607726 0.700373 2.308051 0.061799 -0.027762 220856.000000 0 0 1
26.860038 23.788922 -32.628099 48.497086 0.724837 2.308763 0.059795 -0.018946 1903430.000000 0 0 1
25.631238 23.223052 -33.195599 47.939736 0.736145 2.335668 0.046683 -0.015261 1169530.000000 0 0 1
25.555938 21.696432 -32.964849 47.016193 0.703901 2.347789 0.034858 -0.010816 -631723.000000 0 0 1
25.506238 21.308932 -31.576409 45.844393 0.695980 2.330592 0.018676 -0.019740 428584.000000 0 0 1
25.394338 19.921132 -31.516019 45.110790 0.665200 2.344286 0.024301 -0.020307 -412362.000000 0 0 1
25.210738 19.283632 -30.074549 43.725488 0.652968 2.329255 0.034795 -0.013196 -202741.000000 0 0 1
23.923838 19.449832 -29.522009 42.687176 0.682611 2.334484 0.034873 -0.012991 80102.100000 0 0 1
23.822738 18.909532 -28.244449 41.507134 0.670924 2.319203 0.045373 -0.009446 -275324.000000 0 0 1
22.472738 19.041932 -27.515599 40.307907 0.702945 2.322159 0.053077 -0.010727 -216226.000000 0 0 1
22.309838 18.372232 -26.273209 39.058281 0.688909 2.308603 0.062921 -0.007927 -78584.600000 0 0 1
22.920038 18.946332 -25.146689 38.944160 0.690768 2.272751 0.058557 -0.002916 -115837.000000 0 0 1
22.960038 18.038232 -23.903999 37.735160 0.665921 2.256823 0.075822 -0.009098 306049.000000 0 0 1
23.979338 17.061232 -24.160699 38.076681 0.618401 2.258193 0.088148 -0.010416 663452.000000 0 0 1
23.923738 16.022732 -23.202599 36.978829 0.590129 2.249078 0.095121 -0.019275 -224038.000000 0 0 1
24.979938 14.947732 -23.546299 37.441424 0.539234 2.250913 0.120571 -0.016174 -620268.000000 0 0 1
26.316338 15.256332 -23.299199 38.316550 0.525381 2.224425 0.138549 -0.024773 33603.800000 0 0 1
27.235638 14.154132 -23.334999 38.556992 0.479277 2.220823 0.136498 -0.030105 545201.000000 0 0 1
27.217538 13.389532 -21.976399 37.457123 0.457183 2.197784 0.121420 -0.026756 -320354.000000 0 0 1
26.024738 12.629032 -21.916099 36.291801 0.451795 2.219163 0.114126 -0.017471 108998.000000 0 0 1
25.830838 12.023932 -20.631499 35.177633 0.435658 2.197521 0.096133 -0.021886 922560.000000 0 0 1
24.329138 11.651932 -20.285999 33.751981 0.446649 2.215587 0.095575 -0.015872 1147310.000000 0 0 1
23.568138 12.850332 -20.273399 33.639246 0.499183 2.217640 0.107620 -0.016475 -343824.000000 0 0 1
22.207038 12.574532 -20.525899 32.750327 0.515227 2.248157 0.078888 -0.014405 273029.000000 0 0 1
21.358838 13.902432 -20.433899 32.665300 0.577006 2.246637 0.065697 -0.019835 -673236.000000 0 0 1
21.608838 14.910332 -21.428199 33.888458 0.603990 2.255335 0.066995 -0.014642 579215.000000 0 0 1
20.602038 15.935632 -21.573999 33.820493 0.658371 2.262561 0.046766 -0.015608 384440.000000 0 0 1
19.320938 15.613232 -22.374799 33.432070 0.679660 2.304011 0.044374 -0.000818 -63701.900000 0 0 1
18.413038 14.732732 -21.755599 32.084256 0.674817 2.315940 0.033186 -0.008487 -2760.530000 0 0 1
17.202238 14.795832 -22.481599 31.941446 0.710335 2.351582 0.040347 -0.025355 480440.000000 0 0 1
16.142038 13.699332 -22.086699 30.595087 0.703724 2.377345 0.045928 -0.025391 344277.000000 0 0 1
14.872138 13.985632 -22.584399 30.443940 0.754688 2.406600 0.052100 -0.029555 -673939.000000 0 0 1
13.828938 13.183832 -22.059799 29.183689 0.761521 2.427816 0.077605 -0.034241 792868.000000 0 0 1
12.532138 13.457732 -22.921999 29.386784 0.820997 2.465479 0.080007 -0.040329 368589.000000 0 0 1
12.040438 14.759632 -22.775499 29.690777 0.886514 2.445089 0.085260 -0.039375 -104758.000000 0 0 1
11.327338 15.168632 -23.925399 30.509355 0.929372 2.472200 0.073335 -0.033908 -619039.000000 0 0 1
11.203238 16.760032 -24.097199 31.417929 0.981560 2.444931 0.064593 -0.036825 44568.700000 0 0 1
12.471138 17.392232 -24.033699 32.181326 0.948717 2.414066 0.056123 -0.029051 1008740.000000 0 0 1
13.582338 17.113332 -24.919499 33.141024 0.899927 2.421771 0.054255 -0.030012 649112.000000 0 0 1
13.299238 17.275232 -26.483669 34.302888 0.914715 2.452862 0.078247 -0.028885 38498.500000 0 0 1
14.426338 17.077232 -27.331299 35.309361 0.869346 2.456013 0.074094 -0.031851 453136.000000 0 0 1
13.950838 17.032232 -28.664329 36.143694 0.884526 2.486622 0.088455 -0.038716 52883.600000 0 0 1
15.042838 17.467932 -29.682069 37.582454 0.859854 2.481255 0.081973 -0.031160 781694.000000 0 0 1
16.087238 16.484532 -29.828039 37.686217 0.797595 2.484030 0.067398 -0.028693 799482.000000 0 0 1
17.239638 16.956332 -30.513079 38.932895 0.777114 2.471453 0.054147 -0.024966 179345.000000 0 0 1
18.458938 16.053132 -30.544479 39.133115 0.715802 2.466306 0.046308 -0.018684 -165047.000000 0 0 1
19.675738 16.627832 -30.988699 40.297878 0.701639 2.448057 0.046818 -0.020097 700366.000000 0 0 1
20.766638 15.704432 -30.811909 40.339264 0.647479 2.440006 0.058252 -0.015015 -44018.700000 0 0 1
22.089538 16.287732 -31.270029 41.605921 0.635356 2.421245 0.063203 -0.012595 -767145.000000 0 0 1
22.171838 16.478532 -32.673199 42.786334 0.639147 2.439723 0.055416 -0.015964 -265895.000000 0 0 1
23.057238 17.520632 -32.879779 43.814252 0.649792 2.419517 0.037403 -0.018636 -513845.000000 0 0 1
23.021138 17.891632 33.513230 44.420940 0.660672 0.715986 0.014626 -0.005079 167334.000000 0 0 1
24.029838 18.823932 33.129079 45.047857 0.664510 0.744511 0.016282 -0.005511 515601.000000 0 0 1
23.962338 19.001732 31.726115 44.065926 0.670448 0.767038 0.043488 -0.012184 -302338.000000 0 0 1
24.769538 20.182532 31.129495 44.608408 0.683708 0.798420 0.059098 -0.020117 -501014.000000 0 0 1
26.138538 19.915732 31.112045 45.252833 0.651093 0.812734 0.038592 -0.016072 -1009330.000000 0 0 1
26.849538 21.108632 31.246865 46.290805 0.666259 0.829815 0.050868 -0.022669 -561327.000000 0 0 1
28.345838 20.828632 31.066735 46.930379 0.633704 0.847346 0.049180 -0.021009 -457066.000000 0 0 1
28.877338 20.134632 32.197249 47.707095 0.608876 0.829975 0.046038 -0.024523 -156420.000000 0 0 1
30.263838 20.020832 31.970253 48.361459 0.584447 0.848554 0.048436 -0.020720 29260.200000 0 0 1
31.096438 19.486232 33.174157 49.469449 0.559777 0.835781 0.047839 -0.019445 -853.904000 0 0 1
31.114338 20.266532 -33.509689 50.017333 0.577328 2.304953 0.041448 -0.019988 87090.800000 0 0 1
29.984738 20.088932 -32.674219 48.685258 0.590287 2.306531 0.043065 -0.026706 -96211.300000 0 0 1
30.264938 20.470632 -31.197249 48.044579 0.594698 2.277512 0.055634 -0.028494 442507.000000 0 0 1
31.228038 19.592832 -30.575559 47.895034 0.560332 2.263197 0.057789 -0.037274 319174.000000 0 0 1
31.708438 20.121732 -29.375679 47.678503 0.565463 2.234603 0.056261 -0.034273 -980617.000000 0 0 1
33.079938 19.620632 -29.001679 48.170000 0.535351 2.216887 0.071890 -0.017754 -1019500.000000 0 0 1
34.121338 20.225232 -29.728699 49.569358 0.535067 2.213972 0.040605 -0.022163 -646755.000000 0 0 1
35.297138 19.937532 -29.031599 49.862079 0.514172 2.192275 0.058912 -0.016164 -468594.000000 0 0 1
36.578138 20.623132 -29.537779 51.339596 0.513384 2.183817 0.058530 -0.023290 -164462.000000 0 0 1
-37.065947 20.080032 -30.665229 52.129151 -0.496478 2.199696 0.044764 -0.027941 -58099.000000 0 0 1
-36.129647 21.006732 -31.201909 52.155473 -0.526651 2.212109 0.050788 -0.032675 97327.500000 0 0 1
-35.213447 20.515232 -32.360889 52.039300 -0.527525 2.241905 0.058212 -0.036286 -157235.000000 0 0 1
-34.150247 19.752232 -31.848339 50.702138 -0.524380 2.249964 0.079967 -0.036257 -74442.400000 0 0 1
-33.479247 19.096932 -32.907319 50.679823 -0.518379 2.277484 0.093432 -0.031026 -569665.000000 0 0 1
-32.667247 17.920432 -32.439669 49.402663 -0.501748 2.287149 0.079390 -0.020232 -884991.000000 0 0 1
-33.442847 16.900032 -32.002009 49.276401 -0.467911 2.277643 0.077943 -0.020573 -202745.000000 0 0 1
-32.731947 15.701832 -32.233369 48.548100 -0.447284 2.296881 0.060254 -0.014945 258581.000000 0 0 1
-33.704847 14.557432 -32.627429 49.117051 -0.407708 2.297325 0.066082 -0.014934 93447.100000 0 0 1
-33.068947 13.330532 -32.915759 48.525309 -0.383187 2.316272 0.076053 -0.013311 105970.000000 0 0 1
-34.071347 12.335532 -32.929069 48.962697 -0.347369 2.308424 0.078519 -0.013320 -140053.000000 0 0 1
-33.597047 10.874232 -33.118489 48.413271 -0.313025 2.324136 0.081174 -0.011465 -244241.000000 0 0 1
-33.233847 10.470732 33.456502 48.305925 -0.305217 0.805714 0.079265 -0.015075 111164.000000 0 0 1
-33.409547 9.089732 33.369000 48.086497 -0.265640 0.803854 0.092896 -0.022582 -398513.000000 0 0 1
-32.697947 8.471032 32.188655 46.658586 -0.253496 0.809478 0.100664 -0.021875 47359.800000 0 0 1
-31.333147 8.253332 32.500164 45.892747 -0.257556 0.783884 0.082597 -0.010449 -318331.000000 0 0 1
-30.780447 7.414632 31.572775 44.713005 -0.236384 0.786792 0.090113 -0.018418 -150030.000000 0 0 1
21.132438 -4.486019 -32.079479 38.675539 -0.209176 2.548921 0.083638 -0.049608 -442550.000000 0 0 1
22.530338 -4.493119 -32.155499 39.519367 -0.196843 2.521224 0.084047 -0.048721 -57963.900000 0 0 1
23.264738 -3.565919 -31.357799 39.208103 -0.152092 2.497723 0.079018 -0.042905 404779.000000 0 0 1
23.319138 -2.123819 -32.025259 39.672535 -0.090826 2.510257 0.077579 -0.039604 -160109.000000 0 0 1
24.170938 -1.199719 -31.364339 39.615595 -0.049594 2.484411 0.074999 -0.032156 434455.000000 0 0 1
23.900238 0.082381 -31.844729 39.816014 0.003447 2.497753 0.073052 -0.033248 -101837.000000 0 0 1
24.928138 1.075381 -31.280229 40.012764 0.043113 2.468274 0.067562 -0.019680 286998.000000 0 0 1
26.252738 0.900481 -31.778349 41.229608 0.034287 2.450838 0.065085 -0.025296 210870.000000 0 0 1
27.063138 1.767181 -30.983689 41.176758 0.065206 2.422579 0.075231 -0.022716 760543.000000 0 0 1
28.598438 1.744181 -31.338909 42.462219 0.060913 2.400961 0.063394 -0.023326 855816.000000 0 0 1
28.779138 2.281681 -32.665419 43.594432 0.079117 2.417805 0.075875 -0.026320 -193068.000000 0 0 1
29.393138 1.325981 -33.450939 44.549749 0.045081 2.420170 0.060221 -0.018997 -125798.000000 0 0 1
30.191838 1.972181 33.236515 44.945550 0.065229 0.738493 0.063276 -0.028562 114418.000000 0 0 1
29.336438 2.733481 32.415585 43.804893 0.092909 0.737727 0.072122 -0.024329 77119.400000 0 0 1
29.482538 4.128981 32.589324 44.139920 0.139143 0.740222 0.081550 -0.017936 -533272.000000 0 0 1
28.582538 5.034581 31.811115 43.061067 0.174353 0.739591 0.089478 -0.012173 -841242.000000 0 0 1
28.863238 6.351981 32.084604 43.621737 0.216619 0.744364 0.099383 -0.012855 -124319.000000 0 0 1
28.078938 7.304581 31.422145 42.768386 0.254503 0.745565 0.090372 -0.013416 -308382.000000 0 0 1
28.533138 8.764581 31.625045 43.486795 0.298024 0.756514 0.081902 -0.012041 26475.300000 0 0 1
29.799838 9.054081 31.072645 43.994499 0.294967 0.786560 0.082250 -0.010187 -44558.600000 0 0 1
30.080338 10.427081 31.094225 44.501703 0.333679 0.797190 0.077455 -0.008691 235324.000000 0 0 1
31.451938 10.828581 30.484255 45.119534 0.331579 0.828973 0.074740 -0.003331 -2308.990000 0 0 1
32.538938 10.554181 31.333055 46.388938 0.313649 0.829232 0.071106 -0.005057 794114.000000 0 0 1
33.818738 10.956281 30.789685 47.029266 0.313301 0.857021 0.078195 -0.009522 1093130.000000 0 0 1
34.280138 12.438881 30.921165 47.811840 0.348085 0.867512 0.083568 -0.008904 -427649.000000 0 0 1
34.703538 12.830681 32.238196 49.074058 0.354136 0.854057 0.077773 -0.004714 61054.400000 0 0 1
35.102438 14.144381 32.430839 49.839783 0.383043 0.862288 0.082738 -0.002816 17846.400000 0 0 1
34.096038 15.336681 32.239281 49.367244 0.422695 0.859191 0.079030 -0.015821 -1011990.000000 0 0 1
33.681138 15.514881 30.916335 48.279917 0.431667 0.875835 0.083826 -0.026970 439821.000000 0 0 1
32.567338 16.406081 30.825205 47.749181 0.466650 0.869033 0.076226 -0.029817 1131250.000000 0 0 1
31.196938 15.808681 31.333165 46.956688 0.469024 0.840248 0.077217 -0.019545 -348597.000000 0 0 1
30.508938 15.161581 30.264275 45.569674 0.461209 0.844464 0.072920 -0.017968 666231.000000 0 0 1
29.323938 14.482381 30.720775 44.870912 0.458736 0.816676 0.057082 -0.012620 584527.000000 0 0 1
28.410038 13.912381 29.617765 43.334704 0.455373 0.818297 0.054686 -0.006960 -38805.500000 0 0 1
28.907738 12.766881 28.914515 42.833395 0.415882 0.829769 0.070298 -0.011234 8093.020000 0 0 1
28.046738 12.425681 27.853715 41.434846 0.417047 0.833581 0.065989 -0.010397 186854.000000 0 0 1
27.794138 10.904981 27.755125 40.764932 0.373893 0.821863 0.070992 -0.001854 60829.300000 0 0 1
28.947538 10.217381 27.328975 41.100215 0.339311 0.843389 0.081485 -0.006434 -127908.000000 0 0 1
28.686938 8.825781 27.196675 40.503012 0.298468 0.834602 0.092991 -0.011201 -432844.000000 0 0 1
29.731238 7.938881 26.558475 40.648800 0.260934 0.858776 0.090783 -0.011766 -558979.000000 0 0 1
29.975438 8.093881 25.216985 39.999176 0.263728 0.888679 0.095010 -0.013998 20984.900000 0 0 1
31.117338 7.329181 24.861025 40.497854 0.231318 0.909824 0.103587 -0.005954 356382.000000 0 0 1
31.551838 7.691881 23.383745 40.018534 0.239121 0.946751 0.105870 -0.010455 -56232.000000 0 0 1
32.163938 8.971181 23.204165 40.662443 0.272007 0.963495 0.095296 -0.017595 323584.000000 0 0 1
31.365238 10.103081 22.778445 40.058806 0.311616 0.965963 0.115285 -0.024659 30608.800000 0 0 1
30.946038 10.101681 21.255345 38.877897 0.315524 0.992354 0.113162 -0.001878 726473.000000 0 0 1
32.077238 10.265481 20.372645 39.362088 0.309725 1.026788 0.123338 -0.019285 725369.000000 0 0 1
31.680338 10.229881 19.020245 38.341413 0.312340 1.051723 0.135154 -0.025959 -411780.000000 0 0 1
32.767538 10.712481 17.995145 38.888225 0.315971 1.089713 0.146187 -0.057848 559728.000000 0 0 1
33.975238 9.991581 17.912245 39.686232 0.286021 1.102523 0.141548 -0.045469 325084.000000 0 0 1
34.879138 10.063681 19.005745 40.976216 0.280901 1.088490 0.120139 -0.035710 -162561.000000 0 0 1
36.285438 9.505181 18.617745 41.876030 0.256199 1.110078 0.120682 -0.028769 141154.000000 0 0 1
36.347638 8.116681 18.401245 41.540788 0.219702 1.111890 0.105031 -0.022642 -166278.000000 0 0 1
-36.803147 7.821281 17.597645 41.536986 -0.209401 1.133312 0.106824 -0.017194 -474717.000000 0 0 1
-36.567447 6.335681 17.270545 40.933981 -0.171557 1.135243 0.113096 -0.019186 252142.000000 0 0 1
36.551238 5.869881 16.541545 40.547148 0.159234 1.150580 0.102359 -0.013346 521443.000000 0 0 1
36.802538 4.552681 16.114745 40.433139 0.123080 1.160858 0.137062 -0.027328 -453049.000000 0 0 1
35.566538 3.655581 16.056445 39.193766 0.102422 1.148706 0.131019 -0.023520 -319425.000000 0 0 1
35.184238 3.062781 17.318045 39.334792 0.086831 1.114894 0.128770 -0.012777 -46891.900000 0 0 1
33.977638 2.370781 17.168245 38.142484 0.069662 1.103910 0.109137 -0.020325 -251095.000000 0 0 1
33.724438 1.453381 18.381545 38.436067 0.043069 1.072150 0.121884 -0.032969 161165.000000 0 0 1
34.513238 0.284081 18.426545 39.125207 0.008231 1.080414 0.141896 -0.029517 148589.000000 0 0 1
34.161838 -0.380619 19.594345 39.384189 -0.011141 1.050061 0.154995 -0.037700 253342.000000 0 0 1
34.763238 -1.807619 19.660745 39.978683 -0.051951 1.056663 0.154013 -0.037404 224166.000000 0 0 1
34.360038 -2.472719 20.852145 40.268331 -0.071841 1.026484 0.151728 -0.037815 116803.000000 0 0 1
34.829638 -3.781719 20.826045 40.756953 -0.108154 1.034470 0.125901 -0.034461 -45624.600000 0 0 1
34.388138 -4.535019 22.111345 41.134195 -0.131121 1.003277 0.121620 -0.037790 132784.000000 0 0 1
35.157538 -4.147119 23.233855 42.344575 -0.117416 0.990005 0.128190 -0.038269 559655.000000 0 0 1
34.737738 -4.934419 24.368615 42.718711 -0.141104 0.963750 0.114939 -0.035956 238442.000000 0 0 1
35.136038 -4.299119 25.725095 43.758474 -0.121751 0.942350 0.106396 -0.025007 195161.000000 0 0 1
34.207438 -4.634419 26.735975 43.662787 -0.134660 0.911794 0.095131 -0.028020 421374.000000 0 0 1
34.564638 -3.857119 27.893355 44.582853 -0.111132 0.894829 0.094177 -0.027248 -281287.000000 0 0 1
33.605338 -4.197119 28.997995 44.584955 -0.124251 0.862687 0.075361 -0.030201 -365355.000000 0 0 1
33.710238 -5.565819 29.366085 45.052474 -0.163631 0.860815 0.068099 -0.034310 181367.000000 0 0 1
32.729338 -5.900919 30.337765 45.015668 -0.178378 0.831270 0.065371 -0.039176 15939.200000 0 0 1
32.837338 -7.361719 30.839595 45.646098 -0.220541 0.828986 0.065163 -0.032591 187356.000000 0 0 1
33.951038 -7.705019 31.642985 47.045922 -0.223165 0.833083 0.060066 -0.031684 -83990.400000 0 0 1
34.542938 -8.937919 31.387715 47.521465 -0.253195 0.849318 0.049783 -0.015361 191513.000000 0 0 1
35.853338 -9.159519 32.184541 49.042872 -0.250122 0.854954 0.047526 -0.006756 285898.000000 0 0 1
35.637438 -9.386219 33.533369 49.825846 -0.257532 0.832523 0.038448 -0.018704 790799.000000 0 0 1
36.917138 -9.632219 -33.743179 50.933848 -0.255225 2.294935 0.024930 -0.025775 673101.000000 0 0 1
36.912038 -9.780819 -32.199059 49.949398 -0.259024 2.271340 0.047317 -0.026525 -207981.000000 0 0 1
36.324638 -8.720019 -31.419899 48.813196 -0.235600 2.270089 0.039917 -0.031160 477629.000000 0 0 1
36.934138 -7.453919 -31.567949 49.155131 -0.199142 2.268175 0.044133 -0.025579 123683.000000 0 0 1
36.260138 -6.382519 -30.663999 47.914664 -0.174235 2.265257 0.049430 -0.024196 148358.000000 0 0 1
36.539338 -6.639119 -29.291089 47.298721 -0.179737 2.238620 0.047235 -0.018155 128978.000000 0 0 1
35.780038 -5.759219 -28.513739 46.113046 -0.159593 2.237431 0.056317 -0.022080 -367964.000000 0 0 1
36.311538 -5.510119 -27.092759 45.638874 -0.150597 2.206363 0.068278 -0.025716 1298610.000000 0 0 1
-36.622447 -4.870619 -27.166229 45.857721 0.132220 2.204834 0.072196 -0.021311 1145120.000000 0 0 1
-36.210047 -4.604019 -25.863979 44.736003 0.126469 2.187252 0.077259 -0.021294 -582490.000000 0 0 1
-34.757347 -4.168819 -25.759289 43.462550 0.119370 2.205176 0.087781 -0.014164 -1389530.000000 0 0 1
-34.439747 -3.764619 -24.435899 42.395539 0.108878 2.185087 0.100725 -0.023032 828511.000000 0 0 1
-33.046047 -3.862819 -24.133799 41.102346 0.116364 2.198347 0.115498 -0.019065 1200530.000000 0 0 1
-31.976747 -2.973719 -24.874199 40.621191 0.092730 2.229820 0.107611 -0.024358 -215982.000000 0 0 1
-31.719747 -3.481819 -26.149309 41.255930 0.109330 2.257293 0.102914 -0.019238 -279586.000000 0 0 1
-30.691347 -2.798819 -26.807579 40.846524 0.090941 2.286701 0.103483 -0.015782 5602.180000 0 0 1
-30.121847 -3.386119 -28.115039 41.343039 0.111944 2.318617 0.092463 -0.013126 -7660.900000 0 0 1
-31.113747 -3.402619 -29.119989 42.750636 0.108928 2.320141 0.114157 -0.015919 -15358.300000 0 0 1
-30.780647 -4.388819 -30.102739 43.276840 0.141629 2.340031 0.090093 -0.014129 -154592.000000 0 0 1
-31.975947 -4.760119 -31.060269 44.831465 0.147780 2.336193 0.076183 -0.019440 548679.000000 0 0 1
-33.081447 -5.498019 -30.498619 45.329639 0.164691 2.308808 0.077388 -0.021119 1029540.000000 0 0 1
-33.893647 -4.785619 -29.546339 45.218001 0.140268 2.282890 0.084443 -0.019450 -173270.000000 0 0 1
-34.916247 -3.785819 -30.251429 46.353271 0.108004 2.281844 0.106282 -0.020840 -297905.000000 0 0 1
-34.393647 -2.649619 -30.932439 46.333133 0.076886 2.301790 0.121821 -0.013419 -114528.000000 0 0 1
-33.780247 -1.695119 -30.107029 45.281472 0.050139 2.298138 0.123007 -0.011362 -171399.000000 0 0 1
-33.635847 -0.255719 -30.678809 45.526091 0.007602 2.310235 0.120726 -0.008262 372224.000000 0 0 1
-34.865347 0.442381 -30.840419 46.550184 -0.012688 2.294974 0.140121 -0.010085 234416.000000 0 0 1
-34.644247 1.716181 -31.453919 46.824333 -0.049497 2.307356 0.141014 -0.001289 206183.000000 0 0 1
-35.888747 2.575481 -31.826719 48.037229 -0.071640 2.295005 0.119838 -0.000230 161022.000000 0 0 1
-36.642247 2.054081 -32.906259 49.291941 -0.055999 2.301749 0.113575 -0.006906 -653200.000000 0 0 1
36.446938 2.786381 -33.063409 49.288256 0.076302 2.306106 0.087136 -0.007221 -807073.000000 0 0 1
35.581438 2.265081 33.647759 49.023882 0.063573 0.814332 0.069727 -0.010538 -184608.000000 0 0 1
36.027438 2.501081 32.317777 48.463083 0.069310 0.840818 0.068742 -0.006534 466454.000000 0 0 1
-37.103047 1.679681 31.972533 49.007145 -0.045240 0.860042 0.074277 -0.014062 129609.000000 0 0 1
-36.869647 1.694281 30.441585 47.842780 -0.045921 0.881125 0.081087 -0.017154 -82958.400000 0 0 1
-36.327247 2.948681 30.014315 47.214645 -0.080992 0.881882 0.081181 -0.009380 140665.000000 0 0 1
-36.116047 3.008381 28.640915 46.192220 -0.083106 0.902006 0.088286 -0.012141 36265.600000 0 0 1
-35.445747 4.298481 28.142095 45.462682 -0.120680 0.903308 0.078473 -0.010111 -320173.000000 0 0 1
-34.968047 4.195181 26.804915 44.259093 -0.119401 0.920231 0.086264 -0.006987 295579.000000 0 0 1
-34.420347 5.489881 26.493445 43.781294 -0.158163 0.920865 0.085079 -0.006362 -87653.400000 0 0 1
-33.566347 5.612981 25.209975 42.352663 -0.165687 0.933233 0.097004 -0.008747 -292756.000000 0 0 1
-32.301247 4.998881 25.271305 41.315835 -0.153540 0.912637 0.093567 -0.011463 -85238.800000 0 0 1
-31.423047 5.442681 24.265475 40.072983 -0.171505 0.920362 0.091357 -0.019264 -93991.600000 0 0 1
-31.639247 5.106181 22.741645 39.297550 -0.160008 0.953658 0.106881 -0.024376 -303199.000000 0 0 1
-31.722847 3.667981 22.700545 39.180453 -0.115115 0.952823 0.101984 -0.020673 -50863.700000 0 0 1
-32.487447 3.320181 21.577145 39.141168 -0.101845 0.986917 0.122546 -0.025964 -422019.000000 0 0 1
-32.430847 1.803181 21.161545 38.766252 -0.055544 0.993363 0.123859 -0.021386 1012960.000000 0 0 1
-31.179747 1.302181 20.616545 37.402062 -0.041739 0.986978 0.116309 -0.018311 989151.000000 0 0 1
-30.766447 1.820881 19.338645 36.385067 -0.059115 1.010426 0.108930 -0.030325 -354512.000000 0 0 1
-29.395847 1.320681 18.866145 34.954134 -0.044897 1.000668 0.108483 -0.028146 -548916.000000 0 0 1
-29.248847 -0.079119 18.895445 34.821533 0.002705 0.997223 0.115002 -0.029289 491028.000000 0 0 1
-28.089247 -0.601019 18.207345 33.479463 0.021393 0.995795 0.108925 -0.026851 425146.000000 0 0 1
-27.940947 -0.577019 16.650645 32.531115 0.020648 1.033474 0.116309 -0.020660 -341311.000000 0 0 1
-27.510147 0.685881 16.183745 31.924790 -0.024927 1.039173 0.116239 -0.031308 -391.112000 0 0 1
-27.872947 0.833081 14.873845 31.604216 -0.029880 1.080793 0.138450 -0.023273 -184390.000000 0 0 1
-27.428747 2.118881 14.140045 30.931646 -0.077097 1.096021 0.136464 -0.030426 -598351.000000 0 0 1
-26.074347 2.116781 13.814445 29.583631 -0.081005 1.084944 0.116451 -0.042785 -393189.000000 0 0 1
-25.657847 3.426681 13.417445 29.156390 -0.132767 1.092588 0.117791 -0.042852 -96764.800000 0 0 1
-24.157147 3.581281 13.109445 27.717339 -0.147177 1.078139 0.096927 -0.042338 -233010.000000 0 0 1
-23.360547 3.631581 14.278745 27.618583 -0.154223 1.027456 0.073249 -0.029549 -519134.000000 0 0 1
-22.038047 3.795081 13.857745 26.308084 -0.170533 1.016025 0.072379 -0.031426 -603977.000000 0 0 1
-21.142247 4.449681 14.919645 26.256239 -0.207437 0.966440 0.066767 -0.033038 -356876.000000 0 0 1
-21.478947 5.781781 15.228445 26.956997 -0.262951 0.970465 0.055566 -0.024461 51413.100000 0 0 1
-20.797347 6.287581 16.326745 27.177673 -0.293589 0.926369 0.052631 -0.017321 -389900.000000 0 0 1
-20.988747 7.807281 16.606245 27.879177 -0.356116 0.932721 0.057017 -0.022467 -398938.000000 0 0 1
-20.272647 8.576881 15.679445 27.025694 -0.400240 0.951861 0.056957 -0.026871 450500.000000 0 0 1
-20.592147 9.970881 15.739045 27.769993 -0.450934 0.968223 0.063477 -0.015314 -155029.000000 0 0 1
-20.053147 10.738881 16.992645 28.393701 -0.491659 0.929212 0.064592 -0.010276 -95502.000000 0 0 1
-20.839147 10.531081 18.153045 29.575442 -0.467919 0.909947 0.083695 -0.021448 521718.000000 0 0 1
-20.114247 10.918881 19.305145 29.941502 -0.497332 0.870084 0.069103 -0.013655 -7274.510000 0 0 1
-12.805962 -33.544470 -20.015699 41.107814 1.206112 2.079342 0.165852 -0.047869 741750.000000 0 0 1
-13.905662 34.011481 -19.241399 41.477461 -1.182682 2.053189 0.183958 -0.043001 996741.000000 0 0 1
-15.036562 -33.189170 -19.310299 41.237202 1.145404 2.058132 0.163062 -0.063358 1114670.000000 0 0 1
-16.309162 -33.705470 -18.552099 41.787891 1.120133 2.030808 0.138906 -0.048720 -390987.000000 0 0 1
-16.799262 33.134481 -18.989599 41.721864 -1.101562 2.043334 0.141342 -0.057644 -329224.000000 0 0 1
-17.635262 32.440281 -18.139699 41.139069 -1.072863 2.027438 0.127686 -0.051988 -260220.000000 0 0 1
-18.981162 33.014081 -17.646699 41.971658 -1.049006 2.004730 0.121023 -0.054661 -1016190.000000 0 0 1
-18.971462 -33.778570 -17.036999 42.322187 1.059059 1.985102 0.135597 -0.046032 758724.000000 0 0 1
-20.242062 -33.434270 -16.427599 42.396433 1.026395 1.968688 0.103342 -0.045554 993406.000000 0 0 1
-20.569862 -34.013070 -15.000199 42.485458 1.026882 1.931643 0.107132 -0.035646 -299993.000000 0 0 1
-20.700162 32.653181 -15.127099 41.515733 -1.005794 1.943753 0.107103 -0.041038 165592.000000 0 0 1
-20.956462 32.192481 -13.818899 40.822679 -0.993737 1.916130 0.103849 -0.031604 -123557.000000 0 0 1
-21.032962 30.677281 -13.817899 39.678904 -0.969787 1.926492 0.107015 -0.032638 -92094.600000 0 0 1
-19.825762 30.014581 -13.551099 38.439150 -0.987049 1.931074 0.122341 -0.041318 -58277.600000 0 0 1
-20.044662 28.646781 -13.503999 37.480456 -0.960260 1.939380 0.129866 -0.044676 -214318.000000 0 0 1
-18.895062 27.830681 -12.892899 36.024950 -0.974352 1.936801 0.114573 -0.046844 -1096410.000000 0 0 1
-17.705562 27.989181 -13.554999 35.785740 -1.006761 1.959276 0.124661 -0.047636 -288989.000000 0 0 1
-16.757862 26.955981 -13.125199 34.347078 -1.014592 1.962901 0.130395 -0.056670 766695.000000 0 0 1
-15.317162 27.161781 -13.630999 34.032073 -1.057326 1.982896 0.101214 -0.056225 -138610.000000 0 0 1
-15.124362 27.016581 -14.996099 34.402398 -1.060447 2.021837 0.082377 -0.043173 1205100.000000 0 0 1
-13.799462 27.539881 -15.366099 34.423643 -1.106292 2.033515 0.114521 -0.046475 1453960.000000 0 0 1
-13.619562 27.870981 -16.846199 35.299837 -1.116258 2.068298 0.131481 -0.056863 -191037.000000 0 0 1
-13.686562 26.760581 -17.728599 34.896331 -1.098035 2.103700 0.099705 -0.055395 123159.000000 0 0 1
-13.969962 27.172381 -19.012599 35.985790 -1.095914 2.127436 0.082173 -0.048183 -137849.000000 0 0 1
-13.747262 26.109181 -20.073599 35.687897 -1.086151 2.168174 0.059211 -0.024959 -104885.000000 0 0 1
-12.471562 26.193681 -20.668599 35.620778 -1.126428 2.189820 0.056276 -0.024434 -241786.000000 0 0 1
-12.105862 25.086981 -21.406499 35.130425 -1.121201 2.226029 0.047739 -0.022610 -342101.000000 0 0 1
-10.788762 25.323081 -22.125599 35.315690 -1.168041 2.247862 0.076971 -0.032661 -425387.000000 0 0 1
-10.914162 26.143381 -23.287999 36.673236 -1.175318 2.258822 0.066573 -0.022175 632706.000000 0 0 1
-9.642162 26.495781 -23.861699 36.937493 -1.221781 2.273132 0.072316 -0.029226 805045.000000 0 0 1
-9.813262 27.242981 -25.178289 38.372209 -1.225053 2.286514 0.076924 -0.027660 190591.000000 0 0 1
-10.444662 26.387981 -26.125319 38.573940 -1.193906 2.314854 0.060109 -0.015189 3609.270000 0 0 1
-10.826062 27.089381 -27.341609 39.982519 -1.190598 2.323808 0.076069 -0.008299 52741.200000 0 0 1
-12.183862 26.637581 -27.903249 40.454895 -1.141811 2.331922 0.051058 0.001359 -110270.000000 0 0 1
-12.337162 26.905881 -29.245319 41.610344 -1.140871 2.350175 0.058997 0.005347 -972767.000000 0 0 1
-13.619362 26.611481 -29.660249 42.111618 -1.097765 2.352268 0.046748 0.008596 -971529.000000 0 0 1
-13.787362 26.904381 -31.211259 43.452040 -1.097232 2.372141 0.052481 0.000150 22363.000000 0 0 1
-13.114662 26.191581 -32.243989 43.562233 -1.106572 2.404138 0.059826 -0.002035 26763.300000 0 0 1
-13.387362 24.830381 -32.086209 42.723461 -1.076319 2.420403 0.043699 -0.007400 111124.000000 0 0 1
-12.621262 23.996481 -33.120449 42.802939 -1.086595 2.455598 0.047814 -0.005009 44200.900000 0 0 1
-13.059862 24.273381 33.461783 43.352600 -1.077188 0.689048 0.053994 -0.000856 102286.000000 0 0 1
-12.301462 23.578381 32.493084 41.988886 -1.089919 0.685900 0.052710 -0.004501 -316527.000000 0 0 1
-13.009162 23.682981 31.149985 41.236434 -1.068487 0.714533 0.056831 0.003261 -1093100.000000 0 0 1
-14.152862 22.934681 31.082365 41.138990 -1.017902 0.714310 0.050489 -0.008921 -1128840.000000 0 0 1
-14.651862 22.854281 29.778735 40.296009 -1.000704 0.739212 0.061099 -0.001156 757375.000000 0 0 1
-15.912962 21.922081 29.728695 40.219340 -0.942907 0.738968 0.054754 0.001952 864773.000000 0 0 1
-15.430462 20.602781 29.844425 39.411464 -0.927967 0.711700 0.035528 -0.004382 817217.000000 0 0 1
-16.551362 19.699381 29.953655 39.487146 -0.872021 0.709685 0.031995 -0.001410 860235.000000 0 0 1
-15.989962 18.248881 30.088305 38.652382 -0.851278 0.678630 0.019042 -0.009607 213827.000000 0 0 1
-15.495162 17.737681 28.881895 37.267805 -0.852775 0.684109 0.036197 -0.016697 3480.640000 0 0 1
-14.806262 16.505981 29.012805 36.515965 -0.839628 0.652573 0.014886 -0.027939 111425.000000 0 0 1
-14.384162 15.934581 27.642135 34.998609 -0.836491 0.660303 0.032861 -0.023375 548059.000000 0 0 1
-13.345362 16.737781 27.056045 34.500458 -0.897692 0.669354 0.006216 -0.019709 581952.000000 0 0 1
-12.620362 16.046381 26.019765 33.072467 -0.904346 0.665270 -0.014762 -0.012495 179969.000000 0 0 1
-11.649162 16.923981 25.220275 32.529777 -0.967950 0.683609 0.012400 -0.009485 3806.220000 0 0 1
-12.155362 17.792681 24.165335 32.377396 -0.971458 0.728214 0.015442 -0.007114 -412219.000000 0 0 1
-12.780262 18.995281 24.531045 33.554850 -0.978551 0.750903 0.020512 -0.008093 135768.000000 0 0 1
-12.018962 20.103581 25.382065 34.537786 -1.031958 0.745267 0.013029 -0.009756 71266.900000 0 0 1
-11.718362 19.787281 26.710615 35.246468 -1.036119 0.710825 0.014691 -0.012053 -287974.000000 0 0 1
-12.767262 20.058781 27.595425 36.426161 -1.003975 0.711212 0.027896 -0.007603 -352457.000000 0 0 1
-12.481762 19.577881 29.077925 37.210396 -1.003227 0.673816 0.035418 -0.012596 -402929.000000 0 0 1
-11.406662 20.273281 29.641815 37.679637 -1.058297 0.665384 0.037802 -0.018929 -390674.000000 0 0 1
-11.295962 20.033781 31.019825 38.615809 -1.057385 0.637992 0.041508 -0.022263 107386.000000 0 0 1
-10.173362 20.832081 31.725165 39.293244 -1.116511 0.631073 0.031436 -0.015364 44675.200000 0 0 1
-8.855462 20.415281 31.426035 38.507124 -1.161524 0.616150 0.035908 -0.020877 -2298.870000 0 0 1
-7.977162 21.363681 32.040607 39.327376 -1.213431 0.618559 0.052339 -0.021796 455770.000000 0 0 1
-6.683162 20.690181 32.584170 39.172393 -1.258364 0.588427 0.044437 -0.018987 2077.150000 0 0 1
-6.931662 19.872981 33.739964 39.766424 -1.235192 0.557740 0.036476 -0.015332 106395.000000 0 0 1
-5.734762 19.346481 -33.602539 39.195720 -1.282623 2.600801 0.022605 -0.008075 552907.000000 0 0 1
-4.993562 18.186981 33.535589 38.475157 -1.302832 0.512305 0.009740 -0.018733 54645.600000 0 0 1
-5.592762 16.937381 33.672223 38.104757 -1.251866 0.487140 0.006114 -0.017317 -206237.000000 0 0 1
-5.081662 16.161581 32.617925 36.755259 -1.266155 0.479045 0.026869 -0.015882 4294.490000 0 0 1
-5.597262 14.667881 32.555495 36.143275 -1.206252 0.449339 0.033207 -0.023367 -81856.700000 0 0 1
-4.974262 13.766281 33.443461 36.506422 -1.224058 0.412558 0.048355 -0.021345 -470053.000000 0 0 1
-5.561962 12.508681 33.278146 35.983851 -1.152402 0.390266 0.052031 -0.025965 -577538.000000 0 0 1
-4.840462 11.296681 33.797466 35.962672 -1.165977 0.348772 0.072435 -0.028660 -407547.000000 0 0 1
-4.817362 11.085681 -32.648309 34.813954 -1.160859 2.787017 0.081321 -0.035721 -180276.000000 0 0 1
-3.783362 10.162881 -32.378579 34.146309 -1.214419 2.818414 0.109862 -0.031589 296597.000000 0 0 1
-3.705462 9.755781 -30.871789 32.587929 -1.207805 2.815615 0.117184 -0.035312 -485105.000000 0 0 1
-4.801462 8.961981 -30.579909 32.225797 -1.078952 2.820612 0.116492 -0.032015 -599502.000000 0 0 1
-4.949462 8.975381 -29.189209 30.936461 -1.066842 2.803899 0.139044 -0.030508 557673.000000 0 0 1
-6.214662 8.153681 -28.708909 30.484521 -0.919539 2.798604 0.122905 -0.030708 752298.000000 0 0 1
-6.017462 6.744181 -28.710059 30.099192 -0.842282 2.836597 0.130704 -0.015993 302163.000000 0 0 1
-7.191662 6.043481 -28.263769 29.783961 -0.698862 2.820716 0.130932 -0.034819 360535.000000 0 0 1
-7.177562 5.465381 -26.773409 28.252491 -0.650791 2.816583 0.128379 -0.038609 -197481.000000 0 0 1
-7.201362 6.312681 -25.656089 27.385114 -0.719733 2.784344 0.090783 -0.019101 286024.000000 0 0 1
-5.990862 7.010681 -25.399929 27.022148 -0.863676 2.793330 0.107290 -0.027206 92695.000000 0 0 1
-6.124262 7.991881 -24.237599 26.245723 -0.916938 2.747871 0.070140 -0.012060 55065.800000 0 0 1
-6.387562 7.410281 -22.982699 24.978344 -0.859385 2.739145 0.060463 -0.006305 2253770.000000 0 1 0
-7.709362 7.733381 -22.347599 24.872769 -0.786954 2.687083 0.059033 -0.002891 2313980.000000 0 1 0
-7.684162 7.825881 -20.780399 23.497144 -0.794535 2.655960 0.049720 -0.003811 124556.000000 0 1 0
-6.957062 8.983481 -20.345699 23.303458 -0.911844 2.632273 0.032496 -0.000141 104695.000000 0 1 0
-6.892262 9.208981 -18.878599 22.106789 -0.928302 2.594370 0.029583 -0.004357 -194361.000000 0 1 0
-8.203862 9.490581 -18.121899 22.040366 -0.857989 2.536086 0.034935 0.000762 -520499.000000 0 1 0
-8.053862 9.558781 -16.728099 20.882153 -0.870637 2.499880 0.028762 0.000717 -330404.000000 0 1 0
-9.188562 9.957481 -15.990499 20.958940 -0.825537 2.438651 0.031436 -0.003769 356271.000000 0 1 0
-9.835262 11.382181 -16.218699 22.120864 -0.858177 2.393791 0.054252 -0.012297 293081.000000 0 1 0
-8.806162 12.355781 -16.013799 22.060272 -0.951587 2.383155 0.031260 -0.006085 468435.000000 0 1 0
-9.280562 13.690881 -16.161499 23.124946 -0.975081 2.344623 0.044112 -0.013817 391174.000000 0 1 0
-8.181062 14.774781 -15.901699 23.196724 -1.065103 2.326107 0.053715 -0.013371 78491.000000 0 1 0
-7.554762 14.754681 -14.644399 22.118623 -1.097575 2.294393 0.047337 -0.011753 264329.000000 0 1 0
-8.363462 15.292781 -13.596899 22.106387 -1.070344 2.233267 0.045036 -0.026584 -592491.000000 0 1 0
-7.586562 16.079581 -12.484499 21.724907 -1.129951 2.182989 0.036906 -0.023735 97470.500000 0 1 0
-7.270762 17.398881 -12.891399 22.842356 -1.174966 2.170459 0.045868 -0.021049 541129.000000 0 1 0
-6.277662 17.478681 -13.942799 23.223157 -1.225984 2.214777 0.054480 -0.015385 -94751.100000 0 1 0
-5.993962 18.877781 -14.525599 24.561988 -1.263350 2.203572 0.074716 -0.014488 119789.000000 0 1 0
-5.412462 19.689181 -13.505799 24.481937 -1.302528 2.155154 0.070628 -0.024762 -90381.000000 0 1 0
-5.280062 20.998281 -13.966099 25.765458 -1.324451 2.143668 0.077782 -0.021028 -90742.500000 0 0 1
-4.768762 22.089681 -12.950999 26.046564 -1.358177 2.091194 0.080401 -0.021416 -568682.000000 0 0 1
-4.834962 23.492281 -13.249099 27.400781 -1.367820 2.075479 0.080396 -0.025202 648096.000000 0 0 1
-6.121362 24.118181 -13.130099 28.134627 -1.322238 2.056339 0.075331 -0.023730 527773.000000 0 0 1
-6.942262 24.039881 -11.847699 27.685355 -1.289664 2.013010 0.053372 -0.023751 -437065.000000 0 0 1
-7.393062 22.723981 -11.559699 26.545496 -1.256255 2.021354 0.054048 -0.027757 -239949.000000 0 0 1
-8.180062 22.633681 -10.359499 26.201454 -1.223992 1.977277 0.057382 -0.027054 176930.000000 0 0 1
-7.533362 22.736881 -8.919799 25.559345 -1.250852 1.927283 0.060803 -0.027170 -202603.000000 0 0 1
-7.272462 24.107681 -8.753499 26.658821 -1.277812 1.905356 0.052038 -0.023521 -45166.800000 0 0 1
-6.742862 24.459181 -7.461599 26.446043 -1.301800 1.856825 0.051973 -0.024409 217036.000000 0 0 1
-6.766962 26.010381 -7.151399 27.811405 -1.316275 1.830857 0.055825 -0.024274 39875.900000 0 0 1
-6.019362 26.932681 -7.942299 28.717280 -1.350913 1.851018 0.055913 -0.024052 -12683.600000 0 0 1
-6.384462 26.995781 -9.315799 29.262906 -1.338565 1.894783 0.053585 -0.025753 150224.000000 0 0 1
-5.764862 28.289781 -9.999299 30.553745 -1.369770 1.904208 0.047701 -0.023279 539580.000000 0 0 1
-6.572162 29.478281 -9.952499 31.799601 -1.351435 1.889121 0.045876 -0.018337 -366311.000000 0 0 1
-7.452362 29.515681 -11.018199 32.374587 -1.323477 1.918069 0.062672 -0.021033 -796196.000000 0 0 1
-8.609662 30.480381 -10.802699 33.464582 -1.295503 1.899493 0.059855 -0.019558 -717661.000000 0 0 1
-9.629062 30.034681 -9.951499 33.073150 -1.260551 1.876426 0.066088 -0.019558 -556400.000000 0 0 1
-10.706262 30.913781 -10.131999 34.248260 -1.237398 1.871131 0.058539 -0.029704 210615.000000 0 0 1
-11.969162 30.556481 -9.279299 34.103736 -1.197460 1.846361 0.076450 -0.032846 378564.000000 0 0 1
-12.584462 29.354681 -9.640199 33.361646 -1.165793 1.863937 0.089041 -0.038313 -462516.000000 0 0 1
-13.821062 29.210581 -9.001899 33.545700 -1.128856 1.842473 0.113999 -0.034451 81239.000000 0 0 1
-14.624762 27.932981 -9.413299 32.905096 -1.088474 1.860924 0.120829 -0.035661 126985.000000 0 0 1
-14.321462 26.722881 -8.758299 31.558271 -1.078823 1.852016 0.115453 -0.045549 -98431.400000 0 0 1
-15.287562 25.759781 -9.109199 31.308999 -1.035195 1.866011 0.139035 -0.049815 -41521.600000 0 0 1
-15.153362 24.344681 -8.535499 29.918935 -1.014032 1.860103 0.129660 -0.047122 478646.000000 0 0 1
-14.050062 23.617081 -9.099099 28.947615 -1.034127 1.890547 0.133530 -0.044526 475762.000000 0 0 1
-14.198862 22.265981 -8.773199 27.827157 -1.003121 1.891542 0.120424 -0.040947 -133625.000000 0 0 1
-13.144562 21.298481 -9.353699 26.718842 -1.017855 1.928452 0.119086 -0.040260 -254299.000000 0 0 1
-13.124662 21.244881 -10.746699 27.186270 -1.017406 1.977189 0.112036 -0.033457 -4554.120000 0 0 1
-12.569762 20.052081 -11.170399 26.169882 -1.010864 2.011794 0.100880 -0.025765 -266982.000000 0 0 1
-12.675662 19.814681 -12.686699 26.725388 -1.001688 2.065426 0.102648 -0.016691 -20439.600000 0 0 1
-14.013262 19.544281 -13.020199 27.347322 -0.948751 2.067017 0.116396 -0.014623 -265479.000000 0 0 1
-14.181362 19.595981 -14.413099 28.157609 -0.944349 2.108159 0.110976 -0.000748 594636.000000 0 0 1
-15.537162 18.976581 -14.914099 28.704432 -0.884724 2.117150 0.100118 -0.009572 1258530.000000 0 0 1
-16.596162 19.951781 -14.795699 29.873381 -0.876956 2.088954 0.099411 -0.012324 -90818.300000 0 0 1
-17.818462 19.394281 -15.181199 30.399088 -0.827719 2.093698 0.095477 -0.005854 -637065.000000 0 0 1
-18.886862 20.365681 -15.620799 31.866658 -0.823055 2.083107 0.084563 -0.008018 -303638.000000 0 0 1
-19.542262 21.191981 -14.668699 32.344564 -0.825876 2.041500 0.089295 -0.012369 449850.000000 0 0 1
-19.966662 22.390781 -15.310599 33.681288 -0.842566 2.042689 0.079138 -0.016434 -77621.600000 0 0 1
-20.294862 23.556381 -14.413299 34.271384 -0.859638 2.004863 0.080128 -0.012701 -669675.000000 0 0 1
-21.510762 23.440481 -13.761099 34.663193 -0.828301 1.979036 0.087562 -0.018000 -478725.000000 0 0 1
-21.947362 24.666681 -13.173799 35.548289 -0.843669 1.950439 0.096189 -0.030429 124811.000000 0 0 1
-26.629762 -1.152219 3.856301 26.932191 0.043241 1.427117 0.217070 -0.039165 -108917.000000 0 0 1
-26.891442 -0.358019 4.991301 27.353079 0.013313 1.387291 0.194600 -0.035351 -784231.000000 0 0 1
-28.262992 -0.308019 5.140201 28.728266 0.010898 1.390903 0.183724 -0.034886 -891023.000000 0 0 1
-28.797292 0.440681 6.384901 29.499919 -0.015302 1.352632 0.187641 -0.034968 -135087.000000 0 0 1
-28.698592 1.821981 6.195301 29.416162 -0.063402 1.358599 0.198810 -0.044467 105639.000000 0 0 1
-29.290272 2.511281 7.228101 30.273289 -0.085529 1.329706 0.215278 -0.035906 -497203.000000 0 0 1
-28.278192 2.977481 8.249301 29.606967 -0.104906 1.288432 0.223779 -0.030718 17572.200000 0 0 1
-27.580362 1.979481 9.028801 29.088038 -0.071649 1.255187 0.189744 -0.040752 1327010.000000 0 0 1
-26.364472 2.523281 9.581201 28.164725 -0.095417 1.223683 0.167451 -0.050376 663835.000000 0 0 1
-25.526632 1.408581 10.297301 27.561340 -0.055125 1.187894 0.146869 -0.046956 -202910.000000 0 0 1
-24.509062 0.825581 9.505001 26.300585 -0.033672 1.201029 0.133970 -0.042509 146504.000000 0 0 1
-24.896062 -0.277919 8.743001 26.388089 0.011163 1.233090 0.120701 -0.034700 -71400.900000 0 0 1
-23.734762 -0.961119 7.944601 25.047542 0.040472 1.248041 0.113929 -0.042301 840700.000000 0 0 1
-22.712562 -1.433519 8.830301 24.410852 0.063032 1.200666 0.113219 -0.059190 -116132.000000 0 1 0
-21.558462 -1.908919 8.234501 23.156387 0.088316 1.207236 0.136664 -0.044870 -394249.000000 0 1 0
-20.444062 -2.232219 9.249601 22.549891 0.108756 1.148141 0.114072 -0.033623 -317536.000000 0 1 0
-19.798362 -1.133119 9.823701 22.130617 0.057171 1.110854 0.100278 -0.031982 484798.000000 0 1 0
-20.536562 -0.510819 10.853201 23.233667 0.024868 1.084751 0.106393 -0.035542 -713746.000000 0 1 0
-20.008762 0.951081 10.994301 22.850159 -0.047497 1.068833 0.066474 -0.025965 -327355.000000 0 1 0
-20.291362 2.063481 10.197301 22.803120 -0.101344 1.107176 0.076000 -0.018144 705736.000000 0 1 0
-21.691862 2.287681 10.012101 24.000261 -0.105074 1.140471 0.098905 -0.033611 176666.000000 0 1 0
-21.936262 3.757281 9.563701 24.223566 -0.169636 1.164936 0.081749 -0.037759 -482331.000000 0 1 0
-22.055662 4.687681 10.639601 24.932463 -0.209422 1.129915 0.069055 -0.039059 516270.000000 0 1 0
-22.433462 5.995681 10.241801 25.379183 -0.261161 1.155401 0.058091 -0.032470 -232314.000000 0 0 1
-22.634362 7.001681 11.374801 26.281628 -0.300002 1.123195 0.060846 -0.036436 -910545.000000 0 0 1
-23.781962 6.837181 12.111501 27.550267 -0.279945 1.115627 0.075932 -0.032518 -674966.000000 0 0 1
-23.769862 7.763281 13.232301 28.290788 -0.315680 1.084082 0.089483 -0.028042 -163257.000000 0 0 1
-24.553562 7.180181 14.400101 29.356351 -0.284497 1.058101 0.106377 -0.030987 966950.000000 0 0 1
-25.974372 7.028481 14.204801 30.427684 -0.264264 1.085084 0.124903 -0.039118 880605.000000 0 0 1
-26.663842 6.597281 15.329101 31.455777 -0.242553 1.061776 0.118893 -0.040050 808878.000000 0 0 1
-28.210082 6.403181 15.072101 32.618671 -0.223200 1.090469 0.126672 -0.037088 962238.000000 0 0 1
-28.375872 5.342881 14.166501 32.162498 -0.186111 1.114678 0.143095 -0.035705 -793600.000000 0 0 1
-29.372992 5.660381 13.293101 32.734067 -0.190373 1.152621 0.185866 -0.019505 -923663.000000 0 0 1
-29.816932 4.477981 12.375701 32.592326 -0.149068 1.181311 0.194475 -0.019496 -171001.000000 0 0 1
-30.754522 3.574281 12.917901 33.548298 -0.115701 1.175530 0.180690 -0.023851 76298.400000 0 0 1
-31.136712 2.656681 11.976101 33.466099 -0.085117 1.204824 0.182845 -0.011061 70637.800000 0 0 1
-32.360442 1.794681 12.413901 34.706254 -0.055402 1.205009 0.161943 -0.002853 302808.000000 0 0 1
-32.105292 0.774681 13.339001 34.774687 -0.024125 1.177123 0.144787 -0.007427 889306.000000 0 0 1
-33.395342 0.308181 13.783701 36.129410 -0.009228 1.179368 0.133869 -0.010606 964158.000000 0 0 1
-33.259122 -1.035419 14.573401 36.326647 0.031122 1.157995 0.114629 -0.021198 -195457.000000 0 0 1
-33.042892 -2.273219 13.881101 35.912187 0.068688 1.173931 0.110459 -0.018413 237776.000000 0 0 1
-33.025132 -3.329119 14.826801 36.353492 0.100466 1.150697 0.111410 -0.015012 -135141.000000 0 0 1
-32.951332 -4.796719 14.296501 36.237946 0.144554 1.165254 0.097214 -0.016116 -187366.000000 0 0 1
-33.980692 -5.188019 13.419501 36.901030 0.151506 1.198600 0.086803 -0.025225 -18426.900000 0 0 1
-33.925102 -6.602019 13.052001 36.943930 0.192203 1.209708 0.092121 -0.019819 -625557.000000 0 0 1
-35.152384 -7.045319 12.240301 37.883394 0.197802 1.241788 0.092142 -0.011731 1236780.000000 0 0 1
-36.453732 -7.006019 12.882201 39.292620 0.189874 1.236766 0.076325 -0.017795 1070920.000000 0 0 1
-37.044852 -5.723019 12.993401 39.672440 0.153277 1.237122 0.090660 -0.019173 -723783.000000 0 0 1
35.722732 -5.732919 12.622301 38.318435 -0.159127 1.235123 0.109804 -0.023416 -161627.000000 0 0 1
34.821622 -6.405119 13.472101 37.882297 -0.181907 1.207208 0.105222 -0.022079 571110.000000 0 0 1
33.478192 -6.187419 12.998401 36.442173 -0.182757 1.206079 0.126751 -0.024830 1291130.000000 0 0 1
32.397202 -7.174619 13.566601 35.848383 -0.217941 1.182682 0.117852 -0.021596 238490.000000 0 0 1
31.968962 -7.116319 14.894601 35.979240 -0.219030 1.143977 0.127144 -0.017610 282360.000000 0 0 1
31.028352 -8.185419 15.042201 35.440479 -0.257928 1.132458 0.116235 -0.022400 270743.000000 0 0 1
30.434692 -8.241419 16.460301 35.568708 -0.264448 1.089674 0.111811 -0.026525 -373948.000000 0 0 1
31.420102 -8.557419 17.382901 36.913649 -0.265905 1.080478 0.090140 -0.026745 -248127.000000 0 0 1
30.911302 -8.745319 18.663901 37.152798 -0.275711 1.044476 0.085801 -0.031583 -384678.000000 0 0 1
32.060022 -9.158519 19.607501 38.680455 -0.278257 1.039200 0.088918 -0.027953 99037.600000 0 0 1
32.989252 -8.095919 19.787701 39.311420 -0.240655 1.043316 0.095522 -0.026178 -750015.000000 0 0 1
34.236752 -8.598519 19.405001 40.282053 -0.246060 1.068171 0.061273 -0.016514 -1479640.000000 0 0 1
35.389932 -7.899619 20.031901 41.426179 -0.219616 1.066083 0.053531 -0.018516 -903300.000000 0 0 1
35.519682 -8.151419 21.424801 42.274289 -0.225584 1.039322 0.045102 -0.011718 107038.000000 0 0 1
36.830982 -7.782319 21.815701 43.508741 -0.208235 1.045569 0.028763 -0.006811 182776.000000 0 0 1
-36.934762 -8.558619 23.048001 44.369324 0.227704 1.024580 0.029353 -0.003602 -547109.000000 0 0 1
36.625632 -8.197719 24.173201 44.642840 -0.220195 0.998600 0.044923 -0.013010 -94894.100000 0 0 1
36.660292 -9.101119 25.277101 45.450404 -0.243336 0.981054 0.041453 -0.018852 -400759.000000 0 0 1
36.041092 -8.445719 26.542801 45.550091 -0.230182 0.948729 0.060031 -0.017401 967071.000000 0 0 1
37.080532 -7.710919 27.259301 46.663622 -0.205029 0.946944 0.045805 -0.026575 888717.000000 0 0 1
36.558332 -6.975319 28.384301 46.806359 -0.188534 0.919246 0.054034 -0.031923 -447308.000000 0 0 1
-36.594472 -6.369019 29.219201 47.259724 0.172317 0.904259 0.054633 -0.031483 -284227.000000 0 0 1
-36.113432 -7.123219 30.263301 47.652782 0.194746 0.882685 0.046972 -0.029027 -1261110.000000 0 0 1
-34.740918 -7.006319 30.353801 46.662331 0.199004 0.862555 0.036650 -0.030397 -769639.000000 0 0 1
-34.095734 -7.627519 31.594501 47.105314 0.220085 0.835617 0.031367 -0.021178 -99419.700000 0 0 1
-34.122376 -9.049819 31.650601 47.413039 0.259248 0.839882 0.031968 -0.021513 147005.000000 0 0 1
-33.615052 -9.541919 32.857801 47.965144 0.276583 0.816145 0.031783 -0.020159 -406754.000000 0 0 1
-33.646972 -11.063419 32.965401 48.386316 0.317673 0.821265 0.038131 -0.018874 342914.000000 0 0 1
-34.980950 -11.572919 33.054401 49.499421 0.319500 0.839583 0.026920 -0.018579 515732.000000 0 0 1
-35.096096 -13.009519 32.995001 49.896429 0.354980 0.848286 0.029208 -0.018006 -544249.000000 0 0 1
-36.576482 -13.338719 32.959301 51.010548 0.349693 0.868297 0.027531 -0.014377 -594475.000000 0 0 1
-36.940822 -14.676219 33.028901 51.680983 0.378168 0.877479 0.034461 -0.019455 -519472.000000 0 0 1
35.925092 -14.806019 33.165601 51.086080 -0.390924 0.864251 0.031432 -0.010705 -471893.000000 0 0 1
35.587102 -16.295819 33.451501 51.487848 -0.429415 0.863611 0.030466 -0.014115 -54749.400000 0 0 1
36.026932 -16.823419 -33.168644 51.779593 -0.436874 2.266041 0.043149 -0.014990 233152.000000 0 0 1
35.754302 -18.213219 -33.099944 52.016322 -0.471139 2.260538 0.047440 -0.025253 -495396.000000 0 0 1
36.018152 -18.807019 -31.714744 51.544507 -0.481213 2.233548 0.056587 -0.009003 -16503.100000 0 0 1
35.024972 -18.635519 -30.745644 50.192887 -0.488968 2.230079 0.066769 -0.006461 -144921.000000 0 0 1
35.497632 -19.311219 -29.602344 50.092952 -0.498236 2.203030 0.061877 -0.005652 -26658.500000 0 0 1
34.457962 -19.304819 -28.417744 48.657943 -0.510673 2.194482 0.057035 -0.003775 430922.000000 0 0 1
33.246732 -19.940019 -28.701144 48.235933 -0.540242 2.208082 0.063500 0.001223 -260646.000000 0 0 1
32.267932 -19.195819 -29.372044 47.669863 -0.536652 2.234648 0.052421 0.009557 -1310640.000000 0 0 1
30.997322 -19.975019 -29.606944 47.290660 -0.572436 2.247291 0.036243 0.010861 -336979.000000 0 0 1
29.978912 -19.291019 -30.343944 46.814886 -0.571783 2.275973 0.018871 0.016536 45853.800000 0 0 1
28.919622 -20.174619 -30.584844 46.677537 -0.609120 2.285292 0.022322 0.008493 64057.100000 0 0 1
27.865822 -19.545219 -31.532644 46.398570 -0.611668 2.318019 0.018759 0.011717 233470.000000 0 0 1
28.422822 -19.443219 -32.829644 47.578158 -0.599955 2.332306 0.013899 0.010387 191715.000000 0 0 1
27.443222 -19.515519 -33.835744 47.737234 -0.618152 2.358580 0.033425 0.004805 -51249.100000 0 0 1
28.095922 -19.776719 32.674101 47.414094 -0.613339 0.810519 0.047986 0.003877 268131.000000 0 0 1
28.902722 -18.690519 32.184401 47.122590 -0.574031 0.818944 0.033225 0.003744 398021.000000 0 0 1
29.168622 -18.568719 30.755501 46.276416 -0.566897 0.843832 0.045695 -0.006185 -32486.400000 0 0 1
27.997122 -17.969819 29.915701 44.740389 -0.570621 0.838403 0.041181 -0.004630 95074.900000 0 0 1
27.690522 -16.664019 30.305201 44.304173 -0.541738 0.817529 0.049533 -0.008412 201070.000000 0 0 1
27.046822 -15.991219 29.242701 42.923015 -0.533955 0.821283 0.057169 -0.005997 70352.100000 0 0 1
26.610322 -14.575519 29.649001 42.421908 -0.501106 0.796927 0.068933 -0.010327 -50463.700000 0 0 1
27.782722 -13.841319 29.880301 43.084732 -0.462206 0.804427 0.069393 -0.006885 226976.000000 0 0 1
27.513022 -12.516519 30.244001 42.758967 -0.426947 0.785106 0.092228 -0.007331 102407.000000 0 0 1
28.824122 -11.707819 30.381001 43.484575 -0.385824 0.797271 0.090016 -0.016383 284751.000000 0 0 1
29.386522 -11.273719 29.129401 42.885737 -0.366320 0.824079 0.081148 -0.017105 685159.000000 0 0 1
30.698022 -10.753119 29.393701 43.840481 -0.336930 0.835955 0.077327 -0.018807 673017.000000 0 0 1
31.382842 -10.168819 28.144001 43.363261 -0.313350 0.864489 0.081805 -0.023735 -244383.000000 0 0 1
31.114552 -8.775919 28.013201 42.776998 -0.274910 0.856791 0.078054 -0.024736 9991.170000 0 0 1
31.704422 -8.064119 26.933801 42.374875 -0.249072 0.882001 0.075761 -0.025243 -187305.000000 0 0 1
31.419662 -6.616619 26.775601 41.807985 -0.207556 0.875722 0.086967 -0.031298 67741.000000 0 0 1
30.078382 -6.327919 26.428001 40.536291 -0.207357 0.860631 0.099635 -0.029294 -93384.400000 0 0 1
29.855562 -4.953419 26.457801 40.198336 -0.164415 0.852396 0.104608 -0.026969 86792.800000 0 0 1
28.373422 -4.590919 26.255401 38.929085 -0.160413 0.830588 0.093485 -0.021680 46938.500000 0 0 1
27.879522 -4.723919 24.904701 37.680596 -0.167846 0.848723 0.114579 -0.032779 1076230.000000 0 0 1
26.431022 -4.767319 24.979201 36.678151 -0.178450 0.821618 0.115397 -0.029079 1002060.000000 0 0 1
25.852722 -4.981519 23.580801 35.344490 -0.190355 0.840393 0.108903 -0.026875 -282275.000000 0 0 1
26.116122 -3.949719 22.652301 34.796248 -0.150099 0.861897 0.113210 -0.021649 286322.000000 0 0 1
25.626622 -4.387519 21.373201 33.656913 -0.169565 0.882747 0.104589 -0.023747 56679.600000 0 0 1
25.986322 -3.514119 20.208301 33.106093 -0.134414 0.914218 0.107936 -0.027350 -232219.000000 0 0 1
25.147322 -2.393319 20.167401 32.323983 -0.094886 0.897055 0.097266 -0.017499 -87246.000000 0 0 1
25.632822 -1.314619 19.366601 32.153305 -0.051242 0.924391 0.111358 -0.029477 -695583.000000 0 0 1
24.592022 -0.389819 18.746801 30.925104 -0.015850 0.919522 0.083041 -0.031674 -385475.000000 0 0 1
23.618022 -1.068719 17.984401 29.705081 -0.045219 0.920488 0.083005 -0.029205 223504.000000 0 0 1
22.519122 -0.228919 17.616501 28.592033 -0.010165 0.906972 0.089034 -0.032311 373249.000000 0 0 1
21.381322 -1.017419 16.959401 27.309657 -0.047549 0.900774 0.077033 -0.026785 -370907.000000 0 0 1
21.736322 -1.798119 15.844601 26.958344 -0.082536 0.942529 0.096945 -0.030140 -408941.000000 0 0 1
20.679222 -2.621219 15.455001 25.949144 -0.126084 0.932799 0.096332 -0.031492 -358420.000000 0 0 1
20.977422 -3.222119 14.087801 25.473524 -0.152408 0.984791 0.104355 -0.034004 -667536.000000 0 0 1
19.982322 -4.084619 13.645201 24.539128 -0.201634 0.981160 0.105145 -0.032124 80860.900000 0 1 0
20.192422 -4.406519 12.272701 24.036857 -0.214858 1.034939 0.113030 -0.031971 169860.000000 0 1 0
18.994022 -5.285519 11.775601 22.964633 -0.271406 1.032387 0.092488 -0.028768 220270.000000 0 1 0
18.864322 -6.490219 12.470901 23.526771 -0.331362 1.012110 0.096496 -0.031830 761181.000000 0 1 0
17.645722 -7.134819 12.141301 22.576278 -0.384240 1.002983 0.082346 -0.026153 60411.000000 0 1 0
17.704622 -8.613219 12.539201 23.342509 -0.452786 1.003703 0.101092 -0.037807 -112097.000000 0 1 0
18.542722 -9.298119 11.618401 23.775508 -0.464801 1.060231 0.086082 -0.042929 568072.000000 0 1 0
18.369022 -10.709519 11.626301 24.233977 -0.527841 1.070424 0.097713 -0.045493 59966.800000 0 1 0
19.138822 -11.351519 10.422301 24.571851 -0.535341 1.132767 0.111522 -0.044567 329426.000000 0 1 0
18.485822 -11.107819 9.177701 23.437992 -0.541069 1.168455 0.095922 -0.032743 544635.000000 0 1 0
19.217622 -11.673619 8.097901 23.899087 -0.545875 1.225116 0.114179 -0.039392 -83610.300000 0 1 0
18.890322 -11.097319 6.739701 22.922005 -0.531148 1.272358 0.111011 -0.025060 -288474.000000 0 1 0
19.427522 -9.808819 6.561801 22.731009 -0.467554 1.277957 0.128218 -0.018857 603791.000000 0 1 0
19.733122 -9.588819 5.202801 22.547964 -0.452324 1.337954 0.106522 -0.018242 -258536.000000 0 1 0
20.311322 -8.208619 5.021001 22.475357 -0.384070 1.345495 0.137121 -0.012024 -274657.000000 0 1 0
20.646522 -7.798919 3.727901 22.383013 -0.361167 1.403466 0.112089 -0.021713 538248.000000 0 1 0
21.173122 -6.477319 3.773801 22.461041 -0.296881 1.401980 0.131457 -0.018528 -304686.000000 0 1 0
21.662822 -6.014419 2.409501 22.610989 -0.270817 1.464030 0.128670 -0.026693 -163755.000000 0 1 0
20.649422 -5.781519 1.474701 21.494170 -0.272994 1.502133 0.087521 -0.041199 459855.000000 0 1 0
21.288822 -5.266019 0.328501 21.932917 -0.242493 1.555818 0.102262 -0.036253 287662.000000 0 1 0
-26.062882 -15.168319 -0.519399 30.159932 0.527071 1.588019 0.131142 -0.019415 -261374.000000 0 0 1
-24.932262 -14.516519 -1.063899 28.870035 0.527257 1.607656 0.138202 -0.011154 620890.000000 0 0 1
-23.677362 -15.048219 -0.638499 28.061968 0.566152 1.593551 0.131239 -0.009930 505208.000000 0 0 1
-23.136062 -14.447019 0.684701 27.284841 0.558195 1.545699 0.148319 -0.027722 -494494.000000 0 0 1
-23.758362 -14.869219 1.882301 28.090862 0.559212 1.503739 0.131903 -0.007373 -48629.200000 0 0 1
-23.128762 -14.288819 2.963901 27.347663 0.553401 1.462204 0.153384 0.000015 145108.000000 0 0 1
-23.542062 -15.086919 4.279601 28.287078 0.569916 1.418921 0.141381 0.002722 339404.000000 0 0 1
-22.997262 -16.424619 4.319601 28.588479 0.620192 1.419120 0.159295 -0.018013 280455.000000 0 0 1
-23.479662 -17.153219 5.413701 29.577620 0.630941 1.386725 0.147949 -0.025552 -135673.000000 0 0 1
-23.497862 -18.691819 5.270601 30.484633 0.671972 1.397029 0.110822 -0.020491 -227666.000000 0 0 1
-24.018962 -19.334719 6.365101 31.484225 0.677769 1.367225 0.097317 -0.020956 -108319.000000 0 0 1
-24.371962 -20.661619 6.078401 32.524483 0.703193 1.382804 0.089380 -0.023339 107687.000000 0 0 1
-25.039662 -21.490619 7.231101 33.780471 0.709272 1.355065 0.081954 -0.018351 -68641.500000 0 0 1
-24.122962 -21.960919 8.163801 33.628067 0.738517 1.325579 0.080918 -0.013857 -410625.000000 0 0 1
-24.758162 -22.782119 9.109201 34.856406 0.743856 1.306391 0.066771 -0.004972 -392664.000000 0 0 1
-23.776762 -23.352119 10.115701 34.827909 0.776388 1.276101 0.070848 -0.012125 -132025.000000 0 0 1
-23.714362 -22.473419 11.214801 34.542688 0.758537 1.240139 0.072437 -0.012360 134582.000000 0 0 1
-22.848862 -22.921219 12.243201 34.602727 0.786979 1.209142 0.084811 -0.012650 -87091.600000 0 0 1
-22.982362 -22.030219 13.504301 34.581580 0.764248 1.169616 0.062159 -0.006903 58020.400000 0 0 1
-24.266462 -22.221019 14.062601 35.782560 0.741427 1.166903 0.057376 -0.009255 -331898.000000 0 0 1
-24.488862 -21.185319 15.008201 35.689889 0.713195 1.136781 0.049726 0.006877 -158206.000000 0 0 1
-25.938372 -21.194719 15.565901 36.936601 0.685092 1.135783 0.043334 -0.000969 359492.000000 0 0 1
-26.938622 -21.114519 14.543301 37.188975 0.664785 1.169008 0.046421 -0.001172 420988.000000 0 0 1
-27.245552 -22.348619 13.828101 37.854950 0.686977 1.196850 0.040329 0.001538 -730619.000000 0 0 1
-28.471312 -23.133619 14.353501 39.392930 0.682331 1.197843 0.024928 -0.004366 -131207.000000 0 0 1
-28.334502 -23.411519 15.715201 39.973876 0.690546 1.166756 0.030481 -0.007935 -330991.000000 0 0 1
-29.250202 -24.312219 16.269001 41.368330 0.693467 1.166609 0.031341 -0.012856 -241379.000000 0 0 1
-29.082942 -25.840999 15.887901 42.023804 0.726441 1.183087 0.047351 -0.018341 -24034.000000 0 0 1
-29.479422 -26.227269 14.550201 42.054896 0.727084 1.217512 0.055352 -0.027813 383930.000000 0 0 1
-30.530112 -27.194049 14.697401 43.446722 0.727669 1.225702 0.099105 -0.036783 671889.000000 0 0 1
-31.391562 -27.467589 13.408501 43.814227 0.718829 1.259775 0.146993 -0.051090 44444.200000 0 0 1
-30.760692 -28.261229 12.443501 43.586213 0.743075 1.281277 0.120020 -0.050981 160687.000000 0 0 1
-31.622302 -28.496169 11.336701 44.051361 0.733445 1.310516 0.129803 -0.033054 78120.800000 0 0 1
-31.213582 -29.769859 10.521601 44.398607 0.761729 1.331540 0.107449 -0.031123 91062.200000 0 0 1
-31.276822 -30.971539 11.243101 45.429981 0.780494 1.320716 0.106751 -0.027529 -2121.550000 0 0 1
-30.772872 -32.085129 10.534701 45.688128 0.806272 1.338124 0.101583 -0.034030 -228247.000000 0 0 1
-30.864852 -33.492359 11.220701 46.907156 0.826202 1.329243 0.107908 -0.033155 -361920.000000 0 0 1
-32.160682 -33.969219 11.468601 48.163743 0.812740 1.330370 0.108486 -0.029403 -224416.000000 0 0 1
-32.134272 32.800095 11.869101 47.427136 -0.795652 1.317848 0.117925 -0.033383 -197152.000000 0 0 1
-33.411392 32.341134 12.641301 48.187888 -0.769123 1.305357 0.121522 -0.029785 1260660.000000 0 0 1
-34.634240 32.129544 11.914201 48.721519 -0.747900 1.323754 0.084611 -0.027047 1160610.000000 0 0 1
-35.233567 33.276990 11.288201 49.761288 -0.756847 1.341957 0.113319 -0.021418 -177608.000000 0 0 1
-36.657592 33.048363 10.693101 50.500651 -0.733666 1.357439 0.099065 -0.000535 356487.000000 0 0 1
-36.804832 32.280208 9.472101 49.863095 -0.719998 1.379673 0.077888 -0.004954 -254019.000000 0 0 1
36.078782 32.169207 9.196801 49.204853 0.728176 1.382782 0.066560 -0.007113 -471998.000000 0 0 1
35.795802 31.554082 7.836401 48.357096 0.722501 1.408026 0.062745 -0.013814 -145653.000000 0 0 1
35.926522 30.099402 7.763201 47.507434 0.697371 1.406650 0.084067 -0.023131 177469.000000 0 0 1
35.856552 29.625892 6.403301 46.950912 0.690534 1.433987 0.102432 -0.020701 -99390.300000 0 0 1
35.900122 28.091312 6.254001 46.011446 0.663970 1.434452 0.107882 -0.016240 229910.000000 0 0 1
34.877782 27.354122 6.935501 44.864339 0.665085 1.415586 0.102051 -0.022132 216413.000000 0 0 1
35.125302 26.937612 8.246801 45.027009 0.654230 1.386604 0.085615 -0.011666 -112091.000000 0 0 1
34.140912 25.831052 8.678001 43.682409 0.647712 1.370805 0.078584 -0.011822 74343.700000 0 0 1
34.289102 24.631022 7.940201 42.959010 0.622925 1.384895 0.084155 -0.017612 -102155.000000 0 0 1
33.126442 23.852792 7.856401 41.569699 0.624058 1.380659 0.078235 -0.017874 -613357.000000 0 0 1
33.369192 22.672932 6.893301 40.927771 0.596805 1.401564 0.073402 -0.015972 588821.000000 0 0 1
34.326732 21.617432 7.156601 41.192898 0.562011 1.396176 0.097332 -0.013247 -318623.000000 0 0 1
35.642702 22.007232 7.047701 42.478119 0.553144 1.404112 0.101455 -0.020885 -739380.000000 0 0 1
36.763312 20.923432 6.934401 42.865103 0.517418 1.408310 0.085681 -0.021297 300103.000000 0 0 1
36.608542 20.100932 5.775301 42.161439 0.502135 1.433384 0.102956 -0.029076 338818.000000 0 0 1
-37.099372 18.799132 6.144501 42.041951 -0.469012 1.424119 0.121988 -0.033993 221301.000000 0 0 1
36.667932 17.593932 5.254901 41.008508 0.447372 1.442301 0.122337 -0.034933 -113837.000000 0 0 1
37.101292 17.690132 3.918501 41.289240 0.444921 1.475750 0.138491 -0.033315 76519.100000 0 0 1
36.787472 16.495132 3.223601 40.445013 0.421514 1.491008 0.126344 -0.032064 -806600.000000 0 0 1
-36.570082 16.116232 2.002101 40.013901 -0.415089 1.520740 0.151130 -0.025158 994750.000000 0 0 1
-35.279547 15.541232 2.258101 38.617035 -0.414940 1.512289 0.161147 -0.044349 1419710.000000 0 0 1
-34.302969 16.449432 2.844001 38.149258 -0.447141 1.496178 0.162614 -0.047013 -267370.000000 0 0 1
-32.860382 15.931632 2.854201 36.630153 -0.451436 1.492798 0.145226 -0.049737 -241807.000000 0 0 1
-32.775972 15.030432 3.944901 36.273137 -0.429967 1.461825 0.160058 -0.050728 -109212.000000 0 0 1
-31.469442 14.552232 4.107601 34.913688 -0.433138 1.452873 0.139764 -0.049988 -319522.000000 0 0 1
-31.253262 13.574832 5.341801 34.490249 -0.409763 1.415292 0.150887 -0.031759 71562.400000 0 0 1
-31.886232 12.326432 5.105101 34.564936 -0.368880 1.422558 0.179962 -0.040890 573446.000000 0 0 1
-31.513402 11.390832 6.175301 34.073155 -0.346847 1.388553 0.170541 -0.016174 119885.000000 0 0 1
-31.933842 9.907332 5.812401 33.936846 -0.300830 1.398677 0.193140 -0.034563 1084940.000000 0 0 1
-33.360092 9.700832 5.863001 35.233176 -0.282987 1.403613 0.194650 -0.006620 948327.000000 0 0 1
-33.651862 8.363432 5.642701 35.131680 -0.243593 1.409482 0.227149 -0.020253 466359.000000 0 0 1
-35.119205 7.859232 5.852801 36.460683 -0.220160 1.409575 0.209622 -0.008970 581999.000000 0 0 1
-35.494435 7.658532 7.206901 37.019555 -0.212509 1.374867 0.201176 -0.004998 527037.000000 0 0 1
-36.745962 6.950632 7.236201 38.091202 -0.186945 1.379664 0.146286 -0.007377 761945.000000 0 0 1
-37.082982 6.025632 8.416801 38.500628 -0.161083 1.350402 0.124172 -0.006775 210302.000000 0 0 1
36.548492 6.584332 9.580901 38.352828 0.178241 1.318313 0.114990 -0.009387 690274.000000 0 0 1
-36.739482 7.182632 10.482701 38.875015 -0.193067 1.297765 0.144559 -0.017356 468396.000000 0 0 1
36.893432 8.145032 11.511501 39.496602 0.217286 1.275048 0.104051 -0.008308 -48732.500000 0 0 1
36.104472 7.531232 12.529101 38.951646 0.205647 1.243317 0.088206 -0.017709 494467.000000 0 0 1
35.898542 8.528532 13.526501 39.298949 0.233249 1.219415 0.109838 -0.024370 -193515.000000 0 0 1
35.127862 8.094632 14.819701 38.975804 0.226480 1.180753 0.125555 -0.035254 -311408.000000 0 0 1
33.773312 7.808132 14.562701 37.598880 0.227201 1.173076 0.117605 -0.040129 78622.300000 0 0 1
33.188172 7.259732 15.744301 37.443845 0.215353 1.136825 0.117305 -0.028683 -625612.000000 0 0 1
31.685952 7.109532 15.665901 36.055034 0.220719 1.121314 0.117123 -0.020641 -745322.000000 0 0 1
30.861652 8.283832 15.855401 35.671518 0.262237 1.110199 0.105919 -0.032109 1696450.000000 0 0 1
29.457392 8.025632 16.097201 34.514759 0.265993 1.085596 0.100532 -0.027268 1233450.000000 0 0 1
29.097422 7.282932 17.452701 34.702995 0.245256 1.043827 0.093695 -0.029269 -652679.000000 0 0 1
29.122122 8.083832 18.611801 35.494302 0.270767 1.018833 0.121024 -0.030099 54331.600000 0 0 1
28.384022 7.603032 19.734901 35.396682 0.261719 0.979382 0.113998 -0.022193 -94282.200000 0 0 1
28.942922 6.565532 20.731901 36.202357 0.223069 0.961041 0.120781 -0.015535 -107480.000000 0 0 1
27.966722 6.303932 21.718101 35.965998 0.221703 0.922473 0.092178 -0.011860 114850.000000 0 0 1
28.097922 4.993832 22.241601 36.181769 0.175893 0.908767 0.098469 -0.011367 -885742.000000 0 0 1
27.509022 4.722432 23.650401 36.584001 0.170011 0.867850 0.092841 -0.010071 1196670.000000 0 0 1
26.073522 4.653932 23.709101 35.547280 0.176633 0.840657 0.073371 -0.001084 1307580.000000 0 0 1
25.264822 5.806732 23.335001 34.879100 0.225911 0.837900 0.076582 0.000771 356511.000000 0 0 1
23.751022 5.510532 23.154401 33.624445 0.227979 0.811215 0.060311 -0.006210 254312.000000 0 0 1
23.548222 4.891232 21.917501 32.539511 0.204799 0.831774 0.074388 -0.010678 384945.000000 0 0 1
22.223622 4.811832 21.416001 31.236008 0.213227 0.815343 0.084328 -0.014193 144014.000000 0 0 1
21.155322 3.778932 21.881201 30.669446 0.176764 0.776383 0.071406 -0.020469 729720.000000 0 0 1
19.963422 3.675032 21.106401 29.283515 0.182050 0.765898 0.065218 -0.030284 683395.000000 0 0 1
18.879522 4.416232 21.663101 29.072829 0.229785 0.730063 0.082737 -0.029754 737685.000000 0 0 1
17.533522 4.163932 20.869801 27.573743 0.233165 0.712282 0.116104 -0.035112 455635.000000 0 0 1
16.975622 2.904432 21.161701 27.284154 0.169454 0.683125 0.109130 -0.032847 1001750.000000 0 0 1
15.744222 2.806432 20.376901 25.903179 0.176399 0.665422 0.109101 -0.039862 765741.000000 0 0 1
14.835322 1.602732 20.775801 25.579082 0.107617 0.622851 0.119373 -0.034432 -262300.000000 0 0 1
15.314922 0.289332 20.556701 25.636078 0.018890 0.640385 0.092285 -0.031989 -83645.600000 0 0 1
14.616422 -0.567168 21.419501 25.937550 -0.038784 0.599158 0.101474 -0.030474 -121919.000000 0 0 1
14.830822 -2.070668 21.320901 26.054208 -0.138722 0.612300 0.073875 -0.013115 -127228.000000 0 0 1
14.286922 -2.581768 20.140101 24.827512 -0.178779 0.624593 0.080325 -0.011731 41456.700000 0 1 0
14.465022 -4.011468 20.180601 25.151250 -0.270524 0.639541 0.064781 -0.005886 -153932.000000 0 0 1
14.062122 -4.796568 18.928401 24.063140 -0.328723 0.665491 0.071743 -0.013601 -476953.000000 0 1 0
12.743722 -4.517668 18.575701 22.975388 -0.340679 0.629190 0.077482 -0.020928 -760242.000000 0 1 0
12.331422 -5.068468 17.334301 21.868501 -0.389971 0.655635 0.081545 -0.021995 66730.800000 0 1 0
10.793722 -5.008668 17.243901 20.950974 -0.434464 0.604019 0.069484 -0.019215 62894.100000 0 1 0
10.195422 -6.068968 17.969801 21.533526 -0.536930 0.583565 0.063207 -0.017468 -1349840.000000 0 1 0
8.823922 -5.990268 17.933401 20.865085 -0.596401 0.536519 0.062389 -0.024625 -1198780.000000 0 1 0
8.139422 -6.831068 19.018801 21.785969 -0.698224 0.509509 0.063604 -0.026858 -388169.000000 0 1 0
8.008122 -8.265168 18.729801 21.982913 -0.801192 0.550972 0.051309 -0.026814 189050.000000 0 1 0
9.014522 -9.011568 19.415701 23.225835 -0.785234 0.580930 0.061267 -0.024574 395437.000000 0 1 0
9.071422 -10.436068 18.876701 23.399403 -0.855239 0.632221 0.072667 -0.028224 305358.000000 0 1 0
9.497022 -10.501468 17.502701 22.512636 -0.835582 0.680177 0.069494 -0.023174 -3985.890000 0 1 0
9.706722 -11.829168 17.025801 22.891648 -0.883635 0.732124 0.063635 -0.024529 246811.000000 0 1 0
9.781322 -11.996268 15.485301 21.894731 -0.886757 0.785179 0.058078 -0.016798 101398.000000 0 1 0
10.152822 -13.276168 15.004301 22.460309 -0.917928 0.839230 0.038881 -0.010038 -102026.000000 0 1 0
9.748522 -13.494368 13.660001 21.534328 -0.945185 0.883647 0.022825 -0.006644 -515468.000000 0 1 0
10.686922 -14.581268 13.001001 22.267683 -0.938315 0.947333 0.049532 -0.012794 1227580.000000 0 1 0
12.052822 -14.217768 12.763801 22.590486 -0.867622 0.970354 0.034361 -0.017443 504823.000000 0 1 0
12.159622 -13.279768 11.715301 21.481548 -0.829402 0.993971 0.006925 -0.020072 6690.770000 0 1 0
13.605822 -12.787068 11.330901 21.840715 -0.754386 1.025353 0.040898 -0.026695 725993.000000 0 1 0
14.277522 -13.743368 10.549401 22.450338 -0.766338 1.081619 0.039688 -0.021920 -352065.000000 0 1 0
15.564722 -13.282768 10.189701 22.858751 -0.706458 1.108764 0.045367 -0.034429 -206519.000000 0 1 0
16.369722 -14.475068 9.682201 23.900636 -0.724050 1.153706 0.039644 -0.032572 -192733.000000 0 1 0
16.779222 -15.406368 10.720501 25.175933 -0.742770 1.130925 0.037124 -0.025018 -109752.000000 0 0 1
15.940722 -16.514868 10.870201 25.397023 -0.803087 1.128506 0.063573 -0.021430 -65871.300000 0 0 1
16.260722 -17.295568 12.179901 26.681412 -0.816227 1.096746 0.055639 -0.017588 320345.000000 0 0 1
17.515922 -17.959868 12.051001 27.831475 -0.797912 1.122979 0.077831 -0.026255 269810.000000 0 0 1
17.837322 -18.576868 13.309201 28.989738 -0.805705 1.093814 0.067795 -0.024962 149192.000000 0 0 1
19.139222 -19.403768 13.228301 30.295280 -0.792262 1.118930 0.045085 -0.020355 698094.000000 0 0 1
20.322522 -18.650768 12.968701 30.480211 -0.742530 1.131305 0.046247 -0.020268 777345.000000 0 0 1
21.520322 -19.446468 12.877801 31.735266 -0.734819 1.152955 0.040361 -0.024411 1045160.000000 0 0 1
22.510522 -18.851568 11.836001 31.657482 -0.697166 1.187611 0.073716 -0.022116 -332651.000000 0 0 1
22.213222 -18.970368 10.445301 31.022676 -0.706819 1.227387 0.076331 -0.016461 269507.000000 0 0 1
20.951222 -18.627768 9.872701 29.722343 -0.726761 1.232199 0.073088 -0.017878 327084.000000 0 0 1
20.623622 -17.065168 9.907601 28.543201 -0.691260 1.216310 0.115613 -0.030732 272881.000000 0 0 1
21.598922 -16.272768 9.206601 28.567078 -0.645678 1.242659 0.119023 -0.024391 243855.000000 0 0 1
21.251622 -14.901768 9.039701 27.484729 -0.611535 1.235659 0.126588 -0.043335 -108620.000000 0 0 1
-35.752025 25.004281 8.783401 44.503590 -0.610310 1.372128 0.103614 -0.012576 1483850.000000 0 0 1
-34.572047 24.358981 9.376901 43.318734 -0.613797 1.352606 0.109353 -0.022445 1225170.000000 0 0 1
-33.552272 25.223281 9.828701 43.111162 -0.644627 1.340789 0.119485 -0.016907 -544811.000000 0 0 1
-32.501152 24.255281 10.332801 41.849855 -0.641122 1.321315 0.137561 -0.028751 -780040.000000 0 0 1
-31.858332 23.472281 9.371201 40.665965 -0.634980 1.338263 0.140250 -0.029489 -619355.000000 0 0 1
-30.953552 22.615681 9.944701 39.604148 -0.630990 1.316977 0.139795 -0.027567 -202757.000000 0 0 1
-30.197012 21.719281 8.912201 38.249367 -0.623531 1.335632 0.121055 -0.032079 -31113.200000 0 0 1
-31.095102 20.866681 8.277601 38.351564 -0.591038 1.353250 0.125400 -0.034503 10301.600000 0 0 1
-30.431412 20.059581 7.299201 37.171709 -0.582797 1.373148 0.108550 -0.036408 -125006.000000 0 0 1
-31.392552 19.269081 6.399901 37.386476 -0.550513 1.398767 0.110203 -0.032507 -527780.000000 0 0 1
-32.040252 18.208581 7.009201 37.513452 -0.516787 1.382847 0.110726 -0.028763 409928.000000 0 0 1
-32.994052 17.729881 6.032401 37.938714 -0.493092 1.411115 0.106738 -0.036235 118852.000000 0 0 1
-33.747262 16.484581 6.531701 38.121939 -0.454382 1.398610 0.124429 -0.034747 -512460.000000 0 0 1
-34.574175 16.780581 7.623501 39.180088 -0.451859 1.374971 0.113371 -0.034456 23833.400000 0 0 1
-35.461512 15.732581 7.894801 39.589908 -0.417563 1.370036 0.122774 -0.040167 -450050.000000 0 0 1
-36.476112 15.929881 9.008501 40.809570 -0.411756 1.348218 0.114105 -0.035024 -573348.000000 0 0 1
36.852652 16.911381 8.682501 41.466838 0.430224 1.359851 0.127034 -0.037447 -224947.000000 0 0 1
36.117442 17.350481 9.833201 41.257735 0.447837 1.330144 0.134351 -0.025161 433452.000000 0 0 1
35.110592 18.494681 9.590601 40.826297 0.484822 1.333668 0.099278 -0.018831 363892.000000 0 0 1
33.822622 18.183881 9.093501 39.462832 0.493292 1.338275 0.081833 -0.021807 543044.000000 0 0 1
32.945552 19.304781 9.062601 39.245570 0.530032 1.337773 0.074216 -0.013581 151305.000000 0 0 1
31.568052 19.067481 8.413301 37.827165 0.543364 1.346506 0.055249 -0.019445 -323915.000000 0 0 1
30.856212 20.306581 8.540401 37.913079 0.582051 1.343584 0.046643 -0.015657 742331.000000 0 0 1
29.529072 20.330081 7.994901 36.731414 0.602950 1.351382 0.034661 -0.018697 693850.000000 0 0 1
29.359582 20.081181 6.435701 36.147713 0.599889 1.391803 0.021595 -0.002410 -899346.000000 0 0 1
29.628312 18.717281 6.058301 35.565103 0.563429 1.399618 0.030192 -0.012220 160304.000000 0 0 1
29.323342 18.298581 4.722901 34.885560 0.557900 1.434997 0.035045 -0.016098 -216486.000000 0 0 1
27.884022 18.523681 4.201301 33.738648 0.586370 1.445947 0.063298 -0.011248 -1364080.000000 0 0 1
26.972922 17.789481 4.972501 32.691435 0.583046 1.418100 0.063548 -0.014816 74668.000000 0 0 1
25.608522 18.032481 4.679301 31.668007 0.613512 1.422492 0.093390 -0.018073 164910.000000 0 0 1
25.031822 19.378181 5.094701 32.063406 0.658774 1.411225 0.097425 -0.015923 -1116510.000000 0 0 1
25.620622 20.447181 4.409901 33.074926 0.673566 1.437067 0.078960 -0.023372 -309775.000000 0 0 1
25.086322 21.676981 4.814501 33.502157 0.712621 1.426590 0.086558 -0.013370 64696.000000 0 0 1
25.949722 22.967081 4.526801 34.948059 0.724500 1.440902 0.054013 -0.007369 1050170.000000 0 0 1
27.165722 23.019681 5.314601 36.001766 0.702971 1.422634 0.043973 -0.011272 1108770.000000 0 0 1
27.977122 24.145881 4.991901 37.291581 0.712026 1.436532 0.044896 -0.006348 16282.700000 0 0 1
29.355392 24.122181 5.725201 38.423907 0.687851 1.421238 0.034579 -0.008090 724050.000000 0 0 1
30.318442 23.095781 5.373901 38.490283 0.650994 1.430722 0.035389 -0.012557 987637.000000 0 0 1
30.829362 23.128181 4.027401 38.750256 0.643629 1.466676 0.051223 -0.017729 -379781.000000 0 0 1
31.711962 24.273881 3.452001 40.084737 0.653315 1.484572 0.076849 -0.028781 -621351.000000 0 0 1
30.961322 25.470581 3.241801 40.222671 0.688405 1.490112 0.058771 -0.030382 -359015.000000 0 0 1
31.669342 26.467381 2.640401 41.357481 0.696158 1.506910 0.104655 -0.025563 -1316570.000000 0 0 1
31.003502 27.814081 2.624201 41.733999 0.731226 1.507876 0.088260 -0.019432 -41130.400000 0 0 1
29.800632 27.945381 1.909201 40.898253 0.753281 1.524098 0.107571 -0.015270 202644.000000 0 0 1
28.621922 27.559381 2.602401 39.818418 0.766488 1.505393 0.088799 -0.011766 -303338.000000 0 0 1
27.348422 28.244881 2.097701 39.371435 0.801522 1.517491 0.056679 -0.006744 -267548.000000 0 0 1
27.221522 29.608581 2.461001 40.295606 0.827377 1.509685 0.057041 -0.016979 1209020.000000 0 0 1
25.900922 30.128581 2.159201 39.790091 0.860710 1.516505 0.043477 -0.002487 1117420.000000 0 0 1
25.568522 31.425681 2.893301 40.616425 0.887806 1.499501 0.061460 -0.016234 -368392.000000 0 0 1
25.456022 31.457681 4.335601 40.698799 0.890462 1.464065 0.047866 -0.027344 78399.600000 0 0 1
26.613122 31.359781 5.143201 41.450533 0.867093 1.446395 0.048841 -0.035594 -220795.000000 0 0 1
26.211922 31.171581 6.605101 41.259662 0.871614 1.410018 0.037804 -0.039945 259149.000000 0 0 1
25.799622 29.912481 7.158401 40.144984 0.859088 1.391524 0.053998 -0.038347 369268.000000 0 0 1
26.780722 28.915481 6.935901 40.017732 0.823708 1.396596 0.066600 -0.039709 -4751.860000 0 0 1
26.256022 27.504281 7.310301 38.720856 0.808613 1.380861 0.074623 -0.035484 386313.000000 0 0 1
25.083122 27.168981 6.550901 37.553041 0.825296 1.395455 0.061294 -0.039561 612923.000000 0 0 1
24.562822 25.912581 6.907701 36.366337 0.812133 1.379687 0.074615 -0.030948 78263.000000 0 0 1
23.275122 25.522081 6.113901 35.078309 0.831413 1.395609 0.090493 -0.019395 5049.880000 0 0 1
23.381122 25.272581 4.766101 34.757675 0.824255 1.433239 0.066093 -0.028362 217490.000000 0 0 1
23.558122 26.501381 4.023501 35.686088 0.844126 1.457809 0.059766 -0.026983 -270823.000000 0 0 1
23.615422 26.412681 2.476301 35.516897 0.841254 1.501018 0.056744 -0.012777 845474.000000 0 0 1
24.825022 25.807781 1.933501 35.861703 0.804805 1.516855 0.040624 0.008216 1233410.000000 0 0 1
24.691222 25.363081 0.603101 35.402063 0.798820 1.553760 0.052511 0.002801 -144927.000000 0 0 1
26.029722 24.736181 0.166401 35.908952 0.759923 1.566162 0.073416 -0.005049 -568868.000000 0 0 1
27.085922 25.631681 -0.123399 37.291360 0.757820 1.574105 0.068384 -0.005900 826561.000000 0 0 1
28.285522 25.209981 -0.772299 37.897366 0.727970 1.591176 0.071357 0.000326 1039320.000000 0 0 1
29.066922 23.974381 -0.180099 37.678766 0.689681 1.575576 0.065355 -0.010019 -370396.000000 0 0 1
28.280722 22.756081 -0.135499 36.299543 0.677570 1.574529 0.065129 -0.007380 427009.000000 0 0 1
28.557322 21.989781 1.015501 36.056933 0.656193 1.542629 0.056966 -0.009024 -526994.000000 0 0 1
27.364322 21.146481 1.483001 34.614724 0.657919 1.527940 0.064032 -0.013881 -343507.000000 0 0 1
27.012122 20.180581 0.571601 33.722950 0.641638 1.553846 0.099614 -0.024606 451455.000000 0 0 1
25.693922 19.756681 0.884301 32.423542 0.655503 1.543520 0.087733 -0.025117 -134640.000000 0 0 1
25.245722 18.500281 0.052401 31.298716 0.632407 1.569122 0.109636 -0.030082 -464430.000000 0 0 1
23.917322 18.222381 0.405201 30.070878 0.651068 1.557321 0.104169 -0.028456 -266217.000000 0 0 1
23.474322 17.084381 -0.333999 29.035004 0.629135 1.582300 0.120777 -0.048522 131794.000000 0 0 1
21.994022 16.753581 -0.036799 27.648162 0.650968 1.572127 0.107520 -0.028302 -1030900.000000 0 0 1
21.446122 15.837781 -0.917099 26.676067 0.636095 1.605182 0.113551 -0.030234 -217134.000000 0 0 1
20.171122 15.431981 -0.497599 25.402123 0.653066 1.590386 0.123062 -0.029434 -461418.000000 0 0 1
19.010122 16.316781 -0.968999 25.071120 0.709305 1.609456 0.126241 -0.036250 -1100790.000000 0 0 1
19.022522 17.690481 -0.431699 25.980682 0.749132 1.587413 0.102288 -0.026494 -195221.000000 0 0 1
17.964222 18.455081 -0.944299 25.771981 0.798875 1.607445 0.078513 -0.029845 -40824.100000 0 0 1
17.991422 19.877681 -0.404299 26.813746 0.835167 1.585875 0.080681 -0.024657 -27492.700000 0 0 1
17.687022 20.108881 0.977601 26.798387 0.849388 1.534308 0.089014 -0.022297 -20834.900000 0 0 1
17.824822 21.443781 1.374901 27.918639 0.877298 1.521530 0.099353 -0.028511 -37099.200000 0 0 1
16.766922 22.495381 0.921801 28.071722 0.930278 1.537953 0.089408 -0.028719 -321714.000000 0 0 1
15.606222 22.423881 1.684301 27.371911 0.962784 1.509224 0.079106 -0.022225 -285859.000000 0 0 1
14.603222 23.344381 1.275401 27.565212 1.011797 1.524511 0.058349 -0.024422 317197.000000 0 0 1
13.194422 23.159981 1.862001 26.719741 1.052948 1.501053 0.050650 -0.022736 71457.700000 0 0 1
12.862822 23.720881 3.126401 27.164440 1.073917 1.455449 0.047869 -0.013853 128829.000000 0 0 1
11.530322 23.447281 3.522501 26.365344 1.113766 1.436792 0.039748 -0.013520 390228.000000 0 0 1
11.321322 23.658581 5.025301 26.704952 1.124472 1.381489 0.051025 -0.009560 -5134.410000 0 0 1
11.885722 22.659781 5.821001 26.241573 1.087718 1.347112 0.060907 -0.030165 -69710.100000 0 0 1
11.167422 22.579881 7.015701 26.149234 1.111499 1.299174 0.051867 -0.020683 -816732.000000 0 0 1
11.697522 21.460181 7.892701 25.683966 1.071738 1.258441 0.064622 -0.020578 594727.000000 0 0 1
12.914522 21.683481 8.609501 26.666116 1.033624 1.242043 0.074818 -0.020140 559406.000000 0 0 1
14.063122 21.588681 7.793801 26.918133 0.993429 1.277053 0.086291 -0.021016 -379256.000000 0 0 1
15.451022 21.878881 8.424101 28.078195 0.955917 1.266080 0.092943 -0.020801 -5650.950000 0 0 1
15.838722 20.806181 9.239901 27.733339 0.920133 1.231133 0.106466 -0.023423 -221632.000000 0 0 1
17.204522 20.933581 9.527901 28.722662 0.882866 1.232669 0.097223 -0.032386 -230394.000000 0 0 1
17.496622 21.657981 10.862701 29.886422 0.891281 1.198811 0.071200 -0.013702 -819745.000000 0 0 1
16.818922 21.067781 11.899601 29.467407 0.897078 1.155105 0.085936 -0.027485 -83952.300000 0 0 1
16.841622 21.825081 13.089601 30.517406 0.913574 1.127497 0.084568 -0.027056 553125.000000 0 0 1
17.866522 21.152381 14.145601 31.092344 0.869412 1.098475 0.083900 -0.019806 1283610.000000 0 0 1
19.206022 21.212681 13.653301 31.705863 0.835004 1.125612 0.083802 -0.020907 152487.000000 0 0 1
20.093622 20.798681 14.690801 32.436992 0.802638 1.100778 0.060529 -0.021250 231630.000000 0 0 1
21.579122 21.027281 14.346801 33.371182 0.772447 1.126397 0.064922 -0.026568 -148955.000000 0 0 1
22.127222 20.224081 13.346701 32.814050 0.740491 1.151916 0.062147 -0.028907 -573295.000000 0 0 1
23.469522 20.608081 13.256701 33.930099 0.720571 1.169398 0.092775 -0.021137 -274290.000000 0 0 1
24.383322 20.080581 12.146601 33.842519 0.688929 1.203691 0.092816 -0.019865 21404.200000 0 0 1
24.250322 20.835781 10.964701 33.799890 0.709809 1.240418 0.114755 -0.018228 -155882.000000 0 0 1
25.257822 20.666781 10.030501 34.142120 0.685760 1.272610 0.121423 -0.030206 -786736.000000 0 0 1
24.941622 21.556481 8.805101 34.121785 0.712725 1.309794 0.092120 -0.028672 77332.300000 0 0 1
25.319922 22.909881 9.020001 35.317440 0.735470 1.312537 0.081436 -0.024177 -187153.000000 0 0 1
26.690922 23.156481 8.932101 36.447365 0.714611 1.323206 0.057774 -0.020152 -801463.000000 0 0 1
27.064822 24.542681 9.545601 37.761969 0.736565 1.315240 0.076425 -0.023298 -779454.000000 0 0 1
28.252722 25.054481 9.058501 38.832973 0.725474 1.335359 0.058773 -0.015444 -532678.000000 0 0 1
28.620622 26.201381 9.738301 40.006086 0.741298 1.324905 0.075365 -0.026825 132328.000000 0 0 1
29.847372 26.988381 9.203701 41.278886 0.735138 1.345942 0.071275 -0.023604 228423.000000 0 0 1
29.606722 27.651581 7.984901 41.290757 0.751265 1.376188 0.068826 -0.028020 675553.000000 0 0 1
30.808172 27.637781 7.198401 42.009611 0.731206 1.398595 0.085237 -0.022073 655916.000000 0 0 1
30.649032 28.519881 5.909301 42.280807 0.749429 1.430574 0.129010 -0.018414 -750.339000 0 0 1
30.527902 29.914881 6.225901 43.192763 0.775256 1.426150 0.117542 -0.026875 180215.000000 0 0 1
30.579142 30.737081 5.073801 43.653128 0.787974 1.454303 0.133963 -0.038356 -51144.100000 0 0 1
30.745702 32.212781 5.429701 44.860262 0.808696 1.449463 0.095868 -0.026829 -181811.000000 0 0 1
29.583882 32.764281 5.983401 44.547787 0.836364 1.436075 0.089187 -0.031722 -242567.000000 0 0 1
29.744992 34.012981 6.426701 45.639346 0.852239 1.429512 0.072869 -0.027035 665143.000000 0 0 1
28.356122 -33.491570 6.881001 44.419625 -0.868242 1.415261 0.071276 -0.034431 587346.000000 0 0 1
27.407422 -33.475470 5.861601 43.659274 -0.884738 1.436132 0.057135 -0.036413 192090.000000 0 0 1
26.233122 -32.705670 6.221701 42.385694 -0.894778 1.423476 0.050608 -0.036604 649236.000000 0 0 1
25.076622 -32.874570 5.220201 41.675230 -0.919155 1.445207 0.064024 -0.029707 -191574.000000 0 0 1
25.289222 -32.339770 3.934501 41.241796 -0.907137 1.475250 0.048405 -0.014395 -341144.000000 0 0 1
24.152322 -32.472470 3.132701 40.590760 -0.931289 1.493542 0.048503 -0.014076 -150382.000000 0 0 1
24.386622 -31.854870 1.739101 40.155505 -0.917415 1.527474 0.044952 -0.003752 77215.800000 0 0 1
24.576522 -30.435270 1.864301 39.163589 -0.891498 1.523175 0.051982 -0.003993 91617.400000 0 0 1
25.305622 -29.915870 0.762201 39.190748 -0.868691 1.551347 0.053654 -0.005698 41812.300000 0 0 1
25.853122 -28.460470 0.961401 38.461755 -0.833367 1.545797 0.053284 -0.010116 -40098.800000 0 0 1
24.904922 -27.409870 0.967701 37.047167 -0.833244 1.544673 0.066413 -0.010435 -141111.000000 0 0 1
24.352122 -27.182270 -0.323299 36.496660 -0.840261 1.579655 0.080729 -0.016126 -91867.800000 0 0 1
23.293922 -26.059870 -0.333099 34.954751 -0.841383 1.580326 0.071397 -0.014216 58767.500000 0 0 1
23.805822 -24.750270 0.041901 34.340862 -0.804846 1.569576 0.067130 -0.015723 13962.500000 0 0 1
23.816822 -24.396970 1.428301 34.124671 -0.797430 1.528929 0.055869 -0.002691 -121954.000000 0 0 1
22.432122 -24.109970 2.026001 32.993870 -0.821433 1.509352 0.054857 -0.009164 54965.800000 0 0 1
22.519022 -23.475770 3.270601 32.694265 -0.806196 1.470593 0.042444 -0.002302 -268778.000000 0 0 1
21.231422 -23.490370 3.840201 31.895421 -0.835866 1.450104 0.056218 -0.006083 -206421.000000 0 0 1
21.086222 -22.793270 5.204101 31.484037 -0.824282 1.404741 0.044006 -0.007351 -29858.600000 0 0 1
21.260922 -21.389370 5.276801 30.616606 -0.788410 1.397581 0.074745 0.004783 -81200.900000 0 0 1
20.230722 -20.703070 4.623501 29.313410 -0.796937 1.412408 0.048087 0.004658 -639033.000000 0 0 1
20.139822 -19.177370 5.055601 28.265581 -0.760924 1.390968 0.053295 0.001788 16750.000000 0 0 1
19.805522 -18.946670 6.445501 28.156340 -0.763239 1.339830 0.065203 0.002269 470772.000000 0 0 1
18.405022 -19.122370 6.652201 27.361682 -0.804511 1.325214 0.040899 0.008110 446338.000000 0 0 1
19.378138 -25.823819 -13.038199 34.819197 -0.927041 1.954605 0.107417 -0.032228 173666.000000 0 0 1
19.226838 -24.462619 -13.185599 33.792766 -0.904670 1.971634 0.136202 -0.026782 755953.000000 0 0 1
17.856938 -24.030019 -13.384999 32.794363 -0.931720 1.991222 0.083902 -0.023687 851329.000000 0 0 1
17.808038 -22.494219 -13.512799 31.712960 -0.901154 2.010971 0.084688 -0.030513 -119787.000000 0 0 1
17.993438 -21.673719 -12.340799 30.754011 -0.877912 1.983704 0.106242 -0.032034 -636126.000000 0 0 1
19.242838 -21.686719 -11.716399 31.270986 -0.845037 1.954841 0.099705 -0.033467 -1147990.000000 0 0 1
19.284538 -22.432419 -10.354299 31.341958 -0.860714 1.907487 0.112260 -0.027733 -9931.900000 0 0 1
18.534338 -21.790719 -9.356299 30.098130 -0.865977 1.886894 0.103560 -0.029334 -488345.000000 0 0 1
17.153438 -21.970219 -9.489399 29.444518 -0.907899 1.898934 0.093204 -0.008716 -1122230.000000 0 0 1
16.352738 -21.298219 -8.377099 28.128312 -0.916001 1.873202 0.082867 -0.021643 -792322.000000 0 0 1
16.154338 -19.932019 -8.607699 27.061790 -0.889703 1.894495 0.075382 -0.031160 740375.000000 0 0 1
15.281738 -19.315219 -7.620799 25.781500 -0.901459 1.870871 0.076254 -0.043138 1114770.000000 0 0 1
13.747738 -19.479819 -7.861299 25.105052 -0.956227 1.889290 0.044728 -0.022742 294213.000000 0 0 1
13.259338 -20.795719 -7.722299 25.843875 -1.003188 1.874237 0.039497 -0.022558 -148811.000000 0 0 1
11.923038 -20.978019 -8.130799 25.462639 -1.053968 1.895811 0.042336 -0.025015 -83334.600000 0 0 1
11.278238 -22.348819 -7.931399 26.259768 -1.103439 1.877624 0.049322 -0.022001 -169069.000000 0 0 1
11.321438 -22.738819 -6.569899 26.237233 -1.108838 1.823894 0.053931 -0.020133 387467.000000 0 0 1
10.668338 -23.978819 -6.301099 26.990758 -1.152186 1.806425 0.052905 -0.015107 -15709.800000 0 0 1
11.348938 -24.579519 -5.105899 27.550342 -1.138236 1.757204 0.061902 -0.017825 -543708.000000 0 0 1
10.546738 -25.415269 -4.352299 27.858788 -1.177446 1.727666 0.081910 -0.021132 -274304.000000 0 0 1
11.190238 -25.954989 -3.181099 28.442965 -1.163736 1.682872 0.083348 -0.026175 335282.000000 0 0 1
10.203238 -26.744349 -2.285799 28.715695 -1.206330 1.650482 0.101311 -0.022034 244810.000000 0 0 1
9.339438 -25.975689 -1.500799 27.644419 -1.225643 1.625112 0.087460 -0.016377 -502833.000000 0 0 1
8.342138 -26.816369 -0.967099 28.100608 -1.269202 1.605219 0.081500 -0.024226 321289.000000 0 0 1
7.527038 -26.110629 0.178201 27.174491 -1.290131 1.564239 0.076247 -0.019492 977227.000000 0 0 1
6.273638 -25.501239 -0.184599 26.262250 -1.329574 1.577825 0.074769 -0.024696 551606.000000 0 0 1
5.645638 -25.050529 1.022301 25.699170 -1.349130 1.531006 0.058555 -0.018666 -144216.000000 0 0 1
4.163438 -24.703619 0.921001 25.068930 -1.403830 1.534049 0.050284 -0.018700 404120.000000 0 0 1
3.251238 -25.785489 0.617601 25.996988 -1.445370 1.547037 0.050916 -0.021023 921582.000000 0 0 1
1.889238 -25.333539 0.500501 25.408816 -1.496360 1.551097 0.046426 -0.015448 588387.000000 0 0 1
1.010538 -26.534579 0.171301 26.554367 -1.532731 1.564345 0.064817 -0.016045 -421456.000000 0 0 1
0.963938 -27.362299 1.324101 27.411272 -1.535582 1.522473 0.065158 -0.016420 -64599.400000 0 0 1
1.258038 -28.728999 1.018301 28.774554 -1.527034 1.535400 0.056718 -0.014271 -317089.000000 0 0 1
0.653838 -29.786609 2.001401 29.860930 -1.548849 1.503722 0.090438 -0.019755 12329.700000 0 0 1
0.851138 -29.505339 3.399401 29.712714 -1.541957 1.456136 0.065822 -0.016165 -207170.000000 0 0 1
0.119638 -30.422809 4.127301 30.701730 -1.566864 1.435956 0.086335 -0.023264 -280960.000000 0 0 1
0.302638 -30.254949 5.613401 30.772777 -1.560794 1.387355 0.089085 -0.023340 742154.000000 0 0 1
1.632838 -30.650799 6.000701 31.275326 -1.517574 1.377732 0.059487 -0.005164 832315.000000 0 0 1
1.805938 -30.412629 7.374601 31.346039 -1.511485 1.333306 0.071643 -0.001299 -378228.000000 0 0 1
3.235838 -30.819039 7.699701 31.930693 -1.466185 1.327258 0.081393 -0.007458 -342241.000000 0 0 1
3.500638 -32.251549 7.604201 33.320275 -1.462678 1.340552 0.082421 -0.011134 -673439.000000 0 0 1
4.870938 -32.501319 7.550501 33.720495 -1.422035 1.344967 0.080656 -0.011505 -385084.000000 0 0 1
5.083138 -34.000999 7.379301 35.161915 -1.422396 1.359358 0.059793 -0.005063 19356.000000 0 0 1
5.079638 33.659583 6.115601 34.585703 1.421014 1.393037 0.043655 -0.004273 13509.400000 0 0 1
4.890538 32.229612 5.968401 33.140414 1.420205 1.389714 0.033527 -0.007938 -376027.000000 0 0 1
4.905838 31.680512 4.483601 32.370122 1.417163 1.431839 0.039219 -0.008575 1466480.000000 0 0 1
6.261438 31.680172 3.957201 32.534572 1.375666 1.448864 0.042041 -0.006442 806371.000000 0 0 1
7.080438 30.632442 4.361701 31.741196 1.343644 1.432946 0.027019 -0.012565 -1120520.000000 0 0 1
8.398138 30.616982 3.623601 31.954011 1.303084 1.457151 0.033725 -0.014602 -1033410.000000 0 0 1
9.365338 31.415672 4.219601 33.052368 1.281074 1.442783 0.040565 -0.017569 334486.000000 0 0 1
10.590638 31.415922 3.434901 33.330471 1.245650 1.467557 0.034658 -0.026024 804563.000000 0 0 1
11.812738 31.956272 4.168601 34.323772 1.216721 1.449046 0.057026 -0.035613 -511278.000000 0 0 1
12.280538 31.050622 5.153801 33.786305 1.194175 1.417657 0.054426 -0.030933 236595.000000 0 0 1
13.383838 31.660792 5.845501 34.866929 1.170853 1.402349 0.093278 -0.030472 637824.000000 0 0 1
14.143838 30.681492 6.808601 34.463882 1.138841 1.371931 0.070666 -0.035184 67707.600000 0 0 1
13.558038 30.502952 8.081901 34.344834 1.152540 1.333252 0.062194 -0.028505 -22850.600000 0 0 1
14.200338 29.432892 8.757001 33.832378 1.121275 1.308981 0.051567 -0.032975 180214.000000 0 0 1
14.038038 29.508892 10.249001 34.247383 1.126759 1.266875 0.037491 -0.009240 159625.000000 0 0 1
14.896238 30.493132 10.804401 35.615503 1.116382 1.262577 0.059313 -0.022166 -79168.300000 0 0 1
14.480338 30.812102 12.082901 36.125646 1.131471 1.229755 0.046979 -0.011265 -292537.000000 0 0 1
15.403738 31.646782 12.998301 37.519992 1.117813 1.217026 0.057560 -0.004535 -484359.000000 0 0 1
16.480938 30.892802 13.436801 37.503788 1.080719 1.204373 0.060148 -0.010528 -620736.000000 0 0 1
17.393938 31.666002 14.169201 38.807873 1.068495 1.197044 0.057257 0.000852 3967.350000 0 0 1
18.488438 30.817812 14.868701 38.892649 1.030431 1.178511 0.053870 -0.002344 250569.000000 0 0 1
19.609538 30.418232 14.103301 38.842064 0.998181 1.199210 0.055070 -0.009764 13897.000000 0 0 1
20.017438 29.177602 14.701801 38.316749 0.969491 1.177006 0.050531 -0.004267 -486906.000000 0 0 1
21.297838 28.541452 14.161301 38.324337 0.929727 1.192313 0.064263 -0.005578 285456.000000 0 0 1
22.423738 29.067102 14.890801 39.616365 0.913710 1.185456 0.068720 -0.011070 773979.000000 0 0 1
23.676638 28.647522 14.331601 39.832882 0.880116 1.202750 0.073688 -0.012921 902701.000000 0 0 1
24.881738 28.940492 15.285801 41.113363 0.860666 1.189853 0.086659 -0.025585 244712.000000 0 0 1
24.835638 28.041672 16.364001 40.876947 0.845956 1.158927 0.083501 -0.019121 -158870.000000 0 0 1
25.868138 28.287552 17.273901 42.044426 0.830044 1.147411 0.075492 -0.022352 -636988.000000 0 0 1
26.882738 27.160572 17.400201 41.989823 0.790539 1.143523 0.051944 -0.015648 -275168.000000 0 0 1
26.366638 25.933652 18.006501 41.133781 0.777120 1.117697 0.063655 -0.016893 177992.000000 0 0 1
26.029938 25.918082 19.376201 41.530011 0.783245 1.085400 0.078968 -0.018932 308622.000000 0 0 1
25.359338 24.569912 19.880101 40.521537 0.769589 1.058012 0.080096 -0.020855 -93973.700000 0 0 1
26.254838 23.508372 20.010101 40.526093 0.730263 1.054390 0.056473 -0.017264 -344328.000000 0 0 1
25.650738 22.314332 20.391701 39.644813 0.715951 1.030535 0.055603 -0.015486 373185.000000 0 0 1
26.683738 21.100632 20.289501 39.609625 0.669086 1.033009 0.030464 -0.011053 441672.000000 0 0 1
26.061438 19.874132 20.417201 38.614010 0.651509 1.013668 0.023425 0.008535 -173797.000000 0 0 1
26.960538 18.773532 20.449501 38.697522 0.608261 1.014029 0.031835 -0.000409 114439.000000 0 0 1
27.558938 18.418432 21.836601 39.693461 0.589152 0.988275 0.070362 0.007862 -77099.700000 0 0 1
26.605338 17.876532 22.719901 39.288781 0.591627 0.954178 0.033859 0.014263 24252.300000 0 0 1
27.188138 17.557732 23.956101 40.266159 0.573407 0.933601 0.076514 0.011729 -176682.000000 0 0 1
26.197238 16.850632 24.871901 39.860388 0.571595 0.896977 0.063020 0.007530 -108373.000000 0 0 1
25.980138 15.498132 24.438801 38.889775 0.537870 0.891286 0.050626 0.003355 107383.000000 0 0 1
24.868038 14.886932 25.048801 38.307734 0.539417 0.858090 0.054135 -0.000982 32101.400000 0 0 1
24.362738 13.653532 24.210601 36.960994 0.510813 0.856573 0.053649 -0.001313 -375987.000000 0 0 1
23.137738 13.193332 24.700501 36.325386 0.518226 0.823062 0.045105 -0.006763 -446111.000000 0 0 1
22.705038 12.142432 23.873301 35.112560 0.491091 0.823160 0.049553 -0.001555 484670.000000 0 0 1
21.327938 11.559932 24.310001 34.343691 0.496687 0.784354 0.042911 -0.006799 629673.000000 0 0 1
20.193638 12.395332 24.326901 33.959172 0.550522 0.772229 0.041556 -0.011504 428237.000000 0 0 1
18.985738 11.653032 24.507401 33.118938 0.550489 0.737754 0.044160 -0.013426 70867.800000 0 0 1
17.728338 12.465432 24.690901 32.853029 0.612828 0.720378 0.040385 -0.022256 -657905.000000 0 0 1
17.698638 13.311332 25.833901 34.026809 0.644850 0.708680 0.052738 -0.013495 82720.500000 0 0 1
16.400238 13.813732 26.108201 33.784984 0.700000 0.687594 0.062382 -0.015412 -264665.000000 0 0 1
16.158438 14.078832 27.646501 34.980532 0.716730 0.659433 0.060830 -0.011317 -172550.000000 0 0 1
16.042438 12.900132 28.402101 35.077807 0.677251 0.627175 0.062381 -0.008383 -84688.900000 0 0 1
16.221338 13.149132 29.729401 36.329998 0.681175 0.612322 0.054856 -0.009223 616346.000000 0 0 1
17.692338 13.056132 30.283601 37.424295 0.635747 0.628013 0.057882 -0.001697 367474.000000 0 0 1
18.356738 14.208832 29.893301 37.847987 0.658709 0.660272 0.075518 -0.016406 -563377.000000 0 0 1
19.738138 13.978632 29.834601 38.407026 0.616211 0.681227 0.057404 -0.003274 -125296.000000 0 0 1
20.655138 15.150932 29.286701 38.908820 0.632869 0.718641 0.055635 -0.003360 212225.000000 0 0 1
20.424538 15.671332 27.959701 38.006542 0.654469 0.744163 0.070151 -0.014838 144851.000000 0 0 1
20.408938 14.752832 26.881101 36.834282 0.625905 0.752789 0.069690 -0.015048 -143955.000000 0 0 1
20.155738 15.536932 25.620601 36.111843 0.656708 0.782037 0.054920 -0.021768 27127.200000 0 0 1
21.298038 16.314232 25.294401 36.872310 0.653661 0.814819 0.057998 -0.013777 410040.000000 0 0 1
21.282738 16.829032 23.993301 36.219466 0.669067 0.846722 0.048719 -0.015172 -216338.000000 0 0 1
22.509138 17.718032 23.749001 37.210280 0.666855 0.878590 0.056621 -0.014967 -220837.000000 0 0 1
22.412438 18.276732 22.454501 36.613671 0.684105 0.910587 0.049269 -0.019518 126466.000000 0 0 1
23.486638 19.145632 22.090201 37.498725 0.683923 0.940862 0.045993 -0.011539 -57473.300000 0 0 1
23.728238 20.566132 22.733501 38.766056 0.714131 0.944154 0.063262 -0.029431 -85900.200000 0 0 1
22.725238 21.516132 22.401701 38.486576 0.758075 0.949530 0.070690 -0.024196 309218.000000 0 0 1
22.875438 22.617132 23.233901 39.681664 0.779720 0.945291 0.088865 -0.028212 -34400.200000 0 0 1
21.995738 23.793422 22.760301 39.597610 0.824638 0.958449 0.091051 -0.034384 -284628.000000 0 0 1
22.394638 24.514902 21.591501 39.606731 0.830566 0.994232 0.100635 -0.026226 533550.000000 0 0 1
21.436438 25.519922 21.158201 39.477294 0.872143 1.005153 0.097801 -0.031069 331379.000000 0 0 1
21.990438 26.349612 19.986501 39.715760 0.875332 1.043454 0.095958 -0.026254 -169915.000000 0 0 1
21.921038 25.480372 18.860701 38.542279 0.860347 1.059451 0.093868 -0.029436 225648.000000 0 0 1
22.221338 26.386402 17.745401 38.793418 0.870877 1.095690 0.090545 -0.030161 -79434.600000 0 0 1
22.089838 25.617962 16.445201 37.612306 0.859217 1.118281 0.073884 -0.013100 -521048.000000 0 0 1
20.834838 25.290892 15.942901 36.440304 0.881706 1.117972 0.072229 -0.010331 -744992.000000 0 0 1
20.964038 24.930542 14.559601 35.679192 0.871610 1.150458 0.079868 -0.010521 68472.000000 0 0 1
19.589438 24.479332 13.997501 34.335314 0.895907 1.150895 0.072541 -0.009484 977771.000000 0 0 1
18.509538 25.387022 13.766101 34.301741 0.940810 1.157835 0.065311 -0.006175 395474.000000 0 0 1
17.794838 25.769762 14.940301 34.697975 0.966453 1.125660 0.061586 -0.011969 -277612.000000 0 0 1
16.269338 25.913932 14.644601 33.921786 1.010170 1.124401 0.061535 -0.010897 -382061.000000 0 0 1
15.673638 24.666052 14.538801 32.641289 1.004729 1.109163 0.069614 -0.005512 -36949.300000 0 0 1
15.168238 24.097552 15.771801 32.550225 1.009002 1.064962 0.092554 -0.005803 32025.200000 0 0 1
14.010638 24.834962 16.474201 32.931332 1.057155 1.046898 0.103804 -0.021475 -427705.000000 0 0 1
14.524638 25.875092 17.230601 34.312958 1.059291 1.044701 0.098042 -0.019286 540113.000000 0 0 1
13.446438 26.577692 17.842501 34.720818 1.102416 1.031089 0.095493 -0.027359 332145.000000 0 0 1
13.984438 27.751972 18.689301 36.263293 1.104027 1.029348 0.087548 -0.024693 -120330.000000 0 0 1
14.335538 28.817022 17.798101 36.779081 1.109177 1.065669 0.073258 -0.017461 -132589.000000 0 0 1
15.009438 29.840392 18.420901 38.145272 1.104759 1.066816 0.068721 -0.010662 -338434.000000 0 0 1
14.979538 31.149982 17.550701 38.765126 1.122558 1.100955 0.056627 -0.012162 464454.000000 0 0 1
13.650138 31.648842 17.404801 38.612207 1.163602 1.103181 0.053196 -0.010461 264177.000000 0 0 1
13.583338 32.890571 16.796001 39.349744 1.179146 1.129802 0.046981 -0.002005 903463.000000 0 0 1
12.204938 33.701694 16.837401 39.601297 1.223342 1.131643 0.053500 -0.008209 1090120.000000 0 0 1
12.212638 -33.171739 16.113301 38.847796 -1.218032 1.143095 0.059710 -0.010112 -109420.000000 0 0 1
13.016738 -32.141769 16.692601 38.485993 -1.186005 1.122166 0.048853 -0.009431 -118636.000000 0 0 1
12.698138 -31.570709 18.097401 38.541773 -1.188384 1.082012 0.049873 -0.006710 -136226.000000 0 0 1
13.173238 -32.532919 19.040401 39.930713 -1.186056 1.073745 0.054394 -0.006489 293819.000000 0 0 1
12.875638 -32.177889 20.373801 40.203113 -1.190170 1.039360 0.051918 -0.014343 -141577.000000 0 0 1
13.948638 -32.813429 21.278801 41.521957 -1.168850 1.032736 0.064479 -0.009487 1687240.000000 0 0 1
15.284738 -32.244539 21.107301 41.459035 -1.128143 1.036643 0.070058 -0.010201 1387830.000000 0 0 1
16.308038 -32.884659 21.851501 42.718157 -1.110421 1.033835 0.078103 -0.010100 -504866.000000 0 0 1
17.624638 -32.208139 21.600901 42.598016 -1.070097 1.038995 0.095357 -0.022063 -850933.000000 0 0 1
17.794038 -30.973979 22.305201 42.113384 -1.049350 1.012613 0.090981 -0.015920 -620716.000000 0 0 1
19.020338 -30.389809 22.022301 42.074879 -1.011565 1.019951 0.086929 -0.014102 -624147.000000 0 0 1
-5.100662 13.938581 19.159345 24.235951 -1.219994 0.659116 0.030245 0.025348 -224902.000000 0 1 0
-5.029962 13.872481 17.729445 23.066848 -1.222954 0.694128 0.039269 -0.016366 -243385.000000 0 1 0
-5.737762 14.836381 16.984645 23.270546 -1.201776 0.752654 0.033102 -0.012484 -351832.000000 0 1 0
-5.312662 16.347681 17.033545 24.199436 -1.256583 0.789949 0.044356 -0.026453 -132012.000000 0 1 0
-5.113162 16.936081 18.300345 25.453446 -1.277589 0.768472 0.043036 -0.014630 168446.000000 0 0 1
-5.000262 18.323281 18.126545 26.254845 -1.304392 0.808744 0.044388 -0.005836 -382632.000000 0 0 1
-4.473862 19.056281 19.394845 27.555713 -1.340201 0.790006 0.050479 -0.008326 -77430.200000 0 0 1
-5.351062 19.161681 20.518745 28.580112 -1.298475 0.769961 0.045323 -0.004216 100974.000000 0 0 1
-4.875462 20.045081 21.470845 29.775369 -1.332204 0.765416 0.057025 -0.001226 -305206.000000 0 0 1
-5.834662 20.134681 22.675945 30.881178 -1.288740 0.746166 0.038973 0.001489 14433.600000 0 0 1
-5.809962 18.999981 23.543815 30.806918 -1.274038 0.700937 0.032872 -0.005336 -307163.000000 0 0 1
-6.472362 19.248081 24.757995 32.020906 -1.246414 0.686953 0.022227 -0.012716 -149124.000000 0 0 1
-5.672162 20.007881 25.850735 33.177541 -1.294548 0.677466 0.024141 -0.010260 -268531.000000 0 0 1
-5.357862 21.335081 25.522485 33.694059 -1.324755 0.711356 0.039436 -0.019390 111241.000000 0 0 1
-4.341362 21.911481 26.319105 34.520367 -1.375198 0.703748 0.048162 -0.015496 940194.000000 0 0 1
-2.831962 21.613181 26.031355 33.952630 -1.440509 0.697117 0.059217 -0.007194 406592.000000 0 0 1
-2.421962 20.263281 26.362425 33.338325 -1.451836 0.658756 0.079265 -0.009105 -245717.000000 0 0 1
-1.056962 20.121981 26.056985 32.939001 -1.518317 0.658244 0.069955 -0.000996 143903.000000 0 0 1
-0.388762 18.913481 26.806775 32.809665 -1.550244 0.614540 0.084715 -0.001693 -90051.400000 0 0 1
-0.869762 17.679981 26.326955 31.724545 -1.521641 0.591938 0.097711 -0.006031 -293402.000000 0 0 1
-0.190662 16.485781 26.716035 31.393691 -1.559232 0.552910 0.098621 -0.008155 834184.000000 0 0 1
1.207338 16.247581 26.014915 30.695559 1.496624 0.559513 0.114268 -0.003855 722945.000000 0 0 1
1.194838 15.959581 24.626395 29.369971 1.496069 0.576292 0.083163 -0.003654 -379897.000000 0 0 1
0.827138 14.639081 24.306855 28.386794 1.514354 0.542785 0.102032 -0.006050 5901.670000 0 0 1
0.959838 14.317781 22.834645 26.969263 1.503858 0.561060 0.101999 -0.018565 481753.000000 0 0 1
2.293438 14.353881 22.325145 26.640305 1.412357 0.577150 0.083940 -0.020730 136564.000000 0 0 1
2.499038 13.561081 21.155545 25.252826 1.388561 0.577647 0.072124 -0.025353 172659.000000 0 0 1
3.999838 13.416581 20.829945 25.097609 1.281059 0.591765 0.060104 -0.029181 294851.000000 0 0 1
4.558538 14.335381 19.879445 24.929416 1.262916 0.647774 0.059867 -0.030250 -383726.000000 0 1 0
5.955738 14.384781 19.929345 25.289752 1.178254 0.663177 0.068589 -0.024678 -315067.000000 0 0 1
6.509138 15.446481 18.962845 25.309132 1.171979 0.723869 0.075288 -0.033819 -49685.300000 0 0 1
6.215638 15.143681 17.617445 24.048692 1.181319 0.748701 0.071407 -0.046952 53616.200000 0 1 0
6.797638 16.167281 16.868145 24.333581 1.172780 0.804871 0.073721 -0.031787 -30551.200000 0 1 0
6.796738 15.721081 15.371245 23.013544 1.162731 0.839384 0.067617 -0.030005 -17137.700000 0 1 0
7.871738 14.931881 14.919545 22.528164 1.085645 0.846963 0.066342 -0.031663 -167869.000000 0 1 0
7.929938 13.630281 15.441945 22.070844 1.043875 0.795884 0.063807 -0.034539 -15863.900000 0 1 0
9.164938 12.862881 14.884745 21.702660 0.951723 0.815027 0.069415 -0.033831 446631.000000 0 1 0
10.368438 13.596181 15.110445 22.818549 0.919280 0.847045 0.073830 -0.035129 202161.000000 0 1 0
11.314538 13.060681 14.172745 22.348755 0.856912 0.883871 0.077813 -0.030873 -542685.000000 0 1 0
12.674838 13.710881 14.152745 23.429468 0.824643 0.922214 0.080230 -0.019983 -1409760.000000 0 1 0
13.403338 13.469581 15.316545 24.406467 0.787863 0.892380 0.080940 -0.025805 950875.000000 0 1 0
14.746938 14.029581 15.288245 25.456468 0.760475 0.926590 0.065877 -0.021891 1468070.000000 0 0 1
15.775538 13.120081 14.561445 25.160282 0.693757 0.953605 0.066894 -0.027584 -1087720.000000 0 0 1
17.047538 13.662581 14.444945 26.190477 0.675618 0.986594 0.058074 -0.029886 -95746.600000 0 0 1
17.905438 13.070481 13.481145 25.945779 0.630560 1.024426 0.062397 -0.030285 -418727.000000 0 0 1
19.357838 13.487881 13.649945 27.257473 0.608552 1.046299 0.042373 -0.028971 -707247.000000 0 0 1
20.101338 12.878781 14.666645 28.018516 0.569804 1.019887 0.020677 -0.021291 -759109.000000 0 0 1
21.342938 13.491081 14.709845 29.221735 0.563696 1.043282 0.025831 -0.025630 -852259.000000 0 0 1
22.123138 13.050081 15.943545 30.231349 0.532948 1.015277 0.040384 -0.013947 -202123.000000 0 0 1
22.484438 11.675481 16.051345 29.991874 0.478944 1.006064 0.049482 -0.017237 711408.000000 0 0 1
23.485638 11.471081 17.055345 31.209705 0.454349 0.992646 0.040916 -0.016172 117003.000000 0 0 1
23.727638 9.986781 17.308845 31.021488 0.398386 0.978867 0.067345 -0.019819 -27608.600000 0 0 1
22.645338 9.372381 18.003645 30.410263 0.392412 0.937227 0.048459 -0.016206 424448.000000 0 0 1
22.598338 8.015181 17.707145 29.807230 0.340838 0.934705 0.057252 -0.012018 134769.000000 0 0 1
21.272738 7.301881 18.091845 28.864540 0.330649 0.893377 0.087077 -0.013720 4940.650000 0 0 1
21.291738 5.943681 17.726545 28.335417 0.272224 0.894900 0.113561 -0.037724 1562500.000000 0 0 1
20.088538 5.267781 18.223545 27.629630 0.256454 0.850556 0.112420 -0.034380 833006.000000 0 0 1
19.735638 4.005181 17.414945 26.623621 0.200222 0.857783 0.103233 -0.025197 -1358250.000000 0 0 1
18.873638 4.307281 16.377745 25.357393 0.224374 0.868625 0.105311 -0.037743 -109282.000000 0 0 1
18.586638 3.146581 15.646945 24.498795 0.167703 0.878012 0.092603 -0.039629 -106128.000000 0 1 0
17.764438 1.997881 16.306245 24.196289 0.111995 0.831301 0.092210 -0.030130 -704537.000000 0 1 0
18.524938 1.215881 17.197845 25.306473 0.065541 0.823602 0.102805 -0.040862 40363.200000 0 0 1
17.710538 0.759781 18.250145 25.442252 0.042874 0.770853 0.096029 -0.028911 -139069.000000 0 0 1
18.491638 0.096081 19.446045 26.834652 0.005196 0.760253 0.086800 -0.027137 -88280.600000 0 0 1
19.010538 -1.158919 19.092645 26.967995 -0.060887 0.784171 0.089467 -0.027051 54729.200000 0 0 1
18.264838 -2.274419 19.610045 26.894816 -0.123887 0.753734 0.067417 -0.013810 139313.000000 0 0 1
18.364638 -3.584719 18.754145 26.492038 -0.192773 0.784253 0.060847 -0.014093 -31236.300000 0 0 1
17.920938 -3.431719 17.438345 25.239504 -0.189202 0.808043 0.072020 -0.029862 151146.000000 0 0 1
17.643638 -4.690119 16.908945 24.883882 -0.259816 0.823696 0.074697 -0.022636 -230130.000000 0 1 0
17.371738 -4.555219 15.378345 23.643620 -0.256446 0.862656 0.060487 -0.033157 1026130.000000 0 1 0
15.966038 -4.352619 15.048945 22.368066 -0.266150 0.832827 0.062032 -0.036339 1398030.000000 0 1 0
15.604238 -4.252419 13.677145 21.181114 -0.266056 0.868826 0.060921 -0.030495 199438.000000 0 1 0
16.045438 -3.029419 12.863545 20.787117 -0.186606 0.903553 0.057848 -0.026965 -344481.000000 0 1 0
15.217238 -1.993619 13.267745 20.287235 -0.130269 0.857943 0.055093 -0.020657 51260.300000 0 1 0
15.487938 -0.752619 12.623145 19.994660 -0.048556 0.887535 0.051863 -0.024745 -182082.000000 0 1 0
14.520338 0.333281 13.099445 19.558802 0.022949 0.836929 0.050612 -0.015084 -581325.000000 0 1 0
14.713638 1.642081 12.583645 19.430278 0.111143 0.866325 0.052406 -0.015154 186641.000000 0 1 0
15.720538 2.326081 13.343045 20.750489 0.146899 0.872357 0.072024 -0.024553 99560.700000 0 1 0
15.847638 3.757481 12.795945 20.712375 0.232802 0.904864 0.063512 -0.025437 75837.400000 0 1 0
14.804938 4.569881 13.299745 20.419432 0.299394 0.861463 0.043227 -0.013633 507926.000000 0 1 0
14.969838 5.756881 12.507145 20.338791 0.367130 0.908486 0.064895 -0.022388 747803.000000 0 1 0
13.911038 6.920981 12.747445 20.097619 0.461659 0.883724 0.050192 -0.019625 304905.000000 0 1 0
14.082838 7.966181 11.807845 20.030266 0.514791 0.940356 0.053564 -0.033899 79910.900000 0 1 0
13.385138 9.170081 12.065345 20.219418 0.600652 0.931388 0.050966 -0.020506 -479223.000000 0 1 0
13.667538 9.946481 13.343245 21.535465 0.629105 0.902571 0.063272 -0.028862 -84534.900000 0 1 0
13.187938 9.323681 14.505845 21.708806 0.615399 0.839008 0.063153 -0.035013 524010.000000 0 1 0
13.926438 9.736981 15.668345 23.113881 0.610170 0.825927 0.090753 -0.040416 255988.000000 0 1 0
13.361738 9.149981 16.984645 23.467773 0.600445 0.761585 0.075905 -0.042954 117943.000000 0 1 0
12.140438 9.675381 17.469445 23.370596 0.672881 0.726511 0.074255 -0.041765 -26743.500000 0 1 0
11.512738 8.981681 18.522445 23.585900 0.662521 0.667586 0.081024 -0.031267 -45724.400000 0 1 0
12.194538 9.102681 19.906945 25.056975 0.641229 0.652667 0.095248 -0.035068 -116428.000000 0 0 1
13.420438 8.401081 19.891345 25.423452 0.559312 0.672284 0.104325 -0.041524 20034.000000 0 0 1
14.220438 8.539881 21.073945 26.819053 0.540813 0.666836 0.090505 -0.033210 928464.000000 0 0 1
15.723238 8.173781 20.816645 27.337952 0.479404 0.705240 0.080605 -0.029752 635991.000000 0 0 1
16.419938 9.157181 20.103745 27.525059 0.508726 0.751919 0.088389 -0.026647 -630087.000000 0 0 1
17.611738 8.700381 19.553145 27.716338 0.458844 0.787705 0.073042 -0.028425 -374888.000000 0 0 1
18.374338 9.853481 18.809945 28.080623 0.492236 0.836783 0.082770 -0.030425 -30383.800000 0 0 1
19.170138 10.570981 19.731145 29.471307 0.503940 0.837256 0.062963 -0.023924 -150445.000000 0 0 1
19.989538 11.487781 19.081645 29.927578 0.521601 0.879425 0.059930 -0.024977 -690670.000000 0 0 1
20.915938 12.188181 19.985745 31.392009 0.527618 0.880649 0.035583 -0.011000 -816548.000000 0 0 1
20.236238 13.358681 20.371345 31.669408 0.583468 0.872061 0.030067 -0.012831 619361.000000 0 0 1
20.915638 14.171481 21.343345 33.073149 0.595502 0.869331 0.024968 -0.006392 703200.000000 0 0 1
22.267038 14.914281 21.002045 34.049121 0.590163 0.906105 0.008840 0.001092 890330.000000 0 0 1
23.406438 14.052481 21.041545 34.468539 0.540690 0.914159 -0.004628 0.012253 251676.000000 0 0 1
24.576638 14.818381 20.838845 35.466223 0.542583 0.942745 -0.001355 0.007986 188952.000000 0 0 1
25.909438 14.037581 20.807645 36.073685 0.496521 0.955979 0.015041 -0.003037 165557.000000 0 0 1
25.933538 13.135281 19.689145 35.110489 0.468832 0.975473 0.027840 -0.016378 197708.000000 0 0 1
27.212138 12.539681 19.669445 35.841751 0.431809 0.989885 0.075824 -0.027822 140552.000000 0 0 1
27.349138 11.598981 18.477245 34.984572 0.401115 1.014371 0.113020 -0.033191 -95833.500000 0 0 1
27.119438 12.149681 17.177645 34.324192 0.421195 1.046674 0.106896 -0.043303 265845.000000 0 0 1
27.544138 11.303881 16.159445 33.876023 0.389432 1.073539 0.148896 -0.051264 218751.000000 0 0 1
26.575138 11.279681 14.905145 32.490499 0.401400 1.094204 0.124933 -0.054069 248992.000000 0 0 1
26.538138 12.365281 14.074145 32.484681 0.436033 1.122695 0.144533 -0.054005 507964.000000 0 0 1
25.454938 12.207481 13.145645 31.141362 0.447172 1.135005 0.126937 -0.045432 481224.000000 0 0 1
25.112038 13.484281 12.345645 31.062119 0.492780 1.162060 0.100291 -0.044822 -135558.000000 0 0 1
24.467638 14.444681 13.153345 31.310136 0.533300 1.137242 0.071538 -0.037393 236390.000000 0 0 1
24.243838 15.618481 12.384045 31.385748 0.572305 1.165191 0.049112 -0.028662 223214.000000 0 0 1
23.247738 16.602481 13.079545 31.419328 0.620163 1.141435 0.047264 -0.023877 440800.000000 0 0 1
21.873238 16.265181 13.016245 30.206246 0.639400 1.125293 0.072436 -0.032069 797466.000000 0 0 1
20.952538 17.301181 13.409545 30.301083 0.690235 1.112363 0.057611 -0.024197 -60525.100000 0 0 1
20.348338 18.044681 12.202545 29.808849 0.725468 1.149044 0.087711 -0.021510 -41736.300000 0 0 1
19.365038 17.410881 11.375845 28.417483 0.732311 1.158940 0.084367 -0.023456 1386750.000000 0 0 1
18.055038 17.438281 12.006245 27.824952 0.768023 1.124650 0.070161 -0.021211 1155450.000000 0 0 1
16.903238 16.830381 11.118645 26.317398 0.783238 1.134614 0.073663 -0.020822 453805.000000 0 0 1
16.981738 15.414181 11.184645 25.516126 0.737048 1.117049 0.081016 -0.021406 -469041.000000 0 0 1
15.772038 14.887281 10.794845 24.226370 0.756549 1.108972 0.090128 -0.027240 -664125.000000 0 1 0
15.975138 13.553481 10.041845 23.232316 0.703571 1.123825 0.099038 -0.031011 -65861.500000 0 1 0
16.138238 12.456881 10.890545 23.113212 0.657362 1.080165 0.102012 -0.025823 213061.000000 0 1 0
16.550238 11.381981 10.146445 22.503560 0.602439 1.103043 0.096653 -0.025332 -421076.000000 0 1 0
17.040138 10.175981 10.887145 22.637288 0.538341 1.069071 0.109452 -0.038123 -559721.000000 0 1 0
17.945238 9.418881 10.075145 22.633060 0.483344 1.109453 0.133472 -0.033890 684864.000000 0 1 0
18.482738 8.285181 10.701945 22.908240 0.421411 1.084714 0.146679 -0.033746 -257476.000000 0 1 0
19.651138 8.570881 11.639045 24.394561 0.411278 1.073426 0.117584 -0.034225 -1280180.000000 0 1 0
19.281538 9.041581 12.905545 24.901425 0.438479 1.025975 0.095490 -0.033792 -570491.000000 0 1 0
20.272738 9.241081 13.848945 26.233085 0.427698 1.014648 0.091919 -0.030078 -1644000.000000 0 0 1
19.719138 9.568181 15.229245 26.689406 0.451756 0.963548 0.062433 -0.020742 163234.000000 0 0 1
18.932238 8.606581 15.916745 26.188655 0.426672 0.917544 0.078320 -0.027271 1091860.000000 0 0 1
17.691838 8.225881 15.296945 24.792393 0.435219 0.905870 0.091543 -0.041743 -138066.000000 0 1 0
17.179538 6.886781 15.803745 24.337679 0.381257 0.864063 0.089984 -0.033534 -22984.100000 0 1 0
16.435738 6.896181 17.031945 24.653153 0.397275 0.808115 0.113189 -0.035467 334847.000000 0 1 0
15.878738 5.619181 17.243745 24.105108 0.340128 0.773662 0.112373 -0.027061 -504286.000000 0 1 0
14.617238 5.556481 18.159845 23.964935 0.363262 0.710912 0.098025 -0.025762 684963.000000 0 1 0
13.884738 4.316681 18.230245 23.318694 0.301421 0.673270 0.078921 -0.015276 808009.000000 0 1 0
13.299438 3.941881 16.963045 21.912516 0.288146 0.685463 0.066748 -0.017470 -686249.000000 0 1 0
13.128538 2.422981 16.859645 21.505278 0.182505 0.669750 0.056796 -0.014615 -31065.000000 0 1 0
14.380538 1.771681 16.858845 22.229696 0.122582 0.709952 0.069473 -0.016416 117497.000000 0 1 0
14.271338 0.383381 16.618245 21.908540 0.026857 0.709745 0.066626 -0.017572 -166188.000000 0 1 0
13.570338 -0.551219 17.648845 22.269702 -0.040597 0.655891 0.077738 -0.020041 1599690.000000 0 1 0
12.173538 -0.232919 17.884445 21.635680 -0.019131 0.597725 0.069302 -0.002593 788441.000000 0 1 0
11.447838 -1.276819 18.463745 21.762195 -0.111075 0.557780 0.066185 -0.015922 188691.000000 0 1 0
-26.718302 13.936781 28.463395 41.451977 -0.480793 0.813912 0.089383 -0.016731 -81834.800000 0 0 1
-25.635622 14.143081 29.339755 41.449163 -0.504145 0.784348 0.082223 -0.011688 254258.000000 0 0 1
-24.917762 12.956181 29.599995 40.803397 -0.479486 0.759138 0.068306 -0.004278 19344.900000 0 0 1
-23.781762 13.037481 30.662635 40.935868 -0.501471 0.724183 0.052373 -0.010562 -297023.000000 0 0 1
-24.108062 13.221581 32.012235 42.199432 -0.501637 0.709644 0.059254 -0.018795 -90909.000000 0 0 1
-23.069562 12.931581 32.951268 42.251823 -0.510905 0.676325 0.046442 -0.010397 135578.000000 0 0 1
-23.519662 13.104481 -33.460179 42.947474 -0.508332 2.464018 0.042416 -0.013123 37357.900000 0 0 1
-24.431562 12.128481 -33.004589 42.817102 -0.460785 2.450935 0.058232 -0.020578 148361.000000 0 0 1
-24.768962 12.414481 -31.678689 42.085154 -0.464616 2.422993 0.041550 -0.019277 189521.000000 0 0 1
-25.630472 11.249081 -31.067699 41.817041 -0.413581 2.408254 0.041504 -0.024943 246671.000000 0 0 1
-24.824562 10.212781 -30.545369 40.664227 -0.390294 2.420615 0.029218 -0.023206 428954.000000 0 0 1
-24.208062 9.321281 -31.487949 40.797151 -0.367551 2.452491 0.031567 -0.022024 10393.900000 0 0 1
-23.321162 8.338781 -30.689239 39.436548 -0.343396 2.462579 0.037261 -0.015373 160482.000000 0 0 1
-24.081462 7.502581 -29.792209 39.035641 -0.302019 2.439056 0.030405 -0.016116 776917.000000 0 0 1
-23.222562 6.835081 -28.866739 37.673524 -0.286246 2.443756 0.035510 -0.012420 -91459.000000 0 0 1
-23.998962 6.037081 -27.848439 37.254961 -0.246443 2.415101 0.034999 -0.011723 -228090.000000 0 0 1
-24.703262 4.926781 -28.374839 37.942797 -0.196856 2.415587 0.041740 -0.017734 225568.000000 0 0 1
-25.131682 4.135581 -27.284509 37.324910 -0.163095 2.390583 0.062905 -0.006782 77330.100000 0 0 1
-25.989502 2.828381 -27.565949 37.991256 -0.108401 2.382683 0.066524 -0.006199 780556.000000 0 0 1
-27.318612 2.914981 -28.050389 39.263571 -0.106301 2.366581 0.079012 -0.009717 356912.000000 0 0 1
-27.472682 3.408981 -29.361019 40.353920 -0.123455 2.385595 0.070221 -0.012163 -1124820.000000 0 0 1
-28.896302 3.336981 -29.875479 41.697434 -0.114972 2.369543 0.086618 -0.019059 -488719.000000 0 0 1
-29.868482 4.147981 -29.212329 41.984428 -0.137992 2.340315 0.072803 -0.007291 49621.000000 0 0 1
-31.066472 4.096481 -29.950299 43.346595 -0.131105 2.333598 0.091616 -0.019254 -55326.100000 0 0 1
-31.426802 5.556181 -30.406219 44.080078 -0.174989 2.332002 0.097462 -0.038880 -551796.000000 0 0 1
-30.585112 5.998881 -31.438779 44.269996 -0.193679 2.360522 0.095580 -0.031582 -23629.300000 0 0 1
-30.911562 7.230081 -32.033229 45.099075 -0.229765 2.360700 0.099384 -0.033316 -787344.000000 0 0 1
-30.476072 8.567781 -31.287089 44.509323 -0.274058 2.350310 0.076471 -0.038164 388569.000000 0 0 1
-29.067132 8.825081 -31.260919 43.589280 -0.294766 2.370529 0.045156 -0.044130 778968.000000 0 0 1
-28.364142 8.025781 -30.318869 42.286778 -0.275747 2.370260 0.033974 -0.043243 -744659.000000 0 0 1
-28.349242 8.634981 -28.861869 41.367257 -0.295665 2.342976 0.031105 -0.026975 540523.000000 0 0 1
-29.555682 8.701881 -28.047109 41.664151 -0.286333 2.309285 0.038707 -0.030007 923561.000000 0 0 1
-29.978272 7.482081 -27.471979 41.344746 -0.244587 2.297569 0.024489 -0.013482 -429434.000000 0 0 1
-31.395132 7.646781 -26.887939 42.036756 -0.238914 2.264812 0.047151 -0.013001 -142712.000000 0 0 1
-31.557082 8.589381 -25.838169 41.680186 -0.265748 2.239431 0.021107 -0.007329 -67031.600000 0 0 1
-31.754412 7.892881 -24.627699 40.953191 -0.243623 2.216001 0.016714 -0.007675 -120446.000000 0 0 1
-31.389362 8.744581 -23.395299 40.113586 -0.271695 2.193491 0.019858 0.000305 -125290.000000 0 0 1
-32.082392 9.981881 -23.277699 40.875043 -0.301639 2.176675 0.024990 -0.002756 247215.000000 0 0 1
-31.407472 10.795481 -22.336199 40.023462 -0.331072 2.162864 0.024527 -0.005741 -149840.000000 0 0 1
-32.343812 11.531281 -21.382599 40.451307 -0.342473 2.127748 0.017595 0.002699 -297599.000000 0 0 1
-32.801152 10.869681 -20.241099 40.047068 -0.319992 2.100680 0.016642 -0.007785 467503.000000 0 0 1
-33.573902 11.697081 -19.371399 40.488020 -0.335247 2.069682 0.028552 0.003355 365565.000000 0 0 1
-32.637542 12.514881 -18.412599 39.507661 -0.366159 2.055619 0.028412 -0.000492 101114.000000 0 0 1
-31.988962 11.776781 -17.420799 38.281465 -0.352753 2.043249 0.051141 -0.004916 156713.000000 0 0 1
-32.811322 11.137681 -16.438599 38.351771 -0.327242 2.013769 0.057368 -0.004358 131366.000000 0 0 1
-33.314482 12.162981 -15.304499 38.626682 -0.350059 1.978188 0.051921 0.004436 387192.000000 0 0 1
-34.101025 13.240781 -15.836399 39.862134 -0.370363 1.979347 0.029755 0.003149 44935.100000 0 0 1
-34.849011 13.800081 -14.837699 40.311948 -0.377050 1.947731 0.014973 -0.001434 -556698.000000 0 0 1
-35.514489 15.167181 -15.104199 41.466362 -0.403623 1.943626 0.009705 0.000683 362032.000000 0 0 1
-36.418652 15.114781 -16.207099 42.631502 -0.393395 1.960773 0.020030 -0.007845 394028.000000 0 0 1
37.115952 16.314681 -16.431199 43.746395 0.414138 1.955842 0.010652 -0.013576 -353013.000000 0 0 1
36.788162 16.353781 -17.962099 44.084601 0.418303 1.990452 0.009468 -0.012712 603306.000000 0 0 1
35.728982 15.495981 -18.397099 43.071323 0.409224 2.012114 0.053555 -0.016854 960123.000000 0 0 1
34.389562 15.906481 -18.148499 42.012215 0.433232 2.017485 0.102854 -0.025752 106778.000000 0 0 1
33.356242 14.900381 -18.715299 41.047810 0.420110 2.044223 0.121389 -0.030944 -275243.000000 0 0 1
33.106442 14.786581 -20.093499 41.453929 0.420054 2.076838 0.116951 -0.027870 37424.100000 0 0 1
32.058562 13.898481 -20.368899 40.445164 0.409077 2.098577 0.069595 -0.019496 -271922.000000 0 0 1
32.336192 12.378681 -20.146999 40.059489 0.365602 2.097778 0.063788 0.003419 -99615.600000 0 0 1
32.325022 12.089281 -18.780299 39.290679 0.357886 2.069154 0.077435 0.003056 215275.000000 0 0 1
33.061562 10.903781 -18.486899 39.417316 0.318569 2.058960 0.072054 0.004464 114234.000000 0 0 1
32.994202 10.561781 -16.948299 38.567000 0.309803 2.025784 0.052800 0.006963 -333828.000000 0 0 1
31.791172 9.989481 -16.494899 37.182658 0.304453 2.030428 0.070361 0.001428 -165640.000000 0 0 1
31.799772 9.642881 -15.109899 36.503695 0.294424 1.997561 0.050222 0.007952 -209190.000000 0 0 1
31.452922 10.761381 -14.101799 36.110309 0.329658 1.971993 0.060726 -0.002584 -1025210.000000 0 0 1
30.098272 11.029081 -14.148999 35.039133 0.351241 1.986469 0.058588 0.003407 -768078.000000 0 0 1
29.718852 12.024081 -13.206399 34.672723 0.384461 1.961552 0.071390 0.002564 1135690.000000 0 0 1
28.146222 12.083681 -13.061699 33.299147 0.405522 1.973876 0.087606 0.009466 908504.000000 0 0 1
27.569222 10.942981 -12.481899 32.180874 0.377855 1.969113 0.075536 0.002579 23068.300000 0 0 1
26.171922 10.790781 -12.594899 30.984544 0.391068 1.989405 0.081764 0.010796 45109.100000 0 0 1
25.650522 10.124881 -13.895299 30.879473 0.375950 2.037545 0.074586 -0.001802 -569462.000000 0 0 1
25.951122 8.749781 -14.046599 30.778668 0.325194 2.044713 0.078857 -0.003304 824078.000000 0 0 1
27.268422 8.572981 -14.583799 32.089719 0.304608 2.042573 0.084229 -0.006597 621395.000000 0 0 1
28.137622 7.554581 -13.760199 32.220189 0.262301 2.012044 0.086378 -0.007765 -139628.000000 0 0 1
27.626622 6.257581 -13.757899 31.490751 0.222747 2.022931 0.089955 -0.019455 276894.000000 0 0 1
26.787722 5.952881 -12.659199 30.220427 0.218671 2.003025 0.102047 -0.020948 -117798.000000 0 0 1
26.179722 4.544981 -12.778799 29.484444 0.171894 2.019068 0.111080 -0.023385 -246674.000000 0 0 1
25.523422 4.054381 -11.637999 28.343008 0.157533 1.993922 0.114850 -0.022292 565104.000000 0 0 1
25.025222 2.720881 -11.749799 27.779898 0.108300 2.007506 0.106318 -0.029524 -115699.000000 0 0 1
24.254622 2.206881 -10.540599 26.537921 0.090738 1.979249 0.096156 -0.035359 -187782.000000 0 0 1
25.187322 2.008981 -9.509099 26.997411 0.079593 1.930741 0.112226 -0.029464 747401.000000 0 0 1
24.701322 1.019681 -8.634199 26.186723 0.041257 1.906800 0.132751 -0.023650 -466880.000000 0 0 1
25.756122 0.722381 -7.552999 26.850465 0.028040 1.855943 0.166296 -0.017492 -126634.000000 0 0 1
25.675622 -0.537719 -6.935299 26.601224 -0.020940 1.834558 0.124073 -0.027981 264349.000000 0 0 1
26.421022 -1.480619 -7.688299 27.556716 -0.055981 1.853548 0.108679 -0.029372 -579791.000000 0 0 1
26.421622 -2.805119 -6.930099 27.459008 -0.105771 1.825935 0.097780 -0.034855 -259082.000000 0 0 1
27.450822 -2.747119 -5.951499 28.222591 -0.099742 1.783269 0.104107 -0.038029 524748.000000 0 0 1
27.558322 -3.952719 -5.222999 28.326045 -0.142459 1.756246 0.113185 -0.051746 -1268930.000000 0 0 1
28.930122 -4.113519 -4.631799 29.585919 -0.141241 1.727997 0.133369 -0.048129 -1003860.000000 0 0 1
29.883142 -4.357119 -5.658499 30.724669 -0.144785 1.756022 0.117858 -0.029510 -118174.000000 0 0 1
31.144012 -4.699519 -5.157099 31.915994 -0.149766 1.733091 0.119768 -0.035544 -472299.000000 0 0 1
32.118072 -4.945619 -6.338099 33.108930 -0.152782 1.763417 0.130522 -0.040178 -305918.000000 0 0 1
31.878882 -6.137219 -7.026999 33.216070 -0.190190 1.783961 0.113378 -0.042980 84818.100000 0 0 1
32.623802 -6.102619 -8.214199 34.191044 -0.184923 1.813414 0.123123 -0.045886 -809795.000000 0 0 1
31.975382 -6.929419 -9.401099 34.041483 -0.213411 1.850599 0.100747 -0.040930 1277080.000000 0 0 1
30.654802 -6.516219 -9.834499 32.846543 -0.209450 1.874868 0.099524 -0.044284 1272880.000000 0 0 1
29.652502 -6.890419 -8.901799 31.717358 -0.228320 1.855278 0.105351 -0.039336 -1219440.000000 0 0 1
28.508522 -5.861319 -8.929699 30.443890 -0.202773 1.868491 0.102589 -0.035659 -293205.000000 0 0 1
27.601922 -5.883619 -10.026299 29.950121 -0.210017 1.912154 0.083417 -0.024864 477740.000000 0 0 1
26.504822 -5.014819 -9.868299 28.723463 -0.186994 1.921504 0.086641 -0.031807 584280.000000 0 0 1
25.160522 -5.745219 -9.542299 27.515721 -0.224494 1.924948 0.125946 -0.032879 -545465.000000 0 0 1
25.234022 -6.430119 -8.291099 27.328459 -0.249509 1.879042 0.122616 -0.041667 615642.000000 0 0 1
23.990022 -6.967619 -7.890699 26.197939 -0.282662 1.876742 0.126875 -0.047908 33246.900000 0 0 1
22.932322 -5.974219 -7.340599 24.808609 -0.254851 1.871183 0.148592 -0.042891 -400729.000000 0 1 0
22.299922 -5.222119 -8.359999 24.381277 -0.230031 1.920784 0.144962 -0.043414 66216.300000 0 1 0
21.685222 -4.109319 -7.881499 23.436156 -0.187278 1.913778 0.114874 -0.044447 -660834.000000 0 1 0
21.677322 -3.023219 -8.990299 23.661607 -0.138571 1.960542 0.118011 -0.039967 -135531.000000 0 1 0
22.960322 -2.763819 -9.521799 25.009593 -0.119797 1.961377 0.102297 -0.035097 608619.000000 0 0 1
22.854322 -2.118919 -10.776299 25.356232 -0.092450 2.009754 0.112609 -0.031820 -98349.200000 0 0 1
24.213822 -2.057419 -11.494399 26.882399 -0.084765 2.012611 0.089350 -0.027882 -252932.000000 0 0 1
25.155922 -1.126419 -11.015099 27.484935 -0.044748 1.983152 0.075369 -0.027569 716417.000000 0 0 1
26.433122 -1.477319 -11.556099 28.886604 -0.055831 1.982368 0.082251 -0.015263 63694.800000 0 0 1
27.442622 -0.342719 -11.287299 29.675210 -0.012488 1.960983 0.084697 -0.007672 -1162500.000000 0 0 1
28.733622 -0.699419 -11.656999 31.016058 -0.024337 1.956097 0.083311 -0.010472 -219827.000000 0 0 1
29.764462 0.242281 -11.423399 31.882220 0.008140 1.937243 0.105462 -0.014360 199358.000000 0 0 1
29.781322 1.572581 -12.208799 32.225067 0.052755 1.959361 0.104359 -0.014985 -677740.000000 0 0 1
30.052122 1.242081 -13.555299 32.991195 0.041307 1.994211 0.082223 -0.012866 385533.000000 0 0 1
30.057722 2.456481 -14.309799 33.380703 0.081544 2.013833 0.087790 -0.014776 -329847.000000 0 0 1
30.449272 2.169581 -15.754899 34.352324 0.071132 2.047246 0.077486 -0.011555 -385952.000000 0 0 1
29.568292 1.498381 -16.632699 33.958442 0.050632 2.082652 0.085379 -0.008009 -207975.000000 0 0 1
29.889232 1.553181 -17.974899 34.912399 0.051918 2.111637 0.066557 -0.004416 -850102.000000 0 0 1
28.874422 0.849081 -18.803099 34.467517 0.029398 2.147819 0.050604 0.003178 -744743.000000 0 0 1
28.860622 -0.559819 -18.767199 34.430462 -0.019395 2.147275 0.062007 -0.002851 78816.000000 0 0 1
28.443922 -1.182819 -19.943199 34.758984 -0.041560 2.181882 0.054853 -0.004562 -213932.000000 0 0 1
28.279822 -2.742819 -19.973799 34.730737 -0.096686 2.183528 0.054640 -0.008064 738702.000000 0 0 1
27.078922 -3.244019 -19.331099 33.428777 -0.119230 2.187412 0.041723 -0.005783 974825.000000 0 0 1
26.992722 -4.644919 -19.285799 33.498125 -0.170411 2.184290 0.045975 -0.008475 -499409.000000 0 0 1
27.771422 -5.297519 -18.142299 33.592538 -0.188490 2.141316 0.057666 -0.007469 -419234.000000 0 0 1
29.135822 -5.317019 -18.470499 34.904530 -0.180504 2.128421 0.048540 -0.015867 -730874.000000 0 0 1
29.883562 -5.531919 -17.349099 34.994581 -0.183044 2.089512 0.052654 -0.008172 -623381.000000 0 0 1
31.387642 -5.215319 -17.427999 36.278352 -0.164654 2.071903 0.069307 -0.018352 -127961.000000 0 0 1
32.054162 -6.056419 -18.318999 37.413036 -0.186742 2.082476 0.063399 -0.024170 164104.000000 0 0 1
33.423232 -5.716419 -18.506299 38.629950 -0.169392 2.070387 0.057742 -0.015191 639637.000000 0 0 1
34.208832 -6.869319 -19.234399 39.842112 -0.198170 2.074606 0.054624 -0.007924 -3923.750000 0 0 1
34.278312 -7.880019 -18.294699 39.645850 -0.225958 2.050429 0.059298 -0.010917 11582.400000 0 0 1
34.689892 -9.071919 -18.925199 40.544439 -0.255786 2.056439 0.041459 -0.002952 -295539.000000 0 0 1
35.408552 -9.998219 -17.936499 40.932236 -0.275203 2.024391 0.057226 -0.014302 -609374.000000 0 0 1
34.619982 -10.376019 -16.820799 39.864072 -0.291192 2.006396 0.045090 -0.015565 126182.000000 0 0 1
35.279092 -11.129719 -15.825799 40.236065 -0.305594 1.975040 0.064079 -0.027399 -1203780.000000 0 0 1
36.419092 -10.426819 -15.116699 40.787050 -0.278842 1.950478 0.083770 -0.028532 -796370.000000 0 0 1
36.969662 -11.166319 -13.999499 41.078323 -0.293327 1.918564 0.078438 -0.028597 678176.000000 0 0 1
-36.699982 -12.470819 -14.167599 41.269006 0.327563 1.921223 0.071941 -0.018338 -653480.000000 0 0 1
-35.265387 -12.452719 -14.723099 40.193126 0.339447 1.945835 0.084073 -0.021318 -331757.000000 0 0 1
-35.201154 -12.094419 -16.100099 40.553784 0.330944 1.979049 0.084597 -0.022376 490598.000000 0 0 1
-33.860442 -12.098419 -16.611799 39.608751 0.343165 2.003578 0.103085 -0.016605 603637.000000 0 0 1
-33.537952 -11.368719 -17.954999 39.704207 0.326825 2.040048 0.118659 -0.021201 124842.000000 0 0 1
-33.629142 -9.980219 -17.898899 39.381399 0.288494 2.042609 0.116185 -0.026159 163759.000000 0 0 1
-34.933837 -9.418319 -17.842199 40.341316 0.263343 2.028937 0.097745 -0.025872 -95898.700000 0 0 1
-35.040382 -7.909419 -17.865899 40.119542 0.222002 2.032324 0.114438 -0.029809 927712.000000 0 0 1
-36.409832 -7.496819 -17.652999 41.152237 0.203063 2.014147 0.103566 -0.020142 1215190.000000 0 0 1
-36.409782 -6.081219 -17.502699 40.853371 0.165494 2.013548 0.101788 -0.021969 -54196.300000 0 0 1
25.157638 27.971281 -27.267849 46.463264 0.838308 2.197983 0.053359 0.020502 15670.600000 0 0 1
25.561438 27.003381 -26.315609 45.553057 0.812823 2.186694 0.055765 0.015393 -314339.000000 0 0 1
26.761538 26.391081 -26.701239 46.104504 0.778429 2.188477 0.061156 0.004672 -147127.000000 0 0 1
27.208438 25.278981 -25.658079 45.140481 0.748654 2.175362 0.068801 -0.002025 -62625.100000 0 0 1
27.708538 25.812881 -24.402699 45.050634 0.749994 2.143222 0.069326 -0.001387 399433.000000 0 0 1
27.817338 24.816181 -23.446699 44.038561 0.728440 2.132245 0.076636 -0.003316 -275154.000000 0 0 1
28.570038 25.318781 -22.231899 44.176296 0.725139 2.098157 0.081019 -0.000497 -99786.300000 0 0 1
27.856338 26.371181 -21.554999 44.000372 0.758018 2.082751 0.075115 0.003466 465468.000000 0 0 1
28.522838 26.808581 -20.373899 44.128767 0.754426 2.050698 0.058444 0.007157 -133410.000000 0 0 1
27.674238 27.795781 -19.577799 43.837873 0.787589 2.033753 0.065420 0.006562 -50144.300000 0 0 1
26.657438 27.115781 -18.846399 42.439031 0.793922 2.030945 0.074652 0.002582 98436.700000 0 0 1
25.941338 28.115281 -18.164699 42.348298 0.825593 2.014111 0.066383 -0.011295 115292.000000 0 0 1
24.888038 27.715181 -17.092999 40.984342 0.839091 2.001006 0.076297 -0.021028 714499.000000 0 0 1
23.750438 27.084181 -17.674099 40.124929 0.850885 2.026926 0.090561 -0.016878 560836.000000 0 0 1
22.600838 27.059881 -16.853599 39.077856 0.874948 2.016710 0.071264 -0.011181 256320.000000 0 0 1
21.432638 26.156381 -17.287199 37.978435 0.884335 2.043376 0.062416 -0.015835 -121683.000000 0 0 1
20.913938 26.591781 -18.508799 38.562822 0.904353 2.071411 0.066420 -0.013143 -268115.000000 0 0 1
20.076638 25.610881 -19.074899 37.720557 0.905943 2.100978 0.059880 -0.012830 -241052.000000 0 0 1
19.431138 25.991081 -20.401199 38.331636 0.928828 2.132027 0.047132 0.000377 495624.000000 0 0 1
18.290038 26.822481 -20.173799 38.222417 0.972327 2.126805 0.036577 -0.000394 -179768.000000 0 0 1
17.375538 26.838181 -21.219599 38.372760 0.996238 2.156740 0.022985 -0.000061 -394606.000000 0 0 1
16.260638 27.860981 -21.024799 38.505646 1.042497 2.148401 0.026871 0.002466 -222593.000000 0 0 1
15.419738 27.597881 -19.910699 37.361040 1.061276 2.132852 0.040830 0.002592 142993.000000 0 0 1
14.513538 28.666181 -19.657499 37.667094 1.102126 2.119843 0.033803 -0.002818 126792.000000 0 0 1
14.007438 28.784581 -18.174399 36.811265 1.117902 2.087157 0.039483 0.001655 -340678.000000 0 0 1
12.989238 27.865781 -17.937099 35.594404 1.134605 2.098939 0.045669 0.002602 -570148.000000 0 0 1
12.872838 27.496181 -16.624999 34.614167 1.132937 2.071787 0.058796 0.001395 133713.000000 0 0 1
11.976438 26.273681 -16.259499 33.137784 1.143101 2.083647 0.070880 -0.002837 428975.000000 0 0 1
12.673938 25.036481 -16.342499 32.473549 1.102186 2.098159 0.060415 -0.005378 210493.000000 0 0 1
11.739438 23.963081 -16.428099 31.335700 1.115264 2.122644 0.081584 -0.009689 127446.000000 0 0 1
12.348438 22.588781 -16.736799 30.705983 1.070519 2.147265 0.077253 -0.011923 -261108.000000 0 0 1
13.017038 22.447881 -17.952399 31.553752 1.045304 2.176021 0.076815 -0.009696 -641706.000000 0 0 1
14.043838 21.500081 -17.763099 31.225159 0.992175 2.175929 0.074381 -0.002056 -278352.000000 0 0 1
13.713038 19.992381 -17.938599 30.158516 0.969587 2.207826 0.099856 -0.008666 -32295.300000 0 0 1
13.012238 19.392181 -16.837799 28.790389 0.979797 2.195480 0.103945 -0.018105 98617.300000 0 0 1
12.686338 17.991281 -16.975499 27.799226 0.956630 2.227673 0.086438 -0.023038 -51316.500000 0 0 1
13.874638 17.027181 -16.846099 27.680707 0.887064 2.225074 0.097277 -0.020984 -242533.000000 0 0 1
14.420238 16.751181 -15.609999 27.059516 0.860037 2.185696 0.080301 -0.016671 557431.000000 0 0 1
15.467038 15.762881 -15.772199 27.137796 0.794871 2.190986 0.094208 -0.021048 -122661.000000 0 0 1
15.925138 15.129681 -14.481899 26.310505 0.759789 2.153667 0.129360 -0.016696 -492605.000000 0 0 1
16.728038 15.826381 -13.534299 26.711025 0.757708 2.102141 0.108857 -0.015957 1347480.000000 0 0 1
18.038238 16.252081 -13.944199 27.999087 0.733356 2.092114 0.079425 -0.007313 784257.000000 0 0 1
19.129038 15.252881 -14.464299 28.421584 0.673134 2.104725 0.075065 -0.016213 113803.000000 0 0 1
19.764938 14.245781 -13.590999 27.898213 0.624524 2.079635 0.115885 -0.023117 1031540.000000 0 0 1
20.747238 14.800281 -12.724299 28.485154 0.619637 2.033869 0.104844 -0.009462 -148094.000000 0 0 1
21.558938 13.751481 -11.939799 28.221443 0.567790 2.007633 0.124111 -0.025499 -425945.000000 0 0 1
20.785738 13.158381 -10.931299 26.919940 0.564366 1.988942 0.196338 -0.027746 343950.000000 0 0 1
21.366538 12.037281 -10.259099 26.583344 0.513051 1.967003 0.203822 -0.018616 -247407.000000 0 0 1
21.304238 10.621381 -10.944399 26.200461 0.462493 2.001728 0.161940 -0.021469 307014.000000 0 0 1
22.150638 10.599281 -12.139599 27.392798 0.446308 2.029925 0.126519 -0.008176 879658.000000 0 0 1
21.880338 9.500181 -12.951699 27.143123 0.409627 2.068220 0.111355 -0.011818 -87037.200000 0 0 1
22.482338 8.132481 -12.538199 26.996281 0.347084 2.053800 0.109547 0.006648 -41767.200000 0 0 1
21.785638 7.645081 -11.390299 25.744906 0.337497 2.029102 0.116671 -0.008961 806509.000000 0 0 1
22.318838 6.385281 -10.875399 25.635457 0.278651 2.008911 0.121038 -0.000853 -431640.000000 0 0 1
22.071538 5.062381 -11.645199 25.463526 0.225463 2.045785 0.113351 -0.008635 832053.000000 0 0 1
20.720638 4.536781 -11.648199 24.199334 0.215548 2.072983 0.080517 -0.025796 1297300.000000 0 1 0
19.903638 5.062081 -12.673899 24.133114 0.249049 2.123707 0.033897 -0.028101 39386.400000 0 1 0
18.873838 4.021981 -13.184099 23.371319 0.209958 2.170157 0.029752 -0.036116 -74013.900000 0 1 0
19.553438 3.156481 -14.021499 24.267318 0.160048 2.186819 0.043311 -0.036633 485941.000000 0 1 0
19.079738 1.834881 -13.885299 23.668644 0.095874 2.197717 0.064611 -0.033284 -579267.000000 0 1 0
20.076338 0.853481 -14.531799 24.798406 0.042486 2.196907 0.079879 -0.031788 882215.000000 0 1 0
21.237138 0.562081 -13.692199 25.274657 0.026461 2.143298 0.102029 -0.029966 1833080.000000 0 0 1
22.419138 0.079581 -14.347299 26.617082 0.003550 2.140077 0.082086 -0.036361 633571.000000 0 0 1
22.405338 -1.404219 -14.806299 26.892331 -0.062592 2.153852 0.077121 -0.029399 -640140.000000 0 0 1
21.491538 -1.638219 -15.863899 26.762535 -0.076079 2.205284 0.076553 -0.025010 395517.000000 0 0 1
22.033038 -2.631419 -16.656599 27.745656 -0.118868 2.214712 0.064978 -0.019755 -419544.000000 0 0 1
20.948038 -3.338119 -17.467399 27.478598 -0.158024 2.259676 0.072818 -0.019362 -431131.000000 0 0 1
20.152438 -4.231219 -16.724699 26.528089 -0.206954 2.252932 0.089416 -0.018987 69372.200000 0 0 1
19.345538 -4.929019 -17.646599 26.644840 -0.249480 2.294667 0.072696 -0.015819 -194607.000000 0 0 1
18.715638 -6.161319 -17.018599 26.035930 -0.318032 2.283205 0.079860 -0.012256 461139.000000 0 0 1
19.784238 -7.002119 -16.530699 26.715347 -0.340166 2.237974 0.081961 -0.005466 1104330.000000 0 0 1
19.281638 -8.145119 -15.866099 26.265141 -0.399691 2.219400 0.089878 -0.004810 -493087.000000 0 0 1
20.353138 -9.065619 -15.310299 27.034070 -0.419036 2.172847 0.122715 0.001158 -623998.000000 0 0 1
21.094238 -9.726919 -16.301699 28.378253 -0.432061 2.182720 0.102181 -0.000228 83178.000000 0 0 1
21.958038 -10.572919 -15.589299 28.930404 -0.448743 2.139874 0.087112 -0.008556 -478421.000000 0 0 1
22.595838 -11.663719 -16.484599 30.304393 -0.476515 2.145954 0.072888 -0.006182 31869.100000 0 0 1
23.628438 -11.314319 -17.388299 31.443121 -0.446579 2.156767 0.062521 0.003007 149289.000000 0 0 1
23.901438 -12.306919 -18.387199 32.570356 -0.475499 2.170670 0.054451 0.003136 -198311.000000 0 0 1
22.916338 -12.502919 -19.579099 32.631620 -0.499451 2.214302 0.070621 -0.002945 432756.000000 0 0 1
21.630638 -12.992019 -19.241399 31.731821 -0.540883 2.222291 0.090158 -0.002370 144812.000000 0 0 1
21.453438 -14.391019 -19.508399 32.371732 -0.590860 2.217598 0.068531 0.005472 576862.000000 0 0 1
19.927338 -14.743719 -19.535599 31.561300 -0.636989 2.238231 0.078492 -0.009977 773542.000000 0 0 1
19.227438 -14.179319 -20.621599 31.559433 -0.635422 2.282891 0.084490 -0.008285 -332394.000000 0 0 1
17.832338 -14.308919 -20.502999 30.710103 -0.676211 2.301818 0.091849 -0.016526 67053.900000 0 0 1
17.102138 -13.598919 -21.676699 30.778125 -0.671782 2.352218 0.083871 -0.016579 -248257.000000 0 0 1
17.217538 -14.205919 -22.954299 32.017989 -0.689850 2.370169 0.069770 -0.012673 85182.400000 0 0 1
16.501838 -13.449219 -23.880899 31.992022 -0.683829 2.413529 0.077565 -0.018359 -233609.000000 0 0 1
16.147938 -14.146019 -25.210859 33.112734 -0.719411 2.436211 0.077385 -0.024043 -278773.000000 0 0 1
15.116038 -15.118619 -25.256559 33.090195 -0.785484 2.439147 0.076158 -0.025258 82243.400000 0 0 1
15.121938 -15.776919 -26.526989 34.369541 -0.806593 2.452490 0.088327 -0.031329 -35025.700000 0 0 1
16.186838 -16.879319 -26.771839 35.547947 -0.806337 2.423587 0.091883 -0.027543 266245.000000 0 0 1
17.546038 -16.472619 -26.703619 35.948489 -0.753855 2.408084 0.102151 -0.020392 127982.000000 0 0 1
18.337738 -17.640419 -26.746879 36.916833 -0.766019 2.381130 0.090840 -0.021574 -810697.000000 0 0 1
19.824238 -17.480119 -26.953039 37.749454 -0.722643 2.365988 0.064891 -0.009306 -659817.000000 0 0 1
20.481638 -17.008219 -25.822029 37.088464 -0.693012 2.340926 0.064658 -0.007947 -786200.000000 0 0 1
21.854038 -16.806019 -25.977589 37.879762 -0.655558 2.326486 0.059125 -0.002564 -199165.000000 0 0 1
22.626438 -16.300519 -24.726599 37.270193 -0.624299 2.296206 0.069615 0.003355 98606.400000 0 0 1
22.530238 -14.935719 -24.349599 36.381181 -0.585403 2.304051 0.085623 -0.000235 -425520.000000 0 0 1
21.239438 -14.460519 -24.057199 35.198994 -0.597746 2.323292 0.096637 -0.005891 -67686.400000 0 0 1
21.191038 -13.160319 -23.229399 34.086054 -0.555741 2.320597 0.100171 -0.003536 224985.000000 0 0 1
21.702538 -12.055719 -23.995499 34.527156 -0.507055 2.339181 0.117675 -0.012801 372631.000000 0 0 1
21.293838 -10.873219 -23.354399 33.422782 -0.472113 2.344455 0.129526 -0.009686 101991.000000 0 0 1
21.304738 -9.673319 -24.305599 33.737622 -0.426213 2.375219 0.137677 -0.016469 -176175.000000 0 0 1
20.677238 -8.576819 -23.778199 32.657507 -0.393195 2.386354 0.131885 -0.017594 -277529.000000 0 0 1
20.640238 -7.525119 -24.700599 33.057018 -0.349608 2.414653 0.105759 -0.020596 -324194.000000 0 0 1
19.961938 -6.343919 -24.043799 31.887749 -0.307707 2.424948 0.096573 -0.021501 -969590.000000 0 0 1
18.724238 -6.761819 -23.600199 30.875373 -0.346552 2.440860 0.087921 -0.019166 -1237680.000000 0 0 1
18.033538 -5.937819 -22.721599 29.609749 -0.318085 2.445524 0.073275 -0.020911 -283131.000000 0 0 1
18.525738 -5.968919 -21.196399 28.777045 -0.311694 2.398786 0.089987 -0.015532 -366700.000000 0 0 1
18.243838 -7.067219 -20.356099 28.233915 -0.369576 2.376012 0.093265 -0.010472 374176.000000 0 0 1
18.693238 -8.359019 -20.866899 29.235900 -0.420496 2.365623 0.097843 -0.013432 -71152.800000 0 0 1
18.465038 -9.570819 -19.896199 28.782233 -0.478197 2.334037 0.089911 -0.011467 -20775.900000 0 0 1
17.149938 -10.083419 -19.847599 28.102009 -0.531517 2.355011 0.091353 -0.002990 -215744.000000 0 0 1
16.950638 -10.963019 -18.793199 27.580722 -0.574095 2.320455 0.105573 -0.006023 299717.000000 0 0 1
15.464038 -11.208919 -18.353699 26.488386 -0.627202 2.336294 0.116650 -0.018358 735942.000000 0 0 1
14.735738 -10.129619 -17.770599 25.210025 -0.602232 2.353081 0.116993 -0.010714 370948.000000 0 0 1
14.543738 -8.913519 -18.483299 25.151610 -0.549834 2.396279 0.107252 -0.012181 -773221.000000 0 0 1
13.826338 -7.795419 -17.699299 23.773964 -0.513384 2.410556 0.129287 -0.001586 259494.000000 0 1 0
12.449338 -7.870219 -18.060399 23.304600 -0.563746 2.457466 0.104667 -0.020134 407888.000000 0 1 0
11.735038 -6.745119 -17.500999 22.124482 -0.521672 2.483278 0.097511 -0.019089 -637426.000000 0 1 0
10.240238 -6.828219 -17.691199 21.551463 -0.588097 2.533749 0.094508 -0.021061 -823721.000000 0 1 0
9.803438 -6.545719 -18.990399 22.351490 -0.588715 2.586071 0.087117 -0.030330 -785835.000000 0 1 0
8.418338 -6.482219 -19.058199 21.819774 -0.656186 2.633013 0.079620 -0.042228 -450985.000000 0 1 0
7.843138 -6.073019 -20.477499 22.753557 -0.658879 2.690495 0.089685 -0.052135 181445.000000 0 1 0
7.889438 -7.086019 -21.452299 23.930233 -0.731801 2.682493 0.092927 -0.043559 91104.400000 0 1 0
7.140338 -6.641019 -22.561999 24.579084 -0.749183 2.733640 0.101846 -0.043824 58967.600000 0 1 0
7.206838 -7.664819 -23.760499 25.985559 -0.816184 2.724753 0.099225 -0.028613 -84947.700000 0 0 1
6.458238 -8.823819 -23.450299 25.874411 -0.938974 2.705271 0.098803 -0.030978 170719.000000 0 0 1
6.400038 -9.748019 -24.558999 27.186923 -0.989832 2.698287 0.086003 -0.018437 -192302.000000 0 0 1
5.364938 -10.875619 -24.387199 27.235953 -1.112523 2.680136 0.067415 -0.015749 135410.000000 0 0 1
5.809438 -11.834819 -23.463099 26.913371 -1.114474 2.629663 0.067009 -0.021985 270115.000000 0 0 1
4.877438 -12.899319 -23.454199 27.208111 -1.209297 2.610057 0.063389 -0.025381 -1806.950000 0 0 1
5.533838 -14.099919 -22.710199 27.298063 -1.196796 2.553381 0.080776 -0.024715 541844.000000 0 0 1
6.678238 -14.730919 -23.249099 28.321713 -1.145161 2.533769 0.090478 -0.020612 1359240.000000 0 0 1
7.960138 -14.033619 -23.315799 28.353708 -1.054829 2.536271 0.086140 -0.024113 1733140.000000 0 0 1
8.769338 -13.602319 -22.026499 27.332966 -0.998160 2.507920 0.091228 -0.019495 -175418.000000 0 0 1
9.278938 -14.676119 -21.259099 27.448797 -1.007002 2.456721 0.084607 -0.014000 -261347.000000 0 0 1
8.403238 -15.519119 -20.569999 27.103179 -1.074521 2.432498 0.080685 -0.011528 -441021.000000 0 0 1
8.960838 -15.869119 -19.193799 26.467480 -1.056759 2.382098 0.089167 -0.014446 145879.000000 0 0 1
9.930238 -16.888619 -19.060899 27.334099 -1.039259 2.342463 0.108273 -0.016031 -255180.000000 0 0 1
10.365038 -17.067519 -17.721899 26.698313 -1.025029 2.296662 0.104986 -0.015752 -502448.000000 0 0 1
9.463438 -17.790919 -16.698799 26.171040 -1.081936 2.262778 0.077116 -0.016309 -515021.000000 0 0 1
9.179038 -19.145219 -17.007299 27.203720 -1.123729 2.246162 0.080114 -0.019022 413948.000000 0 0 1
8.409038 -19.468919 -18.200699 27.946667 -1.163078 2.280047 0.093008 -0.014739 1053960.000000 0 0 1
6.853738 -19.222619 -18.086199 27.268909 -1.228302 2.295954 0.091593 -0.012813 726922.000000 0 0 1
6.479738 -17.852119 -17.935699 26.122298 -1.222616 2.327605 0.093525 -0.013512 790282.000000 0 0 1
5.035438 -17.819919 -17.971099 25.804371 -1.295403 2.341216 0.079692 -0.007837 1154370.000000 0 0 1
4.489138 -16.462919 -17.519799 24.456562 -1.304587 2.369373 0.038446 0.004744 -1594.980000 0 1 0
4.789738 -16.349719 -16.132999 23.463345 -1.285815 2.328952 0.015765 0.013155 187988.000000 0 1 0
4.585538 -14.982519 -15.829299 22.272623 -1.273790 2.361298 0.007408 0.018541 141908.000000 0 1 0
10.407838 29.684781 -18.293899 36.389230 1.233576 2.097548 0.047808 -0.008105 193836.000000 0 0 1
9.488338 29.161081 -19.297999 36.232720 1.256224 2.132481 0.079440 -0.022281 140848.000000 0 0 1
8.555638 28.339881 -18.637799 34.981643 1.277603 2.132688 0.068656 -0.019490 -404073.000000 0 0 1
7.405938 28.041081 -19.597499 35.003030 1.312582 2.165037 0.082776 -0.013519 -538468.000000 0 0 1
6.624238 29.127281 -19.967199 35.930044 1.347176 2.160030 0.086720 -0.019427 -44813.600000 0 0 1
5.883138 28.979581 -21.181999 36.374504 1.370508 2.192389 0.086950 -0.018626 710618.000000 0 0 1
4.711738 29.992681 -21.447399 37.171929 1.414974 2.185821 0.070231 -0.025095 1041360.000000 0 0 1
3.540738 29.789981 -20.652899 36.421451 1.452495 2.173720 0.075924 -0.025775 444072.000000 0 0 1
2.529338 30.742881 -20.929299 37.276774 1.488707 2.166942 0.085115 -0.044084 403138.000000 0 0 1
1.148938 30.440681 -20.233999 36.570068 1.533071 2.157110 0.091098 -0.046685 747333.000000 0 0 1
0.465738 29.224981 -20.646899 35.785624 1.554861 2.185799 0.100793 -0.054894 455397.000000 0 0 1
-0.034662 29.156981 -22.007299 36.530152 -1.569608 2.217354 0.127347 -0.067944 -516323.000000 0 0 1
-0.671962 27.821281 -22.392699 35.719857 -1.546648 2.248361 0.123738 -0.060718 -74321.100000 0 0 1
-1.938162 27.713981 -21.788799 35.306841 -1.500976 2.235882 0.138306 -0.065678 -264024.000000 0 0 1
-2.313962 26.382881 -21.565299 34.153667 -1.483313 2.254179 0.149353 -0.067489 522799.000000 0 0 1
-3.504462 26.220581 -20.558499 33.503015 -1.437931 2.231448 0.142393 -0.073881 302279.000000 0 0 1
-4.797262 26.386381 -21.046399 34.091139 -1.390952 2.236175 0.130042 -0.072038 -6761.620000 0 0 1
-5.873362 25.936781 -20.241299 33.420401 -1.348103 2.221388 0.108350 -0.071843 699941.000000 0 0 1
-7.122162 26.875981 -20.299599 34.425533 -1.311750 2.201443 0.099644 -0.075762 455065.000000 0 0 1
-8.245662 26.252281 -19.698999 33.841155 -1.266461 2.192108 0.089059 -0.060112 -491204.000000 0 0 1
-9.070362 27.176981 -19.077499 34.421080 -1.248669 2.158245 0.095793 -0.068331 292235.000000 0 0 1
-10.167862 26.440381 -18.157399 33.647739 -1.203672 2.140796 0.112057 -0.056436 685849.000000 0 0 1
-9.751062 25.636881 -17.058699 32.300652 -1.207341 2.127184 0.118468 -0.064684 15271.500000 0 0 1
-10.904262 25.087981 -16.437499 31.913964 -1.160788 2.111870 0.086751 -0.050180 124423.000000 0 0 1
-10.540262 24.353581 -15.112899 30.538398 -1.162336 2.088495 0.069445 -0.035849 171494.000000 0 0 1
-9.899862 23.083481 -15.363699 29.443126 -1.165651 2.119767 0.070235 -0.042500 -14015.000000 0 0 1
-9.520162 22.528781 -14.116599 28.239296 -1.170979 2.094270 0.069597 -0.037736 -210404.000000 0 0 1
-8.870862 21.170481 -14.229599 27.006721 -1.174001 2.125735 0.064794 -0.022617 95660.800000 0 0 1
-9.789762 20.094881 -14.594599 26.695431 -1.117460 2.149224 0.072958 -0.013722 423938.000000 0 0 1
-10.250762 20.003781 -15.955199 27.564430 -1.097245 2.188093 0.082571 -0.008120 282643.000000 0 0 1
-9.211762 19.877081 -17.121299 27.804565 -1.136825 2.234163 0.090441 -0.021062 565732.000000 0 0 1
-8.396662 18.696781 -17.152399 26.725987 -1.148694 2.267623 0.086863 -0.017335 516107.000000 0 0 1
-7.369462 18.746981 -18.143999 27.110201 -1.196251 2.304020 0.090519 -0.024194 481060.000000 0 0 1
-6.767762 17.330181 -18.291299 26.090409 -1.198490 2.347698 0.069014 -0.023974 518704.000000 0 0 1
-7.709262 16.418181 -18.924699 26.213234 -1.131799 2.377416 0.073513 -0.026714 210565.000000 0 0 1
-7.231462 15.682181 -19.996199 26.421068 -1.138729 2.429242 0.063206 -0.028454 511703.000000 0 0 1
-6.055762 14.654481 -19.825499 25.386542 -1.178932 2.466974 0.052130 -0.018643 173853.000000 0 0 1
-6.448862 13.576081 -18.924199 24.166571 -1.127335 2.470389 0.045883 -0.013694 -21812.400000 0 1 0
-5.441562 12.724681 -18.387299 23.013494 -1.166693 2.496392 0.047929 -0.010016 360466.000000 0 1 0
-4.738662 13.454781 -17.182399 22.332060 -1.232170 2.448706 0.042827 0.003437 274984.000000 0 1 0
-4.035862 14.657681 -17.487299 23.171997 -1.302113 2.425953 0.046919 -0.008586 -502532.000000 0 1 0
-3.484862 15.205281 -16.314999 22.572639 -1.345500 2.378610 0.037796 -0.000101 444986.000000 0 1 0
-2.630062 16.489281 -16.612599 23.554025 -1.412627 2.353639 0.061942 -0.004251 459271.000000 0 1 0
-3.421762 17.609681 -16.977299 24.698948 -1.378876 2.328657 0.061635 -0.012738 -421117.000000 0 1 0
-2.646962 18.691581 -17.355399 25.643547 -1.430119 2.314195 0.071460 -0.016794 -270765.000000 0 0 1
-3.449262 19.991381 -17.569999 26.837616 -1.399941 2.284553 0.090395 -0.021954 122184.000000 0 0 1
-3.913762 20.044081 -18.888799 27.818510 -1.377965 2.317198 0.089756 -0.025629 -471735.000000 0 0 1
-4.370762 21.254881 -19.402399 29.108876 -1.367988 2.300362 0.128320 -0.034758 -87483.200000 0 0 1
-3.303462 22.367781 -19.714799 29.998397 -1.424168 2.287888 0.118741 -0.043253 -414799.000000 0 0 1
-2.444162 21.957981 -20.748799 30.309067 -1.459942 2.324815 0.137596 -0.040916 -263578.000000 0 0 1
-1.281762 22.764781 -20.834399 30.886087 -1.514551 2.311160 0.129078 -0.048313 523208.000000 0 0 1
-0.094662 22.288481 -19.952499 29.914672 -1.566549 2.300945 0.132871 -0.048936 -251384.000000 0 0 1
-0.391062 22.398881 -18.599699 29.117205 -1.553339 2.263717 0.125518 -0.040344 -112757.000000 0 0 1
0.784538 22.181881 -17.824399 28.466833 1.535443 2.247397 0.116114 -0.035532 443508.000000 0 0 1
0.595238 22.314581 -16.313099 27.648003 1.544128 2.201890 0.120203 -0.026754 59795.500000 0 0 1
-0.170562 21.307281 -15.653299 26.439650 -1.562792 2.204383 0.099097 -0.015310 -36141.800000 0 0 1
-0.000862 21.366081 -14.245299 25.679525 -1.570756 2.158839 0.099767 -0.015768 156026.000000 0 0 1
-0.716762 20.299981 -13.358699 24.311681 -1.535502 2.152534 0.081710 -0.011933 199094.000000 0 1 0
-0.359262 18.945981 -13.594199 23.321268 -1.551836 2.193102 0.058358 -0.007152 -296123.000000 0 1 0
-1.386362 18.104481 -13.147599 22.417708 -1.494370 2.197506 0.037455 0.003399 -69954.600000 0 1 0
-1.161662 16.598181 -13.222899 21.253097 -1.500923 2.242299 0.028606 0.011832 -87469.800000 0 1 0
-0.253362 16.135081 -12.202599 20.231373 -1.555095 2.218244 0.026946 0.001360 371086.000000 0 1 0
-0.135862 14.756381 -12.058899 19.057447 -1.561590 2.255916 0.019928 -0.001108 113610.000000 0 1 0
0.495538 13.975081 -13.270199 19.278139 1.535353 2.330015 0.020351 -0.004639 -548755.000000 0 1 0
-0.275062 13.842781 -14.408399 19.982498 -1.550928 2.376114 0.024983 -0.008428 -351367.000000 0 1 0
0.307638 12.891281 -15.269299 19.985777 1.546937 2.440299 0.020138 -0.011586 44235.600000 0 1 0
-0.423662 12.762581 -16.680499 21.007190 -1.537613 2.488219 0.022036 -0.005643 347466.000000 0 1 0
-0.227762 13.917981 -17.460999 22.330441 -1.554433 2.468564 0.025797 -0.008948 -50148.000000 0 1 0
-0.547362 13.657381 -18.812999 23.254088 -1.530740 2.513278 0.040715 -0.013336 77525.700000 0 1 0
-1.110162 14.921181 -19.531299 24.603775 -1.496531 2.487883 0.053569 -0.009746 -18724.500000 0 1 0
-0.164262 15.943481 -19.613299 25.276532 -1.560494 2.459014 0.047494 -0.020143 -217739.000000 0 0 1
-0.761362 17.157381 -20.067799 26.413481 -1.526450 2.433734 0.093462 -0.030168 -16026.800000 0 0 1
0.265738 18.293581 -20.201399 27.254766 1.556271 2.405662 0.116509 -0.037825 281830.000000 0 0 1
1.170038 18.043781 -21.276599 27.922047 1.506043 2.437192 0.125599 -0.045538 -75168.300000 0 0 1
1.845338 19.196481 -21.684899 29.019735 1.474962 2.414705 0.132013 -0.043447 -52054.000000 0 0 1
2.416738 19.039681 -23.097099 30.030419 1.444540 2.448265 0.144326 -0.053164 76120.800000 0 0 1
3.635238 18.330281 -23.174799 29.770547 1.375018 2.462985 0.117568 -0.047224 -145978.000000 0 0 1
4.079238 18.203181 -24.503499 30.796387 1.350344 2.490895 0.119350 -0.063418 609102.000000 0 0 1
5.129438 17.037181 -24.672299 30.418728 1.278355 2.516808 0.076364 -0.050865 -399457.000000 0 0 1
6.381838 17.308781 -24.118299 30.364686 1.217556 2.488631 0.073117 -0.040212 -32361.800000 0 0 1
7.379038 16.309481 -24.327499 30.203917 1.145916 2.507217 0.071091 -0.037928 411197.000000 0 0 1
7.858638 16.034981 -25.793419 31.371632 1.115105 2.536043 0.068798 -0.046462 -645728.000000 0 0 1
8.646738 17.132481 -26.402949 32.640523 1.103397 2.513077 0.060973 -0.038080 882544.000000 0 0 1
8.961538 16.996081 -27.805579 33.798316 1.085571 2.536925 0.077865 -0.041240 20345.400000 0 0 1
9.516338 15.690881 -28.360819 33.780179 1.025620 2.567287 0.090102 -0.046108 -130320.000000 0 0 1
10.654038 15.272781 -27.613619 33.305830 0.961694 2.548279 0.082462 -0.041871 174579.000000 0 0 1
11.003838 13.941581 -27.835579 33.019261 0.902625 2.573652 0.085362 -0.031730 292809.000000 0 0 1
10.132938 12.982281 -26.930439 31.566828 0.908046 2.592742 0.081979 -0.029850 -560315.000000 0 0 1
8.770438 13.056681 -27.135609 31.364611 0.979303 2.616279 0.092133 -0.031855 -1473540.000000 0 0 1
8.143138 12.038981 -26.391799 30.129302 0.976087 2.638201 0.105554 -0.030058 -563630.000000 0 0 1
6.636438 12.218681 -26.489709 29.917272 1.073236 2.658219 0.075774 -0.034072 -841382.000000 0 0 1
6.100538 13.172581 -25.571919 29.405042 1.137082 2.625277 0.091604 -0.028251 524614.000000 0 0 1
4.673038 13.234481 -25.545039 29.146832 1.231366 2.639185 0.091883 -0.039457 610695.000000 0 0 1
3.985138 14.108681 -26.585879 30.360257 1.295508 2.637639 0.114477 -0.031382 -638039.000000 0 0 1
3.888138 13.540981 -27.830669 31.193300 1.291180 2.672990 0.119573 -0.041261 189862.000000 0 0 1
3.489038 14.403381 -28.860949 32.443569 1.333137 2.667208 0.113617 -0.057839 -189040.000000 0 0 1
3.485438 13.785881 -30.278119 33.450909 1.323159 2.702531 0.166876 -0.054591 -390929.000000 0 0 1
4.794038 13.476781 -30.660129 33.832676 1.229030 2.705072 0.143055 -0.045909 -114689.000000 0 0 1
4.881338 13.038481 -32.002869 34.900044 1.212570 2.731256 0.147188 -0.050375 -325200.000000 0 0 1
6.071338 12.106381 -32.274619 35.001095 1.105950 2.744277 0.155152 -0.036652 922817.000000 0 0 1
7.451938 12.504881 -32.138939 35.281934 1.033381 2.716299 0.168104 -0.034103 1489500.000000 0 0 1
7.957838 12.707881 -30.785349 34.242593 1.011325 2.688361 0.141125 -0.032651 -129366.000000 0 0 1
8.125138 11.398181 -29.985409 33.091709 0.951501 2.704841 0.127554 -0.028324 277157.000000 0 0 1
9.180738 10.451681 -30.273319 33.316624 0.850045 2.710848 0.096107 -0.023349 529025.000000 0 0 1
8.986038 9.271281 -29.554049 32.251316 0.801020 2.729706 0.089121 -0.021325 173728.000000 0 0 1
10.044538 8.149481 -29.786239 32.473479 0.681614 2.731912 0.074312 -0.016440 -66003.300000 0 0 1
11.227438 8.323881 -29.067259 32.252875 0.637966 2.693396 0.076097 -0.013427 -200051.000000 0 0 1
11.985938 7.119881 -29.062429 32.233216 0.536011 2.694320 0.052261 -0.001570 -465029.000000 0 0 1
13.248338 7.104281 -28.193179 31.950659 0.492217 2.651730 0.038127 0.009413 232383.000000 0 0 1
13.975038 5.868081 -28.134169 31.957277 0.397541 2.647434 0.047558 -0.007494 -43066.700000 0 0 1
14.952638 5.741781 -29.117229 33.231950 0.366636 2.638679 0.039507 -0.002961 -850584.000000 0 0 1
15.822838 4.487881 -28.966949 33.310470 0.276375 2.625198 0.055264 -0.018560 -359349.000000 0 0 1
16.521938 4.479281 -27.779149 32.630040 0.264747 2.589324 0.023469 -0.011702 -586071.000000 0 0 1
17.495338 3.484581 -27.855419 33.077992 0.196599 2.571986 0.038369 -0.025090 -77768.900000 0 0 1
18.371338 3.454681 -26.537699 32.460597 0.185877 2.527915 0.024875 -0.010328 256973.000000 0 0 1
19.179338 4.602381 -26.345289 32.910533 0.235512 2.498946 0.052357 -0.009387 160319.000000 0 0 1
19.712838 4.702581 -25.002799 32.184627 0.234178 2.460453 0.060658 -0.010195 966747.000000 0 0 1
20.896038 5.755881 -24.952299 33.051351 0.268788 2.426383 0.060026 -0.005142 731593.000000 0 0 1
20.361738 7.032681 -25.268349 33.204645 0.332559 2.435632 0.066529 -0.001284 149235.000000 0 0 1
21.360938 7.817781 -25.840779 34.426055 0.350844 2.419792 0.073365 -0.015110 -689542.000000 0 0 1
21.346238 7.890081 -27.396229 35.615567 0.354049 2.448417 0.117557 -0.021672 239527.000000 0 0 1
20.167438 8.460481 -27.960459 35.497783 0.397213 2.477811 0.084284 -0.005775 502573.000000 0 0 1
19.117538 7.527281 -28.104849 34.814117 0.375096 2.510330 0.077183 -0.003454 -643221.000000 0 0 1
17.793838 8.117781 -28.589989 34.639667 0.428009 2.541625 0.059783 0.006096 -452211.000000 0 0 1
17.621638 8.210781 -30.003269 35.751017 0.436038 2.566659 0.049130 0.005370 513840.000000 0 0 1
16.640038 9.190781 -30.370869 35.829471 0.504630 2.582337 0.026826 0.008169 111140.000000 0 0 1
16.304738 9.059981 -31.889269 36.943920 0.507183 2.612332 0.009439 0.009786 199429.000000 0 0 1
15.618638 7.807781 -32.132879 36.570825 0.463569 2.643819 0.022496 0.007583 840820.000000 0 0 1
14.308438 7.985681 -32.659509 36.539650 0.509048 2.676567 0.018900 0.005221 -14183.500000 0 0 1
13.585138 6.791081 -33.110519 36.427754 0.463560 2.711523 0.025744 -0.000931 -400169.000000 0 0 1
13.206838 5.843281 -32.126259 35.223019 0.416552 2.719128 0.032954 -0.003247 -234872.000000 0 0 1
12.342638 4.873981 -32.577089 35.176173 0.376093 2.754770 0.027021 -0.004698 -396780.000000 0 0 1
12.074138 3.763081 -31.509459 33.952785 0.302124 2.759906 0.039401 -0.008749 -709991.000000 0 0 1
13.121838 2.935881 -31.130589 33.910406 0.220115 2.733866 0.059388 -0.023796 -460419.000000 0 0 1
12.822938 1.918181 -30.176659 32.844146 0.148489 2.735784 0.069597 -0.027175 -402814.000000 0 0 1
12.150038 0.687781 -30.822009 33.137482 0.056547 2.765550 0.072502 -0.029792 -72574.600000 0 0 1
12.925338 -0.300519 -31.463399 34.016175 -0.023246 2.751711 0.077660 -0.033955 170054.000000 0 0 1
13.797738 -1.064719 -30.625819 33.607321 -0.077014 2.717188 0.084139 -0.037061 292042.000000 0 0 1
14.307038 -2.421219 -31.152539 34.366180 -0.167644 2.705688 0.086102 -0.040568 33614.000000 0 0 1
13.398238 -3.504719 -31.276109 34.205129 -0.255848 2.724743 0.096786 -0.044555 288097.000000 0 0 1
13.925238 -4.491619 -32.192859 35.361944 -0.312017 2.715001 0.112020 -0.047352 24487.900000 0 0 1
13.216538 -5.810319 -31.985209 35.092596 -0.414193 2.717596 0.109919 -0.042589 -189009.000000 0 0 1
13.617838 -6.561719 -30.870919 34.373177 -0.449020 2.686251 0.102862 -0.037854 -233105.000000 0 0 1
13.023238 -7.800419 -30.858479 34.390362 -0.539656 2.684411 0.113513 -0.037643 -191190.000000 0 0 1
13.077938 -8.564319 -29.488529 33.375940 -0.579790 2.654135 0.082274 -0.027126 -384503.000000 0 0 1
14.394238 -8.767519 -29.048189 33.583638 -0.547083 2.615848 0.078638 -0.026013 -222533.000000 0 0 1
14.474738 -9.469919 -27.829459 32.766999 -0.579348 2.585480 0.074681 -0.024633 -217760.000000 0 0 1
14.352938 -11.031919 -27.909499 33.266353 -0.655310 2.566186 0.069473 -0.021132 -297647.000000 0 0 1
13.079438 -11.440819 -28.327869 33.232999 -0.718670 2.591358 0.061115 -0.023994 -384564.000000 0 0 1
13.048538 -12.876919 -28.493069 33.881180 -0.778779 2.569870 0.058113 -0.029989 193314.000000 0 0 1
-10.107662 -3.223219 -17.714799 20.648683 0.308694 2.601993 0.025743 0.001621 -75063.700000 0 1 0
-10.834162 -2.792619 -18.801199 21.878366 0.252269 2.604796 0.036749 -0.004147 -497645.000000 0 1 0
-11.692262 -3.790919 -19.304499 22.885449 0.313530 2.574613 0.034706 -0.002950 -405477.000000 0 1 0
-12.525062 -3.135819 -20.421699 24.161050 0.245321 2.577796 0.048101 -0.016108 -44046.100000 0 1 0
-13.539762 -2.284419 -19.908299 24.184378 0.167145 2.537800 0.051802 -0.017756 361447.000000 0 1 0
-14.522162 -1.919119 -20.871099 25.498608 0.131390 2.529625 0.054398 -0.016160 460043.000000 0 0 1
-15.361362 -0.684119 -20.463899 25.597083 0.044506 2.497196 0.066087 -0.014958 103153.000000 0 0 1
-14.809162 0.606081 -20.725999 25.480300 -0.040903 2.520792 0.071834 -0.022847 -13827.100000 0 0 1
-15.652962 1.607381 -20.191599 25.598820 -0.102330 2.479603 0.077594 -0.019792 133530.000000 0 0 1
-15.364962 3.034781 -20.804499 26.040721 -0.195003 2.496297 0.094151 -0.026061 166103.000000 0 0 1
-14.092962 3.531481 -20.438399 25.076107 -0.245529 2.523620 0.100712 -0.026101 58969.100000 0 0 1
-13.767362 4.647981 -21.214999 25.714202 -0.325593 2.541052 0.106569 -0.028699 -650732.000000 0 0 1
-12.451762 5.275281 -20.796399 24.806556 -0.400733 2.565033 0.088400 -0.019750 -713364.000000 0 1 0
-12.439362 5.857781 -19.496599 23.857257 -0.440103 2.527365 0.093975 -0.027957 1105700.000000 0 1 0
-11.120062 6.328181 -19.134399 23.017969 -0.517372 2.552205 0.074792 -0.016142 839259.000000 0 1 0
-11.050862 6.881181 -17.689699 21.963553 -0.556931 2.507166 0.067224 -0.022231 6467.510000 0 1 0
-11.601062 8.196181 -17.539899 22.570115 -0.615077 2.460888 0.069712 -0.030808 381925.000000 0 1 0
-12.846262 8.135181 -16.845099 22.692840 -0.564526 2.407306 0.101597 -0.031132 385238.000000 0 1 0
-13.690262 9.457581 -16.938499 23.744092 -0.604542 2.365102 0.109114 -0.028133 251459.000000 0 1 0
-13.134562 10.449181 -16.093599 23.253087 -0.672021 2.335199 0.089805 -0.024709 740780.000000 0 1 0
-13.906262 11.645681 -16.308799 24.392273 -0.697158 2.303128 0.097987 -0.024299 462420.000000 0 1 0
-13.179362 12.897681 -15.678199 24.204374 -0.774597 2.275414 0.095323 -0.016486 -111488.000000 0 1 0
-13.115762 13.037081 -14.313999 23.385450 -0.782390 2.229497 0.097401 -0.014131 40835.900000 0 1 0
-12.665362 14.288381 -13.908199 23.622177 -0.845541 2.200342 0.087194 -0.014199 -590223.000000 0 1 0
-13.116662 14.665481 -12.416099 23.265483 -0.841089 2.133731 0.063605 -0.011283 605861.000000 0 1 0
-14.456562 15.048381 -12.180799 24.162323 -0.805454 2.099163 0.066519 -0.016045 204078.000000 0 1 0
-15.468562 14.084281 -12.396299 24.316900 -0.738591 2.105727 0.068090 -0.014760 -958923.000000 0 1 0
-16.777762 14.435681 -11.724299 25.046784 -0.710504 2.057931 0.059165 -0.009551 -855708.000000 0 0 1
-17.859762 13.686681 -12.176299 25.584343 -0.653878 2.066815 0.056878 -0.005439 -1018230.000000 0 0 1
-19.001862 13.932681 -11.435499 26.190858 -0.632680 2.022637 0.114415 -0.015529 -24785.400000 0 0 1
-20.304362 13.581681 -12.254999 27.329731 -0.589550 2.035785 0.103171 -0.024522 362798.000000 0 0 1
-20.537062 12.200481 -12.162799 26.805902 -0.536049 2.041749 0.111048 -0.025128 862994.000000 0 0 1
-21.752462 11.759081 -12.797599 27.842848 -0.495587 2.048383 0.139366 -0.027510 384589.000000 0 0 1
-22.399162 10.549381 -12.130299 27.570928 -0.440157 2.026358 0.131393 -0.026357 -434785.000000 0 0 1
-21.749562 9.312781 -12.246599 26.641144 -0.404563 2.048440 0.123810 -0.026392 -30087.900000 0 0 1
-22.329662 8.276881 -11.517299 26.453143 -0.354967 2.021262 0.126397 -0.019429 85476.000000 0 0 1
-21.350062 7.056181 -11.427599 25.223102 -0.319198 2.040992 0.135936 -0.018743 272563.000000 0 0 1
-21.198862 6.287181 -12.621699 25.460316 -0.288317 2.089483 0.139472 -0.018902 435486.000000 0 0 1
-20.062462 5.445981 -12.580899 24.298974 -0.265064 2.115020 0.137593 -0.022476 41501.100000 0 1 0
-20.176162 4.307281 -13.572299 24.694888 -0.210326 2.152681 0.149542 -0.036651 -199241.000000 0 1 0
-21.087162 3.311481 -13.178399 25.085943 -0.155766 2.123899 0.150754 -0.038162 206964.000000 0 0 1
-20.960262 2.182281 -14.051299 25.328521 -0.103741 2.158873 0.141886 -0.045447 -561415.000000 0 0 1
-21.877962 1.042681 -13.768199 25.870751 -0.047623 2.131984 0.160168 -0.042214 -1071510.000000 0 0 1
-23.135862 1.036181 -14.351199 27.245160 -0.044757 2.125561 0.131893 -0.035482 -398183.000000 0 0 1
-23.700462 -0.239819 -14.347699 27.706063 0.010118 2.115137 0.135664 -0.040353 -208349.000000 0 0 1
-25.056862 -0.376419 -15.066699 29.240271 0.015021 2.112122 0.140792 -0.039784 1055330.000000 0 0 1
-26.190102 0.093981 -14.282799 29.831672 -0.003588 2.070061 0.173991 -0.048452 802008.000000 0 0 1
-27.427532 -0.027819 -14.928299 31.226982 0.001014 2.069238 0.144112 -0.033920 68186.800000 0 0 1
-28.640962 0.428181 -14.077699 31.916605 -0.014949 2.027595 0.149116 -0.032841 76478.300000 0 0 1
-28.943992 -0.379319 -12.960799 31.715625 0.013105 1.991778 0.158312 -0.031557 -462045.000000 0 0 1
-30.201762 -0.073419 -12.463299 32.672399 0.002431 1.962174 0.180219 -0.038463 -407133.000000 0 0 1
-30.586682 -0.774619 -11.096099 32.546407 0.025320 1.918704 0.170362 -0.042102 -145614.000000 0 0 1
-30.879192 -2.126419 -11.105699 32.884384 0.068754 1.915289 0.178052 -0.031888 414734.000000 0 0 1
-29.811442 -2.960419 -11.518899 32.096280 0.098980 1.937870 0.181254 -0.037935 -80402.600000 0 0 1
-30.008912 -4.377919 -11.065299 32.282222 0.144865 1.920658 0.183662 -0.036579 -718486.000000 0 0 1
-31.027032 -5.082819 -11.674899 33.538263 0.162377 1.926347 0.185855 -0.037418 -442593.000000 0 0 1
-31.161582 -6.404219 -11.210499 33.730306 0.202694 1.909598 0.184691 -0.033161 -449583.000000 0 0 1
-30.271762 -7.503219 -11.752899 33.328794 0.242965 1.931182 0.188369 -0.037067 -277526.000000 0 0 1
-28.902922 -7.359619 -11.424399 31.938375 0.249334 1.936602 0.149973 -0.028842 6486.360000 0 0 1
-28.223652 -8.469319 -12.007499 31.819553 0.291529 1.957743 0.159005 -0.029740 -488093.000000 0 0 1
-26.752412 -8.562119 -11.610399 30.394125 0.309749 1.962750 0.163086 -0.037590 -972759.000000 0 0 1
-25.968602 -7.473719 -12.010799 29.571677 0.280225 1.989043 0.140210 -0.030501 386048.000000 0 0 1
-24.614862 -7.435519 -11.612299 28.213895 0.293359 1.994984 0.140043 -0.039991 -110058.000000 0 0 1
-24.323562 -7.261719 -10.080599 27.312758 0.290123 1.948816 0.130892 -0.035079 -635829.000000 0 0 1
-24.587762 -5.964119 -9.503599 27.026786 0.237968 1.930115 0.124990 -0.023488 820716.000000 0 0 1
-25.984222 -5.715619 -9.423999 28.225164 0.216517 1.911220 0.136048 -0.022804 -147939.000000 0 0 1
-26.311472 -4.367019 -8.691299 28.051793 0.164475 1.885811 0.145643 -0.026385 -393798.000000 0 0 1
-25.967192 -4.286819 -7.298999 27.312036 0.163610 1.841329 0.143341 -0.021286 526049.000000 0 0 1
-26.255352 -3.056819 -6.736999 27.277735 0.115905 1.820357 0.179541 -0.025349 -134644.000000 0 0 1
-26.031922 -3.057219 -5.193999 26.720501 0.116906 1.766424 0.178891 -0.023619 498168.000000 0 0 1
-24.655562 -3.108119 -4.820799 25.313974 0.125400 1.762407 0.137135 -0.016762 645635.000000 0 0 1
-24.457362 -2.953919 -3.432499 24.873083 0.120196 1.709239 0.115515 -0.013002 30836.500000 0 1 0
-23.007262 -3.245619 -2.993299 23.427078 0.140145 1.698917 0.090526 -0.011038 115541.000000 0 1 0
-22.700162 -4.674719 -2.914399 23.359026 0.203094 1.695888 0.093482 -0.012248 627358.000000 0 1 0
-21.349862 -4.901119 -2.535199 22.051413 0.225652 1.686019 0.068908 -0.013568 90939.100000 0 1 0
-20.911262 -6.387719 -2.498999 22.007472 0.296466 1.684594 0.066922 -0.019921 -397854.000000 0 1 0
-21.556762 -7.051119 -1.456099 22.727351 0.316126 1.634908 0.078387 -0.020096 340174.000000 0 1 0
-22.059362 -8.284519 -1.943399 23.643720 0.359258 1.653084 0.086952 -0.028670 39071.300000 0 1 0
-22.768762 -9.076219 -0.791299 24.523875 0.379321 1.603068 0.126101 -0.030202 -82520.700000 0 1 0
-21.861362 -9.422019 0.231001 23.806448 0.406933 1.561093 0.098767 -0.025274 196580.000000 0 1 0
-22.382862 -10.362019 1.131801 24.690989 0.433566 1.524942 0.090925 -0.013954 181827.000000 0 1 0
-21.312862 -11.232219 1.890501 24.165571 0.485026 1.492485 0.097944 -0.010407 935961.000000 0 1 0
-20.461362 -11.959019 0.965001 23.719543 0.528921 1.530101 0.090249 -0.008823 1844130.000000 0 1 0
-19.238362 -12.472719 1.547301 22.979936 0.575197 1.503413 0.059628 -0.007804 1212310.000000 0 1 0
-18.474562 -13.558619 0.768401 22.928934 0.633122 1.537278 0.055675 -0.009410 -25546.700000 0 1 0
-19.259662 -14.731319 0.843301 24.262265 0.652956 1.536032 0.075704 -0.009843 601625.000000 0 1 0
-18.670162 -15.961619 0.394601 24.566317 0.707347 1.554733 0.069025 -0.018754 -65193.800000 0 1 0
-17.644762 -16.686519 1.300001 24.320106 0.757494 1.517317 0.072694 -0.016533 77228.800000 0 1 0
-16.321562 -16.207919 1.102601 23.028368 0.781905 1.522898 0.059489 -0.006777 374907.000000 0 1 0
-15.238562 -16.893619 1.674301 22.812528 0.836860 1.497336 0.073052 -0.009164 315671.000000 0 1 0
-15.068762 -16.650819 3.137001 22.675055 0.835233 1.432005 0.074446 -0.017091 -550862.000000 0 1 0
-14.748062 -15.282019 3.421001 21.511594 0.803177 1.411088 0.052814 -0.009602 98358.300000 0 1 0
-14.068562 -15.116719 4.660601 21.169809 0.821297 1.348825 0.039335 -0.010519 -150473.000000 0 1 0
-14.749162 -15.552719 5.997401 22.257441 0.811910 1.297968 0.093530 -0.007397 -409881.000000 0 1 0
-15.675662 -14.591019 6.521401 22.386444 0.749577 1.275200 0.087739 -0.010156 485744.000000 0 1 0
-15.879662 -14.847619 7.918601 23.136977 0.751824 1.221487 0.094840 -0.018232 -107511.000000 0 1 0
-16.844562 -16.004119 8.283001 24.667371 0.759818 1.228355 0.079731 -0.007671 -310081.000000 0 1 0
-16.260562 -17.281419 8.077701 25.065964 0.815824 1.242683 0.079408 0.001505 50178.500000 0 0 1
-16.999462 -18.347319 8.638901 26.461981 0.823512 1.238235 0.078744 -0.004916 18382.500000 0 0 1
-16.625162 -18.644919 10.145501 26.962199 0.842601 1.185012 0.092025 -0.005579 -77066.300000 0 0 1
-15.314062 -19.125419 10.266701 26.565152 0.895618 1.173992 0.077572 -0.007278 -300538.000000 0 0 1
-15.089362 -19.489119 11.625301 27.251830 0.911958 1.130080 0.080182 -0.015447 47852.000000 0 0 1
-13.829962 -20.350019 11.880301 27.322750 0.973890 1.120965 0.075254 -0.014185 -115908.000000 0 0 1
-12.644962 -19.613519 11.805401 26.152489 0.998151 1.102456 0.072670 -0.020129 -835833.000000 0 0 1
-11.555262 -20.414119 12.169501 26.426447 1.055720 1.092233 0.069901 -0.021790 991631.000000 0 0 1
-10.216962 -19.665219 12.574301 25.479800 1.091635 1.054686 0.074307 -0.017427 1305270.000000 0 0 1
-9.486362 -19.024319 11.507801 24.173234 1.108234 1.074632 0.060827 -0.016468 242794.000000 0 1 0
-8.486262 -18.177819 12.056801 23.405473 1.134021 1.029640 0.052313 -0.018019 287237.000000 0 1 0
-7.672862 -17.323519 11.037801 21.927384 1.153849 1.043291 0.031958 -0.021377 223556.000000 0 1 0
-6.671462 -18.096819 10.412101 21.918374 1.217601 1.075787 0.032541 -0.018330 -434714.000000 0 1 0
-5.984162 -17.350119 9.479901 20.656847 1.238667 1.094014 0.028113 -0.010532 -810418.000000 0 1 0
-4.908062 -18.063719 8.685801 20.635652 1.305493 1.136345 0.023760 -0.011552 -1520520.000000 0 1 0
-3.772962 -18.182319 9.411901 20.818641 1.366193 1.101689 0.034450 -0.012311 -1425920.000000 0 1 0
-2.699662 -18.569119 8.555601 20.622770 1.426423 1.143005 0.042445 -0.013834 571789.000000 0 1 0
-1.364462 -18.881719 9.291301 21.088132 1.498658 1.114536 0.036239 -0.021430 -143019.000000 0 1 0
-0.447962 -19.377519 8.368901 21.112257 1.547683 1.163204 0.042130 -0.017184 -719283.000000 0 1 0
0.737138 -19.707319 9.062701 21.703786 -1.533409 1.140035 0.051330 -0.021917 74077.900000 0 1 0
1.925038 -20.194119 8.194301 21.878180 -1.475757 1.186893 0.055704 -0.036034 228129.000000 0 1 0
1.929038 -21.583419 7.727801 23.006174 -1.481657 1.228235 0.054463 -0.026087 -138725.000000 0 1 0
2.111938 -22.513719 8.835401 24.277399 -1.477263 1.198307 0.069820 -0.030200 -21740.400000 0 1 0
2.110938 -23.977719 8.360101 25.480941 -1.482985 1.236513 0.068809 -0.021845 71643.300000 0 0 1
1.885238 -24.834119 9.452001 26.638842 -1.495028 1.208075 0.080758 -0.023670 -126364.000000 0 0 1
1.621838 -26.105749 9.033001 27.671928 -1.508750 1.238270 0.083621 -0.020569 -847196.000000 0 0 1
1.525438 -27.037469 10.296001 28.971698 -1.514437 1.207474 0.111017 -0.031913 763949.000000 0 0 1
0.452738 -26.787399 11.231701 29.050315 -1.553897 1.173823 0.101900 -0.037127 371298.000000 0 0 1
-0.828562 -27.076659 10.691601 29.122883 1.540205 1.194885 0.085539 -0.024430 -65629.400000 0 0 1
-1.820662 -27.206189 11.897501 29.749656 1.503975 1.159366 0.081359 -0.030777 5169.010000 0 0 1
-1.482562 -28.322719 12.690001 31.071056 1.518499 1.150075 0.094671 -0.032110 -58434.600000 0 0 1
-1.569662 -28.040529 14.086101 31.418996 1.514876 1.105899 0.081526 -0.034254 -32732.000000 0 0 1
-0.959762 -29.133179 15.033301 32.797307 1.537864 1.094636 0.082572 -0.024566 363747.000000 0 0 1
-1.395062 -28.930819 16.407901 33.289002 1.522613 1.055385 0.088996 -0.018914 118925.000000 0 0 1
-0.769862 -29.813659 17.287401 34.471744 1.544980 1.045471 0.082985 -0.016453 -109918.000000 0 0 1
-1.069062 -29.462769 18.733001 34.930258 1.534527 1.004752 0.079109 -0.012180 222769.000000 0 0 1
-2.432562 -29.734499 18.991601 35.365784 1.489169 1.003914 0.065193 -0.003213 157535.000000 0 0 1
-2.833862 -29.512989 20.371201 35.972671 1.475069 0.968791 0.084181 -0.008533 319324.000000 0 0 1
-4.325562 -29.886289 20.589301 36.548872 1.427060 0.972378 0.083417 -0.020327 -73909.400000 0 0 1
-5.211362 -28.973499 19.991101 35.584632 1.392833 0.974248 0.070699 -0.025314 234441.000000 0 0 1
-6.495262 -28.891599 20.613101 36.080643 1.349658 0.962700 0.071802 -0.030710 730387.000000 0 0 1
-6.520562 -27.798679 21.709901 35.869263 1.340398 0.920715 0.102279 -0.035703 -260090.000000 0 0 1
-5.744562 -28.052849 22.885501 36.656629 1.368812 0.896534 0.096139 -0.029516 84540.900000 0 0 1
-5.539262 -26.948679 23.730001 36.332185 1.368071 0.859073 0.126286 -0.029890 136619.000000 0 0 1
-4.375362 -27.273379 24.732401 37.076578 1.411726 0.840537 0.140687 -0.028282 349295.000000 0 0 1
-4.638762 -28.330399 25.668601 38.509826 1.408499 0.841229 0.132290 -0.028412 85879.300000 0 0 1
-4.197862 -29.606189 25.204701 39.107869 1.429945 0.870438 0.127177 -0.027637 -55236.800000 0 0 1
-4.491562 -30.826729 26.141701 40.667553 1.426111 0.872629 0.115874 -0.017267 -64269.700000 0 0 1
-3.872862 -30.716689 27.412001 41.351322 1.445375 0.846104 0.120553 -0.021609 52214.500000 0 0 1
-4.064962 -31.866309 28.176001 42.730230 1.443919 0.850786 0.103111 -0.027862 -337269.000000 0 0 1
-3.356262 -31.816179 29.520401 43.531457 1.465696 0.825568 0.120659 -0.026824 251024.000000 0 0 1
-1.939862 -31.925389 29.395301 43.440502 1.510109 0.827553 0.119107 -0.026495 478449.000000 0 0 1
-1.311462 -31.839639 30.667301 44.226303 1.529630 0.804575 0.119713 -0.036596 -32810.300000 0 0 1
-29.356002 3.153281 -9.972599 31.163613 -0.107005 1.896534 0.166668 -0.036802 351035.000000 0 0 1
-30.067252 2.781481 -11.170499 32.195595 -0.092246 1.925121 0.147582 -0.054878 640525.000000 0 0 1
-30.769652 3.922781 -11.723999 33.160396 -0.126805 1.932164 0.125975 -0.051160 -150622.000000 0 0 1
-31.692012 3.620781 -12.873599 34.398013 -0.113756 1.954389 0.144189 -0.044048 -837326.000000 0 0 1
-32.703442 2.754081 -12.504299 35.120615 -0.084016 1.934822 0.147833 -0.044537 -1171580.000000 0 0 1
-33.775142 2.811181 -13.342299 36.423618 -0.083041 1.945836 0.143716 -0.041347 -553693.000000 0 0 1
-35.033253 2.001381 -12.931299 37.397231 -0.057066 1.923869 0.119569 -0.040640 343708.000000 0 0 1
-34.739055 0.651181 -13.226999 37.177675 -0.018743 1.934543 0.151442 -0.031286 184150.000000 0 0 1
-35.192084 -0.218419 -12.212299 37.251453 0.006206 1.904806 0.137243 -0.034581 -180334.000000 0 0 1
-34.421485 -1.536419 -12.268199 36.574690 0.044606 1.912857 0.129357 -0.035561 -285110.000000 0 0 1
-34.804927 -2.533519 -13.153699 37.293719 0.072664 1.931257 0.135169 -0.036943 -2168.780000 0 0 1
-34.396943 -3.775219 -12.654099 36.844650 0.109317 1.921379 0.144951 -0.037989 170800.000000 0 0 1
-35.113768 -4.891419 -13.470999 37.925855 0.138411 1.933917 0.137217 -0.038191 184369.000000 0 0 1
-34.819889 -6.140119 -12.913999 37.641694 0.174545 1.920987 0.144641 -0.039957 400840.000000 0 0 1
-35.395081 -7.217619 -13.680899 38.627358 0.201158 1.932830 0.140118 -0.036950 -434546.000000 0 0 1
-34.811095 -8.534319 -13.086299 38.156234 0.240419 1.920869 0.144967 -0.041398 809566.000000 0 0 1
-33.417612 -8.844919 -13.058999 36.952765 0.258745 1.931996 0.154428 -0.042259 794656.000000 0 0 1
-32.829882 -8.973419 -14.317199 36.922969 0.266814 1.968995 0.143760 -0.035093 -590097.000000 0 0 1
-31.529572 -9.795619 -14.347499 35.998872 0.301226 1.980736 0.151877 -0.035001 -310625.000000 0 0 1
-31.772362 -11.151219 -14.177799 36.535499 0.337541 1.969317 0.142350 -0.028884 -88316.800000 0 0 1
-30.698722 -11.955919 -13.774899 35.708590 0.371387 1.966826 0.163469 -0.026492 -631011.000000 0 0 1
-31.036352 -13.449519 -13.861999 36.555434 0.408920 1.959733 0.163877 -0.022549 -161044.000000 0 0 1
-31.145772 -13.723919 -15.285799 37.310330 0.415039 1.992914 0.147895 -0.020349 109549.000000 0 0 1
-31.268032 -15.080219 -15.676799 38.090220 0.449378 1.994973 0.137609 -0.012482 -1022710.000000 0 0 1
-30.201352 -16.085419 -15.297899 37.481837 0.489391 1.991214 0.134103 -0.004373 -514794.000000 0 0 1
-28.975572 -15.841119 -15.942799 36.670120 0.500311 2.020571 0.135510 -0.012557 -790202.000000 0 0 1
-28.031792 -16.808219 -15.658099 36.241877 0.540135 2.017555 0.122449 -0.012024 -1038520.000000 0 0 1
-26.614302 -16.444019 -16.008399 35.142506 0.553451 2.043762 0.126790 -0.026406 -777550.000000 0 0 1
-26.413772 -16.442419 -17.396299 35.646483 0.556795 2.080619 0.133699 -0.022530 187415.000000 0 0 1
-25.058762 -16.272319 -17.812199 34.785117 0.575930 2.108382 0.096125 -0.012934 214591.000000 0 0 1
-24.870162 -15.786619 -19.271199 35.201157 0.565588 2.150121 0.114134 -0.007147 56149.600000 0 0 1
-25.346752 -16.708919 -20.240799 36.487474 0.582825 2.158838 0.115887 -0.027871 366972.000000 0 0 1
-26.723482 -16.598919 -20.579899 37.592564 0.555816 2.150106 0.124405 -0.027410 133464.000000 0 0 1
-27.209642 -17.774919 -21.428199 38.929168 0.578662 2.153688 0.124561 -0.024513 -282601.000000 0 0 1
-26.709212 -17.754519 -22.718999 39.303408 0.586663 2.187123 0.122267 -0.021224 -85288.800000 0 0 1
-27.156192 -18.915619 -23.409899 40.537425 0.608406 2.186445 0.122445 -0.028016 -247502.000000 0 0 1
-26.679242 -19.185919 -24.877299 41.216034 0.623452 2.218784 0.112691 -0.039869 1753930.000000 0 0 1
-25.285622 -19.616719 -24.984999 40.600844 0.659813 2.233666 0.110668 -0.041433 1305080.000000 0 0 1
-25.101522 -20.973719 -24.677399 40.975082 0.696048 2.217118 0.096495 -0.037703 156208.000000 0 0 1
-23.569062 -21.232219 -24.602499 40.144623 0.733285 2.230454 0.087240 -0.020552 787471.000000 0 0 1
-22.855762 -21.030219 -25.828179 40.394936 0.743825 2.264503 0.088353 -0.030196 254350.000000 0 0 1
-21.453262 -21.185219 -25.667029 39.596115 0.779112 2.276042 0.066427 -0.019828 683051.000000 0 0 1
-20.629962 -21.030419 -27.009279 39.967174 0.795010 2.312828 0.058025 -0.020781 -44959.600000 0 0 1
-20.766462 -22.123019 -27.900809 41.220493 0.817017 2.314295 0.074173 -0.018529 -164209.000000 0 0 1
-21.356362 -21.639319 -29.109399 42.091703 0.791979 2.334458 0.103662 -0.032295 243516.000000 0 0 1
-20.414762 -21.847719 -30.333279 42.593347 0.819291 2.363367 0.095667 -0.035429 312729.000000 0 0 1
-20.364962 -23.185419 -30.857809 43.640574 0.850071 2.356171 0.090540 -0.040182 -248710.000000 0 0 1
-19.593362 -23.235419 -32.020189 44.148353 0.870232 2.382246 0.084322 -0.035844 -150013.000000 0 0 1
-19.542262 -24.641819 -32.695209 45.366243 0.900306 2.375600 0.101021 -0.026401 -415564.000000 0 0 1
-18.717462 -24.752919 -33.778169 45.869544 0.923357 2.398525 0.104835 -0.033182 -750631.000000 0 0 1
-19.360662 -24.409719 32.918034 45.324017 0.900244 0.757898 0.138960 -0.034018 -524377.000000 0 0 1
-18.496062 -24.497819 31.638725 44.082382 0.924097 0.770277 0.142404 -0.034667 -382117.000000 0 0 1
-17.589162 -23.453119 31.516335 43.043081 0.927314 0.749243 0.092650 -0.029254 -534300.000000 0 0 1
-16.964262 -23.593719 30.240795 41.939903 0.947422 0.765479 0.106508 -0.029296 -154951.000000 0 0 1
-16.179462 -22.304419 29.960905 40.705257 0.943231 0.743587 0.062863 -0.024481 -190777.000000 0 0 1
-16.994462 -21.166719 29.731175 40.258968 0.894298 0.739956 0.077649 -0.028965 -43296.800000 0 0 1
-16.328462 -19.916419 29.626865 39.256000 0.884069 0.715586 0.070404 -0.026008 -10288.100000 0 0 1
-15.810562 -19.244619 30.920435 39.703936 0.883048 0.678086 0.061399 -0.029489 255823.000000 0 0 1
-15.292762 -17.935719 30.592775 38.619638 0.864770 0.656463 0.061045 -0.025425 -28905.000000 0 0 1
-14.754162 -17.289619 31.719705 39.022505 0.864358 0.621756 0.056639 -0.030119 -58064.600000 0 0 1
-14.209962 -15.890219 31.481005 38.019413 0.841162 0.595221 0.060930 -0.025055 -99554.400000 0 0 1
-13.075362 -15.779219 30.659675 36.877697 0.878832 0.589195 0.066147 -0.025576 -231927.000000 0 0 1
-12.790962 -14.444119 30.188335 35.827041 0.846023 0.568679 0.072282 -0.026636 808330.000000 0 0 1
-11.242862 -14.267419 29.999905 35.070721 0.903410 0.544451 0.094264 -0.026857 848715.000000 0 0 1
-10.932962 -12.903419 29.804595 34.268670 0.867877 0.516135 0.087554 -0.028523 -774271.000000 0 0 1
-9.565462 -12.756519 30.043835 34.012628 0.927392 0.487911 0.080999 -0.022638 -418507.000000 0 0 1
-9.165662 -11.267119 29.981505 33.314381 0.887885 0.451126 0.075165 -0.018671 -108067.000000 0 0 1
-9.746962 -10.524019 31.027715 34.182998 0.823713 0.433040 0.071700 -0.019484 -70182.800000 0 0 1
-9.448462 -9.146219 31.023455 33.695423 0.769145 0.400920 0.059749 -0.014325 244336.000000 0 0 1
-10.324662 -8.341619 32.060347 34.699382 0.679558 0.392526 0.044645 -0.015017 1023220.000000 0 0 1
-11.673162 -8.081619 31.645735 34.684692 0.605556 0.421727 0.069696 -0.020516 971257.000000 0 0 1
-12.619662 -7.578919 32.593361 35.763432 0.540834 0.424220 0.059725 -0.020043 553337.000000 0 0 1
-12.304862 -6.141219 33.107687 35.850288 0.462918 0.393694 0.047547 -0.021698 -432975.000000 0 0 1
-12.467662 -5.164219 32.118755 34.838573 0.392695 0.397760 0.052509 -0.023808 151905.000000 0 0 1
-12.403862 -3.892319 32.779522 35.263338 0.304068 0.377568 0.057486 -0.029459 -342748.000000 0 0 1
-11.993262 -2.759619 31.868009 34.161731 0.226161 0.368533 0.048983 -0.023183 813348.000000 0 0 1
-10.560762 -2.630019 31.823235 33.632796 0.244072 0.329524 0.055245 -0.026748 718068.000000 0 0 1
-10.156562 -1.693119 30.878175 32.549717 0.165183 0.321867 0.051773 -0.021703 576962.000000 0 0 1
-8.623962 -1.363419 30.827805 32.040368 0.156799 0.275993 0.050538 -0.022758 911220.000000 0 0 1
-8.193062 -0.654319 31.983944 33.023129 0.079693 0.251535 0.057434 -0.037631 412706.000000 0 0 1
-6.839362 -0.195419 32.017759 32.740677 0.028565 0.210532 0.068852 -0.035299 630294.000000 0 0 1
-6.491862 0.461281 33.406843 34.034897 -0.070936 0.192407 0.102689 -0.051333 -423742.000000 0 0 1
-7.146862 1.653281 33.735942 34.524263 -0.227331 0.214109 0.107329 -0.037631 -200179.000000 0 0 1
-6.740462 2.796181 33.020058 33.816811 -0.393230 0.217504 0.113488 -0.035003 105714.000000 0 0 1
-7.734562 3.955281 33.304804 34.419147 -0.472708 0.255154 0.109675 -0.027062 710909.000000 0 0 1
-9.012662 3.681881 32.722925 34.140506 -0.387832 0.289180 0.071827 -0.021511 54181.800000 0 0 1
-9.819762 4.817981 32.858273 34.631009 -0.456133 0.321347 0.052702 0.000953 -1007620.000000 0 0 1
-11.146262 4.669681 32.160604 34.356215 -0.396732 0.359443 0.039178 0.001181 -670879.000000 0 0 1
-12.067762 5.707181 32.433908 35.073654 -0.441756 0.390452 0.043764 0.006205 -669513.000000 0 0 1
-13.136162 5.742281 31.562055 34.665485 -0.412104 0.426365 0.012964 0.013285 -793153.000000 0 0 1
-13.747262 7.115481 31.695455 35.273491 -0.477622 0.454312 0.033241 0.003429 -519987.000000 0 0 1
-14.453062 7.222081 32.895042 36.648783 -0.463401 0.456558 0.036901 0.000694 -331744.000000 0 0 1
-15.051262 8.513481 32.837380 37.112173 -0.514766 0.484701 0.026140 0.014542 523266.000000 0 0 1
-15.944762 8.786581 -33.767069 38.362148 -0.503660 2.647119 0.024042 0.007534 811177.000000 0 0 1
-15.148762 8.954981 -32.589949 37.037569 -0.533876 2.646482 0.025350 -0.001674 -91543.800000 0 0 1
-15.953862 9.413281 -31.521229 36.561229 -0.533057 2.610292 0.039742 -0.005906 -941021.000000 0 0 1
-15.352962 9.614681 -30.146809 35.170807 -0.559492 2.600515 0.052839 -0.013329 -12179.800000 0 0 1
-14.460062 10.691381 -29.875129 34.870079 -0.636665 2.599741 0.065806 -0.017683 466188.000000 0 0 1
-13.158662 10.519081 -30.437139 34.788230 -0.674377 2.636080 0.070944 -0.023511 362034.000000 0 0 1
-12.347262 11.858181 -30.602229 35.065193 -0.765195 2.631550 0.072887 -0.025194 94404.000000 0 0 1
-13.061062 12.865081 -31.284649 36.260598 -0.777839 2.611524 0.073053 -0.027080 286310.000000 0 0 1
-12.213762 13.943481 -31.736589 36.753337 -0.851430 2.612969 0.072337 -0.021235 367189.000000 0 0 1
-12.303062 15.254481 -30.956809 36.638622 -0.892092 2.577217 0.076627 -0.031076 280835.000000 0 0 1
-13.570062 15.844581 -31.188539 37.522291 -0.862571 2.552059 0.076676 -0.027391 308821.000000 0 0 1
-13.503462 17.101981 -30.514859 37.496372 -0.902439 2.521472 0.071696 -0.022751 -34179.200000 0 0 1
-14.906162 17.709681 -30.326219 38.151095 -0.871143 2.489635 0.060543 -0.031023 -400349.000000 0 0 1
-15.405362 18.293181 -31.528659 39.572996 -0.870885 2.492647 0.055536 -0.032790 393256.000000 0 0 1
-16.788362 18.616781 -31.565729 40.309167 -0.836995 2.470416 0.046226 -0.029375 476479.000000 0 0 1
-17.268462 19.762981 -30.680999 40.374484 -0.852659 2.433972 0.013196 -0.024959 -920114.000000 0 0 1
-16.775562 20.988981 -31.112239 41.108737 -0.896509 2.429243 0.014190 -0.021799 60596.000000 0 0 1
-17.301262 22.123581 -30.438399 41.415971 -0.907110 2.396380 -0.005910 -0.005132 616499.000000 0 0 1
-18.758462 22.615281 -30.739579 42.523553 -0.878349 2.378763 0.014727 -0.006334 249829.000000 0 0 1
-19.779562 21.912081 -30.130329 42.180649 -0.836503 2.366443 0.014711 -0.011286 96348.500000 0 0 1
-20.763362 21.397681 -31.049869 43.047327 -0.800442 2.376468 0.039420 -0.019177 13734.600000 0 0 1
-22.150862 21.177281 -30.410149 43.173083 -0.762932 2.352342 0.057901 -0.024931 -554955.000000 0 0 1
-22.762362 22.373381 -29.903149 43.736617 -0.776780 2.323630 0.093796 -0.027154 664602.000000 0 0 1
-23.515562 23.126581 -30.869019 45.174293 -0.777059 2.323112 0.094751 -0.024943 365173.000000 0 0 1
-24.834962 22.530581 -31.448609 45.971921 -0.736785 2.324142 0.116941 -0.040174 -130311.000000 0 0 1
-24.540262 21.559381 -32.435869 46.033868 -0.720826 2.352668 0.116225 -0.036400 524324.000000 0 0 1
-25.723232 21.224981 -33.166379 47.033958 -0.689877 2.353443 0.148023 -0.042002 331912.000000 0 0 1
-25.570452 20.210781 33.598089 46.809778 -0.668857 0.770219 0.138332 -0.035826 -150769.000000 0 0 1
-25.188572 18.868181 -33.931799 46.280011 -0.642910 2.393790 0.136721 -0.038869 383432.000000 0 0 1
-24.874962 18.224981 32.746049 44.980189 -0.632313 0.755381 0.124338 -0.036868 -304802.000000 0 0 1
-24.527862 16.750781 32.979043 44.382677 -0.599177 0.733163 0.085149 -0.016458 -603552.000000 0 0 1
-25.635142 16.056781 33.440717 45.091710 -0.559575 0.735321 0.094064 -0.019313 -123490.000000 0 0 1
-26.319372 15.440681 32.398781 44.506236 -0.530557 0.755454 0.091699 -0.014690 -462754.000000 0 0 1
-27.154772 14.175181 32.745627 44.839642 -0.481104 0.752060 0.080886 -0.018416 837053.000000 0 0 1
-28.348312 14.364081 33.537702 46.203150 -0.468993 0.758491 0.087582 -0.023655 778605.000000 0 0 1
-29.437902 13.496981 33.319480 46.464463 -0.429892 0.771170 0.070961 -0.014429 303773.000000 0 0 1
-29.334692 12.065481 33.910055 46.432659 -0.390213 0.752026 0.061358 -0.010673 -24027.600000 0 0 1
-28.365982 11.234181 33.269884 45.141123 -0.377092 0.742147 0.057558 -0.015644 123365.000000 0 0 1
-28.523982 9.884881 33.675569 45.225793 -0.333595 0.730846 0.069709 -0.011649 -631085.000000 0 0 1
-27.159832 9.261481 -33.864289 44.387179 -0.328634 2.438629 0.068790 -0.018224 -136553.000000 0 0 1
-26.315362 8.829781 32.985536 43.110427 -0.323733 0.699537 0.057577 -0.020016 131543.000000 0 0 1
-25.609992 9.921281 32.410258 42.482095 -0.369596 0.702985 0.046458 -0.019795 -518817.000000 0 0 1
-24.289762 9.394281 31.759895 41.072327 -0.369040 0.686818 0.052579 -0.019460 375796.000000 0 0 1
-24.460462 9.170681 30.366885 40.057001 -0.358699 0.710414 0.060366 -0.014559 376409.000000 0 0 1
-23.148262 8.979581 29.859415 38.833743 -0.370046 0.693671 0.064365 -0.012026 575069.000000 0 0 1
-23.011062 9.069881 28.344065 37.618583 -0.375456 0.717489 0.081622 -0.012755 -3956.890000 0 0 1
-23.342362 10.321481 27.772425 37.718781 -0.416330 0.743207 0.081179 -0.013045 57853.300000 0 0 1
-22.947362 10.402981 26.418585 36.506781 -0.425629 0.761702 0.073539 -0.022849 -1405350.000000 0 0 1
-23.310362 11.673581 25.624985 36.555237 -0.464279 0.794007 0.074758 -0.022771 293623.000000 0 0 1
-24.672162 12.046681 25.667305 37.585219 -0.454220 0.819058 0.098691 -0.023040 -15816.200000 0 0 1
-25.617852 11.283581 24.959695 37.504399 -0.414890 0.842614 0.102674 -0.018937 -347814.000000 0 0 1
-27.087322 11.541381 25.322545 38.835007 -0.402786 0.860505 0.101644 -0.021787 85038.500000 0 0 1
-27.585532 12.797581 24.804355 39.242779 -0.434372 0.886569 0.109900 -0.022380 143806.000000 0 0 1
-28.788642 13.220681 25.428465 40.622397 -0.430505 0.894420 0.088027 -0.019699 335074.000000 0 0 1
-29.153512 14.632981 24.983925 41.088294 -0.465189 0.917189 0.092909 -0.018830 434900.000000 0 0 1
-28.179402 15.578981 25.438765 41.035523 -0.505029 0.902155 0.097871 -0.019798 266305.000000 0 0 1
-28.296552 16.783381 24.658215 41.114527 -0.535349 0.927614 0.088787 -0.007357 91815.700000 0 0 1
-23.381362 -9.189819 31.510015 40.299155 0.374492 0.673084 0.080744 -0.030908 371344.000000 0 0 1
-22.283662 -8.669119 30.733095 38.938905 0.371018 0.661186 0.081479 -0.032660 699597.000000 0 0 1
-22.549162 -9.010119 29.339165 38.084558 0.380141 0.691377 0.079654 -0.034057 375009.000000 0 0 1
-21.296562 -8.716419 28.485745 36.619082 0.388487 0.679490 0.100309 -0.034705 -672650.000000 0 0 1
-20.986762 -7.334519 28.309345 35.995255 0.336214 0.665717 0.092167 -0.034481 -67585.800000 0 0 1
-19.703962 -6.882819 28.683255 35.473207 0.336061 0.629046 0.082465 -0.035060 476345.000000 0 0 1
-18.466462 -7.418019 27.867925 34.244101 0.381973 0.620131 0.085498 -0.030650 -474647.000000 0 0 1
-18.172962 -8.766419 27.889505 34.422829 0.449459 0.626297 0.086930 -0.023459 -203616.000000 0 0 1
-17.717862 -9.312419 29.124535 35.339529 0.483913 0.602123 0.080342 -0.027777 -558280.000000 0 0 1
-16.325562 -8.914819 29.635495 34.989435 0.499817 0.560510 0.073191 -0.026719 -723138.000000 0 0 1
-15.201662 -9.367219 28.957945 34.020551 0.552244 0.552548 0.069024 -0.016367 -2109700.000000 0 0 1
-14.066762 -8.885019 29.523945 33.889242 0.563354 0.513177 0.073228 -0.022565 -951593.000000 0 0 1
-12.873262 -9.736019 29.020745 33.207147 0.647519 0.507565 0.079496 -0.018510 -89398.300000 0 0 1
-12.733662 -9.567419 27.622085 31.885126 0.644364 0.523049 0.084408 -0.020249 801681.000000 0 0 1
-11.438062 -10.107919 27.253025 31.236624 0.723741 0.510562 0.090985 -0.016181 1029400.000000 0 0 1
-11.114162 -9.983619 25.801995 29.815100 0.731863 0.524848 0.074156 -0.015192 273977.000000 0 0 1
-11.939662 -10.813619 24.952295 29.700285 0.735949 0.573261 0.069111 -0.015374 171397.000000 0 0 1
-11.750962 -10.476419 23.582465 28.354420 0.728120 0.588628 0.067282 -0.017795 -59430.800000 0 0 1
-12.821162 -11.135119 22.705145 28.353072 0.715134 0.642166 0.078955 -0.019755 -568511.000000 0 0 1
-12.690762 -12.516919 22.502645 28.707103 0.778502 0.669922 0.064581 -0.018710 521431.000000 0 0 1
-13.872862 -13.068619 21.935045 29.058412 0.755556 0.715355 0.073529 -0.015115 1518610.000000 0 0 1
-15.193962 -13.182919 22.794345 30.401118 0.714647 0.723057 0.080571 -0.011294 785874.000000 0 0 1
-16.411262 -13.603319 22.219545 30.791038 0.692117 0.764651 0.074507 -0.011896 -216294.000000 0 0 1
-17.489862 -13.351019 23.047115 31.864000 0.651995 0.762232 0.076359 -0.006493 206801.000000 0 0 1
-18.805062 -14.104919 22.636145 32.633942 0.643539 0.804269 0.097154 -0.015960 262229.000000 0 0 1
-18.782262 -15.533219 22.858645 33.415145 0.690998 0.817454 0.088880 -0.011741 1238950.000000 0 0 1
-20.111962 -16.132819 22.805645 34.421742 0.676051 0.846597 0.081556 -0.013608 1185750.000000 0 0 1
-20.863962 -16.045219 24.146325 35.718328 0.655576 0.828448 0.089977 -0.015322 -364502.000000 0 0 1
-20.276262 -16.874819 25.149175 36.446774 0.694096 0.809273 0.095795 -0.019295 -128330.000000 0 0 1
-20.745562 -16.641119 26.415275 37.484289 0.676052 0.788792 0.091949 -0.023014 -264540.000000 0 0 1
-20.243762 -17.577019 27.527555 38.425614 0.715005 0.772188 0.090927 -0.024541 18538.200000 0 0 1
-20.574662 -18.955019 27.365645 39.134230 0.744448 0.796412 0.105946 -0.024499 96956.300000 0 0 1
-20.174262 -19.725319 28.478685 40.088958 0.774147 0.780748 0.098203 -0.029497 37715.000000 0 0 1
-20.224262 -21.225219 28.139915 40.637243 0.809542 0.805895 0.109377 -0.022362 -183782.000000 0 0 1
-21.539562 -21.695119 28.129055 41.543648 0.788996 0.826987 0.108404 -0.019130 -483907.000000 0 0 1
-21.565062 -23.025219 27.647325 41.947434 0.818133 0.851182 0.114557 -0.011077 850812.000000 0 0 1
-22.979662 -23.637019 27.329145 42.821206 0.799499 0.878619 0.111184 -0.000828 1020250.000000 0 0 1
-23.860562 -23.852919 28.427135 44.117912 0.785238 0.870630 0.110559 0.000341 891539.000000 0 0 1
-25.142062 -24.295719 27.943075 44.757354 0.768280 0.896531 0.085157 0.004147 853519.000000 0 0 1
-25.998532 -25.125629 28.937235 46.309659 0.768326 0.895839 0.053093 -0.004069 -356477.000000 0 0 1
-26.509212 -24.461119 29.994715 46.912340 0.745238 0.877107 0.045344 0.005348 -594732.000000 0 0 1
-27.240752 -25.396849 30.721215 48.278894 0.750382 0.881067 0.040890 0.018036 -1073560.000000 0 0 1
-28.448122 -24.700019 31.296465 48.978111 0.714993 0.877613 0.031176 0.008848 -833718.000000 0 0 1
-29.407052 -24.469019 30.265575 48.780248 0.693998 0.901483 0.032900 0.002785 -300606.000000 0 0 1
-30.419842 -23.667619 30.756845 49.310308 0.661202 0.897277 0.051308 -0.012559 -342059.000000 0 0 1
-31.682332 -23.488219 29.857045 49.466249 0.637953 0.922807 0.048060 -0.020476 742183.000000 0 0 1
-32.651412 -24.541719 30.067635 50.719556 0.644542 0.936239 0.046728 -0.018558 470119.000000 0 0 1
-33.813202 -24.340319 29.269445 50.916443 0.623922 0.958372 0.047584 -0.022638 424795.000000 0 0 1
-34.984805 -25.213149 29.818565 52.428869 0.624476 0.965819 0.049132 -0.023996 107242.000000 0 0 1
-34.692314 -26.579509 29.776065 52.883277 0.653757 0.972721 0.042243 -0.025327 368274.000000 0 0 1
-35.787477 -27.320249 30.302655 54.271451 0.652024 0.978397 0.044037 -0.024488 305771.000000 0 0 1
-35.345376 -28.739859 30.630305 54.895270 0.682687 0.978850 0.039431 -0.022402 211075.000000 0 0 1
-34.433832 -28.770309 31.751825 54.969063 0.696030 0.954973 0.038446 -0.014467 395879.000000 0 0 1
-33.992622 -30.087539 32.012654 55.547893 0.724533 0.956593 0.028732 -0.015783 -35573.600000 0 0 1
-33.142742 -30.276609 33.269200 55.874449 0.740236 0.932998 0.023887 -0.008624 30234.900000 0 0 1
-33.909612 -30.180129 -33.454929 56.390906 0.727272 2.205909 0.036130 0.002048 -1435.830000 0 0 1
-33.058182 -30.407619 -32.368949 55.364389 0.743659 2.195248 0.032105 -0.002443 -121604.000000 0 0 1
-33.574222 -29.737589 -31.096319 54.575944 0.724873 2.177035 0.051212 -0.016028 -38323.400000 0 0 1
-33.514392 -28.374589 -31.017759 53.762749 0.702540 2.185771 0.049552 -0.018528 365832.000000 0 0 1
-32.225982 -27.916869 -30.611459 52.487398 0.713872 2.193478 0.057595 -0.015941 322298.000000 0 0 1
-32.212812 -26.343819 -30.563409 51.631231 0.685504 2.204280 0.062983 -0.012546 -51614.400000 0 0 1
-33.018612 -25.800089 -29.555509 51.277690 0.663284 2.185090 0.054734 -0.027600 -261942.000000 0 0 1
-32.837312 -24.382219 -29.420599 50.382074 0.638694 2.194382 0.073800 -0.026199 748946.000000 0 0 1
-31.485552 -23.864619 -28.798599 48.889870 0.648573 2.200680 0.087688 -0.033874 463882.000000 0 0 1
-31.423232 -22.475719 -28.620819 48.080441 0.620893 2.208397 0.094814 -0.031502 208035.000000 0 0 1
-30.149382 -22.117519 -28.114769 46.782584 0.632921 2.215506 0.105822 -0.034194 6598.120000 0 0 1
-29.998862 -20.585919 -28.292539 46.088823 0.601420 2.231750 0.123691 -0.038809 -131515.000000 0 0 1
-29.743682 -20.149519 -29.634049 46.571092 0.595423 2.260513 0.138793 -0.035005 345582.000000 0 0 1
-29.421382 -18.745019 -29.621289 45.764771 0.567269 2.274769 0.123462 -0.039849 -349959.000000 0 0 1
-28.909212 -18.276319 -31.003489 46.162569 0.563758 2.307183 0.127401 -0.031825 182330.000000 0 0 1
-29.872562 -18.084719 -32.035689 47.388948 0.544377 2.313139 0.118451 -0.035152 54407.700000 0 0 1
-30.726162 -17.001819 -31.732809 47.330013 0.505399 2.305623 0.101601 -0.025488 -780806.000000 0 0 1
-31.452962 -16.554119 -33.025019 48.517828 0.484476 2.319484 0.084891 -0.030471 468213.000000 0 0 1
-32.448302 -17.438219 -33.585579 49.849523 0.493130 2.310054 0.086866 -0.032784 775763.000000 0 0 1
-33.744832 -17.131919 -33.101119 50.278230 0.469781 2.289433 0.079438 -0.028413 204717.000000 0 0 1
-34.910331 -17.539419 33.837504 51.684999 0.465576 0.857028 0.088290 -0.032719 -68692.900000 0 0 1
-35.280672 -18.923019 33.943095 52.487524 0.492308 0.867561 0.068714 -0.033581 118759.000000 0 0 1
-35.883996 -19.249419 32.689078 52.218552 0.492369 0.894377 0.068594 -0.032676 -496390.000000 0 0 1
-36.356022 -20.706419 32.784989 53.154225 0.517726 0.906138 0.055374 -0.030084 44373.400000 0 0 1
-35.313391 -21.676819 32.884564 52.899099 0.550535 0.899953 0.067145 -0.029603 266331.000000 0 0 1
-35.786571 -22.995819 33.203901 53.962815 0.571143 0.908016 0.060629 -0.023354 -11013.200000 0 0 1
-34.562407 -23.920119 33.446353 53.715832 0.605394 0.898667 0.068588 -0.022830 1111200.000000 0 0 1
-33.641652 -23.571819 -33.373429 52.926149 0.611178 2.253079 0.061422 -0.030375 947493.000000 0 0 1
-32.696132 -22.552519 -33.696439 52.087457 0.603821 2.274335 0.086223 -0.033076 -682857.000000 0 0 1
-31.462812 -22.388819 -32.809059 50.671512 0.618466 2.275076 0.085654 -0.030030 -128469.000000 0 0 1
-30.525272 -23.435919 -33.074299 50.743904 0.654768 2.280737 0.079635 -0.025432 593021.000000 0 0 1
-29.218312 -23.229519 -32.546339 49.523575 0.671705 2.287879 0.091502 -0.027316 525125.000000 0 0 1
-28.887792 -23.621619 -31.152279 48.610183 0.685442 2.266413 0.103608 -0.020004 -560264.000000 0 0 1
-28.807842 -25.042339 -31.073479 49.219627 0.715586 2.254054 0.080141 -0.020549 141679.000000 0 0 1
-27.896662 -25.285999 -30.009049 48.147155 0.736349 2.243724 0.075503 -0.023997 234220.000000 0 0 1
-27.750012 -26.808739 -29.740709 48.716337 0.768147 2.227472 0.057765 -0.018697 5135.820000 0 0 1
-28.884262 -27.380359 -29.108179 49.307918 0.758675 2.202270 0.048201 -0.015376 155123.000000 0 0 1
-28.691712 -28.654169 -28.463809 49.542549 0.784743 2.182829 0.043309 -0.010657 -74361.900000 0 0 1
-29.483902 -29.832219 -29.138049 51.071398 0.791270 2.177954 0.036791 -0.005357 -130679.000000 0 0 1
-29.195302 -30.152379 -30.488759 51.875775 0.801523 2.199042 0.040213 -0.006290 142474.000000 0 0 1
-29.637252 -31.469749 -30.836009 53.099635 0.815378 2.190409 0.039200 0.000669 -260434.000000 0 0 1
-29.354272 -31.983219 -32.261089 54.086759 0.828232 2.209891 0.022935 -0.006799 -613998.000000 0 0 1
-28.002892 -32.142149 -32.557129 53.639970 0.854111 2.223022 0.029255 0.003137 -608875.000000 0 0 1
-27.824762 -32.853279 -33.720819 54.686826 0.868081 2.235234 0.022899 0.004026 -256527.000000 0 0 1
-26.357932 -33.201609 33.870975 54.261684 0.899801 0.896670 0.042616 -0.000650 -130425.000000 0 0 1
-26.190602 -33.717299 32.595641 53.714800 0.910381 0.918733 0.036973 0.008121 244661.000000 0 0 1
-25.042362 33.510637 32.550355 53.005739 -0.929028 0.909562 0.041379 0.010911 220178.000000 0 0 1
-24.883862 32.752170 31.193155 51.622904 -0.921077 0.921972 0.065387 0.003666 -1234.640000 0 0 1
-26.015892 31.964832 30.852705 51.482682 -0.887642 0.928191 0.042154 -0.012931 270148.000000 0 0 1
-25.610592 30.853752 30.065045 50.117496 -0.877991 0.927431 0.066003 -0.008733 170674.000000 0 0 1
-26.824612 30.042042 29.560225 49.958893 -0.841916 0.937642 0.064933 -0.008893 494761.000000 0 0 1
-27.591882 29.260952 30.520975 50.488070 -0.814747 0.921635 0.074825 -0.015586 86725.600000 0 0 1
-28.695282 28.729482 29.860325 50.402791 -0.785994 0.936720 0.080678 -0.026262 -331578.000000 0 0 1
-29.446002 27.666472 30.688595 50.737467 -0.754250 0.921218 0.097266 -0.041209 -430011.000000 0 0 1
-28.629812 26.566042 30.968085 49.844188 -0.748026 0.900398 0.100790 -0.036633 -141571.000000 0 0 1
-29.228122 25.388452 31.515125 49.920534 -0.715211 0.887560 0.118248 -0.032044 57036.600000 0 0 1
-30.117072 24.520232 30.602625 49.444924 -0.683318 0.903425 0.118315 -0.034571 264157.000000 0 0 1
-29.381612 24.128892 29.452605 48.093019 -0.687549 0.911692 0.105074 -0.025925 -607017.000000 0 0 1
-29.995982 23.227252 28.635475 47.531617 -0.658901 0.924228 0.102971 -0.013187 -245589.000000 0 0 1
-29.357722 23.030032 27.219495 46.186136 -0.665195 0.940550 0.113022 -0.022133 972200.000000 0 0 1
-28.027532 22.482432 27.292205 45.120580 -0.676054 0.921190 0.109076 -0.025254 672206.000000 0 0 1
-27.496132 22.129532 26.027485 43.854116 -0.677675 0.935394 0.101482 -0.019566 815673.000000 0 0 1
-26.076112 21.451732 26.080375 42.665283 -0.688405 0.913121 0.087133 -0.018768 573409.000000 0 0 1
-26.076822 20.258032 26.854805 42.562531 -0.660471 0.888020 0.110151 -0.026200 1016500.000000 0 0 1
-24.756562 19.688532 26.979745 41.574419 -0.671860 0.864592 0.096395 -0.017349 792262.000000 0 0 1
-24.770262 18.320932 27.783925 41.486973 -0.636834 0.836988 0.115399 -0.021361 -430179.000000 0 0 1
-23.531862 17.881732 28.244665 40.881120 -0.649804 0.808067 0.089774 -0.014029 -335553.000000 0 0 1
-23.732562 16.684932 28.902525 40.950915 -0.612763 0.787266 0.087113 -0.011058 1101010.000000 0 0 1
-22.429562 15.779032 29.082815 39.973407 -0.613066 0.756046 0.086549 -0.020291 1989910.000000 0 0 1
-21.314662 16.372032 29.815365 40.141179 -0.654992 0.733609 0.100212 -0.011544 954739.000000 0 0 1
-20.187462 15.503932 29.751075 39.153953 -0.654921 0.707716 0.083224 -0.019347 -145397.000000 0 0 1
-19.146162 15.935632 30.771985 39.590845 -0.694137 0.680513 0.065281 -0.023681 -363100.000000 0 0 1
-19.476262 15.634832 32.078826 40.654936 -0.676424 0.661533 0.060009 -0.015481 238123.000000 0 0 1
-18.360162 16.049532 32.828535 40.894935 -0.718348 0.638899 0.048466 -0.016265 -347970.000000 0 0 1
-18.615362 15.795732 -33.531519 41.477701 -0.703641 2.512264 0.047242 -0.025886 762064.000000 0 0 1
-19.636662 16.445432 -32.758359 41.583180 -0.697184 2.477991 0.054900 -0.027649 1218970.000000 0 0 1
-21.014262 16.237332 -33.101949 42.438063 -0.657860 2.465472 0.062408 -0.019776 908602.000000 0 0 1
-21.978762 17.128532 -32.214339 42.593618 -0.662005 2.428463 0.064762 -0.030376 319923.000000 0 0 1
-22.170362 16.601132 -30.917089 41.508902 -0.642732 2.411077 0.072917 -0.038234 71828.200000 0 0 1
-22.909062 17.512632 -30.147419 41.717914 -0.652680 2.378424 0.074715 -0.037039 -594362.000000 0 0 1
-23.168762 17.203232 -28.648399 40.662926 -0.638696 2.352562 0.073999 -0.033992 27383.800000 0 0 1
-23.949462 16.104432 -28.221699 40.365750 -0.591985 2.345004 0.071684 -0.037287 473302.000000 0 0 1
-25.343272 16.325932 -28.504789 41.489041 -0.572281 2.328209 0.102067 -0.038588 493709.000000 0 0 1
-26.261472 15.309432 -27.773319 41.175246 -0.527797 2.311104 0.100472 -0.036533 -248759.000000 0 0 1
-26.123762 13.950732 -28.196679 40.891645 -0.490495 2.331659 0.058964 -0.025057 -108918.000000 0 0 1
-26.878342 13.059632 -27.416909 40.554731 -0.452287 2.313181 0.033314 -0.023641 -175206.000000 0 0 1
-26.450912 11.586532 -27.619509 39.959177 -0.412863 2.333935 0.050450 -0.023439 21196.300000 0 0 1
-25.423052 11.242132 -26.729049 38.563703 -0.416350 2.336597 0.050387 -0.028275 -20002.200000 0 0 1
-24.611562 10.166332 -27.193539 38.060109 -0.391724 2.366690 0.045425 -0.019852 168271.000000 0 0 1
-23.586662 9.643432 -26.170269 36.526832 -0.388113 2.369521 0.076540 -0.022501 -33026.400000 0 0 1
-24.067762 8.650332 -25.333529 35.998238 -0.345038 2.351449 0.057596 -0.016154 353656.000000 0 0 1
-22.949962 8.152432 -24.595799 34.613816 -0.341323 2.361115 0.103701 -0.008474 654105.000000 0 0 1
-23.292362 7.037032 -23.576799 33.880960 -0.293398 2.340429 0.105285 -0.004148 215446.000000 0 0 1
-23.782862 5.894132 -24.307399 34.513983 -0.242936 2.352200 0.095966 -0.021255 523171.000000 0 0 1
-24.220762 4.829232 -23.398999 34.021758 -0.196803 2.329203 0.102009 -0.012974 -153162.000000 0 0 1
35.659152 24.819381 -10.031699 44.589369 0.608048 1.797718 0.066189 -0.011898 -570245.000000 0 0 1
36.547922 24.252681 -9.141299 44.805207 0.585867 1.776262 0.072453 -0.009516 -632828.000000 0 0 1
-36.790792 23.481681 -9.900699 44.754615 -0.568070 1.793864 0.076433 -0.011366 -148336.000000 0 0 1
-35.760503 22.847381 -8.952299 43.370037 -0.568532 1.778708 0.069108 -0.014531 -110530.000000 0 0 1
-36.299152 21.834681 -8.142399 43.135605 -0.541537 1.760699 0.076728 -0.019457 1003580.000000 0 0 1
-35.237138 21.287781 -7.278499 41.806723 -0.543450 1.745787 0.074284 -0.009233 695848.000000 0 0 1
-35.760130 20.428181 -6.062699 41.627561 -0.519016 1.716958 0.079389 0.006082 -25472.900000 0 0 1
-36.308682 19.184081 -6.402799 41.561343 -0.486078 1.725469 0.066525 -0.000239 254574.000000 0 0 1
-36.720862 18.484781 -5.258299 41.445851 -0.466353 1.698011 0.075745 -0.005631 18005.600000 0 0 1
36.716322 17.180381 -5.585799 40.920105 0.437658 1.707729 0.067742 0.005654 986230.000000 0 0 1
35.433332 17.438481 -6.192799 39.974647 0.457347 1.726341 0.061255 0.000856 734818.000000 0 0 1
34.984002 16.355681 -6.970399 39.242518 0.437327 1.749368 0.061322 0.000721 206313.000000 0 0 1
33.871272 16.735281 -7.984399 38.614549 0.458904 1.779071 0.046319 -0.008070 125602.000000 0 0 1
33.407992 15.643081 -8.746799 37.911825 0.437921 1.803608 0.065374 -0.017655 223468.000000 0 0 1
32.751472 16.250481 -9.898799 37.877742 0.460583 1.835202 0.072781 -0.010234 -510866.000000 0 0 1
32.253782 15.178681 -10.901699 37.276613 0.439854 1.867588 0.063814 -0.002276 237261.000000 0 0 1
31.057222 14.475581 -10.579899 35.861230 0.436157 1.870276 0.061812 0.002310 530472.000000 0 0 1
30.911312 13.870981 -9.300999 35.134341 0.421801 1.838717 0.062783 -0.004145 -972665.000000 0 0 1
29.778452 12.850181 -9.128399 33.692893 0.407385 1.845155 0.074761 0.006782 -258748.000000 0 0 1
30.127062 11.664881 -9.649499 33.716794 0.369414 1.861047 0.074502 0.005516 376949.000000 0 0 1
29.072522 10.695781 -9.491299 32.399013 0.352532 1.868107 0.095629 -0.000844 178662.000000 0 0 1
29.431182 9.231081 -9.949199 32.409781 0.303932 1.882816 0.102508 0.003328 19284.300000 0 0 1
30.480042 8.622481 -9.194999 32.983756 0.275686 1.853313 0.104175 -0.001928 586720.000000 0 0 1
30.695672 7.267281 -9.412199 32.918493 0.232472 1.860767 0.113622 -0.010760 -110575.000000 0 0 1
31.712512 6.648281 -8.396399 33.472117 0.206649 1.824352 0.133897 -0.021387 45455.100000 0 0 1
33.016112 7.049081 -8.743799 34.874163 0.210346 1.824225 0.119519 -0.014422 -331916.000000 0 0 1
33.955642 6.605781 -7.789899 35.458490 0.192142 1.792294 0.122779 -0.010968 17559.200000 0 0 1
35.417652 6.938281 -8.171399 37.004346 0.193449 1.793454 0.122805 -0.010766 121452.000000 0 0 1
35.875542 6.065381 -9.228899 37.536862 0.167484 1.819206 0.131058 -0.016337 603650.000000 0 0 1
-36.963872 6.232681 -9.357699 38.636003 -0.167044 1.815431 0.126484 -0.015791 -196002.000000 0 0 1
-36.451762 5.186681 -10.434099 38.268826 -0.141340 1.846945 0.139507 -0.033850 585088.000000 0 0 1
-35.074629 5.327281 -10.808099 37.086716 -0.150732 1.866515 0.136853 -0.040078 1033870.000000 0 0 1
-34.652721 6.423081 -11.597099 37.102019 -0.183276 1.888697 0.117502 -0.042652 -309192.000000 0 0 1
-33.957512 7.603281 -10.885999 36.461315 -0.220273 1.873983 0.125735 -0.030715 -75792.800000 0 0 1
-34.879147 8.397881 -10.112699 37.273932 -0.236274 1.845548 0.118049 -0.016565 750502.000000 0 0 1
-35.422767 9.584081 -10.732299 38.233615 -0.264236 1.855323 0.108215 -0.022051 141025.000000 0 0 1
-36.135472 10.404581 -9.637699 38.818976 -0.280349 1.821693 0.087129 -0.012036 -326951.000000 0 0 1
-35.306105 10.879381 -8.641999 37.941615 -0.298912 1.800584 0.101985 -0.007785 -558067.000000 0 0 1
-36.007625 11.748581 -7.763699 38.663332 -0.315390 1.772974 0.087009 -0.004294 -191211.000000 0 0 1
-35.246141 12.723281 -6.822999 38.088393 -0.346426 1.750904 0.096559 -0.008501 -37877.900000 0 0 1
-34.521075 13.723981 -7.511799 37.900916 -0.378396 1.770313 0.079683 -0.006175 -98220.900000 0 0 1
-33.940712 14.705581 -6.683399 37.588481 -0.408857 1.749551 0.095195 -0.010840 -15142.300000 0 0 1
-33.120522 15.698881 -7.526699 37.417577 -0.442626 1.773332 0.071847 -0.006190 -179178.000000 0 0 1
-33.860222 16.579381 -8.340399 38.612858 -0.455327 1.788513 0.049343 -0.005461 -39154.700000 0 0 1
-33.092902 17.715281 -8.758299 38.544509 -0.491502 1.800024 0.042263 -0.000596 378439.000000 0 0 1
-33.748642 18.491081 -9.925699 39.741797 -0.501234 1.823223 0.029321 -0.005424 -14573.900000 0 0 1
-33.464432 17.820181 -11.153999 39.520106 -0.489317 1.856920 0.015232 -0.007679 -154123.000000 0 0 1
-34.197147 18.364681 -12.255299 40.705021 -0.492826 1.876617 0.017681 -0.007982 -488437.000000 0 0 1
-33.643422 18.306681 -13.670899 40.668267 -0.498332 1.913629 0.005947 -0.002219 -301000.000000 0 0 1
-32.609702 19.257581 -13.872299 40.332218 -0.533440 1.921918 0.006639 0.000455 196636.000000 0 0 1
-32.685522 19.796481 -15.148699 41.106291 -0.544575 1.948218 -0.003733 -0.000475 -870590.000000 0 0 1
-31.957512 21.122881 -15.181999 41.206211 -0.584047 1.948126 0.024381 -0.011060 -1150170.000000 0 0 1
-30.585252 20.966581 -15.065499 40.025298 -0.600937 1.956703 0.022298 -0.008117 -569073.000000 0 0 1
-29.945102 22.219781 -14.725799 40.090859 -0.638373 1.946912 0.026050 -0.012504 304293.000000 0 0 1
-29.105952 22.832481 -15.890399 40.261439 -0.665194 1.976516 0.030944 -0.007210 -243641.000000 0 0 1
-29.969262 23.365881 -16.929499 41.602032 -0.662216 1.989897 0.040877 -0.002386 637443.000000 0 0 1
-29.344112 24.155481 -17.922999 42.021401 -0.688716 2.011439 0.045257 0.002725 -268882.000000 0 0 1
-28.677062 25.514281 -17.560699 42.210551 -0.727101 1.999867 0.060179 0.000162 -53712.500000 0 0 1
-29.552742 26.501181 -17.091899 43.218170 -0.731012 1.977386 0.069290 -0.006962 50591.000000 0 0 1
-28.871042 27.746681 -16.995499 43.500143 -0.765542 1.972188 0.068260 -0.009973 120419.000000 0 0 1
-29.769462 28.845681 -16.413299 44.583524 -0.769639 1.947812 0.068058 -0.017286 -264555.000000 0 0 1
-29.621172 28.974181 -15.039299 44.080580 -0.774357 1.918966 0.063937 -0.015040 379640.000000 0 0 1
-28.579812 29.848481 -14.617199 43.833777 -0.807108 1.910777 0.053746 -0.013559 5549.490000 0 0 1
-28.747722 30.348881 -13.158799 43.825108 -0.812485 1.875758 0.062928 -0.019189 -142865.000000 0 0 1
-29.853452 31.227381 -13.116299 45.148812 -0.807888 1.865559 0.049273 -0.020535 152491.000000 0 0 1
-29.965552 31.991381 -11.921999 45.425949 -0.818084 1.836356 0.039324 -0.018404 -204944.000000 0 0 1
-28.985702 33.173181 -11.852699 45.619265 -0.852664 1.833630 0.038624 -0.024371 -115207.000000 0 0 1
-29.174192 33.987481 -12.965999 46.630457 -0.861457 1.852569 0.032333 -0.033272 132454.000000 0 0 1
-28.428422 -32.869970 -13.066899 45.380105 0.857730 1.862875 0.073481 -0.028238 24437.800000 0 0 1
-28.602702 -32.187970 -14.456499 45.422135 0.844307 1.894700 0.048401 -0.028777 -166060.000000 0 0 1
-27.961252 -32.779470 -15.556599 45.807565 0.864557 1.917296 0.042742 -0.023459 -172828.000000 0 0 1
-28.055882 -31.987270 -16.701999 45.708585 0.850781 1.944861 0.042314 -0.008810 670964.000000 0 0 1
-27.055342 -32.538070 -17.832999 45.920947 0.877142 1.969627 0.041930 -0.015075 629424.000000 0 0 1
-27.362042 -33.796470 -18.423799 47.226254 0.890222 1.971556 0.041527 -0.007609 -102506.000000 0 0 1
-26.900622 33.184781 -17.617199 46.208645 -0.889606 1.961948 0.029398 -0.019804 -592043.000000 0 0 1
-27.031572 31.813281 -18.309599 45.585438 -0.866480 1.984119 0.042811 -0.029873 728041.000000 0 0 1
-28.343472 31.312481 -18.639799 46.165637 -0.835126 1.986418 0.050863 -0.021143 645135.000000 0 0 1
-29.018792 32.096681 -19.598099 47.501292 -0.835718 1.996081 0.046999 -0.013403 -1631680.000000 0 0 1
-30.492282 31.819481 -19.676799 48.264222 -0.806694 1.990718 0.047970 -0.026482 -1031300.000000 0 0 1
-30.814752 30.576281 -20.263199 47.906734 -0.781514 2.007519 0.053143 -0.023881 -399406.000000 0 0 1
-32.176342 30.286981 -20.170099 48.574182 -0.755160 1.999006 0.065900 -0.021378 -503418.000000 0 0 1
-32.507672 29.070881 -21.035199 48.418432 -0.729645 2.020220 0.075854 -0.025306 -307585.000000 0 0 1
-33.840652 28.633681 -21.118899 49.102804 -0.702245 2.015395 0.067792 -0.024422 -164651.000000 0 0 1
-33.991332 27.610481 -22.071299 49.039694 -0.682184 2.037640 0.077227 -0.021714 -619948.000000 0 0 1
-35.283960 26.820881 -21.999699 49.480343 -0.649962 2.031541 0.098844 -0.028404 -182397.000000 0 0 1
-36.422452 27.525281 -22.468899 50.883078 -0.647154 2.028154 0.077030 -0.015719 -552689.000000 0 0 1
36.800202 26.679281 -22.817499 50.859387 0.627293 2.036038 0.088039 -0.019343 -29940.000000 0 0 1
35.886462 27.205281 -23.982599 51.020884 0.648661 2.060149 0.097061 -0.029113 352179.000000 0 0 1
36.535692 27.197381 -25.204919 52.056146 0.639911 2.076230 0.099138 -0.025729 43087.300000 0 0 1
35.574322 27.225281 -26.265439 51.929006 0.653226 2.101100 0.100893 -0.033924 428559.000000 0 0 1
36.147832 27.740981 -27.596649 53.271032 0.654564 2.115357 0.086417 -0.025588 -304540.000000 0 0 1
37.095812 26.921681 -28.192949 53.811882 0.627789 2.122239 0.081627 -0.010085 -426018.000000 0 0 1
-36.468342 27.409781 -29.303389 54.221073 -0.644527 2.141760 0.056493 -0.003775 -785397.000000 0 0 1
-36.203992 26.288581 -30.295879 54.033868 -0.628044 2.166007 0.046316 -0.007561 75071.300000 0 0 1
-35.286819 25.248181 -29.989119 52.744455 -0.621062 2.175568 0.060240 -0.009782 -573811.000000 0 0 1
-33.972312 25.724381 -30.024769 52.128194 -0.648103 2.184598 0.038807 0.002500 -1053760.000000 0 0 1
-33.046172 24.873581 -29.157639 50.605459 -0.645222 2.184838 0.033082 0.002920 -272388.000000 0 0 1
-32.756682 23.540181 -29.642639 50.058231 -0.623125 2.204537 0.061994 -0.006093 116777.000000 0 0 1
-33.082142 22.519481 -28.723779 49.260640 -0.597665 2.193333 0.056437 -0.000129 -66982.300000 0 0 1
-32.673892 21.143781 -29.327059 48.731090 -0.574345 2.216567 0.055889 -0.013091 42586.300000 0 0 1
-31.297132 20.846081 -29.196359 47.607741 -0.587589 2.230989 0.100783 -0.015839 55115.900000 0 0 1
-31.003852 19.545681 -29.692289 47.168894 -0.562493 2.251691 0.087381 -0.030737 -380753.000000 0 0 1
-29.515142 19.185281 -29.699019 46.057034 -0.576386 2.271599 0.116424 -0.032129 -883570.000000 0 0 1
-28.819762 19.626581 -30.801299 46.524203 -0.597868 2.294346 0.133622 -0.041718 -281465.000000 0 0 1
-27.551092 19.008181 -30.911669 45.562100 -0.603932 2.316449 0.122826 -0.040772 -585.109000 0 0 1
-27.349102 17.593081 -31.488129 45.265795 -0.571635 2.340089 0.101338 -0.035044 -510115.000000 0 0 1
-27.916122 16.663081 -30.612509 44.655278 -0.538136 2.326127 0.075063 -0.031985 36361.000000 0 0 1
-27.963902 15.382681 -31.233329 44.655656 -0.502913 2.345390 0.048603 -0.025465 -61674.400000 0 0 1
-28.626652 14.183581 -30.520709 44.183401 -0.460015 2.333354 0.056865 -0.023055 -789706.000000 0 0 1
-30.022452 14.211781 -30.478909 45.080886 -0.442119 2.313245 0.056234 -0.025647 -222109.000000 0 0 1
-30.699872 12.951581 -30.447909 45.136469 -0.399223 2.311184 0.044421 -0.019578 142183.000000 0 0 1
-30.441052 12.068281 -29.249729 43.907263 -0.377440 2.299859 0.038161 -0.028072 -570155.000000 0 0 1
-31.040402 12.651981 -28.079609 43.726922 -0.387038 2.268107 0.035337 -0.024463 430186.000000 0 0 1
-31.077612 11.830581 -26.952509 42.804420 -0.363740 2.251920 0.030174 -0.014211 -61479.700000 0 0 1
-30.780662 12.649481 -25.672889 42.030415 -0.389915 2.227888 0.017796 -0.018445 407994.000000 0 0 1
-29.414812 12.965081 -25.434579 40.990759 -0.415149 2.240171 0.017349 -0.022122 118488.000000 0 0 1
-29.282262 13.549281 -24.180299 40.320228 -0.433376 2.213931 0.020879 -0.014506 35053.800000 0 0 1
-27.835572 13.703381 -23.665299 39.021124 -0.457467 2.222415 0.036998 -0.010024 -260926.000000 0 0 1
-27.077972 14.690081 -24.410699 39.305182 -0.497075 2.240885 0.057597 -0.021720 942422.000000 0 0 1
-25.667302 14.766181 -24.190999 38.236827 -0.522053 2.255783 0.069817 -0.029707 857189.000000 0 0 1
-25.325772 15.279381 -22.781999 37.334618 -0.542852 2.227123 0.071723 -0.024962 -1127450.000000 0 0 1
-25.607772 16.644181 -22.586199 37.985829 -0.576351 2.207559 0.081036 -0.024828 125973.000000 0 0 1
-25.849382 16.850081 -21.211299 37.443758 -0.577679 2.173030 0.071038 -0.012146 330955.000000 0 0 1
-27.335002 16.876681 -20.772199 38.255836 -0.553117 2.144779 0.067814 -0.010970 -398232.000000 0 0 1
-28.185252 15.812281 -20.883499 38.478010 -0.511259 2.144491 0.064672 -0.012648 106020.000000 0 0 1
-29.377372 16.106781 -20.137199 39.089196 -0.501515 2.111991 0.050898 -0.004334 71384.000000 0 0 1
-30.459612 15.012581 -20.403099 39.616310 -0.457926 2.111825 0.011287 -0.002779 63521.400000 0 0 1
-31.074552 14.959681 -21.658399 40.724761 -0.448667 2.131549 0.010550 0.001429 372885.000000 0 0 1
-32.035032 15.989381 -21.878099 41.958966 -0.462945 2.119307 -0.001238 0.004823 -299122.000000 0 0 1
-32.496432 16.133481 -23.346299 43.143447 -0.460819 2.142579 0.004471 0.001523 -343388.000000 0 0 1
-33.328122 15.086681 -23.755899 43.620115 -0.425073 2.146719 0.017715 0.001832 -100352.000000 0 0 1
-33.864162 15.413281 -25.045039 44.850917 -0.427129 2.163260 0.037568 -0.016210 899818.000000 0 0 1
-35.124193 14.548881 -25.518989 45.788619 -0.392698 2.161953 0.034838 -0.007541 840662.000000 0 0 1
-35.077362 13.179481 -25.637989 45.402935 -0.359407 2.170838 0.040705 -0.011085 -167311.000000 0 0 1
-34.990978 12.481081 -24.380099 44.435742 -0.342626 2.151557 0.028323 -0.002550 -199374.000000 0 0 1
-35.060761 10.998481 -24.637999 44.240870 -0.303976 2.161452 0.037723 -0.009035 983949.000000 0 0 1
-36.352372 10.506181 -25.077079 45.395316 -0.281344 2.156056 0.040026 -0.009366 908534.000000 0 0 1
-36.272752 9.381781 -25.947489 45.574144 -0.253099 2.176507 0.052378 -0.005124 -4814.430000 0 0 1
36.559762 8.893381 -26.307629 45.910781 0.238621 2.180978 0.073256 0.001889 160366.000000 0 0 1
35.889402 8.116381 -25.342389 44.678424 0.222409 2.173920 0.056951 0.001762 96463.800000 0 0 1
34.828162 7.363181 -25.903289 44.024967 0.208347 2.199847 0.077865 0.004673 -156245.000000 0 0 1
34.173032 6.405881 -24.917999 42.775439 0.185304 2.192635 0.089817 -0.000616 -31942.000000 0 0 1
34.951192 5.303381 -24.514299 43.019328 0.150588 2.177112 0.080265 -0.007872 113282.000000 0 0 1
34.101302 4.403081 -23.825899 41.832516 0.128407 2.176760 0.086138 -0.006817 259521.000000 0 0 1
34.791942 3.282181 -23.003399 41.837882 0.094059 2.152948 0.072472 -0.008689 120686.000000 0 0 1
35.549192 2.354581 -23.762999 42.824868 0.066138 2.159025 0.076712 -0.011580 54849.400000 0 0 1
36.657162 1.904281 -23.022699 43.329188 0.051902 2.130982 0.093248 -0.012152 129042.000000 0 0 1
-36.915372 0.629281 -23.581499 43.808993 -0.017045 2.139191 0.104980 -0.015814 -414506.000000 0 0 1
36.455342 -0.426619 -23.585199 43.421603 -0.011702 2.145001 0.084060 -0.016600 -440301.000000 0 0 1
37.029322 -1.632319 -24.056299 44.187563 -0.044053 2.146486 0.091849 -0.020799 96910.200000 0 0 1
-23.593362 29.260281 27.236765 46.418231 -0.892209 0.943734 0.078477 -0.016431 104789.000000 0 0 1
-24.961262 29.536081 26.907295 47.111010 -0.869148 0.962894 0.059536 -0.018423 1039830.000000 0 0 1
-25.339432 29.193781 25.578915 46.353474 -0.855960 0.986248 0.058078 -0.017700 -205447.000000 0 0 1
-25.659942 27.752181 25.234605 45.446689 -0.824550 0.982124 0.072084 -0.018839 299609.000000 0 0 1
-26.870702 27.190781 25.789995 46.113957 -0.791319 0.977296 0.077384 -0.013694 792818.000000 0 0 1
-26.895532 26.796381 27.124735 46.660122 -0.783551 0.950439 0.088621 -0.015880 -753515.000000 0 0 1
-26.173382 25.502681 27.534515 45.755680 -0.772420 0.925078 0.083276 -0.012629 139151.000000 0 0 1
-24.801462 25.604281 27.851125 45.236898 -0.801324 0.907557 0.083899 -0.007801 -117215.000000 0 0 1
-24.684662 25.876981 29.229185 46.187617 -0.808975 0.885586 0.084582 -0.012959 -1230900.000000 0 0 1
-23.295162 25.709481 29.746145 45.699838 -0.834626 0.862023 0.073120 -0.003727 -1802860.000000 0 0 1
-22.315762 26.639681 29.327465 45.472696 -0.873493 0.869843 0.086917 -0.006452 367436.000000 0 0 1
-21.097962 26.453781 30.036405 45.245024 -0.897557 0.844827 0.112703 -0.008522 971340.000000 0 0 1
-20.176462 25.192081 29.663575 43.836723 -0.895504 0.827548 0.085120 0.005840 -67482.700000 0 0 1
-19.618062 25.350081 28.356065 42.796745 -0.912183 0.846544 0.082182 0.000471 66993.200000 0 0 1
-20.061062 24.350881 27.414445 41.796692 -0.881691 0.855422 0.080936 -0.004253 -19119.100000 0 0 1
-19.705762 22.847281 27.607475 40.896063 -0.859090 0.829744 0.057773 0.009836 154533.000000 0 0 1
-20.406162 22.166781 28.645245 41.573161 -0.826730 0.810644 0.048737 0.007348 98717.400000 0 0 1
-20.179662 20.793381 28.542295 40.672424 -0.800376 0.792931 0.064849 -0.002794 174537.000000 0 0 1
-20.729562 20.017481 29.759585 41.425200 -0.767924 0.769306 0.073245 -0.011135 267411.000000 0 0 1
-19.834462 20.097781 30.864585 41.832396 -0.791992 0.740968 0.053172 -0.008956 110097.000000 0 0 1
-20.386862 19.565881 32.036878 42.717788 -0.764852 0.722786 0.051677 -0.015752 -220048.000000 0 0 1
-19.794562 20.100481 33.335499 43.670465 -0.793066 0.702326 0.044398 -0.009148 -490169.000000 0 0 1
-19.982362 21.504381 33.536465 44.569358 -0.822069 0.719014 0.021834 -0.003415 223998.000000 0 0 1
-19.085962 22.441281 32.906524 44.167006 -0.866021 0.730190 0.043522 0.004139 42018.100000 0 0 1
-17.610862 22.547081 33.370154 43.955438 -0.907705 0.708742 0.039255 0.008173 732937.000000 0 0 1
-16.873162 21.295981 33.227077 42.921569 -0.900758 0.685449 0.047069 -0.015027 390265.000000 0 0 1
-15.553462 21.442481 33.738769 42.895160 -0.943254 0.665610 0.045252 -0.011760 512578.000000 0 0 1
-14.576562 20.220481 33.445713 41.712825 -0.946193 0.640480 0.043778 -0.015905 1434550.000000 0 0 1
-13.218162 20.196681 33.919955 41.631588 -0.991284 0.618473 0.039887 -0.023349 877947.000000 0 0 1
-12.993062 20.399781 -32.578569 40.575041 -1.003670 2.502977 0.051504 -0.027151 -708773.000000 0 0 1
-11.516162 20.257781 -32.202909 39.749554 -1.053875 2.515196 0.050295 -0.027739 -80646.000000 0 0 1
-10.726962 21.327981 -32.706809 40.493035 -1.104789 2.511061 0.048570 -0.021686 1348660.000000 0 0 1
-9.335162 21.204381 -32.274489 39.729255 -1.156083 2.518985 0.043586 -0.019398 1646770.000000 0 0 1
-8.504462 22.540981 -32.347509 40.333399 -1.210020 2.501437 0.051219 -0.022857 259781.000000 0 0 1
-8.792562 23.557481 -31.420289 40.242995 -1.213571 2.466684 0.062451 -0.019751 -34787.200000 0 0 1
-8.460762 23.145381 -30.108939 38.908115 -1.220337 2.455689 0.062974 -0.022941 -121672.000000 0 0 1
-8.117762 24.322981 -29.198239 38.859267 -1.248672 2.420954 0.068557 -0.024981 -9922.590000 0 0 1
-6.899762 24.885281 -29.617369 39.294688 -1.300328 2.424507 0.072855 -0.020949 -140126.000000 0 0 1
-6.352862 25.808281 -28.675759 39.098918 -1.329439 2.394129 0.096904 -0.017844 -206691.000000 0 0 1
-5.062562 26.449281 -29.175549 39.703988 -1.381677 2.396207 0.100365 -0.021139 -549821.000000 0 0 1
-3.916062 25.662581 -28.966199 38.896585 -1.419366 2.410878 0.097757 -0.012704 1398630.000000 0 0 1
-2.635362 26.025381 -29.570729 39.480294 -1.469879 2.417347 0.104296 -0.016366 1914890.000000 0 0 1
-1.944062 27.358581 -29.146489 40.022359 -1.499857 2.386569 0.102533 -0.027371 -432440.000000 0 0 1
-1.471862 27.434681 -27.817649 39.097950 -1.517198 2.362407 0.110651 -0.038641 -63650.200000 0 0 1
-0.772962 28.613881 -27.636609 39.788615 -1.543789 2.338640 0.100145 -0.030200 -1010030.000000 0 0 1
-0.178162 28.685781 -26.195969 38.847582 -1.564586 2.310849 0.118655 -0.046243 263619.000000 0 0 1
0.987838 27.922281 -25.953239 38.133978 1.535433 2.319351 0.148328 -0.051494 -103922.000000 0 0 1
2.165838 28.365981 -26.563329 38.922104 1.494591 2.321939 0.142437 -0.048390 -980274.000000 0 0 1
3.374638 28.327181 -25.627739 38.348382 1.452224 2.302701 0.124693 -0.055455 -451959.000000 0 0 1
3.927038 27.084581 -25.311359 37.278158 1.426808 2.317177 0.150527 -0.047916 -87155.000000 0 0 1
4.960738 27.281281 -24.383799 36.924882 1.390925 2.292097 0.130519 -0.040217 -145213.000000 0 0 1
5.562238 26.029381 -23.758999 35.678526 1.360272 2.299521 0.129819 -0.038229 -2079480.000000 0 0 1
6.823438 26.144081 -23.335599 35.701855 1.315498 2.283160 0.107632 -0.036481 -2052330.000000 0 0 1
7.359738 24.902781 -22.916699 34.633645 1.283437 2.293865 0.097488 -0.021193 -143611.000000 0 0 1
8.838538 24.981581 -22.537799 34.787233 1.230738 2.275589 0.090306 0.000502 -956813.000000 0 0 1
9.053538 25.742981 -21.379099 34.666028 1.232617 2.235361 0.088145 -0.007123 -115312.000000 0 0 1
10.339138 26.284781 -21.169899 35.298047 1.196035 2.213981 0.075676 -0.003724 -58224.300000 0 0 1
11.406138 25.307681 -20.627399 34.584221 1.147362 2.209854 0.061426 0.003291 -280885.000000 0 0 1
11.721738 24.272281 -21.574999 34.525691 1.120900 2.245796 0.056884 0.002089 -133538.000000 0 0 1
12.222738 23.172781 -20.821799 33.465212 1.085422 2.242336 0.053800 0.000827 -127532.000000 0 0 1
12.396238 21.957281 -21.708799 33.272524 1.056842 2.281615 0.055932 -0.005112 -950943.000000 0 0 1
11.231138 21.352381 -22.114999 32.728212 1.086574 2.312733 0.058709 -0.016115 -689551.000000 0 0 1
11.510738 20.392281 -23.181399 32.950258 1.056915 2.351145 0.057720 -0.021989 101761.000000 0 0 1
10.874338 20.723481 -24.622199 33.970084 1.087557 2.381570 0.061432 -0.024843 -88654.000000 0 0 1
9.492338 20.518881 -24.503699 33.340070 1.137502 2.396408 0.060231 -0.028523 -185946.000000 0 0 1
8.824338 20.836981 -25.729969 34.264852 1.170202 2.420242 0.057941 -0.031496 1061530.000000 0 0 1
7.313038 20.345381 -25.801889 33.662331 1.225733 2.444157 0.080109 -0.040400 1739470.000000 0 0 1
6.273138 21.203781 -25.299549 33.600890 1.283151 2.423319 0.097799 -0.040402 521103.000000 0 0 1
6.248938 21.359581 -23.873799 32.638003 1.286180 2.391275 0.096591 -0.039473 -720188.000000 0 0 1
4.834838 21.726781 -23.414399 32.305770 1.351835 2.381503 0.124353 -0.048164 -250526.000000 0 0 1
4.332338 23.006081 -23.709599 33.319574 1.384663 2.362543 0.126327 -0.042579 1178140.000000 0 0 1
2.900138 23.129381 -23.529699 33.121380 1.446060 2.360874 0.152314 -0.047620 984418.000000 0 0 1
2.221038 24.352181 -24.065199 34.308826 1.479843 2.348197 0.134451 -0.046189 -221564.000000 0 0 1
0.814438 24.246381 -23.958899 34.096615 1.537219 2.349949 0.157416 -0.058736 91955.400000 0 0 1
0.197138 24.955881 -25.050049 35.360145 1.562897 2.358062 0.142906 -0.044317 981858.000000 0 0 1
-1.354462 24.874781 -25.244399 35.466449 -1.516399 2.362829 0.155318 -0.041264 820479.000000 0 0 1
-1.782162 23.601681 -25.693379 34.933726 -1.495429 2.397185 0.175836 -0.046783 777064.000000 0 0 1
-3.004062 23.733481 -26.472189 35.680237 -1.444891 2.406739 0.161772 -0.035511 918842.000000 0 0 1
-3.538162 22.451381 -27.086949 35.359383 -1.414490 2.443465 0.147640 -0.032723 -161740.000000 0 0 1
-2.775462 21.852181 -28.165009 35.755961 -1.444462 2.477865 0.179153 -0.046187 -131440.000000 0 0 1
-3.223462 20.652481 -28.694909 35.500895 -1.415964 2.512033 0.138601 -0.042594 -441920.000000 0 0 1
-4.446562 20.698981 -29.637949 36.422902 -1.359192 2.521316 0.097340 -0.028948 -58194.000000 0 0 1
-4.236262 21.181981 -30.953099 37.745418 -1.373407 2.532293 0.094892 -0.029418 -163643.000000 0 0 1
-3.857162 22.506081 -31.149619 38.622535 -1.401062 2.509028 0.128658 -0.037384 -97701.800000 0 0 1
-3.541162 22.893981 -32.555129 39.956359 -1.417336 2.523124 0.111061 -0.034399 -616436.000000 0 0 1
-2.531562 22.087781 -33.036769 39.820937 -1.456681 2.549247 0.106622 -0.031900 -337122.000000 0 0 1
-2.081962 22.347181 33.508763 40.330736 -1.477900 0.590164 0.101031 -0.019390 -329063.000000 0 0 1
-0.925662 21.477681 33.053399 39.429365 -1.527724 0.576650 0.118822 -0.017521 -568365.000000 0 0 1
-1.266862 20.145281 32.791621 38.506204 -1.507993 0.551779 0.107291 -0.014583 165328.000000 0 0 1
-0.182762 19.332381 32.343816 37.681518 -1.561343 0.538757 0.114751 -0.011795 304709.000000 0 0 1
-0.632462 17.889781 31.920536 36.597335 -1.535458 0.511095 0.110617 -0.007734 -129012.000000 0 0 1
-1.400062 17.888481 30.761925 35.612554 -1.492689 0.528044 0.092147 -0.008195 -216903.000000 0 0 1
-1.697962 16.554081 30.486085 34.732147 -1.468583 0.499654 0.074568 -0.009663 -446598.000000 0 0 1
-2.693562 16.340181 29.316165 33.670378 -1.407423 0.514211 0.070381 -0.007759 -524135.000000 0 0 1
-4.023862 16.656081 29.540995 34.150943 -1.333753 0.525621 0.039796 -0.012601 -715087.000000 0 0 1
-4.317062 18.042581 29.399675 34.763669 -1.335941 0.562919 0.049282 -0.016126 390756.000000 0 0 1
-5.812262 18.394481 29.723205 35.434563 -1.264745 0.575685 0.024819 -0.023707 1099740.000000 0 0 1
-6.774962 17.959581 28.784385 34.597507 -1.210069 0.588132 0.011338 -0.019089 -706930.000000 0 0 1
-8.053762 18.434681 29.100045 35.376732 -1.158906 0.604870 0.016492 -0.028923 -317168.000000 0 0 1
-9.098062 17.826481 28.123255 34.517758 -1.098889 0.618503 0.015184 -0.024349 14545.800000 0 0 1
-9.355662 16.404481 28.335885 34.052280 -1.052493 0.587861 0.021998 -0.031472 -202892.000000 0 0 1
-10.290262 16.031281 29.311405 34.957831 -1.000146 0.576310 0.027253 -0.026240 -542249.000000 0 0 1
-10.686562 14.583281 29.300525 34.429573 -0.938397 0.552857 0.017539 -0.021417 179531.000000 0 0 1
-9.594162 13.687081 29.507305 33.912611 -0.959423 0.515395 0.025273 -0.014250 -1332.040000 0 0 1
-9.083662 13.529681 30.820695 34.863741 -0.979532 0.486375 0.028029 -0.015786 -650380.000000 0 0 1
-9.865962 13.289081 32.124233 36.137283 -0.932170 0.475749 0.059277 -0.023886 -553994.000000 0 0 1
-10.244962 11.929181 32.277826 35.904355 -0.861207 0.453328 0.058517 -0.014501 153179.000000 0 0 1
-10.566862 11.639681 33.638289 37.130516 -0.833672 0.437185 0.065122 -0.005547 -103445.000000 0 0 1
-11.068262 10.194781 33.884165 37.075283 -0.744341 0.417936 0.062885 -0.009880 -424187.000000 0 0 1
-10.071362 9.200881 33.739820 36.393186 -0.740261 0.384218 0.080567 -0.018508 -1725.290000 0 0 1
-9.881362 8.395381 -33.014009 35.468980 -0.704272 2.767352 0.110862 -0.020079 189896.000000 0 0 1
-8.981362 9.064081 -31.932409 34.387515 -0.789982 2.761431 0.097190 -0.028684 83910.000000 0 0 1
-9.660462 10.136181 -31.254529 34.247807 -0.809424 2.720394 0.080828 -0.026909 367684.000000 0 0 1
-8.804362 10.589181 -30.214799 33.205145 -0.877171 2.713944 0.075543 -0.035170 130912.000000 0 0 1
-7.706562 11.583181 -30.612119 33.625333 -0.983724 2.715019 0.055773 -0.026840 -283724.000000 0 0 1
-8.251762 12.768281 -31.141739 34.654416 -0.997047 2.687449 0.052497 -0.024872 -73072.600000 0 0 1
-7.274062 13.581981 -31.751009 35.291767 -1.079102 2.689814 0.029049 -0.021571 -287343.000000 0 0 1
-7.709562 14.982581 -32.118429 36.269941 -1.095562 2.658448 0.029027 -0.017184 -139450.000000 0 0 1
-8.484962 15.083281 -33.300049 37.528566 -1.058376 2.662309 0.036602 -0.024048 87627.900000 0 0 1
-8.634362 16.505881 -33.548149 38.372838 -1.088833 2.634722 0.046430 -0.027268 -1260600.000000 0 0 1
-9.190362 16.892281 32.958267 38.158345 -1.072527 0.528184 0.058886 -0.036575 1198120.000000 0 0 1
-10.517262 16.395581 32.679819 38.044690 -1.000441 0.537512 0.030226 -0.033129 656375.000000 0 0 1
-11.593462 16.887281 33.419938 39.197971 -0.969175 0.549868 0.044184 -0.036324 -668634.000000 0 0 1
-12.956562 16.490281 32.799893 38.931155 -0.904830 0.568870 0.058094 -0.035816 42334.600000 0 0 1
-13.189162 15.092581 32.920319 38.542021 -0.852599 0.546900 0.055712 -0.034826 782447.000000 0 0 1
-14.569562 14.734881 33.068051 39.024158 -0.791040 0.559776 0.053847 -0.018763 546071.000000 0 0 1
-14.866262 13.223181 32.929683 38.473657 -0.726970 0.543504 0.052653 -0.013969 35339.400000 0 0 1
-14.932662 12.808781 31.581905 37.208413 -0.708987 0.557115 0.024666 -0.016823 776182.000000 0 0 1
-13.745962 12.021581 31.342455 36.274225 -0.718577 0.527552 0.029556 -0.010813 696745.000000 0 0 1
-13.476462 11.369481 29.962955 34.765771 -0.700799 0.531886 0.015308 -0.001950 101749.000000 0 0 1
-14.256762 10.189381 29.730195 34.510336 -0.620527 0.532606 0.007747 0.001613 145085.000000 0 0 1
-14.085262 9.774881 28.384035 33.160162 -0.606674 0.543376 -0.006328 0.001977 377931.000000 0 0 1
-15.023762 8.624081 27.855115 32.802373 -0.521105 0.556366 0.011386 0.003675 634901.000000 0 0 1
-14.595262 7.348481 28.366735 32.736730 -0.466431 0.522627 0.001949 0.000170 -65745.000000 0 0 1
-15.340962 6.341781 27.761475 32.345986 -0.391995 0.538914 0.016917 0.006402 -395381.000000 0 0 1
-14.635062 5.024281 27.736355 31.760571 -0.330698 0.508871 0.025489 0.005064 185242.000000 0 0 1
-13.572962 4.858381 26.781945 30.415485 -0.343736 0.493803 0.021457 -0.008706 141429.000000 0 0 1
-13.970062 4.590281 25.414265 29.361849 -0.317466 0.524541 0.019829 -0.004960 -779044.000000 0 0 1
-12.955262 4.296081 24.304575 27.874854 -0.320198 0.511691 0.020132 0.007672 -466451.000000 0 0 1
-12.118462 3.180781 24.547565 27.560070 -0.256684 0.471929 0.025327 -0.000015 34426.200000 0 0 1
-11.713162 2.547381 23.334825 26.233593 -0.214146 0.474543 0.042781 -0.007913 -78964.200000 0 0 1
-10.674562 1.452081 23.627675 25.967708 -0.135202 0.427785 0.043565 -0.012689 732322.000000 0 0 1
-9.360862 1.923281 23.963775 25.798978 -0.202640 0.379459 0.047883 -0.018463 1212180.000000 0 0 1
-8.432662 0.883381 24.381355 25.813575 -0.104376 0.334676 0.049643 -0.012356 652298.000000 0 0 1
-6.990862 1.431381 24.288805 25.315352 -0.201959 0.285753 0.067258 -0.018678 -465802.000000 0 0 1
-6.509762 1.565181 22.907195 23.865590 -0.235957 0.284358 0.064722 -0.019786 234139.000000 0 1 0
-5.128762 1.843581 22.801645 23.443933 -0.345077 0.234618 0.058773 -0.017316 202010.000000 0 1 0
-4.559262 3.181981 23.340335 23.993397 -0.609326 0.233850 0.074382 -0.016652 -592718.000000 0 1 0
-4.337162 3.072481 24.734505 25.299147 -0.616347 0.211670 0.074338 -0.014145 17407.800000 0 0 1
-3.938162 4.284181 25.312825 25.973110 -0.827456 0.225966 0.081219 -0.012307 122244.000000 0 0 1
3.900338 -23.061319 12.772901 26.649279 -1.403253 1.070944 0.117992 -0.032950 165042.000000 0 0 1
3.705138 -24.248019 13.463201 27.981284 -1.419167 1.068830 0.119308 -0.031992 -226137.000000 0 0 1
2.394138 -24.737519 13.293801 28.185135 -1.474315 1.079624 0.112319 -0.033778 -300438.000000 0 0 1
2.137738 -26.041299 14.026901 29.655912 -1.488890 1.078117 0.104879 -0.035416 -27451.000000 0 0 1
2.013338 -25.895789 15.439801 30.216433 -1.493205 1.034479 0.124650 -0.034213 46129.000000 0 0 1
2.262438 -27.182469 15.953201 31.599206 -1.487756 1.041576 0.111388 -0.031785 -101441.000000 0 0 1
2.264538 -27.270499 17.534201 32.500099 -1.487947 1.000939 0.111400 -0.030810 173434.000000 0 0 1
3.381638 -26.591699 18.091101 32.339478 -1.444306 0.977120 0.124482 -0.038789 434848.000000 0 0 1
3.554338 -26.840919 19.476101 33.352462 -1.439140 0.947213 0.106835 -0.040349 -271144.000000 0 0 1
4.178738 -25.777099 20.319601 33.087865 -1.410084 0.909538 0.104711 -0.035979 -88083.700000 0 0 1
3.309138 -24.690919 20.667601 32.368836 -1.437568 0.878245 0.112147 -0.038353 137245.000000 0 0 1
3.920238 -23.815119 21.547001 32.354310 -1.407648 0.842003 0.116511 -0.035028 -165352.000000 0 0 1
2.980438 -22.784719 22.256701 31.990423 -1.440726 0.801360 0.125536 -0.038246 -369884.000000 0 0 1
2.209538 -21.919319 21.503801 30.785582 -1.470332 0.797494 0.117605 -0.041002 -491221.000000 0 0 1
2.876638 -20.999019 20.662301 29.600076 -1.434655 0.798127 0.091596 -0.025567 -324827.000000 0 0 1
2.007838 -19.992519 19.827701 28.228885 -1.470702 0.792046 0.063500 -0.032645 127195.000000 0 0 1
1.738138 -18.862919 20.632201 28.009258 -1.478910 0.742736 0.057170 -0.036960 -102423.000000 0 0 1
0.836738 -18.006019 19.976401 26.906754 -1.524360 0.734105 0.065431 -0.044687 1992.830000 0 0 1
0.760338 -16.611219 20.641901 26.506580 -1.525056 0.678131 0.058799 -0.039421 683595.000000 0 0 1
2.023838 -15.954119 20.560801 26.103186 -1.444617 0.663772 0.034968 -0.023578 528242.000000 0 0 1
1.759938 -14.669719 21.078501 25.741041 -1.451396 0.611361 0.049873 -0.018157 634523.000000 0 0 1
2.896138 -13.659419 20.717901 24.983970 -1.361865 0.593036 0.013717 -0.015033 -235995.000000 0 1 0
3.039738 -13.206119 19.371601 23.641076 -1.344560 0.610425 -0.002319 -0.014318 448594.000000 0 1 0
1.877638 -12.684519 18.678401 22.656239 -1.423838 0.601608 0.014519 -0.008239 981910.000000 0 1 0
1.095838 -11.519019 19.342101 22.538978 -1.475949 0.539117 0.018652 -0.009886 105072.000000 0 1 0
1.782538 -10.266619 19.179501 21.827371 -1.398885 0.497684 0.016628 -0.001607 151129.000000 0 1 0
1.392738 -9.360919 20.250901 22.353199 -1.423098 0.437176 0.029599 -0.011075 -170788.000000 0 1 0
0.052238 -8.669119 20.110101 21.899144 -1.564771 0.407018 0.040204 -0.020400 -402875.000000 0 1 0
-0.358762 -7.810619 21.187901 22.584544 1.524896 0.353522 0.040884 -0.026673 10163.400000 0 1 0
-1.742062 -7.517119 21.080401 22.448277 1.343070 0.350895 0.040991 -0.023473 292099.000000 0 1 0
-2.200462 -6.940619 22.454101 23.605102 1.263780 0.313567 0.039150 -0.013843 -149174.000000 0 1 0
-2.024762 -7.916419 23.415001 24.799831 1.320397 0.335761 0.049883 -0.014811 96767.400000 0 1 0
-2.282362 -7.420119 24.683101 25.875139 1.272390 0.304720 0.053726 -0.011043 -91537.300000 0 0 1
-2.481962 -8.542419 25.755101 27.248087 1.288036 0.332566 0.062109 -0.011442 17422.000000 0 0 1
-1.314562 -9.290419 26.000901 27.642120 1.430233 0.346326 0.065296 -0.012976 141896.000000 0 0 1
-1.609862 -10.218319 26.996401 28.910402 1.414534 0.365919 0.070452 -0.021693 -183995.000000 0 0 1
-0.425662 -11.171619 27.142801 29.355032 1.532713 0.390710 0.069189 -0.021462 1083600.000000 0 0 1
0.723138 -10.555719 27.826601 29.770217 -1.502396 0.363346 0.065584 -0.024809 1364710.000000 0 0 1
1.782938 -11.531519 27.981701 30.317163 -1.417397 0.395080 0.083983 -0.030792 790717.000000 0 0 1
2.845238 -10.871819 28.906901 31.014524 -1.314829 0.370783 0.095514 -0.039018 108435.000000 0 0 1
2.363038 -10.787419 30.215101 32.169934 -1.355148 0.350404 0.097707 -0.042802 -297639.000000 0 0 1
3.380838 -10.488519 31.122201 33.015609 -1.258975 0.340310 0.114205 -0.041001 -534514.000000 0 0 1
2.891538 -9.980719 32.454601 34.077512 -1.288804 0.309861 0.114834 -0.049298 -442836.000000 0 0 1
2.142538 -10.878719 33.224601 35.025863 -1.376337 0.322098 0.114361 -0.053062 -147051.000000 0 0 1
1.935638 -10.474719 -33.320444 34.981687 -1.388066 2.832175 0.097674 -0.054874 -399551.000000 0 0 1
3.136638 -10.372619 -32.348944 34.115743 -1.277143 2.818354 0.084636 -0.036992 -222469.000000 0 0 1
4.124938 -9.446019 -32.742244 34.326330 -1.159070 2.836610 0.075555 -0.045194 271962.000000 0 0 1
4.633338 -8.670619 -31.619544 33.112581 -1.080031 2.840154 0.086241 -0.042150 353907.000000 0 0 1
3.617238 -7.559419 -31.159544 32.266800 -1.124490 2.878862 0.077967 -0.034564 158322.000000 0 0 1
3.482538 -6.511119 -32.079344 32.918187 -1.079651 2.915355 0.098925 -0.042553 2458.540000 0 0 1
2.667938 -5.458119 -31.616044 32.194459 -1.116147 2.951749 0.079599 -0.022746 62814.000000 0 0 1
2.669438 -4.248519 -32.542744 32.927283 -1.009812 2.988614 0.078990 -0.026350 43910.100000 0 0 1
2.039638 -4.514619 -33.807744 34.168779 -1.146459 2.996094 0.086117 -0.036700 4980.380000 0 0 1
2.240438 -3.408519 33.226201 33.475632 -0.989303 0.122151 0.104122 -0.026411 355960.000000 0 0 1
1.597638 -3.606219 31.803901 32.047548 -1.153760 0.123388 0.109906 -0.026708 342906.000000 0 0 1
0.204738 -3.417519 31.782201 31.966070 -1.510960 0.107308 0.097127 -0.030690 -510994.000000 0 0 1
-0.384562 -3.839719 30.582901 30.825398 1.470975 0.125516 0.092624 -0.023446 141234.000000 0 0 1
-1.923762 -3.907319 30.540501 30.849476 1.113289 0.141650 0.067797 -0.021503 131707.000000 0 0 1
-2.552662 -2.642519 30.396301 30.617545 0.802693 0.120290 0.066341 -0.026751 -768091.000000 0 0 1
-3.904762 -2.866619 30.152001 30.538628 0.633269 0.159293 0.059573 -0.021563 -293663.000000 0 0 1
-4.681862 -1.726919 29.420101 29.840315 0.353371 0.168020 0.048942 -0.021647 -6586.090000 0 0 1
-4.480762 -1.793419 28.045801 28.458048 0.380721 0.170419 0.053224 -0.018305 283663.000000 0 0 1
-5.363762 -0.973119 27.240401 27.780503 0.179473 0.197510 0.050199 -0.016832 555803.000000 0 0 1
-5.477462 0.533281 27.564001 28.108026 -0.097053 0.197066 0.062831 -0.021111 -119605.000000 0 0 1
-6.531862 0.788281 28.459701 29.210292 -0.120102 0.227187 0.057858 -0.019807 -367997.000000 0 0 1
-6.813262 2.182081 28.469501 29.354633 -0.309948 0.246194 0.060968 -0.013388 12940.200000 0 0 1
-8.174662 2.477181 29.132301 30.358730 -0.294236 0.285212 0.044094 -0.014165 -208884.000000 0 0 1
-9.298062 2.071781 28.415001 29.969293 -0.219237 0.323473 0.031782 -0.007680 -868064.000000 0 0 1
-10.467262 2.634481 28.918401 30.867102 -0.246566 0.357233 0.027714 -0.003709 -1074570.000000 0 0 1
-11.659562 2.142981 28.132801 30.528548 -0.181767 0.398808 0.033540 -0.004454 -777993.000000 0 0 1
-11.916662 0.800681 28.431901 30.838627 -0.067089 0.397692 0.039227 -0.009572 -109200.000000 0 0 1
-12.353762 0.093481 27.293601 29.959386 -0.007567 0.425045 0.038585 -0.008171 -636555.000000 0 0 1
-12.238862 -1.416919 27.669901 30.288955 0.115259 0.418914 0.048446 -0.012597 747438.000000 0 0 1
-10.955562 -2.021019 27.873201 30.017065 0.182423 0.380232 0.059052 -0.017860 809294.000000 0 0 1
-9.904562 -1.919519 26.926401 28.754408 0.191428 0.358492 0.064952 -0.016430 -73136.900000 0 0 1
-9.958562 -2.782119 25.627901 27.635167 0.272424 0.383487 0.059621 -0.011342 -389094.000000 0 0 1
-10.880962 -2.244119 24.690701 27.075120 0.203391 0.422825 0.039109 -0.009904 339539.000000 0 0 1
-10.710262 -2.816919 23.415001 25.901873 0.257186 0.441788 0.043638 -0.011072 178591.000000 0 0 1
-9.557062 -2.232019 22.530901 24.575615 0.229434 0.410806 0.049441 -0.016292 656620.000000 0 1 0
-8.294462 -2.439719 23.145901 24.707955 0.286070 0.357487 0.054351 -0.016531 -28652.400000 0 1 0
-7.245662 -2.072919 22.251001 23.492630 0.278648 0.326570 0.048218 -0.015065 793092.000000 0 1 0
-5.792262 -2.228819 22.811201 23.640406 0.367328 0.265642 0.052788 -0.009218 461527.000000 0 1 0
-5.281962 -3.512819 22.823701 23.688823 0.586889 0.271089 0.046603 -0.008040 -233649.000000 0 1 0
-5.880062 -4.457519 23.736201 24.856625 0.648648 0.301391 0.054218 -0.010628 -50042.000000 0 1 0
-5.794462 -5.972619 23.295501 24.737185 0.800537 0.343089 0.065301 -0.008126 -312420.000000 0 1 0
-6.532162 -6.421019 22.190201 24.006325 0.776818 0.391473 0.062938 -0.013652 -331888.000000 0 1 0
-6.054162 -5.982019 20.947901 22.610882 0.779404 0.385921 0.048832 -0.013963 -372435.000000 0 1 0
-7.129462 -5.930419 19.838701 21.899158 0.693844 0.437269 0.041983 -0.019468 -2615.180000 0 1 0
-8.090262 -4.928619 20.126401 22.244452 0.547160 0.439927 0.049238 -0.019772 -578006.000000 0 1 0
-9.082162 -5.034119 19.134301 21.770381 0.506128 0.497215 0.041431 -0.014888 216726.000000 0 1 0
-9.856162 -3.695819 19.023201 21.741324 0.358749 0.505404 0.041646 -0.023559 55310.500000 0 1 0
-8.937362 -2.698219 18.722401 20.920925 0.293202 0.462561 0.037896 -0.017089 -220007.000000 0 1 0
-9.493062 -1.427519 18.895201 21.193977 0.149257 0.470071 0.032695 -0.009118 -99007.600000 0 1 0
-8.653862 -0.340219 18.182101 20.139361 0.039294 0.444527 0.031279 -0.014135 -111219.000000 0 1 0
-7.407762 0.040481 18.730001 20.141735 -0.005465 0.376628 0.030629 -0.013682 268435.000000 0 1 0
-7.492562 0.789981 19.987101 21.359933 -0.105047 0.360477 0.039261 -0.012274 -421328.000000 0 1 0
-7.591562 2.315581 19.803601 21.334862 -0.296056 0.381177 0.042332 -0.016981 503401.000000 0 1 0
-8.772962 2.716581 19.083301 21.178221 -0.300290 0.448540 0.034483 -0.014781 689178.000000 0 1 0
-8.713462 4.106281 18.769101 21.096566 -0.440390 0.474162 0.032476 -0.015293 -49044.200000 0 1 0
-9.589862 4.589481 17.607301 20.568078 -0.446362 0.543218 0.031111 -0.005519 1213980.000000 0 1 0
-10.963262 4.923081 17.974601 21.622121 -0.422066 0.589343 0.035054 0.003935 1302770.000000 0 1 0
-11.614362 5.688181 16.951301 21.321243 -0.455417 0.651718 0.035640 0.015395 37761.800000 0 1 0
-11.283562 7.228881 16.959101 21.614500 -0.569778 0.668718 0.029032 0.016979 -476603.000000 0 1 0
-9.952862 7.581481 16.703201 20.869481 -0.650972 0.642893 0.014623 0.008813 -110184.000000 0 1 0
-9.940362 8.940081 16.307301 21.087055 -0.732468 0.686716 0.002697 0.001436 527151.000000 0 1 0
-8.755962 9.835881 16.810401 21.354180 -0.843419 0.664511 0.007365 0.010437 404392.000000 0 1 0
-8.977562 10.221381 18.172101 22.700187 -0.850094 0.642623 0.033774 0.030361 -160916.000000 0 1 0
-8.370562 11.405581 18.659901 23.416778 -0.937679 0.648716 0.053612 0.026921 -53509.400000 0 1 0
-8.884362 12.723381 18.126201 23.861590 -0.961232 0.708038 0.055413 0.017008 128379.000000 0 1 0
-8.561762 12.943681 16.749701 22.834078 -0.986405 0.747281 0.038745 -0.001692 -468379.000000 0 1 0
-9.419462 13.883781 16.179901 23.308257 -0.974680 0.803530 0.056371 -0.016529 -149593.000000 0 1 0
-9.102062 14.174081 14.669601 22.337173 -0.999951 0.854315 0.057881 -0.022342 285636.000000 0 1 0
-7.871162 14.845081 14.490401 22.187910 -1.083266 0.859157 0.050511 -0.020455 -92247.100000 0 1 0
-7.670262 15.302581 13.133801 21.575417 -1.106157 0.916326 0.037353 -0.033931 -253743.000000 0 1 0
-6.663862 16.431581 12.888101 21.920471 -1.185513 0.942276 0.015142 -0.023810 -185325.000000 0 1 0
-5.349762 16.129681 13.290601 21.573749 -1.250542 0.907073 0.013981 -0.022756 -283226.000000 0 1 0
-4.628262 17.407581 13.413101 22.457871 -1.310932 0.930721 0.013198 -0.022336 1256100.000000 0 1 0
-3.093862 17.121981 13.623601 22.098342 -1.392030 0.906508 0.012385 -0.023522 575576.000000 0 1 0
-2.702862 16.567481 14.863401 22.421141 -1.409078 0.846085 0.016783 -0.023866 -209479.000000 0 1 0
-2.648062 15.195181 14.822601 21.391944 -1.398259 0.805285 0.023770 -0.022128 -295484.000000 0 1 0
-1.758962 14.545281 15.921001 21.636483 -1.450451 0.743889 0.018659 -0.017112 -552546.000000 0 1 0
-0.428462 14.395681 15.583201 21.219221 -1.541042 0.746028 0.014338 -0.025105 -915474.000000 0 1 0
0.431838 13.782181 16.545701 21.538227 1.539474 0.694769 0.020014 -0.012017 242713.000000 0 1 0
1.378238 14.717081 17.301901 22.756269 1.477420 0.707001 0.020248 -0.017435 -401247.000000 0 1 0
0.736038 15.712581 18.048201 23.940854 1.523987 0.716870 0.020678 -0.020406 -367445.000000 0 1 0
1.665038 16.669381 18.544401 24.990707 1.471241 0.734670 0.046208 -0.023273 -601530.000000 0 1 0
0.936838 17.886381 19.038601 26.139407 1.518467 0.754888 0.050559 -0.021182 -70920.300000 0 0 1
0.414038 18.659381 17.957401 25.900042 1.548611 0.804690 0.032587 -0.017001 756585.000000 0 0 1
-0.836262 18.153181 17.425501 25.177081 -1.524762 0.806378 0.039033 -0.011789 64377.000000 0 0 1
-1.654962 19.213481 16.662401 25.485925 -1.484873 0.858216 0.028425 -0.010603 106761.000000 0 0 1
-2.278562 20.273281 17.458601 26.851453 -1.458874 0.862959 0.027426 -0.009492 532970.000000 0 0 1
-2.891662 21.325481 16.663501 27.217827 -1.436022 0.911922 0.030976 -0.015261 -223448.000000 0 0 1
-3.604762 22.433081 17.468401 28.659771 -1.411469 0.915355 0.026336 -0.004334 -744681.000000 0 0 1
-4.726962 21.954781 18.140801 28.869452 -1.358729 0.891336 0.039165 -0.005750 -634253.000000 0 0 1
-5.171362 22.955681 19.017801 30.255298 -1.349219 0.891073 0.039619 0.002185 353133.000000 0 0 1
-6.463562 22.564681 19.801601 30.709052 -1.291820 0.870018 0.032327 0.000224 150906.000000 0 0 1
-7.669662 22.601981 19.072201 30.551958 -1.243653 0.896619 0.026762 -0.003908 -241755.000000 0 0 1
-8.690662 22.155781 19.953001 31.056859 -1.196987 0.873083 0.008312 -0.007677 148549.000000 0 0 1
-10.125162 22.496581 19.454301 31.417907 -1.147880 0.903059 0.021023 -0.013917 233498.000000 0 0 1
-10.369262 23.844981 19.714401 32.630696 -1.160603 0.922076 0.027155 -0.012255 -240786.000000 0 0 1
-11.487862 24.293581 18.994001 32.907767 -1.129082 0.955514 0.025135 -0.018409 -187506.000000 0 0 1
-11.898462 25.713581 19.348201 34.309103 -1.137406 0.971650 0.037220 -0.018814 -38137.700000 0 0 1
-12.652662 25.816181 20.547801 35.338042 -1.115095 0.950269 0.041011 -0.015708 321901.000000 0 0 1
-13.154462 27.119881 20.748001 36.592450 -1.119181 0.967934 0.047165 -0.026648 -275455.000000 0 0 1
-14.221062 27.280081 21.844701 37.731053 -1.090256 0.953346 0.080816 -0.037391 -238315.000000 0 0 1
-15.498662 26.710281 21.670501 37.726095 -1.045025 0.958905 0.077117 -0.033966 259610.000000 0 0 1
-16.183962 26.730581 22.930301 38.758783 -1.026381 0.937735 0.071458 -0.026305 1300900.000000 0 0 1
-17.711962 26.316381 22.951001 39.153722 -0.978395 0.944465 0.090881 -0.026407 1129820.000000 0 0 1
-17.968362 24.985081 22.516101 38.132547 -0.947324 0.939156 0.090709 -0.023516 -770398.000000 0 0 1
-19.323862 24.760281 22.746701 38.780092 -0.908098 0.943996 0.097217 -0.023522 -465426.000000 0 0 1
27.773638 24.253981 23.076735 43.499037 0.717851 1.011593 0.057630 -0.024706 -36209.200000 0 0 1
27.966938 23.608781 24.358655 43.964397 0.701098 0.983570 0.066504 -0.027918 255931.000000 0 0 1
27.747738 22.225681 24.177565 42.993866 0.675345 0.973572 0.063890 -0.026433 -360584.000000 0 0 1
27.523738 21.503281 25.539535 43.269101 0.663211 0.939429 0.091101 -0.038735 -17614.000000 0 0 1
26.302838 21.892281 26.148685 43.068143 0.694138 0.918331 0.084308 -0.031096 175704.000000 0 0 1
26.098238 21.385081 27.438865 43.489436 0.686463 0.888043 0.094759 -0.036861 -10321.700000 0 0 1
24.675138 21.609881 27.983735 43.115413 0.719269 0.864471 0.097758 -0.031616 73413.500000 0 0 1
24.208538 22.937781 28.278165 43.724704 0.758451 0.867504 0.103495 -0.038029 -42721.700000 0 0 1
22.989138 22.927481 28.980605 43.520631 0.784055 0.842090 0.109155 -0.024787 -250781.000000 0 0 1
22.677338 24.336681 29.521065 44.475038 0.820678 0.844952 0.107747 -0.018222 -1069110.000000 0 0 1
22.011838 25.140881 28.592225 43.978407 0.851661 0.863025 0.108514 -0.031862 -152280.000000 0 0 1
21.524038 26.265281 29.273535 44.834017 0.884286 0.859348 0.090337 -0.024175 36745.900000 0 0 1
20.268638 26.071181 30.165695 44.726875 0.909967 0.830587 0.085631 -0.020675 -995055.000000 0 0 1
19.059538 26.175881 29.413485 43.744666 0.941437 0.833363 0.083119 -0.016599 1212020.000000 0 0 1
17.869638 26.256281 30.237215 43.852086 0.973220 0.809960 0.075917 -0.013581 1096240.000000 0 0 1
17.398638 24.947181 30.974225 43.410564 0.961805 0.776290 0.049464 -0.013857 -493721.000000 0 0 1
18.181638 24.652081 32.116442 44.382011 0.935324 0.761740 0.033187 -0.009570 -146470.000000 0 0 1
17.488338 23.843681 32.955658 44.276839 0.937966 0.731296 0.036416 -0.022922 -674783.000000 0 0 1
18.022738 23.762781 -33.538209 44.880957 0.921913 2.414741 0.054388 -0.023012 -559591.000000 0 0 1
18.217938 25.043581 -32.982739 45.243069 0.941885 2.387674 0.063575 -0.017094 281500.000000 0 0 1
18.235238 24.876081 -31.623559 44.174572 0.938236 2.368676 0.039360 -0.007810 -248256.000000 0 0 1
18.330438 26.224881 -30.898259 44.479791 0.960761 2.338741 0.038012 -0.002276 -959707.000000 0 0 1
17.169838 26.979281 -30.931529 44.490948 1.004035 2.339539 0.056909 -0.011659 -355278.000000 0 0 1
17.424438 28.310081 -30.522339 45.129646 1.019068 2.313559 0.063510 -0.007119 35950.300000 0 0 1
16.847238 28.604481 -29.102499 44.147494 1.038525 2.290565 0.070846 -0.005625 -171311.000000 0 0 1
17.365738 27.802081 -28.073679 43.158499 1.012470 2.279011 0.038539 0.002451 255490.000000 0 0 1
17.020038 28.361381 -26.766939 42.550190 1.030294 2.251149 0.051426 -0.002637 -108572.000000 0 0 1
17.549938 27.520581 -25.554859 41.453993 1.003115 2.235039 0.044437 0.005112 446302.000000 0 0 1
18.969538 27.440881 -25.574929 42.034775 0.965942 2.224868 0.042609 0.010659 -142763.000000 0 0 1
19.458738 26.709181 -24.503199 41.139149 0.941171 2.208831 0.038484 0.012410 -1162380.000000 0 0 1
20.949538 26.886481 -24.434999 41.938469 0.908877 2.192769 0.032928 0.015152 -1216590.000000 0 0 1
21.512038 26.433881 -23.259799 41.261800 0.887694 2.169670 0.049410 0.013244 -358193.000000 0 0 1
22.885638 26.195481 -23.491699 41.973987 0.852732 2.164787 0.054479 0.014196 296264.000000 0 0 1
23.760238 26.040081 -22.207999 41.663293 0.831146 2.132980 0.072839 0.004071 163618.000000 0 0 1
23.594638 24.805381 -21.526999 40.440395 0.810408 2.132128 0.072668 0.008125 209509.000000 0 0 1
24.111738 24.977381 -20.210299 40.170906 0.803030 2.097988 0.079655 -0.000986 -39522.900000 0 0 1
23.709638 23.772981 -19.298699 38.726494 0.786732 2.092472 0.074061 -0.013847 -442321.000000 0 0 1
24.319738 22.516581 -19.440299 38.423578 0.746918 2.101276 0.079506 -0.010070 69846.700000 0 0 1
24.107138 21.761081 -18.248099 37.251737 0.734295 2.082724 0.082523 -0.012936 -914515.000000 0 0 1
24.012138 20.256781 -18.580199 36.498545 0.700770 2.104897 0.087103 -0.015317 6833.760000 0 0 1
23.087938 19.822881 -19.540199 36.163779 0.709455 2.141620 0.076178 -0.019137 -90285.200000 0 0 1
21.720438 20.005081 -19.223999 35.235534 0.744311 2.147884 0.070325 -0.030691 -620730.000000 0 0 1
20.797038 19.707581 -20.410399 35.177975 0.758508 2.189775 0.048397 -0.013667 -382829.000000 0 0 1
20.863338 20.530181 -21.563799 36.356081 0.777350 2.205734 0.050336 -0.008226 -100991.000000 0 0 1
20.755538 21.907581 -21.402199 36.997143 0.812395 2.187663 0.051644 -0.004645 -197284.000000 0 0 1
20.358838 22.605081 -22.741299 37.982084 0.837633 2.212720 0.051985 0.006041 375017.000000 0 0 1
18.984638 22.541281 -23.069299 37.426173 0.870838 2.234952 0.050678 0.006675 -273174.000000 0 0 1
18.684338 23.130281 -24.275199 38.384889 0.891325 2.255464 0.052838 0.007265 -87695.000000 0 0 1
17.168038 23.019281 -24.545099 37.776854 0.929981 2.278037 0.045754 0.004498 -305431.000000 0 0 1
16.528338 23.951681 -23.774199 37.577673 0.966766 2.255790 0.047197 -0.006836 -649036.000000 0 0 1
15.143438 24.001381 -23.982999 37.156080 1.007937 2.272430 0.050439 -0.006188 -162344.000000 0 0 1
14.408338 25.178181 -23.331199 37.227488 1.051028 2.248133 0.048985 -0.007329 -98580.700000 0 0 1
14.722938 26.439581 -23.785599 38.491182 1.062708 2.236928 0.044696 -0.005801 150624.000000 0 0 1
13.639738 27.319281 -23.526699 38.547259 1.107732 2.227278 0.066819 -0.012685 323292.000000 0 0 1
13.847038 28.648581 -24.207899 39.981296 1.120564 2.221166 0.064107 -0.021327 84392.300000 0 0 1
13.883238 28.576581 -25.630289 40.820057 1.118552 2.249629 0.064184 -0.029951 34682.700000 0 0 1
13.225238 29.691481 -26.289009 41.804342 1.151756 2.250880 0.082396 -0.033995 110233.000000 0 0 1
13.917638 31.093381 -26.274589 43.021542 1.149934 2.227780 0.087890 -0.031155 -238664.000000 0 0 1
15.104438 31.049081 -27.008989 43.836914 1.118031 2.234609 0.073589 -0.017795 -529428.000000 0 0 1
15.821738 32.241781 -27.078439 44.978903 1.114599 2.216832 0.080782 -0.025236 548142.000000 0 0 1
17.275138 32.175481 -27.647489 45.804756 1.078063 2.218798 0.076941 -0.010059 721807.000000 0 0 1
18.159238 31.433281 -26.813329 45.130519 1.046930 2.206978 0.043489 -0.007686 1063270.000000 0 0 1
19.538138 31.562181 -27.239599 46.042436 1.016497 2.203862 0.056121 -0.004530 914297.000000 0 0 1
20.426138 30.728381 -26.246059 45.280417 0.984134 2.189076 0.034577 0.005337 -510718.000000 0 0 1
20.662638 31.425581 -25.005399 45.163943 0.989160 2.157547 0.045478 -0.003957 361654.000000 0 0 1
21.613038 32.481881 -24.987199 46.330942 0.983680 2.140426 0.065133 -0.016779 848177.000000 0 0 1
23.148838 32.208181 -25.225409 47.005924 0.947613 2.137250 0.049211 -0.002802 680842.000000 0 0 1
23.408738 31.653981 -26.503649 47.459319 0.934037 2.163312 0.054380 0.000158 -370219.000000 0 0 1
24.449938 32.329081 -27.133349 48.776917 0.923286 2.160692 0.048489 0.011373 -666085.000000 0 0 1
24.663338 31.861881 -28.568309 49.392388 0.912067 2.187556 0.041670 0.009902 148783.000000 0 0 1
23.788538 32.369681 -29.590429 49.892728 0.937028 2.205676 0.060076 -0.012785 577648.000000 0 0 1
22.702338 31.465181 -29.795459 48.920580 0.945782 2.225668 0.049592 -0.010673 485663.000000 0 0 1
21.568338 31.925081 -30.768889 49.306476 0.976640 2.244690 0.064834 -0.011538 230765.000000 0 0 1
20.803938 33.077381 -30.360879 49.484341 1.009363 2.231339 0.079987 -0.017465 424498.000000 0 0 1
20.133838 33.724181 -31.459669 50.322983 1.032575 2.246127 0.096080 -0.028723 591342.000000 0 0 1
18.578938 33.497881 -31.355139 49.501816 1.064405 2.256753 0.100617 -0.027019 216592.000000 0 0 1
18.123238 32.182481 -31.443239 48.506094 1.057921 2.276058 0.086232 -0.020588 -53610.800000 0 0 1
18.481538 31.420081 -32.567349 48.881704 1.039093 2.299963 0.093799 -0.030067 -877702.000000 0 0 1
17.890538 31.838481 -33.936829 49.854474 1.058851 2.319538 0.111619 -0.037841 -324976.000000 0 0 1
18.272238 33.132381 33.535852 50.559695 1.066808 0.845587 0.116571 -0.034928 80971.600000 0 0 1
17.946938 33.439581 32.204993 49.774087 1.078224 0.867122 0.108186 -0.037842 341185.000000 0 0 1
16.493138 33.923581 31.930864 49.420775 1.118262 0.868330 0.107337 -0.040895 443595.000000 0 0 1
15.460038 32.948681 31.895923 48.393990 1.132078 0.851190 0.115566 -0.041214 659731.000000 0 0 1
14.116938 33.402281 31.998490 48.362213 1.170931 0.847789 0.105471 -0.041666 679116.000000 0 0 1
13.422838 -33.960970 30.841165 47.798509 -1.194397 0.869468 0.090448 -0.042966 -698385.000000 0 0 1
13.995638 -32.689970 30.446315 46.813354 -1.166275 0.862716 0.105116 -0.035389 638169.000000 0 0 1
13.092938 -31.953770 29.622855 45.497054 -1.181916 0.861772 0.102808 -0.038986 -305424.000000 0 0 1
13.647538 -30.608870 29.268055 44.494688 -1.151383 0.852919 0.091269 -0.030784 -248271.000000 0 0 1
13.529938 -29.744670 30.342665 44.592397 -1.143900 0.822427 0.079416 -0.029277 243990.000000 0 0 1
14.009038 -28.472370 30.045275 43.699514 -1.113551 0.812697 0.086642 -0.032275 -640892.000000 0 0 1
13.720238 -27.430070 31.163755 43.724516 -1.106997 0.777414 0.097808 -0.029497 -110454.000000 0 0 1
12.377138 -27.031570 31.367775 43.218475 -1.141411 0.758606 0.089217 -0.024755 142.418000 0 0 1
12.000638 -26.097070 30.391605 41.817724 -1.139785 0.757198 0.080831 -0.028481 -595833.000000 0 0 1
12.158138 -24.636170 30.894535 41.342877 -1.112356 0.726843 0.089145 -0.025317 -223089.000000 0 0 1
11.301038 -24.282070 31.958814 41.697700 -1.135204 0.697515 0.098581 -0.027223 25270.400000 0 0 1
11.466038 -22.898470 32.213685 41.152539 -1.106562 0.671664 0.105587 -0.031742 327010.000000 0 0 1
10.623838 -22.300770 33.396763 41.539548 -1.126215 0.636846 0.102130 -0.033628 -236369.000000 0 0 1
10.719938 -23.021470 -33.267869 41.852793 -1.135005 2.489603 0.098148 -0.024975 -492648.000000 0 0 1
11.911038 -23.209170 -32.569189 41.728773 -1.096641 2.466257 0.121271 -0.028740 -309441.000000 0 0 1
12.506238 -21.899070 -31.966999 40.716880 -1.051909 2.473661 0.121531 -0.037917 -182160.000000 0 0 1
13.016538 -20.806270 -32.688269 40.876082 -1.011761 2.497578 0.113552 -0.033387 35731.900000 0 0 1
14.021138 -20.102270 -32.010019 40.315442 -0.961757 2.488139 0.109478 -0.032416 -364190.000000 0 0 1
14.568038 -18.962970 -32.910499 40.680744 -0.915726 2.513236 0.092627 -0.029426 -272666.000000 0 0 1
15.396538 -19.434270 33.924505 42.019237 -0.900807 0.631138 0.100831 -0.014136 335457.000000 0 0 1
15.391638 -18.547970 32.860950 40.752567 -0.878130 0.632837 0.084351 -0.011721 -132402.000000 0 0 1
16.334338 -17.316770 32.811859 40.537627 -0.814585 0.627637 0.079912 -0.013704 -889521.000000 0 0 1
16.144438 -16.288670 33.774900 40.825329 -0.789845 0.596508 0.071479 -0.014480 161109.000000 0 0 1
16.892538 -15.122270 33.499763 40.450896 -0.730159 0.594982 0.069519 -0.013080 841925.000000 0 0 1
18.429738 -15.218470 33.848822 41.436696 -0.690250 0.614815 0.074742 -0.005372 397266.000000 0 0 1
19.106538 -15.730670 32.725268 41.029951 -0.688796 0.647499 0.077917 -0.003575 -440668.000000 0 0 1
20.494338 -15.714470 32.962405 41.874605 -0.654149 0.664591 0.079899 -0.004267 -477841.000000 0 0 1
21.218138 -16.412070 31.822885 41.620445 -0.658368 0.700380 0.078370 -0.005234 -633405.000000 0 0 1
21.331438 -15.648970 30.606655 40.455999 -0.632929 0.712788 0.076148 0.001314 459770.000000 0 0 1
22.185638 -16.201170 29.617225 40.396292 -0.630744 0.747829 0.065467 -0.002462 -279140.000000 0 0 1
22.328138 -15.276470 28.393495 39.218705 -0.600030 0.761244 0.067112 -0.000694 -319532.000000 0 0 1
23.108238 -14.147770 28.591665 39.390777 -0.549370 0.758532 0.051187 -0.007043 65052.500000 0 0 1
23.392038 -13.437270 27.424955 38.469154 -0.521412 0.777160 0.058181 -0.007105 109858.000000 0 0 1
24.121438 -12.131670 27.726605 38.701238 -0.465998 0.772129 0.050616 -0.002134 347668.000000 0 0 1
23.162338 -11.175170 28.160815 38.136725 -0.449527 0.740076 0.057714 -0.012342 840350.000000 0 0 1
23.810038 -9.894470 28.416895 38.371061 -0.393847 0.736861 0.058072 -0.017319 533359.000000 0 0 1
22.796238 -8.735570 28.568125 37.578137 -0.365942 0.707125 0.067770 -0.019439 241319.000000 0 0 1
21.921438 -8.810070 29.656465 37.916654 -0.382137 0.672689 0.070739 -0.022170 63401.100000 0 0 1
20.865338 -7.859370 29.558135 37.024524 -0.360235 0.646264 0.070289 -0.028146 199319.000000 0 0 1
19.822738 -7.827870 30.699885 37.372442 -0.376096 0.606834 0.056576 -0.018723 -287612.000000 0 0 1
20.172538 -7.505770 32.013993 38.576724 -0.356207 0.591906 0.066698 -0.025549 -86828.100000 0 0 1
20.767838 -8.550270 32.768218 39.726141 -0.390558 0.600855 0.074603 -0.024153 -259134.000000 0 0 1
20.793338 -8.224970 -33.614299 40.372443 -0.376671 2.554591 0.086897 -0.032073 316954.000000 0 0 1
19.480138 -8.176670 -33.055209 39.229843 -0.397410 2.572896 0.071095 -0.045171 381460.000000 0 0 1
19.459738 -7.761770 -31.759129 38.046928 -0.379526 2.558449 0.079539 -0.050809 51605.300000 0 0 1
18.065238 -7.268670 -31.278129 36.844372 -0.382536 2.584745 0.076085 -0.049049 276103.000000 0 0 1
18.088838 -6.492170 -30.093919 35.707118 -0.344586 2.573259 0.073676 -0.047587 751762.000000 0 0 1
16.784438 -5.974570 -29.781059 34.703376 -0.341974 2.602472 0.073777 -0.036153 802428.000000 0 0 1
16.838738 -4.744970 -28.832179 33.724656 -0.274667 2.596210 0.063344 -0.030544 -213710.000000 0 0 1
17.649838 -4.893770 -27.689769 33.199233 -0.270475 2.557202 0.066196 -0.021234 23521.900000 0 0 1
17.360738 -5.872670 -26.650739 32.344171 -0.326190 2.539185 0.073670 -0.029229 -348038.000000 0 0 1
16.019838 -5.719270 -25.910139 30.994847 -0.342908 2.560658 0.077635 -0.024638 32623.700000 0 0 1
16.019338 -4.755070 -24.831699 29.930639 -0.288549 2.549262 0.056393 -0.008166 -229328.000000 0 0 1
14.694538 -4.644870 -24.354199 28.820675 -0.306157 2.577409 0.072353 -0.021879 -2777.640000 0 0 1
14.420438 -3.511570 -23.386699 27.698698 -0.238864 2.576100 0.071215 -0.017109 -54874.600000 0 0 1
14.306838 -2.305670 -24.098999 28.120517 -0.159785 2.600196 0.068666 -0.026021 98244.000000 0 0 1
14.122738 -1.202670 -23.255299 27.234300 -0.084953 2.594225 0.074783 -0.028972 -117799.000000 0 0 1
14.506538 0.167330 -23.929899 27.984062 0.011534 2.596590 0.057267 -0.034165 -374813.000000 0 0 1
13.684438 0.670330 -24.960799 28.473754 0.048946 2.639599 0.077766 -0.034938 34841.200000 0 0 1
14.272238 1.824330 -25.482959 29.264418 0.127134 2.627589 0.065192 -0.020184 -2268.880000 0 0 1
13.383938 2.485330 -26.556759 29.842388 0.183604 2.667924 0.058189 -0.015917 690157.000000 0 0 1
12.136438 3.042330 -26.140339 28.980446 0.245616 2.695174 0.068058 -0.025604 167762.000000 0 0 1
11.311938 3.389330 -27.191099 29.644618 0.291112 2.731881 0.061060 -0.028012 -61591.000000 0 0 1
10.070038 4.221330 -26.802779 28.941567 0.396945 2.754737 0.056292 -0.025873 58833.400000 0 0 1
10.340038 5.633330 -26.658859 29.143534 0.498848 2.725669 0.054712 -0.026335 311687.000000 0 0 1
9.144738 6.396330 -26.542679 28.793282 0.610360 2.743587 0.066122 -0.028830 132438.000000 0 0 1
8.177738 5.298581 -31.391509 32.869092 0.574917 2.840613 0.042456 -0.027023 -101023.000000 0 0 1
7.905138 4.235881 -30.459769 31.752660 0.491906 2.855247 0.038540 -0.014338 370976.000000 0 0 1
8.247338 2.956181 -30.933109 32.149881 0.344174 2.865593 0.028867 -0.014042 -149132.000000 0 0 1
7.790838 1.798181 -29.985799 31.033511 0.226835 2.881007 0.036296 -0.016885 -202708.000000 0 0 1
8.595938 1.738681 -28.843859 30.147660 0.199575 2.846423 0.065891 -0.021872 258316.000000 0 0 1
8.240638 0.565181 -28.099009 29.287913 0.068477 2.855686 0.062463 -0.028951 -101985.000000 0 0 1
9.272038 0.218181 -26.998359 28.546974 0.023527 2.810698 0.074350 -0.035225 -6012.030000 0 0 1
10.414638 -0.393519 -27.544959 29.450710 -0.037767 2.779874 0.084798 -0.025017 -313088.000000 0 0 1
11.267738 -0.861619 -26.513339 28.821198 -0.076319 2.738685 0.082741 -0.026960 417529.000000 0 0 1
12.423938 -1.739619 -27.121799 29.882646 -0.139117 2.708353 0.071956 -0.026682 223265.000000 0 0 1
11.950938 -2.808619 -27.843649 30.429953 -0.230824 2.726324 0.089118 -0.035027 279609.000000 0 0 1
12.954038 -3.828119 -27.945799 31.039157 -0.287338 2.691347 0.090854 -0.029276 626609.000000 0 0 1
12.292538 -5.231119 -27.681519 30.736584 -0.402338 2.691956 0.084425 -0.014998 293395.000000 0 0 1
11.945138 -5.389219 -26.311069 29.393917 -0.423822 2.679496 0.079424 -0.015540 -70510.300000 0 0 1
11.566038 -6.696819 -26.038649 29.268274 -0.524841 2.667384 0.085515 -0.019045 45499.800000 0 0 1
11.161038 -6.903919 -24.499799 27.793399 -0.553964 2.649820 0.093361 -0.023372 92105.700000 0 0 1
12.221238 -6.572519 -23.620399 27.394889 -0.493424 2.610431 0.068854 -0.017481 -57010.600000 0 0 1
11.944638 -6.926119 -22.294499 26.223848 -0.525473 2.587088 0.086622 -0.023861 857291.000000 0 0 1
13.210038 -6.798419 -21.337499 26.000240 -0.475291 2.533371 0.082767 -0.015115 1005830.000000 0 0 1
13.635938 -5.475619 -21.084899 25.700081 -0.381849 2.532944 0.067049 -0.016165 408025.000000 0 0 1
14.789538 -5.581319 -20.233899 25.676686 -0.360858 2.478392 0.071110 -0.014460 823354.000000 0 0 1
15.469338 -4.264919 -19.666199 25.382067 -0.269018 2.457206 0.087090 -0.021623 -134742.000000 0 0 1
16.449138 -3.642819 -20.430199 26.480886 -0.217942 2.452003 0.072960 -0.018857 -215450.000000 0 0 1
16.835438 -2.381719 -19.900599 26.175149 -0.140538 2.434550 0.078397 -0.016511 1309220.000000 0 0 1
18.122638 -1.681319 -20.555099 27.454853 -0.092510 2.416876 0.042272 -0.017045 756443.000000 0 0 1
19.320538 -2.363419 -20.404499 28.199513 -0.121722 2.379766 0.070081 -0.021512 -554714.000000 0 0 1
20.299638 -1.739719 -21.203299 29.405473 -0.085493 2.376137 0.075942 -0.021608 -454998.000000 0 0 1
21.588038 -2.505619 -21.448399 30.534494 -0.115548 2.349605 0.049291 -0.013608 -561445.000000 0 0 1
22.564938 -2.310919 -20.394599 30.503384 -0.102056 2.303122 0.040791 -0.011344 685792.000000 0 0 1
23.761438 -3.024619 -20.667399 31.636935 -0.126610 2.282689 0.043904 -0.015854 891075.000000 0 0 1
24.803438 -2.432519 -21.702499 33.047332 -0.097759 2.287244 0.041164 -0.014708 -394920.000000 0 0 1
24.340238 -2.571419 -23.048899 33.620100 -0.105254 2.326181 0.046424 -0.020003 344200.000000 0 0 1
25.079938 -1.842519 -24.022199 34.777352 -0.073334 2.333312 0.046027 -0.018336 -99777.900000 0 0 1
26.430138 -2.361519 -24.510999 36.123649 -0.089113 2.316557 0.056460 -0.028441 -1115670.000000 0 0 1
27.454338 -2.372719 -23.561199 36.256042 -0.086210 2.278191 0.053753 -0.017056 -220489.000000 0 0 1
28.633038 -3.084119 -23.880599 37.411839 -0.107298 2.263106 0.055883 -0.018022 747648.000000 0 0 1
29.615638 -2.307719 -24.837399 38.720898 -0.077765 2.267179 0.062537 -0.020287 -689987.000000 0 0 1
29.024038 -2.095019 -26.088639 39.081978 -0.072057 2.301691 0.063789 -0.021960 228505.000000 0 0 1
29.678638 -1.025119 -26.834429 40.024480 -0.034527 2.305612 0.069129 -0.026302 -552885.000000 0 0 1
29.009738 -0.672319 -28.146699 40.425902 -0.023171 2.340962 0.064706 -0.028764 148045.000000 0 0 1
27.669738 -0.190819 -28.086829 39.427412 -0.006896 2.363663 0.057272 -0.019015 408550.000000 0 0 1
27.352138 1.027381 -27.398329 38.728070 0.037544 2.356686 0.056522 -0.012194 -2073260.000000 0 0 1
25.897038 1.272181 -27.526469 37.815097 0.049085 2.386084 0.048703 -0.014210 -1503950.000000 0 0 1
24.987238 0.651781 -26.619239 36.515350 0.026079 2.387638 0.043576 -0.011553 -770128.000000 0 0 1
23.730638 0.972181 -27.066679 36.009630 0.040944 2.421358 0.043917 -0.013166 -510699.000000 0 0 1
22.576238 0.742781 -26.000139 34.441915 0.032889 2.426295 0.045724 -0.011057 668320.000000 0 0 1
22.652538 1.607681 -24.873699 33.681197 0.070853 2.401645 0.049853 -0.013943 112800.000000 0 0 1
21.716238 1.228481 -23.895899 32.312817 0.056509 2.403150 0.041845 -0.011166 -64637.400000 0 0 1
21.961338 1.979681 -22.552799 31.541215 0.089901 2.367458 0.043995 -0.013115 -306689.000000 0 0 1
21.608938 3.363981 -22.516399 31.388705 0.154436 2.370774 0.041770 -0.011572 361477.000000 0 0 1
21.648338 3.889581 -21.234199 30.572383 0.177774 2.338597 0.037178 -0.009401 -264795.000000 0 0 1
21.193938 5.396081 -21.086199 30.379738 0.249308 2.337948 0.055477 -0.008806 164367.000000 0 0 1
22.115538 6.395381 -21.552299 31.535686 0.281501 2.323241 0.059993 -0.005343 381258.000000 0 0 1
21.874338 7.685381 -20.975299 31.265235 0.337870 2.306195 0.060648 -0.006339 -192891.000000 0 0 1
22.380138 7.945781 -19.525699 30.745064 0.341155 2.258914 0.065138 -0.015636 -506404.000000 0 0 1
23.772238 7.986781 -19.351799 31.676491 0.324123 2.228018 0.059819 -0.010600 221805.000000 0 0 1
24.317038 8.160181 -18.005699 31.338668 0.323766 2.182853 0.078741 -0.023126 145445.000000 0 0 1
24.117038 9.541881 -17.321799 31.188519 0.376750 2.159628 0.074170 -0.031377 14715.100000 0 0 1
22.804638 9.871481 -16.887899 30.044946 0.408519 2.167704 0.063333 -0.031063 138284.000000 0 0 1
22.747738 11.224681 -16.592899 30.311340 0.458387 2.150069 0.056582 -0.022141 -725548.000000 0 0 1
21.376738 11.752081 -16.143699 29.252271 0.502659 2.155411 0.048323 -0.022925 1419820.000000 0 0 1
20.255738 11.668981 -17.117999 28.973884 0.522648 2.202856 0.048754 -0.037967 1587180.000000 0 0 1
19.782438 10.354481 -17.353299 28.278917 0.482206 2.231469 0.052350 -0.033752 -772586.000000 0 0 1
18.864338 10.329981 -18.605899 28.438552 0.500993 2.283986 0.068748 -0.012590 -26914.700000 0 0 1
19.498038 10.606981 -19.834499 29.767245 0.498227 2.300058 0.072460 -0.011343 -474477.000000 0 0 1
18.600038 10.462881 -20.879499 29.856101 0.512404 2.345267 0.059942 -0.012511 -708970.000000 0 0 1
19.060938 10.304481 -22.357299 31.134394 0.495603 2.371850 0.072574 -0.007878 -315046.000000 0 0 1
19.752038 11.510981 -22.661199 32.189682 0.527657 2.351796 0.065855 -0.018574 323547.000000 0 0 1
20.352538 11.514681 -23.948699 33.471688 0.514864 2.368123 0.085641 -0.013421 37017.500000 0 0 1
20.711338 12.926281 -24.379399 34.502223 0.557964 2.355483 0.103903 -0.006684 -204739.000000 0 0 1
21.305938 12.956981 -25.630149 35.759347 0.546383 2.369912 0.117217 -0.007419 4039.800000 0 0 1
21.690238 14.263681 -26.057619 36.782041 0.581705 2.358072 0.106008 -0.009989 23283.900000 0 0 1
20.587338 15.073481 -26.788489 36.995560 0.631994 2.380525 0.088659 -0.012096 174575.000000 0 0 1
19.409738 15.268081 -26.032759 35.882541 0.666529 2.382556 0.079629 -0.012854 156112.000000 0 0 1
18.331738 15.626781 -26.912669 36.118426 0.705911 2.411516 0.079386 -0.020393 572651.000000 0 0 1
16.948838 15.283881 -26.321529 34.837954 0.733790 2.427277 0.071621 -0.027170 -110755.000000 0 0 1
16.730738 13.897881 -26.277109 34.110924 0.693170 2.450175 0.074238 -0.020433 956182.000000 0 0 1
15.341038 13.580981 -26.030049 33.126333 0.724618 2.474754 0.051882 -0.025332 1004640.000000 0 0 1
15.061638 12.107781 -25.864469 32.286562 0.677104 2.499912 0.048433 -0.023667 437494.000000 0 0 1
13.671238 11.835781 -25.684639 31.411609 0.713563 2.528165 0.044870 -0.027843 558213.000000 0 0 1
13.473938 10.439381 -25.609989 30.763602 0.659175 2.554360 0.056054 -0.027307 -307994.000000 0 0 1
12.042338 9.971281 -25.354229 29.787267 0.691594 2.589020 0.076617 -0.035667 -406760.000000 0 0 1
11.500038 10.294281 -24.102799 28.621112 0.730130 2.572024 0.098953 -0.046668 1354770.000000 0 0 1
10.201038 9.617681 -23.990799 27.787037 0.755972 2.612729 0.093360 -0.045538 1440010.000000 0 0 1
9.280638 10.089381 -22.838199 26.636614 0.827126 2.600990 0.082740 -0.046288 -10084.700000 0 0 1
8.722338 11.362281 -23.153599 27.226270 0.916090 2.587568 0.088281 -0.049803 -360127.000000 0 0 1
8.080238 11.928681 -22.075899 26.361506 0.975414 2.563359 0.082397 -0.045053 -499407.000000 0 0 1
8.989438 12.773581 -21.212299 26.342665 0.957556 2.506885 0.085961 -0.047933 97731.100000 0 0 1
9.922338 11.914281 -20.528499 25.725905 0.876367 2.494716 0.114221 -0.046275 163964.000000 0 0 1
10.784438 12.674581 -19.684699 25.776666 0.865797 2.439765 0.135826 -0.048671 -239052.000000 0 0 1
11.755038 11.759281 -18.879799 25.157671 0.785579 2.419553 0.138881 -0.048634 475257.000000 0 0 1
12.864638 11.229881 -19.602099 25.997143 0.717654 2.424942 0.119683 -0.049031 352613.000000 0 0 1
12.485038 10.242881 -20.522099 26.114160 0.687064 2.474883 0.118825 -0.054138 -1270240.000000 0 0 1
13.630738 9.613381 -21.279199 27.037353 0.614256 2.476776 0.117594 -0.043128 -131846.000000 0 0 1
14.376838 8.639581 -20.500599 26.487929 0.541109 2.455868 0.115505 -0.047401 721836.000000 0 0 1
15.481938 8.179781 -21.277499 27.555965 0.486064 2.453023 0.088395 -0.036908 217456.000000 0 0 1
16.096138 6.893881 -20.660399 27.082529 0.404657 2.438534 0.125783 -0.036861 264321.000000 0 0 1
16.902438 7.063481 -19.496799 26.752763 0.395839 2.387331 0.090048 -0.027384 143039.000000 0 0 1
17.420338 5.813281 -19.092299 26.491099 0.322086 2.375617 0.076270 -0.031185 -363928.000000 0 0 1
18.231738 5.973681 -17.833099 26.193521 0.316629 2.319679 0.111737 -0.028684 -1073780.000000 0 0 1
19.488638 6.582181 -18.021799 27.348078 0.325715 2.290256 0.088939 -0.034777 -58833.300000 0 0 1
20.200538 6.749881 -16.819699 27.138992 0.322480 2.239235 0.078270 -0.042113 6455.910000 0 0 1
20.796638 5.437281 -16.218499 26.927753 0.255726 2.217172 0.074979 -0.043336 -1628980.000000 0 0 1
21.984238 5.026981 -16.800299 28.121652 0.224798 2.211070 0.061052 -0.037869 -286014.000000 0 0 1
22.489338 3.947381 -16.006699 27.884880 0.173752 2.182213 0.093468 -0.047043 -73519.100000 0 0 1
23.889438 3.503981 -16.526599 29.259385 0.145636 2.171024 0.043075 -0.011386 92987.900000 0 0 1
24.519038 2.752781 -15.509599 29.142901 0.111803 2.131983 0.042130 -0.008537 -314804.000000 0 0 1
25.700338 2.173181 -15.969899 30.335915 0.084358 2.125199 0.053619 -0.010855 -572773.000000 0 0 1
26.304738 1.203181 -14.955299 30.282798 0.045708 2.087313 0.085360 -0.022807 -170881.000000 0 0 1
25.683138 -0.078019 -14.865999 29.675370 -0.003038 2.095497 0.080210 -0.030728 147154.000000 0 0 1
26.383538 -1.061319 -15.597399 30.667513 -0.040205 2.104351 0.069537 -0.014508 -60732.800000 0 0 1
25.694738 -2.478219 -15.626299 30.175194 -0.096151 2.115135 0.045323 -0.016752 -428664.000000 0 0 1
25.609738 -3.118019 -14.366799 29.529403 -0.121155 2.078904 0.064731 -0.020490 376030.000000 0 0 1
25.398438 -4.509719 -14.525999 29.604440 -0.175727 2.083654 0.051451 -0.015144 -1275810.000000 0 0 1
24.697138 -5.168019 -13.304199 28.524704 -0.206279 2.056024 0.055885 -0.016401 271777.000000 0 0 1
23.322838 -4.833019 -13.217999 27.240197 -0.204331 2.077433 0.077666 -0.015901 325559.000000 0 0 1
22.486638 -5.530719 -14.127499 27.126075 -0.241169 2.118594 0.092495 -0.016112 48723.300000 0 0 1
20.947938 -5.460419 -13.789499 25.666760 -0.254992 2.137971 0.099213 -0.020179 808465.000000 0 0 1
20.455338 -6.307719 -12.749699 24.915116 -0.299114 2.107988 0.107032 -0.024379 367951.000000 0 1 0
20.835038 -5.935519 -11.473299 24.514603 -0.277530 2.057844 0.133768 -0.028361 -627937.000000 0 1 0
20.644738 -7.180719 -10.574699 24.281519 -0.334734 2.021394 0.141225 -0.028752 -788446.000000 0 1 0
19.358438 -7.687019 -10.428199 23.293491 -0.377994 2.034974 0.134198 -0.031465 -45203.600000 0 1 0
19.034638 -8.822319 -11.296699 23.827844 -0.434013 2.064734 0.118134 -0.028156 1402910.000000 0 1 0
17.513738 -9.305519 -11.169199 22.761254 -0.488394 2.083702 0.129006 -0.040438 1724640.000000 0 1 0
16.563438 -8.353019 -11.589399 21.873147 -0.467085 2.129215 0.108919 -0.029365 118297.000000 0 1 0
15.251838 -8.882419 -11.696099 21.173442 -0.527365 2.156031 0.106279 -0.028659 551663.000000 0 1 0
14.233638 -7.805119 -12.231699 20.325619 -0.501581 2.216533 0.077809 -0.015360 -183142.000000 0 1 0
14.334138 -7.303719 -13.595899 21.063245 -0.471245 2.272448 0.072411 -0.010511 461711.000000 0 1 0
15.399038 -6.387119 -13.866099 21.683966 -0.393177 2.264596 0.071230 -0.007189 401064.000000 0 1 0
14.946138 -5.288619 -14.889899 21.750072 -0.340096 2.324839 0.041305 -0.007734 214932.000000 0 1 0
14.165638 -4.298119 -14.220099 20.526820 -0.294590 2.336101 0.060298 -0.013270 278095.000000 0 1 0
13.788738 -3.159619 -15.003599 20.620875 -0.225256 2.385603 0.047507 -0.027448 -496728.000000 0 1 0
14.855038 -2.121419 -15.296499 21.427913 -0.141849 2.365789 0.062608 -0.028087 -1106620.000000 0 1 0
15.824838 -2.533319 -16.242099 22.817734 -0.158738 2.362881 0.062755 -0.019674 246287.000000 0 1 0
16.962238 -1.686919 -16.278499 23.570166 -0.099125 2.333170 0.074667 -0.022654 331262.000000 0 1 0
18.054238 -2.076819 -15.251099 23.724770 -0.114529 2.268989 0.083931 -0.024685 -849502.000000 0 1 0
17.649438 -1.947919 -13.879099 22.537223 -0.109922 2.234235 0.076571 -0.019153 -291667.000000 0 1 0
18.633038 -2.458919 -13.052299 22.882283 -0.131207 2.177802 0.078121 -0.018461 -412088.000000 0 1 0
18.126438 -2.526919 -11.624899 21.681590 -0.138512 2.136683 0.084321 -0.013432 -127738.000000 0 1 0
17.971438 -1.274719 -10.967399 21.092210 -0.070812 2.117617 0.080691 -0.016657 515786.000000 0 1 0
17.564738 -1.514619 -9.671799 20.108649 -0.086018 2.072565 0.082196 -0.024006 -582871.000000 0 1 0
17.929438 -0.336019 -8.716899 19.938956 -0.018739 2.023256 0.094478 -0.017647 39269.900000 0 1 0
19.275638 -0.025119 -8.392399 21.023397 -0.001303 1.981433 0.111795 -0.015804 1832280.000000 0 1 0
20.211938 0.602381 -9.338699 22.273226 0.029794 2.003447 0.106823 -0.008513 1021630.000000 0 1 0
19.651938 1.983381 -9.861499 22.076721 0.100585 2.033861 0.093986 -0.011318 -355249.000000 0 1 0
19.505938 2.911381 -8.828899 21.608036 0.148162 1.991709 0.081873 -0.007067 578914.000000 0 1 0
18.660138 3.930881 -9.337499 21.233028 0.207621 2.026131 0.061394 -0.018120 -480054.000000 0 1 0
18.971138 5.351781 -8.795799 21.584988 0.274956 1.990507 0.091785 -0.007105 86488.000000 0 1 0
18.180038 6.301181 -9.471099 21.445754 0.333642 2.028212 0.068327 -0.015467 804896.000000 0 1 0
18.870238 7.548681 -9.285399 22.344733 0.380533 1.999346 0.111574 -0.002486 420242.000000 0 1 0
-26.980962 -29.496539 5.992401 40.421863 0.829910 1.422001 0.073551 -0.019328 -214993.000000 0 0 1
-27.093472 -28.236239 6.678401 39.698142 0.806049 1.401763 0.058657 -0.011127 968448.000000 0 0 1
-25.999252 -27.327009 6.284801 38.239054 0.810292 1.405692 0.074262 -0.019386 638745.000000 0 0 1
-25.913252 -26.110749 7.239801 37.492433 0.789194 1.376475 0.050999 -0.003914 775973.000000 0 0 1
-27.017602 -25.156709 7.184801 37.608938 0.749746 1.378575 0.057152 -0.012328 461529.000000 0 0 1
-28.285552 -25.578509 7.574901 38.880737 0.735183 1.374718 0.047731 -0.006230 -596355.000000 0 0 1
-28.604322 -25.724619 9.099101 39.531720 0.732443 1.338542 0.065655 -0.005195 -374922.000000 0 0 1
-27.814592 -26.695229 9.731401 39.761627 0.764866 1.323541 0.053564 -0.004927 -97886.400000 0 0 1
-28.174462 -26.790139 11.078001 40.425660 0.760218 1.293211 0.049914 -0.007916 -736632.000000 0 0 1
-27.226622 -27.694239 11.874001 40.610980 0.793912 1.274078 0.032245 -0.017444 -156207.000000 0 0 1
-26.054842 -27.056559 12.314801 39.529312 0.804257 1.253987 0.014363 -0.013849 -312782.000000 0 0 1
-26.199022 -26.032309 13.297701 39.254283 0.782206 1.225200 0.033205 -0.010890 -894939.000000 0 0 1
-24.819162 -25.553249 13.761601 38.188231 0.799970 1.202140 0.048765 -0.010229 -388498.000000 0 0 1
-24.185262 -26.495739 14.568201 38.719292 0.830955 1.185049 0.043876 -0.015447 251436.000000 0 0 1
-23.041162 -25.972889 15.262001 37.926439 0.845141 1.156648 0.043658 -0.013516 445246.000000 0 0 1
-22.156162 -27.075379 15.834701 38.401945 0.884988 1.145774 0.043880 -0.018055 -138175.000000 0 0 1
-22.858462 -27.788169 16.857801 39.735086 0.882428 1.132658 0.042863 -0.014016 734560.000000 0 0 1
-22.086462 -28.928779 17.278601 40.289404 0.918725 1.127563 0.052739 -0.011201 161686.000000 0 0 1
-22.919862 -29.938839 18.065601 41.809330 0.917413 1.123982 0.076119 -0.020146 1158350.000000 0 0 1
-24.177162 -30.391349 17.476301 42.586269 0.898788 1.147932 0.062519 -0.016823 1408080.000000 0 0 1
-24.600562 -31.505559 18.195601 43.918877 0.907853 1.143623 0.068120 -0.014867 90398.500000 0 0 1
-25.563822 -32.452189 17.429401 44.837903 0.903577 1.171554 0.059384 -0.024466 83347.200000 0 0 1
-24.852462 -33.325369 16.594901 44.761767 0.930019 1.190993 0.058029 -0.025635 339567.000000 0 0 1
-25.695992 33.780874 15.961701 45.345423 -0.920503 1.211087 0.061701 -0.031800 -330901.000000 0 0 1
-25.113562 33.124116 14.678701 44.083583 -0.922090 1.231340 0.071602 -0.034699 46689.900000 0 0 1
-24.031462 32.239823 14.766701 42.836583 -0.930248 1.218854 0.062874 -0.030673 941866.000000 0 0 1
-22.736162 32.845033 14.986301 42.665191 -0.965307 1.211887 0.057931 -0.026192 1298630.000000 0 0 1
-21.548762 31.790012 14.964601 41.217633 -0.975093 1.199243 0.047721 -0.031705 581378.000000 0 0 1
-21.305662 31.253532 13.690701 40.226233 -0.972455 1.223515 0.014359 -0.013901 -254775.000000 0 0 1
-20.380862 30.219352 13.745701 38.955527 -0.977438 1.210174 0.030762 -0.021164 -229483.000000 0 0 1
-20.359362 29.463262 12.399601 37.899044 -0.966131 1.237484 0.028212 -0.016541 243668.000000 0 0 1
-19.858262 30.240982 11.302801 37.902782 -0.989748 1.267985 0.006412 -0.005605 221905.000000 0 0 1
-20.693562 30.118892 10.152501 37.926830 -0.968806 1.299805 0.038340 -0.013949 162095.000000 0 0 1
-20.098862 30.857152 8.935901 37.894306 -0.993471 1.332743 0.022347 -0.004668 -945862.000000 0 0 1
-18.943962 30.274342 8.508301 36.712405 -1.011663 1.336914 0.027058 -0.016924 -1459030.000000 0 0 1
-18.410462 30.965422 7.419501 36.781129 -1.034395 1.367682 0.034909 -0.018076 78915.800000 0 0 1
-17.379662 30.048442 6.715101 35.356104 -1.046420 1.379708 0.053855 -0.017288 -363362.000000 0 0 1
-17.915962 28.870922 6.202001 34.539494 -1.015401 1.390255 0.058424 -0.007759 -44998.000000 0 0 1
-18.182562 27.734022 7.079401 33.910168 -0.990491 1.360480 0.036438 -0.005133 -83120.100000 0 0 1
-19.286762 26.815852 6.470101 33.659045 -0.947281 1.377368 0.041664 0.001864 -136953.000000 0 0 1
-19.036262 26.186922 5.232201 32.794971 -0.942219 1.410569 0.056290 -0.009328 684700.000000 0 0 1
-20.115462 25.349962 4.745601 32.707386 -0.900025 1.425190 0.053536 -0.009078 84654.700000 0 0 1
-19.790262 24.661952 3.356301 31.798288 -0.894556 1.465050 0.070736 -0.017279 -1383980.000000 0 0 1
-19.591462 25.517172 2.214101 32.246763 -0.916016 1.502081 0.078895 -0.025330 544800.000000 0 0 1
-18.412462 26.333282 2.120201 32.201798 -0.960602 1.504908 0.070807 -0.020887 544603.000000 0 0 1
-17.104462 25.472082 2.204201 30.761146 -0.979456 1.499080 0.076405 -0.024823 -1006820.000000 0 0 1
-17.002262 24.301462 1.411401 29.692256 -0.960312 1.523244 0.117422 -0.034976 120697.000000 0 0 1
-16.723462 24.545972 0.043601 29.701529 -0.972723 1.569328 0.102658 -0.035529 -455319.000000 0 0 1
-16.259162 23.338252 -0.689899 28.451895 -0.962306 1.595047 0.106048 -0.042264 -249678.000000 0 0 1
-17.260362 22.387832 -1.025299 28.287566 -0.914009 1.607050 0.111079 -0.051649 195425.000000 0 0 1
-16.841762 21.351032 -1.934799 27.262703 -0.902920 1.641825 0.109458 -0.053260 27352.200000 0 0 1
-15.865062 20.275032 -1.378399 25.781333 -0.906822 1.624287 0.120193 -0.053202 101568.000000 0 0 1
-16.425162 19.413732 -0.409199 25.433175 -0.868595 1.586886 0.124315 -0.053823 146174.000000 0 0 1
-15.463362 18.510432 0.117001 24.119813 -0.874848 1.565945 0.148198 -0.052322 243620.000000 0 1 0
-16.077962 17.424832 1.095001 23.734462 -0.825578 1.524644 0.130304 -0.045492 304427.000000 0 1 0
-16.750962 16.346432 0.433601 23.409156 -0.773176 1.552273 0.114954 -0.046186 435009.000000 0 1 0
-17.375862 15.627832 1.508301 23.418469 -0.732483 1.506345 0.134166 -0.059206 11993.300000 0 1 0
-18.219362 14.468332 0.938701 23.284307 -0.671144 1.530471 0.154009 -0.052061 143930.000000 0 1 0
-19.269062 14.823032 0.036601 24.310911 -0.655718 1.569291 0.164905 -0.047126 303444.000000 0 1 0
-20.099062 13.693732 -0.100499 24.320788 -0.598073 1.574929 0.153910 -0.036948 -1165380.000000 0 1 0
-21.073862 13.881232 -1.230399 25.264801 -0.582463 1.619516 0.143633 -0.026314 -1232400.000000 0 0 1
-21.805762 12.716232 -1.601899 25.293476 -0.527945 1.634171 0.118999 -0.028266 769369.000000 0 0 1
-22.871262 12.276532 -0.771499 25.969272 -0.492627 1.600509 0.135486 -0.027046 582877.000000 0 0 1
-24.154262 13.236332 -0.744199 27.553270 -0.501300 1.597809 0.121928 -0.026128 78787.700000 0 0 1
-23.939162 14.510332 -0.175099 27.993997 -0.544917 1.577051 0.117255 -0.034037 313435.000000 0 0 1
-25.142522 15.257032 -0.026899 29.409593 -0.545420 1.571711 0.088978 -0.025834 208871.000000 0 0 1
-24.967162 16.457732 0.912401 29.917363 -0.582798 1.540294 0.079037 -0.028839 21638.600000 0 0 1
-24.707362 16.061532 2.200801 29.551144 -0.576425 1.496253 0.083591 -0.032743 37558.200000 0 0 1
-24.350962 17.086332 3.097901 29.908345 -0.611846 1.467030 0.071797 -0.031500 330006.000000 0 0 1
-25.533512 18.026832 3.517901 31.453180 -0.614746 1.458716 0.079473 -0.033027 72829.100000 0 0 1
-26.477792 17.373332 4.357101 31.967022 -0.580685 1.434071 0.094572 -0.030689 243804.000000 0 0 1
-27.743712 17.975632 4.446701 33.355810 -0.574910 1.437087 0.086260 -0.033388 -20624.000000 0 0 1
-28.730542 17.816232 3.282701 33.965252 -0.555079 1.473996 0.084398 -0.039114 -1110680.000000 0 0 1
-29.884462 18.576632 3.442501 35.355667 -0.556162 1.473274 0.089412 -0.036335 -29695.900000 0 0 1
-30.504542 18.868532 2.170501 35.934102 -0.553946 1.510357 0.102148 -0.029053 -160959.000000 0 0 1
-31.704922 19.816232 2.196601 37.452773 -0.558614 1.512113 0.108099 -0.036887 -308317.000000 0 0 1
-32.912232 19.199532 2.598301 38.191468 -0.528091 1.502710 0.146064 -0.029215 145239.000000 0 0 1
-34.042172 20.023632 2.375901 39.565897 -0.531698 1.510711 0.134210 -0.023152 285569.000000 0 0 1
-34.659125 20.507132 3.714801 40.442517 -0.534280 1.478813 0.126212 -0.035168 -6729.920000 0 0 1
-33.718242 21.350632 4.386201 40.149821 -0.564479 1.461332 0.114975 -0.036779 512331.000000 0 0 1
-34.226360 21.913532 5.541901 41.016573 -0.569493 1.435268 0.092911 -0.034146 -452224.000000 0 0 1
-33.242762 22.906332 6.193101 40.842818 -0.603347 1.418577 0.100900 -0.030416 -112309.000000 0 0 1
-33.203242 24.240822 5.660901 41.498416 -0.630626 1.433957 0.081848 -0.020295 533860.000000 0 0 1
-32.086382 24.977372 6.136601 41.122535 -0.661457 1.421010 0.089548 -0.025177 136864.000000 0 0 1
-32.327412 26.495822 6.000301 42.226695 -0.686584 1.428216 0.092191 -0.019254 752021.000000 0 0 1
-33.465082 26.964042 6.776701 43.507413 -0.678229 1.414400 0.102625 -0.014297 1063350.000000 0 0 1
-33.632372 28.363112 6.631201 44.492420 -0.700608 1.421198 0.095792 -0.011434 -370730.000000 0 0 1
-34.655569 28.843232 7.666001 45.735195 -0.694118 1.402384 0.102006 -0.011208 -659829.000000 0 0 1
-34.223598 28.892582 9.005501 45.685173 -0.701135 1.372376 0.103841 -0.027054 730758.000000 0 0 1
-35.188588 29.529452 9.887001 46.989127 -0.698177 1.358802 0.117227 -0.019053 1443360.000000 0 0 1
-36.474832 28.679022 10.301701 47.529199 -0.666312 1.352318 0.105724 -0.011486 731510.000000 0 0 1
-36.115922 27.466702 10.983901 46.684319 -0.650197 1.333289 0.105235 -0.020030 1314500.000000 0 0 1
37.035492 26.918192 11.790201 47.278173 0.628501 1.318757 0.106631 -0.014344 812715.000000 0 0 1
-36.807692 25.530302 12.311201 46.456089 -0.606427 1.302585 0.125648 -0.016500 -282238.000000 0 0 1
-35.625580 25.712552 13.022401 45.824668 -0.625171 1.282646 0.137514 -0.029341 -529435.000000 0 0 1
-35.149414 24.646482 13.755901 45.079432 -0.611525 1.260702 0.141663 -0.024977 400652.000000 0 0 1
-33.950052 25.044912 14.686601 44.671578 -0.635582 1.235797 0.142586 -0.030017 248344.000000 0 0 1
-34.292706 25.958682 15.671001 45.775792 -0.647949 1.221387 0.144283 -0.032105 -426861.000000 0 0 1
-33.218692 26.360502 16.485401 45.498638 -0.670792 1.200033 0.155715 -0.028002 -320587.000000 0 0 1
-33.378152 27.640662 17.358701 46.684384 -0.691646 1.189816 0.158331 -0.040511 -166063.000000 0 0 1
-33.216462 28.850822 16.666601 47.047624 -0.715177 1.208685 0.160413 -0.040406 68829.700000 0 0 1
-33.106452 29.918852 17.625201 47.977313 -0.734865 1.194622 0.136797 -0.039908 -135064.000000 0 0 1
-32.651572 31.229902 17.054401 48.293732 -0.763147 1.209872 0.108905 -0.041865 387302.000000 0 0 1
-31.295732 31.317692 16.627301 47.293634 -0.785749 1.211542 0.107716 -0.037532 -6132.510000 0 0 1
-31.179512 32.438908 15.784701 47.682298 -0.805192 1.233392 0.104916 -0.031765 -980855.000000 0 0 1
-29.822522 32.828511 15.193801 46.882252 -0.833341 1.240753 0.116750 -0.035517 -448069.000000 0 0 1
-29.243412 32.017562 14.222401 45.635273 -0.830651 1.253863 0.117821 -0.037009 60985.100000 0 0 1
-28.997372 30.654112 14.534301 44.629229 -0.813165 1.239078 0.131065 -0.041846 62164.400000 0 0 1
-30.138582 29.628252 14.100001 44.553086 -0.776860 1.248784 0.153973 -0.039155 644278.000000 0 0 1
-30.411342 29.540502 12.773401 44.279236 -0.770874 1.278164 0.159099 -0.038133 -424448.000000 0 0 1
-31.445332 28.646802 12.501101 44.336505 -0.738861 1.284960 0.155156 -0.037023 -37826.300000 0 0 1
-31.656272 28.642742 10.970101 44.077992 -0.735463 1.319273 0.139131 -0.028183 372968.000000 0 0 1
-30.535532 27.928282 10.449301 42.680154 -0.740832 1.323454 0.120215 -0.015492 359341.000000 0 0 1
-30.557752 27.996392 9.063701 42.423164 -0.741683 1.355487 0.118393 -0.021997 -137097.000000 0 0 1
-29.472592 27.077862 8.537301 40.923463 -0.743077 1.360636 0.117757 -0.027075 -182958.000000 0 0 1
-29.228322 27.124522 7.131801 40.507988 -0.748083 1.393815 0.106105 -0.029772 76750.600000 0 0 1
-28.120372 26.352542 6.658101 39.109361 -0.752956 1.399720 0.092750 -0.022426 437679.000000 0 0 1
-27.674492 26.680462 5.241301 38.796853 -0.767112 1.435286 0.088199 -0.025321 -92911.900000 0 0 1
-26.908892 27.875132 5.180801 39.089029 -0.803034 1.437867 0.072580 -0.015273 172981.000000 0 0 1
-26.625902 27.927472 3.799301 38.772633 -0.809252 1.472650 0.060422 -0.015101 -283496.000000 0 0 1
-25.549712 28.901082 3.294101 38.715778 -0.846869 1.485609 0.048825 -0.013811 216313.000000 0 0 1
-24.211062 28.594522 3.670601 37.646986 -0.868220 1.473141 0.040463 -0.013995 525580.000000 0 0 1
-23.318862 29.565282 3.131401 37.784665 -0.902969 1.487826 0.039054 -0.000662 16007.100000 0 0 1
-21.878962 29.356992 3.617501 36.791416 -0.930328 1.472313 0.030116 -0.006871 12488.600000 0 0 1
-20.911562 30.180682 3.014101 36.840899 -0.964866 1.488891 0.029729 -0.001415 -785813.000000 0 0 1
-19.607462 29.851522 3.362801 35.873031 -0.989633 1.476917 0.030673 -0.010167 247496.000000 0 0 1
-18.518962 30.820232 2.741101 36.060398 -1.029737 1.494709 0.030636 -0.010542 588537.000000 0 0 1
-18.544862 32.063326 3.369601 37.193051 -1.046424 1.480074 0.023887 -0.005272 247942.000000 0 0 1
-17.453362 32.827907 2.888501 37.291216 -1.082141 1.493261 0.037443 -0.003842 111298.000000 0 0 1
-17.128062 34.038093 3.818901 38.295513 -1.104590 1.470908 0.043232 -0.015501 -41971.900000 0 0 1
-17.961162 -32.913849 3.621801 37.670177 1.071259 1.474503 0.051191 -0.018109 334434.000000 0 0 1
-17.531162 -31.893009 4.519501 36.673308 1.068194 1.447245 0.053152 -0.023071 132991.000000 0 0 1
-18.669362 -30.902319 4.840601 36.427048 1.027337 1.437517 0.051543 -0.022782 -33473.800000 0 0 1
-18.986062 -30.010079 3.797801 35.714124 1.006710 1.464256 0.069818 -0.022444 -57326.800000 0 0 1
-19.951462 -29.098759 4.240601 35.535634 0.969769 1.451178 0.071529 -0.028799 -301504.000000 0 0 1
-20.462362 -28.195689 3.113901 34.977157 0.943012 1.481652 0.076159 -0.042874 -36802.400000 0 0 1
-19.571062 -27.119329 2.931001 33.571941 0.945678 1.483380 0.092779 -0.050783 -87434.800000 0 0 1
-20.037862 -26.212559 1.937801 33.051010 0.918119 1.512132 0.094189 -0.048294 -234161.000000 0 0 1
-19.158362 -25.037789 1.559101 31.565242 0.917652 1.521383 0.088147 -0.036876 -378961.000000 0 0 1
-17.991362 -25.360019 0.858801 31.105582 0.953764 1.543184 0.116470 -0.044729 -413235.000000 0 0 1
-16.967062 -24.405219 1.139801 29.745505 0.963284 1.532469 0.109256 -0.036069 665478.000000 0 0 1
-15.596062 -24.708519 0.473401 29.222802 1.007750 1.554596 0.105690 -0.033560 204041.000000 0 0 1
-15.528762 -24.690019 -0.920799 29.181970 1.009362 1.602355 0.099189 -0.033033 -26716.900000 0 0 1
-15.134762 -23.433519 -1.437499 27.933085 0.997337 1.622281 0.108401 -0.038350 -108715.000000 0 0 1
-15.219162 -23.404919 -3.000399 28.078738 0.994242 1.677857 0.093706 -0.018718 -23634.800000 0 0 1
-14.295762 -24.222619 -3.679899 28.366278 1.037627 1.700891 0.110200 -0.017442 -279753.000000 0 0 1
-14.315362 -24.072619 -5.058599 28.460675 1.034302 1.749486 0.099017 -0.003131 67446.800000 0 0 1
-13.214862 -24.823119 -5.825599 28.718590 1.081596 1.775065 0.110420 -0.008489 14023.700000 0 0 1
-13.447562 -26.229339 -5.964699 30.073124 1.097047 1.770460 0.087944 -0.010185 -46837.200000 0 0 1
-12.444162 -26.808429 -6.777699 30.323031 1.136206 1.796217 0.088387 -0.002886 195720.000000 0 0 1
23.472538 12.488281 27.739505 38.423916 0.488948 0.764204 0.039155 0.005991 -268799.000000 0 0 1
24.453538 11.522681 28.001075 38.920533 0.440349 0.767797 0.052119 0.000815 88776.400000 0 0 1
24.084238 10.673581 29.036205 39.205574 0.417165 0.736812 0.061876 -0.001648 -125525.000000 0 0 1
24.259838 11.289081 30.486505 40.563655 0.435537 0.720354 0.074732 -0.006183 714152.000000 0 0 1
23.306338 12.363881 30.735045 40.505480 0.487744 0.709347 0.053071 -0.004417 788273.000000 0 0 1
23.515238 12.877281 32.012208 41.756104 0.501010 0.697193 0.052326 -0.006564 -133173.000000 0 0 1
22.471138 13.951981 32.408299 41.831898 0.555634 0.684513 0.039583 -0.008693 -75711.600000 0 0 1
21.269738 13.337881 32.810740 41.313986 0.560095 0.653139 0.043105 -0.000040 -87431.100000 0 0 1
20.551738 14.084181 33.780998 41.974920 0.600794 0.635475 0.032813 0.003601 406362.000000 0 0 1
19.445838 13.215181 -33.420469 40.862078 0.596896 2.528521 0.037283 0.004165 150370.000000 0 0 1
18.352238 12.827581 33.700239 40.460568 0.610031 0.586441 0.038733 0.006599 -872591.000000 0 0 1
17.382938 12.207681 -33.445519 39.620661 0.612254 2.575762 0.032558 0.003103 -820403.000000 0 0 1
16.030238 12.046981 33.761772 39.267742 0.644471 0.535950 0.029806 0.007956 -202558.000000 0 0 1
16.023438 11.133381 32.625957 38.015205 0.607240 0.538977 0.021179 0.013779 -366370.000000 0 0 1
14.701438 10.760581 32.339696 37.118436 0.631843 0.513039 0.024861 0.018143 -23557.900000 0 0 1
14.681438 9.724281 31.206405 35.832192 0.585010 0.513757 0.025491 0.018541 27333.700000 0 0 1
14.968938 8.421081 31.585955 35.953529 0.512443 0.498038 0.017003 0.014029 130039.000000 0 0 1
15.549838 7.557381 30.583585 35.132138 0.452393 0.514518 0.018582 -0.005500 300951.000000 0 0 1
15.947938 6.186481 31.130815 35.520936 0.370047 0.502446 0.042215 -0.014019 -247209.000000 0 0 1
14.834238 5.351581 31.268485 35.020168 0.346227 0.467116 0.037822 -0.005684 -442843.000000 0 0 1
15.090238 4.190781 32.039709 35.662598 0.270888 0.454656 0.058260 -0.018829 269497.000000 0 0 1
13.958838 3.116481 32.133040 35.172345 0.219660 0.418774 0.048838 -0.015546 394164.000000 0 0 1
14.415038 2.018781 32.851011 35.931291 0.139142 0.417087 0.063732 -0.025744 -29775.800000 0 0 1
13.358438 1.072381 32.911123 35.535051 0.080106 0.386698 0.066480 -0.026685 53020.900000 0 0 1
13.738538 -0.330719 33.337334 36.058766 -0.024068 0.391001 0.045611 -0.030038 -150655.000000 0 0 1
14.280538 -1.149419 32.312910 35.346557 -0.080315 0.417331 0.041342 -0.029978 116988.000000 0 0 1
14.845538 -2.351219 32.873275 36.146513 -0.157074 0.428848 0.087438 -0.044823 60040.100000 0 0 1
15.246438 -3.435319 31.815995 35.447325 -0.221618 0.456599 0.090727 -0.046895 -523607.000000 0 0 1
15.603838 -4.655219 32.430033 36.288536 -0.289931 0.465334 0.096393 -0.051795 1573730.000000 0 0 1
16.908838 -4.911919 33.069203 37.464756 -0.282713 0.489273 0.089684 -0.043384 1241590.000000 0 0 1
18.184838 -4.653019 32.289790 37.349290 -0.250499 0.526571 0.091492 -0.046501 -925106.000000 0 0 1
18.403738 -3.287419 32.113355 37.158744 -0.176763 0.527197 0.095846 -0.049505 -286847.000000 0 0 1
19.522238 -3.041719 31.310125 37.022881 -0.154565 0.562927 0.112485 -0.050750 -429654.000000 0 0 1
19.738538 -1.554319 31.294995 37.032452 -0.078583 0.564101 0.107724 -0.047647 -210412.000000 0 0 1
20.220038 -1.058219 32.516463 38.305223 -0.052287 0.556937 0.105539 -0.053041 5341.100000 0 0 1
19.867838 0.304881 32.645697 38.217345 0.015344 0.546764 0.090805 -0.046055 -184904.000000 0 0 1
20.780438 1.375881 32.010517 38.188910 0.066114 0.576795 0.101372 -0.036103 -254351.000000 0 0 1
20.969438 1.193581 30.592955 37.108905 0.056859 0.601637 0.115732 -0.046719 -262026.000000 0 0 1
21.666638 2.220381 29.944655 37.027769 0.102123 0.628844 0.094898 -0.036488 -64384.600000 0 0 1
20.959838 3.630581 29.821665 36.630965 0.171514 0.619600 0.084756 -0.019647 17585.800000 0 0 1
20.902738 4.285381 31.074945 37.695373 0.202213 0.601708 0.084728 -0.027104 92515.900000 0 0 1
20.246638 5.510081 30.997475 37.431682 0.265713 0.595072 0.078539 -0.019054 -324921.000000 0 0 1
19.792538 5.905381 32.420056 38.440579 0.289955 0.567251 0.074274 -0.012417 -409423.000000 0 0 1
18.686938 5.223781 32.932655 38.223675 0.272584 0.532427 0.070819 -0.012620 -219652.000000 0 0 1
18.339138 5.779881 -33.718719 38.816015 0.305312 2.623329 0.062800 -0.013612 -516942.000000 0 0 1
17.195638 5.011781 -33.091539 37.627887 0.283600 2.645485 0.075494 -0.016084 -520174.000000 0 0 1
17.641438 3.695981 -32.700679 37.339189 0.206519 2.637833 0.075904 -0.018908 451148.000000 0 0 1
16.584738 2.844781 -32.241909 36.368764 0.169877 2.660581 0.068280 -0.012238 343586.000000 0 0 1
16.609338 1.390881 -32.779449 36.773590 0.083546 2.671189 0.082020 -0.035636 -49629.900000 0 0 1
17.588238 0.556781 -32.183909 36.680514 0.031646 2.641236 0.081964 -0.032091 100204.000000 0 0 1
17.404438 -0.758319 -32.642599 37.000389 -0.043543 2.651360 0.090522 -0.037817 -991576.000000 0 0 1
18.516338 -1.604719 -32.085709 37.079949 -0.086449 2.616568 0.078715 -0.039603 -703190.000000 0 0 1
18.599438 -1.766119 -30.701709 35.939577 -0.094672 2.594920 0.077273 -0.038636 356874.000000 0 0 1
19.154938 -0.669619 -29.986369 35.588515 -0.034944 2.572863 0.083367 -0.031315 -373629.000000 0 0 1
18.810138 -0.868719 -28.498499 34.157582 -0.046151 2.557702 0.062730 -0.018566 -398468.000000 0 0 1
17.486938 -0.769219 -28.037089 33.052429 -0.043960 2.583489 0.060187 -0.025832 -239429.000000 0 0 1
17.293338 -0.573519 -26.662079 31.784508 -0.033152 2.565943 0.065021 -0.027180 -126339.000000 0 0 1
17.690838 -1.704519 -25.674899 31.226136 -0.096054 2.536105 0.073135 -0.016525 -1065780.000000 0 0 1
18.970438 -1.410019 -25.202129 31.575512 -0.074191 2.495022 0.064124 -0.018965 -600520.000000 0 0 1
19.682038 -2.605319 -24.866499 31.820011 -0.131605 2.467820 0.058902 -0.018229 565712.000000 0 0 1
20.425138 -3.269019 -26.095019 33.298991 -0.158703 2.471329 0.069693 -0.029044 -117023.000000 0 0 1
21.546738 -2.510219 -26.508619 34.253029 -0.115978 2.455782 0.072448 -0.016344 -239968.000000 0 0 1
21.994638 -2.904419 -27.787069 35.557291 -0.131292 2.467820 0.084780 -0.025050 -651731.000000 0 0 1
23.328938 -2.277719 -28.141189 36.624498 -0.097326 2.447088 0.071702 -0.029732 321650.000000 0 0 1
24.468838 -3.030819 -27.659959 37.053788 -0.123237 2.413555 0.070005 -0.033480 1111830.000000 0 0 1
25.681138 -2.616219 -28.315129 38.315950 -0.101523 2.402367 0.053702 -0.027475 434624.000000 0 0 1
26.880538 -3.511019 -27.973309 38.953775 -0.129880 2.371887 0.066151 -0.028388 -445640.000000 0 0 1
26.825538 -4.710519 -28.734639 39.591387 -0.173826 2.382964 0.098338 -0.043473 568800.000000 0 0 1
28.059238 -5.407419 -28.578899 40.414286 -0.190380 2.356253 0.084221 -0.040695 305901.000000 0 0 1
28.193838 -6.490319 -27.523249 39.931767 -0.226262 2.331259 0.082057 -0.037218 -233670.000000 0 0 1
28.280438 -6.024919 -26.211679 39.027361 -0.209904 2.307194 0.069955 -0.023328 332122.000000 0 0 1
28.165638 -7.127419 -25.323259 38.540507 -0.247851 2.287703 0.045576 -0.020718 -192906.000000 0 0 1
28.185438 -6.782319 -23.832399 37.528682 -0.236142 2.258863 0.038258 -0.021747 -1748.750000 0 0 1
29.457938 -6.427819 -23.328899 38.122493 -0.214836 2.229315 0.021569 -0.013411 150976.000000 0 0 1
29.395438 -5.976819 -21.981499 37.188714 -0.200590 2.203193 0.028815 -0.015029 -685502.000000 0 0 1
30.731738 -5.547819 -21.401999 37.858468 -0.178601 2.171613 0.031659 -0.013261 -608133.000000 0 0 1
31.241238 -4.402319 -22.076099 38.506487 -0.139992 2.181335 0.044912 -0.020113 1480950.000000 0 0 1
32.591038 -3.979819 -21.707899 39.360483 -0.121512 2.154976 0.047787 -0.015004 1609590.000000 0 0 1
32.959938 -2.618819 -22.297199 39.879579 -0.079288 2.164112 0.065305 -0.027080 601234.000000 0 0 1
31.945038 -1.626019 -22.009999 38.827432 -0.050857 2.173494 0.045929 -0.024274 592994.000000 0 0 1
32.283938 -0.362519 -22.414999 39.304151 -0.011229 2.177662 0.070135 -0.026781 -911917.000000 0 0 1
31.240238 0.664581 -22.077399 38.259714 0.021270 2.185897 0.062881 -0.016180 -906914.000000 0 0 1
30.175238 0.480581 -22.978199 37.931169 0.015925 2.221551 0.051482 -0.017700 -207575.000000 0 0 1
29.127138 1.362581 -22.625199 36.907268 0.046746 2.230684 0.046111 -0.004262 -608257.000000 0 0 1
27.929838 1.342481 -23.559099 36.563770 0.048029 2.270942 0.045891 -0.005818 132729.000000 0 0 1
26.904538 2.210381 -23.024899 35.480782 0.081972 2.276987 0.052038 -0.003414 812206.000000 0 0 1
25.948538 2.685681 -23.953799 35.416437 0.103133 2.313588 0.048851 -0.015287 435430.000000 0 0 1
24.986738 3.772581 -23.428999 34.459940 0.149852 2.318410 0.061090 -0.008292 -251319.000000 0 0 1
25.668538 4.984381 -23.398299 35.088435 0.191796 2.300754 0.064831 0.001287 343411.000000 0 0 1
24.822238 6.059681 -23.024499 34.394633 0.239440 2.304226 0.072227 -0.010521 -312249.000000 0 0 1
25.605238 7.214681 -22.418599 34.788984 0.274645 2.271056 0.091922 -0.001123 308525.000000 0 0 1
26.569738 7.799381 -23.307499 36.194210 0.285523 2.270455 0.095364 -0.004665 369306.000000 0 0 1
26.835938 9.127081 -22.931599 36.459970 0.327834 2.251002 0.107868 -0.007644 90049.900000 0 0 1
27.775838 9.795481 -23.991199 37.987185 0.339044 2.254360 0.147228 -0.005691 52813.700000 0 0 1
27.169638 9.974181 -25.296189 38.439182 0.351833 2.289067 0.141387 -0.012330 102875.000000 0 0 1
26.141638 10.909281 -25.358479 38.019076 0.395343 2.300963 0.143947 -0.016561 -298380.000000 0 0 1
25.947338 11.428781 -26.824599 39.031276 0.414893 2.328505 0.134191 -0.012635 -515226.000000 0 0 1
25.368038 10.508981 -27.728139 39.023400 0.392739 2.361078 0.113489 -0.015466 -640.895000 0 0 1
26.169838 9.520881 -28.333319 39.727630 0.348925 2.364834 0.119145 -0.028043 -183890.000000 0 0 1
27.218238 9.977881 -29.388159 41.280195 0.351376 2.363024 0.104937 -0.021156 -23641.700000 0 0 1
28.288238 10.731181 -28.783359 41.759603 0.362580 2.331268 0.093726 -0.021476 1426600.000000 0 0 1
29.273738 11.317881 -29.683159 43.198798 0.368921 2.328327 0.099817 -0.014468 1296550.000000 0 0 1
30.157238 10.353081 -30.575419 44.175803 0.330697 2.335233 0.077541 -0.012671 -481612.000000 0 0 1
29.414838 9.639581 -31.539779 44.191763 0.316682 2.365567 0.073251 -0.013044 85400.600000 0 0 1
29.940238 8.368081 -31.764649 44.445872 0.272538 2.366965 0.071279 -0.008054 303767.000000 0 0 1
28.823338 7.466381 -32.406979 44.008453 0.253468 2.398502 0.076861 -0.017850 816995.000000 0 0 1
27.753338 7.126081 -31.535769 42.609078 0.251335 2.404043 0.085961 -0.026462 -413735.000000 0 0 1
26.770238 6.460481 -32.234309 42.396157 0.236803 2.434590 0.070604 -0.027703 63862.000000 0 0 1
25.455738 6.270881 -31.381529 40.891551 0.241535 2.445624 0.093095 -0.021797 398259.000000 0 0 1
24.778438 7.507681 -31.180429 40.528452 0.294200 2.448614 0.106863 -0.019872 460003.000000 0 0 1
23.629538 7.475681 -30.353899 39.186733 0.306407 2.456873 0.103952 -0.019482 -364167.000000 0 0 1
22.290838 7.331981 -31.052619 38.921775 0.317777 2.494469 0.108219 -0.018893 -690070.000000 0 0 1
21.915038 8.393881 -31.943149 39.636989 0.365783 2.507978 0.097997 -0.020809 211746.000000 0 0 1
20.592738 8.233081 -32.414889 39.275559 0.380338 2.541564 0.077294 -0.015454 -35205.500000 0 0 1
20.161838 9.297481 -33.430609 40.131640 0.432081 2.555347 0.074088 -0.009235 -206180.000000 0 0 1
20.692838 9.105381 33.164420 40.137019 0.414528 0.598325 0.058387 -0.008799 64246.200000 0 0 1
20.186338 10.073281 32.285354 39.386588 0.462859 0.609902 0.044630 -0.002551 -421288.000000 0 0 1
18.942438 9.694581 31.515585 38.026740 0.473036 0.593883 0.033384 0.002044 -646050.000000 0 0 1
19.094238 8.586781 30.577755 37.058357 0.422609 0.600374 0.029836 -0.001029 -160735.000000 0 0 1
20.034638 8.743981 29.524215 36.735857 0.411523 0.637327 0.048178 -0.005638 -567521.000000 0 0 1
19.795438 9.774781 28.380335 35.956211 0.458667 0.661124 0.035275 -0.009540 321282.000000 0 0 1
18.750238 9.467381 27.451275 34.565521 0.467576 0.653138 0.032846 0.002116 143393.000000 0 0 1
17.469638 9.808981 27.913705 34.359559 0.511620 0.622540 0.032015 -0.009322 -158194.000000 0 0 1
16.296638 9.265581 27.033985 32.897838 0.516979 0.606311 0.040980 -0.011547 -172101.000000 0 0 1
16.366238 9.612381 25.651095 31.909721 0.531051 0.637032 0.044897 -0.012015 262165.000000 0 0 1
15.151338 9.226281 25.024275 30.674120 0.546968 0.616667 0.062617 -0.015702 373438.000000 0 0 1
15.008438 7.691281 24.697645 29.906231 0.473569 0.599113 0.061284 -0.021273 -153539.000000 0 0 1
14.986638 6.866681 25.841925 30.652173 0.429641 0.567830 0.046632 -0.016656 -49973.000000 0 0 1
14.610238 5.526081 25.543415 29.940986 0.361602 0.548849 0.054882 -0.020311 21024.600000 0 0 1
14.685138 4.591081 26.834795 30.932790 0.303007 0.520603 0.051944 -0.014275 729720.000000 0 0 1
16.058238 4.326981 27.165905 31.852412 0.263204 0.549342 0.039590 -0.011521 817701.000000 0 0 1
16.129638 3.905181 28.455445 32.941281 0.237541 0.527986 0.040014 -0.013522 260032.000000 0 0 1
17.214538 2.833281 28.763745 33.641059 0.163124 0.545209 0.063142 -0.022998 181751.000000 0 0 1
16.784938 1.480081 28.532765 33.136739 0.087952 0.533443 0.058156 -0.023707 652280.000000 0 0 1
15.925538 1.013481 29.616795 33.642301 0.063553 0.494210 0.057388 -0.022564 677707.000000 0 0 1
15.417938 -0.437619 29.471035 33.263286 -0.028376 0.482165 0.057411 -0.030479 -489728.000000 0 0 1
14.723238 -0.731719 28.309085 31.917291 -0.049657 0.480094 0.055718 -0.027130 194929.000000 0 0 1
15.474338 -1.019719 27.089945 31.214741 -0.065802 0.519923 0.060921 -0.020083 21249.900000 0 0 1
16.647538 -2.066119 27.037865 31.819106 -0.123478 0.555310 0.070620 -0.019172 1126800.000000 0 0 1
17.897338 -1.747019 27.645775 32.979625 -0.097305 0.576697 0.080295 -0.029361 663779.000000 0 0 1
18.647038 -0.657719 27.132775 32.929198 -0.035257 0.602409 0.078625 -0.026779 -276611.000000 0 0 1
20.126738 -0.454119 27.575025 34.141965 -0.022559 0.630627 0.099814 -0.026445 246064.000000 0 0 1
20.981138 -1.345419 26.927505 34.162974 -0.064037 0.662906 0.071624 -0.023450 -198521.000000 0 0 1
22.317038 -0.907419 27.147385 35.154717 -0.040638 0.688459 0.072356 -0.025613 614819.000000 0 0 1
23.472538 -1.622919 26.404535 35.366557 -0.069031 0.727865 0.069241 -0.023940 110538.000000 0 0 1
23.599438 -1.231219 25.063855 34.447731 -0.052124 0.755993 0.067367 -0.005922 374385.000000 0 0 1
22.829938 -2.055019 24.161775 33.304963 -0.089772 0.759078 0.080538 0.000592 337950.000000 0 0 1
22.936538 -1.511119 22.704545 32.308894 -0.065788 0.791564 0.077581 -0.021072 -350496.000000 0 0 1
21.978038 -0.495719 22.589945 31.521191 -0.022551 0.771796 0.063588 -0.011893 -72452.600000 0 0 1
21.786438 -0.150819 21.267945 30.446627 -0.006922 0.797452 0.052247 -0.010459 -21112.200000 0 0 1
-31.584752 -27.371070 -10.022399 42.979303 0.714048 1.806154 0.012386 0.006147 -49664.500000 0 0 1
-31.457172 -26.269370 -9.136099 41.989306 0.695770 1.790132 0.023967 0.007689 -91910.300000 0 0 1
-31.974792 -26.551170 -7.823899 42.291434 0.692992 1.756868 0.044317 -0.004587 -488845.000000 0 0 1
-32.267892 -25.314570 -6.970999 41.600951 0.665226 1.739159 0.074936 -0.014066 236978.000000 0 0 1
-31.182602 -24.502070 -6.480699 40.183399 0.665998 1.732782 0.068708 -0.012269 -678472.000000 0 0 1
-30.449942 -25.206570 -5.546599 39.916599 0.691466 1.710202 0.080468 -0.016923 82636.500000 0 0 1
-29.150432 -24.378170 -5.200299 38.354739 0.696480 1.706799 0.084273 -0.016246 363506.000000 0 0 1
-29.148802 -23.169570 -4.393799 37.493828 0.671606 1.688253 0.087474 -0.017884 -122016.000000 0 0 1
-29.901332 -22.124970 -4.998999 37.531240 0.637027 1.704389 0.084857 -0.019158 71643.600000 0 0 1
-30.022972 -20.863470 -4.139499 36.794003 0.607306 1.683540 0.097121 -0.025971 -69707.600000 0 0 1
-28.809462 -20.150670 -4.190099 35.406095 0.610354 1.689418 0.111908 -0.032755 164906.000000 0 0 1
-28.682662 -19.210470 -3.157299 34.665629 0.590140 1.662001 0.117652 -0.026832 -165419.000000 0 0 1
-27.502702 -18.226470 -3.301599 33.158760 0.585262 1.670531 0.126389 -0.033250 -32633.900000 0 0 1
-27.770062 -17.205070 -4.305999 32.950454 0.554674 1.701852 0.143636 -0.047802 331914.000000 0 0 1
-26.846572 -16.129570 -4.346699 31.619539 0.541012 1.708702 0.151697 -0.051552 66167.800000 0 0 1
-27.284032 -15.186270 -5.501199 31.706536 0.507896 1.745182 0.156003 -0.061057 492337.000000 0 0 1
-28.524082 -14.553170 -5.197799 32.441257 0.471779 1.731712 0.141534 -0.043800 308881.000000 0 0 1
-28.785282 -13.429070 -6.015799 32.328350 0.436511 1.757972 0.187871 -0.058612 -8392.570000 0 0 1
-30.165342 -12.752970 -5.845899 33.268012 0.399979 1.747435 0.147826 -0.042662 194948.000000 0 0 1
-31.257242 -13.484670 -6.363399 34.631552 0.407287 1.755592 0.137872 -0.036258 391310.000000 0 0 1
-32.464632 -12.764370 -6.173299 35.425854 0.374611 1.745950 0.117516 -0.032395 1004180.000000 0 0 1
-33.763222 -13.361870 -6.863199 36.954002 0.376839 1.757604 0.077838 -0.021155 632199.000000 0 0 1
-34.175739 -14.588670 -6.409899 37.708053 0.403455 1.741613 0.063281 -0.025161 -15834.600000 0 0 1
-34.233062 -15.561070 -7.470899 38.338803 0.426642 1.766916 0.067579 -0.017685 -671691.000000 0 0 1
-34.912063 -16.839270 -6.884099 39.367550 0.449415 1.746567 0.047261 -0.020413 -776980.000000 0 0 1
-36.267402 -16.893370 -6.640299 40.556183 0.435916 1.735268 0.057530 -0.014325 -1013040.000000 0 0 1
-36.685222 -16.051670 -5.627299 40.436718 0.412454 1.710413 0.058819 -0.014274 -312500.000000 0 0 1
36.021312 -16.233270 -5.443799 39.883442 -0.423400 1.707716 0.083130 -0.024240 226756.000000 0 0 1
35.238242 -15.658070 -6.487899 39.102452 -0.418144 1.737488 0.075621 -0.021105 1316980.000000 0 0 1
33.809482 -15.794170 -6.371199 37.856691 -0.437026 1.739899 0.091400 -0.037852 1102510.000000 0 0 1
33.089972 -14.905270 -5.299099 36.676884 -0.423225 1.715784 0.112409 -0.038040 -697909.000000 0 0 1
33.349402 -15.277270 -3.958699 36.895107 -0.429567 1.678299 0.107194 -0.033574 443824.000000 0 0 1
32.655872 -14.448770 -3.026599 35.837596 -0.416562 1.655350 0.143472 -0.036697 -684484.000000 0 0 1
32.497652 -15.143870 -1.639999 35.890442 -0.436079 1.616507 0.151976 -0.033894 1125190.000000 0 0 1
33.739262 -15.282870 -0.871399 37.049471 -0.425321 1.594318 0.165234 -0.033448 2204600.000000 0 0 1
34.881822 -15.982170 -1.409599 38.394769 -0.429636 1.607518 0.130391 -0.031477 88383.600000 0 0 1
34.730112 -17.442670 -1.957399 38.913479 -0.465434 1.621119 0.110057 -0.031096 -755471.000000 0 0 1
34.566132 -18.455870 -0.943599 39.196008 -0.490421 1.594873 0.118413 -0.032651 372326.000000 0 0 1
34.119132 -19.764670 -1.438699 39.456650 -0.525048 1.607267 0.096432 -0.030353 3291.750000 0 0 1
35.017742 -20.632270 -2.364999 40.712726 -0.532437 1.628919 0.095311 -0.030613 -29718.100000 0 0 1
35.040342 -20.022770 -3.658099 40.523062 -0.519140 1.661191 0.086547 -0.033101 -279940.000000 0 0 1
35.886142 -20.592270 -4.595499 41.629021 -0.520949 1.681414 0.085779 -0.029987 -385036.000000 0 0 1
35.947902 -19.846570 -5.940499 41.490090 -0.504448 1.714469 0.085446 -0.027610 -424172.000000 0 0 1
34.827182 -19.986470 -6.753399 40.718546 -0.520989 1.737422 0.089147 -0.030144 -19945.500000 0 0 1
34.967782 -19.236670 -7.929899 40.690030 -0.502940 1.766937 0.084801 -0.034563 -181858.000000 0 0 1
33.846802 -19.610170 -8.904699 40.118057 -0.525120 1.794623 0.076411 -0.042407 -279838.000000 0 0 1
34.151312 -20.828870 -9.526199 41.120584 -0.547667 1.804585 0.075507 -0.043994 259301.000000 0 0 1
33.421232 -21.073770 -10.700299 40.933836 -0.562581 1.835274 0.077149 -0.043720 -275878.000000 0 0 1
33.493932 -22.567670 -11.119399 41.890145 -0.592914 1.839459 0.065274 -0.042352 -273907.000000 0 0 1
32.859722 -23.299470 -10.111699 41.531592 -0.616780 1.816738 0.056793 -0.039231 81219.400000 0 0 1
32.701902 -24.692070 -10.416499 42.280210 -0.646735 1.819727 0.043838 -0.022156 -609227.000000 0 0 1
31.853872 -25.305170 -9.312799 41.734267 -0.671326 1.795836 0.040593 -0.031789 -797145.000000 0 0 1
30.618752 -24.677770 -9.258099 40.400652 -0.678370 1.802008 0.044691 -0.032423 -955459.000000 0 0 1
29.644802 -25.399570 -8.540999 39.961245 -0.708427 1.786190 0.030060 -0.025156 -545327.000000 0 0 1
28.280822 -24.763170 -8.670199 38.577090 -0.719179 1.797483 0.034742 -0.036257 -870698.000000 0 0 1
27.674122 -24.790370 -9.929199 38.457879 -0.730488 1.831938 0.052643 -0.028901 -528826.000000 0 0 1
26.643322 -23.867870 -9.968099 37.133608 -0.730506 1.842568 0.081328 -0.038815 -548520.000000 0 0 1
25.920222 -23.846470 -11.332399 36.999126 -0.743753 1.882088 0.148380 -0.056809 -54926.800000 0 0 1
25.195622 -24.956870 -11.802999 37.376136 -0.780638 1.892085 0.121963 -0.047743 369639.000000 0 0 1
24.185222 -24.722370 -12.754699 36.861944 -0.796381 1.924114 0.120489 -0.032191 -104795.000000 0 0 1
23.480022 -26.038270 -13.041799 37.408441 -0.837015 1.926908 0.119181 -0.040741 -474564.000000 0 0 1
24.250722 -26.883070 -13.868799 38.770357 -0.836832 1.936618 0.113369 -0.034217 145113.000000 0 0 1
23.955122 -28.253470 -13.796199 39.527731 -0.867543 1.927328 0.114677 -0.036377 -957967.000000 0 0 1
24.826922 -29.223170 -14.579799 41.023655 -0.866556 1.934138 0.105006 -0.037853 -467392.000000 0 0 1
24.601622 -29.120970 -15.993699 41.340889 -0.869324 1.968035 0.091445 -0.030594 408256.000000 0 0 1
24.764522 -30.362970 -16.643099 42.569758 -0.886606 1.972471 0.086980 -0.036634 -255630.000000 0 0 1
24.597322 -30.463970 -18.095899 43.134016 -0.891545 2.003721 0.085912 -0.025785 385779.000000 0 0 1
23.231322 -30.274170 -18.469399 42.395028 -0.916274 2.021557 0.090800 -0.025920 493435.000000 0 0 1
23.044322 -30.431570 -19.865099 43.031888 -0.922671 2.050636 0.079356 -0.023556 -195863.000000 0 0 1
21.586022 -30.130870 -20.234599 42.228719 -0.949142 2.070502 0.067460 -0.019187 -308611.000000 0 0 1
21.418222 -30.217070 -21.628899 42.890801 -0.954181 2.099342 0.048312 -0.018939 -1451200.000000 0 0 1
20.138422 -30.018270 -22.015199 42.324007 -0.979888 2.117833 0.055165 -0.027243 -2137730.000000 0 0 1
19.862622 -30.102270 -23.540899 43.067904 -0.987536 2.149094 0.052262 -0.020648 -400526.000000 0 0 1
20.458322 -29.090470 -24.309399 43.078362 -0.957882 2.170389 0.059353 -0.022213 374862.000000 0 0 1
20.557522 -29.440270 -25.699289 44.156480 -0.961226 2.191988 0.064577 -0.022808 -519361.000000 0 0 1
21.093822 -28.320370 -26.595799 44.207796 -0.930613 2.216310 0.066420 -0.029828 -3449.390000 0 0 1
20.244122 -27.202070 -26.768479 43.201025 -0.931009 2.239062 0.085588 -0.038446 400212.000000 0 0 1
19.098222 -27.388570 -27.604709 43.323156 -0.961880 2.261632 0.105297 -0.042701 134882.000000 0 0 1
18.307422 -26.097370 -27.840029 42.323772 -0.959061 2.288673 0.099905 -0.045025 -219127.000000 0 0 1
17.572322 -25.664770 -26.695189 40.989024 -0.970422 2.280062 0.077828 -0.031997 -65637.100000 0 0 1
17.164322 -24.337170 -26.895899 40.128558 -0.956541 2.305333 0.067011 -0.021929 -669992.000000 0 0 1
15.955722 -24.032270 -26.034669 38.857935 -0.984691 2.305000 0.068162 -0.023181 -268508.000000 0 0 1
14.709922 -24.553970 -26.589749 39.067813 -1.031050 2.319384 0.096370 -0.033339 1725290.000000 0 0 1
13.507222 -24.050070 -25.948599 37.870579 -1.059069 2.325663 0.083080 -0.029175 1124790.000000 0 0 1
13.344922 -24.329470 -24.408699 36.956659 -1.069099 2.292239 0.068732 -0.018584 -1554360.000000 0 0 1
14.304222 -23.740670 -23.619999 36.416130 -1.028526 2.276558 0.046931 -0.022353 -878891.000000 0 0 1
14.452422 -24.344070 -22.345899 36.067235 -1.035042 2.238981 0.050428 -0.027264 512177.000000 0 0 1
15.755622 -23.801770 -21.660299 35.832003 -0.986065 2.219929 0.025842 -0.029044 264729.000000 0 0 1
15.749722 -22.455670 -21.153399 34.637800 -0.959152 2.227744 0.030273 -0.031899 1561.410000 0 0 1
16.954022 -21.966070 -20.576399 34.544686 -0.913471 2.208866 0.036794 -0.029323 -228089.000000 0 0 1
16.901022 -20.496370 -19.973299 33.236703 -0.881243 2.215474 0.047873 -0.014393 -13238.100000 0 0 1
16.161222 -20.377370 -18.783899 32.082038 -0.900279 2.196288 0.049456 -0.019401 408945.000000 0 0 1
14.778022 -20.097770 -18.999599 31.357536 -0.936766 2.221696 0.050104 -0.021558 35278.100000 0 0 1
14.073522 -19.984570 -17.637899 30.142040 -0.957244 2.195873 0.061928 -0.020723 -331723.000000 0 0 1
13.985822 -18.722170 -16.976299 28.884557 -0.929206 2.199046 0.087315 -0.023689 99488.400000 0 0 1
13.577522 -18.876270 -15.651299 28.029018 -0.947241 2.163248 0.074219 -0.021375 -181839.000000 0 0 1
13.562322 -17.559570 -14.841999 26.693820 -0.913137 2.160373 0.083596 -0.022235 117605.000000 0 0 1
12.362922 -16.796870 -14.986899 25.682364 -0.936299 2.193888 0.095490 -0.033513 455112.000000 0 0 1
12.467622 -15.505270 -14.377499 24.547250 -0.893567 2.196549 0.083864 -0.032631 -232830.000000 0 1 0
11.148922 -14.791270 -14.019599 23.229922 -0.924899 2.218698 0.084472 -0.029157 -7637.970000 0 1 0
10.449622 -14.327970 -15.183299 23.345619 -0.940665 2.278868 0.108370 -0.021522 -285153.000000 0 1 0
9.172022 -13.839470 -14.909199 22.314595 -0.985514 2.302498 0.099899 -0.019245 -352611.000000 0 1 0
8.396122 -13.426270 -16.188299 22.645543 -1.011945 2.367214 0.080362 -0.006226 -133087.000000 0 1 0
8.846922 -12.339970 -16.953399 22.758749 -0.948797 2.411208 0.075433 -0.002692 -369563.000000 0 1 0
9.870622 -12.631070 -17.853999 23.994549 -0.907466 2.409961 0.090202 -0.002616 -175494.000000 0 1 0
10.261422 -11.416070 -18.772399 24.249256 -0.838613 2.456157 0.087870 -0.003866 276402.000000 0 1 0
9.235422 -11.224370 -19.740799 24.514866 -0.882306 2.506907 0.086411 -0.007069 339397.000000 0 1 0
9.330222 -9.967570 -20.369799 24.522117 -0.818413 2.551107 0.069406 -0.013506 -124220.000000 0 1 0
9.337822 -10.083170 -21.884899 25.842099 -0.823758 2.580868 0.085042 -0.011345 111273.000000 0 0 1
10.487022 -10.653670 -22.483199 26.999492 -0.793281 2.554811 0.062345 -0.015621 -102365.000000 0 0 1
10.414422 -10.463670 -23.903399 28.094859 -0.787757 2.588322 0.060874 -0.011238 203681.000000 0 0 1
11.381322 -11.380070 -24.697899 29.479259 -0.785343 2.564048 0.096987 -0.008887 221213.000000 0 0 1
11.099722 -12.744070 -24.460299 29.730816 -0.854252 2.536986 0.079577 -0.016265 -37197.500000 0 0 1
12.192422 -13.566770 -24.816999 30.799283 -0.838701 2.507763 0.059430 -0.024640 -2055.160000 0 0 1
11.974722 -15.085270 -24.491999 31.157942 -0.899846 2.475205 0.058578 -0.027455 -148184.000000 0 0 1
10.939722 -15.584370 -25.302199 31.666250 -0.958751 2.496472 0.071454 -0.028411 -307237.000000 0 0 1
10.613622 -16.906070 -24.881099 31.898797 -1.010186 2.465464 0.073048 -0.028629 -205390.000000 0 0 1
9.544022 -17.704470 -25.595989 32.552900 -1.076380 2.475576 0.080738 -0.024277 -355640.000000 0 0 1
9.871522 -18.265070 -26.852799 33.943078 -1.075308 2.483422 0.078612 -0.037807 596082.000000 0 0 1
8.733622 -18.981970 -27.409539 34.465551 -1.139574 2.490255 0.085290 -0.032738 889516.000000 0 0 1
9.087322 -19.934470 -28.617399 36.040506 -1.143080 2.488214 0.092434 -0.041424 52686.500000 0 0 1
10.002122 -20.949770 -28.252549 36.566950 -1.125364 2.453762 0.085876 -0.036870 45498.400000 0 0 1
9.978622 -21.973770 -29.233609 37.908091 -1.144525 2.451474 0.094566 -0.032514 33492.000000 0 0 1
10.681622 -23.282470 -28.723599 38.486564 -1.140662 2.413324 0.078667 -0.035006 104430.000000 0 0 1
10.507322 -24.291470 -29.694389 39.777331 -1.162547 2.413606 0.089004 -0.034037 185405.000000 0 0 1
11.143222 -25.547670 -29.482299 40.571675 -1.159500 2.384261 0.100444 -0.030491 273043.000000 0 0 1
10.391922 -26.375270 -28.394929 40.123795 -1.195471 2.357010 0.089395 -0.029699 -68138.200000 0 0 1
11.061422 -26.372970 -27.154779 39.436920 -1.173659 2.330301 0.091910 -0.026647 -511865.000000 0 0 1
10.329722 -26.457670 -25.947779 38.470751 -1.198572 2.311057 0.077996 -0.021694 800132.000000 0 0 1
9.269422 -25.321870 -25.633199 37.204572 -1.219883 2.330877 0.071378 -0.021904 1276710.000000 0 0 1
10.041722 -24.213670 -25.147169 36.325172 -1.177671 2.335439 0.077800 -0.017070 392035.000000 0 0 1
9.296822 -23.042970 -25.305049 35.464840 -1.187314 2.365313 0.073710 -0.001225 -66080.900000 0 0 1
10.190622 -21.823170 -25.049999 34.750568 -1.133925 2.375826 0.097036 -0.013500 163464.000000 0 0 1
10.553922 -21.650870 -23.641199 33.749841 -1.117231 2.346871 0.080032 -0.012750 267574.000000 0 0 1
11.624522 -20.718370 -23.555099 33.454791 -1.059491 2.351934 0.071580 -0.018143 204546.000000 0 0 1
12.389122 -20.732270 -22.183899 32.793944 -1.032161 2.313746 0.063375 -0.017483 2196.580000 0 0 1
11.733522 -20.079470 -21.114799 31.411708 -1.041961 2.307966 0.064888 -0.015582 -265021.000000 0 0 1
11.655322 -18.634870 -21.086199 30.458705 -1.011868 2.335451 0.059435 -0.019051 -529869.000000 0 0 1
12.953722 -17.839470 -20.982899 30.435632 -0.942750 2.331483 0.073648 -0.024366 -381111.000000 0 0 1
13.778422 -17.956670 -22.124899 31.651194 -0.916305 2.344826 0.068748 -0.022921 -14156.100000 0 0 1
14.801022 -16.962570 -22.006799 31.481713 -0.853345 2.344843 0.079664 -0.021846 843606.000000 0 0 1
16.047122 -17.163770 -22.975699 32.863169 -0.819008 2.344979 0.052074 -0.017860 660470.000000 0 0 1
17.133022 -17.792070 -22.308099 33.282871 -0.804266 2.305352 0.064266 -0.013689 -860475.000000 0 0 1
18.277922 -17.319970 -22.913199 34.045242 -0.758494 2.309084 0.057537 -0.010909 -1180320.000000 0 0 1
19.521822 -17.835070 -22.180999 34.513591 -0.740276 2.268780 0.044477 -0.005066 -418168.000000 0 0 1
19.604922 -19.204770 -22.131999 35.256227 -0.775088 2.249452 0.038254 -0.011979 -407216.000000 0 0 1
20.840622 -19.557270 -21.594599 35.821014 -0.753641 2.217861 0.025531 -0.008536 -326670.000000 0 0 1
21.155022 -21.023070 -21.334099 36.669445 -0.782270 2.191730 0.044052 -0.016439 -170818.000000 0 0 1
20.348122 -21.520470 -20.238899 35.871852 -0.813391 2.170260 0.036629 -0.011261 601302.000000 0 0 1
20.724622 -22.824070 -19.968399 36.731255 -0.833570 2.145558 0.059785 -0.015134 -264620.000000 0 0 1
-16.895762 12.878481 28.669225 35.682580 -0.651283 0.637726 0.044557 -0.027416 287098.000000 0 0 1
-18.082562 13.467181 28.145805 36.062867 -0.640139 0.675387 0.051214 -0.031131 409465.000000 0 0 1
-17.811962 13.659181 26.791995 34.952113 -0.654201 0.697369 0.060260 -0.023914 399412.000000 0 0 1
-19.029362 14.318281 26.080585 35.317513 -0.645055 0.740012 0.071462 -0.024926 375368.000000 0 0 1
-19.203162 15.654581 26.549725 36.314119 -0.683946 0.750844 0.069520 -0.020186 179736.000000 0 0 1
-20.148862 16.395781 25.768215 36.589605 -0.683058 0.789431 0.086973 -0.017642 43768.100000 0 0 1
-20.043262 17.898381 26.116645 37.472171 -0.728927 0.799645 0.089372 -0.005667 1302730.000000 0 0 1
-18.916762 18.735681 25.700265 37.005044 -0.780589 0.803062 0.033759 -0.006450 963200.000000 0 0 1
-17.692162 18.580681 26.410135 36.820505 -0.809889 0.770924 0.036876 0.010741 276567.000000 0 0 1
-16.648862 19.551781 25.830445 36.423463 -0.865417 0.782475 0.050239 0.007224 -32891.800000 0 0 1
-17.024162 20.903981 26.018395 37.466724 -0.887338 0.803155 0.063614 0.003465 76636.600000 0 0 1
-15.971062 21.709781 25.538075 37.129270 -0.936535 0.812321 0.085234 -0.009682 126499.000000 0 0 1
-16.255762 23.179881 25.424175 38.051878 -0.959207 0.839083 0.090176 -0.011569 -17189.100000 0 0 1
-15.992562 23.829681 26.651595 39.165333 -0.979717 0.822366 0.085305 -0.010200 157339.000000 0 0 1
-16.309462 25.240281 26.547405 40.097819 -0.997120 0.847224 0.083830 -0.011337 104345.000000 0 0 1
-15.599362 26.022281 27.713105 41.091549 -1.030773 0.830613 0.068659 -0.001867 460695.000000 0 0 1
-14.209062 26.161881 27.466065 40.505879 -1.073250 0.825655 0.076410 -0.005135 206876.000000 0 0 1
-13.621362 26.977281 28.506215 41.544187 -1.103221 0.814591 0.095401 0.003377 644571.000000 0 0 1
-12.068462 27.026981 28.508285 41.095350 -1.150829 0.804168 0.112886 -0.008207 400624.000000 0 0 1
-11.446762 27.706581 27.441645 40.641443 -1.179012 0.829542 0.102427 -0.010190 -925042.000000 0 0 1
-10.074462 27.555381 27.616165 40.292014 -1.220285 0.815643 0.082097 -0.001854 -770335.000000 0 0 1
-9.384262 27.959081 26.265605 39.492488 -1.246969 0.843197 0.078435 -0.009724 1317270.000000 0 0 1
-7.946162 27.781181 26.389345 39.132251 -1.292208 0.830695 0.067810 -0.007102 1679820.000000 0 0 1
-7.213462 28.199081 25.194975 38.496870 -1.320362 0.857317 0.071658 -0.012521 1512720.000000 0 0 1
-5.664562 27.921481 25.360225 38.142331 -1.370638 0.843458 0.057498 -0.019755 651091.000000 0 0 1
-5.014562 28.891381 26.125505 39.273398 -1.398942 0.843006 0.064954 -0.017372 910298.000000 0 0 1
-3.577562 28.804881 26.148455 39.067401 -1.447229 0.837508 0.042590 -0.018561 893527.000000 0 0 1
-2.834562 29.585581 25.100305 38.902014 -1.475279 0.869487 0.041033 -0.011855 -791105.000000 0 0 1
-3.075162 29.278081 23.710595 37.800198 -1.466147 0.892765 0.039959 -0.006107 -146020.000000 0 0 1
-2.418262 30.123481 22.795945 37.854025 -1.490690 0.924534 0.039763 -0.011234 -214196.000000 0 0 1
-2.812562 29.820981 21.323245 36.767951 -1.476760 0.952140 0.034488 -0.005816 353314.000000 0 0 1
-4.196862 29.840681 21.060445 36.764416 -1.431070 0.960819 0.038526 -0.000419 94710.100000 0 0 1
-4.914262 28.602881 21.175445 35.925955 -1.400647 0.940457 0.044260 -0.000929 996521.000000 0 0 1
-6.405462 28.650781 20.666745 35.902807 -1.350843 0.957422 0.054559 -0.009769 402870.000000 0 0 1
-6.580562 28.738381 19.231445 35.200097 -1.345695 0.992801 0.045034 -0.010827 556436.000000 0 0 1
-7.611562 27.808481 18.822845 34.431773 -1.303626 0.992413 0.029987 -0.007729 -307809.000000 0 0 1
-7.093062 26.317181 18.665645 33.035010 -1.307530 0.970331 0.016172 -0.009874 225495.000000 0 0 1
-6.151562 26.033181 17.655845 32.051476 -1.338756 0.987403 0.017624 -0.010185 -235944.000000 0 0 1
-4.899262 26.630481 17.864545 32.439594 -1.388859 0.987591 0.027097 -0.007511 -984994.000000 0 0 1
-4.106562 26.845481 16.539645 31.797855 -1.419003 1.023770 0.017924 -0.013674 -17279.000000 0 0 1
-3.633262 25.610681 16.019345 30.425762 -1.429872 1.016311 0.029551 -0.017174 -125129.000000 0 0 1
-2.842462 25.899881 14.887645 30.008756 -1.461486 1.051683 0.037247 -0.029854 -200860.000000 0 0 1
-2.107062 24.646681 14.339445 28.592277 -1.485513 1.045448 0.036405 -0.026942 -372814.000000 0 0 1
-1.237262 24.096681 15.272745 28.555868 -1.519496 1.006481 0.044226 -0.022366 -103370.000000 0 0 1
-0.378762 23.090681 14.761045 27.408237 -1.554395 1.002066 0.041764 -0.031976 -87343.700000 0 0 1
0.954738 22.824381 15.467345 27.588089 1.528991 0.975622 0.035648 -0.021704 -454102.000000 0 0 1
1.896438 23.850581 15.282945 28.390405 1.491450 1.002361 0.044082 -0.026617 -495824.000000 0 0 1
3.102838 23.285081 15.754645 28.284827 1.438322 0.980027 0.047251 -0.024148 -832505.000000 0 0 1
4.246038 24.272381 15.738245 29.238155 1.397616 1.002404 0.065871 -0.028130 -232141.000000 0 0 1
5.521338 23.652981 15.809445 28.980808 1.341472 0.993794 0.069691 -0.021227 -309175.000000 0 0 1
6.564038 24.570281 15.826145 29.954168 1.309739 1.014146 0.079304 -0.026125 -72375.400000 0 0 1
7.958438 23.874481 15.906645 29.771613 1.249035 1.007130 0.090651 -0.024032 266530.000000 0 0 1
8.303538 23.174681 14.736445 28.691068 1.226745 1.031392 0.079654 -0.016723 275626.000000 0 0 1
9.082438 23.884781 13.756045 29.020721 1.207422 1.076960 0.078895 -0.021682 44131.400000 0 0 1
9.707538 23.018181 12.685145 28.017599 1.171696 1.100942 0.074038 -0.020046 -190916.000000 0 0 1
10.668138 22.066881 13.074045 27.779256 1.120480 1.080780 0.072666 -0.017781 -244908.000000 0 0 1
11.325638 21.518881 11.960745 27.099663 1.086322 1.113681 0.078988 -0.021953 307166.000000 0 0 1
12.767138 21.071181 12.327245 27.549146 1.026046 1.106869 0.095957 -0.018725 254158.000000 0 0 1
12.712338 19.900181 13.031645 26.971179 1.002331 1.066525 0.094735 -0.021791 -86676.300000 0 0 1
14.039638 19.429381 13.079545 27.307266 0.945064 1.071308 0.082505 -0.019889 -140014.000000 0 0 1
14.372038 18.443081 14.191445 27.351414 0.908828 1.025284 0.099259 -0.023135 1445330.000000 0 0 1
15.782938 18.065381 14.225145 27.889315 0.852728 1.035545 0.079993 -0.022494 1690810.000000 0 0 1
16.241038 17.698781 15.542245 28.610829 0.828323 0.996517 0.073171 -0.022912 -131630.000000 0 0 1
17.535438 16.896381 15.576245 28.906724 0.766840 1.001731 0.060307 -0.020005 -402698.000000 0 0 1
18.041638 16.662781 16.873745 29.797185 0.745688 0.968803 0.047995 -0.023795 423291.000000 0 0 1
19.138038 15.745281 16.834045 29.959363 0.688443 0.974120 0.045669 -0.023126 74810.800000 0 0 1
19.533038 15.566081 18.297745 30.962072 0.672854 0.938532 0.044005 -0.026780 -500624.000000 0 0 1
20.138838 16.554781 19.085945 32.309548 0.688032 0.938844 0.051055 -0.020419 -613530.000000 0 0 1
19.262938 17.436381 19.636845 32.568295 0.735668 0.923611 0.042168 -0.018060 -645242.000000 0 0 1
19.869838 18.555081 20.608045 34.114411 0.751195 0.922178 0.032981 -0.016165 125379.000000 0 0 1
18.876538 19.516381 20.999645 34.324888 0.802062 0.912474 0.080358 -0.027396 416333.000000 0 0 1
19.392938 20.543781 21.799845 35.684257 0.814207 0.913588 0.070504 -0.018168 -184600.000000 0 0 1
18.315638 21.577481 22.198345 35.969665 0.866981 0.905693 0.089843 -0.026872 259955.000000 0 0 1
17.514238 21.030481 23.257975 35.916056 0.876371 0.866412 0.092952 -0.030953 -306218.000000 0 0 1
16.594138 21.990281 23.652875 36.309728 0.924350 0.861342 0.085332 -0.039491 -253718.000000 0 0 1
15.825738 21.586281 24.947925 36.589896 0.938174 0.820541 0.102431 -0.034748 -698594.000000 0 0 1
14.757638 20.769881 24.670945 35.465918 0.953038 0.801508 0.104670 -0.043873 -1126910.000000 0 0 1
14.057938 20.605281 25.876525 35.941588 0.972083 0.767051 0.092030 -0.033851 -229502.000000 0 0 1
13.008038 19.496481 25.928565 34.951571 0.982425 0.734982 0.093438 -0.026429 -211845.000000 0 0 1
13.569138 18.218281 25.953945 34.491079 0.930626 0.718973 0.086409 -0.033224 -188019.000000 0 0 1
14.270938 17.730081 24.827455 33.681122 0.893075 0.741979 0.097803 -0.035685 -464851.000000 0 0 1
13.523638 17.383281 23.550875 32.244549 0.909635 0.751914 0.106317 -0.030326 -849984.000000 0 0 1
13.149938 18.457281 22.718145 32.089036 0.951762 0.784174 0.117167 -0.028638 297968.000000 0 0 1
14.168638 18.998781 21.854645 32.238634 0.930011 0.825891 0.116840 -0.033640 689217.000000 0 0 1
14.780038 18.035881 20.750745 31.214355 0.884290 0.843594 0.116221 -0.030006 85093.400000 0 0 1
13.759438 17.546381 19.903445 29.888873 0.905779 0.842077 0.119372 -0.026789 -11771.500000 0 0 1
14.206338 16.642381 18.945445 28.943372 0.864202 0.857183 0.086127 -0.023364 132688.000000 0 0 1
13.026738 16.128481 18.089545 27.514641 0.891387 0.853365 0.092346 -0.015421 348247.000000 0 0 1
12.452038 17.042881 17.158645 27.201694 0.939808 0.888221 0.114444 -0.019494 136985.000000 0 0 1
11.332338 16.507381 16.485745 25.936370 0.969188 0.881981 0.105568 -0.027098 135154.000000 0 0 1
10.884838 17.249681 15.226545 25.453465 1.007882 0.929529 0.099929 -0.020667 -671514.000000 0 0 1
10.104338 18.316681 15.499145 26.035014 1.066690 0.933133 0.104207 -0.022237 -583129.000000 0 0 1
9.603438 18.907181 14.306545 25.580945 1.100829 0.977297 0.088389 -0.010272 -375968.000000 0 0 1
8.528638 19.955281 14.518445 26.110078 1.166905 0.981174 0.090999 -0.009139 550751.000000 0 0 1
7.275238 19.396781 15.006745 25.580590 1.211960 0.943886 0.056638 -0.013139 601829.000000 0 0 1
6.376638 20.489781 15.112745 26.246670 1.269087 0.957218 0.065834 -0.015469 -182491.000000 0 0 1
5.100038 20.050281 15.841745 26.057342 1.321716 0.917311 0.053296 -0.022523 218784.000000 0 0 1
4.068538 19.477881 15.030145 24.936843 1.364877 0.923880 0.040850 -0.019914 -906246.000000 0 1 0
2.962738 19.160881 15.761245 24.986677 1.417387 0.888231 0.028593 -0.018400 -31649.500000 0 1 0
1.830338 18.477181 14.859845 23.781744 1.472059 0.895867 0.021499 -0.021617 611273.000000 0 1 0
1.127438 19.438281 14.161245 24.076103 1.512860 0.941981 0.020379 -0.026882 150439.000000 0 1 0
0.017138 18.951381 13.376345 23.196589 1.569892 0.956172 0.017802 -0.028643 590341.000000 0 1 0
-0.683462 20.089081 12.569345 23.707103 -1.536788 1.011968 0.019623 -0.028395 269226.000000 0 1 0
-1.875362 20.573481 13.157945 24.493196 -1.479893 1.003673 0.021586 -0.025643 -442392.000000 0 1 0
-2.827362 20.884181 12.191545 24.347008 -1.436232 1.046342 0.024878 -0.027235 -53667.900000 0 1 0
-4.048562 21.608581 12.801745 25.440250 -1.385585 1.043489 0.021825 -0.026903 63501.100000 0 0 1
-4.891062 20.806281 13.592845 25.329612 -1.339912 1.004348 0.033983 -0.027087 31193.600000 0 0 1
-5.817862 21.639181 14.301945 26.582839 -1.308149 1.002717 0.024267 -0.015557 -41506.000000 0 0 1
-6.625662 20.955481 15.381445 26.825742 -1.264564 0.960166 0.025481 -0.020813 -995271.000000 0 0 1
-7.508362 19.975181 14.906345 26.030415 -1.211250 0.961060 0.035809 -0.024760 -183260.000000 0 0 1
-8.046962 19.124981 15.937645 26.163468 -1.172525 0.915800 0.038579 -0.014047 4878.720000 0 0 1
-9.200662 19.770081 16.740745 27.491105 -1.135224 0.916058 0.032660 -0.007063 326970.000000 0 0 1
-10.355662 19.864381 15.869145 27.452926 -1.090240 0.954460 0.029589 -0.021279 861751.000000 0 0 1
-11.583562 19.831481 16.609845 28.343492 -1.042150 0.944658 0.027347 -0.005276 949639.000000 0 0 1
-12.848162 19.661681 15.719545 28.262362 -0.991991 0.980989 0.030181 -0.018751 180080.000000 0 0 1
-13.454462 20.884781 15.349745 29.202933 -0.998493 1.017349 0.017289 -0.017715 -230031.000000 0 0 1
-14.373962 20.673781 14.302145 28.958028 -0.963249 1.054236 0.016117 -0.024926 284941.000000 0 0 1
-15.379362 21.886081 14.133145 30.253448 -0.958260 1.084722 0.019344 -0.026449 68742.100000 0 0 1
-16.389562 21.895181 15.103745 31.243237 -0.928226 1.066234 0.009934 -0.032239 -714631.000000 0 0 1
-17.277562 22.948881 14.906045 32.362872 -0.925460 1.092136 0.037394 -0.031490 -480557.000000 0 0 1
-18.618262 22.666681 15.593645 33.220173 -0.883146 1.082182 0.084751 -0.036617 -978720.000000 0 0 1
-19.274862 21.562481 15.052045 32.604064 -0.841357 1.090929 0.078722 -0.038151 353745.000000 0 0 1
-20.419162 21.112081 15.785045 33.344112 -0.802081 1.077652 0.087249 -0.027630 1032030.000000 0 0 1
-21.704562 21.956181 15.972745 34.760473 -0.791161 1.093354 0.096385 -0.033662 -265336.000000 0 0 1
-22.550762 22.156581 14.859245 34.932050 -0.776581 1.131419 0.106795 -0.035687 557924.000000 0 0 1
-23.430562 23.291081 14.992245 36.279927 -0.782413 1.144789 0.133746 -0.048564 412692.000000 0 0 1
-22.908862 24.574481 14.306045 36.515531 -0.820462 1.168231 0.116733 -0.041810 -711599.000000 0 0 1
-21.647862 24.979681 14.696345 36.174535 -0.856733 1.152437 0.092062 -0.049828 -779126.000000 0 0 1
-21.179562 26.054781 13.898245 36.339878 -0.888247 1.178348 0.070335 -0.038061 565929.000000 0 0 1
-19.686662 26.327381 14.281745 35.842209 -0.928728 1.160957 0.055497 -0.033642 505446.000000 0 0 1
-18.665262 25.623681 13.610045 34.499252 -0.941238 1.165270 0.055068 -0.025887 -819094.000000 0 0 1
-17.525462 26.412181 13.610745 34.496341 -0.984963 1.165212 0.012975 -0.025544 -735281.000000 0 0 1
-16.418562 25.681481 12.799945 33.059738 -1.001969 1.173229 0.021160 -0.023877 -318183.000000 0 0 1
-15.265262 26.452981 12.650245 33.057785 -1.047407 1.178111 0.017749 -0.019052 435091.000000 0 0 1
-14.248862 25.899881 11.767945 31.816952 -1.067837 1.191934 0.017888 -0.015247 1434370.000000 0 0 1
-12.839262 26.571781 11.946245 31.837383 -1.120686 1.186155 0.017163 -0.003073 395863.000000 0 0 1
-11.777962 25.625081 11.815745 30.577394 -1.139966 1.174048 0.007968 -0.000298 984172.000000 0 0 1
-10.453662 26.128481 12.015645 30.599874 -1.190215 1.167264 0.030463 -0.007973 1024780.000000 0 0 1
-9.856862 27.322981 11.126145 31.104568 -1.224574 1.204991 0.036367 -0.008492 -140670.000000 0 0 1
-8.641162 27.837781 11.657745 31.392910 -1.269815 1.190334 0.048073 -0.019821 312401.000000 0 0 1
-8.169262 28.901481 10.860745 31.937255 -1.295324 1.223810 0.053699 -0.019192 282118.000000 0 0 1
-6.882162 29.536381 11.492745 32.432163 -1.341875 1.208564 0.041297 -0.022106 786096.000000 0 0 1
-5.720062 28.784881 11.157245 31.397016 -1.374634 1.207497 0.058566 -0.022766 -150533.000000 0 0 1
-4.577262 29.276381 11.810745 31.899084 -1.415705 1.191515 0.063112 -0.030053 -242720.000000 0 0 1
-3.300062 28.945281 11.021445 31.147905 -1.457276 1.209120 0.079771 -0.035908 -382668.000000 0 0 1
-3.251162 29.780481 9.838445 31.531605 -1.462056 1.253479 0.087523 -0.038799 178265.000000 0 0 1
-2.131762 29.503081 9.025145 30.926194 -1.498666 1.274658 0.071874 -0.034426 112016.000000 0 0 1
-2.010762 30.375481 7.766845 31.417144 -1.504696 1.320990 0.074904 -0.037649 -39375.700000 0 0 1
-3.040362 30.115281 6.851345 31.034092 -1.470180 1.348194 0.090000 -0.033729 49571.400000 0 0 1
-3.049762 31.097781 5.810145 31.782556 -1.473039 1.386953 0.095320 -0.029143 97306.000000 0 0 1
11.082238 33.941981 -26.372219 44.388828 1.255204 2.206966 0.105262 -0.030701 -35300.300000 0 0 1
11.773638 -33.879170 -25.160669 43.811824 -1.236334 2.182532 0.085012 -0.026987 149889.000000 0 0 1
12.901438 -33.058370 -25.392759 43.635938 -1.198713 2.191888 0.085468 -0.025644 14183.400000 0 0 1
13.672338 -32.964870 -24.047099 43.033457 -1.177635 2.163735 0.074833 -0.015771 -903779.000000 0 0 1
13.204838 -31.990270 -23.144199 41.634109 -1.179324 2.160236 0.071192 -0.012009 89949.600000 0 0 1
13.957838 -31.862070 -21.973699 41.144334 -1.157907 2.134196 0.054014 -0.006262 -103818.000000 0 0 1
15.441938 -31.424570 -22.052199 41.379421 -1.114055 2.132852 0.047161 -0.001983 -320528.000000 0 0 1
16.237438 -32.493870 -22.478099 42.717337 -1.107383 2.124929 0.051972 -0.010466 710827.000000 0 0 1
17.531338 -32.428470 -21.815999 42.835631 -1.075187 2.105162 0.040928 -0.013294 957086.000000 0 0 1
18.435638 -33.691570 -21.960099 44.240712 -1.070114 2.090217 0.033552 -0.012729 273645.000000 0 0 1
19.802638 -33.450970 -21.656999 44.498735 -1.036287 2.079091 0.042616 -0.007523 524420.000000 0 0 1
20.469238 33.370081 -21.637199 44.729413 1.020581 2.075714 0.036137 -0.006838 -66728.000000 0 0 1
21.965838 33.516281 -21.297599 45.380909 0.990650 2.059303 0.073945 -0.008733 26550.900000 0 0 1
22.797738 -33.998670 -22.286699 46.608404 -0.980112 2.069365 0.066890 -0.012580 835768.000000 0 0 1
24.167438 -33.932770 -21.855099 47.044057 -0.951919 2.053942 0.057376 -0.010524 1072650.000000 0 0 1
25.156738 -33.341670 -22.885899 47.626597 -0.924413 2.072053 0.076957 -0.017027 -4670.130000 0 0 1
25.209638 -31.918570 -22.936899 46.694992 -0.902299 2.084271 0.078191 -0.023758 166132.000000 0 0 1
24.145538 -31.396870 -23.727899 46.171242 -0.915219 2.110534 0.061023 -0.024128 338241.000000 0 0 1
24.034738 -29.877770 -23.545299 44.997009 -0.893357 2.121473 0.062670 -0.031699 118290.000000 0 0 1
24.994838 -29.112870 -24.260699 45.396945 -0.861360 2.134609 0.065886 -0.031741 51107.400000 0 0 1
24.946538 -27.818670 -23.727799 44.263039 -0.839777 2.136563 0.071627 -0.021976 529545.000000 0 0 1
25.590538 -26.832770 -24.782399 44.598660 -0.809090 2.159972 0.066477 -0.025021 877576.000000 0 0 1
24.703938 -26.772370 -25.912289 44.704486 -0.825559 2.189077 0.053920 -0.029886 292533.000000 0 0 1
25.343738 -26.109270 -26.994199 45.306576 -0.800275 2.209073 0.045361 -0.026429 -122594.000000 0 0 1
24.388738 -25.737670 -28.169549 45.285336 -0.812302 2.242149 0.035313 -0.022512 523097.000000 0 0 1
23.571538 -24.578770 -27.960199 44.062524 -0.806314 2.258232 0.046938 -0.021076 234057.000000 0 0 1
22.268038 -24.848070 -27.447179 43.204626 -0.840103 2.259172 0.039017 -0.021167 294201.000000 0 0 1
21.472738 -23.530770 -27.245449 41.917659 -0.831097 2.278348 0.046421 -0.020811 -56032.500000 0 0 1
21.316038 -22.807670 -28.443079 42.232358 -0.819191 2.309717 0.072141 -0.022032 53436.300000 0 0 1
20.751238 -21.532370 -28.167059 41.080896 -0.803870 2.326291 0.058789 -0.007991 -318904.000000 0 0 1
19.855538 -20.992070 -29.315379 41.161886 -0.813215 2.363420 0.080716 -0.019542 -290150.000000 0 0 1
18.662738 -21.723370 -29.295259 40.968461 -0.861038 2.367519 0.085305 -0.025488 -799019.000000 0 0 1
17.798438 -21.368970 -30.312989 41.137508 -0.876308 2.399225 0.068328 -0.035245 -511809.000000 0 0 1
16.482838 -22.147770 -30.235179 40.943543 -0.931004 2.401580 0.086373 -0.042201 -432961.000000 0 0 1
16.682538 -23.484670 -30.693249 42.094089 -0.953152 2.387887 0.081436 -0.028316 1578130.000000 0 0 1
15.507538 -24.316870 -30.355129 41.871563 -1.003097 2.381770 0.098985 -0.036288 1291290.000000 0 0 1
15.521438 -25.744870 -30.884129 43.099220 -1.028251 2.369686 0.121459 -0.035853 -375421.000000 0 0 1
14.423738 -26.542570 -30.570059 42.977677 -1.073020 2.362144 0.117800 -0.034995 -305434.000000 0 0 1
14.591838 -27.888470 -31.050149 44.213123 -1.088745 2.349396 0.172882 -0.035662 420623.000000 0 0 1
13.754938 -28.888970 -30.163619 43.972887 -1.126425 2.326718 0.151632 -0.038508 18929.800000 0 0 1
14.222638 -29.158470 -28.864299 43.424044 -1.116980 2.297899 0.155908 -0.048390 -149648.000000 0 0 1
14.004738 -28.087470 -27.963629 42.035737 -1.108260 2.298604 0.130851 -0.040327 -224800.000000 0 0 1
15.116638 -27.897770 -26.915019 41.607891 -1.074225 2.274273 0.104387 -0.029419 -266138.000000 0 0 1
15.214238 -28.937670 -25.977189 41.757348 -1.086755 2.242217 0.090395 -0.033328 736340.000000 0 0 1
16.170138 -28.694570 -24.877999 41.276707 -1.057628 2.217693 0.092754 -0.036216 -56395.700000 0 0 1
15.788438 -27.606670 -23.797399 39.720513 -1.051290 2.213199 0.077346 -0.032232 189301.000000 0 0 1
14.674938 -27.831170 -22.962299 38.951187 -1.085560 2.201254 0.071059 -0.027357 557792.000000 0 0 1
13.421338 -27.930770 -23.660799 38.988378 -1.122853 2.222910 0.079393 -0.017733 227686.000000 0 0 1
12.184538 -27.887470 -22.693699 37.962849 -1.158874 2.211534 0.062354 -0.010639 331729.000000 0 0 1
11.944938 -26.603570 -22.221999 36.663997 -1.148776 2.221943 0.054685 -0.014777 325541.000000 0 0 1
10.693538 -26.538070 -21.547699 35.817932 -1.187749 2.216286 0.065275 -0.019236 228255.000000 0 0 1
10.334638 -25.054570 -21.317499 34.481473 -1.179573 2.237286 0.064036 -0.017978 223797.000000 0 0 1
11.079038 -24.518870 -20.206299 33.648396 -1.146399 2.214939 0.055343 -0.018300 474583.000000 0 0 1
10.774438 -23.129870 -20.093299 32.477993 -1.134862 2.237850 0.057230 -0.020256 -39836.400000 0 0 1
11.332138 -22.446770 -18.835499 31.417365 -1.103280 2.213704 0.057507 -0.017114 -24477.000000 0 0 1
10.567238 -22.759370 -17.693899 30.703900 -1.136112 2.184960 0.062505 -0.022901 141132.000000 0 0 1
10.883638 -21.947970 -16.627999 29.608399 -1.110447 2.167111 0.049628 -0.025143 -305205.000000 0 0 1
10.120838 -22.310470 -15.337099 28.903547 -1.144923 2.130140 0.052094 -0.023928 -199717.000000 0 0 1
10.496238 -23.545570 -14.736199 29.693778 -1.151454 2.090096 0.056007 -0.020444 68897.800000 0 0 1
9.779738 -23.948470 -13.570399 29.211782 -1.183099 2.053925 0.060658 -0.022290 -117259.000000 0 0 1
9.939338 -25.478870 -13.343499 30.430449 -1.198852 2.024716 0.076098 -0.026037 78634.000000 0 0 1
11.196238 -25.913570 -12.871099 31.024733 -1.162960 1.998592 0.046978 -0.021818 -249709.000000 0 0 1
11.357838 -27.280870 -13.165399 32.350797 -1.176292 1.989917 0.057217 -0.029369 96767.700000 0 0 1
12.780738 -27.707870 -12.669999 33.039403 -1.138612 1.964359 0.027121 -0.026164 891103.000000 0 0 1
13.926838 -27.135370 -13.303399 33.275600 -1.096616 1.982089 0.030803 -0.019086 334220.000000 0 0 1
14.163138 -27.509670 -14.660299 34.238878 -1.095346 2.013271 0.036450 -0.025043 -682509.000000 0 0 1
15.591438 -27.299170 -15.189799 34.915149 -1.051874 2.020889 0.041250 -0.023707 -108642.000000 0 0 1
16.613638 -28.222970 -14.907999 35.983294 -1.038759 1.997974 0.065395 -0.027721 55966.700000 0 0 1
17.747238 -27.808870 -15.663399 36.519033 -1.002771 2.014083 0.082897 -0.035446 123201.000000 0 0 1
19.025038 -28.616070 -15.382999 37.649278 -0.984061 1.991702 0.090054 -0.035778 8302.340000 0 0 1
19.046038 -29.888170 -15.999899 38.885100 -1.003441 1.994858 0.079363 -0.028526 -111898.000000 0 0 1
20.338838 -30.445570 -15.970299 39.945607 -0.981844 1.982096 0.094160 -0.026796 45836.900000 0 0 1
20.437438 -31.466970 -17.075399 41.224123 -0.994781 1.997870 0.083131 -0.027775 -8853.870000 0 0 1
19.911138 -32.740270 -16.711099 41.804778 -1.024403 1.982031 0.072487 -0.017993 156508.000000 0 0 1
20.132238 -33.707270 -17.676499 43.057469 -1.032389 1.993835 0.067077 -0.017261 23081.300000 0 0 1
20.180038 32.966981 -16.947699 42.205216 1.021506 1.984010 0.056603 -0.011066 219271.000000 0 0 1
21.322738 32.859481 -16.120199 42.358771 0.995190 1.961202 0.076592 -0.014372 201953.000000 0 0 1
21.151038 31.680281 -15.411599 41.091654 0.982120 1.955252 0.075494 -0.015030 -78222.400000 0 0 1
22.270838 31.239281 -14.429699 40.989012 0.951457 1.930544 0.059655 -0.025874 579761.000000 0 0 1
23.501438 30.849881 -15.086799 41.613030 0.919786 1.941799 0.072142 -0.021592 613521.000000 0 0 1
24.501938 30.358581 -14.253099 41.534796 0.891751 1.921076 0.076302 -0.027711 -302338.000000 0 0 1
24.230338 29.119281 -13.359499 40.168620 0.876783 1.909840 0.063271 -0.016693 -1222490.000000 0 0 1
23.979038 27.959381 -14.108799 39.443370 0.861884 1.936598 0.076375 -0.010446 113983.000000 0 0 1
23.707038 26.886581 -13.272199 38.223856 0.848160 1.925404 0.039873 -0.008999 229971.000000 0 0 1
22.197838 26.747781 -12.970599 37.100192 0.878091 1.927951 0.049325 -0.017345 -791344.000000 0 0 1
21.263438 26.427981 -13.978199 36.687355 0.893269 1.961683 0.053607 -0.026622 -526162.000000 0 0 1
19.946238 26.510781 -13.560099 35.840622 0.925772 1.958803 0.062028 -0.025269 -704948.000000 0 0 1
19.433538 28.004981 -13.625999 36.709797 0.964155 1.951077 0.066370 -0.028842 -783460.000000 0 0 1
19.351538 28.706981 -14.898799 37.690145 0.977661 1.977187 0.065810 -0.024249 404634.000000 0 0 1
18.431938 28.143781 -15.843299 37.186273 0.990970 2.010921 0.052256 -0.015209 -90945.600000 0 0 1
18.480638 28.842381 -17.202399 38.331964 1.000954 2.036190 0.045184 -0.007371 -11071.500000 0 0 1
17.694038 30.006581 -17.395299 38.936748 1.038006 2.033935 0.051033 -0.008319 45987.600000 0 0 1
17.758838 30.442981 -18.766499 39.929099 1.042711 2.060082 0.030746 0.001408 350179.000000 0 0 1
16.625338 31.451481 -19.256699 40.452664 1.084529 2.066932 0.025267 0.000265 522375.000000 0 0 1
16.727838 32.659781 -18.464199 41.078078 1.097449 2.036991 0.051166 -0.001064 -245439.000000 0 0 1
15.919838 33.666281 -18.925799 41.773743 1.129086 2.040985 0.042899 -0.001796 -453622.000000 0 0 1
15.953438 -33.160270 -18.014599 40.971227 -1.122382 2.026049 0.047379 -0.001389 410546.000000 0 0 1
14.923038 -32.226470 -18.331599 39.966110 -1.137129 2.047304 0.036414 0.001177 359153.000000 0 0 1
14.909038 -31.335270 -17.236899 38.746474 -1.126703 2.031818 0.040496 -0.003175 446711.000000 0 0 1
13.745938 -30.299870 -17.423999 37.558337 -1.144900 2.053209 0.035782 -0.005063 1221040.000000 0 0 1
12.433338 -30.862770 -17.266699 37.486495 -1.187828 2.049480 0.040479 -0.004710 373912.000000 0 0 1
11.428238 -29.895470 -17.299599 36.381587 -1.205664 2.066333 0.029067 -0.003152 3997.790000 0 0 1
10.008438 -30.406370 -17.609099 36.534867 -1.252810 2.073710 0.050517 -0.012277 -778141.000000 0 0 1
9.447238 -31.209270 -16.598299 36.589238 -1.276859 2.041641 0.057050 -0.015923 746271.000000 0 0 1
8.353738 -32.045270 -17.030599 37.238764 -1.315786 2.045793 0.079979 -0.013358 1092570.000000 0 0 1
7.018538 -31.481070 -17.605899 36.746229 -1.351439 2.070450 0.083377 -0.014238 -173890.000000 0 0 1
7.172238 -31.004170 -18.908699 37.016732 -1.343464 2.106929 0.065246 -0.009770 -111009.000000 0 0 1
6.794738 -31.979170 -19.858799 38.251898 -1.361436 2.116662 0.063956 -0.015788 -1829100.000000 0 0 1
6.873538 -31.368270 -21.287899 38.527763 -1.355082 2.156198 0.057726 -0.004038 -86125.200000 0 0 1
8.126438 -30.780870 -21.692299 38.523458 -1.312676 2.168920 0.066508 -0.007981 1216440.000000 0 0 1
9.282838 -31.620970 -21.564899 39.384028 -1.285253 2.150235 0.062858 -0.014176 -278863.000000 0 0 1
9.247338 -32.741370 -22.688199 40.893336 -1.295530 2.158936 0.068546 -0.020804 -955794.000000 0 0 1
8.341438 -33.797370 -22.503599 41.451825 -1.328825 2.144666 0.070941 -0.023112 -363579.000000 0 0 1
8.187038 33.445581 -23.665799 41.781629 1.330730 2.172947 0.083485 -0.031625 -632369.000000 0 0 1
7.082638 32.383381 -23.466299 40.614214 1.355475 2.186809 0.087243 -0.038195 70460.700000 0 0 1
5.747438 32.817481 -23.524299 40.784958 1.397421 2.185588 0.079851 -0.042230 -124657.000000 0 0 1
5.293238 33.490581 -22.426499 40.652002 1.414041 2.155162 0.066278 -0.031074 -766699.000000 0 0 1
3.946538 -33.840870 -22.577699 40.872144 -1.454700 2.156035 0.074476 -0.030654 424760.000000 0 0 1
2.778338 33.437081 -22.553499 40.427935 1.487895 2.162612 0.071105 -0.036782 425529.000000 0 0 1
1.619838 -33.877470 -22.801099 40.868043 -1.523018 2.162674 0.068960 -0.036397 588200.000000 0 0 1
0.262538 33.565581 -22.354399 40.329100 1.562975 2.158317 0.063612 -0.043867 580795.000000 0 0 1
0.199138 33.592381 -20.959999 39.595572 1.564868 2.128633 0.060138 -0.040166 -105615.000000 0 0 1
-1.073862 33.145481 -20.557799 39.017935 -1.538409 2.125723 0.056203 -0.052777 -100336.000000 0 0 1
-1.384662 33.392481 -19.041899 38.465166 -1.529354 2.088680 0.068186 -0.046785 -118039.000000 0 0 1
-0.630562 32.643981 -18.124699 37.343431 -1.551482 2.077562 0.086490 -0.053687 -197833.000000 0 0 1
-1.156162 32.667181 -16.792699 36.748826 -1.535419 2.045369 0.068984 -0.041091 441586.000000 0 0 1
-0.376962 31.710781 -15.795099 35.428815 -1.558909 2.032894 0.054004 -0.036042 -95831.600000 0 0 1
0.884938 32.183481 -15.479299 35.723498 1.543307 2.018957 0.060014 -0.032774 -1020790.000000 0 0 1
1.692838 31.138481 -14.980399 34.595998 1.516485 2.018625 0.068493 -0.019751 251048.000000 0 0 1
2.742938 31.640781 -13.961199 34.692619 1.484323 1.984961 0.078190 -0.025398 -263332.000000 0 0 1
3.747138 32.449981 -14.491899 35.735941 1.455831 1.988352 0.070367 -0.026913 -770195.000000 0 0 1
4.617238 32.858781 -13.462399 35.808583 1.431193 1.956223 0.086135 -0.031835 650730.000000 0 0 1
5.962338 33.272981 -14.199799 36.664357 1.393484 1.968488 0.070669 -0.043478 822907.000000 0 0 1
6.695238 32.167381 -14.686199 35.989597 1.365589 1.991133 0.064833 -0.026885 -505999.000000 0 0 1
7.919638 32.450881 -15.310399 36.744914 1.331425 2.000572 0.050776 -0.005289 -104590.000000 0 0 1
8.858938 31.243781 -15.099099 35.813928 1.294506 2.006004 0.031955 -0.009002 -55460.300000 0 0 1
9.403438 31.044281 -13.808399 35.253992 1.276677 1.973257 0.022915 -0.011024 -45029.900000 0 0 1
10.250038 29.882581 -13.763399 34.459586 1.240362 1.981666 0.030225 -0.005719 104705.000000 0 0 1
9.604338 28.494481 -13.666899 33.029728 1.245696 1.997394 0.038638 -0.013348 -270992.000000 0 0 1
9.047738 27.931381 -14.867699 32.910061 1.257535 2.039542 0.044963 -0.015659 321849.000000 0 0 1
8.482538 26.648281 -14.620199 31.556847 1.262623 2.052509 0.043466 -0.011950 -340169.000000 0 0 1
7.764238 25.849581 -15.707699 31.228449 1.279007 2.097855 0.040958 -0.008594 -291797.000000 0 0 1
8.555838 25.363281 -16.741599 31.571816 1.245452 2.129716 0.056369 -0.006399 -483728.000000 0 0 1
7.890538 24.326781 -17.426699 30.947419 1.257147 2.168937 0.051474 -0.007178 279000.000000 0 0 1
8.791838 23.526081 -18.410999 31.140613 1.213161 2.203369 0.061198 -0.001092 330419.000000 0 0 1
7.976938 22.544681 -19.078699 30.592335 1.230715 2.244191 0.074574 -0.009829 113744.000000 0 0 1
8.774138 21.720881 -19.886599 30.728798 1.186890 2.274656 0.075063 -0.010449 -166068.000000 0 0 1
8.002138 20.765281 -20.842099 30.489740 1.202973 2.323449 0.062641 -0.031107 189990.000000 0 0 1
7.326338 19.757081 -20.081599 29.108214 1.215695 2.332140 0.067231 -0.032161 720158.000000 0 0 1
6.416638 18.908081 -20.841399 28.862652 1.243632 2.377613 0.070548 -0.036493 654659.000000 0 0 1
25.798538 -12.727319 -9.239799 30.214617 -0.458301 1.881581 0.092138 -0.018829 75951.800000 0 0 1
26.435338 -12.265619 -8.014199 30.224160 -0.434423 1.839165 0.106742 -0.031137 511191.000000 0 0 1
25.480138 -12.183619 -6.985899 29.094343 -0.446025 1.813278 0.113932 -0.022236 -405864.000000 0 0 1
25.835938 -11.295019 -5.755499 28.778445 -0.412144 1.772148 0.108083 -0.030579 -298409.000000 0 0 1
25.926838 -9.905319 -5.905099 28.375807 -0.364936 1.780432 0.124637 -0.042056 436261.000000 0 0 1
27.075638 -9.405019 -6.553899 29.402349 -0.334322 1.795589 0.119762 -0.043613 -701710.000000 0 0 1
27.346638 -7.989319 -6.127899 29.141362 -0.284239 1.782660 0.161346 -0.047629 -231241.000000 0 0 1
27.710838 -7.868419 -4.751599 29.195552 -0.276665 1.734274 0.142774 -0.055076 1374110.000000 0 0 1
29.103138 -8.107619 -4.443899 30.536443 -0.271694 1.716843 0.127106 -0.045280 759741.000000 0 0 1
29.543938 -7.776919 -2.999499 30.697259 -0.257393 1.668665 0.137826 -0.044515 -27825.200000 0 0 1
30.026938 -6.448919 -2.739999 30.833636 -0.211557 1.659778 0.144762 -0.038724 481581.000000 0 0 1
30.688838 -6.327219 -1.510099 31.370669 -0.203324 1.618952 0.152443 -0.035485 -236044.000000 0 0 1
30.921038 -4.928719 -1.055999 31.329187 -0.158067 1.604509 0.137558 -0.039313 675572.000000 0 0 1
29.748338 -4.464119 -0.356099 30.083530 -0.148951 1.582634 0.160305 -0.043336 360316.000000 0 0 1
29.915338 -3.147819 0.165101 30.080948 -0.104838 1.565308 0.146113 -0.035103 54070.900000 0 0 1
30.535738 -2.962519 1.615301 30.721605 -0.096715 1.518193 0.138696 -0.024979 503458.000000 0 0 1
29.601038 -3.327419 2.620301 29.902494 -0.111939 1.483056 0.152917 -0.030154 621419.000000 0 0 1
30.246938 -3.133319 3.856501 30.652366 -0.103223 1.444648 0.127206 -0.022622 208604.000000 0 0 1
29.870838 -4.217619 4.910501 30.564166 -0.140268 1.409435 0.138212 -0.029589 -275946.000000 0 0 1
30.473838 -5.449319 4.672901 31.307920 -0.176949 1.420980 0.135709 -0.035198 -16097.800000 0 0 1
30.407438 -6.330319 5.742201 31.585726 -0.205252 1.387982 0.138945 -0.036685 -103725.000000 0 0 1
31.317838 -7.537619 5.471601 32.673553 -0.236189 1.402541 0.112397 -0.033998 285876.000000 0 0 1
32.722138 -7.332919 5.496801 33.981242 -0.220454 1.408323 0.103717 -0.035126 321952.000000 0 0 1
33.410838 -8.553919 5.328001 34.897581 -0.250639 1.417522 0.106933 -0.032854 216651.000000 0 0 1
34.953138 -8.516919 5.415201 36.381096 -0.239009 1.421395 0.128531 -0.035383 116581.000000 0 0 1
35.681538 -8.179419 4.272701 36.855542 -0.225341 1.454604 0.136897 -0.029396 -57821.000000 0 0 1
37.051138 -8.028119 4.581701 38.186771 -0.213378 1.450525 0.149466 -0.030485 228983.000000 0 0 1
-36.287847 -7.753419 3.354801 37.258261 0.210499 1.480632 0.139412 -0.021295 61464.500000 0 0 1
-36.071447 -8.796519 2.437701 37.208472 0.239195 1.505235 0.162982 -0.028125 219037.000000 0 0 1
-35.099347 -8.472819 1.446101 36.136464 0.236864 1.530768 0.173233 -0.038189 134395.000000 0 0 1
-34.637947 -9.781419 0.754701 36.000460 0.275224 1.549831 0.161601 -0.031404 -74931.200000 0 0 1
-33.863247 -10.669519 1.555201 35.538385 0.305231 1.527021 0.154847 -0.026846 285665.000000 0 0 1
-33.858947 -11.900219 0.926001 35.901267 0.337979 1.545000 0.149504 -0.036157 -1041980.000000 0 0 1
-33.525647 -13.052319 1.907301 36.027348 0.371269 1.517831 0.108559 -0.035817 467122.000000 0 0 1
-32.206347 -13.134219 2.440601 34.867077 0.387225 1.500742 0.105712 -0.023653 488757.000000 0 0 1
-31.228547 -13.534219 1.508701 34.068657 0.408958 1.526498 0.107272 -0.017690 -483040.000000 0 0 1
-29.878447 -13.830419 2.210501 32.998309 0.433521 1.503758 0.100948 -0.011942 223126.000000 0 0 1
-29.200647 -12.667619 2.714301 31.945481 0.409312 1.485727 0.099318 -0.017567 884984.000000 0 0 1
-27.903647 -13.015919 3.219601 30.957931 0.436457 1.466609 0.114496 -0.011901 466579.000000 0 0 1
-27.202947 -11.765319 3.768501 29.876825 0.408207 1.444325 0.133624 -0.012139 92516.200000 0 0 1
-25.886747 -12.092319 4.211701 28.880552 0.437003 1.424443 0.131760 -0.006089 565668.000000 0 0 1
-25.340547 -10.994919 4.900701 28.054383 0.409373 1.395210 0.127324 -0.003458 -234580.000000 0 0 1
-24.050347 -11.316019 5.682401 27.180161 0.439782 1.360178 0.124241 0.011640 -117980.000000 0 0 1
-24.124547 -12.219919 6.794501 27.883426 0.468862 1.324643 0.114409 0.003586 438710.000000 0 0 1
-22.882047 -12.792819 7.224201 27.192524 0.509785 1.301899 0.127133 0.006901 868270.000000 0 0 1
-22.243847 -12.234619 8.564901 26.792390 0.502861 1.245408 0.127732 -0.003354 -135559.000000 0 0 1
-21.850547 -10.834919 8.483701 25.822762 0.460334 1.236043 0.121358 -0.009431 804934.000000 0 0 1
-22.895347 -9.888019 8.764401 26.434533 0.407683 1.232849 0.124261 -0.016702 -298412.000000 0 0 1
-23.416847 -9.757719 10.261701 27.365385 0.394817 1.186412 0.107239 -0.020585 -51098.600000 0 0 1
-23.970447 -10.981319 10.766101 28.479477 0.429585 1.183129 0.091052 -0.030971 380422.000000 0 0 1
-25.297947 -11.146719 10.319401 29.508058 0.415024 1.213530 0.086953 -0.026911 61895.900000 0 0 1
-26.532947 -10.818019 11.235501 30.777643 0.387144 1.197106 0.078067 -0.033022 464170.000000 0 0 1
-26.493147 -11.623019 12.393001 31.473288 0.413432 1.166075 0.062970 -0.033564 109543.000000 0 0 1
-27.621347 -11.351919 13.183301 32.643595 0.389939 1.155069 0.052210 -0.029492 -228610.000000 0 0 1
-27.750647 -12.226519 14.434601 33.584876 0.414997 1.126531 0.053860 -0.027239 -156460.000000 0 0 1
-27.944147 -13.628219 14.285501 34.215190 0.453755 1.140083 0.054296 -0.024048 338140.000000 0 0 1
-27.886847 -14.165219 15.549901 34.930346 0.469990 1.109434 0.041672 -0.019454 -414342.000000 0 0 1
-27.527947 -15.669119 15.584001 35.301136 0.517470 1.113572 0.038627 -0.012384 19754.100000 0 0 1
-28.639647 -16.583119 15.464901 36.529336 0.524855 1.133650 0.051683 -0.016525 98819.200000 0 0 1
-28.242547 -17.953719 15.495201 36.879245 0.566255 1.137174 0.045003 -0.010720 -166091.000000 0 0 1
-29.184147 -19.008819 16.152401 38.392052 0.577317 1.136555 0.029378 -0.005151 -4095.190000 0 0 1
-29.169147 -18.906819 17.578101 38.952491 0.575094 1.102608 0.026800 -0.000054 -18157.900000 0 0 1
-29.744047 -20.010919 18.255501 40.229448 0.592216 1.099789 0.038586 0.002976 455798.000000 0 0 1
-28.684647 -21.174919 18.427801 40.134399 0.635904 1.093756 0.021732 0.002343 755999.000000 0 0 1
-27.572847 -20.792919 19.232801 39.528572 0.646125 1.062655 0.032632 0.005983 130698.000000 0 0 1
-26.758247 -21.929719 19.455901 39.691919 0.686548 1.058508 0.033497 0.008017 -952108.000000 0 0 1
-25.385947 -21.636519 19.992201 38.887959 0.705830 1.030841 0.037018 0.008691 -695110.000000 0 0 1
-24.465647 -21.168219 19.016801 37.527324 0.713265 1.039391 0.044044 0.000448 300728.000000 0 0 1
-23.171847 -21.011319 19.564901 36.894381 0.736538 1.011848 0.060222 0.003055 977374.000000 0 0 1
-21.960547 -20.822519 18.569001 35.505643 0.758804 1.020444 0.063632 -0.012247 734603.000000 0 0 1
-21.719647 -21.971019 17.741001 35.625999 0.791152 1.049530 0.060249 -0.004708 1190960.000000 0 0 1
-20.407147 -21.853319 17.130401 34.459684 0.819605 1.050527 0.065365 -0.000246 1152600.000000 0 0 1
-20.160147 -22.911819 16.026101 34.470551 0.849197 1.087250 0.066047 0.006859 -638715.000000 0 0 1
-20.239547 -24.260519 16.393801 35.594504 0.875512 1.092158 0.056897 -0.007785 336442.000000 0 0 1
-19.105347 -24.910619 16.962601 35.683092 0.916531 1.075414 0.065940 -0.012861 43533.600000 0 0 1
-17.753547 -24.972819 16.251101 34.683258 0.952782 1.083139 0.069688 -0.011850 -318397.000000 0 0 1
-17.085547 -23.741219 16.259401 33.465348 0.946999 1.063452 0.072833 -0.014996 -814404.000000 0 0 1
-15.781947 -23.841719 15.773901 32.654454 0.986069 1.066656 0.079446 -0.020084 -207067.000000 0 0 1
-15.094147 -22.407819 15.656701 31.226205 0.978002 1.045585 0.078952 -0.012588 -5968.530000 0 0 1
-15.677347 -21.547419 14.669201 30.418020 0.941803 1.067571 0.081709 -0.013244 -524562.000000 0 0 1
-16.705347 -20.770419 15.206401 30.687351 0.893448 1.052355 0.073996 -0.004023 -662433.000000 0 0 1
-16.479747 -19.571919 16.135701 30.249015 0.870959 1.008147 0.092086 -0.012371 -513486.000000 0 0 1
-15.878247 -18.514519 15.402701 28.846998 0.861900 1.007537 0.089086 -0.019047 118023.000000 0 0 1
-15.678347 -17.329019 16.288101 28.485219 0.835366 0.962087 0.087104 -0.023136 -581912.000000 0 0 1
-15.015747 -16.144019 15.542801 26.975557 0.821592 0.956748 0.099321 -0.025573 71160.500000 0 0 1
-15.737747 -15.405619 14.552501 26.396686 0.774734 0.986874 0.119384 -0.036030 -12845.900000 0 0 1
-16.005347 -16.091619 13.339701 26.326013 0.788086 1.039430 0.131187 -0.036148 -473055.000000 0 0 1
-16.902147 -15.276819 12.439101 25.957561 0.734932 1.071043 0.123692 -0.027165 143679.000000 0 0 1
-18.252147 -15.257019 12.904501 27.063696 0.696253 1.073763 0.109485 -0.028219 -168894.000000 0 0 1
-19.020847 -14.366019 12.209501 26.781468 0.646870 1.097420 0.129239 -0.024316 -981438.000000 0 0 1
-20.537947 -14.370119 12.465901 27.994754 0.610515 1.109294 0.092895 -0.022073 163544.000000 0 0 1
-21.274347 -15.513219 12.041601 28.952685 0.630055 1.141857 0.092465 -0.011248 107197.000000 0 0 1
-21.342947 -15.634719 10.594501 28.499285 0.632238 1.189907 0.110823 -0.009288 -525344.000000 0 0 1
-22.142747 -16.881219 10.056401 29.604189 0.651378 1.224204 0.112489 -0.003500 125406.000000 0 0 1
-21.517047 -18.115419 9.960801 29.839056 0.699779 1.230446 0.118046 0.006393 -156228.000000 0 0 1
-22.247947 -18.879719 9.004301 30.536738 0.703684 1.271479 0.115429 -0.008305 735750.000000 0 0 1
-21.525047 -20.282219 8.732101 30.837406 0.755679 1.283703 0.111256 -0.009688 957381.000000 0 0 1
-20.194647 -20.384919 8.223001 29.849396 0.790087 1.291704 0.126745 -0.010246 278399.000000 0 0 1
-19.845347 -21.751919 8.122401 30.544347 0.831200 1.301637 0.102242 -0.010735 1390.810000 0 0 1
-18.482347 -22.078319 7.482001 29.749448 0.873824 1.316566 0.097459 -0.021557 -297355.000000 0 0 1
-17.406047 -21.593119 8.232001 28.930937 0.892352 1.282270 0.075455 -0.019767 -1169260.000000 0 0 1
-16.234447 -22.060219 7.665401 28.442378 0.936371 1.297916 0.090713 -0.022125 -610077.000000 0 0 1
-14.922747 -21.579319 8.323901 27.525310 0.965778 1.263577 0.066700 -0.012904 45088.900000 0 0 1
-13.756847 -21.907519 7.591501 26.959620 1.010078 1.285348 0.082203 -0.011155 -105224.000000 0 0 1
-12.640947 -21.757719 8.443701 26.542192 1.044474 1.247047 0.071115 -0.005165 -730482.000000 0 0 1
-11.361747 -22.262319 7.845801 26.196502 1.098897 1.266630 0.065601 -0.005468 -696798.000000 0 0 1
-11.182947 -23.637919 7.942701 27.329398 1.128905 1.275913 0.065848 -0.007894 240750.000000 0 0 1
-9.886547 -24.026419 7.474801 27.034890 1.180427 1.290659 0.092094 -0.012400 763082.000000 0 0 1
-9.672747 -25.554879 7.404001 28.309594 1.208953 1.306182 0.074697 -0.011919 -47103.100000 0 0 1
-10.615447 -26.196159 6.575601 29.020079 1.185790 1.342223 0.089382 -0.017607 -240288.000000 0 0 1
-10.524647 -27.608179 6.644201 30.284074 1.206588 1.349601 0.089664 -0.023166 -221688.000000 0 0 1
-9.504447 -28.349659 5.787301 30.455386 1.247315 1.379608 0.096060 -0.031585 716416.000000 0 0 1
-8.118147 -27.971649 6.032601 29.744070 1.288329 1.366563 0.097447 -0.029957 1918340.000000 0 0 1
-7.122147 -28.858129 5.430901 30.216076 1.328833 1.390079 0.104795 -0.025309 1070470.000000 0 0 1
-7.111147 -30.301749 5.870601 31.673780 1.340290 1.384373 0.120890 -0.042160 -636463.000000 0 0 1
-7.209147 -30.378519 7.299601 32.064160 1.337796 1.341126 0.112639 -0.031899 206746.000000 0 0 1
-7.302147 -31.661919 7.805401 33.417402 1.344131 1.335046 0.144314 -0.042304 -303034.000000 0 0 1
-7.637147 -31.747529 9.304201 33.952905 1.334723 1.293213 0.108455 -0.037639 243209.000000 0 0 1
-6.607147 -31.394959 10.277201 33.688554 1.363371 1.260790 0.084518 -0.023855 587256.000000 0 0 1
-6.926147 -31.524029 11.648101 34.313469 1.354523 1.224452 0.059500 -0.022960 -232343.000000 0 0 1
-5.842147 -30.881359 12.591001 33.857382 1.383826 1.189759 0.047448 -0.015544 466025.000000 0 0 1
-5.983147 -29.472509 12.477301 32.559328 1.370510 1.177519 0.044799 -0.020383 -108173.000000 0 0 1
-5.069147 -28.748019 13.214301 32.043136 1.396260 1.145719 0.035270 -0.022539 -353157.000000 0 0 1
-5.849147 -27.825759 14.228801 31.795348 1.363607 1.106815 0.033065 -0.032907 -179414.000000 0 0 1
-6.430147 -28.457779 15.361101 32.972039 1.348574 1.086164 0.029829 -0.021133 397991.000000 0 0 1
-5.490147 -29.071759 16.263001 33.760836 1.384146 1.068189 0.016353 -0.015979 412672.000000 0 0 1
-6.047147 -30.384749 16.860701 35.271577 1.374344 1.072391 0.023864 -0.020797 -549087.000000 0 0 1
-6.039147 -31.445869 15.910501 35.755531 1.381058 1.109644 0.026562 -0.016888 91583.200000 0 0 1
-6.591147 -32.664579 16.358101 37.121495 1.371687 1.114458 0.033404 -0.023930 -146214.000000 0 0 1
-6.111147 -33.916279 15.504401 37.789503 1.392526 1.148032 0.027036 -0.016141 -76334.200000 0 0 1
-6.527147 -33.926669 14.192001 37.350172 1.380729 1.181031 0.036481 -0.021462 15281.500000 0 0 1
-6.074147 33.021407 13.467201 36.175601 -1.388884 1.189339 0.033007 -0.020963 119986.000000 0 0 1
-4.789147 33.249893 12.646401 35.894606 -1.427745 1.210747 0.070136 -0.030541 66376.200000 0 0 1
-5.116147 33.825870 11.401501 36.060486 -1.420685 1.249099 0.074096 -0.035476 -106308.000000 0 0 1
-3.968147 -33.943059 10.676901 35.803263 1.454419 1.267979 0.092918 -0.039928 -776065.000000 0 0 1
-4.347147 -33.657489 9.200701 35.162155 1.442349 1.306050 0.100023 -0.043852 -589587.000000 0 0 1
-4.577147 33.342773 8.287801 34.660906 -1.434373 1.329346 0.103849 -0.056861 517143.000000 0 0 1
-5.529147 32.304872 8.538301 33.868552 -1.401284 1.315945 0.116712 -0.052315 709794.000000 0 0 1
-6.992147 32.687449 8.925401 34.598009 -1.360063 1.309871 0.118524 -0.047594 187693.000000 0 0 1
-7.797147 33.232088 7.895801 35.035851 -1.340338 1.343480 0.133907 -0.044286 10165.700000 0 0 1
-9.130147 33.346521 8.392401 35.577836 -1.303550 1.332664 0.102860 -0.040423 218134.000000 0 0 1
-10.204347 33.678403 7.347701 35.949301 -1.276595 1.364955 0.115412 -0.045021 -237079.000000 0 0 1
-10.236447 -33.067989 6.938501 35.304667 1.270594 1.372977 0.125994 -0.043099 -81013.200000 0 0 1
-11.017147 -32.953019 5.775001 35.222572 1.248150 1.406095 0.121434 -0.040450 -48838.000000 0 0 1
-11.326547 -31.461819 5.430201 33.876596 1.225233 1.409808 0.099032 -0.044701 1052340.000000 0 0 1
-12.430247 -30.961129 6.242001 33.942085 1.189015 1.385842 0.105818 -0.044512 457804.000000 0 0 1
-13.294047 -30.174039 5.499501 33.428264 1.155804 1.405529 0.100388 -0.040953 -538711.000000 0 0 1
-14.435747 -29.520019 6.260201 33.451643 1.115975 1.382545 0.082225 -0.037792 -296053.000000 0 0 1
-15.420947 -30.394529 6.762001 34.747052 1.101279 1.374940 0.104790 -0.035495 483351.000000 0 0 1
-16.283947 -29.698909 7.708501 34.736337 1.069258 1.347019 0.095480 -0.039984 229844.000000 0 0 1
34.121022 -12.345019 -12.502299 38.379046 -0.347149 1.902610 0.069934 -0.033153 -517020.000000 0 0 1
32.867682 -12.493619 -11.874799 37.113150 -0.363251 1.896486 0.083284 -0.036485 11496.500000 0 0 1
32.588902 -13.900819 -11.621199 37.287017 -0.403183 1.887745 0.086675 -0.037819 -440711.000000 0 0 1
33.448382 -14.681119 -10.636499 38.045560 -0.413601 1.854145 0.071959 -0.024864 -1418930.000000 0 0 1
34.732082 -14.915019 -11.089099 39.392175 -0.405617 1.856159 0.078313 -0.030116 -1035310.000000 0 0 1
35.509662 -15.077919 -9.913799 39.831686 -0.401544 1.822333 0.066419 -0.023972 795343.000000 0 0 1
37.054702 -15.052419 -10.229299 41.282743 -0.385858 1.821191 0.041722 -0.017418 1026210.000000 0 0 1
-36.610072 -13.782119 -10.561499 40.519001 0.360047 1.834497 0.041011 -0.007383 1206290.000000 0 0 1
-35.188553 -13.888519 -10.778299 39.335696 0.375919 1.848355 0.066806 -0.010292 1017580.000000 0 0 1
-34.466427 -12.553819 -11.005699 38.296976 0.349298 1.862284 0.086970 -0.023153 -208380.000000 0 0 1
-34.327419 -11.711719 -9.865599 37.588112 0.328793 1.836373 0.111435 -0.027334 257355.000000 0 0 1
-33.759402 -10.481519 -10.172999 36.783820 0.301041 1.851011 0.121007 -0.024784 -232422.000000 0 0 1
-34.091965 -9.350919 -9.142299 36.514154 0.267701 1.823866 0.130499 -0.035482 -155736.000000 0 0 1
-33.401722 -9.443919 -7.919399 35.603083 0.275545 1.795108 0.143272 -0.032253 440484.000000 0 0 1
-33.824352 -8.380219 -7.053199 35.553657 0.242866 1.770503 0.158391 -0.043939 -301293.000000 0 0 1
-33.224142 -8.465719 -5.656599 34.749232 0.249497 1.734307 0.146616 -0.029462 -1137590.000000 0 0 1
-31.936442 -7.964719 -5.687399 33.402389 0.244407 1.741899 0.159979 -0.044824 -394144.000000 0 0 1
-31.166522 -8.006219 -4.486499 32.489696 0.251448 1.709329 0.160357 -0.040380 171543.000000 0 0 1
-30.455042 -9.369519 -4.116799 32.128578 0.298461 1.699285 0.155119 -0.038702 -71993.200000 0 0 1
-31.278302 -10.515519 -3.813199 33.218200 0.324321 1.685842 0.137959 -0.039118 367903.000000 0 0 1
-31.819622 -10.497419 -2.526899 33.601628 0.318661 1.646069 0.121134 -0.040783 -402211.000000 0 0 1
-32.399012 -11.830619 -2.189699 34.560879 0.350110 1.634197 0.114832 -0.033027 140608.000000 0 0 1
-33.508492 -12.196119 -3.048899 35.789107 0.349067 1.656090 0.108239 -0.036744 737707.000000 0 0 1
-34.000022 -13.411119 -2.581099 36.640438 0.375708 1.641299 0.103551 -0.038994 415565.000000 0 0 1
-35.528301 -13.516419 -2.249599 38.079056 0.363532 1.629908 0.086593 -0.032236 489904.000000 0 0 1
-35.914840 -12.651019 -1.213399 38.097196 0.338678 1.602652 0.101504 -0.034995 654634.000000 0 0 1
36.900412 -12.658019 -1.149899 39.028043 -0.330454 1.600264 0.158657 -0.039920 634871.000000 0 0 1
36.417312 -11.835519 0.026901 38.292308 -0.314229 1.570094 0.136480 -0.042406 -362469.000000 0 0 1
36.637152 -12.505019 1.254601 38.732809 -0.328922 1.538400 0.153095 -0.035564 242669.000000 0 0 1
36.744972 -11.561019 2.312001 38.590096 -0.304823 1.510849 0.127059 -0.031488 -220832.000000 0 0 1
36.871262 -11.992919 3.778201 38.956320 -0.314471 1.473658 0.154612 -0.038696 -204832.000000 0 0 1
35.621342 -12.277019 4.338201 37.926577 -0.331904 1.456161 0.149567 -0.048407 -244470.000000 0 0 1
35.757772 -12.379519 5.724201 38.270579 -0.333290 1.420661 0.139523 -0.044487 376490.000000 0 0 1
34.453362 -12.358519 6.599001 37.192929 -0.344407 1.392426 0.134886 -0.046926 282529.000000 0 0 1
33.960612 -11.075719 6.827501 36.367699 -0.315257 1.381940 0.124888 -0.038963 5090.370000 0 0 1
33.595682 -10.975819 8.185301 36.278611 -0.315772 1.343214 0.086211 -0.023420 -397287.000000 0 0 1
32.779382 -9.766719 8.698801 35.292292 -0.289578 1.321751 0.095258 -0.039279 -141520.000000 0 0 1
31.440082 -9.824519 8.264501 33.960299 -0.302870 1.324970 0.126361 -0.035230 449847.000000 0 0 1
30.537562 -8.990519 9.035801 33.091054 -0.286319 1.294225 0.131874 -0.020755 -78577.700000 0 0 1
29.083022 -9.163019 8.635901 31.691669 -0.305219 1.294809 0.134721 -0.020393 -806605.000000 0 0 1
28.807022 -8.696619 7.337601 30.972828 -0.293192 1.331618 0.147042 -0.029726 11624.200000 0 0 1
27.960922 -9.518619 6.558101 30.256007 -0.328120 1.352308 0.159589 -0.038406 -350116.000000 0 0 1
27.223122 -8.682319 5.509901 29.100516 -0.308734 1.380306 0.170879 -0.041700 -248270.000000 0 0 1
26.249322 -7.865219 6.135001 28.080720 -0.291122 1.350542 0.174913 -0.034748 688300.000000 0 0 1
25.258922 -7.223219 5.335001 26.807653 -0.278533 1.370448 0.192302 -0.039218 364001.000000 0 0 1
25.797522 -5.993419 4.560001 26.874278 -0.228276 1.400292 0.182253 -0.036712 -167956.000000 0 0 1
26.489222 -6.361019 3.380101 27.451167 -0.235674 1.447352 0.178108 -0.040011 300464.000000 0 0 1
26.919622 -5.178019 2.697601 27.545508 -0.190030 1.472707 0.179240 -0.040302 -41095.000000 0 0 1
27.398222 -5.381019 1.248901 27.949556 -0.193932 1.526097 0.174417 -0.051166 -984079.000000 0 0 1
26.338822 -5.791419 0.452801 26.971821 -0.216437 1.554008 0.187804 -0.055928 -181474.000000 0 0 1
26.784622 -5.819619 -0.890499 27.424021 -0.213949 1.603274 0.174720 -0.053799 -306372.000000 0 0 1
25.674922 -6.122219 -1.927799 26.465064 -0.234080 1.643704 0.168021 -0.053405 -573769.000000 0 0 1
24.829122 -5.041819 -2.009699 25.415431 -0.200337 1.649953 0.185919 -0.052108 -508589.000000 0 0 1
23.971622 -5.225819 -3.124599 24.732792 -0.214642 1.697469 0.159708 -0.050360 -153202.000000 0 1 0
22.825122 -4.179619 -3.139399 23.416047 -0.181108 1.705272 0.135452 -0.045391 -161463.000000 0 1 0
23.204622 -2.820919 -3.251899 23.600571 -0.120973 1.709025 0.127018 -0.041850 353141.000000 0 1 0
23.882022 -2.338219 -4.403999 24.396997 -0.097596 1.752305 0.134744 -0.036628 64055.400000 0 1 0
22.910422 -1.707019 -5.464999 23.614987 -0.074371 1.804334 0.133815 -0.025239 -109988.000000 0 1 0
22.377122 -0.540219 -5.027799 22.941365 -0.024137 1.791748 0.107421 -0.010502 16059.100000 0 1 0
21.882722 0.249981 -6.090499 22.715858 0.011423 1.842234 0.140819 -0.005118 -432707.000000 0 1 0
21.645622 1.728481 -5.729999 22.457816 0.079685 1.828794 0.131908 0.009650 -377794.000000 0 1 0
22.714422 2.553881 -5.336899 23.472320 0.111964 1.800172 0.143555 -0.001473 20275.000000 0 1 0
23.068222 2.323881 -3.982199 23.524481 0.100401 1.740894 0.135323 0.010019 -697272.000000 0 1 0
24.168222 3.329081 -3.639399 24.666394 0.136885 1.718882 0.139953 -0.008999 -561760.000000 0 1 0
23.833622 4.708881 -3.711399 24.576200 0.195061 1.722392 0.119680 0.003406 666245.000000 0 1 0
24.904122 5.448581 -3.144899 25.686431 0.215389 1.693539 0.122544 -0.012073 137707.000000 0 0 1
24.614322 6.963581 -3.184999 25.777908 0.275703 1.694668 0.110208 -0.010865 370116.000000 0 0 1
23.623922 7.333681 -2.199399 24.833646 0.301002 1.659478 0.122984 -0.020626 1011930.000000 0 1 0
23.035622 8.583981 -2.558199 24.715765 0.356700 1.674487 0.131423 -0.014962 -21688.100000 0 1 0
21.876622 8.911881 -1.576699 23.674759 0.386844 1.637444 0.108059 -0.012697 -100036.000000 0 1 0
22.358922 9.444181 -0.338699 24.274033 0.399658 1.584750 0.088818 -0.011458 539236.000000 0 1 0
21.334222 9.812881 0.538101 23.488960 0.431105 1.547886 0.076118 -0.010530 -160255.000000 0 1 0
21.963622 10.218381 1.903001 24.298918 0.435456 1.492400 0.101963 -0.016432 -136937.000000 0 1 0
22.790822 11.368181 1.968801 25.544732 0.462691 1.493647 0.109393 -0.021510 476139.000000 0 0 1
22.268822 12.652781 1.592201 25.661809 0.516697 1.508711 0.105297 -0.017238 -395108.000000 0 0 1
21.252922 13.364381 2.562101 25.236041 0.561346 1.469096 0.097664 -0.012283 1134900.000000 0 0 1
19.952722 12.728081 2.339701 23.782123 0.567831 1.472256 0.142427 -0.015965 1772280.000000 0 1 0
18.869822 13.373881 3.030001 23.326204 0.616571 1.440531 0.120399 -0.021449 432534.000000 0 1 0
18.725122 13.352081 4.581701 23.449952 0.619435 1.374149 0.103303 -0.020304 -500058.000000 0 1 0
18.542722 12.063281 5.169701 22.717419 0.576774 1.341219 0.103043 -0.014264 440719.000000 0 1 0
18.580622 12.130481 6.540901 23.133774 0.578381 1.284144 0.095619 -0.024262 -219376.000000 0 1 0
18.640922 10.684781 7.156401 22.646470 0.520473 1.249280 0.071620 -0.026231 -671417.000000 0 1 0
19.769822 10.036681 6.678301 23.155573 0.469770 1.278230 0.069049 -0.027426 -55847.700000 0 1 0
20.124622 8.860281 7.380101 23.194200 0.414734 1.246979 0.099856 -0.022770 93083.900000 0 1 0
21.042022 7.977181 6.485201 23.419222 0.362367 1.290211 0.100493 -0.024904 338805.000000 0 1 0
20.364522 7.654381 5.261901 22.382827 0.359532 1.333489 0.073257 -0.024270 726763.000000 0 1 0
21.226622 6.915281 4.484301 22.770586 0.314940 1.372567 0.069914 -0.020641 -304904.000000 0 1 0
20.613322 6.638281 3.118401 21.879220 0.311551 1.427781 0.054556 -0.009460 354939.000000 0 1 0
21.547822 5.827381 2.364701 22.446800 0.264121 1.465254 0.054183 -0.008156 1163050.000000 0 1 0
21.202122 5.667481 0.955101 21.967307 0.261200 1.527304 0.052172 0.005374 173127.000000 0 1 0
22.215222 4.708481 0.208401 22.709675 0.208858 1.561619 0.094044 -0.006893 431021.000000 0 1 0
22.251622 3.432981 0.834601 22.530349 0.153073 1.533744 0.089100 -0.002043 287718.000000 0 1 0
23.332822 2.700281 0.334201 23.490930 0.115216 1.556569 0.104330 -0.002726 -207509.000000 0 1 0
23.099722 1.197381 0.415701 23.134470 0.051789 1.552826 0.124211 -0.009744 -259860.000000 0 1 0
22.135922 0.734881 -0.514899 22.154102 0.033186 1.594040 0.081547 -0.014423 269566.000000 0 1 0
22.239622 -0.578819 -1.046099 22.271735 -0.026021 1.617783 0.105692 -0.024788 -1521670.000000 0 1 0
22.117222 -1.768319 -0.076299 22.187931 -0.079782 1.574235 0.120943 -0.021387 113355.000000 0 1 0
23.160022 -2.004219 0.874801 23.263035 -0.086323 1.533183 0.128716 -0.013003 1205170.000000 0 1 0
24.410322 -2.306819 0.194401 24.519850 -0.094222 1.562868 0.144921 -0.029201 -607474.000000 0 1 0
25.580122 -2.237219 1.122801 25.702305 -0.087237 1.527098 0.157932 -0.021792 -1001030.000000 0 0 1
25.494322 -0.950019 1.643901 25.564926 -0.037247 1.506449 0.139888 -0.014011 762400.000000 0 0 1
26.353222 -0.853119 2.805901 26.515905 -0.032361 1.464778 0.141543 -0.015840 270658.000000 0 0 1
26.070722 0.458681 3.655701 26.329776 0.017592 1.431503 0.115068 -0.011975 -10237.800000 0 0 1
26.460422 1.704881 3.089301 26.694650 0.064342 1.454809 0.140315 -0.013810 431135.000000 0 0 1
27.826622 1.951981 2.769701 28.032167 0.070033 1.471830 0.129043 -0.016808 406696.000000 0 0 1
28.002222 3.286181 1.993301 28.264761 0.116820 1.500215 0.150618 -0.026787 266168.000000 0 0 1
27.351022 3.265381 0.680901 27.553671 0.118825 1.546082 0.156207 -0.014793 466173.000000 0 0 1
27.675422 4.323781 -0.239199 28.012164 0.154979 1.579336 0.154683 -0.019562 -454305.000000 0 0 1
28.908822 3.962781 -1.039799 29.197685 0.136230 1.606416 0.165880 -0.028925 936016.000000 0 0 1
30.207772 4.090481 -0.387599 30.485928 0.134593 1.583511 0.162579 -0.030628 1953000.000000 0 0 1
31.347412 3.874981 -1.251999 31.610809 0.122990 1.610413 0.141975 -0.030369 1300330.000000 0 0 1
32.656422 4.235981 -0.462599 32.933258 0.128993 1.584843 0.106326 -0.027280 311481.000000 0 0 1
33.021752 3.463781 0.650201 33.209286 0.104512 1.551216 0.131597 -0.033582 116592.000000 0 0 1
32.365812 3.859581 1.835001 32.646737 0.118688 1.514559 0.118501 -0.011800 -132371.000000 0 0 1
32.568352 2.895681 3.036201 32.837495 0.088678 1.478203 0.132013 -0.009322 -52491.900000 0 0 1
31.808482 1.698481 2.876101 31.983376 0.053346 1.480750 0.135556 -0.015992 419225.000000 0 0 1
32.050212 0.827681 3.960401 32.304581 0.025819 1.447892 0.124092 -0.023002 886778.000000 0 0 1
33.367012 -0.059519 3.860001 33.589592 -0.001784 1.455625 0.135795 -0.019917 743169.000000 0 0 1
34.561422 0.646281 4.102901 34.810105 0.018697 1.452656 0.142463 -0.027589 -1115180.000000 0 0 1
35.560752 -0.265219 4.184601 35.807099 -0.007458 1.453664 0.131891 -0.022868 -1167220.000000 0 0 1
36.900672 0.303781 4.787801 37.211221 0.008232 1.441773 0.153974 -0.038716 578514.000000 0 0 1
-36.651962 1.200181 3.979001 36.886844 -0.032734 1.462716 0.148112 -0.044137 83993.900000 0 0 1
-36.062361 0.645881 2.806401 36.177161 -0.017908 1.493144 0.171632 -0.039019 -612767.000000 0 0 1
-35.370632 1.674881 1.863801 35.459281 -0.047317 1.518210 0.193256 -0.039225 631769.000000 0 0 1
-34.233351 2.393181 2.374501 34.398952 -0.069794 1.501713 0.205028 -0.072324 867557.000000 0 0 1
-33.498522 2.943281 1.279901 33.651925 -0.087638 1.532754 0.220529 -0.045229 -437886.000000 0 0 1
-32.482462 3.970381 1.691101 32.767882 -0.121628 1.519165 0.240784 -0.046630 -604642.000000 0 0 1
-31.615492 3.518881 2.689801 31.924237 -0.110846 1.486441 0.221372 -0.055247 65436.600000 0 0 1
-30.898042 4.569581 3.379201 31.416383 -0.146828 1.463026 0.225991 -0.047877 8921.110000 0 0 1
-31.214802 4.714081 4.910501 31.948387 -0.149888 1.416484 0.227870 -0.033319 165236.000000 0 0 1
-32.459952 5.288781 5.301701 33.312576 -0.161513 1.410967 0.228330 -0.011144 1347350.000000 0 0 1
-33.594002 4.362881 5.323101 34.291794 -0.129148 1.414936 0.218146 -0.016536 760338.000000 0 0 1
-33.725472 3.260081 6.410901 34.483841 -0.096366 1.383798 0.191583 -0.017186 -741921.000000 0 0 1
-34.038242 3.817981 7.679401 35.102024 -0.111701 1.350239 0.185055 -0.024116 218002.000000 0 0 1
-34.052142 2.893681 8.763001 35.280476 -0.084774 1.319788 0.167484 -0.022515 -420614.000000 0 0 1
-35.213207 1.902981 8.834201 36.354290 -0.053989 1.325336 0.149910 -0.020738 -720687.000000 0 0 1
-35.172244 0.817981 7.932401 36.064925 -0.023252 1.349035 0.148426 -0.027231 -131559.000000 0 0 1
-36.132992 -0.174219 8.148101 37.040721 0.004822 1.349006 0.140185 -0.018071 -337494.000000 0 0 1
-35.999942 -1.015819 9.472601 37.239198 0.028210 1.313598 0.145737 -0.015258 529186.000000 0 0 1
-34.699089 -1.592819 9.661201 36.054163 0.045872 1.299518 0.132528 -0.028013 740164.000000 0 0 1
-34.652610 -2.336519 10.826501 36.379607 0.067325 1.268621 0.121100 -0.026629 307149.000000 0 0 1
-33.413592 -3.288619 10.852701 35.285468 0.098106 1.258160 0.111960 -0.018853 193904.000000 0 0 1
-33.429802 -4.381119 9.969901 35.158851 0.130312 1.283284 0.112236 -0.018504 1091190.000000 0 0 1
-32.170192 -5.100619 10.042301 34.084973 0.157242 1.271733 0.102077 -0.019835 1104660.000000 0 0 1
-32.092562 -6.287619 9.087101 33.941746 0.193471 1.299764 0.100774 -0.012153 -317652.000000 0 0 1
-33.042042 -7.244619 9.386801 35.105172 0.215839 1.300112 0.097759 -0.017446 -539901.000000 0 0 1
-33.264672 -8.103819 8.290901 35.227111 0.238962 1.333212 0.098595 -0.014918 178450.000000 0 0 1
-34.264027 -9.257719 8.605501 36.521002 0.263887 1.332928 0.098513 -0.014990 -995885.000000 0 0 1
-35.503915 -8.769319 8.861001 37.629062 0.242149 1.333081 0.115403 -0.025197 -1426110.000000 0 0 1
-36.458812 -9.802519 8.966901 38.803862 0.262654 1.337606 0.119529 -0.030162 37135.000000 0 0 1
7.919238 -23.495419 10.442601 26.903474 -1.245700 1.172172 0.130007 -0.034487 7166.980000 0 0 1
7.196638 -24.078719 9.375301 26.822986 -1.280368 1.213732 0.119420 -0.031889 376747.000000 0 0 1
6.083538 -24.844219 9.892501 27.424555 -1.330654 1.201760 0.126071 -0.030493 1091890.000000 0 0 1
5.583038 -25.867149 8.781301 27.881731 -1.358222 1.250394 0.115866 -0.021227 106929.000000 0 0 1
5.007638 -25.339529 7.592801 26.922459 -1.375689 1.284892 0.109851 -0.014823 -207943.000000 0 0 1
4.721638 -26.313849 6.589501 27.534234 -1.393250 1.329131 0.095793 -0.008778 -322881.000000 0 0 1
3.872338 -25.772189 5.388501 26.612716 -1.421659 1.366908 0.074622 -0.008140 287723.000000 0 0 1
2.482238 -25.593329 5.519401 26.299121 -1.474111 1.359354 0.058577 -0.009186 -374446.000000 0 0 1
1.791838 -26.776339 5.262301 27.347300 -1.503977 1.377164 0.048285 -0.008679 210816.000000 0 0 1
0.233538 -26.655359 5.162601 27.151706 -1.562035 1.379493 0.066898 -0.020613 815658.000000 0 0 1
-0.381762 -26.312649 6.405401 27.083766 1.556289 1.332031 0.071231 -0.017639 990700.000000 0 0 1
-1.821362 -26.419229 6.483201 27.263985 1.501964 1.330703 0.058093 -0.019595 1379580.000000 0 0 1
-2.447362 -27.786219 6.834901 28.718973 1.482945 1.330498 0.075341 -0.025932 -522749.000000 0 0 1
-2.294762 -28.350169 8.107401 29.575800 1.490029 1.293119 0.084274 -0.025648 75544.400000 0 0 1
-2.955262 -29.599399 8.279001 30.877173 1.471284 1.299348 0.088876 -0.028045 17146.800000 0 0 1
-2.655762 -30.273029 9.687401 31.896004 1.483293 1.262203 0.084197 -0.024268 16880.200000 0 0 1
-1.360062 -30.820969 9.662601 32.328745 1.526697 1.267272 0.091367 -0.025942 -260058.000000 0 0 1
-1.011662 -31.110719 10.966401 33.002458 1.538290 1.232065 0.091665 -0.020759 1500860.000000 0 0 1
0.541038 -31.037389 11.350201 33.052069 -1.553366 1.220258 0.095481 -0.019375 1377320.000000 0 0 1
1.241138 -32.150249 10.858701 33.957183 -1.532211 1.245303 0.100430 -0.022196 -1293920.000000 0 0 1
2.591938 -32.179859 11.102401 34.139782 -1.490424 1.239569 0.108196 -0.012216 -652424.000000 0 0 1
3.056538 -32.784179 12.512901 35.223820 -1.477833 1.207626 0.112129 -0.011709 -21023.500000 0 0 1
2.627038 -31.971429 13.616001 34.849233 -1.488812 1.169392 0.101104 -0.014815 155729.000000 0 0 1
3.230938 -32.378619 14.840301 35.763787 -1.471339 1.142905 0.098456 -0.012112 -292990.000000 0 0 1
3.041538 -31.436079 16.051501 35.427795 -1.474343 1.100583 0.100765 -0.008881 -18134.900000 0 0 1
3.681138 -30.170979 15.889501 34.297448 -1.449387 1.089098 0.102991 -0.013264 26855.000000 0 0 1
5.058738 -30.219419 16.198201 34.658127 -1.404934 1.084482 0.101049 -0.004711 -150553.000000 0 0 1
5.842438 -29.055559 15.547801 33.467801 -1.372364 1.087659 0.114319 -0.011308 -45268.000000 0 0 1
6.058538 -29.205909 14.136001 33.007840 -1.366255 1.128228 0.115702 -0.011264 675264.000000 0 0 1
4.852538 -29.188349 13.331901 32.453758 -1.406054 1.147468 0.111416 -0.008454 371095.000000 0 0 1
5.118438 -29.097629 11.786301 31.808604 -1.396672 1.191208 0.114929 -0.008692 152708.000000 0 0 1
5.528038 -30.409439 11.312401 32.912970 -1.390973 1.219935 0.110999 -0.005250 -314468.000000 0 0 1
6.897938 -30.688699 11.343201 33.437194 -1.349700 1.224689 0.109005 -0.004789 -704455.000000 0 0 1
7.104738 -32.102199 10.800601 34.607534 -1.352991 1.253406 0.103473 -0.004457 -66755.200000 0 0 1
6.733038 -33.229999 11.562701 35.822656 -1.370884 1.242135 0.092870 -0.021168 47737.400000 0 0 1
6.714938 33.699498 10.776401 36.012184 1.374113 1.266897 0.087873 -0.015872 92848.200000 0 0 1
6.472338 32.396632 11.594301 35.012294 1.373608 1.233275 0.085340 -0.015891 999658.000000 0 0 1
5.144538 32.324493 12.153001 34.914675 1.412967 1.215277 0.101486 -0.017512 839187.000000 0 0 1
4.956238 31.067012 12.807501 33.966978 1.412596 1.184179 0.099156 -0.012093 -382088.000000 0 0 1
3.847138 31.095212 13.810101 34.240788 1.447701 1.155651 0.086314 -0.021352 -197862.000000 0 0 1
4.315938 31.670472 15.046801 35.327784 1.435354 1.130818 0.093729 -0.024323 296609.000000 0 0 1
3.217738 31.715322 15.921301 35.632896 1.469685 1.107595 0.096869 -0.020810 87528.800000 0 0 1
3.590338 32.151479 17.380101 36.724325 1.459588 1.077810 0.098262 -0.019644 -35699.700000 0 0 1
3.937338 33.519843 17.499001 38.017069 1.453869 1.092471 0.106354 -0.011890 114744.000000 0 0 1
4.634838 33.652284 18.734901 38.793742 1.433930 1.066792 0.090831 -0.015536 276635.000000 0 0 1
4.992338 -32.952139 18.978801 38.353119 -1.420437 1.053141 0.082219 -0.017176 777651.000000 0 0 1
3.825738 -32.228439 19.416301 37.819324 -1.452642 1.031659 0.087711 -0.018727 647725.000000 0 0 1
3.965438 -31.872619 20.821101 38.276713 -1.447017 0.995644 0.080704 -0.019679 495396.000000 0 0 1
2.660938 -31.177129 21.310401 37.857986 -1.485654 0.972902 0.091272 -0.017630 53620.300000 0 0 1
1.569638 -32.021309 21.444901 38.570866 -1.521817 0.981246 0.097839 -0.014367 -524249.000000 0 0 1
0.494538 -31.380619 22.094101 38.381468 -1.555038 0.957404 0.097426 -0.013562 -183322.000000 0 0 1
-0.705262 -32.235309 22.496601 39.315513 1.548921 0.961602 0.093124 -0.012069 -713897.000000 0 0 1
-1.378762 -32.734719 21.330401 39.095381 1.528702 0.993693 0.088347 -0.011752 225546.000000 0 0 1
-2.094462 -33.929539 21.648501 40.302084 1.509145 1.003735 0.078412 -0.004854 815338.000000 0 0 1
-3.378362 -33.912609 22.600901 40.893509 1.471504 0.985223 0.087865 -0.014607 524724.000000 0 0 1
-4.422962 -33.211229 22.004701 40.084351 1.438399 0.989677 0.070946 -0.022426 -770106.000000 0 0 1
-5.484262 -32.834099 22.836301 40.368946 1.405295 0.969527 0.062874 -0.019221 277120.000000 0 0 1
-6.691262 -32.211359 22.067801 39.614801 1.365979 0.979956 0.051021 -0.016221 -44493.000000 0 0 1
-7.439462 -33.221379 21.452201 40.239316 1.350495 1.008518 0.034846 -0.007075 -319446.000000 0 0 1
-8.613062 -32.591219 20.966001 39.698181 1.312428 1.014393 0.055783 -0.021312 -420389.000000 0 0 1
-9.688962 -33.465159 20.393401 40.369340 1.288978 1.041217 0.064573 -0.028778 -369503.000000 0 0 1
-10.400962 33.986450 21.452601 41.514731 -1.273814 1.027750 0.092427 -0.034031 -248768.000000 0 0 1
-11.734362 33.639659 21.156601 41.435778 -1.235168 1.034928 0.099319 -0.034160 93884.400000 0 0 1
-12.353262 32.950866 22.366901 41.697013 -1.212114 1.004613 0.107939 -0.033596 -393257.000000 0 0 1
-12.704962 33.652272 23.573801 43.007157 -1.209804 0.990662 0.116351 -0.031988 429237.000000 0 0 1
-11.589462 -33.912149 24.307901 43.303851 1.241490 0.974800 0.096311 -0.029189 203382.000000 0 0 1
-11.795562 -32.500799 24.842101 42.574255 1.222648 0.947764 0.086672 -0.024703 -112437.000000 0 0 1
-12.471962 -32.324239 26.076501 43.363465 1.202557 0.925610 0.103488 -0.026004 226996.000000 0 0 1
-13.029562 -31.018279 26.183301 42.631776 1.173117 0.909458 0.100838 -0.018607 235744.000000 0 0 1
-13.802362 -30.763749 27.476601 43.495713 1.149060 0.887041 0.103117 -0.014269 194029.000000 0 0 1
-12.947762 -30.393489 28.517801 43.642567 1.168075 0.858676 0.071722 -0.012410 717790.000000 0 0 1
-13.817962 -30.299319 29.669001 44.600834 1.142924 0.843019 0.094456 -0.014661 913020.000000 0 0 1
-13.136062 -29.603529 30.897301 44.761236 1.153166 0.808935 0.077715 -0.010502 412407.000000 0 0 1
-14.137462 -29.228019 31.879401 45.502100 1.120277 0.794539 0.097606 -0.016083 952214.000000 0 0 1
-13.675062 -28.756259 33.183401 45.989867 1.126899 0.764776 0.087621 -0.011744 -85899.100000 0 0 1
-12.886262 -29.723449 -33.799144 46.817959 1.161716 2.377379 0.093790 -0.011542 178054.000000 0 0 1
-11.497762 -29.896849 33.878601 46.623810 1.203652 0.757382 0.072093 -0.010422 111278.000000 0 0 1
-11.003562 -30.791869 -33.033544 46.480454 1.227586 2.361286 0.092986 -0.013998 -740730.000000 0 0 1
-9.599562 -31.256099 -33.300444 46.669207 1.272815 2.365337 0.101824 -0.019122 -714919.000000 0 0 1
-8.531862 -30.470649 -32.839344 45.603461 1.297785 2.374752 0.097839 -0.023574 277987.000000 0 0 1
-7.289762 -31.146969 -32.681444 45.731292 1.340890 2.366907 0.094221 -0.033392 1037020.000000 0 0 1
-6.300862 -30.286519 -31.770444 44.343378 1.365680 2.369517 0.079137 -0.025302 268974.000000 0 0 1
-6.749662 -30.234109 -30.461944 43.446396 1.351151 2.347789 0.100280 -0.037531 -490065.000000 0 0 1
-5.956062 -29.511639 -29.606344 42.224958 1.371651 2.347816 0.074654 -0.030443 -431764.000000 0 0 1
-6.384962 -29.680519 -28.118144 41.380321 1.358903 2.317884 0.069671 -0.028382 -72331.700000 0 0 1
-5.853662 -30.816439 -27.488744 41.707905 1.383080 2.290388 0.066717 -0.024783 -16645.700000 0 0 1
-6.716462 -31.236609 -26.440644 41.472210 1.359002 2.262111 0.083657 -0.033166 70918.000000 0 0 1
-6.406562 -32.648579 -25.878544 42.150596 1.377030 2.231857 0.085111 -0.034422 -301878.000000 0 0 1
-5.386462 -32.620149 -24.948344 41.418691 1.407146 2.217232 0.054578 -0.032524 -543670.000000 0 0 1
-5.319962 -33.812829 -24.215144 41.928303 1.414740 2.186505 0.075752 -0.038744 56967.400000 0 0 1
-4.491962 -33.702459 -22.908344 40.997874 1.438294 2.163697 0.076560 -0.046917 120729.000000 0 0 1
-5.084962 -32.895339 -21.863544 39.824298 1.417430 2.151964 0.094969 -0.044440 333419.000000 0 0 1
-5.080362 -31.483389 -22.046444 38.769312 1.410809 2.175669 0.073106 -0.026662 -153457.000000 0 0 1
-5.487662 -30.637769 -20.761144 37.414067 1.393561 2.159042 0.106627 -0.033718 -71731.100000 0 0 1
-6.869762 -30.896129 -20.560144 37.742336 1.352005 2.146887 0.108463 -0.040904 276630.000000 0 0 1
-7.567862 -29.781999 -20.022544 36.676181 1.321954 2.148292 0.118214 -0.041524 286546.000000 0 0 1
-8.016362 -28.622239 -20.988344 36.386882 1.297718 2.185615 0.129454 -0.050986 45378.200000 0 0 1
-6.855562 -28.093579 -21.645444 36.121644 1.331448 2.213345 0.121930 -0.036295 165309.000000 0 0 1
-7.050262 -27.112929 -22.613244 36.002443 1.316397 2.249909 0.137471 -0.052737 -296592.000000 0 0 1
-5.875062 -27.163939 -23.715544 36.535229 1.357795 2.277216 0.114938 -0.046794 2120280.000000 0 0 1
-4.662362 -26.416559 -23.499544 35.662316 1.396101 2.290213 0.120425 -0.037968 684869.000000 0 0 1
-4.077462 -26.597169 -22.252244 34.917008 1.418676 2.261772 0.092117 -0.030897 -1412830.000000 0 0 1
-2.532262 -26.856469 -22.262544 34.975751 1.476786 2.260766 0.080657 -0.019836 744428.000000 0 0 1
-1.706162 -25.758749 -22.599844 34.310014 1.504657 2.289880 0.077545 -0.026923 211793.000000 0 0 1
-1.647362 -24.755919 -21.627544 32.913826 1.504350 2.287756 0.084141 -0.032711 -1310630.000000 0 0 1
-1.376062 -23.394519 -22.284944 32.339075 1.512044 2.331046 0.082325 -0.032063 480995.000000 0 0 1
-2.313362 -22.946219 -23.285644 32.773493 1.470319 2.361008 0.108364 -0.039850 1885100.000000 0 0 1
-3.709062 -22.817319 -22.858044 32.509650 1.409651 2.350566 0.106446 -0.039875 1248370.000000 0 0 1
-4.746662 -23.018319 -23.974744 33.573236 1.367435 2.366138 0.106385 -0.037178 -84957.500000 0 0 1
-4.637862 -21.943519 -24.880044 33.496931 1.362507 2.407973 0.109158 -0.038605 107198.000000 0 0 1
-5.326362 -22.165219 -26.084444 34.641958 1.334965 2.423364 0.146415 -0.046141 107620.000000 0 0 1
-5.067062 -21.006819 -27.044944 34.617778 1.334107 2.467453 0.133040 -0.036137 -27206.200000 0 0 1
-5.705062 -21.316219 -28.265744 35.859186 1.309286 2.478744 0.140070 -0.035319 516944.000000 0 0 1
-4.797162 -21.728719 -29.321944 36.809325 1.353507 2.492430 0.132893 -0.034841 368880.000000 0 0 1
-5.565462 -22.076319 -30.602144 38.142226 1.323841 2.501963 0.138934 -0.039176 141758.000000 0 0 1
-6.099362 -20.885219 -31.191444 38.030261 1.286656 2.532512 0.132533 -0.040065 53227.700000 0 0 1
-7.226162 -21.110319 -32.011344 39.020368 1.240993 2.532863 0.109187 -0.036929 -15180.300000 0 0 1
-7.023162 -20.348619 -33.337244 39.683283 1.238456 2.568232 0.103300 -0.028331 70304.400000 0 0 1
-5.876662 -20.782419 33.861401 40.162651 1.295220 0.567762 0.112024 -0.028560 -318369.000000 0 0 1
-5.753262 -20.103019 32.628901 38.754052 1.292058 0.569913 0.113558 -0.027655 -478583.000000 0 0 1
-4.598662 -20.413719 31.721701 38.001762 1.349222 0.583131 0.093336 -0.032656 -1731980.000000 0 0 1
-4.782762 -21.680019 31.093101 38.205745 1.353667 0.620078 0.090677 -0.028066 1304650.000000 0 0 1
-3.694962 -22.040519 30.131401 37.514511 1.404697 0.638160 0.090121 -0.027659 2641360.000000 0 0 1
-2.230462 -22.102819 30.746901 37.932591 1.470224 0.625677 0.077662 -0.030116 333579.000000 0 0 1
-1.618662 -20.839019 30.673901 37.118364 1.493277 0.598147 0.084952 -0.028502 420210.000000 0 0 1
-0.507562 -20.578519 31.556701 37.677028 1.546137 0.577998 0.094608 -0.029149 475135.000000 0 0 1
-0.944162 -20.194419 32.955601 38.662354 1.524077 0.550248 0.079435 -0.033215 -61045.200000 0 0 1
-1.743862 -18.993019 32.983101 38.100666 1.479237 0.524283 0.074415 -0.030959 303681.000000 0 0 1
-2.162362 -18.776019 -33.571844 38.526399 1.456135 2.628842 0.079921 -0.033586 405417.000000 0 0 1
-3.260062 -17.661519 -33.364544 37.891292 1.388265 2.647782 0.097010 -0.036282 612530.000000 0 0 1
-2.831762 -16.312119 -33.621344 37.476644 1.398911 2.684021 0.086336 -0.029722 -342084.000000 0 0 1
-3.779562 -15.410119 -33.145444 36.747480 1.330279 2.695127 0.097308 -0.034652 -66049.600000 0 0 1
-3.434362 -13.954219 -33.460044 36.415513 1.329476 2.735928 0.095035 -0.039088 614565.000000 0 0 1
-2.356162 -13.379019 -32.684044 35.394864 1.396475 2.747674 0.093957 -0.035529 500020.000000 0 0 1
-2.163962 -11.982219 -32.763944 34.953288 1.392124 2.785780 0.095172 -0.034925 123784.000000 0 0 1
-1.545462 -11.421819 33.785801 35.697713 1.436305 0.328766 0.098539 -0.038870 127239.000000 0 0 1
-2.439562 -11.519119 32.661501 34.719090 1.362096 0.346002 0.092254 -0.032958 157657.000000 0 0 1
-1.899062 -11.052219 31.460301 33.399229 1.400632 0.342414 0.087271 -0.029260 -9705.640000 0 0 1
-0.878062 -11.972919 30.744701 33.005430 1.497590 0.372269 0.078168 -0.030466 28533.100000 0 0 1
-1.399462 -13.249919 30.421601 33.211333 1.465566 0.412801 0.082928 -0.026959 -187526.000000 0 0 1
-0.451162 -14.150719 29.897201 33.080039 1.538924 0.442267 0.081764 -0.028791 -151639.000000 0 0 1
-0.782362 -15.621719 30.231501 34.038123 1.520756 0.477458 0.089925 -0.032133 -127772.000000 0 0 1
-1.719462 -16.201219 29.376001 33.591449 1.465060 0.506375 0.088749 -0.027978 144435.000000 0 0 1
-2.444762 -17.226319 30.101601 34.768222 1.429818 0.524091 0.090799 -0.029005 173828.000000 0 0 1
-2.845962 -18.363419 29.200401 34.611819 1.417040 0.566743 0.085412 -0.018821 -319952.000000 0 0 1
-3.713462 -18.126219 28.121601 33.662650 1.368725 0.581946 0.076168 -0.018861 -147704.000000 0 0 1
-3.881762 -19.376019 27.506001 33.868544 1.373075 0.622986 0.079514 -0.018043 -111116.000000 0 0 1
-4.890262 -19.301519 26.378501 33.049789 1.322656 0.646588 0.061265 -0.023228 -405555.000000 0 0 1
-5.314862 -20.487819 25.672201 33.272517 1.316976 0.689485 0.076129 -0.015924 -305527.000000 0 0 1
-4.255062 -21.084619 24.971101 32.957891 1.371662 0.711066 0.086440 -0.029850 -129787.000000 0 0 1
-29.718712 -33.961570 -0.640999 45.133147 0.851927 1.584999 0.077613 -0.001402 -166248.000000 0 0 1
-29.562562 -32.600270 -0.368899 44.009758 0.834226 1.579179 0.081023 -0.006714 -16598.100000 0 0 1
-29.773632 -32.301570 1.004101 43.941652 0.826099 1.547944 0.069568 0.004418 -183583.000000 0 0 1
-29.383182 -30.909770 1.495001 42.673414 0.810712 1.535756 0.086325 -0.011297 -387791.000000 0 0 1
-28.006842 -30.665870 1.429601 41.555054 0.830687 1.536387 0.083553 -0.012272 -703980.000000 0 0 1
-27.806202 -29.390870 2.039301 40.511318 0.813096 1.520436 0.080874 -0.023377 884529.000000 0 0 1
-26.292682 -29.106370 2.334201 39.292931 0.836144 1.511356 0.085156 -0.021827 710582.000000 0 0 1
-25.629712 -29.904170 3.274601 39.520432 0.862217 1.487843 0.064608 -0.007901 597939.000000 0 0 1
-24.207162 -29.733370 3.097201 38.466253 0.887492 1.490192 0.061279 -0.007744 958382.000000 0 0 1
-23.486662 -30.468970 4.270301 38.706807 0.914091 1.460247 0.054652 -0.014205 -309323.000000 0 0 1
-23.739862 -29.925970 5.540901 38.598527 0.900163 1.426747 0.045701 -0.015501 -286428.000000 0 0 1
-23.096162 -30.583370 6.590301 38.887109 0.923984 1.400502 0.028083 -0.009488 -306774.000000 0 0 1
-23.633362 -30.258370 7.974301 39.213444 0.907716 1.366012 0.030805 -0.006565 -273163.000000 0 0 1
-23.267762 -29.041770 8.451601 38.160748 0.895335 1.347471 0.044297 -0.017374 -96241.200000 0 0 1
-23.796962 -28.864470 9.739401 38.656292 0.881331 1.316103 0.017226 -0.007894 -251344.000000 0 0 1
-23.185362 -27.698370 10.462101 37.606067 0.873859 1.288874 0.031098 -0.011454 456728.000000 0 0 1
-21.853362 -27.870370 10.947001 37.069715 0.905821 1.271018 0.032766 -0.023613 169137.000000 0 0 1
-21.309462 -26.794470 11.635601 36.158318 0.898932 1.243171 0.048827 -0.019845 -241784.000000 0 0 1
-19.952262 -27.179670 12.219801 35.862944 0.937557 1.223097 0.043729 -0.020621 -332253.000000 0 0 1
-19.973462 -28.133470 13.308801 36.980474 0.953421 1.202649 0.043539 -0.016756 -189160.000000 0 0 1
-18.700362 -28.063670 13.917501 36.482461 0.983010 1.179394 0.057761 -0.026875 221466.000000 0 0 1
-18.555762 -29.138970 15.011001 37.665979 1.003755 1.160883 0.083354 -0.033045 10310.800000 0 0 1
-18.361362 -30.413070 14.482701 38.364607 1.027637 1.183700 0.072951 -0.025253 -58129.800000 0 0 1
-18.231662 -31.312770 15.565501 39.435617 1.043535 1.165048 0.081113 -0.018151 84870.800000 0 0 1
-17.900862 -32.762070 15.106601 40.274104 1.070729 1.186297 0.061960 -0.019286 127450.000000 0 0 1
-17.869962 -33.830370 16.078501 41.501176 1.084826 1.172962 0.072208 -0.017188 17582.700000 0 0 1
-17.695162 33.041281 15.338601 40.498367 -1.079117 1.182355 0.052527 -0.018376 -66242.100000 0 0 1
-17.630162 31.812181 16.294501 39.854087 -1.064738 1.149598 0.061267 -0.024230 -211152.000000 0 0 1
-18.753262 31.663981 17.127601 40.591221 -1.036089 1.135198 0.071939 -0.028469 25649.100000 0 0 1
-18.669762 30.522981 17.951201 40.030713 -1.021846 1.105782 0.049324 -0.022313 -168647.000000 0 0 1
-19.552862 30.505581 19.199101 41.006224 -1.000802 1.083544 0.065039 -0.028802 123875.000000 0 0 1
-19.053462 31.483081 20.137001 41.948988 -1.026564 1.070101 0.072510 -0.027120 347255.000000 0 0 1
-19.894462 31.535381 21.275701 42.929306 -1.007993 1.052273 0.079809 -0.015149 137821.000000 0 0 1
-19.566662 32.731481 22.137401 44.093862 -1.032001 1.044827 0.067433 -0.015091 1725650.000000 0 0 1
-18.306862 32.615881 22.905801 43.859008 -1.059329 1.021298 0.068584 -0.026424 1269290.000000 0 0 1
-18.323662 33.094381 24.233901 44.925234 -1.065133 1.001039 0.067052 -0.024593 -185802.000000 0 0 1
-19.351462 32.579681 25.256401 45.539000 -1.034820 0.982902 0.073475 -0.021231 422085.000000 0 0 1
-20.670562 33.104281 25.100901 46.402810 -1.012623 0.999248 0.075828 -0.023958 535040.000000 0 0 1
-21.666662 32.201081 25.614901 46.502441 -0.978522 0.987439 0.067162 -0.015661 252234.000000 0 0 1
-23.042462 32.486081 25.008301 47.028881 -0.953854 1.010113 0.086598 -0.036744 -706414.000000 0 0 1
-23.128462 32.080381 23.688401 46.100075 -0.946146 1.031133 0.092950 -0.019116 -23719.300000 0 0 1
-24.442562 32.032881 23.198001 46.493995 -0.918998 1.048414 0.083186 -0.025635 -296505.000000 0 0 1
-24.597962 31.558681 21.737501 45.536019 -0.908721 1.073138 0.074478 -0.032004 -127438.000000 0 0 1
-24.242562 32.511081 20.774701 45.566001 -0.930072 1.097385 0.082405 -0.031246 855.884000 0 0 1
-23.719562 31.915481 19.611701 44.337731 -0.931662 1.112607 0.060519 -0.013084 -229072.000000 0 0 1
-23.054262 32.877881 18.614001 44.259859 -0.959259 1.136732 0.058844 -0.006294 329577.000000 0 0 1
-21.966662 33.559481 19.260801 44.494398 -0.991223 1.123110 0.076243 -0.008985 343334.000000 0 0 1
-21.110262 -33.876970 18.336401 43.926255 1.013532 1.140174 0.076909 -0.004713 110664.000000 0 0 1
-19.923062 -33.154670 18.978901 43.085487 1.029706 1.114647 0.081166 -0.016250 -153153.000000 0 0 1
-20.285562 -32.053970 19.762501 42.772859 1.006567 1.090509 0.093172 -0.016194 560519.000000 0 0 1
-19.123262 -31.476170 20.361801 42.083861 1.024846 1.065761 0.082248 -0.031390 452614.000000 0 0 1
-19.481962 -30.333070 21.255801 41.850341 0.999876 1.038051 0.088122 -0.020006 63237.500000 0 0 1
-20.184262 -29.297870 20.579601 41.100968 0.967537 1.046379 0.084565 -0.020014 114713.000000 0 0 1
-20.817562 -28.486870 21.528801 41.332335 0.939712 1.022926 0.097266 -0.019004 13363.500000 0 0 1
-21.714362 -27.386070 20.868301 40.706220 0.900401 1.032521 0.083749 -0.026523 311605.000000 0 0 1
-20.924962 -26.373770 20.172301 39.247312 0.900092 1.030979 0.070879 -0.013719 679413.000000 0 0 1
-21.525762 -25.077070 20.005501 38.632084 0.861455 1.026464 0.057890 0.005915 457599.000000 0 0 1
-22.729862 -24.959370 18.975401 38.725736 0.832115 1.058713 0.037890 0.000041 641707.000000 0 0 1
-24.016862 -25.228770 19.481901 39.910462 0.810003 1.060839 0.043922 0.003736 -223175.000000 0 0 1
-24.907562 -25.332070 18.395101 40.006001 0.793848 1.093017 0.032673 0.000244 477357.000000 0 0 1
-26.366952 -25.732270 18.849601 41.384457 0.773217 1.097890 0.036452 -0.000931 713117.000000 0 0 1
-26.595952 -27.097870 19.234801 42.563092 0.794746 1.101888 0.028955 -0.001459 -81662.600000 0 0 1
-26.599272 -27.959970 18.120801 42.633843 0.810333 1.131798 0.033472 -0.006129 -1089060.000000 0 0 1
-27.701292 -28.992370 18.025001 43.963846 0.808167 1.148347 0.044957 -0.016355 -581037.000000 0 0 1
-28.955482 -28.365370 18.085201 44.385680 0.775104 1.151130 0.036780 -0.027796 -949352.000000 0 0 1
-29.991432 -29.307870 18.101901 45.674019 0.773871 1.163282 0.038836 -0.014066 -1001960.000000 0 0 1
-31.339752 -28.712670 18.371901 46.304689 0.741680 1.162811 0.040230 -0.022536 -872900.000000 0 0 1
-31.659302 -27.627370 17.562001 45.541265 0.717495 1.174908 0.065712 -0.016650 -922213.000000 0 0 1
-32.934202 -27.177070 17.904501 46.301468 0.689915 1.173752 0.083920 0.001159 -463195.000000 0 0 1
-33.362682 -25.828670 17.257101 45.585044 0.658797 1.182546 0.103156 -0.017955 -73330.700000 0 0 1
-33.798242 -26.077870 15.892701 45.551667 0.657167 1.214406 0.130340 -0.037001 240312.000000 0 0 1
-34.381114 -24.929870 15.269301 45.129934 0.627376 1.225643 0.151493 -0.034032 -193211.000000 0 0 1
-33.462982 -23.738870 14.904701 43.651520 0.617011 1.222340 0.126179 -0.032267 -95281.100000 0 0 1
-33.112852 -22.977870 16.029601 43.375011 0.606638 1.192263 0.094260 -0.025803 333559.000000 0 0 1
-32.475972 -21.716470 15.758601 42.126326 0.589404 1.187392 0.088275 -0.023861 183374.000000 0 0 1
-33.405842 -20.531270 16.094001 42.385141 0.551087 1.181315 0.096006 -0.030772 98149.900000 0 0 1
-33.581162 -20.269070 17.465601 42.936894 0.543051 1.151877 0.086799 -0.019752 141057.000000 0 0 1
-34.339886 -19.092370 17.623701 43.062062 0.507425 1.149150 0.079223 -0.018854 -51937.300000 0 0 1
-34.787814 -18.844970 19.071201 43.920788 0.496458 1.121626 0.060969 -0.017304 -276021.000000 0 0 1
-35.836003 -19.640470 19.560401 45.305369 0.501357 1.124369 0.072473 -0.018235 124928.000000 0 0 1
-36.226682 -19.338670 20.905001 46.080101 0.490339 1.099921 0.059465 -0.009065 1084190.000000 0 0 1
36.546422 -19.706370 21.391901 46.707552 -0.494525 1.095056 0.071172 -0.010748 1219840.000000 0 0 1
36.126192 -21.070070 21.456301 47.004494 -0.528001 1.096769 0.082798 -0.017448 -359470.000000 0 0 1
36.866242 -21.973070 22.207101 48.322779 -0.537489 1.093299 0.059323 -0.002439 -54928.300000 0 0 1
36.062072 -23.321970 22.581301 48.521155 -0.574064 1.086720 0.073374 0.008441 162506.000000 0 0 1
35.109992 -23.168070 23.570801 48.218810 -0.583283 1.060048 0.094239 -0.012456 -414613.000000 0 0 1
34.711442 -24.420470 24.085001 48.798881 -0.613090 1.054622 0.084616 -0.017801 -566569.000000 0 0 1
33.730192 -24.252270 25.250101 48.615492 -0.623369 1.024667 0.090800 -0.021271 -879339.000000 0 0 1
32.597572 -23.560170 24.801001 47.252227 -0.625837 1.018241 0.102035 -0.025593 -175416.000000 0 0 1
31.665202 -23.504670 25.897101 47.178537 -0.638547 0.989728 0.080080 -0.023240 -593781.000000 0 0 1
30.450192 -24.374870 25.740701 46.732560 -0.675036 0.987463 0.080129 -0.020912 -1401150.000000 0 0 1
29.324992 -23.634670 25.404501 45.430622 -0.678362 0.977384 0.083056 -0.020089 -298648.000000 0 0 1
28.075922 -24.315870 25.431101 45.013996 -0.713753 0.970412 0.076616 -0.010329 577921.000000 0 0 1
26.892522 -23.401470 25.065101 43.578616 -0.716096 0.957985 0.090306 -0.014827 -249193.000000 0 0 1
26.768322 -22.924470 23.748001 42.497552 -0.708200 0.977848 0.084848 -0.018573 237620.000000 0 0 1
27.831422 -22.054470 23.339601 42.493819 -0.670108 0.989333 0.094679 -0.013951 306272.000000 0 0 1
27.794022 -21.423270 21.964101 41.399105 -0.656673 1.011553 0.098092 -0.016035 220722.000000 0 0 1
26.811422 -20.405370 21.983701 40.230767 -0.650548 0.992689 0.085822 -0.012137 94802.700000 0 0 1
26.583322 -19.871570 20.686301 39.108507 -0.641912 1.013438 0.057794 -0.014095 -66548.400000 0 0 1
25.651222 -18.641570 20.571201 37.797720 -0.628443 0.995308 0.048155 -0.006350 21435.200000 0 0 1
26.107722 -17.383070 21.140101 37.824438 -0.587417 0.977737 0.055308 -0.009547 -55298.000000 0 0 1
26.194622 -17.291570 22.596701 38.675154 -0.583456 0.946817 0.056612 -0.003467 -52050.300000 0 0 1
26.522522 -15.863970 23.241601 38.668873 -0.539045 0.925993 0.067171 0.004271 -287005.000000 0 0 1
25.554922 -14.919070 22.888101 37.409863 -0.528426 0.912437 0.054414 0.000936 -382451.000000 0 0 1
25.620422 -13.684570 23.637701 37.448823 -0.490575 0.887697 0.060493 -0.000240 -256637.000000 0 0 1
24.382622 -12.797770 23.443201 36.164608 -0.483347 0.865531 0.067982 -0.001591 114602.000000 0 0 1
23.202722 -13.385870 23.967001 35.943914 -0.523268 0.840905 0.067018 -0.004342 224746.000000 0 0 1
22.072822 -12.591070 23.587701 34.671662 -0.518395 0.822602 0.067702 -0.001061 1587790.000000 0 0 1
20.671622 -13.099670 24.159601 34.389004 -0.564833 0.791838 0.076393 0.000511 1300020.000000 0 0 1
20.280422 -14.369270 23.576201 34.257972 -0.616427 0.811797 0.085435 -0.005753 -99399.800000 0 0 1
19.073522 -14.784170 24.168201 34.153665 -0.659382 0.784656 0.081993 -0.007165 33601.400000 0 0 1
18.349422 -16.010870 23.516401 33.853661 -0.717443 0.802865 0.100389 -0.009082 -86702.200000 0 0 1
18.863522 -17.271470 23.828201 34.955962 -0.741368 0.820763 0.084210 -0.011617 -30452.200000 0 0 1
18.380822 -18.205670 22.867101 34.528326 -0.780611 0.846951 0.098590 -0.011013 198999.000000 0 0 1
18.639322 -19.711970 23.199201 35.695784 -0.813360 0.863325 0.069451 -0.005812 -205572.000000 0 0 1
17.775822 -20.180170 24.208801 36.184045 -0.848659 0.837872 0.063229 -0.003459 69645.400000 0 0 1
17.857522 -21.537870 24.550601 37.222344 -0.878549 0.850555 0.072332 -0.008032 -378672.000000 0 0 1
17.398122 -22.565570 23.403301 36.872945 -0.913988 0.883175 0.061002 -0.011630 -464144.000000 0 0 1
18.292022 -22.670870 22.363801 36.724733 -0.891892 0.916051 0.053904 -0.005103 -553496.000000 0 0 1
19.351722 -23.529070 22.738901 38.015311 -0.882509 0.929604 0.069109 -0.011980 -48220.500000 0 0 1
20.446522 -23.814970 21.683001 38.149254 -0.861355 0.966269 0.068828 0.005724 -26648.700000 0 0 1
19.984422 -24.660170 20.638401 37.860860 -0.889750 0.994274 0.062089 -0.008229 -189196.000000 0 0 1
20.967422 -25.058670 19.733701 38.170521 -0.874055 1.027468 0.057145 -0.019942 -375164.000000 0 0 1
20.369322 -25.708570 18.469301 37.642462 -0.900758 1.057960 0.055837 -0.022820 93047.900000 0 0 1
19.659022 -26.879770 18.730901 38.207929 -0.939326 1.058436 0.061750 -0.023800 95491.600000 0 0 1
18.962622 -27.477870 17.636901 37.758107 -0.966742 1.084786 0.069469 -0.026033 -76934.300000 0 0 1
18.014122 -28.548170 18.124501 38.314542 -1.007888 1.078053 0.079287 -0.018956 158705.000000 0 0 1
16.793822 -28.184270 18.756001 37.791177 -1.033428 1.051457 0.080434 -0.026561 142091.000000 0 0 1
16.067022 -29.265070 19.308501 38.566977 -1.068708 1.046449 0.083727 -0.024339 515774.000000 0 0 1
14.807322 -28.651570 20.028001 37.964326 -1.093794 1.015085 0.064421 -0.010170 800591.000000 0 0 1
13.880622 -28.128370 19.080501 36.714335 -1.112383 1.024295 0.074377 -0.013846 -812584.000000 0 0 1
12.634222 -27.775970 19.533801 36.231167 -1.143907 1.001376 0.049160 -0.006453 -919970.000000 0 0 1
11.661422 -27.388370 18.428401 35.010249 -1.168265 1.016469 0.046326 -0.013235 -441235.000000 0 0 1
11.287522 -28.444470 17.561301 35.283074 -1.193029 1.049821 0.049791 -0.012020 87707.300000 0 0 1
10.628522 -28.002270 16.406101 34.150443 -1.208034 1.069678 0.062063 -0.012709 -56796.400000 0 0 1
10.551622 -29.162370 15.397001 34.624387 -1.223628 1.109972 0.073787 -0.012586 277120.000000 0 0 1
9.567722 -30.142470 15.736701 35.323555 -1.263439 1.109062 0.073250 -0.018113 348737.000000 0 0 1
9.611822 -31.035870 14.677601 35.651708 -1.270464 1.146484 0.075246 -0.012088 408619.000000 0 0 1
8.355422 -31.960170 14.617401 36.123869 -1.315087 1.154204 0.080744 -0.010027 330550.000000 0 0 1
8.344422 -33.015970 15.579501 37.448691 -1.323241 1.141729 0.079253 -0.012053 -247917.000000 0 0 1
7.563522 34.009681 15.081801 37.964799 1.351964 1.162270 0.084992 -0.012466 75798.200000 0 0 1
7.512522 32.752181 16.011501 37.222460 1.345322 1.126130 0.086401 -0.017007 55958.200000 0 0 1
8.760422 32.103381 16.082201 36.959563 1.304401 1.120614 0.075170 -0.016022 -222664.000000 0 0 1
8.774222 31.095681 16.990401 36.504823 1.295778 1.086677 0.080587 -0.020587 -760253.000000 0 0 1
10.128122 30.423381 16.974001 36.280541 1.249431 1.083935 0.070181 -0.028614 -696901.000000 0 0 1
10.460922 29.719081 15.800801 35.246560 1.232347 1.105941 0.092104 -0.021604 -1049680.000000 0 0 1
11.749922 29.208581 15.830301 35.239187 1.188329 1.104899 0.086053 -0.026450 -634440.000000 0 0 1
12.202922 28.469181 14.524401 34.210580 1.165850 1.132322 0.067839 -0.022291 38346.600000 0 0 1
11.597422 27.202181 14.345401 32.867148 1.167790 1.119129 0.073160 -0.022545 256759.000000 0 0 1
12.058622 26.682981 13.071501 32.066431 1.146345 1.150930 0.069897 -0.012234 271091.000000 0 0 1
-9.426462 -9.148619 18.767745 22.908157 0.770441 0.610676 0.058436 -0.027126 -205848.000000 0 1 0
-9.640862 -9.484419 17.406845 22.043110 0.777218 0.660521 0.059892 -0.030123 19263.600000 0 1 0
-9.253862 -10.821219 17.056345 22.218273 0.863315 0.695596 0.060224 -0.031729 -33503.500000 0 1 0
-9.643762 -11.108619 15.607945 21.447879 0.855869 0.755812 0.067858 -0.033111 -105579.000000 0 1 0
-11.045062 -10.975819 15.503845 21.973421 0.782254 0.787565 0.080708 -0.032897 194635.000000 0 1 0
-11.721562 -11.304119 14.281345 21.659523 0.767271 0.850834 0.097613 -0.046900 307826.000000 0 1 0
-11.660262 -12.789319 13.847145 22.164652 0.831544 0.895998 0.085457 -0.047582 -73807.600000 0 1 0
-10.375262 -13.194819 13.340945 21.441318 0.904457 0.899237 0.080240 -0.047751 659408.000000 0 1 0
-10.147462 -14.614919 13.401945 22.275075 0.963891 0.925223 0.083105 -0.047663 -131925.000000 0 1 0
-9.721162 -15.088819 14.814345 23.273123 0.998465 0.880789 0.086576 -0.054182 698371.000000 0 1 0
-10.891962 -15.113919 15.654745 24.333854 0.946340 0.871954 0.125425 -0.036703 880193.000000 0 1 0
-10.428662 -15.276119 16.979945 25.108471 0.971791 0.828118 0.098882 -0.038359 601443.000000 0 0 1
-11.573862 -14.985419 18.027945 26.144289 0.913149 0.809921 0.098974 -0.023658 695685.000000 0 0 1
-12.039062 -13.641419 18.159845 25.706172 0.847713 0.786342 0.095125 -0.026810 299632.000000 0 0 1
-13.067162 -13.262919 17.264345 25.391206 0.792833 0.823124 0.098094 -0.046728 747451.000000 0 0 1
-14.549862 -13.244919 17.776945 26.516903 0.738483 0.836048 0.076391 -0.030346 830701.000000 0 0 1
-15.021762 -14.534419 18.213345 27.724152 0.768911 0.854032 0.087472 -0.021124 -461872.000000 0 0 1
-16.197962 -14.353819 18.941845 28.761078 0.725110 0.851849 0.092321 -0.013188 -443452.000000 0 0 1
-16.676762 -15.665919 19.597045 30.126062 0.754154 0.862552 0.087604 -0.000473 -84256.200000 0 0 1
-17.619562 -16.316919 18.765045 30.476511 0.747032 0.907495 0.087621 -0.011971 18903.100000 0 0 1
-18.000062 -17.547219 19.288145 31.685007 0.772660 0.916316 0.067881 -0.015124 1017350.000000 0 0 1
-19.382962 -18.122619 18.717245 32.472508 0.751807 0.956477 0.070585 -0.013650 960376.000000 0 0 1
-19.409562 -18.433919 17.326645 31.886566 0.759623 0.996334 0.078711 -0.009795 1710.900000 0 0 1
-19.888662 -17.385819 16.492845 31.142247 0.718353 1.012671 0.070931 -0.012547 -205382.000000 0 0 1
-19.563762 -17.573419 15.023145 30.286313 0.731855 1.051767 0.077283 -0.023466 299382.000000 0 0 1
-20.151162 -18.729319 14.394445 31.049264 0.748845 1.088742 0.083211 -0.019610 418543.000000 0 0 1
-19.505862 -18.735919 13.118845 30.060230 0.765267 1.119182 0.092117 -0.027042 393870.000000 0 0 1
-19.748562 -20.009519 12.317045 30.693585 0.791962 1.157871 0.103522 -0.019172 46164.000000 0 0 1
-18.857262 -21.074719 12.608045 30.962928 0.840872 1.151412 0.102743 -0.017504 14802.900000 0 0 1
-19.046962 -22.219519 11.810645 31.559232 0.862127 1.187222 0.079153 -0.005703 569968.000000 0 0 1
-18.000262 -23.337619 12.276145 31.927381 0.913803 1.176128 0.072788 -0.007619 864873.000000 0 0 1
-18.182462 -24.538519 11.544145 32.649780 0.933095 1.209406 0.073656 -0.032257 8492.920000 0 0 1
-17.334762 -24.586119 10.413545 31.834151 0.956680 1.237543 0.076392 -0.026998 -314766.000000 0 0 1
-17.759562 -25.649179 9.368145 32.573679 0.965187 1.279078 0.081574 -0.031991 -804362.000000 0 0 1
-18.994462 -25.379369 8.829445 32.906854 0.928306 1.299152 0.057073 -0.030418 -1147410.000000 0 0 1
-19.542562 -26.466009 8.134045 33.889881 0.934759 1.328416 0.066237 -0.033674 -228557.000000 0 0 1
-20.745662 -26.153719 7.269245 34.164915 0.900203 1.356388 0.058376 -0.039350 -242677.000000 0 0 1
-20.459262 -25.130509 6.313445 33.014898 0.887504 1.378381 0.079079 -0.037820 82933.900000 0 0 1
-21.641762 -24.776619 5.631645 33.376071 0.852831 1.401252 0.084773 -0.040728 193880.000000 0 0 1
-21.444162 -23.394719 4.949545 32.119511 0.828872 1.416082 0.083790 -0.036715 207957.000000 0 0 1
-22.412162 -23.301319 3.917745 32.566934 0.804846 1.450206 0.083961 -0.037616 183966.000000 0 0 1
-22.088262 -22.252319 3.009045 31.497800 0.789098 1.475119 0.076560 -0.028450 109733.000000 0 0 1
-22.795862 -22.304719 1.652845 31.935618 0.774509 1.519018 0.069089 -0.029069 130928.000000 0 0 1
-22.232062 -23.326119 0.806845 32.233886 0.809408 1.545763 0.066480 -0.036816 286921.000000 0 0 1
-22.695862 -23.125619 -0.501355 32.405984 0.794777 1.586268 0.074879 -0.033312 -228556.000000 0 0 1
-21.851262 -23.937119 -1.501955 32.445634 0.830921 1.617104 0.076085 -0.030214 -737908.000000 0 0 1
-20.498962 -23.547519 -1.525255 31.257311 0.854500 1.619612 0.079419 -0.030985 -230017.000000 0 0 1
-19.735062 -24.174219 -2.545255 31.310443 0.886154 1.652177 0.082543 -0.027195 171551.000000 0 0 1
-19.656162 -25.729379 -2.713255 32.491959 0.918422 1.654399 0.082525 -0.020239 -724745.000000 0 0 1
-20.802462 -26.375729 -3.205755 33.744605 0.902985 1.665940 0.110902 -0.019265 -78811.100000 0 0 1
-20.389562 -27.713419 -3.392955 34.572821 0.936491 1.669094 0.115188 -0.009013 -225013.000000 0 0 1
-21.502262 -28.585759 -3.948355 35.987253 0.925887 1.680733 0.125044 -0.006584 -366344.000000 0 0 1
-21.833562 -28.143849 -5.247755 36.004439 0.910996 1.717070 0.113543 -0.003440 -89715.200000 0 0 1
-22.840562 -28.986279 -5.790855 37.355450 0.903429 1.726444 0.118727 -0.013653 260409.000000 0 0 1
-23.485662 -28.184049 -6.963455 37.341755 0.876080 1.758373 0.117787 0.008432 -56269.500000 0 0 1
-22.538162 -28.079249 -7.999755 36.883723 0.894434 1.789425 0.140579 0.007180 351467.000000 0 0 1
-23.107762 -28.181669 -9.317055 37.616255 0.884004 1.821088 0.143435 0.008889 94864.100000 0 0 1
-23.968062 -27.001649 -9.842555 37.422359 0.844845 1.836940 0.111156 0.014549 45027.100000 0 0 1
-23.289962 -25.757499 -10.153755 36.179688 0.835665 1.855265 0.100741 0.013325 489987.000000 0 0 1
-22.687262 -25.056389 -9.068555 34.996760 0.834979 1.832913 0.084962 0.012334 38213.000000 0 0 1
-22.224262 -23.631619 -9.423055 33.781137 0.816079 1.853491 0.065976 0.004408 -13811.100000 0 0 1
-23.292962 -22.761219 -9.737155 33.991872 0.773853 1.861321 0.070075 0.006767 206254.000000 0 0 1
-22.926262 -21.366619 -9.767555 32.826072 0.750201 1.872927 0.088060 0.011781 462127.000000 0 0 1
-24.122862 -20.472219 -10.220655 33.248850 0.703718 1.883255 0.097528 0.017670 222635.000000 0 0 1
-24.591362 -20.652019 -11.552155 34.127603 0.698547 1.916117 0.075131 0.024146 721214.000000 0 0 1
-25.825432 -19.958419 -11.804355 34.707841 0.657947 1.917826 0.068068 0.018480 443898.000000 0 0 1
-25.820132 -18.400219 -11.870355 33.854876 0.619153 1.929034 0.080149 0.003104 -461759.000000 0 0 1
-24.941062 -17.812119 -12.872755 33.242082 0.620172 1.968435 0.105072 0.015542 820057.000000 0 0 1
-24.714562 -16.473919 -12.671555 32.291917 0.587934 1.974043 0.115039 -0.007546 -413630.000000 0 0 1
-23.792362 -16.041019 -11.542955 30.929445 0.593206 1.953255 0.089577 -0.008360 -868534.000000 0 0 1
-24.352062 -16.193619 -10.251955 30.989656 0.586834 1.907967 0.138903 -0.019412 437962.000000 0 0 1
-23.342662 -16.386819 -9.269755 29.988932 0.612075 1.885049 0.130055 -0.027136 104432.000000 0 0 1
-23.997062 -16.865219 -7.986455 30.398652 0.612605 1.836641 0.129567 -0.036023 -116522.000000 0 0 1
-24.439862 -18.173419 -8.173855 31.533980 0.639391 1.832998 0.116110 -0.025723 155645.000000 0 0 1
-25.342632 -18.446719 -7.094155 32.138100 0.629202 1.793369 0.132210 -0.027661 331052.000000 0 0 1
-25.984562 -19.832019 -7.008155 33.430834 0.651910 1.781994 0.127149 -0.024846 264460.000000 0 0 1
-27.009572 -20.119019 -7.954955 34.605971 0.640219 1.802743 0.106699 -0.020988 87948.100000 0 0 1
-27.551622 -21.429519 -7.759055 35.756385 0.661054 1.789534 0.084215 -0.004931 -76551.000000 0 0 1
-26.747472 -22.678519 -8.192755 36.011994 0.703259 1.800307 0.070417 0.004728 207552.000000 0 0 1
-27.422582 -23.890419 -7.865655 37.210464 0.716671 1.783786 0.066684 0.004981 47603.400000 0 0 1
-26.710082 -24.957819 -8.468455 37.523805 0.751497 1.798440 0.051715 0.020128 278575.000000 0 0 1
-27.285902 -26.358759 -8.060155 38.784929 0.768117 1.780139 0.060145 0.005290 36045.700000 0 0 1
-26.986292 -26.828759 -6.788455 38.653918 0.782471 1.747333 0.086935 -0.012531 30365.200000 0 0 1
-27.514072 -28.119259 -6.551455 39.882809 0.796276 1.735812 0.090395 -0.011467 -45997.500000 0 0 1
-27.268602 -28.596599 -5.137455 39.846400 0.809165 1.700088 0.111543 -0.018206 197924.000000 0 0 1
-28.080862 -27.856619 -4.240855 39.780785 0.781389 1.677605 0.085746 -0.021802 100506.000000 0 0 1
-27.430662 -27.682149 -2.992655 39.085785 0.789961 1.647438 0.089771 -0.029377 104732.000000 0 0 1
-27.499062 -28.939109 -2.070355 39.974452 0.810908 1.622611 0.092802 -0.018507 -129029.000000 0 0 1
-26.845282 -30.122289 -2.570455 40.430542 0.842859 1.634416 0.120110 -0.019561 -6676.870000 0 0 1
-26.752742 -31.222339 -1.693855 41.151097 0.862341 1.611970 0.104067 -0.012118 -6117.630000 0 0 1
-25.585762 -31.166869 -0.704755 40.329910 0.883424 1.588272 0.120351 -0.022790 68308.200000 0 0 1
-24.252162 -31.245959 -1.201755 39.571726 0.910756 1.601170 0.123009 -0.024344 -218087.000000 0 0 1
-23.385162 -31.512189 -0.144955 39.241622 0.932371 1.574490 0.083528 -0.017332 185143.000000 0 0 1
-22.218462 -30.455999 -0.092155 37.699289 0.940527 1.573241 0.089054 -0.014376 -101904.000000 0 0 1
-22.523962 -29.057929 0.115845 36.765548 0.911399 1.567645 0.093406 -0.028107 -180197.000000 0 0 1
-23.156062 -28.315919 -0.910655 36.589941 0.885310 1.595687 0.103336 -0.037094 -150066.000000 0 0 1
-23.818462 -26.947809 -0.533155 35.969262 0.846963 1.585619 0.085940 -0.019052 -524727.000000 0 0 1
-25.072362 -27.185959 0.040045 36.982446 0.825821 1.569714 0.083404 -0.025964 -542020.000000 0 0 1
-25.787002 -25.976029 0.203945 36.602803 0.789050 1.565224 0.097198 -0.049945 87707.400000 0 0 1
-25.330932 -25.098899 1.394045 35.686891 0.780797 1.531723 0.088680 -0.036244 -437813.000000 0 0 1
-25.804682 -25.515719 2.672145 36.387826 0.779768 1.497295 0.075907 -0.038983 14006.600000 0 0 1
-25.311622 -24.716819 3.734545 35.574516 0.773509 1.465624 0.082779 -0.036984 -222690.000000 0 0 1
-26.161562 -23.490519 4.027545 35.390012 0.731655 1.456745 0.103334 -0.031110 -78290.700000 0 0 1
-26.156152 -22.574819 2.965645 34.677973 0.712038 1.485172 0.096796 -0.034185 180427.000000 0 0 1
-27.190172 -21.614419 3.169445 34.878847 0.671645 1.479801 0.090697 -0.033363 394458.000000 0 0 1
-27.186172 -20.431519 2.169845 34.077018 0.644487 1.507078 0.092507 -0.021129 -36274.500000 0 0 1
-25.950512 -19.762219 2.257945 32.696677 0.650843 1.501684 0.085989 -0.023817 -127300.000000 0 0 1
-25.811642 -18.721419 1.261545 31.911188 0.627511 1.531253 0.085264 -0.026040 217304.000000 0 0 1
-24.469162 -18.000719 1.566445 30.417422 0.634253 1.519275 0.108516 -0.026469 -254493.000000 0 0 1
-23.380362 -18.753819 1.157845 29.994794 0.676031 1.532185 0.103590 -0.033119 78482.700000 0 0 1
-22.139662 -18.106019 1.493745 28.639550 0.685506 1.518616 0.112695 -0.029471 908654.000000 0 0 1
-20.886162 -19.013319 1.445245 28.281209 0.738494 1.519671 0.094314 -0.035175 -81080.500000 0 0 1
-20.541062 -19.463619 0.178345 28.298401 0.758472 1.564494 0.065857 -0.029617 149481.000000 0 0 1
-19.358562 -20.238719 0.293545 28.007960 0.807622 1.560315 0.088783 -0.026381 170835.000000 0 0 1
-18.891862 -20.788219 -1.091055 28.111259 0.833153 1.609618 0.089916 -0.030845 -101515.000000 0 0 1
-18.293062 -19.855319 -1.945255 27.067579 0.826327 1.642725 0.091748 -0.036055 -96668.100000 0 0 1
-18.238362 -20.362519 -3.238655 27.527421 0.840371 1.688721 0.093351 -0.027934 -311613.000000 0 0 1
-17.433062 -19.450619 -4.114355 26.441750 0.840044 1.727032 0.092344 -0.008199 -271786.000000 0 0 1
-16.041862 -19.473819 -3.879855 25.526932 0.881731 1.723378 0.110767 -0.016812 -209850.000000 0 0 1
-15.456262 -18.661719 -4.865855 24.715022 0.879075 1.768969 0.106068 -0.012106 41663.800000 0 1 0
-13.924162 -18.443619 -4.804155 23.603586 0.924129 1.775763 0.123124 -0.023181 61927.600000 0 1 0
-13.100762 -19.543119 -5.118155 24.078185 0.980247 1.784994 0.102477 -0.023313 -427416.000000 0 1 0
-11.991162 -19.086219 -5.847755 23.286648 1.009854 1.824634 0.098180 -0.032324 106159.000000 0 1 0
-10.931862 -20.251519 -5.976355 23.777015 1.075814 1.824871 0.096119 -0.035897 523478.000000 0 1 0
-11.275062 -21.495919 -6.722355 25.187132 1.087725 1.840968 0.096020 -0.026928 91931.100000 0 0 1
-10.099562 -22.281419 -6.935255 25.427555 1.145224 1.847042 0.088539 -0.021414 614009.000000 0 0 1
-10.235162 -23.455319 -7.914755 26.787196 1.159336 1.870742 0.096431 -0.008404 -146851.000000 0 0 1
-10.563262 -23.042019 -9.188255 26.961847 1.140950 1.918551 0.081360 -0.002407 -48447.600000 0 0 1
-10.655962 -24.157019 -10.056355 28.253166 1.155358 1.934713 0.099063 0.003918 -179537.000000 0 0 1
-11.143462 -23.707719 -11.449355 28.588816 1.131407 1.982841 0.131714 -0.005219 -220410.000000 0 0 1
-10.327662 -22.854819 -12.222555 27.899717 1.146379 2.024268 0.105845 -0.002707 407430.000000 0 0 1
-11.124162 -22.396319 -13.365455 28.354496 1.109795 2.061640 0.105272 -0.010012 205153.000000 0 0 1
-10.541362 -21.067719 -14.031755 27.420052 1.106864 2.107997 0.087708 -0.007829 -268339.000000 0 0 1
-10.515762 -20.004319 -13.094555 26.119368 1.086821 2.095937 0.095384 -0.010038 -101295.000000 0 0 1
-10.353462 -18.802719 -13.785555 25.510350 1.067465 2.141698 0.081749 -0.002853 -102526.000000 0 0 1
-10.127662 -17.530119 -12.975955 24.046830 1.046913 2.140772 0.085595 -0.007956 79866.200000 0 1 0
-11.282862 -17.069519 -12.273455 23.860200 0.986731 2.111093 0.093958 -0.013347 427174.000000 0 1 0
-11.024662 -15.838919 -11.543855 22.487221 0.962727 2.109882 0.091180 -0.017334 75730.200000 0 1 0
-10.898762 -14.564619 -12.415955 22.024238 0.928382 2.169704 0.095240 -0.003818 397361.000000 0 1 0
-12.104662 -14.117719 -13.046255 22.716461 0.862017 2.182555 0.100738 0.009433 485787.000000 0 1 0
-11.851762 -13.636419 -14.312355 23.049071 0.855303 2.240752 0.116601 -0.012197 -1383860.000000 0 1 0
-13.091662 -13.119119 -14.956855 23.816180 0.786446 2.249793 0.115744 -0.005000 -1008570.000000 0 1 0
-13.445262 -11.944719 -14.309955 22.983172 0.726367 2.242892 0.097714 0.002860 -642082.000000 0 1 0
-14.395862 -11.198619 -14.956955 23.587294 0.661123 2.257654 0.088661 -0.008513 -789352.000000 0 1 0
-14.500262 -9.774519 -14.324255 22.604935 0.593126 2.257095 0.079643 -0.018229 91096.900000 0 1 0
-13.416062 -8.888619 -14.522855 21.677444 0.585137 2.304941 0.059141 -0.014766 237352.000000 0 1 0
-13.150062 -8.569419 -15.894755 22.338360 0.577544 2.362491 0.057283 -0.013699 -62563.300000 0 1 0
-12.171762 -7.347119 -15.940655 21.359692 0.543077 2.413276 0.041043 -0.002457 588365.000000 0 1 0
-10.808762 -7.744119 -15.832155 20.675054 0.621692 2.443020 0.032270 -0.008885 466485.000000 0 1 0
-9.958962 -6.597619 -15.921055 19.904509 0.585099 2.497878 0.021908 0.003746 332568.000000 0 1 0
11.487438 21.792481 16.097645 29.428008 1.085682 0.991999 0.122493 -0.018786 -136780.000000 0 0 1
12.457938 21.933481 17.108345 30.479063 1.054248 0.974823 0.144983 -0.036341 -91997.100000 0 0 1
13.035038 20.656281 17.309345 29.936726 1.007862 0.954278 0.129051 -0.028770 -492190.000000 0 0 1
14.156438 20.563181 18.317245 30.964021 0.967874 0.937797 0.136039 -0.036310 485466.000000 0 0 1
15.433938 20.976081 17.786345 31.536590 0.936453 0.971586 0.117455 -0.029921 309752.000000 0 0 1
16.470538 20.662381 18.678845 32.359108 0.897810 0.955456 0.112504 -0.029369 973112.000000 0 0 1
17.912638 21.107581 18.203245 33.132321 0.867095 0.989138 0.080536 -0.018815 4975.200000 0 0 1
18.157838 22.501181 18.282945 34.209301 0.891818 1.006947 0.082298 -0.024840 -467323.000000 0 0 1
19.332638 22.969981 17.695145 34.849520 0.871171 1.038215 0.067499 -0.020326 459067.000000 0 0 1
20.679238 22.531681 18.378145 35.680019 0.828242 1.029693 0.059828 -0.026374 -116035.000000 0 0 1
21.045138 21.184381 18.173145 34.956245 0.788695 1.024083 0.058093 -0.016357 -276521.000000 0 0 1
22.345938 20.981781 18.660745 35.885923 0.753924 1.023943 0.072975 -0.023044 -216141.000000 0 0 1
22.868138 19.559081 18.511445 35.329633 0.707562 1.019298 0.053748 -0.018258 -160480.000000 0 0 1
22.888438 19.145281 17.170045 34.427210 0.696581 1.048658 0.035617 -0.013643 254216.000000 0 0 1
22.384038 17.829981 16.837445 33.203207 0.672633 1.038976 0.022401 -0.001784 -80890.100000 0 0 1
23.227038 16.606581 17.347845 33.409902 0.620701 1.024832 0.016597 -0.006715 998084.000000 0 0 1
24.547738 16.585581 16.776745 34.046029 0.594193 1.055530 0.046532 -0.022126 629008.000000 0 0 1
25.265938 15.452681 17.031945 34.164896 0.548906 1.048904 0.035040 -0.005897 -201743.000000 0 0 1
26.608538 15.311981 16.230645 34.726141 0.522175 1.084460 0.155394 -0.033657 -111222.000000 0 0 1
27.571038 16.361881 16.450645 36.034664 0.535585 1.096713 0.131539 -0.032009 573732.000000 0 0 1
28.498038 16.057381 17.479945 37.088086 0.513115 1.080022 0.132293 -0.039698 -275483.000000 0 0 1
29.463738 14.877581 17.210845 37.224554 0.467596 1.090150 0.121650 -0.046731 -1067640.000000 0 0 1
30.542238 15.268281 16.367245 37.866019 0.463573 1.123820 0.167572 -0.034753 101756.000000 0 0 1
30.894938 14.200181 15.480545 37.360268 0.430832 1.143558 0.174681 -0.052697 340032.000000 0 0 1
30.096838 13.999081 14.120545 36.071924 0.435368 1.168584 0.149405 -0.031975 126315.000000 0 0 1
30.495438 14.900581 13.078845 36.373826 0.454500 1.202992 0.141274 -0.017514 9091.210000 0 0 1
29.625038 14.875281 11.985645 35.250142 0.465341 1.223861 0.126417 -0.029507 1120660.000000 0 0 1
28.306938 15.778481 12.092145 34.589929 0.508512 1.213667 0.105565 -0.034217 844329.000000 0 0 1
28.462438 17.144181 11.772345 35.250836 0.542141 1.230295 0.087473 -0.021372 427707.000000 0 0 1
29.181638 18.015381 12.695545 36.569096 0.553082 1.216249 0.114419 -0.031363 -158117.000000 0 0 1
28.434738 18.423981 13.998045 36.659551 0.574925 1.179011 0.110230 -0.025452 384118.000000 0 0 1
27.281738 19.270781 13.832445 36.152355 0.614983 1.178171 0.109739 -0.018805 962939.000000 0 0 1
26.610338 19.323181 15.151045 36.208419 0.628064 1.139069 0.087795 -0.018906 110067.000000 0 0 1
27.214138 20.125981 16.341045 37.585824 0.636774 1.121018 0.089021 -0.029314 -309784.000000 0 0 1
27.143638 21.547181 16.176845 38.245894 0.670962 1.134076 0.070251 -0.017773 -452588.000000 0 0 1
25.919338 22.021881 16.639745 37.863656 0.704280 1.115794 0.070060 -0.023910 -450883.000000 0 0 1
25.733538 23.505781 16.319245 38.484471 0.740186 1.132886 0.074851 -0.015771 8969.670000 0 0 1
25.304238 23.706881 14.964045 37.765637 0.752818 1.163384 0.101893 -0.027476 17484.700000 0 0 1
25.504638 25.037181 14.524945 38.578764 0.776150 1.184780 0.100443 -0.027288 -298519.000000 0 0 1
24.991638 25.380281 13.072845 37.942587 0.793113 1.219045 0.090222 -0.027223 -1253030.000000 0 0 1
23.639538 25.621781 13.000245 37.206314 0.825616 1.213855 0.090872 -0.030895 -1144750.000000 0 0 1
23.143238 25.845381 11.705345 36.614318 0.840501 1.245391 0.068333 -0.041535 -94119.300000 0 0 1
22.767438 24.476381 10.962945 35.180046 0.821555 1.253895 0.097457 -0.040534 -885232.000000 0 0 1
21.491438 24.002681 11.315445 34.147473 0.840542 1.233041 0.100934 -0.038021 -140364.000000 0 0 1
21.119438 22.725081 10.734345 32.828130 0.822003 1.237684 0.103736 -0.031679 27422.900000 0 0 1
21.058038 22.699281 9.218845 32.306121 0.822888 1.281415 0.114564 -0.025233 -477065.000000 0 0 1
19.966538 23.445081 8.714745 32.004394 0.865357 1.295015 0.121312 -0.020954 232332.000000 0 0 1
20.233538 23.842181 7.383645 32.130420 0.867090 1.338922 0.122392 -0.029747 157979.000000 0 0 1
18.915738 24.148981 6.603045 31.377996 0.906326 1.358776 0.107143 -0.022088 -34359.100000 0 0 1
18.313538 22.941681 6.141345 29.990374 0.897114 1.364560 0.102287 -0.017562 525176.000000 0 0 1
17.544938 23.095181 4.934545 29.420435 0.921129 1.402275 0.122790 -0.029766 740401.000000 0 0 1
16.095538 23.686481 5.064245 29.081993 0.973945 1.395767 0.100342 -0.026205 262143.000000 0 0 1
16.053538 25.117481 5.249845 30.268214 1.002095 1.396471 0.110602 -0.038896 547508.000000 0 0 1
14.764438 25.578881 5.656045 30.070893 1.047301 1.381579 0.091731 -0.038953 333886.000000 0 0 1
14.506238 27.007881 5.220545 31.098403 1.077902 1.402126 0.090281 -0.043342 -565016.000000 0 0 1
14.246038 27.144081 3.848145 30.895938 1.087482 1.445920 0.068927 -0.028463 299563.000000 0 0 1
14.133538 28.510481 3.472045 32.010303 1.110570 1.462116 0.059996 -0.036093 -393628.000000 0 0 1
13.759238 28.721881 1.958945 31.907688 1.124048 1.509364 0.065398 -0.039998 -115522.000000 0 0 1
14.696138 28.370081 0.949445 31.964659 1.092841 1.541089 0.080939 -0.041635 -42511.300000 0 0 1
14.639038 26.979881 0.633945 30.702073 1.073659 1.550147 0.068985 -0.034864 34038.100000 0 0 1
15.656838 26.647981 -0.475055 30.910793 1.039587 1.586166 0.070828 -0.035296 276768.000000 0 0 1
15.240538 27.032681 -1.743655 31.081830 1.057434 1.626925 0.057476 -0.024494 -439678.000000 0 0 1
16.379638 26.932581 -2.555555 31.625738 1.024390 1.651691 0.053801 -0.019347 -114537.000000 0 0 1
16.302138 27.460081 -3.954555 32.178475 1.035047 1.694002 0.053948 -0.022798 -711215.000000 0 0 1
15.368138 26.778981 -4.735455 31.236485 1.049798 1.722983 0.083750 -0.026792 -506671.000000 0 0 1
15.471838 27.189681 -6.094255 31.871562 1.053458 1.763194 0.087887 -0.026063 -237058.000000 0 0 1
14.332538 26.749681 -6.994555 31.143071 1.078919 1.797323 0.112306 -0.037504 -320219.000000 0 0 1
14.179938 25.370381 -7.300955 29.967162 1.061133 1.816905 0.088950 -0.032434 191028.000000 0 0 1
13.007438 25.241181 -8.091955 29.526097 1.094963 1.848410 0.071948 -0.031352 267288.000000 0 0 1
12.434838 23.871381 -8.447755 28.210505 1.090561 1.874917 0.078081 -0.023588 -435546.000000 0 0 1
12.965538 23.226081 -9.517455 28.251336 1.061655 1.914403 0.073615 -0.026857 -84828.500000 0 0 1
12.400138 21.926581 -9.788855 27.025175 1.056108 1.941437 0.078431 -0.023876 -31616.000000 0 0 1
12.680438 21.501081 -11.232055 27.372414 1.037942 1.993626 0.086235 -0.024148 -90852.400000 0 0 1
12.491738 20.143581 -11.523055 26.355041 1.015703 2.023306 0.096359 -0.029874 -104577.000000 0 0 1
12.652538 19.765881 -12.917955 26.788996 1.001398 2.073973 0.096901 -0.026506 368014.000000 0 0 1
14.092738 19.274181 -13.251355 27.307466 0.939455 2.077462 0.084410 -0.022101 884106.000000 0 0 1
15.054238 20.340081 -13.169455 28.526891 0.933644 2.050651 0.080402 -0.017848 -599215.000000 0 0 1
16.345638 19.975781 -13.513355 29.134558 0.885012 2.053105 0.073514 -0.007603 -471705.000000 0 0 1
17.296938 21.172181 -13.264655 30.387438 0.885796 2.022521 0.066390 -0.004893 -268683.000000 0 0 1
17.295438 22.220581 -14.254355 31.560625 0.909395 2.039410 0.066549 -0.012036 25677.100000 0 0 1
16.251338 23.174281 -14.165755 31.651570 0.959221 2.034823 0.058161 -0.010723 219350.000000 0 0 1
16.749538 24.567581 -14.584455 33.118264 0.972408 2.026813 0.070036 -0.009060 175224.000000 0 0 1
17.150238 24.743781 -15.952755 34.071627 0.964707 2.058063 0.062777 -0.013050 193989.000000 0 0 1
16.058438 24.935081 -16.856655 34.114198 0.998644 2.087624 0.069500 -0.010933 398448.000000 0 0 1
16.393838 24.774381 -18.379755 34.933412 0.986222 2.124848 0.044954 -0.006882 -114452.000000 0 0 1
16.603238 23.424781 -18.650755 34.237969 0.954196 2.146874 0.036845 0.005181 -135987.000000 0 0 1
16.882538 23.270081 -19.998455 35.020779 0.943158 2.178575 0.026690 0.006796 -163205.000000 0 0 1
17.037538 21.774381 -20.457955 34.393739 0.906844 2.207833 0.047851 0.003341 -379444.000000 0 0 1
15.813538 21.110581 -20.583855 33.457730 0.927884 2.233461 0.064270 0.000862 -269308.000000 0 0 1
15.914838 20.200581 -21.632555 33.605252 0.903514 2.270153 0.054904 0.004259 222612.000000 0 0 1
14.900738 19.011581 -21.475955 32.321647 0.906029 2.297547 0.060690 -0.006790 -519042.000000 0 0 1
14.998338 18.139481 -20.379355 31.133728 0.879906 2.284416 0.061113 -0.006935 115823.000000 0 0 1
14.327038 16.860581 -20.546755 30.194575 0.866456 2.319212 0.062796 -0.019535 1623180.000000 0 0 1
12.769338 16.929081 -20.841755 29.732617 0.924559 2.347557 0.086229 -0.025595 1029370.000000 0 0 1
11.830438 16.909181 -19.742855 28.559762 0.960308 2.334058 0.083475 -0.025651 685268.000000 0 0 1
10.512138 16.868481 -20.254655 28.377839 1.013505 2.365633 0.080325 -0.025541 427560.000000 0 0 1
9.340838 16.550181 -19.308255 27.091852 1.056969 2.364130 0.078927 -0.039038 279152.000000 0 0 1
8.923638 15.136081 -19.191955 26.020442 1.038088 2.400264 0.099202 -0.048966 464572.000000 0 0 1
7.611738 14.916281 -18.684655 25.090841 1.098945 2.410852 0.102213 -0.046244 505123.000000 0 0 1
7.245138 15.236881 -17.188955 24.085571 1.126940 2.365508 0.113027 -0.046526 -52470.900000 0 1 0
7.014538 16.550981 -16.941855 24.701522 1.169931 2.326585 0.119335 -0.044827 -376935.000000 0 1 0
6.469838 16.757881 -15.695555 23.854472 1.202350 2.288918 0.096237 -0.046599 -703945.000000 0 1 0
6.271438 18.228281 -15.321655 24.624262 1.239432 2.242369 0.074851 -0.036793 -200640.000000 0 1 0
7.462838 18.935381 -15.026555 25.299011 1.195368 2.206766 0.070981 -0.034885 -114399.000000 0 0 1
7.799238 19.656481 -16.186855 26.631178 1.193072 2.224104 0.081087 -0.029370 -312362.000000 0 0 1
9.155638 20.381481 -16.062155 27.517691 1.148597 2.194078 0.071231 -0.013486 28381.900000 0 0 1
9.162538 21.646381 -15.360955 28.079830 1.170381 2.149627 0.070242 -0.020910 -91387.200000 0 0 1
9.070238 21.468781 -13.958355 27.166403 1.171058 2.110416 0.072487 -0.032959 -193706.000000 0 0 1
8.627738 22.709781 -13.115855 27.607928 1.207725 2.065846 0.072991 -0.030743 638556.000000 0 0 1
7.280338 23.163581 -13.401955 27.733864 1.266271 2.075142 0.053795 -0.024822 1037450.000000 0 0 1
6.793338 24.208781 -12.531955 28.093850 1.297218 2.033171 0.042282 -0.024339 51249.900000 0 0 1
6.089038 23.789181 -11.235055 27.004222 1.320218 1.999891 0.037284 -0.019479 -486315.000000 0 0 1
7.015038 23.464581 -10.240255 26.545436 1.280291 1.966831 0.039430 -0.020262 9914.460000 0 0 1
6.440438 22.880481 -9.058755 25.437309 1.296414 1.934910 0.053204 -0.026525 -180804.000000 0 0 1
7.516038 22.763581 -7.999755 25.271872 1.251888 1.892884 0.041606 -0.027402 -196617.000000 0 0 1
7.804238 23.949281 -7.304855 26.226611 1.255782 1.853058 0.058188 -0.019462 271344.000000 0 0 1
8.862138 23.742581 -6.379655 26.133267 1.213553 1.817409 0.064973 -0.020058 165079.000000 0 0 1
9.149138 24.980281 -5.486855 27.162966 1.219715 1.774193 0.060186 -0.019298 -113642.000000 0 0 1
9.719038 26.026881 -6.177555 28.460858 1.213409 1.789592 0.064642 -0.022295 -81226.800000 0 0 1
10.052538 27.130881 -5.355155 29.424750 1.215959 1.753811 0.065768 -0.018540 156489.000000 0 0 1
10.239738 28.425581 -6.161655 30.835562 1.225037 1.771974 0.064605 -0.019722 918881.000000 0 0 1
11.415638 28.468381 -6.995555 31.459550 1.189434 1.795038 0.068258 -0.025521 530369.000000 0 0 1
11.403338 29.712481 -7.689955 32.741458 1.204342 1.807880 0.071034 -0.019699 -315333.000000 0 0 1
12.678738 29.990581 -8.484555 33.647779 1.170827 1.825706 0.074807 -0.022356 -708895.000000 0 0 1
13.779938 30.130681 -7.666855 34.007724 1.141856 1.798196 0.070098 -0.022994 -1384680.000000 0 0 1
14.812938 30.753881 -8.350155 35.141847 1.121927 1.810704 0.069086 -0.019770 -85489.800000 0 0 1
16.054638 31.171981 -7.509255 35.858510 1.095194 1.781771 0.058985 -0.023297 -95560.800000 0 0 1
16.983038 30.172281 -7.283555 35.381355 1.058127 1.778137 0.058435 -0.024893 -137063.000000 0 0 1
18.085138 30.734581 -6.536255 36.254783 1.038928 1.752074 0.051505 -0.017816 612408.000000 0 0 1
19.233838 29.779881 -6.223155 35.993187 0.997332 1.744568 0.045826 -0.020390 -347507.000000 0 0 1
18.813938 28.835181 -5.242655 34.826963 0.992690 1.721905 0.046257 -0.025564 662319.000000 0 0 1
19.828738 27.831381 -4.997555 34.536071 0.951757 1.716012 0.033407 -0.018608 228431.000000 0 0 1
19.826638 26.659181 -5.980355 33.757550 0.931334 1.748892 0.032306 -0.007231 -119596.000000 0 0 1
20.444838 26.991981 -7.199955 34.617883 0.922550 1.780309 0.031081 -0.007533 224145.000000 0 0 1
20.357738 25.958781 -8.141655 33.979146 0.905744 1.812758 0.034699 -0.005339 -1129490.000000 0 0 1
21.022438 26.251381 -9.523655 34.953940 0.895560 1.846748 0.033473 -0.012874 1343890.000000 0 0 1
22.471138 26.376181 -9.497255 35.928440 0.865172 1.838314 0.021815 -0.006745 1221510.000000 0 0 1
23.085438 25.122381 -9.330755 35.371379 0.827626 1.837750 0.038814 -0.005595 -715292.000000 0 0 1
24.626538 25.280981 -9.369155 36.515414 0.798511 1.830279 0.018694 -0.000415 125643.000000 0 0 1
25.306238 25.623081 -10.528555 37.520640 0.791619 1.855223 0.032884 -0.007289 -41138.600000 0 0 1
26.706338 25.516781 -10.344355 38.358054 0.762624 1.843856 0.043078 0.002007 -21950.700000 0 0 1
27.437738 25.651381 -11.710055 39.343973 0.751763 1.873008 0.048376 -0.005459 -35679.200000 0 0 1
27.322038 26.907281 -12.370655 40.293035 0.777750 1.882854 0.042657 -0.003057 544989.000000 0 0 1
28.295838 26.936881 -13.429955 41.311181 0.760799 1.901906 0.049600 -0.005025 557251.000000 0 0 1
28.074838 28.118681 -14.391655 42.260815 0.786178 1.918291 0.055180 -0.016476 779.439000 0 0 1
28.413838 29.427581 -13.947055 43.218619 0.802923 1.899387 0.054118 -0.026975 150842.000000 0 0 1
28.448638 30.223681 -15.116255 44.173488 0.815642 1.920056 0.063203 -0.019282 -54308.000000 0 0 1
28.930238 31.653981 -14.796255 45.363668 0.830326 1.903045 0.060328 -0.030013 -369211.000000 0 0 1
30.226938 31.759581 -14.279155 46.111094 0.810119 1.885641 0.053424 -0.028157 -156759.000000 0 0 1
30.630538 33.105481 -14.273355 47.306780 0.824210 1.877292 0.054681 -0.034975 -449261.000000 0 0 1
15.974238 -31.930670 -28.364749 45.599374 -1.106926 2.242145 0.093401 -0.039282 -233685.000000 0 0 1
17.153238 -32.592570 -27.949839 46.235297 -1.086336 2.219951 0.076317 -0.030267 97135.700000 0 0 1
17.357638 -32.204270 -26.611019 45.238799 -1.076449 2.199670 0.084325 -0.037077 -360057.000000 0 0 1
18.607738 -32.856370 -25.961659 45.823539 -1.055498 2.173118 0.042653 -0.029680 994352.000000 0 0 1
19.915438 -32.450370 -26.397529 46.330127 -1.020350 2.177023 0.075008 -0.040742 1077690.000000 0 0 1
20.289138 -32.715270 -27.730159 47.443648 -1.015675 2.195043 0.081359 -0.033111 -484411.000000 0 0 1
21.811538 -32.452870 -27.923169 48.048260 -0.979042 2.190935 0.094618 -0.031597 207333.000000 0 0 1
22.230938 -31.115570 -27.947669 47.365235 -0.950429 2.201912 0.092652 -0.045726 640195.000000 0 0 1
23.617238 -30.963070 -27.627049 47.746617 -0.919182 2.187829 0.061944 -0.030823 390314.000000 0 0 1
24.299938 -29.699570 -28.229699 47.638927 -0.885061 2.205050 0.035485 -0.026394 -117535.000000 0 0 1
24.553938 -29.822170 -29.612709 48.674123 -0.881982 2.224823 0.039963 -0.029814 -28727.000000 0 0 1
25.034238 -28.647570 -30.263629 48.613615 -0.852607 2.242773 0.029519 -0.037907 152760.000000 0 0 1
25.380838 -28.863470 -31.796439 49.882866 -0.849513 2.261944 0.033229 -0.026094 761014.000000 0 0 1
26.556938 -29.679470 -31.929059 51.045144 -0.840866 2.246577 0.041725 -0.031695 372110.000000 0 0 1
26.604738 -30.080670 -33.281249 52.156498 -0.846641 2.262829 0.036920 -0.023794 151851.000000 0 0 1
27.814338 -30.988470 -33.655489 53.540775 -0.839325 2.250542 0.028099 -0.022596 160280.000000 0 0 1
28.963838 -30.241070 -33.887659 53.868355 -0.806968 2.251169 0.029409 -0.025089 -1492740.000000 0 0 1
30.097038 -30.875870 33.572802 54.646903 -0.798171 0.909223 0.019689 -0.005903 -584845.000000 0 0 1
31.274838 -29.887870 33.549750 54.744734 -0.762725 0.911147 0.023117 -0.018352 -286959.000000 0 0 1
31.414838 -29.005070 32.397212 53.644808 -0.745536 0.922385 0.025867 -0.011520 313512.000000 0 0 1
32.632638 -28.271470 32.342213 53.946119 -0.713913 0.927885 0.029087 -0.018134 255254.000000 0 0 1
32.802038 -27.543670 30.932715 52.834272 -0.698480 0.945341 0.039782 -0.023849 -1258860.000000 0 0 1
33.939938 -26.752170 30.869765 53.108760 -0.667517 0.950525 0.037661 -0.027293 -225577.000000 0 0 1
34.185138 -26.049970 29.637085 52.207101 -0.651154 0.967108 0.045715 -0.020598 -492873.000000 0 0 1
34.666938 -26.882970 28.481705 52.303902 -0.659600 0.994953 0.040471 -0.020280 -328256.000000 0 0 1
33.807638 -27.870970 27.875215 51.930482 -0.689442 1.004181 0.023832 -0.026716 761168.000000 0 0 1
32.746038 -27.357270 27.078955 50.537046 -0.695979 1.005313 0.046644 -0.027507 21726.400000 0 0 1
32.253838 -28.381670 26.029525 50.233111 -0.721625 1.026081 0.047794 -0.021676 42942.700000 0 0 1
31.068838 -27.807870 25.502555 48.876688 -0.730068 1.021868 0.068164 -0.020584 -38873.400000 0 0 1
30.405638 -28.711570 24.642855 48.539956 -0.756750 1.038304 0.065968 -0.014855 161130.000000 0 0 1
29.045838 -28.153670 24.138445 47.105778 -0.769802 1.032783 0.080963 -0.014828 356847.000000 0 0 1
28.017538 -28.310670 25.109865 47.084836 -0.790602 1.008311 0.073500 -0.015179 -493600.000000 0 0 1
26.776838 -28.010570 24.548775 45.871924 -0.807913 1.006100 0.072402 -0.007071 -131577.000000 0 0 1
25.646038 -28.103370 25.613325 45.864595 -0.831085 0.978274 0.080386 -0.006743 97944.400000 0 0 1
25.735638 -27.107070 26.620625 45.888713 -0.811345 0.951929 0.067284 -0.004664 -428962.000000 0 0 1
24.503438 -26.957170 27.240705 45.488058 -0.833044 0.928727 0.057666 -0.007083 -527446.000000 0 0 1
24.465238 -25.693970 28.153445 45.291770 -0.809890 0.900010 0.050905 0.001028 -726854.000000 0 0 1
23.212538 -25.664870 28.755935 44.993458 -0.835529 0.877451 0.051503 -0.003678 -446255.000000 0 0 1
23.208338 -24.649070 29.750515 45.069909 -0.815494 0.849848 0.041635 -0.001555 -12668.800000 0 0 1
22.701338 -23.213370 29.379545 43.787771 -0.796550 0.835303 0.048722 -0.008091 342609.000000 0 0 1
23.606638 -22.572570 28.427475 43.300295 -0.763009 0.854601 0.062595 -0.012027 936107.000000 0 0 1
23.284638 -21.184070 28.269905 42.309889 -0.738196 0.839059 0.071743 -0.011027 -110275.000000 0 0 1
23.864238 -20.178070 29.287265 42.829899 -0.701897 0.817833 0.056313 -0.010075 -213319.000000 0 0 1
23.383938 -20.168170 30.595035 43.469757 -0.711695 0.790031 0.039044 -0.004619 163035.000000 0 0 1
24.140738 -19.225170 31.357745 43.996483 -0.672529 0.777410 0.048158 -0.010645 100178.000000 0 0 1
23.630638 -18.989570 32.780270 44.649266 -0.676932 0.746349 0.050294 -0.006257 -310469.000000 0 0 1
23.885738 -19.978770 33.671379 45.863291 -0.696564 0.746355 0.029799 -0.003746 119062.000000 0 0 1
23.347738 -19.652770 -32.946719 44.909181 -0.699680 2.394445 0.047097 -0.006532 -111974.000000 0 0 1
23.261038 -20.855670 -31.998109 44.720396 -0.730929 2.368157 0.016958 0.001391 197950.000000 0 0 1
24.450538 -21.223370 -31.322009 45.048069 -0.714859 2.339636 0.024530 -0.001398 268800.000000 0 0 1
24.101138 -22.104370 -30.282819 44.570362 -0.742210 2.317793 0.029494 -0.012137 310898.000000 0 0 1
25.343938 -22.409370 -29.406229 44.824339 -0.724023 2.286346 0.015639 -0.005199 531397.000000 0 0 1
26.407338 -23.052370 -30.079399 46.190145 -0.717670 2.279972 0.013672 -0.000024 603580.000000 0 0 1
27.355638 -23.738470 -29.230279 46.543046 -0.714722 2.249811 0.021544 -0.010577 1299630.000000 0 0 1
28.498738 -24.599270 -29.900859 48.076642 -0.712091 2.242016 0.025892 -0.006573 1605640.000000 0 0 1
29.519938 -23.908570 -30.723489 48.856721 -0.680756 2.250868 0.028429 -0.004166 968189.000000 0 0 1
29.176638 -23.563870 -32.096579 49.363170 -0.679375 2.278661 0.026507 -0.006765 -5711.450000 0 0 1
29.495338 -24.710870 -33.099799 50.756268 -0.697362 2.281190 0.022118 -0.008626 156998.000000 0 0 1
28.553038 -25.754770 -33.020729 50.684837 -0.733918 2.280345 0.025522 -0.012638 96525.200000 0 0 1
29.086338 -26.839270 -33.719479 51.993891 -0.745240 2.276445 0.028937 -0.015665 169640.000000 0 0 1
28.569038 -26.961970 32.704360 51.114703 -0.756466 0.876528 0.027225 -0.014480 -154450.000000 0 0 1
29.113638 -26.009070 31.838885 50.376485 -0.729137 0.886641 0.029554 -0.018134 -111480.000000 0 0 1
28.877938 -26.276770 30.474915 49.529025 -0.738272 0.908037 0.024158 -0.012848 -196421.000000 0 0 1
30.019038 -25.671370 29.610005 49.365112 -0.707488 0.927525 0.039219 -0.021836 -106001.000000 0 0 1
30.042238 -24.258370 29.485905 48.584186 -0.679283 0.918638 0.031403 -0.023126 142148.000000 0 0 1
30.335838 -23.517770 30.694875 49.147980 -0.659464 0.896254 0.024668 -0.006959 -1476880.000000 0 0 1
30.980538 -22.098470 30.425835 48.722351 -0.619598 0.896339 0.031514 -0.007036 635814.000000 0 0 1
32.303338 -22.045670 29.911565 49.236357 -0.598856 0.917875 0.045711 -0.017345 240697.000000 0 0 1
33.285238 -22.648470 30.690205 50.623600 -0.597475 0.919468 0.037515 -0.018860 -1067450.000000 0 0 1
34.735338 -22.124870 30.553095 51.279091 -0.567150 0.932510 0.038570 -0.026759 293808.000000 0 0 1
35.305738 -22.494870 29.294535 51.094854 -0.567285 0.960224 0.063974 -0.036733 211284.000000 0 0 1
36.628638 -22.034270 29.114455 51.718639 -0.541565 0.972858 0.050096 -0.033610 92617.700000 0 0 1
-37.010647 -22.352770 27.746525 51.374157 0.543323 1.000256 0.059824 -0.031021 -406266.000000 0 0 1
-36.552847 -23.623570 27.530485 51.498653 0.573759 1.006778 0.051862 -0.029436 62816.400000 0 0 1
-36.189247 -23.851570 26.155615 50.622872 0.582731 1.027832 0.030639 -0.010631 -70236.900000 0 0 1
-36.082147 -25.343770 25.862075 51.118245 0.612329 1.040341 0.034050 -0.016919 16975.000000 0 0 1
36.941938 -26.066170 25.856465 52.083671 -0.614473 1.051302 0.042254 -0.012251 182518.000000 0 0 1
36.931238 -27.402670 25.450445 52.559945 -0.638356 1.065328 0.029230 -0.007896 -135161.000000 0 0 1
-36.528747 -28.342170 26.364365 53.223188 0.659864 1.052553 0.021650 -0.014769 -988624.000000 0 0 1
-36.198347 -29.644670 25.815185 53.437352 0.686190 1.066613 0.020993 -0.013123 802351.000000 0 0 1
-35.076447 -30.306070 26.439475 53.365352 0.712566 1.052452 0.024366 -0.022893 180434.000000 0 0 1
-33.739547 -29.621470 26.247875 52.007110 0.720496 1.041764 0.024820 -0.020208 -1808020.000000 0 0 1
-33.282947 -29.700770 24.919975 51.096922 0.728585 1.061343 0.023810 -0.018908 347676.000000 0 0 1
-31.983947 -29.125470 24.812245 49.868962 0.738656 1.050026 0.004309 -0.006425 517266.000000 0 0 1
-31.421547 -29.202170 23.343445 48.836429 0.748805 1.072429 0.011145 -0.001537 -85453.400000 0 0 1
-31.398747 -30.558870 22.931895 49.452984 0.771843 1.088617 0.023447 -0.009883 297634.000000 0 0 1
-30.976647 -30.638670 21.606845 48.632669 0.779913 1.110418 0.023525 -0.006792 -573066.000000 0 0 1
-31.195647 -32.051170 20.974345 49.400091 0.798924 1.132297 0.040670 -0.015582 -82753.400000 0 0 1
-30.200847 -33.056670 21.167545 49.526756 0.830514 1.129186 0.068320 -0.030123 299097.000000 0 0 1
-29.019347 -32.830570 20.410745 48.338053 0.846941 1.134870 0.075873 -0.029591 -213292.000000 0 0 1
-28.172447 33.995981 20.348245 48.615477 -0.878799 1.138943 0.079004 -0.027612 -159146.000000 0 0 1
-28.713447 32.988481 19.488045 47.879911 -0.854573 1.151608 0.081696 -0.021955 -39036.600000 0 0 1
-29.672147 32.120681 20.060145 48.110123 -0.825002 1.140695 0.094853 -0.027007 -82489.700000 0 0 1
-29.224247 31.071281 21.087945 47.583427 -0.816022 1.111655 0.096092 -0.023947 -24241.700000 0 0 1
-28.349347 30.054881 20.614945 46.173123 -0.814592 1.107979 0.097031 -0.027869 -76299.000000 0 0 1
-28.019247 29.197581 21.697045 45.916650 -0.805989 1.078636 0.096846 -0.029700 -87421.600000 0 0 1
-26.945847 28.182481 21.256345 44.409043 -0.807826 1.071681 0.095663 -0.026480 -741767.000000 0 0 1
-25.687447 28.735381 21.049845 43.916546 -0.841344 1.070923 0.092526 -0.021769 -221902.000000 0 0 1
-24.743147 27.639881 20.867645 42.563423 -0.840641 1.058395 0.082458 -0.028273 -232962.000000 0 0 1
-23.291247 28.046981 20.965345 42.055452 -0.877770 1.048909 0.070150 -0.026500 -1002380.000000 0 0 1
-22.833147 28.210281 22.285045 42.588682 -0.890355 1.020122 0.078458 -0.030492 -899234.000000 0 0 1
-21.464747 28.198681 22.357145 41.901586 -0.920168 1.007988 0.075458 -0.029823 -1341800.000000 0 0 1
-20.920147 28.596981 23.735875 42.647763 -0.939208 0.980561 0.069948 -0.017558 -503420.000000 0 0 1
-20.940047 27.442981 24.497375 42.328763 -0.919003 0.953613 0.084483 -0.025812 421847.000000 0 0 1
-20.595447 27.563281 25.901475 43.067312 -0.929086 0.925521 0.084050 -0.020330 31031.700000 0 0 1
-19.169247 27.914481 26.395715 42.934975 -0.969043 0.908685 0.098471 -0.018998 -144898.000000 0 0 1
-18.945347 29.322881 26.243135 43.674474 -0.997172 0.926194 0.075887 -0.018807 20242.600000 0 0 1
-17.643547 29.773081 26.552225 43.620543 -1.035835 0.916364 0.097224 -0.020458 104502.000000 0 0 1
-17.197747 30.009781 28.032545 44.521602 -1.050413 0.889708 0.086622 -0.006847 -115601.000000 0 0 1
-17.247347 28.812581 28.786155 44.229838 -1.031403 0.862118 0.083269 -0.001924 113160.000000 0 0 1
-17.329847 29.042281 30.204575 45.344173 -1.032799 0.841804 0.080145 -0.002221 -79767.400000 0 0 1
-17.079547 27.797281 31.083085 45.061713 -1.019832 0.809598 0.057781 0.006229 1317690.000000 0 0 1
-15.674747 27.440481 31.260785 44.451259 -1.051802 0.790824 0.068799 0.008791 1457110.000000 0 0 1
-15.475747 26.217781 31.955645 44.136539 -1.037557 0.761187 0.066880 0.003897 -139832.000000 0 0 1
-15.910547 26.216281 33.461534 45.388470 -1.025322 0.741842 0.068897 0.008993 -767999.000000 0 0 1
-17.247547 25.911781 33.678986 45.860358 -0.983515 0.746042 0.067341 0.000603 -1071860.000000 0 0 1
-17.650047 26.632981 -33.068929 45.982540 -0.985535 2.373393 0.074817 0.005069 16873.500000 0 0 1
-18.910747 26.025081 -32.401999 45.659728 -0.942417 2.359784 0.047271 0.002796 986669.000000 0 0 1
-20.065347 26.370481 -33.204619 46.910203 -0.920354 2.357223 0.038385 0.004049 -18965.700000 0 0 1
-21.230847 25.711681 -32.839519 46.800357 -0.880563 2.348568 0.051108 -0.004270 -114061.000000 0 0 1
-22.397047 25.814081 -33.877849 48.121754 -0.856156 2.351814 0.085025 -0.021696 239952.000000 0 0 1
-22.287447 24.992981 32.898098 46.943203 -0.842559 0.794269 0.084666 -0.019300 10652.800000 0 0 1
-22.408947 23.580381 33.238611 46.508070 -0.810865 0.774623 0.070282 -0.020830 -711828.000000 0 0 1
-22.733547 22.658381 32.084966 45.383493 -0.783742 0.785585 0.078019 -0.014987 423483.000000 0 0 1
-24.088247 22.752381 31.628965 45.807269 -0.756887 0.808645 0.095358 -0.023399 311267.000000 0 0 1
-24.213347 22.085881 30.389155 44.694217 -0.739480 0.823123 0.100904 -0.018197 -72691.100000 0 0 1
-25.648347 21.849781 29.899065 45.046695 -0.705595 0.844995 0.109429 -0.024219 220996.000000 0 0 1
-26.290447 20.788281 30.637245 45.409041 -0.669054 0.830245 0.107120 -0.030205 945378.000000 0 0 1
-27.657947 20.556781 30.256595 45.858531 -0.639167 0.850269 0.124902 -0.034486 520050.000000 0 0 1
-28.314447 19.337481 30.758985 46.062580 -0.599194 0.839594 0.142720 -0.035077 -486385.000000 0 0 1
-28.897147 19.498881 32.057944 47.359933 -0.593591 0.827253 0.145994 -0.033555 149467.000000 0 0 1
-29.037247 18.311281 32.878112 47.533515 -0.562626 0.806980 0.124877 -0.027315 28030.000000 0 0 1
-29.766047 17.061781 32.260979 47.094508 -0.520478 0.816156 0.102499 -0.026166 870540.000000 0 0 1
-31.152547 17.323181 31.990108 47.895102 -0.507496 0.839386 0.084496 -0.028551 1122870.000000 0 0 1
-31.994847 16.222181 31.666515 47.849740 -0.469252 0.847591 0.086307 -0.020156 768200.000000 0 0 1
-33.504447 16.503381 31.403025 48.796102 -0.457688 0.871661 0.064041 -0.012080 588060.000000 0 0 1
-34.154447 16.637381 32.704510 50.128971 -0.453292 0.860040 0.068828 -0.018290 642121.000000 0 0 1
-35.553647 16.835181 32.586204 51.081756 -0.442236 0.878999 0.078456 -0.023548 -254151.000000 0 0 1
-36.206447 17.031681 33.914265 52.451524 -0.439692 0.867700 0.079280 -0.020957 -360435.000000 0 0 1
36.688838 17.458281 33.790492 52.845622 0.444139 0.877054 0.058004 -0.019936 273304.000000 0 0 1
36.233238 17.865181 -32.845169 52.065510 0.458081 2.253436 0.054456 -0.021731 -209533.000000 0 0 1
34.732438 18.194681 -32.770259 51.100671 0.482547 2.266972 0.041890 -0.021210 273995.000000 0 0 1
33.938838 17.043581 -32.455309 49.956736 0.465394 2.277944 0.043574 -0.012640 -323686.000000 0 0 1
32.627038 17.360681 -32.131929 48.973235 0.488993 2.286452 0.037071 -0.013606 -249690.000000 0 0 1
31.617738 16.150381 -31.985539 47.786932 0.472251 2.304112 0.038818 -0.005072 203203.000000 0 0 1
31.135638 15.700081 -33.241869 48.176160 0.467040 2.332295 0.051788 -0.015756 40674.200000 0 0 1
30.432838 14.472081 -33.171499 47.285802 0.443890 2.348312 0.051290 -0.020098 266177.000000 0 0 1
31.274438 13.179381 -33.561369 47.729991 0.398827 2.350615 0.054016 -0.011597 547748.000000 0 0 1
32.113738 12.676581 -32.526889 47.434021 0.375964 2.326401 0.052541 -0.008462 -81147.400000 0 0 1
32.958438 11.728981 -33.078989 48.146102 0.341896 2.328224 0.071219 -0.005606 -445267.000000 0 0 1
17.613838 -20.587919 10.186201 28.945956 -0.863093 1.211192 0.017842 -0.006599 -96989.100000 0 0 1
17.645638 -21.889119 10.761301 30.104944 -0.892324 1.205250 0.027194 -0.013339 -680473.000000 0 0 1
18.857538 -22.546919 10.599201 31.246013 -0.874269 1.224711 0.024519 -0.017546 -885012.000000 0 0 1
18.860238 -23.921419 11.326001 32.499556 -0.903153 1.214829 0.036494 -0.011327 215648.000000 0 0 1
18.126638 -24.970219 10.684101 32.653282 -0.942879 1.237459 0.032825 -0.014509 161837.000000 0 0 1
16.739338 -24.945619 10.949301 31.974623 -0.979777 1.221287 0.040194 -0.015889 -307006.000000 0 0 1
15.960338 -26.087149 10.301701 32.270679 -1.021739 1.245882 0.072454 -0.019512 -174817.000000 0 0 1
15.661438 -25.679099 8.964901 31.385764 -1.023136 1.281126 0.071453 -0.028811 -145839.000000 0 0 1
14.813438 -26.563259 8.310201 31.529416 -1.062086 1.304075 0.087729 -0.014456 -356355.000000 0 0 1
14.580838 -26.062579 6.838801 30.637037 -1.060723 1.345680 0.091551 -0.022745 489140.000000 0 0 1
13.746038 -24.850819 6.808301 29.203933 -1.065544 1.335502 0.089957 -0.027354 797660.000000 0 0 1
13.204938 -24.507619 5.561901 28.388880 -1.076585 1.373603 0.097102 -0.019290 38180.400000 0 0 1
12.799338 -23.025419 5.702401 26.953855 -1.063451 1.357624 0.110646 -0.017579 -232861.000000 0 0 1
12.067038 -22.530319 4.633901 25.975021 -1.079083 1.391438 0.103632 -0.019485 -307828.000000 0 0 1
11.330738 -21.381819 4.968601 24.703335 -1.083497 1.368284 0.101008 -0.019000 290602.000000 0 1 0
10.458738 -20.793119 3.838201 23.589633 -1.104759 1.407363 0.079375 -0.018125 25706.900000 0 1 0
11.248738 -20.259119 2.807301 23.341956 -1.063937 1.450236 0.065618 -0.016352 -208408.000000 0 1 0
10.440738 -19.559719 1.914301 22.254351 -1.080485 1.484671 0.050131 -0.004776 -51637.000000 0 1 0
11.190238 -19.125519 0.619501 22.167333 -1.041409 1.542846 0.038514 0.000689 486790.000000 0 1 0
12.102038 -18.054319 0.822801 21.750741 -0.980274 1.532959 0.036925 0.000893 -176098.000000 0 1 0
12.779238 -17.685619 -0.320499 21.821841 -0.945078 1.585484 0.048157 -0.007987 -954252.000000 0 1 0
13.965938 -16.785419 -0.086499 21.835869 -0.876829 1.574758 0.045369 0.002151 -131748.000000 0 1 0
15.063238 -17.448419 0.539201 23.057302 -0.858631 1.547409 0.060343 -0.004920 -338057.000000 0 1 0
16.256438 -16.758819 0.414701 23.351697 -0.800614 1.553036 0.061603 -0.009280 -656448.000000 0 1 0
17.392538 -17.307819 1.292401 24.570943 -0.782957 1.518173 0.052923 -0.005460 -309608.000000 0 1 0
17.886938 -18.527319 0.766801 25.764162 -0.802982 1.541030 0.074063 -0.016257 -497418.000000 0 0 1
19.015538 -19.001819 1.418801 26.919747 -0.785037 1.518067 0.064272 -0.006683 -335185.000000 0 0 1
19.414038 -20.440719 0.854801 28.203874 -0.811153 1.540484 0.055249 -0.014382 135793.000000 0 0 1
18.507338 -21.520919 1.051601 28.403826 -0.860543 1.533765 0.059729 -0.008574 38952.000000 0 0 1
18.698438 -22.584319 0.146901 29.320720 -0.879250 1.565786 0.071784 -0.018910 -44030.400000 0 0 1
17.612038 -23.678519 0.279401 29.511594 -0.931276 1.561329 0.073870 -0.015614 -201524.000000 0 0 1
17.671038 -24.314219 1.499501 30.094772 -0.942324 1.520950 0.064711 -0.017093 -772788.000000 0 0 1
16.677538 -25.242289 1.677001 30.300590 -0.986937 1.515423 0.070690 -0.020333 -1019150.000000 0 0 1
16.708938 -25.983439 2.999701 31.037492 -0.999315 1.473998 0.077186 -0.021439 745527.000000 0 0 1
17.814838 -26.865869 3.277801 32.401965 -0.985265 1.469462 0.059171 -0.023112 609824.000000 0 0 1
18.969338 -26.211269 3.793701 32.576963 -0.944335 1.454078 0.046824 -0.013215 -21721.800000 0 0 1
20.152038 -27.212599 3.909001 34.086807 -0.933377 1.455866 0.051863 -0.014365 -21319.400000 0 0 1
20.781738 -27.528389 2.693201 34.596909 -0.924154 1.492872 0.065527 -0.011372 64815.900000 0 0 1
21.829038 -28.490239 2.742801 35.996160 -0.917012 1.494525 0.082073 -0.009955 100165.000000 0 0 1
21.318038 -29.926589 2.883101 36.856095 -0.951833 1.492490 0.080810 -0.009356 -120841.000000 0 0 1
21.006538 -30.264099 4.240501 37.083314 -0.964036 1.456195 0.083621 -0.019204 -480012.000000 0 0 1
20.374138 -31.494679 4.329301 37.759279 -0.996598 1.455888 0.070474 -0.030027 -353235.000000 0 0 1
20.074538 -32.032739 5.747601 38.237656 -1.010984 1.419912 0.074794 -0.035872 -302482.000000 0 0 1
21.160638 -32.652659 6.352901 39.424967 -0.995791 1.408952 0.059086 -0.035867 -432838.000000 0 0 1
20.778738 -33.254469 7.561201 39.934789 -1.012312 1.380308 0.058777 -0.034897 -625953.000000 0 0 1
21.800238 33.861835 8.066401 41.072388 0.998792 1.373117 0.070724 -0.040858 -1198290.000000 0 0 1
22.889738 -33.544999 8.578001 41.506495 -0.972008 1.362630 0.060579 -0.031031 -392449.000000 0 0 1
23.925738 33.658481 9.029401 42.271318 0.952833 1.355532 0.071819 -0.035955 705234.000000 0 0 1
24.953138 -33.652109 9.941601 43.057623 -0.932756 1.337803 0.056635 -0.030023 -229008.000000 0 0 1
25.532638 -32.615779 9.245401 42.440335 -0.906612 1.351191 0.051452 -0.030746 -421457.000000 0 0 1
26.279538 -31.810129 10.083701 42.475633 -0.880320 1.331108 0.046773 -0.021832 -212395.000000 0 0 1
27.005638 -30.690769 9.314001 41.928253 -0.849183 1.346786 0.046936 -0.026053 -290350.000000 0 0 1
26.165938 -29.616789 9.035301 40.539451 -0.847182 1.346032 0.044456 -0.024889 -331113.000000 0 0 1
26.718538 -28.698099 8.171101 40.052815 -0.821104 1.365346 0.051933 -0.022581 -609378.000000 0 0 1
26.247438 -27.293119 8.384401 38.783250 -0.804926 1.352890 0.046656 -0.009395 -355529.000000 0 0 1
26.881438 -26.681869 9.451901 39.036806 -0.781672 1.326238 0.053271 -0.020383 -52195.600000 0 0 1
26.520338 -25.306649 9.544701 37.879494 -0.761984 1.316075 0.047602 -0.013268 216661.000000 0 0 1
27.503438 -24.516119 10.495501 38.309721 -0.728034 1.293284 0.043211 -0.018760 480793.000000 0 0 1
28.765838 -24.397619 9.864701 38.987556 -0.703417 1.314994 0.051629 -0.017102 -567250.000000 0 0 1
29.666538 -23.742519 10.723401 39.481666 -0.674932 1.295736 0.050061 -0.021948 44347.400000 0 0 1
31.025938 -23.546019 10.018101 40.216740 -0.649182 1.319043 0.064391 -0.028263 42320.600000 0 0 1
30.919738 -22.606519 8.997801 39.345207 -0.631318 1.340066 0.072986 -0.026096 -591469.000000 0 0 1
32.149038 -22.350519 8.397101 40.045195 -0.607508 1.359538 0.068149 -0.031496 -389073.000000 0 0 1
32.005838 -21.513819 7.115001 39.215319 -0.591813 1.388352 0.074107 -0.013878 -286445.000000 0 0 1
31.613838 -20.215919 7.420101 38.251484 -0.568933 1.375577 0.076138 -0.007936 -44238.600000 0 0 1
31.893238 -19.408419 6.252701 37.854479 -0.546678 1.404859 0.063285 -0.011805 19319.800000 0 0 1
31.601238 -17.891519 6.415201 36.876815 -0.515169 1.395944 0.080507 -0.013092 -167996.000000 0 0 1
32.439338 -17.337519 7.398301 37.518463 -0.490834 1.372305 0.083669 -0.019590 -2207.370000 0 0 1
32.196038 -15.959719 7.629501 36.735633 -0.460205 1.361587 0.087090 -0.023099 -275692.000000 0 0 1
32.734738 -15.307919 8.913701 37.220283 -0.437422 1.328961 0.084190 -0.035168 -352571.000000 0 0 1
34.085938 -14.958619 8.755701 38.239688 -0.413543 1.339778 0.081748 -0.032061 -269323.000000 0 0 1
34.572638 -14.512319 10.055301 38.819888 -0.397427 1.308784 0.082915 -0.041321 -137907.000000 0 0 1
36.097438 -14.670819 10.155001 40.266388 -0.386031 1.315848 0.078124 -0.050010 -470156.000000 0 0 1
36.808738 -13.695119 9.439901 40.392464 -0.356192 1.334910 0.095255 -0.038878 517832.000000 0 0 1
-36.192347 -14.313619 9.079001 39.964909 0.376610 1.341621 0.099396 -0.044224 942853.000000 0 0 1
-35.139547 -13.433319 8.350201 38.535278 0.365142 1.352374 0.104450 -0.040167 -164075.000000 0 0 1
-35.480847 -13.189119 6.997401 38.494246 0.355896 1.388002 0.119036 -0.041189 -221350.000000 0 0 1
-34.469547 -12.500019 6.325601 37.207706 0.347890 1.399959 0.102624 -0.028411 347502.000000 0 0 1
-33.333547 -13.433119 5.746101 36.394941 0.383082 1.412251 0.075879 -0.025291 129043.000000 0 0 1
-32.669347 -14.131119 6.787301 36.235924 0.408248 1.382375 0.093937 -0.018244 634414.000000 0 0 1
-31.598847 -14.933519 6.172501 35.490800 0.441486 1.395989 0.099661 -0.010154 1027890.000000 0 0 1
-30.957147 -15.894119 7.199301 35.535868 0.474328 1.366792 0.095400 -0.029132 -289383.000000 0 0 1
-31.916147 -16.768819 7.718101 36.870080 0.483762 1.359904 0.106539 -0.035937 -167833.000000 0 0 1
-32.037247 -16.643319 9.111901 37.234554 0.479125 1.323569 0.073783 -0.034856 512286.000000 0 0 1
-33.159247 -17.560119 9.730001 38.762951 0.487022 1.317070 0.039226 -0.032667 -358887.000000 0 0 1
-34.466347 -17.163519 9.399201 39.634082 0.462030 1.331366 0.069557 -0.035802 -49673.700000 0 0 1
-35.385047 -17.800419 10.309001 40.929598 0.466084 1.316183 0.097164 -0.038653 46720.000000 0 0 1
-35.807547 -19.255319 10.153301 41.905098 0.493385 1.326068 0.097416 -0.035209 -784178.000000 0 0 1
-34.818947 -20.284819 10.288301 41.589447 0.527512 1.320823 0.095416 -0.027800 -178792.000000 0 0 1
-34.353447 -20.514119 11.634201 41.669449 0.538320 1.287833 0.113338 -0.039909 354422.000000 0 0 1
-35.362347 -21.200819 12.700201 43.142385 0.540074 1.271991 0.140329 -0.050755 746201.000000 0 0 1
-35.761347 -22.543819 12.483701 44.078799 0.562470 1.283653 0.145626 -0.056038 8931.130000 0 0 1
-36.673447 -22.670319 11.418801 44.601279 0.553671 1.311894 0.124328 -0.038568 -517145.000000 0 0 1
36.839138 -24.010119 11.483201 45.447462 -0.577608 1.315358 0.143191 -0.038254 -62367.900000 0 0 1
35.998938 -24.243019 12.591001 45.190494 -0.592675 1.288439 0.209218 -0.040541 -91789.700000 0 0 1
35.414238 -25.501999 12.545101 45.408146 -0.624093 1.290881 0.149106 -0.035899 -43391.100000 0 0 1
34.301638 -25.600019 13.643701 44.923422 -0.641142 1.262212 0.156321 -0.038346 -73034.800000 0 0 1
33.202038 -24.810119 13.289601 43.526208 -0.641737 1.260518 0.133533 -0.035129 -504798.000000 0 0 1
32.324338 -24.536819 14.351201 43.045037 -0.649288 1.230889 0.094901 -0.014891 -885405.000000 0 0 1
32.140138 -23.023719 14.745201 42.195983 -0.621618 1.213817 0.130384 -0.023144 379411.000000 0 0 1
33.276038 -22.443719 15.398801 42.989979 -0.593386 1.204462 0.141275 -0.027226 831705.000000 0 0 1
34.335938 -22.072719 14.492101 43.314922 -0.571330 1.229642 0.127364 -0.035168 1227180.000000 0 0 1
35.735738 -21.806419 15.177901 44.530119 -0.547895 1.222980 0.117095 -0.031386 763490.000000 0 0 1
36.004838 -20.610919 15.948301 44.446671 -0.519915 1.203794 0.126459 -0.027136 305153.000000 0 0 1
35.187438 -20.444419 17.115601 44.148316 -0.526343 1.172678 0.113441 -0.027304 226774.000000 0 0 1
35.430038 -19.101419 17.833901 44.024990 -0.494460 1.153724 0.099351 -0.024452 -263034.000000 0 0 1
35.159038 -18.043619 16.969501 43.008070 -0.474152 1.165201 0.102105 -0.037205 191372.000000 0 0 1
35.246538 -16.686719 17.404101 42.704423 -0.442165 1.151029 0.096076 -0.037680 658672.000000 0 0 1
36.662738 -16.217919 17.919301 43.912169 -0.416478 1.150456 0.077854 -0.032679 551534.000000 0 0 1
36.843938 -16.430719 19.327901 44.732673 -0.419485 1.124003 0.071888 -0.014259 409898.000000 0 0 1
-36.499947 -15.450719 19.850601 44.328514 0.400437 1.106486 0.046651 -0.010843 -2995.370000 0 0 1
-36.168747 -15.610519 21.337501 44.801289 0.407450 1.074389 0.033706 -0.005731 -531333.000000 0 0 1
-35.297247 -16.649519 21.674201 44.641607 0.440748 1.063843 0.028885 -0.005779 -68253.100000 0 0 1
-35.004747 -16.622419 23.070801 45.098769 0.443336 1.033795 0.016798 -0.005169 -450406.000000 0 0 1
-33.936947 -17.610419 23.464101 44.859862 0.478665 1.020367 0.017664 -0.002585 -1210120.000000 0 0 1
-34.431347 -18.922019 23.452701 45.755761 0.502504 1.032630 0.031874 -0.004848 219891.000000 0 0 1
-33.547447 -19.923219 23.947201 45.780283 0.535909 1.020324 0.018650 -0.005267 -64425.800000 0 0 1
-32.549747 -20.466519 22.874501 44.739325 0.561310 1.034118 0.009378 0.003544 618664.000000 0 0 1
-31.360047 -19.682019 22.815701 43.490121 0.560477 1.018530 0.010124 0.006986 970081.000000 0 0 1
-30.201747 -20.390919 22.322701 42.734507 0.593857 1.021183 0.013844 0.005270 1286380.000000 0 0 1
-28.906647 -19.518819 22.385301 41.444906 0.593912 1.000214 0.025099 0.004389 236688.000000 0 0 1
-28.525947 -19.096119 23.671601 41.698154 0.589913 0.967100 0.019757 0.003157 124054.000000 0 0 1
-27.539247 -18.093019 23.554101 40.503865 0.581274 0.950192 0.045764 -0.002896 -200940.000000 0 0 1
-27.157547 -17.566619 24.948401 40.847780 0.574151 0.913770 0.045931 -0.015345 -861156.000000 0 0 1
-26.209247 -16.532619 25.002301 39.816669 0.562754 0.891899 0.060342 -0.020800 82943.000000 0 0 1
-25.863047 -16.156919 26.343201 40.297735 0.558391 0.858314 0.052406 -0.025941 27894.800000 0 0 1
-24.801047 -17.044619 27.012101 40.438404 0.602120 0.839303 0.060148 -0.016741 -386858.000000 0 0 1
-25.266047 -18.330819 27.409301 41.541086 0.627644 0.850228 0.058357 -0.017049 823575.000000 0 0 1
-24.167547 -19.071719 28.035701 41.638940 0.668087 0.832127 0.078909 -0.022218 1106640.000000 0 0 1
-24.624447 -20.356719 28.729101 42.966506 0.690803 0.838419 0.079033 -0.016799 -196659.000000 0 0 1
-25.590447 -20.223019 29.743201 44.141811 0.668772 0.831443 0.076112 -0.022300 15472.800000 0 0 1
-25.875547 -21.435719 30.407701 45.317350 0.691829 0.835247 0.080534 -0.021677 -506353.000000 0 0 1
-27.122647 -21.321119 31.297401 46.580633 0.666208 0.834029 0.090915 -0.024812 -714718.000000 0 0 1
-26.982347 -20.612919 32.551501 47.037641 0.652364 0.806498 0.106966 -0.032025 -102465.000000 0 0 1
-28.105547 -20.518619 33.383401 48.222266 0.630614 0.806150 0.113093 -0.040288 803006.000000 0 0 1
-29.308547 -19.585719 32.890101 48.211513 0.589105 0.820023 0.091140 -0.038214 228622.000000 0 0 1
-30.149147 -20.045519 31.899301 48.253075 0.586764 0.848535 0.079841 -0.037006 -853682.000000 0 0 1
-31.388447 -19.468919 32.152401 48.969891 0.555182 0.854528 0.068097 -0.038627 -1119920.000000 0 0 1
-32.490647 -20.016219 31.264001 49.332838 0.552145 0.884423 0.055619 -0.012937 -640433.000000 0 0 1
-32.445347 -19.552119 29.916801 48.270082 0.542342 0.902335 0.045401 -0.028352 -351891.000000 0 0 1
-33.562347 -20.008419 29.229501 48.796841 0.537589 0.928540 0.042865 -0.025100 -268337.000000 0 0 1
-34.048847 -19.116719 28.000501 48.049984 0.511591 0.948704 0.040031 -0.019924 -409966.000000 0 0 1
-35.256347 -19.546019 27.464101 48.778414 0.506213 0.972739 0.028179 -0.021302 -323339.000000 0 0 1
-35.767547 -18.671719 26.491201 48.267320 0.481116 0.989816 0.048901 -0.014631 -307955.000000 0 0 1
-36.954547 -19.245419 25.686301 48.947020 0.480138 1.018342 0.043156 -0.014810 -626927.000000 0 0 1
36.223538 -19.510119 26.535401 48.958318 -0.494051 0.997981 0.051839 -0.017089 -324607.000000 0 0 1
35.173838 -20.039419 25.708901 47.955445 -0.517861 1.004986 0.100484 -0.022550 339795.000000 0 0 1
33.835538 -20.202819 26.463401 47.469033 -0.538276 0.979440 0.089651 -0.028525 202762.000000 0 0 1
33.151938 -19.023319 26.931701 46.757396 -0.520949 0.956984 0.083975 -0.028030 1145090.000000 0 0 1
31.912338 -19.377219 27.568901 46.410324 -0.545698 0.934743 0.077190 -0.021468 479841.000000 0 0 1
-30.146632 -5.858619 33.942545 45.773783 0.191945 0.735451 0.047412 -0.022050 148298.000000 0 0 1
-31.105542 -5.594119 32.930622 45.642905 0.177941 0.764853 0.053636 -0.013061 198468.000000 0 0 1
-30.716802 -4.527919 32.131578 44.681789 0.146355 0.768261 0.059173 -0.011660 186130.000000 0 0 1
-31.475772 -4.402219 30.760055 44.229908 0.138959 0.801739 0.053444 -0.015068 283386.000000 0 0 1
-31.372992 -5.526019 29.978335 43.743595 0.174351 0.815754 0.056130 -0.018578 -317079.000000 0 0 1
-30.138872 -5.654019 29.315715 42.423233 0.185443 0.807884 0.063292 -0.024393 -162274.000000 0 0 1
-30.108562 -6.722819 28.239135 41.823087 0.219682 0.829554 0.066879 -0.022239 148232.000000 0 0 1
-30.695092 -6.423419 26.948185 41.347959 0.206288 0.860918 0.049320 -0.027933 132024.000000 0 0 1
-30.166182 -7.238019 25.894075 40.409041 0.235487 0.875258 0.063676 -0.028959 384518.000000 0 0 1
-30.819842 -6.787519 24.546435 39.980752 0.216772 0.909733 0.052292 -0.018706 82463.000000 0 0 1
-30.227042 -5.654119 24.000715 39.008685 0.184918 0.908073 0.085336 -0.022165 -345118.000000 0 0 1
-30.873962 -5.190719 22.866125 38.768606 0.166568 0.939972 0.091216 -0.022520 -254735.000000 0 0 1
-30.236882 -3.877919 22.412245 37.836702 0.127555 0.936834 0.103446 -0.025042 214406.000000 0 0 1
-28.981292 -4.090619 21.798945 36.494417 0.140221 0.930638 0.098149 -0.018570 -104410.000000 0 0 1
-28.337402 -2.861119 21.530145 35.703522 0.100625 0.923508 0.107002 -0.019436 -1195220.000000 0 0 1
-26.998202 -2.991019 20.916145 34.283148 0.110336 0.914610 0.102463 -0.016513 -1297820.000000 0 0 1
-27.016222 -3.569919 19.592845 33.563375 0.131379 0.947448 0.103929 -0.018287 181859.000000 0 0 1
-25.715452 -3.546419 19.004245 32.171772 0.137046 0.938856 0.091615 -0.019622 301033.000000 0 0 1
-25.569252 -4.021919 17.533445 31.263144 0.156017 0.975403 0.099033 -0.026375 -304230.000000 0 0 1
-26.219072 -3.225719 16.593345 31.195899 0.122414 1.009944 0.104439 -0.023972 438251.000000 0 0 1
-25.788392 -3.622819 15.259345 30.183002 0.139569 1.040764 0.116321 -0.033816 -263157.000000 0 0 1
-27.030202 -3.880819 14.416345 30.879177 0.142599 1.085056 0.115804 -0.031258 -214457.000000 0 0 1
-27.727702 -2.700019 14.065145 31.208074 0.097070 1.103259 0.117936 -0.030927 -358786.000000 0 0 1
-28.947602 -2.938819 13.441145 32.050971 0.101175 1.138048 0.113743 -0.030792 -314317.000000 0 0 1
-29.551642 -1.776319 12.631545 32.187122 0.060037 1.167512 0.117434 -0.018968 -191154.000000 0 0 1
-28.771542 -1.537319 11.488245 31.018459 0.053381 1.191391 0.136102 -0.020989 -72841.000000 0 0 1
-29.124062 -0.464219 10.687645 31.026638 0.015938 1.219126 0.148811 -0.021348 32723.200000 0 0 1
-30.485442 -0.554719 9.942945 32.070735 0.018194 1.255570 0.146315 -0.021422 298970.000000 0 0 1
-30.464502 -1.409019 8.825645 31.748437 0.046218 1.289099 0.157977 -0.026842 1244680.000000 0 0 1
-31.803932 -1.547319 8.244345 32.891542 0.048613 1.317442 0.152753 -0.025917 1252480.000000 0 0 1
-31.928872 -2.436719 6.953445 32.767986 0.076169 1.356968 0.153242 -0.026436 -111154.000000 0 0 1
-31.662622 -1.779419 5.722145 32.224694 0.056140 1.392279 0.171200 -0.037845 902866.000000 0 0 1
-32.708842 -0.879119 5.318445 33.150069 0.026871 1.409665 0.174357 -0.036818 307928.000000 0 0 1
-32.391502 -0.319619 3.935345 32.631251 0.009867 1.449902 0.202590 -0.039480 -93857.900000 0 0 1
-32.598082 -1.234019 2.896545 32.749775 0.037837 1.482236 0.188917 -0.053573 293512.000000 0 0 1
-32.125392 -0.728319 1.655645 32.176271 0.022667 1.519318 0.188117 -0.051798 -346280.000000 0 0 1
-32.781412 -1.371819 0.428145 32.812897 0.041823 1.557748 0.177167 -0.048741 461284.000000 0 0 1
-34.147327 -0.928719 0.373745 34.161999 0.027191 1.559856 0.181403 -0.048594 658109.000000 0 0 1
-34.768053 -1.514019 -0.759855 34.809297 0.043519 1.592627 0.177331 -0.051007 32636.600000 0 0 1
-36.296222 -1.285419 -0.813855 36.328094 0.035400 1.593201 0.146518 -0.040898 118611.000000 0 0 1
-37.035092 -2.073219 0.100045 37.093211 0.055921 1.568099 0.149533 -0.041760 -98525.700000 0 0 1
35.829862 -1.835719 0.093245 35.876979 -0.051190 1.568197 0.127675 -0.034528 -33535.500000 0 0 1
35.049462 -3.044419 0.770545 35.189871 -0.086643 1.548898 0.131550 -0.041710 -157310.000000 0 0 1
35.144142 -3.217719 2.182045 35.358532 -0.091303 1.509045 0.125477 -0.036137 177384.000000 0 0 1
34.404032 -4.319319 2.695545 34.778728 -0.124893 1.493213 0.122667 -0.025643 223179.000000 0 0 1
34.586092 -4.462019 4.210845 35.126039 -0.128303 1.450629 0.115628 -0.012893 259424.000000 0 0 1
33.868812 -3.464219 4.913345 34.398230 -0.101929 1.427469 0.117845 -0.015435 69304.400000 0 0 1
34.201402 -3.467019 6.263945 34.942712 -0.101026 1.390559 0.116609 -0.022901 -318299.000000 0 0 1
33.397552 -2.476719 7.087245 34.230976 -0.074023 1.362246 0.124331 -0.018205 -149980.000000 0 0 1
32.005692 -2.704919 7.082545 32.891388 -0.084313 1.353765 0.124443 -0.015307 393197.000000 0 0 1
31.307472 -1.646919 7.810945 32.309148 -0.052556 1.326621 0.140902 -0.013136 874852.000000 0 0 1
29.775802 -1.750319 8.042445 30.892442 -0.058716 1.307425 0.119526 -0.017206 -153045.000000 0 0 1
28.958522 -1.604319 6.909345 29.814575 -0.055344 1.336926 0.125640 -0.012435 810491.000000 0 0 1
27.566322 -1.801119 7.204345 28.549059 -0.065245 1.315689 0.134502 -0.009075 805907.000000 0 0 1
27.086822 -3.276119 7.257845 28.233052 -0.120364 1.310808 0.160797 -0.017449 -772281.000000 0 0 1
27.568422 -3.962619 8.408845 29.093452 -0.142760 1.277584 0.141735 -0.016922 411027.000000 0 0 1
27.148022 -5.298319 8.304845 28.880058 -0.192741 1.279115 0.164249 -0.013525 -177433.000000 0 0 1
27.242522 -6.175219 9.631545 29.547504 -0.222909 1.238761 0.152833 -0.027485 312056.000000 0 0 1
26.189822 -5.949519 10.605145 28.875122 -0.223378 1.194717 0.155574 -0.011297 797080.000000 0 0 1
26.268222 -6.654519 11.858445 29.579129 -0.248110 1.158291 0.140088 -0.006980 -817893.000000 0 0 1
24.932722 -6.630619 12.567445 28.697499 -0.259924 1.117503 0.113452 -0.009709 358248.000000 0 0 1
23.911422 -7.362619 11.837445 27.678320 -0.298700 1.128872 0.131499 -0.017506 141262.000000 0 0 1
22.612022 -7.212919 12.325445 26.744090 -0.308783 1.091825 0.121670 -0.021794 -98543.700000 0 0 1
21.860622 -8.554419 12.540045 26.614237 -0.372998 1.080170 0.112509 -0.012350 -181928.000000 0 0 1
22.508422 -9.478919 13.356945 27.836792 -0.398586 1.070335 0.104715 -0.025787 232593.000000 0 0 1
21.756622 -10.705919 13.469245 27.737842 -0.457289 1.063757 0.120263 -0.036701 250261.000000 0 0 1
22.344622 -11.572819 14.625945 29.105507 -0.477884 1.044291 0.091068 -0.036361 -268517.000000 0 0 1
22.172022 -11.006219 15.876045 29.407214 -0.460764 1.000515 0.093586 -0.034620 213627.000000 0 0 1
22.517922 -11.982619 16.885045 30.589945 -0.489025 0.986059 0.084964 -0.040733 -203722.000000 0 0 1
22.261522 -11.531619 18.294145 31.035937 -0.477949 0.940418 0.093394 -0.037399 1131820.000000 0 0 1
20.840722 -11.401519 18.560245 30.146526 -0.500598 0.907563 0.097075 -0.039027 1142900.000000 0 0 1
20.464322 -11.593019 19.932045 30.829742 -0.515422 0.867782 0.098401 -0.035999 211277.000000 0 0 1
20.788322 -10.463319 20.948645 31.312635 -0.466305 0.837913 0.097556 -0.033045 -75028.000000 0 0 1
19.921922 -9.307519 20.899045 30.336166 -0.437065 0.810805 0.081952 -0.027487 195784.000000 0 0 1
20.299222 -8.239019 20.068145 29.709768 -0.385564 0.829190 0.096662 -0.029849 -450930.000000 0 0 1
21.444622 -7.303519 20.675745 30.670827 -0.328255 0.831027 0.095226 -0.016794 1928340.000000 0 0 1
22.750522 -7.910519 20.823345 31.839822 -0.334631 0.857932 0.114452 -0.028221 872633.000000 0 0 1
23.405322 -8.172319 19.610645 31.609703 -0.335931 0.901544 0.117964 -0.030698 -1416150.000000 0 0 1
24.837022 -8.668619 19.816045 32.934758 -0.335802 0.925199 0.137839 -0.041389 -342991.000000 0 0 1
24.887822 -9.988419 20.247445 33.602548 -0.381659 0.924095 0.103541 -0.039544 14620.800000 0 0 1
26.062822 -10.654119 19.805245 34.424246 -0.388058 0.957791 0.100787 -0.037951 279356.000000 0 0 1
26.110522 -12.188919 20.090845 35.127926 -0.436753 0.961935 0.074750 -0.033160 -292107.000000 0 0 1
25.234022 -12.923219 19.273545 34.281701 -0.473308 0.973740 0.094438 -0.036175 47005.500000 0 0 1
25.202422 -14.310019 19.608945 34.992134 -0.516409 0.975950 0.071995 -0.021765 85148.300000 0 0 1
24.219422 -15.081419 18.686645 34.106016 -0.556943 0.990946 0.074945 -0.018301 -211032.000000 0 0 1
24.626322 -15.060419 17.346345 33.677406 -0.548875 1.029703 0.073560 -0.029069 370658.000000 0 0 1
23.711622 -15.603419 16.384345 32.774296 -0.582013 1.047296 0.064584 -0.029340 93940.100000 0 0 1
23.389522 -17.130019 16.565445 33.390437 -0.632129 1.051680 0.049420 -0.025265 940372.000000 0 0 1
24.621222 -17.871619 16.378045 34.551986 -0.627873 1.076955 0.062687 -0.023102 1019730.000000 0 0 1
24.366022 -19.251119 16.560545 35.193185 -0.668663 1.080870 0.053082 -0.011315 100758.000000 0 0 1
25.571822 -20.144819 16.199645 36.361523 -0.667242 1.109046 0.062526 -0.006704 47626.800000 0 0 1
25.816122 -20.264419 14.815045 36.008394 -0.665498 1.146770 0.061205 -0.018693 556867.000000 0 0 1
26.819122 -21.290419 14.585045 37.219226 -0.670981 1.168135 0.057398 -0.027038 589339.000000 0 0 1
27.106722 -21.310719 13.051645 36.868233 -0.666256 1.208943 0.047064 -0.035327 -622252.000000 0 0 1
25.970522 -21.655419 12.343245 35.996957 -0.695041 1.220797 0.068898 -0.025958 -408583.000000 0 0 1
26.136722 -21.232819 11.002645 35.426248 -0.682241 1.254994 0.087916 -0.019074 -33309.900000 0 0 1
24.912522 -21.424119 10.091145 34.372341 -0.710256 1.272823 0.052007 -0.017124 -101248.000000 0 0 1
24.499322 -22.741119 9.894345 34.860771 -0.748197 1.283016 0.038479 -0.014064 998830.000000 0 0 1
23.132622 -22.731219 9.419545 33.772094 -0.776646 1.288132 0.033587 -0.010718 1058850.000000 0 0 1
22.759322 -23.841119 8.426145 34.020371 -0.808608 1.320512 0.027599 -0.009987 -302192.000000 0 0 1
22.804422 -25.138709 8.993845 35.112471 -0.834048 1.311765 0.021043 -0.008779 52007.700000 0 0 1
22.461722 -26.141899 8.065545 35.397470 -0.860972 1.340921 0.025582 -0.008939 -469734.000000 0 0 1
21.014422 -26.506759 7.752845 34.703326 -0.900464 1.345491 0.028458 -0.009474 -341490.000000 0 0 1
20.238722 -25.459919 7.179745 33.307088 -0.899158 1.353529 0.033933 -0.009548 -244176.000000 0 0 1
18.890022 -25.605729 7.558145 32.704921 -0.935197 1.337587 0.044304 -0.021770 52194.700000 0 0 1
18.035322 -24.330519 7.317945 31.157653 -0.932910 1.333713 0.050856 -0.021290 -100866.000000 0 0 1
17.771522 -23.932019 6.002145 30.407142 -0.932059 1.372099 0.062749 -0.027189 35021.300000 0 0 1
16.907922 -22.824319 6.100945 29.052520 -0.933219 1.359224 0.063176 -0.012933 -38411.400000 0 0 1
16.571122 -22.144719 4.747645 28.062979 -0.928377 1.400801 0.078381 -0.011930 -72715.700000 0 0 1
15.715522 -21.036319 4.900145 26.711716 -0.929176 1.386306 0.096904 -0.003574 -60799.400000 0 0 1
15.434622 -20.470119 3.657645 25.896558 -0.924735 1.429082 0.097354 -0.003264 119792.000000 0 0 1
14.507422 -19.230519 3.694245 24.370589 -0.924488 1.418624 0.076564 0.002747 210281.000000 0 1 0
15.163722 -18.052219 4.157345 23.939603 -0.872141 1.396252 0.050024 0.004842 358178.000000 0 1 0
14.399522 -16.880619 3.894045 22.526987 -0.864551 1.397062 0.022478 0.006104 231994.000000 0 1 0
15.171122 -15.628419 4.368145 22.214660 -0.800245 1.372873 0.011219 0.003213 -789883.000000 0 1 0
15.390922 -15.462019 5.751845 22.561876 -0.787703 1.313014 0.012575 -0.008472 187011.000000 0 1 0
16.481022 -14.598819 6.001445 22.820319 -0.724912 1.304680 0.030127 -0.008248 -782964.000000 0 1 0
17.845722 -15.226119 5.833045 24.172896 -0.706354 1.327086 0.031630 -0.022428 -1611630.000000 0 1 0
18.823922 -14.245419 5.576945 24.256429 -0.647821 1.338805 0.079155 -0.022778 169321.000000 0 1 0
20.074122 -14.839419 5.245645 25.508734 -0.636573 1.363678 0.118370 -0.027418 513088.000000 0 0 1
21.227922 -13.830919 5.017045 25.828081 -0.577460 1.375306 0.131031 -0.030294 144689.000000 0 0 1
21.614522 -13.150619 6.173045 26.042904 -0.546585 1.331485 0.147394 -0.030372 -114417.000000 0 0 1
22.690822 -12.280819 5.956245 26.479592 -0.496080 1.343918 0.163100 -0.033423 -231554.000000 0 0 1
23.073222 -11.379319 7.185345 26.711265 -0.458179 1.298441 0.171790 -0.035571 8745.350000 0 0 1
23.754722 -12.064619 8.241645 27.888467 -0.469934 1.270795 0.173570 -0.024661 454965.000000 0 0 1
23.867522 -11.368219 9.478245 28.084376 -0.444513 1.226545 0.177654 -0.041817 -223424.000000 0 0 1
24.326422 -12.338519 10.571745 29.253644 -0.469396 1.201047 0.146942 -0.039308 -600319.000000 0 0 1
23.467922 -13.385119 10.953645 29.152824 -0.518339 1.185610 0.156369 -0.040552 -326305.000000 0 0 1
23.772822 -14.172319 12.077445 30.197125 -0.537588 1.159330 0.142012 -0.046632 -1083890.000000 0 0 1
22.687022 -15.106119 12.514745 29.991910 -0.587436 1.140356 0.119630 -0.050136 -122887.000000 0 0 1
21.583622 -14.355519 13.035745 29.014898 -0.586925 1.104840 0.099581 -0.043169 1318720.000000 0 0 1
20.386822 -15.145119 13.348045 28.690895 -0.638934 1.086895 0.069905 -0.036446 1455940.000000 0 0 1
19.272322 -14.190119 13.831545 27.642242 -0.634672 1.046762 0.075991 -0.038164 -921674.000000 0 0 1
19.644422 -13.657919 15.083445 28.283430 -0.607536 1.008304 0.076818 -0.039426 -107111.000000 0 0 1
18.995322 -12.553319 15.647845 27.627217 -0.583974 0.968675 0.099382 -0.055228 814326.000000 0 0 1
17.402822 -12.573219 15.695745 26.595121 -0.625655 0.939522 0.109875 -0.056960 777533.000000 0 0 1
16.888522 -12.349219 14.381345 25.387959 -0.631373 0.968589 0.117220 -0.069811 1188610.000000 0 0 1
15.432722 -12.323919 14.424145 24.456162 -0.673861 0.939990 0.140703 -0.059938 1295610.000000 0 1 0
14.937522 -10.889419 14.392745 23.427764 -0.629924 0.909240 0.109225 -0.055433 -585773.000000 0 1 0
15.418222 -10.126719 15.428745 24.048247 -0.581142 0.874247 0.093206 -0.045410 -164238.000000 0 1 0
15.054622 -8.794419 15.251645 23.164545 -0.528696 0.852099 0.092621 -0.043038 -411237.000000 0 1 0
15.728022 -7.775419 16.271645 23.928942 -0.459131 0.823036 0.099879 -0.032815 237178.000000 0 1 0
17.136022 -7.727019 16.162545 24.790683 -0.423621 0.860629 0.094794 -0.047626 17647.800000 0 1 0
17.840422 -8.691019 16.909345 26.071832 -0.453317 0.865095 0.099920 -0.042576 -418313.000000 0 0 1
19.328622 -8.665019 16.497145 26.848352 -0.421439 0.909099 0.079663 -0.032664 -78235.600000 0 0 1
20.004022 -7.528019 16.990445 27.303978 -0.359932 0.899157 0.079366 -0.042582 1775160.000000 0 0 1
21.350422 -7.390219 16.397545 27.916579 -0.333231 0.942983 0.081086 -0.024586 1638890.000000 0 0 1
21.848122 -5.964319 16.727245 28.155182 -0.266497 0.934639 0.066379 -0.019666 -220113.000000 0 0 1
22.262022 -5.820819 18.047245 29.243506 -0.255743 0.905698 0.092153 -0.020297 73892.900000 0 0 1
22.663922 -4.508819 18.282545 29.465815 -0.196379 0.901459 0.096226 -0.023793 -45639.000000 0 0 1
-5.664062 -33.070370 -6.295899 34.137506 1.401169 1.756286 0.044360 -0.008086 -41156.000000 0 0 1
-6.412162 -31.875570 -6.520499 33.161494 1.372283 1.768715 0.037938 -0.010120 130557.000000 0 0 1
-5.859562 -30.786770 -5.814099 31.874181 1.382719 1.754231 0.045578 -0.017805 -103541.000000 0 0 1
-6.799762 -29.517970 -6.047399 30.888806 1.344386 1.767849 0.046368 -0.019826 264384.000000 0 0 1
-8.044962 -29.617170 -5.440499 31.168850 1.305564 1.746244 0.042100 -0.015272 -233231.000000 0 0 1
-9.005162 -30.331770 -6.242099 32.250163 1.282196 1.765578 0.039846 -0.013954 -68282.900000 0 0 1
-10.463362 -29.985970 -5.822499 32.288416 1.235064 1.752116 0.077857 -0.011950 448125.000000 0 0 1
-11.437162 -30.773470 -6.466399 33.460864 1.214960 1.765273 0.070150 -0.019085 -128390.000000 0 0 1
-12.766362 -30.438670 -6.108199 33.567882 1.173668 1.753781 0.082935 -0.016787 469595.000000 0 0 1
-13.801462 -31.042270 -7.095499 34.705172 1.152440 1.776699 0.092618 -0.019650 16436.100000 0 0 1
-13.911762 -30.305870 -8.308199 34.365812 1.140446 1.814973 0.116615 -0.029170 -51844.600000 0 0 1
-14.847362 -30.860370 -9.203699 35.461453 1.122371 1.833343 0.109433 -0.027573 80317.800000 0 0 1
-15.006262 -29.910370 -10.466899 35.062432 1.105784 1.873940 0.138987 -0.024826 -263665.000000 0 0 1
-15.560862 -28.613970 -10.339699 34.173222 1.072710 1.878181 0.149295 -0.027169 123890.000000 0 0 1
-14.790762 -27.701670 -9.585299 32.833323 1.080374 1.867049 0.131124 -0.025404 118438.000000 0 0 1
-15.511962 -26.306770 -9.422799 31.960229 1.038017 1.870073 0.139353 -0.005561 210640.000000 0 0 1
-15.433762 -25.496070 -10.596299 31.631189 1.026460 1.912397 0.145770 -0.010249 175972.000000 0 0 1
-15.973862 -24.230770 -10.270399 30.785964 0.987954 1.910923 0.126800 0.000021 -151753.000000 0 0 1
-16.523662 -23.542170 -11.524999 30.985332 0.958813 1.951905 0.146713 -0.007004 -501221.000000 0 0 1
-17.744962 -24.084870 -11.939499 32.210500 0.935818 1.950528 0.151903 -0.021522 -475758.000000 0 0 1
-18.201462 -23.599870 -13.182599 32.588771 0.913832 1.987243 0.165767 -0.021252 1475840.000000 0 0 1
-19.783062 -23.855770 -13.309599 33.728515 0.878456 1.976439 0.134465 -0.004194 1766720.000000 0 0 1
-20.157962 -25.214970 -13.577199 35.021115 0.896394 1.968916 0.165197 -0.007874 28776.800000 0 0 1
-20.156362 -25.933070 -12.386499 35.103111 0.910085 1.931423 0.177185 -0.009333 -1349630.000000 0 0 1
-20.124462 -27.492170 -12.555799 36.310625 0.938910 1.923875 0.172239 -0.018127 244280.000000 0 0 1
-19.092462 -28.151770 -13.269399 36.511932 0.974853 1.942739 0.175337 -0.033514 243913.000000 0 0 1
-17.758862 -27.761970 -12.969699 35.416342 1.001708 1.945726 0.180512 -0.040163 -498957.000000 0 0 1
-16.775562 -28.777170 -13.545399 35.958627 1.043010 1.957021 0.158327 -0.040269 -481460.000000 0 0 1
-16.802762 -29.089270 -14.934499 36.763538 1.046990 1.989122 0.165013 -0.053664 -436598.000000 0 0 1
-16.029662 -30.189870 -15.320099 37.457760 1.082687 1.992151 0.169460 -0.056688 -242109.000000 0 0 1
-16.562362 -31.641570 -15.129899 38.786784 1.088576 1.971513 0.161081 -0.052515 -459876.000000 0 0 1
-16.544562 -31.947970 -13.773999 38.524257 1.092963 1.936430 0.154637 -0.046494 107802.000000 0 0 1
-17.122362 -33.243370 -13.617299 39.796077 1.095173 1.920029 0.150652 -0.045317 -841775.000000 0 0 1
-17.535662 -33.565370 -12.167099 39.776523 1.089364 1.881666 0.164498 -0.041668 1293400.000000 0 0 1
-18.836062 -33.139370 -11.646699 39.858006 1.053944 1.867328 0.189282 -0.037555 1662460.000000 0 0 1
-19.303362 -31.773470 -11.800599 39.005478 1.024858 1.878150 0.191216 -0.038312 -99370.700000 0 0 1
-18.693462 -30.773270 -10.793299 37.589027 1.024911 1.862036 0.190954 -0.030873 -202791.000000 0 0 1
-19.298362 -30.910770 -9.527999 37.665438 1.012683 1.826539 0.190459 -0.031953 220436.000000 0 0 1
-18.795462 -29.937770 -8.644699 36.390525 1.010173 1.810643 0.175156 -0.019751 158491.000000 0 0 1
-19.136662 -30.153170 -7.123999 36.416711 1.005289 1.767690 0.184208 -0.019747 -189997.000000 0 0 1
-18.352862 -31.170570 -6.615999 36.772319 1.038662 1.751699 0.173360 -0.027720 -243377.000000 0 0 1
-18.668562 -31.531570 -5.256799 37.018766 1.036236 1.713282 0.154780 -0.030870 -284047.000000 0 0 1
-17.730862 -32.592170 -4.569299 37.383305 1.072554 1.693331 0.149323 -0.023954 830366.000000 0 0 1
-16.381062 -32.240370 -4.287199 36.416490 1.100696 1.688797 0.133018 -0.022950 559715.000000 0 0 1
-16.320262 -31.308870 -3.224599 35.454116 1.090281 1.661874 0.107227 -0.023587 -435721.000000 0 0 1
-14.889862 -30.740970 -3.046299 34.292786 1.119734 1.659746 0.099550 -0.031189 -71438.500000 0 0 1
-13.904662 -31.717370 -2.812499 34.745378 1.157637 1.651831 0.071028 -0.017960 -23180.500000 0 0 1
-12.697862 -30.986270 -2.518499 33.581654 1.181879 1.645863 0.058430 -0.010663 506034.000000 0 0 1
-11.448362 -31.871070 -2.427899 33.951801 1.225942 1.642368 0.052628 -0.013598 -329395.000000 0 0 1
-11.509162 -32.601070 -1.199599 34.593780 1.231425 1.605480 0.051247 -0.005895 316771.000000 0 0 1
-10.323962 -33.344970 -0.880499 34.917710 1.270546 1.596015 0.073721 -0.011439 827199.000000 0 0 1
-9.275862 -32.497170 -0.058399 33.795134 1.292754 1.572524 0.085630 -0.020949 -103141.000000 0 0 1
-9.666962 -32.103470 1.258801 33.550969 1.278313 1.533268 0.104330 -0.017240 -296757.000000 0 0 1
-8.568962 -31.612370 1.982401 32.813091 1.306093 1.510345 0.102089 -0.023189 -357657.000000 0 0 1
-7.685062 -32.664970 2.552101 33.653731 1.339729 1.494889 0.115181 -0.039301 -645059.000000 0 0 1
-8.368262 -33.418570 3.558801 34.633707 1.325434 1.467859 0.121424 -0.050537 648585.000000 0 0 1
-7.601362 33.502381 3.933201 34.578322 -1.347683 1.456802 0.137798 -0.043220 949114.000000 0 0 1
-6.444062 33.602381 4.988401 34.576439 -1.381323 1.426019 0.143189 -0.042865 893464.000000 0 0 1
-5.334462 -33.719670 4.538301 34.439349 1.413896 1.438635 0.144929 -0.044768 601036.000000 0 0 1
-4.356162 -33.414570 5.568001 34.154242 1.441160 1.407040 0.123102 -0.046472 638233.000000 0 0 1
-3.185862 -32.522770 5.084501 33.071625 1.473150 1.416442 0.141670 -0.044561 -120144.000000 0 0 1
-3.470062 -31.303270 4.439701 31.806398 1.460394 1.430754 0.132353 -0.037228 -9785.340000 0 0 1
-3.705362 -31.503570 3.009201 31.863143 1.453717 1.476214 0.142376 -0.035128 11755.100000 0 0 1
-3.959562 -30.246070 2.220001 30.584821 1.440625 1.498147 0.108289 -0.026572 -475392.000000 0 0 1
-2.808962 -29.474670 2.230901 29.692143 1.475782 1.495591 0.093853 -0.031247 -650090.000000 0 0 1
-2.875362 -28.271070 1.455801 28.454181 1.469438 1.519611 0.080789 -0.023935 35980.200000 0 0 1
-2.909262 -26.976570 2.297301 27.230070 1.463367 1.486330 0.088355 -0.018979 -15953.800000 0 0 1
-3.084462 -25.872670 1.465001 26.097034 1.452139 1.514630 0.086773 -0.021235 -208134.000000 0 0 1
-3.205162 -24.576470 2.087601 24.872354 1.441112 1.486765 0.078709 -0.017494 219521.000000 0 1 0
-4.417962 -24.213470 2.996201 24.794913 1.390323 1.449661 0.068716 -0.009110 -2537.950000 0 1 0
-4.347862 -24.765470 4.326601 25.513758 1.397006 1.400394 0.083484 -0.010613 -152672.000000 0 0 1
-5.222562 -24.101570 5.205601 25.204347 1.357406 1.362763 0.060900 -0.005556 -261041.000000 0 0 1
-5.875562 -25.160570 6.153801 26.560229 1.341385 1.336979 0.076611 -0.011054 -613592.000000 0 0 1
-5.109862 -25.797370 7.103901 27.241152 1.375251 1.306968 0.062005 -0.013641 -894880.000000 0 0 1
-5.897762 -26.518170 8.009601 28.322264 1.351954 1.284082 0.074047 -0.022377 -267968.000000 0 0 1
-5.278762 -27.010770 9.350701 29.066864 1.377797 1.243276 0.052483 -0.018939 -202874.000000 0 0 1
-4.762062 -26.121070 10.267901 28.467829 1.390469 1.201795 0.038042 -0.031267 255674.000000 0 0 1
-5.778762 -25.639070 11.156201 28.552002 1.349112 1.169369 0.043534 -0.034904 265212.000000 0 0 1
-5.303562 -24.562370 12.164801 27.918097 1.358139 1.119945 0.033328 -0.032004 169943.000000 0 0 1
-4.305162 -25.027370 13.053901 28.553598 1.400445 1.095984 0.024494 -0.032671 -85451.600000 0 0 1
-3.639962 -23.977870 13.720101 27.864471 1.420141 1.055966 0.029316 -0.035524 182208.000000 0 0 1
-2.681462 -24.544070 14.800101 28.786187 1.461977 1.030793 0.041237 -0.036990 355902.000000 0 0 1
-3.395662 -24.956270 16.001001 29.839201 1.435562 1.004819 0.046488 -0.035913 -112908.000000 0 0 1
-2.634162 -25.808570 16.754401 30.882536 1.469083 0.997362 0.057032 -0.036950 -514184.000000 0 0 1
-3.236962 -26.235770 18.075001 32.023416 1.448037 0.971053 0.100066 -0.033350 -340509.000000 0 0 1
-2.954162 -25.316070 19.098701 31.849503 1.454631 0.927727 0.091022 -0.032196 -572233.000000 0 0 1
-3.811062 -25.456570 20.153601 32.691417 1.422192 0.906532 0.159755 -0.036013 -642995.000000 0 0 1
-3.569062 -24.479770 21.313101 32.653416 1.426020 0.859645 0.121130 -0.039936 149233.000000 0 0 1
-2.383662 -24.949570 21.989401 33.342115 1.475546 0.850632 0.092506 -0.045391 733887.000000 0 0 1
-1.971662 -24.204370 23.124401 33.533220 1.489517 0.809864 0.064591 -0.036741 220960.000000 0 0 1
-1.313562 -22.826570 22.725901 32.237312 1.513314 0.788435 0.075920 -0.044795 37378.600000 0 0 1
-2.253562 -21.880070 22.261101 31.294929 1.468162 0.779404 0.089150 -0.038055 121271.000000 0 0 1
-1.525062 -20.980870 21.457101 30.048792 1.498236 0.775494 0.091678 -0.041274 -7823.900000 0 0 1
-2.372962 -19.848070 20.883201 28.908215 1.451805 0.763534 0.070343 -0.023702 -1157960.000000 0 0 1
-2.927362 -18.949070 21.818601 29.046308 1.417522 0.720970 0.082011 -0.042200 600997.000000 0 0 1
-4.314662 -19.162770 22.094401 29.563332 1.349331 0.726719 0.074482 -0.042363 538277.000000 0 0 1
-5.383262 -18.926870 20.995601 28.775357 1.293690 0.753004 0.057363 -0.041135 -611695.000000 0 0 1
-5.421462 -19.853170 19.963501 28.671972 1.304218 0.800605 0.073505 -0.039992 -444958.000000 0 0 1
-5.803062 -21.176170 20.222001 29.850209 1.303325 0.826507 0.065578 -0.031421 -246804.000000 0 0 1
-5.937262 -21.902470 18.894601 29.529226 1.306081 0.876479 0.039460 -0.030822 37758.800000 0 0 1
-6.330662 -23.259870 18.888901 30.624980 1.305062 0.906150 0.046039 -0.031622 -272969.000000 0 0 1
-6.301362 -23.803570 17.600001 30.266766 1.312009 0.950230 0.042104 -0.035064 72486.400000 0 0 1
-6.850062 -25.275270 17.505401 31.499233 1.306136 0.981543 0.027991 -0.035873 269966.000000 0 0 1
-8.247162 -25.353070 17.707001 32.005182 1.256300 0.984531 0.054273 -0.031652 -483525.000000 0 0 1
-8.715562 -26.654070 17.570301 33.092536 1.254767 1.011082 0.061183 -0.030018 203714.000000 0 0 1
-10.245662 -26.816270 17.724201 33.737712 1.205843 1.017667 0.060127 -0.027141 -459420.000000 0 0 1
-10.937662 -26.135570 16.688801 32.881857 1.174446 1.038471 0.088125 -0.031563 440014.000000 0 0 1
-12.360062 -26.228870 16.820101 33.520748 1.130421 1.045139 0.094105 -0.028275 965176.000000 0 0 1
-13.001462 -25.327770 17.924801 33.642717 1.096543 1.008892 0.086504 -0.020476 -618561.000000 0 0 1
-12.806862 -23.938370 17.648601 32.381080 1.079548 0.994374 0.081913 -0.020118 -139671.000000 0 0 1
-13.090162 -23.121370 18.773701 32.533090 1.055639 0.955666 0.070540 -0.013435 172305.000000 0 0 1
-11.883262 -22.423670 19.480601 31.992604 1.083482 0.916111 0.071284 -0.019268 634960.000000 0 0 1
-11.011662 -23.356470 20.108001 32.727864 1.130240 0.909171 0.078161 -0.014579 -677687.000000 0 0 1
-9.664162 -23.041570 20.049801 32.035987 1.173659 0.894572 0.079324 -0.028106 -795905.000000 0 0 1
-8.887262 -23.940970 20.999401 33.062491 1.215348 0.882603 0.079514 -0.028824 -210568.000000 0 0 1
-9.150962 -23.720270 22.398101 33.883126 1.202603 0.848592 0.075810 -0.028187 166873.000000 0 0 1
-8.226762 -24.430370 23.195701 34.677992 1.245980 0.838084 0.070356 -0.029420 43092.000000 0 0 1
-8.076262 -23.919570 24.642301 35.279099 1.245173 0.797503 0.075093 -0.026290 -93087.000000 0 0 1
-7.030462 -24.571370 25.312201 35.970642 1.292118 0.790218 0.097454 -0.026561 -266518.000000 0 0 1
-6.672062 -23.876270 26.483401 36.276207 1.298304 0.752403 0.089026 -0.027689 -990765.000000 0 0 1
-5.451862 -24.428970 27.134201 36.915609 1.351222 0.745081 0.110032 -0.026049 -1846970.000000 0 0 1
-4.271062 -23.971270 26.607101 36.066626 1.394472 0.741108 0.116591 -0.025969 -1543250.000000 0 0 1
-3.185562 -24.416070 27.370001 36.815882 1.441059 0.732613 0.113630 -0.024030 49735.800000 0 0 1
-1.870162 -23.696070 26.954301 35.937940 1.492037 0.722699 0.098999 -0.027723 -304985.000000 0 0 1
-1.866762 -22.307770 27.118801 35.164623 1.487309 0.690079 0.090929 -0.031184 -114461.000000 0 0 1
-0.650862 -21.663770 26.832501 34.492400 1.540762 0.679440 0.089569 -0.037399 305631.000000 0 0 1
0.517238 -21.668870 27.853301 35.293254 -1.546931 0.661297 0.089739 -0.034310 -25282.700000 0 0 1
0.956938 -22.950870 28.270101 36.426045 -1.529125 0.682345 0.103741 -0.022625 -29130.600000 0 0 1
1.837738 -22.782970 29.359201 37.207575 -1.490308 0.661511 0.097014 -0.033815 -121002.000000 0 0 1
2.611038 -24.018470 29.841801 38.395800 -1.462512 0.680568 0.112067 -0.036589 -1434340.000000 0 0 1
3.648138 -24.338270 28.998201 38.033616 -1.422011 0.703727 0.099027 -0.036877 -935959.000000 0 0 1
4.462438 -25.343170 29.486901 39.136516 -1.396502 0.717523 0.080748 -0.030720 -1164000.000000 0 0 1
5.573638 -24.881070 30.413301 39.687554 -1.350423 0.697705 0.069620 -0.030040 -650057.000000 0 0 1
6.746338 -24.277670 29.876101 39.083241 -1.299752 0.700652 0.069992 -0.029583 486277.000000 0 0 1
7.645638 -25.183870 29.265901 39.359573 -1.276047 0.732429 0.061822 -0.027748 -41848.300000 0 0 1
8.940738 -24.514970 28.683201 38.776881 -1.221082 0.738174 0.069205 -0.015405 282177.000000 0 0 1
8.679238 -23.618170 27.592601 37.342987 -1.218634 0.739365 0.091898 -0.024446 -564134.000000 0 0 1
9.722538 -23.438970 26.705001 36.838432 -1.177595 0.759875 0.065188 -0.012733 -653185.000000 0 0 1
9.409338 -22.314470 25.691201 35.305934 -1.171750 0.755872 0.095481 -0.012782 -334958.000000 0 0 1
8.473338 -22.705770 24.749701 34.639531 -1.213622 0.774897 0.087170 -0.007268 -105896.000000 0 0 1
8.070838 -21.556470 23.934501 33.206628 -1.212548 0.765877 0.088641 -0.011015 -120438.000000 0 0 1
7.394238 -21.871070 22.607901 32.313087 -1.244777 0.795887 0.084240 -0.008969 -147626.000000 0 0 1
8.236638 -22.399470 21.608201 32.194608 -1.218427 0.835004 0.080370 0.001401 -228297.000000 0 0 1
7.551538 -22.734570 20.453101 31.499456 -1.250101 0.864112 0.087524 -0.001209 -372346.000000 0 0 1
8.442138 -23.503070 19.488201 31.677341 -1.225955 0.908145 0.104918 -0.018621 506489.000000 0 0 1
9.556238 -22.742770 18.989501 31.131277 -1.173009 0.914759 0.094354 -0.013093 544282.000000 0 0 1
10.388838 -23.628970 18.201101 31.583797 -1.156570 0.956627 0.098045 -0.014815 1006210.000000 0 0 1
11.753838 -23.023570 17.732101 31.347486 -1.098774 0.969560 0.087930 -0.018880 570343.000000 0 0 1
11.558038 -22.016370 16.814501 30.017265 -1.087369 0.976216 0.095915 -0.019487 -237773.000000 0 0 1
12.762838 -21.463170 16.349701 29.847452 -1.034328 0.991093 0.091843 -0.028401 -158766.000000 0 0 1
-12.422462 22.505681 11.399801 28.120788 -1.066442 1.153394 0.034688 -0.017824 -348484.000000 0 0 1
-13.438962 21.586781 11.127401 27.756330 -1.013957 1.158302 0.022378 -0.023974 -293689.000000 0 0 1
-12.900962 20.320581 10.791201 26.378227 -1.005130 1.149334 0.048802 -0.029522 -296093.000000 0 0 1
-13.829862 19.554381 9.845601 25.895458 -0.955220 1.180778 0.064682 -0.027391 -696687.000000 0 0 1
-13.943062 20.343281 8.690601 26.149276 -0.969944 1.232007 0.073135 -0.033793 -122408.000000 0 0 1
-14.667662 19.727981 7.633001 25.740945 -0.931471 1.269738 0.076265 -0.032540 -461418.000000 0 0 1
-16.177162 19.600081 7.786901 26.580060 -0.880781 1.273475 0.079750 -0.031287 -868059.000000 0 0 1
-16.804462 18.801781 8.802201 26.709093 -0.841434 1.234961 0.074033 -0.032595 -175396.000000 0 0 1
-18.188462 18.863081 8.575101 27.571151 -0.803604 1.254533 0.065696 -0.025566 51175.900000 0 0 1
-19.046962 17.869381 9.471601 27.781519 -0.753510 1.222889 0.074217 -0.024305 307239.000000 0 0 1
-19.068162 16.542081 9.040001 26.813371 -0.714580 1.226913 0.080502 -0.031578 118018.000000 0 0 1
-19.490062 15.658781 10.086401 26.959144 -0.676825 1.187331 0.081624 -0.027974 -278211.000000 0 0 1
-18.347162 15.077081 10.942001 26.146972 -0.687873 1.139025 0.080208 -0.021812 -36646.600000 0 0 1
-17.586362 14.104981 10.239901 24.760578 -0.675984 1.144439 0.068511 -0.015828 16450.000000 0 1 0
-16.719862 13.376581 11.072101 24.105562 -0.674766 1.093570 0.058759 -0.015782 -31014.500000 0 1 0
-17.424262 12.259181 11.901501 24.403651 -0.613118 1.061351 0.051766 -0.013528 -155807.000000 0 1 0
-18.097862 11.365481 11.021401 24.045333 -0.560755 1.094648 0.030637 -0.015123 -179449.000000 0 1 0
-18.993762 10.656581 11.842801 24.790677 -0.511293 1.072748 0.045150 -0.019267 -241734.000000 0 1 0
-20.064462 9.873181 11.055101 24.945493 -0.457286 1.111664 0.048333 -0.024101 -304781.000000 0 1 0
-19.616762 8.799881 10.210701 23.801548 -0.421681 1.127418 0.040032 -0.021909 584918.000000 0 1 0
-19.040062 9.244581 8.953401 22.981506 -0.452007 1.170608 0.054822 -0.017808 499055.000000 0 1 0
-20.164662 9.499981 7.865101 23.637323 -0.440278 1.231588 0.079754 -0.024245 598225.000000 0 1 0
-20.622062 8.271681 7.388201 23.415287 -0.381461 1.249782 0.064568 -0.028698 694471.000000 0 1 0
-21.545062 8.475581 6.294501 23.992622 -0.374794 1.305338 0.078764 -0.025053 404694.000000 0 1 0
-21.796462 7.209481 5.466701 23.599729 -0.319436 1.337031 0.092976 -0.025075 -173134.000000 0 1 0
-22.663462 6.326581 6.119301 24.312630 -0.272223 1.316368 0.110594 -0.029738 198081.000000 0 1 0
-22.267862 5.011181 5.760801 23.540528 -0.221353 1.323567 0.108943 -0.027489 310651.000000 0 1 0
-23.381962 3.967481 6.099801 24.488051 -0.168080 1.319053 0.132948 -0.028816 303769.000000 0 1 0
-24.543162 4.005881 5.311001 25.428736 -0.161791 1.360389 0.158757 -0.033951 -6670.510000 0 0 1
-25.145042 2.712381 5.191901 25.818327 -0.107454 1.368322 0.162125 -0.037110 106423.000000 0 0 1
-26.293832 2.732481 4.157801 26.760407 -0.103549 1.414793 0.171153 -0.043045 -112675.000000 0 0 1
-25.879102 2.694581 2.838701 26.173401 -0.103748 1.462125 0.172270 -0.035593 723879.000000 0 0 1
-27.041362 2.464781 2.031901 27.229378 -0.090897 1.496105 0.177819 -0.027620 555251.000000 0 0 1
-26.879692 2.638381 0.515401 27.013785 -0.097842 1.551716 0.196755 -0.031043 -309762.000000 0 0 1
-26.458002 3.920881 0.183001 26.747573 -0.147122 1.563955 0.191130 -0.036861 193008.000000 0 0 1
-26.493832 4.267081 -1.185399 26.861428 -0.159688 1.614941 0.212995 -0.028456 918559.000000 0 0 1
-27.882642 4.862381 -1.695399 28.354169 -0.172651 1.630626 0.209729 -0.034982 812305.000000 0 0 1
-28.897452 3.892781 -1.663599 29.205891 -0.133904 1.627788 0.196218 -0.033568 -791190.000000 0 0 1
-30.108722 4.537881 -1.916499 30.509023 -0.149591 1.633655 0.188954 -0.019119 -217738.000000 0 0 1
-31.280352 3.484981 -1.944999 31.533927 -0.110954 1.632515 0.179935 -0.017681 35851.200000 0 0 1
-31.637452 3.068181 -3.234899 31.950066 -0.096677 1.672219 0.159878 -0.016857 529232.000000 0 0 1
-32.442252 1.900681 -3.290499 32.664043 -0.058520 1.671705 0.167829 -0.021840 -998.085000 0 0 1
-32.479492 1.356581 -4.746399 32.852489 -0.041743 1.715780 0.157430 -0.028741 -19864.300000 0 0 1
-31.234542 0.775681 -5.102999 31.658157 -0.024829 1.732693 0.174848 -0.025116 422038.000000 0 0 1
-31.187002 -0.046219 -6.300699 31.817135 0.001482 1.770143 0.178690 -0.022765 -311354.000000 0 0 1
-31.554802 0.555581 -7.732199 32.493094 -0.017605 1.811066 0.167671 -0.025185 668457.000000 0 0 1
-32.957562 0.874981 -7.690299 33.854205 -0.026542 1.799956 0.167568 -0.024041 930741.000000 0 0 1
-33.332802 1.506981 -8.906499 34.535090 -0.045179 1.831641 0.181573 -0.030000 -56961.300000 0 0 1
-34.838776 1.857381 -8.818899 35.985597 -0.053263 1.818386 0.194106 -0.031395 121428.000000 0 0 1
-35.074709 2.851681 -7.800599 36.044648 -0.081125 1.788937 0.155338 -0.019731 547694.000000 0 0 1
-36.453422 2.933781 -7.472299 37.326858 -0.080307 1.772344 0.154488 -0.017081 356508.000000 0 0 1
-36.979132 3.904481 -6.341799 37.721607 -0.105196 1.739720 0.162522 -0.018216 123522.000000 0 0 1
35.871212 3.793881 -6.206699 36.601373 0.105372 1.741195 0.180883 -0.033978 82436.600000 0 0 1
35.412142 4.532581 -5.119399 36.066222 0.127303 1.713222 0.185010 -0.029749 1373420.000000 0 0 1
33.856042 4.343281 -4.818799 34.471967 0.127590 1.711045 0.173297 -0.037578 1461490.000000 0 0 1
33.657402 3.034381 -4.319799 34.068884 0.089912 1.697935 0.168752 -0.037948 1047660.000000 0 0 1
32.326292 2.553281 -4.638099 32.756990 0.078821 1.712865 0.162632 -0.040676 1040870.000000 0 0 1
31.941392 1.296481 -3.893499 32.203924 0.040567 1.691994 0.184800 -0.028898 128049.000000 0 0 1
32.838422 0.202681 -4.200199 33.106566 0.006172 1.698008 0.142689 -0.034350 515209.000000 0 0 1
32.659302 -0.995119 -3.559599 32.867781 -0.030460 1.679310 0.144934 -0.030727 466162.000000 0 0 1
33.942052 -1.902919 -3.653499 34.191111 -0.056005 1.677856 0.131093 -0.033919 614654.000000 0 0 1
33.687792 -3.104219 -3.000299 33.963294 -0.091887 1.659251 0.106857 -0.026164 233460.000000 0 0 1
34.795012 -3.930019 -3.288799 35.170359 -0.112471 1.664444 0.138912 -0.035099 123916.000000 0 0 1
34.655462 -5.451819 -2.859199 35.197989 -0.156036 1.652118 0.144913 -0.034212 -193069.000000 0 0 1
34.625032 -5.718719 -1.452899 35.124173 -0.163684 1.612173 0.131691 -0.023006 136327.000000 0 0 1
34.657862 -7.093919 -1.118799 35.394107 -0.201896 1.602411 0.146700 -0.032150 -325710.000000 0 0 1
34.301562 -7.373019 0.361001 35.086877 -0.211726 1.560507 0.138890 -0.023912 1657430.000000 0 0 1
32.860942 -7.155519 0.558601 33.635621 -0.214405 1.554188 0.127329 -0.028027 1719970.000000 0 0 1
32.348462 -7.534119 1.800701 33.263020 -0.228826 1.516635 0.129793 -0.034084 -521961.000000 0 0 1
32.109642 -9.096719 2.014601 33.434085 -0.276068 1.510504 0.131903 -0.029867 82653.600000 0 0 1
31.004752 -9.750419 1.391701 32.531557 -0.304689 1.528003 0.141848 -0.038476 1184000.000000 0 0 1
29.719012 -9.388419 1.941101 31.227071 -0.305985 1.508595 0.149283 -0.045654 -17787.700000 0 0 1
28.653322 -10.485319 1.624401 30.554762 -0.350802 1.517608 0.169702 -0.044013 708755.000000 0 0 1
27.317122 -10.328719 2.155001 29.283983 -0.361489 1.497140 0.188565 -0.048238 1513130.000000 0 0 1
26.536622 -9.258319 1.664401 28.154556 -0.335684 1.511645 0.183489 -0.050227 -438524.000000 0 0 1
25.817922 -9.501819 0.289401 27.512423 -0.352648 1.560277 0.169348 -0.042405 -234844.000000 0 0 1
26.756322 -9.558519 -0.787299 28.423334 -0.343113 1.598499 0.164297 -0.045435 879079.000000 0 0 1
26.093422 -9.790919 -1.997899 27.941374 -0.358968 1.642361 0.159123 -0.048770 -73588.600000 0 0 1
25.245822 -11.043819 -2.320299 27.653233 -0.412370 1.654802 0.149246 -0.038086 -408874.000000 0 0 1
24.026822 -11.091019 -1.653099 26.514744 -0.432467 1.633183 0.142531 -0.034074 -416005.000000 0 0 1
23.461222 -12.383319 -1.758299 26.586973 -0.485656 1.636978 0.121984 -0.027820 -606900.000000 0 0 1
21.973222 -12.541119 -1.460699 25.342372 -0.518631 1.628467 0.115967 -0.020572 -699748.000000 0 0 1
21.197122 -12.065519 -2.535699 24.521919 -0.517469 1.674387 0.118060 -0.021823 139710.000000 0 1 0
19.841422 -12.107019 -2.124199 23.340398 -0.547878 1.661932 0.115802 -0.022249 232141.000000 0 1 0
18.793922 -11.602519 -3.166399 22.312688 -0.553083 1.713187 0.102257 -0.021145 153127.000000 0 1 0
18.626222 -12.506519 -4.245899 22.833678 -0.591305 1.757834 0.098898 -0.023555 151775.000000 0 1 0
17.786422 -11.898919 -5.174799 22.016349 -0.589609 1.808060 0.095275 -0.025682 -338749.000000 0 1 0
17.872022 -12.518519 -6.623999 22.803506 -0.611030 1.865526 0.108795 -0.030776 -171657.000000 0 1 0
17.229222 -13.774519 -6.806699 23.084944 -0.674427 1.870100 0.101673 -0.033010 484561.000000 0 1 0
17.428222 -14.320319 -8.105299 23.968945 -0.687818 1.915756 0.106545 -0.035948 -429131.000000 0 1 0
16.350022 -15.384919 -8.396199 23.969045 -0.754996 1.928681 0.088848 -0.038273 -1055630.000000 0 1 0
15.076622 -14.851819 -8.437299 22.783088 -0.777887 1.950162 0.098435 -0.038200 -421150.000000 0 1 0
14.124122 -15.717819 -9.074199 22.997429 -0.838752 1.976401 0.085354 -0.043473 114087.000000 0 1 0
13.967322 -15.704119 -10.621599 23.548329 -0.843866 2.038744 0.101213 -0.049103 -377204.000000 0 1 0
13.069722 -14.710819 -11.162299 22.623500 -0.844403 2.086784 0.081691 -0.041428 445734.000000 0 1 0
13.396322 -13.358619 -10.947599 21.857815 -0.783989 2.095383 0.079687 -0.033301 -324298.000000 0 1 0
13.484422 -12.490019 -12.246299 22.086242 -0.747133 2.158530 0.090159 -0.023103 -397304.000000 0 1 0
14.730722 -12.539519 -12.883299 23.242485 -0.705219 2.158318 0.112841 -0.026245 -172898.000000 0 1 0
14.745422 -11.848319 -14.091199 23.587540 -0.676887 2.211052 0.134143 -0.024992 -113948.000000 0 1 0
16.170622 -11.698019 -14.655399 24.761127 -0.626266 2.204175 0.136423 -0.035159 -161353.000000 0 1 0
16.853622 -12.878019 -14.948899 25.949134 -0.652470 2.184727 0.132348 -0.030363 -308698.000000 0 0 1
18.002922 -12.579819 -15.698999 26.996586 -0.609897 2.191390 0.124518 -0.023359 -802941.000000 0 0 1
18.949722 -13.732019 -15.845799 28.262160 -0.627082 2.165993 0.103424 -0.017114 -1277630.000000 0 0 1
19.835022 -13.751719 -14.804499 28.314503 -0.606218 2.120998 0.089368 -0.027974 -466345.000000 0 0 1
20.860522 -14.719219 -14.994799 29.608458 -0.614476 2.101843 0.057238 -0.021200 46949.200000 0 0 1
21.957122 -14.546819 -13.925499 29.793367 -0.585120 2.057147 0.047187 -0.024678 -263446.000000 0 0 1
22.769422 -13.394219 -13.982199 29.889021 -0.531738 2.057601 0.056416 -0.013346 -18457.100000 0 0 1
23.503522 -13.324219 -12.778399 29.887085 -0.515728 2.012584 0.044126 -0.011299 -450450.000000 0 0 1
24.233122 -12.015319 -12.703299 29.882870 -0.460300 2.009872 0.054867 -0.012884 -1381250.000000 0 0 1
23.419022 -10.911319 -12.557199 28.726134 -0.436011 2.023207 0.054300 -0.009180 -414640.000000 0 0 1
23.990422 -9.621119 -12.591799 28.751691 -0.381403 2.024113 0.070003 -0.020818 -131146.000000 0 0 1
25.093922 -9.240419 -11.558899 29.132429 -0.352825 1.978793 0.082852 -0.026444 264972.000000 0 0 1
26.338922 -9.869919 -11.805699 30.504568 -0.358532 1.968188 0.072635 -0.024518 63309.100000 0 0 1
27.186122 -9.607919 -10.708799 30.758344 -0.339712 1.926403 0.084009 -0.029060 -66493.200000 0 0 1
28.586522 -10.274419 -10.827699 32.248907 -0.345037 1.913202 0.091373 -0.028999 100522.000000 0 0 1
29.197742 -9.812819 -12.006799 33.059988 -0.324222 1.942477 0.080397 -0.027274 1289080.000000 0 0 1
30.503732 -10.421619 -12.243299 34.481679 -0.329217 1.933782 0.070480 -0.027840 1192670.000000 0 0 1
31.254962 -9.887719 -13.483899 35.446512 -0.306395 1.961027 0.049388 -0.025030 -371053.000000 0 0 1
30.613232 -10.160519 -14.696199 35.445513 -0.320460 1.998315 0.046120 -0.020562 90438.200000 0 0 1
31.427132 -9.875519 -15.806299 36.538057 -0.304465 2.018169 0.038807 -0.014517 -292516.000000 0 0 1
31.075782 -10.717319 -17.085199 37.046852 -0.332104 2.050119 0.019455 -0.009130 -168126.000000 0 0 1
29.887502 -10.483919 -17.791099 36.327656 -0.337369 2.082588 0.027278 -0.003889 -8835.860000 0 0 1
29.873512 -9.212619 -18.471399 36.311041 -0.299134 2.104470 0.022907 0.001552 -704673.000000 0 0 1
28.526222 -8.812719 -19.069199 35.426597 -0.299633 2.139184 -0.002489 0.000196 -448062.000000 0 0 1
28.157122 -9.545619 -20.253499 35.974249 -0.326853 2.168808 -0.008105 0.008825 574004.000000 0 0 1
26.792922 -9.253719 -20.507599 34.986478 -0.332552 2.197105 0.036089 0.009921 182127.000000 0 0 1
26.176122 -9.823019 -21.824399 35.468091 -0.359004 2.233594 0.058671 0.007952 -42214.000000 0 0 1
26.061322 -11.248319 -22.043299 35.939174 -0.407456 2.231092 0.051101 0.005677 249782.000000 0 0 1
25.401722 -11.415819 -23.285499 36.301280 -0.422364 2.267185 0.074557 -0.005271 -860317.000000 0 0 1
25.434022 -12.881119 -23.690199 37.068022 -0.468796 2.264125 0.056691 0.001911 323082.000000 0 0 1
26.593722 -13.438119 -24.284599 38.438924 -0.467888 2.254632 0.051148 0.004127 -505222.000000 0 0 1
27.735422 -13.389719 -23.507699 38.744679 -0.449766 2.222741 0.027074 0.010637 -1434890.000000 0 0 1
29.016322 -13.910119 -24.159699 40.238408 -0.447024 2.214815 0.017917 0.016006 -530230.000000 0 0 1
29.504002 -13.125419 -25.203729 40.963285 -0.418579 2.233532 0.037263 -0.001612 -674024.000000 0 0 1
30.869702 -13.424419 -25.234899 42.070818 -0.410204 2.214072 0.014801 -0.004562 -515541.000000 0 0 1
31.559262 -12.782619 -26.468879 43.127531 -0.384840 2.231579 0.030405 -0.009382 -56210.000000 0 0 1
31.282032 -13.431219 -27.679109 43.875919 -0.405557 2.253444 0.040143 -0.009386 145843.000000 0 0 1
31.906602 -12.728119 -28.752659 44.796782 -0.379573 2.267700 0.045677 -0.010222 30769.200000 0 0 1
31.950152 -13.550119 -30.142799 45.967448 -0.401110 2.285962 0.045602 -0.010478 330573.000000 0 0 1
32.759652 -14.698219 -29.823239 46.676097 -0.421746 2.263916 0.054936 -0.013831 166457.000000 0 0 1
33.128712 -15.507219 -30.909059 47.888990 -0.437795 2.272384 0.029624 -0.003965 499369.000000 0 0 1
31.991472 -16.402119 -31.542019 47.826591 -0.473758 2.290960 0.021670 0.012437 1131290.000000 0 0 1
31.140182 -15.649519 -32.454189 47.622398 -0.465686 2.320593 0.025931 0.002393 397774.000000 0 0 1
30.038862 -16.458119 -32.844739 47.455030 -0.501225 2.335223 0.029418 -0.001521 412329.000000 0 0 1
29.159422 -15.766819 -33.934059 47.438222 -0.495684 2.367895 0.052827 -0.008837 185299.000000 0 0 1
28.424822 -14.567419 -33.603779 46.361560 -0.473589 2.381569 0.063540 -0.010947 591870.000000 0 0 1
29.165022 -13.352519 -33.362849 46.281400 -0.429343 2.375852 0.081211 -0.016370 -305037.000000 0 0 1
28.263722 -12.135519 -33.085549 45.174798 -0.405564 2.392621 0.088324 -0.018349 316253.000000 0 0 1
27.432122 -11.797319 33.712780 45.036092 -0.406144 0.724890 0.086486 -0.025026 164454.000000 0 0 1
26.518922 -10.742019 -33.927319 44.381384 -0.384869 2.440983 0.067344 -0.028079 137154.000000 0 0 1
21.644438 -30.119370 8.979501 38.161362 -0.947681 1.333266 0.040207 -0.015275 -50141.100000 0 0 1
22.138638 -29.377870 7.911401 37.626703 -0.925007 1.358955 0.050932 -0.019629 -274594.000000 0 0 1
23.127038 -30.162370 7.291501 38.701349 -0.916660 1.381259 0.052081 -0.018953 -306986.000000 0 0 1
23.539938 -29.647570 5.907801 38.314608 -0.899729 1.415987 0.046701 -0.018067 961426.000000 0 0 1
24.568138 -28.566370 5.994901 38.151929 -0.860504 1.413010 0.057978 -0.009605 1051390.000000 0 0 1
24.890438 -28.137370 4.715301 37.861320 -0.846553 1.445931 0.046841 -0.010667 -225743.000000 0 0 1
24.716238 -26.627970 4.449801 36.602485 -0.822615 1.448924 0.053234 -0.014971 434610.000000 0 0 1
25.646638 -25.779070 5.163201 36.728315 -0.787973 1.429751 0.043611 -0.008070 460690.000000 0 0 1
25.345938 -24.405770 5.030501 35.543833 -0.766503 1.428790 0.043519 -0.001014 69792.000000 0 0 1
26.239238 -23.513570 5.953101 35.732688 -0.730669 1.403415 0.037246 0.000511 906211.000000 0 0 1
27.592338 -23.418170 5.487301 36.604074 -0.703751 1.420320 0.037658 0.001120 623642.000000 0 0 1
28.529938 -22.620870 6.156601 36.926479 -0.670386 1.403288 0.046590 -0.007364 -198615.000000 0 0 1
28.182238 -21.116970 6.422801 35.796889 -0.643053 1.390396 0.058734 -0.000014 -560045.000000 0 0 1
28.355838 -20.237170 5.292001 35.236371 -0.619852 1.420040 0.043714 0.010169 221623.000000 0 0 1
27.754238 -18.985570 5.586401 34.087497 -0.599948 1.406170 0.074034 -0.000816 102422.000000 0 0 1
27.694338 -18.099370 4.280701 33.359975 -0.578860 1.442123 0.072965 0.006145 539243.000000 0 0 1
28.978338 -17.808970 3.715301 34.215595 -0.551058 1.461997 0.078958 0.000276 700809.000000 0 0 1
28.891138 -17.026870 2.554101 33.632359 -0.532549 1.494781 0.083133 0.007171 493193.000000 0 0 1
30.135638 -16.078870 2.437801 34.243679 -0.490126 1.499546 0.115295 -0.020094 634042.000000 0 0 1
30.004838 -15.100970 3.359901 33.758236 -0.466272 1.471103 0.129808 -0.031841 94.476200 0 0 1
31.218138 -14.425070 3.499701 34.567364 -0.432849 1.469380 0.131139 -0.034548 -343239.000000 0 0 1
31.022338 -13.192970 4.467801 34.005898 -0.402102 1.439032 0.151462 -0.039071 82039.100000 0 0 1
30.608438 -13.596570 5.718601 33.977133 -0.418028 1.401684 0.133138 -0.036629 68495.600000 0 0 1
30.468138 -12.487370 6.585201 33.579855 -0.388969 1.373411 0.121046 -0.035587 -355230.000000 0 0 1
30.037938 -12.690970 8.044201 33.586419 -0.399750 1.328938 0.143091 -0.029058 -250851.000000 0 0 1
28.632638 -12.828370 8.140501 32.413928 -0.421217 1.316936 0.134579 -0.020553 297270.000000 0 0 1
28.041438 -13.132370 9.437501 32.370477 -0.437984 1.274953 0.145082 -0.017415 297734.000000 0 0 1
28.604138 -14.342470 10.236701 33.596029 -0.464777 1.261173 0.129663 -0.021233 -24303.500000 0 0 1
29.782238 -14.137370 10.993801 34.752130 -0.443196 1.248918 0.113575 -0.018304 160234.000000 0 0 1
29.858938 -15.236570 11.904101 35.572698 -0.471842 1.229572 0.103060 -0.021267 59479.400000 0 0 1
30.764038 -15.272470 13.182201 36.789193 -0.460795 1.204332 0.099097 -0.021267 1072640.000000 0 0 1
32.166838 -15.196770 12.837601 37.821307 -0.441354 1.224488 0.090163 -0.021440 835680.000000 0 0 1
32.910038 -15.232570 14.038701 38.886847 -0.433492 1.201441 0.093651 -0.026010 563762.000000 0 0 1
34.453638 -15.074870 13.827301 40.068680 -0.412445 1.218462 0.089237 -0.030587 565417.000000 0 0 1
34.933038 -13.748170 13.782001 39.990909 -0.374940 1.218953 0.084793 -0.027004 1426330.000000 0 0 1
36.381438 -13.699070 13.761601 41.239001 -0.360120 1.230567 0.077482 -0.029684 1152730.000000 0 0 1
37.067538 -12.311670 13.769001 41.414550 -0.320678 1.231877 0.071273 -0.029996 -299382.000000 0 0 1
-35.928247 -12.396970 13.141801 40.214807 0.332256 1.237891 0.084988 -0.035745 47328.500000 0 0 1
-35.264447 -11.140070 13.041401 39.214290 0.305980 1.231772 0.084702 -0.031927 473036.000000 0 0 1
-34.034147 -11.119170 12.080801 37.787628 0.315774 1.245381 0.089001 -0.038495 1387670.000000 0 0 1
-32.862647 -11.885270 12.445101 37.095737 0.347029 1.228675 0.071729 -0.037285 1001270.000000 0 0 1
-32.966747 -13.176770 11.927201 37.452527 0.380247 1.246690 0.075112 -0.038286 -1019990.000000 0 0 1
-31.864747 -14.131770 12.264001 36.952331 0.417429 1.232493 0.057925 -0.028877 -1319790.000000 0 0 1
-30.744947 -13.938270 11.500701 35.662210 0.425638 1.242438 0.059788 -0.029852 -476416.000000 0 0 1
-29.672547 -14.869170 11.743101 35.205861 0.464534 1.230724 0.060120 -0.024986 751624.000000 0 0 1
-28.377647 -14.449170 10.996301 33.689583 0.470960 1.238303 0.067603 -0.025409 -27217.300000 0 0 1
-28.400847 -14.517570 9.605901 33.311278 0.472541 1.278275 0.070091 -0.021569 -327910.000000 0 0 1
-27.137547 -14.302670 9.056201 31.984802 0.485048 1.283729 0.078010 -0.020240 -380085.000000 0 0 1
-27.121347 -14.392670 7.523001 31.611896 0.487887 1.330511 0.113879 -0.013063 -44186.700000 0 0 1
-27.385847 -15.699270 7.059701 32.346423 0.520527 1.350772 0.111852 -0.006168 178911.000000 0 0 1
-27.180847 -15.744270 5.659101 31.917172 0.525016 1.392548 0.118350 -0.001918 -253546.000000 0 0 1
-27.809347 -16.925970 4.889601 32.920456 0.546751 1.421717 0.104856 -0.002850 -41706.700000 0 0 1
-29.216447 -16.981470 4.863001 34.141176 0.526504 1.427872 0.076150 -0.014835 -166088.000000 0 0 1
-29.642547 -17.920770 3.911501 34.858778 0.543767 1.458350 0.079163 -0.012986 244109.000000 0 0 1
-31.179547 -18.140970 3.838101 36.276576 0.526947 1.464797 0.106739 -0.023148 366714.000000 0 0 1
-31.945147 -17.087970 3.256601 36.374395 0.491189 1.481146 0.127280 -0.028702 -472551.000000 0 0 1
-33.282847 -17.342570 3.563601 37.698964 0.480358 1.476127 0.133765 -0.033808 -1004310.000000 0 0 1
-34.262747 -16.440070 2.817901 38.107116 0.447376 1.496782 0.104700 -0.034780 -90118.000000 0 0 1
-34.278747 -16.669670 1.443501 38.144385 0.452626 1.532944 0.104954 -0.021293 -650703.000000 0 0 1
-35.289147 -15.880370 0.943601 38.709178 0.422860 1.546417 0.127469 -0.029087 -648388.000000 0 0 1
-35.708347 -16.498070 -0.442099 39.337867 0.432807 1.582035 0.118329 -0.029751 -420073.000000 0 0 1
-34.656047 -16.720670 -1.354599 38.502693 0.449529 1.605986 0.111412 -0.022915 99567.900000 0 0 1
-35.055547 -17.590670 -2.394099 39.294462 0.465082 1.631761 0.092738 -0.020553 209515.000000 0 0 1
-33.879247 -18.279270 -3.127699 38.622760 0.494778 1.651866 0.077986 -0.017867 82071.600000 0 0 1
-34.438047 -19.187870 -4.096599 39.635029 0.508332 1.674339 0.078636 -0.023384 369857.000000 0 0 1
-33.565447 -19.720970 -5.078599 39.260006 0.531206 1.700518 0.070386 -0.018478 -349742.000000 0 0 1
-34.284547 -20.751370 -5.974199 40.518398 0.544285 1.718780 0.087495 -0.019815 -218753.000000 0 0 1
-34.660347 -21.834870 -5.234999 41.297777 0.562163 1.697901 0.101652 -0.025001 -108908.000000 0 0 1
-35.122247 -22.873870 -6.051999 42.348705 0.577264 1.714196 0.083161 -0.024132 -67008.000000 0 0 1
-35.641747 -24.130170 -5.320199 43.369387 0.595136 1.693778 0.091857 -0.023832 -408894.000000 0 0 1
-34.658447 -24.928670 -4.767199 42.957802 0.623540 1.681999 0.105293 -0.024936 -952578.000000 0 0 1
-35.213847 -26.127170 -4.313399 44.059612 0.638334 1.668853 0.074718 -0.012113 349796.000000 0 0 1
-34.262447 -27.297870 -3.857199 43.976891 0.672743 1.658619 0.071144 -0.013527 28083.800000 0 0 1
-33.288447 -27.726870 -4.814499 43.589900 0.694499 1.681472 0.073960 -0.018043 795655.000000 0 0 1
-32.509947 -28.881870 -4.434799 43.711858 0.726370 1.672426 0.074119 -0.011768 416942.000000 0 0 1
-31.425247 -28.697170 -3.355199 42.688770 0.740054 1.649474 0.093223 -0.019821 -583889.000000 0 0 1
-31.944647 -28.334670 -2.085799 42.751193 0.725582 1.619605 0.089336 -0.018862 -155733.000000 0 0 1
-30.962647 -28.386670 -1.091899 42.020004 0.742022 1.596784 0.098672 -0.020394 -404126.000000 0 0 1
-31.603047 -28.124770 0.273501 42.306383 0.727228 1.564332 0.088715 -0.017807 171710.000000 0 0 1
-32.109447 -29.247670 0.952001 43.443631 0.738791 1.548881 0.083780 -0.010161 261832.000000 0 0 1
-33.029347 -29.043070 2.024701 44.028821 0.721266 1.524794 0.080275 -0.009170 304485.000000 0 0 1
-33.675047 -30.391070 2.483001 45.428969 0.734184 1.516112 0.054572 0.000640 -248767.000000 0 0 1
-34.722347 -30.148170 3.424701 46.111626 0.715002 1.496458 0.049807 0.004703 337844.000000 0 0 1
-35.376647 -31.314470 3.866201 47.403066 0.724563 1.489145 0.046792 0.011982 260760.000000 0 0 1
-36.261447 -32.175570 2.948501 48.568029 0.725766 1.510050 0.037871 0.015015 132802.000000 0 0 1
37.119438 -33.019570 3.752701 49.821957 -0.727011 1.495403 0.060189 0.009074 82810.300000 0 0 1
36.264338 -33.812470 3.020701 49.674037 -0.750424 1.509948 0.057539 0.005260 -544206.000000 0 0 1
35.194538 33.445281 3.899401 48.707778 0.759919 1.490654 0.066780 -0.002696 1621700.000000 0 0 1
34.126338 -33.907570 4.590301 48.325987 -0.782183 1.475667 0.071779 -0.002903 1203680.000000 0 0 1
33.546838 -32.795270 3.969201 47.081574 -0.774070 1.486391 0.067042 -0.005860 -1294290.000000 0 0 1
32.538838 -33.029570 2.881501 46.454617 -0.792882 1.508728 0.061767 -0.005072 -789238.000000 0 0 1
33.137038 -33.661970 1.754901 47.268077 -0.793256 1.533661 0.058454 0.002627 226048.000000 0 0 1
32.366138 -33.262870 0.619301 46.415180 -0.799061 1.557453 0.063143 0.003823 -894496.000000 0 0 1
32.869438 -33.868970 -0.713699 47.201869 -0.800374 1.585917 0.048245 0.001703 646583.000000 0 0 1
34.023738 -33.255970 -1.280099 47.594253 -0.773987 1.597696 0.018710 0.017156 -586238.000000 0 0 1
35.184738 -33.358870 -0.541299 48.487864 -0.758766 1.581960 0.029354 0.022041 -1861830.000000 0 0 1
36.442738 -33.266770 -1.421499 49.363668 -0.739870 1.599597 0.029093 0.026174 -362362.000000 0 0 1
36.824338 33.610081 -2.070399 49.899459 0.739795 1.612300 0.034844 0.000870 98741.900000 0 0 1
-36.697247 33.929081 -3.224299 50.082598 -0.746224 1.635221 0.034075 0.002022 -459727.000000 0 0 1
-36.132147 32.757581 -4.007099 48.935141 -0.736452 1.652774 0.041050 -0.005002 -148738.000000 0 0 1
-34.880447 32.312381 -3.539299 47.678740 -0.747197 1.645097 0.054029 0.000972 -149993.000000 0 0 1
-34.425447 31.227081 -4.319799 46.678718 -0.736720 1.663472 0.060661 -0.020262 -626107.000000 0 0 1
-33.081247 30.616381 -3.970999 45.249315 -0.746721 1.658668 0.070231 -0.028419 -564593.000000 0 0 1
-32.002247 31.526181 -4.254099 45.123622 -0.777905 1.665213 0.071283 -0.013548 -7833.870000 0 0 1
-30.712847 31.056581 -3.990999 43.860213 -0.790963 1.661916 0.085570 -0.027672 -69395.900000 0 0 1
-30.295247 31.077481 -2.508399 43.473025 -0.798143 1.628529 0.078183 -0.019710 -932987.000000 0 0 1
-31.173747 30.495381 -1.594599 43.638441 -0.774399 1.607346 0.064667 -0.007036 -494448.000000 0 0 1
-30.654547 30.314781 -0.303599 43.113564 -0.779825 1.577838 0.066022 0.001922 -105952.000000 0 0 1
-31.718747 29.620581 0.576401 43.402650 -0.751206 1.557516 0.064688 -0.008574 92814.500000 0 0 1
-32.068447 28.356381 0.085701 42.807441 -0.724042 1.568794 0.059114 -0.015603 905372.000000 0 0 1
-33.400147 28.373881 -0.486299 43.827884 -0.704212 1.581892 0.071090 -0.015262 903733.000000 0 0 1
-33.801447 26.905081 -0.941199 43.212349 -0.672281 1.592579 0.080421 -0.012095 -96794.100000 0 0 1
-33.885647 25.996081 0.080601 42.708779 -0.654400 1.568909 0.091935 -0.017721 58910.200000 0 0 1
-34.129947 24.709381 -0.463299 42.138124 -0.626639 1.581791 0.096563 -0.007394 -202278.000000 0 0 1
-34.263347 23.550881 0.569301 41.580585 -0.602185 1.557104 0.118701 -0.012122 7958.450000 0 0 1
-33.055847 23.149281 1.186601 40.373088 -0.610933 1.541401 0.124129 -0.019076 89219.600000 0 0 1
-32.665347 23.910681 2.310701 40.547317 -0.631874 1.513778 0.102924 -0.018390 -1811690.000000 0 0 1
-31.236047 23.724181 2.713501 39.317814 -0.649562 1.501727 0.094072 -0.023559 -954880.000000 0 0 1
-30.240947 24.339881 1.907701 38.866232 -0.677700 1.521693 0.089199 -0.019143 198514.000000 0 0 1
-30.065347 25.756381 2.156901 39.648058 -0.708359 1.516368 0.066765 -0.022452 -368334.000000 0 0 1
-29.521047 26.574381 0.941301 39.731298 -0.732917 1.547102 0.046389 -0.024589 -587660.000000 0 0 1
-28.258147 26.160381 0.584401 38.512725 -0.746868 1.555622 0.051057 -0.027467 -1103190.000000 0 0 1
-27.586547 26.973581 -0.356499 38.583918 -0.774164 1.580036 0.054719 -0.023833 -207789.000000 0 0 1
-26.383247 26.283781 -0.971399 37.253946 -0.783510 1.596874 0.051733 -0.028643 -841943.000000 0 0 1
-26.707647 25.182181 -1.800799 36.751647 -0.756008 1.619815 0.051338 -0.032620 -1025140.000000 0 0 1
-25.716347 24.651581 -2.573199 35.716275 -0.764262 1.642904 0.055279 -0.029518 -149647.000000 0 0 1
-24.644747 23.745581 -1.847299 34.272857 -0.766819 1.624722 0.061409 -0.035495 597113.000000 0 0 1
-25.177147 22.457181 -1.539299 33.772521 -0.728359 1.616391 0.054346 -0.030758 -568363.000000 0 0 1
-24.182147 21.616081 -1.077199 32.452913 -0.729427 1.603995 0.052880 -0.034851 -1004230.000000 0 0 1
-24.753547 20.222181 -0.622199 31.969702 -0.684986 1.590260 0.055075 -0.033433 -961660.000000 0 0 1
-25.494747 20.190081 0.613001 32.526870 -0.669801 1.551949 0.033733 -0.024855 479173.000000 0 0 1
-26.826247 20.677181 0.622601 33.875965 -0.656669 1.552416 0.037263 -0.024523 -24057.200000 0 0 1
-27.741347 20.018881 -0.406199 34.212614 -0.625093 1.582669 0.053494 -0.030318 -1922500.000000 0 0 1
-27.992447 18.632481 -0.290099 33.627825 -0.587281 1.579423 0.079499 -0.033349 420896.000000 0 0 1
-28.955747 18.160481 -1.243099 34.202100 -0.560166 1.607150 0.096686 -0.024474 303972.000000 0 0 1
-29.191447 16.626881 -1.154899 33.614395 -0.517752 1.605160 0.095494 -0.027845 173277.000000 0 0 1
-30.109647 16.288081 -0.117599 34.233117 -0.495875 1.574232 0.110997 -0.035174 262808.000000 0 0 1
-30.377847 14.899481 0.015301 33.835017 -0.455996 1.570344 0.126223 -0.038940 720219.000000 0 0 1
-29.208147 13.917281 0.487701 32.358066 -0.444660 1.555724 0.124963 -0.031324 269982.000000 0 0 1
-28.969147 14.061281 1.864601 32.255354 -0.451890 1.512957 0.131096 -0.035492 378504.000000 0 0 1
-27.685247 13.736881 2.380901 30.997476 -0.460587 1.493911 0.121256 -0.030700 321680.000000 0 0 1
-27.111447 12.316181 2.296601 29.866256 -0.426407 1.493824 0.132233 -0.031778 -368621.000000 0 0 1
-26.961347 11.905781 0.962701 29.488789 -0.415836 1.538144 0.122009 -0.031518 236142.000000 0 0 1
-26.307147 10.659081 0.997501 28.402060 -0.384962 1.535668 0.133837 -0.030465 -234238.000000 0 0 1
-26.179947 9.992981 -0.399499 28.025148 -0.364635 1.585052 0.132827 -0.026079 96891.800000 0 0 1
-27.447347 9.547981 -0.859499 29.073348 -0.334772 1.600364 0.152002 -0.033990 503734.000000 0 0 1
-27.358247 8.812381 -2.082599 28.817858 -0.311616 1.643127 0.173258 -0.033353 135620.000000 0 0 1
-28.768347 8.542281 -2.656199 30.127127 -0.288641 1.659077 0.171395 -0.033009 60277.700000 0 0 1
-28.712347 7.740581 -3.815399 29.981207 -0.263330 1.698402 0.181169 -0.026620 -898236.000000 0 0 1
-29.942447 7.562381 -4.387499 31.192786 -0.247390 1.711922 0.189458 -0.025497 -1027420.000000 0 0 1
-11.093062 17.647481 -19.689499 28.673437 -1.009618 2.327710 0.113654 -0.027658 26342.100000 0 0 1
-11.639462 16.845181 -20.670799 29.095002 -0.966159 2.360946 0.129278 -0.034920 -502363.000000 0 0 1
-11.052362 16.967981 -21.945599 29.860952 -0.993462 2.396354 0.111231 -0.036476 86900.900000 0 0 1
-11.279662 15.723981 -22.812399 29.914544 -0.948518 2.438097 0.102976 -0.034994 4714.210000 0 0 1
-10.360362 14.733181 -22.447699 28.780253 -0.957926 2.465412 0.124488 -0.042612 -14408.100000 0 0 1
-10.437162 13.624181 -23.350699 28.979438 -0.917086 2.507767 0.107673 -0.039845 48986.000000 0 0 1
-9.558562 12.431381 -22.866999 27.727333 -0.915305 2.540485 0.090212 -0.026553 463150.000000 0 0 1
-8.166562 12.641281 -23.047199 27.525772 -0.997222 2.563114 0.077808 -0.027470 -111451.000000 0 0 1
-7.467362 11.709881 -22.298199 26.269612 -1.003118 2.584548 0.070986 -0.016452 247403.000000 0 0 1
-5.916962 11.716281 -22.334899 25.906166 -1.103140 2.610287 0.066187 -0.015661 650995.000000 0 0 1
-5.325462 11.307481 -23.583499 26.690843 -1.130643 2.654250 0.060750 -0.023189 -1569230.000000 0 0 1
-3.972462 11.211481 -23.494399 26.333716 -1.230277 2.672944 0.064860 -0.022275 -1253480.000000 0 0 1
-3.234762 11.004981 -24.870899 27.388591 -1.284912 2.709461 0.084504 -0.032214 90964.400000 0 0 1
-3.352862 9.729081 -25.396979 27.402614 -1.238920 2.756620 0.094893 -0.037059 -128139.000000 0 0 1
-2.651762 9.562681 -26.599709 28.390514 -1.300290 2.784515 0.092221 -0.038229 -499145.000000 0 0 1
-2.313862 8.048981 -26.795459 28.073773 -1.290872 2.838661 0.100159 -0.023300 7393.220000 0 0 1
-1.170962 7.554681 -26.117109 27.213007 -1.417022 2.856832 0.100401 -0.024420 24010.700000 0 0 1
-1.211962 7.421281 -24.761799 25.878388 -1.408916 2.846766 0.106568 -0.046332 395322.000000 0 0 1
-0.196462 6.376981 -24.116899 24.946529 -1.539998 2.882972 0.048249 -0.034223 1432860.000000 0 1 0
1.214638 6.607481 -24.298399 25.210045 1.388998 2.871844 0.074350 -0.006194 1258720.000000 0 0 1
2.074938 5.811281 -23.481399 24.278642 1.227852 2.884616 0.067566 0.009571 505103.000000 0 1 0
2.340138 6.364181 -21.983799 23.005792 1.218437 2.842407 0.060258 0.002118 9596.630000 0 1 0
2.882138 7.678081 -21.968799 23.449687 1.211699 2.784303 0.052928 -0.009467 191326.000000 0 1 0
2.733638 8.277181 -20.707999 22.467883 1.251813 2.743162 0.054815 -0.009796 241117.000000 0 1 0
3.115438 9.803081 -20.773899 23.181054 1.263089 2.681832 0.042564 -0.013079 103139.000000 0 1 0
2.763138 10.321181 -19.451699 22.193024 1.309215 2.639294 0.047070 -0.025572 153908.000000 0 1 0
3.167538 11.689681 -19.324399 22.806016 1.306182 2.581748 0.047833 -0.024427 -178360.000000 0 1 0
4.485038 11.770481 -18.580399 22.447517 1.206740 2.545840 0.057773 -0.031354 501588.000000 0 1 0
5.687038 11.222681 -19.158699 22.920444 1.101767 2.560527 0.062620 -0.022361 798577.000000 0 1 0
6.719838 11.039381 -18.194999 22.317754 1.023993 2.523992 0.067211 -0.017453 698527.000000 0 1 0
7.810038 10.050181 -18.746199 22.658835 0.910173 2.545123 0.096861 -0.027275 120518.000000 0 1 0
7.529938 8.692781 -18.765399 22.009194 0.856956 2.591768 0.084441 -0.023936 51286.300000 0 1 0
6.822938 8.356781 -19.973999 22.701298 0.886102 2.646367 0.061245 -0.014338 118935.000000 0 1 0
6.590838 6.821981 -20.083599 22.211023 0.802629 2.700341 0.070987 -0.020562 -42743.000000 0 1 0
7.789338 6.077681 -20.226799 22.510784 0.662586 2.687224 0.068639 -0.014593 208312.000000 0 1 0
7.571138 4.712981 -20.589099 22.437587 0.556795 2.732838 0.057256 -0.004204 -313414.000000 0 1 0
7.602138 4.500781 -22.118199 23.817310 0.534547 2.761582 0.068952 -0.008533 -67428.500000 0 1 0
6.608438 5.215381 -22.836799 24.339085 0.668121 2.788411 0.069653 -0.011365 76389.000000 0 1 0
6.633638 4.902881 -24.163199 25.532403 0.636485 2.812617 0.066836 -0.007805 -12729.700000 0 0 1
5.730338 5.738981 -25.122209 26.398827 0.786152 2.829331 0.054688 -0.008324 -63218.600000 0 0 1
6.028538 7.129081 -25.276199 26.945377 0.868847 2.787765 0.046748 -0.018783 83691.400000 0 0 1
5.581638 7.870081 -24.151499 26.007456 0.953908 2.761520 0.070500 -0.029229 -743663.000000 0 0 1
5.439838 9.394381 -24.351099 26.661250 1.045922 2.722238 0.081256 -0.041684 543707.000000 0 0 1
4.269438 9.730681 -25.107949 27.263958 1.157328 2.741233 0.074834 -0.039427 1061720.000000 0 0 1
3.085138 9.782381 -24.279499 26.357298 1.265293 2.741868 0.070447 -0.037700 -67761.800000 0 0 1
1.843238 10.102381 -25.118049 27.136176 1.390326 2.753492 0.085434 -0.024956 -395607.000000 0 0 1
1.882538 11.353681 -25.845389 28.291945 1.406483 2.722662 0.103835 -0.036377 -467415.000000 0 0 1
0.717838 11.412381 -26.614859 28.967369 1.507979 2.735794 0.123389 -0.041758 -141023.000000 0 0 1
0.341138 12.905281 -26.963799 29.894968 1.544369 2.695063 0.116917 -0.044828 -124286.000000 0 0 1
-0.104362 13.480381 -25.770709 29.083690 -1.563055 2.659632 0.109619 -0.044152 -212655.000000 0 0 1
-0.312362 14.851981 -26.054749 29.992147 -1.549768 2.623407 0.110278 -0.050090 -129296.000000 0 0 1
-0.849462 15.610581 -24.835299 29.346276 -1.516434 2.579768 0.115040 -0.048184 -556221.000000 0 0 1
-2.030162 15.055181 -24.365499 28.713370 -1.436757 2.584086 0.096231 -0.038884 -722097.000000 0 0 1
-2.403362 15.700181 -23.155999 28.079746 -1.418897 2.540382 0.093946 -0.043226 468998.000000 0 0 1
-3.679462 15.055981 -22.491399 27.314539 -1.331109 2.538212 0.077588 -0.037593 2578100.000000 0 0 1
-5.043762 15.343981 -22.959799 28.071866 -1.253210 2.528537 0.080812 -0.039547 1681900.000000 0 0 1
-5.328462 14.987381 -24.318699 29.058790 -1.229204 2.562353 0.080249 -0.041634 -663185.000000 0 0 1
-6.817262 15.074881 -24.655599 29.692182 -1.146092 2.550574 0.058006 -0.041217 -116953.000000 0 0 1
-7.261062 16.366681 -25.131939 30.857830 -1.153236 2.522565 0.062620 -0.044988 504244.000000 0 0 1
-8.667462 16.364981 -25.362829 31.403991 -1.083723 2.510920 0.075168 -0.037993 478027.000000 0 0 1
-9.413862 17.685381 -25.733439 32.612933 -1.081647 2.480068 0.075168 -0.036383 -143245.000000 0 0 1
-9.659762 18.612881 -24.732099 32.425717 -1.092078 2.438322 0.076974 -0.035642 13285.900000 0 0 1
-10.947362 19.145981 -24.967199 33.313276 -1.051382 2.418053 0.065116 -0.017978 342220.000000 0 0 1
-11.540962 20.108781 -23.859699 33.269237 -1.049769 2.370529 0.067069 -0.022520 -6160.850000 0 0 1
-10.923462 21.348781 -23.653699 33.683675 -1.097859 2.349322 0.080236 -0.022320 -29378.800000 0 0 1
-11.737862 22.469281 -23.977699 34.893783 -1.089393 2.328372 0.056473 -0.020551 96115.200000 0 0 1
-11.486862 22.961481 -25.455969 36.155000 -1.106935 2.351921 0.054419 -0.013226 843.962000 0 0 1
-12.064662 22.188281 -26.470459 36.586352 -1.072772 2.379665 0.047815 -0.018701 -90112.000000 0 0 1
-11.939962 22.954681 -27.647759 37.866591 -1.091156 2.389317 0.070360 -0.008911 -368991.000000 0 0 1
-12.319062 22.131881 -28.897609 38.427221 -1.062884 2.421901 0.064993 -0.015576 22519.400000 0 0 1
-11.367862 21.147281 -29.266599 37.854585 -1.077557 2.454561 0.062127 -0.014145 123371.000000 0 0 1
-11.078562 20.087181 -28.353499 36.471226 -1.066784 2.461352 0.056448 -0.019339 -701613.000000 0 0 1
-10.307362 19.049281 -29.076879 36.257161 -1.074820 2.501369 0.055001 -0.021680 -898940.000000 0 0 1
-8.970262 19.516781 -29.205479 36.253695 -1.139973 2.507461 0.045575 -0.019921 300983.000000 0 0 1
-8.068062 18.604281 -29.833449 36.072810 -1.161608 2.544608 0.038631 -0.013313 371607.000000 0 0 1
-7.674562 17.277781 -29.132969 34.729678 -1.152787 2.565962 0.060457 -0.035451 -1001670.000000 0 0 1
-8.690762 16.331181 -29.027479 34.421380 -1.081755 2.574187 0.038020 -0.033032 -181167.000000 0 0 1
-8.194762 15.118581 -28.572419 33.348295 -1.074091 2.599805 0.042246 -0.037660 -56591.900000 0 0 1
-9.403662 14.198781 -28.398639 33.113698 -0.985832 2.601401 0.045254 -0.028931 442539.000000 0 0 1
-10.321162 14.464781 -27.330229 32.599045 -0.951043 2.565092 0.055705 -0.033994 333097.000000 0 0 1
-11.519462 13.703781 -27.409229 32.737707 -0.871782 2.563008 0.090429 -0.033940 291976.000000 0 0 1
-12.494362 14.198381 -26.326629 32.415961 -0.849150 2.518624 0.083611 -0.031264 -251375.000000 0 0 1
-13.110162 15.403381 -26.693969 33.491917 -0.865651 2.493153 0.072299 -0.032306 119134.000000 0 0 1
-14.145262 15.751381 -25.742059 33.329388 -0.839069 2.453334 0.059275 -0.026776 512103.000000 0 0 1
-15.074562 16.811081 -26.302129 34.664923 -0.839805 2.432194 0.045102 -0.019180 -145007.000000 0 0 1
-14.599862 18.149981 -26.085579 34.971921 -0.893378 2.412682 0.053269 -0.017636 35816.300000 0 0 1
-15.480762 19.032581 -26.700749 36.260490 -0.887949 2.398470 0.035530 -0.011969 -188249.000000 0 0 1
-15.034962 20.490781 -26.484029 36.705940 -0.937781 2.376790 0.026895 -0.010735 505864.000000 0 0 1
-15.964562 21.409381 -27.098629 38.046873 -0.930065 2.363485 0.008239 -0.002598 713203.000000 0 0 1
-15.498862 22.796481 -27.103939 38.658994 -0.973702 2.347740 0.012644 -0.003297 -241526.000000 0 0 1
-15.549062 23.581681 -25.732019 38.210023 -0.987862 2.309644 -0.016648 0.006248 146703.000000 0 0 1
-14.923962 24.859981 -25.934249 38.901525 -1.030141 2.300521 0.015960 -0.002827 225633.000000 0 0 1
-14.560262 25.448781 -24.705799 38.340817 -1.051114 2.271000 0.032053 -0.005807 -187682.000000 0 0 1
-14.095962 26.912481 -24.927099 39.298067 -1.088314 2.257910 0.061159 -0.005516 -148982.000000 0 0 1
-15.062662 27.808581 -25.421669 40.576622 -1.074382 2.247864 0.071765 -0.009977 -200945.000000 0 0 1
-15.455162 28.819481 -24.473799 40.845947 -1.078552 2.213264 0.077056 -0.010596 296944.000000 0 0 1
-16.873962 29.363481 -24.745399 41.943765 -1.049219 2.201813 0.069035 -0.008255 818769.000000 0 0 1
-17.989262 28.480481 -24.582099 41.701690 -1.007440 2.201205 0.041742 -0.001248 741087.000000 0 0 1
-19.170062 28.962481 -25.248899 42.939766 -0.986106 2.199389 0.046478 -0.003764 279065.000000 0 0 1
-20.268062 27.911881 -25.240279 42.742709 -0.942738 2.202495 0.039463 0.012510 -403854.000000 0 0 1
-20.919262 27.920781 -23.990899 42.340865 -0.927784 2.173186 0.037777 0.021458 -524524.000000 0 0 1
-21.930462 26.954481 -23.969699 42.214165 -0.887811 2.174641 0.043845 0.005893 -298828.000000 0 0 1
-22.525862 26.745481 -22.583899 41.626527 -0.870830 2.144250 0.050583 0.005249 -478759.000000 0 0 1
-23.469462 27.721581 -22.252399 42.596608 -0.868272 2.120458 0.049420 0.008580 -427342.000000 0 0 1
-23.671062 27.773981 -20.920899 42.064204 -0.864983 2.091345 0.035212 0.009374 -169378.000000 0 0 1
-25.017662 28.423281 -20.538099 43.076442 -0.849039 2.067787 0.015724 0.009963 279242.000000 0 0 1
-26.154732 27.669181 -20.952899 43.458919 -0.813528 2.073882 0.016004 0.007201 403170.000000 0 0 1
-27.321922 28.466481 -20.687699 44.551194 -0.805911 2.053706 0.029924 -0.001626 486463.000000 0 0 1
-28.642702 27.757981 -21.028399 45.089949 -0.769713 2.055974 0.029361 -0.004615 -78225.500000 0 0 1
-28.719412 27.434181 -22.407399 45.601869 -0.762514 2.084459 0.022483 0.002838 326015.000000 0 0 1
-30.010422 26.881681 -22.673899 46.231547 -0.730459 2.083393 0.026287 -0.000005 611087.000000 0 0 1
-30.351092 26.591781 -24.158699 47.031419 -0.719475 2.110255 0.025033 0.005808 477621.000000 0 0 1
-29.579132 25.484881 -24.657599 46.177933 -0.711180 2.134085 0.040447 0.015744 204730.000000 0 0 1
-29.817642 25.366681 -26.061729 47.029502 -0.704916 2.158146 0.061390 0.013080 136994.000000 0 0 1
-29.994632 23.884781 -26.484049 46.600060 -0.672482 2.175267 0.066215 0.009246 -38379.700000 0 0 1
-28.851402 23.146381 -26.163869 45.306804 -0.676119 2.186438 0.080427 -0.000992 -315727.000000 0 0 1
-29.134272 21.849881 -26.600459 45.097756 -0.643483 2.201657 0.098064 -0.010843 -262546.000000 0 0 1
-28.123672 20.689481 -26.512999 43.839876 -0.634261 2.220272 0.100515 -0.013730 -380313.000000 0 0 1
-27.784992 20.272681 -25.189079 42.631879 -0.630334 2.202909 0.098842 -0.011856 74296.300000 0 0 1
-27.219992 18.971281 -25.163649 41.641887 -0.608684 2.219667 0.093105 -0.018923 -374497.000000 0 0 1
-28.175892 17.781181 -25.191229 41.769000 -0.562958 2.218188 0.081770 -0.018370 -144572.000000 0 0 1
-28.986132 17.651781 -26.373069 42.980461 -0.546991 2.231416 0.078552 -0.020747 465647.000000 0 0 1
-29.594842 16.359581 -26.367989 42.880782 -0.504979 2.233073 0.064445 -0.023832 -171299.000000 0 0 1
-30.520142 16.118081 -27.566889 44.172446 -0.485884 2.244743 0.049073 -0.024616 238676.000000 0 0 1
-31.812612 16.707981 -27.516769 45.258939 -0.483604 2.224317 0.043357 -0.027103 174709.000000 0 0 1
-32.499082 16.329681 -28.673289 46.314213 -0.465618 2.238397 0.051944 -0.028020 560899.000000 0 0 1
-33.874382 16.999281 -29.011259 47.729472 -0.465113 2.224117 0.062380 -0.032946 873725.000000 0 0 1
-34.959690 16.655681 -28.168079 47.885618 -0.444611 2.199673 0.037768 -0.026205 725107.000000 0 0 1
-36.232532 16.843281 -28.801479 49.254622 -0.435148 2.195364 0.036868 -0.024644 843564.000000 0 0 1
36.782842 16.519481 -27.938009 49.055103 0.422112 2.176722 0.041269 -0.017990 -11539.700000 0 0 1
36.524922 17.506881 -26.950769 48.650846 0.446962 2.157913 0.038918 -0.017902 189798.000000 0 0 1
35.552202 17.083581 -25.995689 47.239641 0.447943 2.153513 0.046943 -0.012438 162500.000000 0 0 1
35.132242 18.273581 -25.086049 46.877586 0.479627 2.135469 0.055542 -0.010712 227611.000000 0 0 1
34.204372 19.148081 -25.738319 46.894021 0.510347 2.151798 0.067338 -0.025379 405634.000000 0 0 1
33.878882 20.266181 -24.909399 46.679492 0.539091 2.133679 0.089799 -0.018720 -754483.000000 0 0 1
33.262522 21.472681 -25.630509 47.163486 0.573242 2.145326 0.102222 -0.028602 683060.000000 0 0 1
31.919462 21.227981 -26.087659 46.368580 0.586881 2.168342 0.087343 -0.024822 1163640.000000 0 0 1
30.922762 21.442281 -25.060019 45.210543 0.606292 2.158313 0.092206 -0.013208 826211.000000 0 0 1
29.430292 21.233381 -25.494509 44.350520 0.624997 2.183206 0.055217 -0.016480 893898.000000 0 0 1
29.177262 19.891581 -25.814829 43.742349 0.598372 2.202049 0.057248 -0.025008 -96346.000000 0 0 1
27.917822 19.826981 -26.467139 43.278441 0.617533 2.228821 0.061803 -0.016776 270102.000000 0 0 1
27.358822 18.360781 -26.777159 42.457505 0.591073 2.253227 0.073378 -0.014852 -21065.200000 0 0 1
28.174122 17.517781 -27.551959 43.124985 0.556272 2.263846 0.072281 -0.026280 401492.000000 0 0 1
29.240092 16.873681 -26.844939 43.131832 0.523391 2.242592 0.075010 -0.023065 1217120.000000 0 0 1
30.284462 15.947981 -27.649239 43.999627 0.484705 2.250287 0.043044 -0.009553 857903.000000 0 0 1
29.764502 14.700381 -28.197159 43.555787 0.458747 2.274939 0.053217 -0.009043 335153.000000 0 0 1
29.055222 13.844281 -27.299069 42.203190 0.444657 2.274241 0.071811 -0.014162 -29651.500000 0 0 1
29.873042 13.046181 -26.242519 41.848194 0.411756 2.248606 0.071686 -0.010822 30869.400000 0 0 1
30.432042 13.887181 -25.218089 41.891706 0.428109 2.216778 0.062569 -0.012222 315699.000000 0 0 1
31.481282 13.215181 -24.548899 42.051880 0.397440 2.194169 0.045899 -0.008454 7290.330000 0 0 1
-14.970662 -30.910670 -23.690399 41.723198 1.119771 2.174626 0.168572 -0.026030 -97555.600000 0 0 1
-14.072262 -29.996470 -24.239999 41.053554 1.132148 2.202410 0.151977 -0.033732 -209954.000000 0 0 1
-14.381262 -29.691370 -25.559189 41.733324 1.119740 2.229941 0.131431 -0.021994 -82610.200000 0 0 1
-13.705362 -28.415470 -26.050499 40.913377 1.121392 2.261038 0.117496 -0.022465 -245764.000000 0 0 1
-14.179262 -27.230570 -25.453759 39.880437 1.090717 2.263022 0.105449 -0.025798 116441.000000 0 0 1
-13.605062 -26.086970 -26.078269 39.315440 1.090076 2.296028 0.083894 -0.017505 61821.000000 0 0 1
-14.216062 -24.792770 -25.457109 38.273258 1.050169 2.298479 0.041755 -0.018694 540771.000000 0 0 1
-13.564762 -24.380970 -24.220199 36.946617 1.063078 2.285701 0.066557 -0.029021 314977.000000 0 0 1
-13.950262 -23.087270 -23.916499 36.050392 1.027265 2.296175 0.056010 -0.017455 -51336.300000 0 0 1
-13.451562 -22.662970 -22.510699 34.659577 1.035134 2.277697 0.067306 -0.019345 365231.000000 0 0 1
-12.037162 -22.596970 -22.474699 34.067997 1.081341 2.291217 0.081039 -0.037425 -117653.000000 0 0 1
-11.568362 -21.906670 -21.364499 32.713468 1.084942 2.282440 0.069068 -0.029816 1588130.000000 0 0 1
-9.997362 -21.625570 -21.467399 32.069639 1.137766 2.304196 0.071292 -0.035497 1506620.000000 0 0 1
-9.745162 -20.565270 -22.353599 31.899560 1.128274 2.347244 0.081726 -0.038700 120996.000000 0 0 1
-8.351762 -20.482770 -22.583899 31.612154 1.183630 2.366571 0.107070 -0.043872 -30611.000000 0 0 1
-7.867862 -19.158370 -23.183899 31.087611 1.181121 2.412471 0.118613 -0.029584 -382776.000000 0 0 1
-7.970562 -17.961770 -22.412099 29.807000 1.153151 2.421747 0.086420 -0.029579 -80199.800000 0 0 1
-7.990762 -16.759070 -23.119799 29.652046 1.125879 2.464988 0.077616 -0.024240 -192046.000000 0 0 1
-6.732862 -16.327870 -23.949699 29.757669 1.179686 2.506176 0.095776 -0.033534 124841.000000 0 0 1
-6.538362 -17.117070 -25.116969 31.090294 1.205921 2.511328 0.112432 -0.032500 -171447.000000 0 0 1
-5.539462 -16.540270 -25.915809 31.239324 1.247630 2.549168 0.082118 -0.034766 -271839.000000 0 0 1
-5.319062 -17.221070 -27.252349 32.673356 1.271222 2.557268 0.099281 -0.022971 593119.000000 0 0 1
-6.473162 -17.221370 -28.109369 33.594852 1.211255 2.562056 0.126134 -0.026040 568728.000000 0 0 1
-6.137262 -17.949970 -29.226869 34.843612 1.241347 2.565874 0.124494 -0.029879 286122.000000 0 0 1
-7.258662 -17.865070 -30.321759 35.934078 1.184867 2.575152 0.126885 -0.030296 471176.000000 0 0 1
-7.371362 -16.753370 -31.170119 36.146766 1.156295 2.610632 0.106253 -0.024515 -131956.000000 0 0 1
-7.415262 -15.422870 -30.538589 35.006520 1.122629 2.630823 0.088236 -0.021861 -91564.500000 0 0 1
-7.939162 -14.281570 -31.486549 35.473882 1.063433 2.662900 0.068997 -0.024052 -211277.000000 0 0 1
-7.129962 -13.945370 -32.584859 36.153600 1.098167 2.693533 0.091389 -0.027442 4449.040000 0 0 1
-7.818662 -13.139870 -33.571519 36.889491 1.034037 2.714217 0.089372 -0.025961 -366973.000000 0 0 1
-7.998762 -11.629670 -33.284949 36.154077 0.968313 2.740517 0.060300 -0.024483 670146.000000 0 0 1
-6.826662 -10.804570 -33.447469 35.806078 1.007300 2.776605 0.055663 -0.024966 287190.000000 0 0 1
-6.453562 -10.521070 33.135212 35.359350 1.020586 0.356572 0.045936 -0.026484 417507.000000 0 0 1
-5.435362 -9.319670 33.157545 34.868642 1.042811 0.314577 0.063836 -0.029944 534495.000000 0 0 1
-5.147162 -8.844070 31.871562 33.473980 1.043725 0.310668 0.052154 -0.024877 -1208250.000000 0 0 1
-4.095362 -7.989070 31.814275 33.056699 1.097103 0.275036 0.048167 -0.034108 -1626960.000000 0 0 1
-4.120562 -7.055070 30.572925 31.645802 1.042182 0.261136 0.046913 -0.027103 155307.000000 0 0 1
-5.058462 -5.995470 30.510805 31.503062 0.869963 0.251650 0.038192 -0.019339 -18811.000000 0 0 1
-6.375762 -6.489570 30.343585 31.678037 0.794244 0.291289 0.042955 -0.017065 -10818.100000 0 0 1
-7.542562 -5.439870 30.230565 31.628618 0.624828 0.298435 0.037313 -0.013837 966358.000000 0 0 1
-8.710162 -6.128770 29.763785 31.611891 0.613161 0.343631 0.051809 -0.010505 422253.000000 0 0 1
-9.854462 -5.255270 29.850705 31.871506 0.489922 0.358012 0.052891 -0.014471 452560.000000 0 0 1
-10.993262 -5.762470 28.957935 31.505871 0.482805 0.404934 0.061298 -0.010336 -255876.000000 0 0 1
-10.627662 -5.758770 27.604455 30.134973 0.496577 0.412735 0.056715 -0.011741 293478.000000 0 0 1
-11.647162 -6.337470 26.815155 29.914419 0.498319 0.459226 0.065850 -0.011047 140982.000000 0 0 1
-11.287862 -6.222770 25.317645 28.409890 0.503825 0.470909 0.053108 -0.011830 175199.000000 0 0 1
-10.152762 -7.003870 24.967895 27.848313 0.603880 0.458838 0.056269 -0.011560 390544.000000 0 0 1
-9.541762 -6.588270 23.719775 26.402240 0.604299 0.454683 0.053912 -0.013237 -331368.000000 0 0 1
-10.349462 -6.785470 22.443945 25.629761 0.580326 0.503916 0.058516 -0.016940 -517925.000000 0 0 1
-11.420762 -5.903970 22.309445 25.748825 0.477116 0.522798 0.045008 -0.013331 -499988.000000 0 0 1
-12.255662 -6.197870 21.199245 25.259114 0.468209 0.574855 0.045855 -0.014053 897383.000000 0 0 1
-13.560562 -5.305670 21.280645 25.785749 0.372947 0.600086 0.049421 -0.008254 442385.000000 0 0 1
-13.282662 -3.989270 20.788845 24.990388 0.291766 0.588321 0.040789 -0.007938 855049.000000 0 1 0
-14.492862 -3.192770 20.729645 25.494215 0.216836 0.621318 0.047130 -0.008519 961310.000000 0 0 1
-14.289362 -1.761670 20.255745 24.851249 0.122666 0.617930 0.040623 0.002301 -209624.000000 0 1 0
-13.422562 -0.996670 21.057245 24.991320 0.074117 0.568736 0.030049 -0.002582 -232605.000000 0 1 0
-13.450762 0.369330 20.764245 24.742944 -0.027451 0.574988 0.033531 -0.004687 -274456.000000 0 1 0
-12.930362 0.980330 19.437245 23.365826 -0.075671 0.588334 0.051727 -0.011812 -182258.000000 0 1 0
-13.591162 0.658330 18.239145 22.755648 -0.048400 0.640961 0.058994 -0.012388 -569134.000000 0 1 0
-14.826362 1.282330 18.047245 23.391632 -0.086275 0.689561 0.059253 -0.015056 -110164.000000 0 1 0
-15.797362 0.385330 17.208045 23.362833 -0.024387 0.742831 0.077636 -0.007612 102748.000000 0 1 0
-16.149262 -0.842670 17.820745 24.064242 0.052133 0.736910 0.057909 -0.002531 98514.200000 0 1 0
-17.080862 -1.545670 17.034645 24.172796 0.090246 0.788792 0.057152 0.003778 -73194.600000 0 1 0
-17.076462 -3.064670 17.301145 24.501579 0.177577 0.786788 0.063275 0.005313 -102050.000000 0 1 0
-17.571162 -3.395170 18.543545 25.770836 0.190872 0.767634 0.057569 0.002799 -159116.000000 0 0 1
-17.358962 -4.779170 18.833145 26.054969 0.268658 0.762917 0.067558 -0.005775 42768.100000 0 0 1
-18.086462 -5.246170 20.162945 27.589613 0.282313 0.751279 0.063761 0.001397 298828.000000 0 0 1
-17.654462 -4.534870 21.362945 28.082388 0.251432 0.706369 0.055322 -0.001916 10108.000000 0 0 1
-18.515762 -4.668370 22.468445 29.486576 0.246982 0.704417 0.054264 -0.013254 -502317.000000 0 0 1
-18.598562 -6.134670 23.008945 30.215100 0.318609 0.705165 0.078185 -0.013569 1178390.000000 0 0 1
-17.414162 -6.633770 23.674325 30.128618 0.363969 0.666848 0.042407 -0.012833 1684000.000000 0 0 1
-16.167062 -6.791070 22.979185 28.905631 0.397675 0.651834 0.058988 -0.016216 263207.000000 0 0 1
-15.070062 -7.494270 23.807745 29.156124 0.461481 0.615369 0.071692 -0.013965 -31370.400000 0 0 1
-15.354162 -8.873070 24.046015 29.877960 0.524006 0.635445 0.075435 -0.013529 -21434.700000 0 0 1
-15.212262 -9.178170 25.425205 31.017620 0.542872 0.609906 0.073533 -0.010361 522568.000000 0 0 1
-16.327762 -10.183370 25.884505 32.253751 0.557653 0.639278 0.069200 -0.010787 74858.200000 0 0 1
-16.027762 -11.566870 25.625305 32.362600 0.625127 0.657016 0.069448 -0.016777 10993.400000 0 0 1
-15.146262 -12.130770 26.588405 32.916685 0.675295 0.630473 0.072205 -0.016632 237161.000000 0 0 1
-15.027762 -13.692070 26.594405 33.474898 0.738924 0.652681 0.073545 -0.022368 585765.000000 0 0 1
-16.114262 -14.356870 27.284995 34.788793 0.727788 0.669223 0.064435 -0.025067 659972.000000 0 0 1
-16.293462 -15.719570 26.960205 35.205602 0.767473 0.698523 0.078528 -0.015357 -258632.000000 0 0 1
-15.292762 -16.666170 27.622265 35.701811 0.828346 0.686146 0.088828 -0.019453 361908.000000 0 0 1
-13.982562 -16.571270 27.055685 34.671734 0.869922 0.675590 0.071822 -0.024033 548850.000000 0 0 1
-13.069062 -17.312870 27.862075 35.310495 0.924182 0.661520 0.078520 -0.019550 -291905.000000 0 0 1
-11.658862 -17.476370 27.304145 34.450964 0.982479 0.655815 0.078135 -0.022574 -630340.000000 0 0 1
-10.797862 -18.103570 28.209505 35.215185 1.032992 0.641731 0.077268 -0.026256 -921795.000000 0 0 1
-9.707862 -18.563470 27.487725 34.560382 1.088954 0.651206 0.069625 -0.025580 -485504.000000 0 0 1
-8.655962 -19.270870 28.382275 35.381431 1.148630 0.639859 0.082050 -0.031570 201490.000000 0 0 1
-9.094062 -20.549470 28.811435 36.538767 1.154159 0.662403 0.070935 -0.021719 679902.000000 0 0 1
-8.113062 -21.105270 29.716945 37.341010 1.203802 0.650426 0.088509 -0.025073 726549.000000 0 0 1
-8.491762 -22.577870 30.165455 38.624149 1.211053 0.674531 0.071799 -0.025543 243457.000000 0 0 1
-8.431762 -23.551670 29.141245 38.405572 1.227002 0.709364 0.079976 -0.027212 24114.200000 0 0 1
-8.815662 -24.765370 29.762455 39.709485 1.228815 0.723482 0.065045 -0.022463 -299869.000000 0 0 1
-8.971762 -25.949070 28.830625 39.812707 1.237917 0.760986 0.067320 -0.018247 576710.000000 0 0 1
-10.173562 -25.910070 28.016355 39.493661 1.196643 0.782166 0.057939 -0.019728 656762.000000 0 0 1
-10.258462 -26.968970 27.090515 39.578496 1.207317 0.816912 0.065904 -0.013272 -160269.000000 0 0 1
-11.706662 -27.287170 26.614305 39.874262 1.165528 0.840010 0.065623 -0.015425 597369.000000 0 0 1
-12.207662 -26.696170 25.392145 38.813316 1.141904 0.857656 0.073385 -0.021168 203785.000000 0 0 1
-12.150062 -25.292770 25.387455 37.840072 1.122970 0.835355 0.064335 -0.010871 -685217.000000 0 0 1
-12.466762 -24.723070 23.971145 36.623300 1.103750 0.857232 0.080155 -0.026267 705115.000000 0 0 1
-13.802362 -25.046970 23.561025 37.053715 1.067140 0.881672 0.073136 -0.016542 585846.000000 0 0 1
-14.007462 -24.473870 22.266345 35.930063 1.050961 0.902419 0.070225 -0.019769 107203.000000 0 0 1
-15.323562 -24.838570 21.529845 36.267070 1.018024 0.935213 0.066003 -0.023331 47836.100000 0 0 1
-15.419662 -26.158170 21.038145 36.940755 1.038150 0.964886 0.081003 -0.016448 438574.000000 0 0 1
-16.711262 -26.290370 20.440245 37.259273 1.004581 0.990114 0.080536 -0.021145 731603.000000 0 0 1
-17.045962 -27.708470 19.991745 38.183688 1.019283 1.019763 0.086588 -0.031943 105424.000000 0 0 1
-16.041762 -28.091970 19.076745 37.555547 1.051940 1.037981 0.079783 -0.025009 2664.750000 0 0 1
-16.149362 -29.381270 18.485345 38.285361 1.068223 1.066912 0.098396 -0.019713 380189.000000 0 0 1
-15.117362 -29.562270 17.312845 37.445921 1.098091 1.090161 0.094864 -0.038944 323731.000000 0 0 1
-15.289762 -28.654370 16.206945 36.297587 1.080637 1.107944 0.088681 -0.042087 329035.000000 0 0 1
-14.296362 -28.857870 15.188745 35.607030 1.110831 1.130104 0.095704 -0.039784 243017.000000 0 0 1
-14.613462 -28.265370 13.780045 34.675266 1.093634 1.162112 0.088037 -0.043433 -292648.000000 0 0 1
-14.458262 -26.862370 13.692445 33.438171 1.077031 1.148906 0.093133 -0.039841 -104142.000000 0 0 1
-14.715862 -26.272870 12.422545 32.575143 1.060219 1.179540 0.091261 -0.049514 122818.000000 0 0 1
-13.823662 -26.750170 11.259445 32.147167 1.093824 1.212962 0.092198 -0.034542 80066.600000 0 0 1
-14.270062 -26.103170 10.128645 31.426097 1.070506 1.242638 0.075584 -0.035453 -459328.000000 0 0 1
-13.547162 -26.493170 9.025645 31.094628 1.098114 1.276294 0.079526 -0.028925 -338926.000000 0 0 1
-13.928162 -25.838570 7.676745 30.340695 1.076402 1.314998 0.093508 -0.031891 637365.000000 0 0 1
-15.112062 -26.382770 7.068545 31.215209 1.050617 1.342369 0.080804 -0.040366 523313.000000 0 0 1
-15.587562 -25.543570 6.019545 30.523450 1.022886 1.372285 0.082914 -0.032898 535726.000000 0 0 1
-16.463062 -26.372570 5.007645 31.490020 1.012737 1.411095 0.076461 -0.040523 786700.000000 0 0 1
-15.601262 -27.159970 4.198845 31.602114 1.049397 1.437536 0.081633 -0.028926 74467.400000 0 0 1
-16.358762 -27.784370 3.229945 32.403902 1.038671 1.470953 0.095627 -0.030373 -262442.000000 0 0 1
-15.592362 -28.919870 2.505445 32.950840 1.076316 1.494687 0.089602 -0.035149 700820.000000 0 0 1
-14.464162 -28.473570 1.716145 31.982828 1.100781 1.517112 0.076648 -0.021713 596202.000000 0 0 1
-13.718562 -29.594770 1.253145 32.643831 1.136734 1.532398 0.060187 -0.026034 1364430.000000 0 0 1
-12.247862 -29.285570 0.728745 31.751942 1.174681 1.547843 0.071082 -0.023616 963755.000000 0 0 1
-12.090262 -28.618470 -0.560355 31.072580 1.171076 1.588831 0.072501 -0.016500 -52149.400000 0 0 1
-12.553562 -27.243770 -0.515155 30.001338 1.139009 1.587968 0.071364 -0.022616 -145948.000000 0 0 1
-12.235162 -26.432170 -1.750255 29.179139 1.137276 1.630815 0.084311 -0.026658 395138.000000 0 0 1
-10.825062 -26.347670 -1.885155 28.547075 1.180968 1.636881 0.071760 -0.026781 -96014.400000 0 0 1
-10.423562 -25.752570 -3.155955 27.960786 1.186195 1.683908 0.085371 -0.025505 -92719.600000 0 0 1
-8.984862 -26.115070 -3.504155 27.838889 1.239433 1.697004 0.075446 -0.022983 -277056.000000 0 0 1
-8.497962 -25.354470 -4.591855 27.132077 1.247397 1.740856 0.067706 -0.021294 -282094.000000 0 0 1
-7.219862 -25.789670 -5.007355 27.245313 1.297832 1.755635 0.054722 -0.010745 266411.000000 0 0 1
-6.494062 -24.859370 -6.003355 26.385628 1.315275 1.800330 0.049097 -0.008279 -58765.600000 0 0 1
-6.869562 -24.974170 -7.386755 26.934442 1.302368 1.848605 0.059268 -0.006953 -301386.000000 0 0 1
-6.274662 -23.960170 -8.081755 26.053328 1.314669 1.886200 0.043530 -0.004202 -463440.000000 0 0 1
-6.669562 -23.926970 -9.536355 26.606860 1.298950 1.937368 0.052847 -0.008428 -11207.200000 0 0 1
-6.011662 -24.993770 -10.287055 27.688483 1.334754 1.951451 0.032729 -0.009976 283380.000000 0 0 1
-6.110362 -24.914170 -11.700355 28.194870 1.330287 1.998719 0.025248 -0.005272 656214.000000 0 0 1
-7.558862 -25.257970 -12.214755 29.056870 1.280013 2.004654 0.038454 -0.013314 659120.000000 0 0 1
-7.694962 -25.246870 -13.613855 29.697709 1.274952 2.047007 0.047962 -0.014638 456574.000000 0 0 1
-8.560162 -26.344270 -13.994055 31.034344 1.256624 2.038594 0.076704 -0.014765 -208094.000000 0 0 1
-8.791162 -26.491170 -15.506655 31.929969 1.250379 2.077898 0.081245 -0.023038 369170.000000 0 0 1
-7.747762 -27.072670 -16.292355 32.533031 1.292063 2.095312 0.060271 -0.033388 1133690.000000 0 0 1
-6.512562 -26.340370 -16.353255 31.680554 1.328411 2.113195 0.067931 -0.028571 -192637.000000 0 0 1
-5.291662 -26.980570 -16.953255 32.301172 1.377126 2.123335 0.071006 -0.027613 -640057.000000 0 0 1
-5.235762 -26.885370 -18.342855 32.965082 1.378460 2.160883 0.124374 -0.035325 -120842.000000 0 0 1
-4.117062 -27.588370 -18.793855 33.634466 1.422658 2.163696 0.114000 -0.038458 -477694.000000 0 0 1
-25.616412 14.750481 -5.539799 30.074352 -0.522451 1.756058 0.109855 -0.020927 -20022.300000 0 0 1
-25.426462 13.501781 -4.886799 29.200752 -0.488149 1.738939 0.109982 -0.020794 -85010.200000 0 0 1
-24.079862 13.117281 -4.852699 27.846930 -0.498796 1.745954 0.129962 -0.026841 -620746.000000 0 0 1
-23.940962 11.627581 -4.341399 26.966981 -0.452124 1.732489 0.133586 -0.024475 48439.400000 0 0 1
-24.414162 10.609481 -5.229699 27.128623 -0.409942 1.764785 0.129402 -0.013430 1168040.000000 0 0 1
-25.852562 10.514481 -5.288799 28.405645 -0.386277 1.758078 0.148444 -0.019472 682146.000000 0 0 1
-26.407432 9.746481 -6.510399 28.891723 -0.353571 1.798086 0.165829 -0.018621 -2890.270000 0 0 1
-26.378082 10.530281 -7.689399 29.424767 -0.379821 1.835190 0.193671 -0.019698 48030.700000 0 0 1
-26.894772 9.814681 -8.777399 29.944941 -0.349912 1.868283 0.186754 -0.019411 -220806.000000 0 0 1
-27.232832 10.704081 -9.984399 30.917515 -0.374508 1.899627 0.164283 -0.023193 604700.000000 0 0 1
-26.130732 11.351481 -10.649999 30.415354 -0.409815 1.928530 0.157712 -0.021028 764439.000000 0 0 1
-26.663532 12.078281 -11.700799 31.523603 -0.425337 1.951071 0.145972 -0.021905 -290090.000000 0 0 1
-25.682162 13.083981 -12.263299 31.323355 -0.471185 1.973065 0.120781 -0.016950 -300039.000000 0 0 1
-25.568892 14.229581 -11.454499 31.423793 -0.507835 1.943910 0.121728 -0.020415 231049.000000 0 0 1
-24.594062 15.120981 -11.958099 31.249130 -0.551247 1.963481 0.106338 -0.023002 -65191.500000 0 0 1
-24.685562 16.468781 -11.284299 31.747963 -0.588332 1.934174 0.112038 -0.020159 130300.000000 0 0 1
-23.854262 16.712081 -10.143999 30.841858 -0.611122 1.905939 0.108055 -0.014697 241792.000000 0 0 1
-23.900862 18.110381 -9.841599 31.560960 -0.648429 1.887913 0.086655 -0.008260 393276.000000 0 0 1
-22.777162 18.448481 -8.795999 30.602536 -0.680782 1.862336 0.080282 -0.011342 352896.000000 0 0 1
-22.872062 17.812781 -7.490499 29.942177 -0.661680 1.823648 0.093036 -0.013255 511474.000000 0 0 1
-23.820462 18.526281 -6.660599 30.903092 -0.661024 1.788033 0.084367 -0.016592 178811.000000 0 0 1
-23.994762 17.981681 -5.215599 30.435045 -0.643117 1.743015 0.077491 -0.010302 185834.000000 0 0 1
-22.871662 18.010781 -4.344099 29.434204 -0.667055 1.718924 0.074713 -0.024430 316545.000000 0 0 1
-23.295062 17.625081 -3.069099 29.372143 -0.647713 1.675478 0.060385 -0.017435 -588253.000000 0 0 1
-22.139262 17.270681 -2.155899 28.161521 -0.662484 1.647426 0.067498 -0.034861 -398764.000000 0 0 1
-21.379462 18.399681 -1.749499 28.261112 -0.710630 1.632741 0.057569 -0.037422 702874.000000 0 0 1
-20.302462 18.060381 -0.861999 27.186585 -0.727020 1.602508 0.115830 -0.051197 505961.000000 0 0 1
-19.792962 19.306181 -0.134399 27.649739 -0.772949 1.575657 0.102839 -0.051453 200611.000000 0 0 1
-20.856162 19.832381 0.654001 28.787681 -0.760242 1.548076 0.088749 -0.038101 457486.000000 0 0 1
-20.807162 21.256081 0.763301 29.754691 -0.796070 1.545140 0.101154 -0.042097 160679.000000 0 0 1
-21.898162 21.820181 1.713401 30.961033 -0.783614 1.515427 0.064116 -0.030779 -56624.600000 0 0 1
-21.734362 21.408481 3.011701 30.655765 -0.777845 1.472395 0.103206 -0.028671 1098030.000000 0 0 1
-22.957462 21.312981 3.794401 31.554488 -0.748269 1.450255 0.078790 -0.019630 868570.000000 0 0 1
-22.708762 21.027581 5.266301 31.393964 -0.746978 1.402251 0.102445 -0.019920 -95835.500000 0 0 1
-22.141762 22.129681 5.991901 31.872924 -0.785125 1.381678 0.087708 -0.016040 801675.000000 0 0 1
-21.142262 21.733881 6.938201 31.104589 -0.799196 1.345844 0.090956 -0.014196 124720.000000 0 0 1
-21.709262 21.679581 8.364901 31.800438 -0.784714 1.304621 0.076178 -0.023295 -791471.000000 0 0 1
-22.644262 20.626381 8.405301 31.762546 -0.738798 1.302977 0.087008 -0.026064 337160.000000 0 0 1
-23.004762 20.360081 9.801701 32.246323 -0.724487 1.261946 0.097755 -0.027057 6846.350000 0 0 1
-23.711362 21.420581 10.686401 33.693756 -0.734684 1.248060 0.113196 -0.021918 -412808.000000 0 0 1
-24.967962 21.845781 10.171001 34.699950 -0.718803 1.273315 0.131005 -0.021454 397888.000000 0 0 1
-25.535502 22.723481 11.151701 35.955235 -0.727195 1.255440 0.136434 -0.023124 -121615.000000 0 0 1
-26.918152 23.223781 10.702701 37.127870 -0.711853 1.278381 0.146455 -0.037374 -283378.000000 0 0 1
-27.642542 23.878581 11.728701 38.364817 -0.712471 1.260107 0.150168 -0.034040 59589.300000 0 0 1
-27.600232 25.286081 11.685701 39.213701 -0.741669 1.268199 0.142218 -0.031074 -109280.000000 0 0 1
-28.163722 25.887081 12.977501 40.394947 -0.743303 1.243731 0.136568 -0.031057 324074.000000 0 0 1
-27.365332 25.480881 14.091501 39.958818 -0.749754 1.210394 0.128573 -0.032077 480557.000000 0 0 1
-27.921902 26.007281 15.325301 41.120264 -0.749911 1.188885 0.120572 -0.028267 497597.000000 0 0 1
-26.864662 26.182681 16.464501 40.967336 -0.772543 1.157213 0.114559 -0.037469 338299.000000 0 0 1
-26.288792 24.989781 17.007501 40.060515 -0.760071 1.132337 0.122523 -0.038993 -117877.000000 0 0 1
-25.303842 25.280981 17.951001 40.020631 -0.784946 1.105661 0.106810 -0.039538 -298966.000000 0 0 1
-24.739862 23.949381 18.488101 39.082522 -0.769164 1.078044 0.104935 -0.034951 -42301.700000 0 0 1
-23.628762 24.171181 19.355701 38.951349 -0.796745 1.050750 0.097662 -0.048794 466020.000000 0 0 1
-23.072662 22.946381 19.796401 38.089128 -0.782654 1.024251 0.099328 -0.046078 689239.000000 0 0 1
-21.537662 23.023781 20.132101 37.406776 -0.818736 1.002504 0.093311 -0.052494 448548.000000 0 0 1
-20.677762 22.989781 19.012301 36.298312 -0.838295 1.019515 0.089405 -0.052539 485228.000000 0 0 1
-19.330262 22.620181 19.293901 35.462462 -0.863662 0.995521 0.075313 -0.043775 609472.000000 0 0 1
-19.014762 21.072381 19.539001 34.458366 -0.836682 0.967898 0.067220 -0.020893 -680831.000000 0 0 1
-19.604562 20.504681 20.676301 35.103992 -0.807836 0.940974 0.085396 -0.015968 228851.000000 0 0 1
-18.909162 20.676981 21.949701 35.593305 -0.830026 0.906277 0.087765 -0.016916 211984.000000 0 0 1
-19.857462 20.340281 23.135801 36.651209 -0.797409 0.887642 0.083539 -0.008533 683024.000000 0 0 1
-20.885062 21.356781 23.186401 37.814113 -0.796565 0.910732 0.075727 -0.018602 531076.000000 0 0 1
-21.597362 21.336581 24.420101 38.961995 -0.779324 0.893399 0.079212 -0.017612 -179280.000000 0 0 1
-22.650062 22.439081 24.498901 40.208629 -0.780719 0.915626 0.078655 -0.018791 -890494.000000 0 0 1
-22.179062 23.759181 24.553601 40.734369 -0.819781 0.923824 0.084722 -0.026755 336452.000000 0 0 1
-23.233362 24.709781 24.628401 41.915636 -0.816184 0.942743 0.091916 -0.020757 1131740.000000 0 0 1
-24.255162 24.830881 23.379101 41.850542 -0.797126 0.978059 0.097059 -0.037835 528090.000000 0 0 1
-25.219082 23.825581 23.290601 41.786511 -0.756993 0.979580 0.080336 -0.031370 -360101.000000 0 0 1
-25.899662 23.897581 22.047401 41.568916 -0.745215 1.011745 0.080227 -0.039264 -408874.000000 0 0 1
-27.034332 22.901081 21.978001 41.693491 -0.702814 1.015574 0.085153 -0.026870 -604119.000000 0 0 1
-28.259052 23.225281 22.578101 42.985560 -0.687935 1.017789 0.077285 -0.030171 -316622.000000 0 0 1
-29.199572 22.185381 22.435401 42.990154 -0.649734 1.021751 0.085206 -0.027430 -1153300.000000 0 0 1
-30.574972 22.694081 22.719101 44.339686 -0.638519 1.032834 0.104377 -0.013766 -1936950.000000 0 0 1
-31.069492 23.599381 21.760801 44.674115 -0.649596 1.062029 0.106321 -0.021894 -49938.600000 0 0 1
-32.449392 23.821581 21.907301 45.829691 -0.633257 1.072402 0.113887 -0.018865 164411.000000 0 0 1
-33.425732 22.887081 21.120301 45.685503 -0.600393 1.090212 0.112720 -0.033296 -530749.000000 0 0 1
-33.408182 21.570681 21.702301 45.303320 -0.573326 1.071231 0.104037 -0.030087 530497.000000 0 0 1
-34.105779 20.545981 20.956201 44.994487 -0.542197 1.086314 0.096180 -0.021090 -692925.000000 0 0 1
-35.621673 20.597981 20.992801 46.193919 -0.524268 1.099042 0.113943 -0.025382 -921666.000000 0 0 1
-36.190432 19.620681 20.125501 45.823076 -0.496797 1.116088 0.104961 -0.011100 -702043.000000 0 0 1
36.674352 19.661081 20.175801 46.245315 0.492108 1.119339 0.126568 -0.026098 -744893.000000 0 0 1
35.988732 18.735981 19.156401 44.868625 0.479997 1.129685 0.130059 -0.036543 -155417.000000 0 0 1
36.220052 17.387881 19.391001 44.612123 0.447571 1.121138 0.133029 -0.028258 346564.000000 0 0 1
35.456032 16.650881 18.444101 43.296269 0.439050 1.130732 0.154162 -0.048254 -214776.000000 0 0 1
35.934472 15.214681 18.209301 43.062181 0.400515 1.134197 0.159454 -0.065102 276574.000000 0 0 1
35.169262 14.591581 17.155301 41.762371 0.393281 1.147483 0.191226 -0.053596 276015.000000 0 0 1
35.847082 13.464981 16.726901 41.786460 0.359317 1.158958 0.181678 -0.049042 -241076.000000 0 0 1
35.023862 12.609381 15.752601 40.420439 0.345576 1.170470 0.181610 -0.056352 -234000.000000 0 0 1
34.909572 13.051281 14.419901 39.961828 0.357771 1.201626 0.169119 -0.050961 551480.000000 0 0 1
34.010402 12.157281 13.707801 38.631733 0.343303 1.208061 0.163465 -0.045984 506459.000000 0 0 1
33.773382 12.519281 12.202101 38.029791 0.354982 1.244163 0.171451 -0.049834 290043.000000 0 0 1
34.998942 12.273481 11.519701 38.836424 0.337282 1.269644 0.156015 -0.038566 690204.000000 0 0 1
34.816292 12.414481 10.136401 38.328060 0.342517 1.303148 0.137579 -0.029526 -218258.000000 0 0 1
36.130882 12.497881 9.332601 39.353972 0.333023 1.331370 0.106627 -0.008853 -870856.000000 0 0 1
36.877392 11.351781 9.533801 39.745419 0.298620 1.328563 0.121598 -0.014585 444564.000000 0 0 1
-35.979947 11.511381 9.236901 38.889444 -0.309647 1.330988 0.167092 -0.015104 830482.000000 0 0 1
-35.613237 11.491681 7.683301 38.202022 -0.312132 1.368292 0.160443 -0.035288 -647574.000000 0 0 1
-36.184902 12.548181 6.939001 38.922407 -0.333803 1.391560 0.135184 -0.038601 228688.000000 0 0 1
-35.691634 12.418381 5.609401 38.204376 -0.334834 1.423437 0.165942 -0.048809 -200681.000000 0 0 1
-36.636512 13.077081 4.620501 39.173883 -0.342845 1.452573 0.157948 -0.057388 961679.000000 0 0 1
36.308712 12.401481 4.523301 38.633918 0.329133 1.453446 0.142062 -0.052134 1182440.000000 0 0 1
35.238022 13.303381 4.531601 37.937232 0.360986 1.451060 0.133060 -0.043420 -232858.000000 0 0 1
34.844262 13.801681 5.969801 37.950594 0.377137 1.412836 0.121665 -0.034366 -1211950.000000 0 0 1
34.147282 15.001981 5.801901 37.745972 0.413947 1.416475 0.101685 -0.022814 74511.300000 0 0 1
33.579612 15.622781 6.940101 37.680587 0.435460 1.385556 0.085689 -0.023864 579320.000000 0 0 1
32.245532 15.067381 7.528501 36.379646 0.437123 1.362347 0.109055 -0.027183 183926.000000 0 0 1
32.434072 13.764981 8.062701 36.144860 0.401361 1.345837 0.126132 -0.028404 94533.600000 0 0 1
31.198722 13.220481 8.462901 34.925093 0.400812 1.326044 0.138885 -0.036370 -326797.000000 0 0 1
30.955472 11.866381 7.703501 34.035220 0.366060 1.342479 0.136444 -0.027820 -494352.000000 0 0 1
30.665062 12.040981 6.342101 33.549270 0.374164 1.380614 0.101716 -0.035346 321122.000000 0 0 1
31.283792 11.069081 5.529801 33.641922 0.340081 1.405675 0.120908 -0.040051 -228073.000000 0 0 1
30.945952 11.214581 4.022201 33.160170 0.347672 1.449201 0.108456 -0.047226 302982.000000 0 0 1
29.582892 10.998781 3.681601 31.775382 0.355958 1.454672 0.091039 -0.035905 499219.000000 0 0 1
29.236782 11.202381 2.304201 31.394142 0.365906 1.497334 0.110408 -0.038638 -358972.000000 0 0 1
27.787322 10.845181 1.951801 29.892520 0.372110 1.505456 0.116142 -0.019098 -199282.000000 0 0 1
27.435722 9.502081 1.895501 29.096414 0.333410 1.505605 0.102588 -0.024736 -298605.000000 0 0 1
26.068922 9.225381 1.774401 27.710014 0.340131 1.506718 0.101403 -0.021887 -376433.000000 0 0 1
25.802322 7.674881 1.787101 26.978832 0.289115 1.504507 0.105686 -0.020196 25020.800000 0 0 1
26.099422 6.997481 2.996601 27.186839 0.261948 1.460349 0.112412 -0.013222 422280.000000 0 0 1
27.490822 6.713081 3.047001 28.462168 0.239506 1.463536 0.124498 -0.022040 36743.600000 0 0 1
27.996022 6.005981 4.323101 28.957525 0.211327 1.420945 0.123749 -0.027307 -415210.000000 0 0 1
29.381522 5.768881 4.357301 30.257890 0.193878 1.426288 0.138778 -0.034527 69600.800000 0 0 1
29.735232 5.119981 5.555301 30.679955 0.170514 1.388719 0.124919 -0.016555 -469157.000000 0 0 1
31.239792 5.188081 5.809201 32.196081 0.164571 1.389371 0.114424 -0.027756 -418453.000000 0 0 1
31.693962 6.526781 5.927301 32.897401 0.203092 1.389632 0.132654 -0.032297 -382233.000000 0 0 1
33.051512 6.583681 6.294701 34.283678 0.196621 1.386142 0.133596 -0.022993 -338726.000000 0 0 1
33.386272 7.929181 7.042001 35.030057 0.233178 1.368390 0.117960 -0.027278 -205712.000000 0 0 1
32.935102 8.016881 8.382801 34.917942 0.238771 1.328357 0.108322 -0.032619 -277061.000000 0 0 1
33.549052 8.956981 9.156601 35.911137 0.260896 1.312970 0.116291 -0.033121 -469078.000000 0 0 1
33.120252 8.925681 10.647301 35.916346 0.263239 1.269826 0.129269 -0.037723 60664.600000 0 0 1
31.755092 9.287181 10.764101 34.792291 0.284528 1.256253 0.126465 -0.044952 74356.000000 0 0 1
31.186032 8.715781 11.925501 34.507260 0.272524 1.217925 0.130039 -0.052251 -611125.000000 0 0 1
29.739322 9.140381 12.167001 33.406732 0.298186 1.198014 0.120255 -0.051868 -770626.000000 0 0 1
29.474732 10.501581 12.513801 33.699232 0.342268 1.190347 0.146404 -0.055724 209642.000000 0 0 1
29.447352 11.421481 11.452801 33.597075 0.369998 1.222936 0.149877 -0.056775 -462344.000000 0 0 1
28.262122 11.375081 10.475401 32.216053 0.382647 1.239614 0.118610 -0.052131 -525884.000000 0 0 1
28.312622 12.434581 9.528501 32.357622 0.413827 1.271891 0.098672 -0.026333 59708.700000 0 0 1
27.154322 12.562181 8.729901 31.166918 0.433300 1.286896 0.087354 -0.029841 -159856.000000 0 0 1
27.216422 13.824481 7.851101 31.519672 0.469984 1.319060 0.083586 -0.025749 -85985.000000 0 0 1
26.961122 15.022181 8.521201 32.018415 0.508338 1.301416 0.084717 -0.016471 262425.000000 0 0 1
27.372622 16.155881 7.816101 32.731703 0.533198 1.329674 0.093316 -0.011244 -930630.000000 0 0 1
26.844222 17.486281 8.417301 33.124511 0.577358 1.313868 0.091204 -0.017918 -565660.000000 0 0 1
25.570222 17.952481 8.135701 32.284942 0.612124 1.316053 0.104785 -0.015472 -17706.300000 0 0 1
24.520422 17.174981 8.722101 31.181824 0.611018 1.287297 0.114487 -0.014918 -27963.100000 0 0 1
23.152422 17.835281 9.007201 30.582047 0.656393 1.271837 0.114994 -0.021835 49697.500000 0 0 1
22.475722 18.188781 7.841601 29.957980 0.680364 1.305958 0.120772 -0.023315 -236326.000000 0 0 1
21.402522 19.064781 8.044401 29.769888 0.727694 1.297175 0.163420 -0.034273 -288274.000000 0 0 1
20.662722 19.392281 6.765001 29.133724 0.753691 1.336452 0.146329 -0.032250 -72161.100000 0 0 1
21.328922 20.367581 5.939601 30.083885 0.762347 1.372056 0.105488 -0.020849 318110.000000 0 0 1
20.605622 20.627181 4.752901 29.540859 0.785921 1.409202 0.115396 -0.026154 70265.400000 0 0 1
19.448738 17.244081 32.359917 41.506336 0.725386 0.676709 0.045988 -0.021399 -647812.000000 0 0 1
18.608038 17.938081 31.520805 40.762666 0.767068 0.686804 0.065622 -0.025745 -295135.000000 0 0 1
17.698538 17.003481 30.974585 39.519382 0.765372 0.670064 0.079096 -0.027140 25239.000000 0 0 1
16.862038 17.518981 29.753505 38.425435 0.804504 0.685160 0.083473 -0.033403 -64470.100000 0 0 1
17.617538 17.794081 28.613705 38.023034 0.790384 0.718892 0.085227 -0.027587 -562251.000000 0 0 1
16.902738 18.255081 27.503595 37.086362 0.823844 0.735330 0.091786 -0.033063 -209779.000000 0 0 1
17.827238 18.642481 26.320385 36.852614 0.807748 0.775306 0.090968 -0.028863 133992.000000 0 0 1
18.802738 19.624481 26.597095 38.027210 0.806779 0.796207 0.092628 -0.031535 143991.000000 0 0 1
19.623938 19.797281 25.446925 37.743573 0.789795 0.830908 0.091659 -0.035480 606154.000000 0 0 1
20.591138 21.047181 25.662565 39.058239 0.796350 0.853920 0.097889 -0.028871 653943.000000 0 0 1
19.780938 22.201781 25.656115 39.273920 0.842997 0.858913 0.089149 -0.028813 651130.000000 0 0 1
20.556338 23.298581 26.107595 40.583167 0.847847 0.871981 0.091121 -0.031623 -85015.700000 0 0 1
19.769038 24.609681 26.142435 40.986317 0.894044 0.879115 0.103081 -0.035119 -95743.000000 0 0 1
19.420238 24.999881 24.850265 40.245191 0.910354 0.905272 0.103199 -0.039740 504758.000000 0 0 1
18.524838 26.125881 24.818795 40.517945 0.954015 0.911528 0.100439 -0.036057 195571.000000 0 0 1
18.696338 26.914081 23.480595 40.314503 0.963658 0.949075 0.087862 -0.034638 129892.000000 0 0 1
19.860438 27.712881 23.317285 41.305406 0.948983 0.970958 0.099079 -0.037050 291839.000000 0 0 1
19.642738 28.561381 22.168545 41.146495 0.968348 1.001819 0.102982 -0.030691 439494.000000 0 0 1
20.784238 29.622681 22.047145 42.374100 0.958976 1.023597 0.104416 -0.025165 882204.000000 0 0 1
22.071638 29.057281 21.766845 42.488567 0.921185 1.032937 0.093774 -0.023759 311810.000000 0 0 1
23.062938 30.072281 21.789245 43.715128 0.916556 1.049001 0.099737 -0.031260 86909.800000 0 0 1
23.692838 30.295981 20.377445 43.525134 0.907099 1.083570 0.096446 -0.029827 -128384.000000 0 0 1
22.914038 31.099781 19.543745 43.292118 0.935803 1.102419 0.082163 -0.025356 93315.000000 0 0 1
23.428738 30.979781 18.218445 42.901799 0.923301 1.132216 0.074002 -0.002440 -45790.400000 0 0 1
22.763938 31.899281 17.181045 42.789593 0.950988 1.157616 0.062436 -0.014079 -393145.000000 0 0 1
23.038238 33.252281 17.285545 43.991643 0.964897 1.166983 0.075167 -0.016976 60940.400000 0 0 1
22.885838 33.959181 16.053745 43.985342 0.977788 1.197186 0.066370 -0.012428 37125.600000 0 0 1
23.973538 33.640881 14.972045 43.938611 0.951643 1.223083 0.056090 -0.017383 -60621.200000 0 0 1
23.889838 32.532981 14.089445 42.750809 0.937402 1.234947 0.075080 -0.022724 -48323.400000 0 0 1
22.948738 32.824881 13.079345 42.132964 0.960657 1.255151 0.044189 -0.019286 -108206.000000 0 0 1
22.548738 31.634781 12.189545 40.715967 0.951543 1.266754 0.055144 -0.030856 -140320.000000 0 0 1
23.593838 31.197881 11.334445 40.724030 0.923298 1.288748 0.068454 -0.048871 -100946.000000 0 0 1
23.301138 29.893681 10.819145 39.416102 0.908702 1.292742 0.075368 -0.048128 -1434260.000000 0 0 1
24.401238 29.176881 10.007445 39.330138 0.874297 1.313520 0.075194 -0.048632 669922.000000 0 0 1
25.527338 28.717581 10.782045 39.907354 0.844142 1.297220 0.076850 -0.039185 686243.000000 0 0 1
26.212538 29.637881 11.608845 41.234287 0.846652 1.285404 0.072802 -0.043428 -1336790.000000 0 0 1
27.607538 29.109181 12.047845 41.888795 0.811868 1.279061 0.083830 -0.036734 294335.000000 0 0 1
27.695238 28.080881 13.003245 41.528863 0.792312 1.252327 0.089518 -0.031314 944676.000000 0 0 1
29.045838 27.987381 13.522245 42.541807 0.766842 1.247327 0.089467 -0.029650 1082260.000000 0 0 1
29.230538 26.760281 14.424445 42.173470 0.741308 1.221724 0.074715 -0.022473 -543862.000000 0 0 1
30.299838 27.052181 15.259545 43.390718 0.728832 1.211434 0.058592 -0.031223 -552788.000000 0 0 1
30.682138 25.928781 16.019345 43.247135 0.701629 1.191342 0.053422 -0.028634 -83208.900000 0 0 1
31.916938 26.205581 16.895645 44.619348 0.687449 1.182446 0.056261 -0.032172 -284002.000000 0 0 1
33.111438 26.329381 16.174945 45.290534 0.671792 1.205595 0.070603 -0.021468 -844382.000000 0 0 1
34.201138 26.125881 17.012845 46.278682 0.652331 1.194351 0.061287 -0.026097 -459581.000000 0 0 1
35.567238 26.267681 16.328145 47.134147 0.636124 1.217046 0.094443 -0.034162 -307779.000000 0 0 1
35.799938 27.558581 15.773345 47.852997 0.656049 1.234894 0.108284 -0.033996 5058.220000 0 0 1
-37.099047 27.992081 15.826445 49.095542 -0.646389 1.242575 0.136555 -0.036710 407205.000000 0 0 1
-36.865547 29.055281 14.757945 49.204419 -0.667468 1.266176 0.115511 -0.042292 75981.800000 0 0 1
36.646738 30.202481 15.102645 49.832350 0.689295 1.262885 0.119374 -0.044871 -47331.800000 0 0 1
36.410738 31.089881 14.025645 49.890292 0.706734 1.285825 0.111954 -0.020712 184316.000000 0 0 1
35.512138 32.335781 14.256045 50.099396 0.738616 1.282254 0.103015 -0.030863 -1150550.000000 0 0 1
35.624938 33.394481 13.359245 50.624075 0.753093 1.303742 0.082109 -0.031738 204647.000000 0 0 1
34.696738 -33.625270 13.499545 50.167321 -0.769717 1.298348 0.078950 -0.025391 1088870.000000 0 0 1
33.178938 -33.920470 13.170145 49.243201 -0.796449 1.300050 0.096024 -0.026054 628567.000000 0 0 1
32.624438 33.181281 14.045445 48.606850 0.793860 1.277656 0.092301 -0.036026 -843509.000000 0 0 1
31.602838 32.501481 13.385745 47.268000 0.799416 1.283679 0.088211 -0.030730 -523026.000000 0 0 1
31.005038 31.360381 14.270545 46.351206 0.791096 1.257834 0.091309 -0.040926 55555.700000 0 0 1
30.020738 31.727581 15.233045 46.259375 0.813033 1.235238 0.076525 -0.031758 415330.000000 0 0 1
29.643838 30.634081 16.033945 45.544390 0.801825 1.211035 0.064595 -0.029894 -113085.000000 0 0 1
28.530138 31.017081 17.032845 45.454878 0.827138 1.186702 0.062073 -0.025400 -21391.800000 0 0 1
28.319838 30.058181 18.106945 45.092892 0.815167 1.157590 0.042583 -0.019822 102401.000000 0 0 1
29.363438 30.072581 19.077545 46.157603 0.797329 1.144707 0.039654 -0.025115 189381.000000 0 0 1
29.283638 28.966981 20.136945 45.848817 0.779962 1.116085 0.039462 -0.020130 241761.000000 0 0 1
28.139338 29.090181 20.976345 45.585831 0.802011 1.092632 0.056626 -0.027263 259426.000000 0 0 1
28.222738 28.263181 22.165945 45.679968 0.786114 1.064154 0.041962 -0.022016 89035.100000 0 0 1
26.867538 28.070581 22.877835 45.091213 0.807293 1.038669 0.058891 -0.020122 296172.000000 0 0 1
25.842538 27.340981 22.200245 43.683142 0.813566 1.037690 0.099163 -0.029811 585249.000000 0 0 1
24.631638 27.213481 22.947605 43.288379 0.835156 1.012066 0.120904 -0.037950 403245.000000 0 0 1
24.482338 26.093581 24.019015 43.094929 0.817245 0.979604 0.095186 -0.035539 -312080.000000 0 0 1
25.347538 26.380781 25.125665 44.381779 0.805370 0.968998 0.081985 -0.032782 157973.000000 0 0 1
25.206338 25.448681 26.144535 44.345592 0.790182 0.940278 0.091527 -0.032112 302415.000000 0 0 1
26.483838 25.109881 27.030355 45.415194 0.758774 0.933303 0.078638 -0.026114 983310.000000 0 0 1
26.947438 26.163381 27.930915 46.806227 0.770637 0.931370 0.098165 -0.023891 443323.000000 0 0 1
27.443238 27.326281 27.273335 47.367623 0.783263 0.957238 0.067409 -0.014944 -787657.000000 0 0 1
27.965438 28.396581 28.247135 48.850099 0.793048 0.954225 0.037722 -0.005503 -1115730.000000 0 0 1
29.097938 28.077381 28.956025 49.734100 0.767550 0.949344 0.024971 0.007035 -763533.000000 0 0 1
29.481438 29.192581 29.710265 51.030009 0.780475 0.949350 0.028938 -0.001128 -698050.000000 0 0 1
30.988838 29.368781 29.726155 52.023818 0.758564 0.962592 0.007650 0.008295 -856449.000000 0 0 1
31.445738 29.917781 28.521055 51.936101 0.760503 0.989442 -0.003582 0.001955 43943.700000 0 0 1
32.865138 29.975581 28.625195 52.896640 0.739448 0.998988 0.002323 0.001343 259263.000000 0 0 1
33.496738 30.508681 27.329165 52.912138 0.738748 1.028037 -0.009653 0.007246 -418577.000000 0 0 1
33.320738 31.889581 27.062215 53.475045 0.763455 1.040172 -0.005131 0.002833 62679.800000 0 0 1
33.814038 32.216481 25.803265 53.358217 0.761209 1.066050 0.009053 -0.004809 -230958.000000 0 0 1
33.544838 33.722281 25.439185 53.940713 0.788036 1.079676 0.007142 -0.010999 -276868.000000 0 0 1
34.333838 -33.458270 26.167495 54.616902 -0.772483 1.071156 0.011075 -0.013257 206197.000000 0 0 1
33.944038 -32.104570 25.979945 53.458943 -0.757555 1.063313 0.015941 -0.018049 -157284.000000 0 0 1
34.988838 -31.237670 26.698935 53.970769 -0.728817 1.053315 0.021507 -0.017061 78462.100000 0 0 1
34.752638 -31.115970 28.088685 54.451112 -0.730243 1.028795 0.023866 -0.015320 284053.000000 0 0 1
35.807038 -30.408970 28.714645 55.057971 -0.704056 1.022148 0.026314 -0.021868 -255637.000000 0 0 1
35.600738 -30.064570 30.230705 55.544454 -0.701288 0.995288 0.030671 -0.022218 -484167.000000 0 0 1
35.686738 -31.129170 31.183715 56.700904 -0.717293 0.988470 0.028582 -0.015712 -453607.000000 0 0 1
34.498838 -31.840370 31.210405 56.374359 -0.745346 0.984082 0.027432 -0.017173 -845142.000000 0 0 1
34.336338 -32.814170 32.380736 57.482744 -0.762734 0.972407 0.036593 -0.010496 -485415.000000 0 0 1
33.773738 -32.179670 33.493551 57.428342 -0.761233 0.948105 0.037849 -0.012418 56181.300000 0 0 1
33.985338 -32.808870 -33.124149 57.694318 -0.767787 2.182340 0.044646 -0.010413 -19507.200000 0 0 1
33.317538 33.886181 -32.865509 57.779523 0.793859 2.175853 0.037422 -0.005993 -54921.300000 0 0 1
33.904838 32.836781 -33.629509 57.954604 0.769397 2.189861 0.036271 -0.005613 296200.000000 0 0 1
33.173338 31.632681 -33.422409 56.728778 0.761629 2.200817 0.034773 -0.002097 101767.000000 0 0 1
33.276438 30.474681 33.462235 56.176051 0.741478 0.932700 0.027172 0.008550 -56755.000000 0 0 1
34.507538 29.770281 33.404139 56.505542 0.711831 0.938293 0.019430 -0.001597 60985.000000 0 0 1
34.643038 28.876181 32.327272 55.488976 0.694857 0.948886 0.015977 0.003311 199184.000000 0 0 1
36.013538 28.156881 32.164120 55.895577 0.663570 0.957664 0.008855 0.003360 247759.000000 0 0 1
36.251038 27.279881 33.185630 56.210459 0.645116 0.939265 0.017097 0.004364 -362166.000000 0 0 1
-36.751247 26.658881 33.142840 56.212080 -0.627562 0.940228 0.012662 -0.002258 -301871.000000 0 0 1
-36.832147 25.221781 33.841036 56.017506 -0.600435 0.922141 0.018582 0.000692 139120.000000 0 0 1
36.711538 24.274581 33.061618 55.046007 0.584226 0.926523 0.007573 0.004554 173277.000000 0 0 1
36.588338 23.105581 33.857091 54.944308 0.563261 0.906878 0.024143 -0.014745 -919.355000 0 0 1
36.118938 21.894081 33.015434 53.609209 0.544941 0.907327 0.023705 -0.020808 377766.000000 0 0 1
-37.103947 21.509681 32.097624 53.568897 -0.525370 0.928315 0.037151 -0.016849 710921.000000 0 0 1
36.712838 20.394981 31.316155 52.387873 0.507077 0.930074 0.047135 -0.014443 85199.100000 0 0 1
-36.312647 19.796781 30.611645 51.454773 -0.499132 0.933626 0.059014 -0.030409 -70238.600000 0 0 1
-35.833247 20.658081 29.604735 50.864705 -0.522965 0.949575 0.050103 -0.026596 -418837.000000 0 0 1
-34.596247 20.248581 29.087535 49.527670 -0.529528 0.943079 0.062527 -0.025404 -267412.000000 0 0 1
-34.662347 19.251981 27.895795 48.479815 -0.506991 0.957690 0.078736 -0.020254 -331066.000000 0 0 1
-35.352147 18.062881 28.250975 48.725348 -0.472362 0.952313 0.060343 -0.016324 55361.600000 0 0 1
-35.824847 17.374581 27.119235 48.174149 -0.451565 0.972856 0.077580 -0.018351 -132724.000000 0 0 1
-36.587447 16.156581 27.690275 48.645943 -0.415837 0.965239 0.088951 -0.030338 -352558.000000 0 0 1
-35.741847 15.206281 28.257495 48.033287 -0.402250 0.941854 0.076866 -0.018718 -110880.000000 0 0 1
-36.393247 14.544081 29.327535 48.950006 -0.380193 0.928379 0.066377 -0.021370 148954.000000 0 0 1
-35.701147 13.228981 29.803885 48.351312 -0.354862 0.906630 0.067263 -0.015695 -197043.000000 0 0 1
-34.337047 13.322581 30.096855 47.564111 -0.370114 0.885679 0.070593 -0.009444 -114722.000000 0 0 1
-33.832747 12.162581 30.722775 47.291353 -0.345105 0.863674 0.078882 0.002520 1040890.000000 0 0 1
-32.257547 12.089981 30.795645 46.207021 -0.358591 0.841331 0.081589 0.003129 766743.000000 0 0 1
-31.548147 11.888181 29.521095 44.811935 -0.360371 0.851604 0.078468 -0.001941 980836.000000 0 0 1
-30.165247 12.181181 29.778235 44.102909 -0.383791 0.829562 0.089812 -0.003153 752156.000000 0 0 1
-29.294247 10.987881 30.221745 43.499889 -0.358847 0.802718 0.094054 0.000619 -544896.000000 0 0 1
-28.818647 10.289281 29.091175 42.221798 -0.342929 0.810676 0.097241 -0.013500 -355321.000000 0 0 1
-27.726047 9.505981 29.494365 41.581425 -0.330294 0.782269 0.092034 -0.013317 -502388.000000 0 0 1
-27.474347 8.343181 28.480945 40.442708 -0.294822 0.789459 0.089261 -0.016486 603992.000000 0 0 1
-28.415047 7.258381 28.523705 40.910888 -0.250093 0.799291 0.098698 -0.020041 1168430.000000 0 0 1
-29.736447 7.510781 27.991385 41.523316 -0.247404 0.831034 0.101832 -0.020499 852954.000000 0 0 1
-30.582447 6.227981 27.929115 41.882088 -0.200898 0.840821 0.105368 -0.018693 -185708.000000 0 0 1
-31.077047 5.807681 29.164165 43.012330 -0.184749 0.825701 0.100356 -0.018674 291978.000000 0 0 1
-31.830247 4.568381 29.055465 43.338837 -0.142550 0.836014 0.112492 -0.022176 197908.000000 0 0 1
-32.463147 4.109481 30.394675 44.660721 -0.125919 0.822258 0.084177 -0.009341 -638786.000000 0 0 1
-33.552047 4.878581 30.770975 45.786388 -0.144391 0.833816 0.080319 -0.008822 -925937.000000 0 0 1
-33.942247 4.518281 32.056432 46.905286 -0.132339 0.818347 0.085662 -0.011723 588083.000000 0 0 1
-35.466147 4.824581 32.246154 48.176121 -0.135204 0.837478 0.082947 -0.006188 448859.000000 0 0 1
-35.851847 6.176281 32.344466 48.679214 -0.170598 0.844051 0.078979 0.002984 26960.200000 0 0 1
37.045138 6.426181 32.671839 49.810512 0.171760 0.855392 0.068701 0.006072 367091.000000 0 0 1
36.636038 7.917981 32.662417 49.716468 0.212852 0.853999 0.061599 -0.002589 -24014.000000 0 0 1
-37.034247 8.459981 33.833061 50.870254 -0.224583 0.843188 0.068359 -0.002834 396785.000000 0 0 1
36.873338 9.848281 -33.828039 50.999686 0.260992 2.296015 0.070161 -0.002004 -33903.400000 0 0 1
36.778138 10.211481 -32.331049 50.022020 0.270829 2.273570 0.071502 -0.007454 -268403.000000 0 0 1
35.569838 9.677781 -31.864009 48.725639 0.265648 2.283587 0.066338 0.005274 -174249.000000 0 0 1
35.362338 10.040081 -30.485039 47.756003 0.276640 2.263149 0.049443 0.005987 1299280.000000 0 0 1
34.096838 9.286481 -29.868639 46.270603 0.265907 2.272501 0.054425 0.012559 1153260.000000 0 0 1
34.465038 7.988881 -29.588689 46.121054 0.227774 2.267306 0.058145 0.001460 617026.000000 0 0 1
33.299838 7.233481 -29.263489 44.917193 0.213900 2.280354 0.066286 -0.000576 346082.000000 0 0 1
35.787502 5.849281 -20.020099 41.421779 0.162012 2.075243 0.059773 -0.001580 -381006.000000 0 0 1
35.110562 6.665581 -19.063499 40.504303 0.187613 2.060828 0.040939 -0.010717 659733.000000 0 0 1
35.752682 7.942481 -18.844999 41.188242 0.218601 2.046016 0.032452 -0.004526 1187910.000000 0 0 1
-37.049032 7.940681 -18.149299 42.012882 -0.211135 2.017499 0.050899 -0.017877 1371810.000000 0 0 1
-35.943367 7.420281 -18.833899 41.251691 -0.203584 2.044922 0.064460 -0.022639 -57721.000000 0 0 1
-35.495570 8.201181 -19.885899 41.504745 -0.227064 2.070452 0.057329 -0.013157 -122162.000000 0 0 1
-34.301719 7.663781 -20.745999 40.813453 -0.219813 2.104021 0.048496 -0.002098 571551.000000 0 0 1
-34.792659 6.719481 -21.694799 41.549307 -0.190780 2.120161 0.046001 -0.000740 561695.000000 0 0 1
-35.473227 7.180181 -22.856199 42.805499 -0.199713 2.134067 0.037631 0.000529 83552.000000 0 0 1
-35.468294 6.015481 -23.895299 43.187628 -0.168003 2.157105 0.070879 -0.007754 1005230.000000 0 0 1
-34.129282 5.656081 -24.288799 42.269906 -0.164232 2.182926 0.074474 -0.007199 810683.000000 0 0 1
-34.126844 4.555181 -25.114159 42.615868 -0.132694 2.201007 0.081360 -0.006316 1249930.000000 0 0 1
-32.756302 4.271081 -25.877599 41.962693 -0.129658 2.235316 0.088345 -0.005215 1401600.000000 0 0 1
-31.560722 4.076181 -25.165279 40.570750 -0.128443 2.239898 0.082369 -0.009635 -380822.000000 0 0 1
-30.500962 3.800581 -26.036489 40.282154 -0.123966 2.273591 0.075337 -0.010694 41839.900000 0 0 1
-29.102332 4.062781 -25.432559 38.862154 -0.138707 2.284225 0.051970 -0.011228 -40442.100000 0 0 1
-28.921362 5.501681 -25.258809 38.790735 -0.187983 2.279903 0.037599 -0.003766 -883537.000000 0 0 1
-27.613432 5.711381 -24.883199 37.607115 -0.203957 2.293830 0.049914 -0.006591 -966600.000000 0 0 1
-27.239582 7.209681 -24.998099 37.668015 -0.258744 2.296474 0.047806 -0.013972 -170829.000000 0 0 1
-28.043242 8.031881 -24.184599 37.892340 -0.278943 2.263013 0.048771 -0.016503 -283335.000000 0 0 1
-28.000262 9.435581 -24.406599 38.323974 -0.325031 2.261201 0.032692 -0.018754 -595369.000000 0 0 1
-26.768262 10.231681 -23.989199 37.372568 -0.365096 2.267761 0.077675 -0.022406 -316472.000000 0 0 1
-26.748572 10.451281 -22.597499 36.542610 -0.372483 2.237486 0.048443 -0.020819 719491.000000 0 0 1
-25.407662 10.864581 -22.319299 35.520973 -0.404080 2.250216 0.097787 -0.024055 187000.000000 0 0 1
-25.080742 11.180781 -20.858499 34.483772 -0.419349 2.220410 0.102200 -0.040359 -1264220.000000 0 0 1
-25.444642 12.461681 -20.301399 34.854987 -0.455419 2.192540 0.080796 -0.037173 367857.000000 0 0 1
-26.820012 12.812581 -20.282699 35.984208 -0.445669 2.169601 0.077298 -0.024498 -31190.400000 0 0 1
-27.657012 11.828281 -19.415099 35.801741 -0.404136 2.143962 0.057577 -0.017381 -1278470.000000 0 0 1
-27.413542 11.961581 -18.005399 34.910974 -0.411435 2.112681 0.068166 -0.028982 619402.000000 0 0 1
-28.376402 11.229881 -17.241999 35.051633 -0.376835 2.085070 0.070688 -0.031985 -237647.000000 0 0 1
-27.807212 10.885181 -15.825599 33.796121 -0.373116 2.058124 0.099928 -0.035174 351655.000000 0 0 1
-26.882702 9.819581 -15.829999 32.706158 -0.350218 2.076024 0.117506 -0.035141 260781.000000 0 0 1
-25.564612 10.070881 -16.251699 31.923186 -0.375270 2.104921 0.102905 -0.027549 -596283.000000 0 0 1
-24.669462 8.803981 -15.954899 30.670039 -0.342789 2.117895 0.091904 -0.026480 -1025110.000000 0 0 1
-23.324362 9.059981 -16.133999 29.772724 -0.370496 2.143499 0.106286 -0.024393 -788017.000000 0 0 1
-22.660062 7.889181 -15.626799 28.634149 -0.335029 2.148068 0.108649 -0.022513 841511.000000 0 0 1
-21.105762 8.061581 -15.490999 27.393674 -0.364860 2.171830 0.140953 -0.032232 708785.000000 0 0 1
-20.346462 8.247381 -16.671699 27.567071 -0.385108 2.220272 0.149371 -0.036102 57551.600000 0 0 1
-19.042562 8.619981 -16.295299 26.503963 -0.425071 2.232960 0.156503 -0.039687 -478491.000000 0 0 1
-18.221062 9.282981 -17.455999 26.886665 -0.471190 2.277386 0.114787 -0.035524 142253.000000 0 0 1
-17.898662 8.522881 -18.641299 27.212123 -0.444406 2.325450 0.148146 -0.046573 509816.000000 0 0 1
-17.006762 7.459981 -18.287799 26.063862 -0.413374 2.348512 0.147729 -0.041797 -470032.000000 0 0 1
-16.580762 6.496381 -19.468999 26.384969 -0.373420 2.400723 0.125256 -0.039005 1125380.000000 0 0 1
-17.634662 5.718581 -20.148599 27.379729 -0.313581 2.397784 0.130132 -0.031689 1007360.000000 0 0 1
-18.444362 6.438081 -21.052099 28.719928 -0.335832 2.393538 0.123791 -0.033533 3203.240000 0 0 1
-19.409162 5.561081 -21.906399 29.791468 -0.279043 2.396942 0.110663 -0.020199 431138.000000 0 0 1
-20.323862 4.885081 -21.025799 29.648063 -0.235887 2.359130 0.125911 -0.027642 715749.000000 0 0 1
-21.125562 3.881081 -21.678299 30.517222 -0.181689 2.360810 0.091126 -0.013041 -98816.100000 0 0 1
-22.065562 3.206281 -20.667399 30.402478 -0.144297 2.318277 0.113301 -0.018764 -266494.000000 0 0 1
-22.675862 2.004081 -21.120899 31.053236 -0.088150 2.318765 0.121101 -0.010498 259474.000000 0 0 1
-23.389662 1.403781 -20.069899 30.852030 -0.059945 2.279067 0.124771 -0.015889 -215950.000000 0 0 1
-23.935762 -0.007819 -20.447399 31.480421 0.000327 2.277759 0.127331 -0.004058 197198.000000 0 0 1
-22.915662 -0.992819 -20.527199 30.781150 0.043298 2.300804 0.120508 -0.021906 340756.000000 0 0 1
-23.422762 -2.276219 -20.867699 31.452629 0.096876 2.296236 0.135632 -0.026426 -313320.000000 0 0 1
-23.889262 -2.380719 -22.400899 32.835423 0.099328 2.321588 0.125164 -0.031923 -8801.420000 0 0 1
-22.862762 -2.327819 -23.348599 32.760979 0.101467 2.364130 0.100642 -0.029105 -182747.000000 0 0 1
-21.921962 -3.381419 -23.282799 32.157350 0.153042 2.380419 0.089327 -0.036829 -357937.000000 0 0 1
-21.009662 -3.391919 -24.516499 32.464901 0.160065 2.426709 0.082081 -0.034465 -70519.100000 0 0 1
-21.662962 -3.724419 -25.748899 33.855000 0.170261 2.434978 0.083763 -0.034308 794356.000000 0 0 1
-20.715862 -3.834419 -26.808179 34.095868 0.183024 2.475527 0.079560 -0.035273 632146.000000 0 0 1
-21.579562 -4.126019 -28.119249 35.684643 0.188920 2.478339 0.084040 -0.037618 760320.000000 0 0 1
-22.443362 -5.233419 -28.158369 36.386632 0.229090 2.455719 0.086793 -0.040202 180951.000000 0 0 1
-23.131262 -5.443319 -29.356949 37.769240 0.231118 2.461114 0.048370 -0.030751 -360491.000000 0 0 1
-22.617862 -6.662319 -30.169269 38.290195 0.286459 2.478206 0.054589 -0.034638 279967.000000 0 0 1
-21.279262 -6.481419 -30.624369 37.850598 0.295661 2.513391 0.053532 -0.036600 309628.000000 0 0 1
-20.699662 -7.652919 -31.083239 38.121004 0.354127 2.524188 0.063732 -0.041583 8113.200000 0 0 1
-19.396962 -7.326419 -31.887199 38.035668 0.361144 2.565046 0.073517 -0.037253 20062.600000 0 0 1
-19.571562 -6.888919 -33.247529 39.190579 0.338443 2.583667 0.071501 -0.040268 197200.000000 0 0 1
-19.861662 -7.902919 33.717302 39.922402 0.378693 0.565033 0.073025 -0.038428 -495942.000000 0 0 1
-19.585762 -7.478419 32.228753 38.447644 0.364745 0.576730 0.067584 -0.028304 296686.000000 0 0 1
-18.243862 -7.182819 31.868029 37.416610 0.375074 0.551560 0.075097 -0.031285 258093.000000 0 0 1
-17.752062 -5.942019 32.344896 37.371588 0.323000 0.524660 0.070484 -0.034305 125205.000000 0 0 1
-16.378562 -5.494819 31.767585 36.161164 0.323689 0.498083 0.070067 -0.032094 458412.000000 0 0 1
-16.534562 -5.426819 30.383635 35.014388 0.317133 0.520145 0.066457 -0.030314 375431.000000 0 0 1
-15.375362 -4.908019 29.737615 33.835132 0.308989 0.497250 0.055420 -0.022242 352557.000000 0 0 1
-15.555862 -4.924119 28.197285 32.577886 0.306565 0.524580 0.055820 -0.017144 139764.000000 0 0 1
-16.512062 -3.983619 27.746275 32.532648 0.236731 0.549330 0.050664 -0.021715 -73909.900000 0 0 1
-16.765562 -4.029719 26.313925 31.460219 0.235882 0.580080 0.047146 -0.017792 159340.000000 0 0 1
-15.615162 -3.535619 25.394475 30.020214 0.222668 0.562522 0.048524 -0.013702 260276.000000 0 0 1
-15.482662 -2.158019 25.403255 29.827760 0.138491 0.551642 0.040638 -0.010891 -76697.300000 0 0 1
-14.529062 -1.784819 24.423405 28.474233 0.122232 0.539945 0.045648 -0.008558 205846.000000 0 0 1
-14.332662 -0.244919 24.330245 28.239087 0.017086 0.532421 0.041775 -0.002788 359022.000000 0 0 1
-15.513962 0.331481 23.768555 28.385509 -0.021363 0.578382 0.029604 -0.004797 448919.000000 0 0 1
-15.697862 1.633681 24.243415 28.928100 -0.103697 0.577083 0.017844 -0.002417 -458707.000000 0 0 1
-16.345962 2.578181 23.228305 28.520022 -0.156437 0.619005 0.023325 0.000140 -467217.000000 0 0 1
-15.535762 3.143581 22.210045 27.286043 -0.199649 0.619841 0.020924 0.003041 -12329.000000 0 0 1
-16.224162 4.089281 21.438745 27.194953 -0.246906 0.662698 0.028633 0.000843 -357493.000000 0 0 1
-15.323862 4.783081 20.382945 25.945386 -0.302550 0.667116 0.042494 0.003812 -275746.000000 0 0 1
-14.433162 5.673381 20.972245 26.083299 -0.374526 0.636722 0.029786 0.000378 39657.300000 0 0 1
-13.381562 5.936781 20.021945 24.803021 -0.417564 0.631339 0.032708 0.008779 47766.400000 0 1 0
-12.363662 6.932481 20.549945 24.964368 -0.511032 0.603823 0.031450 0.010522 -518829.000000 0 1 0
-12.787762 8.278381 20.595745 25.617244 -0.574522 0.636839 0.039602 0.006323 -199447.000000 0 0 1
-11.751962 9.235981 20.515245 25.382814 -0.666090 0.629650 0.042907 0.007826 -102716.000000 0 0 1
-12.216762 10.709181 20.464645 26.129247 -0.719734 0.670987 0.031757 0.009450 -237551.000000 0 0 1
-12.504562 11.136581 19.146045 25.435380 -0.727598 0.718593 0.034806 0.006527 29271.000000 0 0 1
-13.225162 12.329481 19.233645 26.397995 -0.750363 0.754517 0.022073 0.010404 -373552.000000 0 0 1
-13.505062 13.035881 17.889745 25.929980 -0.767722 0.809411 0.032532 0.001893 351052.000000 0 0 1
-12.549362 13.978781 17.313545 25.547048 -0.839229 0.826149 0.030937 0.000622 487415.000000 0 0 1
-12.535962 15.309681 17.816645 26.626482 -0.884681 0.837755 0.049996 -0.005112 128539.000000 0 0 1
-13.776762 16.127681 17.336745 27.394598 -0.863851 0.885564 0.060013 -0.008444 319494.000000 0 0 1
-13.771162 16.559781 15.988345 26.823468 -0.877080 0.932214 0.053764 -0.022020 -75655.300000 0 0 1
-14.138962 15.586581 14.988045 25.835891 -0.834059 0.951914 0.075716 -0.022960 -50643.800000 0 0 1
-14.701162 16.175681 13.666945 25.779104 -0.833117 1.012012 0.060555 -0.030774 964781.000000 0 0 1
-16.021062 16.746881 13.748345 26.947161 -0.807545 1.035383 0.052567 -0.024109 527369.000000 0 0 1
-16.245462 17.551781 12.644945 27.053183 -0.824031 1.084437 0.054727 -0.025672 366935.000000 0 0 1
-17.515262 18.411481 12.931845 28.513149 -0.810339 1.100063 0.054145 -0.026283 -202481.000000 0 0 1
-18.716862 17.735781 13.026245 28.888786 -0.758491 1.103012 0.061785 -0.022481 -822318.000000 0 0 1
-19.789662 18.644281 13.158745 30.205836 -0.755606 1.120052 0.061257 -0.024073 492056.000000 0 0 1
-21.178462 17.949481 13.288145 30.778011 -0.703061 1.124374 0.075851 -0.013252 454960.000000 0 0 1
-21.615262 17.308381 12.110545 30.223582 -0.675197 1.158517 0.088103 -0.014710 -58711.500000 0 0 1
-22.811362 16.597781 12.384145 30.809279 -0.629017 1.157138 0.095764 -0.019096 155181.000000 0 0 1
-23.386162 15.789481 11.176045 30.350029 -0.593862 1.193683 0.106805 -0.016238 148100.000000 0 0 1
-22.563362 14.747281 10.660745 28.986878 -0.578898 1.194178 0.078685 -0.011905 94044.500000 0 0 1
-23.236662 14.032081 9.623345 28.800183 -0.543265 1.230102 0.085546 -0.011070 78764.400000 0 0 1
-22.595562 12.682481 9.240045 27.509693 -0.511464 1.228254 0.104533 -0.014486 -280307.000000 0 0 1
-22.805462 11.606681 10.102645 27.511227 -0.470776 1.194779 0.102083 -0.020428 1185810.000000 0 0 1
-24.130662 11.031181 10.257045 28.446139 -0.428779 1.201909 0.131757 -0.010270 1240140.000000 0 0 1
-24.858562 10.270581 9.084945 28.389596 -0.391800 1.245057 0.151322 -0.009934 -64863.400000 0 0 1
-25.382292 11.227581 8.189045 28.937516 -0.416465 1.283886 0.153606 -0.017546 676051.000000 0 0 1
-26.583712 10.750681 7.556445 29.654186 -0.384301 1.313136 0.183604 -0.023832 390643.000000 0 0 1
-27.200362 11.950581 6.756945 30.468548 -0.413965 1.347169 0.157562 -0.009842 11939.300000 0 0 1
-26.515722 12.330281 5.555845 29.765530 -0.435272 1.383041 0.137178 -0.025946 459473.000000 0 0 1
-25.267872 12.992181 5.575245 28.954197 -0.474925 1.377032 0.125075 -0.025630 -205903.000000 0 0 1
-25.100222 14.493981 6.025645 29.604139 -0.523669 1.365823 0.122840 -0.024623 -21925.800000 0 0 1
-23.724862 14.854581 5.961745 28.619400 -0.559403 1.360948 0.123607 -0.027879 588554.000000 0 0 1
-23.647062 16.159981 6.507445 29.371336 -0.599486 1.347385 0.105209 -0.021957 920651.000000 0 0 1
-22.181962 16.744981 6.676445 28.583365 -0.646625 1.335040 0.109522 -0.024574 1128360.000000 0 0 1
-21.650162 17.299081 5.469545 28.247189 -0.674148 1.375934 0.120763 -0.042289 608274.000000 0 0 1
-20.307762 17.736181 5.596645 27.537243 -0.717906 1.366131 0.139879 -0.040877 -142728.000000 0 0 1
-19.744862 18.441481 4.407445 27.374685 -0.751279 1.409088 0.123231 -0.029613 1060940.000000 0 0 1
-18.310362 18.695881 4.485145 26.550365 -0.795815 1.401053 0.108040 -0.031688 1639510.000000 0 0 1
-17.933462 19.766481 3.652545 26.938150 -0.833981 1.434787 0.112099 -0.033980 -12279.000000 0 0 1
-18.164562 21.215581 4.183645 28.241018 -0.862720 1.422108 0.095908 -0.034449 90302.000000 0 0 1
-17.297662 21.623781 5.247645 28.183946 -0.896094 1.383511 0.099333 -0.027697 389178.000000 0 0 1
-17.643962 22.891381 5.738145 29.466100 -0.914135 1.374807 0.073043 -0.021127 -152052.000000 0 0 1
-16.643762 23.362181 6.832345 29.487070 -0.951781 1.336965 0.050602 -0.001063 -90955.600000 0 0 1
-16.836662 22.682681 8.031345 29.368005 -0.932261 1.293795 0.059405 -0.011933 -119242.000000 0 0 1
-16.009862 23.081581 9.068045 29.517868 -0.964365 1.258541 0.052083 -0.016061 -476179.000000 0 0 1
-16.442662 22.338881 10.348345 29.605321 -0.936279 1.213713 0.036471 -0.017245 -598442.000000 0 0 1
-17.575862 23.043781 10.737645 30.906695 -0.919206 1.215977 0.042972 -0.023055 -754891.000000 0 0 1
-18.531562 22.126281 11.261945 30.981003 -0.873583 1.198762 0.048721 -0.027249 18564.700000 0 0 1
-19.748162 22.852681 11.858145 32.447659 -0.858144 1.196675 0.061464 -0.031771 -22524.800000 0 0 1
-20.731862 23.421281 11.030045 33.166676 -0.846234 1.231775 0.075165 -0.022429 36902.500000 0 0 1
-20.386862 24.698681 10.633345 33.744882 -0.880745 1.250224 0.044945 -0.022633 -456999.000000 0 0 1
-21.504362 25.484681 9.943545 34.796274 -0.869904 1.280992 0.072174 -0.021863 287278.000000 0 0 1
-22.596162 25.819581 10.811145 35.973854 -0.851878 1.265550 0.095752 -0.034194 512868.000000 0 0 1
-23.486762 26.748881 10.241245 37.040704 -0.850243 1.290660 0.098755 -0.025936 42334.800000 0 0 1
-24.393162 27.381981 11.329945 38.381857 -0.843061 1.271142 0.098742 -0.035940 -224375.000000 0 0 1
-23.685062 28.415881 11.970545 38.881081 -0.875951 1.257837 0.098685 -0.032605 782985.000000 0 0 1
-24.487262 29.164781 12.909645 40.210315 -0.872361 1.243955 0.093869 -0.033452 254232.000000 0 0 1
9.443738 -32.520670 27.345335 43.526377 -1.288177 0.891498 0.057346 -0.028392 -388234.000000 0 0 1
10.835138 -32.586270 27.225395 43.823365 -1.249790 0.900456 0.041133 -0.033051 -292981.000000 0 0 1
11.239138 -32.145770 25.910755 42.790606 -1.234451 0.920372 0.048808 -0.026376 191213.000000 0 0 1
12.764038 -32.390570 25.803285 43.334503 -1.195415 0.932978 0.011931 -0.017740 111841.000000 0 0 1
12.944838 -33.770970 25.636445 44.331417 -1.204758 0.954164 0.037759 -0.035449 -233188.000000 0 0 1
14.310538 33.999481 25.776915 45.002284 1.172400 0.960889 0.047630 -0.026678 -389545.000000 0 0 1
14.740838 32.562881 25.409985 43.855454 1.145709 0.952800 0.072916 -0.017284 -102385.000000 0 0 1
14.835738 32.220781 24.054445 42.859004 1.139294 0.974906 0.053535 -0.017920 -388053.000000 0 0 1
15.928938 31.393381 23.885465 42.541637 1.101248 0.974646 0.062484 -0.023471 -846825.000000 0 0 1
16.233138 30.855081 22.443545 41.464003 1.086480 0.998840 0.075067 -0.028952 -36477.900000 0 0 1
15.240838 30.023181 21.848445 40.137627 1.101059 0.995196 0.059850 -0.022912 60450.400000 0 0 1
15.366238 28.634581 22.059145 39.276792 1.078274 0.974438 0.077048 -0.022871 -128540.000000 0 0 1
15.075138 28.088981 23.457955 39.579367 1.078228 0.936412 0.085960 -0.033045 -598551.000000 0 0 1
15.885438 28.522381 24.505805 40.821659 1.062636 0.926903 0.080807 -0.028380 -132606.000000 0 0 1
15.415238 28.052281 25.752405 41.082191 1.068323 0.893292 0.076987 -0.032523 -223931.000000 0 0 1
16.389338 28.474881 26.852065 42.431859 1.048532 0.885596 0.085770 -0.033136 -54828.500000 0 0 1
16.261338 29.848581 27.104315 43.474277 1.071959 0.897641 0.084815 -0.041349 -280251.000000 0 0 1
16.986438 30.292781 28.182085 44.726073 1.059743 0.889109 0.089988 -0.038013 -595813.000000 0 0 1
16.783538 31.696081 28.730025 45.953705 1.083817 0.895415 0.098572 -0.038877 -248678.000000 0 0 1
17.308538 32.695081 27.923535 46.349516 1.083912 0.924222 0.099127 -0.035703 34313.000000 0 0 1
16.990438 33.958981 28.439065 47.441204 1.106891 0.927971 0.087711 -0.021823 -39027.200000 0 0 1
17.676438 -33.029170 27.609095 46.536487 -1.079405 0.935671 0.082014 -0.028560 -528105.000000 0 0 1
17.271238 -33.080670 26.240895 45.620291 -1.089630 0.957945 0.095128 -0.025982 -129834.000000 0 0 1
17.619838 -31.927570 25.505015 44.500946 -1.066519 0.960471 0.077724 -0.024591 121178.000000 0 0 1
19.126038 -31.596870 25.295335 44.766298 -1.026478 0.970299 0.093557 -0.023019 158173.000000 0 0 1
19.689138 -30.878170 26.374315 45.130123 -1.003160 0.946648 0.088029 -0.023024 -13198.100000 0 0 1
20.847038 -30.131370 26.051455 44.957499 -0.965547 0.952720 0.090410 -0.023191 148060.000000 0 0 1
21.293938 -29.215970 27.284195 45.292736 -0.940972 0.924296 0.090890 -0.017056 -119050.000000 0 0 1
20.302538 -28.335470 27.762345 44.562761 -0.949078 0.898232 0.089028 -0.019348 -159319.000000 0 0 1
20.734138 -27.630470 28.893835 45.035553 -0.927034 0.874242 0.092280 -0.013075 -93735.300000 0 0 1
19.568238 -27.070570 29.765185 44.740339 -0.944892 0.842918 0.083099 -0.022275 213321.000000 0 0 1
18.760838 -26.230570 28.955445 43.340854 -0.949923 0.839162 0.099442 -0.020239 -138401.000000 0 0 1
17.596738 -25.886370 29.674895 43.131760 -0.973778 0.812059 0.094599 -0.021080 65562.400000 0 0 1
16.570138 -25.161770 28.742095 41.638830 -0.988438 0.808932 0.083739 -0.017375 -534299.000000 0 0 1
16.086738 -25.887770 27.627385 41.136749 -1.014788 0.834432 0.070820 -0.019023 282839.000000 0 0 1
15.262438 -25.147270 26.754825 39.763650 -1.025302 0.832747 0.061345 -0.028174 -501167.000000 0 0 1
13.863338 -24.655870 27.190465 39.235512 -1.058579 0.805145 0.062981 -0.020898 -355312.000000 0 0 1
12.814638 -25.584970 27.259445 39.520665 -1.106456 0.809650 0.057687 -0.015400 161981.000000 0 0 1
12.412838 -26.105770 25.970265 38.859290 -1.126954 0.838854 0.038631 -0.013005 -1302260.000000 0 0 1
11.473438 -27.256370 26.035695 39.400595 -1.172365 0.848920 0.043450 -0.016337 -153247.000000 0 0 1
10.130338 -27.001570 26.444795 39.128451 -1.211871 0.828685 0.050162 -0.028360 200925.000000 0 0 1
9.430338 -28.231670 26.395105 39.782660 -1.248415 0.845332 0.040258 -0.019626 -1250790.000000 0 0 1
7.981638 -28.204970 26.854765 39.754311 -1.295020 0.829129 0.035710 -0.023597 -971033.000000 0 0 1
7.008238 -28.019870 25.892615 38.789896 -1.325708 0.839938 0.054995 -0.027307 -442028.000000 0 0 1
7.044338 -26.753170 25.212855 37.430507 -1.313332 0.831740 0.076799 -0.030072 -1442180.000000 0 0 1
5.928738 -26.469270 24.218055 36.363256 -1.350448 0.841958 0.087885 -0.027638 -1391860.000000 0 0 1
5.951938 -27.324170 23.105995 36.275650 -1.356320 0.880253 0.077398 -0.023378 275698.000000 0 0 1
5.201838 -28.577070 23.237825 37.198179 -1.390739 0.896045 0.079892 -0.024178 277100.000000 0 0 1
3.699738 -28.320270 23.531305 37.006054 -1.440893 0.881652 0.110824 -0.026733 -1333210.000000 0 0 1
2.979638 -27.960870 22.363645 35.927999 -1.464632 0.898918 0.112730 -0.032054 395268.000000 0 0 1
1.615738 -27.665170 22.654945 35.794116 -1.512459 0.885473 0.127593 -0.025632 376936.000000 0 0 1
1.236538 -26.298170 23.335645 35.180607 -1.523811 0.845563 0.119696 -0.032650 -495275.000000 0 0 1
1.696238 -26.140270 24.682845 35.992135 -1.505997 0.815115 0.110879 -0.025568 149116.000000 0 0 1
1.576338 -24.762870 25.047165 35.256844 -1.507225 0.780702 0.113505 -0.030627 101517.000000 0 0 1
2.787438 -24.255970 25.911045 35.602024 -1.456381 0.755692 0.112495 -0.029273 -90636.300000 0 0 1
3.885338 -23.996470 25.065175 34.916893 -1.410276 0.770084 0.111109 -0.026228 -7285.760000 0 0 1
4.857938 -23.130570 25.678425 34.899919 -1.363783 0.743989 0.103540 -0.033839 303454.000000 0 0 1
4.433038 -21.683370 26.108385 34.226716 -1.369131 0.703153 0.090230 -0.021664 -495165.000000 0 0 1
4.222038 -20.925270 24.913955 32.808500 -1.371702 0.708444 0.090794 -0.026592 245106.000000 0 0 1
3.336838 -19.837270 25.143675 32.200251 -1.404146 0.674766 0.105477 -0.034136 154830.000000 0 0 1
3.218338 -19.004770 23.858265 30.671742 -1.403044 0.679546 0.118456 -0.035859 312694.000000 0 0 1
4.291738 -18.070370 23.712595 30.120499 -1.337615 0.664447 0.123537 -0.031030 13834.700000 0 0 1
4.546638 -17.931470 22.337445 29.002948 -1.322473 0.691675 0.125935 -0.034167 -621143.000000 0 0 1
5.732938 -17.049770 22.011945 28.426870 -1.246426 0.685131 0.098455 -0.024380 -65302.600000 0 0 1
6.913038 -17.535670 22.643245 29.461947 -1.195276 0.694211 0.078866 -0.034419 377626.000000 0 0 1
8.072938 -16.893370 22.069745 28.941871 -1.125004 0.703544 0.075183 -0.022956 1171000.000000 0 0 1
9.368838 -17.254770 22.870795 30.142586 -1.073366 0.709399 0.086235 -0.012552 466231.000000 0 0 1
9.631038 -16.484570 23.995185 30.663771 -1.042041 0.672084 0.077065 -0.016878 -590675.000000 0 0 1
10.961038 -16.666270 24.380035 31.500714 -0.989043 0.685738 0.084056 -0.010478 -344451.000000 0 0 1
11.376238 -16.016870 25.723635 32.367643 -0.953214 0.652229 0.099894 -0.020960 -157035.000000 0 0 1
11.425438 -14.611770 25.538545 31.563614 -0.907169 0.628154 0.103915 -0.018798 48193.200000 0 0 1
11.610138 -13.881970 26.719515 32.271301 -0.874282 0.595327 0.092543 -0.023504 -16856.400000 0 0 1
11.790538 -12.391470 26.418645 31.472371 -0.810243 0.574575 0.080025 -0.019736 517498.000000 0 0 1
10.563238 -11.812470 25.964125 30.417959 -0.841170 0.547980 0.070966 -0.014816 474575.000000 0 0 1
10.660538 -10.392370 25.788535 29.777457 -0.772661 0.523565 0.070998 -0.013900 -262559.000000 0 0 1
9.599938 -9.710670 24.924715 28.420016 -0.791132 0.501187 0.061787 -0.012231 187734.000000 0 0 1
8.315838 -9.579470 25.528895 28.506909 -0.855894 0.461167 0.068939 -0.021118 -116182.000000 0 0 1
7.430238 -9.027170 24.592805 27.230576 -0.882130 0.443787 0.067964 -0.019490 -475528.000000 0 0 1
5.985838 -9.051170 25.092495 27.338384 -0.986495 0.408171 0.073497 -0.028295 -1686260.000000 0 0 1
5.631438 -8.038970 26.017405 27.807256 -0.959723 0.360746 0.077567 -0.027758 892895.000000 0 0 1
4.293038 -8.163670 26.538465 28.095655 -1.086667 0.334497 0.083990 -0.027116 1412010.000000 0 0 1
3.068838 -8.364470 25.613745 27.119109 -1.219155 0.334755 0.075515 -0.024988 -851764.000000 0 0 1
2.837938 -7.200170 24.841695 26.019342 -1.195344 0.302013 0.071689 -0.026701 -268813.000000 0 0 1
1.756938 -7.303470 23.952185 25.102483 -1.334720 0.303903 0.079583 -0.027643 187891.000000 0 0 1
1.745338 -5.977570 23.175525 23.997552 -1.286712 0.262496 0.060961 -0.028603 196004.000000 0 1 0
1.623238 -4.844870 24.065605 24.602053 -1.247508 0.209211 0.064689 -0.022004 114021.000000 0 1 0
2.331538 -3.746670 23.479335 23.890433 -1.014144 0.185781 0.066694 -0.026313 -141935.000000 0 1 0
1.518638 -2.812670 22.517145 22.742893 -1.075719 0.141015 0.055888 -0.021302 1180590.000000 0 1 0
0.481038 -1.999670 23.130275 23.221535 -1.334723 0.088685 0.060299 -0.017949 1220760.000000 0 1 0
-0.748962 -2.595670 23.548325 23.702786 1.289883 0.114225 0.048784 -0.020735 566096.000000 0 1 0
-1.715162 -1.429670 23.972125 24.075891 0.694865 0.092877 0.054554 -0.023319 156289.000000 0 1 0
-1.206962 -0.695670 25.058875 25.097568 0.522871 0.055536 0.069680 -0.022930 317743.000000 0 0 1
-1.944862 0.533330 25.260135 25.340508 -0.267646 0.079667 0.069774 -0.021765 212342.000000 0 0 1
-1.534362 1.290330 26.587455 26.662933 -0.699220 0.075262 0.091239 -0.026343 -281125.000000 0 0 1
-1.720762 0.561330 27.788815 27.847699 -0.315326 0.065042 0.098178 -0.028186 -64248.900000 0 0 1
-1.094062 -0.698670 27.933175 27.963322 0.568320 0.046439 0.097610 -0.030304 673518.000000 0 0 1
0.422038 -0.577670 28.389655 28.398668 -0.939836 0.025195 0.103956 -0.026469 406859.000000 0 0 1
1.254338 -0.011670 27.405645 27.434338 -0.009303 0.045739 0.090543 -0.026493 -189345.000000 0 0 1
1.918638 -0.893670 26.528155 26.612456 -0.435902 0.079617 0.081066 -0.023563 -282697.000000 0 0 1
3.109038 -1.721670 27.018405 27.251137 -0.505728 0.130786 0.082421 -0.028057 -923613.000000 0 0 1
2.779838 -2.701670 27.970485 28.237821 -0.771139 0.137712 0.089663 -0.025956 600659.000000 0 0 1
3.837938 -3.585570 28.463415 28.943947 -0.751415 0.182474 0.085107 -0.025130 750646.000000 0 0 1
4.370538 -4.588170 27.430565 28.152954 -0.809686 0.227024 0.085580 -0.027362 159893.000000 0 0 1
5.349838 -4.015170 26.569465 27.398519 -0.643835 0.246629 0.071353 -0.024030 345597.000000 0 0 1
5.905538 -4.928470 25.560255 26.692543 -0.695456 0.292311 0.069359 -0.022910 -29748.100000 0 0 1
6.982138 -4.270070 24.668395 25.990642 -0.548884 0.320348 0.060133 -0.020812 -35436.200000 0 0 1
8.133738 -3.984470 25.446925 27.010733 -0.455510 0.341945 0.059091 -0.020804 1212960.000000 0 0 1
9.231538 -4.964770 25.565245 27.630635 -0.493432 0.389102 0.067456 -0.021463 1615770.000000 0 0 1
10.117338 -5.127070 24.267915 26.787666 -0.469042 0.437211 0.059959 -0.011200 -785690.000000 0 0 1
9.399638 -5.749970 23.221105 25.702822 -0.548994 0.443056 0.056335 -0.022022 -524330.000000 0 0 1
9.864138 -5.582570 21.948145 24.701971 -0.515003 0.476691 0.072589 -0.017310 -317396.000000 0 1 0
9.664938 -4.226270 21.258645 23.731885 -0.412225 0.460604 0.076604 -0.027813 149278.000000 0 1 0
8.316838 -3.865970 21.077545 22.986483 -0.435123 0.410419 0.063914 -0.022809 -340735.000000 0 1 0
8.363538 -2.690670 20.274645 22.096373 -0.311257 0.408909 0.058410 -0.025797 561434.000000 0 1 0
6.983738 -2.004670 20.028745 21.305913 -0.279533 0.348003 0.054680 -0.022234 205689.000000 0 1 0
6.459738 -1.342670 21.105945 22.113161 -0.204934 0.302980 0.053887 -0.017521 62727.100000 0 1 0
5.204638 -0.725670 20.851645 21.503626 -0.138534 0.246877 0.032169 -0.018277 -130919.000000 0 1 0
4.614338 -0.297670 22.158045 22.635363 -0.064420 0.205727 0.025217 -0.015788 -564031.000000 0 1 0
3.428038 0.436330 21.972945 22.243025 0.126602 0.155993 0.025560 -0.019095 -152107.000000 0 1 0
2.917238 0.872330 23.254015 23.452515 0.290563 0.130199 0.044164 -0.019253 -40859.400000 0 1 0
1.465938 1.371330 23.195245 23.281944 0.752066 0.086327 0.058038 -0.026575 -263832.000000 0 1 0
1.283238 2.726330 22.752445 22.951107 1.130876 0.131669 0.054271 -0.025853 181991.000000 0 1 0
-0.109562 2.960330 22.802945 22.994562 -1.533803 0.129188 0.051012 -0.018866 120598.000000 0 1 0
-0.589762 4.400330 22.463545 22.898069 -1.437563 0.195125 0.053827 -0.008600 -278504.000000 0 1 0
-0.303662 5.390330 23.411745 24.026187 -1.514521 0.226643 0.073542 -0.006354 228455.000000 0 1 0
-1.223462 6.448330 23.202905 24.113329 -1.383292 0.275667 0.058580 -0.004259 193063.000000 0 1 0
-1.039662 7.584330 24.178885 25.361811 -1.434565 0.306624 0.069922 0.001081 1122780.000000 0 0 1
0.097838 8.421330 23.823715 25.268514 1.559179 0.339797 0.069930 0.001152 980374.000000 0 0 1
-0.127962 9.691330 24.393285 26.248250 -1.557593 0.378202 0.082322 0.001517 -259429.000000 0 0 1
0.683838 10.824330 23.669335 26.035959 1.507704 0.429674 0.093742 -0.010346 679205.000000 0 0 1
2.090638 10.683330 23.688625 26.070199 1.377547 0.430762 0.080825 -0.011403 59708.900000 0 0 1
2.746138 10.948330 24.960455 27.394005 1.325039 0.424694 0.120663 -0.021566 -344113.000000 0 0 1
4.063038 11.736330 24.806355 27.741755 1.237517 0.464181 0.106894 -0.029351 1244710.000000 0 0 1
5.226938 11.152330 24.143025 27.103155 1.132512 0.471731 0.094591 -0.028876 1218810.000000 0 0 1
4.990838 10.717330 22.800445 25.683262 1.134980 0.478351 0.086023 -0.028451 -510548.000000 0 0 1
6.302638 10.170330 22.150645 25.175582 1.016011 0.495257 0.083127 -0.028484 470561.000000 0 0 1
7.161038 11.201330 21.753445 25.494365 1.001978 0.548582 0.071116 -0.035054 225740.000000 0 0 1
8.358638 10.742330 21.128645 25.133327 0.909551 0.572291 0.075423 -0.036251 798670.000000 0 0 1
9.350038 11.855330 20.687645 25.611535 0.902997 0.630476 0.066511 -0.041120 -186607.000000 0 0 1
8.905738 12.541330 19.552545 24.877684 0.953317 0.666570 0.073006 -0.038747 35614.200000 0 1 0
9.832038 13.464330 19.014545 25.288537 0.940070 0.719851 0.091677 -0.040543 -11274.400000 0 0 1
11.101438 12.966330 18.300745 25.025685 0.862729 0.750602 0.091995 -0.042920 -346676.000000 0 0 1
12.125038 12.632330 19.195645 25.982015 0.805886 0.739501 0.091863 -0.047373 822369.000000 0 0 1
13.376638 12.451330 18.465345 25.979589 0.749588 0.780213 0.087544 -0.047010 863056.000000 0 0 1
14.611438 12.147330 19.295345 27.080659 0.693571 0.777722 0.076259 -0.030202 -257224.000000 0 0 1
14.983938 13.196330 20.166345 28.378566 0.722048 0.780419 0.079632 -0.028978 604627.000000 0 0 1
16.185138 12.861330 20.902345 29.398648 0.671463 0.779882 0.069233 -0.025480 852284.000000 0 0 1
16.939538 14.100330 21.386745 30.710912 0.694182 0.800443 0.068257 -0.021887 -128061.000000 0 0 1
16.344338 14.783330 22.465945 31.470668 0.735292 0.775788 0.081545 -0.026067 -58992.400000 0 0 1
17.171838 15.840330 22.890315 32.707103 0.745086 0.795598 0.079527 -0.024369 -36012.200000 0 0 1
-21.482862 12.527081 -24.807399 35.126175 -0.527915 2.354965 0.070088 -0.027199 -50196.500000 0 0 1
-21.390362 12.543081 -26.184189 36.062283 -0.530352 2.383404 0.073652 -0.032389 1314270.000000 0 0 1
-22.487962 13.337681 -26.760729 37.413084 -0.535333 2.367817 0.069830 -0.033892 1124020.000000 0 0 1
-22.243462 13.294081 -28.280979 38.357763 -0.538699 2.399854 0.073563 -0.027945 -569627.000000 0 0 1
-21.048262 13.844581 -28.695029 38.185161 -0.581807 2.421085 0.085607 -0.022936 -932622.000000 0 0 1
-20.784662 13.667481 -30.091299 39.042138 -0.581682 2.450797 0.070523 -0.035981 293956.000000 0 0 1
-19.339962 14.147581 -30.361959 38.678635 -0.631569 2.473460 0.071139 -0.033481 464455.000000 0 0 1
-18.235262 13.436081 -29.820109 37.447189 -0.635012 2.491990 0.074030 -0.039319 638653.000000 0 0 1
-17.054062 14.267981 -29.814709 37.193188 -0.696682 2.500792 0.056940 -0.026700 1086560.000000 0 0 1
-16.068662 13.916781 -28.677079 35.696689 -0.713757 2.503703 0.074389 -0.018898 146121.000000 0 0 1
-16.548562 14.292781 -27.399129 35.054968 -0.712387 2.468031 0.072820 -0.030460 77668.500000 0 0 1
-17.340362 13.278781 -26.743109 34.528367 -0.653520 2.456761 0.093365 -0.024432 112238.000000 0 0 1
-17.954662 13.700781 -25.379189 33.973292 -0.651818 2.414385 0.087930 -0.017990 -462330.000000 0 0 1
-17.005962 14.175981 -24.473899 33.002014 -0.694889 2.406231 0.116194 -0.038324 -61218.600000 0 0 1
-17.711762 14.677381 -23.356199 32.781765 -0.691986 2.363816 0.105863 -0.038510 32824.100000 0 0 1
-16.801262 15.265081 -22.270199 31.800423 -0.737528 2.346630 0.106641 -0.027751 74046.300000 0 0 1
-16.371762 16.542581 -22.747399 32.544366 -0.790588 2.344747 0.090974 -0.024926 -190590.000000 0 0 1
-15.470262 17.247681 -21.943499 31.911263 -0.839670 2.329032 0.098787 -0.026290 -566696.000000 0 0 1
-15.298462 18.662581 -22.522999 33.009399 -0.884134 2.321729 0.074745 -0.015596 -100541.000000 0 0 1
-16.373362 19.545081 -22.281999 33.861257 -0.873473 2.289007 0.029433 -0.011007 -57955.700000 0 0 1
-17.420262 19.328581 -23.205799 34.865007 -0.837280 2.299080 0.018992 -0.004448 -257118.000000 0 0 1
-18.745662 20.053881 -22.849199 35.716158 -0.819103 2.264962 0.012523 -0.003671 233129.000000 0 0 1
-18.681062 21.429481 -23.118399 36.642396 -0.853812 2.253534 -0.000809 0.003464 -430240.000000 0 0 1
-19.920262 22.031781 -22.886099 37.496530 -0.835687 2.227302 0.020310 -0.009513 -426448.000000 0 0 1
-19.907862 23.515981 -23.241699 38.594053 -0.868298 2.217062 0.008648 -0.000192 -3023.540000 0 0 1
-19.170062 24.303481 -22.328299 38.166785 -0.902935 2.195700 0.008141 0.004226 -31174.500000 0 0 1
-18.262762 25.187381 -22.979599 38.678090 -0.943438 2.206973 0.006382 0.014328 -198369.000000 0 0 1
-17.074262 25.465081 -22.039199 37.758802 -0.980147 2.194054 0.004412 0.001935 218945.000000 0 0 1
-15.982462 24.528881 -21.958299 36.596066 -0.993313 2.214320 0.023203 -0.011771 731114.000000 0 0 1
-16.353662 23.267181 -21.379499 35.579306 -0.958151 2.215419 0.026815 0.008032 -241743.000000 0 0 1
-15.153562 22.260281 -21.299099 34.333689 -0.973111 2.239992 0.061815 -0.004514 262981.000000 0 0 1
-14.248862 22.584681 -20.302199 33.545152 -1.007960 2.220839 0.084424 -0.020709 -519332.000000 0 0 1
-13.254062 21.610881 -20.091099 32.347374 -1.020651 2.240948 0.094715 -0.024655 89061.800000 0 0 1
-12.429762 21.926781 -18.799499 31.443662 -1.055089 2.211649 0.078408 -0.024572 -18100.700000 0 0 1
-13.106162 21.883781 -17.559899 30.968071 -1.031187 2.173695 0.088541 -0.020985 -226616.000000 0 0 1
-13.839062 23.053081 -17.306499 31.976227 -1.030147 2.142696 0.089312 -0.028627 -228606.000000 0 0 1
-14.509062 23.088781 -15.916299 31.574251 -1.009754 2.099126 0.105933 -0.030425 -585416.000000 0 0 1
-13.634762 23.253381 -14.884299 30.792351 -1.040470 2.075304 0.108815 -0.048693 -706359.000000 0 0 1
-14.342462 23.329681 -13.652899 30.600358 -1.019585 2.033275 0.132429 -0.046855 -169231.000000 0 0 1
-13.548962 23.765981 -12.422399 30.045170 -1.052653 1.997044 0.159634 -0.054707 -389792.000000 0 0 1
-12.998662 25.058481 -12.520899 30.881477 -1.092275 1.988268 0.139616 -0.063679 -128291.000000 0 0 1
-12.080962 25.135181 -11.477099 30.157102 -1.122757 1.961216 0.099401 -0.054106 -480209.000000 0 0 1
-11.428362 26.511781 -11.342699 31.018363 -1.163798 1.945156 0.123016 -0.057317 -187758.000000 0 0 1
-10.796962 26.855381 -12.533199 31.541512 -1.188532 1.979430 0.111617 -0.052349 -192334.000000 0 0 1
-10.879762 28.219881 -12.733099 32.815587 -1.202821 1.969278 0.089666 -0.035836 -575255.000000 0 0 1
-10.242862 28.597581 -14.096199 33.487919 -1.226860 2.005271 0.114455 -0.055476 1471230.000000 0 0 1
-8.808062 28.451081 -14.251799 33.017568 -1.270568 2.017110 0.088345 -0.054324 1126890.000000 0 0 1
-8.262962 27.161981 -14.210799 31.748962 -1.275481 2.034875 0.097624 -0.058962 -491882.000000 0 0 1
-6.866762 27.123581 -14.862399 31.681730 -1.322840 2.059086 0.108698 -0.060888 1636490.000000 0 0 1
-5.754062 27.752081 -14.153399 31.679741 -1.366355 2.033942 0.096243 -0.055050 2015050.000000 0 0 1
-4.468262 27.784881 -14.827699 31.809207 -1.411345 2.055725 0.110199 -0.053264 891221.000000 0 0 1
-3.536362 28.910881 -14.455099 32.516070 -1.449082 2.031471 0.091911 -0.039504 -430285.000000 0 0 1
-3.933762 30.275781 -14.665899 33.870135 -1.441589 2.018619 0.084143 -0.032869 -74541.000000 0 0 1
-4.746562 30.807181 -13.637199 34.023308 -1.417925 1.983207 0.071445 -0.030727 259327.000000 0 0 1
-5.114062 32.312781 -13.836699 35.520751 -1.413831 1.970927 0.063618 -0.036716 788613.000000 0 0 1
-3.986262 33.150181 -13.534899 36.028021 -1.451122 1.955924 0.053138 -0.033380 579446.000000 0 0 1
-4.397862 -33.568970 -13.635199 36.498433 1.440528 1.953665 0.066392 -0.031533 859743.000000 0 0 1
-3.377762 -32.614170 -12.906299 35.237280 1.467597 1.945792 0.062442 -0.030008 518483.000000 0 0 1
-3.561862 -32.528970 -11.547999 34.701254 1.461733 1.910050 0.047903 -0.029456 -925203.000000 0 0 1
-2.495662 -31.995470 -10.874699 33.885063 1.492953 1.897507 0.032915 -0.033679 -1198670.000000 0 0 1
-2.787262 -32.054770 -9.350999 33.506989 1.484061 1.853628 0.022650 -0.026598 -113591.000000 0 0 1
-1.914662 -31.256970 -8.526999 32.455721 1.509617 1.836644 0.046091 -0.030476 151926.000000 0 0 1
-2.200662 -31.421870 -7.140299 32.297998 1.500874 1.793714 0.034392 -0.031897 449473.000000 0 0 1
-1.213362 -30.611570 -6.197199 31.256131 1.531180 1.770390 0.058593 -0.031672 448875.000000 0 0 1
-1.290762 -30.823670 -4.807599 31.223031 1.528945 1.725387 0.067411 -0.030933 351772.000000 0 0 1
-0.285062 -30.047970 -4.121499 30.330653 1.561310 1.707104 0.066378 -0.030844 282926.000000 0 0 1
-0.233462 -30.161970 -2.546999 30.270218 1.563056 1.655038 0.077157 -0.026371 -522085.000000 0 0 1
-0.014462 -31.446170 -2.017199 31.510806 1.570336 1.634856 0.080808 -0.029333 395650.000000 0 0 1
1.224938 -32.083970 -2.338299 32.192378 -1.532636 1.643496 0.071784 -0.030949 412244.000000 0 0 1
2.459138 -31.511070 -1.606599 31.647686 -1.492914 1.621583 0.084417 -0.030651 -1306490.000000 0 0 1
2.686238 -32.071270 -0.354599 32.185524 -1.487233 1.581814 0.060247 -0.027696 955323.000000 0 0 1
4.019638 -31.832370 0.139601 32.085460 -1.445186 1.566445 0.064448 -0.021152 824160.000000 0 0 1
4.491238 -30.444770 0.445201 30.777482 -1.424332 1.556331 0.042164 -0.022920 -1224040.000000 0 0 1
4.893338 -29.714170 -0.748599 30.123696 -1.407581 1.595650 0.060018 -0.027830 240552.000000 0 0 1
4.521438 -28.386670 -0.563299 28.750021 -1.412843 1.590391 0.078074 -0.021561 -556635.000000 0 0 1
4.099938 -27.703070 -1.854199 28.066129 -1.423867 1.636910 0.077800 -0.021027 -68876.300000 0 0 1
2.794038 -28.022670 -2.302299 28.255570 -1.471418 1.652368 0.081275 -0.019219 314432.000000 0 0 1
2.288138 -27.168470 -3.366199 27.471669 -1.486774 1.693639 0.074022 -0.017862 39738.300000 0 0 1
2.811738 -27.201370 -4.815499 27.767056 -1.467795 1.745103 0.081018 -0.020700 -69717.500000 0 0 1
2.298938 -28.352270 -5.557899 28.983212 -1.489889 1.763754 0.077751 -0.026961 274001.000000 0 0 1
2.625138 -28.202370 -6.926999 29.159018 -1.477982 1.810649 0.099329 -0.040854 -338924.000000 0 0 1
1.865638 -29.111570 -7.849799 30.208996 -1.506798 1.833663 0.074927 -0.038371 -704300.000000 0 0 1
0.560638 -28.714470 -8.180399 29.862251 -1.551274 1.848281 0.056823 -0.035033 -337628.000000 0 0 1
0.374538 -28.763970 -9.585899 30.321538 -1.557776 1.892456 0.072273 -0.033195 -323960.000000 0 0 1
-1.015762 -28.227470 -9.897099 29.929490 1.534827 1.907821 0.048189 -0.033775 -1048480.000000 0 0 1
-1.031862 -26.818670 -9.714399 28.542518 1.532340 1.918084 0.054207 -0.029696 -559680.000000 0 0 1
-2.234962 -26.118970 -9.765699 27.974355 1.485436 1.927401 0.062729 -0.023242 132665.000000 0 0 1
-3.380162 -26.482470 -8.760299 28.097857 1.443845 1.887860 0.061012 -0.024475 -33214.100000 0 0 1
-3.158062 -26.207170 -7.390299 27.411779 1.450871 1.843777 0.069082 -0.023119 -514126.000000 0 0 1
-2.399962 -27.195470 -6.762599 28.126254 1.482776 1.813613 0.071671 -0.019164 74102.200000 0 0 1
-1.988062 -26.904770 -5.293799 27.492605 1.497038 1.764560 0.070217 -0.011483 -387072.000000 0 0 1
-3.090162 -26.930570 -4.448199 27.469823 1.456550 1.733443 0.070625 -0.014385 -493406.000000 0 0 1
-2.797262 -26.920070 -3.026599 27.233713 1.467258 1.682161 0.066738 -0.007132 -115520.000000 0 0 1
-4.032362 -27.114770 -2.112299 27.494226 1.423164 1.647699 0.092429 -0.013528 -166766.000000 0 0 1
-4.894862 -26.018670 -2.125099 26.560250 1.384841 1.650892 0.080696 -0.011624 -576863.000000 0 0 1
-5.632562 -26.035270 -0.938599 26.654118 1.357736 1.606018 0.091372 -0.022587 -527520.000000 0 0 1
-6.504962 -24.804870 -0.750399 25.654613 1.314326 1.600051 0.075788 -0.022240 -3649.610000 0 0 1
-5.756062 -23.611870 -0.575699 24.310164 1.331682 1.594480 0.055616 -0.020665 -112896.000000 0 1 0
-6.514562 -22.728870 0.203501 23.644924 1.291659 1.562190 0.076134 -0.028301 -12403.800000 0 1 0
-5.814462 -21.386470 0.550501 22.169621 1.305337 1.545962 0.051132 -0.027549 118253.000000 0 1 0
-4.776362 -21.495670 1.498801 22.070882 1.352147 1.502836 0.046004 -0.022810 -200097.000000 0 1 0
-4.334362 -20.205870 1.945301 20.756880 1.359489 1.476940 0.030872 -0.018083 602015.000000 0 1 0
-3.104262 -20.249370 2.913801 20.692116 1.418679 1.429510 0.033401 -0.005822 356219.000000 0 1 0
-3.575762 -20.515570 4.216601 21.247456 1.398235 1.371018 0.025038 0.014296 29028.300000 0 1 0
-2.606462 -20.561670 5.250601 21.380943 1.444706 1.322685 0.021440 0.015030 -149024.000000 0 1 0
-1.801462 -21.836770 5.328101 22.549466 1.488486 1.332256 0.029849 -0.005293 -657687.000000 0 1 0
-0.873762 -21.921570 4.314301 22.359156 1.530959 1.376624 0.055556 -0.007250 -718946.000000 0 1 0
-0.132262 -23.125970 4.452001 23.550972 1.565077 1.380615 0.057073 -0.007231 -632579.000000 0 1 0
0.883938 -23.391570 3.287001 23.637920 -1.533026 1.431288 0.055527 -0.018362 700228.000000 0 1 0
1.968038 -22.458470 3.150901 22.763660 -1.483390 1.431932 0.011817 -0.017146 -216754.000000 0 1 0
2.928638 -22.920770 4.059201 23.460940 -1.443713 1.396902 0.043788 -0.019521 -1477970.000000 0 1 0
3.907538 -21.781370 4.472601 22.576560 -1.393286 1.371369 0.052663 -0.022966 -127505.000000 0 1 0
4.698038 -21.428970 3.390301 22.198343 -1.354973 1.417469 0.034411 -0.019134 -656373.000000 0 1 0
5.945538 -20.922270 3.829101 22.085126 -1.293922 1.396537 0.048873 -0.009680 182125.000000 0 1 0
6.884138 -20.634070 2.667201 21.915067 -1.248779 1.448788 0.058557 -0.002916 -529381.000000 0 1 0
7.213438 -21.782270 1.925401 23.026249 -1.251002 1.487081 0.056987 -0.001683 -308375.000000 0 1 0
7.149138 -21.418670 0.592601 22.588067 -1.248643 1.544558 0.049912 -0.013420 -148391.000000 0 1 0
8.023038 -22.233970 -0.348999 23.639804 -1.224492 1.585560 0.060836 -0.013387 -570580.000000 0 1 0
9.309238 -21.774170 -0.611599 23.688614 -1.166780 1.596617 0.064078 -0.008021 -899057.000000 0 1 0
9.829738 -22.608970 -1.643199 24.708083 -1.160678 1.637350 0.069208 -0.011893 382977.000000 0 1 0
11.229038 -22.187570 -2.173099 24.962009 -1.102284 1.657963 0.064627 -0.010022 462684.000000 0 1 0
11.187938 -20.966070 -2.896299 23.940229 -1.080615 1.692074 0.057404 -0.010592 -934392.000000 0 1 0
12.420838 -20.721770 -3.460699 24.405847 -1.030811 1.713074 0.056010 -0.015291 -996877.000000 0 1 0
12.492638 -19.458870 -4.385799 23.536118 -1.000064 1.758235 0.045370 -0.031144 -393025.000000 0 1 0
12.828538 -18.318970 -3.663099 22.662178 -0.959878 1.733148 0.061286 -0.027157 161494.000000 0 1 0
12.830038 -17.229970 -4.529799 21.954517 -0.930738 1.778616 0.069681 -0.032954 -1015810.000000 0 1 0
13.423438 -15.942370 -3.879499 21.199018 -0.870966 1.754837 0.076281 -0.027073 488809.000000 0 1 0
14.778738 -15.999170 -3.468799 22.054865 -0.825030 1.728733 0.075055 -0.021337 184138.000000 0 1 0
15.707438 -16.090470 -4.535199 22.938937 -0.797443 1.769815 0.079678 -0.022540 615391.000000 0 1 0
17.159038 -15.571470 -4.076699 23.527064 -0.736932 1.744952 0.086768 -0.022442 1259810.000000 0 1 0
17.878638 -16.604270 -3.458699 24.643662 -0.748458 1.711610 0.100514 -0.026948 918163.000000 0 1 0
19.255138 -16.214170 -3.289199 25.386580 -0.699872 1.700726 0.085794 -0.015560 703840.000000 0 0 1
20.090538 -17.284370 -2.565299 26.626301 -0.710457 1.667291 0.086662 -0.025938 247416.000000 0 0 1
21.487738 -17.012570 -2.558099 27.526247 -0.669680 1.663864 0.082970 -0.017932 412453.000000 0 0 1
22.031038 -17.548470 -1.377799 28.199534 -0.672624 1.619675 0.082226 -0.016276 748555.000000 0 0 1
23.599738 -17.631470 -1.306299 29.487671 -0.641645 1.615111 0.090082 -0.020643 580881.000000 0 0 1
24.290038 -16.458170 -1.047399 29.359399 -0.595512 1.606479 0.095900 -0.029654 -65709.100000 0 0 1
25.558038 -16.813070 -0.530199 30.596956 -0.581866 1.588126 0.126779 -0.027528 93804.500000 0 0 1
26.394638 -15.591770 -0.075399 30.655927 -0.533566 1.573256 0.117735 -0.027430 75748.700000 0 0 1
25.692038 -14.804570 0.915101 29.666370 -0.522760 1.539945 0.127824 -0.030074 639707.000000 0 0 1
26.522538 -13.845570 1.624901 29.963062 -0.481116 1.516540 0.114077 -0.036301 253917.000000 0 0 1
25.796638 -12.977170 2.687701 29.001675 -0.466090 1.477989 0.148949 -0.035946 -303904.000000 0 0 1
25.378938 -13.617370 3.906101 29.065114 -0.492468 1.435997 0.155918 -0.028235 557834.000000 0 0 1
26.410038 -14.199170 4.713901 30.353375 -0.493307 1.414864 0.153729 -0.028266 305299.000000 0 0 1
25.848238 -14.715870 6.034201 30.349626 -0.517554 1.370640 0.144471 -0.019036 -252232.000000 0 0 1
24.935338 -15.722770 5.789201 30.041495 -0.562574 1.376876 0.140862 -0.019869 -239654.000000 0 0 1
24.132338 -16.008270 6.928401 29.776453 -0.585705 1.335963 0.125941 -0.015854 62900.900000 0 0 1
23.281138 -17.279870 6.763301 29.771589 -0.638507 1.341623 0.127077 -0.015822 -457709.000000 0 0 1
24.083838 -18.413170 6.784501 31.066147 -0.652745 1.350633 0.135632 -0.009202 22714.600000 0 0 1
23.348738 -19.630970 6.913101 31.278259 -0.699112 1.347937 0.086145 0.008494 -11474.400000 0 0 1
2.040338 23.289081 -3.000399 23.570038 1.483410 1.698440 0.049097 -0.020222 259499.000000 0 1 0
2.810838 24.466781 -2.834399 24.790281 1.456414 1.685382 0.060157 -0.018400 575602.000000 0 1 0
3.780438 24.654581 -3.897599 25.245423 1.418645 1.725805 0.081004 -0.024756 305574.000000 0 0 1
4.840438 25.707281 -3.594099 26.404767 1.384685 1.707336 0.065821 -0.013543 -157656.000000 0 0 1
5.832538 25.202081 -2.717099 26.010498 1.343369 1.675449 0.046644 -0.021150 122904.000000 0 0 1
6.735238 26.194881 -2.222099 27.138035 1.319127 1.652769 0.044526 -0.025365 -65156.800000 0 0 1
7.902938 25.587281 -1.449999 26.819170 1.271229 1.624888 0.027190 -0.038437 -431276.000000 0 0 1
8.986538 25.214781 -2.285499 26.865713 1.228432 1.655971 0.029968 -0.036578 -131029.000000 0 0 1
9.768338 24.270981 -1.563699 26.209657 1.188163 1.630493 0.018180 -0.026387 14716.800000 0 0 1
11.125838 23.963481 -2.219199 26.513347 1.136128 1.654596 0.044897 -0.025353 -671091.000000 0 0 1
12.062438 25.041781 -2.277399 27.888703 1.121902 1.652548 0.050747 -0.023519 946032.000000 0 0 1
13.079838 24.885081 -3.306299 28.306908 1.086872 1.687865 0.049018 -0.023206 1047070.000000 0 0 1
14.015938 23.631181 -3.395999 27.684148 1.035457 1.693776 0.069502 -0.020186 -784029.000000 0 0 1
13.375538 22.406081 -3.601399 26.342125 1.032615 1.707942 0.072875 -0.021863 -165155.000000 0 0 1
12.919738 22.185081 -4.960399 26.147715 1.043447 1.761660 0.078375 -0.029146 519519.000000 0 0 1
11.946938 20.960381 -5.136999 24.666894 1.052745 1.780587 0.073359 -0.030838 377962.000000 0 1 0
10.619438 21.140581 -4.700199 24.120292 1.105291 1.766916 0.064525 -0.031251 -317739.000000 0 1 0
9.820338 19.941181 -4.711999 22.722075 1.113195 1.779688 0.039191 -0.029476 -423352.000000 0 1 0
8.372938 20.408681 -4.665299 22.547403 1.181474 1.779213 0.032437 -0.020511 -802450.000000 0 1 0
7.997938 20.949381 -3.436599 22.685982 1.206100 1.722867 0.033929 -0.017217 679983.000000 0 1 0
6.662838 21.484681 -3.513999 22.766931 1.270081 1.725762 0.037982 -0.008000 1162550.000000 0 1 0
6.133538 22.115181 -2.150499 23.050514 1.300251 1.664227 0.043738 -0.013887 203746.000000 0 1 0
5.817938 21.214081 -1.112799 22.025530 1.303129 1.621341 0.035165 -0.019736 87093.900000 0 1 0
5.218738 21.919681 -0.034099 22.532395 1.337063 1.572310 0.047607 -0.015689 139711.000000 0 1 0
4.548738 21.041681 1.035701 21.552634 1.357895 1.522723 0.023844 -0.018161 -371486.000000 0 1 0
3.808238 21.765981 1.972001 22.184440 1.397587 1.481788 0.030538 -0.013092 -40640.700000 0 1 0
3.393238 20.894481 3.004901 21.380431 1.409803 1.429785 0.032969 -0.014077 -63771.200000 0 1 0
2.305638 21.480981 3.927901 21.958527 1.463872 1.390950 0.020606 -0.010514 -762633.000000 0 1 0
0.988138 21.442281 3.503201 21.749029 1.524745 1.409018 0.017305 -0.015784 -990639.000000 0 1 0
0.184738 22.064081 4.453801 22.509868 1.562424 1.371622 0.021065 -0.014159 23235.100000 0 1 0
-1.284662 22.141481 3.988801 22.534553 -1.512841 1.392851 0.024603 -0.015822 567587.000000 0 1 0
-2.305062 22.518981 4.932201 23.167745 -1.468791 1.356264 0.042575 -0.021098 -165022.000000 0 1 0
-3.521662 22.527481 4.261701 23.195939 -1.415724 1.386021 0.065028 -0.025843 -622584.000000 0 1 0
-4.754362 22.743081 5.145701 23.797688 -1.364718 1.352848 0.075230 -0.037571 -278706.000000 0 1 0
-4.935962 24.043281 5.619501 25.179791 -1.368315 1.345726 0.096810 -0.028797 -599.882000 0 0 1
-6.255262 24.151581 6.113801 25.686684 -1.317365 1.330475 0.100048 -0.027804 50734.800000 0 0 1
-6.583062 25.618181 6.527201 27.243940 -1.319270 1.328859 0.111431 -0.029052 14603.900000 0 0 1
-5.765362 26.156081 7.562001 27.830987 -1.353844 1.295625 0.086236 -0.037239 241024.000000 0 0 1
-6.325662 27.314081 8.197601 29.210849 -1.343219 1.286340 0.098017 -0.028816 35419.200000 0 0 1
-6.503162 28.652381 7.509401 30.325586 -1.347610 1.320567 0.119039 -0.032541 921964.000000 0 0 1
-7.578062 28.581981 6.533001 30.282615 -1.311625 1.353352 0.110423 -0.042470 206775.000000 0 0 1
-7.687562 29.734981 5.679401 31.233369 -1.317800 1.387941 0.130754 -0.042600 86074.000000 0 0 1
-9.113462 30.196181 5.203201 31.967763 -1.277681 1.407305 0.107035 -0.042147 993159.000000 0 0 1
-9.996162 30.743181 6.170401 32.911097 -1.256428 1.382193 0.091825 -0.029607 152877.000000 0 0 1
-10.579762 29.701081 6.971201 32.290606 -1.228602 1.353194 0.075512 -0.019767 -984526.000000 0 0 1
-11.542962 30.174581 8.047301 33.294209 -1.205432 1.326676 0.052131 -0.020919 -416821.000000 0 0 1
-11.022662 30.780181 9.198601 33.963700 -1.226916 1.296535 0.066053 -0.025502 -40929.300000 0 0 1
-12.101862 31.026081 10.068201 34.791399 -1.198893 1.277209 0.066444 -0.017758 78526.200000 0 0 1
-11.535362 31.407881 11.462301 35.368120 -1.218814 1.240751 0.066742 -0.025136 -112524.000000 0 0 1
-11.035362 32.706881 11.399901 36.352126 -1.245389 1.251818 0.070902 -0.029354 154226.000000 0 0 1
-10.149062 32.962081 12.475701 36.676224 -1.272107 1.223712 0.068915 -0.034618 198732.000000 0 0 1
-9.764362 -33.590170 12.485701 37.142092 1.287902 1.227959 0.069331 -0.036649 19920.200000 0 0 1
-10.600662 -32.848370 13.341501 37.005203 1.258632 1.201960 0.057439 -0.023881 68315.100000 0 0 1
-10.252862 -31.490770 13.184601 35.645806 1.256037 1.191919 0.055902 -0.020970 211191.000000 0 0 1
-11.134362 -30.510170 14.062501 35.392067 1.220875 1.162186 0.059999 -0.028590 216645.000000 0 0 1
-11.015762 -30.620370 15.498901 36.044001 1.225460 1.126304 0.055823 -0.034013 321185.000000 0 0 1
-9.728762 -30.246470 15.980201 35.564934 1.259598 1.104787 0.061160 -0.034097 -21470.300000 0 0 1
-9.455562 -30.673070 17.394701 36.507814 1.271770 1.074167 0.045785 -0.040915 -614598.000000 0 0 1
-10.172562 -29.998470 18.432801 36.649111 1.243862 1.043784 0.087984 -0.038655 206792.000000 0 0 1
-11.440462 -30.557370 18.730601 37.622765 1.212558 1.049675 0.071707 -0.035931 -164505.000000 0 0 1
-11.978662 -29.905670 20.014301 37.926372 1.189817 1.014889 0.096791 -0.040510 -47332.500000 0 0 1
-11.080962 -29.990270 21.113701 38.314388 1.216869 0.987157 0.081578 -0.037873 130403.000000 0 0 1
-11.495662 -29.203770 22.187801 38.435776 1.195788 0.955416 0.073918 -0.034820 125043.000000 0 0 1
-10.317662 -28.762370 23.097301 38.304221 1.226374 0.923545 0.077385 -0.029722 214759.000000 0 0 1
-9.948462 -29.640370 24.086701 39.467614 1.246972 0.914369 0.078690 -0.027289 -243779.000000 0 0 1
-8.573862 -29.599670 24.382701 39.295899 1.288852 0.901429 0.091310 -0.017480 -10492.100000 0 0 1
-8.178862 -30.491170 25.599601 40.644123 1.308728 0.889439 0.101034 -0.019074 -226597.000000 0 0 1
-8.171462 -31.831970 25.215501 41.423044 1.319516 0.916336 0.109083 -0.012701 283215.000000 0 0 1
-8.330762 -32.738670 26.290801 42.806872 1.321622 0.909459 0.114515 -0.012088 -328305.000000 0 0 1
-8.127362 33.874981 25.737901 43.312907 -1.335325 0.934486 0.105379 -0.016816 51350.000000 0 0 1
-6.775262 33.575181 25.403801 42.644461 -1.371677 0.932645 0.096182 -0.012801 434721.000000 0 0 1
-6.546562 32.285781 24.798201 41.233238 -1.370739 0.925528 0.078984 -0.006977 -235868.000000 0 0 1
-7.164162 31.948881 23.442101 40.268950 -1.350207 0.949440 0.084761 -0.009016 -542829.000000 0 0 1
-8.272662 31.109181 23.589901 39.908665 -1.310888 0.938378 0.090930 -0.011765 -300694.000000 0 0 1
-8.898962 31.027681 22.316001 39.241718 -1.291487 0.965895 0.081053 -0.014266 -222010.000000 0 0 1
-9.913362 29.911181 22.180501 38.534765 -1.250763 0.957462 0.075710 -0.022351 -212759.000000 0 0 1
-9.244862 28.736881 21.796401 37.233841 -1.259546 0.945433 0.068852 -0.019230 -318443.000000 0 0 1
-9.860262 27.596281 22.306201 36.828604 -1.227629 0.920181 0.066740 -0.020753 -627575.000000 0 0 1
-9.209562 26.204581 21.970801 35.414858 -1.232832 0.901565 0.057692 -0.015073 -300375.000000 0 0 1
-8.049062 26.155181 22.765101 35.596780 -1.272251 0.876914 0.040876 -0.011128 -370806.000000 0 0 1
-7.532462 24.869281 22.744201 34.532851 -1.276697 0.851806 0.039202 -0.014568 -319480.000000 0 0 1
-6.289562 24.584381 23.609201 34.660420 -1.320333 0.821454 0.031153 -0.014688 -127004.000000 0 0 1
-5.205962 25.231681 23.028201 34.554852 -1.367325 0.841394 0.035557 -0.011954 -867026.000000 0 0 1
-3.938962 25.068881 23.604401 34.657351 -1.414945 0.821561 0.049923 -0.013076 675543.000000 0 0 1
-2.853862 25.803981 22.697801 34.484491 -1.460646 0.852367 0.046592 -0.004794 373992.000000 0 0 1
-2.723362 25.083281 21.466701 33.127133 -1.462647 0.865828 0.044503 -0.004382 -44551.000000 0 0 1
-1.794062 25.701581 20.621101 33.000299 -1.501106 0.895823 0.045230 -0.003398 -133519.000000 0 0 1
-1.455362 24.755981 19.441901 31.511334 -1.512076 0.905895 0.033736 -0.011125 -206087.000000 0 0 1
-0.514662 23.783881 19.864401 30.992455 -1.549161 0.875070 0.047021 -0.004719 -12419.300000 0 0 1
-0.300862 22.776981 18.817401 29.546167 -1.557588 0.880350 0.032660 -0.009776 -449980.000000 0 0 1
0.756738 21.667481 19.028201 28.846574 1.535885 0.850464 0.041756 -0.001005 272173.000000 0 0 1
2.087138 22.137681 19.069601 29.293049 1.476794 0.861903 0.040098 -0.009268 -43522.800000 0 0 1
2.996938 21.050981 19.259001 28.688579 1.429381 0.834818 0.047268 -0.003373 1090450.000000 0 0 1
4.469338 21.575781 19.425901 29.374392 1.366539 0.848218 0.036498 -0.014970 898686.000000 0 0 1
5.511338 20.659681 19.148001 28.702669 1.310100 0.840466 0.056775 -0.012669 1195940.000000 0 0 1
6.796438 21.312181 18.980001 29.336684 1.262092 0.867190 0.095899 -0.018221 499454.000000 0 0 1
7.935238 20.391181 18.653401 28.752698 1.199678 0.864852 0.101351 -0.011166 -683637.000000 0 0 1
8.587438 19.722381 19.703101 29.170680 1.160137 0.829232 0.098480 -0.021473 180975.000000 0 0 1
9.747338 18.979381 19.372901 28.819035 1.096348 0.833585 0.111955 -0.022557 700471.000000 0 0 1
10.461538 18.298381 20.591701 29.466806 1.051431 0.797064 0.111700 -0.021097 244919.000000 0 0 1
9.619938 17.276881 21.100801 28.918465 1.062740 0.752964 0.096898 -0.024003 166319.000000 0 0 1
10.204638 16.578981 22.185101 29.515690 1.019046 0.720255 0.097288 -0.027900 400069.000000 0 0 1
9.357138 15.268781 22.471201 28.734066 1.020998 0.672863 0.078677 -0.027077 985314.000000 0 0 1
8.110138 15.446281 23.134201 28.975044 1.087307 0.646133 0.088682 -0.011628 238001.000000 0 0 1
7.361238 14.292381 23.442001 28.425119 1.095184 0.601137 0.081669 -0.012217 143988.000000 0 0 1
7.852638 13.481481 24.647101 29.170084 1.043362 0.564335 0.097931 -0.021387 -280998.000000 0 0 1
7.929338 14.198781 25.880001 30.565572 1.061487 0.561036 0.102657 -0.029238 -80435.200000 0 0 1
8.186538 13.290681 26.921101 31.119243 1.018724 0.525457 0.119379 -0.033772 -559597.000000 0 0 1
9.142338 13.923981 27.976701 32.560027 0.989803 0.537025 0.083244 -0.024373 104225.000000 0 0 1
10.491738 13.992381 27.553901 32.635575 0.927412 0.565557 0.090707 -0.025294 -113809.000000 0 0 1
10.773738 15.097681 26.737301 32.540692 0.951000 0.606484 0.079276 -0.021198 -1064540.000000 0 0 1
12.143238 14.955481 26.069901 32.415496 0.888806 0.636398 0.082798 -0.028232 -353806.000000 0 0 1
12.144938 14.235681 24.829401 31.091048 0.864486 0.645826 0.086573 -0.029490 -71076.800000 0 0 1
13.411438 13.796781 24.397201 31.071550 0.799560 0.667787 0.089946 -0.035552 -681036.000000 0 0 1
13.223738 12.622881 23.351001 29.655920 0.762155 0.664220 0.071998 -0.032938 224199.000000 0 0 1
12.778338 11.361181 23.874501 29.365867 0.726759 0.621507 0.067745 -0.032910 -368330.000000 0 0 1
11.451438 11.243881 24.279801 29.104450 0.776253 0.584062 0.084115 -0.034748 -702357.000000 0 0 1
11.049838 9.800481 24.650001 28.736229 0.725549 0.539818 0.066441 -0.030558 -79336.900000 0 0 1
11.172838 8.929781 23.561801 27.563232 0.674277 0.545579 0.069196 -0.027963 200006.000000 0 0 1
10.813638 7.648081 23.935201 27.355470 0.615584 0.505424 0.066292 -0.030232 -57693.400000 0 0 1
11.048738 6.582981 22.821701 26.196188 0.537335 0.513187 0.071878 -0.040001 -148790.000000 0 0 1
12.399938 6.206481 22.671301 26.575679 0.464068 0.548928 0.087253 -0.040083 87139.700000 0 0 1
12.641538 5.072781 21.926001 25.812615 0.381608 0.555893 0.096595 -0.038187 -301096.000000 0 0 1
12.333238 3.717281 22.619801 26.030411 0.292744 0.517667 0.079310 -0.038089 246266.000000 0 0 1
13.358638 3.264981 23.525801 27.250259 0.239710 0.528977 0.074804 -0.033072 565924.000000 0 0 1
13.062238 1.985281 24.058401 27.447587 0.150832 0.502209 0.067317 -0.026241 277270.000000 0 0 1
14.246238 1.562881 24.992401 28.810032 0.109268 0.520663 0.049522 -0.012946 1346070.000000 0 0 1
15.312238 1.001081 24.189801 28.646348 0.065285 0.565298 0.072444 -0.022357 1988370.000000 0 0 1
16.691038 1.384181 24.476501 29.658149 0.082740 0.600085 0.078902 -0.018339 1478630.000000 0 0 1
17.668038 0.570481 23.599101 29.485633 0.032278 0.642902 0.068817 -0.022366 -291710.000000 0 0 1
17.805338 -0.798719 24.042701 29.928573 -0.044828 0.637920 0.067210 -0.019673 -157960.000000 0 0 1
18.729338 -1.509319 23.272701 29.911281 -0.080412 0.679228 0.056998 -0.010445 -221471.000000 0 0 1
18.781738 -3.017619 23.480601 30.219171 -0.159306 0.680894 0.052972 -0.010501 127409.000000 0 0 1
17.785238 -3.742319 22.775601 29.138422 -0.207392 0.673514 0.050263 -0.001674 254334.000000 0 0 1
17.948638 -5.092219 23.080901 29.678481 -0.276446 0.679800 0.064087 -0.006420 -162270.000000 0 0 1
16.848938 -6.030319 22.576201 28.808615 -0.343700 0.670258 0.055434 -0.005967 -368910.000000 0 0 1
16.868738 -6.287019 21.200901 27.812930 -0.356755 0.703987 0.048659 -0.006661 116585.000000 0 0 1
16.197538 -7.487419 20.701101 27.330518 -0.433000 0.711420 0.061988 -0.014986 81733.600000 0 0 1
16.708638 -8.904619 21.074901 28.330588 -0.489647 0.731921 0.078881 -0.023892 265605.000000 0 0 1
16.123738 -9.437519 22.278601 29.075380 -0.529554 0.697834 0.058024 -0.009271 -9956.030000 0 0 1
17.076438 -10.389419 22.660801 30.216827 -0.546578 0.722825 0.071777 -0.014977 90107.800000 0 0 1
16.581538 -11.342619 23.762601 31.116934 -0.599942 0.701841 0.087840 -0.021236 -250529.000000 0 0 1
15.577938 -12.158619 23.233401 30.500739 -0.662739 0.704814 0.090303 -0.016035 -187787.000000 0 0 1
15.266038 -13.197619 24.176701 31.491934 -0.712857 0.695535 0.112415 -0.009911 -273653.000000 0 0 1
14.147238 -14.088019 23.662201 30.959915 -0.783301 0.700864 0.110948 -0.018153 -315074.000000 0 0 1
14.608938 -14.913719 22.583901 30.755042 -0.795721 0.746139 0.127444 -0.017743 1153470.000000 0 0 1
13.475638 -15.628119 22.030501 30.185657 -0.859223 0.752718 0.131132 -0.003946 600316.000000 0 0 1
13.712838 -16.381519 20.752901 29.783871 -0.873844 0.799893 0.130737 -0.016437 -715716.000000 0 0 1
14.766438 -17.272519 20.822801 30.821691 -0.863459 0.829033 0.128566 -0.016783 -442905.000000 0 0 1
14.793138 -18.066519 19.659901 30.524543 -0.884688 0.870991 0.118595 -0.014650 15975.300000 0 0 1
-25.209512 -32.506470 26.370755 48.863144 0.911160 1.000732 0.068464 -0.021103 -822736.000000 0 0 1
-25.361692 -33.829270 25.897685 49.581499 0.927489 1.021220 0.062753 -0.011481 440548.000000 0 0 1
-26.682982 33.710681 25.968315 50.226935 -0.901242 1.027431 0.043061 -0.023333 286667.000000 0 0 1
-27.141382 33.364581 27.416055 51.004804 -0.887890 1.003304 0.036799 -0.017404 -368670.000000 0 0 1
-27.724162 -33.552970 28.045545 51.778215 0.880235 0.998400 0.036672 -0.014718 280803.000000 0 0 1
-27.521052 -33.614570 29.447375 52.483288 0.884742 0.975105 0.025801 -0.007866 -776719.000000 0 0 1
-28.586252 -32.888470 30.235195 53.037650 0.855268 0.964205 0.008093 -0.010436 -585145.000000 0 0 1
-28.652832 -31.456770 30.097805 52.119008 0.832011 0.955155 -0.001716 -0.003823 85439.300000 0 0 1
-29.176082 -30.861770 31.280715 52.746334 0.813468 0.935966 -0.013286 0.009846 -43141.800000 0 0 1
-29.623812 -29.394770 30.939265 51.950562 0.781517 0.932844 -0.006691 0.003362 308807.000000 0 0 1
-30.434722 -29.252270 29.741395 51.638340 0.765590 0.957024 -0.024157 0.009983 630059.000000 0 0 1
-30.906022 -27.901770 29.739835 51.167849 0.734357 0.950568 0.001645 0.006797 -314471.000000 0 0 1
-31.642432 -27.452070 28.481025 50.655981 0.714607 0.973699 -0.007683 -0.004907 -156563.000000 0 0 1
-30.880092 -27.313870 27.270505 49.429829 0.724193 0.986394 0.005576 0.003037 53391.900000 0 0 1
-29.951752 -26.255270 27.291885 48.283472 0.719727 0.970069 0.002112 -0.002708 -719988.000000 0 0 1
-28.931372 -26.386870 26.205305 47.116974 0.739433 0.981020 0.014604 0.020191 -337685.000000 0 0 1
-29.503952 -26.117170 24.901665 46.612044 0.724583 1.007197 0.004445 0.009917 650283.000000 0 0 1
-28.411682 -26.018370 23.983075 45.380251 0.741456 1.013974 0.019690 0.020665 315572.000000 0 0 1
-28.749572 -26.255970 22.518945 44.977958 0.740096 1.046428 0.014252 0.028062 -63180.200000 0 0 1
-29.410522 -25.181570 21.862345 44.464057 0.708088 1.056772 0.009286 0.019041 133354.000000 0 0 1
-29.767502 -25.491470 20.564545 44.258555 0.708170 1.087562 0.010699 0.018759 17333.300000 0 0 1
-30.542832 -24.367470 19.821545 43.812462 0.673406 1.101322 0.013570 0.002965 -224154.000000 0 0 1
-31.855712 -24.098070 20.208145 44.764634 0.647633 1.102428 0.044090 0.001800 -323933.000000 0 0 1
-32.342892 -22.862670 19.637545 44.208568 0.615331 1.110513 0.067411 -0.004292 615457.000000 0 0 1
-33.874152 -22.660570 19.886945 45.348100 0.589591 1.116823 0.084139 -0.002612 506139.000000 0 0 1
-34.685675 -23.644570 19.290845 46.198468 0.598325 1.140033 0.079799 -0.008322 236944.000000 0 0 1
-35.865533 -23.049070 18.770145 46.582340 0.571193 1.156063 0.074997 -0.012883 424489.000000 0 0 1
-36.736112 -23.946970 17.845345 47.344014 0.577685 1.184318 0.104330 -0.011031 225597.000000 0 0 1
36.912782 -25.115270 18.396845 48.288448 -0.597447 1.179942 0.087083 -0.009857 292732.000000 0 0 1
36.105382 -25.884170 17.513745 47.752698 -0.621982 1.195273 0.098873 -0.004563 547107.000000 0 0 1
35.565322 -27.299670 18.035645 48.326479 -0.654665 1.188336 0.094356 0.001901 715336.000000 0 0 1
34.537912 -27.333370 19.039945 47.984372 -0.669476 1.162774 0.100443 -0.008899 574680.000000 0 0 1
34.924222 -26.819870 20.332045 48.501534 -0.654887 1.138228 0.097741 -0.005667 -201208.000000 0 0 1
33.712142 -26.704770 21.272145 47.980803 -0.669930 1.111467 0.092533 -0.013158 430872.000000 0 0 1
32.725332 -25.749070 20.877945 46.581655 -0.666655 1.106044 0.092136 -0.015075 -69751.300000 0 0 1
31.792532 -25.452570 21.878345 46.230514 -0.675096 1.077826 0.104376 -0.014677 34312.000000 0 0 1
30.745572 -24.399570 21.324845 44.669657 -0.670824 1.073114 0.115242 -0.017457 261051.000000 0 0 1
31.168002 -23.110370 20.876345 44.060814 -0.638024 1.077187 0.105116 -0.012405 -415209.000000 0 0 1
32.053142 -22.444370 21.722545 44.755141 -0.610876 1.064017 0.123633 -0.017836 -13135.100000 0 0 1
32.693452 -21.230070 21.074845 44.313957 -0.575931 1.075173 0.119516 -0.019333 -155921.000000 0 0 1
31.735612 -20.219970 21.081945 43.132872 -0.567280 1.060120 0.114359 -0.024427 -112410.000000 0 0 1
32.206772 -19.116570 20.370745 42.634337 -0.535669 1.072646 0.111804 -0.021823 -50735.500000 0 0 1
31.213322 -17.924370 20.516645 41.430511 -0.521273 1.052724 0.086504 -0.014142 298610.000000 0 0 1
31.146782 -17.381670 21.863045 41.835837 -0.509008 1.020909 0.102442 -0.017565 -145718.000000 0 0 1
30.257412 -18.125070 22.647345 41.915765 -0.539705 0.999995 0.110235 -0.017723 -528991.000000 0 0 1
30.179232 -17.783470 24.182765 42.565761 -0.532486 0.966568 0.090919 -0.014080 -265421.000000 0 0 1
29.594492 -16.570470 24.387795 41.775340 -0.510425 0.947414 0.086939 -0.017988 -167339.000000 0 0 1
29.636902 -16.142770 25.707605 42.424238 -0.498753 0.919818 0.080052 -0.014382 -137184.000000 0 0 1
29.627152 -14.618170 25.904965 41.982452 -0.458357 0.905817 0.064961 -0.010661 352322.000000 0 0 1
28.352322 -13.980770 25.793105 40.799514 -0.458119 0.886418 0.077764 -0.014049 481648.000000 0 0 1
28.252422 -12.605970 26.308185 40.610718 -0.419682 0.866085 0.066864 -0.010572 -5878.940000 0 0 1
28.915922 -11.499470 25.444255 40.196747 -0.378510 0.885383 0.078760 -0.023713 -71719.100000 0 0 1
28.178122 -11.258670 24.235965 38.834858 -0.380121 0.896846 0.081409 -0.021802 228945.000000 0 0 1
28.744322 -10.345270 23.315735 38.430251 -0.345473 0.918890 0.086302 -0.019007 485768.000000 0 0 1
29.958622 -10.937870 22.509845 39.036511 -0.350062 0.956192 0.092525 -0.033626 268212.000000 0 0 1
29.493862 -11.836370 21.539445 38.391865 -0.381641 0.975152 0.096903 -0.032598 310995.000000 0 0 1
29.701002 -13.196270 21.885345 39.182386 -0.418107 0.978159 0.099430 -0.028056 -287403.000000 0 0 1
29.064322 -14.093070 20.846845 38.443990 -0.451489 0.997665 0.099033 -0.031950 -527126.000000 0 0 1
29.740662 -14.282670 19.649645 38.400654 -0.447715 1.033633 0.095333 -0.032114 -497230.000000 0 0 1
29.094822 -15.305070 18.940545 37.940718 -0.484263 1.048105 0.095807 -0.034325 -370944.000000 0 0 1
29.550562 -15.628770 17.512445 37.738308 -0.486486 1.088235 0.103002 -0.037743 -137420.000000 0 0 1
28.876222 -16.722370 16.866545 37.389226 -0.524914 1.102791 0.103445 -0.039454 -314561.000000 0 0 1
27.561322 -16.495470 16.447645 36.086729 -0.539316 1.097547 0.093331 -0.037261 -773600.000000 0 0 1
27.310322 -15.612170 15.194745 34.935281 -0.519319 1.120825 0.106605 -0.040653 -720533.000000 0 0 1
27.311322 -16.082270 13.886945 34.603395 -0.532181 1.157842 0.111203 -0.040645 152325.000000 0 0 1
26.368822 -17.094370 13.622445 34.250595 -0.575165 1.161756 0.102176 -0.038591 -276036.000000 0 0 1
26.370122 -17.656470 12.169945 33.988849 -0.590005 1.204610 0.109880 -0.025048 -129226.000000 0 0 1
26.105122 -16.795070 11.019945 32.939201 -0.571695 1.229664 0.121355 -0.035037 33118.200000 0 0 1
26.019222 -17.497670 9.811645 32.854783 -0.592023 1.267532 0.120245 -0.036616 598439.000000 0 0 1
27.424422 -17.796470 9.202445 33.963190 -0.575621 1.296413 0.119367 -0.026325 611141.000000 0 0 1
28.260522 -18.648370 9.931745 35.285385 -0.583285 1.285472 0.104962 -0.012633 208533.000000 0 0 1
29.608882 -18.710470 9.444245 36.276182 -0.563561 1.307419 0.099780 -0.004648 413877.000000 0 0 1
30.545102 -19.328970 10.449845 37.627272 -0.564189 1.289376 0.095960 -0.018819 -511813.000000 0 0 1
30.598302 -18.707070 11.729745 37.733241 -0.548742 1.254699 0.108237 -0.037891 89814.700000 0 0 1
30.630912 -19.686270 12.740445 38.576171 -0.571221 1.234210 0.075828 -0.029240 8968.860000 0 0 1
30.495422 -19.083570 14.173545 38.665783 -0.559163 1.195481 0.086884 -0.027122 157446.000000 0 0 1
30.287152 -20.098070 15.150445 39.379944 -0.585865 1.175887 0.077068 -0.024184 -54187.000000 0 0 1
30.331912 -19.519270 16.447045 39.642554 -0.571808 1.142981 0.105974 -0.030645 15762.800000 0 0 1
30.080492 -20.533470 17.565545 40.435229 -0.598964 1.121411 0.092099 -0.024770 539338.000000 0 0 1
28.779122 -21.110970 17.474145 39.739863 -0.632891 1.115517 0.055255 -0.016604 269221.000000 0 0 1
28.468722 -22.059170 18.522445 40.498841 -0.659220 1.095775 0.084704 -0.021462 -123609.000000 0 0 1
27.190022 -22.856070 18.295845 39.955415 -0.699014 1.095157 0.056002 -0.005368 -630979.000000 0 0 1
25.992522 -22.288570 18.723445 39.025107 -0.708832 1.070393 0.061237 -0.008996 -626297.000000 0 0 1
24.935522 -23.093370 18.266045 38.584095 -0.747062 1.077640 0.073354 -0.011214 -338341.000000 0 0 1
23.567022 -22.714970 18.867645 37.780450 -0.766990 1.047888 0.062918 -0.005041 -541529.000000 0 0 1
22.967122 -21.544070 18.321045 36.432078 -0.753438 1.043866 0.061921 -0.003954 63904.700000 0 0 1
21.836722 -21.174570 19.099345 35.916428 -0.770005 1.010105 0.052435 -0.008438 283560.000000 0 0 1
22.182822 -20.534870 20.449945 36.496010 -0.746840 0.976008 0.047443 -0.002958 -310079.000000 0 0 1
22.609322 -21.403170 21.467345 37.816981 -0.758000 0.967131 0.057028 -0.005402 -194542.000000 0 0 1
23.013722 -20.690970 22.624145 38.335357 -0.732302 0.939534 0.051252 -0.001811 -18827.800000 0 0 1
23.367622 -21.662570 23.751675 39.742355 -0.747552 0.930240 0.061257 -0.009224 -152881.000000 0 0 1
22.313022 -22.369470 24.336285 39.881310 -0.786661 0.914461 0.054022 -0.009977 -148533.000000 0 0 1
22.848522 -23.350070 25.205755 41.262705 -0.796254 0.913649 0.055480 -0.012077 356009.000000 0 0 1
21.734822 -24.060070 26.023075 41.575111 -0.836130 0.894474 0.058067 -0.013712 713654.000000 0 0 1
20.912222 -25.047270 25.334125 41.309861 -0.875128 0.910602 0.073650 -0.020226 469205.000000 0 0 1
19.860522 -25.486070 26.164435 41.575928 -0.908824 0.890122 0.080922 -0.019410 -73241.200000 0 0 1
19.012422 -26.565370 25.439955 41.405101 -0.949621 0.909151 0.089793 -0.023366 -251901.000000 0 0 1
18.197522 -26.037170 24.434365 40.076455 -0.960805 0.915122 0.088829 -0.028233 3545.120000 0 0 1
17.714622 -27.046070 23.541255 39.993605 -0.990929 0.941439 0.080096 -0.028208 -108693.000000 0 0 1
16.684522 -26.551670 22.515045 38.604296 -1.009771 0.948101 0.069962 -0.024873 -616514.000000 0 0 1
15.419922 -26.276170 23.025075 38.188548 -1.040109 0.923626 0.056435 -0.021741 -626405.000000 0 0 1
14.689022 -25.591070 22.040245 36.829915 -1.049721 0.929252 0.038182 -0.014302 -366860.000000 0 0 1
13.350722 -25.010670 22.495745 36.191628 -1.080475 0.900047 0.026218 -0.010861 -201174.000000 0 0 1
12.296222 -25.942770 22.610845 36.544147 -1.128185 0.903675 0.017812 -0.013907 610020.000000 0 0 1
11.056922 -25.256170 22.345145 35.488521 -1.158142 0.889701 0.034556 -0.004798 234104.000000 0 0 1
9.807922 -26.087470 22.169645 35.612422 -1.211182 0.898831 0.043338 -0.009748 -474396.000000 0 0 1
9.684622 -26.799270 20.963145 35.375786 -1.224023 0.936533 0.035042 -0.011208 465809.000000 0 0 1
8.341322 -27.250170 20.794945 35.278593 -1.273751 0.940419 0.048800 -0.014097 418776.000000 0 0 1
8.083622 -28.305170 19.678745 35.408764 -1.292613 0.981520 0.053563 -0.018791 122018.000000 0 0 1
8.619122 -29.636870 19.915545 36.732305 -1.287779 0.997766 0.050155 -0.018212 322182.000000 0 0 1
8.155922 -30.458870 18.869445 36.746670 -1.309166 1.031537 0.047343 -0.014244 210957.000000 0 0 1
8.866722 -31.850670 18.872845 38.069255 -1.299287 1.052098 0.043732 -0.014104 -11489.900000 0 0 1
8.397722 -32.768570 19.863645 39.228374 -1.319922 1.039839 0.053086 -0.019339 -71955.600000 0 0 1
9.165522 -33.923170 19.952145 40.408865 -1.306912 1.054392 0.056005 -0.017978 -375168.000000 0 0 1
8.586922 33.057381 20.855845 40.018645 1.316655 1.022595 0.078745 -0.031371 82703.100000 0 0 1
7.530522 32.273981 20.292545 38.860083 1.341567 1.021373 0.073425 -0.031350 295059.000000 0 0 1
7.413622 31.139381 21.100245 38.338534 1.337069 0.987993 0.074776 -0.039498 218900.000000 0 0 1
6.388722 30.030681 20.681645 37.018752 1.361181 0.978003 0.065444 -0.032670 704913.000000 0 0 1
5.036222 30.313581 20.995045 37.216511 1.406163 0.971414 0.078490 -0.037828 -247992.000000 0 0 1
4.182222 29.271581 20.681745 36.083944 1.428880 0.960444 0.090536 -0.032866 138959.000000 0 0 1
2.715022 29.345681 21.158445 36.279749 1.478540 0.948131 0.076652 -0.023119 199758.000000 0 0 1
2.631222 28.859381 22.527345 36.705156 1.479874 0.910010 0.056607 -0.025476 1536270.000000 0 0 1
1.262922 28.536281 22.939065 36.634888 1.526568 0.894186 0.052847 -0.017754 1513750.000000 0 0 1
1.097222 28.092481 24.457665 37.263505 1.531759 0.854834 0.060198 -0.022286 -123768.000000 0 0 1
1.423622 29.080781 25.454595 38.673698 1.521881 0.852386 0.065986 -0.024997 202367.000000 0 0 1
1.245622 28.699681 26.780805 39.273844 1.527422 0.820440 0.065831 -0.025238 148942.000000 0 0 1
2.354422 27.795181 27.442575 39.130683 1.486292 0.793569 0.050859 -0.021032 104364.000000 0 0 1
2.591122 26.619481 26.743825 37.822518 1.473763 0.785426 0.053146 -0.022543 225483.000000 0 0 1
3.467322 25.838481 27.528675 37.914079 1.437401 0.758192 0.028629 -0.009429 113821.000000 0 0 1
4.062022 24.476581 26.945135 36.628450 1.406340 0.744194 0.031608 0.001585 225838.000000 0 0 1
3.147122 23.412181 26.923255 35.817541 1.437175 0.720194 0.049879 0.001069 56811.500000 0 0 1
3.836322 22.246081 26.557705 34.855662 1.400027 0.704503 0.056710 0.007707 267407.000000 0 0 1
2.808722 21.115081 26.271795 33.822223 1.438553 0.681289 0.058759 0.009064 8266.970000 0 0 1
3.193522 19.757081 26.266845 33.022538 1.410543 0.651093 0.082122 0.011055 -448229.000000 0 0 1
3.927522 19.380981 25.136945 31.983025 1.370856 0.666571 0.081729 0.007718 -381011.000000 0 0 1
4.473022 17.967781 25.324685 31.371783 1.326809 0.631329 0.090052 -0.007583 -621986.000000 0 0 1
5.447322 17.789981 26.296395 32.212686 1.273660 0.615757 0.071290 0.000094 -1191010.000000 0 0 1
6.638022 17.427181 25.678355 31.735594 1.206863 0.628119 0.078271 -0.002010 -290773.000000 0 0 1
7.846222 17.490381 26.723345 32.887898 1.149105 0.622268 0.067293 -0.011339 660015.000000 0 0 1
8.216222 18.740681 27.256865 34.083077 1.157617 0.643970 0.064755 -0.009520 51036.700000 0 0 1
8.715322 19.701281 26.325165 34.016344 1.154303 0.685824 0.058423 -0.016129 -145997.000000 0 0 1
9.380022 20.926581 27.037125 35.452965 1.149411 0.703443 0.046177 -0.007992 36186.700000 0 0 1
10.519022 20.598381 27.794005 36.158676 1.098647 0.694041 0.064139 -0.033327 -290171.000000 0 0 1
10.830522 21.719081 28.578595 37.493397 1.108218 0.704045 0.093947 -0.033893 209360.000000 0 0 1
11.970022 21.450181 29.591275 38.458228 1.061803 0.692833 0.108752 -0.033711 488444.000000 0 0 1
13.279322 21.249881 29.089205 38.393746 1.012260 0.711084 0.092311 -0.037163 -347302.000000 0 0 1
14.223422 21.461181 30.090395 39.602019 0.985509 0.707761 0.082087 -0.024217 -353417.000000 0 0 1
15.644122 21.292381 29.517225 39.615283 0.937141 0.730116 0.060950 -0.029871 73067.000000 0 0 1
16.185922 22.461681 28.866735 39.997495 0.946377 0.764522 0.052228 -0.028918 -342901.000000 0 0 1
17.462722 22.157781 28.371425 40.010645 0.903349 0.782580 0.100672 -0.027429 -262146.000000 0 0 1
-8.600262 16.776381 4.445901 19.369500 -1.097087 1.339201 0.029288 -0.016684 -84304.900000 0 1 0
-8.585762 18.145981 4.783201 20.636641 -1.128859 1.336887 0.038228 -0.019820 978549.000000 0 1 0
-7.311462 18.515281 5.362101 20.616140 -1.194705 1.307678 0.039634 -0.009566 595754.000000 0 1 0
-7.164962 19.930281 5.861501 21.975213 -1.225682 1.300795 0.047560 -0.008811 -131561.000000 0 1 0
-7.338962 20.993181 4.959101 22.785230 -1.234489 1.351395 0.060109 -0.017630 1876200.000000 0 1 0
-8.680862 21.055881 4.323001 23.181800 -1.179751 1.383216 0.059366 -0.028136 1839470.000000 0 1 0
-8.776362 22.193881 3.295301 24.092570 -1.194227 1.433590 0.100951 -0.039801 208848.000000 0 1 0
-7.962762 22.029281 2.141201 23.521895 -1.223947 1.479640 0.075012 -0.042110 -21532.400000 0 1 0
-8.254662 20.935481 1.311101 22.542245 -1.195222 1.512602 0.084088 -0.038345 -398881.000000 0 1 0
-7.663362 21.059681 -0.138999 22.411082 -1.221803 1.576999 0.057805 -0.021652 373167.000000 0 1 0
-6.311862 20.721581 -0.342399 21.664274 -1.275122 1.586602 0.035751 -0.011090 -449972.000000 0 1 0
-5.428762 21.759981 -0.042799 22.426994 -1.326304 1.572705 0.049846 -0.015194 242162.000000 0 1 0
-3.995062 21.481281 -0.634999 21.858847 -1.386918 1.599850 0.034493 -0.008539 717594.000000 0 1 0
-3.993962 21.636981 -2.029799 22.095945 -1.388261 1.662789 0.035135 -0.012170 221943.000000 0 1 0
-2.648262 21.577781 -2.463499 21.878820 -1.448676 1.683633 0.032919 -0.003799 198684.000000 0 1 0
-2.590762 21.722681 -4.032599 22.245197 -1.452092 1.753084 0.038190 -0.008566 -524127.000000 0 1 0
-1.323562 22.081681 -4.469099 22.568237 -1.510929 1.770140 0.047155 -0.008231 -606795.000000 0 1 0
-1.259362 22.485381 -5.869599 23.272958 -1.514847 1.825756 0.059625 -0.011096 207588.000000 0 1 0
0.135538 23.060381 -6.248999 23.892458 1.564919 1.835421 0.065603 -0.019200 98492.100000 0 1 0
1.127938 22.087281 -6.137599 22.951914 1.519773 1.841502 0.052331 -0.009313 -342451.000000 0 1 0
2.375638 22.616681 -6.551899 23.666122 1.466141 1.851308 0.050551 -0.008149 52278.800000 0 1 0
3.502638 21.588281 -6.717799 22.879056 1.409951 1.868810 0.056413 -0.005770 -172084.000000 0 1 0
3.230438 20.689881 -7.766299 22.334331 1.415911 1.925944 0.047010 -0.009791 16435.900000 0 1 0
4.045038 19.539581 -7.754599 21.407741 1.366662 1.941459 0.028479 -0.013753 268757.000000 0 1 0
3.711638 18.730181 -9.022399 21.118703 1.375167 2.012216 0.024116 -0.013299 19914.000000 0 1 0
4.212238 19.350581 -10.187599 22.270499 1.356460 2.045920 0.026414 -0.012993 -146012.000000 0 1 0
3.379838 19.052981 -11.293799 22.405118 1.395231 2.099104 0.030011 -0.016590 -265002.000000 0 1 0
3.869338 19.523181 -12.691099 23.604881 1.375140 2.138441 0.033591 -0.012670 -148871.000000 0 1 0
3.808638 20.904681 -12.919399 24.868098 1.390582 2.117082 0.065725 -0.021644 -100467.000000 0 1 0
4.056338 21.191581 -14.278799 25.873173 1.381671 2.155409 0.078184 -0.030247 72133.500000 0 0 1
4.414738 22.602181 -14.704399 27.323394 1.377901 2.139051 0.066868 -0.031655 139777.000000 0 0 1
3.313738 23.498881 -14.608799 27.867459 1.430703 2.122600 0.096969 -0.033655 360521.000000 0 0 1
3.660238 24.777781 -15.105299 29.249032 1.424134 2.113482 0.076440 -0.025678 417213.000000 0 0 1
2.312638 25.422381 -15.561099 29.896381 1.480077 2.118234 0.096571 -0.028875 834349.000000 0 0 1
1.419138 25.792781 -14.515999 29.630993 1.515831 2.082763 0.109878 -0.037091 -177703.000000 0 0 1
1.434838 27.132081 -14.237699 30.674430 1.517962 2.053477 0.083749 -0.031860 -772262.000000 0 0 1
0.629638 27.419281 -12.933499 30.323074 1.547837 2.011442 0.092125 -0.033204 351659.000000 0 0 1
-0.784462 27.325081 -12.961299 30.253442 -1.542096 2.013544 0.088166 -0.038367 113512.000000 0 0 1
-1.378562 26.096481 -13.265499 29.307000 -1.518020 2.040519 0.086116 -0.038112 -793442.000000 0 0 1
-1.271362 24.944981 -12.263599 27.825606 -1.519874 2.027209 0.094189 -0.038735 -378890.000000 0 0 1
-2.242962 25.187581 -11.255899 27.679241 -1.481980 1.989586 0.091385 -0.035958 127755.000000 0 0 1
-2.287062 24.034481 -10.401699 26.288444 -1.475924 1.977600 0.100914 -0.028874 -348098.000000 0 0 1
-3.376362 24.051681 -9.334299 26.019461 -1.431328 1.937717 0.080446 -0.024090 -473881.000000 0 0 1
-3.098662 24.413681 -8.005099 25.878778 -1.444548 1.885285 0.091393 -0.024870 -205482.000000 0 0 1
-2.877762 25.797881 -7.903799 27.134521 -1.459705 1.866363 0.094934 -0.029604 -256186.000000 0 0 1
-2.880062 26.296481 -6.417699 27.221068 -1.461708 1.808799 0.091915 -0.028331 461165.000000 0 0 1
-1.611662 26.093981 -5.787699 26.776683 -1.509111 1.788663 0.091816 -0.027993 378530.000000 0 0 1
-1.542362 26.484781 -4.423899 26.895974 -1.512626 1.736029 0.105149 -0.032220 -470280.000000 0 0 1
-2.267062 25.571181 -3.442699 25.901295 -1.482371 1.704107 0.101745 -0.033912 -265877.000000 0 0 1
-3.642162 25.884681 -3.474499 26.369570 -1.431007 1.702942 0.088922 -0.031602 -394022.000000 0 0 1
-4.308962 25.195181 -2.442499 25.677424 -1.401412 1.666063 0.087466 -0.029573 -143855.000000 0 0 1
-5.553862 24.425181 -2.929299 25.219351 -1.347215 1.687212 0.069243 -0.029145 -290912.000000 0 0 1
-6.648562 25.275581 -3.172299 26.327208 -1.313580 1.691585 0.062890 -0.028517 -685764.000000 0 0 1
-7.714462 24.519081 -3.684999 25.966854 -1.265971 1.713189 0.052671 -0.021016 664469.000000 0 0 1
-9.003662 25.411581 -3.859999 27.234427 -1.230284 1.713008 0.037807 -0.019881 747526.000000 0 0 1
-9.741762 25.666481 -2.679999 27.583557 -1.208041 1.668109 0.059725 -0.034668 -293542.000000 0 0 1
-11.019862 26.226181 -2.855699 28.590295 -1.173011 1.670847 0.061691 -0.026191 19379.500000 0 0 1
-11.967962 26.170581 -1.646199 28.824320 -1.141883 1.627939 0.084940 -0.032148 -165319.000000 0 0 1
-12.356862 24.880281 -1.302299 27.810365 -1.109830 1.617641 0.093376 -0.028035 137697.000000 0 0 1
-11.354162 24.228181 -0.525799 26.761880 -1.132554 1.590445 0.109340 -0.037157 76793.500000 0 0 1
-11.698362 22.831181 -0.034599 25.653766 -1.097290 1.572145 0.102763 -0.033135 -761861.000000 0 0 1
-12.651262 22.896881 0.940601 26.176446 -1.066011 1.534856 0.113260 -0.034875 -719237.000000 0 0 1
-13.195162 21.609481 1.174201 25.346809 -1.022605 1.524454 0.118428 -0.034549 571106.000000 0 0 1
-14.358262 21.620181 2.255601 26.051481 -0.984563 1.484105 0.128604 -0.031127 597683.000000 0 0 1
-13.982962 21.729681 3.607901 26.090597 -0.999007 1.432068 0.103158 -0.026714 -336428.000000 0 0 1
-13.542262 22.988481 3.981801 26.976246 -1.038438 1.422651 0.106619 -0.028112 -150177.000000 0 0 1
-13.238362 22.996481 5.482301 27.095166 -1.048459 1.367055 0.103560 -0.026213 -403955.000000 0 0 1
-12.012162 22.375481 5.760601 26.041097 -1.078109 1.347739 0.089961 -0.024105 -79634.700000 0 0 1
-12.046862 22.060081 7.129901 26.126798 -1.070957 1.294394 0.072924 -0.024506 -844428.000000 0 0 1
-10.688962 21.680481 7.691701 25.366502 -1.112746 1.262724 0.056856 -0.026885 -859014.000000 0 0 1
-9.801862 22.733881 7.875901 25.979524 -1.163723 1.262791 0.066610 -0.026875 -186385.000000 0 0 1
-8.588862 22.381981 8.511601 25.439516 -1.204385 1.229635 0.064298 -0.030309 54542.200000 0 0 1
-8.553562 22.343081 10.069601 25.957149 -1.205180 1.172410 0.043111 -0.031730 -73579.300000 0 0 1
-9.338062 21.308981 10.707701 25.611071 -1.157780 1.139456 0.048773 -0.030427 142319.000000 0 0 1
-8.889962 20.945581 11.970901 25.710917 -1.169407 1.086488 0.040546 -0.023119 542897.000000 0 0 1
-9.897362 19.903281 12.679001 25.590143 -1.109333 1.052427 0.044863 -0.025888 503015.000000 0 0 1
-10.009662 18.714681 12.003801 24.382860 -1.079654 1.056061 0.055634 -0.037512 3511.390000 0 1 0
-10.634362 17.725081 12.820501 24.323515 -1.030405 1.015632 0.059091 -0.038835 -123170.000000 0 1 0
-10.955662 16.608881 11.849301 23.157880 -0.987683 1.033664 0.057929 -0.032678 -274123.000000 0 1 0
-11.387962 15.443881 12.495701 22.898508 -0.935423 0.993573 0.060504 -0.032836 74463.700000 0 1 0
-11.836662 14.445481 11.627001 21.999219 -0.884336 1.013942 0.047202 -0.015602 -50696.100000 0 1 0
-12.177362 13.113681 12.282901 21.705447 -0.822403 0.969284 0.044121 -0.018110 187479.000000 0 1 0
-13.206262 13.116881 13.251101 22.848405 -0.782003 0.952120 0.063620 -0.007251 98540.100000 0 1 0
-13.569562 11.802381 13.660101 22.583790 -0.715859 0.921202 0.049499 0.003197 -236984.000000 0 1 0
-14.454862 11.767381 14.900901 23.863175 -0.683266 0.896394 0.062909 -0.007224 -995913.000000 0 1 0
-15.642262 12.392181 14.572601 24.710468 -0.669982 0.940067 0.082555 -0.019159 -1133190.000000 0 1 0
-16.558662 12.412981 15.614001 25.924282 -0.643269 0.924427 0.070144 -0.014230 -257512.000000 0 0 1
-17.724862 13.415281 15.613001 27.164431 -0.647879 0.958487 0.064778 -0.007699 -197674.000000 0 0 1
-18.878662 12.927181 14.982701 27.349538 -0.600418 0.991037 0.070306 -0.012299 -146368.000000 0 0 1
-19.642262 14.053181 14.550501 28.196231 -0.621024 1.028570 0.078177 -0.014797 636644.000000 0 0 1
-20.924662 13.752781 13.696001 28.540514 -0.581457 1.070279 0.070874 -0.017447 610027.000000 0 0 1
-21.829962 12.911281 14.373101 29.151920 -0.534107 1.055214 0.070901 -0.011789 348820.000000 0 0 1
-23.008662 12.584181 13.636601 29.558705 -0.500485 1.091292 0.066955 -0.012845 492404.000000 0 0 1
-23.933462 11.640981 14.434501 30.276689 -0.452700 1.073839 0.089656 -0.019180 -150934.000000 0 0 1
-24.640862 12.253281 15.473101 31.571060 -0.461465 1.058587 0.100202 -0.021341 -326133.000000 0 0 1
-25.634542 11.406181 15.959401 32.278990 -0.418649 1.053628 0.094032 -0.024790 -697925.000000 0 0 1
-26.450412 11.921081 17.113301 33.683847 -0.423432 1.037869 0.096702 -0.028286 132508.000000 0 0 1
-27.443162 12.860381 16.645401 34.577246 -0.438229 1.068548 0.100279 -0.014860 558429.000000 0 0 1
-28.390042 13.170181 17.648101 35.929147 -0.434354 1.057339 0.098979 -0.010696 457857.000000 0 0 1
-29.442952 14.268781 17.208401 36.967751 -0.451272 1.086600 0.090114 -0.009700 482590.000000 0 0 1
-28.926682 15.554181 16.963201 36.965331 -0.493359 1.094045 0.091797 -0.010452 230410.000000 0 0 1
-29.992442 16.496581 16.878001 38.164783 -0.502862 1.112701 0.092829 -0.005776 693870.000000 0 0 1
-29.368782 17.935381 16.976301 38.371839 -0.548247 1.112506 0.107480 -0.007123 35235.700000 0 0 1
-28.768422 18.296581 18.190801 38.643140 -0.566467 1.080669 0.096150 -0.010458 331308.000000 0 0 1
-29.654952 18.591881 19.272101 39.956077 -0.559993 1.067481 0.084553 -0.019154 -234588.000000 0 0 1
-28.813442 18.756381 20.618201 40.088982 -0.577049 1.030592 0.071765 -0.021021 567650.000000 0 0 1
-28.372382 17.599981 21.251901 39.577705 -0.555227 1.003959 0.076768 -0.014072 63137.900000 0 0 1
-27.374062 16.925981 20.510101 38.164019 -0.553783 1.003422 0.088324 -0.008079 -859595.000000 0 0 1
-26.884782 15.548681 21.007901 37.495132 -0.524345 0.976068 0.081848 -0.011516 -647304.000000 0 0 1
-27.892522 14.641081 21.248501 37.998064 -0.483377 0.977376 0.070594 -0.009915 -385901.000000 0 0 1
-27.420612 13.342381 21.444301 37.279581 -0.452856 0.957912 0.072883 -0.012803 -216827.000000 0 0 1
-28.617102 12.446881 21.807201 38.071215 -0.410264 0.960878 0.079751 -0.017280 351109.000000 0 0 1
-29.533952 12.318981 20.703501 38.113601 -0.395171 0.996547 0.077846 -0.025561 291571.000000 0 0 1
-30.581142 11.421081 21.005701 38.818640 -0.357427 0.999023 0.099621 -0.029320 2066.830000 0 0 1
-31.604582 11.280981 19.834901 38.981193 -0.342845 1.036968 0.101173 -0.029277 -317144.000000 0 0 1
-31.105832 10.725781 18.641501 37.816937 -0.332049 1.055330 0.117989 -0.035638 248136.000000 0 0 1
-30.702162 9.365281 18.619001 37.107930 -0.296071 1.045173 0.124551 -0.035931 -20431.900000 0 0 1
-29.976902 8.872581 17.310701 35.735105 -0.287765 1.065099 0.120345 -0.043561 11658.600000 0 0 1
-30.725642 8.778581 16.099201 35.781460 -0.278294 1.104108 0.129758 -0.028669 230086.000000 0 0 1
-31.142712 9.970081 15.410801 36.149188 -0.309831 1.130386 0.127514 -0.022211 514800.000000 0 0 1
-29.988592 10.927081 14.850701 35.203126 -0.349423 1.135303 0.128254 -0.015112 598442.000000 0 0 1
-29.439792 10.375781 13.667901 34.075940 -0.338848 1.158078 0.141017 -0.020091 -192427.000000 0 0 1
-28.368682 11.195081 13.312801 33.276758 -0.375867 1.159211 0.127575 -0.013579 -634495.000000 0 0 1
-27.811762 10.922881 11.933201 32.174598 -0.374235 1.190830 0.155217 -0.005675 -340418.000000 0 0 1
-26.917562 9.853881 11.731301 30.972206 -0.350924 1.182331 0.145165 -0.013099 254187.000000 0 0 1
-27.543792 8.579281 11.551601 31.075779 -0.301953 1.189931 0.164301 -0.006603 -516061.000000 0 0 1
-26.724722 7.434881 10.976301 29.832322 -0.271341 1.194011 0.166348 -0.020426 -786271.000000 0 0 1
-26.568982 7.622881 9.593601 29.258440 -0.279404 1.236725 0.163509 -0.015336 204000.000000 0 0 1
-25.955532 6.515981 8.953701 28.219079 -0.245961 1.247923 0.189279 -0.044328 -290475.000000 0 0 1
-25.468292 6.854981 7.540101 27.431329 -0.262926 1.292340 0.167412 -0.025069 -204356.000000 0 0 1
-26.515602 7.207081 6.666601 28.274772 -0.265394 1.332776 0.166233 -0.030133 194302.000000 0 0 1
-25.921062 7.743881 5.496601 27.605829 -0.290308 1.370347 0.162000 -0.029407 222434.000000 0 0 1
-26.954002 8.119481 4.399701 28.492132 -0.292589 1.415758 0.158968 -0.033331 40268.000000 0 0 1
-27.649602 7.156381 3.597901 28.786441 -0.253266 1.445483 0.186371 -0.040020 323477.000000 0 0 1
-26.948352 6.180381 2.820601 27.791484 -0.225443 1.469130 0.186744 -0.038133 -505404.000000 0 0 1
-26.090582 6.677581 1.663701 26.982892 -0.250560 1.509100 0.186462 -0.035467 582364.000000 0 0 1
-24.838062 7.255381 2.064201 25.958252 -0.284200 1.491192 0.153482 -0.028219 1435010.000000 0 0 1
-23.796862 7.074681 1.073601 24.849434 -0.288973 1.527579 0.156295 -0.017778 1240670.000000 0 1 0
-22.426762 7.734881 1.468301 23.768550 -0.332120 1.508982 0.126591 -0.019058 554660.000000 0 1 0
-22.587462 9.142981 1.375001 24.406519 -0.384621 1.514429 0.104162 -0.023675 1266530.000000 0 1 0
-21.463562 9.916981 1.845401 23.715744 -0.432820 1.492904 0.123327 -0.024360 783941.000000 0 1 0
-22.051362 11.251181 2.512401 24.883003 -0.471795 1.469655 0.131736 -0.037336 -257160.000000 0 1 0
-21.055962 12.021381 3.035401 24.435237 -0.518767 1.446252 0.142706 -0.041042 -237190.000000 0 1 0
-21.680162 13.141581 3.689501 25.619192 -0.544934 1.426281 0.141568 -0.048729 497230.000000 0 0 1
-20.615662 14.072881 4.357801 25.338547 -0.598973 1.397954 0.120375 -0.035914 645947.000000 0 0 1
-19.762462 13.355181 5.247701 24.422411 -0.594289 1.354235 0.098216 -0.043185 496118.000000 0 1 0
-18.996062 14.166281 6.134401 24.477843 -0.640774 1.317486 0.109836 -0.038436 94461.700000 0 1 0
-18.280162 13.309381 7.210801 23.733934 -0.629323 1.262099 0.083432 -0.037939 189113.000000 0 1 0
-17.265962 12.446881 6.694401 22.312627 -0.624610 1.266075 0.080025 -0.029988 771254.000000 0 1 0
-16.662362 11.636181 7.726301 21.742372 -0.609619 1.207501 0.063924 -0.026908 -16978.700000 0 1 0
10.375738 -33.198870 -13.777699 37.411841 -1.267882 1.947945 0.043679 0.001331 19663.900000 0 0 1
11.414138 -32.447470 -13.151499 36.825029 -1.232543 1.935995 0.041218 -0.006271 1424680.000000 0 0 1
12.384938 -31.824670 -14.068399 36.933943 -1.199668 1.961573 0.037482 -0.021673 1129500.000000 0 0 1
13.640138 -31.245270 -13.360899 36.617398 -1.159183 1.944299 0.044426 -0.024569 572589.000000 0 0 1
14.860438 -31.778770 -13.848799 37.716204 -1.133385 1.946776 0.057465 -0.017194 -191703.000000 0 0 1
16.000638 -31.144970 -13.351599 37.473921 -1.096212 1.935091 0.066616 -0.017830 507829.000000 0 0 1
17.317738 -31.919770 -13.729599 38.823674 -1.073699 1.932256 0.093211 -0.014842 514256.000000 0 0 1
17.462738 -33.183070 -13.106299 39.722014 -1.086366 1.907047 0.096671 -0.024803 -119980.000000 0 0 1
18.539338 -33.989670 -13.542199 41.017019 -1.071461 1.907270 0.096354 -0.018130 80600.600000 0 0 1
18.456038 32.686281 -13.059999 39.743954 1.056781 1.905621 0.088255 -0.025455 -245008.000000 0 0 1
18.882538 32.580381 -11.718899 39.438104 1.045536 1.872499 0.086476 -0.019358 -76347.400000 0 0 1
18.715338 31.252181 -11.207599 38.112635 1.031224 1.869274 0.070560 -0.024451 -219730.000000 0 0 1
19.642738 30.794681 -10.074199 37.889828 1.003002 1.839914 0.052620 -0.026014 -865720.000000 0 0 1
20.902838 30.395381 -10.495499 38.353140 0.968375 1.847987 0.054933 -0.028949 -667693.000000 0 0 1
21.658638 30.246881 -9.290699 38.344328 0.949372 1.815529 0.039653 -0.023456 1093890.000000 0 0 1
23.031338 29.477381 -9.443299 38.581530 0.907548 1.818071 0.025018 -0.010483 1387810.000000 0 0 1
24.125138 30.058581 -10.176399 39.863513 0.894470 1.828935 0.036291 -0.021034 894092.000000 0 0 1
25.308538 29.355181 -9.827199 39.985280 0.859291 1.819111 0.034618 -0.005870 661428.000000 0 0 1
26.590238 29.601981 -10.678799 41.198966 0.838944 1.832991 0.034059 -0.009686 77557.300000 0 0 1
27.184038 30.824681 -10.490299 42.416733 0.848076 1.820705 0.036799 -0.021044 -60988.900000 0 0 1
28.255038 31.067481 -11.383199 43.509916 0.832772 1.835500 0.043061 -0.019906 119784.000000 0 0 1
28.781938 32.496181 -11.201499 44.831633 0.845937 1.823329 0.040232 -0.027255 103450.000000 0 0 1
27.771738 33.461081 -11.559999 44.994966 0.878045 1.830628 0.045761 -0.026100 445182.000000 0 0 1
28.286238 -33.336470 -11.383899 45.177700 -0.867169 1.825523 0.032675 -0.032397 -416781.000000 0 0 1
27.345738 -32.215670 -11.803599 43.874408 -0.866980 1.843184 0.035992 -0.025435 -234773.000000 0 0 1
26.288238 -32.180070 -10.857299 42.947750 -0.885829 1.826372 0.064509 -0.035470 -59924.400000 0 0 1
25.289438 -31.192570 -11.139799 41.672859 -0.889534 1.841402 0.075459 -0.026896 235468.000000 0 0 1
25.631338 -29.697370 -10.903199 40.715832 -0.858755 1.841892 0.067611 -0.029679 -215396.000000 0 0 1
26.643738 -29.258270 -11.813999 41.297768 -0.832134 1.860918 0.058329 -0.025239 160246.000000 0 0 1
27.130238 -28.002270 -11.345099 40.606504 -0.801214 1.853956 0.061769 -0.027670 -300506.000000 0 0 1
28.088138 -27.409170 -12.368699 41.148400 -0.773165 1.876105 0.064169 -0.024520 352090.000000 0 0 1
29.257238 -28.207470 -12.636999 42.559853 -0.767132 1.872265 0.047098 -0.021815 638589.000000 0 0 1
29.145038 -29.025770 -13.804699 43.387766 -0.783348 1.894595 0.048156 -0.019869 248936.000000 0 0 1
30.514138 -29.630770 -14.251799 44.857651 -0.770712 1.894111 0.037448 -0.012735 499671.000000 0 0 1
30.831638 -30.804770 -13.505799 45.628175 -0.784962 1.871295 0.042691 -0.023072 351227.000000 0 0 1
32.172938 -31.193870 -13.767799 46.879715 -0.769949 1.868874 0.046863 -0.023912 240561.000000 0 0 1
32.742838 -32.260670 -12.787599 47.711287 -0.777981 1.842134 0.039389 -0.019302 99895.900000 0 0 1
33.752538 -33.055370 -13.390999 49.104074 -0.774963 1.847001 0.035718 -0.026585 282024.000000 0 0 1
34.393938 -34.028570 -12.533799 49.979822 -0.780058 1.824279 0.033799 -0.022038 439382.000000 0 0 1
33.516338 32.960081 -11.782799 48.461802 0.777031 1.816394 0.032454 -0.030228 210741.000000 0 0 1
32.956438 33.503981 -10.579999 48.172398 0.793637 1.792229 0.035443 -0.031218 200241.000000 0 0 1
32.202738 32.433581 -9.969399 46.779722 0.788970 1.785557 0.042368 -0.030248 -286824.000000 0 0 1
31.471938 32.724381 -8.668299 46.222369 0.804905 1.759448 0.038350 -0.015086 -545196.000000 0 0 1
30.525938 33.714581 -8.864199 46.336593 0.834993 1.763283 0.029216 -0.017016 -696106.000000 0 0 1
29.938738 -33.929970 -7.639199 45.890394 -0.847808 1.738041 0.030703 -0.015410 368968.000000 0 0 1
28.946338 -32.758470 -7.750699 44.396860 -0.847100 1.746273 0.035236 -0.018805 -82479.700000 0 0 1
29.606438 -31.464070 -7.877899 43.915716 -0.815807 1.751159 0.009635 -0.019347 282590.000000 0 0 1
28.793538 -30.412470 -8.339199 42.702791 -0.812735 1.767344 0.016035 -0.014670 168979.000000 0 0 1
27.690338 -29.912070 -7.360099 41.420499 -0.823949 1.749437 0.031006 -0.021915 569871.000000 0 0 1
26.734238 -29.053570 -7.959699 40.276373 -0.826948 1.769733 0.045168 -0.037346 -414712.000000 0 0 1
25.848538 -28.504170 -7.083799 39.125628 -0.834219 1.752853 0.052045 -0.042352 -422809.000000 0 0 1
24.886138 -27.447770 -7.732899 37.848351 -0.834307 1.776558 0.099082 -0.040371 165132.000000 0 0 1
23.846138 -28.122970 -8.412299 37.819393 -0.867509 1.795106 0.110939 -0.037439 102997.000000 0 0 1
22.992338 -27.289270 -9.149699 36.838415 -0.870648 1.821797 0.129020 -0.034238 1201760.000000 0 0 1
21.771538 -28.052770 -9.884499 36.860020 -0.910804 1.842282 0.117668 -0.037959 1278660.000000 0 0 1
22.176238 -28.770670 -11.043099 37.966920 -0.914120 1.865923 0.120499 -0.036696 333464.000000 0 0 1
21.126438 -29.535070 -11.645999 38.134971 -0.949875 1.881143 0.104983 -0.039311 474900.000000 0 0 1
20.742938 -30.907470 -10.942999 38.798072 -0.979710 1.856727 0.099901 -0.039259 -53420.900000 0 0 1
21.780938 -31.835270 -10.977699 40.104906 -0.970769 1.848060 0.088454 -0.035119 -417095.000000 0 0 1
21.295738 -33.128570 -10.821299 40.842516 -0.999484 1.838950 0.068378 -0.040022 766208.000000 0 0 1
22.489238 33.921081 -10.821499 42.113067 0.985345 1.830675 0.067510 -0.030636 1067140.000000 0 0 1
23.365338 -33.983670 -9.710099 42.368796 -0.968478 1.802032 0.068784 -0.024976 19159.300000 0 0 1
24.542838 33.321781 -9.853199 42.541480 0.935965 1.804533 0.055428 -0.027124 588327.000000 0 0 1
25.660238 33.750481 -8.820699 43.305283 0.920740 1.775918 0.043344 -0.022212 -21913.500000 0 0 1
25.598838 33.338481 -7.456999 42.689128 0.915971 1.746379 0.030570 -0.021187 13418.800000 0 0 1
25.805738 31.978681 -7.140299 41.707985 0.891822 1.742841 0.029836 -0.014581 -361476.000000 0 0 1
25.917038 31.703381 -5.637899 41.335011 0.885484 1.707618 0.036697 -0.007406 -1542880.000000 0 0 1
27.051038 32.103381 -4.936499 42.270022 0.870601 1.687848 0.034414 -0.005290 -1063320.000000 0 0 1
27.946438 31.113781 -4.655399 42.080203 0.838976 1.681655 0.046121 -0.003440 -681416.000000 0 0 1
27.489138 30.065881 -3.565699 40.894060 0.830138 1.658101 0.044977 0.006814 -648715.000000 0 0 1
27.363938 30.576681 -2.188699 41.091470 0.840790 1.624086 0.057364 0.001548 47407.900000 0 0 1
27.190438 29.562681 -1.219999 40.184082 0.827173 1.601161 0.049704 0.009061 -69131.200000 0 0 1
25.894938 28.728481 -1.343399 38.699847 0.837226 1.605517 0.040655 0.009964 -205174.000000 0 0 1
24.714738 29.333481 -0.841199 38.366378 0.870647 1.592724 0.048369 -0.000434 -432135.000000 0 0 1
23.635438 28.657481 -1.440499 37.174725 0.881141 1.609555 0.049247 0.001993 -295834.000000 0 0 1
22.293138 29.294181 -1.035699 36.826698 0.920287 1.598924 0.053970 -0.006273 30434.800000 0 0 1
21.853038 28.925181 0.288901 36.253342 0.923783 1.562827 0.066246 -0.011328 -125417.000000 0 0 1
20.632338 29.531781 0.632901 36.030820 0.960978 1.553230 0.075517 -0.016969 -934664.000000 0 0 1
19.974638 28.889381 1.905301 35.174034 0.965853 1.516602 0.083023 -0.041608 -382847.000000 0 0 1
19.390538 27.667281 1.630501 33.824990 0.959502 1.522574 0.089869 -0.036628 106918.000000 0 0 1
18.806338 26.998781 2.758901 33.018541 0.962381 1.487143 0.112589 -0.045379 93650.500000 0 0 1
18.263538 25.615481 2.281101 31.542243 0.951406 1.498414 0.106392 -0.028408 568885.000000 0 0 1
19.313338 24.772281 1.757101 31.460425 0.908597 1.514916 0.107117 -0.028543 1098440.000000 0 0 1
20.152538 24.186881 2.762301 31.603169 0.876136 1.483279 0.102422 -0.021138 307292.000000 0 0 1
21.496338 23.544181 2.305401 31.964603 0.830834 1.498610 0.090435 -0.016836 244957.000000 0 0 1
21.220238 22.333981 1.600401 30.849092 0.810964 1.518895 0.091783 -0.016783 221851.000000 0 0 1
22.373438 21.825481 0.991401 31.271476 0.773001 1.539088 0.072265 -0.019487 -353030.000000 0 0 1
22.067438 20.766881 -0.103499 30.302572 0.755045 1.574212 0.099979 -0.025538 -297898.000000 0 0 1
21.886338 21.344181 -1.331099 30.599962 0.772858 1.614310 0.064423 -0.014779 395805.000000 0 0 1
22.101338 20.396981 -2.372299 30.168423 0.745316 1.649513 0.105851 -0.021322 183513.000000 0 0 1
21.741638 21.007581 -3.767599 30.466573 0.768229 1.694777 0.078753 -0.017212 224612.000000 0 0 1
22.776738 21.914081 -4.106499 31.872717 0.766098 1.699996 0.070336 -0.008987 550081.000000 0 0 1
22.434338 22.705881 -5.264999 32.350839 0.791414 1.734270 0.050212 -0.007708 -208757.000000 0 0 1
23.370038 23.945781 -5.543899 33.915983 0.797566 1.734993 0.037197 0.002624 154691.000000 0 0 1
23.317838 25.060281 -4.690399 34.550530 0.821400 1.706972 0.025934 0.003829 182628.000000 0 0 1
23.968038 24.844081 -3.439399 34.691853 0.803343 1.670101 0.043822 -0.003859 -360617.000000 0 0 1
23.012638 24.537981 -2.272499 33.717329 0.817465 1.638246 0.036064 -0.010023 -1304070.000000 0 0 1
22.231238 25.695781 -1.990599 34.036210 0.857561 1.629314 0.048981 -0.007600 575612.000000 0 0 1
21.116238 25.486681 -1.137299 33.117365 0.878905 1.605145 0.074320 -0.010445 1139620.000000 0 0 1
20.019638 24.396281 -1.587699 31.598817 0.883619 1.621063 0.092898 -0.021343 49230.300000 0 0 1
19.222438 24.784381 -2.743899 31.484864 0.911120 1.658057 0.056710 -0.019553 697587.000000 0 0 1
18.478838 23.654881 -3.212099 30.188382 0.907634 1.677400 0.068930 -0.016075 51482.800000 0 0 1
17.778438 24.022281 -4.522499 30.225748 0.933674 1.720984 0.066783 -0.019533 -372855.000000 0 0 1
17.296738 22.981581 -5.314199 29.250144 0.925611 1.753492 0.067206 -0.018474 -9312.860000 0 0 1
17.132938 23.419581 -6.645899 29.768815 0.939199 1.795944 0.070026 -0.021208 214367.000000 0 0 1
16.204538 22.432281 -7.465999 28.662439 0.945210 1.834316 0.087341 -0.031554 294561.000000 0 0 1
16.768338 21.183381 -7.867699 28.139181 0.901211 1.854173 0.071274 -0.025003 42641.700000 0 0 1
15.809738 20.421981 -8.539099 27.201495 0.912016 1.890115 0.102497 -0.026952 -385293.000000 0 0 1
16.237138 18.951181 -8.871499 26.485759 0.862375 1.912352 0.098941 -0.027589 -567748.000000 0 0 1
17.303238 19.076481 -9.750599 27.538852 0.834102 1.932713 0.111238 -0.021754 -397780.000000 0 0 1
17.845838 17.819281 -10.109299 27.169811 0.784654 1.952043 0.103925 -0.024085 -554172.000000 0 0 1
19.327138 17.972781 -10.434999 28.380422 0.749104 1.947313 0.076678 -0.013621 -644025.000000 0 0 1
19.516238 18.514281 -11.718599 29.342592 0.759058 1.981628 0.078216 -0.013410 304681.000000 0 0 1
20.875738 18.923481 -11.746699 30.526702 0.736385 1.965788 0.080362 -0.003846 245134.000000 0 0 1
21.316138 19.282681 -13.189799 31.625470 0.735353 2.001007 0.074941 -0.014797 -91617.400000 0 0 1
21.318738 18.163381 -14.089999 31.351636 0.705649 2.036910 0.074611 -0.011682 322428.000000 0 0 1
21.581238 18.641781 -15.408799 32.414456 0.712449 2.066179 0.067907 -0.018090 -33245.300000 0 0 1
21.678638 17.505681 -16.485599 32.375719 0.679302 2.105047 0.062439 -0.012652 496259.000000 0 0 1
22.807338 16.602881 -16.493399 32.678166 0.629247 2.099857 0.078590 -0.015761 613023.000000 0 0 1
22.821338 15.767081 -17.638699 32.871538 0.604587 2.137193 0.085789 -0.024741 122597.000000 0 0 1
23.702338 16.361381 -18.812499 34.400665 0.604176 2.149411 0.091934 -0.024608 765813.000000 0 0 1
25.098938 16.369781 -18.500399 35.216348 0.577927 2.123906 0.113533 -0.022683 535919.000000 0 0 1
25.922238 16.718081 -19.556999 36.523046 0.572804 2.135861 0.134641 -0.026876 -735388.000000 0 0 1
27.395538 16.843581 -19.207699 37.458743 0.551252 2.109204 0.128610 -0.030013 -590394.000000 0 0 1
27.711938 17.943681 -18.424599 37.807315 0.574621 2.079825 0.124596 -0.031044 -534034.000000 0 0 1
29.055038 17.951581 -18.047999 38.628807 0.553439 2.056936 0.117826 -0.036166 -509823.000000 0 0 1
29.457338 19.248581 -17.225399 39.178527 0.578789 2.026021 0.118641 -0.033995 3112.460000 0 0 1
28.931338 19.435181 -15.905999 38.311218 0.591527 1.998935 0.113238 -0.030024 873081.000000 0 0 1
27.602138 20.010981 -15.982199 37.652996 0.627295 2.009162 0.097097 -0.027050 511304.000000 0 0 1
26.687438 19.368281 -14.954399 36.207509 0.627797 1.996563 0.096371 -0.017642 -475105.000000 0 0 1
26.975638 19.753981 -13.600199 36.095294 0.632070 1.957120 0.094057 -0.021474 441086.000000 0 0 1
25.990238 19.202381 -12.745199 34.737070 0.636314 1.946476 0.087967 -0.020228 122097.000000 0 0 1
26.191038 19.668781 -11.297999 34.647889 0.644124 1.902951 0.092232 -0.016516 -3102.210000 0 0 1
25.848438 21.047381 -11.089399 35.129884 0.683377 1.891957 0.086692 -0.012880 -39642.000000 0 0 1
26.251738 21.503081 -9.841299 35.332526 0.686286 1.853063 0.077356 -0.008907 41068.300000 0 0 1
25.342038 21.285181 -8.589099 34.191380 0.698611 1.824723 0.091487 -0.009094 -453820.000000 0 0 1
25.384538 19.946081 -8.051799 33.272397 0.665996 1.815219 0.111780 -0.018229 107012.000000 0 0 1
24.563038 19.798581 -6.923799 32.299623 0.678408 1.786835 0.097468 -0.019428 -203518.000000 0 0 1
23.087338 19.477381 -7.236799 31.060663 0.700790 1.805947 0.074799 -0.020336 -285385.000000 0 0 1
22.398238 20.675981 -7.578599 31.410387 0.745436 1.814478 0.064005 -0.011576 -209812.000000 0 0 1
21.024838 20.484281 -7.814399 30.376215 0.772376 1.830976 0.073770 -0.013776 -84816.700000 0 0 1
20.365038 21.884981 -7.966199 30.937800 0.821358 1.831221 0.050603 -0.017347 -728792.000000 0 0 1
20.868838 22.701581 -9.030499 32.131295 0.827437 1.855684 0.061322 -0.015375 -7264.480000 0 0 1
20.484838 22.486981 -10.361099 32.134799 0.831957 1.899088 0.066323 -0.002089 1462300.000000 0 0 1
18.939738 22.881581 -10.571799 31.528453 0.879375 1.912730 0.062155 -0.018732 1311580.000000 0 0 1
18.653538 24.200681 -10.152599 32.197868 0.914125 1.891589 0.051260 -0.026918 -447821.000000 0 0 1
17.362938 24.541481 -10.569599 31.866477 0.955059 1.908884 0.066666 -0.025202 -339538.000000 0 0 1
16.918538 25.910881 -9.943599 32.503628 0.992349 1.881704 0.052877 -0.022467 -222458.000000 0 0 1
17.379238 27.085081 -10.562899 33.870553 1.000311 1.887947 0.096838 -0.018294 -34168.800000 0 0 1
16.913838 28.277481 -9.969999 34.425205 1.031747 1.864619 0.085970 -0.041888 -207624.000000 0 0 1
20.809438 28.635081 33.722198 48.889541 0.942367 0.809635 0.048254 -0.004282 80916.000000 0 0 1
19.491138 29.002681 33.379266 48.324273 0.979079 0.808291 0.069712 -0.015935 -137358.000000 0 0 1
18.615438 27.892681 33.525202 47.418091 0.982290 0.785531 0.064688 -0.017552 -1034830.000000 0 0 1
17.188638 28.351781 33.461004 47.105324 1.025784 0.780809 0.088535 -0.031505 -1286970.000000 0 0 1
16.778638 28.685081 32.159723 46.245047 1.041535 0.801792 0.097620 -0.029957 523496.000000 0 0 1
15.477938 29.330481 32.224747 46.241518 1.085229 0.799760 0.141394 -0.041357 1104580.000000 0 0 1
14.702338 29.153581 30.888885 44.946782 1.103710 0.813124 0.137158 -0.044140 -18397.300000 0 0 1
14.425938 27.750181 30.740205 43.853625 1.091395 0.794036 0.119787 -0.046403 574503.000000 0 0 1
13.026938 27.681681 30.436465 43.155011 1.130946 0.787975 0.128680 -0.026797 431919.000000 0 0 1
12.529038 26.226781 30.347625 42.021413 1.125132 0.763827 0.113000 -0.025512 -119206.000000 0 0 1
12.691038 25.533181 29.091115 40.734491 1.109519 0.775367 0.103939 -0.019100 357825.000000 0 0 1
14.022838 25.261981 28.670835 40.704109 1.064049 0.789258 0.082694 -0.019382 158782.000000 0 0 1
14.150338 24.528681 27.375545 39.386657 1.047543 0.802312 0.077193 -0.018890 -166614.000000 0 0 1
13.551638 25.372181 26.347005 39.007168 1.080231 0.829235 0.084103 -0.022996 575839.000000 0 0 1
13.217538 24.733381 25.118295 37.648004 1.080008 0.840369 0.096766 -0.033020 311869.000000 0 0 1
12.199638 23.546281 25.031585 36.466955 1.092763 0.814244 0.097014 -0.025054 -3879.750000 0 0 1
12.164838 23.147681 23.627375 35.242748 1.086933 0.836024 0.112374 -0.039583 -86110.000000 0 0 1
11.065938 22.294781 23.432965 34.185027 1.110076 0.815541 0.115137 -0.035889 25581.400000 0 0 1
10.798938 21.979781 21.945645 32.883722 1.114123 0.840123 0.125612 -0.036452 67870.000000 0 0 1
10.378238 23.158981 21.274445 33.115680 1.149498 0.873134 0.134135 -0.037252 107733.000000 0 0 1
10.376538 22.876781 19.879645 32.034668 1.144966 0.901331 0.140553 -0.029339 -457017.000000 0 0 1
10.098038 24.203681 19.094445 32.440505 1.175542 0.941472 0.112087 -0.029769 578935.000000 0 0 1
8.772138 24.637181 18.815345 32.217360 1.228739 0.947133 0.107733 -0.032886 389013.000000 0 0 1
7.949438 25.093581 19.881145 32.986987 1.264006 0.923920 0.102463 -0.039434 730281.000000 0 0 1
6.598838 25.712981 19.391845 32.874697 1.319583 0.939897 0.094792 -0.034104 417033.000000 0 0 1
6.851938 26.878581 18.664245 33.432936 1.321191 0.978510 0.088310 -0.034999 -659554.000000 0 0 1
5.696438 27.421581 18.127145 33.361443 1.365974 0.996367 0.078582 -0.037271 -713439.000000 0 0 1
5.940038 28.402481 17.004945 33.632620 1.364630 1.040709 0.087690 -0.036953 173677.000000 0 0 1
6.515938 27.778381 15.851245 32.639820 1.340393 1.063700 0.076962 -0.028780 290057.000000 0 0 1
7.585238 28.559581 15.311445 33.281014 1.311196 1.092727 0.068328 -0.028340 -70046.800000 0 0 1
8.177738 27.975281 14.018045 32.341882 1.286400 1.122497 0.061899 -0.025026 -534556.000000 0 0 1
7.478538 28.228881 12.874445 31.914724 1.311821 1.155565 0.068959 -0.028711 -758066.000000 0 0 1
6.963638 27.034681 12.363945 30.532497 1.318695 1.153879 0.058348 -0.029132 -23334.000000 0 0 1
6.267738 27.145081 10.954945 29.935778 1.343875 1.196145 0.054206 -0.024374 -284481.000000 0 0 1
6.954138 27.697081 9.836745 30.203475 1.324803 1.239063 0.041589 -0.020615 -152005.000000 0 0 1
7.056538 29.142681 9.873645 31.568647 1.333231 1.252691 0.048795 -0.020559 -438838.000000 0 0 1
6.987738 29.871081 8.547545 31.846044 1.340999 1.299062 0.050483 -0.012883 -429876.000000 0 0 1
5.803938 29.733981 7.804845 31.284356 1.378025 1.318652 0.029479 -0.011318 -447175.000000 0 0 1
5.678938 28.549581 7.131145 29.969687 1.374444 1.330547 0.017076 -0.005896 848430.000000 0 0 1
4.145738 28.213781 6.917545 29.343773 1.424900 1.332815 0.037505 -0.012688 1077100.000000 0 0 1
3.528938 29.233781 6.173545 30.086210 1.450663 1.364133 0.054843 -0.015497 -140515.000000 0 0 1
2.145238 28.959181 6.028645 29.657727 1.496853 1.366096 0.036966 -0.009351 435309.000000 0 0 1
1.356538 29.988981 5.180145 30.463307 1.525593 1.399921 0.054399 -0.019053 -94865.500000 0 0 1
1.928838 30.032281 3.896545 30.345369 1.506659 1.442034 0.050066 -0.016750 501999.000000 0 0 1
1.077838 30.623081 2.878845 30.776981 1.535614 1.477120 0.054997 -0.026613 665065.000000 0 0 1
0.105438 29.629681 2.178045 29.709813 1.567238 1.497420 0.090935 -0.034806 33083.600000 0 0 1
0.763738 28.610781 1.480545 28.659241 1.544109 1.519113 0.103115 -0.034682 -199505.000000 0 0 1
-0.117362 27.720681 0.813545 27.732865 -1.566563 1.541457 0.109692 -0.040537 83731.700000 0 0 1
-0.586762 28.176781 -0.604555 28.189373 -1.549975 1.592244 0.112213 -0.039025 -94069.700000 0 0 1
-1.536362 29.216881 -0.717355 29.266041 -1.518260 1.595310 0.119271 -0.044106 -50910.000000 0 0 1
-1.425362 29.809481 -1.950855 29.907234 -1.523017 1.636073 0.106998 -0.033731 -312263.000000 0 0 1
-2.687762 30.655281 -2.305155 30.859100 -1.483343 1.645565 0.129905 -0.029216 -319659.000000 0 0 1
-3.878062 29.957981 -2.470355 30.308789 -1.442062 1.652393 0.094815 -0.033038 -440125.000000 0 0 1
-3.927762 29.054081 -3.575055 29.535537 -1.436423 1.692136 0.076525 -0.031495 -1169510.000000 0 0 1
-5.331762 28.790781 -4.150855 29.573068 -1.387681 1.711621 0.073892 -0.020663 -282035.000000 0 0 1
-5.747162 29.869681 -4.926755 30.813968 -1.380711 1.731373 0.065787 -0.017994 156965.000000 0 0 1
-6.701462 29.425581 -5.887055 30.747875 -1.346873 1.763448 0.049664 -0.021888 35964.300000 0 0 1
-7.301362 30.460681 -6.852655 32.064340 -1.335537 1.786173 0.047649 -0.014377 -523589.000000 0 0 1
-8.150862 31.285781 -6.133255 32.906739 -1.315933 1.758276 0.049966 -0.002746 -456693.000000 0 0 1
-8.528962 32.376781 -6.957055 34.196488 -1.313220 1.775670 0.042609 -0.018722 -175158.000000 0 0 1
-9.527662 33.347181 -6.307755 35.250512 -1.292500 1.750706 0.052111 -0.013586 -472239.000000 0 0 1
-10.852262 32.914081 -6.410955 35.244981 -1.252306 1.753712 0.052964 -0.008196 -657502.000000 0 0 1
-11.724162 33.800981 -5.705855 36.228705 -1.236923 1.728950 0.056203 -0.009960 -303950.000000 0 0 1
-13.169462 33.354981 -5.804455 36.327417 -1.194757 1.731266 0.088200 -0.016393 -631534.000000 0 0 1
-13.743962 33.371081 -7.083955 36.779179 -1.180114 1.764615 0.086567 -0.018571 -205531.000000 0 0 1
-15.127962 33.121581 -7.025455 37.084382 -1.142351 1.761393 0.121172 -0.029520 -685918.000000 0 0 1
-15.805162 33.203581 -8.411855 37.723206 -1.126526 1.795676 0.160672 -0.034609 -206038.000000 0 0 1
-17.180162 32.943081 -8.457155 38.104174 -1.090089 1.794608 0.194316 -0.028614 -95502.600000 0 0 1
-17.997162 -34.037870 -8.078555 39.341295 1.084422 1.777613 0.198945 -0.020764 484217.000000 0 0 1
-19.548262 33.832381 -8.385355 39.963468 -1.046862 1.782193 0.197892 -0.020052 1500360.000000 0 0 1
-20.249262 32.826781 -7.661055 39.323300 -1.018078 1.766873 0.179675 -0.029650 67347.800000 0 0 1
-20.165962 32.867181 -6.279455 39.068519 -1.020466 1.732226 0.150627 -0.040131 -1858590.000000 0 0 1
-21.295662 32.275681 -5.521055 39.060298 -0.987559 1.712618 0.152184 -0.025737 -1548280.000000 0 0 1
-21.268662 32.468981 -4.109455 39.031761 -0.990882 1.676277 0.147074 -0.029871 1293290.000000 0 0 1
-22.556062 32.372081 -3.432155 39.604385 -0.962238 1.657566 0.147570 -0.024257 1218560.000000 0 0 1
-23.544062 33.556581 -3.666055 41.155886 -0.958982 1.659992 0.142564 -0.024697 -48048.300000 0 0 1
-24.216562 33.473081 -4.932955 41.607969 -0.944496 1.689634 0.148548 -0.033956 123454.000000 0 0 1
-25.065862 -33.490270 -5.074155 42.138375 0.928287 1.691506 0.147266 -0.038741 323934.000000 0 0 1
-25.619372 -33.341870 -6.573855 42.558760 0.915633 1.725883 0.185931 -0.020475 533356.000000 0 0 1
-24.662262 -32.702470 -7.431555 41.628196 0.924650 1.750281 0.200791 -0.012422 418470.000000 0 0 1
-25.068862 -32.740170 -8.775355 42.158907 0.917328 1.780479 0.157170 -0.011387 479803.000000 0 0 1
-26.287742 -31.937170 -9.342255 42.406437 0.882123 1.792921 0.124499 -0.003658 209062.000000 0 0 1
-27.540292 -32.304570 -8.770755 43.347192 0.864841 1.774540 0.133423 -0.007812 373103.000000 0 0 1
-28.631932 -31.589270 -9.344155 43.646108 0.834467 1.786556 0.051484 -0.007425 143127.000000 0 0 1
-28.714182 -30.006470 -9.144755 42.526686 0.807402 1.787525 0.033889 0.000371 -668051.000000 0 0 1
-27.784462 -29.225470 -9.895855 41.521469 0.810669 1.811443 0.048813 0.008517 57733.300000 0 0 1
-28.147342 -28.990470 -11.224455 41.936960 0.800153 1.841750 0.040251 0.002955 -329126.000000 0 0 1
-26.995702 -28.398870 -12.018555 40.984258 0.810723 1.868419 0.083894 0.011286 200075.000000 0 0 1
-25.894072 -29.266070 -12.357555 40.984326 0.846453 1.877082 0.102172 0.003377 396373.000000 0 0 1
-24.940562 -28.563270 -13.119755 40.125054 0.853004 1.903894 0.103844 0.002085 132485.000000 0 0 1
-23.593162 -29.312170 -13.314255 39.913782 0.893079 1.910890 0.133579 -0.019082 144905.000000 0 0 1
-23.724862 -30.582170 -13.950855 41.143220 0.911003 1.916735 0.141018 -0.022235 4547.750000 0 0 1
-24.318862 -31.660170 -13.232955 42.058109 0.915798 1.890868 0.126800 -0.012281 -6717.870000 0 0 1
-24.285362 -32.814870 -14.182855 43.217449 0.933680 1.905166 0.134723 -0.023726 6771.650000 0 0 1
-24.532962 -33.995670 -13.480955 44.037574 0.945688 1.881915 0.118283 -0.030293 -27919.900000 0 0 1
-24.702062 32.953181 -14.278455 43.588741 -0.927544 1.904529 0.118003 -0.025938 -86692.900000 0 0 1
-25.246152 31.796681 -13.353255 42.739988 -0.899733 1.888546 0.097834 -0.032532 44632.500000 0 0 1
-24.434462 31.448481 -12.221055 41.658182 -0.910258 1.868541 0.113470 -0.030911 404509.000000 0 0 1
-24.647462 32.320381 -11.134155 42.143491 -0.919281 1.838167 0.164159 -0.032621 103639.000000 0 0 1
-23.820762 32.000481 -9.866055 41.094994 -0.930897 1.813244 0.172477 -0.033733 -90865.600000 0 0 1
-24.407262 30.981581 -9.105755 40.478236 -0.903539 1.797693 0.157707 -0.036501 -39272.400000 0 0 1
-23.570162 30.441181 -8.098755 39.342190 -0.911933 1.778133 0.150728 -0.038418 -271269.000000 0 0 1
-24.255562 29.397081 -7.221755 38.790133 -0.880936 1.758064 0.129500 -0.041209 -278910.000000 0 0 1
-24.643562 28.284781 -7.986055 38.355066 -0.854085 1.780545 0.120590 -0.027213 -66506.800000 0 0 1
-24.844562 27.029181 -7.356655 37.442613 -0.827487 1.768561 0.104565 -0.034991 -592548.000000 0 0 1
-23.763062 26.376381 -6.516055 36.095091 -0.837472 1.752316 0.107081 -0.032998 -553426.000000 0 0 1
-23.537662 26.882381 -5.231455 36.111661 -0.851638 1.716177 0.115955 -0.039526 1209970.000000 0 0 1
-22.457162 26.192581 -4.514255 34.795890 -0.862030 1.700898 0.109517 -0.040428 1555830.000000 0 0 1
-21.075562 26.925181 -4.414055 34.476493 -0.906665 1.699180 0.098090 -0.048358 517599.000000 0 0 1
-20.405862 26.943281 -5.649855 34.267484 -0.922599 1.736428 0.108692 -0.042784 -1278450.000000 0 0 1
-19.115162 27.371181 -5.497655 33.834822 -0.961166 1.734005 0.110538 -0.038917 -1110510.000000 0 0 1
-18.203362 27.079981 -6.717455 33.313841 -0.978968 1.773830 0.126079 -0.040377 -364747.000000 0 0 1
-18.336262 27.741781 -7.954155 34.192010 -0.986754 1.805579 0.135846 -0.041530 106082.000000 0 0 1
-18.250162 29.190881 -7.937855 35.329669 -1.012053 1.797411 0.137483 -0.033251 -110808.000000 0 0 1
-18.446262 29.953881 -9.264355 36.377574 -1.018824 1.828305 0.138547 -0.029848 -149192.000000 0 0 1
-17.253962 29.935281 -10.010455 35.972621 -1.047929 1.852799 0.138712 -0.031161 125932.000000 0 0 1
-17.294862 30.776981 -11.155455 37.024033 -1.058831 1.876855 0.141721 -0.036359 953948.000000 0 0 1
-15.818162 30.838481 -11.731355 36.590311 -1.096854 1.897174 0.129691 -0.038899 1211320.000000 0 0 1
-15.640962 31.654981 -12.909655 37.594371 -1.111874 1.921324 0.126294 -0.040999 -214346.000000 0 0 1
-15.939362 30.858281 -14.050155 37.466033 -1.094009 1.955204 0.125993 -0.045801 -182221.000000 0 0 1
-15.377362 31.349381 -15.382855 38.155985 -1.114765 1.985760 0.146809 -0.050144 -541574.000000 0 0 1
-13.987962 31.497881 -15.349955 37.727983 -1.152866 1.989809 0.129976 -0.057226 -645866.000000 0 0 1
-13.603862 31.881081 -16.640155 38.449489 -1.167481 2.018370 0.130858 -0.062906 374353.000000 0 0 1
-12.053462 31.799881 -16.815655 37.937905 -1.208487 2.030008 0.142075 -0.060404 236208.000000 0 0 1
-11.631862 30.443081 -16.892855 36.707628 -1.205828 2.049017 0.141028 -0.071978 624462.000000 0 0 1
-10.347162 30.308381 -17.539855 36.514494 -1.241807 2.071854 0.129945 -0.066580 852921.000000 0 0 1
-10.258562 30.675581 -19.069555 37.548333 -1.248067 2.103503 0.136631 -0.070006 -428250.000000 0 0 1
-11.067662 29.829881 -19.870055 37.511785 -1.215514 2.129045 0.122514 -0.070021 26087.400000 0 0 1
-10.730462 29.870381 -21.227155 38.183434 -1.225919 2.160273 0.119830 -0.073892 35859.200000 0 0 1
-11.922662 29.341481 -22.125355 38.634230 -1.184835 2.180577 0.115210 -0.058200 357727.000000 0 0 1
-12.978562 30.184081 -22.378155 39.753033 -1.164715 2.168722 0.120740 -0.056569 -665131.000000 0 0 1
-13.915962 30.300581 -21.343855 39.589637 -1.140265 2.140197 0.122321 -0.054117 -263031.000000 0 0 1
-14.832662 31.573481 -21.439055 40.945399 -1.131614 2.121869 0.146042 -0.049671 697083.000000 0 0 1
-15.674362 31.639181 -22.594155 41.919199 -1.110828 2.140037 0.135706 -0.036534 224240.000000 0 0 1
-16.472062 32.830081 -22.577655 43.114888 -1.105760 2.121941 0.143386 -0.037768 379022.000000 0 0 1
-16.872562 33.187881 -24.025555 44.309662 -1.100455 2.143873 0.132508 -0.025614 95887.800000 0 0 1
-15.761462 33.387081 -24.868655 44.514839 -1.129731 2.163565 0.143010 -0.022211 10088.500000 0 0 1
-16.203362 33.496381 -26.231055 45.526089 -1.120245 2.184839 0.149011 -0.020124 287046.000000 0 0 1
-16.578762 -33.158370 -26.716655 45.695869 1.107159 2.195260 0.147516 -0.014555 53.398000 0 0 1
-17.854362 -32.762070 -26.271055 45.632223 1.071823 2.184272 0.142258 -0.010926 -400027.000000 0 0 1
-18.374862 -31.959870 -27.282455 45.862852 1.049011 2.207901 0.124626 -0.005145 300752.000000 0 0 1
-19.858362 -31.544470 -27.066455 46.065183 1.008942 2.198847 0.096446 -0.005148 759136.000000 0 0 1
-20.853562 -32.534470 -27.292255 47.309935 1.000797 2.185703 0.078521 0.000675 -734377.000000 0 0 1
-22.139262 -32.043370 -27.035255 47.411280 0.966193 2.177580 0.060810 -0.002799 -150740.000000 0 0 1
-23.113962 -33.205070 -27.288255 48.800418 0.962694 2.164194 0.041717 0.007452 -335825.000000 0 0 1
-23.156562 34.014981 -26.146455 48.753281 -0.973090 2.136845 0.054772 0.001770 -297833.000000 0 0 1
-24.294562 33.173281 -26.155755 48.732082 -0.938685 2.137348 0.030013 0.008388 -67009.700000 0 0 1
-24.282662 31.812281 -26.928255 48.236914 -0.918831 2.163071 0.037354 0.004493 -275116.000000 0 0 1
-23.433862 30.830381 -26.386055 46.860241 -0.920869 2.168904 0.047307 -0.015738 -223038.000000 0 0 1
-24.097462 29.697781 -25.823855 46.146694 -0.889129 2.164704 0.028953 -0.010696 148200.000000 0 0 1
31.993202 9.902381 -26.512629 42.714654 0.300163 2.240421 0.027318 0.002594 -53707.000000 0 0 1
31.647462 8.547781 -26.304269 42.030239 0.263799 2.247006 0.027435 0.007415 77070.700000 0 0 1
30.246742 8.387981 -26.191599 40.880601 0.270520 2.266187 0.051359 -0.001160 125874.000000 0 0 1
29.774382 6.960081 -25.802199 40.008875 0.229637 2.271704 0.048595 -0.003050 -42274.400000 0 0 1
30.025812 6.654781 -24.432499 39.278271 0.218110 2.242137 0.035458 0.008352 214673.000000 0 0 1
29.441432 5.412981 -24.015999 38.377943 0.181825 2.246922 0.043263 0.003493 199591.000000 0 0 1
29.680602 5.060581 -22.447299 37.555677 0.168877 2.211435 0.057422 -0.000395 8357.330000 0 0 1
30.981052 4.723681 -22.027799 38.306171 0.151305 2.183456 0.061040 -0.001586 60355.300000 0 0 1
30.930812 4.494781 -20.653799 37.463284 0.144307 2.154727 0.048415 -0.003441 495046.000000 0 0 1
32.320712 4.291781 -19.965499 38.231780 0.132015 2.120251 0.052748 -0.001827 351789.000000 0 0 1
32.875242 3.001481 -20.094799 38.647010 0.091047 2.117597 0.064490 -0.003205 -16848.400000 0 0 1
33.875932 2.744681 -19.157799 39.014527 0.080845 2.084083 0.083456 -0.012126 -195292.000000 0 0 1
34.267152 1.221981 -19.048999 39.224933 0.035645 2.077886 0.089688 -0.011563 -36652.300000 0 0 1
33.220102 0.508481 -18.447699 38.001992 0.015305 2.077663 0.095204 -0.012154 -38268.000000 0 0 1
33.493732 -0.915119 -18.423799 38.237468 -0.027315 2.073533 0.095714 -0.011856 87883.700000 0 0 1
32.283982 -1.768519 -17.984299 36.997543 -0.054725 2.078411 0.083850 -0.009421 211254.000000 0 0 1
31.918052 -1.834919 -16.614499 36.030134 -0.057425 2.050062 0.096764 -0.013270 -670406.000000 0 0 1
30.540212 -1.794519 -16.450699 34.735434 -0.058692 2.064170 0.089919 -0.012685 -788643.000000 0 0 1
30.035652 -2.137119 -15.040199 33.658807 -0.071033 2.034030 0.111848 -0.013167 -226798.000000 0 0 1
30.206592 -3.467819 -14.673299 33.760476 -0.114303 2.020423 0.082293 -0.022869 530254.000000 0 0 1
29.368812 -3.824119 -13.579799 32.581620 -0.129482 2.000711 0.080768 -0.022249 -1111.560000 0 0 1
29.145522 -5.259219 -13.256899 32.447900 -0.178526 1.991672 0.081331 -0.020046 -27684.800000 0 0 1
28.447922 -6.013419 -14.259199 32.384723 -0.208317 2.026736 0.069236 -0.014494 584116.000000 0 0 1
28.122022 -7.263619 -13.687899 32.108673 -0.252765 2.011194 0.066458 -0.017399 -613044.000000 0 0 1
27.579522 -8.156019 -14.746899 32.320609 -0.287532 2.044594 0.041098 -0.008290 -856447.000000 0 0 1
26.326722 -7.740219 -15.192499 31.365895 -0.285949 2.076432 0.051612 -0.013167 -436936.000000 0 0 1
26.011322 -8.408319 -16.381199 31.868988 -0.312654 2.110658 0.046571 -0.007851 -178654.000000 0 0 1
24.595022 -8.059219 -16.865799 30.892092 -0.316651 2.148329 0.041681 -0.001633 -334711.000000 0 0 1
24.589722 -6.773219 -17.499299 30.931479 -0.268784 2.172132 0.038803 0.001698 295121.000000 0 0 1
23.366422 -6.443219 -18.137699 30.273436 -0.269060 2.213209 0.078758 -0.013308 206171.000000 0 0 1
23.306422 -7.160219 -19.535599 31.242562 -0.298068 2.246297 0.048861 -0.000829 -274994.000000 0 0 1
23.820722 -6.444819 -20.625199 32.161489 -0.264229 2.266989 0.053900 -0.002838 260223.000000 0 0 1
23.625622 -7.095319 -21.837799 32.945456 -0.291753 2.295411 0.077949 -0.015172 -174701.000000 0 0 1
24.220822 -6.248819 -22.988999 33.973373 -0.252488 2.314036 0.086113 -0.022047 -92979.500000 0 0 1
24.164722 -6.677019 -24.316999 34.926106 -0.269586 2.340944 0.097576 -0.027951 195180.000000 0 0 1
24.295122 -5.587819 -25.259589 35.489767 -0.226066 2.362773 0.086043 -0.038299 -98760.500000 0 0 1
24.169622 -5.987719 -26.752189 36.547272 -0.242848 2.392033 0.105379 -0.045505 -311145.000000 0 0 1
22.867022 -6.343219 -27.134029 36.047090 -0.270592 2.423008 0.117719 -0.038452 -320812.000000 0 0 1
22.639322 -6.502219 -28.557249 37.018026 -0.279681 2.451900 0.109886 -0.038842 282679.000000 0 0 1
21.284322 -7.181619 -28.862959 36.574150 -0.325418 2.480241 0.108627 -0.041562 45295.700000 0 0 1
21.303822 -8.480319 -28.343919 36.457460 -0.378838 2.461400 0.109465 -0.037733 421488.000000 0 0 1
20.023522 -9.098719 -28.267089 35.815590 -0.426508 2.480366 0.109657 -0.045607 279754.000000 0 0 1
20.084822 -10.553019 -27.793049 35.877847 -0.483778 2.456970 0.126096 -0.038520 -521036.000000 0 0 1
18.873322 -10.969519 -27.235949 34.904578 -0.526495 2.465937 0.133851 -0.039170 -187051.000000 0 0 1
18.849322 -12.263119 -26.674849 34.888804 -0.576788 2.441167 0.131452 -0.035813 -297883.000000 0 0 1
19.000622 -13.464019 -27.577929 36.094953 -0.616481 2.440346 0.114755 -0.025098 452163.000000 0 0 1
17.909522 -13.615119 -28.521909 36.326599 -0.650008 2.473738 0.113474 -0.028461 772159.000000 0 0 1
18.014022 -14.721419 -29.421699 37.508153 -0.685153 2.472538 0.093225 -0.026107 -127012.000000 0 0 1
16.840522 -14.837019 -30.428519 37.810516 -0.722235 2.506073 0.080848 -0.026661 -460144.000000 0 0 1
15.675622 -15.293919 -29.853219 37.024908 -0.773074 2.508668 0.076005 -0.032771 -758506.000000 0 0 1
14.721522 -15.769419 -30.749739 37.562538 -0.819752 2.529814 0.079135 -0.037787 -778348.000000 0 0 1
13.470822 -16.322719 -30.116329 36.808797 -0.880829 2.529040 0.095136 -0.044992 -717865.000000 0 0 1
13.726022 -17.541019 -29.490059 36.956118 -0.906811 2.494724 0.091725 -0.045984 328609.000000 0 0 1
12.644022 -18.086819 -28.719509 36.218980 -0.960692 2.486417 0.095935 -0.048126 352903.000000 0 0 1
13.037822 -19.381119 -27.953739 36.428342 -0.978623 2.445514 0.089927 -0.046585 -279204.000000 0 0 1
13.956822 -19.256419 -26.926889 35.925756 -0.943627 2.418125 0.082257 -0.039879 -485113.000000 0 0 1
14.057122 -20.436319 -26.144489 36.038592 -0.968271 2.382496 0.074720 -0.033537 -654614.000000 0 0 1
15.161722 -20.329619 -25.131699 35.703971 -0.929992 2.351657 0.056914 -0.020842 4963.160000 0 0 1
16.505622 -20.584819 -25.548739 36.727489 -0.894938 2.340093 0.066282 -0.020714 540887.000000 0 0 1
17.389422 -20.532419 -24.466399 36.367251 -0.868090 2.308728 0.068332 -0.014203 -284788.000000 0 0 1
18.810722 -21.038819 -24.829199 37.589418 -0.841253 2.292330 0.033626 -0.006212 -5109.550000 0 0 1
19.024122 -22.414819 -25.002199 38.593410 -0.867040 2.275537 0.042334 -0.018555 136670.000000 0 0 1
18.849222 -23.142019 -23.771899 38.156905 -0.887275 2.243373 0.038939 -0.017806 -740357.000000 0 0 1
19.509122 -24.517019 -23.683499 39.275924 -0.898660 2.218056 0.038680 -0.022929 -298718.000000 0 0 1
20.922022 -24.521919 -23.566299 39.930264 -0.864449 2.202086 0.050416 -0.020539 259127.000000 0 0 1
21.404822 -25.836269 -23.399799 40.905132 -0.878929 2.179800 0.060372 -0.034125 -41909.800000 0 0 1
21.491322 -26.288049 -21.934199 40.423354 -0.885456 2.144340 0.080703 -0.040325 -387172.000000 0 0 1
20.226822 -26.374789 -21.310599 39.482850 -0.916567 2.140928 0.060702 -0.031771 67674.200000 0 0 1
20.311522 -26.682919 -19.917299 39.003012 -0.920154 2.106749 0.059725 -0.033278 -293632.000000 0 0 1
19.006322 -27.160449 -19.271999 38.345016 -0.960218 2.097394 0.050151 -0.031430 -752801.000000 0 0 1
18.691622 -28.499549 -19.684199 39.358211 -0.990315 2.094545 0.057804 -0.028705 904978.000000 0 0 1
17.500422 -29.086339 -19.088699 38.944298 -1.029149 2.083063 0.053482 -0.017546 1412570.000000 0 0 1
16.152822 -28.520879 -19.635799 38.208884 -1.055486 2.110529 0.049937 -0.013671 -173817.000000 0 0 1
15.560822 -27.474119 -18.867699 36.782557 -1.055463 2.109417 0.040822 -0.016088 75957.200000 0 0 1
14.334322 -27.094709 -19.489899 36.324265 -1.084184 2.137144 0.047362 -0.004128 283893.000000 0 0 1
13.550722 -26.117309 -18.613299 34.816531 -1.092190 2.134844 0.045138 -0.013734 -348529.000000 0 0 1
12.870722 -26.712779 -17.513099 34.437432 -1.121799 2.104294 0.041955 -0.017033 54869.700000 0 0 1
11.960322 -25.855239 -16.869299 33.107642 -1.137524 2.105433 0.043702 -0.021311 -115195.000000 0 0 1
10.492222 -25.925169 -17.325699 32.899559 -1.186235 2.125421 0.053680 -0.018034 -514771.000000 0 0 1
9.774722 -26.873709 -16.556199 33.043141 -1.221944 2.095606 0.069757 -0.018961 703708.000000 0 0 1
8.347622 -26.810059 -16.624399 32.631774 -1.268949 2.105347 0.076965 -0.012302 1067300.000000 0 0 1
7.541422 -27.357429 -17.835899 33.517477 -1.301814 2.131919 0.081658 -0.001617 -152117.000000 0 0 1
7.648122 -26.805269 -19.120199 33.802341 -1.292860 2.172014 0.085059 -0.004683 -199993.000000 0 0 1
7.069922 -27.721789 -19.990399 34.901253 -1.321088 2.180678 0.080876 0.000806 -195714.000000 0 0 1
6.857522 -27.117389 -21.394399 35.215035 -1.323106 2.223751 0.075614 -0.000023 -460241.000000 0 0 1
5.697722 -26.345699 -21.514299 34.488041 -1.357809 2.244416 0.083846 -0.005422 -310459.000000 0 0 1
5.545822 -25.785149 -22.778699 34.849666 -1.358945 2.283164 0.065754 -0.006295 250795.000000 0 0 1
4.119522 -25.284789 -23.134299 34.517920 -1.409290 2.305290 0.045232 -0.014601 774473.000000 0 0 1
3.087622 -26.250109 -23.331099 35.255380 -1.453711 2.293979 0.048550 -0.003598 -55586.500000 0 0 1
1.884422 -25.693809 -23.768599 35.052378 -1.497586 2.315955 0.050713 -0.006279 4649.030000 0 0 1
0.982122 -26.766589 -24.392699 36.227319 -1.534121 2.309491 0.039305 -0.002296 -110452.000000 0 0 1
1.585922 -27.151459 -25.620869 37.365035 -1.512452 2.326349 0.031963 -0.002206 592533.000000 0 0 1
0.720722 -27.855629 -26.519789 38.467580 -1.544929 2.331465 0.036267 -0.013246 413279.000000 0 0 1
1.640322 -28.563199 -27.542689 39.713307 -1.513432 2.337185 0.041993 -0.017423 -186967.000000 0 0 1
2.225922 -27.650939 -28.501309 39.772525 -1.490469 2.369723 0.042541 -0.019825 -88632.500000 0 0 1
2.795222 -28.351649 -29.536689 41.037121 -1.472523 2.374246 0.045187 -0.018932 88969.000000 0 0 1
4.287122 -28.703999 -29.266489 41.216821 -1.422536 2.360382 0.047786 -0.027225 -401526.000000 0 0 1
4.589422 -29.787829 -28.417569 41.423855 -1.417928 2.326800 0.040078 -0.025436 194790.000000 0 0 1
5.827322 -30.423179 -28.737089 42.253376 -1.381546 2.318714 0.047953 -0.020557 585946.000000 0 0 1
6.231722 -31.465459 -27.624809 42.332488 -1.375277 2.281764 0.060822 -0.026934 173376.000000 0 0 1
5.329022 -32.569729 -27.584259 43.012522 -1.408615 2.266998 0.058407 -0.032623 165325.000000 0 0 1
5.806322 -33.710539 -26.913399 43.525221 -1.400229 2.237425 0.077335 -0.043709 362587.000000 0 0 1
4.636822 33.425773 -26.475759 42.892287 1.432956 2.236054 0.084476 -0.042994 576025.000000 0 0 1
3.907822 32.748685 -27.504739 42.944827 1.452030 2.265902 0.077863 -0.039457 85933.600000 0 0 1
2.828722 31.987542 -27.021619 41.968708 1.482594 2.270318 0.066473 -0.036550 -498930.000000 0 0 1
1.614922 32.187664 -27.918469 42.639121 1.520666 2.284664 0.061079 -0.023136 -747766.000000 0 0 1
1.672422 31.428082 -29.087759 42.855794 1.517632 2.316836 0.066297 -0.026489 82058.600000 0 0 1
0.576422 31.867262 -29.863579 43.677088 1.552710 2.323666 0.066895 -0.031286 251578.000000 0 0 1
0.215722 30.836152 -31.012159 43.734070 1.563801 2.359028 0.055618 -0.025448 175131.000000 0 0 1
1.234522 30.787892 -31.985929 44.413039 1.530720 2.374876 0.068627 -0.028591 474897.000000 0 0 1
0.780422 29.867802 -32.985869 44.505755 1.544673 2.405592 0.082972 -0.026701 234991.000000 0 0 1
2.008122 29.399242 -33.817999 44.855380 1.502597 2.424826 0.076682 -0.016329 401963.000000 0 0 1
2.499022 30.335122 33.135351 44.993513 1.488601 0.742993 0.074251 -0.017571 -45889.600000 0 0 1
3.401722 29.792482 32.192112 43.994270 1.457108 0.749933 0.067772 -0.022605 -203908.000000 0 0 1
2.776422 28.790702 31.172335 42.524434 1.474659 0.748008 0.063516 -0.018840 41520.000000 0 0 1
2.590422 27.423012 31.490325 41.837453 1.476614 0.718669 0.076331 -0.021972 214819.000000 0 0 1
3.853322 26.777542 31.434955 41.473380 1.427876 0.710624 0.077588 -0.017837 -27648.600000 0 0 1
3.764722 25.262272 31.771485 40.764970 1.422860 0.677117 0.103079 -0.028245 307842.000000 0 0 1
2.905622 24.502822 30.902185 39.544607 1.452764 0.673808 0.098491 -0.017806 567685.000000 0 0 1
3.045622 23.114082 31.149675 38.908082 1.439786 0.642506 0.091332 -0.013541 14797.400000 0 0 1
2.164022 22.320632 30.184695 37.603317 1.474147 0.638965 0.079513 -0.001552 -64845.300000 0 0 1
0.794922 22.202532 30.455015 37.697378 1.535008 0.630248 0.083642 -0.013384 -201237.000000 0 0 1
0.005422 21.922532 29.308065 36.600002 1.570549 0.642222 0.087647 -0.006673 1183100.000000 0 0 1
-1.491378 21.507832 29.531905 36.564251 -1.501566 0.630604 0.093075 -0.008494 1229510.000000 0 0 1
-2.413478 22.565732 29.849825 37.497323 -1.464248 0.650052 0.096901 -0.014169 437177.000000 0 0 1
-3.719678 22.091032 30.070045 37.497431 -1.403982 0.640290 0.075322 -0.021141 -312671.000000 0 0 1
-4.731378 23.134332 30.478605 38.555527 -1.369061 0.659152 0.045724 -0.028071 -483457.000000 0 0 1
-4.657278 23.569082 31.780025 39.839200 -1.375708 0.647312 0.061463 -0.024661 -576480.000000 0 0 1
-5.608678 24.526972 32.043635 40.740940 -1.345988 0.665640 0.046432 -0.030978 -562661.000000 0 0 1
-5.364778 25.324222 33.379138 42.240548 -1.362039 0.659636 0.070264 -0.026905 -2732.850000 0 0 1
-6.541378 25.978262 33.794572 43.124620 -1.324122 0.670278 0.067271 -0.020239 -331275.000000 0 0 1
-6.424878 26.598092 -32.838289 42.744483 -1.333782 2.446893 0.077719 -0.016349 394282.000000 0 0 1
-7.737378 27.053752 -32.106159 42.691662 -1.292232 2.421959 0.075366 -0.012403 139730.000000 0 0 1
-8.330878 28.205232 -32.679099 43.964328 -1.283596 2.408800 0.089176 -0.016625 837760.000000 0 0 1
-9.704578 28.430152 -32.309199 44.117307 -1.241850 2.392559 0.080731 -0.012179 1084910.000000 0 0 1
-9.959778 28.829872 -30.827449 43.366927 -1.238165 2.361505 0.085635 -0.007090 -487456.000000 0 0 1
-9.462878 30.149422 -30.558889 43.958838 -1.266668 2.339453 0.095644 -0.012628 164410.000000 0 0 1
-9.534278 30.388642 -29.138539 43.167424 -1.266778 2.311778 0.113837 -0.018191 -193624.000000 0 0 1
-8.684478 31.588432 -28.667929 43.532739 -1.302499 2.289670 0.107958 -0.027704 -57347.100000 0 0 1
-7.307478 31.452642 -28.947549 43.366214 -1.342514 2.301661 0.085551 -0.026686 -199674.000000 0 0 1
-6.643378 32.633272 -28.440839 43.794363 -1.369964 2.277615 0.090248 -0.027231 -791051.000000 0 0 1
-5.155678 32.317329 -28.406549 43.335007 -1.412597 2.285655 0.081817 -0.034250 -678628.000000 0 0 1
-4.232778 33.325818 -28.048549 43.763543 -1.444461 2.266481 0.072156 -0.041275 -47921.300000 0 0 1
-4.086178 -33.587629 -28.859799 44.471493 1.449734 2.277001 0.076563 -0.043350 -629105.000000 0 0 1
-3.099878 -33.488309 -30.054129 45.103512 1.478493 2.300082 0.069296 -0.042212 -178960.000000 0 0 1
-3.399878 33.774592 -31.237479 46.130926 -1.470471 2.314677 0.067395 -0.034393 38899.000000 0 0 1
-4.312678 -33.675369 -32.123769 46.739343 1.443423 2.328556 0.077581 -0.037664 -70572.100000 0 0 1
-3.744078 -32.879049 -33.301789 46.947408 1.457410 2.359361 0.064021 -0.039893 -323534.000000 0 0 1
-3.131778 -31.664279 -32.962569 45.814469 1.472211 2.373849 0.078090 -0.038984 66219.600000 0 0 1
-2.410078 -31.073059 33.897165 46.047381 1.493390 0.743452 0.074024 -0.042143 -7113.640000 0 0 1
32.722552 17.693881 12.440545 39.225069 0.495694 1.248065 0.124114 -0.018882 -155996.000000 0 0 1
34.051072 17.507681 12.899345 40.402816 0.474911 1.245839 0.115032 -0.038707 216006.000000 0 0 1
34.209502 16.459681 13.832745 40.404901 0.448449 1.221376 0.119467 -0.013812 -1524490.000000 0 0 1
35.609112 16.481681 14.385545 41.792327 0.433489 1.219394 0.122468 -0.036841 -532441.000000 0 0 1
36.736842 16.290181 13.549645 42.409415 0.417376 1.245599 0.115503 -0.006643 15493.100000 0 0 1
36.708212 15.113981 12.750145 41.695221 0.390580 1.260024 0.134430 -0.028367 -1461020.000000 0 0 1
-36.191062 14.521081 12.291445 40.886849 -0.381570 1.265453 0.140947 -0.020608 8671.810000 0 0 1
-35.577731 13.745281 13.305745 40.394933 -0.368680 1.235137 0.114764 -0.012222 -403059.000000 0 0 1
-36.190542 12.489881 13.543445 40.610065 -0.332316 1.230783 0.109890 -0.012205 -502146.000000 0 0 1
-35.415228 11.603181 14.538245 40.002910 -0.316611 1.198850 0.112139 -0.019856 -33928.500000 0 0 1
-35.638806 12.081981 15.900045 40.852298 -0.326853 1.171025 0.110399 -0.024961 554053.000000 0 0 1
-34.769078 11.426781 16.851245 40.291744 -0.317528 1.139300 0.090431 -0.019127 251737.000000 0 0 1
-34.679970 12.135881 18.237245 41.019228 -0.336621 1.110066 0.087388 -0.022163 -885204.000000 0 0 1
-35.770421 11.965281 19.058745 42.260227 -0.322802 1.102927 0.096072 -0.034851 -540356.000000 0 0 1
-35.513583 12.578081 20.333045 42.811861 -0.340391 1.075901 0.087777 -0.037640 564904.000000 0 0 1
-36.836692 12.852981 21.141745 44.374705 -0.335710 1.074199 0.121077 -0.058090 542189.000000 0 0 1
36.799292 11.611881 21.453345 44.150535 0.305658 1.063388 0.103183 -0.042172 -653369.000000 0 0 1
35.758502 11.804581 22.330145 43.779607 0.318855 1.035544 0.132140 -0.053390 -599347.000000 0 0 1
35.418712 10.521581 23.089455 43.569620 0.288760 1.012262 0.109234 -0.042818 -245342.000000 0 0 1
36.454202 10.221281 23.975675 44.813128 0.273367 1.006271 0.098590 -0.029962 -262001.000000 0 0 1
36.369912 10.874181 25.237085 45.584304 0.290528 0.984073 0.100832 -0.026062 -700428.000000 0 0 1
-36.523972 11.113381 25.906815 46.137521 -0.295375 0.974583 0.089821 -0.028085 53504.700000 0 0 1
-35.694795 12.224881 25.632245 45.613355 -0.329963 0.974060 0.092044 -0.032679 -207264.000000 0 0 1
-35.069457 12.201981 24.413125 44.438225 -0.334836 0.989184 0.088438 -0.035242 -533333.000000 0 0 1
-34.078423 13.410681 24.105905 43.843813 -0.374911 0.988656 0.083507 -0.031617 993786.000000 0 0 1
-32.983102 13.604981 25.005485 43.568966 -0.391221 0.959501 0.069077 -0.032566 383871.000000 0 0 1
-33.370282 13.877481 26.363725 44.734844 -0.394107 0.940563 0.060948 -0.025342 -1203410.000000 0 0 1
-32.304682 14.463881 27.272725 44.683307 -0.420967 0.914286 0.061189 -0.013448 -334746.000000 0 0 1
-32.032922 15.866181 27.065095 44.837074 -0.459887 0.922747 0.083979 -0.013669 -394257.000000 0 0 1
-31.418042 16.500781 28.156565 45.300787 -0.483604 0.900080 0.093491 -0.023575 -75925.200000 0 0 1
-30.719202 17.771481 27.584765 44.949018 -0.524471 0.910071 0.099406 -0.026547 76531.600000 0 0 1
-31.559152 18.731581 26.969215 45.543285 -0.535655 0.937051 0.081589 -0.035457 62035.500000 0 0 1
-30.760682 19.621181 26.190775 44.912883 -0.567798 0.948200 0.089970 -0.030929 221877.000000 0 0 1
-31.570792 20.532681 25.218435 45.324115 -0.576635 0.980747 0.096025 -0.017320 -212601.000000 0 0 1
-32.290322 21.496181 25.936335 46.663092 -0.587344 0.981446 0.100162 -0.031739 -174884.000000 0 0 1
-33.202462 22.114081 25.102185 47.133383 -0.587567 1.009153 0.103332 -0.028819 -900976.000000 0 0 1
-33.645122 23.421381 25.714505 48.392056 -0.608124 1.010569 0.097876 -0.020101 -627176.000000 0 0 1
-34.681043 23.906481 24.925315 48.944519 -0.603525 1.036476 0.101666 -0.024782 -384462.000000 0 0 1
-34.864742 25.329081 25.000245 49.820928 -0.628288 1.045115 0.097889 -0.020035 345555.000000 0 0 1
-36.097732 25.840881 24.193705 50.558212 -0.621290 1.071815 0.096086 -0.011214 223842.000000 0 0 1
-35.920922 25.975781 22.816045 49.856051 -0.626087 1.095459 0.110801 -0.025472 -222513.000000 0 0 1
-37.017592 26.565381 22.171245 50.671350 -0.622468 1.117924 0.109879 -0.034385 -232977.000000 0 0 1
-36.839812 26.553181 20.559845 49.849277 -0.624533 1.145665 0.155678 -0.042415 173629.000000 0 0 1
-36.853212 25.233681 20.017245 48.944745 -0.600389 1.149464 0.121566 -0.042753 155219.000000 0 0 1
-36.225922 25.321681 18.741545 48.007817 -0.610050 1.169746 0.115910 -0.045792 -142732.000000 0 0 1
-36.100282 23.932381 18.054045 46.924810 -0.585419 1.175866 0.123356 -0.033804 -35267.600000 0 0 1
36.936852 23.499781 17.492645 47.144071 0.566623 1.190661 0.110271 -0.033823 -291906.000000 0 0 1
37.116042 22.328181 16.680845 46.415503 0.541579 1.203192 0.108873 -0.028724 321041.000000 0 0 1
35.970562 22.074181 15.636345 45.007179 0.550413 1.215979 0.088316 -0.018232 1161310.000000 0 0 1
34.806782 21.449381 16.214745 43.983020 0.552276 1.193230 0.093602 -0.029497 235509.000000 0 0 1
33.788402 21.240981 15.266945 42.730727 0.561218 1.205439 0.080933 -0.023099 -633059.000000 0 0 1
32.703142 20.366381 15.940245 41.693842 0.556991 1.178494 0.098916 -0.026841 359957.000000 0 0 1
31.858412 20.941081 16.959145 41.726490 0.581502 1.152246 0.089971 -0.028072 9492.200000 0 0 1
30.904402 21.818181 16.456045 41.254291 0.614734 1.160487 0.079526 -0.015943 -860713.000000 0 0 1
30.006072 22.368381 17.569845 41.344991 0.640590 1.131882 0.068330 -0.017879 160981.000000 0 0 1
30.753662 23.235081 18.451445 42.733038 0.647026 1.124327 0.023958 -0.013019 -202382.000000 0 0 1
29.903692 23.771881 19.380245 42.836049 0.671653 1.101310 0.029021 -0.012990 -141735.000000 0 0 1
30.666822 24.576281 20.432345 44.293660 0.675592 1.091345 0.015710 -0.017775 406923.000000 0 0 1
31.433462 25.709781 19.991245 45.262626 0.685567 1.113335 0.026045 -0.017330 99049.300000 0 0 1
32.181542 26.160681 21.068145 46.517735 0.682563 1.100775 0.036849 -0.018231 -411222.000000 0 0 1
33.170252 27.286081 20.713245 47.684740 0.688374 1.121448 0.059418 -0.024065 -659499.000000 0 0 1
34.199382 27.579681 21.546545 48.933528 0.678654 1.114838 0.058313 -0.019675 -587601.000000 0 0 1
33.763502 28.633581 22.350845 49.592503 0.703369 1.103258 0.026576 -0.003944 -457734.000000 0 0 1
34.630512 29.013081 23.530285 50.938253 0.697362 1.090618 0.019248 -0.009474 46104.600000 0 0 1
35.824052 29.732381 23.242645 52.034583 0.692742 1.107749 0.048316 -0.010186 -34382.200000 0 0 1
36.527342 29.969581 24.430165 53.190746 0.687098 1.093597 0.047165 -0.003967 -56100.600000 0 0 1
-36.472772 30.841981 24.208685 53.549523 -0.701944 1.101700 0.050954 -0.012023 -435753.000000 0 0 1
-35.368715 30.249281 23.618955 52.190230 -0.707537 1.101168 0.066414 -0.021952 -835679.000000 0 0 1
-34.317776 31.183081 23.540915 52.002587 -0.737577 1.101019 0.052345 -0.021332 838911.000000 0 0 1
-32.936552 30.398881 23.439925 50.580021 -0.745352 1.088943 0.102368 -0.028959 424789.000000 0 0 1
-32.532412 29.818081 22.247145 49.420758 -0.741892 1.103854 0.096602 -0.023155 100774.000000 0 0 1
-33.043422 28.507981 22.007845 48.876559 -0.711846 1.103724 0.093568 -0.021747 -184814.000000 0 0 1
-32.427732 27.432781 22.859945 48.235800 -0.702148 1.077058 0.107995 -0.021618 -456441.000000 0 0 1
-31.041542 27.224681 22.689445 47.112329 -0.719984 1.068313 0.099612 -0.021430 69972.700000 0 0 1
-30.391922 26.334581 23.547055 46.600890 -0.713995 1.041076 0.099143 -0.020918 -10339.800000 0 0 1
-30.169522 26.804981 24.990885 47.468426 -0.726413 1.016349 0.108807 -0.018410 -172983.000000 0 0 1
-31.398142 26.710781 25.693285 48.574212 -0.704907 1.013435 0.096914 -0.012358 351300.000000 0 0 1
-31.225132 27.107381 27.060925 49.417736 -0.714924 0.991309 0.099178 -0.015557 192964.000000 0 0 1
-32.574692 27.448381 27.749085 50.838331 -0.700199 0.993417 0.082869 -0.021102 21491.700000 0 0 1
-33.367342 26.369581 28.095565 50.971513 -0.668787 0.986993 0.077564 -0.021844 -278375.000000 0 0 1
-34.304754 26.707581 29.090965 52.310566 -0.661517 0.981086 0.058096 -0.009356 -291956.000000 0 0 1
-34.879537 25.441181 29.780995 52.447531 -0.630187 0.966936 0.065190 -0.009371 583336.000000 0 0 1
-33.961922 24.690581 30.615685 51.964961 -0.628623 0.940777 0.078543 -0.023187 381513.000000 0 0 1
-34.641987 23.596881 31.184895 52.243447 -0.597972 0.931146 0.060391 -0.023546 412795.000000 0 0 1
-33.699882 22.686981 32.049482 51.745053 -0.592517 0.902853 0.092306 -0.047125 -102019.000000 0 0 1
-32.747332 21.897581 31.322505 50.328830 -0.589397 0.899046 0.103826 -0.045165 94770.500000 0 0 1
-31.974802 21.079981 32.161171 50.010944 -0.582863 0.872279 0.109799 -0.044056 34437.100000 0 0 1
-30.848522 21.780581 32.974429 50.133203 -0.614774 0.852987 0.114668 -0.049325 -1048230.000000 0 0 1
-31.188692 22.776881 33.932215 51.409299 -0.630769 0.849924 0.128593 -0.051365 -131479.000000 0 0 1
-30.936562 22.320181 -32.655079 50.215691 -0.624999 2.278771 0.112889 -0.046912 249665.000000 0 0 1
-29.653802 22.891281 -31.981429 49.256173 -0.657402 2.277444 0.122106 -0.044608 238030.000000 0 0 1
-29.816592 24.260281 -31.556449 49.733288 -0.683009 2.258175 0.094683 -0.037725 -191768.000000 0 0 1
-28.972262 24.490681 -30.476009 48.661819 -0.701768 2.247571 0.121778 -0.020674 -270733.000000 0 0 1
-29.211312 25.857881 -29.790959 49.085966 -0.724578 2.222968 0.066818 -0.004961 -82661.700000 0 0 1
-28.768772 27.042981 -30.444569 49.858168 -0.754486 2.227644 0.067073 -0.015061 523396.000000 0 0 1
-29.711812 27.579881 -31.399419 51.277336 -0.748203 2.229820 0.053549 -0.017384 403852.000000 0 0 1
-29.409612 29.038781 -31.735119 52.108482 -0.779054 2.225621 0.041750 -0.018528 -161516.000000 0 0 1
-29.686042 29.882281 -30.680379 52.110436 -0.788693 2.200316 0.025526 -0.019978 176755.000000 0 0 1
-29.253942 31.174581 -31.057459 52.841399 -0.817171 2.199070 0.017967 -0.025995 -54151.600000 0 0 1
-29.695922 32.323081 -30.141169 53.245840 -0.827733 2.172534 0.013134 -0.012740 -157208.000000 0 0 1
-28.763372 32.466981 -29.094699 52.229666 -0.845811 2.161629 0.006750 -0.005247 61228.600000 0 0 1
-29.145442 33.445781 -28.176639 52.554734 -0.853996 2.136653 -0.002455 -0.003279 -498564.000000 0 0 1
-28.158942 33.572281 -27.011379 51.474642 -0.872866 2.123219 0.016500 -0.002686 -647674.000000 0 0 1
-26.973222 -33.831470 -27.243309 51.130431 0.897715 2.132726 -0.008418 -0.005053 -837884.000000 0 0 1
-26.986702 -32.410970 -27.270579 50.223874 0.876467 2.144779 0.008324 0.001791 -644167.000000 0 0 1
-27.496742 -31.570770 -26.056569 49.312566 0.854261 2.127507 0.020424 0.000355 -128170.000000 0 0 1
-28.856662 -31.251170 -26.187009 49.950996 0.825214 2.122635 0.017871 -0.012124 -478137.000000 0 0 1
-29.329212 -30.393970 -25.190629 49.178897 0.803224 2.108569 0.021840 -0.010491 -1281730.000000 0 0 1
-30.811622 -30.222670 -25.102219 49.928822 0.775749 2.097585 0.015553 -0.016811 -1096900.000000 0 0 1
-31.395472 -29.448870 -26.140199 50.360914 0.753416 2.116544 0.033504 -0.022505 -597912.000000 0 0 1
-32.784332 -29.531570 -26.122349 51.276731 0.733248 2.105329 0.042647 -0.026233 -837083.000000 0 0 1
-33.376162 -28.515370 -27.101579 51.590601 0.707022 2.123888 0.054810 -0.029347 -659670.000000 0 0 1
-34.749805 -28.332070 -26.932449 52.303078 0.684010 2.111723 0.052306 -0.032435 -388763.000000 0 0 1
-35.263443 -27.354570 -27.817939 52.589169 0.659760 2.128179 0.057100 -0.030764 -216321.000000 0 0 1
-36.720682 -27.479770 -28.252839 53.868072 0.642442 2.122903 0.053377 -0.034742 673885.000000 0 0 1
36.533932 -27.395970 -27.197669 53.150547 -0.643423 2.107970 0.045728 -0.024968 819276.000000 0 0 1
35.220752 -27.705970 -27.650229 52.656029 -0.666540 2.123641 0.046288 -0.027635 764057.000000 0 0 1
34.094972 -27.203870 -26.692009 51.136885 -0.673450 2.119957 0.053058 -0.023466 210155.000000 0 0 1
34.123542 -27.979770 -25.503129 50.967571 -0.686791 2.094833 0.044010 -0.024265 409891.000000 0 0 1
33.130632 -27.456270 -24.630199 49.579555 -0.692014 2.090683 0.052927 -0.017419 251164.000000 0 0 1
33.091732 -28.147570 -23.231699 49.265204 -0.704838 2.061860 0.046219 -0.016615 23726.200000 0 0 1
32.411702 -29.402570 -23.245399 49.551772 -0.736756 2.059083 0.064604 -0.025608 8072.440000 0 0 1
32.207972 -29.999870 -21.938699 49.179795 -0.749917 2.033190 0.072766 -0.031049 -379192.000000 0 0 1
33.290952 -30.049170 -20.855199 49.458866 -0.734262 2.006080 0.048270 -0.023242 -2282010.000000 0 0 1
34.375752 -30.855670 -21.138499 50.799615 -0.731487 1.999965 0.040152 -0.025758 -698933.000000 0 0 1
35.541772 -30.630070 -20.413399 51.167623 -0.711308 1.981169 0.037577 -0.024959 -188787.000000 0 0 1
36.240632 -29.316170 -20.679099 50.994572 -0.680163 1.988339 0.021967 -0.019942 -1429350.000000 0 0 1
35.469882 -28.204670 -20.214999 49.621187 -0.671790 1.990387 0.020073 -0.014140 -146389.000000 0 0 1
35.913532 -27.012070 -20.807299 49.521485 -0.644870 2.004426 0.016598 -0.014474 -82654.800000 0 0 1
34.988312 -25.805970 -20.535299 48.081479 -0.635492 2.012073 0.027074 -0.004283 264109.000000 0 0 1
33.769462 -25.851270 -21.254399 47.543814 -0.653361 2.034260 0.046544 -0.011921 -161849.000000 0 0 1
32.783542 -25.089370 -20.592499 46.133374 -0.653224 2.033500 0.061717 -0.012947 -1097120.000000 0 0 1
31.487112 -25.074370 -21.329199 45.553233 -0.672504 2.058078 0.065212 -0.016158 -976452.000000 0 0 1
30.839452 -26.327870 -21.495899 45.894468 -0.706642 2.058249 0.080524 -0.015869 759179.000000 0 0 1
29.663342 -26.208370 -22.338399 45.451035 -0.723639 2.084588 0.078752 -0.018777 945619.000000 0 0 1
28.976922 -27.582970 -22.538899 45.918234 -0.760758 2.083860 0.090272 -0.017823 2659.600000 0 0 1
28.273722 -28.096370 -21.436699 45.258606 -0.782252 2.064226 0.096989 -0.024210 70124.700000 0 0 1
27.839422 -29.421370 -21.707399 45.954996 -0.813018 2.062765 0.095435 -0.028508 33098.200000 0 0 1
27.198022 -30.315570 -20.572399 45.628826 -0.839551 2.038529 0.098570 -0.028725 -78279.200000 0 0 1
28.038822 -30.693470 -19.484599 45.912027 -0.830567 2.009084 0.104856 -0.034665 468512.000000 0 0 1
28.981822 -31.720570 -19.845399 47.328432 -0.830485 2.003484 0.100702 -0.030123 436309.000000 0 0 1
29.895152 -32.154970 -18.681199 47.714248 -0.821801 1.973082 0.080541 -0.027985 -357641.000000 0 0 1
29.266692 -32.899670 -17.654199 47.440471 -0.843771 1.952103 0.085593 -0.030619 9781.860000 0 0 1
28.955122 -32.064070 -16.560099 46.268138 -0.836304 1.936831 0.079717 -0.030224 -397154.000000 0 0 1
28.099222 -32.775270 -15.528299 45.879327 -0.862062 1.916076 0.074324 -0.027410 82821.800000 0 0 1
26.774322 -33.023870 -16.001999 45.425811 -0.889531 1.930788 0.077164 -0.028285 634527.000000 0 0 1
26.113722 34.023681 -15.276799 45.529309 0.916179 1.912972 0.073238 -0.025887 492848.000000 0 0 1
24.576322 -33.854470 -15.106599 44.478423 -0.942872 1.917329 0.088678 -0.030879 479809.000000 0 0 1
24.281922 -32.638370 -14.382199 43.147683 -0.931166 1.910624 0.079321 -0.026584 -457733.000000 0 0 1
22.905122 -32.506470 -14.242699 42.239433 -0.956968 1.914726 0.091767 -0.028023 -752783.000000 0 0 1
-0.698462 -7.018319 -28.642589 29.498179 1.471603 2.900155 0.068251 -0.025166 374414.000000 0 0 1
-0.174262 -8.360319 -28.749209 29.940647 1.549955 2.858538 0.074347 -0.021733 48342.000000 0 0 1
-0.648262 -9.016219 -29.908399 31.244596 1.499020 2.848083 0.075435 -0.029689 -156341.000000 0 0 1
-0.329462 -10.504919 -29.945549 31.736380 1.539444 2.804051 0.095239 -0.023276 -494683.000000 0 0 1
1.035938 -10.750719 -29.823019 31.718506 -1.474733 2.794132 0.064016 -0.025465 -642124.000000 0 0 1
1.196338 -12.131419 -29.520359 31.938287 -1.472499 2.749977 0.076890 -0.027255 -47269.300000 0 0 1
2.610038 -12.515519 -29.053259 31.741808 -1.365199 2.727047 0.066144 -0.019925 -472377.000000 0 0 1
3.594638 -12.380919 -30.064689 32.712293 -1.288228 2.736495 0.073752 -0.028124 1769230.000000 0 0 1
4.988538 -12.523319 -29.633829 32.555842 -1.191722 2.714674 0.079784 -0.026047 2175490.000000 0 0 1
5.494438 -13.894819 -29.042599 32.660793 -1.194235 2.666432 0.076131 -0.029020 -824496.000000 0 0 1
4.941638 -14.108719 -27.798969 31.563562 -1.233895 2.648197 0.071283 -0.022117 23149.600000 0 0 1
5.660838 -15.120219 -27.068179 31.517494 -1.212562 2.603778 0.080817 -0.021552 283860.000000 0 0 1
5.245838 -16.594519 -27.413709 32.471654 -1.264618 2.575933 0.041770 -0.021946 -1255.970000 0 0 1
5.587638 -16.944519 -28.739179 33.827191 -1.252265 2.586000 0.059629 -0.037055 206502.000000 0 0 1
5.046838 -18.221919 -29.043949 34.656311 -1.300604 2.564508 0.036098 -0.033177 -158845.000000 0 0 1
5.365038 -18.717019 -30.492399 36.178679 -1.291641 2.573313 0.068502 -0.046661 543971.000000 0 0 1
6.744538 -19.052219 -30.677669 36.736837 -1.230560 2.559048 0.070410 -0.045543 470587.000000 0 0 1
6.936238 -19.513719 -31.984759 38.104087 -1.229271 2.566984 0.083063 -0.051713 -928795.000000 0 0 1
8.417138 -19.762819 -32.125179 38.645108 -1.168157 2.552216 0.108559 -0.047771 -1156180.000000 0 0 1
9.161538 -18.624319 -32.230629 38.335525 -1.113640 2.569465 0.107356 -0.043570 -500005.000000 0 0 1
10.355738 -18.765219 -32.964299 39.319458 -1.066528 2.565084 0.112767 -0.043327 -94419.300000 0 0 1
10.855438 -17.441619 -33.517049 39.312125 -1.014078 2.591714 0.103148 -0.031066 -336015.000000 0 0 1
9.939238 -16.896019 33.461516 38.780626 -1.039055 0.529933 0.115727 -0.034389 -92031.200000 0 0 1
10.321438 -15.638419 32.994422 37.943696 -0.987420 0.516480 0.097272 -0.028438 -536457.000000 0 0 1
9.308738 -14.996819 32.055484 36.593869 -1.015285 0.503333 0.125631 -0.038031 -307487.000000 0 0 1
9.200838 -15.778219 30.892945 35.888461 -1.042870 0.533948 0.117782 -0.037771 -306420.000000 0 0 1
8.307938 -15.097719 30.050085 34.640591 -1.067740 0.520678 0.118669 -0.036456 -167709.000000 0 0 1
8.194838 -15.567919 28.613285 33.589218 -1.086258 0.551272 0.100968 -0.024257 -204422.000000 0 0 1
7.558738 -16.810119 28.492695 33.934470 -1.148230 0.574179 0.109660 -0.024648 151557.000000 0 0 1
7.782938 -17.458419 27.235185 33.273500 -1.151442 0.611958 0.098953 -0.026534 -93211.800000 0 0 1
7.343838 -18.949019 27.224875 33.973388 -1.201062 0.641233 0.097617 -0.029352 -214691.000000 0 0 1
8.148938 -19.881319 27.928015 35.236998 -1.181803 0.655774 0.111076 -0.030165 18014.300000 0 0 1
7.469538 -20.937119 28.572185 36.201197 -1.228112 0.661192 0.091976 -0.031003 -598233.000000 0 0 1
7.939438 -21.248919 30.004795 37.614345 -1.213219 0.647332 0.092703 -0.027427 -366232.000000 0 0 1
7.529138 -20.467919 31.081165 37.969230 -1.218308 0.611848 0.110013 -0.034517 124532.000000 0 0 1
7.663938 -19.039219 31.078685 37.243959 -1.188107 0.583640 0.103190 -0.035077 -278428.000000 0 0 1
7.047738 -18.316319 32.327142 37.818015 -1.203480 0.545616 0.103056 -0.036818 389887.000000 0 0 1
5.634538 -18.496919 32.314028 37.657409 -1.275106 0.539228 0.108222 -0.043517 172572.000000 0 0 1
5.058338 -17.475519 33.131064 37.797459 -1.289044 0.502166 0.109579 -0.037372 -316978.000000 0 0 1
3.655138 -17.791519 33.629814 38.221232 -1.368173 0.495202 0.100004 -0.039734 -483219.000000 0 0 1
3.494538 -18.798719 -33.235619 38.343318 -1.387002 2.619526 0.090693 -0.038016 311050.000000 0 0 1
2.128838 -18.852819 -32.843829 37.929907 -1.458354 2.617760 0.076529 -0.047026 283940.000000 0 0 1
1.748838 -19.815019 -31.661659 37.391899 -1.482766 2.580646 0.044772 -0.020330 -177885.000000 0 0 1
0.604238 -20.606519 -31.944809 38.019266 -1.541482 2.568498 0.052602 -0.025582 422486.000000 0 0 1
0.043638 -21.475819 -30.950299 37.671391 -1.568764 2.534984 0.053016 -0.026511 460753.000000 0 0 1
-0.657362 -20.699419 -29.786819 36.278819 1.539049 2.534049 0.052693 -0.024193 46201.200000 0 0 1
-1.811162 -19.923119 -30.115569 36.154647 1.480138 2.555242 0.068763 -0.031833 295692.000000 0 0 1
-2.146762 -18.926019 -29.120859 34.796943 1.457850 2.562354 0.080071 -0.026757 -67403.500000 0 0 1
-1.985962 -17.510219 -29.699089 34.533863 1.457862 2.606064 0.075738 -0.021845 -240870.000000 0 0 1
-2.404662 -16.431319 -28.886979 33.320087 1.425482 2.619854 0.080759 -0.020053 -241966.000000 0 0 1
-2.203862 -15.171819 -29.486899 33.234294 1.426545 2.662130 0.083992 -0.023164 -74711.800000 0 0 1
-3.216562 -14.111819 -29.029949 32.438059 1.346691 2.679081 0.075919 -0.014624 176916.000000 0 0 1
-3.016962 -13.706719 -27.697279 31.050209 1.354143 2.672582 0.066841 -0.020930 -522438.000000 0 0 1
-4.045562 -12.858119 -27.339269 30.481690 1.265971 2.683523 0.054633 -0.022993 -403571.000000 0 0 1
-4.129862 -12.483619 -25.851289 29.003201 1.251307 2.671057 0.050946 -0.025487 -294108.000000 0 0 1
-4.659662 -13.573819 -25.141939 28.949579 1.240118 2.622911 0.060921 -0.029093 144145.000000 0 0 1
-4.506462 -13.473019 -23.713299 27.643281 1.248014 2.601833 0.056192 -0.032799 -175135.000000 0 0 1
-5.586462 -12.659719 -22.924799 26.777294 1.155219 2.598527 0.060226 -0.034705 -97457.500000 0 0 1
-6.882562 -13.107919 -23.204499 27.525188 1.087295 2.573684 0.070266 -0.034868 -712436.000000 0 0 1
-7.826362 -12.090119 -23.020099 27.154151 0.996297 2.582537 0.053192 -0.036578 -80919.700000 0 0 1
-9.259662 -12.532019 -23.381099 28.097485 0.934450 2.553756 0.081224 -0.035736 -169761.000000 0 0 1
-9.897462 -13.410719 -22.491199 27.993949 0.935003 2.503831 0.068774 -0.035266 -274957.000000 0 0 1
-10.826962 -14.120819 -23.285299 29.305730 0.916669 2.489087 0.066742 -0.027034 17927.200000 0 0 1
-11.628762 -15.126019 -22.419299 29.438912 0.915376 2.436503 0.072323 -0.032233 -64883.800000 0 0 1
-10.790562 -16.186819 -22.077499 29.425590 0.982822 2.419285 0.063481 -0.031181 -355890.000000 0 0 1
-11.485362 -17.273719 -21.462499 29.848514 0.984015 2.373227 0.069488 -0.025356 713610.000000 0 0 1
-12.194662 -18.299719 -22.496799 31.459426 0.982989 2.367571 0.060424 -0.018093 1243810.000000 0 0 1
-13.311962 -17.742419 -23.209899 32.104535 0.927110 2.378856 0.054167 -0.017629 729362.000000 0 0 1
-14.058962 -18.765919 -23.954199 33.520409 0.927823 2.366870 0.035944 -0.016110 1463600.000000 0 0 1
-15.244762 -18.214119 -24.855599 34.379612 0.873913 2.378895 0.043749 -0.020523 847975.000000 0 0 1
-16.351362 -17.709119 -24.148099 34.119066 0.825240 2.357118 0.053009 -0.013303 35078.000000 0 0 1
-17.321762 -17.199019 -25.066269 34.988106 0.781843 2.369457 0.047151 -0.011761 294110.000000 0 0 1
-18.056062 -15.926319 -24.692699 34.487656 0.722808 2.368833 0.050607 -0.007449 -56899.700000 0 0 1
-19.092962 -16.035119 -23.741599 34.428619 0.698569 2.331718 0.060129 0.000832 99699.900000 0 0 1
-19.666362 -14.753619 -23.452299 33.977131 0.643626 2.332614 0.066859 -0.008700 -1377.530000 0 0 1
-20.446562 -14.737619 -22.154199 33.556935 0.624541 2.291878 0.062661 -0.018047 -435043.000000 0 0 1
-19.624562 -14.672519 -21.010799 32.277855 0.642002 2.279612 0.077390 -0.010712 -81417.200000 0 0 1
-20.230262 -14.545619 -19.736099 31.786037 0.623366 2.240693 0.076841 -0.008263 -257129.000000 0 0 1
-20.758362 -13.180219 -19.298099 31.257710 0.565712 2.236213 0.085993 -0.016913 -1181480.000000 0 0 1
-22.030362 -12.853819 -19.694499 32.224693 0.528168 2.228324 0.086108 -0.018671 -1008440.000000 0 0 1
-22.483562 -11.732419 -18.958299 31.663502 0.480952 2.212727 0.102606 -0.013480 379228.000000 0 0 1
-24.029562 -11.561819 -18.949399 32.713533 0.448454 2.188608 0.121846 -0.009170 408565.000000 0 0 1
-24.470562 -10.922319 -20.136599 33.519966 0.419810 2.215216 0.117270 -0.012685 2046250.000000 0 0 1
-25.914862 -10.612419 -20.140499 34.494104 0.388678 2.194299 0.112493 -0.012916 2155780.000000 0 0 1
-26.321572 -9.658119 -21.302099 35.211985 0.351675 2.220521 0.125135 -0.011878 -28728.300000 0 0 1
-26.216602 -10.143319 -22.617599 36.079814 0.369166 2.248334 0.103166 -0.006031 342325.000000 0 0 1
-27.065262 -9.394719 -23.466599 37.033369 0.334101 2.257073 0.103280 -0.011788 -195188.000000 0 0 1
-27.143122 -10.012819 -24.919699 38.183728 0.353403 2.281842 0.087154 -0.012229 940515.000000 0 0 1
-25.971132 -9.934819 -25.766019 37.908945 0.365359 2.318125 0.077571 -0.014786 1184980.000000 0 0 1
-24.919362 -10.894219 -25.542279 37.310410 0.412141 2.324835 0.064448 -0.007638 762865.000000 0 0 1
-23.879062 -10.799219 -26.720609 37.427580 0.424720 2.365889 0.075354 -0.023170 302764.000000 0 0 1
-24.480662 -11.078519 -27.995439 38.804395 0.424966 2.376691 0.071514 -0.017739 417075.000000 0 0 1
-23.600962 -10.810419 -29.081799 38.982325 0.429528 2.412869 0.070779 -0.019390 532588.000000 0 0 1
-24.333862 -11.087919 -30.431589 40.511238 0.427549 2.420658 0.062610 -0.021038 469304.000000 0 0 1
-25.225402 -10.123519 -30.945119 41.187461 0.381646 2.420862 0.059735 -0.027261 107660.000000 0 0 1
-24.558862 -9.148319 -31.728239 41.152286 0.356582 2.451200 0.058864 -0.034230 -100420.000000 0 0 1
-25.555892 -8.131119 -32.432369 42.084169 0.308042 2.450664 0.056638 -0.031454 504494.000000 0 0 1
-26.560332 -8.603519 -33.358979 43.500498 0.313258 2.444737 0.058038 -0.025291 1459000.000000 0 0 1
-27.630412 -9.387819 -32.820519 43.917620 0.327527 2.414816 0.051660 -0.024557 10134.700000 0 0 1
-28.618502 -8.660719 -31.882889 43.709786 0.293865 2.388273 0.049728 -0.017780 -211994.000000 0 0 1
-29.976672 -9.120719 -31.947789 44.748739 0.295361 2.365901 0.043959 -0.019333 615010.000000 0 0 1
-30.657292 -8.605019 -30.804109 44.303601 0.273643 2.339628 0.049992 -0.013999 -636589.000000 0 0 1
-32.149012 -8.887519 -30.852439 45.435889 0.269712 2.317240 0.047918 -0.017481 -541159.000000 0 0 1
-32.528432 -10.286819 -30.854209 45.998911 0.306289 2.306029 0.042887 -0.015024 -105186.000000 0 0 1
-33.909442 -10.523719 -30.812629 47.010819 0.300923 2.285557 0.036897 -0.013903 -494671.000000 0 0 1
-34.086671 -12.087819 -30.825539 47.520842 0.340785 2.276637 0.044228 -0.015466 109143.000000 0 0 1
-35.440074 -12.494219 -30.973899 48.697914 0.338940 2.260154 0.035556 -0.014440 154568.000000 0 0 1
-35.532953 -13.919719 -31.132369 49.250114 0.373366 2.255093 0.031262 -0.013516 368868.000000 0 0 1
-36.822382 -14.668319 -30.688309 50.128034 0.379086 2.229634 0.046367 -0.018437 319171.000000 0 0 1
-36.927042 -14.532219 -29.264349 49.307139 0.374924 2.206211 0.060090 -0.020636 -109663.000000 0 0 1
36.904112 -15.726819 -28.682139 49.314414 -0.402847 2.191512 0.061283 -0.022474 -90012.400000 0 0 1
37.045752 -15.690919 -27.127939 48.523374 -0.400646 2.164059 0.078637 -0.022553 -63805.300000 0 0 1
-35.878801 -15.697519 -26.656019 47.373451 0.412423 2.168419 0.081469 -0.029161 -76209.400000 0 0 1
-35.696685 -15.688819 -25.269579 46.464438 0.414091 2.145812 0.100196 -0.032245 277419.000000 0 0 1
-34.383123 -15.043019 -24.688599 44.922361 0.412420 2.152662 0.114971 -0.022251 1047830.000000 0 0 1
-33.232722 -15.842819 -24.980199 44.490663 0.444854 2.166958 0.110774 -0.020510 -165761.000000 0 0 1
-32.127032 -15.491219 -24.213299 43.109256 0.449295 2.167203 0.103643 -0.008171 -169850.000000 0 0 1
-30.859262 -16.326419 -24.523799 42.664537 0.486625 2.183162 0.101265 -0.010554 -43397.600000 0 0 1
-30.784372 -17.692119 -24.138299 42.934207 0.521617 2.167859 0.111860 -0.022020 -111617.000000 0 0 1
-31.521862 -18.610419 -24.920099 44.283031 0.533329 2.168500 0.093037 -0.030600 36455.900000 0 0 1
-31.547702 -19.967519 -24.207499 44.496768 0.564282 2.146027 0.091846 -0.038730 307327.000000 0 0 1
-30.264542 -20.565819 -24.220699 43.880949 0.596859 2.155514 0.092929 -0.033988 115565.000000 0 0 1
-30.293392 -21.771919 -23.424199 44.049962 0.623168 2.131479 0.087980 -0.025810 788317.000000 0 0 1
-28.936572 -22.593419 -23.491599 43.584895 0.662918 2.140028 0.090639 -0.038018 1954320.000000 0 0 1
-27.779622 -22.022619 -22.825999 42.163128 0.670312 2.142866 0.097889 -0.035758 521170.000000 0 0 1
-27.688142 -21.892019 -21.416999 41.286579 0.669022 2.116173 0.089801 -0.034557 -414199.000000 0 0 1
-27.844542 -23.130619 -20.482799 41.591936 0.693186 2.085722 0.081935 -0.026637 -304712.000000 0 0 1
-27.682672 -22.795619 -19.120299 40.639346 0.688884 2.060639 0.074445 -0.026822 63462.800000 0 0 1
-27.739842 -24.003919 -18.384899 41.032810 0.713323 2.035383 0.062919 0.005575 840.411000 0 0 1
-27.548762 -23.878119 -16.829099 40.153673 0.714143 2.003269 0.052366 0.004457 -227833.000000 0 0 1
-28.672112 -23.266519 -16.261899 40.346875 0.681695 1.985646 0.051878 0.003265 -544937.000000 0 0 1
-28.469492 -22.064719 -15.488299 39.207795 0.659329 1.976898 0.061317 0.008289 46580.700000 0 0 1
-29.789532 -21.455319 -14.941699 39.635859 0.624175 1.957324 0.053662 0.023837 41892.700000 0 0 1
-30.548152 -20.800919 -15.909399 40.236511 0.597807 1.977296 0.052930 0.020115 -154232.000000 0 0 1
-31.710382 -20.289919 -15.265999 40.623637 0.569207 1.956047 0.054462 0.021778 -360361.000000 0 0 1
-32.680992 -19.645719 -16.216999 41.436609 0.541254 1.972915 0.073739 0.007988 -312487.000000 0 0 1
-33.500362 -20.572619 -16.920999 42.799850 0.550724 1.977247 0.039082 0.004399 -52386.300000 0 0 1
-34.315764 -19.998419 -17.894399 43.562805 0.527659 1.994097 0.044365 0.003879 -4863.870000 0 0 1
-34.947196 -21.023519 -18.936599 44.965427 0.541580 2.005495 0.051570 -0.011110 1225980.000000 0 0 1
-36.170522 -21.752919 -18.677199 46.155541 0.541448 1.987401 0.050234 -0.007711 793597.000000 0 0 1
-36.178042 -22.494219 -17.495099 46.053438 0.556269 1.960470 0.052443 0.001467 167923.000000 0 0 1
36.993542 -23.641219 -17.532299 47.273787 -0.568648 1.950739 0.043323 0.002145 688583.000000 0 0 1
35.649182 -23.207819 -17.381499 45.951970 -0.577082 1.958705 0.048202 -0.006173 -277439.000000 0 0 1
34.884532 -24.349119 -17.177399 45.878898 -0.609377 1.954554 0.032752 -0.008568 188006.000000 0 0 1
33.455742 -23.996819 -16.652499 44.412158 -0.622223 1.955143 0.033451 -0.015537 805243.000000 0 0 1
32.438312 -23.895219 -17.650299 43.985892 -0.634893 1.983701 0.043091 -0.024295 102193.000000 0 0 1
31.186662 -24.215419 -17.083499 43.021394 -0.660226 1.979144 0.053907 -0.023931 637310.000000 0 0 1
29.967852 -24.016919 -18.055999 42.437056 -0.675608 2.010285 0.075734 -0.023799 349947.000000 0 0 1
29.678362 -22.665219 -18.335199 41.601645 -0.652208 2.027211 0.076643 -0.022947 -7851.200000 0 0 1
28.409922 -22.586719 -18.945599 40.941657 -0.671703 2.051887 0.082355 -0.031427 -96205.500000 0 0 1
35.086852 29.634581 -18.310999 49.442778 0.701354 1.950179 0.073269 -0.022871 -65531.700000 0 0 1
34.019162 29.564481 -19.220499 48.997853 0.715452 1.973897 0.063678 -0.031556 152468.000000 0 0 1
34.512572 29.225481 -20.560999 49.678981 0.702637 1.997505 0.081283 -0.028917 952377.000000 0 0 1
33.373972 29.426981 -21.625699 49.471609 0.722631 2.023205 0.079918 -0.025030 590823.000000 0 0 1
32.264952 28.522981 -21.652699 48.201940 0.723918 2.036675 0.080379 -0.024766 918966.000000 0 0 1
31.338692 28.696281 -22.729999 48.189657 0.741412 2.061989 0.102049 -0.017481 854844.000000 0 0 1
30.351642 29.905881 -22.621799 48.242406 0.778001 2.058863 0.095562 -0.010981 -264115.000000 0 0 1
31.007252 31.183181 -22.702699 49.489929 0.788227 2.047366 0.107051 -0.030648 -131143.000000 0 0 1
30.081462 32.222581 -22.835399 49.645187 0.819750 2.048760 0.100054 -0.026946 -687307.000000 0 0 1
30.714712 33.604781 -22.788599 50.911641 0.830301 2.034888 0.091249 -0.023363 -12967.300000 0 0 1
31.255422 33.878781 -21.492699 50.858720 0.825653 2.007104 0.085269 -0.025334 877934.000000 0 0 1
32.674772 33.615381 -21.520899 51.582785 0.799586 2.001171 0.077764 -0.029025 298167.000000 0 0 1
33.153522 33.302881 -20.071199 51.098836 0.787646 1.974462 0.065344 -0.035331 -292176.000000 0 0 1
33.089262 -33.624170 -19.241099 50.948052 -0.793416 1.958065 0.068462 -0.037923 182439.000000 0 0 1
33.104752 -33.978370 -17.894799 50.701855 -0.798420 1.931510 0.046884 -0.040998 -493024.000000 0 0 1
33.103582 -32.738470 -17.004399 49.566159 -0.779853 1.920974 0.044217 -0.030602 1287380.000000 0 0 1
34.306362 -31.884970 -17.001599 49.826019 -0.748833 1.919010 0.039839 -0.023590 1459200.000000 0 0 1
35.379712 -32.337570 -16.194999 50.593680 -0.740504 1.896631 0.033291 -0.025239 387389.000000 0 0 1
36.658632 -31.438870 -16.335899 50.981560 -0.708896 1.896977 0.017637 -0.010542 146224.000000 0 0 1
-36.971332 -31.756170 -17.572999 51.808725 0.709662 1.916852 0.020513 -0.018404 -39914.600000 0 0 1
-35.776807 -30.970570 -17.615999 50.492371 0.713516 1.927177 0.007306 -0.009244 785930.000000 0 0 1
-34.698154 -31.439770 -18.648499 50.400273 0.736171 1.949814 0.021837 -0.017812 -379886.000000 0 0 1
-34.159739 -32.715770 -18.312699 50.720453 0.763810 1.940192 0.022343 -0.015143 -180058.000000 0 0 1
-33.069552 -33.236770 -19.007799 50.592238 0.787920 1.955955 0.029557 -0.010228 789953.000000 0 0 1
-31.736162 -32.402170 -19.102999 49.213913 0.795782 1.969433 0.030040 -0.015237 -763469.000000 0 0 1
-31.867162 -31.402570 -20.102899 49.048588 0.778055 1.993093 0.027433 -0.011018 -282383.000000 0 0 1
-30.668822 -30.802070 -20.526799 48.069675 0.787566 2.011993 0.041498 -0.012417 316126.000000 0 0 1
-29.645672 -31.806670 -21.186399 48.367279 0.820549 2.024204 0.039018 -0.010375 -504571.000000 0 0 1
-30.177992 -32.387170 -22.328299 49.580167 0.820694 2.037951 0.031084 -0.004138 -284877.000000 0 0 1
-29.385412 -33.408170 -22.868199 50.025621 0.849374 2.045562 0.020667 -0.000407 -451327.000000 0 0 1
-30.197702 33.901781 -23.929999 51.321310 -0.843120 2.055875 0.024383 -0.002556 -631334.000000 0 0 1
-31.085832 32.964881 -23.368899 50.981544 -0.814727 2.046967 0.026659 -0.014212 -93378.100000 0 0 1
-31.781302 32.192681 -24.343599 51.371497 -0.791828 2.064481 0.018934 -0.012519 873949.000000 0 0 1
-32.712742 32.836581 -25.464969 52.885057 -0.787287 2.073179 0.027212 -0.024607 22298.100000 0 0 1
-31.999862 33.635481 -26.348599 53.381509 -0.810313 2.087010 0.023286 -0.020222 -380578.000000 0 0 1
-32.905192 -33.553170 -26.993989 54.196331 0.795148 2.092177 0.027430 -0.024232 587026.000000 0 0 1
-32.302142 -32.636470 -28.163459 53.867875 0.790546 2.120958 0.016996 -0.021684 188463.000000 0 0 1
-32.010142 -33.347870 -29.351799 54.756349 0.805863 2.136540 0.016666 -0.017654 407004.000000 0 0 1
-33.202702 -33.633470 -30.098079 56.031456 0.791843 2.137868 0.033358 -0.017468 505040.000000 0 0 1
-33.031902 33.521081 -31.295799 56.517223 -0.792748 2.157644 0.045534 -0.020211 -205397.000000 0 0 1
-32.448662 -33.932270 -32.444819 57.069965 0.807744 2.175489 0.035172 -0.015544 -90297.200000 0 0 1
-32.447852 33.279581 -33.607519 57.357293 -0.798052 2.196827 0.024907 -0.024388 -689408.000000 0 0 1
-31.660142 33.746981 33.063741 56.872087 -0.817293 0.950385 0.016972 -0.024103 -130490.000000 0 0 1
-30.325952 33.331581 32.969467 55.835862 -0.832579 0.939154 0.018644 -0.012619 -448930.000000 0 0 1
-30.192982 31.977681 32.628330 54.761266 -0.814097 0.932499 0.020407 -0.024138 215704.000000 0 0 1
-28.694022 31.505881 32.656635 53.688204 -0.832073 0.916924 0.029074 -0.017330 272244.000000 0 0 1
-28.272582 31.097181 -33.945629 54.024803 -0.832939 2.250206 0.030274 -0.019179 -806533.000000 0 0 1
-26.910342 30.862181 -33.899829 53.158623 -0.853695 2.262319 0.047883 -0.014450 -1246290.000000 0 0 1
-26.489012 29.472581 33.603028 51.956369 -0.838662 0.867475 0.069772 -0.031528 -673263.000000 0 0 1
-26.549742 28.461781 -33.292509 51.218678 -0.820141 2.278390 0.065642 -0.028486 49225.600000 0 0 1
-26.273312 27.165081 -33.751509 50.669448 -0.802084 2.299780 0.067519 -0.023193 -134100.000000 0 0 1
-26.140312 26.100681 -32.550739 49.235273 -0.784640 2.293115 0.087864 -0.029415 343601.000000 0 0 1
-25.074162 26.168981 -31.579199 48.070521 -0.806760 2.287542 0.079479 -0.017943 454973.000000 0 0 1
-25.109902 27.289181 -30.762489 48.182335 -0.826964 2.263292 0.058828 -0.013893 4393.820000 0 0 1
-23.829962 27.440081 -29.915229 47.071712 -0.855696 2.259484 0.078239 -0.009977 -367362.000000 0 0 1
-22.670262 27.712781 -30.658619 47.136928 -0.885150 2.278929 0.077387 -0.009645 -236311.000000 0 0 1
-21.474762 27.739581 -29.902699 46.095783 -0.912014 2.276682 0.064190 -0.006621 200209.000000 0 0 1
-21.194762 28.915981 -28.934289 46.071087 -0.938279 2.249823 0.054018 0.004951 -485663.000000 0 0 1
-20.788962 30.158081 -29.603869 47.096496 -0.967265 2.250521 0.055159 0.012976 168166.000000 0 0 1
-20.565762 31.186381 -28.675349 47.093700 -0.987809 2.225469 0.066091 -0.003414 -21523.100000 0 0 1
-20.286162 32.539181 -29.336299 48.279863 -1.013321 2.223870 0.085127 -0.001574 -64486.300000 0 0 1
-18.969362 32.685381 -29.799579 48.126768 -1.044941 2.238506 0.097638 -0.003823 -439813.000000 0 0 1
-18.817362 33.901581 -30.518599 49.343644 -1.064078 2.237617 0.106533 -0.003596 -370013.000000 0 0 1
-17.379962 -33.952770 -30.994899 49.148117 1.097685 2.253177 0.119018 -0.002534 -1044280.000000 0 0 1
-16.538762 -33.729070 -29.886089 48.003741 1.114905 2.242829 0.140572 -0.016531 -1982900.000000 0 0 1
-15.348462 -33.204670 -30.264569 47.477042 1.137812 2.261989 0.145788 -0.017532 -1329660.000000 0 0 1
-14.251062 33.806881 -30.427109 47.663476 -1.171857 2.263180 0.152925 -0.019757 -652161.000000 0 0 1
-13.971962 33.318581 -29.119309 46.403424 -1.173726 2.249167 0.158599 -0.024504 -185298.000000 0 0 1
-13.284062 32.074681 -29.126669 45.316822 -1.178143 2.268858 0.135750 -0.012139 71483.900000 0 0 1
-13.201262 31.384181 -27.787329 43.947421 -1.172629 2.255296 0.117505 -0.018145 51240.300000 0 0 1
-12.005862 31.657581 -27.089689 43.361209 -1.208312 2.245601 0.127673 -0.026669 -159367.000000 0 0 1
-12.036662 31.059081 -25.805729 42.136486 -1.201077 2.229930 0.107590 -0.023508 -496808.000000 0 0 1
-10.761862 31.204381 -25.022299 41.420364 -1.238687 2.219440 0.116583 -0.035626 -448959.000000 0 0 1
-9.608862 30.588381 -25.551729 40.998417 -1.266423 2.243671 0.110818 -0.027846 -252490.000000 0 0 1
-8.459562 31.112881 -24.931199 40.757089 -1.305315 2.229007 0.114397 -0.032013 -250287.000000 0 0 1
-7.135162 30.480881 -25.357289 40.286310 -1.340850 2.251612 0.078233 -0.031204 -337234.000000 0 0 1
-6.870762 29.149081 -24.894799 38.943900 -1.339311 2.264316 0.092517 -0.048740 256311.000000 0 0 1
-5.844862 28.510381 -25.651979 38.794694 -1.368590 2.293245 0.084712 -0.052767 39246.100000 0 0 1
-5.253362 27.279981 -24.954099 37.343035 -1.380553 2.302636 0.110671 -0.038042 14010.100000 0 0 1
-6.125462 26.159581 -24.896899 36.629231 -1.340783 2.318150 0.121382 -0.036858 591648.000000 0 0 1
-5.585862 25.171081 -23.974999 35.207752 -1.352419 2.319866 0.123345 -0.052510 63761.400000 0 0 1
-6.527762 23.974381 -23.992899 34.540438 -1.304960 2.338705 0.111342 -0.044426 -167126.000000 0 0 1
-6.527162 23.226281 -25.149479 34.850542 -1.296838 2.376962 0.112645 -0.038560 163427.000000 0 0 1
-7.391162 22.101681 -25.140679 34.280714 -1.248071 2.394072 0.101712 -0.047786 79243.200000 0 0 1
-7.555462 21.292881 -26.484089 34.812050 -1.229821 2.435301 0.086901 -0.036436 -29949.600000 0 0 1
-6.346962 20.605681 -26.684799 34.306800 -1.271998 2.461999 0.105813 -0.046231 -192138.000000 0 0 1
-6.273962 19.355481 -26.027489 33.036759 -1.257339 2.478081 0.099876 -0.048307 -763156.000000 0 0 1
-4.975662 18.579781 -26.259159 32.550099 -1.309136 2.509395 0.107870 -0.052176 -268002.000000 0 0 1
-4.743262 17.909181 -27.458519 33.124124 -1.311890 2.548039 0.086353 -0.051534 -634714.000000 0 0 1
-3.719562 16.982181 -27.346439 32.404589 -1.355174 2.575320 0.086114 -0.050580 -479503.000000 0 0 1
-3.211262 16.409981 -28.698679 33.214664 -1.377549 2.614030 0.073065 -0.041822 -282651.000000 0 0 1
-2.418062 17.377381 -29.329039 34.176205 -1.432534 2.602493 0.088089 -0.047798 -177611.000000 0 0 1
-2.504562 17.556881 -30.744999 35.493266 -1.429098 2.618384 0.090075 -0.045322 -390012.000000 0 0 1
-1.689662 18.740981 -31.285299 36.508209 -1.480881 2.600097 0.109900 -0.032728 -145017.000000 0 0 1
-0.275562 18.550981 -31.169279 36.273114 -1.555943 2.604685 0.148010 -0.045847 353030.000000 0 0 1
0.434838 19.572981 -31.844959 37.381708 1.548584 2.590373 0.165729 -0.035223 272972.000000 0 0 1
0.457438 20.900381 -31.133029 37.500676 1.548913 2.550261 0.154599 -0.038850 -104921.000000 0 0 1
1.376038 20.903481 -30.020459 36.607062 1.505063 2.532335 0.171026 -0.049979 208058.000000 0 0 1
1.061938 21.906281 -29.071509 36.416556 1.522358 2.495271 0.165453 -0.055065 254647.000000 0 0 1
2.105138 21.985181 -27.921759 35.600624 1.475335 2.472372 0.172801 -0.054185 1162250.000000 0 0 1
3.358038 22.566681 -28.336199 36.379551 1.423075 2.463714 0.145465 -0.049697 515504.000000 0 0 1
4.344938 22.438981 -27.329739 35.627251 1.379530 2.445108 0.131212 -0.049238 235573.000000 0 0 1
5.114938 23.778981 -27.025799 36.359268 1.358921 2.408784 0.138251 -0.046412 414145.000000 0 0 1
5.943938 24.249481 -28.097119 37.587443 1.330420 2.415107 0.127353 -0.049528 238644.000000 0 0 1
5.904938 25.622681 -28.154089 38.523277 1.344294 2.390338 0.114661 -0.049069 40270.900000 0 0 1
6.857838 26.276081 -29.205969 39.880459 1.315500 2.392545 0.136508 -0.043006 -18453.300000 0 0 1
8.228438 26.258681 -28.881869 39.892204 1.267128 2.380377 0.129447 -0.036578 -242743.000000 0 0 1
8.877938 26.952681 -29.933029 41.246225 1.252599 2.382870 0.131211 -0.036209 -451547.000000 0 0 1
10.383438 27.062581 -29.682509 41.487955 1.204435 2.368063 0.117122 -0.031232 -119296.000000 0 0 1
11.136638 27.882681 -30.594059 42.865663 1.190798 2.365591 0.131954 -0.036562 211905.000000 0 0 1
12.379638 28.185081 -29.997339 42.982492 1.156938 2.343253 0.102331 -0.034161 49541.500000 0 0 1
13.320338 29.168681 -30.713759 44.402459 1.142413 2.334655 0.110986 -0.033911 -54110.300000 0 0 1
12.777338 30.464881 -30.773079 45.148109 1.173668 2.320747 0.123556 -0.031204 -59600.100000 0 0 1
13.576638 31.288281 -31.560069 46.468480 1.161394 2.317430 0.150277 -0.038332 -340746.000000 0 0 1
13.048938 32.704881 -31.748719 47.411657 1.191160 2.304520 0.147464 -0.037769 -61560.500000 0 0 1
12.189738 32.812081 -32.872619 48.019074 1.215096 2.324816 0.131868 -0.036253 112345.000000 0 0 1
11.066038 33.581481 -32.491699 48.019617 1.252474 2.313978 0.104488 -0.022912 -484498.000000 0 0 1
9.991038 33.790181 -33.537769 48.645443 1.283309 2.331502 0.083764 -0.021457 -263217.000000 0 0 1
10.432838 -33.569570 33.200281 48.353064 -1.269477 0.813964 0.078915 -0.015692 -199412.000000 0 0 1
9.403838 -33.487370 32.262321 47.441474 -1.297030 0.822973 0.081921 -0.026407 -201387.000000 0 0 1
9.759138 -32.536870 31.101695 46.056531 -1.279394 0.829433 0.071850 -0.021931 -215953.000000 0 0 1
9.624838 -31.190970 31.429615 45.313737 -1.271489 0.804322 0.056116 -0.026317 -73736.600000 0 0 1
9.813338 -30.343470 30.308165 43.995598 -1.258005 0.810839 0.092847 -0.027531 -965979.000000 0 0 1
9.336138 -28.883270 30.518395 43.043921 -1.258160 0.782709 0.081270 -0.041717 1159100.000000 0 0 1
7.897338 -28.721070 30.484005 42.620914 -1.302461 0.773835 0.047028 -0.024537 774087.000000 0 0 1
7.392938 -29.070670 31.770315 43.693389 -1.321766 0.756680 0.041764 -0.015405 -519183.000000 0 0 1
5.856838 -28.734570 31.717935 43.197285 -1.369725 0.746224 0.052241 -0.018770 914378.000000 0 0 1
5.075238 -29.846470 31.203315 43.476622 -1.402363 0.770298 0.070372 -0.024163 199894.000000 0 0 1
5.174938 -30.146670 29.828805 42.724224 -1.400795 0.797957 0.074489 -0.029478 -755749.000000 0 0 1
4.637538 -29.070570 28.860575 41.225448 -1.412602 0.795305 0.065617 -0.025553 459047.000000 0 0 1
3.208438 -29.047470 28.882685 41.088430 -1.460787 0.791274 0.096061 -0.032758 522887.000000 0 0 1
2.677538 -28.342770 27.795395 39.787759 -1.476606 0.797369 0.112374 -0.032955 -29378.500000 0 0 1
1.346338 -28.907370 27.251545 39.750413 -1.524256 0.815415 0.112654 -0.025149 -20099.900000 0 0 1
1.414338 -30.167970 26.615235 40.255155 -1.523949 0.848428 0.113527 -0.031124 -6832.410000 0 0 1
1.042538 -31.260170 27.407955 41.587030 -1.537458 0.851241 0.128982 -0.033925 -399551.000000 0 0 1
1.191638 -32.594070 26.567065 42.066641 -1.534253 0.887249 0.127043 -0.038592 364494.000000 0 0 1
2.537438 -33.010970 26.362375 42.321833 -1.494081 0.898349 0.113440 -0.029565 663067.000000 0 0 1
3.216338 -32.331970 25.283735 41.169993 -1.471644 0.909513 0.109922 -0.038968 540999.000000 0 0 1
4.754638 -32.147070 25.464735 41.285511 -1.423958 0.906131 0.109853 -0.029494 690825.000000 0 0 1
5.451138 -31.634070 24.322545 40.274253 -1.400154 0.922382 0.093259 -0.036782 434442.000000 0 0 1
6.817938 -31.410570 24.647545 40.504440 -1.357053 0.916609 0.069807 -0.034433 -125132.000000 0 0 1
7.727238 -31.376770 23.416315 39.906587 -1.329329 0.943722 0.056277 -0.018554 -689703.000000 0 0 1
8.972338 -30.824170 23.725325 39.918959 -1.287542 0.934355 0.040882 -0.006493 -489844.000000 0 0 1
9.825238 -30.858870 22.617845 39.501545 -1.262552 0.961145 0.027229 -0.008983 -84975.100000 0 0 1
10.933238 -29.780570 22.664945 38.988687 -1.218946 0.950445 0.019292 -0.000792 -214231.000000 0 0 1
11.989838 -30.054870 23.529325 40.008506 -1.191211 0.942079 0.030237 -0.001041 -134735.000000 0 0 1
12.977338 -29.018170 23.487205 39.523591 -1.150261 0.934454 0.032324 0.000665 731338.000000 0 0 1
14.331438 -29.321470 24.196785 40.627861 -1.116173 0.932820 0.070537 -0.015459 331067.000000 0 0 1
14.197138 -29.490570 25.573465 41.536183 -1.122129 0.907533 0.059312 -0.019546 259110.000000 0 0 1
15.396238 -29.032870 26.171445 42.010668 -1.083201 0.898261 0.058828 -0.022306 177472.000000 0 0 1
-11.258562 -13.966119 25.737975 31.372776 0.892326 0.608700 0.077444 -0.022114 687381.000000 0 0 1
-9.871662 -13.684819 25.496795 30.574672 0.945879 0.584625 0.074012 -0.022945 115654.000000 0 0 1
-9.071162 -14.128619 26.580505 31.439261 1.000036 0.563378 0.079345 -0.022631 64085.500000 0 0 1
-7.578362 -13.964019 26.218635 30.656846 1.073570 0.544803 0.092084 -0.021401 -103427.000000 0 0 1
-7.038162 -14.958819 25.353025 30.266778 1.131024 0.577826 0.082853 -0.029965 -134908.000000 0 0 1
-7.350662 -14.695819 24.006215 29.091196 1.106999 0.600230 0.080663 -0.027678 -471773.000000 0 0 1
-6.785962 -15.745119 22.999845 28.687121 1.163864 0.640582 0.074795 -0.036855 88378.100000 0 0 1
-7.292162 -17.084319 22.979095 29.548069 1.167374 0.679821 0.076647 -0.030399 -327124.000000 0 0 1
-7.190662 -17.828219 24.225445 30.926093 1.187422 0.670786 0.081470 -0.025216 -142665.000000 0 0 1
-7.843662 -19.247519 24.190015 31.892740 1.183828 0.709818 0.091797 -0.023930 812531.000000 0 0 1
-9.274062 -19.318019 24.064985 32.222936 1.123217 0.727517 0.076827 -0.018308 536473.000000 0 0 1
-9.636962 -20.688819 23.828505 32.995392 1.134877 0.763852 0.069634 -0.020586 -605691.000000 0 0 1
-11.139562 -20.778219 23.588645 33.350388 1.078674 0.785128 0.054910 -0.017688 -369330.000000 0 0 1
-11.728762 -20.471719 24.863945 34.276390 1.050523 0.759187 0.055365 -0.022760 -474496.000000 0 0 1
-13.106162 -20.723919 24.969665 34.996235 1.006881 0.776321 0.073302 -0.023084 -75252.000000 0 0 1
-13.734362 -20.517019 26.345995 36.106678 0.980895 0.752956 0.076863 -0.028579 -244516.000000 0 0 1
-13.645762 -21.549619 27.206615 37.293335 1.006304 0.753161 0.069897 -0.025622 532251.000000 0 0 1
-12.444362 -21.567519 28.001855 37.471641 1.047464 0.726835 0.072653 -0.027627 714283.000000 0 0 1
-12.054362 -22.988819 28.525645 38.568198 1.087853 0.738297 0.054537 -0.020379 57408.100000 0 0 1
-12.991662 -23.586219 29.406445 39.872698 1.067327 0.741423 0.062819 -0.021739 157058.000000 0 0 1
-12.486762 -24.853219 29.830465 40.785517 1.105214 0.750426 0.053750 -0.018617 -164177.000000 0 0 1
-13.516662 -25.540519 30.757275 42.202230 1.084044 0.754219 0.064804 -0.023377 250612.000000 0 0 1
-13.537462 -24.854419 31.990490 42.712954 1.072054 0.724298 0.041130 -0.012348 -811875.000000 0 0 1
-14.553462 -25.261499 32.814367 43.894524 1.048126 0.726396 0.064077 -0.018093 -806811.000000 0 0 1
-14.376362 -24.659519 -33.638349 44.117006 1.042975 2.437934 0.057669 -0.025558 6455.970000 0 0 1
-14.582462 -23.272919 -33.462969 43.290268 1.011058 2.454338 0.041603 -0.026481 -546332.000000 0 0 1
-15.935262 -22.952819 -33.594979 43.696534 0.963932 2.447798 0.052131 -0.034581 -751043.000000 0 0 1
-16.054162 -21.416019 -33.520769 42.895501 0.927530 2.467786 0.031337 -0.027700 -126625.000000 0 0 1
-15.951162 -20.976919 -32.175579 41.590126 0.920663 2.455354 0.018919 -0.021767 76926.200000 0 0 1
-16.197062 -19.601519 -32.058429 40.918300 0.880213 2.471033 0.020870 -0.023260 -546908.000000 0 0 1
-16.370462 -19.081919 -30.598069 39.602443 0.861731 2.453771 0.023842 -0.015744 177906.000000 0 0 1
-17.550762 -19.627019 -30.022219 39.932227 0.841187 2.421628 0.023638 -0.014166 163646.000000 0 0 1
-17.659962 -19.478319 -28.591849 38.842928 0.834321 2.398070 0.017509 -0.008004 -132790.000000 0 0 1
-16.798362 -20.488319 -27.794799 38.399311 0.884039 2.380142 0.016473 -0.007019 502154.000000 0 0 1
-15.405862 -20.259019 -28.002809 37.840795 0.920644 2.403891 0.014636 -0.002782 428240.000000 0 0 1
-14.648762 -21.407919 -27.535819 37.829969 0.970707 2.386027 0.012133 -0.007406 717483.000000 0 0 1
-13.104162 -21.267719 -27.589169 37.218237 1.018584 2.405773 0.068724 -0.014308 -160682.000000 0 0 1
-12.663162 -20.229919 -26.755839 35.853594 1.011505 2.413211 0.074785 -0.025479 -44740.400000 0 0 1
-11.259062 -20.204419 -26.580459 35.235009 1.062398 2.425500 0.055748 -0.039860 155088.000000 0 0 1
-10.694062 -21.162519 -25.524159 34.838167 1.102894 2.393003 0.087859 -0.044876 -657661.000000 0 0 1
-10.608562 -22.501419 -25.905049 35.915554 1.130239 2.376440 0.092534 -0.043335 202075.000000 0 0 1
-10.023262 -23.315819 -24.888399 35.546106 1.164790 2.346435 0.127200 -0.039253 139187.000000 0 0 1
-10.170062 -24.809619 -25.233279 36.819366 1.181764 2.325848 0.116721 -0.038330 -355271.000000 0 0 1
-9.520162 -25.108439 -26.424599 37.673952 1.208382 2.348159 0.109038 -0.031464 -265180.000000 0 0 1
-9.717662 -26.407739 -26.974729 38.979965 1.218190 2.335073 0.098324 -0.028010 -203814.000000 0 0 1
-9.279062 -27.748869 -26.361329 39.382996 1.248091 2.304141 0.113131 -0.024510 -314730.000000 0 0 1
-10.066762 -27.964679 -25.228729 38.985276 1.225257 2.274617 0.099708 -0.032187 -185771.000000 0 0 1
-9.819062 -29.136289 -24.522499 39.327983 1.245745 2.244057 0.137546 -0.031680 -364077.000000 0 0 1
-10.848362 -29.333509 -23.394199 39.056757 1.216567 2.213023 0.158962 -0.035231 -186394.000000 0 0 1
-10.874062 -28.241699 -22.547099 37.738713 1.203256 2.211117 0.135330 -0.041884 -25026.300000 0 0 1
-11.884462 -27.283039 -22.839399 37.513235 1.159983 2.225389 0.119853 -0.040147 -189496.000000 0 0 1
-11.870862 -26.101849 -21.820999 36.033039 1.143966 2.221295 0.124641 -0.048825 -143595.000000 0 0 1
-12.330862 -26.468759 -20.565099 35.715104 1.134828 2.184390 0.094436 -0.041887 84625.500000 0 0 1
-12.564262 -25.279089 -19.900499 34.538716 1.109534 2.184843 0.078920 -0.037542 -148065.000000 0 0 1
-13.102862 -25.511339 -18.480299 34.117955 1.096321 2.143206 0.116030 -0.041296 549964.000000 0 0 1
-14.449962 -25.997819 -18.480699 35.017485 1.063500 2.126753 0.147446 -0.044187 487018.000000 0 0 1
-14.832662 -26.369309 -17.152799 34.778828 1.058409 2.086557 0.141948 -0.038884 90030.500000 0 0 1
-16.342862 -26.609789 -16.887399 35.501469 1.020025 2.066535 0.155343 -0.043091 -729311.000000 0 0 1
-16.978362 -25.390399 -16.858199 34.887477 0.981393 2.075121 0.141521 -0.030474 -28643.500000 0 0 1
-18.375962 -25.444049 -16.601699 35.506225 0.945319 2.057338 0.153218 -0.025441 1000270.000000 0 0 1
-19.366162 -26.029349 -17.708699 36.961781 0.931138 2.070435 0.139662 -0.024777 -276658.000000 0 0 1
-19.346162 -27.465879 -17.825699 38.031619 0.957143 2.058623 0.144345 -0.038612 22730.800000 0 0 1
-19.795462 -28.179889 -16.694699 38.271131 0.958416 2.022192 0.149434 -0.041668 -673048.000000 0 0 1
-21.307462 -28.375599 -16.508999 39.137317 0.926714 2.006251 0.127490 -0.029618 -174816.000000 0 0 1
-21.732762 -29.407279 -17.384199 40.488411 0.934355 2.014583 0.106775 -0.029577 -765315.000000 0 0 1
-23.064062 -29.777089 -17.249899 41.426863 0.911763 2.000272 0.104815 -0.018835 -658531.000000 0 0 1
-23.558562 -30.815779 -18.254199 42.869965 0.918082 2.010647 0.069805 -0.017808 -201055.000000 0 0 1
-22.906062 -32.054539 -18.324899 43.450927 0.950341 2.006157 0.067785 -0.022770 -90986.500000 0 0 1
-23.470162 -32.815189 -19.376899 44.756557 0.949927 2.018548 0.046511 -0.005251 172230.000000 0 0 1
-23.003862 33.760422 -19.455699 45.248956 -0.972673 2.015256 0.036756 -0.010267 253837.000000 0 0 1
-23.595562 32.994042 -18.445299 44.559920 -0.949977 1.997578 0.040374 -0.013397 -106388.000000 0 0 1
-22.665262 32.061559 -17.979899 43.184887 -0.955435 2.000220 0.045776 -0.023097 -116300.000000 0 0 1
-23.365362 30.728672 -17.697199 42.466249 -0.920687 2.000648 0.052478 -0.024503 374540.000000 0 0 1
-24.396462 30.655482 -16.708599 42.592526 -0.898605 1.973916 0.045510 -0.028369 201646.000000 0 0 1
-24.866562 29.327802 -16.447699 41.820960 -0.867532 1.975002 0.051397 -0.017613 120191.000000 0 0 1
-23.896362 28.139992 -16.040199 40.251500 -0.866769 1.980676 0.052201 -0.018660 371134.000000 0 0 1
-23.023962 27.751442 -17.100299 39.908215 -0.878236 2.013618 0.027229 -0.004125 53048.600000 0 0 1
-22.336762 26.571832 -16.813299 38.570458 -0.871774 2.021847 0.035387 0.003382 -109965.000000 0 0 1
-21.667962 26.029862 -18.085599 38.394573 -0.876593 2.061272 0.036961 0.011180 -615167.000000 0 0 1
-21.400162 24.634142 -17.934299 37.235024 -0.855534 2.073334 0.049641 -0.001496 339799.000000 0 0 1
-20.562762 24.028462 -18.903699 36.844864 -0.862964 2.109545 0.046343 0.004648 431486.000000 0 0 1
-19.063462 24.425052 -19.005699 36.348526 -0.908067 2.121015 0.037268 0.000513 -245699.000000 0 0 1
-18.472362 24.274462 -17.713699 35.273968 -0.920305 2.096908 0.059321 -0.011896 -734627.000000 0 0 1
-17.326962 25.020602 -17.542199 35.128093 -0.965116 2.093677 0.074259 -0.021078 -847951.000000 0 0 1
-17.466662 26.358082 -16.826199 35.818344 -0.985567 2.059821 0.091219 -0.039214 -437057.000000 0 0 1
-18.313062 27.270522 -17.491399 37.215570 -0.979432 2.060090 0.065436 -0.023609 9579.010000 0 0 1
-18.296262 28.523262 -16.891199 37.863469 -1.000455 2.033208 0.082501 -0.034075 303071.000000 0 0 1
-19.535162 29.394012 -17.328299 39.317941 -0.984228 2.027200 0.075371 -0.028293 313206.000000 0 0 1
-19.548462 29.849122 -18.646099 40.259030 -0.990978 2.052346 0.070874 -0.027358 41316.300000 0 0 1
-19.936362 28.899382 -19.593799 40.206340 -0.966912 2.079827 0.044445 -0.013151 -428549.000000 0 0 1
-19.952262 29.451062 -21.020799 41.319872 -0.975351 2.104509 0.049393 -0.014051 418661.000000 0 0 1
-20.986262 30.415002 -21.247299 42.625618 -0.966815 2.092621 0.055692 -0.014960 281127.000000 0 0 1
-21.165562 30.711822 -22.610199 43.616719 -0.967378 2.115756 0.064318 -0.008476 158602.000000 0 0 1
-21.864462 32.048312 -22.909399 45.055406 -0.972093 2.104205 0.061673 -0.011727 223230.000000 0 0 1
-21.030162 33.149730 -22.536599 45.266661 -1.005467 2.091929 0.047644 -0.009839 198058.000000 0 0 1
-21.279362 -33.816569 -23.318699 46.261575 1.009141 2.099092 0.064150 -0.005281 -56729.000000 0 0 1
-20.301362 -32.603249 -23.180299 44.860266 1.013868 2.113814 0.074669 -0.004990 81971.600000 0 0 1
-20.234962 -31.823419 -22.016399 43.668129 1.004432 2.099223 0.079068 -0.014643 19190.600000 0 0 1
-19.860062 -32.455879 -20.802099 43.365118 1.021666 2.071105 0.098180 -0.031221 -404437.000000 0 0 1
-19.433262 -31.451439 -19.733099 41.907516 1.017332 2.061076 0.117718 -0.043585 -1036140.000000 0 0 1
-18.222862 -30.864309 -19.964099 41.027351 1.037452 2.078995 0.133462 -0.044694 -1018270.000000 0 0 1
-17.713962 -30.078409 -18.942499 39.715405 1.038559 2.067984 0.130418 -0.043791 693146.000000 0 0 1
-16.460362 -29.211969 -19.356499 38.716362 1.057663 2.094345 0.150312 -0.042153 1043470.000000 0 0 1
-15.228262 -29.883259 -19.515799 38.804324 1.099505 2.097780 0.159226 -0.051753 -397770.000000 0 0 1
-14.280562 -29.051239 -20.093499 38.100625 1.113920 2.126310 0.140156 -0.053545 -939459.000000 0 0 1
-12.972662 -29.785289 -20.428299 38.376670 1.160033 2.132124 0.167192 -0.052854 414330.000000 0 0 1
-12.117462 -30.330709 -19.387099 37.982159 1.190711 2.106477 0.152465 -0.047622 689715.000000 0 0 1
-11.395762 -29.388959 -18.614799 36.607172 1.200889 2.104240 0.122304 -0.043850 -492604.000000 0 0 1
-10.616762 -30.108859 -17.496399 36.405810 1.231796 2.072128 0.100269 -0.024938 -100978.000000 0 0 1
-11.369862 -30.647619 -16.403199 36.573423 1.215549 2.035883 0.126184 -0.042259 -35087.000000 0 0 1
-11.801162 -31.962809 -16.701599 37.945118 1.217107 2.026564 0.134843 -0.047432 41363.000000 0 0 1
-12.857062 -32.454829 -15.670499 38.264664 1.193611 1.992734 0.137817 -0.053075 87712.100000 0 0 1
-12.379462 -32.621299 -14.341699 37.723793 1.208095 1.960783 0.119013 -0.041519 205954.000000 0 0 1
-13.541062 -32.894909 -13.580299 38.077026 1.180291 1.935480 0.120851 -0.031343 -223469.000000 0 0 1
-13.188262 -33.472609 -12.152199 37.973961 1.195472 1.896541 0.093726 -0.034631 3067.700000 0 0 1
-12.475962 -32.672439 -11.256999 36.740413 1.206034 1.882198 0.080365 -0.023611 -58250.600000 0 0 1
-12.106562 -33.368419 -10.095899 36.904572 1.222751 1.847897 0.082246 -0.024680 -404694.000000 0 0 1
-10.782362 -32.938299 -9.490499 35.934113 1.254440 1.838076 0.073619 -0.028817 -308542.000000 0 0 1
-9.591062 -33.300029 -10.129799 36.103923 1.290367 1.855188 0.046382 -0.031842 418826.000000 0 0 1
-8.426262 -32.630639 -9.625199 35.048608 1.318085 1.848995 0.039869 -0.027188 677613.000000 0 0 1
-7.060962 -33.213619 -10.002099 35.398357 1.361323 1.857256 0.040291 -0.033448 -61744.400000 0 0 1
-6.632662 33.671703 -9.355099 35.570967 -1.376306 1.836925 0.035554 -0.016405 -194233.000000 0 0 1
-5.448362 33.096041 -9.831099 34.952583 -1.407637 1.855913 0.045959 -0.016898 -17695.900000 0 0 1
-4.711462 32.110608 -8.868899 33.644411 -1.425110 1.837556 0.049966 -0.023497 163512.000000 0 0 1
-4.023462 32.864403 -7.874999 34.033408 -1.448976 1.804303 0.068108 -0.023236 -196298.000000 0 0 1
-3.233362 32.021082 -7.082199 32.953936 -1.470161 1.787398 0.062897 -0.026741 -212940.000000 0 0 1
-2.872862 32.682108 -5.836499 33.323239 -1.483118 1.746852 0.078914 -0.019678 -655707.000000 0 0 1
-1.814762 33.602630 -5.819099 34.151018 -1.516842 1.742025 0.062354 -0.019252 -233813.000000 0 0 1
-1.492462 34.032402 -4.515799 34.363124 -1.526970 1.702592 0.069486 -0.017315 303150.000000 0 0 1
-0.445562 33.155843 -3.758599 33.371178 -1.557359 1.683666 0.069796 -0.024639 -1131020.000000 0 0 1
0.804138 33.154610 -4.342299 33.447427 1.546547 1.700988 0.072898 -0.029275 -1196370.000000 0 0 1
1.644938 32.439598 -3.479599 32.667124 1.520132 1.677516 0.069521 -0.025610 -611334.000000 0 0 1
3.130838 32.525812 -3.820199 32.898701 1.474835 1.687179 0.069250 -0.021074 -260761.000000 0 0 1
3.738938 33.815536 -3.494899 34.200650 1.460675 1.673163 0.067513 -0.027617 -1323960.000000 0 0 1
5.064938 33.688205 -3.821899 34.280544 1.421567 1.682517 0.081776 -0.018989 -1152780.000000 0 0 1
5.753938 -33.084569 -3.369799 33.749845 -1.398603 1.670809 0.087295 -0.017108 -144925.000000 0 0 1
5.477738 -32.003789 -4.211999 32.741244 -1.401280 1.699799 0.093246 -0.020251 -119214.000000 0 0 1
5.990838 -30.809509 -3.712099 31.605310 -1.378745 1.688520 0.101243 -0.030413 -34149.900000 0 0 1
5.802738 -29.666829 -4.709799 30.593704 -1.377638 1.725358 0.099914 -0.029706 -558090.000000 0 0 1
6.732738 -29.687849 -5.739499 30.978056 -1.347784 1.757149 0.107858 -0.031178 -424317.000000 0 0 1
6.657438 -28.600669 -6.677799 30.114992 -1.342097 1.794398 0.114842 -0.030101 204623.000000 0 0 1
7.155238 -27.206229 -6.154499 28.796774 -1.313620 1.786180 0.110749 -0.027120 601392.000000 0 0 1
6.279238 -26.646779 -5.159499 27.858573 -1.339371 1.757075 0.101236 -0.027863 274783.000000 0 0 1
6.800438 -25.430709 -4.646499 26.731196 -1.309500 1.745507 0.080424 -0.025265 499338.000000 0 0 1
5.810738 -24.847319 -3.597599 25.770073 -1.341067 1.710858 0.073755 -0.021765 428896.000000 0 0 1
4.612138 -24.282119 -4.096399 25.053415 -1.383093 1.735040 0.067086 -0.024459 -261119.000000 0 0 1
3.973538 -23.552919 -3.083599 24.083969 -1.403663 1.699184 0.056193 -0.024084 -156453.000000 0 1 0
2.629538 -23.011719 -3.591399 23.438255 -1.457020 1.724630 0.069258 -0.020995 -270050.000000 0 1 0
1.712838 -23.988319 -3.970799 24.374997 -1.499514 1.734430 0.079164 -0.019746 -923495.000000 0 1 0
0.557838 -23.346419 -4.445499 23.772440 -1.546907 1.758906 0.061490 -0.018007 -132731.000000 0 1 0
-15.550062 23.554681 18.045945 33.500501 -0.987306 1.001930 0.010913 -0.019263 -181650.000000 0 0 1
-15.911562 23.060781 19.275445 34.007650 -0.966824 0.968183 0.033186 -0.012589 156711.000000 0 0 1
-15.554362 23.883081 20.333545 35.011324 -0.993528 0.951121 0.041363 -0.020367 -894009.000000 0 0 1
-15.573962 23.175181 21.721745 35.376144 -0.979103 0.909650 0.055779 -0.021410 -444238.000000 0 0 1
-14.646362 22.156081 22.082245 34.540316 -0.986690 0.877185 0.045446 -0.010257 -37643.700000 0 0 1
-13.276862 22.408281 21.943645 34.057741 -1.035911 0.870679 0.032246 -0.016649 -388926.000000 0 0 1
-12.642062 23.443881 22.927115 35.143846 -1.076246 0.860077 0.062280 -0.004525 -935222.000000 0 0 1
-12.551362 23.103681 24.277435 35.787018 -1.073141 0.825232 0.051535 0.002307 203382.000000 0 0 1
-12.085562 24.254881 25.000305 36.869708 -1.108531 0.825660 0.077395 -0.003256 231913.000000 0 0 1
-11.583862 23.850581 26.461075 37.459639 -1.118666 0.786413 0.068471 -0.007416 -526823.000000 0 0 1
-10.335462 23.262481 26.458805 36.715571 -1.152695 0.766068 0.034185 -0.005654 -983915.000000 0 0 1
-10.078562 22.571681 27.655255 37.092740 -1.150845 0.729406 0.023838 -0.001110 137798.000000 0 0 1
-8.593262 22.101881 27.898465 36.615047 -1.199980 0.704493 0.027744 -0.011648 1739810.000000 0 0 1
-7.640062 23.156281 28.198305 37.279060 -1.252108 0.712987 0.039361 -0.014769 590269.000000 0 0 1
-7.325662 24.072281 27.138365 37.008525 -1.275382 0.747633 0.038796 -0.008847 -395076.000000 0 0 1
-6.344262 25.169181 27.666735 37.936599 -1.323875 0.753514 0.039847 -0.015689 535604.000000 0 0 1
-4.966562 24.877281 27.681405 37.547384 -1.373745 0.741821 0.035258 -0.017906 -548554.000000 0 0 1
-4.133562 25.832281 28.197865 38.464434 -1.412126 0.747943 0.049876 -0.018474 -564360.000000 0 0 1
-2.666462 25.418381 28.166375 38.033522 -1.466276 0.736882 0.051914 -0.023068 -685888.000000 0 0 1
-2.003762 25.364981 26.926985 37.046725 -1.491963 0.757089 0.050055 -0.023661 91668.600000 0 0 1
-0.656662 24.962581 27.115695 36.862211 -1.544497 0.744250 0.065566 -0.016057 138918.000000 0 0 1
0.063438 24.673781 25.821465 35.714809 1.568225 0.762675 0.056341 -0.015349 -373388.000000 0 0 1
-0.476762 23.625181 25.049315 34.436096 -1.550619 0.756250 0.057106 -0.006015 84540.300000 0 0 1
0.201638 23.672081 23.796635 33.566172 1.562279 0.782792 0.053484 -0.001666 275958.000000 0 0 1
-0.143762 22.431481 22.877835 32.040402 -1.564387 0.775557 0.034406 -0.003497 357819.000000 0 0 1
0.485538 21.224281 23.296895 31.519061 1.547924 0.739009 0.056834 -0.000793 -4999.300000 0 0 1
0.051638 20.169781 22.466245 30.191968 1.568236 0.731590 0.058751 -0.005338 89041.900000 0 0 1
0.842238 18.851281 22.642645 29.474897 1.526148 0.694770 0.079275 0.003127 -772847.000000 0 0 1
2.131838 18.931381 22.164645 29.226930 1.458660 0.709997 0.075035 -0.003860 -1182300.000000 0 0 1
2.745038 17.662881 22.179945 28.486182 1.416617 0.678331 0.061677 -0.007408 -862361.000000 0 0 1
4.108738 17.705181 21.534445 28.179558 1.342768 0.701017 0.055083 -0.009485 408356.000000 0 0 1
5.121038 18.434281 22.316945 29.395472 1.299829 0.708718 0.055582 0.002313 837146.000000 0 0 1
6.390338 18.631581 21.712145 29.315345 1.240385 0.736773 0.077171 -0.014897 439145.000000 0 0 1
7.394338 19.247681 22.732745 30.690832 1.204013 0.736682 0.088288 -0.021138 -286881.000000 0 0 1
7.096638 20.537581 23.382665 31.920268 1.238097 0.748760 0.071059 -0.011280 47625.000000 0 0 1
6.858138 21.620381 22.548745 31.983134 1.263629 0.788345 0.078334 -0.020365 -448986.000000 0 0 1
5.604638 22.350281 23.014305 32.566935 1.325099 0.786006 0.049794 -0.009328 -440378.000000 0 0 1
5.504538 23.647381 22.476345 33.086019 1.342093 0.823946 0.041950 -0.015784 927192.000000 0 0 1
4.282138 24.278381 22.923615 33.664055 1.396215 0.821734 0.021555 -0.007849 358193.000000 0 0 1
4.188638 25.748181 22.429245 34.403264 1.409532 0.860642 0.024785 -0.009690 -132602.000000 0 0 1
3.894138 25.727281 21.066545 33.479197 1.420574 0.890218 0.032314 -0.016785 -405118.000000 0 0 1
2.564538 25.506981 20.681245 32.937772 1.470590 0.891959 0.038317 -0.014524 -628270.000000 0 0 1
2.203938 25.650881 19.219745 32.128238 1.485086 0.929519 0.043601 -0.022384 -431599.000000 0 0 1
2.222738 27.003381 18.800845 32.978704 1.488668 0.964180 0.062937 -0.026826 -16099.300000 0 0 1
1.812238 27.107481 17.469445 32.299865 1.504042 0.999347 0.067095 -0.024419 -18183.100000 0 0 1
0.611638 28.078681 17.427845 33.053233 1.549017 1.015417 0.060197 -0.006393 99799.300000 0 0 1
0.937838 29.360281 17.969245 34.435438 1.538865 1.021808 0.067615 -0.011564 742264.000000 0 0 1
-0.254062 30.017581 18.448045 35.234218 -1.562333 1.019745 0.052398 -0.008250 841616.000000 0 0 1
0.079038 31.483181 18.758245 36.647902 1.568286 1.033459 0.058663 -0.001377 74565.600000 0 0 1
0.675238 31.537781 20.029245 37.366539 1.549389 1.005080 0.066543 -0.008368 -301502.000000 0 0 1
1.092938 32.818381 20.402945 38.659033 1.537506 1.014827 0.069813 -0.009183 -334565.000000 0 0 1
1.555938 32.805381 21.875645 39.460839 1.523403 0.983198 0.067579 -0.016970 -213684.000000 0 0 1
0.646538 32.246781 22.818045 39.508684 1.550749 0.955078 0.074619 -0.011046 -51700.800000 0 0 1
1.028838 32.402481 24.134905 40.416246 1.539055 0.930842 0.084944 -0.023275 848369.000000 0 0 1
-0.195262 32.102981 25.120455 40.763670 -1.564714 0.906829 0.079637 -0.022114 1199890.000000 0 0 1
-1.190862 33.133281 25.272235 41.688348 -1.534870 0.919500 0.086043 -0.016076 505350.000000 0 0 1
-2.117962 32.839081 26.305045 42.128926 -1.506390 0.896441 0.084879 -0.014689 200151.000000 0 0 1
-1.643962 33.275781 27.732535 43.348284 -1.521432 0.876609 0.102169 -0.025791 -263199.000000 0 0 1
-0.608862 32.488581 28.275735 43.074306 -1.552058 0.854705 0.101202 -0.029228 103226.000000 0 0 1
-0.087462 33.047881 29.493575 44.294933 -1.568150 0.842170 0.089315 -0.032767 164511.000000 0 0 1
1.056538 32.112081 30.099595 44.025988 1.537907 0.818006 0.075110 -0.028155 770029.000000 0 0 1
2.315238 32.324781 29.496515 43.821184 1.499294 0.832389 0.074359 -0.024794 -4912.820000 0 0 1
2.491538 31.778581 28.185295 42.549934 1.492553 0.846772 0.068536 -0.028673 77177.600000 0 0 1
4.001738 31.478281 27.852095 42.221266 1.444348 0.850417 0.054621 -0.019291 785636.000000 0 0 1
4.500638 30.387581 28.585295 41.961648 1.423757 0.821363 0.057679 -0.022690 -250747.000000 0 0 1
5.885938 30.305981 28.371525 41.928990 1.378967 0.827584 0.084702 -0.034435 -269364.000000 0 0 1
6.567338 29.055081 28.982975 41.561286 1.348501 0.799096 0.103801 -0.027450 -35251.600000 0 0 1
6.750938 29.269581 30.392205 42.731366 1.344114 0.779537 0.104340 -0.033980 223047.000000 0 0 1
7.379838 28.150281 30.965505 42.494268 1.314407 0.754377 0.096897 -0.029645 -178651.000000 0 0 1
7.412238 28.279281 32.512847 43.723498 1.314454 0.732356 0.113537 -0.034814 336090.000000 0 0 1
6.117238 28.120881 33.109850 43.868744 1.356600 0.715526 0.101018 -0.032583 447721.000000 0 0 1
6.121538 27.940581 -33.379109 43.958097 1.355113 2.433093 0.113775 -0.032488 -156616.000000 0 0 1
6.481238 26.523081 -32.924709 42.772851 1.331131 2.449257 0.117185 -0.028851 -206140.000000 0 0 1
7.730338 26.017881 -33.325609 42.980048 1.281987 2.458103 0.119618 -0.030245 -142882.000000 0 0 1
7.975538 24.685581 -32.896349 41.894593 1.258298 2.473843 0.129833 -0.036447 48581.200000 0 0 1
9.400338 24.164281 -33.181649 42.110577 1.199793 2.478293 0.118245 -0.032393 -216793.000000 0 0 1
9.562838 24.046981 33.287206 42.163293 1.192298 0.660830 0.103450 -0.024978 716043.000000 0 0 1
10.874938 23.572581 32.959934 41.955788 1.138553 0.667152 0.111370 -0.036042 655947.000000 0 0 1
11.302938 22.059781 33.243460 41.467071 1.097296 0.640690 0.116292 -0.035320 -219538.000000 0 0 1
10.599538 21.124981 32.415433 40.117020 1.105747 0.630009 0.106784 -0.031690 143224.000000 0 0 1
10.484038 19.875681 33.077833 39.988758 1.085407 0.596729 0.098446 -0.033461 677612.000000 0 0 1
9.118938 19.682281 33.828168 40.185721 1.136932 0.570195 0.135321 -0.041523 391202.000000 0 0 1
9.056338 20.386981 -32.827349 39.689811 1.152758 2.544720 0.147662 -0.047028 123293.000000 0 0 1
7.849038 20.130381 -32.128809 38.718213 1.199018 2.549566 0.155034 -0.051352 90693.900000 0 0 1
7.815438 20.804581 -30.757059 37.946125 1.211448 2.515879 0.161236 -0.053886 -182270.000000 0 0 1
7.949038 22.181981 -30.817029 38.793257 1.226697 2.488801 0.164339 -0.047584 146299.000000 0 0 1
8.210038 22.813381 -29.539049 38.215318 1.225349 2.454295 0.131506 -0.042374 764293.000000 0 0 1
9.723538 22.933581 -29.114149 38.316185 1.169784 2.433862 0.117683 -0.038719 717199.000000 0 0 1
10.354738 21.740981 -28.793239 37.535869 1.126306 2.445083 0.110288 -0.033975 -347175.000000 0 0 1
11.745138 21.920281 -28.611879 37.908925 1.078912 2.426074 0.099352 -0.026588 254631.000000 0 0 1
12.445338 20.564181 -28.362999 37.178377 1.026566 2.438567 0.097161 -0.030938 -314747.000000 0 0 1
12.498838 19.685981 -29.414129 37.535980 1.005102 2.471276 0.100609 -0.038456 -130935.000000 0 0 1
11.323438 19.209281 -30.050809 37.420153 1.038150 2.503217 0.120946 -0.036886 -501527.000000 0 0 1
11.533438 18.366781 -31.313229 38.090382 1.010078 2.535846 0.127844 -0.038449 -548370.000000 0 0 1
11.939638 17.024781 -31.040239 37.361673 0.959192 2.551348 0.132133 -0.035803 130624.000000 0 0 1
12.025638 16.176381 -32.168539 37.961905 0.931528 2.581847 0.130311 -0.029810 -780685.000000 0 0 1
13.387038 16.255781 -32.815739 38.991486 0.881875 2.571059 0.100925 -0.018771 -914292.000000 0 0 1
13.719838 17.486581 -33.458639 40.168334 0.905521 2.555233 0.101263 -0.023909 27394.800000 0 0 1
14.298138 17.372381 33.115838 40.036172 0.882165 0.596783 0.096146 -0.025180 172583.000000 0 0 1
13.404538 16.880981 31.920178 38.516840 0.899687 0.593956 0.093738 -0.028109 -197924.000000 0 0 1
13.416338 17.832581 30.847635 38.073293 0.925793 0.626274 0.088359 -0.022643 -15735.800000 0 0 1
12.775438 17.423681 29.665335 36.699163 0.938119 0.629472 0.085458 -0.025119 -799448.000000 0 0 1
11.284238 17.681081 29.587585 36.268166 1.002754 0.616684 0.071128 -0.016416 -810369.000000 0 0 1
10.541538 16.743881 30.358085 36.236651 1.008914 0.577605 0.083680 -0.019685 -328084.000000 0 0 1
9.212838 17.191581 30.435655 36.149079 1.078849 0.569912 0.085569 -0.019694 -356794.000000 0 0 1
8.242838 16.361481 31.259465 36.232535 1.104117 0.530121 0.118465 -0.024585 -161438.000000 0 0 1
8.482538 16.310781 32.661407 37.480162 1.091232 0.512682 0.140921 -0.024183 107036.000000 0 0 1
7.728538 15.271081 33.256039 37.401876 1.102289 0.475303 0.155604 -0.035398 -57767.600000 0 0 1
7.809738 15.499381 -33.131469 37.402100 1.104054 2.659051 0.144815 -0.035004 151387.000000 0 0 1
6.929738 16.467881 -32.552039 37.132838 1.172486 2.639625 0.148342 -0.038675 401911.000000 0 0 1
6.713538 16.421781 -31.125509 35.826580 1.182710 2.623535 0.146043 -0.047704 428931.000000 0 0 1
5.625138 17.467881 -30.647359 35.721558 1.259255 2.602065 0.152011 -0.053573 35719.700000 0 0 1
5.541538 17.508481 -29.219739 34.511574 1.264266 2.580483 0.131448 -0.065796 469286.000000 0 0 1
4.815038 18.634381 -28.693629 34.550675 1.317932 2.550764 0.136079 -0.068239 1287240.000000 0 0 1
3.240338 18.623881 -28.767959 34.423019 1.398532 2.560236 0.158970 -0.068641 249681.000000 0 0 1
2.651538 17.648981 -27.947689 33.160074 1.421674 2.573282 0.156698 -0.060524 405123.000000 0 0 1
1.270438 17.363981 -28.153919 33.102342 1.497761 2.587753 0.157130 -0.057641 1226140.000000 0 0 1
0.184638 18.434181 -27.743579 33.310048 1.560781 2.555104 0.153674 -0.060994 -66984.200000 0 0 1
0.019638 18.590981 -26.351399 32.249360 1.569740 2.527183 0.149627 -0.063627 -281380.000000 0 0 1
-0.791362 19.707481 -26.174159 32.773430 -1.530662 2.495828 0.159205 -0.057614 -189369.000000 0 0 1
-1.242062 20.171481 -24.739799 31.945094 -1.509299 2.456638 0.149767 -0.062869 89630.700000 0 0 1
-2.045362 19.210681 -24.093899 30.882839 -1.464726 2.465736 0.136342 -0.054399 -55143.200000 0 0 1
-2.505262 19.798081 -22.857699 30.343282 -1.444925 2.423867 0.126275 -0.058852 1083950.000000 0 0 1
-3.718762 18.970881 -22.200999 29.438205 -1.377226 2.425164 0.100230 -0.044244 1622700.000000 0 0 1
-4.983862 19.227081 -22.840299 30.268776 -1.317168 2.425815 0.100546 -0.037371 344502.000000 0 0 1
-5.920862 18.306581 -22.337599 29.481450 -1.257987 2.430552 0.090578 -0.047005 2013350.000000 0 0 1
-7.469162 18.765381 -22.531699 30.258972 -1.191990 2.410775 0.107438 -0.038752 2024000.000000 0 0 1
-7.936562 19.544281 -21.466099 30.095870 -1.185059 2.364931 0.070433 -0.024263 41396.500000 0 0 1
-7.854862 20.928681 -21.779099 31.209578 -1.211749 2.343165 0.083524 -0.036657 -181540.000000 0 0 1
-8.304262 21.878581 -20.689199 31.235814 -1.208033 2.294754 0.088626 -0.040921 -75545.800000 0 0 1
-7.471062 21.990581 -19.547099 30.356079 -1.243292 2.270416 0.100229 -0.045510 -4720.910000 0 0 1
-7.917962 23.018681 -18.688899 30.689229 -1.239495 2.225561 0.106387 -0.044917 378270.000000 0 0 1
-6.966162 23.147381 -17.455099 29.816257 -1.278470 2.196197 0.126678 -0.052127 562175.000000 0 0 1
-5.616262 23.517781 -17.581399 29.895385 -1.336378 2.199501 0.130486 -0.053632 -193108.000000 0 0 1
-4.926762 23.719581 -16.376599 29.241828 -1.366000 2.165231 0.120508 -0.045260 701330.000000 0 0 1
-3.391662 23.997481 -16.416799 29.272748 -1.430392 2.166175 0.123559 -0.046736 743169.000000 0 0 1
-3.077762 25.335881 -16.775499 30.541724 -1.449910 2.152281 0.105413 -0.045305 -750138.000000 0 0 1
-1.757762 25.492881 -17.177399 30.790255 -1.501954 2.162631 0.108136 -0.052675 -427328.000000 0 0 1
-1.332962 26.997581 -17.160899 32.017849 -1.521463 2.136463 0.098560 -0.062705 -222595.000000 0 0 1
-2.094662 27.738881 -18.059499 33.165926 -1.495426 2.146613 0.110134 -0.067854 -303546.000000 0 0 1
-1.636662 29.040181 -18.239499 34.332057 -1.514497 2.130892 0.112740 -0.065781 -260179.000000 0 0 1
-2.653262 29.843181 -19.167099 35.567302 -1.482123 2.139923 0.137062 -0.066921 1115810.000000 0 0 1
-3.892262 30.229681 -18.587799 35.699995 -1.442745 2.118428 0.103965 -0.061834 -124273.000000 0 0 1
-4.821562 29.194581 -18.526699 34.911454 -1.407121 2.130195 0.077013 -0.064735 -1795420.000000 0 0 1
-6.090362 29.538081 -17.792599 35.016672 -1.367459 2.103795 0.088634 -0.047700 -528408.000000 0 0 1
-6.835762 30.605981 -18.280099 36.298978 -1.351056 2.098555 0.125429 -0.042043 30117.600000 0 0 1
-6.428662 31.730981 -17.490799 36.798246 -1.370903 2.066120 0.128108 -0.073161 -180931.000000 0 0 1
-6.945262 33.101181 -17.961099 38.295247 -1.363977 2.058973 0.119922 -0.039833 -419913.000000 0 0 1
-8.336462 33.171781 -18.042599 38.670390 -1.324583 2.056210 0.131296 -0.060031 -636811.000000 0 0 1
-8.736162 -33.628270 -18.354099 39.294453 1.316628 2.056795 0.174901 -0.048709 -65672.700000 0 0 1
30.084638 -20.643819 -26.089639 44.854453 -0.601398 2.191553 0.071689 -0.004994 338672.000000 0 0 1
29.377738 -21.740919 -25.506659 44.568023 -0.637101 2.180115 0.074837 -0.018734 -619262.000000 0 0 1
28.060638 -21.782219 -25.973259 44.005393 -0.660094 2.202139 0.059700 -0.014794 -237526.000000 0 0 1
27.480838 -23.203119 -25.570349 44.129626 -0.701198 2.188834 0.057524 -0.013929 -111552.000000 0 0 1
27.869538 -24.346519 -26.364199 45.437156 -0.718030 2.189813 0.058094 -0.001304 693836.000000 0 0 1
29.179338 -24.791819 -25.930159 46.243283 -0.704283 2.166068 0.067784 -0.005710 968125.000000 0 0 1
29.639338 -26.124879 -26.469789 47.556802 -0.722458 2.161076 0.062552 -0.003496 85161.100000 0 0 1
28.992138 -27.210659 -25.781989 47.388553 -0.753711 2.146059 0.077531 -0.022322 -9633.100000 0 0 1
29.183838 -28.462349 -26.436989 48.587201 -0.772883 2.146129 0.066089 -0.018138 408238.000000 0 0 1
28.141038 -28.797219 -27.561139 48.793588 -0.796922 2.171050 0.077339 -0.026298 -327715.000000 0 0 1
28.198638 -28.041689 -28.747369 49.070467 -0.782607 2.196711 0.047530 -0.025889 443960.000000 0 0 1
29.254338 -28.227089 -29.719109 50.356829 -0.767529 2.202066 0.027044 -0.018512 126131.000000 0 0 1
29.397638 -29.703009 -30.323719 51.633495 -0.790565 2.198500 0.032375 -0.008807 -698613.000000 0 0 1
29.903738 -30.658539 -29.399209 51.947021 -0.797861 2.172377 0.046265 -0.010950 759468.000000 0 0 1
31.211438 -30.509909 -28.816299 52.300932 -0.774033 2.154324 0.039790 -0.005970 990218.000000 0 0 1
32.466438 -30.327339 -29.719579 53.451571 -0.751346 2.160373 0.030298 -0.010367 -338168.000000 0 0 1
32.496538 -29.012699 -30.242439 53.031753 -0.728819 2.177631 0.039856 -0.019275 -393617.000000 0 0 1
33.667438 -28.657989 -30.931159 53.958441 -0.705195 2.181251 0.043722 -0.017611 -332137.000000 0 0 1
33.598538 -27.289759 -31.663459 53.629911 -0.682154 2.202359 0.039886 -0.006510 -25632.300000 0 0 1
33.532338 -26.138369 -30.867129 52.539620 -0.662114 2.198765 0.036703 -0.002042 -533991.000000 0 0 1
32.314938 -25.876669 -30.242489 51.268561 -0.675207 2.201711 0.045867 -0.002288 -663479.000000 0 0 1
32.322638 -24.552119 -29.481059 50.166645 -0.649614 2.198963 0.040811 -0.001522 -83060.900000 0 0 1
33.038238 -24.542419 -28.235049 49.910655 -0.638909 2.172093 0.048543 -0.005279 231342.000000 0 0 1
33.022238 -23.212819 -27.721379 48.967112 -0.612700 2.172591 0.045922 -0.000306 -187290.000000 0 0 1
34.129338 -22.966719 -26.692739 49.038599 -0.592328 2.146376 0.057152 -0.008949 -581250.000000 0 0 1
33.988938 -23.738419 -25.498219 48.671548 -0.609662 2.122200 0.053883 -0.016633 -384774.000000 0 0 1
33.006038 -23.273319 -24.608599 47.293013 -0.614156 2.118049 0.086811 -0.013869 -178061.000000 0 0 1
33.247538 -21.954419 -23.766999 46.392516 -0.583604 2.108660 0.093857 -0.017592 -129811.000000 0 0 1
33.453238 -20.767519 -24.543199 46.398034 -0.555568 2.128184 0.089089 -0.017228 33261.300000 0 0 1
33.599238 -19.698219 -23.672199 45.577424 -0.530263 2.116927 0.077700 -0.025103 13900.100000 0 0 1
33.515638 -18.372019 -24.371799 45.330052 -0.501431 2.138446 0.063174 -0.026023 -113642.000000 0 0 1
32.260238 -18.131519 -24.953899 44.633754 -0.512039 2.164074 0.077445 -0.022977 -57915.600000 0 0 1
32.084338 -16.810719 -25.471199 44.280774 -0.482627 2.183670 0.087718 -0.027306 -378825.000000 0 0 1
31.143238 -16.705519 -26.673989 44.277278 -0.492349 2.217339 0.051294 -0.008637 323336.000000 0 0 1
29.775738 -16.876119 -26.306689 43.167579 -0.515630 2.226111 0.036557 -0.005475 -673763.000000 0 0 1
28.951738 -16.683519 -27.349719 43.180436 -0.522775 2.256712 0.014842 -0.005244 -150719.000000 0 0 1
27.524638 -16.363719 -26.774539 41.740303 -0.536374 2.267190 0.007707 -0.004389 359245.000000 0 0 1
26.791538 -17.407119 -26.188459 41.311375 -0.576182 2.257419 0.042791 0.001606 -177491.000000 0 0 1
27.041538 -17.687119 -24.814199 40.740931 -0.579233 2.225688 0.042110 0.007506 -122671.000000 0 0 1
25.931238 -18.493719 -24.082499 39.930108 -0.619519 2.218199 0.052737 0.008780 90333.800000 0 0 1
26.095738 -18.224319 -22.725299 39.109494 -0.609627 2.190837 0.055831 0.020990 -380183.000000 0 0 1
25.089938 -18.834719 -22.010499 38.323801 -0.643941 2.182582 0.077122 -0.000259 -516545.000000 0 0 1
24.984438 -18.283219 -20.567899 37.169029 -0.631741 2.157191 0.075331 -0.008591 -303996.000000 0 0 1
24.599738 -16.911819 -20.330299 36.117555 -0.602274 2.168677 0.066609 -0.015663 390437.000000 0 0 1
25.510938 -15.920219 -20.801799 36.564685 -0.557919 2.175969 0.066632 0.001312 33370.600000 0 0 1
26.786538 -15.740319 -19.968999 36.932874 -0.531267 2.142046 0.048523 0.003112 -438357.000000 0 0 1
26.696738 -14.794519 -18.881199 35.890016 -0.506039 2.124787 0.048953 -0.011036 187897.000000 0 0 1
27.747338 -13.851919 -18.844399 36.289141 -0.463020 2.116810 0.036764 -0.006088 -168317.000000 0 0 1
27.558138 -12.886119 -17.661499 35.177146 -0.437391 2.096791 0.041226 -0.003396 -153421.000000 0 0 1
27.894338 -13.434219 -16.421299 35.046132 -0.448828 2.058459 0.037063 -0.004681 273517.000000 0 0 1
27.467438 -12.518019 -15.483899 33.925095 -0.427617 2.044757 0.022504 -0.000444 13799.700000 0 0 1
27.915438 -12.778119 -14.044299 33.760840 -0.429275 1.999832 0.040484 -0.016030 217635.000000 0 0 1
27.237738 -13.952619 -13.554399 33.470758 -0.473402 1.987734 0.055622 -0.025673 738170.000000 0 0 1
27.559838 -13.965419 -12.158299 33.202437 -0.469018 1.945704 0.056936 -0.023900 -208044.000000 0 0 1
27.140038 -15.258719 -11.402499 33.157611 -0.512178 1.921850 0.071991 -0.031732 50477.200000 0 0 1
25.732538 -15.245919 -11.202699 31.939036 -0.534869 1.929171 0.053107 -0.031110 402918.000000 0 0 1
25.389838 -16.483219 -10.625399 32.081762 -0.575816 1.908369 0.044588 -0.024913 -109419.000000 0 0 1
23.901038 -16.518919 -10.219799 30.799003 -0.604754 1.909031 0.077472 -0.029437 -142857.000000 0 0 1
23.705138 -15.544619 -9.176699 29.795646 -0.580406 1.883874 0.073907 -0.033485 -393239.000000 0 0 1
22.361238 -15.457219 -8.850099 28.588019 -0.604830 1.885541 0.096069 -0.038754 -932622.000000 0 0 1
22.043138 -15.227319 -7.335499 27.777342 -0.604522 1.838048 0.091781 -0.032219 -506908.000000 0 0 1
22.235538 -13.861719 -6.895899 27.094645 -0.557451 1.828139 0.105149 -0.025477 299286.000000 0 0 1
22.169038 -13.701819 -5.466799 26.628781 -0.553594 1.777563 0.106633 -0.024397 -328235.000000 0 0 1
23.174938 -14.457819 -4.603099 27.700086 -0.557776 1.737747 0.110995 -0.024335 -90210.100000 0 0 1
24.552138 -14.114919 -4.734099 28.713239 -0.521756 1.736428 0.120171 -0.023826 809253.000000 0 0 1
25.310638 -14.927519 -3.822499 29.632258 -0.532865 1.700155 0.120120 -0.033432 302826.000000 0 0 1
26.842338 -14.770719 -4.030299 30.901918 -0.503056 1.701591 0.131753 -0.033184 185623.000000 0 0 1
27.433638 -13.579819 -3.507299 30.810990 -0.459645 1.684876 0.142191 -0.033826 -110259.000000 0 0 1
28.747838 -13.450019 -3.960499 31.984789 -0.437608 1.694939 0.151468 -0.042251 -663476.000000 0 0 1
29.408938 -12.165019 -3.520599 32.019805 -0.392218 1.680970 0.159677 -0.041427 -804803.000000 0 0 1
29.822238 -12.224219 -2.146399 32.301771 -0.389014 1.637294 0.163911 -0.041103 393900.000000 0 0 1
30.391438 -11.018519 -1.624999 32.368007 -0.347814 1.621021 0.163412 -0.039296 -105373.000000 0 0 1
31.861738 -10.807319 -2.013899 33.704959 -0.327016 1.630583 0.157170 -0.037679 -731739.000000 0 0 1
32.096838 -10.408019 -3.411499 33.914188 -0.313571 1.671559 0.154426 -0.040050 586549.000000 0 0 1
33.422638 -10.512019 -3.914899 35.254811 -0.304722 1.682072 0.146903 -0.038635 230884.000000 0 0 1
33.501338 -10.316319 -5.461499 35.476669 -0.298723 1.725357 0.145009 -0.036050 -548258.000000 0 0 1
32.604738 -11.199719 -6.054099 35.002210 -0.330872 1.744634 0.105785 -0.041786 99346.600000 0 0 1
32.505538 -10.992219 -7.467799 35.117045 -0.326092 1.785087 0.094618 -0.039691 179006.000000 0 0 1
31.157538 -11.503619 -8.071499 34.180031 -0.353683 1.809195 0.120426 -0.039396 290427.000000 0 0 1
30.977738 -12.870519 -7.972899 34.479524 -0.393776 1.804144 0.095384 -0.037850 233423.000000 0 0 1
29.638738 -13.285519 -8.152199 33.487582 -0.421396 1.816707 0.090527 -0.037909 28116.500000 0 0 1
29.468738 -14.801619 -8.116299 33.961283 -0.465472 1.812119 0.090969 -0.027645 -38236.200000 0 0 1
29.887138 -15.489019 -9.298799 34.923035 -0.478141 1.840313 0.098619 -0.036487 507608.000000 0 0 1
30.190738 -16.853119 -9.100299 35.753653 -0.509133 1.828156 0.087950 -0.034361 -139534.000000 0 0 1
30.320038 -17.547619 -10.481799 36.566265 -0.524645 1.861527 0.081731 -0.042134 38428.000000 0 0 1
31.541238 -17.194019 -11.116699 37.604055 -0.499095 1.870906 0.093905 -0.031599 456629.000000 0 0 1
31.739538 -17.827319 -12.383899 38.452211 -0.511763 1.898700 0.078519 -0.015723 295927.000000 0 0 1
31.061838 -17.261019 -13.716699 38.091054 -0.507208 1.939175 0.072851 -0.024894 236661.000000 0 0 1
31.748538 -16.038519 -14.051799 38.244696 -0.467778 1.947028 0.068879 -0.022208 464597.000000 0 0 1
31.151638 -15.154419 -15.014799 37.756127 -0.452767 1.979782 0.057605 -0.029606 -910731.000000 0 0 1
32.118438 -14.165819 -15.641399 38.430689 -0.415386 1.989967 0.049493 -0.019920 28078.300000 0 0 1
33.153738 -14.673419 -16.459499 39.817015 -0.416672 1.996958 0.025693 -0.022687 953438.000000 0 0 1
34.343038 -15.140519 -15.781899 40.715450 -0.415228 1.968839 0.042663 -0.021102 344815.000000 0 0 1
35.413438 -15.400319 -16.885599 42.147418 -0.410203 1.983003 0.051524 -0.020995 -401605.000000 0 0 1
36.731838 -15.496519 -16.441899 43.124309 -0.399227 1.961963 0.057899 -0.013275 121897.000000 0 0 1
-36.580847 -15.914219 -17.438999 43.537793 0.410346 1.982912 0.062754 -0.022876 1263720.000000 0 0 1
-35.053747 -15.784519 -17.058599 42.058436 0.423099 1.988424 0.065894 -0.006533 810941.000000 0 0 1
-34.546347 -16.619519 -16.057299 41.563149 0.448396 1.967451 0.062250 -0.003898 181383.000000 0 0 1
-34.883647 -16.136219 -14.784499 41.180430 0.433260 1.938011 0.058296 -0.007098 -376308.000000 0 0 1
-34.374547 -17.080219 -13.620499 40.729122 0.461153 1.911783 0.067631 0.000337 87662.200000 0 0 1
-33.010447 -17.007519 -13.254499 39.428759 0.475746 1.913636 0.087938 0.006470 310059.000000 0 0 1
-32.795047 -17.469019 -11.954699 39.033275 0.489443 1.882068 0.108979 0.006078 210414.000000 0 0 1
-31.463647 -16.931419 -11.370599 37.495661 0.493682 1.878899 0.129728 0.005322 11267.700000 0 0 1
-31.585647 -15.529119 -11.079799 36.899439 0.456946 1.875772 0.116581 -0.012291 181382.000000 0 0 1
-30.556247 -14.951419 -10.316199 35.547899 0.455058 1.865238 0.154241 -0.025392 -392858.000000 0 0 1
-30.483947 -15.262219 -8.795699 35.207537 0.464179 1.823295 0.156845 -0.021808 -313275.000000 0 0 1
-30.226947 -16.598219 -8.581599 35.536081 0.502167 1.814697 0.121480 -0.014219 16987.900000 0 0 1
-30.430447 -16.878719 -7.203199 35.535747 0.506418 1.774914 0.156086 -0.022814 -56043.100000 0 0 1
-30.218747 -18.331819 -6.857899 36.003598 0.545286 1.762446 0.125314 -0.023450 16883.600000 0 0 1
-31.295147 -19.106319 -7.343199 37.394655 0.548119 1.768451 0.101998 -0.015274 -149702.000000 0 0 1
-31.284947 -19.576519 -8.698099 37.916289 0.559138 1.802260 0.100578 -0.012868 -285429.000000 0 0 1
-32.495247 -20.400619 -9.173299 39.449661 0.560613 1.805476 0.078213 -0.008035 406380.000000 0 0 1
-33.630947 -19.596419 -9.549699 40.078136 0.527594 1.811388 0.054446 -0.006905 1839870.000000 0 0 1
-34.855147 -20.402419 -9.576099 41.507128 0.529577 1.803603 0.041068 -0.009207 1105620.000000 0 0 1
-36.125847 -19.665819 -9.999899 42.329886 0.498510 1.809288 0.053182 -0.014168 -318669.000000 0 0 1
-36.305547 -19.391519 -11.339399 42.693158 0.490570 1.839625 0.050202 -0.013954 -93031.500000 0 0 1
36.743038 -18.703719 -11.596199 42.829333 -0.470854 1.844972 0.077683 -0.021746 -48660.200000 0 0 1
36.364138 -18.546219 -13.074399 42.863185 -0.471627 1.880762 0.072495 -0.013166 -128697.000000 0 0 1
35.699438 -19.648319 -13.644999 42.973158 -0.503136 1.893913 0.060256 -0.009963 250098.000000 0 0 1
35.086038 -19.305819 -14.922799 42.736806 -0.503029 1.927491 0.059816 -0.013896 202371.000000 0 0 1
33.905638 -20.254219 -15.186199 42.313666 -0.538484 1.937881 0.065036 -0.026331 -139908.000000 0 0 1
32.890438 -20.238319 -14.151699 41.129564 -0.551612 1.922051 0.071971 -0.025334 2128780.000000 0 0 1
31.728538 -21.101719 -14.423699 40.743413 -0.586897 1.932655 0.078082 -0.025374 2021070.000000 0 0 1
30.781838 -20.761819 -15.675299 40.302477 -0.593394 1.970278 0.085776 -0.031356 82820.400000 0 0 1
30.146738 -19.491719 -15.616999 39.148992 -0.573954 1.981126 0.066741 -0.029730 -131908.000000 0 0 1
29.155238 -19.368019 -16.553299 38.718984 -0.586367 2.012549 0.067053 -0.033810 -818724.000000 0 0 1
28.354138 -18.066619 -16.584299 37.488649 -0.567308 2.029049 0.065047 -0.038832 -110480.000000 0 0 1
27.267538 -17.981319 -15.681399 36.231930 -0.582983 2.018400 0.074090 -0.038188 381675.000000 0 0 1
26.701938 -16.698019 -15.604299 35.146998 -0.558850 2.030824 0.049190 -0.027813 -723575.000000 0 0 1
25.306138 -16.569519 -14.895699 33.716931 -0.579716 2.028386 0.045343 -0.034719 392948.000000 0 0 1
24.266438 -17.165319 -15.619199 33.577784 -0.615654 2.054617 0.059576 -0.031965 27167.500000 0 0 1
23.888438 -16.375119 -16.730999 33.447396 -0.600916 2.094647 0.055712 -0.014102 -1005020.000000 0 0 1
22.878938 -17.141719 -17.636099 33.590420 -0.643012 2.123551 0.051274 -0.008062 1604590.000000 0 0 1
21.543938 -17.399719 -17.110399 32.552377 -0.679381 2.124248 0.049936 -0.003621 1087880.000000 0 0 1
20.676738 -17.986019 -18.018899 32.797943 -0.715916 2.152432 0.053547 -0.010711 -1137320.000000 0 0 1
19.259938 -18.110319 -17.547099 31.730577 -0.754645 2.156760 0.058281 -0.008018 -1261320.000000 0 0 1
18.526638 -16.923919 -17.670699 30.690535 -0.740219 2.184342 0.069349 -0.011956 -696049.000000 0 0 1
17.198838 -17.264519 -17.414799 29.952276 -0.787304 2.191267 0.083732 -0.020745 -811526.000000 0 0 1
16.285938 -16.072419 -17.104799 28.567964 -0.778800 2.212724 0.099912 -0.020170 -686415.000000 0 0 1
15.567038 -15.704419 -18.213299 28.647613 -0.789791 2.259802 0.100341 -0.013234 -533268.000000 0 0 1
14.356438 -15.111519 -17.838399 27.434901 -0.811016 2.278655 0.100642 -0.014763 -415570.000000 0 0 1
13.460938 -14.731819 -19.025699 27.571735 -0.830446 2.332346 0.100725 -0.022634 -205532.000000 0 0 1
13.989938 -13.815919 -19.925899 27.993561 -0.779140 2.362858 0.105422 -0.025029 -445862.000000 0 0 1
13.055338 -13.530319 -20.894099 28.108268 -0.803262 2.408851 0.087028 -0.017382 -196166.000000 0 0 1
13.215638 -12.026919 -21.200799 27.726770 -0.738341 2.441268 0.086577 -0.016954 790192.000000 0 0 1
14.459338 -11.710919 -21.855599 28.703402 -0.680761 2.436311 0.078013 -0.011843 357821.000000 0 0 1
14.492838 -10.358919 -22.172399 28.442307 -0.620564 2.464755 0.058815 -0.012604 -559099.000000 0 0 1
15.701538 -9.884419 -22.923199 29.490898 -0.561842 2.461155 0.069085 -0.010223 -747452.000000 0 0 1
15.473638 -9.976119 -24.285699 30.475426 -0.572652 2.492933 0.071508 -0.011733 -180896.000000 0 0 1
16.510138 -9.426719 -25.039609 31.439302 -0.518797 2.492186 0.090388 -0.021343 -471540.000000 0 0 1
22.742838 5.444081 -7.008999 24.413127 0.234955 1.861994 0.178711 0.010137 -77297.400000 0 1 0
22.519738 6.837281 -7.293899 24.639155 0.294768 1.871329 0.146074 0.001891 668147.000000 0 1 0
22.178138 7.574281 -6.148999 24.229109 0.329101 1.827388 0.140326 0.005516 -228409.000000 0 1 0
21.607338 8.969481 -6.602399 24.308853 0.393466 1.845856 0.112731 0.016432 -307920.000000 0 1 0
20.227838 9.006481 -6.893499 23.190568 0.418898 1.872612 0.056094 -0.002486 400017.000000 0 1 0
19.644338 10.295181 -7.084399 23.282600 0.482725 1.879977 0.048325 -0.001318 219157.000000 0 1 0
19.372938 11.147781 -5.707799 23.068652 0.522158 1.820820 0.076450 -0.003026 404259.000000 0 1 0
20.598838 11.504781 -5.041599 24.126538 0.509358 1.781313 0.104206 -0.001572 821782.000000 0 1 0
20.346338 12.320081 -3.887499 24.101255 0.544467 1.732803 0.133836 -0.017501 -604385.000000 0 1 0
21.446538 12.380781 -2.848999 24.926984 0.523550 1.685340 0.126584 -0.028051 -1494910.000000 0 1 0
22.566038 13.109881 -3.242799 26.298494 0.526299 1.694418 0.106625 -0.034767 165466.000000 0 0 1
23.481038 13.404081 -2.194699 27.126467 0.518708 1.651791 0.106443 -0.032145 236160.000000 0 0 1
24.274338 12.237081 -1.522199 27.226948 0.466935 1.626733 0.105980 -0.033723 -1113760.000000 0 0 1
25.379938 11.839981 -2.302299 28.100302 0.436498 1.652820 0.101654 -0.027436 180867.000000 0 0 1
26.026938 10.827281 -1.548399 28.231703 0.394225 1.625670 0.105410 -0.030814 102809.000000 0 0 1
27.437738 10.360181 -2.035599 29.399090 0.361038 1.640092 0.119089 -0.026725 29673.600000 0 0 1
28.383038 11.326981 -1.814199 30.613537 0.379709 1.630092 0.108261 -0.035851 -1264140.000000 0 0 1
29.702138 10.926881 -1.903399 31.705467 0.352516 1.630866 0.101782 -0.033214 -569527.000000 0 0 1
30.685838 12.078581 -1.549599 33.013846 0.374995 1.617751 0.076027 -0.027798 -250700.000000 0 0 1
30.745238 12.334881 -0.113799 33.127509 0.381537 1.574232 0.110939 -0.034071 20277.200000 0 0 1
31.654438 13.361481 0.190201 34.359406 0.399416 1.565261 0.094558 -0.034684 -843001.000000 0 0 1
33.041338 12.830781 0.586801 35.450011 0.370401 1.554243 0.097990 -0.025706 -350383.000000 0 0 1
34.040838 13.829781 0.699101 36.749561 0.385900 1.551772 0.100114 -0.036414 227734.000000 0 0 1
34.856238 13.878781 -0.460699 37.520529 0.378930 1.583075 0.115508 -0.023708 -526270.000000 0 0 1
34.569338 15.001081 -1.461799 37.712178 0.409420 1.609568 0.065616 -0.006017 -116888.000000 0 0 1
33.349038 14.886981 -2.169899 36.585366 0.419855 1.630142 0.076036 -0.000505 71416.100000 0 0 1
33.145238 16.018481 -2.986399 36.933956 0.450184 1.651743 0.063288 0.013106 20728.900000 0 0 1
31.795538 16.018981 -3.728299 35.797544 0.466693 1.675135 0.079318 -0.008689 -561477.000000 0 0 1
31.685738 14.925981 -4.620699 35.328767 0.440231 1.701964 0.072246 -0.010503 590685.000000 0 0 1
30.435938 14.877681 -5.303999 34.290292 0.454663 1.726099 0.071313 -0.017064 -78276.500000 0 0 1
29.304838 14.229881 -4.519299 32.889012 0.452046 1.708643 0.075057 -0.029491 -586744.000000 0 0 1
28.123438 14.177881 -5.320199 31.941268 0.466947 1.738138 0.103794 -0.035383 586582.000000 0 0 1
27.078038 13.465181 -4.667099 30.599233 0.461464 1.723917 0.101003 -0.018677 -184829.000000 0 0 1
25.935738 13.132381 -5.608499 29.607046 0.468709 1.761379 0.089560 -0.019795 -727798.000000 0 0 1
26.281938 12.166781 -6.580299 29.699683 0.433557 1.794212 0.080950 -0.005924 825359.000000 0 0 1
25.298738 11.858381 -7.615499 28.959336 0.438324 1.836898 0.089091 -0.007078 465774.000000 0 0 1
25.202638 12.855881 -8.775599 29.621914 0.471695 1.871564 0.109856 -0.002966 -242798.000000 0 0 1
24.505238 13.993581 -8.316799 29.419316 0.518857 1.857403 0.110501 -0.018105 147180.000000 0 0 1
24.464238 15.003181 -9.278199 30.160891 0.550120 1.883491 0.113960 -0.019840 -519397.000000 0 0 1
23.523038 16.215681 -8.921599 29.931197 0.603545 1.873467 0.100850 -0.011947 1776440.000000 0 0 1
22.087038 16.014281 -8.880999 28.690880 0.627343 1.885506 0.124743 -0.021785 1664330.000000 0 0 1
21.631838 15.137781 -7.836899 27.540984 0.610586 1.859338 0.147385 -0.029736 -409878.000000 0 0 1
20.169338 14.638181 -7.997899 26.173363 0.627809 1.881338 0.172143 -0.022313 379600.000000 0 0 1
19.146738 15.512581 -7.562399 25.776494 0.680926 1.868561 0.180543 -0.038014 429899.000000 0 0 1
17.865138 14.957381 -7.789799 24.567608 0.697039 1.893441 0.173803 -0.040494 -398663.000000 0 1 0
16.818838 15.305281 -6.772699 23.727503 0.738317 1.860258 0.159063 -0.024759 -663599.000000 0 1 0
16.683038 14.358281 -5.738399 22.746719 0.710645 1.825826 0.129434 -0.029178 328753.000000 0 1 0
16.383338 15.018581 -4.525499 22.681527 0.741965 1.771668 0.127094 -0.017017 -375551.000000 0 1 0
16.217038 14.003081 -3.383699 21.691658 0.712268 1.727427 0.100387 -0.002196 -1067900.000000 0 1 0
17.315838 13.367981 -2.890399 22.065710 0.657439 1.702164 0.102977 -0.003632 -667466.000000 0 1 0
16.940238 12.506581 -1.856099 21.138385 0.635956 1.658717 0.081778 -0.007447 -87993.500000 0 1 0
16.882938 13.099381 -0.413199 21.372836 0.659869 1.590130 0.086307 -0.016117 150025.000000 0 1 0
15.867838 14.081781 -0.212899 21.216271 0.725833 1.580831 0.084457 -0.021676 647459.000000 0 1 0
16.104238 14.829781 0.955601 21.913057 0.744222 1.527174 0.089142 -0.017294 -214061.000000 0 1 0
14.866038 15.636581 1.413701 21.621755 0.810654 1.505366 0.087899 -0.017319 -200944.000000 0 1 0
14.591538 16.738981 0.615301 22.214524 0.853833 1.543095 0.084292 -0.019679 810103.000000 0 1 0
13.381138 17.365881 1.067501 21.949219 0.914278 1.522142 0.059662 -0.028723 441122.000000 0 1 0
13.241838 18.843281 0.582701 23.038122 0.958237 1.545501 0.048891 -0.027396 -545139.000000 0 1 0
13.013138 18.990181 -0.777299 23.034169 0.970034 1.604548 0.059514 -0.026117 16276.200000 0 1 0
12.573838 20.293281 -1.112999 23.898900 1.016085 1.617384 0.055022 -0.030092 150529.000000 0 1 0
11.069938 20.578281 -0.902499 23.384261 1.077257 1.609400 0.040143 -0.026282 -250903.000000 0 1 0
10.602438 20.604281 0.405301 23.175685 1.095557 1.553307 0.026707 -0.027174 380179.000000 0 1 0
9.201838 20.294181 0.337701 22.285458 1.145100 1.555642 0.026513 -0.026353 857597.000000 0 1 0
8.450438 20.426981 1.679101 22.169593 1.178544 1.494985 0.022071 -0.020902 -143135.000000 0 1 0
8.173438 21.764781 2.135101 23.346722 1.211557 1.479217 0.015408 -0.015658 146597.000000 0 1 0
7.268838 21.653681 3.210001 23.065602 1.246930 1.431175 0.011254 -0.018694 -280224.000000 0 1 0
6.836338 23.030181 3.747501 24.313957 1.282239 1.416050 0.016784 -0.010766 -101870.000000 0 1 0
7.853338 23.664881 4.466101 25.330763 1.250376 1.393559 0.018942 -0.013270 64707.400000 0 0 1
7.368038 24.872181 4.970001 26.412389 1.282796 1.381499 0.012871 -0.009569 -95035.800000 0 0 1
7.817438 25.123881 6.425201 27.085142 1.269137 1.331291 0.006242 -0.008628 28138.800000 0 0 1
7.262738 24.199181 7.343501 26.311114 1.279226 1.287937 0.021200 -0.013021 270914.000000 0 0 1
7.878838 24.397581 8.598101 27.041549 1.258433 1.247220 0.029964 -0.007426 -90283.200000 0 0 1
7.360538 23.426981 9.717501 26.408915 1.266372 1.193979 0.036062 -0.011470 97284.200000 0 0 1
6.154538 23.873881 10.311901 26.724068 1.318496 1.174650 0.038699 -0.008942 152752.000000 0 0 1
5.716738 22.856381 11.200801 26.087414 1.325709 1.127016 0.036509 -0.013678 767052.000000 0 0 1
4.362238 23.200481 11.958101 26.462948 1.384943 1.101924 0.037042 -0.017308 868438.000000 0 0 1
3.292238 23.256281 11.052701 25.958729 1.430167 1.130973 0.030551 -0.013135 -350448.000000 0 0 1
2.071138 23.565081 11.683501 26.383837 1.483131 1.112046 0.031109 -0.016626 22627.500000 0 0 1
0.901538 23.768881 10.706201 26.084386 1.532885 1.147855 0.047607 -0.010163 -341332.000000 0 0 1
0.935538 24.996881 10.033701 26.951706 1.533388 1.189327 0.046036 -0.009323 -220391.000000 0 0 1
0.087638 25.090081 8.919101 26.628372 1.567303 1.229247 0.040185 -0.015355 488315.000000 0 0 1
-1.282862 25.771481 9.268601 27.417548 -1.521059 1.225948 0.048534 -0.022289 586983.000000 0 0 1
-2.145562 24.895681 9.998701 26.914167 -1.484827 1.190169 0.043215 -0.020251 347376.000000 0 0 1
-3.483462 25.364381 9.861101 27.435883 -1.434313 1.203146 0.058269 -0.022766 -211874.000000 0 0 1
-4.545862 24.428281 10.456401 26.958155 -1.386811 1.172471 0.056642 -0.029193 -238328.000000 0 0 1
-4.819462 24.548381 11.812001 27.665386 -1.376937 1.129669 0.039001 -0.017908 81536.400000 0 0 1
-5.776362 25.565781 12.051701 28.848207 -1.348586 1.139815 0.046086 -0.017794 -263505.000000 0 0 1
-6.347962 25.513381 13.489201 29.549751 -1.326939 1.096749 0.032191 -0.013716 -78900.100000 0 0 1
-7.409362 24.650281 13.820401 29.215381 -1.278808 1.078044 0.033473 -0.021847 -43323.200000 0 0 1
-7.757062 24.773981 15.200701 30.082943 -1.267353 1.041075 0.017895 -0.002647 -558115.000000 0 0 1
-8.914362 23.895881 15.613101 29.903978 -1.213736 1.021476 0.024888 -0.014305 200099.000000 0 0 1
-10.180662 24.468581 15.267401 30.585141 -1.176513 1.048148 0.025016 -0.015281 347396.000000 0 0 1
-11.261262 23.555381 15.360801 30.292346 -1.124841 1.038997 0.023032 -0.016555 262985.000000 0 0 1
-12.626462 24.129581 14.954201 31.069154 -1.088701 1.068637 0.017189 -0.016312 -211122.000000 0 0 1
-13.118862 25.000081 15.960501 32.432178 -1.087543 1.056274 0.018486 -0.023602 145822.000000 0 0 1
-13.878262 26.105981 15.498401 33.381564 -1.082180 1.087975 0.007344 -0.016390 -398678.000000 0 0 1
-14.552862 27.008581 16.512701 34.841334 -1.076574 1.077037 0.019958 -0.018671 385128.000000 0 0 1
-15.655062 26.436181 17.241401 35.230932 -1.036144 1.059415 0.025662 -0.030125 467757.000000 0 0 1
-16.094762 27.283081 18.240901 36.553226 -1.037824 1.048325 0.054174 -0.034231 -269772.000000 0 0 1
-17.361062 26.806181 18.961301 37.141739 -0.996074 1.035016 0.051551 -0.038682 139589.000000 0 0 1
-18.574862 26.978481 18.252001 37.496660 -0.967826 1.062416 0.042024 -0.040791 -298969.000000 0 0 1
-19.676162 26.390081 18.872401 37.944107 -0.930124 1.050228 0.058477 -0.044667 -299456.000000 0 0 1
-20.897062 26.393181 17.936001 38.144296 -0.901100 1.081263 0.077332 -0.048531 -325964.000000 0 0 1
-21.518862 27.663081 17.894301 39.351156 -0.909683 1.098723 0.060764 -0.046642 -48286.700000 0 0 1
-22.361562 27.684581 16.772001 39.341778 -0.891362 1.130381 0.086114 -0.050819 826474.000000 0 0 1
-23.467062 28.871281 16.708701 40.785225 -0.888289 1.148698 0.080234 -0.042521 1040290.000000 0 0 1
-24.638962 28.658881 17.464301 41.634262 -0.860679 1.137936 0.077326 -0.045794 -92292.600000 0 0 1
-25.412472 29.829581 17.405301 42.878225 -0.865188 1.152807 0.085761 -0.045827 266841.000000 0 0 1
-26.850032 29.719181 18.005901 43.913169 -0.836074 1.148305 0.097400 -0.039392 1128200.000000 0 0 1
-27.832042 29.021281 17.150101 43.714795 -0.806313 1.167646 0.120066 -0.035798 2464460.000000 0 0 1
-29.182012 29.035781 17.733501 44.823470 -0.782886 1.164043 0.142438 -0.039081 1619870.000000 0 0 1
-29.592312 27.958781 18.777401 44.832903 -0.757022 1.138639 0.135705 -0.036400 -677304.000000 0 0 1
-29.678892 26.694581 18.107201 43.832728 -0.732509 1.144943 0.132091 -0.033314 182587.000000 0 0 1
-29.833042 25.599081 19.021301 43.670737 -0.709165 1.120134 0.126314 -0.028114 -101182.000000 0 0 1
-29.948672 24.221381 18.289801 42.639361 -0.680062 1.127475 0.118782 -0.027917 -670527.000000 0 0 1
-31.136722 24.049481 17.596701 43.098920 -0.657673 1.150220 0.127616 -0.023661 -489703.000000 0 0 1
-31.091042 22.869981 16.735401 42.068546 -0.634209 1.161665 0.131243 -0.017797 -221384.000000 0 0 1
-31.587362 21.514981 17.271601 41.940006 -0.597946 1.146349 0.116404 -0.013389 -213747.000000 0 0 1
-32.970692 21.307581 17.132401 42.832216 -0.573740 1.159292 0.116117 -0.011042 -148012.000000 0 0 1
-33.271352 19.918981 17.238001 42.436981 -0.539450 1.152502 0.099997 -0.008256 -48312.800000 0 0 1
-34.670358 19.630381 16.669201 43.188515 -0.515196 1.174544 0.104909 -0.022808 -262356.000000 0 0 1
-34.755998 19.635881 15.287701 42.746474 -0.514259 1.205061 0.097474 -0.020236 22207.800000 0 0 1
-36.012124 19.209481 14.801301 43.416077 -0.490023 1.222904 0.105138 -0.022180 -82632.100000 0 0 1
-36.207802 19.529681 13.309701 43.238427 -0.494651 1.257894 0.109622 -0.010358 -156811.000000 0 0 1
-36.665842 20.822481 13.073101 44.145959 -0.516481 1.270154 0.099219 -0.025354 -110698.000000 0 0 1
-36.891382 21.192781 11.696401 44.123847 -0.521432 1.302508 0.091078 -0.018862 -230323.000000 0 0 1
-35.622635 21.234681 10.824101 42.860763 -0.537548 1.315491 0.109286 -0.019744 -8582.380000 0 0 1
-35.122838 19.979181 10.413201 41.727882 -0.517191 1.318581 0.130105 -0.023638 204077.000000 0 0 1
-33.994862 20.099581 9.546901 40.629880 -0.533963 1.333606 0.163740 -0.020395 220198.000000 0 0 1
-32.935332 19.004481 9.888301 39.289756 -0.523354 1.316384 0.135027 -0.020868 -202107.000000 0 0 1
-32.419272 19.262981 11.196201 39.337343 -0.536131 1.282186 0.143889 -0.023817 113103.000000 0 0 1
-32.014592 18.095381 11.869701 38.642810 -0.514456 1.258584 0.124232 -0.025072 2284.140000 0 0 1
-31.732232 18.285881 13.376401 38.990205 -0.522777 1.220612 0.103476 -0.013805 -139885.000000 0 0 1
-30.651102 19.090281 13.758001 38.642095 -0.557034 1.206773 0.113690 -0.014769 -569003.000000 0 0 1
-30.758412 20.495881 13.551001 39.367381 -0.587784 1.219390 0.118883 -0.010844 -763007.000000 0 0 1
-29.446132 21.242981 13.631901 38.783601 -0.624957 1.211638 0.132711 -0.018877 -438635.000000 0 0 1
-28.860222 21.196181 14.939201 38.799101 -0.633470 1.175545 0.129552 -0.011389 -48596.100000 0 0 1
-27.716582 22.017781 15.025101 38.454457 -0.671311 1.169378 0.137855 -0.021970 -257581.000000 0 0 1
-27.102012 21.922281 16.424401 38.533965 -0.680132 1.130473 0.124746 -0.026438 -523700.000000 0 0 1
-26.637072 20.622481 16.668701 37.585448 -0.658811 1.111310 0.132868 -0.026221 -148631.000000 0 0 1
-26.176402 20.607081 17.990101 37.861584 -0.666911 1.075657 0.107556 -0.013777 -137757.000000 0 0 1
-25.028862 19.595481 18.161501 36.609656 -0.664236 1.051712 0.109647 -0.015159 -350459.000000 0 0 1
-24.276562 19.656581 19.309101 36.722936 -0.680624 1.017135 0.098839 -0.015246 137267.000000 0 0 1
-23.240362 18.662381 19.249901 35.481792 -0.676577 0.997352 0.088889 -0.012227 625120.000000 0 0 1
-22.307462 18.665281 20.520201 35.596267 -0.696738 0.956394 0.095159 -0.014533 329126.000000 0 0 1
-22.819862 17.965281 21.710701 36.260888 -0.666927 0.928874 0.126532 -0.007530 573268.000000 0 0 1
-23.904862 18.609781 22.374701 37.661567 -0.661489 0.934651 0.109432 -0.015184 323517.000000 0 0 1
-24.717862 17.653481 23.293601 38.278061 -0.620192 0.916581 0.089791 -0.016607 -81852.800000 0 0 1
-23.999862 17.167581 24.419801 38.302035 -0.620934 0.879471 0.107718 -0.015903 83700.100000 0 0 1
-24.331162 15.858881 24.760101 38.165065 -0.577635 0.864838 0.107907 -0.011099 129487.000000 0 0 1
21.647638 24.495081 33.432412 46.758479 0.847029 0.774169 0.023934 -0.001783 379445.000000 0 0 1
22.555138 23.505281 32.940399 46.328203 0.806023 0.779845 0.042988 -0.014883 412573.000000 0 0 1
22.072438 22.172981 33.211691 45.627295 0.787671 0.755555 0.039621 -0.018439 469905.000000 0 0 1
20.928238 21.585481 32.301047 44.128016 0.800856 0.749565 0.045063 -0.024251 323081.000000 0 0 1
21.342038 21.170481 31.024035 43.199104 0.781363 0.769636 0.053305 -0.024506 168031.000000 0 0 1
20.454738 20.208181 30.429755 41.865700 0.779335 0.757084 0.074542 -0.033003 56616.200000 0 0 1
20.943938 19.614981 29.053145 40.834804 0.752644 0.779194 0.092219 -0.030061 61534.600000 0 0 1
22.118538 18.838281 29.099485 41.120440 0.705478 0.784609 0.080330 -0.028096 -405241.000000 0 0 1
22.468838 18.358981 27.835885 40.208673 0.685073 0.806145 0.079827 -0.030488 -608570.000000 0 0 1
23.648738 17.436681 27.881635 40.505385 0.635336 0.811593 0.075778 -0.019061 -579842.000000 0 0 1
24.850538 17.982481 28.351275 41.769770 0.626407 0.824736 0.073227 -0.023405 -559909.000000 0 0 1
25.780438 17.026781 28.796015 42.234497 0.583689 0.820559 0.068423 -0.016819 -577889.000000 0 0 1
27.133938 17.652381 29.043665 43.490132 0.576772 0.839518 0.072361 -0.020610 -630366.000000 0 0 1
27.943238 17.845681 27.911705 43.340006 0.568348 0.871059 0.082942 -0.009926 -450752.000000 0 0 1
29.310038 17.993981 28.193195 44.471541 0.550591 0.884133 0.078406 -0.011937 92514.000000 0 0 1
30.092838 17.903381 26.838755 44.118349 0.536689 0.916835 0.076917 -0.010892 93397.100000 0 0 1
30.024538 19.026481 25.981945 44.028869 0.564829 0.939599 0.076950 -0.011929 -142540.000000 0 0 1
31.030738 18.828981 25.022835 44.086046 0.545393 0.967220 0.083877 -0.011973 -159643.000000 0 0 1
31.177338 19.991381 24.012535 44.139365 0.570175 0.995580 0.081953 -0.021329 604034.000000 0 0 1
30.062038 20.236581 23.107105 42.978874 0.592485 1.003162 0.075778 -0.015803 747866.000000 0 0 1
30.338538 21.116381 22.056245 43.044237 0.608053 1.032809 0.064666 -0.022902 -457897.000000 0 0 1
31.050638 20.477881 20.865745 42.648154 0.583024 1.059563 0.092174 -0.018611 -286253.000000 0 0 1
30.267338 19.505181 20.176945 41.275573 0.572450 1.060042 0.094347 -0.027016 111512.000000 0 0 1
30.904938 18.672281 19.247945 40.917632 0.543491 1.081044 0.116247 -0.024838 -74272.700000 0 0 1
31.986538 17.602381 19.550045 41.414812 0.503078 1.079177 0.139559 -0.039194 153482.000000 0 0 1
31.445938 16.356581 19.919345 40.659132 0.479637 1.058809 0.158551 -0.041760 879994.000000 0 0 1
32.522738 15.418681 20.141745 41.245049 0.442705 1.060606 0.146931 -0.044198 -188622.000000 0 0 1
32.145038 13.954781 20.584045 40.641632 0.409569 1.039702 0.163428 -0.041899 22539.300000 0 0 1
31.661138 13.705581 21.910145 40.869610 0.408529 1.004988 0.143875 -0.048079 -183066.000000 0 0 1
30.541338 14.421581 22.310545 40.478584 0.441160 0.987032 0.134746 -0.037612 -1027560.000000 0 0 1
29.859938 13.721581 23.479505 40.387929 0.430752 0.950410 0.103112 -0.019268 105982.000000 0 0 1
29.003538 12.661781 23.081535 39.169927 0.411621 0.940645 0.100450 -0.014909 226500.000000 0 0 1
28.214638 12.121381 24.137775 39.059261 0.405772 0.904628 0.080277 -0.010375 114154.000000 0 0 1
27.635638 10.767981 23.774415 38.011849 0.371545 0.895091 0.093215 -0.011141 685618.000000 0 0 1
26.536438 10.836781 22.822545 36.639963 0.387704 0.898369 0.066608 -0.001795 582959.000000 0 0 1
26.207238 9.552881 22.347645 35.742049 0.349545 0.895347 0.074180 -0.003722 275327.000000 0 0 1
24.862638 9.514581 21.568045 34.261620 0.365492 0.889873 0.062048 -0.004237 -427487.000000 0 0 1
23.702138 9.272781 22.275945 33.822973 0.372916 0.851834 0.055328 -0.009053 -1220840.000000 0 0 1
22.718838 8.954881 21.377345 32.454990 0.375463 0.851738 0.056776 -0.000542 -451908.000000 0 0 1
21.253938 9.022981 21.901345 31.824723 0.401474 0.811810 0.054341 -0.009228 329015.000000 0 0 1
20.987538 8.315981 23.086355 32.289504 0.377256 0.774201 0.062676 -0.007377 582951.000000 0 0 1
19.585338 8.379881 23.345185 31.603885 0.404295 0.739685 0.052798 -0.013005 476319.000000 0 0 1
19.007938 7.629281 24.564665 31.983283 0.381690 0.695010 0.039048 -0.008430 -123226.000000 0 0 1
18.953438 6.257881 24.406935 31.529230 0.318902 0.685496 0.051089 -0.008872 571.688000 0 0 1
18.705838 5.633281 25.654165 32.245595 0.292512 0.650821 0.041913 -0.013491 -144398.000000 0 0 1
18.941938 4.112881 25.607205 32.116067 0.213812 0.647933 0.049799 -0.022301 1171170.000000 0 0 1
20.339238 3.825281 25.343925 32.720512 0.185902 0.684781 0.057974 -0.012191 1102580.000000 0 0 1
20.606038 2.398181 25.410075 32.802926 0.115861 0.684669 0.057239 -0.014176 -906172.000000 0 0 1
22.056838 2.071981 25.123475 33.496062 0.093663 0.722670 0.062894 -0.017723 -1175730.000000 0 0 1
22.827638 2.611981 26.159675 34.817411 0.113926 0.720708 0.065586 -0.023134 -915587.000000 0 0 1
24.187838 2.514081 25.867885 35.503797 0.103568 0.754528 0.075863 -0.021438 -198051.000000 0 0 1
25.081238 3.211781 26.954455 36.958445 0.127362 0.753472 0.072557 -0.020485 -452052.000000 0 0 1
25.230338 2.523481 28.159325 37.893080 0.099686 0.733067 0.088968 -0.022282 374477.000000 0 0 1
26.092338 3.074981 29.166485 39.254929 0.117309 0.733252 0.095208 -0.018220 815883.000000 0 0 1
27.610238 3.010481 28.813595 40.020138 0.108606 0.767027 0.071749 -0.015810 -548917.000000 0 0 1
28.085438 4.070281 28.037395 39.893038 0.143923 0.791450 0.087400 -0.005603 1194580.000000 0 0 1
29.507038 4.000981 27.761885 40.711121 0.134772 0.820407 0.091826 -0.004753 1414780.000000 0 0 1
30.074438 2.886681 26.815605 40.396552 0.095691 0.844896 0.111004 -0.005070 -379159.000000 0 0 1
29.769238 3.032181 25.496025 39.312198 0.101506 0.865115 0.101146 -0.001118 -217471.000000 0 0 1
30.313038 1.975281 24.768675 39.195271 0.065071 0.886755 0.108346 0.003948 -204659.000000 0 0 1
30.069538 2.117081 23.257565 38.073264 0.070290 0.913646 0.108157 -0.012069 115967.000000 0 0 1
30.764338 3.204381 22.661045 38.343650 0.103785 0.938500 0.106028 -0.003686 -285482.000000 0 0 1
32.049538 2.870381 22.186345 39.085110 0.089322 0.967158 0.109211 -0.007733 101164.000000 0 0 1
32.833138 4.103581 21.675445 39.556026 0.124338 0.990863 0.113738 -0.013883 -331542.000000 0 0 1
32.322038 4.549581 20.441445 38.513186 0.139839 1.011294 0.109155 -0.019328 3405.430000 0 0 1
32.911438 5.738481 19.968345 38.920788 0.172626 1.032061 0.111776 -0.014286 522107.000000 0 0 1
34.396438 5.626581 19.380145 39.879360 0.162144 1.063324 0.085128 -0.014974 1293960.000000 0 0 1
35.366238 5.556181 20.412945 41.210803 0.155830 1.052582 0.085489 -0.009058 151619.000000 0 0 1
35.576438 6.759281 21.178745 41.951282 0.187755 1.041598 0.092334 -0.016298 -972938.000000 0 0 1
36.192338 6.404781 22.542345 43.116863 0.175152 1.020641 0.091301 -0.022506 27792.900000 0 0 1
35.336038 5.787381 23.486295 42.822137 0.162340 0.990273 0.100667 -0.005717 253716.000000 0 0 1
36.130738 5.256581 24.532435 43.987523 0.144474 0.979168 0.102821 -0.003583 232084.000000 0 0 1
35.319938 4.303781 25.429565 43.734235 0.121254 0.950278 0.109480 0.000868 183174.000000 0 0 1
35.095938 2.975781 24.879815 43.122909 0.084588 0.955805 0.124668 -0.006333 151955.000000 0 0 1
34.293138 2.074181 25.632715 42.864409 0.060410 0.929799 0.119289 -0.011048 168522.000000 0 0 1
34.242938 0.605381 25.141285 42.485639 0.017677 0.937556 0.126524 -0.015507 -534402.000000 0 0 1
33.337838 0.401181 24.123405 41.152291 0.012033 0.944438 0.146793 -0.016950 -604131.000000 0 0 1
33.288538 -0.964819 23.783755 40.923399 -0.028975 0.950622 0.137798 -0.022406 177773.000000 0 0 1
32.052538 -1.371419 22.926265 39.431708 -0.042761 0.950327 0.137377 -0.026295 408372.000000 0 0 1
30.849138 -1.389219 23.689335 38.920224 -0.045002 0.916421 0.122818 -0.018268 1244.420000 0 0 1
29.874638 -2.077019 22.902565 37.700603 -0.069413 0.917905 0.125678 -0.028984 -493622.000000 0 0 1
28.437038 -1.904619 23.328525 36.830867 -0.066877 0.884862 0.087623 -0.016160 -768134.000000 0 0 1
27.932038 -0.592119 23.059795 36.225730 -0.021195 0.880769 0.093445 -0.014147 702578.000000 0 0 1
26.507138 -0.574819 23.219915 35.243769 -0.021682 0.851524 0.079291 -0.017321 876248.000000 0 0 1
25.768338 0.767681 22.876745 34.466535 0.029783 0.844991 0.069161 -0.006513 98795.900000 0 0 1
25.906938 1.160281 21.519645 33.698825 0.044757 0.878135 0.076294 -0.013264 402744.000000 0 0 1
25.109038 2.332381 21.341745 33.035948 0.092624 0.868443 0.074377 -0.011206 20315.000000 0 0 1
25.552438 3.211681 20.123645 32.683376 0.125034 0.907503 0.090088 -0.020373 -337493.000000 0 0 1
25.256238 2.727581 18.838645 31.626125 0.107579 0.932700 0.094271 -0.022068 228762.000000 0 0 1
24.711638 3.776781 18.041245 30.828812 0.151661 0.945661 0.088165 -0.023538 320113.000000 0 0 1
24.100738 3.332781 16.648145 29.480735 0.137414 0.970711 0.093429 -0.029625 101326.000000 0 0 1
25.095738 2.904181 15.730145 29.760171 0.115212 1.013889 0.096559 -0.030853 43705.800000 0 0 1
24.715338 2.568281 14.439245 28.739098 0.103543 1.044395 0.083750 -0.050478 -394493.000000 0 0 1
23.725838 1.410181 14.184245 27.678454 0.059367 1.032743 0.106829 -0.021983 -172225.000000 0 0 1
22.359838 1.763381 14.264245 26.580830 0.078701 1.004350 0.095431 -0.023119 233591.000000 0 0 1
21.713338 0.575881 13.786145 25.726610 0.026516 1.005257 0.106043 -0.025633 274178.000000 0 0 1
20.152438 0.461781 13.805145 24.431865 0.022910 0.970306 0.091275 -0.043020 738526.000000 0 1 0
19.360238 1.122881 12.808745 23.240990 0.057934 0.987082 0.103790 -0.038768 530718.000000 0 1 0
19.532838 0.774781 11.457345 22.658393 0.039645 1.040655 0.119539 -0.034350 -1148460.000000 0 1 0
19.344138 -0.639719 10.890645 22.208355 -0.033058 1.058265 0.114301 -0.027548 610568.000000 0 1 0
20.407138 -1.617919 11.089945 23.282092 -0.079117 1.074321 0.105878 -0.036431 1623610.000000 0 1 0
21.638538 -1.267819 10.430245 24.054598 -0.058524 1.122304 0.114949 -0.026715 473619.000000 0 1 0
22.862638 -2.108619 10.886445 25.409863 -0.091970 1.128038 0.117455 -0.031922 100835.000000 0 0 1
23.468738 -1.855319 12.132745 26.484474 -0.078891 1.094931 0.108147 -0.039968 -18073.200000 0 0 1
24.363538 -2.889819 12.434245 27.505335 -0.118061 1.101715 0.095880 -0.032416 -268245.000000 0 0 1
24.865638 -2.844919 13.873945 28.616077 -0.113916 1.064627 0.129681 -0.035744 196358.000000 0 0 1
25.758138 -1.756419 14.125245 29.429394 -0.068083 1.070175 0.119494 -0.029464 206494.000000 0 0 1
26.080538 -1.744319 15.498545 30.388188 -0.066783 1.035590 0.111799 -0.038051 -517596.000000 0 0 1
27.111038 -0.710619 15.872945 31.423936 -0.026205 1.041272 0.148709 -0.036166 -235943.000000 0 0 1
28.434138 -1.088219 15.523745 32.414057 -0.038253 1.071372 0.161714 -0.038659 547579.000000 0 0 1
29.347838 0.016181 15.758245 33.310931 0.000551 1.078030 0.138350 -0.038692 648835.000000 0 0 1
30.773438 -0.500919 16.105245 34.736642 -0.016276 1.088699 0.146527 -0.036763 -12796.900000 0 0 1
31.332738 -1.193319 15.032245 34.772588 -0.038067 1.123753 0.169302 -0.029503 -936177.000000 0 0 1
32.643638 -1.510719 15.335645 36.098080 -0.046246 1.132019 0.157663 -0.031565 -722464.000000 0 0 1
33.363138 -2.349119 14.239745 36.350896 -0.070295 1.168285 0.134817 -0.040549 -31891.100000 0 0 1
33.620038 -1.522419 13.109345 36.117580 -0.045252 1.199351 0.142495 -0.037686 268976.000000 0 0 1
34.470838 -2.218519 12.209145 36.636371 -0.064271 1.231046 0.133223 -0.031136 75075.900000 0 0 1
34.473638 -1.806519 10.712345 36.144841 -0.052355 1.269904 0.159262 -0.019793 -149632.000000 0 0 1
34.794938 -0.518019 10.280145 36.285499 -0.014887 1.283550 0.132306 -0.021113 -32663.600000 0 0 1
33.750038 0.381481 10.464745 35.337253 0.011303 1.270148 0.122149 -0.020416 -593398.000000 0 0 1
34.109638 1.794381 9.923145 35.569031 0.052558 1.288062 0.127817 -0.027058 -44876.000000 0 0 1
34.188938 1.761481 8.500045 35.273744 0.051476 1.327427 0.131523 -0.025672 200364.000000 0 0 1
34.334638 3.088981 7.972745 35.383242 0.089725 1.343519 0.118809 -0.022947 -4034.870000 0 0 1
34.659738 3.038481 6.440145 35.383686 0.087442 1.387767 0.096997 -0.026338 -137309.000000 0 0 1
35.282638 4.205681 5.983945 36.032761 0.118640 1.403954 0.084908 -0.010103 127359.000000 0 0 1
35.657638 4.176681 4.618145 36.197224 0.116602 1.442865 0.147347 -0.018350 -212724.000000 0 0 1
36.190138 5.474381 4.099645 36.830721 0.150129 1.459255 0.171804 -0.035369 -223271.000000 0 0 1
35.173238 6.443081 4.013945 35.983075 0.181173 1.459013 0.153224 -0.042522 -279707.000000 0 0 1
35.682638 7.686681 3.624645 36.680700 0.212176 1.471819 0.162017 -0.047305 -1217140.000000 0 0 1
34.715238 8.911681 3.765445 36.038096 0.251282 1.466120 0.157077 -0.042765 843985.000000 0 0 1
33.642138 8.932081 2.812945 34.921171 0.259515 1.490158 0.154161 -0.051428 793269.000000 0 0 1
32.761738 7.817581 2.715445 33.790822 0.234239 1.490349 0.161519 -0.043308 -768880.000000 0 0 1
31.500638 8.027381 1.841345 32.559477 0.249522 1.514213 0.158390 -0.044349 86356.800000 0 0 1
31.836338 8.157581 0.465945 32.868155 0.250838 1.556620 0.173620 -0.035799 582935.000000 0 0 1
30.787338 7.773081 -0.429655 31.756347 0.247308 1.584326 0.156091 -0.035439 159889.000000 0 0 1
31.332138 7.615881 -1.855355 32.297784 0.238445 1.628273 0.144502 -0.029219 -485275.000000 0 0 1
30.422838 6.900481 -2.663455 31.309099 0.223045 1.655969 0.170321 -0.035544 800758.000000 0 0 1
30.837838 6.833981 -4.024755 31.841391 0.218086 1.697535 0.147044 -0.035848 -806848.000000 0 0 1
29.752538 6.206381 -4.856755 30.778576 0.205651 1.729255 0.161990 -0.026197 -749515.000000 0 0 1
29.582538 4.783581 -4.567655 30.312912 0.160315 1.722056 0.159849 -0.026916 840538.000000 0 0 1
28.369838 4.342381 -5.148255 29.158335 0.151884 1.748289 0.143026 -0.026479 -345974.000000 0 0 1
27.916338 2.948681 -5.071755 28.526117 0.105235 1.749540 0.174027 -0.023532 -591008.000000 0 0 1
27.415738 2.605981 -3.831555 27.804579 0.094769 1.709039 0.158935 -0.026212 217325.000000 0 0 1
27.321138 1.225581 -3.744655 27.603787 0.044828 1.706873 0.157852 -0.031777 -296948.000000 0 0 1
27.724338 0.653781 -2.384155 27.834341 0.023577 1.656557 0.150756 -0.043536 339066.000000 0 0 1
29.090838 0.726581 -1.998255 29.168438 0.024971 1.639357 0.152749 -0.035430 471907.000000 0 0 1
29.187838 0.404881 -0.586555 29.196538 0.013871 1.590888 0.158510 -0.024664 -122291.000000 0 0 1
30.552338 0.653481 0.060445 30.559385 0.021386 1.568818 0.184877 -0.025650 -79377.200000 0 0 1
31.647938 -0.048519 -0.485555 31.651699 -0.001533 1.586137 0.169186 -0.033968 629712.000000 0 0 1
32.883838 0.207781 0.165745 32.884912 0.006319 1.565756 0.127320 -0.028337 48741.800000 0 0 1
-3.253062 -21.144319 -8.683799 23.088374 1.418143 1.956392 0.048999 -0.009570 172419.000000 0 1 0
-3.518662 -21.806419 -7.432799 23.305523 1.410816 1.895395 0.046738 -0.010132 -238235.000000 0 1 0
-2.757062 -22.957119 -7.159299 24.205088 1.451273 1.871065 0.048468 -0.005942 -186932.000000 0 1 0
-3.103262 -23.524719 -5.747399 24.414652 1.439639 1.808434 0.043949 -0.004021 -382607.000000 0 1 0
-2.791962 -22.808319 -4.602099 23.434884 1.448992 1.768459 0.043531 -0.006507 -139758.000000 0 1 0
-3.318862 -23.493219 -3.501999 23.983540 1.430456 1.717337 0.046862 -0.005904 -255601.000000 0 1 0
-2.991662 -22.810319 -2.183399 23.109044 1.440387 1.665420 0.048386 -0.016989 987210.000000 0 1 0
-1.564362 -22.716819 -2.004099 22.858642 1.502041 1.658583 0.056524 -0.021505 443697.000000 0 1 0
-1.279062 -22.348619 -0.648799 22.394591 1.513626 1.599772 0.049989 -0.024390 14911.500000 0 1 0
0.191838 -22.310519 -0.209199 22.312324 -1.562198 1.580172 0.053864 -0.022780 -106429.000000 0 1 0
0.932538 -21.298719 -0.842399 21.335761 -1.527041 1.610290 0.037654 -0.019729 185399.000000 0 1 0
2.169638 -21.043219 -0.167499 21.155435 -1.468055 1.578714 0.024253 -0.019909 688924.000000 0 1 0
3.112738 -20.042719 -0.848399 20.300726 -1.416722 1.612600 0.024348 -0.017999 592188.000000 0 1 0
3.854838 -20.508619 -1.984099 20.961867 -1.385002 1.665591 0.023887 -0.012781 236432.000000 0 1 0
4.815138 -19.573919 -2.475799 20.308949 -1.329588 1.693007 0.034403 -0.009402 -34660.300000 0 1 0
5.613438 -20.004219 -3.680399 21.100350 -1.297220 1.746117 0.033962 -0.005285 286923.000000 0 1 0
6.672938 -20.965419 -3.361199 22.257011 -1.262652 1.722394 0.042569 -0.011105 912819.000000 0 1 0
7.396038 -21.659919 -4.348899 23.297347 -1.241748 1.758567 0.044335 -0.008474 -270004.000000 0 1 0
8.549438 -20.873819 -4.951799 23.093928 -1.182061 1.786894 0.054377 -0.011723 -1051120.000000 0 1 0
8.257538 -19.790319 -5.801999 22.215014 -1.175507 1.835035 0.033302 -0.007376 -597835.000000 0 1 0
9.394738 -19.099419 -6.240799 22.180993 -1.113661 1.856005 0.041389 -0.016777 -725159.000000 0 1 0
9.219138 -17.997619 -7.309999 21.502160 -1.097403 1.917677 0.026130 -0.008190 188907.000000 0 1 0
10.442038 -17.261519 -7.496699 21.522005 -1.026759 1.926582 0.045773 -0.027567 807075.000000 0 1 0
10.346138 -16.173619 -8.443099 20.974137 -1.001702 1.985095 0.044681 -0.022156 -350827.000000 0 1 0
10.448438 -16.688219 -9.894699 22.035689 -1.011409 2.036476 0.038713 -0.012895 -1055180.000000 0 1 0
9.317738 -17.252919 -10.442199 22.215377 -1.075611 2.060137 0.030012 -0.023275 -692761.000000 0 1 0
9.013038 -16.610319 -11.669899 22.210900 -1.073639 2.123997 0.025347 -0.017651 -52751.000000 0 1 0
8.442338 -17.458619 -12.802599 23.237534 -1.120385 2.154292 0.034078 -0.017985 105051.000000 0 1 0
7.173238 -18.059719 -12.622799 23.172049 -1.192710 2.146878 0.021947 -0.014386 419863.000000 0 1 0
6.727638 -18.605719 -13.880099 24.167975 -1.223834 2.182567 0.032610 -0.006368 251392.000000 0 1 0
5.500038 -19.502919 -13.582099 24.394419 -1.295924 2.161290 0.039762 0.001058 -296852.000000 0 1 0
5.874738 -20.684119 -12.900999 25.075508 -1.294062 2.111205 0.050435 -0.010530 444155.000000 0 0 1
4.759738 -21.473519 -12.471699 25.284588 -1.352667 2.086622 0.085258 -0.018054 427384.000000 0 0 1
5.178538 -22.932719 -12.171099 26.473808 -1.348707 2.048500 0.061806 -0.012668 -137613.000000 0 0 1
5.465238 -23.663719 -13.336299 27.707351 -1.343822 2.072964 0.081759 -0.023955 -171568.000000 0 0 1
5.175738 -25.039859 -13.362199 28.850150 -1.366967 2.052352 0.074807 -0.029604 550960.000000 0 0 1
3.709438 -25.393219 -13.795099 29.135550 -1.425742 2.064034 0.093274 -0.038431 610766.000000 0 0 1
2.772338 -25.037319 -12.776199 28.245078 -1.460517 2.040177 0.105396 -0.039553 -952384.000000 0 0 1
1.465538 -25.047829 -13.214699 28.357888 -1.512353 2.055558 0.089660 -0.048692 -673762.000000 0 0 1
0.635138 -26.358469 -12.978299 29.387217 -1.546705 2.028212 0.082561 -0.042358 -702267.000000 0 0 1
1.184338 -27.534739 -13.557399 30.714289 -1.527810 2.027959 0.089129 -0.039877 120885.000000 0 0 1
0.552138 -28.719819 -13.125899 31.581990 -1.551574 1.999413 0.074405 -0.034701 545394.000000 0 0 1
-0.875162 -29.022039 -13.695099 32.102965 1.540650 2.011526 0.050039 -0.038281 583273.000000 0 0 1
-1.934562 -28.225539 -13.179099 31.210771 1.502364 2.006735 0.047606 -0.036902 181525.000000 0 0 1
-3.149462 -28.724499 -13.747999 32.000366 1.461589 2.014868 0.047950 -0.025250 -208853.000000 0 0 1
-4.401362 -28.220029 -13.045599 31.399517 1.416077 1.999257 0.031476 -0.030199 -520465.000000 0 0 1
-4.708762 -28.571799 -11.689099 31.227475 1.407460 1.954461 0.023287 -0.030045 -109046.000000 0 0 1
-5.172862 -29.859549 -11.432799 32.389197 1.399259 1.931553 0.018075 -0.037424 -1135160.000000 0 0 1
-5.572562 -30.003079 -9.931299 32.091570 1.387156 1.885429 0.025780 -0.030359 -350300.000000 0 0 1
-6.857462 -29.526729 -9.581299 31.790782 1.342596 1.876942 0.039728 -0.021728 -243043.000000 0 0 1
-7.035962 -28.109399 -9.530599 30.503695 1.325529 1.888558 0.046250 -0.018745 -709080.000000 0 0 1
-8.465862 -27.657229 -9.128199 30.330136 1.273753 1.876497 0.047833 -0.014205 940605.000000 0 0 1
-9.573862 -27.941829 -9.982399 31.177763 1.240697 1.896713 0.079420 -0.025371 189286.000000 0 0 1
-9.786362 -29.272579 -10.428599 32.579325 1.248159 1.896630 0.076383 -0.032900 -243919.000000 0 0 1
-11.153262 -29.374379 -11.209599 33.360223 1.207917 1.913481 0.092698 -0.036620 732893.000000 0 0 1
-11.139762 -28.628279 -12.443199 33.143715 1.199707 1.955659 0.104941 -0.037119 5929.670000 0 0 1
-12.077562 -29.182909 -13.339999 34.285059 1.178401 1.970441 0.111931 -0.042162 -34091.200000 0 0 1
-12.339862 -28.238109 -14.562999 34.084365 1.158811 2.012260 0.116396 -0.043832 119078.000000 0 0 1
-13.275162 -27.165409 -14.393899 33.486918 1.116247 2.015108 0.115447 -0.047549 214806.000000 0 0 1
-12.846762 -26.129149 -13.562499 32.120291 1.113840 2.006712 0.121121 -0.033793 44905.500000 0 0 1
-13.749262 -24.870719 -13.705299 31.550437 1.065783 2.020161 0.159665 -0.022115 -148212.000000 0 0 1
-13.485762 -24.140019 -14.899499 31.410211 1.061338 2.065024 0.141577 -0.024565 -40543.400000 0 0 1
-14.203662 -22.943219 -14.975799 30.861139 1.016466 2.077461 0.165979 -0.023860 -648982.000000 0 0 1
-14.113862 -22.179719 -16.287699 30.926205 1.004083 2.125467 0.157405 -0.021684 565465.000000 0 0 1
-12.873562 -21.523119 -16.581099 30.065031 1.031755 2.154967 0.130162 -0.014640 843258.000000 0 0 1
-13.092062 -20.784819 -17.787199 30.328126 1.008691 2.197517 0.084442 -0.014165 84600.900000 0 0 1
-13.344662 -19.241319 -17.646999 29.321067 0.964418 2.216617 0.096951 -0.014078 386541.000000 0 0 1
-12.115562 -18.527019 -17.664599 28.320935 0.991656 2.244301 0.085815 -0.008291 556980.000000 0 0 1
-12.395462 -17.103019 -17.558599 27.467529 0.943650 2.264318 0.099944 -0.007175 -67625.900000 0 0 1
-11.137062 -16.237219 -17.687999 26.467844 0.969598 2.302694 0.100191 -0.013154 -163923.000000 0 0 1
-10.462962 -16.245619 -16.445399 25.374098 0.998616 2.275906 0.099057 -0.006211 366679.000000 0 0 1
-9.278462 -15.452819 -16.545499 24.466978 1.030055 2.313440 0.086082 -0.013997 98368.900000 0 1 0
-8.611262 -14.835519 -15.273999 22.968272 1.044877 2.298296 0.072556 -0.011904 73834.900000 0 1 0
-8.030462 -15.710919 -14.312099 22.719100 1.098277 2.252297 0.065549 -0.008244 -614647.000000 0 1 0
-6.833562 -16.314919 -14.663399 22.975845 1.174143 2.262966 0.053999 -0.009388 -1001040.000000 0 1 0
-6.237762 -17.238419 -13.582699 22.815838 1.223602 2.208459 0.038165 -0.007355 -280999.000000 0 1 0
-5.646662 -16.603519 -12.420799 21.490414 1.242979 2.187034 0.038025 -0.012133 329062.000000 0 1 0
-5.472662 -17.586519 -11.339799 21.629302 1.269110 2.122665 0.033063 -0.010206 -342985.000000 0 1 0
-4.400562 -18.664419 -11.540999 22.381245 1.339252 2.112568 0.037690 -0.009236 -756550.000000 0 1 0
-3.087562 -18.192819 -11.593299 21.792574 1.402685 2.131738 0.038515 -0.001288 -792650.000000 0 1 0
-2.155562 -19.238919 -11.732199 22.636849 1.459220 2.115633 0.032257 0.005211 457396.000000 0 1 0
-0.669762 -18.818719 -11.848499 22.248139 1.535221 2.132420 0.025706 0.008808 -136074.000000 0 1 0
-0.431962 -18.350919 -13.196199 22.607134 1.547262 2.194097 0.033467 -0.001245 -352161.000000 0 1 0
0.828938 -17.824119 -13.489299 22.368450 -1.524323 2.218116 0.040710 -0.000231 203055.000000 0 1 0
2.004338 -18.838419 -13.741899 23.403914 -1.464799 2.198345 0.054876 -0.010869 -261855.000000 0 1 0
1.960338 -19.689619 -14.865599 24.748941 -1.471561 2.215118 0.071970 -0.006595 -50714.400000 0 1 0
1.214738 -20.864519 -14.625599 25.509055 -1.512642 2.181384 0.072068 -0.020556 -1252070.000000 0 0 1
1.333238 -21.924219 -15.777199 27.043833 -1.510060 2.193697 0.088297 -0.023541 485837.000000 0 0 1
2.534438 -22.696819 -15.804399 27.773152 -1.459592 2.176150 0.101208 -0.027902 478986.000000 0 0 1
3.691938 -21.894919 -16.001599 27.369126 -1.403747 2.195256 0.095254 -0.038396 -975695.000000 0 0 1
4.955338 -22.696719 -16.343099 28.404107 -1.355841 2.183863 0.098539 -0.024702 -96673.400000 0 0 1
5.206738 -22.781119 -17.711599 29.322180 -1.346101 2.219350 0.089363 -0.014827 856541.000000 0 0 1
6.411338 -23.545619 -17.963999 30.301925 -1.304947 2.205369 0.090303 -0.013541 856023.000000 0 0 1
6.648138 -23.602119 -19.486499 31.320623 -1.296235 2.242298 0.089735 -0.007488 334.978000 0 0 1
7.106738 -22.362819 -20.007499 30.836689 -1.263097 2.276831 0.105607 -0.016437 59956.700000 0 0 1
7.269538 -22.340419 -21.407299 31.783847 -1.256204 2.309767 0.087383 -0.008081 99520.000000 0 0 1
7.528438 -20.935519 -21.979499 31.274138 -1.225594 2.350124 0.081597 -0.017708 814563.000000 0 0 1
6.312738 -20.176019 -21.990199 30.503955 -1.267562 2.375892 0.102615 -0.014029 726943.000000 0 0 1
6.597138 -18.802719 -22.265699 29.880191 -1.233355 2.411580 0.111233 -0.018798 1074780.000000 0 0 1
5.231338 -18.031219 -22.458399 29.272367 -1.288422 2.445295 0.102100 -0.020739 511876.000000 0 0 1
4.509738 -18.365619 -23.645999 30.278160 -1.330007 2.466996 0.094033 -0.017340 580119.000000 0 0 1
3.639338 -17.315219 -24.178599 29.961079 -1.363630 2.509851 0.079332 -0.018093 1133520.000000 0 0 1
2.323938 -17.075319 -23.394799 29.056563 -1.435528 2.506719 0.067240 -0.015373 -221585.000000 0 0 1
2.608138 -16.389619 -22.212399 27.727471 -1.412986 2.499922 0.072048 -0.016666 -181666.000000 0 0 1
1.404738 -16.129419 -21.512199 26.924081 -1.483924 2.496418 0.050006 -0.011026 285608.000000 0 0 1
1.577438 -15.197619 -20.241699 25.361039 -1.467372 2.495000 0.045939 -0.020812 -92166.100000 0 0 1
2.057538 -13.922119 -20.656499 24.994996 -1.424069 2.543525 0.051253 -0.015917 -53683.300000 0 1 0
2.106338 -12.944919 -19.597299 23.580961 -1.409495 2.551815 0.052344 -0.020056 24267.500000 0 1 0
3.304338 -12.003619 -19.881599 23.458122 -1.302171 2.582121 0.051281 -0.022950 144419.000000 0 1 0
4.556738 -12.636319 -19.625599 23.782442 -1.224704 2.541377 0.058616 -0.024252 557116.000000 0 1 0
5.743238 -11.870519 -19.818699 23.804933 -1.120173 2.554484 0.071600 -0.012329 658871.000000 0 1 0
5.987938 -10.893619 -18.618899 22.387267 -1.068204 2.552911 0.073414 -0.009816 -398016.000000 0 1 0
5.113638 -9.744319 -18.446599 21.479713 -1.087521 2.603703 0.039660 -0.006737 377078.000000 0 1 0
5.276538 -8.573119 -19.248399 21.721904 -1.019076 2.659720 0.054852 -0.014804 -478972.000000 0 1 0
4.741138 -8.619519 -20.719499 22.936263 -1.067917 2.698316 0.069073 -0.024018 -522234.000000 0 1 0
3.349138 -8.773919 -20.663299 22.697364 -1.206151 2.715006 0.052494 -0.023077 -751677.000000 0 1 0
2.829238 -8.745419 -21.952099 23.798773 -1.257912 2.745057 0.054106 -0.030474 -238327.000000 0 1 0
1.304638 -8.785019 -22.097599 23.815594 -1.423367 2.759436 0.037976 -0.027690 -368513.000000 0 1 0
0.745238 -7.642419 -21.514599 22.843816 -1.473590 2.798780 0.035908 -0.030285 -368614.000000 0 1 0
-0.649062 -7.543219 -21.705399 22.987949 1.484962 2.805977 0.032221 -0.024343 205936.000000 0 1 0
-1.060862 -6.450319 -22.740199 23.661122 1.407789 2.861677 0.037916 -0.020343 56619.400000 0 1 0
-0.491362 -6.819519 -23.971599 24.927592 1.498868 2.863749 0.033981 -0.020993 -208297.000000 0 1 0
-1.212762 -6.151419 -24.959899 25.735332 1.376141 2.895489 0.055075 -0.020595 7943.850000 0 0 1
-0.851162 -4.666119 -25.345869 25.785853 1.390367 2.956597 0.056404 -0.018308 -307198.000000 0 0 1
-1.305162 -4.232319 -26.594109 26.960390 1.271669 2.976567 0.043592 -0.017648 -361870.000000 0 0 1
-0.915762 -2.971219 -27.029159 27.207393 1.271824 3.027067 0.039848 -0.012335 -605945.000000 0 0 1
-1.413562 -1.703419 -26.249789 26.342954 0.878124 3.057465 0.045991 -0.020664 171352.000000 0 0 1
-2.811462 -1.519819 -26.187059 26.381362 0.495582 3.020150 0.039725 -0.022512 -209366.000000 0 0 1
-3.433762 -0.961219 -27.318229 27.549961 0.272945 3.011800 0.060016 -0.014670 1021680.000000 0 0 1
-5.006462 -1.046919 -27.115019 27.593205 0.206143 2.955152 0.061951 -0.024785 1186370.000000 0 0 1
-5.553462 -0.085019 -26.214269 26.796196 0.015308 2.932807 0.076108 -0.026880 810713.000000 0 0 1
-6.933362 -0.437519 -25.991629 26.904047 0.063020 2.880414 0.084020 -0.038244 683989.000000 0 0 1
-7.760962 0.642581 -25.192969 26.369133 -0.082608 2.841795 0.091989 -0.035066 -524942.000000 0 0 1
-8.009162 1.909981 -25.865779 27.144673 -0.234102 2.833409 0.113400 -0.040270 270765.000000 0 0 1
-8.842362 1.854381 -27.033799 28.503551 -0.206720 2.819062 0.121200 -0.040483 -625329.000000 0 0 1
-10.291562 1.558581 -26.720129 28.675961 -0.150301 2.770124 0.098404 -0.039882 -1055780.000000 0 0 1
-11.264562 1.861681 -27.736189 29.994207 -0.163788 2.751091 0.104161 -0.044205 1553680.000000 0 0 1
-12.603862 1.529081 -27.351709 30.154791 -0.120728 2.707005 0.066459 -0.033736 932736.000000 0 0 1
-13.820562 2.062981 -28.147559 31.425291 -0.148175 2.680794 0.053857 -0.028462 50346.200000 0 0 1
-15.028762 1.473081 -27.676619 31.528224 -0.097705 2.642122 0.048394 -0.026682 481258.000000 0 0 1
-16.197662 1.987181 -28.291469 32.660686 -0.122073 2.618391 0.046560 -0.023263 317752.000000 0 0 1
-16.768962 3.313381 -27.718999 32.565619 -0.195077 2.589014 0.035660 -0.013014 -457744.000000 0 0 1
-16.050462 4.540881 -28.027729 32.615802 -0.275708 2.604754 0.049031 -0.013089 300944.000000 0 0 1
-16.051562 4.965281 -29.365539 33.832552 -0.299997 2.621890 0.043999 -0.018861 -48551.200000 0 0 1
-17.417662 5.499381 -29.871119 35.012882 -0.305830 2.592784 0.034751 -0.009531 89107.400000 0 0 1
-17.747562 6.728281 -29.354529 34.956174 -0.362369 2.567623 0.043239 -0.002552 -65138.300000 0 0 1
-18.838562 7.321981 -30.016869 36.187226 -0.370701 2.548987 0.042657 -0.005586 -109728.000000 0 0 1
-19.417262 8.555681 -29.288509 36.166926 -0.415028 2.514633 0.045234 -0.004564 -39338.600000 0 0 1
-18.611262 9.688381 -29.487619 36.190655 -0.479964 2.523155 0.052922 0.000023 291102.000000 0 0 1
-19.043962 10.623781 -28.491009 35.878613 -0.508854 2.488313 0.078022 -0.015484 212862.000000 0 0 1
-9.067662 25.133481 30.867595 40.825517 -1.224550 0.713485 0.054757 -0.013024 48760.300000 0 0 1
-9.880762 26.332581 31.147075 41.966351 -1.211824 0.734462 0.060734 -0.008215 802803.000000 0 0 1
-9.293062 27.225781 32.094863 43.100863 -1.241863 0.730793 0.071585 -0.018962 1165560.000000 0 0 1
-7.846262 27.819081 31.820675 42.988609 -1.295891 0.737411 0.074216 -0.021442 792385.000000 0 0 1
-7.797662 28.520581 30.630045 42.572606 -1.303914 0.767746 0.089403 -0.005995 221628.000000 0 0 1
-6.459062 28.606881 30.173425 42.077413 -1.348733 0.771174 0.082403 -0.007572 230418.000000 0 0 1
-6.293062 29.751781 29.181615 42.146622 -1.362350 0.806009 0.099144 -0.015934 -167393.000000 0 0 1
-6.430262 30.999381 29.776765 43.462232 -1.366265 0.816030 0.105755 -0.018859 346887.000000 0 0 1
-6.023162 31.996581 28.851395 43.502445 -1.384730 0.845692 0.113413 -0.012292 -14393.100000 0 0 1
-6.426362 33.395181 29.383195 44.943391 -1.380686 0.858224 0.110348 -0.024421 8917.780000 0 0 1
-5.667762 33.870181 30.505535 45.933652 -1.404995 0.844478 0.108782 -0.029548 127660.000000 0 0 1
-6.340462 -33.284170 31.341105 46.155198 1.382557 0.824346 0.099834 -0.031302 238264.000000 0 0 1
-7.428462 -33.781970 32.350937 47.360180 1.354347 0.818821 0.092094 -0.032823 295393.000000 0 0 1
-7.017662 33.435081 33.400609 47.778164 -1.363910 0.796691 0.114260 -0.034106 -76589.800000 0 0 1
-6.872862 32.086681 32.960812 46.510283 -1.359788 0.783174 0.110747 -0.028734 -265185.000000 0 0 1
-6.632262 31.077681 -33.796789 46.390001 -1.360541 2.386979 0.100088 -0.025393 -96591.000000 0 0 1
-5.370062 31.095981 -33.179669 45.789607 -1.399790 2.381267 0.085301 -0.026026 -408593.000000 0 0 1
-5.490162 30.529581 -31.910379 44.502467 -1.392867 2.370353 0.105186 -0.024155 -160027.000000 0 0 1
-4.224762 30.011981 -31.178219 43.481594 -1.430946 2.370349 0.082930 -0.026787 512613.000000 0 0 1
-3.558562 28.793181 -31.603979 42.901307 -1.447829 2.398925 0.082336 -0.017516 420283.000000 0 0 1
-2.926562 28.893481 -32.880519 43.869427 -1.469853 2.418116 0.082868 -0.023887 -716321.000000 0 0 1
-2.203862 27.640781 -33.304479 43.336568 -1.491232 2.447302 0.090634 -0.028931 16935.700000 0 0 1
-1.103862 27.196781 -32.463399 42.364557 -1.530231 2.443838 0.104733 -0.020054 1424510.000000 0 0 1
-0.415662 25.941181 -32.767369 41.794954 -1.554774 2.471885 0.124324 -0.020211 520954.000000 0 0 1
0.025638 25.672181 33.665927 42.337409 1.569798 0.651489 0.102816 -0.022795 -801192.000000 0 0 1
-1.073062 25.459481 32.840279 41.567061 -1.528673 0.659897 0.097655 -0.022780 -387572.000000 0 0 1
-0.717662 25.296081 31.444485 40.362884 -1.542433 0.677656 0.107493 -0.019377 285686.000000 0 0 1
-0.373562 26.601481 30.670055 40.600870 -1.556754 0.714526 0.078031 -0.021386 -157043.000000 0 0 1
-1.499162 27.447381 30.619755 41.148215 -1.516231 0.731560 0.069741 -0.023650 115989.000000 0 0 1
-1.257762 28.578581 29.870435 41.358919 -1.526814 0.763783 0.057402 -0.021856 559283.000000 0 0 1
-2.418962 29.624581 30.087395 42.293245 -1.489323 0.779309 0.073880 -0.020026 580813.000000 0 0 1
-2.323062 30.191781 31.373555 43.603214 -1.494004 0.767680 0.083886 -0.025663 -175741.000000 0 0 1
-3.181262 31.288381 31.533305 44.535745 -1.469469 0.784071 0.089212 -0.025354 -284250.000000 0 0 1
-2.817862 32.247881 32.672368 45.992932 -1.483636 0.780761 0.088751 -0.018160 3899.510000 0 0 1
-1.483562 32.672981 32.527033 46.127351 -1.525421 0.788152 0.094543 -0.028394 29216.500000 0 0 1
-0.824562 33.016581 33.778377 47.241436 -1.545827 0.774150 0.068036 -0.021750 -188361.000000 0 0 1
0.588638 33.546281 33.597220 47.481288 1.553251 0.784716 0.075266 -0.025851 -490076.000000 0 0 1
0.694438 -33.253770 32.962313 46.827444 -1.549916 0.789909 0.094947 -0.034487 782571.000000 0 0 1
2.059138 -32.859970 32.767687 46.451469 -1.508214 0.787784 0.079072 -0.030929 684749.000000 0 0 1
2.112538 -31.306870 32.469692 45.153780 -1.503420 0.768302 0.092406 -0.031841 140408.000000 0 0 1
1.598238 -30.535270 33.550338 45.393637 -1.518503 0.739066 0.090717 -0.029407 275515.000000 0 0 1
2.058338 -29.216970 33.375213 44.404650 -1.500462 0.720289 0.077821 -0.035837 -338636.000000 0 0 1
1.632538 -28.243270 -33.421109 43.787190 -1.513058 2.439144 0.078544 -0.030235 -191257.000000 0 0 1
0.248038 -28.004270 -33.491059 43.657207 -1.561939 2.445162 0.067008 -0.030935 -365818.000000 0 0 1
-0.187662 -27.618270 -32.230449 42.445328 1.564002 2.433095 0.064895 -0.030606 370469.000000 0 0 1
-1.695262 -27.206370 -32.258589 42.233601 1.508566 2.439997 0.089792 -0.029368 618185.000000 0 0 1
-2.176162 -26.950070 -30.939319 41.088726 1.490223 2.423388 0.083392 -0.033201 -103675.000000 0 0 1
-3.481962 -26.428870 -30.943519 40.842510 1.439802 2.430471 0.094587 -0.030250 -153077.000000 0 0 1
-3.932862 -25.742670 -29.644159 39.457935 1.419193 2.420803 0.093744 -0.032419 -24603.200000 0 0 1
-4.594562 -26.579670 -28.669499 39.364058 1.399628 2.386659 0.089063 -0.031483 77832.200000 0 0 1
-4.747762 -25.921770 -27.455549 38.056361 1.389647 2.376682 0.105173 -0.023679 -701203.000000 0 0 1
-3.543862 -25.666370 -26.575789 37.115954 1.433590 2.368881 0.108080 -0.027154 -430783.000000 0 0 1
-2.665562 -24.658370 -27.095139 36.732642 1.463115 2.400352 0.102150 -0.028601 -217198.000000 0 0 1
-1.643462 -24.355570 -26.213869 35.819851 1.503421 2.391793 0.083354 -0.020423 -1160670.000000 0 0 1
-0.789862 -23.206670 -26.797219 35.457924 1.536773 2.427590 0.064303 -0.014483 547887.000000 0 0 1
0.007938 -23.441070 -27.989289 36.508686 -1.570458 2.444400 0.031382 -0.017957 772872.000000 0 0 1
1.122438 -24.312670 -27.778949 36.932855 -1.524662 2.422111 0.027301 -0.015861 -19794.300000 0 0 1
2.029238 -24.503370 -29.011869 38.029219 -1.488170 2.438558 0.018173 -0.019521 31314.800000 0 0 1
2.765238 -23.355070 -29.403639 37.652089 -1.452945 2.466949 0.038880 -0.018607 136263.000000 0 0 1
3.567538 -23.676670 -30.533249 38.801950 -1.421244 2.476565 0.048057 -0.019323 -244383.000000 0 0 1
4.636938 -22.550270 -30.797589 38.451364 -1.367996 2.499675 0.055495 -0.030733 -11177.900000 0 0 1
5.786038 -22.640170 -29.959429 37.995038 -1.320587 2.479177 0.048125 -0.035610 738883.000000 0 0 1
6.800338 -23.609070 -30.145489 38.889373 -1.290349 2.457765 0.062428 -0.026326 -205718.000000 0 0 1
7.415738 -23.719470 -31.571889 40.179480 -1.267781 2.474739 0.071176 -0.023814 -1062210.000000 0 0 1
6.657738 -24.468470 -32.497729 41.220552 -1.305133 2.478978 0.034062 -0.021872 -163086.000000 0 0 1
6.980838 -24.428870 -33.892069 42.357693 -1.292453 2.498324 0.055902 -0.027292 -114501.000000 0 0 1
6.531738 -23.097870 33.285017 41.037392 -1.295207 0.624783 0.069696 -0.029397 1024680.000000 0 0 1
5.103038 -22.921270 33.373181 40.806799 -1.351736 0.613160 0.075740 -0.028284 622319.000000 0 0 1
4.682938 -21.814870 32.708083 39.593398 -1.359338 0.598646 0.098730 -0.040810 -448581.000000 0 0 1
3.179138 -21.467870 32.746306 39.284818 -1.423777 0.585273 0.082539 -0.044548 818729.000000 0 0 1
2.174438 -22.454370 32.408010 39.486783 -1.474259 0.608108 0.085595 -0.034374 628039.000000 0 0 1
2.063638 -23.411570 33.476247 40.902559 -1.482877 0.612107 0.077998 -0.030840 31829.700000 0 0 1
0.710838 -24.224270 33.420825 41.282830 -1.541461 0.627398 0.091484 -0.029609 887576.000000 0 0 1
0.601038 -25.069570 32.308875 40.898753 -1.546826 0.660033 0.093837 -0.024379 -1029410.000000 0 0 1
-0.687862 -25.523270 32.143762 41.050358 1.543852 0.671270 0.101274 -0.029611 -914529.000000 0 0 1
-0.854862 -26.570870 31.008315 40.844308 1.538635 0.708739 0.106941 -0.036584 836366.000000 0 0 1
-2.222462 -26.794270 30.622145 40.750313 1.488040 0.720527 0.105898 -0.037408 744564.000000 0 0 1
-2.338262 -27.911870 29.735715 40.850370 1.487218 0.755516 0.117735 -0.034773 1000210.000000 0 0 1
-3.734362 -27.977470 28.991815 40.462447 1.438103 0.772008 0.126263 -0.031472 758000.000000 0 0 1
-4.776162 -28.566170 29.723345 41.500783 1.405132 0.772438 0.119456 -0.030375 -490851.000000 0 0 1
-5.934362 -28.586770 28.932085 41.103353 1.366112 0.789942 0.092095 -0.023372 -776136.000000 0 0 1
-7.051262 -29.344570 29.636765 42.298486 1.334975 0.794477 0.081016 -0.019657 -881750.000000 0 0 1
-8.207362 -29.430170 28.822365 42.002671 1.298830 0.814540 0.089897 -0.013351 280636.000000 0 0 1
-9.466362 -29.658170 29.421065 42.834777 1.261835 0.813650 0.082077 -0.014085 269230.000000 0 0 1
-9.620662 -30.870070 30.370805 44.361066 1.268686 0.816704 0.083575 -0.013470 -1166760.000000 0 0 1
-9.431362 -32.111170 29.744065 44.774850 1.285120 0.844235 0.098327 -0.016815 -291787.000000 0 0 1
-10.666062 -32.716370 29.509265 45.331253 1.255646 0.861935 0.097089 -0.015134 -616534.000000 0 0 1
-10.665662 33.850281 29.170575 45.940400 -1.265560 0.882832 0.106128 -0.016268 -245309.000000 0 0 1
-10.414262 33.039381 30.299495 46.023005 -1.265447 0.852165 0.114352 -0.019023 241712.000000 0 0 1
-10.226162 31.725781 29.919685 44.791597 -1.258981 0.839311 0.102684 -0.018650 -50447.100000 0 0 1
-11.013362 30.721581 30.797075 44.872815 -1.226579 0.814380 0.102543 -0.007099 -353040.000000 0 0 1
-12.392562 30.728581 30.491685 45.028482 -1.187456 0.826894 0.106611 0.003717 -212363.000000 0 0 1
-13.016062 29.523881 30.867795 44.653087 -1.155565 0.807537 0.104848 0.002062 -62965.000000 0 0 1
-13.127462 29.216281 32.413490 45.569241 -1.148508 0.779448 0.109580 -0.007018 -488320.000000 0 0 1
-13.962362 30.163981 33.101972 46.910062 -1.137282 0.787460 0.110068 -0.005982 400321.000000 0 0 1
-14.030062 29.880081 -33.396189 46.957080 -1.131808 2.362010 0.109861 -0.013097 -489306.000000 0 0 1
-15.163562 30.562081 -32.666719 47.234405 -1.110229 2.334481 0.105424 -0.011043 -448094.000000 0 0 1
-15.339862 30.074581 -31.335159 46.061741 -1.099133 2.318949 0.080330 -0.006532 618036.000000 0 0 1
-16.688562 30.267281 -30.873969 46.344562 -1.066900 2.299876 0.087425 -0.005051 944288.000000 0 0 1
-16.815362 29.601681 -29.457699 45.019685 -1.054198 2.284092 0.096089 -0.007931 79904.400000 0 0 1
-17.001562 28.238081 -29.527759 44.253033 -1.028849 2.301305 0.074052 -0.007370 16537.800000 0 0 1
-17.155562 27.730981 -28.175619 43.095083 -1.016782 2.283394 0.059460 -0.002966 29563.600000 0 0 1
-17.724362 26.273181 -28.104189 42.358925 -0.977309 2.296253 0.034219 -0.005751 899564.000000 0 0 1
-19.148162 26.159081 -28.233559 42.989342 -0.938922 2.287307 0.049077 -0.008362 709322.000000 0 0 1
-19.575262 24.845181 -27.797939 42.109374 -0.903483 2.291797 0.019876 -0.006803 -631050.000000 0 0 1
-21.039062 24.523181 -27.953419 42.724960 -0.861719 2.284006 0.032805 -0.002385 -327842.000000 0 0 1
-22.002562 25.078381 -27.009109 42.924701 -0.850636 2.251346 0.035011 -0.000224 -150151.000000 0 0 1
-23.241062 24.720881 -27.489989 43.668850 -0.816242 2.251719 0.052264 -0.005802 -711679.000000 0 0 1
-24.438362 24.756681 -26.503289 43.732724 -0.791869 2.221855 0.068586 -0.003921 145870.000000 0 0 1
-24.919062 26.035081 -26.184499 44.546752 -0.807297 2.199131 0.048887 0.005312 -686776.000000 0 0 1
-26.036622 25.973281 -25.368289 44.677367 -0.784180 2.174640 0.054536 0.008234 -399285.000000 0 0 1
-25.748042 25.675081 -23.850699 43.485944 -0.783979 2.151329 0.047648 0.018367 -414378.000000 0 0 1
-25.388512 24.299681 -23.500999 42.277039 -0.763488 2.160219 0.058967 0.012990 137447.000000 0 0 1
-26.483262 23.411981 -23.308599 42.341172 -0.723921 2.153753 0.069005 0.011014 521610.000000 0 0 1
-27.299932 23.515681 -21.944399 42.188034 -0.711065 2.117831 0.035531 0.011332 427447.000000 0 0 1
-26.593062 23.213481 -20.733099 40.937979 -0.717648 2.101861 0.048230 0.003598 226248.000000 0 0 1
-25.763842 24.271081 -20.256499 40.782186 -0.755573 2.090588 0.047906 0.017436 -233948.000000 0 0 1
-25.038862 23.878481 -18.997499 39.471907 -0.761681 2.072924 0.045578 0.012760 -374628.000000 0 0 1
-25.822672 23.794481 -17.803699 39.369524 -0.744544 2.040050 0.049034 0.012442 790099.000000 0 0 1
-24.971562 23.647081 -16.635999 38.203663 -0.758163 2.021341 0.063170 -0.002603 409010.000000 0 0 1
-25.784592 23.871081 -15.369399 38.352212 -0.746882 1.983125 0.075169 -0.005690 -462921.000000 0 0 1
-25.926672 25.191981 -14.973699 39.128505 -0.771027 1.963492 0.072461 -0.007536 -90322.800000 0 0 1
-26.622742 25.292681 -13.766399 39.217393 -0.759784 1.929465 0.044500 -0.012071 14565.600000 0 0 1
-26.361882 26.655481 -13.065799 39.701116 -0.790936 1.906151 0.042526 -0.008954 1298510.000000 0 0 1
-25.008062 26.787581 -12.560499 38.739435 -0.819741 1.900994 0.071804 -0.022191 1010090.000000 0 0 1
-24.903362 27.850781 -11.633899 39.130437 -0.841211 1.872671 0.084738 -0.023823 108979.000000 0 0 1
-23.385862 28.025481 -11.386899 38.235947 -0.875399 1.873190 0.103385 -0.034444 237933.000000 0 0 1
-22.766762 26.985281 -10.632699 36.872553 -0.869987 1.863314 0.103434 -0.028977 -512309.000000 0 0 1
-21.684362 27.409281 -9.876899 36.318500 -0.901486 1.846218 0.111032 -0.029512 -575162.000000 0 0 1
-20.809162 26.244081 -9.411599 34.790103 -0.900394 1.844735 0.140422 -0.037304 -436933.000000 0 0 1
-20.185962 25.632081 -10.510199 34.277412 -0.903707 1.882438 0.121995 -0.037472 25770.000000 0 0 1
-19.369562 24.583081 -9.992899 32.853704 -0.903463 1.879857 0.127411 -0.035654 -95227.400000 0 0 1
-18.753762 23.795481 -11.219499 32.307982 -0.903340 1.925452 0.125386 -0.043003 -346147.000000 0 0 1
-17.824062 22.911581 -10.669099 30.926808 -0.909646 1.923013 0.103466 -0.040336 -39553.900000 0 0 1
-17.364962 21.978381 -11.666799 30.343127 -0.902126 1.965458 0.117591 -0.026351 185294.000000 0 0 1
-16.946362 20.610581 -11.114699 28.905221 -0.882655 1.965487 0.110506 -0.017310 204667.000000 0 0 1
-18.054362 19.875681 -10.645999 28.884944 -0.833379 1.948262 0.105175 -0.012540 294518.000000 0 0 1
-17.579662 18.564481 -10.479199 27.631470 -0.812638 1.959781 0.125004 -0.025912 -434873.000000 0 0 1
-18.730562 17.523681 -10.525599 27.725469 -0.752121 1.960200 0.101615 -0.015167 246593.000000 0 0 1
-19.313962 17.234581 -11.791999 28.444880 -0.728566 1.998251 0.093852 -0.008132 -108116.000000 0 0 1
-20.148562 18.256681 -12.283699 29.835553 -0.736177 1.995130 0.092478 -0.008215 -906312.000000 0 0 1
-21.201962 17.763881 -13.267799 30.677568 -0.697393 2.018051 0.089380 -0.008986 -302892.000000 0 0 1
-20.570162 17.237881 -14.442799 30.477378 -0.697488 2.064495 0.103088 -0.017156 220271.000000 0 0 1
-21.408462 16.624781 -15.426899 31.188056 -0.660279 2.088218 0.091123 -0.017452 62954.000000 0 0 1
-20.645662 16.073081 -16.682299 31.030411 -0.661506 2.138398 0.114264 -0.026723 -1626.950000 0 0 1
-20.038162 17.171681 -17.336699 31.574606 -0.708514 2.152049 0.087080 -0.017495 -47559.700000 0 0 1
-19.211662 16.649181 -18.347599 31.351517 -0.714063 2.195950 0.083980 -0.020114 -286290.000000 0 0 1
-18.423762 17.741681 -19.095299 31.919159 -0.766540 2.212099 0.066150 -0.014974 387939.000000 0 0 1
-17.208562 18.249781 -18.527099 31.184011 -0.814754 2.206970 0.084782 -0.013306 868794.000000 0 0 1
-16.748462 19.513081 -18.975099 31.958187 -0.861492 2.206505 0.081448 -0.013887 93536.400000 0 0 1
33.905252 30.383181 2.613101 45.601887 0.730667 1.513462 0.094957 -0.015109 884685.000000 0 0 1
35.059352 30.103681 1.771201 46.244210 0.709494 1.532486 0.107397 -0.018656 939422.000000 0 0 1
35.130132 30.993281 0.702001 46.852988 0.722917 1.555813 0.093219 -0.008571 432880.000000 0 0 1
36.432482 31.129981 -0.170099 47.921086 0.707076 1.574346 0.065937 -0.001873 993812.000000 0 0 1
-36.714552 31.648281 0.577001 48.475819 -0.711425 1.558893 0.055081 -0.001481 1096400.000000 0 0 1
-35.478271 31.639481 -0.159399 47.537248 -0.728266 1.574149 0.058798 0.004712 890496.000000 0 0 1
-34.523536 32.838581 0.103501 47.647221 -0.760390 1.568624 0.052734 -0.003173 262139.000000 0 0 1
-33.938162 32.656081 1.394401 47.118604 -0.766148 1.541199 0.036938 0.000775 -3093.150000 0 0 1
-33.147152 33.733781 1.826101 47.329022 -0.794169 1.532204 0.037122 0.004003 -34050.400000 0 0 1
-32.435092 33.494181 3.191701 46.734167 -0.801461 1.502448 0.057890 0.012010 119391.000000 0 0 1
-31.777412 -33.401570 3.642101 46.246445 0.810311 1.491961 0.064661 0.009482 212393.000000 0 0 1
-31.346332 -33.617470 4.979901 46.233389 0.820344 1.462875 0.072339 0.004701 -349151.000000 0 0 1
-31.317622 -32.285070 5.790201 45.350255 0.800608 1.442770 0.075537 0.005369 1095070.000000 0 0 1
-32.578812 -31.769170 6.302501 45.938880 0.772817 1.433169 0.075111 0.004226 1190920.000000 0 0 1
-33.055362 -32.530070 7.422501 46.967605 0.777389 1.412097 0.077572 -0.011173 -867104.000000 0 0 1
-34.193464 -31.903970 8.221501 47.483148 0.750774 1.396774 0.098986 -0.011379 687877.000000 0 0 1
-35.504992 -31.639770 7.739101 48.182706 0.727896 1.409478 0.082738 -0.010180 242341.000000 0 0 1
-36.246052 -32.676670 7.215201 49.331533 0.733656 1.424010 0.074485 -0.011201 398369.000000 0 0 1
36.463282 -32.334370 7.086401 49.247330 -0.725455 1.426401 0.073397 -0.003375 1123010.000000 0 0 1
35.711312 -32.483070 8.265701 48.977234 -0.738095 1.401219 0.069197 -0.004155 146582.000000 0 0 1
34.341692 -32.225770 8.027101 47.773281 -0.753623 1.401971 0.056410 0.001836 233022.000000 0 0 1
33.427422 -32.722370 9.181001 47.670083 -0.774740 1.376991 0.072453 -0.011856 278660.000000 0 0 1
32.028352 -32.657770 8.912701 46.602377 -0.795128 1.378361 0.066022 -0.014684 979347.000000 0 0 1
31.153602 -32.632470 10.044001 46.220201 -0.808579 1.351741 0.067076 -0.019955 236394.000000 0 0 1
31.224112 -31.459170 11.056701 45.682329 -0.789148 1.326334 0.067396 -0.012042 -685566.000000 0 0 1
30.592122 -30.230070 10.731301 44.327146 -0.779446 1.326274 0.039791 -0.006717 156594.000000 0 0 1
31.060122 -29.557870 9.576301 43.932953 -0.760621 1.351057 0.043680 -0.014926 -322030.000000 0 0 1
30.359482 -28.234070 9.190701 42.465631 -0.749140 1.352643 0.038502 -0.016796 -269986.000000 0 0 1
30.781792 -27.647470 7.983601 42.138334 -0.731806 1.380182 0.040620 -0.019599 -53229.700000 0 0 1
30.246252 -26.346970 7.925401 40.887780 -0.716607 1.375729 0.049463 -0.022030 -14673.300000 0 0 1
30.188902 -25.800070 6.496301 40.239475 -0.707171 1.408646 0.041140 -0.017825 -716600.000000 0 0 1
31.467142 -25.525070 6.062401 40.969048 -0.681512 1.422276 0.054666 -0.023740 -1010010.000000 0 0 1
31.456632 -24.908870 4.801101 40.410668 -0.669750 1.451707 0.042304 -0.019234 103584.000000 0 0 1
32.811612 -24.344370 4.316901 41.083888 -0.638325 1.465527 0.057314 -0.022454 1032850.000000 0 0 1
33.827602 -25.312770 3.908201 42.430143 -0.642404 1.478557 0.058311 -0.016306 494886.000000 0 0 1
35.094532 -24.692670 3.903601 43.088191 -0.613141 1.480076 0.068578 -0.018313 -166410.000000 0 0 1
36.221212 -25.702070 3.697601 44.567307 -0.617131 1.487734 0.069360 -0.014786 -298082.000000 0 0 1
36.169292 -26.511370 4.883901 45.110120 -0.632519 1.462318 0.053043 -0.010874 -558463.000000 0 0 1
37.106852 -27.532270 4.915601 46.466197 -0.638344 1.464809 0.060335 -0.009296 -1005720.000000 0 0 1
36.643132 -28.638170 5.930401 46.883191 -0.663385 1.443963 0.063137 -0.005175 567077.000000 0 0 1
35.433232 -29.361470 5.694801 46.368530 -0.691963 1.447669 0.028675 -0.001767 1068330.000000 0 0 1
34.293522 -28.487870 5.940501 44.976593 -0.693186 1.438329 0.037909 -0.013966 -279225.000000 0 0 1
32.976212 -29.194570 6.339101 44.496491 -0.724646 1.427847 0.053850 -0.015073 199857.000000 0 0 1
32.332012 -29.954370 5.313501 44.394330 -0.747244 1.450820 0.031289 -0.014373 576603.000000 0 0 1
31.475702 -29.151270 4.461901 43.132643 -0.747077 1.467165 0.036473 -0.017398 144746.000000 0 0 1
30.053322 -29.657470 4.139401 42.425256 -0.778769 1.473072 0.038908 -0.016978 325677.000000 0 0 1
30.082902 -30.920770 3.474401 43.279862 -0.799132 1.490432 0.044307 -0.011484 -608434.000000 0 0 1
28.759722 -31.373070 3.433901 42.698745 -0.828830 1.490288 0.060328 -0.015035 -152698.000000 0 0 1
28.576922 -32.757270 2.836001 43.562852 -0.853450 1.505649 0.071495 -0.014994 -142845.000000 0 0 1
28.554722 -32.699070 1.393201 43.434345 -0.852954 1.538715 0.066347 -0.007998 208890.000000 0 0 1
28.432822 -33.986470 0.891301 44.320423 -0.874138 1.550685 0.066790 -0.007826 -128447.000000 0 0 1
28.041922 -33.958570 -0.581199 44.043974 -0.880539 1.583993 0.062158 -0.009553 -460884.000000 0 0 1
29.115022 -33.582370 -1.403099 44.468289 -0.856530 1.602354 0.064017 -0.004263 98338.200000 0 0 1
28.889822 -33.879370 -2.765799 44.610348 -0.864722 1.632835 0.055937 -0.003402 -369541.000000 0 0 1
29.976142 -33.304570 -3.672099 44.958289 -0.837948 1.652565 0.046684 0.004261 -195278.000000 0 0 1
30.129592 -31.919370 -3.638199 44.044012 -0.814235 1.653494 0.034718 0.000416 347682.000000 0 0 1
30.909242 -31.534970 -4.785699 44.415521 -0.795418 1.678754 0.024740 0.005821 -55625.700000 0 0 1
31.386162 -30.042970 -4.730899 43.704149 -0.763536 1.679257 0.002118 0.013586 -942436.000000 0 0 1
30.385852 -29.067070 -4.893999 42.333743 -0.763220 1.686661 0.006955 -0.010455 -153150.000000 0 0 1
30.822392 -27.690370 -4.887899 41.721314 -0.731922 1.688222 -0.004079 -0.011168 47399.400000 0 0 1
31.874962 -27.102170 -5.874499 42.249859 -0.704648 1.710290 0.005666 -0.012164 -217714.000000 0 0 1
33.158472 -27.596670 -5.633799 43.506323 -0.694108 1.700655 0.008494 0.000663 -502832.000000 0 0 1
34.158172 -27.351970 -6.593799 44.253691 -0.675195 1.720353 0.023467 -0.007180 15940.300000 0 0 1
34.207002 -28.268870 -7.786999 45.054249 -0.690636 1.744505 0.028943 -0.008577 -1215510.000000 0 0 1
33.169502 -28.037870 -8.675699 44.290019 -0.701754 1.767955 0.017189 -0.005463 -507389.000000 0 0 1
33.079152 -28.931670 -9.813999 45.028729 -0.718614 1.790510 0.019044 0.002217 74516.800000 0 0 1
32.868622 -30.418470 -9.500199 45.780819 -0.746703 1.779830 0.013176 -0.004170 -481666.000000 0 0 1
33.956532 -31.033370 -8.875599 46.849679 -0.740450 1.761397 0.026445 0.006571 -815044.000000 0 0 1
33.628072 -32.222270 -8.227299 47.294930 -0.764053 1.745643 0.036257 -0.005621 -469362.000000 0 0 1
34.781482 -32.971870 -7.592799 48.523668 -0.758696 1.727918 0.024481 -0.008658 -471373.000000 0 0 1
34.449122 33.875481 -6.928399 48.808739 0.777003 1.713227 0.026293 -0.003638 -121904.000000 0 0 1
34.095242 34.021781 -5.557099 48.485549 0.784320 1.685662 0.031419 0.002991 -10181.400000 0 0 1
33.880672 32.649781 -4.902999 47.306951 0.766899 1.674625 0.026880 0.000081 74672.200000 0 0 1
32.752502 32.037081 -5.500899 46.144998 0.774356 1.690289 0.050790 -0.011573 185673.000000 0 0 1
32.590022 30.726081 -4.970099 45.065547 0.755968 1.681307 0.059003 -0.004881 -35866.200000 0 0 1
31.390072 29.990181 -5.580299 43.770851 0.762595 1.698633 0.073964 -0.010561 -130259.000000 0 0 1
31.541022 29.730881 -6.941399 43.896975 0.755864 1.729592 0.054838 -0.011722 1105150.000000 0 0 1
30.268082 29.200881 -7.404599 42.704524 0.767455 1.745069 0.037838 -0.009043 1251500.000000 0 0 1
30.239142 28.871181 -8.938399 42.753314 0.762260 1.781419 0.040280 -0.008829 -304441.000000 0 0 1
31.057962 27.754481 -9.224699 42.661497 0.729287 1.788748 0.054173 -0.013350 124249.000000 0 0 1
31.303702 27.602981 -10.651399 43.073178 0.722657 1.820675 0.045582 -0.011181 -77327.000000 0 0 1
32.602522 28.306081 -11.033199 44.563328 0.714976 1.820983 0.060613 -0.018954 -345556.000000 0 0 1
33.864892 27.731881 -10.615799 45.039798 0.686158 1.808733 0.060805 -0.024664 1927110.000000 0 0 1
35.032682 28.456981 -11.053099 46.467834 0.682195 1.810964 0.069838 -0.026061 755194.000000 0 0 1
35.182312 29.875181 -10.516199 47.338272 0.704002 1.794815 0.060961 -0.029508 -1089210.000000 0 0 1
35.763022 29.955681 -9.180999 47.546055 0.697260 1.765114 0.060542 -0.019227 423633.000000 0 0 1
35.666672 31.263181 -8.620199 48.205870 0.719700 1.750584 0.046377 -0.016011 -135421.000000 0 0 1
36.647942 31.452281 -7.384999 48.855459 0.709251 1.722538 0.045536 -0.007680 472133.000000 0 0 1
-36.229892 31.485181 -7.651999 48.605296 -0.715444 1.728885 0.049315 -0.016877 -604927.000000 0 0 1
-35.546313 30.305381 -7.909199 47.376281 -0.705979 1.738526 0.054217 -0.020505 -13286.500000 0 0 1
-34.090324 30.520781 -8.454899 46.531211 -0.730208 1.753515 0.085094 -0.031602 549189.000000 0 0 1
-33.340662 31.335981 -7.541799 46.372645 -0.754413 1.734157 0.061097 -0.029753 191973.000000 0 0 1
-32.016852 31.537681 -7.999499 45.647521 -0.777859 1.746951 0.071126 -0.046552 132057.000000 0 0 1
-31.808272 32.788081 -8.927099 46.545865 -0.800565 1.763783 0.045678 -0.040467 -547306.000000 0 0 1
-31.959452 -34.039670 -8.267999 47.417987 0.816907 1.746056 0.036058 -0.025514 -140517.000000 0 0 1
-30.938462 -33.586670 -7.392399 46.259057 0.826417 1.731289 0.067587 -0.019778 -171872.000000 0 0 1
-31.209012 -32.243870 -6.716399 45.373777 0.801706 1.719366 0.047441 -0.028045 -56965.600000 0 0 1
-32.176482 -32.233070 -5.665499 45.895476 0.786277 1.694556 0.043099 -0.022547 205130.000000 0 0 1
-31.820422 -32.968870 -4.489399 46.039552 0.803122 1.668463 0.053602 -0.015184 318217.000000 0 0 1
-32.977542 -32.955170 -3.424499 46.747072 0.785059 1.644118 0.048957 -0.011733 303954.000000 0 0 1
-33.249862 -31.704070 -2.873099 46.032120 0.761604 1.633252 0.048428 -0.011623 -138495.000000 0 0 1
-34.204678 -31.705370 -1.844099 46.675381 0.747496 1.610316 0.055044 -0.007247 -109124.000000 0 0 1
-34.922253 -30.358970 -1.615599 46.301630 0.715610 1.605696 0.070432 0.000774 629215.000000 0 0 1
-35.765981 -30.340570 -0.431899 46.903541 0.703511 1.580005 0.057920 0.008496 -39561.400000 0 0 1
-36.229002 -29.086970 -0.183699 46.461018 0.676485 1.574750 0.068336 0.000845 -383176.000000 0 0 1
37.049952 -28.958470 0.986701 47.034727 -0.663424 1.549817 0.053712 0.005409 51213.100000 0 0 1
35.862932 -29.760970 0.781001 46.609819 -0.692681 1.554039 0.026042 0.014281 1274600.000000 0 0 1
34.917742 -29.706370 1.895701 45.883666 -0.704931 1.529469 0.023315 0.006613 847358.000000 0 0 1
34.107802 -28.389970 2.016601 44.422958 -0.694164 1.525385 0.006610 0.013048 -853438.000000 0 0 1
33.058932 -28.331670 1.057901 43.551070 -0.708547 1.546503 -0.003144 0.005963 -19880.500000 0 0 1
32.429202 -27.086970 1.181201 42.269993 -0.695877 1.542849 -0.007399 0.006674 -34086.000000 0 0 1
31.147922 -27.010070 0.310901 41.229038 -0.714369 1.563255 -0.004825 -0.017727 -97562.100000 0 0 1
30.014922 -27.725970 0.775201 40.868397 -0.745777 1.551827 0.000378 -0.001803 225999.000000 0 0 1
29.828042 -29.095070 0.360601 41.669716 -0.772959 1.562142 0.007354 -0.000091 -138885.000000 0 0 1
29.542892 -29.390670 -1.171299 41.688918 -0.782815 1.598896 0.021662 -0.009224 -311806.000000 0 0 1
28.227022 -29.127470 -1.580599 40.591533 -0.801097 1.609745 0.032066 -0.004986 -94991.600000 0 0 1
28.087822 -29.525570 -2.903199 40.854787 -0.810348 1.641918 0.037683 -0.006133 108596.000000 0 0 1
26.629422 -29.969570 -3.249099 40.222604 -0.844344 1.651662 0.067431 -0.017543 930916.000000 0 0 1
25.651022 -28.927570 -3.079099 38.784792 -0.845360 1.650269 0.066008 -0.017137 133877.000000 0 0 1
24.438822 -29.392170 -3.614599 38.395586 -0.877156 1.665077 0.060337 -0.018245 -541015.000000 0 0 1
23.262922 -28.434870 -3.650699 36.919277 -0.885108 1.669841 0.073200 -0.018541 -325726.000000 0 0 1
23.232022 -27.649270 -4.801799 36.431666 -0.871996 1.702984 0.081423 -0.022302 157625.000000 0 0 1
22.553922 -26.434470 -4.539199 35.043757 -0.864447 1.700691 0.097206 -0.027994 -662695.000000 0 0 1
21.934422 -25.719970 -5.667299 34.274685 -0.864669 1.736909 0.101308 -0.041694 -1077900.000000 0 0 1
20.707422 -26.270570 -6.032399 33.990146 -0.903270 1.749216 0.091408 -0.029481 -729628.000000 0 0 1
20.139722 -25.481670 -7.042099 33.234245 -0.901960 1.784308 0.108139 -0.031588 -748055.000000 0 0 1
18.676522 -25.708570 -7.375699 32.621220 -0.942525 1.798870 0.088356 -0.024632 -303982.000000 0 0 1
17.826622 -24.993770 -6.475099 31.375212 -0.951238 1.778666 0.075250 -0.025335 -345052.000000 0 0 1
16.468722 -25.204470 -6.742599 30.853634 -0.992031 1.791109 0.060215 -0.023324 -282031.000000 0 0 1
15.608122 -24.245370 -5.870399 29.426400 -0.998823 1.771638 0.050064 -0.016935 -367454.000000 0 0 1
15.635222 -24.666470 -4.525099 29.552858 -1.005847 1.724520 0.045415 -0.017696 233073.000000 0 0 1
15.026322 -23.758170 -3.629599 28.344576 -1.006844 1.699202 0.053193 -0.018488 -169431.000000 0 0 1
15.090222 -24.280470 -2.165499 28.669590 -1.014720 1.646401 0.060803 -0.023978 -47932.300000 0 0 1
14.398922 -25.492870 -1.971299 29.344529 -1.056645 1.638025 0.068021 -0.020475 306468.000000 0 0 1
15.336022 -26.453670 -1.555799 30.617164 -1.045414 1.621633 0.077254 -0.024626 -436.687000 0 0 1
14.776822 -27.915270 -1.656299 31.628470 -1.083949 1.623188 0.072099 -0.022359 494749.000000 0 0 1
13.671622 -28.166870 -0.790899 31.319504 -1.118913 1.596052 0.101788 -0.026551 635225.000000 0 0 1
12.834222 -29.296070 -1.094099 32.002719 -1.157893 1.604991 0.104633 -0.026212 280861.000000 0 0 1
13.343622 -30.678770 -0.720599 33.462792 -1.160531 1.592332 0.082954 -0.025314 -498504.000000 0 0 1
14.454022 -31.115470 -1.449799 34.339382 -1.135926 1.613029 0.064557 -0.015474 -340490.000000 0 0 1
14.906522 -32.422770 -1.118199 35.702812 -1.139860 1.602121 0.069609 -0.018313 -808166.000000 0 0 1
16.343222 -32.601270 -1.604799 36.503686 -1.106104 1.614773 0.058517 -0.008101 -586999.000000 0 0 1
17.157522 -31.642870 -0.948199 36.007650 -1.073943 1.597133 0.052422 -0.004980 -890211.000000 0 0 1
18.361222 -31.520170 -1.626199 36.514382 -1.043327 1.615347 0.048510 -0.010491 -830247.000000 0 0 1
19.249022 -30.422770 -0.970799 36.014056 -1.006667 1.597756 0.055593 -0.008745 -149298.000000 0 0 1
18.909522 -29.138170 -1.324999 34.761453 -0.995152 1.608922 0.055284 -0.009962 237389.000000 0 0 1
19.609922 -28.236970 -0.471999 34.381656 -0.963787 1.584525 0.056563 -0.009313 135283.000000 0 0 1
19.291322 -26.754270 -0.820099 32.994221 -0.946078 1.595655 0.061212 -0.016107 -294064.000000 0 0 1
19.846022 -26.343970 -2.056999 33.046945 -0.925160 1.633081 0.069741 -0.023368 -105049.000000 0 0 1
19.013122 -26.427470 -3.166999 32.709935 -0.947139 1.667769 0.067569 -0.019645 -520500.000000 0 0 1
32.548092 -29.076270 13.642501 45.726640 -0.729119 1.267834 0.070962 -0.030519 -40767.900000 0 0 1
33.612192 -29.672270 14.343201 47.073883 -0.723221 1.261178 0.107889 -0.021189 -14299.900000 0 0 1
33.196912 -29.928770 15.678001 47.366296 -0.733672 1.233439 0.090696 -0.018457 463711.000000 0 0 1
34.179862 -30.740370 16.619901 48.882046 -0.732467 1.223879 0.097028 -0.016117 -29786.100000 0 0 1
33.648812 -31.092970 17.878101 49.179689 -0.745941 1.198746 0.096249 -0.021318 -54612.400000 0 0 1
34.593392 -31.479870 18.847401 50.427269 -0.738311 1.187743 0.073452 -0.018092 -441292.000000 0 0 1
35.286232 -32.827370 18.632101 51.671168 -0.749314 1.201896 0.067580 -0.015249 -64500.500000 0 0 1
36.397922 -32.716070 17.740301 52.056395 -0.732176 1.223039 0.080614 -0.016262 280972.000000 0 0 1
37.003272 -33.996870 17.615501 53.247865 -0.743080 1.233623 0.063276 -0.013932 -1065960.000000 0 0 1
-36.055300 -33.982870 16.716101 52.290039 0.755817 1.245404 0.071657 -0.025141 -1019410.000000 0 0 1
-34.997063 -33.221970 17.249701 51.244959 0.759384 1.227479 0.054715 -0.025118 -229415.000000 0 0 1
-34.022432 -32.944370 16.276201 50.077661 0.769301 1.239764 0.086945 -0.029380 -1266180.000000 0 0 1
-32.830392 -32.248970 16.902401 49.025726 0.776464 1.218807 0.077626 -0.026174 -1006310.000000 0 0 1
-31.641372 -32.257870 16.188601 47.998098 0.795046 1.226775 0.088218 -0.034539 -506536.000000 0 0 1
-31.594402 -31.384970 15.104101 47.025062 0.782073 1.243808 0.093998 -0.039296 -793045.000000 0 0 1
-30.276922 -31.439770 14.310101 45.933976 0.804238 1.253987 0.064982 -0.041446 -701639.000000 0 0 1
-29.187062 -30.991470 15.043701 45.151619 0.815373 1.231120 0.065668 -0.041872 -971978.000000 0 0 1
-28.172622 -30.848970 14.073101 44.084098 0.830712 1.245876 0.051096 -0.027673 411247.000000 0 0 1
-26.868372 -30.177770 14.656901 42.981763 0.843346 1.222813 0.055681 -0.027752 959349.000000 0 0 1
-25.741432 -30.346070 13.810201 42.121573 0.867312 1.236753 0.047478 -0.019118 141399.000000 0 0 1
-24.561562 -29.957470 14.516801 41.369770 0.884050 1.212260 0.043510 -0.019434 151105.000000 0 0 1
-23.327162 -30.117570 13.605901 40.451762 0.911776 1.227759 0.031974 -0.011133 -133592.000000 0 0 1
-22.889962 -31.409370 13.300601 41.078034 0.941027 1.241065 0.033359 -0.020349 -745827.000000 0 0 1
-21.676462 -31.359570 12.651401 40.166523 0.965985 1.250367 0.022965 -0.017172 -854156.000000 0 0 1
-21.314662 -32.751970 12.132601 40.917067 0.993866 1.269753 0.013741 -0.013395 165916.000000 0 0 1
-22.030562 -33.215170 10.953801 41.334960 0.985150 1.302591 0.013994 -0.013922 361593.000000 0 0 1
-22.111862 33.477081 11.076301 41.621315 -0.987070 1.301430 0.026265 -0.006696 70632.900000 0 0 1
-23.185962 32.929681 10.104401 41.521701 -0.957320 1.324976 0.023819 0.004747 -128737.000000 0 0 1
-22.831262 32.917781 8.704301 40.995264 -0.964389 1.356843 0.019432 0.004110 517044.000000 0 0 1
-24.006862 32.934081 7.891701 41.512192 -0.940913 1.379527 0.041250 0.002424 -113837.000000 0 0 1
-23.734962 33.511781 6.459501 41.570579 -0.954550 1.414778 0.043222 0.003354 -789125.000000 0 0 1
-22.970862 32.674681 5.616701 40.334137 -0.958048 1.431088 0.033934 0.005180 947199.000000 0 0 1
-21.554062 32.736481 5.845901 39.628643 -0.988531 1.422739 0.026817 0.002765 296639.000000 0 0 1
-20.736462 33.992181 5.447001 40.188793 -1.023030 1.434843 0.019927 0.006852 -746678.000000 0 0 1
-20.818762 -33.017570 6.373401 39.549981 1.008226 1.408943 0.015262 -0.001507 384253.000000 0 0 1
-20.121162 -33.288470 7.601801 39.632950 1.027112 1.377795 0.018781 -0.004098 -254409.000000 0 0 1
-20.222662 -32.103970 8.529501 38.889244 1.008673 1.349671 0.019654 -0.017794 -275317.000000 0 0 1
-19.516862 -30.896270 8.217001 37.456728 1.007401 1.349624 0.033918 -0.032862 -71308.500000 0 0 1
-19.552562 -29.839370 9.173801 36.835435 0.990732 1.319099 0.041385 -0.032393 -338407.000000 0 0 1
-18.886162 -30.134270 10.515701 37.085594 1.010951 1.283300 0.023852 -0.020543 -88600.600000 0 0 1
-17.520462 -30.487270 10.385501 36.664681 1.049202 1.283609 0.035895 -0.035158 -345415.000000 0 0 1
-16.871162 -30.529070 11.619801 36.765201 1.065939 1.249229 0.063537 -0.036789 101744.000000 0 0 1
-15.460062 -31.136170 11.380201 36.578457 1.109928 1.254428 0.064457 -0.037589 96643.900000 0 0 1
-14.473562 -30.299170 10.828401 35.281411 1.125157 1.258846 0.067720 -0.036010 -338411.000000 0 0 1
-13.426562 -31.120170 10.347801 35.437473 1.163482 1.274477 0.075120 -0.025572 228027.000000 0 0 1
-12.298062 -30.235770 9.731401 34.060890 1.184494 1.281053 0.091226 -0.028629 238387.000000 0 0 1
-11.453262 -29.630970 10.665301 33.510002 1.201956 1.246890 0.102095 -0.039863 -384874.000000 0 0 1
-10.331462 -28.994170 10.111401 32.398170 1.228494 1.253396 0.097147 -0.038971 550844.000000 0 0 1
-9.253562 -28.464770 11.097601 31.922222 1.256485 1.215738 0.089842 -0.030571 428737.000000 0 0 1
-9.697862 -27.330070 11.738401 31.285321 1.229814 1.186179 0.087691 -0.038124 -805965.000000 0 0 1
-8.852162 -27.051370 12.778301 31.199717 1.254544 1.148820 0.066121 -0.023043 -902211.000000 0 0 1
-9.045562 -25.673470 13.483901 30.377044 1.232046 1.110867 0.068940 -0.028072 -113606.000000 0 0 1
-8.656462 -24.548070 12.747701 28.983546 1.231778 1.115392 0.056034 -0.028211 -53435.500000 0 0 1
-9.549062 -24.156870 11.708301 28.492512 1.194354 1.147327 0.058886 -0.022707 178926.000000 0 0 1
-9.008162 -22.910870 11.010701 26.968323 1.196181 1.150224 0.057668 -0.025145 -174072.000000 0 0 1
-7.893262 -23.125770 10.189901 26.475250 1.241876 1.175714 0.043043 -0.024579 -398830.000000 0 0 1
-7.314462 -21.876770 9.827401 25.073337 1.248133 1.168050 0.053285 -0.014745 733841.000000 0 0 1
-6.024462 -21.851870 8.914301 24.356993 1.301784 1.196105 0.045598 -0.018758 722215.000000 0 1 0
-4.943762 -22.439670 9.587201 24.897670 1.353947 1.175519 0.025451 -0.026369 175679.000000 0 1 0
-3.798262 -22.625070 8.718701 24.542541 1.404469 1.207616 0.034341 -0.021801 529493.000000 0 1 0
-2.699562 -23.451570 9.368501 25.397491 1.456189 1.192998 0.036719 -0.023898 -86550.500000 0 0 1
-2.028362 -22.661870 10.359001 24.999670 1.481529 1.143551 0.037497 -0.021219 -222457.000000 0 1 0
-1.000162 -23.384070 10.989401 25.856952 1.528051 1.131826 0.049880 -0.028506 -10056.200000 0 0 1
-0.079062 -22.678570 11.965901 25.641891 1.567310 1.085292 0.056678 -0.024578 -547680.000000 0 0 1
-0.714562 -22.439870 13.231401 26.060090 1.538964 1.038252 0.056134 -0.026575 -281745.000000 0 0 1
0.085838 -22.083470 14.333401 26.327426 -1.566909 0.995089 0.089223 -0.033580 -282634.000000 0 0 1
0.728138 -20.634470 14.291201 25.110753 -1.535524 0.965353 0.072547 -0.035177 454476.000000 0 0 1
1.798038 -20.582770 13.336801 24.591738 -1.483661 0.997590 0.076711 -0.039123 229218.000000 0 1 0
2.369238 -19.267570 13.241301 23.498608 -1.448445 0.972188 0.066598 -0.034201 -922670.000000 0 1 0
3.816038 -19.246770 12.851201 23.455354 -1.375066 0.990944 0.081531 -0.030147 -880039.000000 0 1 0
4.144138 -19.831670 11.585901 23.338854 -1.364795 1.051325 0.074409 -0.023492 -1408100.000000 0 1 0
5.512638 -19.972070 11.504401 23.698607 -1.301485 1.063923 0.090254 -0.025006 -915191.000000 0 1 0
5.986838 -20.580570 10.199601 23.736763 -1.287711 1.126640 0.092806 -0.033880 -452756.000000 0 1 0
6.065538 -19.754470 9.050201 22.559609 -1.272888 1.158004 0.078071 -0.033263 -479636.000000 0 1 0
6.235538 -20.538870 7.855501 22.856859 -1.276043 1.219961 0.077543 -0.041532 -177086.000000 0 1 0
7.606038 -21.207670 7.584001 23.772550 -1.226440 1.246097 0.089618 -0.028189 180089.000000 0 1 0
8.618238 -20.341470 7.046601 23.188445 -1.170046 1.262029 0.087436 -0.030818 336618.000000 0 1 0
9.352138 -19.523370 7.960601 23.065030 -1.124071 1.218411 0.094319 -0.017803 510820.000000 0 1 0
10.173138 -20.134970 9.135101 24.338443 -1.102960 1.186037 0.071000 -0.012218 -169636.000000 0 1 0
9.369438 -20.232270 10.260501 24.544021 -1.137107 1.139504 0.095100 -0.022085 -390350.000000 0 1 0
9.980338 -19.577070 11.346101 24.730604 -1.099342 1.094166 0.082444 -0.019000 153219.000000 0 1 0
9.242538 -19.882270 12.664001 25.320072 -1.135651 1.047017 0.093305 -0.023236 68806.300000 0 0 1
9.430838 -21.173670 13.071201 26.610548 -1.151771 1.057325 0.095383 -0.026918 -178522.000000 0 0 1
8.592238 -21.481770 14.168701 27.130150 -1.190309 1.021310 0.109677 -0.022347 317761.000000 0 0 1
8.769538 -22.927770 14.678201 28.601346 -1.205479 1.031888 0.100435 -0.031602 253691.000000 0 0 1
8.453338 -23.912270 13.693201 28.822895 -1.230994 1.075741 0.107296 -0.031400 -226293.000000 0 0 1
8.027338 -25.087570 14.374101 30.007317 -1.261118 1.071259 0.113637 -0.029327 263577.000000 0 0 1
7.968438 -26.256670 13.416601 30.543639 -1.276148 1.116021 0.121258 -0.031427 457631.000000 0 0 1
9.252238 -26.535870 12.863601 30.906771 -1.235308 1.141527 0.116772 -0.025105 293640.000000 0 0 1
9.335338 -27.661370 11.955301 31.547252 -1.245313 1.182119 0.117730 -0.025764 -851495.000000 0 0 1
10.745238 -27.850970 11.447101 31.971437 -1.202581 1.204627 0.111902 -0.021190 -666064.000000 0 0 1
11.647638 -28.463870 12.357101 33.144491 -1.182377 1.188744 0.086653 -0.016958 -257855.000000 0 0 1
12.824238 -28.805070 11.665801 33.619697 -1.151935 1.216433 0.108694 -0.020033 -129835.000000 0 0 1
13.784238 -29.543070 12.657301 34.971495 -1.134239 1.200457 0.087071 -0.017900 -737981.000000 0 0 1
14.370038 -28.683570 13.562301 34.830750 -1.106361 1.170841 0.071579 -0.010726 -190053.000000 0 0 1
15.226938 -29.267370 14.505601 36.039576 -1.091064 1.156560 0.073548 -0.008797 1232080.000000 0 0 1
16.694338 -29.627870 14.008301 36.779669 -1.057672 1.180058 0.073393 -0.009129 1062040.000000 0 0 1
17.471538 -28.459870 13.672801 36.085513 -1.020218 1.182189 0.067266 -0.015222 -436072.000000 0 0 1
18.813838 -28.693170 13.427001 36.844848 -0.990431 1.197786 0.046434 -0.005515 -780606.000000 0 0 1
19.568038 -27.374770 13.055601 36.093418 -0.950193 1.200687 0.033256 -0.006894 -337637.000000 0 0 1
20.793038 -27.774670 12.504301 36.880079 -0.928171 1.224886 0.018909 -0.006864 -397717.000000 0 0 1
21.604638 -26.630070 12.268401 36.420250 -0.889211 1.227220 0.020047 -0.005648 806464.000000 0 0 1
23.024838 -26.935770 11.676801 37.309871 -0.863519 1.252480 0.020958 -0.003169 978111.000000 0 0 1
23.934538 -27.548470 12.574501 38.599201 -0.855480 1.238969 0.028320 -0.006551 720469.000000 0 0 1
25.161738 -28.012070 12.010601 39.522697 -0.838951 1.262022 0.014059 -0.012677 -70388.000000 0 0 1
26.142038 -28.699370 12.984001 40.934634 -0.831996 1.248033 0.026790 -0.006425 611882.000000 0 0 1
27.166038 -27.865470 13.603801 41.225494 -0.798107 1.234508 0.021157 -0.007397 1760800.000000 0 0 1
28.283038 -27.625670 12.684801 41.521224 -0.773641 1.260331 0.011795 -0.007814 124479.000000 0 0 1
29.467338 -26.985370 13.417101 42.149173 -0.741461 1.246835 0.046981 -0.015156 -577297.000000 0 0 1
29.337738 -25.636570 13.691601 41.296446 -0.718174 1.232856 0.056911 -0.019052 -39176.200000 0 0 1
28.582338 -25.246470 14.834201 40.919284 -0.723506 1.199822 0.054803 -0.016743 -837987.000000 0 0 1
29.335638 -25.201970 16.140201 41.907338 -0.709748 1.175437 0.066672 -0.017011 -641470.000000 0 0 1
29.801038 -26.469170 16.545601 43.156410 -0.726255 1.177336 0.077037 -0.011564 250749.000000 0 0 1
30.550138 -26.327770 17.767501 44.069791 -0.711298 1.155821 0.103988 -0.005629 406746.000000 0 0 1
30.901038 -27.587670 18.545401 45.385962 -0.728809 1.149860 0.106764 -0.008210 532620.000000 0 0 1
29.741438 -28.165870 19.162701 45.222543 -0.758196 1.133224 0.070686 -0.009548 495299.000000 0 0 1
30.055638 -29.216270 20.012301 46.448078 -0.771238 1.125358 0.096478 -0.007486 -121001.000000 0 0 1
28.833338 -30.046070 20.455001 46.395417 -0.805992 1.114213 0.088364 -0.017072 -475239.000000 0 0 1
27.871838 -29.356470 21.233801 45.711223 -0.811335 1.087703 0.098185 -0.011314 931814.000000 0 0 1
26.652538 -30.048470 21.524001 45.569188 -0.845219 1.078856 0.106187 -0.018996 967732.000000 0 0 1
25.658838 -30.339470 20.355501 44.645333 -0.868790 1.097371 0.107000 -0.026411 -923024.000000 0 0 1
25.926338 -31.578370 19.726201 45.370601 -0.883372 1.121003 0.090658 -0.025429 8159.520000 0 0 1
25.355938 -31.939470 18.470801 44.768558 -0.899801 1.145507 0.083550 -0.016626 -408010.000000 0 0 1
25.846938 -31.185670 17.202701 44.006171 -0.878735 1.169170 0.076518 -0.007084 148592.000000 0 0 1
27.196838 -31.465870 16.854801 44.875976 -0.858043 1.185767 0.078852 -0.023905 616822.000000 0 0 1
27.735238 -30.437470 15.998701 44.177385 -0.831817 1.200226 0.077217 -0.028721 -843637.000000 0 0 1
28.857238 -30.879670 15.129501 44.890934 -0.819241 1.227038 0.076427 -0.028971 -1108030.000000 0 0 1
28.597038 -31.839270 14.061601 45.047289 -0.838994 1.253339 0.079095 -0.020779 180280.000000 0 0 1
28.512938 -33.195270 14.500101 46.099528 -0.861132 1.250825 0.044600 -0.021978 -200779.000000 0 0 1
27.942838 33.936281 13.380901 45.951299 0.881954 1.275318 0.069975 -0.025634 -96866.100000 0 0 1
28.611938 33.825881 12.140301 45.937132 0.868711 1.303338 0.079425 -0.027115 129943.000000 0 0 1
27.919438 32.913981 11.323201 44.621072 0.867316 1.314227 0.069543 -0.029285 -661435.000000 0 0 1
28.634438 32.429881 10.087401 44.422785 0.847473 1.341721 0.071443 -0.028058 -185276.000000 0 0 1
29.807438 31.660481 10.358701 44.700918 0.815536 1.336937 0.080563 -0.039268 517233.000000 0 0 1
30.239938 31.005081 9.201701 44.276858 0.797891 1.361449 0.085701 -0.041450 -1062830.000000 0 0 1
31.637838 30.477481 9.401901 44.924663 0.766720 1.359956 0.077284 -0.040125 -936623.000000 0 0 1
31.740038 29.579981 10.489301 44.636652 0.750187 1.333585 0.074511 -0.036369 -43651.000000 0 0 1
33.126538 29.495481 10.711701 45.629940 0.727479 1.333833 0.085503 -0.028679 5745.860000 0 0 1
33.593538 28.605781 11.888801 45.696390 0.705380 1.307599 0.083103 -0.023013 -130060.000000 0 0 1
33.340738 27.231181 11.673401 44.602806 0.684874 1.305993 0.074993 -0.021270 221106.000000 0 0 1
33.520438 26.593681 12.917601 44.695727 0.670677 1.277602 0.077930 -0.026319 -188425.000000 0 0 1
33.241338 25.094181 12.825701 43.579847 0.646635 1.272070 0.063878 -0.025007 503259.000000 0 0 1
34.311938 24.432181 12.126401 43.832524 0.618775 1.290487 0.076445 -0.015405 392966.000000 0 0 1
34.265438 22.976981 12.098501 42.993437 0.590692 1.285540 0.075236 -0.020340 -853705.000000 0 0 1
33.082338 22.491581 11.285401 41.565281 0.597086 1.295834 0.073802 -0.015901 44337.400000 0 0 1
31.907138 22.359681 12.086401 40.793405 0.611245 1.269998 0.074037 -0.022906 -8112.240000 0 0 1
30.814138 21.960081 11.309901 39.492659 0.619174 1.280350 0.064601 -0.013924 -514215.000000 0 0 1
29.497338 21.683381 12.026101 38.534258 0.633894 1.253406 0.062659 -0.004653 -163239.000000 0 0 1
29.147138 22.914181 12.682701 39.185026 0.666242 1.241199 0.073817 -0.006795 1000880.000000 0 0 1
27.802838 22.817581 13.213801 38.317676 0.687232 1.218719 0.100065 -0.007472 699910.000000 0 0 1
24.419438 8.922781 25.646515 36.519429 0.350325 0.792215 0.059441 -0.008835 159224.000000 0 0 1
24.007738 7.824281 26.503145 36.606113 0.315052 0.761200 0.069003 -0.013310 316413.000000 0 0 1
22.635638 7.497681 26.364495 35.548191 0.319860 0.735262 0.057475 -0.006685 114091.000000 0 0 1
22.320738 6.306581 27.298085 35.821415 0.275366 0.704307 0.074512 -0.011033 -134811.000000 0 0 1
22.494738 6.496081 28.718705 37.053695 0.281134 0.683992 0.079827 -0.011261 1105950.000000 0 0 1
23.855238 6.385481 29.205255 38.246486 0.261545 0.701916 0.077913 -0.017056 745416.000000 0 0 1
24.152838 6.430181 30.717095 39.601095 0.260194 0.683032 0.083278 -0.021873 -184631.000000 0 0 1
24.144238 7.694281 31.317435 40.285579 0.308505 0.680297 0.094494 -0.021653 140745.000000 0 0 1
24.063038 7.597181 32.714154 41.315407 0.305816 0.657022 0.097037 -0.025428 -9208.950000 0 0 1
24.254038 8.925281 33.533267 42.336733 0.352612 0.656619 0.110086 -0.025134 -380118.000000 0 0 1
25.564638 9.384281 33.442271 43.127728 0.351810 0.683410 0.089721 -0.021310 -521146.000000 0 0 1
25.984238 10.147581 -33.328989 43.462346 0.372315 2.444711 0.100598 -0.014330 694869.000000 0 0 1
27.154538 11.168081 -33.572799 44.600760 0.390191 2.423011 0.071857 -0.011750 600566.000000 0 0 1
26.736938 12.338881 33.566802 44.652458 0.432369 0.720108 0.059465 -0.017363 428540.000000 0 0 1
26.618838 13.371781 -33.402829 44.756185 0.465520 2.413325 0.054341 -0.018471 -563482.000000 0 0 1
26.207538 14.680781 33.919865 45.309134 0.510621 0.724800 0.043702 -0.015533 -110283.000000 0 0 1
27.165938 15.407181 33.109609 45.515004 0.515915 0.756207 0.036525 -0.015063 537367.000000 0 0 1
26.842138 16.776181 33.019343 45.740765 0.558595 0.764281 0.035569 -0.019361 -182948.000000 0 0 1
27.384738 17.720981 -33.762919 46.945626 0.574342 2.373435 0.031182 -0.023753 -349503.000000 0 0 1
26.925538 17.441881 -32.453269 45.633524 0.574814 2.361960 0.032854 -0.028141 -2.867890 0 0 1
27.849938 16.732781 -31.669719 45.371534 0.541022 2.343409 0.036410 -0.025046 -426129.000000 0 0 1
27.119038 16.164981 -30.410299 43.835318 0.537528 2.337465 0.038854 -0.014017 126065.000000 0 0 1
26.262138 15.099781 -30.740099 43.158510 0.521807 2.363510 0.047495 -0.010615 -458083.000000 0 0 1
25.608738 14.692081 -29.602709 41.808912 0.520867 2.357526 0.075989 -0.018295 -20548.100000 0 0 1
24.680838 13.476681 -29.977559 41.102540 0.499796 2.388147 0.083732 -0.014282 -999929.000000 0 0 1
23.718338 13.720581 -30.929489 41.321268 0.524446 2.416613 0.080429 -0.017122 -408325.000000 0 0 1
23.266238 12.583081 -31.616579 41.222080 0.495776 2.444920 0.078495 -0.013720 238638.000000 0 0 1
22.311738 11.669781 -30.718919 39.719635 0.481904 2.454974 0.085082 -0.013536 618389.000000 0 0 1
21.118038 12.332081 -30.252559 38.900760 0.528542 2.461772 0.094591 -0.009294 1465780.000000 0 0 1
20.117438 11.423281 -29.751619 37.687684 0.516429 2.480669 0.093759 -0.011432 711964.000000 0 0 1
18.881138 12.094281 -29.094569 36.732315 0.569702 2.484989 0.083136 0.003278 -108294.000000 0 0 1
18.003238 12.615581 -30.073559 37.251690 0.611222 2.510371 0.058971 0.006631 -467237.000000 0 0 1
16.875638 13.011381 -29.326209 36.250652 0.656816 2.513219 0.056447 -0.002358 -605970.000000 0 0 1
15.724238 13.509581 -30.263519 36.682980 0.709786 2.541001 0.060910 -0.010103 59251.500000 0 0 1
14.991738 12.482181 -30.919799 36.559418 0.694308 2.578749 0.058117 -0.010096 -511652.000000 0 0 1
13.811938 12.272381 -30.190699 35.395752 0.726444 2.592401 0.065398 -0.013560 -996401.000000 0 0 1
12.877338 11.431581 -31.084289 35.535052 0.725994 2.635716 0.076700 -0.014973 -263504.000000 0 0 1
12.365038 12.210381 -32.146069 36.542542 0.779105 2.646004 0.085397 -0.013184 -148773.000000 0 0 1
11.460538 11.445681 -32.905999 36.676319 0.784750 2.684185 0.098464 -0.008278 -177916.000000 0 0 1
10.815138 12.308281 33.918995 37.669075 0.849881 0.450001 0.111528 -0.013450 31253.500000 0 0 1
11.712738 12.680081 32.889787 37.144458 0.825034 0.483322 0.077973 -0.006259 318182.000000 0 0 1
10.955338 12.910181 31.730035 35.965085 0.867127 0.490186 0.089834 -0.024319 -51789.400000 0 0 1
11.817638 13.121481 30.463185 35.211298 0.837632 0.525340 0.082395 -0.015921 -196427.000000 0 0 1
12.267838 11.897881 29.968345 34.498712 0.770090 0.518265 0.062559 -0.013931 -111586.000000 0 0 1
12.314738 11.971181 28.570285 33.335014 0.771253 0.541250 0.062518 -0.011298 -318803.000000 0 0 1
12.937338 10.649981 28.065765 32.687673 0.688726 0.538256 0.051112 -0.008087 99862.600000 0 0 1
12.158738 9.482581 28.371335 32.290663 0.662363 0.497824 0.066287 -0.022544 459074.000000 0 0 1
12.822938 8.281681 27.936645 31.835045 0.573452 0.500081 0.029654 -0.022806 -258785.000000 0 0 1
11.963738 7.014881 28.044895 31.286670 0.530319 0.459251 0.041007 -0.016778 -424293.000000 0 0 1
10.829238 6.978081 27.234725 30.127998 0.572410 0.441838 0.059362 -0.021812 -461921.000000 0 0 1
9.881238 5.992481 27.599715 29.921447 0.545149 0.396532 0.049018 -0.029969 1072.780000 0 0 1
9.994038 4.563081 27.103555 29.245601 0.428313 0.385111 0.036916 -0.022154 -672223.000000 0 0 1
11.021338 3.861581 27.724275 30.083502 0.337007 0.398672 0.029320 -0.015949 -123211.000000 0 0 1
11.306638 2.565781 27.200375 29.568289 0.223148 0.402927 0.023973 -0.013293 69525.800000 0 0 1
11.939438 1.561281 28.219605 30.681165 0.130029 0.403303 0.015679 -0.016971 954570.000000 0 0 1
10.930838 1.183981 29.195785 31.197418 0.107895 0.360162 0.019652 -0.016466 829700.000000 0 0 1
11.252938 -0.019619 29.803495 31.857139 -0.001743 0.361023 0.021941 -0.016277 206870.000000 0 0 1
10.099538 -0.295519 30.776665 32.392763 -0.029252 0.317210 0.037469 -0.016191 -61746.700000 0 0 1
10.226938 0.568581 31.911627 33.515153 0.055539 0.310584 0.027658 -0.018726 370340.000000 0 0 1
8.982238 0.749581 32.597854 33.821037 0.083259 0.269765 0.040990 -0.023846 497810.000000 0 0 1
9.022438 2.052981 33.483728 34.738727 0.223732 0.269616 0.034273 -0.019669 -126486.000000 0 0 1
8.894738 3.302481 32.768914 34.114872 0.355510 0.281836 0.037109 -0.019443 9524.240000 0 0 1
9.992738 3.692381 31.968124 33.696431 0.353946 0.321668 0.026902 -0.014317 -217880.000000 0 0 1
9.920338 5.093081 31.404065 33.325184 0.474308 0.341204 0.031688 -0.013267 41694.000000 0 0 1
10.231038 6.132981 32.325498 34.456138 0.540014 0.353509 0.035355 -0.014438 135083.000000 0 0 1
10.788638 7.239481 31.634875 34.198978 0.591016 0.389698 0.046619 -0.019049 -81039.100000 0 0 1
10.941438 8.549781 32.438107 35.285190 0.663304 0.404467 0.076321 -0.023947 830430.000000 0 0 1
9.705238 9.156481 32.881693 35.485751 0.756313 0.385483 0.100343 -0.032122 1159120.000000 0 0 1
9.100738 8.617481 -33.797099 36.046197 0.758130 2.786474 0.080023 -0.026738 482875.000000 0 0 1
7.645838 9.106581 -33.522219 35.568636 0.872374 2.800727 0.083531 -0.028738 374151.000000 0 0 1
6.993938 8.156381 -32.693299 34.413566 0.861975 2.824071 0.077938 -0.021496 970921.000000 0 0 1
5.613838 8.492781 -32.435149 33.995315 0.986718 2.837458 0.080763 -0.027430 1163270.000000 0 0 1
4.966038 7.976281 -31.127989 32.515140 1.013924 2.848442 0.067237 -0.018947 5064.310000 0 0 1
5.665338 8.371681 -29.945559 31.605658 0.975862 2.816042 0.075160 -0.022761 68930.200000 0 0 1
5.387638 7.657181 -28.765229 30.250578 0.957654 2.826922 0.060868 -0.021649 -251760.000000 0 0 1
3.988438 7.753981 -28.120129 29.441018 1.095717 2.840910 0.065989 -0.018844 265098.000000 0 0 1
3.063838 6.824481 -28.710029 29.668610 1.148818 2.886700 0.063653 -0.013432 -337011.000000 0 0 1
1.813338 6.879481 -28.067939 28.955564 1.313072 2.893348 0.096602 -0.013396 -93980.500000 0 0 1
0.807038 6.231881 -29.071439 29.742835 1.442012 2.928713 0.111052 -0.024325 -300423.000000 0 0 1
0.537338 7.015981 -30.217689 31.026142 1.494358 2.912809 0.085842 -0.029646 -217454.000000 0 0 1
0.052238 6.191781 -31.225229 31.833250 1.562360 2.945831 0.106716 -0.025060 -410226.000000 0 0 1
-0.322962 6.948781 -32.534679 33.270035 -1.524352 2.930953 0.117815 -0.035855 1354430.000000 0 0 1
0.815238 7.658081 -33.166779 34.049171 1.464741 2.913435 0.097008 -0.035571 1639300.000000 0 0 1
1.833238 6.909081 -33.816459 34.563696 1.311435 2.933278 0.097742 -0.041275 65918.300000 0 0 1
1.456338 6.457781 32.677933 33.341733 1.348990 0.199877 0.118915 -0.048878 -193127.000000 0 0 1
0.325638 5.610681 32.645807 33.126040 1.512822 0.170483 0.118759 -0.042980 -426983.000000 0 0 1
0.083738 5.262981 31.276035 31.715869 1.554887 0.166734 0.135055 -0.037691 212538.000000 0 0 1
1.058638 4.351081 30.469505 30.796808 1.332129 0.145922 0.128099 -0.033908 250020.000000 0 0 1
0.775938 4.438081 29.083795 29.430695 1.397710 0.153689 0.123720 -0.034869 120088.000000 0 0 1
1.692638 3.622081 28.379315 28.659554 1.133640 0.139958 0.114097 -0.028307 99860.500000 0 0 1
1.769338 4.028481 26.909755 27.267089 1.156954 0.162072 0.114178 -0.020265 184056.000000 0 0 1
2.607838 5.153481 26.679145 27.297179 1.102333 0.213199 0.116596 -0.021760 149163.000000 0 0 1
2.596938 5.544881 25.325805 26.055445 1.132789 0.237213 0.095751 -0.006656 -382429.000000 0 0 1
3.103038 6.973381 25.091215 26.226436 1.152122 0.295301 0.100974 -0.010870 -40225.000000 0 0 1
4.496638 7.158381 25.018565 26.408157 1.009925 0.325846 0.084833 -0.013659 -350564.000000 0 0 1
5.011138 6.921081 23.701065 25.194312 0.944118 0.346018 0.060586 -0.011329 186311.000000 0 0 1
6.565838 7.042081 23.692165 25.573811 0.820381 0.385999 0.064399 -0.014058 1004500.000000 0 0 1
7.467838 6.172381 24.424695 26.276085 0.690709 0.377631 0.068595 -0.017474 735693.000000 0 0 1
7.436138 4.741681 24.257995 25.811432 0.567647 0.348705 0.080116 -0.016856 -1016030.000000 0 0 1
7.516638 4.135281 22.823245 24.382389 0.502959 0.359552 0.067182 -0.018732 887237.000000 0 1 0
6.414938 4.272481 21.864045 23.182795 0.587555 0.338917 0.062412 -0.022165 1127920.000000 0 1 0
5.171538 3.709381 22.301745 23.192071 0.622222 0.277983 0.046529 -0.008978 589624.000000 0 1 0
3.994838 3.936681 21.312245 22.037876 0.778066 0.257328 0.027500 -0.000601 235597.000000 0 1 0
3.547638 5.263981 21.268845 22.195923 0.977771 0.290041 0.025800 -0.009443 254197.000000 0 1 0
2.239238 5.472981 20.751445 21.577539 1.182432 0.277603 0.025951 0.002631 134162.000000 0 1 0
1.786638 6.997881 20.743345 21.964717 1.320825 0.335050 0.030820 0.001450 128092.000000 0 1 0
2.395338 7.851181 19.792745 21.427353 1.274674 0.393131 0.026067 -0.012977 -497671.000000 0 1 0
1.793838 9.105181 19.831145 21.895125 1.376275 0.437690 0.038976 -0.020394 101365.000000 0 1 0
2.723538 10.300181 19.515845 22.234649 1.312296 0.499709 0.037876 -0.022509 -305863.000000 0 1 0
3.065538 10.335981 18.113645 21.079235 1.282472 0.536873 0.026499 -0.023127 81734.200000 0 1 0
3.790238 11.521281 17.678145 21.438811 1.252971 0.601326 0.031833 -0.023358 -323468.000000 0 1 0
5.282438 11.440481 17.982045 21.957748 1.138229 0.611237 0.046106 -0.018690 -1033670.000000 0 1 0
5.901938 10.607281 16.972345 20.866427 1.063049 0.620856 0.042994 -0.017324 -455514.000000 0 1 0
7.159438 10.271481 17.494645 21.513333 0.962073 0.621166 0.043846 -0.006058 -369313.000000 0 1 0
7.261538 8.748781 17.794645 21.116830 0.878025 0.568562 0.046331 -0.017657 51989.600000 0 1 0
6.578938 8.436581 19.013045 21.816375 0.908488 0.512537 0.051579 -0.021650 -70432.200000 0 1 0
6.559938 7.061381 19.300445 21.573203 0.822195 0.463151 0.041749 -0.033712 -228905.000000 0 1 0
7.824538 6.361081 19.860345 22.273752 0.682597 0.469824 0.065907 -0.028869 -111420.000000 0 1 0
8.820038 6.248481 18.869845 21.746440 0.616369 0.520197 0.059961 -0.025869 -326782.000000 0 1 0
10.024538 5.697881 19.369845 22.542141 0.516855 0.536950 0.063679 -0.021931 53198.600000 0 1 0
10.222438 4.152581 19.324945 22.252992 0.385859 0.518789 0.065534 -0.016988 -357176.000000 0 1 0
9.350038 3.375481 20.119045 22.440879 0.346452 0.458911 0.079758 -0.028132 12389.400000 0 1 0
9.794238 2.079281 20.115145 22.469303 0.209191 0.461854 0.084318 -0.032878 -54702.400000 0 1 0
9.000638 1.195281 21.078645 22.951023 0.132027 0.406732 0.082536 -0.030027 -94836.400000 0 1 0
9.356338 1.381181 22.470945 24.380158 0.146561 0.398382 0.083799 -0.016831 94571.700000 0 1 0
8.851338 0.268181 23.145115 24.781333 0.030289 0.365420 0.074720 -0.024494 -423540.000000 0 1 0
9.232538 0.169481 24.662425 26.334458 0.018355 0.358262 0.059235 -0.014044 520882.000000 0 0 1
10.570138 -0.250019 24.960605 27.107603 -0.023649 0.400677 0.056882 -0.015835 676804.000000 0 0 1
10.789738 -1.612719 24.773225 27.069023 -0.148369 0.414824 0.057438 -0.017399 -57680.400000 0 0 1
12.277338 -1.967719 25.035285 27.953004 -0.158921 0.460972 0.052726 -0.014954 207743.000000 0 0 1
12.423738 -3.357419 24.902535 28.031371 -0.263938 0.476990 0.056860 -0.013805 14778.800000 0 0 1
13.778738 -3.763919 25.043705 28.830676 -0.266663 0.518330 0.053817 -0.007714 182538.000000 0 0 1
13.889438 -5.318519 25.289155 29.338447 -0.365695 0.531634 0.051811 -0.010250 -220313.000000 0 0 1
13.532338 -6.020619 24.082535 28.272611 -0.418610 0.551390 0.057992 -0.009315 239671.000000 0 0 1
13.065938 -7.296319 24.438565 28.656560 -0.509287 0.549456 0.055190 -0.015614 -110628.000000 0 0 1
13.111338 -8.183419 23.162995 27.846003 -0.557987 0.588409 0.070194 -0.019666 31334.200000 0 0 1
12.648438 -9.494019 23.330125 28.185353 -0.643890 0.595730 0.071082 -0.012385 -352412.000000 0 0 1
12.677638 -10.234419 22.110945 27.465610 -0.679165 0.635052 0.068393 -0.018774 69415.400000 0 0 1
12.035938 -11.623319 22.211145 27.808278 -0.767960 0.645624 0.083201 -0.014513 749611.000000 0 0 1
10.605138 -11.585419 22.219345 27.210111 -0.829545 0.615328 0.069255 -0.012627 235680.000000 0 0 1
10.060738 -12.855119 22.507345 27.803833 -0.906740 0.627488 0.071127 -0.012604 903370.000000 0 0 1
8.525238 -12.779919 22.837845 27.524047 -0.982507 0.592152 0.054687 -0.010640 784837.000000 0 0 1
7.705238 -12.425319 21.753645 26.210309 -1.015711 0.591751 0.052158 -0.014578 106153.000000 0 0 1
6.359238 -12.243019 22.193345 26.131896 -1.091736 0.556173 0.051483 -0.019397 941014.000000 0 0 1
5.626938 -11.043219 21.457645 24.779944 -1.099548 0.523794 0.047153 -0.017346 462734.000000 0 1 0
6.134038 -9.765119 21.785845 24.649686 -1.009929 0.486834 0.056238 -0.017616 189589.000000 0 1 0
5.303238 -8.784719 21.141645 23.500314 -1.027669 0.451869 0.042624 -0.015845 504432.000000 0 1 0
5.735938 -7.334719 21.491445 23.421812 -0.907112 0.408840 0.057462 -0.029144 580657.000000 0 1 0
4.800838 -6.274519 21.103145 22.533539 -0.917681 0.358222 0.038776 -0.021709 290087.000000 0 1 0
5.320338 -5.024019 21.266145 22.489902 -0.756761 0.331404 0.057222 -0.038823 -391237.000000 0 1 0
-8.279062 -14.874219 -20.022099 26.280596 1.062896 2.436974 0.053958 -0.015383 -91159.000000 0 0 1
-7.648762 -14.286319 -18.904899 24.899753 1.079239 2.432942 0.047791 -0.020698 -609924.000000 0 1 0
-6.592362 -13.514119 -19.344299 24.500869 1.116946 2.480848 0.041731 -0.026805 -204202.000000 0 1 0
-5.558862 -13.122919 -18.231399 23.140784 1.170112 2.478102 0.023655 -0.025103 17164.500000 0 1 0
-4.773662 -14.167619 -17.781599 23.231327 1.245802 2.442482 0.023245 -0.015134 -192088.000000 0 1 0
-3.796162 -13.646419 -16.899699 22.050747 1.299476 2.444015 0.012035 -0.011724 594938.000000 0 1 0
-2.782362 -14.651119 -16.219899 22.033655 1.383123 2.398149 0.024510 -0.005408 958413.000000 0 1 0
-1.745362 -15.149119 -17.088399 22.903176 1.456090 2.413004 0.031584 0.001037 -881.947000 0 1 0
-1.136862 -16.283219 -16.650599 23.316907 1.501091 2.366134 0.037744 0.017419 -15835.100000 0 1 0
0.082838 -16.676819 -17.542699 24.204740 -1.565829 2.381487 0.028271 0.023516 221125.000000 0 1 0
-0.295662 -17.217819 -18.767499 25.470762 1.553626 2.399159 0.046050 -0.001793 -132622.000000 0 0 1
-0.602162 -18.597919 -18.834199 26.475881 1.538430 2.362245 0.043178 0.009669 -180057.000000 0 0 1
-1.314762 -19.038119 -20.173599 27.769636 1.501846 2.383957 0.051034 -0.004506 -949690.000000 0 0 1
-2.526862 -18.385919 -20.148399 27.393157 1.434217 2.397240 0.067248 -0.019626 -1519950.000000 0 0 1
-3.116762 -18.463519 -21.376999 28.418160 1.403566 2.422237 0.038402 -0.025044 -338930.000000 0 0 1
-4.110662 -17.298919 -21.547699 27.936598 1.337498 2.451689 0.045097 -0.028028 -67493.900000 0 0 1
-3.537162 -15.961019 -21.501399 27.010661 1.352708 2.491510 0.037833 -0.015826 -42852.900000 0 0 1
-3.341962 -15.422219 -20.202699 25.635183 1.357398 2.478488 0.043224 -0.019343 -96615.900000 0 0 1
-2.214762 -14.366619 -20.217499 24.900847 1.417840 2.518230 0.044342 -0.020399 69097.300000 0 1 0
-2.524862 -13.210719 -21.020699 24.955317 1.381951 2.572395 0.033895 -0.035741 83264.300000 0 1 0
-1.336062 -12.463719 -21.135099 24.572785 1.464008 2.606266 0.016247 -0.015016 -22288.800000 0 1 0
-1.371562 -11.556019 -22.347699 25.196079 1.452661 2.661499 0.020533 -0.015040 1143440.000000 0 0 1
-2.525462 -10.653919 -22.471199 24.996775 1.338047 2.688195 0.020731 -0.019326 1201140.000000 0 1 0
-2.607062 -10.082019 -23.775299 25.955900 1.317754 2.728761 0.029683 -0.017316 -379025.000000 0 0 1
-3.607562 -8.934619 -23.768199 25.647012 1.187041 2.756446 0.023458 -0.014624 -1469570.000000 0 0 1
-4.931662 -9.312819 -23.861399 26.084790 1.083784 2.725717 0.051499 -0.025867 -919221.000000 0 0 1
-5.617962 -8.087719 -24.005599 25.946898 0.963684 2.752311 0.043352 -0.023819 -930168.000000 0 0 1
-7.082962 -8.125319 -23.554099 25.903374 0.853830 2.712410 0.044272 -0.035607 232927.000000 0 0 1
-8.048162 -8.655719 -24.478599 27.182645 0.821754 2.691767 0.056587 -0.029451 739270.000000 0 0 1
-8.525462 -7.708719 -25.471149 27.944361 0.735130 2.717701 0.049420 -0.036245 89575.400000 0 0 1
-9.634262 -8.245519 -26.432849 29.317284 0.707883 2.694281 0.048951 -0.034498 384767.000000 0 0 1
-10.316562 -7.143419 -27.025419 29.796530 0.605622 2.706899 0.051260 -0.041740 188020.000000 0 0 1
-11.290962 -7.551619 -27.967619 31.091808 0.589492 2.689460 0.055511 -0.038230 -194740.000000 0 0 1
-11.986462 -6.379019 -28.639139 31.694912 0.489063 2.698868 0.050868 -0.044801 -342914.000000 0 0 1
-11.166862 -5.612819 -29.493359 32.032184 0.465751 2.740773 0.041119 -0.038083 -119313.000000 0 0 1
-11.881662 -4.881019 -30.492779 33.087881 0.389784 2.742900 0.075171 -0.043001 -256927.000000 0 0 1
-11.119762 -3.812019 -31.288359 33.423675 0.330259 2.782209 0.068293 -0.033342 450823.000000 0 0 1
-10.035062 -4.336619 -32.109669 33.919605 0.407908 2.813443 0.048487 -0.024142 678152.000000 0 0 1
-9.457662 -3.346419 -32.889069 34.385124 0.340084 2.845525 0.040742 -0.022230 -197949.000000 0 0 1
-8.474962 -3.920419 33.940125 35.201232 0.433273 0.268483 0.031639 -0.018875 1001780.000000 0 0 1
-7.153762 -4.162219 -33.413779 34.423554 0.526946 2.898783 0.028799 -0.024577 440660.000000 0 0 1
-6.292162 -4.486319 33.424151 34.305863 0.619398 0.227211 0.028618 -0.021881 472051.000000 0 0 1
-4.798662 -4.129419 33.727728 34.316744 0.710579 0.185545 0.051219 -0.028169 642039.000000 0 0 1
-4.561962 -2.756019 33.633547 34.053232 0.543451 0.157161 0.071548 -0.037809 -409752.000000 0 0 1
-3.189262 -2.474819 33.728199 33.968920 0.659925 0.119121 0.070249 -0.037325 -14256.900000 0 0 1
-2.934962 -0.972919 -33.768799 33.910063 0.320093 3.050283 0.080454 -0.039269 -10389.400000 0 0 1
-3.337562 -0.804519 -32.416589 32.597881 0.236537 3.036079 0.079282 -0.041195 14150.600000 0 0 1
-3.576262 0.544081 -32.136509 32.339464 -0.150979 3.029501 0.110846 -0.045557 -627969.000000 0 0 1
-3.962762 0.536381 -30.631989 30.891908 -0.134538 3.011780 0.140521 -0.053661 33710.200000 0 0 1
-5.197562 -0.064219 -30.362689 30.804410 0.012355 2.972041 0.101913 -0.048534 -432465.000000 0 0 1
-6.333762 0.771581 -30.470449 31.131337 -0.121223 2.935173 0.105112 -0.053549 -24638.600000 0 0 1
-7.600062 -0.130419 -30.378129 31.314672 0.017159 2.896408 0.084967 -0.053116 -84764.000000 0 0 1
-7.841262 -0.787719 -29.179989 30.225448 0.100122 2.877813 0.063749 -0.039290 191421.000000 0 0 1
-8.964662 -1.663119 -29.228389 30.617477 0.183434 2.839214 0.050538 -0.038713 364016.000000 0 0 1
-9.415862 -2.337519 -27.896439 29.535297 0.243334 2.806902 0.048271 -0.044274 240649.000000 0 0 1
-10.222162 -1.597519 -26.962299 28.879236 0.155026 2.775190 0.059311 -0.040616 472036.000000 0 0 1
-10.475762 -2.272219 -25.760759 27.901995 0.213594 2.747274 0.057714 -0.039248 -274084.000000 0 0 1
-11.439462 -1.505419 -24.853899 27.401531 0.130847 2.706963 0.073287 -0.036696 -248360.000000 0 0 1
-10.907762 -0.365219 -24.248899 26.591762 0.033470 2.718675 0.067317 -0.030733 211453.000000 0 0 1
-11.853762 0.270081 -23.401199 26.233581 -0.022780 2.672618 0.071086 -0.032785 288569.000000 0 0 1
-11.185062 1.495081 -22.800499 25.440198 -0.132880 2.682013 0.083069 -0.031477 262782.000000 0 0 1
-10.932362 2.539081 -23.788799 26.303431 -0.228208 2.700766 0.062462 -0.027964 612965.000000 0 0 1
-10.013162 3.560981 -23.303199 25.612167 -0.341682 2.713716 0.077104 -0.021515 358259.000000 0 0 1
-10.085962 4.752381 -24.318399 26.752501 -0.440333 2.711709 0.100005 -0.023021 -358532.000000 0 0 1
-11.345362 5.347781 -24.385399 27.421957 -0.440476 2.666533 0.090105 -0.021818 -127406.000000 0 0 1
-12.145762 4.800981 -25.461599 28.615765 -0.376431 2.667649 0.072798 -0.026219 645907.000000 0 0 1
-13.582762 5.390181 -25.585739 29.464819 -0.377779 2.622659 0.055235 -0.016199 424575.000000 0 0 1
-13.478562 6.780681 -25.956559 30.023195 -0.466102 2.615051 0.055955 -0.016473 907837.000000 0 0 1
-14.724162 7.289981 -26.480669 31.163611 -0.459723 2.586270 0.059496 -0.013471 620359.000000 0 0 1
-14.795162 8.810681 -26.702769 31.773618 -0.537112 2.568830 0.070619 -0.014839 -150195.000000 0 0 1
-14.606862 9.564281 -25.484569 30.891733 -0.579728 2.540935 0.095257 -0.024381 93013.600000 0 0 1
-15.178262 10.840881 -25.486949 31.583048 -0.620217 2.509820 0.085973 -0.026391 -387632.000000 0 0 1
-14.956762 11.575281 -24.145099 30.670470 -0.658633 2.477121 0.083400 -0.029284 -123642.000000 0 0 1
-15.812462 11.117581 -23.135399 30.147658 -0.612797 2.445577 0.111408 -0.026224 -197209.000000 0 0 1
-15.436562 11.727181 -21.966799 29.297688 -0.649681 2.418525 0.108348 -0.028476 196487.000000 0 0 1
-16.427962 11.550081 -20.746499 28.873856 -0.612786 2.372471 0.123297 -0.032743 153615.000000 0 0 1
-17.608362 12.276781 -20.966999 30.006480 -0.608853 2.344444 0.113141 -0.031867 -436319.000000 0 0 1
-18.271862 12.506081 -19.748899 29.669548 -0.600210 2.299132 0.108785 -0.022857 -249278.000000 0 0 1
-19.747762 12.919781 -19.906799 30.873541 -0.579350 2.271538 0.096123 -0.026806 -185406.000000 0 0 1
-19.925362 14.156681 -20.513999 31.910122 -0.617729 2.269033 0.082609 -0.028242 -13274.900000 0 0 1
-21.298362 14.301581 -20.788299 33.019825 -0.591333 2.251796 0.063836 -0.029408 17979.700000 0 0 1
-21.684562 15.667281 -21.403999 34.260986 -0.625673 2.245587 0.064248 -0.028777 71388.200000 0 0 1
-21.161462 15.705781 -22.749699 34.814191 -0.638483 2.282943 0.073578 -0.035391 410395.000000 0 0 1
-21.314862 16.973681 -23.314599 35.860839 -0.672500 2.278566 0.066108 -0.023151 -56694.200000 0 0 1
-21.246262 16.954081 -24.874399 36.845356 -0.673508 2.311900 0.063805 -0.023180 1181660.000000 0 0 1
-19.911862 16.639381 -25.368989 36.289625 -0.696105 2.344892 0.057308 -0.031357 1307630.000000 0 0 1
-19.989162 16.196381 -26.694629 37.074150 -0.680965 2.374647 0.044324 -0.028428 -75036.200000 0 0 1
-19.253562 17.219581 -27.634479 37.826949 -0.729689 2.389923 0.021957 -0.005120 -3073.110000 0 0 1
-19.905862 18.452481 -27.722409 38.797802 -0.747527 2.366756 0.016698 -0.018548 108346.000000 0 0 1
-19.265562 19.381881 -26.913639 38.355745 -0.788408 2.348556 -0.000315 -0.024100 -1299790.000000 0 0 1
-19.785462 20.817381 -26.960359 39.391482 -0.810808 2.324606 0.031994 -0.004831 114286.000000 0 0 1
-20.806562 21.092481 -26.031409 39.439068 -0.792222 2.291670 0.050204 0.001337 476367.000000 0 0 1
-22.123262 20.624781 -26.303049 40.083298 -0.750359 2.286581 0.085157 -0.012047 -177373.000000 0 0 1
-23.080062 20.875781 -25.130299 40.000243 -0.735293 2.250103 0.097349 -0.000364 -11046.700000 0 0 1
-22.674862 20.285281 -23.900499 38.689480 -0.729832 2.236677 0.062530 0.007215 558294.000000 0 0 1
-23.761562 20.390681 -22.990099 38.845031 -0.709199 2.204138 0.053739 0.008291 705144.000000 0 0 1
-23.246262 19.765981 -21.608299 37.389856 -0.704660 2.186972 0.039723 0.016741 755855.000000 0 0 1
-22.152462 20.513681 -21.054999 36.808365 -0.747008 2.179759 0.046887 0.016893 428410.000000 0 0 1
-21.391662 19.828781 -20.056299 35.398290 -0.747501 2.173157 0.045648 0.006398 -250419.000000 0 0 1
-22.055862 19.408481 -18.733099 34.843640 -0.721638 2.138424 0.060498 -0.001323 -1058620.000000 0 0 1
-22.883762 18.228981 -18.990099 34.879596 -0.672658 2.146526 0.076455 -0.012367 338336.000000 0 0 1
-23.765462 17.897381 -17.966899 34.755186 -0.645472 2.114087 0.076417 -0.013140 192148.000000 0 0 1
-24.891662 18.953981 -17.674499 35.933775 -0.650795 2.085025 0.055162 -0.011873 -617925.000000 0 0 1
-25.859592 19.186281 -18.693199 37.232615 -0.638323 2.096781 0.060003 -0.009226 406374.000000 0 0 1
-26.745962 20.199881 -18.218499 38.148334 -0.646852 2.068683 0.055901 -0.009515 -856777.000000 0 0 1
-28.136572 20.159881 -18.897299 39.435966 -0.621715 2.070527 0.040567 0.002431 190549.000000 0 0 1
-28.912812 19.035481 -18.480199 39.240515 -0.582240 2.061160 0.034046 -0.003550 401808.000000 0 0 1
-29.313372 18.985581 -17.081399 38.878018 -0.574740 2.025681 0.026861 -0.002304 -839766.000000 0 0 1
-30.154792 17.697881 -16.770699 38.778639 -0.530732 2.018030 0.012706 -0.002259 -66364.400000 0 0 1
-29.421252 16.537881 -16.495299 37.566029 -0.512091 2.025395 0.032343 -0.013656 172164.000000 0 0 1
-30.295322 15.435681 -16.234099 37.677749 -0.471224 2.016250 0.031918 -0.006952 302739.000000 0 0 1
-29.587502 14.343781 -15.425599 36.319602 -0.451407 2.009447 0.065957 -0.013155 -90564.500000 0 0 1
-29.079282 14.661381 -14.125899 35.497913 -0.466991 1.980062 0.082107 -0.012029 -77380.300000 0 0 1
-30.072702 15.053281 -13.200699 36.127928 -0.464098 1.944846 0.048049 -0.001991 204193.000000 0 0 1
-29.550812 15.797881 -11.893799 35.556800 -0.490943 1.911872 0.075969 -0.012330 76183.900000 0 0 1
-29.116352 17.119481 -12.141099 35.892129 -0.531525 1.915870 0.069539 0.000237 -587269.000000 0 0 1
-30.072732 18.102881 -11.970599 37.086100 -0.541867 1.899460 0.025061 0.001054 -503487.000000 0 0 1
-29.492132 19.516181 -12.227299 37.418900 -0.584585 1.903678 0.065473 -0.008848 94653.900000 0 0 1
-28.665782 20.057081 -11.221999 36.741623 -0.610516 1.881186 0.035506 -0.015047 143793.000000 0 0 1
-27.796422 21.029881 -11.761899 36.786401 -0.647691 1.896246 0.037296 -0.019574 409061.000000 0 0 1
-27.072422 21.964781 -10.737299 36.478175 -0.681614 1.869570 0.053756 -0.020185 883942.000000 0 0 1
-28.041212 22.869481 -10.223399 37.601073 -0.684161 1.846154 0.023446 -0.024755 869301.000000 0 0 1
-27.328482 24.107781 -9.866499 37.754190 -0.722864 1.835202 0.053060 -0.025926 794261.000000 0 0 1
-28.035582 24.980181 -8.809399 38.569533 -0.727830 1.801233 0.059697 -0.004824 -34788.500000 0 0 1
-27.759192 24.422781 -7.536999 37.733955 -0.721547 1.771889 0.065117 -0.012028 191036.000000 0 0 1
-28.692172 24.868981 -6.588299 38.537160 -0.714139 1.742600 0.084303 -0.020624 -120246.000000 0 0 1
-28.458122 24.181681 -5.244499 37.711049 -0.704336 1.710319 0.070226 -0.017131 -26846.700000 0 0 1
-28.416562 22.767881 -5.424699 36.814464 -0.675484 1.718687 0.068410 -0.016834 107717.000000 0 0 1
-28.157442 22.146481 -4.169699 36.065144 -0.666469 1.686671 0.067277 -0.011524 -161526.000000 0 0 1
-28.108792 20.623481 -4.336099 35.131666 -0.632989 1.694536 0.085619 -0.007673 -234784.000000 0 0 1
-27.017812 20.123181 -5.066799 34.067243 -0.640172 1.720080 0.068668 -0.017098 -57562.100000 0 0 1
-27.042502 20.353081 -6.439499 34.453041 -0.645184 1.758809 0.056192 -0.016079 -810705.000000 0 0 1
-28.095042 19.661481 -7.307899 35.061527 -0.610605 1.780766 0.059876 -0.014467 -463222.000000 0 0 1
-27.804362 18.276181 -7.380199 34.081794 -0.581499 1.789069 0.062832 -0.009312 322767.000000 0 0 1
-28.108262 17.676981 -8.646099 34.311880 -0.561391 1.825528 0.051519 -0.010809 -112838.000000 0 0 1
-27.776732 16.173981 -8.811799 33.328551 -0.527292 1.838370 0.099247 -0.016375 -106451.000000 0 0 1
-28.603382 15.316981 -8.072299 33.435392 -0.491639 1.814635 0.089307 -0.006940 -131886.000000 0 0 1
-28.376082 14.001281 -8.450699 32.751370 -0.458368 1.831775 0.101780 -0.015177 14473.100000 0 0 1
-29.035042 12.956781 -7.550299 32.679028 -0.419728 1.803947 0.106074 -0.021176 -41724.500000 0 0 1
-30.420422 12.832281 -7.771899 33.918608 -0.399184 1.801984 0.122809 -0.013088 -346930.000000 0 0 1
-31.052872 11.936781 -6.901999 33.976539 -0.366988 1.775360 0.134628 -0.014435 164060.000000 0 0 1
-31.652612 10.641481 -7.550599 34.236538 -0.324325 1.793167 0.129221 -0.013592 100020.000000 0 0 1
-30.642632 9.757281 -8.003999 33.139696 -0.308271 1.814731 0.150308 -0.013213 189858.000000 0 0 1
-31.164962 8.572881 -8.537099 33.430992 -0.268441 1.829021 0.131888 -0.006862 -462326.000000 0 0 1
-30.084422 7.532481 -8.839199 32.248135 -0.245335 1.848450 0.172569 -0.013478 -205324.000000 0 0 1
-29.426842 7.688281 -10.095999 32.046496 -0.255555 1.891297 0.153121 -0.028321 847940.000000 0 0 1
-28.298512 6.791981 -10.160099 30.824737 -0.235556 1.906685 0.179049 -0.042963 258592.000000 0 0 1
-27.514912 6.949681 -11.447099 30.600728 -0.247404 1.954200 0.129023 -0.039502 -414687.000000 0 0 1
-27.082202 8.269981 -11.665499 30.625515 -0.296372 1.961574 0.160105 -0.047093 869459.000000 0 0 1
-26.098492 8.289981 -12.725299 30.195833 -0.307563 2.005813 0.136683 -0.031302 332014.000000 0 0 1
-32.377132 25.759681 -33.917899 53.500129 -0.672060 2.257482 0.043143 -0.017403 35011.300000 0 0 1
-32.234762 27.149581 33.853980 54.058039 -0.699975 0.894059 0.027522 -0.026518 125859.000000 0 0 1
-32.923382 27.554381 32.702170 53.968741 -0.696854 0.919841 0.040935 -0.032469 -132783.000000 0 0 1
-33.022852 29.115381 32.552401 54.752836 -0.722597 0.934111 0.045805 -0.030434 -334231.000000 0 0 1
-33.805722 29.480381 31.466935 54.791311 -0.717158 0.959041 0.071520 -0.024791 -103135.000000 0 0 1
-33.835932 30.893881 31.303885 55.490859 -0.739978 0.971421 0.068768 -0.024805 -145255.000000 0 0 1
-33.626902 31.464981 29.885905 54.899735 -0.752197 0.995155 0.063713 -0.021897 -504319.000000 0 0 1
-32.365342 31.120381 29.412235 53.675628 -0.765791 0.990870 0.057038 -0.023958 -599191.000000 0 0 1
-32.115852 31.751981 28.185935 53.235920 -0.779701 1.012840 0.071180 -0.016826 396111.000000 0 0 1
-30.642922 31.592881 27.709475 52.008786 -0.800661 1.008909 0.071630 -0.018003 144268.000000 0 0 1
-30.398962 30.306281 27.184445 50.809071 -0.783871 1.006251 0.093584 -0.017539 176652.000000 0 0 1
-29.365082 30.205381 26.208045 49.613856 -0.799503 1.014269 0.078469 -0.010446 -61967.400000 0 0 1
-29.542702 30.890881 24.800035 49.417199 -0.807703 1.045060 0.086675 -0.017982 -409313.000000 0 0 1
-29.274252 32.230081 24.882445 50.148739 -0.833420 1.051611 0.074098 -0.023575 306969.000000 0 0 1
-30.220062 32.953181 24.094435 50.790807 -0.828635 1.076530 0.082649 -0.021294 167776.000000 0 0 1
-30.403692 -33.675570 24.648155 51.632936 0.836414 1.073134 0.069132 -0.011486 -379737.000000 0 0 1
-31.072812 -33.659770 25.855535 52.602362 0.825341 1.056953 0.049879 -0.020607 -113183.000000 0 0 1
-31.043772 -32.367870 26.369765 52.026525 0.806276 1.039267 0.029936 -0.023762 -105572.000000 0 0 1
-31.481752 -32.279670 27.852085 52.998268 0.797912 1.017460 0.024833 -0.021522 -244515.000000 0 0 1
-32.837562 -32.566570 28.068965 54.099480 0.781255 1.025303 0.020208 -0.027208 -334377.000000 0 0 1
-33.075062 -32.656770 29.523465 55.064138 0.779035 1.004909 0.011213 -0.021062 -617625.000000 0 0 1
-34.506569 -32.927270 29.927755 56.307894 0.761982 1.010424 0.036517 -0.026353 -762476.000000 0 0 1
-34.684986 -33.176070 31.293465 57.297302 0.763166 0.993024 0.034387 -0.029426 -1301860.000000 0 0 1
-35.999334 -33.295270 31.646265 58.361058 0.746395 0.997684 0.031982 -0.027261 -1314610.000000 0 0 1
-36.272212 -33.744470 33.111569 59.588075 0.749312 0.981622 0.033958 -0.014305 186117.000000 0 0 1
-35.678111 33.062881 33.285512 58.940708 -0.747372 0.970692 0.026248 -0.013641 299930.000000 0 0 1
-36.534802 32.261481 -33.789979 59.307315 -0.723362 2.176990 0.043217 -0.013289 298395.000000 0 0 1
-35.968941 30.860981 -33.512729 58.045395 -0.709114 2.186280 0.039172 -0.008187 383006.000000 0 0 1
-34.838958 31.069281 -32.656799 56.969464 -0.728265 2.181243 0.046525 -0.012045 70057.300000 0 0 1
-34.368918 29.847381 -32.132779 55.718975 -0.715103 2.185472 0.034233 -0.019641 254306.000000 0 0 1
-33.698692 29.986881 -30.706959 54.568601 -0.727181 2.168471 0.031062 -0.018382 -137547.000000 0 0 1
-34.586777 30.059481 -29.662529 54.586475 -0.715480 2.145284 0.047745 -0.021446 -759290.000000 0 0 1
-35.228851 31.305281 -29.472989 55.585517 -0.726496 2.129666 0.034780 -0.013291 208698.000000 0 0 1
-36.281592 31.185181 -28.341889 55.606944 -0.710002 2.105612 0.049008 -0.014226 85630.300000 0 0 1
-35.645919 30.987281 -27.108539 54.458388 -0.715597 2.091839 0.046938 -0.030257 -172575.000000 0 0 1
-36.532212 30.739181 -26.029699 54.378719 -0.699496 2.069941 0.078078 -0.033257 -222996.000000 0 0 1
-35.846231 30.457481 -24.695399 53.126954 -0.704303 2.054247 0.093537 -0.040518 -268453.000000 0 0 1
-35.460717 31.601281 -23.976699 53.207007 -0.727911 2.038268 0.079912 -0.039674 -227688.000000 0 0 1
-35.367062 31.506281 -22.569499 52.467677 -0.727729 2.015466 0.064457 -0.037812 106308.000000 0 0 1
-36.634732 31.279481 -21.677699 52.824542 -0.706708 1.993658 0.066819 -0.036185 1122070.000000 0 0 1
36.541652 32.249781 -21.620099 53.317628 0.723089 1.988318 0.069999 -0.041089 862989.000000 0 0 1
36.898382 33.446481 -20.989799 54.043773 0.736366 1.969675 0.066866 -0.045548 -316218.000000 0 0 1
36.961982 33.411581 -19.413099 53.473267 0.734990 1.942328 0.063716 -0.036233 -150839.000000 0 0 1
-36.243952 32.555781 -19.048599 52.310153 -0.731842 1.943513 0.059668 -0.039499 -294651.000000 0 0 1
-35.877849 32.676881 -17.709499 51.658736 -0.738740 1.920710 0.063798 -0.019876 -519888.000000 0 0 1
-34.722641 31.742981 -17.399899 50.160095 -0.740598 1.925047 0.070556 -0.026748 -530210.000000 0 0 1
-34.518759 31.299281 -16.079599 49.292426 -0.736522 1.903086 0.060546 -0.019514 -12752.100000 0 0 1
-33.393182 30.445381 -16.068099 47.960501 -0.739255 1.912431 0.059423 -0.014269 -250174.000000 0 0 1
-32.946692 30.155481 -14.614199 46.993749 -0.741194 1.887022 0.072123 -0.017002 17209.500000 0 0 1
-33.958462 29.499481 -13.871899 47.072563 -0.715247 1.869929 0.062392 -0.012075 97574.100000 0 0 1
-33.436822 29.134781 -12.670899 46.123836 -0.716752 1.849089 0.078762 -0.009496 677539.000000 0 0 1
-34.580103 28.499081 -11.766299 46.329548 -0.689292 1.827579 0.071334 -0.012178 954487.000000 0 0 1
-33.998182 27.982481 -10.557899 45.280955 -0.688644 1.806127 0.077425 -0.015447 596555.000000 0 0 1
-34.769290 26.947781 -9.941299 45.098957 -0.659338 1.793055 0.080502 -0.022732 -11962.600000 0 0 1
-33.893942 26.172681 -8.972699 43.752919 -0.657554 1.777338 0.084639 -0.008653 -153996.000000 0 0 1
-33.344362 27.046881 -7.990499 43.671826 -0.681496 1.754800 0.082580 -0.016916 -265351.000000 0 0 1
-32.542422 26.342281 -7.131599 42.470987 -0.680492 1.739513 0.085337 -0.028539 -638261.000000 0 0 1
-31.919272 27.335981 -6.129299 42.469567 -0.708204 1.715624 0.087889 -0.029247 -427979.000000 0 0 1
-31.145242 26.658381 -5.184199 41.322770 -0.707931 1.696584 0.100468 -0.026085 69017.600000 0 0 1
-31.248632 27.222681 -3.856599 41.622407 -0.716653 1.663586 0.094684 -0.023106 -238457.000000 0 0 1
-30.455422 26.358481 -2.820899 40.376475 -0.713411 1.640718 0.089807 -0.022304 79888.800000 0 0 1
-31.034822 25.090981 -2.547399 39.990084 -0.679889 1.634540 0.085619 -0.012749 157272.000000 0 0 1
-30.206512 24.342181 -1.662899 38.829633 -0.678303 1.613635 0.080251 -0.014187 164046.000000 0 0 1
-30.784162 22.998081 -1.156399 38.443643 -0.641627 1.600881 0.093532 -0.016456 -240035.000000 0 0 1
-30.798002 21.836081 -2.014099 37.807248 -0.616747 1.624094 0.078960 -0.008984 -46612.600000 0 0 1
-31.865002 20.939781 -1.822799 38.172967 -0.581378 1.618566 0.090366 -0.006064 -145385.000000 0 0 1
-32.193432 20.076781 -3.082399 38.065672 -0.557613 1.651861 0.107416 -0.000934 -505255.000000 0 0 1
-31.271682 19.107581 -3.409499 36.805468 -0.548482 1.663565 0.087039 -0.005273 -476127.000000 0 0 1
-31.525062 18.562981 -4.728599 36.888663 -0.532168 1.699336 0.094019 0.001052 -522138.000000 0 0 1
-30.527822 17.569781 -5.246699 35.611417 -0.522235 1.718667 0.104835 -0.000312 -618587.000000 0 0 1
-30.502712 16.443981 -4.317099 34.920729 -0.494435 1.694739 0.119790 -0.015121 386182.000000 0 0 1
-29.732462 15.380381 -4.912699 33.833564 -0.477386 1.716513 0.120711 -0.019767 61281.700000 0 0 1
-29.540862 14.104281 -4.106899 32.991816 -0.445445 1.695602 0.124219 -0.023372 -347464.000000 0 0 1
-30.720942 13.468381 -3.712499 33.748426 -0.413174 1.681025 0.145449 -0.023514 17399.900000 0 0 1
-30.380732 12.389481 -2.942599 32.941570 -0.387219 1.660243 0.134645 -0.025552 -494771.000000 0 0 1
-31.651012 11.699681 -2.475299 33.834838 -0.354069 1.644020 0.161500 -0.027000 -647179.000000 0 0 1
-32.303802 11.074081 -3.566499 34.334980 -0.330256 1.674858 0.156619 -0.019520 -655590.000000 0 0 1
-33.377762 10.433881 -3.019899 35.100722 -0.302976 1.656938 0.171256 -0.022464 -994195.000000 0 0 1
-34.471252 9.918081 -3.983699 36.090240 -0.280153 1.681403 0.125725 -0.016061 -213091.000000 0 0 1
-34.050562 8.859881 -4.790299 35.508946 -0.254553 1.706113 0.125666 -0.015976 -86421.300000 0 0 1
-34.996201 8.299081 -5.651499 36.408080 -0.232841 1.726653 0.115515 -0.004142 -407360.000000 0 0 1
-34.310550 7.458481 -6.752899 35.755342 -0.214051 1.760802 0.118098 -0.005922 -535563.000000 0 0 1
-33.736132 6.327081 -6.272599 34.892751 -0.185393 1.751547 0.116438 -0.006302 346832.000000 0 0 1
-33.085132 5.646081 -7.371899 34.363485 -0.169025 1.787004 0.123218 -0.011356 193149.000000 0 0 1
-31.984172 4.634181 -6.928299 33.052447 -0.143889 1.781978 0.149065 -0.014814 1106150.000000 0 0 1
-30.639812 5.116581 -6.725199 31.783735 -0.165464 1.784000 0.158892 -0.020920 1396650.000000 0 0 1
-29.823712 4.071881 -6.131999 30.718650 -0.135693 1.771765 0.160709 -0.019877 497659.000000 0 0 1
-28.353392 4.526681 -5.941799 29.320823 -0.158316 1.774857 0.186616 -0.019809 157078.000000 0 0 1
-27.602072 4.426681 -7.137999 28.851706 -0.159021 1.820795 0.188515 -0.012927 692678.000000 0 0 1
-26.194812 4.530481 -6.877099 27.458841 -0.171259 1.823943 0.192099 -0.026047 933044.000000 0 0 1
-25.412692 4.877381 -8.196499 27.143625 -0.189621 1.877552 0.173300 -0.022754 6342.820000 0 0 1
-25.524382 4.005981 -9.270199 27.449564 -0.155677 1.915287 0.173240 -0.042870 620731.000000 0 0 1
-24.551162 4.327981 -10.266599 26.960973 -0.174491 1.961452 0.171478 -0.044480 248071.000000 0 0 1
-24.904962 3.669481 -11.623799 27.727873 -0.146287 2.003371 0.162071 -0.050863 442659.000000 0 0 1
-26.023602 4.259881 -12.289899 29.093231 -0.162254 2.006923 0.163271 -0.038706 542287.000000 0 0 1
-26.383642 3.614881 -13.508999 29.860626 -0.136164 2.040253 0.157180 -0.039815 464819.000000 0 0 1
-27.491092 4.400381 -14.268899 31.284581 -0.158719 2.044404 0.130976 -0.037359 19886.600000 0 0 1
-26.892982 5.585881 -14.829499 31.214558 -0.204796 2.065854 0.104594 -0.028930 1301680.000000 0 0 1
-27.858792 6.513481 -15.394699 32.488991 -0.229678 2.064447 0.141926 -0.032617 24982.200000 0 0 1
-28.692932 6.094681 -16.578099 33.693662 -0.209300 2.085210 0.090927 -0.009864 -139607.000000 0 0 1
-29.754062 5.207781 -16.194999 34.273944 -0.173272 2.062940 0.111980 -0.036144 226554.000000 0 0 1
-30.287502 4.535381 -17.334399 35.190679 -0.148640 2.085854 0.112740 -0.019691 701126.000000 0 0 1
-31.677622 3.854981 -17.047499 36.179412 -0.121099 2.061440 0.111170 -0.023891 655845.000000 0 0 1
-31.653222 2.767881 -16.191499 35.661636 -0.087222 2.042081 0.118778 -0.038471 172219.000000 0 0 1
-31.903412 1.527881 -16.891999 36.131728 -0.047854 2.057270 0.135763 -0.036624 50268.500000 0 0 1
-31.895942 0.301781 -16.017899 35.693351 -0.009461 2.036178 0.145411 -0.042266 -75218.600000 0 0 1
-31.787762 -0.928819 -16.714699 35.926393 0.029211 2.054712 0.150078 -0.027543 196661.000000 0 0 1
-32.005312 -1.963219 -15.767199 35.732322 0.061264 2.027797 0.155683 -0.037542 35852.200000 0 0 1
-31.818592 -3.352519 -16.462699 35.981699 0.104976 2.046012 0.138537 -0.030081 -551922.000000 0 0 1
-32.810652 -3.700419 -17.352799 37.300826 0.112306 2.054671 0.140463 -0.029672 -414323.000000 0 0 1
-32.450832 -4.791019 -18.206799 37.516635 0.146580 2.077502 0.132218 -0.025211 -569095.000000 0 0 1
-33.299372 -4.946219 -19.414699 38.861856 0.147460 2.093913 0.136277 -0.020947 -586756.000000 0 0 1
-32.856092 -5.971219 -20.271999 39.065742 0.179776 2.116384 0.136411 -0.018393 778741.000000 0 0 1
-33.905522 -6.294919 -21.183999 40.471870 0.183570 2.121662 0.124678 -0.014206 327968.000000 0 0 1
-33.321332 -7.314919 -22.197799 40.700879 0.216099 2.147649 0.117527 -0.009174 40119.000000 0 0 1
-32.259342 -6.827419 -22.981099 40.192160 0.208564 2.179471 0.114677 -0.017899 -254870.000000 0 0 1
-31.841862 -7.800819 -23.823299 40.525382 0.240254 2.199209 0.107503 -0.015359 -283649.000000 0 0 1
-30.480372 -7.412719 -24.443399 39.767842 0.238565 2.232742 0.115108 -0.012509 -347017.000000 0 0 1
-30.472582 -6.392819 -25.447669 40.212315 0.206790 2.256003 0.105983 -0.021376 21990.200000 0 0 1
-30.702542 -6.870519 -26.828769 41.347709 0.220150 2.276878 0.086527 -0.024851 466306.000000 0 0 1
-32.186912 -6.826819 -27.318379 42.765601 0.209002 2.263725 0.092884 -0.021692 526770.000000 0 0 1
-32.997432 -7.913119 -26.871509 43.284247 0.235365 2.240578 0.079764 -0.016940 -80526.100000 0 0 1
-34.247927 -7.879019 -27.531979 44.643133 0.226124 2.235356 0.074035 -0.015926 425282.000000 0 0 1
-35.155639 -9.066419 -27.111939 45.311987 0.252394 2.212223 0.067788 -0.016940 -428560.000000 0 0 1
-34.640753 -10.229819 -27.675549 45.503484 0.287150 2.224596 0.067379 -0.014678 188833.000000 0 0 1
-35.301711 -11.473419 -27.313409 46.085491 0.314241 2.205164 0.065210 -0.012048 -24639.500000 0 0 1
-36.692472 -11.689719 -27.937719 47.576288 0.308420 2.198416 0.047839 -0.004175 -188088.000000 0 0 1
36.572772 -10.760219 -27.495459 47.003726 -0.286140 2.195631 0.041799 -0.011679 181385.000000 0 0 1
35.664292 -10.559319 -28.602359 46.920528 -0.287852 2.226342 0.037259 -0.014259 29162.500000 0 0 1
34.624772 -9.505319 -28.205629 45.659429 -0.267923 2.236661 0.041814 -0.015132 -94516.300000 0 0 1
33.611022 -9.949819 -27.312609 44.437353 -0.287809 2.232715 0.035264 -0.012243 13070.200000 0 0 1
32.744532 -8.873419 -27.009059 43.363940 -0.264634 2.243172 0.020059 -0.007869 553484.000000 0 0 1
31.501982 -9.309219 -26.166969 41.996985 -0.287334 2.243455 0.022986 -0.007184 401193.000000 0 0 1
31.876472 -9.518019 -24.806499 41.497766 -0.290163 2.211524 0.006530 0.003324 186616.000000 0 0 1
30.766972 -9.848319 -23.994699 40.241043 -0.309788 2.209648 -0.007743 0.008565 -135702.000000 0 0 1
31.059622 -10.062019 -22.537499 39.672197 -0.313289 2.174983 -0.019844 0.007728 182514.000000 0 0 1
31.872082 -11.203619 -22.225999 40.439409 -0.338027 2.152697 -0.019523 0.003543 432943.000000 0 0 1
32.068472 -11.182319 -20.828899 39.840610 -0.335517 2.120935 -0.010616 -0.001108 -366114.000000 0 0 1
32.870952 -12.379819 -20.293599 40.565867 -0.360189 2.094699 0.012253 -0.007612 -732055.000000 0 0 1
34.196812 -12.250019 -20.704399 41.810969 -0.343980 2.088851 0.023154 -0.008677 -477325.000000 0 0 1
35.026692 -13.045519 -19.848399 42.320370 -0.356529 2.058958 0.048781 -0.014615 470880.000000 0 0 1
36.502512 -13.086919 -20.334599 43.785806 -0.344246 2.053765 0.060101 -0.017794 108330.000000 0 0 1
-36.913632 -11.926719 -20.441699 43.848899 0.312511 2.055770 0.073368 -0.016440 622255.000000 0 0 1
37.024182 -10.912819 -21.396999 44.132882 -0.286632 2.076967 0.082092 -0.004857 -780729.000000 0 0 1
-36.759662 -11.187519 -22.854199 44.707357 0.295436 2.107372 0.069680 -0.006268 -282864.000000 0 0 1
37.029252 -12.194019 -23.690699 45.619172 -0.318123 2.116845 0.073100 -0.007719 186362.000000 0 0 1
35.681492 -12.023719 -24.107099 44.708958 -0.325023 2.140284 0.081296 -0.007695 7151.790000 0 0 1
35.139352 -13.264419 -24.816699 45.017635 -0.360944 2.154677 0.059239 -0.025645 -237334.000000 0 0 1
35.217062 -14.496719 -24.123799 45.081637 -0.390500 2.135439 0.069472 -0.033291 975846.000000 0 0 1
34.180702 -14.637119 -23.130399 43.790193 -0.404601 2.127287 0.053746 -0.029548 232272.000000 0 0 1
-30.377832 8.648081 -18.993299 36.855765 -0.277347 2.112202 0.053465 -0.002103 117219.000000 0 0 1
-29.178002 7.957381 -19.279999 35.866337 -0.266244 2.138327 0.053941 -0.006582 60783.700000 0 0 1
-28.591842 8.369581 -20.502699 36.164956 -0.284770 2.173561 0.066826 -0.022842 41058.200000 0 0 1
-27.249362 7.638181 -20.734199 35.082426 -0.273293 2.203111 0.072145 -0.018942 284697.000000 0 0 1
-26.139812 8.178281 -19.996399 33.912093 -0.303219 2.201427 0.082687 -0.023705 1143300.000000 0 0 1
-25.112242 7.146081 -20.028199 32.906230 -0.277237 2.225148 0.109426 -0.031967 -40080.300000 0 0 1
-23.697862 7.499681 -19.649799 31.685147 -0.306498 2.239741 0.098035 -0.035619 -636938.000000 0 0 1
-22.969562 8.351481 -20.491399 31.894286 -0.348729 2.268525 0.098973 -0.032312 -557484.000000 0 0 1
-21.682362 8.489081 -19.944799 30.659164 -0.373175 2.279082 0.101435 -0.029318 12001.500000 0 0 1
-20.856062 9.561781 -20.756499 30.939219 -0.429871 2.306191 0.111787 -0.025699 143525.000000 0 0 1
-20.254362 9.023981 -21.918199 31.178180 -0.419133 2.350401 0.118605 -0.029363 137487.000000 0 0 1
-19.546562 9.996381 -22.696399 31.577243 -0.472737 2.372811 0.118149 -0.030565 431940.000000 0 0 1
-18.568262 9.268781 -23.686699 31.492069 -0.462986 2.422112 0.114729 -0.026150 -88009.700000 0 0 1
-19.245362 8.554781 -24.642599 32.416446 -0.418280 2.434399 0.107618 -0.019886 27144.800000 0 0 1
-18.364162 7.870481 -25.539099 32.425800 -0.404898 2.477728 0.084948 -0.008530 -149032.000000 0 0 1
-18.968562 6.677381 -26.267499 33.081344 -0.338476 2.488203 0.069646 -0.006759 -95574.100000 0 0 1
-19.398862 5.605181 -25.484439 32.514467 -0.281283 2.471538 0.089090 -0.010025 -65695.600000 0 0 1
-20.221962 4.706081 -26.156249 33.394975 -0.228651 2.470655 0.082096 -0.012919 -619072.000000 0 0 1
-20.542062 3.463481 -25.237489 32.724653 -0.167033 2.451532 0.082276 -0.008511 388581.000000 0 0 1
-19.461462 2.558881 -25.011199 31.793969 -0.130735 2.476185 0.075549 -0.006736 -257551.000000 0 0 1
-18.380462 3.036781 -24.292499 30.613542 -0.163739 2.487370 0.074178 -0.010301 -840568.000000 0 0 1
-17.475162 1.853281 -23.800299 29.584966 -0.105657 2.505584 0.071816 -0.014181 -33993.100000 0 0 1
-17.839962 1.134281 -22.660899 28.862904 -0.063495 2.473689 0.074772 -0.015161 -134326.000000 0 0 1
-19.055762 0.419681 -22.781899 29.703757 -0.022020 2.444903 0.073752 -0.010869 112660.000000 0 0 1
-19.445162 -0.377219 -21.538199 29.019832 0.019397 2.407127 0.114253 -0.021987 213628.000000 0 0 1
-18.559062 -1.461619 -21.313599 28.299199 0.078593 2.423637 0.103923 -0.022184 325792.000000 0 0 1
-19.033162 -2.228119 -20.228499 27.864278 0.116535 2.383233 0.122093 -0.023485 -195045.000000 0 0 1
-18.523062 -3.667119 -20.148099 27.613357 0.195448 2.388607 0.089208 -0.023782 -246866.000000 0 0 1
-18.799862 -4.414619 -21.330899 28.773789 0.230643 2.405848 0.088575 -0.030036 260301.000000 0 0 1
-19.208362 -5.749319 -21.124299 29.124764 0.290827 2.382272 0.098419 -0.022734 -109604.000000 0 0 1
-19.254562 -6.573219 -22.455999 30.302100 0.328979 2.405460 0.069878 -0.032956 331029.000000 0 0 1
-17.906762 -6.859319 -22.812099 29.800911 0.365816 2.442588 0.064280 -0.021842 468846.000000 0 0 1
-17.924462 -7.489819 -24.075799 30.935867 0.395803 2.462668 0.081848 -0.030633 544989.000000 0 0 1
-16.481962 -7.570519 -24.641599 30.596998 0.430579 2.507079 0.065055 -0.034323 -448218.000000 0 0 1
-16.548562 -8.135319 -25.898299 31.792456 0.456907 2.522845 0.080579 -0.060834 450387.000000 0 0 1
-15.346462 -8.317819 -26.664819 31.870246 0.496682 2.561968 0.089979 -0.060879 261731.000000 0 0 1
-14.282862 -9.253319 -26.078109 31.139876 0.574871 2.563398 0.082799 -0.053183 -703222.000000 0 0 1
-13.538962 -8.681119 -25.023899 29.746611 0.570161 2.570360 0.083336 -0.043267 76009.500000 0 0 1
-12.801562 -9.637919 -24.280299 29.091277 0.645336 2.558247 0.071762 -0.034913 -116690.000000 0 0 1
-12.024662 -8.998819 -23.136399 27.583767 0.642453 2.565814 0.090188 -0.033455 -428313.000000 0 0 1
-12.744562 -8.678619 -22.006399 26.870503 0.597837 2.530427 0.090255 -0.023695 -68851.200000 0 0 1
-11.906062 -8.060219 -21.035299 25.479507 0.595112 2.542021 0.087505 -0.020257 -340411.000000 0 0 1
-12.593862 -7.983319 -19.668899 24.682065 0.564978 2.492927 0.068494 -0.016072 594633.000000 0 1 0
-13.473962 -6.860619 -19.411099 24.605010 0.470961 2.479827 0.051781 -0.010030 318815.000000 0 1 0
-14.782962 -7.023419 -19.894299 25.761357 0.443532 2.453177 0.065118 -0.020910 -127490.000000 0 0 1
-15.675962 -5.797619 -19.413299 25.616877 0.354240 2.430781 0.073821 -0.016157 5360.170000 0 0 1
-15.779962 -5.650219 -18.047299 24.630006 0.343840 2.393131 0.063288 -0.013851 417982.000000 0 1 0
-14.989762 -4.543119 -17.644399 23.593595 0.294281 2.415609 0.062285 -0.014340 -334801.000000 0 1 0
-14.836062 -4.344819 -16.104699 22.323699 0.284889 2.376643 0.062652 -0.016073 333261.000000 0 1 0
-16.078262 -4.107119 -15.425199 22.656472 0.250097 2.319691 0.095444 -0.026978 814699.000000 0 1 0
-16.479162 -2.708519 -15.469999 22.764440 0.162904 2.317971 0.055422 -0.028808 -266722.000000 0 1 0
-17.742262 -2.380119 -14.667599 23.142846 0.133354 2.257234 0.059482 -0.031389 -197550.000000 0 1 0
-17.513562 -2.527619 -13.269299 22.117595 0.143334 2.214226 0.081749 -0.041664 1128150.000000 0 1 0
-18.531462 -1.891019 -12.473899 22.418502 0.101692 2.160856 0.091952 -0.043265 482541.000000 0 1 0
-17.965262 -0.567019 -11.857499 21.533055 0.031551 2.153957 0.072107 -0.035611 148449.000000 0 1 0
-17.700962 0.388281 -12.861299 21.883506 -0.021932 2.199030 0.092557 -0.035566 387608.000000 0 1 0
-16.810962 1.332181 -12.349899 20.902229 -0.079080 2.202898 0.081653 -0.025723 -1188110.000000 0 1 0
-16.368262 2.392181 -13.349899 21.257054 -0.145120 2.249805 0.095302 -0.023510 330405.000000 0 1 0
-15.503762 1.960881 -14.410299 21.257197 -0.125810 2.315702 0.083516 -0.033533 1123460.000000 0 1 0
-14.192062 1.577481 -13.961699 19.970782 -0.110698 2.344943 0.075492 -0.026829 -544356.000000 0 1 0
-13.613862 0.472581 -14.874799 20.169785 -0.034699 2.400127 0.063014 -0.035040 -240609.000000 0 1 0
-13.182062 0.935781 -16.127999 20.850775 -0.070870 2.455136 0.073101 -0.039163 331253.000000 0 1 0
-12.655362 -0.026319 -17.019299 21.208853 0.002080 2.502206 0.035856 -0.028554 -90653.400000 0 1 0
-12.211262 0.588581 -18.371199 22.067223 -0.048163 2.554421 0.057822 -0.028601 -589182.000000 0 1 0
-11.002962 1.261381 -18.270399 21.365012 -0.114142 2.596646 0.040120 -0.018851 -771733.000000 0 1 0
-10.753962 1.932481 -19.487199 22.341288 -0.177802 2.630582 0.056608 -0.013504 270531.000000 0 1 0
-9.349962 2.587881 -19.471999 21.754946 -0.270020 2.679364 0.039390 -0.007782 -210180.000000 0 1 0
-8.293662 1.604981 -19.622599 21.363689 -0.191156 2.735073 0.034651 -0.007227 1408590.000000 0 1 0
-6.967662 2.133081 -19.362899 20.688650 -0.297080 2.781655 0.029334 -0.001415 1364230.000000 0 1 0
-6.502662 3.370381 -20.175999 21.464274 -0.478186 2.793370 0.037173 -0.003146 -1296470.000000 0 1 0
-6.128562 2.961881 -21.494199 22.546233 -0.450192 2.834905 0.035223 -0.004018 230994.000000 0 1 0
-6.001662 4.004681 -22.463699 23.593966 -0.588415 2.830812 0.048058 -0.000332 -316673.000000 0 1 0
-5.579562 3.517781 -23.860199 24.755109 -0.562528 2.871888 0.073700 -0.013827 35248.500000 0 1 0
-4.248962 3.050481 -23.851599 24.418393 -0.622662 2.925713 0.074619 -0.016582 -179341.000000 0 1 0
-3.834162 2.562381 -25.124489 25.544208 -0.589134 2.960064 0.098256 -0.024152 -154270.000000 0 0 1
-2.450762 1.905181 -25.212169 25.402548 -0.660797 3.019087 0.083988 -0.021208 -537645.000000 0 0 1
-1.420862 2.868181 -24.948299 25.152792 -1.110845 3.013991 0.091026 -0.020729 274762.000000 0 0 1
-0.123662 2.395181 -25.250179 25.363828 -1.519212 3.046892 0.084373 -0.015989 2944.770000 0 0 1
0.501938 1.512581 -24.160299 24.212805 1.250389 3.075725 0.067984 -0.003367 -882651.000000 0 1 0
-0.058462 0.199481 -23.861099 23.862005 -1.285708 3.132881 0.045436 -0.010798 366032.000000 0 1 0
0.789138 -0.438019 -22.897699 22.915480 -0.506720 3.102196 0.045270 -0.006506 -305167.000000 0 1 0
0.549938 -1.962519 -22.792199 22.883144 -1.297583 3.052408 0.048109 -0.017748 77527.900000 0 1 0
-0.581562 -2.328019 -22.028199 22.158508 1.325997 3.033089 0.043154 -0.019263 296059.000000 0 1 0
-1.851362 -2.424819 -22.643299 22.847895 0.918708 3.007667 0.043144 -0.022595 367606.000000 0 1 0
-2.776662 -1.182819 -22.765799 22.964985 0.402705 3.009790 0.053197 -0.020245 -1484540.000000 0 1 0
-3.334162 -0.853019 -21.503699 21.777359 0.250469 2.982894 0.038908 -0.018705 -95293.500000 0 1 0
-4.289162 0.176681 -21.560699 21.983901 -0.041169 2.945060 0.037893 -0.017356 1876540.000000 0 1 0
-5.671362 -0.283819 -22.281699 22.993891 0.050002 2.892056 0.035464 -0.014009 807773.000000 0 1 0
-6.465162 -1.216119 -21.533999 22.516447 0.185931 2.845102 0.037279 -0.009305 591699.000000 0 1 0
-7.852562 -0.980819 -21.778399 23.171608 0.124261 2.793058 0.042145 -0.010162 671366.000000 0 1 0
-8.701462 -2.233819 -21.462399 23.266714 0.251291 2.745177 0.038914 -0.010144 -111642.000000 0 1 0
-8.622662 -3.080519 -22.524599 24.314553 0.343126 2.755489 0.051021 -0.015325 125587.000000 0 1 0
-9.088262 -4.355319 -22.118599 24.306332 0.446890 2.714064 0.039988 -0.017312 103812.000000 0 1 0
-9.866662 -5.123519 -23.252499 25.773634 0.478949 2.695597 0.045800 -0.021456 1377700.000000 0 0 1
-11.280862 -4.824719 -23.350599 26.377761 0.404147 2.657802 0.052402 -0.023720 1080620.000000 0 0 1
-11.925662 -5.488819 -24.419599 27.724815 0.431347 2.648314 0.050267 -0.037116 -430081.000000 0 0 1
-13.433662 -5.270119 -24.375099 28.326364 0.373857 2.607065 0.086291 -0.045786 -600357.000000 0 0 1
-13.854262 -3.924519 -24.498599 28.416963 0.276040 2.610219 0.068167 -0.047221 167096.000000 0 0 1
-15.247562 -3.819519 -24.241999 28.892065 0.245449 2.566338 0.054395 -0.050454 370810.000000 0 0 1
-15.708262 -2.373019 -24.318099 29.047387 0.149934 2.562916 0.071073 -0.039002 -168070.000000 0 0 1
-15.983262 -1.885919 -25.642159 30.274440 0.117450 2.581094 0.067349 -0.035430 131767.000000 0 0 1
-16.775262 -0.724419 -25.805129 30.786993 0.043157 2.564739 0.061435 -0.030963 581794.000000 0 0 1
-18.268462 -1.074719 -26.118769 31.891721 0.058761 2.530432 0.068204 -0.023708 298806.000000 0 0 1
-18.717962 -1.761119 -27.276819 33.128364 0.093811 2.538116 0.075436 -0.033063 -303719.000000 0 0 1
-18.464962 -1.117219 -28.601989 34.062836 0.060431 2.567496 0.060214 -0.033110 -273918.000000 0 0 1
-18.539762 -1.901619 -29.978859 35.299730 0.102212 2.585390 0.056353 -0.032187 109600.000000 0 0 1
-19.834562 -2.282819 -30.389159 36.360997 0.114589 2.560316 0.056766 -0.027700 106979.000000 0 0 1
-19.794362 -2.799219 -31.691039 37.469646 0.140483 2.578820 0.064825 -0.034955 -23897.400000 0 0 1
-21.174562 -3.417319 -32.029739 38.547949 0.160008 2.551531 0.043485 -0.031178 429209.000000 0 0 1
-22.267862 -2.595619 -32.356699 39.364336 0.116040 2.535675 0.027932 -0.023861 257795.000000 0 0 1
-22.987562 -2.054319 -31.291149 38.881670 0.089130 2.506099 0.024507 -0.009971 5480.950000 0 0 1
-24.061962 -0.986119 -31.708899 39.817142 0.040960 2.492054 0.028411 -0.010251 497708.000000 0 0 1
-23.490562 0.276981 -32.066709 39.751190 -0.011791 2.509318 0.036043 -0.021910 260460.000000 0 0 1
-24.501462 1.169881 -32.436599 40.667226 -0.047711 2.494119 0.032244 -0.025145 -179688.000000 0 0 1
-23.993862 2.457681 -33.133539 40.982643 -0.102074 2.512357 0.043888 -0.024162 -273574.000000 0 0 1
-23.374462 3.493481 -32.313589 40.034210 -0.148359 2.510104 0.043400 -0.021776 1176820.000000 0 0 1
-24.242162 4.240781 -31.382049 39.881069 -0.173182 2.476551 0.034990 -0.025546 247390.000000 0 0 1
-25.317642 5.158781 -32.024659 41.148206 -0.201011 2.462712 0.028773 -0.025555 -230302.000000 0 0 1
-26.419612 4.390381 -32.449799 42.074468 -0.164674 2.451594 0.047337 -0.034020 -422522.000000 0 0 1
-27.182182 5.106881 -33.398059 43.363368 -0.185711 2.449936 0.070495 -0.037453 -1267340.000000 0 0 1
-28.543722 4.508781 -33.560829 44.287724 -0.156666 2.430717 0.084766 -0.027258 -1267310.000000 0 0 1
-28.516272 3.201081 33.862102 44.385433 -0.111787 0.702994 0.088500 -0.027066 872367.000000 0 0 1
-29.855702 2.877281 33.456540 44.933081 -0.096076 0.730882 0.093508 -0.026584 739632.000000 0 0 1
-30.019292 1.525881 32.804847 44.493193 -0.050786 0.741731 0.094591 -0.006654 -120802.000000 0 0 1
-30.139572 0.607981 33.849749 45.327353 -0.020169 0.727583 0.082113 -0.006793 166281.000000 0 0 1
-29.899252 -0.709119 33.397136 44.831204 0.023712 0.730332 0.068495 -0.000229 -339059.000000 0 0 1
-29.468522 -1.778219 -33.373659 44.557345 0.060270 2.417355 0.019879 0.004254 277714.000000 0 0 1
-28.166642 -1.631519 -32.828089 43.286315 0.057859 2.431642 0.041976 -0.006497 516555.000000 0 0 1
-28.009382 -0.544919 -31.953529 42.495299 0.019452 2.421783 0.053532 0.003462 -611622.000000 0 0 1
-28.296202 -0.646519 -30.454629 41.576165 0.022844 2.392787 0.067774 -0.004879 426986.000000 0 0 1
-27.236712 -1.340719 -29.760439 40.364833 0.049185 2.399841 0.055371 -0.013864 824212.000000 0 0 1
-27.258042 -0.978819 -28.403259 39.378980 0.035894 2.376444 0.066225 -0.015156 -25338.200000 0 0 1
-26.064752 -1.359919 -27.478459 37.898370 0.052127 2.381913 0.065492 -0.015475 14981.700000 0 0 1
-26.045282 -2.772619 -27.226899 37.780262 0.106054 2.375557 0.064107 -0.014452 -637755.000000 0 0 1
-25.007762 -3.136819 -26.406259 36.503676 0.124782 2.379491 0.083448 -0.022437 -724188.000000 0 0 1
-25.261242 -4.467419 -25.571779 36.221597 0.175039 2.354604 0.091417 -0.029788 -330480.000000 0 0 1
-26.214122 -4.266119 -24.596299 36.198866 0.161327 2.317846 0.104155 -0.025015 -569139.000000 0 0 1
-26.699382 -5.460519 -24.035299 36.336894 0.201737 2.293556 0.105480 -0.027334 294708.000000 0 0 1
-27.805002 -5.155719 -22.984499 36.441553 0.183342 2.253280 0.109682 -0.026929 127763.000000 0 0 1
-28.242292 -6.234419 -22.193199 36.455907 0.217263 2.225303 0.126673 -0.030339 379666.000000 0 0 1
-29.152182 -5.820219 -21.154899 36.486360 0.197059 2.189283 0.144520 -0.022124 569063.000000 0 0 1
-29.773422 -6.977319 -20.352199 36.733523 0.230193 2.158017 0.153890 -0.032902 59650.000000 0 0 1
-28.827522 -7.467919 -19.407499 35.544998 0.253483 2.148376 0.149703 -0.034679 717321.000000 0 0 1
-29.410122 -8.439019 -18.516399 35.763520 0.279435 2.115010 0.162368 -0.024730 255927.000000 0 0 1
-30.144852 -7.795519 -17.339499 35.639030 0.253058 2.078911 0.169201 -0.036581 431978.000000 0 0 1
-29.200502 -7.401919 -16.323399 34.262386 0.248257 2.067378 0.171797 -0.039636 896749.000000 0 0 1
-29.704942 -6.335819 -15.548499 34.121577 0.210143 2.043932 0.164795 -0.038228 -431178.000000 0 0 1
-28.622402 -5.687319 -14.694599 32.672906 0.196147 2.037280 0.165419 -0.040399 -375273.000000 0 0 1
-27.722542 -4.934719 -15.462399 32.124393 0.176159 2.072967 0.171242 -0.038069 -385689.000000 0 0 1
-26.546112 -4.720619 -14.759199 30.737832 0.175987 2.071638 0.160017 -0.050524 -667681.000000 0 0 1
-14.083362 20.993781 -4.799699 25.731635 -0.979914 1.758424 0.086487 -0.040537 -76648.600000 0 0 1
-14.327162 20.575081 -6.108799 25.805406 -0.962534 1.809791 0.108795 -0.041727 -16073.000000 0 0 1
-15.321462 19.577081 -6.159299 25.611448 -0.906742 1.813667 0.104907 -0.047228 -18584.600000 0 0 1
-15.541862 18.899081 -7.491599 25.590014 -0.882569 1.867903 0.125737 -0.047142 392454.000000 0 0 1
-14.351762 18.202781 -7.929399 24.498769 -0.903145 1.900397 0.107280 -0.040924 567748.000000 0 1 0
-14.442562 17.210781 -8.945299 24.182989 -0.872630 1.949698 0.093586 -0.040851 -389292.000000 0 1 0
-15.049362 15.836281 -8.476299 23.433283 -0.810871 1.940909 0.084954 -0.041218 1071200.000000 0 1 0
-16.471162 15.947181 -8.278799 24.375198 -0.769236 1.917331 0.101080 -0.029808 576122.000000 0 1 0
-16.942062 15.127681 -7.266999 23.847212 -0.728882 1.880453 0.111152 -0.011981 -821876.000000 0 1 0
-18.425962 15.363281 -7.053799 25.006051 -0.695004 1.856762 0.113046 -0.009531 -809628.000000 0 0 1
-19.247662 14.851881 -8.066999 25.614983 -0.657195 1.891182 0.106888 -0.016669 -206408.000000 0 0 1
-20.575662 15.283881 -7.825799 26.799217 -0.638886 1.867130 0.108771 -0.020025 353544.000000 0 0 1
-21.644862 14.426481 -8.569899 27.387344 -0.587893 1.889057 0.112565 -0.015566 102838.000000 0 0 1
-21.789662 13.102481 -8.062599 26.673393 -0.541387 1.877871 0.143095 -0.014941 -23048.600000 0 0 1
-22.593662 12.301681 -8.886599 27.217211 -0.498591 1.903402 0.152630 -0.015888 118018.000000 0 0 1
-22.908562 10.954181 -8.361899 26.734204 -0.446031 1.888914 0.151224 -0.017630 798799.000000 0 0 1
-21.705362 10.156281 -8.377899 25.386256 -0.437652 1.907118 0.137862 -0.016898 904890.000000 0 0 1
-21.692762 9.217481 -7.325099 24.681876 -0.401795 1.872116 0.141465 -0.020238 -834797.000000 0 1 0
-20.477962 8.332981 -7.229899 23.260631 -0.386461 1.886853 0.077544 -0.003613 -1218820.000000 0 1 0
-20.441462 7.214781 -8.007599 23.109048 -0.339299 1.924648 0.091858 -0.004928 -347217.000000 0 1 0
-19.442962 6.321481 -7.687399 21.842299 -0.314349 1.930450 0.058271 0.002825 -782173.000000 0 1 0
-19.315062 5.120981 -8.664399 21.779989 -0.259166 1.979930 0.046837 -0.008840 -805287.000000 0 1 0
-20.211462 4.059981 -8.503599 22.300176 -0.198237 1.962025 0.070678 -0.012582 132371.000000 0 1 0
-20.247962 3.176581 -9.601499 22.633149 -0.155616 2.008900 0.081054 -0.015772 -128450.000000 0 1 0
-21.192862 1.961081 -9.550099 23.327830 -0.092272 1.992578 0.085069 -0.022424 109722.000000 0 1 0
-20.834962 1.050181 -8.511599 22.530998 -0.050362 1.958186 0.081459 -0.028459 746051.000000 0 1 0
-21.846362 0.029381 -8.384599 23.400126 -0.001345 1.937258 0.098722 -0.022047 430197.000000 0 1 0
-21.658862 -1.220419 -9.265699 23.589170 0.056288 1.974465 0.092205 -0.040875 7197.980000 0 1 0
-20.551662 -2.018519 -8.877099 22.477725 0.097903 1.976787 0.063429 -0.024946 508651.000000 0 1 0
-20.553662 -3.339819 -9.307499 22.808704 0.161085 1.991133 0.055299 -0.019239 -36944.200000 0 1 0
-21.524262 -4.320019 -8.548899 23.559289 0.198073 1.942140 0.063101 -0.023152 208642.000000 0 1 0
-21.245062 -4.537719 -7.171399 22.877337 0.210427 1.889643 0.057428 -0.020258 -210172.000000 0 1 0
-22.287662 -5.070519 -6.414799 23.740255 0.223696 1.844405 0.078943 -0.017810 -593649.000000 0 1 0
-22.510162 -6.637619 -6.583499 24.374328 0.286746 1.844293 0.096533 -0.024855 -707029.000000 0 1 0
-21.592662 -7.439819 -5.953999 23.601781 0.331814 1.825821 0.092195 -0.028133 88640.700000 0 1 0
-21.653262 -8.761019 -6.502199 24.246604 0.384470 1.842289 0.099202 -0.026701 -122236.000000 0 1 0
-20.661162 -9.771319 -5.814199 23.583198 0.441759 1.819905 0.096997 -0.020270 1139280.000000 0 1 0
-19.299262 -9.415719 -6.158799 22.339384 0.453904 1.850106 0.074869 -0.026493 1237190.000000 0 1 0
-18.361662 -10.178319 -5.423699 21.683296 0.506157 1.823614 0.067311 -0.019303 123641.000000 0 1 0
-17.548162 -11.302619 -6.159299 21.762908 0.572210 1.857736 0.051095 -0.017135 416624.000000 0 1 0
-16.398162 -10.926419 -6.917999 20.884087 0.587762 1.908432 0.052889 -0.028239 844495.000000 0 1 0
-16.735662 -10.420219 -8.183999 21.345754 0.556897 1.964273 0.057738 -0.034291 -473321.000000 0 1 0
-15.757562 -10.785119 -9.297699 21.238333 0.600207 2.023923 0.069784 -0.025608 26134.300000 0 1 0
-15.920162 -12.169519 -9.644799 22.238950 0.652659 2.019380 0.082213 -0.028098 490821.000000 0 1 0
-14.972962 -12.450019 -10.667999 22.203576 0.693655 2.071979 0.084497 -0.014806 386883.000000 0 1 0
-15.360462 -13.734519 -11.550499 23.621915 0.729572 2.081709 0.114035 -0.011970 -71985.700000 0 1 0
-16.435662 -13.643019 -12.435099 24.716283 0.692819 2.097994 0.119891 -0.012262 -164495.000000 0 1 0
-16.483562 -14.920319 -13.099599 25.805489 0.735661 2.103226 0.111788 -0.001593 192102.000000 0 0 1
-17.074862 -14.800319 -14.532699 26.866330 0.714161 2.142334 0.129925 -0.006489 60095.000000 0 0 1
-17.143162 -15.980919 -15.191099 27.929327 0.750325 2.145888 0.118803 0.001467 252460.000000 0 0 1
-17.488462 -15.876019 -16.598599 28.868803 0.737108 2.183360 0.113819 0.000506 -173131.000000 0 0 1
-17.746762 -17.244119 -17.315699 30.201666 0.771034 2.181368 0.113829 -0.008533 905517.000000 0 0 1
-19.035762 -17.814519 -17.017999 31.134059 0.752270 2.149100 0.070647 -0.001301 772029.000000 0 0 1
-19.956362 -17.960319 -18.115099 32.388058 0.732804 2.164355 0.074495 -0.001837 1107720.000000 0 0 1
-21.434762 -17.875419 -17.606699 32.999629 0.695099 2.133580 0.065779 -0.008587 260991.000000 0 0 1
-21.829262 -16.628319 -17.088599 32.327046 0.650975 2.127766 0.050997 0.007868 -43172.300000 0 0 1
-21.417562 -16.354119 -15.788499 31.232129 0.652139 2.100782 0.041605 0.005513 -535777.000000 0 0 1
-21.452062 -14.920719 -15.401799 30.332066 0.607725 2.103394 0.060707 -0.006404 -197724.000000 0 0 1
-22.742262 -14.397019 -15.241699 30.932088 0.564368 2.086040 0.086557 -0.001394 -20299.500000 0 0 1
-22.655962 -13.046519 -14.811499 30.048041 0.522476 2.086247 0.096738 -0.007140 184952.000000 0 0 1
-23.949662 -12.324619 -14.302299 30.496530 0.475263 2.058933 0.118346 -0.021454 101183.000000 0 0 1
-24.383062 -12.872219 -13.084899 30.519540 0.485731 2.013892 0.135907 -0.013004 -57001.100000 0 0 1
-25.383632 -12.034419 -12.604999 30.790291 0.442715 1.992573 0.184962 -0.024252 -585394.000000 0 0 1
-26.214482 -12.656719 -11.444399 31.278841 0.449805 1.945378 0.189110 -0.029922 -698406.000000 0 0 1
-27.218552 -11.820019 -11.056499 31.667154 0.409691 1.927457 0.163514 -0.034520 243732.000000 0 0 1
-28.098822 -12.316819 -10.007099 32.270573 0.413115 1.886094 0.168648 -0.028555 357546.000000 0 0 1
-28.929672 -11.263419 -9.278199 32.401783 0.371281 1.861210 0.169815 -0.034426 -675218.000000 0 0 1
-28.230612 -10.469719 -8.431199 31.267677 0.355140 1.843822 0.171499 -0.040141 -275976.000000 0 0 1
-28.964492 -9.321119 -8.009799 31.463979 0.311346 1.828200 0.187415 -0.039532 323409.000000 0 0 1
-28.062642 -8.156119 -7.421299 30.151449 0.282847 1.819486 0.163237 -0.030315 556947.000000 0 0 1
-27.408402 -8.623719 -6.223699 29.399379 0.304831 1.784105 0.169418 -0.034522 442579.000000 0 0 1
-26.561612 -7.736119 -5.517699 28.210136 0.283412 1.767658 0.151576 -0.029571 385670.000000 0 0 1
-27.326712 -6.492719 -4.882299 28.508621 0.233271 1.742902 0.163667 -0.031872 -103987.000000 0 0 1
-28.138522 -6.778419 -3.754399 29.185937 0.236391 1.699791 0.170051 -0.036273 206022.000000 0 0 1
-27.526902 -7.062719 -2.516399 28.529715 0.251157 1.659114 0.182982 -0.035893 -416424.000000 0 0 1
-26.920602 -5.905019 -1.734899 27.615176 0.215930 1.633662 0.184386 -0.032925 -100001.000000 0 0 1
-27.912282 -4.995319 -1.361699 28.388430 0.177090 1.618781 0.199928 -0.039798 120120.000000 0 0 1
-27.406872 -4.153419 -0.333099 27.721805 0.150402 1.582812 0.190547 -0.043605 -64019.000000 0 0 1
-28.349512 -3.014819 0.181301 28.509943 0.105946 1.564437 0.200001 -0.040645 132260.000000 0 0 1
-29.354082 -3.362219 1.093001 29.566219 0.114043 1.533820 0.183506 -0.038577 199734.000000 0 0 1
-28.807122 -3.635119 2.425701 29.136719 0.125525 1.487447 0.185142 -0.034779 -696292.000000 0 0 1
-29.810362 -3.860119 3.518801 30.264504 0.128773 1.454265 0.155836 -0.027277 -629522.000000 0 0 1
-30.340592 -5.160819 3.427601 30.966660 0.168484 1.459882 0.149045 -0.026067 216226.000000 0 0 1
-31.463802 -5.313619 4.278801 32.194930 0.167302 1.437499 0.146757 -0.028018 433257.000000 0 0 1
-32.281592 -6.629319 4.037401 33.201652 0.202543 1.448892 0.127036 -0.021583 -96871.000000 0 0 1
-31.524592 -7.730819 4.375001 32.752192 0.240486 1.436817 0.110488 -0.012341 255396.000000 0 0 1
-32.192682 -8.927119 4.014201 33.647824 0.270506 1.451211 0.124991 -0.017974 -21104.300000 0 0 1
-31.405202 -10.125219 4.537901 33.307647 0.311884 1.434129 0.092683 -0.009830 791.036000 0 0 1
-31.459832 -10.351219 5.945901 33.648514 0.317872 1.393157 0.081268 -0.009385 1013080.000000 0 0 1
-30.369802 -11.213919 6.354901 32.991842 0.353716 1.376965 0.069739 -0.008545 470216.000000 0 0 1
-30.321392 -11.583019 7.791701 33.380589 0.364901 1.335203 0.073320 -0.026269 -199206.000000 0 0 1
-30.012312 -10.512719 8.652101 32.956259 0.336924 1.305150 0.074470 -0.019042 224443.000000 0 0 1
-30.189982 -10.849019 9.975901 33.595459 0.344987 1.269308 0.079505 -0.023601 -310723.000000 0 0 1
-30.415012 -9.627319 10.944001 33.727280 0.306554 1.240329 0.075877 -0.025378 267688.000000 0 0 1
-29.305302 -8.720119 10.950001 32.476818 0.289218 1.226894 0.081011 -0.033707 610925.000000 0 0 1
-29.504672 -7.711319 11.876301 32.726696 0.255641 1.199425 0.080061 -0.033816 -551292.000000 0 0 1
-28.469312 -6.638419 11.783001 31.518399 0.229085 1.187645 0.103469 -0.026963 -663856.000000 0 0 1
-28.678232 -5.829219 10.613501 31.129844 0.200531 1.222877 0.105797 -0.026062 468276.000000 0 0 1
-27.807132 -4.703819 10.667601 30.152284 0.167572 1.209175 0.111459 -0.032626 2788.120000 0 0 1
-27.875212 -3.850219 9.367301 29.658017 0.137255 1.249450 0.127948 -0.032093 -111117.000000 0 0 1
-27.273712 -4.465819 8.255701 28.843639 0.162301 1.280514 0.130964 -0.026706 183238.000000 0 0 1
-27.221722 -3.462619 7.235901 28.379044 0.126521 1.312976 0.146219 -0.040314 61743.800000 0 0 1
-26.403732 -3.956919 6.002601 27.365042 0.148755 1.349645 0.139189 -0.028164 -78838.100000 0 0 1
-25.019762 -4.117619 6.215701 26.107053 0.163113 1.330403 0.163958 -0.039380 361588.000000 0 0 1
-24.388962 -4.270619 4.950901 25.250170 0.173347 1.373444 0.183850 -0.024789 185960.000000 0 0 1
-22.882462 -3.928619 4.808401 23.709952 0.170029 1.366579 0.176018 -0.025763 358762.000000 0 1 0
-22.627762 -2.565219 4.635001 23.239604 0.112884 1.370006 0.147360 -0.023715 720626.000000 0 1 0
-21.210462 -2.369319 4.600701 21.832632 0.111244 1.358479 0.114365 -0.016216 511429.000000 0 1 0
-20.810762 -0.886519 4.769001 21.368601 0.042573 1.345723 0.094724 -0.021492 -196839.000000 0 1 0
-20.921362 0.002381 3.671001 21.240990 -0.000114 1.397098 0.096515 -0.017706 311263.000000 0 1 0
-22.245362 0.424881 3.453001 22.515770 -0.019097 1.416830 0.107286 -0.032445 -217935.000000 0 1 0
-22.354862 1.707181 2.599601 22.570163 -0.076219 1.455361 0.127187 -0.024262 -446528.000000 0 1 0
-21.918962 2.893681 3.175601 22.336041 -0.131258 1.428139 0.110768 -0.031068 40300.000000 0 1 0
-22.017662 3.982281 2.249801 22.487722 -0.178933 1.470583 0.117483 -0.016383 23051.200000 0 1 0
-20.838662 4.067781 1.256201 21.269103 -0.192779 1.511700 0.091749 -0.006151 -489795.000000 0 1 0
-20.921762 4.895481 0.104401 21.487130 -0.229855 1.565938 0.089239 -0.003667 479122.000000 0 1 0
-21.828162 4.376581 -0.884399 22.280155 -0.197878 1.610501 0.116416 -0.014536 41626.700000 0 1 0
-21.383462 3.228881 -1.793299 21.700094 -0.149867 1.653531 0.107939 -0.010327 -314019.000000 0 1 0
-21.174262 2.046481 -1.044599 21.298560 -0.096350 1.619862 0.075885 -0.007465 481943.000000 0 1 0
-20.549562 1.037981 -1.840599 20.657922 -0.050468 1.660014 0.054723 -0.004524 146416.000000 0 1 0
-19.640862 0.181281 -0.931299 19.663765 -0.009230 1.618175 0.048975 -0.006200 -660024.000000 0 1 0
-20.457562 -0.692119 -0.252699 20.470827 0.033819 1.583141 0.073040 -0.011046 475665.000000 0 1 0
-19.822562 -1.492519 0.752501 19.892909 0.075152 1.532960 0.068045 -0.016068 -128775.000000 0 1 0
-18.858162 -2.590219 0.264201 19.037051 0.136499 1.556918 0.028229 -0.015148 -504317.000000 0 1 0
-18.089662 -3.169719 1.294201 18.410811 0.173462 1.500443 0.028392 -0.014093 638133.000000 0 1 0
-17.355762 -4.357519 0.979801 17.921229 0.245986 1.516096 0.015421 -0.012095 248906.000000 0 1 0
-18.266262 -5.606619 0.651801 19.118456 0.297810 1.536697 0.017679 -0.014867 238762.000000 0 1 0
-19.108062 -5.965819 1.725701 20.091966 0.302625 1.484800 0.054473 -0.017876 1000950.000000 0 1 0
-20.162062 -6.872319 1.349601 21.343827 0.328504 1.507523 0.075700 -0.020046 248158.000000 0 1 0
-20.848962 -7.441719 2.643501 22.294540 0.342839 1.451945 0.105532 -0.019557 -669104.000000 0 1 0
-20.046662 -8.196819 3.474101 21.934582 0.388144 1.411742 0.091179 -0.017189 113134.000000 0 1 0
-20.740662 -8.525319 4.678001 22.907200 0.389990 1.365134 0.081361 -0.023707 -98343.200000 0 1 0
-19.946162 -9.420019 5.608701 22.760573 0.441220 1.321810 0.084399 -0.014290 -300302.000000 0 1 0
-19.625962 -10.688119 5.129901 22.928806 0.498681 1.345155 0.098721 -0.007234 221812.000000 0 1 0
-18.739862 -11.418319 5.924201 22.730081 0.547234 1.307119 0.116243 -0.007293 56912.600000 0 1 0
-18.187162 -12.744819 5.343201 22.841915 0.611235 1.334688 0.091601 0.000392 -417715.000000 0 1 0
-19.132862 -13.754819 5.421101 24.179532 0.623305 1.344672 0.112199 0.003403 -190198.000000 0 1 0
-18.655562 -14.876319 4.757801 24.330465 0.673166 1.373979 0.103423 0.004215 -410989.000000 0 1 0
-19.388962 -16.146319 5.018901 25.725956 0.694399 1.374446 0.112628 0.000726 -557785.000000 0 0 1
-18.869062 -17.288719 4.429001 25.972242 0.741719 1.399431 0.116861 -0.012754 168527.000000 0 0 1
-19.605962 -18.502919 4.796401 27.381695 0.756462 1.394720 0.108831 -0.013123 398696.000000 0 0 1
-18.773162 -19.820719 4.697601 27.701263 0.812535 1.400392 0.104426 -0.024264 -460496.000000 0 0 1
-18.534762 -20.404919 3.419001 27.777467 0.833388 1.447398 0.106468 -0.026214 204740.000000 0 0 1
-17.723462 -21.549519 3.381901 28.105874 0.882514 1.450177 0.094342 -0.022435 -219246.000000 0 0 1
-16.224362 -21.405119 3.687101 27.110953 0.922216 1.434373 0.105263 -0.023077 -507420.000000 0 0 1
-15.517262 -22.643519 3.542501 27.677855 0.970015 1.442454 0.093407 -0.024388 158230.000000 0 0 1
-14.152962 -22.333619 3.803801 26.712652 1.005961 1.427914 0.095807 -0.019874 -22707.800000 0 0 1
-13.292262 -23.575919 4.079301 27.370584 1.057415 1.421199 0.114489 -0.023807 -387057.000000 0 0 1
-13.073262 -24.423419 2.907401 27.854381 1.079328 1.466227 0.107918 -0.030393 66431.300000 0 0 1
-12.594862 -25.671589 3.375501 28.793316 1.114685 1.453294 0.101495 -0.028262 -36143.800000 0 0 1
18.733438 19.074881 -23.812799 35.802824 0.794429 2.298437 0.067999 -0.010278 -247972.000000 0 0 1
17.876938 19.301581 -24.912499 36.232148 0.823698 2.328947 0.064692 -0.010977 -77844.000000 0 0 1
18.433838 19.098981 -26.204149 37.299261 0.803118 2.349754 0.060128 -0.008112 -88559.600000 0 0 1
17.446138 19.494481 -27.310279 37.818697 0.840791 2.377683 0.056361 -0.005776 -17362.600000 0 0 1
17.354338 20.838681 -27.547009 38.655677 0.876376 2.364029 0.048943 0.002342 220237.000000 0 0 1
16.585438 21.142881 -28.698999 39.315782 0.905612 2.389062 0.048060 -0.005756 9161.140000 0 0 1
16.555838 22.640081 -28.992189 40.338767 0.939396 2.372753 0.057659 -0.008312 178409.000000 0 0 1
15.657438 23.381781 -28.118029 39.780480 0.980736 2.355803 0.061679 -0.007772 790141.000000 0 0 1
15.444538 24.689181 -28.626769 40.836030 1.011795 2.347620 0.061669 -0.005910 -375202.000000 0 0 1
14.514338 25.536581 -27.780759 40.429613 1.053956 2.328340 0.069124 -0.014543 -261372.000000 0 0 1
13.196738 25.035881 -27.709149 39.607401 1.085694 2.345627 0.088154 -0.027181 -47248.800000 0 0 1
12.500338 25.751381 -26.681809 39.131969 1.118877 2.321074 0.075916 -0.016207 15722.900000 0 0 1
11.063538 25.259981 -26.382899 38.164459 1.157977 2.334076 0.101580 -0.028327 461994.000000 0 0 1
10.305138 25.997581 -25.462329 37.820633 1.193407 2.309377 0.084009 -0.026863 -46395.500000 0 0 1
9.613938 27.131081 -25.960099 38.761452 1.230250 2.304655 0.093696 -0.037813 -304479.000000 0 0 1
9.154638 28.009381 -24.848299 38.545698 1.254899 2.271355 0.092406 -0.038212 934021.000000 0 0 1
10.239138 28.782281 -24.207999 38.978031 1.229013 2.240901 0.083047 -0.025991 1174890.000000 0 0 1
9.732438 29.666881 -23.208199 38.903274 1.253802 2.210006 0.094398 -0.031697 -351499.000000 0 0 1
10.716838 30.159581 -22.152799 38.925538 1.229374 2.176216 0.071753 -0.022119 -685914.000000 0 0 1
11.717038 31.016581 -22.586099 40.117941 1.209602 2.168799 0.070002 -0.034752 85057.100000 0 0 1
12.424938 31.582681 -21.431899 40.139396 1.195984 2.134046 0.051576 -0.015315 736445.000000 0 0 1
13.776738 32.211781 -21.914399 41.323580 1.166647 2.129765 0.043061 -0.000102 432624.000000 0 0 1
14.808838 31.277981 -22.192399 41.111025 1.128606 2.141015 0.043375 -0.009267 -470280.000000 0 0 1
15.752838 31.962781 -22.949699 42.384667 1.112886 2.142972 0.031136 -0.004186 622974.000000 0 0 1
17.050438 31.128781 -23.374199 42.497902 1.069691 2.153171 0.013242 -0.001279 1184040.000000 0 0 1
17.851038 30.769281 -22.277799 41.972712 1.045094 2.130304 0.018364 0.000636 -500787.000000 0 0 1
19.039338 30.182681 -22.693299 42.290383 1.008035 2.137207 0.027550 -0.002528 -5863.970000 0 0 1
20.002138 29.501081 -21.649099 41.702312 0.974979 2.116634 0.032010 0.001463 548834.000000 0 0 1
20.623838 30.393281 -20.713799 42.168184 0.974601 2.084285 0.041655 -0.001415 300248.000000 0 0 1
21.392038 29.682381 -19.755599 41.580605 0.946314 2.065892 0.054957 -0.011657 231258.000000 0 0 1
22.248638 30.540481 -18.782099 42.195854 0.941200 2.032101 0.073824 -0.015102 527941.000000 0 0 1
23.517238 31.006181 -19.236599 43.410719 0.921897 2.029884 0.077236 -0.016876 691319.000000 0 0 1
24.268438 31.473881 -18.119299 43.679186 0.913949 1.998549 0.090071 -0.017108 -564153.000000 0 0 1
25.430638 32.385481 -18.443699 45.118807 0.905115 1.991914 0.083969 -0.023443 -126746.000000 0 0 1
26.598838 31.603581 -18.693799 45.340298 0.871176 1.995773 0.086114 -0.017175 19098.100000 0 0 1
27.762638 32.361681 -18.400899 46.439590 0.861742 1.978207 0.081174 -0.021074 -214925.000000 0 0 1
29.003338 31.770081 -19.061599 47.051846 0.830892 1.987905 0.086288 -0.025252 -327899.000000 0 0 1
29.374938 30.566981 -18.422299 46.223462 0.805282 1.980730 0.077054 -0.015580 737058.000000 0 0 1
30.715238 30.164781 -18.774199 46.966056 0.776357 1.982029 0.067182 -0.017276 837216.000000 0 0 1
31.125238 28.918681 -17.980399 46.134210 0.748666 1.971147 0.053056 -0.018616 -403475.000000 0 0 1
31.485538 29.206281 -16.656399 46.062800 0.747861 1.940782 0.047702 -0.017293 -80640.900000 0 0 1
32.001438 28.079981 -16.009699 45.485029 0.720222 1.930479 0.060354 -0.012067 -438339.000000 0 0 1
32.503838 28.467181 -14.627999 45.616425 0.719288 1.897237 0.063911 -0.018881 -388187.000000 0 0 1
33.748238 29.123981 -14.671299 46.929701 0.711980 1.888749 0.045266 -0.015626 -222934.000000 0 0 1
33.758238 30.514681 -14.913099 47.887002 0.734976 1.887486 0.046028 -0.021930 -974953.000000 0 0 1
35.188438 31.015781 -14.943199 49.229097 0.722454 1.879206 0.044206 -0.019162 -358819.000000 0 0 1
35.868438 31.017781 -13.684499 49.354970 0.713004 1.851745 0.043355 -0.020929 -763031.000000 0 0 1
-37.104347 31.506681 -13.903199 50.623142 -0.703993 1.849013 0.045944 -0.029899 -363481.000000 0 0 1
-36.244447 31.664781 -12.595299 49.748969 -0.718062 1.826759 0.040422 -0.023949 354.041000 0 0 1
-36.775547 32.661081 -11.754299 50.570255 -0.726212 1.805377 0.044754 -0.026799 379507.000000 0 0 1
-35.875247 33.017381 -10.713599 49.919556 -0.743939 1.787096 0.043298 -0.022125 75422.400000 0 0 1
-36.450147 -33.958170 -9.776099 50.767535 0.750020 1.764573 0.028554 -0.019132 -41533.700000 0 0 1
-35.475447 -33.221570 -9.071699 49.441640 0.752601 1.755325 0.028261 -0.017308 -109750.000000 0 0 1
-35.245747 -33.792170 -7.753899 49.439826 0.764347 1.728282 0.033115 -0.011418 -166827.000000 0 0 1
-35.174147 -32.778470 -6.547599 48.523394 0.750158 1.706146 0.025435 -0.009201 -777196.000000 0 0 1
-36.299847 -31.985670 -6.416199 48.805016 0.722304 1.702644 0.024045 -0.004696 -830640.000000 0 0 1
-36.084647 -31.007670 -5.443599 47.887473 0.709871 1.684717 0.051367 -0.006496 -418593.000000 0 0 1
36.905938 -30.314970 -4.954099 48.016546 -0.687661 1.674155 0.034936 0.003149 -437013.000000 0 0 1
35.997738 -31.256470 -4.379099 47.874633 -0.715017 1.662395 0.019080 0.008149 412772.000000 0 0 1
34.766138 -30.721170 -3.915999 46.559743 -0.723709 1.655003 0.019772 0.007368 -236939.000000 0 0 1
34.645938 -29.641170 -2.781199 45.680138 -0.707705 1.631718 0.020141 0.014176 -647852.000000 0 0 1
35.282138 -28.424370 -3.051299 45.410180 -0.678165 1.638041 0.049130 0.002595 182518.000000 0 0 1
34.827538 -27.492170 -2.118599 44.421450 -0.668232 1.618508 0.031181 0.004444 -139179.000000 0 0 1
35.128538 -26.031270 -2.427499 43.789655 -0.637735 1.626260 0.055704 -0.015201 -185019.000000 0 0 1
34.710338 -25.647370 -3.745799 43.320043 -0.636357 1.657372 0.042038 -0.014209 495136.000000 0 0 1
34.883638 -24.247470 -3.819499 42.654385 -0.607427 1.660462 0.043785 -0.021639 -159304.000000 0 0 1
34.448438 -23.727270 -5.184599 42.149238 -0.603154 1.694114 0.051425 -0.025885 -546030.000000 0 0 1
35.423538 -23.869870 -6.181699 43.160295 -0.592954 1.714517 0.069744 -0.031345 -40864.300000 0 0 1
34.934238 -23.417170 -7.416399 42.705594 -0.590529 1.745345 0.050108 -0.032505 -449241.000000 0 0 1
36.000838 -23.170970 -8.481499 43.645045 -0.571879 1.766370 0.055474 -0.036524 -525444.000000 0 0 1
36.678738 -24.354570 -8.798299 44.898607 -0.586152 1.768032 0.054466 -0.019515 -475706.000000 0 0 1
-36.463247 -24.081870 -9.617899 44.743813 0.583681 1.787442 0.058177 -0.016747 -26048.300000 0 0 1
-35.794447 -25.395570 -10.032399 45.020289 0.617062 1.795525 0.057010 -0.019440 -36579.700000 0 0 1
-35.230547 -26.185970 -8.947799 44.799102 0.639183 1.771880 0.060345 -0.021791 158498.000000 0 0 1
-36.016047 -27.288870 -8.559099 45.990175 0.648402 1.757995 0.043665 -0.013458 239127.000000 0 0 1
-35.121647 -28.517770 -8.159599 45.971430 0.681998 1.749235 0.034494 -0.008176 43202.900000 0 0 1
-34.334247 -29.024270 -9.177599 45.885478 0.701785 1.772165 0.032949 -0.014134 35087.700000 0 0 1
-33.590647 -30.168070 -8.762699 45.991618 0.731769 1.762496 0.038593 -0.023866 -71554.500000 0 0 1
-33.127347 -31.031570 -9.955299 46.470285 0.752744 1.786699 0.036931 -0.018383 -384809.000000 0 0 1
-32.042147 -30.511970 -10.669199 45.513858 0.760941 1.807415 0.019122 -0.000500 -41479.600000 0 0 1
-31.707847 -31.370770 -11.757699 46.127608 0.780054 1.828536 0.015246 0.003411 -101358.000000 0 0 1
-31.962247 -30.697070 -13.110599 46.214534 0.765210 1.858436 -0.004518 0.012468 -196461.000000 0 0 1
-31.049347 -29.657070 -13.422599 44.986330 0.762468 1.873781 0.009863 0.011174 102225.000000 0 0 1
-31.344347 -29.149570 -14.680499 45.251327 0.749133 1.901196 -0.004648 0.022689 208864.000000 0 0 1
-30.191747 -28.232770 -15.120199 44.014217 0.751881 1.921469 0.010676 0.006191 50794.900000 0 0 1
-28.959447 -28.802770 -15.465099 43.674002 0.782686 1.932751 0.027595 0.003082 -7159.860000 0 0 1
-28.025747 -27.775270 -15.867899 42.528794 0.780909 1.953155 0.045753 0.014343 825285.000000 0 0 1
-26.743647 -28.448070 -16.468099 42.375861 0.816270 1.969930 0.071092 0.003539 73704.700000 0 0 1
-26.923647 -29.047570 -17.773799 43.411427 0.823327 1.992622 0.061170 0.000275 55255.500000 0 0 1
-27.201547 -28.125870 -18.828199 43.422227 0.802103 2.019289 0.046699 0.005879 -203281.000000 0 0 1
-25.991147 -27.334670 -19.341299 42.388793 0.810587 2.044610 0.062816 0.000989 110477.000000 0 0 1
-25.488247 -26.341370 -18.432599 41.027786 0.801857 2.036746 0.074559 -0.002835 1245220.000000 0 0 1
-24.096247 -25.994170 -18.664499 40.058576 0.823270 2.055482 0.091196 -0.012555 1496930.000000 0 0 1
-23.640547 -24.806970 -17.749199 38.591389 0.809470 2.048709 0.094768 -0.011168 -15939.100000 0 0 1
-23.676347 -25.178270 -16.382799 38.248017 0.816131 2.013441 0.104609 -0.007212 75369.900000 0 0 1
-23.311347 -24.097270 -15.587499 36.973875 0.801974 2.005985 0.117100 -0.005172 -266386.000000 0 0 1
-23.669047 -24.149970 -14.111599 36.641262 0.795455 1.966144 0.102502 0.002652 -46317.400000 0 0 1
-25.061247 -23.999270 -13.935799 37.393015 0.763755 1.952697 0.062851 0.018543 -96151.900000 0 0 1
-25.285547 -23.924070 -12.541399 37.000091 0.757738 1.916603 0.058156 0.018620 96111.800000 0 0 1
-26.785747 -23.929970 -12.152499 37.918372 0.729148 1.897044 0.039779 0.030350 -593644.000000 0 0 1
-27.315547 -25.149570 -12.557899 39.196184 0.744137 1.896933 0.038976 0.023714 414230.000000 0 0 1
-28.662447 -25.418570 -12.149699 40.190232 0.725488 1.877906 0.018980 0.023787 985577.000000 0 0 1
-29.809947 -24.549570 -12.831499 40.693509 0.688928 1.891591 0.029499 0.021462 -515298.000000 0 0 1
-30.149447 -23.351670 -12.162599 40.027721 0.659017 1.879532 0.038724 0.029174 56577.700000 0 0 1
-30.789647 -23.462170 -10.887199 40.212024 0.651146 1.844963 0.052382 0.011900 7353.690000 0 0 1
-32.268947 -23.937570 -10.887399 41.627247 0.638242 1.835419 0.034628 0.005641 68782.800000 0 0 1
-33.328247 -23.178170 -11.446599 42.178481 0.607667 1.845628 0.050642 0.002066 409499.000000 0 0 1
-33.326847 -22.874470 -12.856199 42.417001 0.601518 1.878731 0.055269 0.009793 -1219020.000000 0 0 1
-34.658847 -22.260870 -13.274199 43.278013 0.570933 1.882541 0.037187 -0.000231 -412016.000000 0 0 1
-35.653247 -23.244270 -13.131199 44.540751 0.577747 1.870056 0.045116 -0.001818 -260005.000000 0 0 1
-36.950347 -22.829370 -13.538999 45.495195 0.553433 1.872966 0.062263 -0.019414 8481.460000 0 0 1
36.402538 -24.049670 -13.284599 45.607148 -0.583832 1.866364 0.057922 -0.012109 -631677.000000 0 0 1
36.473938 -25.206170 -14.119599 46.530229 -0.604710 1.879108 0.045642 -0.003510 -17418.200000 0 0 1
35.752738 -26.305870 -13.561599 46.413080 -0.634333 1.867316 0.036155 -0.012189 230919.000000 0 0 1
35.532038 -27.507770 -14.523199 47.224214 -0.658790 1.883400 0.028020 -0.012904 529403.000000 0 0 1
34.585338 -27.222870 -15.573099 46.687810 -0.666839 1.910872 0.037528 -0.025667 343243.000000 0 0 1
34.343438 -28.448070 -16.283099 47.475296 -0.691785 1.920884 0.029180 -0.019733 -41083.300000 0 0 1
33.379538 -28.295170 -17.474799 47.118773 -0.703146 1.950739 0.029630 -0.021398 1277780.000000 0 0 1
31.985038 -28.200970 -17.094699 45.940898 -0.722608 1.952069 0.076330 -0.024996 1146620.000000 0 0 1
31.101738 -28.151570 -18.199799 45.728128 -0.735650 1.980132 0.077712 -0.026284 1539870.000000 0 0 1
29.562838 -28.210370 -17.814399 44.577339 -0.761992 1.981908 0.080226 -0.030972 1385040.000000 0 0 1
29.154538 -27.011770 -17.146999 43.285591 -0.747266 1.978102 0.069022 -0.029040 -60498.000000 0 0 1
27.756638 -26.968470 -16.947399 42.248593 -0.770997 1.983552 0.086667 -0.032314 30995.500000 0 0 1
27.281938 -26.049370 -15.866899 40.922271 -0.762291 1.968967 0.077487 -0.032338 -102188.000000 0 0 1
27.195638 -24.686170 -16.289199 40.178946 -0.737067 1.988231 0.076171 -0.035935 -121060.000000 0 0 1
26.893538 -23.850770 -15.200599 39.027936 -0.725507 1.970863 0.088216 -0.041065 -92891.900000 0 0 1
26.722038 -22.370970 -15.641299 38.199186 -0.697000 1.992666 0.091825 -0.042736 1171980.000000 0 0 1
25.433338 -22.022970 -16.229599 37.353256 -0.713658 2.020268 0.103294 -0.044942 1097240.000000 0 0 1
25.089038 -20.685170 -15.979199 36.230800 -0.689485 2.027552 0.101017 -0.043220 -624833.000000 0 0 1
23.590838 -20.467770 -16.173099 35.171386 -0.714632 2.048608 0.094611 -0.042207 -432222.000000 0 0 1
22.846738 -21.004170 -15.075199 34.502322 -0.743404 2.022982 0.097082 -0.040370 392061.000000 0 0 1
21.571638 -20.425270 -14.843299 33.209196 -0.758108 2.034164 0.083734 -0.035086 281702.000000 0 0 1
21.516938 -19.100770 -14.004699 31.999213 -0.725983 2.023788 0.081873 -0.030752 -444963.000000 0 0 1
21.149338 -19.257570 -12.655499 31.277950 -0.738614 1.987353 0.084409 -0.038421 211146.000000 0 0 1
20.837038 -17.981870 -12.103699 30.067080 -0.711979 1.985104 0.083811 -0.040705 -64436.000000 0 0 1
19.934538 -18.018470 -10.841399 28.975627 -0.734956 1.954283 0.098006 -0.031275 -558555.000000 0 0 1
20.559638 -18.555170 -9.755599 29.362642 -0.734197 1.909479 0.112459 -0.043325 -97061.800000 0 0 1
19.725638 -18.735970 -8.608599 28.534984 -0.759673 1.877257 0.109980 -0.047504 -138917.000000 0 0 1
20.303438 -19.616970 -7.498399 29.210975 -0.768204 1.830401 0.106977 -0.042828 -241498.000000 0 0 1
21.334338 -18.929770 -6.823299 29.326567 -0.725749 1.805614 0.108919 -0.047493 155490.000000 0 0 1
21.872838 -19.755070 -5.753299 30.029723 -0.734568 1.763575 0.112559 -0.030429 150656.000000 0 0 1
23.174038 -19.085770 -5.231599 30.474124 -0.688957 1.743324 0.107594 -0.024691 613390.000000 0 0 1
24.256638 -19.100870 -6.176999 31.486235 -0.667041 1.768258 0.093484 -0.033066 640128.000000 0 0 1
25.103438 -17.991970 -5.930499 31.449394 -0.621855 1.760505 0.095853 -0.035632 -414924.000000 0 0 1
26.135438 -17.591570 -7.000099 32.272679 -0.592438 1.789439 0.088157 -0.044106 118413.000000 0 0 1
27.135538 -18.595770 -7.042599 33.641318 -0.600787 1.781700 0.087461 -0.049030 294353.000000 0 0 1
26.899138 -19.423170 -8.145099 34.163808 -0.625388 1.811528 0.085242 -0.050772 -284104.000000 0 0 1
27.919938 -20.591670 -8.158299 35.638429 -0.635470 1.801763 0.067902 -0.053481 732043.000000 0 0 1
29.277238 -20.222970 -8.341499 36.547309 -0.604484 1.801064 0.058340 -0.048431 440133.000000 0 0 1
30.236038 -21.252070 -8.468499 37.915484 -0.612651 1.796048 0.045748 -0.045443 343660.000000 0 0 1
-30.789902 29.837981 3.905401 43.053169 -0.769698 1.479960 0.080188 -0.012832 56177.600000 0 0 1
-30.118042 30.781881 3.124101 43.178475 -0.796298 1.498380 0.068513 0.001553 651271.000000 0 0 1
-28.807742 30.992781 3.699501 42.474990 -0.821921 1.483587 0.057695 0.009924 900281.000000 0 0 1
-27.967272 32.137981 3.113101 42.716619 -0.854677 1.497854 0.058999 0.006289 -443986.000000 0 0 1
-27.382372 31.927081 1.817401 42.100306 -0.861876 1.527615 0.054007 0.013289 230478.000000 0 0 1
-26.852052 33.098881 1.234901 42.639109 -0.889223 1.541831 0.067331 -0.004039 32127.100000 0 0 1
-25.619942 33.757481 1.928001 42.422472 -0.921597 1.525333 0.061424 0.000170 232527.000000 0 0 1
-24.384962 33.171281 1.526101 41.198171 -0.936885 1.533745 0.060920 0.000170 65421.500000 0 0 1
-23.269962 33.623881 2.257501 40.953057 -0.965415 1.515644 0.053910 0.000693 306569.000000 0 0 1
-21.920162 33.078081 1.740101 39.720032 -0.985559 1.526973 0.055038 -0.000395 158556.000000 0 0 1
-21.557862 33.684381 0.510801 39.995498 -1.001486 1.558025 0.077510 -0.010855 254835.000000 0 0 1
-20.239962 33.372981 0.088601 39.031011 -1.025628 1.568526 0.077051 -0.015007 -2919.260000 0 0 1
-19.691262 -33.946870 -1.169099 39.261974 1.045167 1.600578 0.085541 -0.017346 174968.000000 0 0 1
-19.407962 -32.562570 -1.011099 37.921132 1.033308 1.597463 0.095375 -0.024377 189954.000000 0 0 1
-18.562962 -32.142070 0.040501 37.117352 1.047064 1.569705 0.087989 -0.025336 -425843.000000 0 0 1
-18.531462 -30.593070 0.191101 35.768527 1.026167 1.565454 0.090593 -0.034001 51909.300000 0 0 1
-17.682762 -29.873470 -0.728099 34.722246 1.036338 1.591767 0.092363 -0.029531 432544.000000 0 0 1
-17.735862 -28.465070 -0.557199 33.542980 1.013583 1.587409 0.075728 -0.027691 710863.000000 0 0 1
-16.743262 -27.774170 -1.615199 32.470759 1.028294 1.620560 0.079542 -0.024463 664369.000000 0 0 1
-17.080862 -28.098170 -2.931199 33.012951 1.024589 1.659703 0.076855 -0.021035 -660770.000000 0 0 1
-16.143962 -27.554070 -3.760599 32.155814 1.040808 1.688014 0.086465 -0.013876 -745953.000000 0 0 1
-16.563462 -27.376270 -5.212899 32.418864 1.026687 1.732296 0.122001 -0.014956 474866.000000 0 0 1
-17.562562 -26.359370 -5.419399 32.134559 0.983066 1.740253 0.109525 -0.011076 74569.200000 0 0 1
-18.202562 -26.386970 -6.643999 32.737565 0.966928 1.775163 0.130191 -0.013787 137152.000000 0 0 1
-18.915762 -25.058670 -6.915699 32.149182 0.924193 1.787604 0.101320 -0.003109 -109629.000000 0 0 1
-17.921962 -24.082570 -7.042299 30.834411 0.931025 1.801221 0.106232 0.000002 -52894.300000 0 0 1
-18.381162 -22.738770 -7.107899 30.090547 0.890977 1.809267 0.079880 -0.003284 167302.000000 0 0 1
-17.213662 -21.746670 -6.980499 28.599916 0.901227 1.817361 0.091427 -0.002667 709730.000000 0 0 1
-16.223162 -21.698070 -8.004199 28.250034 0.928783 1.858065 0.124976 -0.007910 -590023.000000 0 0 1
-15.077262 -21.008470 -7.644299 26.965069 0.948306 1.858227 0.147892 -0.030779 -355495.000000 0 0 1
-14.063562 -21.100670 -8.802499 26.842244 0.982910 1.904913 0.125915 -0.015927 -10266.200000 0 0 1
-14.446362 -20.395770 -9.996099 26.918522 0.954520 1.951255 0.130537 -0.007973 -239247.000000 0 0 1
-13.444262 -20.431070 -10.988899 26.812921 0.988797 1.993071 0.115658 0.003771 218279.000000 0 0 1
-13.818262 -19.464670 -12.131699 26.776779 0.953447 2.041000 0.126902 0.000581 349999.000000 0 0 1
-14.969162 -19.872570 -12.861899 28.007558 0.925214 2.047924 0.122931 0.022431 -125233.000000 0 0 1
-15.435162 -18.805370 -13.670699 27.906526 0.883510 2.082742 0.121520 -0.005872 710385.000000 0 0 1
-16.767562 -19.303270 -14.349899 29.320419 0.855581 2.082217 0.142091 -0.005142 1117660.000000 0 0 1
-17.893662 -19.296470 -13.452799 29.555282 0.823100 2.043364 0.142276 -0.007118 260735.000000 0 0 1
-19.033362 -19.658870 -14.178999 30.818567 0.801563 2.048881 0.113508 0.002936 982366.000000 0 0 1
-20.500062 -19.545470 -13.590999 31.416448 0.761565 2.018180 0.077720 0.007911 2174240.000000 0 0 1
-21.471662 -20.177870 -14.462799 32.823030 0.754344 2.027096 0.090367 0.003677 1497990.000000 0 0 1
-22.853862 -19.902170 -14.153999 33.447438 0.716472 2.007739 0.071685 0.013258 1778590.000000 0 0 1
-23.921062 -20.492270 -15.205299 34.976442 0.708349 2.020534 0.073995 0.003361 701281.000000 0 0 1
-23.884962 -19.781370 -16.412999 35.088183 0.691697 2.057556 0.068370 -0.014248 335737.000000 0 0 1
-24.588362 -20.547270 -17.385199 36.455768 0.696104 2.067903 0.083480 -0.026418 -161584.000000 0 0 1
-24.653562 -19.971970 -18.778499 36.868818 0.680872 2.105206 0.084493 -0.026631 573393.000000 0 0 1
-23.459062 -19.916070 -19.582299 36.475250 0.703897 2.137514 0.073637 -0.029860 823704.000000 0 0 1
-23.807762 -19.348170 -20.825499 37.079140 0.682427 2.167175 0.083997 -0.035940 -563568.000000 0 0 1
-22.647362 -18.615070 -21.481699 36.344013 0.687984 2.203176 0.071125 -0.019346 -510302.000000 0 0 1
-21.719162 -19.491070 -22.052199 36.577634 0.731384 2.217912 0.060800 -0.021040 -964303.000000 0 0 1
-20.509962 -18.817970 -22.208499 35.608875 0.742402 2.244236 0.050966 -0.019633 -741755.000000 0 0 1
-19.282162 -19.720370 -22.229499 35.423797 0.796633 2.249173 0.060720 -0.016486 -501759.000000 0 0 1
-19.162862 -20.583970 -23.347599 36.551683 0.821137 2.263676 0.042862 -0.010566 474449.000000 0 0 1
-18.033862 -21.471070 -23.173799 36.376531 0.872187 2.261466 0.040054 -0.005495 652981.000000 0 0 1
-18.113562 -22.817970 -24.002999 37.747912 0.899830 2.259940 0.040390 -0.005870 -84828.500000 0 0 1
-17.911962 -22.806870 -25.384889 38.540684 0.905036 2.289822 0.039029 -0.003944 81367.100000 0 0 1
-18.282062 -24.018370 -26.005459 39.842186 0.920185 2.281955 0.062565 -0.015713 -96074.800000 0 0 1
-18.115262 -24.102870 -27.537729 40.834270 0.926284 2.310918 0.071936 -0.006854 -720084.000000 0 0 1
-16.859262 -23.825270 -28.046069 40.477898 0.954974 2.336263 0.036888 -0.004636 -930628.000000 0 0 1
-16.843662 -23.940770 -29.478549 41.543402 0.957688 2.359705 0.054694 -0.010620 -1368470.000000 0 0 1
-15.537062 -23.740970 -30.148709 41.400225 0.991306 2.386526 0.038000 -0.013567 -799699.000000 0 0 1
-14.582262 -24.741870 -29.762849 41.359759 1.038225 2.374035 0.050974 -0.011726 234066.000000 0 0 1
-13.318562 -24.580270 -30.364199 41.274185 1.074240 2.397452 0.057051 -0.014775 1020650.000000 0 0 1
-12.189062 -25.597570 -29.864519 41.178858 1.126385 2.382178 0.079086 -0.018500 66572.700000 0 0 1
-12.468662 -26.986970 -30.112129 42.314352 1.137987 2.362611 0.095945 -0.014983 438930.000000 0 0 1
-11.449662 -27.957570 -29.824549 42.452611 1.182095 2.349753 0.088397 -0.020869 861095.000000 0 0 1
-10.084962 -27.860570 -30.595079 42.590805 1.223489 2.372223 0.089120 -0.017536 313230.000000 0 0 1
-9.302662 -26.822670 -30.071929 41.355968 1.236956 2.384955 0.079011 -0.022664 -801422.000000 0 0 1
-8.273862 -26.420770 -30.914599 41.499715 1.267313 2.411234 0.078225 -0.018284 -555180.000000 0 0 1
-7.684862 -25.113770 -30.294729 40.094004 1.273842 2.427355 0.094882 -0.034266 -83937.800000 0 0 1
-8.402062 -23.858170 -30.402779 39.549158 1.232192 2.447656 0.095481 -0.029215 219196.000000 0 0 1
-9.132462 -23.503570 -29.237459 38.608920 1.200194 2.429922 0.090595 -0.020705 -134146.000000 0 0 1
-9.604362 -22.084770 -29.270999 37.904779 1.160582 2.453131 0.089950 -0.035988 175331.000000 0 0 1
-10.394762 -21.721170 -30.425679 38.801833 1.124452 2.472089 0.079345 -0.034479 239748.000000 0 0 1
-10.754462 -20.375970 -30.422369 38.162274 1.085156 2.493413 0.079670 -0.030622 -288816.000000 0 0 1
-11.761062 -20.067970 -31.533199 39.184036 1.040689 2.506044 0.060582 -0.030036 -133207.000000 0 0 1
-12.262662 -18.747870 -31.325839 38.511865 0.991556 2.520783 0.051510 -0.026851 -47250.400000 0 0 1
-12.876162 -18.405670 -32.541189 39.541032 0.960355 2.537421 0.037287 -0.020823 -461995.000000 0 0 1
-13.596862 -16.975670 -32.615779 39.202514 0.895469 2.553467 0.053576 -0.023181 420049.000000 0 0 1
-12.824662 -15.751170 -32.685479 38.482618 0.887454 2.585562 0.065955 -0.023506 91932.100000 0 0 1
-12.139862 -15.274270 -31.545039 37.091361 0.899239 2.587672 0.061922 -0.017223 269766.000000 0 0 1
-11.658262 -13.771770 -31.751679 36.520486 0.868318 2.624826 0.058667 -0.023676 -126002.000000 0 0 1
-10.811562 -13.493270 -32.846349 37.119279 0.895290 2.657047 0.060804 -0.019111 -578725.000000 0 0 1
-11.360762 -13.476970 33.748157 38.074056 0.870394 0.481326 0.066569 -0.015248 -762843.000000 0 0 1
-12.063662 -12.257870 33.215893 37.404316 0.793383 0.477769 0.064700 -0.009838 807838.000000 0 0 1
-13.361762 -11.983370 33.780778 38.252827 0.731067 0.488384 0.056967 -0.007953 315898.000000 0 0 1
-13.972562 -10.968670 33.042421 37.514608 0.665537 0.493272 0.063114 -0.024071 791198.000000 0 0 1
-15.241862 -10.381170 33.743384 38.453856 0.597926 0.500165 0.077337 -0.023312 671339.000000 0 0 1
-14.772862 -9.631070 -33.029239 37.442297 0.577740 2.651177 0.076332 -0.020897 -587803.000000 0 0 1
-15.718662 -9.141870 -32.166249 36.950206 0.526775 2.627074 0.079593 -0.037393 -339084.000000 0 0 1
-15.100862 -7.968070 -31.281679 35.638036 0.485527 2.641965 0.081100 -0.040068 -50052.800000 0 0 1
-14.869362 -6.773370 -32.060919 35.984428 0.427439 2.670266 0.085068 -0.044588 -495424.000000 0 0 1
-15.896662 -5.848070 -32.182979 36.368227 0.352514 2.657119 0.088127 -0.039028 -542382.000000 0 0 1
-16.252062 -5.101470 -30.878299 35.265052 0.304157 2.637486 0.088768 -0.051823 86801.600000 0 0 1
-16.882862 -5.938770 -29.877269 34.827450 0.338245 2.601898 0.095952 -0.056171 14330.900000 0 0 1
-17.253462 -5.275470 -28.681859 33.884533 0.296735 2.580095 0.098102 -0.057777 -154398.000000 0 0 1
-16.087162 -4.774970 -27.793559 32.466584 0.288536 2.598407 0.084053 -0.056995 169602.000000 0 0 1
-15.502462 -3.684770 -28.476569 32.631563 0.233359 2.631439 0.084135 -0.056408 656595.000000 0 0 1
-14.201362 -3.268070 -28.019719 31.582648 0.226186 2.662009 0.074598 -0.052652 692435.000000 0 0 1
-13.693862 -1.989670 -28.589729 31.762451 0.144287 2.690820 0.062065 -0.033278 -144880.000000 0 0 1
-13.272962 -2.122670 -29.918589 32.799379 0.158581 2.719343 0.067604 -0.042435 -132480.000000 0 0 1
-13.234462 -0.881670 -30.570469 33.323894 0.066521 2.732228 0.062978 -0.043492 -67676.500000 0 0 1
-13.503962 -0.996670 -32.080339 34.820950 0.073672 2.742192 0.065711 -0.042960 929961.000000 0 0 1
-14.891762 -1.252670 -32.409579 35.689138 0.083921 2.709539 0.074455 -0.041831 1181400.000000 0 0 1
-15.100462 -1.300670 -33.843799 37.082590 0.085922 2.720542 0.063461 -0.034173 620512.000000 0 0 1
-16.569462 -1.500670 33.525365 37.426584 0.090322 0.460651 0.054331 -0.037268 747222.000000 0 0 1
-16.671662 -1.989670 32.161209 36.280111 0.118783 0.481137 0.059408 -0.034849 -609055.000000 0 0 1
-17.967562 -1.816670 31.695695 36.479455 0.100766 0.517893 0.057448 -0.028901 -480967.000000 0 0 1
-18.064262 -1.859670 30.116735 35.168078 0.102586 0.542606 0.058282 -0.023529 -329983.000000 0 0 1
-17.323862 -0.770670 29.629255 34.330786 0.044457 0.529515 0.048399 -0.010756 -102785.000000 0 0 1
-17.280762 -0.801670 28.210695 33.092457 0.046358 0.550083 0.046692 -0.015969 -215215.000000 0 0 1
-16.638762 0.424330 27.499345 32.144089 -0.025497 0.544276 0.036252 -0.016718 -216013.000000 0 0 1
-16.998662 1.749330 27.803225 32.634859 -0.102549 0.551101 0.034994 -0.015904 -975651.000000 0 0 1
-18.316662 2.105330 27.548635 33.149055 -0.114439 0.589797 0.048168 -0.020733 -704588.000000 0 0 1
-18.537062 2.908330 26.254055 32.270055 -0.155624 0.620525 0.045366 -0.018293 -613596.000000 0 0 1
-18.196862 4.270330 26.351695 32.307481 -0.230503 0.616939 0.034596 -0.012355 14523.400000 0 0 1
-18.759662 4.983330 25.280765 31.872803 -0.259644 0.654789 0.040810 -0.009684 -647517.000000 0 0 1
-18.770062 6.512330 25.476555 32.307593 -0.333958 0.662328 0.035547 -0.009579 435865.000000 0 0 1
-17.591062 7.321330 25.392905 31.746606 -0.394390 0.643731 0.014696 -0.007954 274482.000000 0 0 1
-16.889362 7.167330 24.149885 30.328833 -0.401336 0.649695 0.014747 -0.000037 185676.000000 0 0 1
-15.690062 8.152330 23.952065 29.771462 -0.479193 0.635911 0.016018 -0.004589 594.315000 0 0 1
-14.532462 7.695330 24.576065 29.570146 -0.486989 0.589694 0.016491 -0.003399 -546938.000000 0 0 1
-13.420662 8.348330 23.996355 28.733845 -0.556476 0.582436 0.035463 -0.002177 -793551.000000 0 0 1
-12.042762 8.007330 24.496335 28.446720 -0.586784 0.533307 0.031479 -0.002350 -1484850.000000 0 0 1
-11.067662 8.786330 23.928075 27.789306 -0.670994 0.533459 0.026314 -0.002153 -1243980.000000 0 0 1
-9.959162 8.889330 24.762255 28.131377 -0.728699 0.494437 0.026368 -0.004004 -556600.000000 0 0 1
-9.792262 10.143330 25.666495 29.283861 -0.803006 0.502311 0.022408 -0.017971 -446154.000000 0 0 1
-10.837762 10.344330 26.599805 30.528870 -0.762108 0.512951 0.010771 -0.015774 168761.000000 0 0 1
-10.805562 11.656330 27.197595 31.501419 -0.823256 0.528872 0.024170 -0.019348 -512168.000000 0 0 1
-11.547062 12.820330 26.428695 31.562184 -0.837604 0.578373 0.012810 -0.022134 941107.000000 0 0 1
-12.977862 12.732330 26.366355 32.026892 -0.775848 0.603672 0.010667 -0.020540 747263.000000 0 0 1
-13.471162 11.783330 25.462595 31.123349 -0.718664 0.612664 0.016485 -0.010895 -433809.000000 0 0 1
-15.004262 11.805330 25.246085 31.652149 -0.666639 0.647473 -0.005025 -0.013544 56742.900000 0 0 1
-15.335762 12.854330 24.408005 31.562163 -0.697599 0.686718 0.013481 -0.013734 72501.000000 0 0 1
-16.459862 12.623330 23.551365 31.383791 -0.654240 0.722083 0.019393 -0.005058 293095.000000 0 0 1
-16.191062 12.068330 22.158145 29.979635 -0.640531 0.739053 0.012381 0.005705 -70604.400000 0 0 1
-16.040162 10.696330 22.100945 29.328315 -0.588127 0.717320 0.019478 0.000150 -98097.200000 0 0 1
-16.018862 10.319330 20.737745 28.162859 -0.572286 0.743135 0.035492 -0.006992 -85533.000000 0 0 1
-16.410162 8.841330 20.459845 27.677930 -0.494182 0.738897 0.027505 0.001759 914429.000000 0 0 1
-17.816462 8.619330 20.319045 28.365168 -0.450591 0.772257 0.047070 -0.001701 296172.000000 0 0 1
-18.211062 7.247330 20.372445 28.270181 -0.378749 0.766080 0.040329 0.005736 -548496.000000 0 0 1
-19.711362 7.110330 20.563145 29.358773 -0.346195 0.794826 0.057936 -0.004671 -551624.000000 0 0 1
-20.102362 7.701330 21.779745 30.623076 -0.365858 0.779564 0.047644 -0.013216 -686230.000000 0 0 1
-21.459662 7.515330 22.043645 31.668906 -0.336859 0.800893 0.051299 -0.017388 -426942.000000 0 0 1
-21.998762 8.163330 23.349165 33.102402 -0.355331 0.787863 0.070948 -0.022748 -397096.000000 0 0 1
-22.007962 9.632330 23.323595 33.483164 -0.412557 0.800181 0.060323 -0.013697 688145.000000 0 0 1
-20.749162 10.311330 23.208955 32.794921 -0.461206 0.784559 0.039249 -0.007731 840387.000000 0 0 1
-19.637562 10.190330 24.302395 32.864618 -0.478669 0.738514 0.040342 -0.018340 -86061.900000 0 0 1
-20.052262 10.618330 25.599975 34.208199 -0.486994 0.725213 0.051593 -0.019985 -323002.000000 0 0 1
-19.283962 10.099330 26.669995 34.426099 -0.482440 0.684551 0.057028 -0.022295 -199737.000000 0 0 1
-32.365552 -14.339019 20.746345 41.031053 0.417045 1.040690 0.040693 -0.023571 -252138.000000 0 0 1
-31.499072 -15.411619 21.033245 40.891404 0.455029 1.030525 0.033168 -0.016877 1251.620000 0 0 1
-31.726232 -16.608219 20.318045 41.172924 0.482259 1.054709 0.024196 -0.008806 -4566.240000 0 0 1
-31.165632 -16.725719 18.882945 40.095036 0.492553 1.080424 0.035176 -0.018599 -185043.000000 0 0 1
-31.734592 -15.667019 18.139245 39.768983 0.458586 1.097171 0.044598 -0.027040 -98866.900000 0 0 1
-31.222282 -15.629919 16.862845 38.774745 0.464129 1.120877 0.048246 -0.023506 -1573620.000000 0 0 1
-31.660102 -14.371219 16.024145 38.284034 0.426111 1.138938 0.052937 -0.024804 -718729.000000 0 0 1
-32.925482 -14.526119 15.475145 39.173660 0.415496 1.164685 0.077935 -0.023668 716827.000000 0 0 1
-34.064862 -14.522519 16.420645 40.508715 0.402988 1.153423 0.076063 -0.025419 243427.000000 0 0 1
-34.689834 -13.128219 16.582945 40.629162 0.361788 1.150366 0.056475 -0.023460 -93752.200000 0 0 1
-35.856627 -13.230819 17.410045 41.998357 0.353493 1.143358 0.044545 -0.018728 455923.000000 0 0 1
-36.329032 -11.928419 17.727545 42.146787 0.317253 1.136674 0.042638 -0.006296 98389.100000 0 0 1
36.827312 -11.794319 18.805245 42.999932 -0.309939 1.118167 0.040214 0.007339 -25607.300000 0 0 1
-37.020442 -12.249019 20.088045 43.864350 0.319534 1.095099 0.026388 0.000203 114794.000000 0 0 1
36.329812 -11.908319 21.159445 43.696515 -0.316748 1.065306 0.025917 -0.002742 -813332.000000 0 0 1
36.763992 -12.318519 22.572645 44.864923 -0.323313 1.043586 0.016922 -0.003085 -135719.000000 0 0 1
-36.309932 -11.701919 23.017565 44.555071 0.311769 1.027910 0.016836 -0.005169 986090.000000 0 0 1
-35.080987 -12.234119 22.455545 43.411989 0.335551 1.027143 0.015726 -0.012660 137999.000000 0 0 1
-33.828942 -11.358919 22.419445 42.143254 0.323947 1.009857 0.035940 -0.016399 -164622.000000 0 0 1
-33.872042 -10.270519 21.534445 41.431041 0.294404 1.024219 0.054735 -0.015773 -71317.400000 0 0 1
-32.631752 -9.610119 21.603745 40.297735 0.286405 1.004982 0.062843 -0.020202 -331801.000000 0 0 1
-32.678532 -8.301919 20.794545 39.613400 0.248785 1.018155 0.068916 -0.014577 84114.800000 0 0 1
-32.857312 -8.380819 19.371245 39.052352 0.249742 1.051773 0.072513 -0.011280 1145840.000000 0 0 1
-34.225850 -8.673019 19.009145 40.099597 0.248181 1.076913 0.057431 -0.010860 709178.000000 0 0 1
-34.519637 -8.544219 17.504645 39.636115 0.242641 1.113378 0.066506 -0.010496 125641.000000 0 0 1
-35.904931 -8.724219 17.269745 40.786274 0.238362 1.133579 0.016253 -0.005399 154888.000000 0 0 1
-36.256442 -8.359119 15.924245 40.472040 0.226596 1.166401 0.037161 -0.004637 789843.000000 0 0 1
36.439682 -8.433519 15.731345 40.576470 -0.227433 1.172665 0.056270 -0.010038 758093.000000 0 0 1
36.014712 -9.784019 15.644845 40.466625 -0.265265 1.173842 0.053903 0.003385 686075.000000 0 0 1
34.585462 -9.757119 15.481645 39.128467 -0.274970 1.164008 0.072318 -0.005818 863112.000000 0 0 1
33.821832 -11.080619 15.651045 38.879965 -0.316597 1.156498 0.076293 -0.010251 -13090.400000 0 0 1
33.762122 -11.621719 16.972445 39.534911 -0.331520 1.127076 0.068639 -0.016907 -364764.000000 0 0 1
32.803052 -12.627319 17.026545 39.056276 -0.367460 1.119704 0.084223 -0.016944 -196820.000000 0 0 1
32.559012 -13.087919 18.452745 39.647026 -0.382208 1.086681 0.076448 -0.010272 -266950.000000 0 0 1
33.274522 -14.186019 18.910545 40.817223 -0.402999 1.089083 0.076713 -0.013969 -312566.000000 0 0 1
33.190842 -14.142319 20.297545 41.395985 -0.402794 1.058332 0.078090 -0.010019 -363379.000000 0 0 1
33.993622 -15.208819 20.961745 42.734872 -0.420691 1.058125 0.070667 0.000309 -412461.000000 0 0 1
34.177872 -15.028619 22.349445 43.514182 -0.414270 1.031406 0.056915 -0.005564 -364979.000000 0 0 1
34.776762 -16.152019 22.877395 44.650712 -0.434804 1.032862 0.053922 0.000281 -301750.000000 0 0 1
35.148402 -15.920919 24.364035 45.634330 -0.425315 1.007594 0.057974 -0.001396 -320511.000000 0 0 1
36.293432 -15.142219 24.506745 46.336601 -0.395260 1.013510 0.050956 -0.002742 -418440.000000 0 0 1
36.528132 -14.944719 25.865855 47.187832 -0.388351 0.990650 0.047885 -0.011007 -203724.000000 0 0 1
-36.519682 -14.006619 26.106255 47.025622 0.366233 0.982254 0.027622 -0.014338 -47068.300000 0 0 1
-35.294324 -14.709619 25.981715 46.228906 0.394879 0.973967 -0.002491 -0.010724 -115115.000000 0 0 1
-34.227178 -13.820419 26.230325 45.282819 0.383765 0.952981 0.015808 -0.017922 -539383.000000 0 0 1
-32.864202 -14.440419 25.992315 44.319092 0.414001 0.944089 0.014615 -0.020821 -1074700.000000 0 0 1
-32.490482 -14.512719 24.560355 43.237270 0.420086 0.966678 0.011453 -0.016410 -336531.000000 0 0 1
-31.178022 -14.879219 24.269675 42.219395 0.445270 0.958380 0.025770 -0.026397 -408011.000000 0 0 1
-30.800062 -16.376019 24.594455 42.681437 0.488675 0.956684 0.026233 -0.023262 -858399.000000 0 0 1
-30.793062 -16.524019 25.986685 43.549554 0.492509 0.931395 0.033886 -0.026447 -268591.000000 0 0 1
-30.631742 -17.864719 26.366675 44.188838 0.527982 0.931437 0.031750 -0.029900 -295793.000000 0 0 1
-30.356392 -18.156919 27.846325 45.017797 0.539040 0.903884 0.038726 -0.029825 -111559.000000 0 0 1
-29.083222 -17.611519 28.144525 44.137441 0.544495 0.879344 0.035633 -0.026592 -93927.400000 0 0 1
-28.716402 -18.010819 29.440295 44.897131 0.560177 0.855650 0.052041 -0.036524 281450.000000 0 0 1
-27.446782 -17.199519 29.821485 44.028062 0.559785 0.826670 0.067831 -0.036133 2028.000000 0 0 1
-27.695112 -15.857619 30.158565 43.909251 0.520012 0.813666 0.068505 -0.040123 352485.000000 0 0 1
-26.563132 -15.004619 29.921605 42.732201 0.514185 0.795102 0.065149 -0.034149 184948.000000 0 0 1
-26.636412 -13.661419 30.685145 42.868531 0.473902 0.773032 0.070705 -0.026408 -191331.000000 0 0 1
-26.002322 -13.645919 31.920461 43.373352 0.483287 0.743733 0.072012 -0.028548 -43864.200000 0 0 1
-26.094472 -12.414819 32.609083 43.570650 0.444072 0.725122 0.074457 -0.025355 -110915.000000 0 0 1
-25.364582 -12.436519 -33.903599 44.130297 0.455866 2.446917 0.077140 -0.027265 40493.600000 0 0 1
-23.961162 -12.623219 -33.935829 43.418009 0.484873 2.468035 0.067302 -0.028154 278346.000000 0 0 1
-23.458362 -13.934019 -33.703979 43.363693 0.535988 2.461063 0.066790 -0.026163 -278944.000000 0 0 1
-23.404162 -14.433119 -32.254569 42.384278 0.552601 2.435654 0.069469 -0.023812 -488744.000000 0 0 1
-22.335362 -13.917819 -31.457829 41.014255 0.557253 2.444945 0.059572 -0.016916 -12736.700000 0 0 1
-22.229262 -14.798219 -30.327989 40.409335 0.587339 2.419644 0.071863 -0.021499 444328.000000 0 0 1
-20.815762 -14.834819 -29.648609 39.145981 0.619180 2.430096 0.069828 -0.022889 441948.000000 0 0 1
-20.497362 -13.750819 -28.813299 37.939862 0.590899 2.433258 0.064858 -0.025824 -148469.000000 0 0 1
-21.118762 -13.646319 -27.581219 37.322216 0.573678 2.402385 0.074423 -0.016107 -379070.000000 0 0 1
-20.480962 -12.497819 -26.774509 35.951907 0.547898 2.410928 0.069203 -0.018133 298357.000000 0 0 1
-19.214862 -12.761519 -26.164769 34.880689 0.586257 2.419043 0.063099 -0.018302 345619.000000 0 0 1
-18.823762 -11.532719 -25.571089 33.781922 0.549682 2.429423 0.070864 -0.028518 -287649.000000 0 0 1
-17.441762 -11.731319 -24.944299 32.619886 0.592099 2.441366 0.076938 -0.027812 -917288.000000 0 0 1
-17.389062 -12.512519 -23.785499 32.010820 0.623735 2.408406 0.079331 -0.022216 517886.000000 0 0 1
-16.107662 -12.650619 -23.159999 30.917317 0.665762 2.417491 0.087467 -0.026928 317231.000000 0 0 1
-15.028462 -13.476819 -23.834499 31.233999 0.731018 2.438884 0.070684 -0.021506 -933099.000000 0 0 1
-14.413562 -12.794319 -24.881399 31.472677 0.725955 2.482538 0.076923 -0.033094 134237.000000 0 0 1
-13.661862 -13.720819 -25.709369 32.185075 0.787551 2.496091 0.075870 -0.024915 97851.400000 0 0 1
-12.720562 -13.064319 -26.751249 32.374658 0.798729 2.543307 0.074985 -0.031237 -22668.800000 0 0 1
-13.376162 -12.382919 -27.810919 33.252152 0.746858 2.561414 0.078803 -0.036870 -333645.000000 0 0 1
-12.480262 -11.924219 -28.786369 33.564848 0.762618 2.601448 0.080241 -0.043420 -148993.000000 0 0 1
-12.944862 -10.606319 -29.475489 33.894954 0.686426 2.625214 0.060108 -0.035055 -227119.000000 0 0 1
-11.968662 -9.803519 -30.079619 33.825159 0.686279 2.666538 0.062330 -0.031105 -232338.000000 0 0 1
-11.814462 -10.116019 -31.428199 35.066324 0.708106 2.682038 0.062028 -0.018445 -128613.000000 0 0 1
-11.094562 -9.032919 -32.197559 35.233021 0.683325 2.723453 0.051797 -0.019162 -146266.000000 0 0 1
-9.771062 -8.733519 -31.824199 34.416968 0.729387 2.750954 0.039616 -0.018118 -304330.000000 0 0 1
-9.450062 -7.410719 -32.163689 34.332570 0.665031 2.784243 0.035317 -0.018539 1036960.000000 0 0 1
-7.890262 -7.157519 -32.040389 33.764965 0.736742 2.820604 0.045688 -0.013444 1391970.000000 0 0 1
-7.212962 -7.184319 -30.750069 32.391481 0.783409 2.821880 0.038407 -0.013922 310355.000000 0 0 1
-7.564862 -6.198319 -29.822619 31.385266 0.686433 2.824708 0.044837 -0.015621 -252947.000000 0 0 1
-6.984462 -4.808619 -30.299879 31.464078 0.602948 2.868714 0.035366 -0.019795 1630040.000000 0 0 1
-5.544162 -4.651019 -30.136729 30.993421 0.698017 2.905926 0.055146 -0.019574 1309770.000000 0 0 1
-5.034462 -3.462419 -30.585389 31.189745 0.602453 2.944414 0.059357 -0.024774 -828436.000000 0 0 1
-3.596662 -3.248719 -30.183539 30.570185 0.734613 2.982379 0.058617 -0.014052 -1349430.000000 0 0 1
-2.628862 -3.960219 -30.884689 31.248333 0.984769 2.988885 0.065844 -0.017249 -932541.000000 0 0 1
-1.301162 -3.729819 -30.572739 30.826887 1.235143 3.013096 0.074856 -0.020892 -194690.000000 0 0 1
-0.675862 -2.388519 -31.139929 31.238710 1.295042 3.062046 0.074872 -0.023060 595454.000000 0 0 1
0.730938 -2.220619 -30.816599 30.905149 -1.252807 3.065875 0.081923 -0.017385 1286870.000000 0 0 1
1.285538 -1.028219 -31.395739 31.438866 -0.674641 3.089208 0.047789 -0.022418 84157.100000 0 0 1
1.433738 0.130981 -30.437109 30.471140 0.091104 3.094327 0.052434 -0.025917 377571.000000 0 0 1
0.196238 0.745281 -30.057709 30.067588 1.313333 3.115958 0.078500 -0.026695 270600.000000 0 0 1
0.489538 1.979381 -29.361279 29.431995 1.328343 3.072258 0.107345 -0.035305 687946.000000 0 0 1
-0.711062 2.635881 -28.587819 28.717885 -1.307306 3.046382 0.099076 -0.031401 -165533.000000 0 0 1
-1.765862 3.048781 -29.369889 29.580462 -1.045809 3.022202 0.085810 -0.044508 -749112.000000 0 0 1
-2.727762 3.788681 -28.646919 29.024830 -0.946789 2.980046 0.122997 -0.042767 1351030.000000 0 0 1
-4.034662 4.004381 -29.542919 30.084841 -0.781631 2.951501 0.144894 -0.041338 1081680.000000 0 0 1
-3.622062 4.893881 -30.559479 31.160090 -0.933648 2.944934 0.132185 -0.037217 -269908.000000 0 0 1
-4.676462 5.222681 -31.396919 32.170052 -0.840521 2.921913 0.151685 -0.036069 -856543.000000 0 0 1
-4.240462 5.697681 -32.796629 33.556877 -0.930990 2.928325 0.150795 -0.035627 -25552.300000 0 0 1
-3.956562 4.674881 -33.745039 34.296306 -0.868428 2.962055 0.166010 -0.034567 368606.000000 0 0 1
-2.729562 3.992981 -33.498489 33.845874 -0.971169 2.998196 0.146493 -0.037614 -189255.000000 0 0 1
-2.288762 3.046381 33.229090 33.446843 -0.926460 0.114171 0.119033 -0.032837 -386103.000000 0 0 1
-3.303662 2.201381 32.701277 32.941369 -0.587780 0.120808 0.112344 -0.040994 -50049.300000 0 0 1
-3.043562 1.640281 31.432435 31.622014 -0.494308 0.109555 0.108697 -0.030739 -150774.000000 0 0 1
-2.870562 2.617581 30.198915 30.447764 -0.739335 0.127939 0.113255 -0.029427 -202135.000000 0 0 1
-3.852662 3.616281 30.205105 30.663804 -0.753760 0.173184 0.094064 -0.026914 -233144.000000 0 0 1
-3.830762 4.455081 29.093755 29.681123 -0.860604 0.199273 0.097338 -0.030659 246204.000000 0 0 1
-4.929862 5.557781 29.104835 30.038041 -0.845199 0.249919 0.098576 -0.019023 393088.000000 0 0 1
-4.986562 6.288781 27.849925 28.983321 -0.900381 0.280580 0.096593 -0.009406 -548028.000000 0 0 1
-6.211062 6.938081 27.679125 29.203565 -0.840632 0.324534 0.077741 -0.002327 -217059.000000 0 0 1
-6.478662 7.666881 26.355265 28.202024 -0.869201 0.363897 0.081394 -0.006361 146805.000000 0 0 1
-5.572462 8.766981 26.312615 28.288973 -1.004597 0.376011 0.105879 -0.013703 360879.000000 0 0 1
-5.645462 9.393481 25.036835 27.330420 -1.029643 0.412605 0.096348 -0.010438 153636.000000 0 0 1
-4.814862 10.692081 25.156315 27.755066 -1.147676 0.436189 0.099981 -0.020176 -448046.000000 0 0 1
-4.981662 11.485481 24.008705 27.076764 -1.161550 0.480659 0.106881 -0.018119 227430.000000 0 0 1
-4.507762 12.824781 24.181235 27.740351 -1.232796 0.512138 0.101612 -0.018538 545735.000000 0 0 1
-2.929262 12.976781 24.088295 27.517692 -1.348786 0.504586 0.085535 -0.012047 1325370.000000 0 0 1
-2.172162 12.464381 25.217715 28.213689 -1.398259 0.465023 0.106697 -0.010098 132421.000000 0 0 1
-2.337262 13.181381 26.409095 29.608308 -1.395305 0.469159 0.116474 -0.018936 -264784.000000 0 0 1
-1.321662 12.774381 27.539085 30.386392 -1.467701 0.436359 0.120909 -0.020871 -108223.000000 0 0 1
0.019538 12.986781 27.272295 30.206538 1.569292 0.444419 0.130681 -0.021095 -1062350.000000 0 0 1
0.796138 12.601681 28.376295 31.058820 1.507703 0.418669 0.126316 -0.025977 1187580.000000 0 0 1
2.371038 12.628381 28.286645 31.068185 1.385202 0.426378 0.128082 -0.027256 1204930.000000 0 0 1
2.876038 13.907481 28.231335 31.602182 1.366873 0.466084 0.131535 -0.025929 -448987.000000 0 0 1
4.272638 14.001881 28.133005 31.713941 1.274624 0.479802 0.118828 -0.021536 252762.000000 0 0 1
4.994438 15.355481 28.513845 32.768500 1.256334 0.515269 0.121307 -0.019447 31466.900000 0 0 1
5.046738 15.584981 29.907055 34.099753 1.257632 0.501118 0.132227 -0.011556 248268.000000 0 0 1
4.047538 16.460781 30.412525 34.817547 1.329690 0.508486 0.106195 -0.008919 115143.000000 0 0 1
4.020038 17.920581 29.895635 35.086421 1.350124 0.550894 0.112713 -0.005906 -172694.000000 0 0 1
5.156238 18.637981 30.308305 35.952114 1.300895 0.567925 0.132947 -0.005428 -98360.000000 0 0 1
5.446538 19.677281 29.439335 35.826451 1.300764 0.606373 0.108274 -0.003595 1064610.000000 0 0 1
6.627538 20.602281 29.969745 36.967065 1.259562 0.625424 0.108896 -0.009868 1135440.000000 0 0 1
6.085838 21.413581 30.994995 38.161088 1.293893 0.622858 0.102607 -0.023010 522762.000000 0 0 1
7.143338 22.183781 31.526255 39.205257 1.259274 0.636580 0.101284 -0.020723 151883.000000 0 0 1
7.395138 23.549481 30.893685 39.543469 1.266522 0.674116 0.091409 -0.006974 -114319.000000 0 0 1
7.679938 23.472381 29.492045 38.467062 1.254585 0.697138 0.060057 -0.003276 269675.000000 0 0 1
7.869438 24.721281 28.929925 38.858852 1.262612 0.731030 0.065063 -0.012470 123692.000000 0 0 1
8.415138 24.625081 27.474065 37.842217 1.241508 0.758285 0.072660 -0.013881 -115927.000000 0 0 1
7.374638 24.288981 26.604545 36.771480 1.276021 0.761922 0.056770 -0.009244 293120.000000 0 0 1
7.895438 24.072181 25.321945 35.819111 1.253862 0.785635 0.069534 -0.014943 -96437.200000 0 0 1
28.524722 2.035381 7.820601 29.647333 0.071234 1.303849 0.105023 0.014996 -134347.000000 0 0 1
29.079822 3.177081 8.421301 30.440897 0.108822 1.290496 0.094771 -0.005343 293463.000000 0 0 1
28.404422 3.492481 9.654701 30.203011 0.122341 1.245425 0.094248 0.001296 -188765.000000 0 0 1
29.118322 4.534681 10.526901 31.293061 0.154492 1.227708 0.093640 -0.007815 -225889.000000 0 0 1
29.116422 5.920281 10.175101 31.406185 0.200597 1.240859 0.086648 -0.009045 206376.000000 0 0 1
29.865592 6.291081 9.021601 31.826413 0.207611 1.283393 0.093467 -0.028462 -155913.000000 0 0 1
29.652532 7.744781 8.630401 31.839255 0.255477 1.296301 0.104571 -0.040929 -104550.000000 0 0 1
28.503922 7.941281 7.835201 30.609278 0.271713 1.311940 0.083621 -0.033238 63959.500000 0 0 1
28.395522 9.319381 7.422301 30.793621 0.317123 1.327366 0.112312 -0.059174 -242112.000000 0 0 1
27.469422 9.553181 6.189501 29.734531 0.334691 1.361104 0.098093 -0.045491 -164333.000000 0 0 1
26.119222 9.604781 6.565901 28.593297 0.352380 1.339098 0.090905 -0.036985 -620946.000000 0 0 1
25.364822 9.603981 5.404801 27.655425 0.361953 1.374097 0.109589 -0.041611 -537885.000000 0 0 1
23.937122 10.150981 5.437101 26.562950 0.401081 1.364652 0.067373 -0.032122 -341533.000000 0 0 1
23.849422 11.509081 5.654501 27.078170 0.449609 1.360427 0.069792 -0.026500 361349.000000 0 0 1
22.497722 11.840081 5.937201 26.107190 0.484449 1.341373 0.077086 -0.021335 98492.200000 0 0 1
22.296122 13.254781 6.458001 26.730359 0.536357 1.326784 0.074580 -0.016034 -261087.000000 0 0 1
22.310522 14.198781 5.387001 26.988601 0.566767 1.369844 0.081900 -0.016032 331565.000000 0 0 1
22.364522 15.540581 5.718601 27.827755 0.607279 1.363822 0.102743 -0.017652 -135173.000000 0 0 1
21.918722 16.496381 4.580801 27.812672 0.645173 1.405341 0.095402 -0.021497 34348.600000 0 0 1
20.579022 16.347681 4.117001 26.602491 0.671308 1.415412 0.118755 -0.019727 670007.000000 0 0 1
20.272822 17.403781 3.233301 26.913438 0.709396 1.450368 0.121490 -0.014702 277262.000000 0 0 1
18.739022 17.511681 2.995801 25.822176 0.751554 1.454518 0.107043 -0.016079 138970.000000 0 0 1
17.965322 18.038581 4.052501 25.779177 0.787433 1.412941 0.113457 -0.021715 -31477.000000 0 0 1
16.639622 18.043881 3.588301 24.805939 0.825864 1.425632 0.089048 -0.027959 -1005480.000000 0 1 0
15.800122 19.093681 4.220401 25.140094 0.879507 1.402122 0.107660 -0.031066 -178796.000000 0 0 1
14.413422 18.950781 3.933701 24.131988 0.920564 1.407058 0.104309 -0.033718 187967.000000 0 1 0
13.649122 19.980681 4.411101 24.596422 0.971492 1.390482 0.078173 -0.033506 -858325.000000 0 1 0
12.155022 19.841881 4.182501 23.641872 1.021168 1.392950 0.061658 -0.027658 -559531.000000 0 1 0
11.469422 19.066281 5.141501 22.836501 1.029234 1.343706 0.050260 -0.031928 -245797.000000 0 1 0
10.093422 19.092181 4.873701 22.139140 1.084478 1.348839 0.042684 -0.021058 -200741.000000 0 1 0
9.185922 18.603081 6.026101 21.604853 1.112133 1.288123 0.029120 -0.019643 -881418.000000 0 1 0
8.932622 19.555981 7.049101 22.625604 1.142325 1.253968 0.033374 -0.018960 -146215.000000 0 1 0
8.534122 18.896381 8.224101 22.305611 1.146590 1.193185 0.042559 -0.014407 -488963.000000 0 1 0
7.660622 19.798381 9.140101 23.112821 1.201606 1.164232 0.036996 -0.012244 964349.000000 0 1 0
6.336522 20.088681 8.658101 22.774313 1.265247 1.180817 0.033852 -0.016393 688276.000000 0 1 0
6.250822 21.002181 7.592401 23.190708 1.281518 1.237257 0.032303 -0.017790 -1728040.000000 0 1 0
4.964022 20.952381 6.793901 22.578771 1.338166 1.265162 0.013490 -0.013731 222117.000000 0 1 0
3.741922 21.366481 7.444601 22.933612 1.397424 1.240191 0.008011 -0.007588 885854.000000 0 1 0
3.633422 22.719281 7.886101 24.321967 1.412212 1.240590 0.023752 -0.012349 -757913.000000 0 1 0
3.767422 23.798581 6.757401 25.024556 1.413795 1.297371 0.030899 -0.016658 -184060.000000 0 0 1
2.609422 24.043281 5.990101 24.915252 1.462689 1.327999 0.026822 -0.010257 -14427.300000 0 1 0
2.788422 25.184981 5.062101 25.839571 1.460528 1.373616 0.036474 0.000076 702462.000000 0 0 1
1.526122 25.542081 4.162801 25.924040 1.511118 1.409521 0.045098 -0.007138 1184800.000000 0 0 1
0.444322 26.078681 4.961701 26.550207 1.553760 1.382811 0.054111 -0.014061 -2850.340000 0 0 1
-0.582978 26.395581 4.070401 26.713943 -1.548714 1.417831 0.071345 -0.016906 -599530.000000 0 0 1
-1.784378 27.014581 4.776101 27.491503 -1.504840 1.396180 0.086563 -0.019599 280107.000000 0 0 1
-2.960878 27.120381 3.966901 27.568427 -1.462052 1.426402 0.119661 -0.032595 870819.000000 0 0 1
-4.028278 27.785581 4.674201 28.462496 -1.426822 1.405826 0.118066 -0.034405 814966.000000 0 0 1
-5.065378 28.227881 3.565101 28.899503 -1.393240 1.447119 0.121253 -0.042097 251198.000000 0 0 1
-4.510878 29.232981 2.739501 29.705556 -1.417696 1.478443 0.129148 -0.041555 216210.000000 0 0 1
-5.452278 29.617581 1.781001 30.167871 -1.388745 1.511726 0.144164 -0.049561 -112404.000000 0 0 1
-4.761278 30.584381 0.788101 30.962804 -1.416359 1.545340 0.141627 -0.046124 304466.000000 0 0 1
-4.338178 31.901981 1.189501 32.217559 -1.435641 1.533867 0.138334 -0.043030 377310.000000 0 0 1
-3.251278 31.944781 2.107801 32.178917 -1.469368 1.505247 0.142309 -0.047333 12323.500000 0 0 1
-2.383278 33.226881 2.003001 33.372409 -1.499192 1.510741 0.130717 -0.048006 -618902.000000 0 0 1
-1.707178 33.364281 0.775001 33.416917 -1.519673 1.547602 0.106099 -0.037787 324565.000000 0 0 1
-0.835978 -33.585570 0.739401 33.604108 1.545910 1.548791 0.095454 -0.038011 1113450.000000 0 0 1
0.550122 -33.721570 1.460101 33.757648 -1.554484 1.527530 0.065576 -0.026070 62137.200000 0 0 1
0.360622 -33.561170 2.872601 33.685813 -1.560052 1.485416 0.072917 -0.029638 183570.000000 0 0 1
1.574622 -33.812070 3.551901 34.034563 -1.524260 1.466244 0.054976 -0.021891 85587.700000 0 0 1
1.458122 -33.734470 5.077301 34.145564 -1.527600 1.421547 0.057309 -0.026741 293635.000000 0 0 1
0.686922 33.274481 5.680301 33.762831 1.550155 1.401751 0.083506 -0.038595 572439.000000 0 0 1
0.025822 33.740781 6.898701 34.438831 1.570031 1.369114 0.085584 -0.036978 431751.000000 0 0 1
0.823322 33.657781 8.238001 34.661055 1.546340 1.330827 0.079081 -0.028066 42123.600000 0 0 1
1.067622 32.331681 8.665001 33.489695 1.537787 1.309083 0.075695 -0.033622 -30612.900000 0 0 1
2.212822 32.370481 9.479201 33.802365 1.502543 1.286554 0.093752 -0.034722 -274695.000000 0 0 1
2.878422 30.990381 9.658601 32.587998 1.478181 1.269891 0.079852 -0.029893 2343.620000 0 0 1
2.171622 30.046881 10.439701 31.882885 1.498647 1.237204 0.093084 -0.029713 356569.000000 0 0 1
2.952422 28.868381 10.350201 30.809526 1.468879 1.228192 0.062428 -0.028467 206431.000000 0 0 1
2.435622 27.707381 11.249201 30.002929 1.483117 1.186468 0.064604 -0.033855 -598804.000000 0 0 1
2.690122 27.977581 12.635101 30.816028 1.474938 1.148323 0.072831 -0.031698 166084.000000 0 0 1
2.230722 26.893581 13.419901 30.138589 1.488039 1.109317 0.083384 -0.026841 1087590.000000 0 0 1
0.671122 26.585581 13.500101 29.824424 1.545558 1.101059 0.053690 -0.029673 653725.000000 0 0 1
-0.089978 27.472981 14.290301 30.967491 -1.567521 1.091155 0.064448 -0.028391 41271.200000 0 0 1
-0.469678 28.685581 13.638501 31.766206 -1.554424 1.127035 0.085713 -0.032389 -533258.000000 0 0 1
-0.805278 29.874681 14.565501 33.246035 -1.543848 1.117299 0.066914 -0.024485 876559.000000 0 0 1
-2.099478 29.620981 15.142201 33.333115 -1.500037 1.099245 0.040781 -0.019817 235645.000000 0 0 1
-2.814778 30.786981 15.266601 34.479418 -1.479622 1.112106 0.042665 -0.008904 -134690.000000 0 0 1
-4.118178 30.537381 16.096701 34.764850 -1.436748 1.089401 0.035619 -0.004676 -75309.600000 0 0 1
-5.037178 29.802781 15.347801 33.898878 -1.403362 1.100946 0.039818 -0.014559 -601149.000000 0 0 1
-6.243578 29.782181 16.091801 34.422473 -1.364148 1.084359 0.034310 -0.008424 -555809.000000 0 0 1
-7.347278 29.126681 15.247701 33.687363 -1.323699 1.101091 0.035755 -0.015552 66526.100000 0 0 1
-8.637578 29.191281 15.855001 34.323748 -1.283109 1.090632 0.039047 -0.019859 375982.000000 0 0 1
-9.542578 28.436881 15.060601 33.563949 -1.247034 1.105471 0.037230 -0.018711 250087.000000 0 0 1
-10.766578 27.856581 15.822801 33.797475 -1.201981 1.083583 0.038621 -0.017560 -397566.000000 0 0 1
-11.677778 28.805881 16.286401 35.091254 -1.185647 1.088160 0.039836 -0.024931 -224491.000000 0 0 1
-11.381078 29.503181 17.477001 36.130488 -1.202628 1.065897 0.049295 -0.029979 -594373.000000 0 0 1
-12.394978 30.575581 17.942501 37.555758 -1.185654 1.072697 0.067664 -0.026349 -373547.000000 0 0 1
-13.599778 30.080381 18.422601 37.804438 -1.146185 1.061786 0.084073 -0.024487 -345448.000000 0 0 1
-14.596078 31.054081 18.638801 39.048769 -1.131418 1.073193 0.091668 -0.022334 401178.000000 0 0 1
-15.416878 30.774581 19.966101 39.791961 -1.106380 1.045162 0.082970 -0.027230 520857.000000 0 0 1
-14.675578 30.841881 21.177701 40.188173 -1.126669 1.015773 0.092776 -0.030024 -49606.200000 0 0 1
-15.567078 30.426181 22.168201 40.737152 -1.097885 0.995389 0.089226 -0.026635 -165917.000000 0 0 1
-15.121578 30.539081 23.630601 41.469300 -1.111032 0.964493 0.096263 -0.017856 -291622.000000 0 0 1
-14.072478 29.643881 23.981601 40.643714 -1.127578 0.939682 0.086641 -0.020985 374991.000000 0 0 1
-13.822578 29.303981 25.285201 41.099007 -1.130047 0.908123 0.095646 -0.016174 92181.700000 0 0 1
-13.263078 30.402481 26.200901 42.269460 -1.159436 0.902239 0.095947 -0.014758 -178430.000000 0 0 1
-14.341078 31.218381 26.541301 43.413068 -1.140170 0.913010 0.103835 -0.015966 264398.000000 0 0 1
-13.786178 32.338981 27.149101 44.417812 -1.167823 0.913194 0.102273 -0.015977 672820.000000 0 0 1
-14.940878 33.295481 27.663301 45.793854 -1.148994 0.922181 0.116439 -0.022759 843885.000000 0 0 1
-15.668978 32.728381 28.777801 46.312262 -1.124286 0.900286 0.097293 -0.023724 77138.200000 0 0 1
-15.113678 32.998181 30.032501 47.108962 -1.141297 0.879532 0.121271 -0.023518 -185130.000000 0 0 1
-15.829178 32.387081 31.284201 47.730358 -1.116189 0.856036 0.112685 -0.021890 346442.000000 0 0 1
-17.081878 32.936181 31.693201 48.795917 -1.092352 0.863863 0.116486 -0.018530 74807.100000 0 0 1
-17.593078 32.255681 32.809401 49.258523 -1.071472 0.841875 0.103989 -0.011600 1026430.000000 0 0 1
-19.131778 32.610981 32.865701 50.096460 -1.040238 0.855225 0.094805 -0.008719 803153.000000 0 0 1
-19.382378 33.966681 33.238201 51.324360 -1.052253 0.866352 0.123758 -0.010324 449389.000000 0 0 1
-20.786178 -33.839170 33.225201 51.779036 1.019955 0.874119 0.098343 -0.008211 657345.000000 0 0 1
-21.108278 -32.343870 33.232701 50.951915 0.992581 0.860265 0.110938 -0.002012 -212050.000000 0 0 1
-20.866678 -31.677570 -33.420644 50.555179 0.988315 2.293044 0.120239 -0.008451 552980.000000 0 0 1
-21.718378 -31.967370 -32.272044 50.349632 0.974035 2.266543 0.088393 -0.000983 347932.000000 0 0 1
-21.391578 -31.119570 -31.021244 48.870694 0.968577 2.258496 0.089580 -0.003237 -184432.000000 0 0 1
-21.594978 -29.758170 -31.181044 48.209431 0.943041 2.274155 0.099927 0.001272 277562.000000 0 0 1
-20.853078 -29.027370 -30.191544 46.786412 0.947832 2.272220 0.105918 -0.004770 280020.000000 0 0 1
-21.036178 -27.526870 -30.234944 45.982618 0.918266 2.288332 0.106036 -0.016143 603241.000000 0 0 1
-22.217378 -27.048970 -29.574944 45.825058 0.883156 2.272327 0.113629 -0.020315 403521.000000 0 0 1
-22.253578 -25.620070 -29.544744 44.994462 0.855603 2.287139 0.113883 -0.020799 248343.000000 0 0 1
-23.533578 -25.084570 -28.853544 44.895344 0.817289 2.268794 0.101176 -0.023685 188274.000000 0 0 1
-23.627178 -25.270570 -27.459944 44.168923 0.818994 2.241711 0.098542 -0.028324 -105595.000000 0 0 1
-22.885478 -24.344570 -26.714044 42.779005 0.816282 2.245244 0.100115 -0.035056 -328011.000000 0 0 1
-22.697378 -24.786870 -25.253244 42.039103 0.829374 2.215183 0.096288 -0.027506 -44560.900000 0 0 1
-23.772378 -24.441370 -24.408444 41.931833 0.799273 2.192103 0.089728 -0.036681 44837.900000 0 0 1
-23.708278 -25.117770 -23.217544 41.617774 0.814258 2.162620 0.091023 -0.023144 -498893.000000 0 0 1
-25.012578 -25.051970 -22.394444 41.889633 0.786185 2.134838 0.081147 -0.028982 388741.000000 0 0 1
-26.172778 -25.742570 -22.831444 43.231574 0.777112 2.127181 0.076407 -0.022934 199974.000000 0 0 1
-26.121078 -27.162370 -22.924744 44.109510 0.804938 2.117323 0.067824 -0.007663 275109.000000 0 0 1
-27.576778 -27.784970 -23.066544 45.437305 0.789159 2.103259 0.043832 -0.004301 1306450.000000 0 0 1
-28.338878 -27.546570 -21.900244 45.183251 0.771222 2.076815 0.044463 -0.000979 -194244.000000 0 0 1
-29.588778 -26.971970 -22.233344 45.796337 0.739166 2.077712 0.043386 -0.004832 237869.000000 0 0 1
-30.420878 -26.504770 -21.003644 45.487203 0.716713 2.050762 0.052125 0.001736 4568.650000 0 0 1
-31.063778 -27.552970 -20.315044 46.225809 0.725575 2.025809 0.039760 0.002024 -44127.100000 0 0 1
-31.443978 -27.123670 -19.059744 45.691258 0.711765 2.001095 0.034808 0.004505 -987064.000000 0 0 1
-32.208378 -28.188370 -18.282944 46.542774 0.718936 1.974493 0.024177 -0.001920 1286320.000000 0 0 1
-33.572778 -28.372870 -18.785044 47.801977 0.701651 1.974662 0.016882 -0.005827 2739910.000000 0 0 1
-34.620978 -27.359270 -18.571444 47.875257 0.668768 1.969163 0.015014 -0.001212 905731.000000 0 0 1
-35.012378 -26.928770 -17.107344 47.367567 0.655627 1.940310 0.024083 0.006980 -374467.000000 0 0 1
-34.045678 -26.057170 -16.535744 45.951225 0.653259 1.938908 0.021440 0.014541 310493.000000 0 0 1
-34.418378 -25.547670 -15.273644 45.503762 0.638534 1.913099 0.021134 0.017473 -96890.000000 0 0 1
-34.158178 -26.416770 -14.024844 45.401796 0.658288 1.884838 0.020549 0.017881 -92495.500000 0 0 1
-34.895278 -27.625770 -13.983044 46.651785 0.669645 1.875208 0.018942 0.012544 334035.000000 0 0 1
-34.756678 -28.080170 -12.687044 46.448721 0.679544 1.847453 0.019387 0.010753 376274.000000 0 0 1
-35.754078 -29.316870 -12.472844 47.889506 0.686793 1.834285 0.036049 0.000709 423308.000000 0 0 1
-35.601078 -30.424070 -13.327444 48.689645 0.707149 1.848057 0.015320 -0.000959 252060.000000 0 0 1
-35.999978 -31.703670 -12.817344 49.652848 0.722026 1.831892 0.012667 -0.011570 -184606.000000 0 0 1
-35.508378 -32.708470 -13.871144 50.230444 0.744377 1.850582 0.008819 -0.009884 -1510440.000000 0 0 1
-34.140778 -32.768970 -13.877644 49.315181 0.764899 1.856057 0.016025 -0.010404 -1196370.000000 0 0 1
-33.651778 -33.361370 -15.075244 49.726111 0.781065 1.878809 0.046896 -0.027755 23109.100000 0 0 1
-32.250078 -33.998270 -15.019744 49.209171 0.811781 1.880968 0.044900 -0.020663 231550.000000 0 0 1
-31.781878 33.446081 -16.207744 48.902138 -0.810906 1.908618 0.053321 -0.021040 -1239230.000000 0 0 1
-30.633578 32.754281 -15.950644 47.599181 -0.818842 1.912511 0.053027 -0.018705 -1218330.000000 0 0 1
9.254338 19.823081 -9.438599 23.826130 1.134021 1.978111 0.031405 -0.029848 -831321.000000 0 1 0
7.913538 19.435581 -9.483699 23.028384 1.184126 1.995254 0.046097 -0.037528 -480383.000000 0 1 0
7.355838 19.546481 -10.792399 23.508491 1.210864 2.047761 0.049998 -0.034934 -83928.400000 0 1 0
7.655638 18.347981 -11.741999 23.089646 1.175511 2.104284 0.040028 -0.024785 -922491.000000 0 1 0
9.003438 18.078681 -11.981499 23.483120 1.108739 2.106234 0.072108 -0.031984 -448846.000000 0 1 0
9.014438 16.938181 -12.808399 23.069832 1.081725 2.159401 0.072710 -0.036225 -345288.000000 0 1 0
10.387138 16.752681 -13.449899 23.863042 1.015780 2.169569 0.098723 -0.026913 -213941.000000 0 1 0
10.439238 15.447881 -13.932899 23.275317 0.976517 2.212564 0.122387 -0.044397 239279.000000 0 1 0
11.698138 15.213081 -14.517299 24.063172 0.915276 2.218428 0.152844 -0.049321 -251615.000000 0 1 0
11.581538 13.923281 -15.437499 23.797188 0.876957 2.276686 0.131576 -0.047937 -375486.000000 0 1 0
11.446838 12.660781 -14.764099 22.567767 0.835711 2.283936 0.132193 -0.042025 478173.000000 0 1 0
12.661538 12.288881 -14.109999 22.592548 0.770463 2.245342 0.155817 -0.040975 107578.000000 0 1 0
13.680738 11.634081 -15.015499 23.408965 0.704725 2.267173 0.169843 -0.041415 -362765.000000 0 1 0
14.198838 12.455881 -16.090499 24.812500 0.720101 2.276387 0.139864 -0.037646 257005.000000 0 1 0
15.178638 11.809581 -16.890299 25.595692 0.661206 2.291466 0.134948 -0.040815 411544.000000 0 0 1
15.894338 12.683081 -17.978599 27.142597 0.673497 2.294782 0.097424 -0.034685 1460030.000000 0 0 1
17.027238 13.489681 -17.497699 27.893867 0.669992 2.248872 0.064233 -0.025119 730387.000000 0 0 1
17.760638 13.952181 -18.567499 29.237915 0.665879 2.258868 0.040020 -0.021958 140153.000000 0 0 1
18.992338 14.860781 -18.233799 30.232816 0.663955 2.218194 0.030474 -0.007288 -259565.000000 0 0 1
18.700838 16.183581 -17.904699 30.532080 0.713363 2.197431 0.027011 -0.009929 154694.000000 0 0 1
18.171838 17.039781 -18.890799 31.263911 0.753259 2.219604 0.032958 -0.003183 -130143.000000 0 0 1
17.672638 18.396381 -18.276899 31.381428 0.805461 2.192488 0.031400 -0.005348 3028.630000 0 0 1
18.647538 19.407081 -18.126999 32.449246 0.805355 2.163525 0.040107 -0.003592 -260698.000000 0 0 1
18.235938 20.326181 -17.175099 32.259682 0.839550 2.132231 0.025676 0.003517 -41377.100000 0 0 1
18.986738 21.712181 -17.058599 33.509862 0.852264 2.104891 0.038725 -0.004979 -353347.000000 0 0 1
20.217638 21.641881 -16.408999 33.858221 0.819409 2.076746 0.062601 -0.012739 -752267.000000 0 0 1
20.517038 22.936981 -15.960299 34.666772 0.841030 2.049233 0.053002 -0.011920 -208413.000000 0 0 1
21.924638 23.120481 -15.392099 35.385917 0.811940 2.020810 0.055019 -0.019303 -1032450.000000 0 0 1
22.097438 22.621681 -14.081999 34.617047 0.797121 1.989738 0.064668 -0.014845 -72356.400000 0 0 1
23.297538 22.955981 -13.421099 35.353617 0.778014 1.960187 0.073762 -0.020777 -101278.000000 0 0 1
24.576038 22.237181 -13.903399 35.941318 0.735478 1.967994 0.075500 -0.016521 -475674.000000 0 0 1
25.040738 22.705381 -15.171799 37.050727 0.736525 1.992688 0.084253 -0.016799 -310754.000000 0 0 1
26.114638 23.586881 -15.063599 38.278288 0.734583 1.975263 0.079275 -0.015569 -604588.000000 0 0 1
26.608738 24.277481 -16.375599 39.567427 0.739617 1.997493 0.086732 -0.019752 -180505.000000 0 0 1
27.240938 23.284981 -17.157299 39.732002 0.707262 2.017312 0.096603 -0.021902 117225.000000 0 0 1
27.322938 23.588781 -18.511999 40.566829 0.712184 2.044666 0.087128 -0.012206 -338045.000000 0 0 1
28.102838 22.503381 -19.358099 40.876737 0.675199 2.064139 0.079380 -0.018938 275234.000000 0 0 1
29.508838 22.569081 -19.387199 41.904635 0.652921 2.051779 0.076949 -0.015925 -399504.000000 0 0 1
29.855638 21.689681 -20.458699 42.194310 0.628281 2.077009 0.088606 -0.016098 537438.000000 0 0 1
31.386538 21.564081 -20.707799 43.346710 0.601981 2.068859 0.108805 -0.019925 382127.000000 0 0 1
32.004438 22.737781 -21.202799 44.618936 0.617710 2.065985 0.096136 -0.005219 67418.100000 0 0 1
33.382938 22.683881 -21.482399 45.721685 0.596838 2.059919 0.109242 -0.015969 275635.000000 0 0 1
34.060038 23.972981 -22.133599 47.166579 0.613302 2.059254 0.091913 -0.017784 241250.000000 0 0 1
33.540338 24.330281 -23.399799 47.586421 0.627573 2.084875 0.107559 -0.021192 575910.000000 0 0 1
32.250038 24.944581 -23.363899 46.991157 0.658356 2.091162 0.094675 -0.015418 506315.000000 0 0 1
31.568738 25.335281 -24.725399 47.432131 0.676290 2.119146 0.090170 -0.018551 68105.400000 0 0 1
31.999738 26.576481 -25.273059 48.672581 0.693077 2.116765 0.098299 -0.028752 100781.000000 0 0 1
31.094838 27.223681 -26.166289 48.915156 0.719116 2.135224 0.094894 -0.021436 271619.000000 0 0 1
30.831738 26.698381 -27.637819 49.267116 0.713675 2.166364 0.086842 -0.016582 156023.000000 0 0 1
30.176938 25.450781 -27.678889 48.213180 0.700641 2.182293 0.085625 -0.025339 -36704.500000 0 0 1
29.812538 25.129981 -29.015579 48.602543 0.700377 2.210549 0.071400 -0.026300 -518999.000000 0 0 1
29.081238 23.781481 -28.933149 47.417342 0.685477 2.227085 0.069670 -0.026161 -156519.000000 0 0 1
27.763638 23.928981 -28.463899 46.406996 0.711352 2.231096 0.062010 -0.021113 -14194.100000 0 0 1
26.935238 22.857981 -28.917699 45.653342 0.703697 2.256760 0.059473 -0.022956 -356198.000000 0 0 1
25.519638 22.773781 -28.390209 44.451108 0.728602 2.263583 0.052947 -0.017984 -705646.000000 0 0 1
25.539038 22.559681 -27.011669 43.483468 0.723535 2.241062 0.056614 -0.001044 522804.000000 0 0 1
24.290638 22.777381 -26.356009 42.467439 0.753259 2.240325 0.053768 -0.003689 94262.600000 0 0 1
24.385138 22.932881 -24.800399 41.660674 0.754716 2.208429 0.067643 0.002716 -288406.000000 0 0 1
24.708938 21.664981 -24.320899 40.882871 0.719853 2.207928 0.071245 -0.000405 244856.000000 0 0 1
24.961438 21.690181 -22.920099 40.235162 0.715392 2.176880 0.076922 -0.006422 -123231.000000 0 0 1
25.365238 20.356981 -22.304899 39.437425 0.676297 2.171929 0.092289 -0.004500 -271057.000000 0 0 1
26.702138 20.032381 -22.587199 40.304864 0.643640 2.165676 0.079051 -0.008013 -177420.000000 0 0 1
26.934838 18.694881 -22.266699 39.633193 0.606740 2.167380 0.107951 -0.011401 -88508.500000 0 0 1
28.237138 18.157381 -22.880599 40.626940 0.571461 2.169035 0.121994 -0.019097 -208126.000000 0 0 1
29.319938 18.042081 -22.010299 40.861091 0.551631 2.139644 0.139423 -0.027953 238256.000000 0 0 1
30.535538 17.739881 -22.716499 41.990020 0.526301 2.142419 0.123736 -0.022051 605768.000000 0 0 1
31.736738 17.522881 -21.802399 42.303859 0.504479 2.112243 0.104495 -0.019403 -247869.000000 0 0 1
32.491238 18.643181 -21.412499 43.147930 0.520925 2.090079 0.093517 -0.017072 -351110.000000 0 0 1
33.712938 18.284181 -20.843599 43.650075 0.496950 2.068621 0.092991 -0.018450 -426182.000000 0 0 1
34.388638 19.436781 -20.128199 44.334087 0.514445 2.042059 0.072738 -0.026778 -397431.000000 0 0 1
33.700038 19.683781 -18.949899 43.384818 0.528637 2.022820 0.079772 -0.029255 139166.000000 0 0 1
34.495438 20.295381 -17.944199 43.861509 0.531809 1.992275 0.061840 -0.028792 38663.100000 0 0 1
33.832238 20.234281 -16.520099 42.742954 0.539004 1.967629 0.069261 -0.032800 125389.000000 0 0 1
34.130938 19.034381 -15.796599 42.151644 0.508726 1.954930 0.066376 -0.030290 390031.000000 0 0 1
33.744038 19.158581 -14.422399 41.397064 0.516378 1.926651 0.073779 -0.029004 -516451.000000 0 0 1
34.285538 18.049381 -13.479699 41.024146 0.484578 1.905596 0.062529 -0.020156 398965.000000 0 0 1
35.729438 17.959581 -13.525399 42.214639 0.465769 1.896944 0.036923 -0.017043 1126980.000000 0 0 1
36.335338 17.035081 -12.665199 42.081564 0.438402 1.876504 0.021201 -0.015780 47660.100000 0 0 1
36.259538 17.399681 -11.173499 41.741467 0.447410 1.841784 0.051110 -0.024276 -422493.000000 0 0 1
-37.118947 18.477181 -10.856199 42.861166 -0.461872 1.826873 0.038621 -0.021989 249236.000000 0 0 1
36.853438 18.992481 -9.540399 42.543030 0.475853 1.796973 0.058269 -0.023067 -63227.600000 0 0 1
35.735538 20.069881 -9.493699 42.070882 0.511723 1.798416 0.065218 -0.025922 1477140.000000 0 0 1
34.389838 19.598081 -9.787999 40.774387 0.517978 1.813216 0.091268 -0.032379 1001550.000000 0 0 1
33.441338 20.621581 -10.000099 40.541024 0.552572 1.820035 0.080908 -0.018101 446764.000000 0 0 1
32.035938 19.988781 -10.225699 39.120552 0.557843 1.835258 0.069896 -0.021459 237914.000000 0 0 1
31.858238 19.601581 -11.544299 39.146394 0.551576 1.870148 0.085245 -0.024267 -817902.000000 0 0 1
30.553738 19.231781 -11.812499 37.985885 0.561787 1.887011 0.088545 -0.021383 -680223.000000 0 0 1
30.337438 18.516481 -13.187399 37.909467 0.547996 1.926090 0.122681 -0.023589 -348178.000000 0 0 1
31.129038 17.356381 -13.307999 38.044235 0.508631 1.928157 0.102862 -0.016938 151407.000000 0 0 1
30.774438 16.628981 -14.487699 37.861358 0.495405 1.963461 0.085776 -0.011953 80460.900000 0 0 1
32.016938 15.907481 -15.071899 38.798124 0.461121 1.969767 0.091227 -0.024723 -195642.000000 0 0 1
32.485938 14.887381 -14.238999 38.467121 0.429711 1.949978 0.066244 -0.022526 137077.000000 0 0 1
33.546438 14.257581 -14.936199 39.392032 0.401879 1.959693 0.067115 -0.023283 -55815.800000 0 0 1
34.420438 13.265881 -14.165099 39.514557 0.367863 1.937433 0.054567 -0.028310 -264502.000000 0 0 1
35.275038 13.860881 -13.206699 40.135635 0.374403 1.906096 0.051488 -0.015200 -177391.000000 0 0 1
35.911438 12.832481 -12.536599 40.143122 0.343196 1.888407 0.040357 -0.007496 -726794.000000 0 0 1
36.800038 13.349281 -11.452699 40.787380 0.347990 1.855414 0.057185 -0.005468 -416559.000000 0 0 1
-36.193047 13.790581 -11.911799 40.521695 -0.364045 1.869165 0.041552 -0.010505 -394156.000000 0 0 1
-35.362347 14.096581 -10.827899 39.578436 -0.379327 1.847910 0.034705 -0.009582 51784.000000 0 0 1
-33.890147 14.465981 -11.224599 38.520103 -0.403436 1.866482 0.065481 -0.017558 1210260.000000 0 0 1
-33.010747 13.434081 -11.738899 37.523136 -0.386493 1.888983 0.076600 -0.023236 705730.000000 0 0 1
-32.737247 12.365581 -10.877999 36.646498 -0.361155 1.872174 0.100963 -0.019554 -632869.000000 0 0 1
-31.607347 11.427381 -11.387499 35.486400 -0.346920 1.897473 0.130737 -0.021639 267444.000000 0 0 1
-31.941647 10.622681 -12.500299 35.907766 -0.321059 1.926364 0.111300 -0.011595 989546.000000 0 0 1
-30.956647 9.539881 -12.479599 34.714028 -0.298934 1.938525 0.144711 -0.031692 849541.000000 0 0 1
-30.936447 8.730481 -13.800199 34.981861 -0.275054 1.976315 0.148575 -0.046964 -183998.000000 0 0 1
-32.213047 8.252781 -14.131499 36.131539 -0.250800 1.972636 0.114155 -0.040684 134155.000000 0 0 1
-32.072747 7.254481 -15.143099 36.202238 -0.222445 2.002360 0.132893 -0.050501 367385.000000 0 0 1
-33.475747 6.957281 -15.747399 37.643193 -0.204913 2.002406 0.123851 -0.046555 1152040.000000 0 0 1
-34.443147 6.230881 -14.949399 38.060988 -0.178968 1.974443 0.130069 -0.050981 913216.000000 0 0 1
-35.471647 5.606081 -15.698999 39.193424 -0.156748 1.982915 0.084115 -0.045421 46119.200000 0 0 1
-36.449047 4.913281 -14.724499 39.616717 -0.133991 1.951608 0.088800 -0.039141 -515589.000000 0 0 1
36.730738 4.252081 -15.333099 40.029130 0.115251 1.963891 0.089203 -0.030783 -2704.590000 0 0 1
35.779738 3.909081 -14.323799 38.738118 0.108822 1.949547 0.107495 -0.032805 468374.000000 0 0 1
34.662738 2.892581 -14.758299 37.784650 0.083256 1.972069 0.110447 -0.028971 28916.600000 0 0 1
35.183038 1.628981 -15.138799 38.336444 0.046267 1.976748 0.116848 -0.034131 -172577.000000 0 0 1
34.390638 0.475481 -14.904799 37.484598 0.013825 1.979723 0.107247 -0.025672 -171917.000000 0 0 1
34.041338 0.014181 -13.434299 36.596356 0.000417 1.946679 0.136876 -0.030144 -495427.000000 0 0 1
35.098938 -0.440119 -12.670299 37.318435 -0.012539 1.917201 0.152027 -0.028967 -307388.000000 0 0 1
34.759738 -0.383519 -11.276199 36.545029 -0.011033 1.884471 0.167497 -0.024610 -411.210000 0 0 1
34.904238 1.021581 -10.561999 36.481574 0.029260 1.864517 0.158503 -0.033046 -11834.200000 0 0 1
34.044838 1.994081 -11.135899 35.875278 0.058505 1.886416 0.144596 -0.024502 483399.000000 0 0 1
34.219238 3.224181 -10.466999 35.929231 0.093944 1.866406 0.146655 -0.026665 -369309.000000 0 0 1
33.238638 4.305381 -10.917799 35.249705 0.128812 1.885703 0.126584 -0.025391 -347289.000000 0 0 1
33.344738 4.732981 -12.294799 35.852960 0.140999 1.920823 0.114801 -0.017279 263257.000000 0 0 1
32.224938 5.466281 -12.734899 35.078548 0.168029 1.942324 0.103649 -0.014908 -239040.000000 0 0 1
32.380338 6.007181 -14.160699 35.848262 0.183434 1.976883 0.065130 -0.009076 -516421.000000 0 0 1
32.001238 5.142581 -15.195899 35.797217 0.159337 2.009205 0.060571 -0.007738 115095.000000 0 0 1
32.296038 5.674481 -16.430299 36.676812 0.173927 2.035296 0.050937 -0.003930 -684903.000000 0 0 1
31.309238 6.700681 -17.089499 36.293505 0.210836 2.061072 0.062070 -0.005029 1040450.000000 0 0 1
30.089438 6.280181 -17.738599 35.489052 0.205763 2.094202 0.054345 -0.004874 184990.000000 0 0 1
29.152938 5.782881 -16.890699 34.185249 0.195822 2.087588 0.052508 -0.000980 -1402960.000000 0 0 1
27.759038 5.685481 -17.576499 33.343998 0.202022 2.126012 0.051588 -0.003785 48392.900000 0 0 1
27.696738 4.853181 -18.668899 33.751896 0.173465 2.156903 0.056459 -0.000610 -253854.000000 0 0 1
26.497538 5.001381 -19.365599 33.198792 0.186554 2.193609 0.052904 -0.002700 -455896.000000 0 0 1
26.097638 3.726481 -20.130899 33.169662 0.141831 2.222959 0.048576 0.012371 -354704.000000 0 0 1
25.449738 2.788581 -19.341399 32.086680 0.109137 2.217784 0.051633 0.003706 -73610.600000 0 0 1
25.149938 1.624981 -20.089199 32.229425 0.064522 2.243776 0.046607 0.000391 -6770.760000 0 0 1
24.174338 0.758081 -19.243099 30.907445 0.031349 2.242862 0.047755 -0.005184 751754.000000 0 0 1
22.837238 1.248481 -19.153999 29.832429 0.054614 2.267969 0.049707 -0.015102 577031.000000 0 0 1
21.943638 0.433781 -18.400799 28.640894 0.019765 2.268508 0.058448 -0.021165 -441071.000000 0 0 1
20.653138 1.234381 -18.336699 27.646163 0.059696 2.295968 0.051538 -0.027250 -1460630.000000 0 0 1
19.903638 1.220381 -19.546199 27.923074 0.061238 2.346196 0.043490 -0.026935 566282.000000 0 0 1
18.790038 2.107781 -19.566499 27.209487 0.111708 2.373311 0.039257 -0.023290 1273570.000000 0 0 1
17.521238 1.824581 -18.661999 25.663069 0.103761 2.385020 0.085145 -0.028872 -141440.000000 0 0 1
17.750038 2.114481 -17.290599 24.869654 0.118567 2.339562 0.094181 -0.033729 375410.000000 0 1 0
16.647738 1.943381 -16.380099 23.435690 0.116209 2.344708 0.076048 -0.023136 169913.000000 0 1 0
15.690038 3.151881 -16.342299 22.873181 0.198246 2.366669 0.082797 -0.020474 -339536.000000 0 1 0
15.066238 3.395681 -17.552699 23.379894 0.221679 2.420009 0.076909 -0.014980 -64615.800000 0 1 0
14.120438 4.426181 -17.449999 22.879692 0.303759 2.438251 0.094061 -0.016359 -111757.000000 0 1 0
-20.599562 -21.771419 -17.150999 34.532498 0.813048 2.090546 0.111489 -0.015817 7773.350000 0 0 1
-20.294362 -22.539419 -18.310099 35.428044 0.837763 2.113934 0.122257 -0.025714 381627.000000 0 0 1
-21.200362 -22.223919 -19.350299 36.301405 0.808965 2.132992 0.121162 -0.021775 -91306.100000 0 0 1
-20.912462 -23.068919 -20.606399 37.338047 0.834390 2.155422 0.103483 -0.020646 -1913.310000 0 0 1
-21.271662 -24.406819 -20.501499 38.320855 0.853926 2.135299 0.092336 -0.021387 525907.000000 0 0 1
-20.506862 -25.207709 -21.433299 38.927449 0.887868 2.153874 0.085612 -0.028598 169140.000000 0 0 1
-20.498062 -26.680559 -21.086899 39.707431 0.915700 2.130644 0.085060 -0.009961 283789.000000 0 0 1
-21.789062 -27.271479 -21.230699 40.856326 0.896684 2.117229 0.082728 0.004859 481803.000000 0 0 1
-21.670862 -28.689449 -21.229099 41.753867 0.923874 2.104162 0.120112 -0.022035 657269.000000 0 0 1
-23.026562 -29.459009 -21.505599 43.134054 0.907347 2.092751 0.100162 -0.013146 760675.000000 0 0 1
-23.605162 -29.202969 -22.760599 43.909702 0.891007 2.115717 0.070613 -0.010793 -32504.100000 0 0 1
-22.926062 -29.715289 -23.890499 44.489984 0.913661 2.137657 0.070803 -0.015071 -230402.000000 0 0 1
-23.395862 -28.932159 -25.174049 44.924035 0.890806 2.165628 0.056420 -0.004654 645478.000000 0 0 1
-24.679062 -29.233089 -25.729309 46.104522 0.869669 2.162848 0.046807 -0.000061 680944.000000 0 0 1
-25.003162 -28.437689 -26.835149 46.411049 0.849578 2.187325 0.054525 0.004459 -42800.200000 0 0 1
-24.552562 -28.938149 -28.270259 47.322852 0.867203 2.211041 0.063850 -0.015009 -353430.000000 0 0 1
-25.242432 -30.034269 -28.743519 48.635662 0.871870 2.203090 0.034569 0.004648 -154090.000000 0 0 1
-24.797462 -30.351559 -30.039539 49.381223 0.885770 2.224737 0.071879 0.008359 -143545.000000 0 0 1
-25.418532 -31.673069 -30.559959 50.825153 0.894516 2.215894 0.037677 0.004903 218308.000000 0 0 1
-24.828562 -32.870789 -30.065799 50.999005 0.923888 2.201282 0.030983 0.006896 93518.000000 0 0 1
-25.735922 -33.863709 -30.457799 52.314109 0.920935 2.192241 0.022470 0.008329 -168928.000000 0 0 1
-25.254342 32.768793 -30.383299 51.329528 -0.914189 2.204243 0.023934 0.003113 -438268.000000 0 0 1
-24.193762 32.644696 -31.282019 51.279421 -0.933000 2.226896 0.048286 -0.005432 -267416.000000 0 0 1
-23.705362 31.279512 -31.141699 50.101472 -0.922286 2.241545 0.064689 -0.008530 219197.000000 0 0 1
-22.499262 30.884922 -32.027639 49.858449 -0.941206 2.268385 0.069830 -0.001913 19008.400000 0 0 1
-22.837362 30.727782 -33.375609 50.790482 -0.931651 2.287792 0.071147 0.005075 484131.000000 0 0 1
-21.879862 29.854832 33.884505 50.181661 -0.938346 0.829511 0.079831 0.000450 377310.000000 0 0 1
-21.943262 29.708562 32.384037 49.120579 -0.934620 0.850940 0.074125 0.002284 -138661.000000 0 0 1
-21.534062 30.895702 31.764015 49.266753 -0.962092 0.870119 0.073841 -0.002311 150190.000000 0 0 1
-21.230162 30.556282 30.424115 48.062802 -0.963576 0.885364 0.089914 -0.004195 -71789.200000 0 0 1
-20.813462 31.816712 29.584395 48.174058 -0.991497 0.909533 0.087995 -0.015750 -272690.000000 0 0 1
-21.834462 32.748208 29.419755 49.139708 -0.982745 0.928924 0.071074 -0.003253 -182933.000000 0 0 1
-21.338862 33.979014 29.000415 49.507015 -1.010042 0.944949 0.089692 -0.024848 121887.000000 0 0 1
-22.467562 -33.029369 29.080675 49.410689 0.973463 0.941532 0.098566 -0.031976 462757.000000 0 0 1
-22.831362 -32.594959 30.412865 50.086373 0.959764 0.918254 0.085571 -0.015855 47035.200000 0 0 1
-23.804862 -31.556619 30.455175 49.899993 0.924514 0.914326 0.083803 -0.014987 138257.000000 0 0 1
-23.459262 -30.078489 29.904315 48.469790 0.908411 0.905912 0.103630 -0.016962 -192451.000000 0 0 1
-23.472262 -29.991159 28.484315 47.558100 0.906731 0.928623 0.079752 -0.009175 -62491.000000 0 0 1
-23.661262 -28.671129 28.045355 46.566414 0.880839 0.924460 0.088623 -0.024456 -496767.000000 0 0 1
-24.950662 -28.326239 27.287845 46.578298 0.848673 0.944869 0.082447 -0.008922 11104.200000 0 0 1
-26.105212 -28.221059 28.143955 47.644438 0.824326 0.938860 0.101213 -0.003612 959757.000000 0 0 1
-26.919272 -29.393329 28.203855 48.826964 0.829304 0.954976 0.069561 -0.010667 -60306.100000 0 0 1
-27.855022 -29.813899 27.052285 48.955050 0.819353 0.985322 0.047314 0.010965 -490889.000000 0 0 1
-27.162952 -30.309899 25.927675 48.257230 0.840099 1.003587 0.042684 0.010933 -127261.000000 0 0 1
-27.977652 -30.417549 24.783675 48.189282 0.827156 1.030607 0.030574 0.011779 44567.100000 0 0 1
-27.133732 -30.442199 23.456135 47.044204 0.842798 1.048816 0.035297 0.005910 -48532.800000 0 0 1
-26.518372 -29.162389 23.064855 45.668989 0.832848 1.041363 0.032535 -0.004176 577735.000000 0 0 1
-25.726692 -29.185589 21.925245 44.658456 0.848305 1.057612 0.064789 -0.010772 -122235.000000 0 0 1
-24.486362 -30.077569 21.797345 44.490070 0.887512 1.058778 0.072519 -0.015885 -856911.000000 0 0 1
-24.863362 -31.433409 21.660045 45.556597 0.901576 1.075317 0.075535 -0.023268 115984.000000 0 0 1
-23.717962 -32.242949 21.618245 45.491736 0.936574 1.075591 0.079231 -0.012401 187531.000000 0 0 1
-23.035362 -32.606749 22.975715 46.062039 0.955748 1.048583 0.097193 -0.019463 -25354.800000 0 0 1
-22.321962 -31.548609 23.582085 45.273607 0.955027 1.022916 0.107647 -0.027797 -274423.000000 0 0 1
-21.613062 -32.125739 24.631095 45.889851 0.978584 1.004223 0.111139 -0.043043 -304775.000000 0 0 1
-20.936562 -31.114769 25.550805 45.379644 0.978503 0.972730 0.114273 -0.028121 -407455.000000 0 0 1
-19.782762 -30.457859 25.048995 44.119055 0.994764 0.967015 0.125663 -0.035001 694469.000000 0 0 1
-18.835962 -30.077509 26.066375 44.033009 1.011300 0.937291 0.134102 -0.025579 1143960.000000 0 0 1
-17.883362 -31.215169 26.572155 44.724499 1.050537 0.934613 0.127499 -0.037964 294112.000000 0 0 1
-18.690262 -32.077639 27.425815 46.157081 1.043227 0.934545 0.124925 -0.031334 1045620.000000 0 0 1
-17.888362 -32.697309 28.428835 46.875432 1.070190 0.919175 0.136083 -0.027581 -70346.900000 0 0 1
-18.205162 -32.038099 29.798085 47.389805 1.054061 0.890804 0.159414 -0.029268 29246.200000 0 0 1
-17.832062 -30.672979 29.805545 46.337723 1.044195 0.872095 0.159929 -0.023262 125934.000000 0 0 1
-18.003462 -30.167539 31.141875 46.947007 1.032746 0.845522 0.163885 -0.016190 53230.900000 0 0 1
-17.618362 -28.664679 31.235045 45.909678 1.019684 0.822544 0.153809 -0.020907 546249.000000 0 0 1
-18.542262 -27.755479 30.577705 45.267849 0.981831 0.829176 0.168527 -0.028049 417370.000000 0 0 1
-18.491862 -27.665409 29.137165 44.230060 0.981587 0.851622 0.154292 -0.023688 -1552060.000000 0 0 1
-17.260962 -27.402039 28.378035 43.059557 1.008670 0.851253 0.127372 -0.021426 -1296860.000000 0 0 1
-16.733362 -26.092919 28.516705 42.119453 1.000562 0.827058 0.110431 -0.019012 168895.000000 0 0 1
-15.555562 -25.796259 27.789425 40.983834 1.028162 0.825679 0.090491 -0.019785 -57545.900000 0 0 1
-15.496462 -24.439719 27.104335 39.649529 1.005702 0.818115 0.088173 -0.017071 47573.900000 0 0 1
-16.432162 -24.313319 26.001525 39.207560 0.976463 0.845742 0.127251 -0.024444 409669.000000 0 0 1
-16.271062 -23.223419 25.167585 37.914140 0.959647 0.844902 0.096326 -0.022446 -352733.000000 0 0 1
-17.165762 -22.044919 25.561965 37.868931 0.909196 0.829816 0.098224 -0.014231 -354530.000000 0 0 1
-17.100462 -20.991719 24.620615 36.595802 0.887199 0.832848 0.088757 -0.011595 233868.000000 0 0 1
-17.767962 -19.816719 25.107845 36.589708 0.839855 0.814545 0.094776 -0.008309 63456.800000 0 0 1
-17.445762 -18.541219 24.321035 35.208581 0.815829 0.808243 0.081959 -0.016712 856781.000000 0 0 1
-16.084562 -18.123619 24.516515 34.470831 0.844935 0.779557 0.086580 -0.019132 464241.000000 0 0 1
-15.648162 -17.101419 23.644575 33.111772 0.829744 0.775482 0.083393 -0.015758 -33833.500000 0 0 1
-14.206162 -16.588919 23.782895 32.289834 0.862619 0.742849 0.075170 -0.013126 -40747.500000 0 0 1
-13.263262 -17.432119 23.119605 31.848219 0.920386 0.758409 0.055358 -0.010124 -290688.000000 0 0 1
-11.972862 -16.887419 23.160205 31.063313 0.954068 0.729391 0.048890 -0.011125 -434473.000000 0 0 1
-11.570962 -16.185519 21.801845 29.515735 0.950143 0.739729 0.050584 -0.018373 8801.330000 0 0 1
-11.002262 -17.031619 20.763845 29.021769 0.997245 0.773517 0.075749 -0.018938 201221.000000 0 0 1
-9.657762 -17.417919 20.987945 28.933546 1.064526 0.759204 0.062825 -0.021026 -323672.000000 0 0 1
-9.201762 -18.514019 20.088745 28.827053 1.109539 0.799771 0.062968 -0.013191 -75568.800000 0 0 1
-9.039562 -18.114619 18.768345 27.606229 1.107933 0.823226 0.059544 -0.021770 -324277.000000 0 0 1
-8.578262 -19.126819 17.940545 27.591392 1.149196 0.862919 0.059898 -0.019850 -9845.070000 0 0 1
-8.187862 -18.655819 16.543845 26.244608 1.157219 0.888765 0.055022 -0.028905 -499804.000000 0 0 1
-7.090162 -17.821419 16.542545 25.328426 1.192149 0.859097 0.056754 -0.037308 -1095630.000000 0 0 1
-6.688362 -17.601019 15.260145 24.236379 1.207651 0.889709 0.061487 -0.041448 -71313.500000 0 1 0
-5.664562 -16.471619 15.169445 23.097912 1.239568 0.854302 0.053551 -0.043783 -154843.000000 0 1 0
-6.266662 -15.318919 15.675445 22.796050 1.182487 0.812565 0.057742 -0.047052 -93360.700000 0 1 0
-5.341062 -14.284119 15.866045 22.006689 1.212976 0.765603 0.040480 -0.033119 -247180.000000 0 1 0
-5.732262 -13.402019 17.096645 22.467047 1.166627 0.705997 0.030282 -0.012715 -275308.000000 0 1 0
-5.530462 -13.945219 18.383745 23.727984 1.193238 0.684444 0.040206 -0.006619 -97189.400000 0 1 0
-6.501762 -14.871019 18.888945 24.904063 1.158629 0.709837 0.073910 -0.026955 592732.000000 0 1 0
-7.847962 -14.230019 19.333245 25.255857 1.066796 0.698985 0.075203 -0.032321 16928.400000 0 0 1
-7.545062 -13.157119 20.222045 25.277833 1.050121 0.643516 0.068142 -0.027946 -941803.000000 0 0 1
-8.653362 -12.543019 20.762445 25.754361 0.966885 0.633143 0.072287 -0.019598 -545508.000000 0 0 1
-8.341862 -11.586819 21.911745 26.152736 0.946810 0.577486 0.076380 -0.017737 -130878.000000 0 0 1
-7.612262 -10.411319 21.451445 25.030114 0.939467 0.541327 0.056323 -0.014377 328616.000000 0 0 1
-7.239562 -9.677419 22.587145 25.617237 0.928520 0.491308 0.062522 -0.015066 86756.800000 0 0 1
-5.824862 -10.056919 23.097395 25.856533 1.045819 0.466183 0.076488 -0.015643 -186636.000000 0 0 1
-5.714062 -11.288619 23.768295 26.926108 1.102218 0.489170 0.089353 -0.013872 -463317.000000 0 0 1
-4.431462 -11.442319 24.310845 27.231998 1.201297 0.467426 0.087098 -0.016266 -360541.000000 0 0 1
-4.403862 -12.772419 25.105485 28.509894 1.238766 0.493694 0.086461 -0.020018 -595672.000000 0 0 1
-3.220462 -12.958119 25.848785 29.093709 1.327203 0.476803 0.081024 -0.016399 -42561.000000 0 0 1
-3.034062 -14.203219 26.616655 30.321334 1.360342 0.499506 0.077324 -0.018023 25696.900000 0 0 1
-3.074462 -15.596919 25.851095 30.347905 1.376172 0.551337 0.077481 -0.030615 494731.000000 0 0 1
-1.965162 -15.875219 24.972315 29.656381 1.447635 0.569714 0.077049 -0.033092 524379.000000 0 0 1
-1.899562 -17.243519 24.527225 30.042171 1.461078 0.615601 0.074437 -0.032625 749676.000000 0 0 1
-0.480262 -17.968319 24.625525 30.487827 1.544074 0.630527 0.084771 -0.044525 1256870.000000 0 0 1
-0.230762 -18.397319 25.955265 31.814939 1.558254 0.616651 0.088272 -0.044801 -158271.000000 0 0 1
0.370938 -17.417019 26.741345 31.915352 -1.549502 0.577402 0.114650 -0.046188 -659613.000000 0 0 1
1.035738 -17.908519 28.030835 33.279356 -1.513026 0.569281 0.101536 -0.037467 -492664.000000 0 0 1
2.261838 -18.547219 27.719955 33.429196 -1.449445 0.593096 0.101118 -0.043980 -446615.000000 0 0 1
2.991438 -18.844119 28.850315 34.588874 -1.413364 0.584311 0.099776 -0.046690 -2407.940000 0 0 1
4.029638 -17.768419 29.250215 34.460554 -1.347782 0.557080 0.128529 -0.040045 -418087.000000 0 0 1
3.405938 -16.592219 29.726095 34.213197 -1.368336 0.517924 0.111650 -0.043238 137786.000000 0 0 1
4.328638 -15.544219 29.940975 34.012084 -1.299205 0.494294 0.132366 -0.052402 43639.600000 0 0 1
3.637338 -14.398819 30.679765 34.085249 -1.323359 0.450822 0.129891 -0.049692 -88932.100000 0 0 1
2.997238 -14.858619 31.798885 35.226852 -1.371750 0.444818 0.112808 -0.052819 -105829.000000 0 0 1
2.174838 -13.879619 32.436844 35.348587 -1.415367 0.408726 0.106192 -0.045515 -165352.000000 0 0 1
1.233438 -14.485419 33.459727 36.481530 -1.485851 0.409879 0.080460 -0.034193 -403062.000000 0 0 1
1.859638 -14.921119 -33.280049 36.519306 -1.446804 2.717227 0.096622 -0.035010 -41962.700000 0 0 1
0.936038 -15.440819 -32.323079 35.834013 -1.510249 2.695228 0.079329 -0.032951 557260.000000 0 0 1
1.703338 -15.696119 -30.988039 34.778270 -1.462700 2.670377 0.076486 -0.024150 364776.000000 0 0 1
0.994738 -16.386619 -29.978009 34.178821 -1.510166 2.640573 0.050405 -0.017799 -528918.000000 0 0 1
1.673238 -16.323819 -28.768039 33.118981 -1.468650 2.623221 0.056629 -0.019734 -160209.000000 0 0 1
1.257638 -17.419419 -27.757189 32.794502 -1.498724 2.579980 0.061609 -0.020981 -176415.000000 0 0 1
1.872838 -18.629619 -28.135239 33.795886 -1.470603 2.554410 0.058722 -0.015793 65929.800000 0 0 1
1.721938 -19.636819 -27.137009 33.540826 -1.483331 2.513371 0.052432 -0.017281 -924288.000000 0 0 1
2.568638 -20.895519 -27.368989 34.529439 -1.448482 2.485903 0.042701 -0.017897 283409.000000 0 0 1
3.969938 -20.842519 -27.155339 34.461333 -1.382578 2.478341 0.051598 -0.017102 321306.000000 0 0 1
4.366938 -20.718219 -25.787709 33.366461 -1.363059 2.454137 0.069011 -0.018506 -1009420.000000 0 0 1
5.770438 -21.346919 -25.566799 33.803108 -1.306789 2.428503 0.059912 -0.012887 10057.800000 0 0 1
5.829538 -22.773019 -25.413919 34.618798 -1.320193 2.395148 0.071748 -0.019938 197553.000000 0 0 1
5.726338 -23.505319 -26.644079 35.988858 -1.331832 2.404376 0.057032 -0.018595 -560809.000000 0 0 1
5.088638 -24.867319 -26.705639 36.843846 -1.368951 2.381588 0.056295 -0.010200 -138919.000000 0 0 1
5.888938 -25.918079 -26.136159 37.276336 -1.347376 2.347800 0.058419 -0.009069 321848.000000 0 0 1
5.339738 -27.185379 -26.403139 38.271182 -1.376846 2.332142 0.059099 -0.006717 240648.000000 0 0 1
6.028038 -28.242699 -25.463239 38.501478 -1.360515 2.293423 0.065665 -0.009723 -564357.000000 0 0 1
7.363038 -28.466559 -25.736829 39.076127 -1.317688 2.289797 0.066985 -0.014591 -1009540.000000 0 0 1
7.878938 -29.490569 -24.917399 39.403656 -1.309726 2.255396 0.065988 -0.013274 -136843.000000 0 0 1
9.311038 -29.895149 -25.291109 40.249914 -1.268862 2.250229 0.084213 -0.019268 -151248.000000 0 0 1
9.297738 -30.341679 -26.665159 41.449923 -1.273447 2.269610 0.076587 -0.018375 339115.000000 0 0 1
10.589238 -30.335379 -27.285199 42.152690 -1.234948 2.274826 0.087310 -0.027036 622349.000000 0 0 1
10.618038 -30.164579 -28.862609 43.077776 -1.232338 2.305021 0.091105 -0.020801 -172049.000000 0 0 1
10.197538 -31.279109 -29.599039 44.254667 -1.255644 2.303436 0.085799 -0.029459 6111.510000 0 0 1
10.502938 -31.067719 -30.947979 45.092042 -1.244792 2.327226 0.084844 -0.026245 37504.200000 0 0 1
-35.506623 -4.864019 -5.373699 36.238869 0.136142 1.719631 0.201423 -0.050554 -80717.900000 0 0 1
-35.153591 -4.193719 -4.152899 35.645601 0.118736 1.687567 0.193331 -0.054703 3112.140000 0 0 1
-34.483165 -2.985119 -4.390299 34.889459 0.086352 1.696965 0.195812 -0.049792 -334534.000000 0 0 1
-35.205874 -1.720919 -4.960099 35.595193 0.048843 1.710599 0.200799 -0.037767 -245414.000000 0 0 1
-36.140602 -1.127219 -4.073199 36.386876 0.031180 1.682973 0.176387 -0.036509 369139.000000 0 0 1
-36.740502 -0.009019 -4.747899 37.046014 0.000245 1.699312 0.181580 -0.039832 330155.000000 0 0 1
36.445122 0.666381 -3.832799 36.652167 0.018282 1.675560 0.176139 -0.035264 -132359.000000 0 0 1
37.020162 1.414681 -2.778599 37.151236 0.038195 1.645658 0.179341 -0.028531 -196115.000000 0 0 1
36.107722 2.111681 -1.969599 36.223006 0.058416 1.625197 0.153047 -0.031115 -884108.000000 0 0 1
36.797752 3.029781 -0.943299 36.934320 0.082151 1.596339 0.149911 -0.031250 404573.000000 0 0 1
-36.832082 4.233781 -1.483199 37.104273 -0.114446 1.610781 0.175883 -0.045900 120913.000000 0 0 1
-35.675282 4.002581 -2.233799 35.968546 -0.111728 1.632941 0.158207 -0.010741 -1468300.000000 0 0 1
-34.760028 5.172181 -2.420199 35.225962 -0.147713 1.639555 0.149858 -0.014018 -687382.000000 0 0 1
-34.042412 5.521981 -1.271999 34.510811 -0.160808 1.607663 0.155124 -0.024169 65472.600000 0 0 1
-33.567312 6.857481 -1.436599 34.290718 -0.201518 1.612703 0.167787 -0.037894 -390797.000000 0 0 1
-32.787632 7.334481 -0.218399 33.598678 -0.220073 1.577297 0.180954 -0.042343 -525487.000000 0 0 1
-31.395132 7.142381 -0.386599 32.199649 -0.223692 1.582803 0.195574 -0.039990 941549.000000 0 0 1
-30.559182 7.664881 0.712801 31.513840 -0.245751 1.548176 0.194248 -0.051829 727908.000000 0 0 1
-30.460302 9.193181 0.953401 31.831644 -0.293115 1.540841 0.185047 -0.047472 -598484.000000 0 0 1
-31.693782 9.764781 1.318901 33.190154 -0.298869 1.531048 0.195838 -0.052734 -122712.000000 0 0 1
-31.642962 11.103281 1.704201 33.577734 -0.337470 1.520021 0.189138 -0.039165 53296.700000 0 0 1
-33.062022 11.708181 1.858001 35.123084 -0.340347 1.517872 0.195798 -0.046369 -240172.000000 0 0 1
-33.652342 11.970081 0.578801 35.722514 -0.341742 1.554593 0.188436 -0.046393 467598.000000 0 0 1
-34.878579 12.667581 0.546901 37.111750 -0.348377 1.556059 0.180983 -0.033243 372337.000000 0 0 1
-36.159832 11.907281 0.966101 38.082150 -0.318112 1.545425 0.180507 -0.042567 -218024.000000 0 0 1
-36.585252 10.897881 0.051501 38.173907 -0.289507 1.569447 0.175174 -0.029332 -235344.000000 0 0 1
36.393242 10.422881 0.394301 37.858421 0.278930 1.560381 0.170924 -0.037244 -83845.100000 0 0 1
35.739492 9.382181 -0.505199 36.953915 0.256723 1.584468 0.171823 -0.036319 193892.000000 0 0 1
35.328132 9.887581 -1.800899 36.729885 0.272896 1.619847 0.154660 -0.033734 145767.000000 0 0 1
34.793412 8.815981 -2.544899 35.983046 0.248158 1.641580 0.147572 -0.045236 -164700.000000 0 0 1
34.210872 9.133581 -3.925499 35.626053 0.260894 1.681207 0.115578 -0.027198 -398050.000000 0 0 1
32.982902 9.795681 -4.001999 34.638753 0.288696 1.686590 0.136125 -0.036450 -23051.200000 0 0 1
32.605662 9.900881 -5.377199 34.497405 0.294807 1.727307 0.115124 -0.019167 -400045.000000 0 0 1
31.259122 10.563981 -5.690999 33.483099 0.325899 1.741592 0.135127 -0.030256 -387001.000000 0 0 1
30.172122 9.713981 -5.443999 32.161398 0.311473 1.740887 0.125273 -0.022658 459944.000000 0 0 1
28.927122 10.283881 -5.835799 31.250491 0.341575 1.758642 0.139490 -0.016591 229213.000000 0 0 1
27.765222 9.269581 -5.874499 29.855359 0.322221 1.768854 0.154276 -0.009068 -275791.000000 0 0 1
27.727722 8.451581 -6.996699 29.819618 0.295860 1.807638 0.145053 -0.018083 -639502.000000 0 0 1
26.654522 7.624681 -6.941099 28.579332 0.278615 1.816121 0.167046 -0.026612 -1074760.000000 0 0 1
26.658822 6.717281 -8.182799 28.684018 0.246834 1.860088 0.157271 -0.035002 250693.000000 0 0 1
27.619422 5.665481 -8.047799 29.320594 0.202320 1.848841 0.157185 -0.030935 679019.000000 0 0 1
27.373022 4.593481 -8.990099 29.175406 0.166261 1.884033 0.142714 -0.028122 94280.600000 0 0 1
28.313822 3.343081 -8.819599 29.843493 0.117528 1.870805 0.150690 -0.020775 451972.000000 0 0 1
29.694762 3.569781 -9.110499 31.265371 0.119642 1.866479 0.169192 -0.017746 912992.000000 0 0 1
30.613782 3.098781 -8.160399 31.833916 0.100878 1.830033 0.125328 -0.021715 -174856.000000 0 0 1
30.816772 1.577981 -7.892599 31.850536 0.051161 1.821206 0.123580 -0.024205 -309533.000000 0 0 1
29.686262 1.019881 -7.222599 30.569270 0.034342 1.809322 0.155163 -0.034656 907690.000000 0 0 1
30.004582 -0.293819 -6.651499 30.734406 -0.009792 1.788941 0.140488 -0.031887 -151641.000000 0 0 1
30.097332 -1.582119 -7.551499 31.070527 -0.052518 1.816299 0.127948 -0.027054 -460737.000000 0 0 1
31.118012 -1.653319 -8.518599 32.305274 -0.053081 1.837643 0.149214 -0.026032 334301.000000 0 0 1
30.882212 -2.784619 -9.309299 32.374808 -0.089926 1.862462 0.129302 -0.029397 -302827.000000 0 0 1
31.757522 -2.961919 -10.563699 33.599181 -0.092998 1.890625 0.136149 -0.028858 411526.000000 0 0 1
33.127622 -3.241519 -10.253399 34.829284 -0.097539 1.869614 0.162087 -0.031714 635693.000000 0 0 1
33.792082 -3.870319 -11.314999 35.845689 -0.114036 1.891947 0.147265 -0.035944 -807783.000000 0 0 1
35.277762 -4.051719 -11.070399 37.195305 -0.114351 1.873004 0.165246 -0.038192 -761169.000000 0 0 1
35.638382 -5.188919 -10.284899 37.453950 -0.144583 1.848971 0.149774 -0.045354 712299.000000 0 0 1
37.049362 -5.283119 -10.131299 38.771250 -0.141642 1.835175 0.150984 -0.039204 207606.000000 0 0 1
-36.930922 -6.549519 -9.291999 38.641046 0.175520 1.813646 0.144904 -0.051730 -289243.000000 0 0 1
36.786392 -6.480319 -7.994099 38.198676 -0.174372 1.781632 0.147377 -0.049488 383719.000000 0 0 1
36.699812 -7.797619 -7.426899 38.247064 -0.209357 1.766220 0.132067 -0.037451 -261274.000000 0 0 1
36.209182 -7.905419 -5.948699 37.536483 -0.214953 1.729945 0.142500 -0.035084 -920874.000000 0 0 1
37.125292 -7.384019 -5.059099 38.189076 -0.196332 1.703662 0.153287 -0.042715 -65476.100000 0 0 1
37.070962 -8.009819 -3.777299 38.114058 -0.212796 1.670064 0.149816 -0.028110 -459494.000000 0 0 1
-36.536262 -9.430119 -3.648299 37.909573 0.252590 1.667182 0.144115 -0.039180 -50190.900000 0 0 1
36.856232 -10.381719 -4.279599 38.528910 -0.274567 1.682101 0.108957 -0.032070 275128.000000 0 0 1
-36.688582 -11.408119 -4.887699 38.730955 0.301467 1.697330 0.091440 -0.033003 -628253.000000 0 0 1
36.867122 -11.994319 -6.066999 39.241010 -0.314539 1.726028 0.085023 -0.021434 -429033.000000 0 0 1
36.693162 -11.126819 -7.134299 39.001186 -0.294426 1.754757 0.106670 -0.025269 262533.000000 0 0 1
36.115082 -11.860819 -8.215299 38.890479 -0.317320 1.783642 0.096902 -0.028380 -155112.000000 0 0 1
36.236682 -11.172319 -9.575599 39.110228 -0.299068 1.818147 0.075923 -0.030820 -205054.000000 0 0 1
35.357842 -10.104919 -9.875999 38.076525 -0.278370 1.833169 0.082800 -0.035512 310502.000000 0 0 1
35.741542 -9.581819 -11.101899 38.633163 -0.261927 1.862273 0.089527 -0.039694 366908.000000 0 0 1
34.783732 -8.451919 -11.705699 37.661205 -0.238365 1.886848 0.095119 -0.036760 256510.000000 0 0 1
35.316422 -7.888819 -12.855399 38.402402 -0.219768 1.912142 0.107438 -0.033800 59611.500000 0 0 1
34.349402 -7.201219 -13.569799 37.628160 -0.206653 1.939738 0.091233 -0.031265 -382170.000000 0 0 1
34.822632 -6.751419 -14.990199 38.508486 -0.191504 1.970635 0.084703 -0.027169 229159.000000 0 0 1
35.663292 -5.599719 -15.025899 39.102493 -0.155745 1.965213 0.084488 -0.028019 793406.000000 0 0 1
34.856812 -4.453019 -15.151099 38.267252 -0.127063 1.977875 0.105593 -0.027177 495421.000000 0 0 1
35.777522 -3.160119 -15.155299 38.983337 -0.088098 1.970085 0.108162 -0.029214 -62506.600000 0 0 1
36.477752 -3.144419 -16.390399 40.114324 -0.085988 1.991707 0.093313 -0.030331 485700.000000 0 0 1
-36.457512 -2.603219 -16.233199 39.993046 0.071283 1.988760 0.126658 -0.030046 438889.000000 0 0 1
-36.314032 -1.101019 -15.862999 39.642855 0.030310 1.982474 0.116786 -0.026962 -783112.000000 0 0 1
-36.561392 -0.138819 -16.898899 40.278127 0.003797 2.003752 0.093819 -0.017217 60976.000000 0 0 1
-36.228512 1.123481 -16.431999 39.796707 -0.031001 1.996431 0.103936 -0.028831 -233661.000000 0 0 1
-36.443122 2.270581 -17.446499 40.467728 -0.062224 2.016531 0.089561 -0.026139 88771.700000 0 0 1
-35.536570 2.270881 -18.547199 40.149761 -0.063816 2.050989 0.089719 -0.020406 301831.000000 0 0 1
-35.576145 3.481881 -19.310699 40.628669 -0.097561 2.066098 0.081757 -0.013042 33960.900000 0 0 1
-34.618062 3.678481 -20.547399 40.424461 -0.105862 2.103996 0.077484 -0.002839 5347.900000 0 0 1
-33.317692 4.055981 -20.170499 39.158251 -0.121140 2.111923 0.072014 -0.002506 -197875.000000 0 0 1
-32.540642 4.286481 -21.306499 39.130988 -0.130973 2.146579 0.067198 -0.002608 -809186.000000 0 0 1
-31.151342 4.899681 -21.172199 37.982562 -0.156008 2.162070 0.083411 -0.008091 -244668.000000 0 0 1
-30.281582 3.914281 -20.614399 36.840864 -0.128550 2.164642 0.087448 0.001728 202767.000000 0 0 1
-28.977392 4.102881 -21.168299 36.119521 -0.140654 2.196987 0.068523 -0.000387 520370.000000 0 0 1
-27.979952 3.034481 -20.597599 34.876165 -0.108030 2.202589 0.112065 -0.008832 85645.900000 0 0 1
-27.494202 3.343681 -19.311899 33.764787 -0.121020 2.179682 0.111202 -0.004311 94540.100000 0 0 1
-26.901832 2.222981 -18.646799 32.807825 -0.082446 2.175313 0.125788 -0.003311 -296208.000000 0 0 1
-26.098582 2.638881 -17.418799 31.488320 -0.100770 2.156976 0.114458 -0.014442 321094.000000 0 0 1
-24.810462 3.153481 -17.771899 30.681328 -0.126425 2.188594 0.108095 -0.016738 335116.000000 0 0 1
-24.074762 3.499381 -16.626099 29.466371 -0.144344 2.170309 0.118827 -0.026307 798054.000000 0 0 1
-22.876162 4.493481 -16.992499 28.848834 -0.193957 2.200640 0.120533 -0.028126 1565220.000000 0 0 1
-21.654062 3.809381 -17.309799 27.982833 -0.174138 2.237739 0.138731 -0.034178 355744.000000 0 0 1
-20.627462 4.682981 -17.729399 27.599893 -0.223242 2.268386 0.127147 -0.036032 -117390.000000 0 0 1
-19.359662 3.852981 -18.040399 26.741316 -0.196454 2.311255 0.154150 -0.042163 -333087.000000 0 0 1
-18.820362 3.371981 -16.808699 25.457979 -0.177286 2.291952 0.179976 -0.039895 -177864.000000 0 0 1
-17.757162 2.470981 -17.014299 24.716572 -0.138266 2.330044 0.144650 -0.046989 -593405.000000 0 1 0
-17.994462 0.998481 -16.722399 24.585286 -0.055431 2.318803 0.162697 -0.039839 208847.000000 0 1 0
-18.779862 0.106781 -17.580299 25.724727 -0.005686 2.323207 0.127771 -0.035647 899317.000000 0 0 1
-20.157962 0.330081 -17.276599 26.550580 -0.016373 2.279309 0.141762 -0.039104 238295.000000 0 0 1
-21.122462 -0.826319 -17.694999 27.567267 0.039100 2.267750 0.126341 -0.036078 -45782.800000 0 0 1
-20.914062 -1.985019 -16.937799 26.985688 0.094630 2.249338 0.117722 -0.033772 329092.000000 0 0 1
-21.821262 -2.970319 -17.354999 28.039014 0.135289 2.238213 0.127860 -0.020617 -181498.000000 0 0 1
-21.934262 -3.923719 -16.198499 27.548118 0.177013 2.199390 0.141800 -0.032715 -21018.300000 0 0 1
-22.402062 -3.320019 -15.008999 27.168824 0.147131 2.156079 0.133750 -0.034093 316009.000000 0 0 1
-22.694862 -4.259019 -14.036399 27.022519 0.185507 2.116984 0.137137 -0.050077 -235136.000000 0 0 1
-23.020262 -3.608419 -12.643399 26.510540 0.155484 2.067943 0.140529 -0.045149 -544688.000000 0 0 1
-24.361962 -3.234119 -12.567199 27.602522 0.131981 2.043496 0.140038 -0.038925 -57331.900000 0 0 1
-24.650462 -2.696719 -11.267199 27.237242 0.108965 1.997277 0.151742 -0.045622 -551167.000000 0 0 1
-25.607812 -1.513819 -11.276999 28.021820 0.059047 1.984973 0.171311 -0.048134 -374244.000000 0 0 1
-26.006442 -1.103819 -9.966399 27.872613 0.042419 1.936460 0.161527 -0.046261 645049.000000 0 0 1
-26.138062 0.307181 -9.946599 27.968330 -0.011752 1.934393 0.159081 -0.039731 -265904.000000 0 0 1
-26.294352 0.747481 -8.509799 27.647213 -0.028420 1.883676 0.179575 -0.032564 638840.000000 0 0 1
-25.070962 0.777181 -7.738499 26.249601 -0.030989 1.870047 0.158645 -0.027418 1139810.000000 0 0 1
-25.336992 0.769181 -6.362799 26.135035 -0.030349 1.816727 0.162910 -0.032465 -364852.000000 0 0 1
-24.105262 1.204881 -5.578299 24.771614 -0.049943 1.797934 0.109856 -0.022139 -211713.000000 0 1 0
-23.753362 2.579781 -5.884699 24.607056 -0.108183 1.812283 0.135574 -0.020392 45412.400000 0 1 0
-22.461162 2.908781 -5.445699 23.294215 -0.128786 1.806759 0.116848 -0.007573 -380000.000000 0 1 0
-22.057462 4.405981 -5.442299 23.142233 -0.197155 1.808187 0.112376 -0.012714 -210916.000000 0 1 0
-22.772362 5.185681 -4.505399 23.785929 -0.223900 1.761362 0.126144 -0.012436 690703.000000 0 1 0
-22.406562 6.569581 -4.673099 23.812839 -0.285206 1.768321 0.115937 -0.016235 -162812.000000 0 1 0
-23.029762 7.562781 -3.647299 24.512617 -0.317296 1.720144 0.131654 -0.014334 -49603.000000 0 1 0
-22.452662 7.410681 -2.333299 23.758883 -0.318800 1.669162 0.115929 -0.014502 1314260.000000 0 1 0
-21.090362 7.792481 -2.108599 22.582567 -0.353923 1.664305 0.121076 -0.013599 457153.000000 0 1 0
-20.688262 9.310181 -2.247999 22.797745 -0.422873 1.669563 0.115355 -0.015533 -430417.000000 0 1 0
-20.571862 9.820281 -3.574999 23.074229 -0.445376 1.726358 0.101783 -0.011638 752924.000000 0 1 0
-19.818962 11.038881 -3.567099 22.964589 -0.508191 1.726758 0.085375 -0.011361 53506.600000 0 1 0
-19.639862 11.666681 -4.989999 23.382381 -0.536019 1.785859 0.083174 -0.014467 -339314.000000 0 1 0
-18.705562 11.052881 -5.816599 22.492156 -0.533692 1.832375 0.073681 -0.008913 -130689.000000 0 1 0
-18.677262 11.688381 -7.092199 23.146440 -0.559180 1.882211 0.076192 -0.001581 130272.000000 0 1 0
-17.303462 11.513881 -7.788299 22.195425 -0.587131 1.929325 0.052716 0.002608 -152694.000000 0 1 0
-16.850762 10.273281 -8.244299 21.388244 -0.547494 1.966502 0.025411 0.007736 300054.000000 0 1 0
-17.643462 9.507581 -9.162299 22.037096 -0.494260 1.999582 0.048847 0.000202 -174876.000000 0 1 0
-17.888362 10.016881 -10.617099 23.087967 -0.510463 2.048627 0.058672 -0.003901 391212.000000 0 1 0
-16.769862 9.777181 -11.448299 22.536307 -0.527841 2.103650 0.056514 -0.010695 221072.000000 0 1 0
-17.019362 10.364381 -12.724899 23.643226 -0.546993 2.139102 0.080364 -0.019513 261794.000000 0 1 0
-15.953362 9.982781 -13.777899 23.323726 -0.559137 2.202753 0.066340 -0.008245 -24991.200000 0 1 0
-16.137862 8.728781 -14.410499 23.329910 -0.495821 2.236590 0.090824 -0.023200 -103348.000000 0 1 0
-15.667362 7.613681 -13.715899 22.171159 -0.452351 2.237803 0.069384 -0.014494 -190506.000000 0 1 0
-15.726162 6.301781 -14.575499 22.348821 -0.381127 2.281256 0.085464 -0.019167 -735382.000000 0 1 0
-14.607562 6.082581 -15.347199 22.043484 -0.394563 2.340920 0.087079 -0.027112 -594985.000000 0 1 0
-14.646362 4.848581 -16.072799 22.279128 -0.319688 2.376659 0.091361 -0.028334 50725.700000 0 1 0
33.079902 -15.896319 27.902485 46.103379 -0.447961 0.920760 0.053086 -0.002398 -69856.300000 0 0 1
32.537982 -14.639619 28.263275 45.517595 -0.422791 0.900867 0.054567 -0.002971 434523.000000 0 0 1
31.585162 -14.596719 29.356025 45.524311 -0.432902 0.869979 0.064345 -0.008025 889134.000000 0 0 1
32.200442 -14.522019 30.818125 46.877653 -0.423675 0.853412 0.052902 -0.016277 232217.000000 0 0 1
32.413992 -13.211519 31.260995 46.930384 -0.387030 0.841810 0.041383 -0.015302 12369.800000 0 0 1
32.306192 -13.206219 32.656684 47.797001 -0.388055 0.818610 0.029049 -0.013430 -220204.000000 0 0 1
32.724622 -11.821019 33.224430 48.109252 -0.346641 0.808473 0.036085 -0.012808 14514.700000 0 0 1
32.552542 -11.702319 -33.296949 48.013531 -0.345104 2.337120 0.027987 -0.021957 10497.800000 0 0 1
33.052822 -10.486719 -32.860859 47.773386 -0.307226 2.329317 0.045452 -0.021656 -400856.000000 0 0 1
32.622912 -10.184319 -31.440579 46.437967 -0.302596 2.314536 0.054187 -0.020918 1665550.000000 0 0 1
31.187212 -9.880019 -31.409309 45.351976 -0.306795 2.335839 0.093687 -0.027509 1714690.000000 0 0 1
30.768972 -9.402219 -30.122469 44.073740 -0.296563 2.323283 0.079307 -0.027052 99090.200000 0 0 1
29.508342 -10.215219 -29.726809 43.113526 -0.333268 2.331596 0.091567 -0.010746 -139294.000000 0 0 1
29.067822 -9.982219 -28.401489 41.847671 -0.330793 2.316770 0.078734 -0.014283 860778.000000 0 0 1
27.927622 -10.811319 -28.087079 41.057530 -0.369353 2.324153 0.104682 -0.015919 30654.400000 0 0 1
27.369622 -10.685419 -26.636889 39.658521 -0.372213 2.307238 0.087254 -0.006456 -509053.000000 0 0 1
26.517622 -9.546419 -26.358239 38.588537 -0.345558 2.322739 0.089275 -0.014030 908897.000000 0 0 1
25.293122 -9.414419 -27.075269 38.228831 -0.356325 2.357801 0.090401 -0.021012 516850.000000 0 0 1
24.194022 -10.485919 -26.852629 37.634677 -0.408972 2.365288 0.095966 -0.001378 -597023.000000 0 0 1
24.702622 -11.588219 -27.527819 38.759350 -0.438631 2.360613 0.085150 -0.011691 -152964.000000 0 0 1
23.943522 -12.754919 -27.358379 38.528705 -0.489471 2.360405 0.096210 -0.019299 34382.800000 0 0 1
24.746122 -13.895819 -28.024129 39.885037 -0.511656 2.349873 0.079218 -0.004149 227264.000000 0 0 1
24.670022 -13.911619 -29.421869 40.838579 -0.513458 2.375237 0.076418 -0.013025 -86222.500000 0 0 1
25.684222 -14.668119 -30.022739 42.144963 -0.518894 2.363664 0.076635 -0.002088 -410978.000000 0 0 1
25.658222 -14.696819 -31.559889 43.247745 -0.520173 2.388747 0.079434 -0.007064 -409084.000000 0 0 1
24.577322 -15.389719 -32.123809 43.276175 -0.559444 2.407289 0.089506 -0.006882 -130725.000000 0 0 1
24.817022 -15.757819 -33.454959 44.535691 -0.565730 2.420666 0.076553 -0.005635 116448.000000 0 0 1
24.983922 -14.610119 33.371073 44.173300 -0.529154 0.714443 0.065169 -0.008641 -14902.600000 0 0 1
23.810122 -13.854019 33.231235 43.164462 -0.526970 0.692151 0.077771 -0.009830 -208632.000000 0 0 1
23.772722 -12.946519 32.137590 42.018798 -0.498684 0.700006 0.072176 -0.014566 -906128.000000 0 0 1
22.881622 -11.679319 32.269596 41.246842 -0.471952 0.672361 0.074044 -0.017061 872358.000000 0 0 1
21.463622 -11.784319 32.130284 40.396936 -0.502103 0.651188 0.068698 -0.009041 678135.000000 0 0 1
20.987522 -12.412519 30.962115 39.410649 -0.534090 0.667086 0.063281 -0.008861 -1490770.000000 0 0 1
19.476222 -12.591319 31.126675 38.816677 -0.573909 0.640346 0.074029 -0.004647 -237406.000000 0 0 1
18.687922 -11.396419 31.145155 38.067539 -0.547615 0.612601 0.075730 -0.008793 -627393.000000 0 0 1
17.871922 -11.398319 32.219701 38.567297 -0.567735 0.581909 0.057854 -0.005303 -592223.000000 0 0 1
17.314322 -9.989919 32.505891 38.160414 -0.523317 0.551342 0.058871 -0.013650 -971954.000000 0 0 1
16.315922 -9.512719 31.676635 36.879674 -0.527850 0.537642 0.093390 -0.022926 -450140.000000 0 0 1
15.657222 -8.292019 32.045547 36.617254 -0.487044 0.505053 0.097499 -0.027715 859539.000000 0 0 1
14.477322 -8.579519 33.038308 37.077362 -0.534974 0.471112 0.099910 -0.029711 -315967.000000 0 0 1
13.490222 -9.405919 32.513024 36.435616 -0.608871 0.468289 0.096483 -0.026643 -422395.000000 0 0 1
12.349022 -9.639019 33.297606 36.798636 -0.662768 0.439746 0.093787 -0.032950 -61051.600000 0 0 1
11.064922 -8.993619 32.769129 35.737005 -0.682500 0.410423 0.116848 -0.039999 -556574.000000 0 0 1
11.055322 -7.617619 32.761737 35.405927 -0.603336 0.388923 0.110628 -0.042084 981629.000000 0 0 1
9.888222 -7.111319 32.056112 34.292012 -0.623477 0.363106 0.104802 -0.037987 833559.000000 0 0 1
10.103822 -5.620319 31.623675 33.670938 -0.507634 0.350509 0.098717 -0.036558 -150479.000000 0 0 1
10.252022 -4.805819 32.719722 34.623403 -0.438351 0.333148 0.088475 -0.038117 104008.000000 0 0 1
10.633022 -3.489419 32.477425 34.351424 -0.317095 0.331835 0.055612 -0.031593 -3220.390000 0 0 1
10.683822 -2.701419 33.786876 35.538637 -0.247660 0.315284 0.066207 -0.033209 243214.000000 0 0 1
9.372522 -2.337119 -33.702029 35.058994 -0.244375 2.862460 0.060741 -0.022704 175098.000000 0 0 1
9.439122 -1.590919 -32.498889 33.879284 -0.166976 2.855152 0.067856 -0.023308 99050.600000 0 0 1
8.036622 -1.278319 -31.952059 32.972041 -0.157740 2.892211 0.058750 -0.018660 -143314.000000 0 0 1
7.200322 -0.560619 -32.797259 33.583019 -0.077703 2.924847 0.045473 -0.019152 431575.000000 0 0 1
5.861222 -0.394919 -32.310369 32.840065 -0.067277 2.961742 0.046742 -0.015550 636703.000000 0 0 1
5.038622 0.544581 -33.195879 33.580511 0.107663 2.990094 0.075379 -0.022903 -192908.000000 0 0 1
5.519822 1.873181 -33.089479 33.598972 0.327161 2.967223 0.052016 -0.024582 132116.000000 0 0 1
5.154122 2.612781 33.625823 34.118728 0.469177 0.170186 0.072228 -0.029459 -5441.560000 0 0 1
5.649522 4.090281 33.705623 34.419711 0.626656 0.204052 0.056143 -0.035286 209376.000000 0 0 1
5.293922 4.832781 32.564872 33.344449 0.739892 0.216662 0.090758 -0.044276 -137169.000000 0 0 1
5.998522 6.012181 32.734808 33.818579 0.786535 0.253847 0.083122 -0.047683 -83319.000000 0 0 1
5.629422 7.182981 31.767335 33.052219 0.906063 0.279746 0.111812 -0.054625 -341885.000000 0 0 1
4.422422 7.831281 32.103202 33.339202 1.056728 0.273148 0.125513 -0.047954 -115204.000000 0 0 1
4.163822 9.120881 31.517775 33.074129 1.142537 0.307994 0.146021 -0.051915 -249238.000000 0 0 1
3.637922 8.967381 30.078855 31.597246 1.185400 0.311270 0.153502 -0.052799 651183.000000 0 0 1
2.288322 8.476481 29.952025 31.212353 1.307121 0.285145 0.142888 -0.050325 580660.000000 0 0 1
1.911122 8.444681 28.607525 29.889054 1.348235 0.293892 0.115248 -0.035167 1051620.000000 0 0 1
0.455422 7.849881 28.379565 29.448731 1.512845 0.270288 0.127986 -0.034970 1306480.000000 0 0 1
-0.559378 8.794481 28.681015 30.004274 -1.507276 0.298095 0.132552 -0.031174 -229700.000000 0 0 1
-1.534678 8.869281 27.648635 29.076905 -1.399460 0.314731 0.122210 -0.016242 -607.412000 0 0 1
-2.949478 8.985781 28.221135 29.763672 -1.253638 0.323358 0.104400 -0.016023 -503095.000000 0 0 1
-3.174878 10.197581 28.829055 30.743860 -1.268972 0.354796 0.120456 -0.019407 601049.000000 0 0 1
-4.573978 10.354481 29.123075 31.245641 -1.154833 0.370715 0.092997 -0.015680 628032.000000 0 0 1
-4.916978 11.719781 29.861405 32.453558 -1.173555 0.402391 0.067015 -0.023098 -33935.000000 0 0 1
-5.092478 12.884481 29.038325 32.174019 -1.194399 0.445165 0.069755 -0.026907 1227110.000000 0 0 1
-6.358078 12.851781 28.315535 31.738982 -1.111379 0.468742 0.073118 -0.032871 995272.000000 0 0 1
-6.580178 14.272681 27.753865 31.894909 -1.138805 0.515257 0.062454 -0.030421 271908.000000 0 0 1
-5.632178 14.581881 26.739525 30.973455 -1.202204 0.529015 0.077150 -0.021191 -18659.600000 0 0 1
-5.735578 15.935881 26.404645 31.369642 -1.225315 0.570324 0.047717 -0.015844 12779.600000 0 0 1
-4.491378 16.580081 25.759135 30.961341 -1.306255 0.588134 0.095853 -0.018783 -152214.000000 0 0 1
-4.249578 16.162781 24.467035 29.629887 -1.313692 0.599256 0.084363 -0.002435 -22743.700000 0 0 1
-3.216678 16.905281 23.834135 29.397305 -1.382768 0.625348 0.091029 -0.006423 240449.000000 0 0 1
-2.956078 16.761081 22.291345 28.045968 -1.396226 0.652094 0.084136 -0.010902 319028.000000 0 0 1
-2.220378 15.586681 21.915245 26.984304 -1.429295 0.622972 0.077331 -0.014115 115892.000000 0 0 1
-2.080378 15.602581 20.474645 25.825948 -1.438243 0.655417 0.068225 -0.009289 -383371.000000 0 0 1
-1.313978 14.413781 19.964445 24.658927 -1.479886 0.627286 0.061614 -0.013291 -1031080.000000 0 1 0
-1.961578 13.203581 19.987245 24.034815 -1.423311 0.588822 0.063703 -0.008792 -544358.000000 0 1 0
-1.396278 12.271381 19.112045 22.755365 -1.457500 0.573712 0.046137 -0.006579 -46792.500000 0 1 0
-2.303178 10.990181 18.933945 22.013246 -1.364219 0.535299 0.035660 -0.011244 -232400.000000 0 1 0
-2.243978 10.022281 19.943445 22.432623 -1.350530 0.475558 0.062485 -0.016730 -183465.000000 0 1 0
-2.882078 10.370081 21.149345 23.730566 -1.299715 0.470751 0.079105 -0.008325 -969705.000000 0 1 0
-4.384978 10.211781 21.114245 23.860424 -1.165202 0.484503 0.061577 -0.000826 -1349300.000000 0 1 0
-4.939878 8.936481 21.158245 23.493285 -1.065824 0.449629 0.053007 0.000203 -674922.000000 0 1 0
-6.307878 9.047281 20.924345 23.653136 -0.961944 0.485090 0.052498 0.001657 -277771.000000 0 1 0
-7.177378 7.751481 21.038145 23.541533 -0.823835 0.465358 0.045789 0.002969 155196.000000 0 1 0
-7.231378 7.167181 22.338345 24.549195 -0.780940 0.427652 0.058287 -0.004013 -125856.000000 0 1 0
-8.041778 6.034981 22.238045 24.405365 -0.643791 0.424621 0.059877 -0.007000 14351.500000 0 1 0
-8.000578 5.087881 23.469975 25.312754 -0.566427 0.383930 0.062865 -0.014543 -74081.000000 0 0 1
-8.627578 5.623981 24.609735 26.677768 -0.577682 0.396338 0.049058 -0.005916 -96450.400000 0 0 1
-9.025978 4.710381 25.604165 27.554115 -0.480990 0.378467 0.042189 -0.004127 -116929.000000 0 0 1
-10.063078 5.352081 26.542565 28.886295 -0.488804 0.405606 0.033024 -0.000379 -247048.000000 0 0 1
-9.606178 6.460881 27.252865 29.609801 -0.592082 0.401694 0.034944 0.001188 -387792.000000 0 0 1
-10.588278 6.846981 28.164745 30.858478 -0.574021 0.420936 0.030717 0.004995 44364.100000 0 0 1
-10.136178 8.034581 29.061855 31.810187 -0.670252 0.418740 0.047174 -0.005147 240582.000000 0 0 1
-9.208978 7.766481 30.102625 32.423626 -0.700626 0.380669 0.054372 -0.000168 71384.500000 0 0 1
-8.765378 9.041581 30.543465 33.037635 -0.800908 0.391061 0.061992 -0.010008 343877.000000 0 0 1
-7.653278 8.956181 31.641815 33.763742 -0.863681 0.356415 0.091771 -0.013094 480875.000000 0 0 1
-6.371378 8.586181 31.162865 32.946033 -0.932403 0.330513 0.087368 -0.014114 -285577.000000 0 0 1
-5.639078 8.035181 32.276461 33.736231 -0.958864 0.295248 0.120045 -0.019616 526574.000000 0 0 1
-4.155978 7.783981 31.883548 33.082067 -1.080387 0.269998 0.096360 -0.023265 279385.000000 0 0 1
-3.390878 8.975781 31.821085 33.236187 -1.209590 0.292858 0.083778 -0.022590 -228490.000000 0 0 1
-2.028678 8.691481 32.085941 33.304129 -1.341492 0.271304 0.100623 -0.032779 404142.000000 0 0 1
-1.086478 9.895681 31.771655 33.294789 -1.461441 0.303645 0.127786 -0.033774 19861.100000 0 0 1
-1.135678 11.053281 32.572583 34.415664 -1.468410 0.328751 0.109723 -0.039556 -14347.200000 0 0 1
-1.682678 12.152581 31.883941 34.162879 -1.433209 0.367323 0.093961 -0.036741 -237582.000000 0 0 1
-1.979478 13.387081 32.758190 35.443353 -1.423995 0.391754 0.084572 -0.041712 -1160060.000000 0 0 1
-0.836978 14.001781 33.237151 36.075735 -1.511091 0.399345 0.151127 -0.047101 -835835.000000 0 0 1
-1.137678 14.955081 -33.703289 36.889843 -1.494870 2.722896 0.132538 -0.044760 -683896.000000 0 0 1
0.052222 15.388381 -32.890719 36.312593 1.567403 2.703981 0.115894 -0.046197 -1642190.000000 0 0 1
0.989622 16.011981 -33.648269 37.276922 1.509070 2.696700 0.148802 -0.044027 -532323.000000 0 0 1
2.190722 16.076181 -32.881909 36.666917 1.435359 2.683219 0.174287 -0.045582 79727.600000 0 0 1
3.371422 16.728081 -33.612629 37.696207 1.371918 2.671820 0.175378 -0.029393 -148890.000000 0 0 1
3.227022 18.135081 -33.895269 38.576990 1.394696 2.643802 0.153728 -0.022027 -390161.000000 0 0 1
4.448222 18.698581 33.612336 38.719669 1.337247 0.519445 0.122602 0.001715 -205457.000000 0 0 1
4.410322 20.261381 33.372610 39.290019 1.356468 0.555965 0.123388 -0.022499 -208878.000000 0 0 1
4.409222 20.954181 -33.268169 39.563747 1.363400 2.569694 0.146130 -0.043254 68372.300000 0 0 1
4.188022 22.325881 -33.349489 40.350625 1.385365 2.543645 0.116622 -0.034385 73255.400000 0 0 1
3.851622 22.994281 -31.974369 39.571862 1.404834 2.511559 0.137337 -0.038806 159180.000000 0 0 1
3.452322 24.369481 -32.068589 40.425049 1.430067 2.486982 0.129767 -0.038947 245768.000000 0 0 1
3.123622 24.817181 -30.794089 39.672729 1.445589 2.459417 0.126201 -0.034543 -48334.400000 0 0 1
2.651322 26.256381 -30.717629 40.496911 1.470159 2.431832 0.119333 -0.039650 -30673.400000 0 0 1
3.749422 27.124881 -30.633249 41.087873 1.433439 2.412163 0.106800 -0.032020 315264.000000 0 0 1
3.223522 28.405581 -30.375679 41.712708 1.457798 2.386505 0.095830 -0.034234 209619.000000 0 0 1
4.297122 29.514981 -30.196379 42.443147 1.426221 2.362363 0.100283 -0.039758 642470.000000 0 0 1
5.228022 29.389181 -29.118289 41.700491 1.394749 2.343777 0.102697 -0.047785 274631.000000 0 0 1
5.981722 30.510581 -28.818459 42.393162 1.377198 2.318273 0.094510 -0.046517 -458920.000000 0 0 1
6.932122 30.366081 -27.592189 41.611082 1.346357 2.295745 0.109860 -0.047040 -360494.000000 0 0 1
8.123222 29.695281 -27.887849 41.539483 1.303776 2.306835 0.110885 -0.042933 -55997.400000 0 0 1
9.307022 30.472781 -27.930999 42.371592 1.274374 2.290540 0.113807 -0.047724 18072.400000 0 0 1
9.547222 31.573881 -28.986169 43.911928 1.277160 2.291745 0.120245 -0.047222 -424736.000000 0 0 1
8.848422 32.804681 -28.606969 44.416218 1.307336 2.270598 0.102325 -0.036316 502216.000000 0 0 1
8.988122 33.838181 -29.556279 45.819019 1.311171 2.271906 0.078375 -0.022681 -125044.000000 0 0 1
7.729422 -33.944370 -30.405819 46.222052 -1.346905 2.288718 0.068085 -0.019419 31711.200000 0 0 1
7.372022 33.181781 -31.359269 46.246958 1.352176 2.315947 0.058143 -0.017238 157638.000000 0 0 1
6.131422 33.396881 -32.001119 46.658522 1.389226 2.326578 0.059453 -0.012602 56322.900000 0 0 1
5.816822 32.421881 -33.168179 46.745502 1.393275 2.359653 0.072468 -0.031875 72801.300000 0 0 1
6.369922 33.002981 33.574972 47.508435 1.380130 0.785951 0.079673 -0.023227 205377.000000 0 0 1
6.229422 32.134481 32.441002 46.085238 1.379317 0.789874 0.100287 -0.025489 96467.200000 0 0 1
5.748322 32.931381 31.157715 45.698165 1.397983 0.820555 0.083253 -0.031195 437218.000000 0 0 1
6.800622 33.714681 30.628005 46.054347 1.371756 0.843248 0.081376 -0.025595 173646.000000 0 0 1
6.286222 -33.551670 29.613075 45.190324 -1.385584 0.856221 0.063946 -0.031159 27016.100000 0 0 1
18.795538 -22.006719 28.850155 40.864402 -0.863937 0.786966 0.080916 -0.003423 -619854.000000 0 0 1
17.973238 -20.964119 29.270275 40.240285 -0.862060 0.756289 0.086801 -0.006026 -130627.000000 0 0 1
16.667838 -21.414919 29.566075 40.131887 -0.909410 0.742585 0.078642 -0.007195 92093.100000 0 0 1
16.431438 -21.867619 31.049845 41.379678 -0.926397 0.722183 0.066577 -0.016404 -427452.000000 0 0 1
17.096038 -23.040219 31.495375 42.603812 -0.932429 0.738823 0.073051 -0.024195 138030.000000 0 0 1
16.795138 -23.372319 32.850010 43.674536 -0.947702 0.719471 0.107460 -0.027578 -107629.000000 0 0 1
17.539438 -24.593019 33.375200 45.015024 -0.951274 0.735607 0.092917 -0.030904 -232431.000000 0 0 1
17.035038 -25.852909 32.879025 45.161883 -0.988175 0.755358 0.129625 -0.032999 -254353.000000 0 0 1
17.584738 -26.928239 33.539003 46.467384 -0.992299 0.764433 0.125446 -0.030690 -171808.000000 0 0 1
17.110338 -28.322239 33.116848 46.814939 -1.027345 0.784985 0.120768 -0.031427 202131.000000 0 0 1
17.816838 -28.849199 31.971574 46.603621 -1.017547 0.814775 0.113290 -0.039714 158466.000000 0 0 1
17.217238 -29.993289 31.437155 46.736767 -1.049687 0.833022 0.122693 -0.042156 -320851.000000 0 0 1
18.033838 -30.684629 30.322525 46.757045 -1.039458 0.865168 0.112653 -0.041845 99020.200000 0 0 1
19.132838 -31.361389 30.909555 48.010444 -1.023001 0.871331 0.125896 -0.043956 -822123.000000 0 0 1
20.014038 -31.727609 29.958525 48.007459 -1.008031 0.896895 0.116241 -0.042324 -1332080.000000 0 0 1
21.391138 -32.122979 30.514775 49.199777 -0.983315 0.901771 0.115144 -0.040767 -115107.000000 0 0 1
22.273438 -31.023269 30.668175 48.980467 -0.948119 0.894215 0.094320 -0.032799 -214835.000000 0 0 1
23.586038 -31.476109 30.796825 49.954890 -0.927723 0.906516 0.091676 -0.029980 -257028.000000 0 0 1
24.697338 -30.399959 30.949765 49.919975 -0.888532 0.902069 0.065727 -0.018093 634365.000000 0 0 1
25.894838 -30.704049 30.247705 50.281258 -0.870165 0.925331 0.056333 -0.017508 176016.000000 0 0 1
26.757538 -29.588679 30.167715 50.015465 -0.835601 0.923330 0.047896 -0.008944 -38170.600000 0 0 1
27.755138 -29.692209 29.006105 49.933246 -0.819104 0.950965 0.053678 -0.014285 24913.000000 0 0 1
28.864738 -30.523859 29.298725 51.218105 -0.813328 0.961807 0.041986 -0.011696 10837.800000 0 0 1
29.892338 -30.328349 28.340655 51.152256 -0.792638 0.983581 0.041611 -0.027627 482020.000000 0 0 1
31.108738 -31.243209 28.678615 52.596146 -0.787555 0.994096 0.021678 -0.022743 285468.000000 0 0 1
30.745438 -32.593729 28.411425 53.055086 -0.814571 1.005687 0.013511 -0.019838 692141.000000 0 0 1
31.814938 -33.471389 28.811445 54.429987 -0.810765 1.012985 0.016063 -0.015039 -68344.200000 0 0 1
31.259638 33.251552 29.353795 54.263026 0.816265 0.999225 0.011031 -0.005306 -434284.000000 0 0 1
30.607638 33.318017 30.634635 54.638801 0.827772 0.975595 0.026115 -0.005992 855270.000000 0 0 1
29.443338 -33.950119 30.817025 54.490455 -0.856371 0.969697 0.030020 -0.007252 307886.000000 0 0 1
28.220838 33.805492 29.918575 53.238596 0.875193 0.974029 0.029113 -0.012557 -490507.000000 0 0 1
27.573738 32.542215 30.169155 52.244470 0.867859 0.955181 0.024341 -0.007117 879464.000000 0 0 1
26.163338 32.718344 29.921795 51.481299 0.896267 0.950573 0.064707 -0.018259 1266720.000000 0 0 1
25.389838 31.360762 29.884665 50.211896 0.890226 0.933318 0.088858 -0.024686 92233.700000 0 0 1
25.342638 30.679822 28.648055 49.032763 0.880380 0.946824 0.088611 -0.025253 -278758.000000 0 0 1
24.514038 29.582852 28.882515 48.065402 0.878824 0.926169 0.100431 -0.029190 -527893.000000 0 0 1
23.939838 28.927952 27.597445 46.600013 0.879470 0.936986 0.103777 -0.032008 -688866.000000 0 0 1
22.907838 29.732182 27.144335 46.320477 0.914321 0.944668 0.121239 -0.033961 -379844.000000 0 0 1
22.257238 29.188502 25.961345 44.959367 0.919321 0.955207 0.114124 -0.040865 311496.000000 0 0 1
20.805938 29.694542 25.860175 44.535396 0.959624 0.951250 0.108105 -0.036893 -94708.300000 0 0 1
20.743738 31.045312 25.412045 45.165098 0.981749 0.973211 0.134237 -0.046136 -347575.000000 0 0 1
19.404638 31.464662 25.363375 44.831526 1.018179 0.969455 0.110346 -0.033444 -352115.000000 0 0 1
19.335638 32.872637 24.692175 45.433255 1.039100 0.996216 0.130070 -0.034352 -62954.000000 0 0 1
19.721038 32.979698 23.337085 44.957751 1.031867 1.025011 0.121830 -0.035631 -771532.000000 0 0 1
21.072938 33.228173 23.135245 45.644493 1.005617 1.039261 0.111154 -0.036784 -625630.000000 0 0 1
21.537738 33.478993 21.674045 45.326387 0.999131 1.072218 0.114654 -0.031395 96103.300000 0 0 1
21.017838 -33.380809 21.198745 44.781857 -1.008869 1.077675 0.100923 -0.023420 181627.000000 0 0 1
21.593338 -33.110279 19.937045 44.272436 -0.992901 1.103665 0.108036 -0.022981 11670.100000 0 0 1
21.399938 -31.660869 19.314745 42.818539 -0.976421 1.102817 0.104600 -0.020841 -18569.700000 0 0 1
22.130938 -30.637689 20.034845 42.776645 -0.945232 1.083363 0.098505 -0.018026 427996.000000 0 0 1
21.994938 -29.350129 19.482545 41.530433 -0.927680 1.082508 0.094149 -0.020905 -163619.000000 0 0 1
22.848138 -29.000449 18.238045 41.178753 -0.903505 1.111966 0.069952 -0.016189 -602698.000000 0 0 1
22.443738 -29.722209 17.092045 40.978886 -0.924029 1.140551 0.052814 -0.015408 212150.000000 0 0 1
23.013938 -29.244779 15.909245 40.472243 -0.904069 1.166806 0.039672 -0.009328 -595643.000000 0 0 1
22.529338 -29.822499 14.594445 40.124186 -0.923818 1.198525 0.022873 -0.004954 -90195.700000 0 0 1
23.281538 -30.994679 14.207945 41.286388 -0.926562 1.219483 0.055498 -0.004296 325775.000000 0 0 1
23.450138 -31.305179 12.841345 41.168232 -0.927883 1.253579 0.042250 -0.006381 -201591.000000 0 0 1
22.177938 -31.516109 11.976145 40.355348 -0.957590 1.269491 0.030537 -0.004282 185999.000000 0 0 1
21.373338 -32.617089 12.434845 40.930666 -0.990718 1.262115 0.037059 -0.009485 -244465.000000 0 0 1
20.295838 -32.749529 11.543245 40.220631 -1.015996 1.279705 0.051385 -0.003806 -351055.000000 0 0 1
19.116738 -33.509629 12.176945 40.455196 -1.052362 1.265057 0.072218 -0.006756 -220220.000000 0 0 1
18.573638 -32.834589 13.306045 40.001763 -1.056000 1.231698 0.063909 0.002284 535307.000000 0 0 1
19.159038 -33.323959 14.541445 41.097550 -1.049013 1.209136 0.065496 -0.005897 -435990.000000 0 0 1
18.767238 -32.340119 15.663545 40.539353 -1.044982 1.174094 0.057712 -0.008588 330658.000000 0 0 1
17.380838 -32.119459 15.904045 39.833300 -1.074788 1.160081 0.072597 -0.026206 613585.000000 0 0 1
16.571738 -33.121989 16.499045 40.545124 -1.106889 1.151705 0.077851 -0.008582 -450073.000000 0 0 1
17.059438 -33.531689 17.917245 41.670448 -1.100169 1.126331 0.063120 -0.004252 153112.000000 0 0 1
17.901838 33.355788 17.877945 41.865324 1.078227 1.129585 0.063703 -0.002848 415291.000000 0 0 1
18.231638 32.906884 19.157345 42.216815 1.064859 1.099788 0.067068 -0.007459 188016.000000 0 0 1
19.136038 31.652272 19.044445 41.602225 1.027023 1.095306 0.077548 -0.006138 302990.000000 0 0 1
18.392738 30.524402 18.669045 40.231395 1.028498 1.088244 0.058228 -0.005751 17345.400000 0 0 1
19.286138 29.426402 18.558045 39.777749 0.990633 1.085418 0.057511 -0.016516 423733.000000 0 0 1
18.601238 28.044222 18.324245 38.317912 0.985140 1.072174 0.060559 -0.013022 182498.000000 0 0 1
18.167738 27.400582 19.508845 38.228963 0.985307 1.035244 0.068999 -0.026414 -72612.300000 0 0 1
17.647238 26.119172 19.202645 36.910401 0.976605 1.023652 0.078656 -0.030082 -288847.000000 0 0 1
17.374038 25.173872 20.380645 36.755295 0.966704 0.983040 0.090634 -0.034102 -449476.000000 0 0 1
16.226438 25.348662 21.153645 36.787615 1.001391 0.958167 0.095950 -0.035296 -766169.000000 0 0 1
15.226838 24.498112 20.661345 35.481055 1.014681 0.949216 0.096923 -0.035453 -434047.000000 0 0 1
13.873338 24.697922 21.370845 35.484784 1.058999 0.924475 0.114655 -0.045246 115652.000000 0 0 1
13.226338 25.966702 21.235345 36.057531 1.099691 0.941063 0.106187 -0.042986 582219.000000 0 0 1
11.941738 26.045392 21.890845 36.057962 1.140899 0.918388 0.100442 -0.041985 1183720.000000 0 0 1
11.035638 27.046022 21.075645 36.020209 1.183385 0.945785 0.081381 -0.042199 -100447.000000 0 0 1
11.383538 28.363162 21.414245 37.317875 1.189127 0.959617 0.071647 -0.038853 -36110.700000 0 0 1
11.051438 29.344042 20.400745 37.408522 1.210610 0.993989 0.067092 -0.037877 204489.000000 0 0 1
11.746838 30.716712 20.629845 38.821323 1.205532 1.010538 0.059609 -0.033278 174704.000000 0 0 1
11.083138 31.429422 21.657145 39.745144 1.231775 0.994526 0.059578 -0.025111 -222176.000000 0 0 1
11.637038 31.247022 22.924895 40.464155 1.214289 0.968485 0.059936 -0.025911 254300.000000 0 0 1
10.837938 32.192913 23.874935 41.519358 1.246058 0.958154 0.055989 -0.022767 404780.000000 0 0 1
9.536238 31.809822 24.245365 41.117421 1.279533 0.940157 0.052958 -0.020755 -469621.000000 0 0 1
9.427738 32.308104 25.539335 42.248710 1.286873 0.921659 0.046683 -0.023103 -1415600.000000 0 0 1
8.059938 32.185120 26.212905 42.284287 1.325418 0.902155 0.102434 -0.042360 -281274.000000 0 0 1
7.071038 33.078772 25.631015 42.440001 1.360202 0.922367 0.088380 -0.033085 860087.000000 0 0 1
6.534838 32.723531 24.319075 41.291052 1.373691 0.941016 0.084003 -0.044488 -162316.000000 0 0 1
5.594238 31.481522 24.205505 40.103469 1.394933 0.922817 0.071481 -0.041627 158820.000000 0 0 1
6.306038 30.348582 24.672245 39.617196 1.365925 0.898523 0.062935 -0.036090 119943.000000 0 0 1
5.435538 29.176112 24.631695 38.568264 1.386607 0.878051 0.045822 -0.028279 -373251.000000 0 0 1
6.162838 27.829012 24.690315 37.710027 1.352860 0.856956 0.062859 -0.030889 14323.600000 0 0 1
7.145838 27.592272 23.668575 37.048589 1.317384 0.877791 0.087296 -0.037327 1112210.000000 0 0 1
8.298538 28.446002 23.721395 37.957151 1.286944 0.895726 0.107297 -0.044351 -660469.000000 0 0 1
9.465438 28.055112 24.642915 38.522164 1.245402 0.876679 0.095877 -0.048922 -1171470.000000 0 0 1
9.152438 28.026092 26.043525 39.338202 1.255146 0.847257 0.100352 -0.039434 -186809.000000 0 0 1
10.225238 27.680142 26.877815 39.914442 1.216938 0.832017 0.101470 -0.029032 398953.000000 0 0 1
11.458538 28.641622 26.873715 40.912555 1.190233 0.854153 0.080873 -0.023126 -144085.000000 0 0 1
11.068238 29.873912 27.377555 42.005798 1.215978 0.860898 0.092816 -0.036690 241309.000000 0 0 1
12.135938 30.806752 27.430205 42.997129 1.195527 0.878957 0.072586 -0.026776 -305656.000000 0 0 1
11.765238 32.031272 28.282915 44.320949 1.218789 0.878718 0.072478 -0.035793 -237101.000000 0 0 1
11.729038 31.831592 29.682965 45.076590 1.217761 0.851972 0.080439 -0.048366 287036.000000 0 0 1
10.567838 31.182372 30.187575 44.668884 1.244040 0.828736 0.105449 -0.044563 13729.400000 0 0 1
10.551038 30.983282 31.706055 45.569311 1.242574 0.801296 0.126093 -0.039655 159130.000000 0 0 1
11.207938 29.800952 32.194921 45.279439 1.211068 0.779838 0.114884 -0.033541 423683.000000 0 0 1
11.008538 29.644242 33.556196 46.108430 1.215225 0.755736 0.140407 -0.035836 -115965.000000 0 0 1
11.268938 28.183442 -33.856809 45.470638 1.190426 2.410711 0.143160 -0.040572 529324.000000 0 0 1
12.658138 27.858602 -33.844419 45.626471 1.144314 2.406504 0.142972 -0.027871 343503.000000 0 0 1
12.825538 26.460822 -33.586049 44.639582 1.119464 2.422468 0.140303 -0.035381 1026560.000000 0 0 1
14.242238 25.834622 33.943275 44.971268 1.066967 0.715482 0.148437 -0.032339 1061950.000000 0 0 1
14.266838 24.425022 -33.677869 43.980942 1.042144 2.442984 0.108753 -0.028581 117977.000000 0 0 1
14.434638 24.052502 -32.318219 42.794263 1.030281 2.426755 0.104246 -0.027088 -506844.000000 0 0 1
14.443438 22.488332 -32.226139 41.867195 0.999879 2.449203 0.069262 -0.042377 -170981.000000 0 0 1
15.610738 21.900932 -32.748469 42.376977 0.951539 2.454021 0.070462 -0.026153 -119089.000000 0 0 1
15.489238 20.520332 -32.883429 41.741112 0.924215 2.478017 0.063690 -0.023745 427359.000000 0 0 1
16.876238 19.901532 -33.228639 42.249507 0.867472 2.475895 0.080761 -0.028992 367618.000000 0 0 1
17.872938 20.035632 -32.250449 41.963793 0.842387 2.447337 0.057257 -0.028007 -1662760.000000 0 0 1
19.046238 19.528332 -32.696069 42.581074 0.797895 2.446282 0.066754 -0.027801 -1316470.000000 0 0 1
20.172438 20.015932 -31.725599 42.592000 0.781504 2.411140 0.044679 -0.021416 -98186.800000 0 0 1
20.652238 21.324532 -32.003139 43.651478 0.801413 2.393741 0.018646 -0.013704 -845876.000000 0 0 1
21.583538 21.745832 -31.096209 43.654376 0.789144 2.363605 0.007055 -0.003595 -689919.000000 0 0 1
21.154938 22.091032 -29.639189 42.591392 0.807041 2.340463 0.024267 -0.004541 -119493.000000 0 0 1
20.228838 23.154322 -29.575949 42.662223 0.852730 2.336797 0.004092 0.002922 -8858.450000 0 0 1
19.905638 23.648882 -28.274129 41.891890 0.871131 2.311667 0.016065 0.015001 109679.000000 0 0 1
21.033838 24.394442 -27.466339 42.330969 0.859240 2.276865 0.015511 0.013169 179107.000000 0 0 1
21.652038 25.509662 -28.015619 43.639759 0.867012 2.267867 0.025526 0.015776 -620768.000000 0 0 1
20.841638 26.633202 -28.255699 44.069103 0.906791 2.266816 0.030269 0.013709 -439647.000000 0 0 1
21.566438 27.806522 -29.012079 45.607178 0.911118 2.260268 0.039389 0.005249 -68834.800000 0 0 1
21.734538 27.671682 -30.420559 46.513681 0.904995 2.283674 0.032053 0.004084 52642.500000 0 0 1
22.226538 26.505102 -31.092449 46.511072 0.872972 2.302981 0.029460 0.010216 438600.000000 0 0 1
23.599938 25.960182 -30.557939 46.526076 0.832986 2.287352 0.053005 0.003231 -562351.000000 0 0 1
24.667438 26.769862 -30.895599 47.745639 0.826249 2.274554 0.046195 0.005213 -1352490.000000 0 0 1
25.816838 26.136842 -30.452289 47.717770 0.791558 2.262922 0.061410 -0.008139 -893178.000000 0 0 1
27.136638 26.878042 -30.720019 49.015771 0.780611 2.248156 0.061350 -0.000187 -384690.000000 0 0 1
27.343838 28.077862 -30.048599 49.385930 0.798642 2.224895 0.057594 0.001061 -552765.000000 0 0 1
28.571438 28.583542 -30.467379 50.612322 0.785610 2.216769 0.058403 -0.016087 -423755.000000 0 0 1
29.050038 29.851482 -29.771099 51.198965 0.799004 2.191341 0.042491 -0.008662 45664.000000 0 0 1
29.331138 29.735792 -28.376369 50.495062 0.792249 2.167554 0.059205 -0.013486 562818.000000 0 0 1
28.768938 30.925532 -27.765929 50.546881 0.821510 2.152335 0.058707 -0.018168 -342823.000000 0 0 1
29.108138 31.169122 -26.248479 50.077745 0.819577 2.122518 0.079728 -0.013523 -134078.000000 0 0 1
28.617938 30.272282 -25.303709 48.740898 0.813483 2.116649 0.078995 -0.007642 1181510.000000 0 0 1
27.186238 30.035562 -25.303109 47.764776 0.835151 2.129095 0.072521 -0.002549 799821.000000 0 0 1
26.654238 29.826082 -23.867999 46.580307 0.841498 2.108780 0.073681 0.006894 -187853.000000 0 0 1
26.737438 30.905662 -23.008299 46.898106 0.857583 2.083577 0.092873 -0.009619 59793.200000 0 0 1
26.189538 30.530052 -21.784599 45.744341 0.861775 2.067153 0.080841 -0.002919 7404.120000 0 0 1
3.688838 -26.184129 -19.172199 32.661741 -1.430837 2.198135 0.074284 -0.012443 -362189.000000 0 0 1
3.492438 -27.347919 -18.359799 33.123829 -1.443780 2.158291 0.087568 -0.016566 300499.000000 0 0 1
3.363038 -26.956069 -16.954299 32.021679 -1.446678 2.128764 0.097761 -0.021469 -40349.000000 0 0 1
3.178938 -28.252549 -16.085199 32.665667 -1.458749 2.085663 0.093795 -0.026724 -414918.000000 0 0 1
4.378638 -28.936969 -15.903199 33.308143 -1.420619 2.068554 0.084028 -0.027477 -407891.000000 0 0 1
4.380938 -29.627419 -14.674399 33.351380 -1.423992 2.026388 0.086297 -0.034901 1000910.000000 0 0 1
5.858938 -30.030179 -14.318199 33.780906 -1.378115 2.008493 0.101043 -0.033431 1132360.000000 0 0 1
6.731938 -28.954779 -13.876199 32.806205 -1.342356 2.007522 0.094184 -0.030539 1147450.000000 0 0 1
8.134338 -29.268759 -13.900899 33.407524 -1.299719 1.999949 0.092574 -0.027723 1077200.000000 0 0 1
8.688238 -30.248619 -12.824699 33.984369 -1.291098 1.957752 0.082673 -0.028603 -913269.000000 0 0 1
8.824338 -29.579769 -11.566899 32.963993 -1.280878 1.929323 0.090072 -0.032995 -28125.300000 0 0 1
9.042338 -30.337429 -10.399899 33.320885 -1.281121 1.888213 0.097985 -0.029959 -53063.500000 0 0 1
10.312138 -31.218599 -10.327999 34.461698 -1.251760 1.875169 0.079588 -0.022552 -107882.000000 0 0 1
11.453638 -30.441449 -10.005899 34.029188 -1.210929 1.869246 0.072948 -0.024298 285362.000000 0 0 1
12.563438 -31.315099 -9.828399 35.143603 -1.189261 1.854240 0.068807 -0.019282 -117512.000000 0 0 1
13.711738 -30.828139 -8.964799 34.910650 -1.152292 1.830498 0.069283 -0.014360 -456799.000000 0 0 1
14.625638 -29.905889 -9.529299 34.627720 -1.115943 1.849587 0.058003 -0.022322 -14689.800000 0 0 1
15.586838 -29.617939 -8.535099 34.540118 -1.086359 1.820490 0.051487 -0.015916 284924.000000 0 0 1
16.943038 -29.020369 -9.074299 34.807919 -1.042349 1.834540 0.068212 -0.022977 629101.000000 0 0 1
16.928438 -27.699599 -9.624699 33.859631 -1.022223 1.859023 0.066677 -0.022718 -135183.000000 0 0 1
16.141838 -27.644499 -10.794599 33.783141 -1.042293 1.896026 0.051315 -0.021264 -195131.000000 0 0 1
15.693438 -26.167169 -10.968099 32.423817 -1.030570 1.915877 0.045000 -0.016920 137337.000000 0 0 1
14.769138 -25.629059 -9.975799 31.216865 -1.048012 1.896066 0.026148 -0.016296 824862.000000 0 0 1
14.248538 -24.316919 -10.202099 29.973592 -1.040771 1.918106 0.004509 -0.007525 330723.000000 0 0 1
13.527338 -23.871219 -11.508299 29.753402 -1.055237 1.967944 -0.000242 -0.003452 198279.000000 0 0 1
14.381538 -23.620019 -12.626699 30.400123 -1.023880 1.999124 0.001367 -0.009781 178881.000000 0 0 1
13.608538 -23.657119 -13.816199 30.589850 -1.048781 2.039421 0.016594 -0.015914 112951.000000 0 0 1
14.442238 -23.147119 -15.011399 31.140158 -1.012965 2.073800 0.025890 -0.017575 258599.000000 0 0 1
15.414038 -24.039619 -15.542999 32.512777 -1.000637 2.069239 0.027588 -0.021851 415050.000000 0 0 1
16.065938 -23.521019 -16.725199 33.031575 -0.971540 2.101731 0.034104 -0.024343 -63873.400000 0 0 1
17.126738 -24.440419 -17.376699 34.534170 -0.959564 2.098064 0.047391 -0.030838 1378000.000000 0 0 1
18.350038 -24.606319 -16.620599 34.906147 -0.930024 2.067069 0.066889 -0.034794 979481.000000 0 0 1
19.419938 -23.664619 -16.737399 34.889665 -0.883601 2.071136 0.074220 -0.040073 440861.000000 0 0 1
20.716238 -24.351319 -16.229699 35.854600 -0.865882 2.040535 0.081898 -0.038888 103865.000000 0 0 1
21.346538 -25.293779 -17.051599 37.231800 -0.869828 2.046523 0.093421 -0.036861 -107097.000000 0 0 1
22.502638 -25.845669 -16.429899 38.004064 -0.854433 2.017860 0.114646 -0.042477 219462.000000 0 0 1
23.300738 -26.662389 -17.447299 39.474240 -0.852580 2.028615 0.103510 -0.037171 -442497.000000 0 0 1
23.852738 -25.857219 -18.446999 39.722042 -0.825700 2.053756 0.108409 -0.030225 -134260.000000 0 0 1
24.612338 -26.628669 -19.355299 41.103294 -0.824728 2.061100 0.094940 -0.027091 -449958.000000 0 0 1
25.527138 -25.938769 -20.357799 41.700054 -0.793396 2.080818 0.089539 -0.023249 -306192.000000 0 0 1
25.024238 -24.935819 -21.237199 41.219245 -0.783628 2.112067 0.089601 -0.024100 -400755.000000 0 0 1
25.089038 -23.674119 -20.542699 40.148801 -0.756390 2.107917 0.092415 -0.018688 -28248.600000 0 0 1
24.226738 -22.544719 -21.197999 39.300819 -0.749451 2.140495 0.128024 -0.025361 -673979.000000 0 0 1
24.639138 -21.953319 -22.412099 39.891572 -0.727817 2.167387 0.104312 -0.018088 -37297.600000 0 0 1
24.405638 -22.823319 -23.541199 40.874529 -0.751908 2.184548 0.070785 -0.024246 16385.500000 0 0 1
23.638938 -22.019919 -24.631099 40.624712 -0.749954 2.222206 0.059417 -0.028469 125550.000000 0 0 1
24.451538 -21.166919 -25.416089 41.132636 -0.713520 2.236873 0.054229 -0.015269 -256256.000000 0 0 1
23.678938 -20.405719 -26.263049 40.826869 -0.711286 2.269569 0.039444 -0.003103 -320987.000000 0 0 1
24.482538 -19.607619 -27.323869 41.598644 -0.675278 2.287423 0.044047 0.004002 -6825.510000 0 0 1
23.566638 -18.738419 -27.929889 41.068156 -0.671761 2.318677 0.036069 0.003200 -78821.000000 0 0 1
24.005838 -18.241719 -29.178369 41.957333 -0.649799 2.339814 0.049413 -0.008482 -481252.000000 0 0 1
23.132338 -17.206319 -29.912049 41.543870 -0.639535 2.374615 0.078412 -0.010015 -138198.000000 0 0 1
21.857538 -17.778719 -30.170539 41.280701 -0.682853 2.390382 0.064398 -0.011421 261283.000000 0 0 1
20.993738 -16.970419 -30.920149 41.046166 -0.679815 2.423864 0.078665 -0.015255 1032250.000000 0 0 1
19.796238 -17.784419 -31.620919 41.328672 -0.731916 2.442006 0.071715 -0.011002 835922.000000 0 0 1
20.178238 -18.627319 -32.648809 42.662431 -0.745453 2.442276 0.062340 -0.006171 330619.000000 0 0 1
19.075438 -19.259319 -33.294839 42.934136 -0.790195 2.458281 0.074549 -0.008442 40450.400000 0 0 1
19.469938 -20.131919 33.372346 43.567030 -0.802113 0.698201 0.075956 -0.019151 -456435.000000 0 0 1
20.302038 -21.138719 33.838144 44.766485 -0.805585 0.713797 0.056825 -0.010743 -185585.000000 0 0 1
20.630238 -22.027519 32.792151 44.566169 -0.818142 0.743937 0.053304 -0.014167 370997.000000 0 0 1
21.564238 -23.204019 33.268258 45.937129 -0.822010 0.760904 0.032620 -0.002771 75305.700000 0 0 1
20.883138 -24.143719 -33.843739 46.523363 -0.857686 2.385405 0.058795 -0.007402 -50862.500000 0 0 1
20.846638 -23.834019 -32.456819 45.344105 -0.852160 2.368550 0.059415 -0.012906 -246204.000000 0 0 1
19.793338 -24.686219 -31.746669 44.822278 -0.894961 2.357853 0.082044 -0.022010 -335878.000000 0 0 1
20.050538 -26.082519 -31.797039 45.753399 -0.915412 2.339168 0.090166 -0.027595 -327593.000000 0 0 1
21.034238 -26.524989 -30.915059 45.844902 -0.900340 2.310867 0.069892 -0.029877 -266537.000000 0 0 1
21.057638 -28.043739 -30.745499 46.638623 -0.926729 2.290588 0.081460 -0.042762 -383403.000000 0 0 1
19.836038 -28.546449 -30.295839 46.110801 -0.963522 2.287659 0.087379 -0.042394 -502510.000000 0 0 1
19.802138 -29.905449 -30.642469 47.174373 -0.985921 2.277799 0.090576 -0.036982 871566.000000 0 0 1
18.384238 -30.579459 -30.426949 46.892246 -1.029498 2.276894 0.137215 -0.045002 865646.000000 0 0 1
17.391038 -30.307609 -31.392319 46.973153 -1.049851 2.302722 0.148377 -0.054860 -6853.310000 0 0 1
17.461938 -31.168629 -32.516649 48.308748 -1.060125 2.309190 0.151960 -0.054541 145290.000000 0 0 1
16.063238 -31.829789 -32.748069 48.410733 -1.103427 2.313746 0.158428 -0.051908 840919.000000 0 0 1
15.105238 -30.847209 -33.194499 47.766026 -1.115439 2.339132 0.152147 -0.048093 830909.000000 0 0 1
13.847438 -31.529719 -33.453439 48.010492 -1.156971 2.341715 0.101517 -0.034607 703469.000000 0 0 1
12.922338 -30.526419 33.747229 47.304593 -1.170352 0.776454 0.105084 -0.028890 -324579.000000 0 0 1
12.412938 -29.536899 -33.281769 46.197247 -1.172954 2.375215 0.112104 -0.033913 -141522.000000 0 0 1
11.707638 -28.595179 33.836631 45.822163 -1.182190 0.740052 0.091693 -0.026896 90774.500000 0 0 1
10.636338 -27.692609 -33.368519 44.648296 -1.204084 2.414882 0.091833 -0.031439 149699.000000 0 0 1
9.538538 -28.411079 -32.879259 44.488412 -1.246888 2.402459 0.085989 -0.020624 -10816.100000 0 0 1
8.612738 -27.468929 -32.301809 43.268097 -1.266960 2.413658 0.046077 -0.015029 572165.000000 0 0 1
7.476738 -28.056929 -31.429099 42.788797 -1.310364 2.395751 0.034979 -0.015747 1051860.000000 0 0 1
6.401738 -28.766409 -32.115179 43.587536 -1.351823 2.399117 0.040379 -0.016335 618610.000000 0 0 1
6.658638 -30.097909 -32.460009 44.764649 -1.353071 2.382014 0.037958 -0.014577 -9415.650000 0 0 1
5.434438 -31.031649 -32.744549 45.438990 -1.397429 2.375502 0.049727 -0.017366 564438.000000 0 0 1
4.640938 -31.170539 -31.572359 44.608908 -1.422994 2.357117 0.050967 -0.027840 -30275.900000 0 0 1
3.547238 -32.032469 -31.728739 45.225821 -1.460507 2.348384 0.066875 -0.042797 -945457.000000 0 0 1
2.707838 -32.413679 -30.482699 44.577729 -1.487450 2.323768 0.057067 -0.050154 78389.500000 0 0 1
1.623538 -31.615209 -30.141519 43.711194 -1.519488 2.331679 0.059154 -0.051070 -908300.000000 0 0 1
0.518138 -31.626789 -30.986199 44.279417 -1.554415 2.345897 0.056718 -0.018134 -826302.000000 0 0 1
-0.534962 -30.653629 -30.355619 43.143885 1.553346 2.351234 0.048430 -0.021020 -252183.000000 0 0 1
-1.244962 -31.128019 -29.260029 42.739359 1.530823 2.324872 0.045129 -0.025519 -547431.000000 0 0 1
-1.996962 -30.090289 -28.755259 41.668673 1.504528 2.332414 0.067585 -0.022947 -273633.000000 0 0 1
-2.681662 -30.349019 -27.384829 40.965634 1.482664 2.302964 0.061113 -0.022636 -148119.000000 0 0 1
-1.780062 -30.364079 -26.293589 40.205705 1.512239 2.283625 0.061101 -0.012787 -10828.500000 0 0 1
-2.470262 -30.509329 -25.090119 39.578219 1.490005 2.257430 0.069594 -0.018373 111136.000000 0 0 1
-1.416562 -30.484129 -23.971699 38.806328 1.524361 2.236645 0.052158 -0.013877 315128.000000 0 0 1
-1.917162 -30.356519 -22.663799 37.932065 1.507725 2.211156 0.064851 -0.021081 -433048.000000 0 0 1
-1.014362 -30.915779 -21.760099 37.819522 1.537998 2.183849 0.056715 -0.018841 46062.000000 0 0 1
-1.441562 -30.619699 -20.272599 36.750814 1.523751 2.155105 0.046658 -0.006531 252521.000000 0 0 1
-1.421462 -29.287969 -19.776499 35.368285 1.522300 2.164168 0.037465 -0.015817 772657.000000 0 0 1
-0.093562 -28.918819 -19.343799 34.792088 1.567561 2.160341 0.045301 -0.026955 767020.000000 0 0 1
-0.061062 -27.514349 -18.828299 33.339886 1.568577 2.170912 0.050199 -0.027519 -305676.000000 0 0 1
-0.823962 -27.466939 -17.662999 32.666392 1.540807 2.142076 0.049694 -0.034891 -25643.300000 0 0 1
-0.905462 -26.173579 -17.149699 31.304764 1.536216 2.150565 0.063653 -0.032460 -127279.000000 0 0 1
-1.732262 -26.148229 -15.863099 30.632801 1.504645 2.115128 0.062318 -0.034291 -391914.000000 0 0 1
-1.990662 -24.877019 -15.349999 29.299339 1.490946 2.122223 0.053264 -0.026805 261545.000000 0 0 1
-2.770662 -24.914319 -14.161199 28.791308 1.460044 2.085017 0.054340 -0.027349 -56142.100000 0 0 1
-2.575862 -23.690819 -13.217199 27.250400 1.462493 2.077191 0.047628 -0.021655 3187.470000 0 0 1
-1.332162 -23.691919 -12.544699 26.841221 1.514627 2.057106 0.063510 -0.030337 -173812.000000 0 0 1
-1.275462 -22.744619 -11.515499 25.525501 1.514777 2.038835 0.066612 -0.025257 211799.000000 0 0 1
0.150238 -22.605019 -10.921299 25.105462 -1.564150 2.020853 0.079157 -0.029306 284312.000000 0 0 1
0.371338 -21.305019 -10.328999 23.679737 -1.553369 2.022163 0.059916 -0.020743 402929.000000 0 1 0
1.675338 -21.313419 -9.744499 23.495188 -1.492353 1.998458 0.053572 -0.023258 623891.000000 0 1 0
2.289538 -19.962719 -9.346999 22.161194 -1.456605 2.006197 0.043603 -0.017220 -1544130.000000 0 1 0
2.596638 -19.248919 -10.563699 22.110069 -1.436708 2.068920 0.040113 -0.006925 -243835.000000 0 1 0
3.496638 -18.176919 -10.516699 21.289148 -1.380751 2.087473 0.027560 -0.005963 98036.700000 0 1 0
4.906338 -18.561619 -10.006399 21.650263 -1.312380 2.051252 0.042422 -0.022158 -930603.000000 0 1 0
4.990938 -19.072719 -8.675999 21.539522 -1.314856 1.985364 0.044218 -0.021536 -242036.000000 0 1 0
6.116038 -19.949819 -8.468699 22.519326 -1.273322 1.956341 0.043129 -0.014095 167438.000000 0 1 0
5.949338 -21.144119 -7.525099 23.218430 -1.296517 1.900857 0.041924 -0.010176 -548822.000000 0 1 0
4.942438 -22.000919 -7.988299 23.922396 -1.349818 1.911261 0.067603 -0.026952 23275.600000 0 1 0
4.773538 -23.098519 -7.115499 24.636529 -1.367005 1.863789 0.082457 -0.019655 -385575.000000 0 1 0
3.840038 -24.118419 -7.721499 25.613777 -1.412906 1.877019 0.084535 -0.023785 -363695.000000 0 0 1
4.392938 -24.931819 -8.736899 26.781092 -1.396388 1.903113 0.090828 -0.026957 -63637.300000 0 0 1
3.371438 -25.591259 -9.429899 27.480941 -1.439809 1.921058 0.088222 -0.032944 54555.600000 0 0 1
3.902938 -26.695009 -10.393799 28.911719 -1.425620 1.938530 0.082948 -0.036915 274560.000000 0 0 1
4.676438 -27.708319 -9.734799 29.738633 -1.403598 1.904289 0.103840 -0.043924 310019.000000 0 0 1
5.394638 -28.457849 -10.722999 30.885822 -1.383453 1.925361 0.121248 -0.034151 377729.000000 0 0 1
4.887738 -29.931629 -10.679699 32.153512 -1.408928 1.909375 0.110065 -0.044144 1104230.000000 0 0 1
3.512038 -30.110649 -11.088899 32.279239 -1.454683 1.921470 0.117835 -0.041385 869227.000000 0 0 1
3.227938 -31.491609 -11.113399 33.550688 -1.468652 1.908416 0.107708 -0.035689 -918577.000000 0 0 1
1.778238 -31.894089 -11.253399 33.867891 -1.515100 1.909509 0.088713 -0.042340 -763931.000000 0 0 1
1.205138 -31.699169 -12.531999 34.107780 -1.532797 1.947034 0.097649 -0.052141 258383.000000 0 0 1
1.206938 -32.832169 -13.313999 35.449550 -1.534052 1.955815 0.093479 -0.041709 -400955.000000 0 0 1
0.747838 -32.588679 -14.756799 35.781900 -1.547853 1.995894 0.094834 -0.040020 1008990.000000 0 0 1
-0.560462 -31.978539 -14.880399 35.275591 1.553272 2.006262 0.088561 -0.038065 900507.000000 0 0 1
-0.785762 -31.774159 -16.294399 35.717251 1.546072 2.044523 0.058411 -0.033789 166264.000000 0 0 1
-2.134462 -31.071369 -16.588999 35.287119 1.502209 2.060217 0.060438 -0.021987 49451.200000 0 0 1
-3.279662 -31.804159 -16.213099 35.848644 1.468039 2.040100 0.065389 -0.028203 -1234030.000000 0 0 1
-4.306762 -31.389509 -17.006999 35.959526 1.434444 2.063430 0.066770 -0.020430 -1181010.000000 0 0 1
-5.650762 -31.360699 -16.278299 35.782783 1.392523 2.043079 0.068982 -0.024125 -674611.000000 0 0 1
-5.712362 -30.228099 -15.446599 34.423342 1.384024 2.036134 0.046151 -0.020857 -73479.000000 0 0 1
-7.019962 -29.908869 -15.046299 34.208353 1.340258 2.026220 0.058088 -0.026355 197600.000000 0 0 1
-7.805962 -30.753429 -13.970499 34.668159 1.322222 1.985565 0.048277 -0.029459 219997.000000 0 0 1
-8.122962 -32.067349 -14.367299 36.065450 1.322705 1.980533 0.057189 -0.030412 -62050.200000 0 0 1
-9.134462 -32.629679 -13.552399 36.493861 1.297840 1.951271 0.047984 -0.027547 420405.000000 0 0 1
-9.575562 33.967431 -13.913399 37.934950 -1.296023 1.946331 0.087060 -0.037743 -863235.000000 0 0 1
-8.531262 33.118019 -13.739999 36.856114 -1.318676 1.952822 0.084768 -0.035205 -705982.000000 0 0 1
-8.922462 31.841472 -14.211399 35.992410 -1.297588 1.976695 0.110824 -0.043726 -62795.100000 0 0 1
-8.017362 -22.020019 -3.084899 23.636326 1.221621 1.701685 0.071767 -0.021345 145893.000000 0 1 0
-7.433562 -21.025519 -3.941399 22.646521 1.230963 1.745727 0.051262 -0.020281 220615.000000 0 1 0
-6.420762 -21.540019 -4.799999 22.983442 1.281097 1.781191 0.043549 -0.002432 488922.000000 0 1 0
-6.071162 -20.343419 -5.683799 21.977699 1.280777 1.832386 0.036637 -0.016329 167112.000000 0 1 0
-7.192662 -20.170819 -6.514299 22.383753 1.228265 1.866098 0.056332 -0.026903 -129328.000000 0 1 0
-6.935662 -19.286619 -7.563799 21.846925 1.225586 1.924333 0.028305 -0.020135 -77997.300000 0 1 0
-7.879662 -19.425019 -8.780899 22.727178 1.185433 1.967479 0.041411 -0.030708 274474.000000 0 1 0
-7.514262 -20.510919 -9.551499 23.840996 1.219627 1.983004 0.056098 -0.015169 -408649.000000 0 1 0
-8.381462 -20.559019 -10.636199 24.618101 1.183688 2.017559 0.064760 -0.005794 -268294.000000 0 1 0
-7.806162 -21.237119 -11.875999 25.553684 1.218554 2.054145 0.048791 -0.013403 -697559.000000 0 0 1
-6.983762 -20.453519 -12.747799 25.092345 1.241763 2.103699 0.053742 -0.008757 -70227.300000 0 0 1
-6.767462 -21.255419 -13.895799 26.280879 1.262557 2.127914 0.032890 -0.012701 -832089.000000 0 0 1
-5.610462 -20.812519 -14.740299 26.113496 1.307484 2.170588 0.024445 -0.004986 -1038560.000000 0 0 1
-4.319162 -20.970219 -14.165699 25.672403 1.367670 2.155302 0.023212 -0.006006 621646.000000 0 0 1
-3.239462 -20.523719 -14.983399 25.616780 1.414248 2.195560 0.038416 -0.001466 395203.000000 0 0 1
-3.132162 -19.004219 -15.215099 24.545265 1.407451 2.239385 0.044975 0.003632 -1214320.000000 0 1 0
-4.235362 -18.436719 -15.860499 24.686157 1.344990 2.268534 0.041397 -0.001589 -369016.000000 0 1 0
-4.171662 -18.484519 -17.279999 25.645245 1.348831 2.310148 0.055930 -0.013041 -736920.000000 0 0 1
-5.490062 -18.138419 -17.990199 26.130256 1.276886 2.330190 0.046426 -0.002235 -144050.000000 0 0 1
-6.388762 -19.222219 -17.791899 26.960372 1.249919 2.291519 0.020063 0.005738 -984954.000000 0 0 1
-7.635662 -18.876619 -18.297399 27.375626 1.186413 2.302829 0.005640 0.000606 -750018.000000 0 0 1
-8.702162 -19.833619 -17.748799 28.002142 1.157330 2.257301 0.047880 -0.004775 -349023.000000 0 0 1
-8.454262 -21.210219 -18.036399 29.097416 1.191503 2.239364 0.043296 -0.000000 347749.000000 0 0 1
-9.424162 -22.113519 -17.494399 29.730062 1.167933 2.199926 0.074997 -0.012765 335099.000000 0 0 1
-9.063262 -23.583719 -17.876099 30.949789 1.203896 2.186562 0.076878 -0.025701 -472650.000000 0 0 1
-9.190962 -23.668919 -19.264099 31.871571 1.200405 2.219845 0.074568 -0.034481 374557.000000 0 0 1
-8.375362 -24.638719 -19.919699 32.772055 1.243123 2.224116 0.093240 -0.050131 186724.000000 0 0 1
-6.838862 -24.540519 -19.878199 32.313309 1.299015 2.233399 0.082716 -0.039528 -356763.000000 0 0 1
-6.150262 -23.531519 -20.651499 31.906779 1.315152 2.274761 0.101988 -0.040187 455550.000000 0 0 1
-6.054662 -22.246719 -19.939599 30.482176 1.305073 2.283841 0.076346 -0.038206 -112149.000000 0 0 1
-5.140862 -22.257819 -18.644599 29.486608 1.343808 2.255324 0.091753 -0.025439 -217757.000000 0 0 1
-3.798062 -22.441019 -18.994099 29.644568 1.403139 2.266242 0.089448 -0.038542 -452464.000000 0 0 1
-2.934462 -22.437119 -17.879599 28.839477 1.440748 2.239500 0.045509 -0.034171 709236.000000 0 0 1
-1.503862 -22.957419 -18.250499 29.366399 1.505383 2.241421 0.072187 -0.030057 237452.000000 0 0 1
-0.647462 -22.057119 -18.836399 29.012853 1.541451 2.277385 0.089942 -0.030136 -222039.000000 0 0 1
0.619538 -22.606119 -19.177199 29.651061 -1.543397 2.274128 0.070451 -0.027216 712709.000000 0 0 1
1.544138 -21.620819 -19.944499 29.455513 -1.499498 2.314619 0.070554 -0.018074 129115.000000 0 0 1
1.189338 -21.571719 -21.284999 30.328283 -1.515718 2.348746 0.075790 -0.026071 -468016.000000 0 0 1
2.229838 -21.085119 -22.090299 30.619205 -1.465434 2.376694 0.063357 -0.023548 -471044.000000 0 0 1
1.957038 -21.032019 -23.596199 31.669487 -1.478013 2.411446 0.080084 -0.032747 555598.000000 0 0 1
0.982738 -20.095219 -24.174599 31.451468 -1.521931 2.447496 0.046885 -0.017752 949350.000000 0 0 1
-0.377562 -20.152219 -23.766999 31.162874 1.552063 2.438228 0.058585 -0.028171 -32628.600000 0 0 1
-1.213562 -19.208719 -24.631899 31.259848 1.507702 2.478305 0.069600 -0.022318 -399583.000000 0 0 1
-0.873762 -17.844519 -24.430099 30.265823 1.521870 2.510163 0.038920 -0.022035 -171492.000000 0 0 1
-1.584662 -16.871819 -25.147789 30.324590 1.477147 2.548627 0.059390 -0.030455 -330499.000000 0 0 1
-1.140562 -15.440819 -24.860199 29.287357 1.497064 2.584578 0.048146 -0.018300 181443.000000 0 0 1
0.138738 -15.136619 -25.386489 29.556900 -1.561631 2.603919 0.047956 -0.025099 58764.500000 0 0 1
0.714638 -13.882419 -24.945899 28.557489 -1.519364 2.633210 0.050346 -0.023964 447249.000000 0 0 1
0.231538 -12.652119 -25.734359 28.677290 -1.552498 2.684587 0.053079 -0.014385 87875.600000 0 0 1
0.847238 -11.462919 -25.254109 27.746826 -1.497019 2.714472 0.053939 -0.013511 50656.900000 0 0 1
0.624938 -10.488619 -26.181919 28.211604 -1.511284 2.759952 0.048566 -0.015236 -60403.600000 0 0 1
1.375338 -9.074919 -25.988049 27.561285 -1.420387 2.802085 0.051273 -0.017310 349090.000000 0 0 1
2.761638 -9.010419 -26.204409 27.847538 -1.273393 2.796356 0.081878 -0.020650 -335408.000000 0 0 1
3.148638 -9.053619 -27.530679 29.151676 -1.236104 2.806544 0.083047 -0.020348 -634577.000000 0 0 1
4.588838 -8.655619 -27.852109 29.524857 -1.083315 2.803366 0.104417 -0.030869 -824410.000000 0 0 1
4.799238 -7.272319 -28.069079 29.390347 -0.987471 2.840605 0.102707 -0.026482 119479.000000 0 0 1
6.028538 -6.932619 -28.669499 30.105559 -0.855038 2.831480 0.099553 -0.027076 -715687.000000 0 0 1
7.278438 -6.917919 -27.799609 29.557597 -0.760008 2.794964 0.104932 -0.027547 -500749.000000 0 0 1
7.812938 -8.181019 -27.310339 29.560543 -0.808408 2.748890 0.079117 -0.019438 901366.000000 0 0 1
8.665338 -8.877219 -28.250499 30.854235 -0.797476 2.727823 0.086522 -0.034546 -55449.300000 0 0 1
9.088138 -10.242119 -27.696289 30.896273 -0.845026 2.682440 0.066427 -0.022112 351259.000000 0 0 1
8.020038 -11.206119 -27.601489 30.850289 -0.949622 2.678536 0.082397 -0.027704 612579.000000 0 0 1
8.320338 -12.388219 -26.841419 30.710874 -0.979363 2.634178 0.081266 -0.026899 -45154.600000 0 0 1
9.312038 -13.434919 -27.390349 31.897372 -0.964701 2.603529 0.081000 -0.037750 126721.000000 0 0 1
8.668738 -14.143719 -28.437379 32.922277 -1.020943 2.613507 0.098061 -0.045341 364052.000000 0 0 1
9.528038 -15.140719 -28.987369 34.063066 -1.009112 2.588666 0.091870 -0.052147 478736.000000 0 0 1
8.845738 -15.829319 -30.228399 35.250114 -1.061207 2.601266 0.090229 -0.051138 249368.000000 0 0 1
8.714738 -14.920519 -31.328659 35.777834 -1.042167 2.637565 0.092925 -0.049027 543030.000000 0 0 1
7.843338 -15.559719 -32.279809 36.682542 -1.103890 2.646611 0.109847 -0.051845 -38019.300000 0 0 1
6.716238 -14.610919 -32.752249 36.486938 -1.139928 2.685189 0.125385 -0.048617 20837.600000 0 0 1
7.134538 -13.555219 -33.614799 36.940497 -1.086306 2.714012 0.124965 -0.050991 216357.000000 0 0 1
6.046638 -12.692119 -33.884399 36.685205 -1.126199 2.748302 0.103783 -0.048452 117383.000000 0 0 1
6.446138 -11.556119 33.058686 35.608613 -1.061975 0.380739 0.130036 -0.045145 -170288.000000 0 0 1
6.622638 -12.009119 31.742205 34.578112 -1.066827 0.407825 0.133777 -0.041864 272571.000000 0 0 1
7.196838 -10.932119 31.006365 33.655614 -0.988594 0.399428 0.125191 -0.040566 -223936.000000 0 0 1
7.719138 -11.347019 29.659685 32.680833 -0.973429 0.433369 0.114494 -0.035937 629420.000000 0 0 1
6.676438 -11.680719 28.696665 31.694047 -1.051538 0.438410 0.112314 -0.035948 835073.000000 0 0 1
7.205838 -11.774019 27.389865 30.671751 -1.021591 0.466829 0.097063 -0.035050 296437.000000 0 0 1
6.310238 -12.512719 26.317325 29.815916 -1.103710 0.489304 0.088849 -0.042756 235069.000000 0 0 1
6.364138 -13.954019 26.549085 30.660574 -1.142898 0.523843 0.087620 -0.037034 -100366.000000 0 0 1
6.149438 -14.651619 25.343545 29.912887 -1.173414 0.560019 0.077008 -0.038587 497224.000000 0 0 1
4.672138 -15.121019 25.163905 29.727028 -1.271119 0.561421 0.085927 -0.047131 -207991.000000 0 0 1
3.772538 -14.118919 25.030365 28.984394 -1.309699 0.528468 0.069721 -0.048347 -872464.000000 0 0 1
2.471338 -14.625719 24.794885 28.893001 -1.403405 0.539117 0.063529 -0.039769 976455.000000 0 0 1
1.375938 -13.476119 24.707065 28.176906 -1.469047 0.501515 0.073412 -0.033712 40678.000000 0 0 1
1.596238 -12.599119 23.626225 26.823204 -1.444773 0.493220 0.053267 -0.024375 30104.200000 0 0 1
0.607938 -11.601419 23.404755 26.129391 -1.518442 0.460737 0.058767 -0.011241 648780.000000 0 0 1
-0.836962 -12.054519 23.056755 26.031248 1.501476 0.482724 0.066792 -0.007531 -275084.000000 0 0 1
-0.973162 -12.634519 21.770245 25.189714 1.493924 0.527136 0.066695 -0.016166 340850.000000 0 0 1
-2.152762 -13.441419 21.636845 25.562848 1.411986 0.561575 0.070664 -0.018477 427033.000000 0 0 1
-2.406262 -13.825419 20.165645 24.567978 1.398476 0.607968 0.073097 -0.029628 -347629.000000 0 1 0
-1.503262 -14.614519 19.456545 24.380343 1.468296 0.646757 0.085566 -0.044294 -530575.000000 0 1 0
-2.031462 -15.087219 18.189645 23.719490 1.436953 0.696854 0.076952 -0.047903 371322.000000 0 1 0
-3.093262 -16.203019 18.250145 24.600282 1.382160 0.734945 0.061541 -0.047660 -134006.000000 0 1 0
-2.637562 -17.404319 17.670945 24.942521 1.420394 0.783473 0.051910 -0.038967 1161.090000 0 1 0
-3.622562 -18.446619 17.626745 25.770193 1.376883 0.817568 0.052057 -0.036635 163970.000000 0 0 1
-3.200162 -19.783819 16.961945 26.255440 1.410429 0.868417 0.050270 -0.032640 19759.400000 0 0 1
-2.218162 -20.432819 17.732345 27.145099 1.462661 0.858937 0.065361 -0.040034 -189340.000000 0 0 1
-2.221762 -21.790119 17.334745 27.932757 1.469186 0.901303 0.067230 -0.052570 197663.000000 0 0 1
-1.151662 -22.571519 18.161545 28.993818 1.519818 0.893878 0.087081 -0.040589 1287930.000000 0 0 1
0.179638 -22.336919 17.666645 28.479476 -1.562754 0.901634 0.100785 -0.048486 633122.000000 0 0 1
1.135038 -23.286619 18.186045 29.568347 -1.522093 0.908346 0.124868 -0.046171 366861.000000 0 0 1
2.380038 -23.266719 17.281345 29.080056 -1.468857 0.934441 0.127355 -0.047105 -444902.000000 0 0 1
3.036238 -22.059819 17.445645 28.287893 -1.434019 0.906230 0.120475 -0.033732 -662327.000000 0 0 1
4.133638 -21.927019 16.576845 27.796995 -1.384465 0.931845 0.101835 -0.022253 -188754.000000 0 0 1
4.784538 -20.572919 16.797445 26.986866 -1.342293 0.898952 0.089168 -0.023417 -1375220.000000 0 0 1
5.559938 -20.609319 17.953745 27.892542 -1.307292 0.871505 0.092527 -0.016041 -688871.000000 0 0 1
6.203838 -19.456219 18.300945 27.421828 -1.262127 0.840103 0.092005 -0.016756 369194.000000 0 0 1
7.335538 -18.993319 17.330445 26.737625 -1.202228 0.865622 0.093265 -0.019813 -676339.000000 0 0 1
6.860338 -18.302119 16.237345 25.410296 -1.212167 0.877590 0.078087 -0.022806 232541.000000 0 0 1
7.947738 -17.642419 15.598945 24.854548 -1.147535 0.892318 0.088169 -0.023081 434423.000000 0 1 0
7.423638 -16.537719 14.616345 23.286135 -1.148865 0.892221 0.060501 -0.017925 108385.000000 0 1 0
6.652338 -17.108719 13.590545 22.839982 -1.199958 0.933490 0.057651 -0.027598 151921.000000 0 1 0
6.221138 -16.155519 12.615145 21.420673 -1.203219 0.941070 0.048787 -0.029699 -33996.000000 0 1 0
6.687138 -16.572719 11.238045 21.110814 -1.187274 1.009439 0.060065 -0.019996 -385267.000000 0 1 0
8.004738 -16.136819 11.055945 21.135436 -1.110310 1.020312 0.052073 -0.018102 -358532.000000 0 1 0
8.504038 -16.440719 9.725345 20.909286 -1.093441 1.087025 0.053632 -0.019561 -561148.000000 0 1 0
9.967438 -16.091219 9.628245 21.236295 -1.016210 1.100235 0.043498 -0.010820 -705932.000000 0 1 0
10.587338 -16.543419 8.437045 21.376626 -1.001502 1.165071 0.043582 -0.008881 -133489.000000 0 1 0
11.886038 -15.969619 8.333145 21.581194 -0.930959 1.174364 0.049121 -0.012426 227534.000000 0 1 0
12.825738 -16.888619 7.543045 22.508277 -0.921287 1.229060 0.054898 -0.015768 -201163.000000 0 1 0
13.088138 -18.169719 8.149445 23.829635 -0.946558 1.221765 0.055096 -0.017635 110039.000000 0 1 0
13.858038 -18.965619 7.261745 24.586029 -0.939767 1.270963 0.050730 -0.014420 47765.200000 0 1 0
14.442238 -20.189019 7.961045 26.068236 -0.949842 1.260446 0.064122 -0.014623 -723226.000000 0 0 1
13.495838 -21.141019 8.290645 26.416190 -1.002639 1.251554 0.070366 -0.019885 -391754.000000 0 0 1
14.020438 -22.191419 9.095145 27.780450 -1.007325 1.237252 0.060000 -0.012642 232682.000000 0 0 1
12.923738 -23.024819 9.838545 28.177336 -1.059322 1.214116 0.069710 -0.022240 315899.000000 0 0 1
12.538238 -22.315219 11.011645 27.864542 -1.058886 1.164527 0.067429 -0.031624 92823.200000 0 0 1
11.571238 -23.027019 11.826245 28.354844 -1.105145 1.140566 0.097862 -0.032618 152303.000000 0 0 1
11.920638 -24.427519 12.419945 29.884115 -1.116794 1.142190 0.087023 -0.029084 -284406.000000 0 0 1
12.830838 -24.342019 13.494645 30.647508 -1.085699 1.114844 0.065654 -0.026848 -159067.000000 0 0 1
13.064438 -25.662569 13.899045 31.975466 -1.099907 1.121115 0.054439 -0.028134 -183356.000000 0 0 1
14.285938 -25.814119 14.819345 33.016204 -1.065335 1.105318 0.044952 -0.019996 -257829.000000 0 0 1
14.195038 -25.199979 16.079345 33.092044 -1.057803 1.063406 0.047553 -0.017933 509909.000000 0 0 1
15.260438 -25.639299 16.936845 34.309056 -1.033916 1.054508 0.054673 -0.012630 273578.000000 0 0 1
15.131438 -25.185059 18.408145 34.671420 -1.029781 1.011097 0.061547 -0.013233 -138286.000000 0 0 1
15.453938 -23.818619 18.705645 34.000764 -0.995253 0.988248 0.044051 -0.015743 -120480.000000 0 0 1
16.687338 -23.629119 19.347245 34.801126 -0.955909 0.981306 0.052670 -0.018680 89219.300000 0 0 1
17.187238 -22.115819 19.481945 34.118276 -0.910146 0.963058 0.055752 -0.023544 77579.300000 0 0 1
17.450538 -21.481719 18.306045 33.182779 -0.888574 0.986427 0.052626 -0.016955 -15191.300000 0 0 1
16.307338 -20.903119 17.725545 31.891450 -0.908284 0.981461 0.061211 -0.006776 -521999.000000 0 0 1
16.652138 -19.850719 16.628345 30.787117 -0.872800 1.000232 0.042203 -0.006552 111057.000000 0 0 1
17.366138 -18.669919 16.965145 30.626210 -0.821562 0.983705 0.049181 -0.007220 154457.000000 0 0 1
18.767638 -18.786419 16.808945 31.427605 -0.785898 1.006470 0.064681 -0.011248 141324.000000 0 0 1
19.496638 -17.441719 17.165845 31.288954 -0.729824 0.990080 0.078578 -0.010385 -55325.400000 0 0 1
19.751138 -17.232219 18.575445 32.126375 -0.717394 0.954276 0.076304 -0.007753 83069.500000 0 0 1
20.158538 -15.898419 18.846445 31.848310 -0.667794 0.937560 0.088720 -0.013734 -98614.600000 0 0 1
20.615738 -15.790519 20.306745 32.965331 -0.653628 0.907138 0.079621 -0.007695 -299511.000000 0 0 1
21.770538 -16.538619 20.557045 34.206349 -0.649667 0.926080 0.074717 -0.007074 -441443.000000 0 0 1
22.026838 -16.489519 21.965245 35.207354 -0.642611 0.897096 0.071351 -0.001275 126864.000000 0 0 1
34.943882 -1.601819 -7.853399 35.851313 -0.045808 1.791642 0.172507 -0.026052 82070.700000 0 0 1
36.248422 -1.210319 -8.248399 37.194746 -0.033377 1.794418 0.178841 -0.028632 -483526.000000 0 0 1
37.094212 -2.217419 -7.897099 37.990285 -0.059707 1.780195 0.178614 -0.039820 -654409.000000 0 0 1
-35.778052 -1.963619 -8.593099 36.847879 0.054828 1.806168 0.169028 -0.038295 58678.800000 0 0 1
-34.861773 -2.943019 -8.191099 35.931862 0.084220 1.800780 0.179005 -0.040777 653100.000000 0 0 1
-33.535502 -2.659319 -8.669199 34.739846 0.079133 1.823008 0.202403 -0.039599 1394280.000000 0 0 1
-32.402902 -3.710419 -8.286199 33.650801 0.114012 1.819596 0.195169 -0.032645 461435.000000 0 0 1
-32.004522 -3.550719 -6.971499 32.946910 0.110492 1.784006 0.203254 -0.038236 -185078.000000 0 0 1
-30.899322 -4.354719 -6.724599 31.921027 0.140010 1.783050 0.192461 -0.036004 -237919.000000 0 0 1
-30.350652 -4.335219 -5.226399 31.100988 0.141878 1.739644 0.211555 -0.047163 -102582.000000 0 0 1
-29.820102 -3.104219 -4.875899 30.375139 0.103725 1.732017 0.211516 -0.042970 385472.000000 0 0 1
-29.967782 -2.948519 -3.464699 30.311151 0.098074 1.685351 0.211933 -0.046354 -124291.000000 0 0 1
-29.565082 -1.503419 -3.059799 29.760993 0.050807 1.673791 0.226043 -0.041025 301516.000000 0 0 1
-28.182622 -1.179519 -2.949899 28.361124 0.041828 1.674997 0.201560 -0.030271 685741.000000 0 0 1
-27.867962 0.161181 -2.626899 27.991961 -0.005784 1.664779 0.216376 -0.038539 144011.000000 0 0 1
-26.356612 0.308081 -2.311299 26.459555 -0.011688 1.658260 0.190598 -0.023425 159556.000000 0 0 1
-26.026182 -0.226319 -1.027099 26.047424 0.008696 1.610238 0.187081 -0.026492 370923.000000 0 0 1
-24.617462 -0.257019 -0.897999 24.635176 0.010440 1.607256 0.156195 -0.023686 269545.000000 0 1 0
-24.040062 -1.137719 0.260901 24.068383 0.047291 1.559956 0.137211 -0.027393 63142.600000 0 1 0
-24.274862 -2.528819 0.138801 24.406621 0.103800 1.565109 0.148969 -0.028523 773542.000000 0 1 0
-23.411662 -3.309719 0.999701 23.665578 0.140440 1.528541 0.131841 -0.027262 343299.000000 0 1 0
-23.759762 -4.826019 0.938801 24.263102 0.200391 1.532094 0.138000 -0.022967 -130.783000 0 1 0
-24.917562 -5.306319 1.600301 25.526514 0.209821 1.508063 0.155485 -0.025425 344666.000000 0 0 1
-24.993562 -6.681419 1.582801 25.919583 0.261217 1.509692 0.138503 -0.020035 189384.000000 0 0 1
-26.299862 -7.214619 2.243401 27.363595 0.267735 1.488719 0.145190 -0.018487 135791.000000 0 0 1
-26.390352 -7.141519 3.664701 27.584090 0.264281 1.437547 0.136051 -0.021528 610037.000000 0 0 1
-27.679742 -7.536919 4.147701 28.985802 0.265845 1.427209 0.125010 -0.006852 495177.000000 0 0 1
-27.748912 -7.599919 5.714401 29.332836 0.267326 1.374730 0.110266 -0.013077 47954.300000 0 0 1
-27.176552 -8.750919 6.357501 29.249981 0.311518 1.351697 0.117253 -0.004814 168219.000000 0 0 1
-27.479232 -8.870619 7.776801 29.904426 0.312251 1.307717 0.081054 -0.012799 -414335.000000 0 0 1
-26.771132 -7.818219 8.629601 29.193973 0.284137 1.270718 0.102703 -0.021707 364986.000000 0 0 1
-25.359442 -7.848819 8.368101 27.833979 0.300152 1.265429 0.132564 -0.021591 531279.000000 0 0 1
-24.852062 -6.572819 8.695301 27.137340 0.258558 1.244625 0.120982 -0.030442 -61792.800000 0 0 1
-23.458962 -6.254019 8.105801 25.595696 0.260535 1.248563 0.171203 -0.036767 442355.000000 0 0 1
-22.326362 -6.740819 8.817301 24.932908 0.293219 1.209335 0.163239 -0.040769 1133150.000000 0 1 0
-21.137962 -6.649919 7.974201 23.550430 0.304793 1.225367 0.152277 -0.030284 1351420.000000 0 1 0
-19.827962 -6.904319 8.787301 22.760368 0.335080 1.174419 0.165689 -0.032408 271681.000000 0 1 0
-19.567062 -5.822419 9.670101 22.589408 0.289219 1.128428 0.139020 -0.032480 -138037.000000 0 1 0
-18.459962 -6.061919 10.482201 22.076992 0.317288 1.076057 0.132672 -0.044298 -355682.000000 0 1 0
-18.163762 -4.916919 11.513401 22.060298 0.264364 1.021713 0.125760 -0.030324 34291.500000 0 1 0
-19.239262 -4.857019 12.417901 23.408206 0.247286 1.011614 0.126239 -0.032116 170851.000000 0 1 0
-19.369762 -3.615519 13.115001 23.669873 0.184534 0.983539 0.118924 -0.026056 -215816.000000 0 1 0
-20.573962 -3.487019 14.047101 25.154885 0.167892 0.978311 0.117094 -0.030861 -366827.000000 0 0 1
-20.468662 -4.332619 15.156801 25.835370 0.208592 0.943857 0.110262 -0.030094 -427176.000000 0 0 1
-21.550562 -4.254619 16.007801 27.180475 0.194918 0.941044 0.080509 -0.020055 -629840.000000 0 0 1
-21.349962 -5.184619 17.240601 27.927396 0.238228 0.905444 0.086505 -0.015524 183891.000000 0 0 1
-22.342062 -4.952019 18.223101 29.253575 0.218119 0.898306 0.072589 -0.014842 554544.000000 0 0 1
-22.070162 -5.824419 19.266401 29.869886 0.258022 0.869759 0.085628 -0.013907 45213.600000 0 0 1
-22.787062 -5.390019 20.583601 31.176708 0.232269 0.849680 0.086351 -0.014223 -121327.000000 0 0 1
-22.426462 -4.089219 20.942401 30.955647 0.180358 0.827757 0.062447 -0.007369 177613.000000 0 0 1
-22.822362 -3.770819 22.229701 32.081753 0.163745 0.805282 0.066027 -0.015031 -287674.000000 0 0 1
-22.852162 -2.237719 22.373401 32.059285 0.097610 0.798369 0.074045 -0.011998 88404.400000 0 0 1
-23.923562 -1.659519 21.650701 32.308570 0.069257 0.836422 0.080408 -0.015023 -60973.500000 0 0 1
-23.855562 -0.203019 21.669601 32.228879 0.008510 0.833396 0.081177 -0.018580 -97061.500000 0 0 1
-25.075542 0.598681 21.154501 32.812408 -0.023871 0.870152 0.095235 -0.021658 269574.000000 0 0 1
-26.194832 0.430881 22.003901 34.212959 -0.016448 0.872198 0.098586 -0.024223 -364476.000000 0 0 1
-27.294862 1.227881 21.671501 34.873645 -0.044955 0.900231 0.096008 -0.026630 -739465.000000 0 0 1
-28.402022 1.132081 22.676501 36.361795 -0.039838 0.897412 0.098337 -0.025788 -614597.000000 0 0 1
-28.170422 1.966581 23.756201 36.902537 -0.069697 0.871401 0.104807 -0.026954 98629.100000 0 0 1
-29.176942 1.723281 24.712601 38.275009 -0.058995 0.868910 0.098381 -0.021867 -130218.000000 0 0 1
-29.034232 2.580181 25.981001 39.046848 -0.088634 0.842793 0.120934 -0.020319 -239077.000000 0 0 1
-27.983142 2.289681 26.854701 38.851948 -0.081642 0.807640 0.106872 -0.020992 -105905.000000 0 0 1
-27.994862 3.197381 27.885501 39.642612 -0.113720 0.790595 0.094473 -0.022227 -69846.700000 0 0 1
-26.933652 3.018581 28.999201 39.692406 -0.111609 0.751599 0.107763 -0.022488 48835.100000 0 0 1
-27.185722 2.093981 30.019301 40.553750 -0.076873 0.737377 0.094773 -0.023210 1101570.000000 0 0 1
-25.922092 1.877881 30.695001 40.220199 -0.072317 0.702586 0.091627 -0.032282 1161040.000000 0 0 1
-25.871022 0.711581 31.674101 40.903115 -0.027498 0.685079 0.064590 -0.028677 58354.600000 0 0 1
-26.131672 -0.528019 31.020701 40.563863 0.020203 0.700163 0.048350 -0.025952 -90943.700000 0 0 1
-26.441392 -1.528519 31.927501 41.483116 0.057744 0.692503 0.052193 -0.023620 -655663.000000 0 0 1
-27.097212 -2.748119 31.280901 41.476569 0.101071 0.716388 0.052825 -0.016680 549182.000000 0 0 1
-28.408632 -2.545019 30.734401 41.930071 0.089348 0.748086 0.054426 -0.010994 547076.000000 0 0 1
-28.545442 -1.660919 29.583201 41.143246 0.058120 0.768392 0.060952 -0.009581 -308676.000000 0 0 1
-29.966802 -1.520119 28.951101 41.695158 0.050683 0.803278 0.079009 -0.018123 444110.000000 0 0 1
-30.834522 -0.969419 29.886101 42.952143 0.031429 0.801263 0.099103 -0.018284 -163061.000000 0 0 1
-32.167622 -0.642119 29.460101 43.624142 0.019959 0.829403 0.088026 -0.020071 1012810.000000 0 0 1
-33.023282 -0.422419 30.737401 45.116554 0.012791 0.821275 0.081004 -0.023839 -14280.200000 0 0 1
-33.442202 -1.605319 31.414901 45.911370 0.047966 0.817220 0.086900 -0.027085 -69884.700000 0 0 1
-34.045732 -1.266719 32.639601 47.181140 0.037189 0.806827 0.108083 -0.026503 -11181.900000 0 0 1
-34.424740 -2.504819 33.516501 48.111253 0.072634 0.800085 0.110349 -0.021018 -107542.000000 0 0 1
-35.467575 -3.208619 32.899401 48.483138 0.090221 0.824977 0.074831 -0.022830 -412973.000000 0 0 1
-35.675090 -4.460019 33.477501 49.125827 0.124372 0.821035 0.061954 -0.014973 -101749.000000 0 0 1
-37.030902 -5.102319 33.158401 49.967999 0.136923 0.845185 0.053014 -0.011069 117346.000000 0 0 1
36.099652 -4.536719 33.818201 49.673307 -0.125017 0.821925 0.053801 -0.018971 -148222.000000 0 0 1
34.906202 -4.914419 33.190401 48.416910 -0.139870 0.815489 0.045173 -0.025713 -1340400.000000 0 0 1
33.628062 -4.597819 33.916301 47.982309 -0.135883 0.785761 0.060148 -0.029798 -1171880.000000 0 0 1
33.385212 -5.319319 -32.771944 47.083626 -0.158003 2.340659 0.055892 -0.027688 19386.500000 0 0 1
33.101452 -6.688919 -32.906644 47.151829 -0.199388 2.343239 0.058672 -0.025539 -501742.000000 0 0 1
31.750382 -7.058819 -33.562444 46.737045 -0.218764 2.371882 0.064473 -0.027686 -607157.000000 0 0 1
30.672152 -6.831919 -32.709844 45.358460 -0.219162 2.376244 0.075761 -0.031055 -655547.000000 0 0 1
29.474992 -7.315219 -33.272444 45.048231 -0.243269 2.401782 0.085648 -0.028951 149059.000000 0 0 1
28.254422 -6.855819 -32.414644 43.543355 -0.238045 2.410466 0.100915 -0.037792 627085.000000 0 0 1
27.011122 -7.471519 -32.730544 43.089591 -0.269861 2.433483 0.094436 -0.032724 832504.000000 0 0 1
25.913022 -6.932719 -31.991244 41.749096 -0.261416 2.443818 0.102816 -0.034387 836312.000000 0 0 1
24.478622 -7.362619 -32.467044 41.322150 -0.292170 2.474632 0.108310 -0.037203 695010.000000 0 0 1
24.182622 -8.782419 -32.413144 41.382871 -0.348360 2.470673 0.115149 -0.041119 213768.000000 0 0 1
23.960822 -9.220519 -31.086944 40.317950 -0.367349 2.451277 0.114652 -0.041362 -413875.000000 0 0 1
23.710722 -10.769419 -30.850844 40.372680 -0.426341 2.440521 0.104939 -0.034371 284104.000000 0 0 1
22.495322 -11.223519 -31.430844 40.248042 -0.462789 2.466947 0.111726 -0.039885 81016.700000 0 0 1
22.376622 -12.628319 -31.452044 40.613036 -0.513796 2.456613 0.099923 -0.025891 -546290.000000 0 0 1
21.145322 -13.039819 -32.290144 40.740826 -0.552591 2.485816 0.085992 -0.021427 1043290.000000 0 0 1
19.876722 -12.725419 -31.683244 39.507573 -0.569467 2.501355 0.085230 -0.022555 568530.000000 0 0 1
19.424122 -11.394819 -31.887444 39.037770 -0.530532 2.526701 0.077807 -0.030949 -863982.000000 0 0 1
18.007722 -11.155219 -31.372144 37.854041 -0.554612 2.547695 0.073247 -0.028038 274893.000000 0 0 1
16.929522 -11.634819 -32.190844 38.186754 -0.602118 2.573604 0.056801 -0.014014 93979.600000 0 0 1
15.697522 -11.261119 -31.642544 37.073921 -0.622297 2.593459 0.075016 -0.027353 778703.000000 0 0 1
14.407722 -11.723719 -32.439544 37.381172 -0.683045 2.621563 0.080934 -0.026182 -96204.500000 0 0 1
14.105922 -13.133219 -32.510644 37.794185 -0.749704 2.606463 0.091552 -0.025506 130673.000000 0 0 1
12.878922 -13.372119 -33.183644 38.024130 -0.804184 2.631501 0.092240 -0.030682 154364.000000 0 0 1
11.644022 -13.245419 -32.287944 36.790429 -0.849650 2.641667 0.098745 -0.034617 -790416.000000 0 0 1
11.413022 -11.900819 -31.948344 35.952514 -0.806318 2.665137 0.136814 -0.035636 -244316.000000 0 0 1
10.278422 -11.811519 -31.095244 34.814826 -0.854690 2.675122 0.133384 -0.044114 1113020.000000 0 0 1
9.063022 -10.966419 -31.646444 34.697235 -0.880144 2.719110 0.110724 -0.038571 521062.000000 0 0 1
9.363522 -9.600619 -31.662344 34.385338 -0.797900 2.740947 0.113786 -0.041375 -153438.000000 0 0 1
8.370622 -8.865419 -32.304244 34.528642 -0.814097 2.780689 0.104865 -0.036423 -357607.000000 0 0 1
8.717922 -7.297619 -32.523844 34.453706 -0.696947 2.805307 0.109188 -0.032315 -265774.000000 0 0 1
8.677622 -6.538019 -31.351144 33.180432 -0.645695 2.807989 0.105442 -0.034185 30285.300000 0 0 1
9.337222 -5.347519 -31.618644 33.399376 -0.520111 2.813578 0.096711 -0.037508 -245708.000000 0 0 1
9.357122 -4.443719 -30.341744 32.061251 -0.443369 2.812599 0.091196 -0.029755 1073320.000000 0 0 1
8.023622 -4.156119 -29.850844 31.188535 -0.477932 2.847652 0.090116 -0.028259 837302.000000 0 0 1
8.020622 -3.252219 -28.739544 30.014475 -0.385223 2.849082 0.098345 -0.025330 782758.000000 0 0 1
6.589122 -2.720319 -28.384344 29.265810 -0.391535 2.895537 0.081279 -0.026359 -827903.000000 0 0 1
6.011922 -1.933819 -29.377144 30.048285 -0.311212 2.929842 0.059872 -0.016465 219146.000000 0 0 1
4.805022 -1.325619 -28.925944 29.352270 -0.269186 2.970948 0.070141 -0.021871 1002980.000000 0 0 1
3.553522 -2.295319 -28.883244 29.191399 -0.573507 2.996162 0.061364 -0.020747 -594579.000000 0 0 1
3.679822 -3.271019 -27.822244 28.254520 -0.726652 2.966444 0.072000 -0.025388 -400769.000000 0 0 1
2.610122 -4.179619 -27.827744 28.260667 -1.012565 2.966332 0.075551 -0.023375 -91437.400000 0 0 1
2.703022 -5.208119 -26.750344 27.386342 -1.092063 2.925659 0.073936 -0.022552 -69659.600000 0 0 1
2.697522 -4.620719 -25.450744 26.007077 -1.042382 2.934381 0.068688 -0.028275 123017.000000 0 0 1
2.832322 -5.661619 -24.501244 25.305868 -1.106935 2.888745 0.072227 -0.034176 -62138.400000 0 0 1
2.713222 -5.082519 -23.081744 23.789924 -1.080449 2.896983 0.068776 -0.037534 443623.000000 0 1 0
3.904322 -4.412019 -22.663144 23.416399 -0.846371 2.887263 0.071736 -0.036584 452060.000000 0 1 0
3.701222 -3.668919 -21.461644 22.085338 -0.781015 2.903374 0.065150 -0.037013 -126771.000000 0 1 0
4.706622 -2.529119 -21.226044 21.888209 -0.493082 2.894992 0.070118 -0.034819 97260.400000 0 1 0
6.025622 -2.940219 -20.926444 21.974282 -0.453963 2.831533 0.068152 -0.035162 -294948.000000 0 1 0
6.811822 -1.899519 -20.451044 21.639184 -0.271948 2.808676 0.071361 -0.027577 682541.000000 0 1 0
8.321822 -2.291119 -20.248244 22.011209 -0.268659 2.738637 0.083407 -0.027942 43687.100000 0 1 0
9.071122 -2.365519 -21.452844 23.411652 -0.255094 2.729618 0.091639 -0.038492 -222363.000000 0 1 0
10.205822 -3.167219 -21.385844 23.906995 -0.300911 2.678205 0.083300 -0.039349 194373.000000 0 1 0
11.448022 -2.641019 -20.612544 23.725707 -0.226730 2.623540 0.077853 -0.034194 -679286.000000 0 1 0
11.299422 -2.740519 -19.218744 22.462135 -0.237942 2.597517 0.069600 -0.015916 241565.000000 0 1 0
12.455522 -2.365919 -18.495844 22.423957 -0.187713 2.540689 0.063633 -0.026996 -15003.700000 0 1 0
12.841222 -0.842119 -18.393744 22.448518 -0.065486 2.531115 0.066501 -0.025971 -37023.300000 0 1 0
13.301522 -0.220819 -19.553944 23.650285 -0.016599 2.544183 0.079441 -0.035418 171979.000000 0 1 0
13.292022 1.202181 -19.323344 23.484351 0.090198 2.537148 0.097538 -0.044806 -8934.530000 0 1 0
13.627022 2.192481 -20.490544 24.705568 0.159525 2.548811 0.083661 -0.040554 348186.000000 0 1 0
14.934922 2.100281 -21.055644 25.899869 0.139713 2.520019 0.082679 -0.031840 600629.000000 0 0 1
15.305322 3.284081 -21.783744 26.824794 0.211366 2.518495 0.080495 -0.032627 827724.000000 0 0 1
16.803222 3.343581 -22.276144 28.102569 0.196419 2.485977 0.051974 -0.025890 970393.000000 0 0 1
17.050622 2.569181 -23.439844 29.098981 0.149555 2.507351 0.042925 -0.027350 19344.500000 0 0 1
17.765622 1.392381 -23.078644 29.157844 0.078215 2.484068 0.040648 -0.019512 -261358.000000 0 0 1
9.426438 26.590681 2.668401 28.338003 1.230117 1.476493 0.021649 -0.011178 19748.700000 0 0 1
9.425438 27.257581 3.931701 29.107952 1.237876 1.435309 0.027159 -0.008127 -570972.000000 0 0 1
10.734838 27.397781 4.368601 29.748274 1.197367 1.423411 0.023979 -0.018590 -914608.000000 0 0 1
10.884838 28.055081 5.830101 30.652200 1.200694 1.379429 0.023515 -0.020327 -165469.000000 0 0 1
10.631838 27.132681 6.905601 29.948384 1.197339 1.338119 0.018576 -0.012122 190121.000000 0 0 1
10.339238 27.817681 8.075101 30.755983 1.214941 1.305128 0.027102 -0.008758 -429519.000000 0 0 1
10.261338 27.004581 9.347901 30.363229 1.207662 1.257844 0.030576 -0.011429 -381775.000000 0 0 1
11.411338 26.503481 9.974501 30.531030 1.164226 1.237986 0.043961 -0.010559 -228835.000000 0 0 1
12.025938 25.354781 9.387301 29.590700 1.127914 1.247980 0.049909 -0.013253 858634.000000 0 0 1
13.312838 24.862581 10.162101 29.977456 1.079187 1.224952 0.053797 -0.015369 846465.000000 0 0 1
14.370638 25.802681 10.276701 31.271459 1.062638 1.235945 0.073984 -0.022894 167038.000000 0 0 1
15.503638 25.172281 10.832601 31.485739 1.018767 1.219572 0.076168 -0.020993 -497146.000000 0 0 1
16.685638 26.089681 11.097301 32.897296 1.001803 1.226715 0.078350 -0.024176 -928077.000000 0 0 1
17.357038 26.442281 9.869101 33.133973 0.989927 1.268352 0.081974 -0.035315 225905.000000 0 0 1
18.730538 26.128081 9.845601 33.622099 0.948835 1.273610 0.095426 -0.041749 575759.000000 0 0 1
19.700438 26.967481 10.788901 35.096334 0.939876 1.258328 0.085079 -0.037398 -510449.000000 0 0 1
19.929238 28.350581 10.527301 36.218145 0.958089 1.275876 0.086360 -0.048835 1152030.000000 0 0 1
18.780038 29.193181 10.828801 36.361993 0.999144 1.268403 0.079641 -0.028224 1193210.000000 0 0 1
19.277238 30.668081 10.888601 37.824658 1.009629 1.278794 0.061219 -0.009203 -311182.000000 0 0 1
19.757138 31.349381 9.702201 38.304842 1.008449 1.314718 0.078088 -0.038612 355505.000000 0 0 1
18.791138 31.533681 8.669801 37.717971 1.033392 1.338864 0.091215 -0.043648 676198.000000 0 0 1
17.434438 32.231881 8.999401 37.733844 1.074961 1.329979 0.087611 -0.032153 149189.000000 0 0 1
17.524538 33.607281 9.357901 39.040096 1.090136 1.328740 0.069212 -0.027785 369771.000000 0 0 1
16.220638 -33.922170 9.529001 38.789490 -1.124763 1.322597 0.084987 -0.020475 610358.000000 0 0 1
16.282038 -32.371870 9.817401 37.542297 -1.104777 1.306218 0.106420 -0.024819 108431.000000 0 0 1
16.963138 -31.661970 8.788501 36.979266 -1.078954 1.330840 0.100613 -0.033159 250764.000000 0 0 1
17.024438 -30.329670 9.154201 35.965535 -1.059309 1.313438 0.061864 -0.021520 75496.700000 0 0 1
17.478138 -29.479670 7.915601 35.173754 -1.035623 1.343809 0.065256 -0.019709 289381.000000 0 0 1
16.606338 -29.681470 6.801601 34.684606 -1.060700 1.373419 0.074623 -0.022677 219684.000000 0 0 1
17.036338 -28.982670 5.649501 34.090304 -1.039387 1.404307 0.076618 -0.022998 -199234.000000 0 0 1
16.494938 -29.428570 4.331901 34.013072 -1.059922 1.443090 0.079838 -0.029859 -168161.000000 0 0 1
17.058338 -30.659570 3.903001 35.301976 -1.063069 1.460009 0.062512 -0.031709 121893.000000 0 0 1
17.079638 -30.792570 2.488401 35.299979 -1.064377 1.500245 0.062315 -0.025976 -113914.000000 0 0 1
17.322438 -32.263870 2.005901 36.674893 -1.078067 1.516075 0.065253 -0.022024 -624449.000000 0 0 1
18.599338 -32.777070 2.203701 37.750867 -1.054655 1.512388 0.065821 -0.012442 -589196.000000 0 0 1
18.714138 34.005881 1.546401 38.845981 1.067707 1.530977 0.078978 -0.013091 355857.000000 0 0 1
20.098438 33.281081 1.690001 38.915725 1.027514 1.527355 0.087217 -0.017296 635566.000000 0 0 1
20.379438 32.946481 3.040601 38.859199 1.016840 1.492470 0.084235 -0.038303 897614.000000 0 0 1
21.726938 32.471781 3.232701 39.203657 0.981110 1.488243 0.069629 -0.022312 863301.000000 0 0 1
22.178638 32.283981 4.686401 39.447557 0.968858 1.451714 0.069898 -0.012376 273539.000000 0 0 1
21.390938 31.322481 5.394001 38.311425 0.971622 1.429533 0.076548 -0.028424 36087.300000 0 0 1
22.147438 30.206181 5.588801 37.870266 0.938128 1.422678 0.065232 -0.032320 -7533.130000 0 0 1
21.336838 29.146381 6.355101 36.676416 0.938877 1.396642 0.087611 -0.045662 544105.000000 0 0 1
20.120338 28.730681 5.775001 35.547583 0.959863 1.407615 0.088412 -0.045778 187718.000000 0 0 1
19.110238 28.247881 6.638401 34.744961 0.976004 1.378554 0.096392 -0.048180 636613.000000 0 0 1
17.654638 28.521481 6.167601 34.105724 1.016527 1.388958 0.098329 -0.049027 -48015.400000 0 0 1
17.291938 29.878381 6.175801 35.069492 1.046153 1.393771 0.096802 -0.055429 69116.100000 0 0 1
17.791938 30.617581 5.044101 35.769153 1.044388 1.429307 0.099754 -0.046977 -267411.000000 0 0 1
17.827038 32.138581 5.200901 37.117934 1.064357 1.430215 0.109697 -0.046155 882704.000000 0 0 1
16.496938 32.682581 5.236901 36.982769 1.103346 1.428715 0.086168 -0.044921 541221.000000 0 0 1
16.517638 -33.962970 5.339901 38.142236 -1.118134 1.430335 0.087815 -0.046452 691187.000000 0 0 1
15.117338 -33.241070 5.369801 36.909855 -1.143975 1.424794 0.091693 -0.044434 742562.000000 0 0 1
14.424938 -33.208770 4.132801 36.441477 -1.161015 1.457143 0.080728 -0.034078 802404.000000 0 0 1
13.180038 -32.494570 4.386601 35.339110 -1.185465 1.446347 0.079275 -0.033615 577644.000000 0 0 1
12.377738 -32.252870 3.154201 34.690128 -1.204358 1.479746 0.083167 -0.026200 -404566.000000 0 0 1
11.262138 -31.411470 3.363601 33.538485 -1.226538 1.470337 0.084208 -0.032968 -120071.000000 0 0 1
10.655638 -31.142170 2.151801 32.984960 -1.241122 1.505514 0.086631 -0.023000 -898382.000000 0 0 1
9.871938 -29.884670 2.023001 31.537932 -1.251747 1.506607 0.101617 -0.025083 -44798.600000 0 0 1
9.176938 -29.520570 0.810501 30.924701 -1.269401 1.544584 0.110434 -0.015576 580246.000000 0 0 1
8.146838 -30.347070 0.287301 31.422892 -1.308525 1.561653 0.089813 -0.020010 -383945.000000 0 0 1
8.567538 -31.100170 -0.936599 32.272286 -1.301982 1.599822 0.109404 -0.024937 37202.600000 0 0 1
9.720238 -31.910470 -0.787999 33.367380 -1.275116 1.594414 0.101905 -0.031289 -57524.800000 0 0 1
9.995238 -32.689070 -1.902999 34.235967 -1.274057 1.626410 0.102668 -0.015879 791525.000000 0 0 1
11.346838 -33.510370 -1.986499 35.435036 -1.244307 1.626886 0.084289 -0.017487 779807.000000 0 0 1
11.396538 33.602081 -0.961399 35.495144 1.243809 1.597885 0.081606 -0.021735 563882.000000 0 0 1
12.547138 32.790781 -1.234399 35.131037 1.205343 1.605941 0.086865 -0.028660 163974.000000 0 0 1
12.751238 31.782281 -0.039999 34.244840 1.189251 1.571964 0.069843 -0.029995 -361973.000000 0 0 1
13.036938 32.173081 1.298101 34.738364 1.185804 1.533420 0.067500 -0.025440 1348040.000000 0 0 1
14.231838 33.021381 1.471901 35.987822 1.163864 1.529885 0.071141 -0.026092 296516.000000 0 0 1
15.507438 32.245881 1.608501 35.817101 1.122535 1.525872 0.069841 -0.031518 -1641780.000000 0 0 1
15.951838 31.660181 0.442801 35.454538 1.104077 1.558307 0.081183 -0.034176 -153772.000000 0 0 1
16.871838 30.624481 0.732701 34.972198 1.067242 1.549844 0.078519 -0.030149 -488396.000000 0 0 1
17.444738 29.922081 -0.490399 34.639433 1.042967 1.584954 0.075452 -0.022330 -1033710.000000 0 0 1
18.480538 30.611581 -1.136599 35.775565 1.027653 1.602572 0.057135 -0.013115 -625932.000000 0 0 1
18.122338 31.750181 -1.921099 36.608520 1.052140 1.623297 0.057784 -0.020325 -39266.800000 0 0 1
19.311238 32.580881 -2.491399 37.955827 1.035749 1.636483 0.055139 -0.012526 685054.000000 0 0 1
20.130038 33.331881 -1.573099 38.970596 1.027494 1.611174 0.050906 -0.008491 877262.000000 0 0 1
21.077838 -33.915770 -2.257699 39.995648 -1.014735 1.627275 0.055919 -0.006050 -558158.000000 0 0 1
22.130838 -33.163170 -1.433699 39.895179 -0.982333 1.606741 0.060025 -0.002290 546197.000000 0 0 1
23.277638 -33.879270 -0.896399 41.115166 -0.968797 1.592600 0.056532 -0.005010 1458960.000000 0 0 1
24.137438 33.511681 -1.796299 41.338546 0.946596 1.614263 0.061177 -0.004549 107832.000000 0 0 1
24.953938 -33.780970 -2.912099 42.099088 -0.934568 1.640024 0.057488 -0.007831 34469.400000 0 0 1
24.150038 -33.495970 -4.087099 41.495888 -0.946126 1.669450 0.054055 -0.016109 570586.000000 0 0 1
24.827238 -32.744270 -5.079899 41.405124 -0.922058 1.693794 0.044696 -0.016702 -698033.000000 0 0 1
23.959338 -32.381270 -6.235999 40.761307 -0.933782 1.724388 0.050397 -0.023192 -1316780.000000 0 0 1
22.930538 -31.516070 -5.901799 39.419582 -0.941798 1.721079 0.062924 -0.024057 -283523.000000 0 0 1
22.388338 -30.998370 -7.112799 38.893811 -0.945298 1.754709 0.069820 -0.026115 -148416.000000 0 0 1
21.313338 -29.912870 -6.910899 37.373770 -0.951721 1.756780 0.088624 -0.025785 401739.000000 0 0 1
20.060938 -30.369870 -6.425699 36.960246 -0.987038 1.745539 0.073866 -0.017908 125365.000000 0 0 1
19.330838 -29.301470 -5.839199 35.585863 -0.987617 1.735629 0.076963 -0.023830 714044.000000 0 0 1
18.169138 -29.669170 -4.853999 35.127461 -1.021315 1.709422 0.063650 -0.013998 123241.000000 0 0 1
17.052938 -30.217770 -5.466799 35.125520 -1.057014 1.727068 0.060334 -0.014248 100379.000000 0 0 1
15.960138 -30.253770 -4.511199 34.501703 -1.085359 1.701925 0.048959 -0.011224 275843.000000 0 0 1
14.711438 -31.018770 -4.873699 34.674824 -1.127939 1.711818 0.048132 -0.011654 -712885.000000 0 0 1
14.933538 -32.431470 -4.947799 36.045686 -1.139274 1.708496 0.044039 -0.003331 -261657.000000 0 0 1
13.732138 -33.126970 -5.133399 36.225951 -1.177827 1.712980 0.063115 -0.004727 -128880.000000 0 0 1
13.990038 33.382681 -5.209799 36.568656 1.173950 1.713749 0.055507 -0.008459 50932.900000 0 0 1
14.276038 32.819281 -3.923899 36.004270 1.160495 1.679998 0.055604 -0.016287 203434.000000 0 0 1
14.805238 31.476681 -3.970799 35.010624 1.131144 1.684458 0.058328 -0.022296 325367.000000 0 0 1
13.803338 30.376581 -4.516999 33.670048 1.144283 1.705357 0.064728 -0.022550 868113.000000 0 0 1
12.706438 30.073981 -3.651699 32.851679 1.171040 1.682184 0.066881 -0.027166 554331.000000 0 0 1
13.093438 29.088181 -2.719299 32.014918 1.147835 1.655837 0.078469 -0.034592 -30251.400000 0 0 1
11.864438 28.313281 -2.130999 30.772519 1.173983 1.640102 0.061997 -0.028845 402566.000000 0 0 1
11.046738 29.172081 -1.355599 31.223043 1.208808 1.614227 0.056517 -0.031210 -712607.000000 0 0 1
10.099438 28.366981 -0.724399 30.119911 1.228762 1.594849 0.039453 -0.018752 -789169.000000 0 0 1
8.956538 29.253981 -0.223299 30.595177 1.273693 1.578095 0.035480 -0.012521 199535.000000 0 0 1
8.010238 28.487381 0.546901 29.597194 1.296689 1.552317 0.028504 -0.014037 75848.100000 0 0 1
6.779738 29.146781 0.717501 29.933501 1.342254 1.546824 0.035516 -0.011953 -118448.000000 0 0 1
5.792938 28.349681 1.573701 28.978252 1.369232 1.516463 0.018532 -0.015199 -124453.000000 0 0 1
5.488338 27.061681 1.030901 27.631851 1.370702 1.533479 0.029237 -0.023511 661566.000000 0 0 1
4.235938 26.547881 1.505701 26.925830 1.412572 1.514847 0.029360 -0.023395 673612.000000 0 0 1
3.601138 25.403881 0.728201 25.668184 1.429979 1.542423 0.037867 -0.021837 1027950.000000 0 0 1
2.314038 25.028681 1.281401 25.168068 1.478603 1.519861 0.060182 -0.022889 925935.000000 0 0 1
1.622738 24.126381 0.459201 24.185252 1.503638 1.551808 0.050841 -0.022807 818453.000000 0 1 0
0.161938 23.769881 0.928201 23.788548 1.563984 1.531768 0.054571 -0.017771 771166.000000 0 1 0
-0.769362 24.792781 0.681001 24.814062 -1.539775 1.543349 0.075790 -0.026552 112291.000000 0 1 0
-2.082462 24.251381 0.819701 24.354426 -1.485137 1.537133 0.062403 -0.020541 283738.000000 0 1 0
-3.200262 25.241681 1.228901 25.473405 -1.444684 1.522535 0.094404 -0.037972 51286.100000 0 0 1
-4.424362 24.536381 1.360301 24.969169 -1.392395 1.516290 0.097002 -0.028983 94772.200000 0 1 0
-5.322762 25.173981 2.245901 25.828380 -1.362426 1.483732 0.101452 -0.033937 -226864.000000 0 0 1
-6.693562 25.454581 1.628101 26.370252 -1.313657 1.509017 0.106037 -0.039172 -362203.000000 0 0 1
-6.639162 26.442881 0.699401 27.272580 -1.324806 1.545149 0.114122 -0.042904 -447008.000000 0 0 1
-7.870562 26.500081 0.054501 27.644222 -1.282093 1.568825 0.104169 -0.032521 -448585.000000 0 0 1
-7.927362 27.614481 -1.063299 28.749491 -1.291241 1.607790 0.092905 -0.029157 -153343.000000 0 0 1
-8.024062 28.945281 -0.561999 30.042149 -1.300372 1.589504 0.110822 -0.035610 5.343020 0 0 1
-8.044862 29.889881 -1.599799 30.994906 -1.307877 1.622434 0.117387 -0.033458 -230813.000000 0 0 1
-7.970462 31.388581 -1.116599 32.403983 -1.322123 1.605262 0.106655 -0.033914 -470224.000000 0 0 1
-8.185262 32.394881 -2.149999 33.482075 -1.323305 1.635054 0.084770 -0.020518 322703.000000 0 0 1
-7.243562 32.421181 -3.224599 33.376642 -1.350986 1.667560 0.074247 -0.020754 2504180.000000 0 0 1
-5.696862 32.793681 -2.874599 33.408728 -1.398795 1.656946 0.101273 -0.023436 1814520.000000 0 0 1
-5.524862 -33.906870 -2.630599 34.454607 1.409274 1.647220 0.093962 -0.028747 81723.000000 0 0 1
-4.986962 -33.792270 -1.329099 34.184116 1.424277 1.609687 0.126894 -0.032365 -76917.100000 0 0 1
-4.684162 -32.345070 -0.911099 32.695183 1.426978 1.598666 0.122616 -0.031452 345285.000000 0 0 1
-5.820762 -31.515270 -0.668299 32.055267 1.388158 1.591646 0.100029 -0.027257 214364.000000 0 0 1
-5.969562 -30.527070 -1.660999 31.149584 1.377683 1.624145 0.100736 -0.021559 475681.000000 0 0 1
-7.339462 -29.789370 -1.475199 30.715639 1.329229 1.618842 0.120072 -0.027208 438709.000000 0 0 1
-7.550962 -29.199670 -0.213199 30.160955 1.317742 1.577865 0.108411 -0.018649 -453400.000000 0 0 1
-8.709962 -28.413470 -0.223199 29.719329 1.273347 1.578307 0.077357 -0.019435 -339655.000000 0 0 1
-8.866262 -27.770970 1.118701 29.173427 1.261761 1.532440 0.079520 -0.018202 804709.000000 0 0 1
-7.690962 -26.978170 1.445601 28.090253 1.293082 1.519311 0.089780 -0.025307 619537.000000 0 0 1
-7.720062 -26.437770 2.749301 27.678759 1.286687 1.471303 0.099791 -0.020899 258320.000000 0 0 1
-8.866362 -25.425270 3.059601 27.100145 1.235260 1.457655 0.095031 -0.013773 209346.000000 0 0 1
-8.528662 -24.093570 2.846801 25.716579 1.230580 1.459870 0.087332 -0.016274 -457827.000000 0 0 1
-9.361862 -23.205970 3.569801 25.276570 1.187341 1.429093 0.092350 -0.017658 -39657.200000 0 0 1
-8.738562 -21.839770 3.861301 23.837946 1.190185 1.408098 0.062820 0.005707 370504.000000 0 1 0
-7.720462 -21.757570 4.844301 23.589502 1.229816 1.363967 0.055007 0.001323 -259604.000000 0 1 0
-7.078462 -20.515470 5.067101 22.285974 1.238556 1.341423 0.038957 -0.002954 229133.000000 0 1 0
-7.816462 -19.334570 5.776301 21.639970 1.186611 1.300593 0.044024 -0.007110 -7670.560000 0 1 0
-8.094762 -19.605170 7.120701 22.373919 1.179228 1.246904 0.047711 -0.009621 4315.550000 0 1 0
-8.898462 -18.624870 7.736901 22.043775 1.125088 1.212180 0.037895 -0.018740 -552277.000000 0 1 0
-28.240002 28.446881 -5.292899 40.431888 -0.789048 1.702082 0.106933 -0.032922 -433372.000000 0 0 1
-27.457562 29.342181 -4.546699 40.441981 -0.818566 1.683460 0.101076 -0.042877 -571198.000000 0 0 1
-26.271592 28.719381 -4.179499 39.146745 -0.829881 1.677765 0.091138 -0.036741 -297505.000000 0 0 1
-25.370122 29.524581 -3.193199 39.058169 -0.860935 1.652643 0.084760 -0.026552 -98588.700000 0 0 1
-25.949472 29.680481 -1.925999 39.471706 -0.852366 1.619610 0.069967 -0.031858 37747.900000 0 0 1
-25.294892 30.621181 -1.068099 39.731966 -0.880367 1.597682 0.069127 -0.024893 1012100.000000 0 0 1
-23.942462 30.212381 -0.353299 38.550672 -0.900663 1.579961 0.056434 -0.020245 1088270.000000 0 0 1
-22.842762 30.045181 -1.228099 37.762586 -0.920748 1.603324 0.074944 -0.023320 833328.000000 0 0 1
-21.588662 30.026781 -0.497399 36.985475 -0.947445 1.584245 0.067659 -0.023117 1411710.000000 0 0 1
-20.409662 29.535281 -1.435199 35.929750 -0.966118 1.610752 0.073586 -0.023823 -69218.300000 0 0 1
-19.218762 29.467681 -0.727099 35.188546 -0.992878 1.591461 0.071254 -0.016559 -273114.000000 0 0 1
-18.166962 28.908481 -1.523299 34.176882 -1.009734 1.615382 0.073085 -0.023978 1077920.000000 0 0 1
-16.721162 29.436581 -1.224499 33.876378 -1.054208 1.606950 0.069498 -0.022198 371095.000000 0 0 1
-16.228962 28.811481 -0.082499 33.067922 -1.057814 1.573291 0.066978 -0.023645 494837.000000 0 0 1
-15.240662 29.717381 0.472801 33.400959 -1.096919 1.556641 0.059815 -0.024665 537770.000000 0 0 1
-14.512662 29.219981 1.722701 32.670971 -1.109817 1.518043 0.068540 -0.026585 -480816.000000 0 0 1
-15.370062 29.242281 2.836001 33.157092 -1.086871 1.485159 0.072432 -0.021453 -49334.200000 0 0 1
-14.882562 28.475681 3.944601 32.371515 -1.089200 1.448639 0.068514 -0.027450 -161484.000000 0 0 1
-13.700162 29.071581 4.702501 32.480222 -1.130407 1.425505 0.069926 -0.018139 -349267.000000 0 0 1
-13.856062 30.232581 5.533301 33.713749 -1.141049 1.405924 0.063710 -0.022196 -409501.000000 0 0 1
-14.166362 31.443581 4.863301 34.828671 -1.147499 1.430704 0.053888 -0.021408 -212117.000000 0 0 1
-14.047462 32.667981 5.802801 36.030552 -1.164692 1.409040 0.064125 -0.024571 144734.000000 0 0 1
-15.082762 32.945181 6.743401 36.855775 -1.141463 1.386792 0.063678 -0.029584 396827.000000 0 0 1
-14.726162 -33.990670 7.477301 37.790680 1.161966 1.371621 0.071076 -0.033302 -197611.000000 0 0 1
-15.944262 -33.567570 8.271301 38.071192 1.127356 1.351791 0.052394 -0.028578 -279466.000000 0 0 1
-16.257462 33.615781 9.323201 38.486984 -1.120334 1.326119 0.026221 -0.024587 433819.000000 0 0 1
-17.401062 34.024181 10.082401 39.523369 -1.098045 1.312845 0.040323 -0.024032 -425323.000000 0 0 1
-17.494662 33.284781 11.429901 39.301177 -1.086875 1.275704 0.038534 -0.016347 925360.000000 0 0 1
-16.461362 33.598881 12.405001 39.417576 -1.115231 1.250648 0.047824 -0.027849 915353.000000 0 0 1
-15.153662 33.145881 12.073701 38.393452 -1.141987 1.250895 0.065672 -0.029287 -267400.000000 0 0 1
-14.146762 33.374281 13.212001 38.581479 -1.169873 1.221279 0.075434 -0.025182 -348807.000000 0 0 1
-14.316762 32.535681 14.399201 38.352017 -1.156262 1.185916 0.058015 -0.017016 335641.000000 0 0 1
-13.748462 31.202981 14.373201 37.003178 -1.155775 1.171867 0.045218 -0.018178 177690.000000 0 0 1
-14.762962 30.129081 13.873701 36.306834 -1.115188 1.178703 0.051332 -0.021872 178390.000000 0 0 1
-14.682862 30.041381 12.445801 35.678691 -1.116185 1.214474 0.046366 -0.016755 117114.000000 0 0 1
-15.750762 29.414681 11.782001 35.385386 -1.079175 1.231353 0.026643 -0.014263 -119422.000000 0 0 1
-15.505962 29.531481 10.239801 34.891213 -1.087298 1.272933 0.025105 -0.006435 -465479.000000 0 0 1
-14.644162 28.552081 9.790901 33.548988 -1.096888 1.274647 0.011135 -0.001474 -348253.000000 0 0 1
-14.782362 28.243681 8.454401 32.980307 -1.088615 1.311555 0.022306 -0.004798 -680405.000000 0 0 1
-13.955462 27.053981 8.011901 31.477982 -1.094559 1.313441 0.043789 -0.006075 1022490.000000 0 0 1
-12.515262 27.191281 8.100601 31.009955 -1.139437 1.306504 0.050850 -0.006571 1131590.000000 0 0 1
-11.920162 25.978581 7.793401 29.626239 -1.140611 1.304607 0.065914 -0.012946 303632.000000 0 0 1
-10.689562 26.071881 6.841601 28.996849 -1.181696 1.332608 0.088877 -0.021021 164558.000000 0 0 1
-11.161662 26.408381 5.586301 29.209452 -1.170913 1.378361 0.090989 -0.024997 836541.000000 0 0 1
-10.242962 26.066681 4.513901 28.368388 -1.196380 1.411000 0.122749 -0.021051 474872.000000 0 0 1
-10.749462 26.555881 3.147601 28.821401 -1.186170 1.461368 0.117181 -0.029832 122694.000000 0 0 1
-10.521462 27.991381 2.961001 30.049727 -1.211252 1.472099 0.109590 -0.025136 202726.000000 0 0 1
-10.965762 28.293481 1.640001 30.388462 -1.201049 1.516802 0.114772 -0.026684 -213034.000000 0 0 1
-10.629462 29.705081 1.197201 31.572308 -1.227160 1.532868 0.130157 -0.034146 180494.000000 0 0 1
-11.434862 30.669581 1.902501 32.787174 -1.213920 1.512738 0.102834 -0.032374 368239.000000 0 0 1
-11.004362 32.008981 1.624401 33.886716 -1.239665 1.522842 0.099963 -0.031121 -199105.000000 0 0 1
-11.691862 33.074581 2.511001 35.170054 -1.231007 1.499340 0.088275 -0.031326 956535.000000 0 0 1
-13.070562 33.291081 2.158701 35.830095 -1.196673 1.510512 0.077519 -0.026401 631838.000000 0 0 1
-13.265962 -33.860870 1.092101 36.383196 1.197397 1.540775 0.064931 -0.021451 279868.000000 0 0 1
-14.779362 -33.688570 0.692401 36.794411 1.157374 1.551977 0.064975 -0.019942 956483.000000 0 0 1
-15.348262 33.356581 -0.105599 36.718413 -1.139553 1.573672 0.064827 -0.015474 92456.900000 0 0 1
-15.321262 33.568481 -1.527099 36.931234 -1.142618 1.612158 0.080862 -0.024590 -349596.000000 0 0 1
-14.038862 33.229781 -2.298099 36.146774 -1.171063 1.634416 0.074618 -0.020858 -146555.000000 0 0 1
-13.697162 31.792981 -2.389099 34.700342 -1.164004 1.639700 0.071289 -0.019223 1078280.000000 0 0 1
-12.285762 31.546281 -2.518499 33.947764 -1.199416 1.645052 0.064696 -0.014004 880171.000000 0 0 1
-11.787262 30.092281 -2.625499 32.424962 -1.197462 1.651857 0.039066 -0.012351 68723.100000 0 0 1
-11.895862 29.474581 -3.894099 32.022281 -1.187193 1.692704 0.044955 -0.017615 -236011.000000 0 0 1
-10.657562 29.602881 -4.537399 31.788397 -1.225225 1.714023 0.046033 -0.019287 -169017.000000 0 0 1
-10.720662 28.931881 -5.916499 31.416418 -1.215934 1.760253 0.039243 -0.016575 -40343.600000 0 0 1
-10.969862 27.555881 -5.857699 30.232054 -1.191933 1.765788 0.042749 -0.014910 9658.750000 0 0 1
-10.726962 26.945781 -7.082299 29.854678 -1.191934 1.810305 0.042079 -0.015112 40798.100000 0 0 1
-11.236362 25.470881 -7.188999 28.752449 -1.155330 1.823508 0.061829 -0.026655 114642.000000 0 0 1
-10.564862 24.501581 -6.417599 27.443203 -1.163694 1.806832 0.030859 -0.017315 -261463.000000 0 0 1
-11.019662 23.246081 -6.714799 26.587625 -1.128128 1.826115 0.093588 -0.033022 -166941.000000 0 0 1
-10.382762 22.171581 -5.787699 25.157071 -1.132836 1.802938 0.080394 -0.038769 -50684.500000 0 0 1
-8.985162 21.999581 -5.881499 24.480742 -1.183049 1.813420 0.060514 -0.033215 61758.000000 0 1 0
-8.421862 20.876081 -5.191699 23.101781 -1.187344 1.797464 0.061712 -0.025211 -61764.600000 0 1 0
-8.511162 20.856081 -3.582999 22.809075 -1.183335 1.728536 0.065513 -0.030439 764139.000000 0 1 0
-9.869962 20.768381 -3.105399 23.203132 -1.127152 1.705034 0.086853 -0.037178 771713.000000 0 1 0
-10.381162 19.459281 -3.096999 22.271586 -1.080724 1.710304 0.086092 -0.036104 316167.000000 0 1 0
-11.677462 19.407681 -2.202999 22.756854 -1.029133 1.667754 0.088148 -0.036160 473753.000000 0 1 0
-11.520362 19.502381 -0.783899 22.664424 -1.037232 1.605390 0.082927 -0.028549 142244.000000 0 1 0
-11.305962 18.166181 -0.258599 21.398640 -1.014095 1.582881 0.077817 -0.027911 -74766.400000 0 1 0
-11.110262 18.237381 1.295701 21.394365 -1.023638 1.510197 0.079059 -0.024517 -923070.000000 0 1 0
-12.285562 18.366881 1.994701 22.186847 -0.981251 1.480770 0.097826 -0.027248 -679607.000000 0 1 0
-12.048962 18.579381 3.383001 22.401241 -0.995467 1.419198 0.087685 -0.016686 -240837.000000 0 1 0
-13.354862 18.644281 4.178101 23.311330 -0.949216 1.390592 0.095547 -0.025073 -137477.000000 0 1 0
-13.838662 17.318181 4.339301 22.588880 -0.896615 1.377496 0.064679 -0.022188 -245805.000000 0 1 0
-15.109362 17.275181 4.928201 23.473642 -0.852177 1.359276 0.090871 -0.032563 -171462.000000 0 1 0
-15.427062 15.795381 5.356201 22.719534 -0.797194 1.332803 0.073085 -0.032779 -11422.700000 0 1 0
-14.670262 15.248881 6.451701 22.121696 -0.804735 1.274849 0.063697 -0.029291 132901.000000 0 1 0
-14.994762 15.776381 7.724101 23.095429 -0.810794 1.229782 0.056773 -0.026447 -407363.000000 0 1 0
-13.931162 15.532981 8.844801 22.662332 -0.839710 1.169854 0.047980 -0.019013 1225390.000000 0 1 0
-12.704162 16.271481 8.840101 22.456719 -0.907896 1.166197 0.041924 -0.028196 738205.000000 0 1 0
-11.818262 16.049181 7.755501 21.386803 -0.936071 1.199708 0.039681 -0.025434 -153536.000000 0 1 0
-10.687362 17.126581 7.672801 21.596559 -1.012901 1.207584 0.054251 -0.030930 197484.000000 0 1 0
-9.777962 17.084381 8.730401 21.533800 -1.050968 1.153350 0.045556 -0.031478 -335833.000000 0 1 0
-9.144562 18.325881 8.939401 22.346674 -1.107951 1.159244 0.045755 -0.024574 151722.000000 0 1 0
-7.779462 18.305181 9.684601 22.122188 -1.168937 1.117671 0.034587 -0.028171 128165.000000 0 1 0
-6.826662 17.542281 8.890801 20.817812 -1.199674 1.129539 0.030380 -0.025663 466790.000000 0 1 0
-5.540362 17.520681 9.516001 20.693578 -1.264527 1.092967 0.029394 -0.032312 179632.000000 0 1 0
-4.696262 18.618581 8.920301 21.172582 -1.323715 1.135903 0.027922 -0.031068 -1520330.000000 0 1 0
-4.966862 19.944381 9.406401 22.603726 -1.326725 1.141596 0.034602 -0.033423 164566.000000 0 1 0
-4.467662 21.013081 8.552701 23.122679 -1.361302 1.191913 0.040848 -0.028384 66523.400000 0 1 0
-3.056362 21.580781 8.817601 23.512157 -1.430108 1.186375 0.045338 -0.022355 594610.000000 0 1 0
-2.000062 20.637981 8.500101 22.409334 -1.474186 1.181745 0.031403 -0.008797 769980.000000 0 1 0
-0.804362 21.374781 8.181701 22.901277 -1.533183 1.205464 0.027336 -0.012532 139351.000000 0 1 0
0.385838 20.438181 8.146701 22.005382 1.551920 1.191557 0.018995 -0.008223 -467224.000000 0 1 0
0.690338 19.729981 9.350501 21.844464 1.535821 1.128463 0.018505 -0.013751 -866702.000000 0 1 0
1.933238 19.109281 9.294601 21.337564 1.469972 1.120094 0.004787 -0.019003 -670810.000000 0 1 0
2.371738 18.609881 10.649201 21.572165 1.444035 1.054509 -0.004300 -0.028523 -14980.600000 0 1 0
3.701038 18.113681 10.620501 21.321308 1.369248 1.049371 0.019594 -0.017727 166829.000000 0 1 0
4.307538 18.104281 11.914101 22.096734 1.337210 1.001334 0.015492 -0.015543 1070370.000000 0 1 0
5.867338 18.273381 11.817901 22.538964 1.260108 1.018866 0.038563 -0.019431 1132080.000000 0 1 0
6.643338 17.211181 11.236001 21.601074 1.202426 1.023759 0.034972 -0.023083 400379.000000 0 1 0
7.642738 16.714581 12.104401 22.006935 1.141930 0.988400 0.042805 -0.017443 447934.000000 0 1 0
8.933638 16.108381 11.450101 21.688583 1.064432 1.014632 0.057280 -0.020667 538259.000000 0 1 0
9.792938 17.157481 11.052901 22.637301 1.052148 1.060701 0.069170 -0.025935 300981.000000 0 1 0
11.017838 16.600381 10.551301 22.545406 0.984843 1.083768 0.069035 -0.025213 652123.000000 0 1 0
11.911038 17.560081 9.756401 23.354156 0.974782 1.139819 0.069619 -0.021158 363792.000000 0 1 0
13.011438 16.978981 9.077501 23.237563 0.916928 1.169471 0.075709 -0.020165 652901.000000 0 1 0
13.798138 17.948581 8.325201 24.121549 0.915397 1.218413 0.083753 -0.014929 956415.000000 0 1 0
14.888838 17.446481 7.328501 24.078291 0.864331 1.261528 0.086624 -0.019503 -72700.400000 0 1 0
16.022138 16.897881 7.908601 24.592545 0.811994 1.243393 0.102419 -0.019393 -557297.000000 0 1 0
16.927138 16.430681 6.943101 24.590688 0.770517 1.284557 0.115106 -0.019020 -741244.000000 0 1 0
18.305138 16.193681 7.535701 25.575382 0.724271 1.271711 0.099008 -0.019106 -883967.000000 0 0 1
18.571338 15.128381 8.327901 25.359740 0.683586 1.236197 0.100271 -0.015250 191871.000000 0 0 1
19.742938 15.343081 9.096001 26.606972 0.660647 1.221895 0.098329 -0.021743 -102881.000000 0 0 1
20.076038 14.130581 10.029901 26.520172 0.613307 1.182946 0.083539 -0.021521 -172041.000000 0 0 1
20.700938 13.027681 9.457701 26.223985 0.561706 1.201831 0.102121 -0.032037 183306.000000 0 0 1
20.937438 11.969881 10.309701 26.228692 0.519349 1.166829 0.108674 -0.039005 -286070.000000 0 0 1
21.792638 10.946881 9.544301 26.188680 0.465502 1.197761 0.094231 -0.032649 189261.000000 0 0 1
23.211938 11.188881 9.624901 27.506796 0.449170 1.213321 0.074011 -0.029453 1235390.000000 0 0 1
23.999238 10.255381 8.943001 27.588286 0.403835 1.240673 0.083389 -0.033577 -255513.000000 0 0 1
24.263638 8.898081 9.701301 27.604623 0.351496 1.211690 0.095833 -0.037901 -704681.000000 0 0 1
23.219438 7.980581 9.564901 26.349939 0.331054 1.199316 0.115682 -0.035730 424894.000000 0 0 1
23.610238 6.732881 10.106801 26.550375 0.277794 1.180281 0.124408 -0.038685 -37774.000000 0 0 1
24.579838 5.871581 9.223301 26.901917 0.234484 1.220848 0.126378 -0.040767 236418.000000 0 0 1
24.114738 5.566381 7.911101 25.982507 0.226856 1.261406 0.121292 -0.028087 434852.000000 0 0 1
25.172738 5.194281 7.034101 26.648187 0.203489 1.303669 0.122285 -0.020593 75151.100000 0 0 1
24.667838 4.978381 5.600301 25.780804 0.199142 1.351823 0.117195 -0.023749 -484677.000000 0 0 1
23.771838 3.899181 5.585401 24.728538 0.162578 1.342962 0.128068 -0.017714 45871.000000 0 1 0
23.238438 3.729881 4.336801 23.932088 0.159147 1.388577 0.115009 -0.014022 -469726.000000 0 1 0
22.225238 2.590981 4.290301 22.783350 0.116054 1.381357 0.103224 -0.007129 -585011.000000 0 1 0
22.848338 1.348181 4.249601 23.279245 0.058937 1.387218 0.124314 -0.012545 -461157.000000 0 1 0
21.991938 0.265581 4.148401 22.381356 0.012076 1.384368 0.106821 -0.013318 -867244.000000 0 1 0
22.591838 -1.205819 4.185801 23.007956 -0.053323 1.387849 0.117141 -0.017807 -455040.000000 0 1 0
23.100338 -1.507719 5.500501 23.793998 -0.065176 1.337514 0.141238 -0.019272 704812.000000 0 1 0
23.129338 -2.878519 5.662701 23.985794 -0.123817 1.332461 0.124666 -0.020986 -152551.000000 0 1 0
22.883138 -3.376619 7.085401 24.191785 -0.146502 1.273554 0.146600 -0.021596 -91059.000000 0 1 0
22.865238 -4.781819 7.095101 24.413630 -0.206159 1.275921 0.135632 -0.025427 476201.000000 0 1 0
23.030438 -5.329319 8.418401 25.093269 -0.227401 1.228677 0.171443 -0.024747 164482.000000 0 0 1
22.420038 -6.806219 8.578601 24.951455 -0.294736 1.219823 0.150219 -0.023457 -820415.000000 0 1 0
21.046438 -6.837519 8.550201 23.723620 -0.314121 1.202090 0.141086 -0.027995 -927577.000000 0 1 0
20.603038 -8.143419 8.948901 23.893163 -0.376408 1.186898 0.128239 -0.029170 -104482.000000 0 1 0
-26.861052 -32.958870 5.368801 42.855889 0.886984 1.445191 0.071025 -0.009818 346634.000000 0 0 1
-27.957752 -33.788270 5.748701 44.230427 0.879546 1.440456 0.062996 -0.007241 492786.000000 0 0 1
-27.824292 33.956181 7.118901 44.473500 -0.884327 1.410034 0.055273 0.000618 340804.000000 0 0 1
-28.670062 32.694481 7.576501 44.139607 -0.850887 1.398293 0.068336 -0.009781 704924.000000 0 0 1
-30.075442 32.844481 7.585501 45.175569 -0.829379 1.402086 0.081426 -0.007851 183834.000000 0 0 1
-30.811662 31.724581 8.066801 44.954209 -0.799995 1.390374 0.100004 -0.017838 -487816.000000 0 0 1
-32.297192 32.003481 8.063101 46.177322 -0.780830 1.395285 0.110085 -0.016972 -856853.000000 0 0 1
-32.852522 32.072381 6.753901 46.406261 -0.773383 1.424739 0.090686 -0.010291 1493390.000000 0 0 1
-34.302433 32.139181 6.828301 47.499575 -0.752851 1.426542 0.086741 -0.009521 1316230.000000 0 0 1
-35.089137 31.999181 5.526801 47.809420 -0.739373 1.454937 0.073144 -0.000542 -38893.200000 0 0 1
-34.810376 30.753881 4.839601 46.701020 -0.723606 1.466981 0.079762 -0.009023 822048.000000 0 0 1
-35.785194 30.680981 3.797101 47.289753 -0.708754 1.490415 0.088270 -0.000275 548003.000000 0 0 1
-35.457426 29.365581 3.051601 46.139774 -0.691697 1.504610 0.088959 -0.012512 242449.000000 0 0 1
-35.773590 28.198281 3.818701 45.710779 -0.667531 1.487158 0.106839 -0.019917 415787.000000 0 0 1
-35.222881 27.004281 3.221701 44.500134 -0.654084 1.498335 0.084931 -0.012513 -120860.000000 0 0 1
-35.656570 25.727581 3.905401 44.142401 -0.625035 1.482208 0.100686 -0.015842 666900.000000 0 0 1
-37.023802 25.350581 3.648201 45.019143 -0.600391 1.489671 0.115537 -0.014327 403236.000000 0 0 1
36.664552 24.670681 4.727701 44.444157 0.592289 1.464221 0.122510 -0.015735 968966.000000 0 0 1
35.132682 24.467181 4.341401 43.032500 0.608321 1.469738 0.140292 -0.020408 551665.000000 0 0 1
34.848882 23.586881 3.240101 42.205258 0.595008 1.493951 0.105238 -0.020721 5560.490000 0 0 1
35.161132 22.236081 3.461101 41.745991 0.563907 1.487792 0.096162 -0.019091 -815492.000000 0 0 1
34.402562 21.258281 2.515201 40.518848 0.553497 1.508682 0.106273 -0.019601 -616663.000000 0 0 1
33.082462 21.022581 2.872701 39.302044 0.566086 1.497638 0.100391 -0.029572 -615851.000000 0 0 1
32.830732 20.130181 3.961801 38.714042 0.550033 1.468282 0.072173 -0.013448 -431912.000000 0 0 1
33.206152 18.586081 3.798401 38.242892 0.510274 1.471309 0.076989 -0.022223 -152160.000000 0 0 1
32.537842 17.969181 2.694701 37.267467 0.504573 1.498426 0.063806 -0.030165 325750.000000 0 0 1
32.837462 16.639281 2.472601 36.895506 0.469006 1.503730 0.067881 -0.024945 -321255.000000 0 0 1
32.069172 15.619081 3.334601 35.826067 0.453229 1.477584 0.077060 -0.024839 -163584.000000 0 0 1
30.671282 15.596181 3.158901 34.553539 0.470420 1.479248 0.063182 -0.020643 129313.000000 0 0 1
30.054182 14.625281 3.997901 33.662085 0.452895 1.451750 0.080684 -0.029014 759908.000000 0 0 1
28.488822 14.718781 4.001801 32.315166 0.476880 1.446641 0.065867 -0.023267 609482.000000 0 0 1
27.846422 14.346181 2.799801 31.449563 0.475725 1.481653 0.068508 -0.032109 -447176.000000 0 0 1
26.470222 14.537681 2.959801 30.344312 0.502236 1.473100 0.053353 -0.022750 -636142.000000 0 0 1
25.772722 14.214081 1.604301 29.476213 0.504007 1.516342 0.072487 -0.023113 -485540.000000 0 0 1
26.089322 14.817181 0.377001 30.005728 0.516513 1.558232 0.090528 -0.025704 286596.000000 0 0 1
27.387222 14.499081 -0.089799 30.988568 0.486898 1.573694 0.097450 -0.025554 -449688.000000 0 0 1
27.977522 15.272981 -1.288299 31.900869 0.499691 1.611192 0.118409 -0.028644 148471.000000 0 0 1
28.455322 16.619881 -1.092699 32.971500 0.528623 1.603943 0.091485 -0.028713 838676.000000 0 0 1
29.396932 16.855181 -0.028199 33.886245 0.520605 1.571629 0.087229 -0.023252 449.730000 0 0 1
29.925812 18.317781 0.091201 35.087087 0.549274 1.568197 0.093392 -0.018154 -144633.000000 0 0 1
30.857552 18.560581 -0.933899 36.021603 0.541516 1.596725 0.089289 -0.009240 -79598.600000 0 0 1
31.350432 19.880681 -0.868999 37.132819 0.565148 1.594201 0.081057 0.002124 -473213.000000 0 0 1
32.491072 20.115581 -1.828099 38.257657 0.554353 1.618598 0.081073 0.000272 -453830.000000 0 0 1
33.030302 21.413781 -2.088099 39.419679 0.575184 1.623792 0.023277 0.007829 652843.000000 0 0 1
32.202882 22.205481 -2.956699 39.228193 0.603678 1.646240 0.081185 -0.004369 -10054.400000 0 0 1
32.706592 23.669381 -3.118699 40.493050 0.626448 1.647891 0.085472 -0.003368 -97227.200000 0 0 1
32.803142 24.438781 -1.904899 40.950321 0.640302 1.617330 0.088740 -0.000033 1021550.000000 0 0 1
33.955212 24.110081 -1.088699 41.658585 0.617443 1.596933 0.097250 0.009247 237368.000000 0 0 1
34.018602 24.774681 0.303201 42.084939 0.629447 1.563592 0.092703 -0.013014 -119071.000000 0 0 1
34.411112 26.172481 0.332101 43.234636 0.650239 1.563115 0.108243 -0.007542 774317.000000 0 0 1
35.773982 26.257481 0.779501 44.382888 0.633171 1.553232 0.109452 -0.009528 1191860.000000 0 0 1
36.642802 27.418881 0.101101 45.765710 0.642396 1.568587 0.090619 -0.012594 426163.000000 0 0 1
36.984362 27.232281 -1.269399 45.946181 0.634687 1.598428 0.091953 -0.014968 309514.000000 0 0 1
35.903052 27.511481 -2.130999 45.281916 0.653834 1.617874 0.083210 -0.012697 -17036.400000 0 0 1
36.248572 27.069481 -3.575399 45.381707 0.641433 1.649663 0.086716 -0.008752 369651.000000 0 0 1
-37.010172 27.919381 -4.169299 46.547049 -0.646292 1.660488 0.080699 -0.005640 380818.000000 0 0 1
-36.779952 27.623381 -5.557799 46.332550 -0.644169 1.691040 0.069097 -0.007602 -318300.000000 0 0 1
36.353342 27.751481 -6.606999 46.209984 0.652011 1.714266 0.062275 -0.005098 212669.000000 0 0 1
35.267582 26.831281 -6.431299 44.778138 0.650372 1.714921 0.078475 0.000958 1110130.000000 0 0 1
34.247672 26.958281 -7.476699 44.221635 0.666860 1.740686 0.069271 -0.001495 691711.000000 0 0 1
33.085422 25.983481 -7.237899 42.686926 0.665741 1.741177 0.077260 0.005198 -481821.000000 0 0 1
33.352862 24.532781 -7.340399 42.049403 0.634190 1.746261 0.067926 -0.002128 19489.300000 0 0 1
34.402902 23.943181 -6.598399 42.430820 0.608012 1.726940 0.073763 -0.002120 -52919.200000 0 0 1
34.603632 22.452781 -6.756799 41.799439 0.575571 1.733157 0.077243 -0.001712 -213570.000000 0 0 1
33.671882 21.695781 -6.039799 40.509033 0.572378 1.720452 0.082517 0.001936 124887.000000 0 0 1
33.939172 20.289581 -6.218199 40.027497 0.538816 1.726776 0.082124 -0.007906 -312885.000000 0 0 1
32.775502 19.500881 -5.616999 38.549560 0.536723 1.717025 0.105738 -0.005997 -175828.000000 0 0 1
31.639082 19.541081 -6.468299 37.745520 0.553278 1.743012 0.090609 -0.014442 -153968.000000 0 0 1
30.576702 18.964581 -5.725399 36.433093 0.555162 1.728599 0.134502 -0.023932 51428.500000 0 0 1
29.302022 18.783781 -6.584199 35.423024 0.570051 1.757757 0.101161 -0.025761 110123.000000 0 0 1
29.418592 17.721381 -7.500499 35.153356 0.542173 1.785814 0.089971 -0.020491 424912.000000 0 0 1
28.193722 17.618981 -8.220099 34.247402 0.558546 1.813184 0.112250 -0.024723 445869.000000 0 0 1
28.309622 16.478681 -9.252599 34.038100 0.527145 1.846091 0.102222 -0.021021 14818.200000 0 0 1
27.327522 16.462581 -10.272299 33.516118 0.542195 1.882298 0.101147 -0.018802 95549.300000 0 0 1
27.647822 15.489081 -11.197699 33.611043 0.510662 1.910444 0.087457 -0.006904 -64790.000000 0 0 1
26.836122 15.551881 -12.508599 33.444036 0.525219 1.954132 0.093023 -0.005260 -822976.000000 0 0 1
25.499622 15.202981 -12.412599 32.178160 0.537624 1.966813 0.083446 -0.003735 -542741.000000 0 0 1
24.766122 15.462881 -13.594699 32.206791 0.558136 2.006564 0.073435 -0.011041 -116962.000000 0 0 1
24.498722 14.142781 -14.416799 31.749799 0.523551 2.042130 0.068210 -0.009877 -349022.000000 0 0 1
25.642822 13.615981 -15.057599 32.705972 0.488128 2.049234 0.079808 -0.008788 170564.000000 0 0 1
26.064622 14.205481 -16.251899 33.842052 0.499004 2.071711 0.088928 -0.012432 -28890.800000 0 0 1
27.466622 13.683081 -16.677299 34.925268 0.462184 2.068619 0.113304 -0.011498 304463.000000 0 0 1
27.495722 12.311281 -17.055499 34.618961 0.420983 2.085944 0.114527 -0.017444 189966.000000 0 0 1
28.843722 12.087881 -17.424999 35.800947 0.396847 2.079126 0.103414 -0.007789 283137.000000 0 0 1
29.048822 10.609381 -17.865099 35.714911 0.350174 2.094642 0.075602 -0.003994 -514597.000000 0 0 1
28.458322 10.217981 -19.076099 35.751655 0.344715 2.133615 0.081783 -0.007520 -88478.700000 0 0 1
28.739022 8.925881 -19.453199 35.833361 0.301138 2.144658 0.065864 -0.007910 -410577.000000 0 0 1
30.094082 8.628681 -20.105399 37.206653 0.279232 2.141674 0.068779 -0.006260 -874102.000000 0 0 1
30.273682 9.519881 -21.222899 38.177683 0.304670 2.160239 0.074113 -0.012505 238588.000000 0 0 1
30.981802 9.068381 -22.379699 39.280511 0.284746 2.176986 0.048966 -0.000962 335590.000000 0 0 1
32.468712 8.632481 -22.209999 40.274323 0.259859 2.154919 0.046019 0.004335 62807.600000 0 0 1
33.415382 9.665381 -22.314399 41.327228 0.281565 2.141167 0.043098 0.006423 -245464.000000 0 0 1
34.715192 9.142781 -22.429299 42.329759 0.257518 2.129244 0.019038 0.014985 -57740.900000 0 0 1
35.843072 10.185981 -22.373599 43.463295 0.276883 2.111536 0.040770 0.007056 -160213.000000 0 0 1
35.821222 10.778281 -21.100499 42.948369 0.292274 2.084377 0.038567 0.002863 898511.000000 0 0 1
36.888942 11.738581 -20.895599 43.991072 0.308082 2.065756 0.015661 0.002582 638552.000000 0 0 1
36.791912 12.522581 -19.507899 43.485837 0.328063 2.035999 0.010676 -0.001735 -181603.000000 0 0 1
37.065392 11.692481 -18.434699 43.016225 0.305575 2.013686 0.020687 0.001269 299251.000000 0 0 1
36.807352 12.306581 -17.155299 42.432740 0.322666 1.987003 0.031970 0.000466 -186313.000000 0 0 1
37.101832 11.327881 -15.996799 41.961464 0.296329 1.961918 0.028375 -0.003037 -81354.000000 0 0 1
36.194542 10.226381 -15.977099 40.864306 0.275362 1.972492 0.020296 -0.000298 340229.000000 0 0 1
36.518982 9.372681 -14.918199 40.546713 0.251230 1.947574 0.008509 -0.014383 -440701.000000 0 0 1
35.545382 8.185381 -14.721599 39.334465 0.226334 1.954403 0.080615 -0.015054 -755762.000000 0 0 1
34.620242 8.566881 -13.762599 38.227762 0.242580 1.939081 0.092290 -0.018573 -199414.000000 0 0 1
35.040952 8.316581 -12.417099 38.094858 0.233027 1.902815 0.089193 -0.019570 -446894.000000 0 0 1
34.052972 8.742981 -11.301599 36.929268 0.251318 1.881820 0.098630 -0.013479 -123273.000000 0 0 1
33.820362 10.175581 -11.316799 37.086781 0.292256 1.880886 0.093221 -0.017224 166247.000000 0 0 1
32.933942 10.691181 -10.344199 36.137908 0.313893 1.861099 0.067733 -0.003497 -929710.000000 0 0 1
33.307572 10.625681 -8.872899 36.069763 0.308811 1.819340 0.089688 -0.009779 -118595.000000 0 0 1
34.566422 11.211681 -8.559299 37.333644 0.313646 1.802119 0.087913 -0.010865 369715.000000 0 0 1
34.551312 12.592881 -8.359899 37.712886 0.349506 1.794325 0.090971 -0.011942 -578627.000000 0 0 1
34.440742 13.010881 -6.854599 37.449076 0.361202 1.754872 0.084583 -0.018317 -410561.000000 0 0 1
35.479842 12.602881 -6.002699 38.127211 0.341311 1.728893 0.103672 -0.015834 -2388.130000 0 0 1
35.271872 13.040981 -4.675199 37.894982 0.354140 1.694484 0.101058 -0.012011 -679484.000000 0 0 1
36.517772 12.747381 -3.877899 38.872632 0.335849 1.670722 0.131765 -0.013848 -829054.000000 0 0 1
-36.890002 13.859081 -3.815599 39.591732 -0.359373 1.667320 0.133276 -0.002911 -538132.000000 0 0 1
-35.880548 13.635981 -2.877999 38.492033 -0.363180 1.645635 0.141196 -0.013842 -751380.000000 0 0 1
-34.976272 14.786481 -2.537599 38.058101 -0.399970 1.637523 0.129780 -0.016219 -639293.000000 0 0 1
-35.549672 15.889181 -1.885699 38.984627 -0.420321 1.619186 0.141011 -0.015662 -534366.000000 0 0 1
-34.742391 17.026581 -1.741499 38.729460 -0.455681 1.615777 0.161809 -0.016005 -323122.000000 0 0 1
-35.293306 18.221481 -0.928899 39.730375 -0.476592 1.594179 0.144087 -0.008710 121185.000000 0 0 1
-36.373552 18.927681 -1.516099 41.031585 -0.479810 1.607754 0.118620 0.000992 383249.000000 0 0 1
-36.972282 19.839781 -0.619399 41.963678 -0.492507 1.585557 0.110732 0.000603 370458.000000 0 0 1
36.491712 21.032781 -1.262699 42.138075 0.522864 1.600767 0.095432 -0.004219 363486.000000 0 0 1
-36.871362 21.888281 -1.975999 42.924338 -0.535729 1.616847 0.099718 0.008368 434024.000000 0 0 1
36.841232 22.399881 -3.185599 43.234004 0.546289 1.644546 0.077121 0.006814 -358865.000000 0 0 1
-36.500822 23.498181 -3.705799 43.568423 -0.571984 1.655956 0.082774 -0.002249 217704.000000 0 0 1
-35.222720 22.986181 -4.056999 42.254749 -0.578198 1.666957 0.089860 -0.005206 128897.000000 0 0 1
-34.290552 23.985981 -4.389399 42.076551 -0.610385 1.675306 0.097024 -0.010190 1100000.000000 0 0 1
-32.855942 23.443681 -4.760199 40.642080 -0.619749 1.688191 0.096574 -0.019568 856519.000000 0 0 1
-32.848312 22.727781 -5.969299 40.388070 -0.605270 1.719138 0.086172 -0.012200 -740031.000000 0 0 1
-31.575422 22.346281 -6.391599 39.207348 -0.615883 1.734548 0.077627 -0.002660 -587598.000000 0 0 1
-31.614842 21.710181 -7.797199 39.136001 -0.601750 1.771372 0.058526 -0.011994 -164441.000000 0 0 1
-31.932652 22.550281 -8.864499 40.084770 -0.614863 1.793784 0.065583 -0.021652 -162503.000000 0 0 1
-31.327932 22.216281 -10.095699 39.710523 -0.616842 1.827850 0.025882 -0.016432 -384270.000000 0 0 1
-32.333532 22.024781 -11.220299 40.699428 -0.597979 1.850101 0.028367 -0.013409 17298.100000 0 0 1
-33.049362 23.263281 -11.446199 42.005429 -0.613335 1.846780 0.040578 -0.014299 43697.100000 0 0 1
-33.658142 23.302981 -12.698399 42.861974 -0.605569 1.871574 0.027509 -0.015441 -513117.000000 0 0 1
-34.091530 24.685981 -13.188899 44.108697 -0.626724 1.874450 0.055624 -0.015762 765345.000000 0 0 1
-32.980252 25.602781 -13.190599 43.785744 -0.660126 1.876803 0.047869 -0.015340 93341.400000 0 0 1
-32.093922 25.514581 -14.293499 43.420247 -0.671683 1.906242 0.038175 -0.012874 465814.000000 0 0 1
-30.776612 26.280781 -13.898599 42.790775 -0.706766 1.901600 0.050410 -0.016302 984682.000000 0 0 1
-29.933912 25.749381 -12.802699 41.508780 -0.710390 1.884342 0.054334 -0.019405 1168530.000000 0 0 1
-30.568502 25.608481 -11.495699 41.501551 -0.697334 1.851461 0.057777 -0.018359 -678237.000000 0 0 1
-30.609552 26.936881 -10.716199 42.158952 -0.721664 1.827802 0.062767 -0.007850 -208703.000000 0 0 1
-29.434242 27.437181 -10.115199 41.490852 -0.750297 1.817072 0.065126 -0.006759 -411552.000000 0 0 1
-29.649652 28.724681 -9.562899 42.375208 -0.769554 1.798429 0.054793 -0.013669 267130.000000 0 0 1
-28.444382 29.408481 -8.862899 41.862783 -0.802061 1.784124 0.082607 -0.021757 340632.000000 0 0 1
-28.658362 30.764381 -8.606899 42.916519 -0.820825 1.772715 0.068171 -0.037891 -567388.000000 0 0 1
-27.465222 31.381581 -8.243599 42.509987 -0.851852 1.765954 0.116351 -0.032722 -548124.000000 0 0 1
35.125902 -24.911919 33.461051 54.535077 -0.616886 0.910223 0.041256 -0.003243 -123600.000000 0 0 1
34.563852 -23.634319 33.642917 53.713004 -0.599762 0.893940 0.035797 -0.006646 91094.600000 0 0 1
33.549732 -23.592419 -33.271609 52.812752 -0.612875 2.252339 0.019617 0.000783 108724.000000 0 0 1
33.084512 -22.138219 -33.032509 51.728448 -0.589714 2.263442 0.012468 -0.002079 160694.000000 0 0 1
32.644202 -21.410519 33.705711 51.576441 -0.580494 0.858584 0.016696 -0.002441 177834.000000 0 0 1
32.265202 -20.103719 -33.871219 50.916228 -0.557216 2.298604 0.017117 0.000861 74947.600000 0 0 1
32.144022 -19.222119 32.775456 49.769052 -0.538947 0.851905 0.018151 -0.005023 426789.000000 0 0 1
33.396182 -18.901619 32.147171 50.060132 -0.515030 0.873469 0.037585 -0.012880 860580.000000 0 0 1
33.154682 -18.548319 30.802885 48.909006 -0.510068 0.889501 0.047696 -0.012040 862517.000000 0 0 1
34.530362 -18.562719 30.016185 49.375012 -0.493255 0.917355 0.040186 -0.010447 813909.000000 0 0 1
35.224202 -17.336619 30.148495 49.499844 -0.457371 0.915918 0.032845 -0.014078 326117.000000 0 0 1
36.483252 -17.418319 29.499655 50.046530 -0.445432 0.940425 0.044045 -0.023491 25659.200000 0 0 1
-36.896312 -16.152919 29.723435 50.057340 0.412656 0.935038 0.033271 -0.024650 -272902.000000 0 0 1
-35.581337 -16.364619 29.260795 48.887897 0.431074 0.929133 0.033772 -0.022396 -278495.000000 0 0 1
-34.758308 -15.546219 30.034475 48.496336 0.420578 0.902927 0.032854 -0.021677 -592513.000000 0 0 1
-33.251982 -15.869719 29.936565 47.473574 0.445288 0.888478 0.052278 -0.024290 -245097.000000 0 0 1
-32.616912 -14.912219 30.747615 47.240375 0.428819 0.862059 0.051892 -0.021204 -757818.000000 0 0 1
-31.366372 -15.407219 31.118155 46.792855 0.456584 0.843277 0.056039 -0.028366 -1002520.000000 0 0 1
-30.492772 -14.376319 31.759165 46.315573 0.440561 0.815214 0.054259 -0.027480 -684699.000000 0 0 1
-30.871362 -13.855319 33.037034 47.291188 0.421862 0.797375 0.061958 -0.024941 90752.600000 0 0 1
-29.960812 -12.911919 33.547103 46.795043 0.406908 0.771459 0.058895 -0.021320 -113777.000000 0 0 1
-30.412272 -12.457619 -32.936939 46.528922 0.388776 2.357290 0.050158 -0.015923 -153168.000000 0 0 1
-30.088722 -13.373119 -31.921769 45.860341 0.418234 2.340698 0.067635 -0.015756 146414.000000 0 0 1
-30.266852 -12.715519 -30.704549 44.950374 0.397725 2.322763 0.072421 -0.012049 -239999.000000 0 0 1
-30.373692 -13.687119 -29.487069 44.490287 0.423373 2.295315 0.079511 -0.012457 323748.000000 0 0 1
-31.617072 -14.369319 -29.433849 45.524368 0.426573 2.273852 0.085192 -0.013276 184955.000000 0 0 1
-31.596952 -15.256919 -28.335089 45.100092 0.449842 2.250125 0.105763 -0.012184 8326.620000 0 0 1
-32.764392 -16.235919 -28.235419 46.199019 0.460070 2.228333 0.087926 -0.013816 -158456.000000 0 0 1
-32.723192 -17.121119 -29.294749 47.139393 0.482043 2.241388 0.094227 -0.014716 -111227.000000 0 0 1
-33.818992 -17.981419 -29.199349 48.162825 0.488682 2.222150 0.084096 -0.014109 -316886.000000 0 0 1
-33.705252 -19.213119 -30.079899 49.091632 0.518094 2.230306 0.082232 -0.022313 -97896.300000 0 0 1
-34.958242 -19.838219 -30.106479 50.219854 0.516167 2.213665 0.065065 -0.018035 -161829.000000 0 0 1
-34.825089 -21.092119 -30.728649 51.008962 0.544570 2.217322 0.062998 -0.022036 448543.000000 0 0 1
-36.149992 -21.852919 -31.088199 52.448529 0.543727 2.205250 0.063335 -0.020436 296404.000000 0 0 1
-36.865932 -22.386319 -30.028709 52.554425 0.545723 2.178986 0.050858 -0.015362 293791.000000 0 0 1
36.354452 -23.344019 -30.372999 52.812011 -0.570818 2.183541 0.050749 -0.012623 638287.000000 0 0 1
36.846002 -24.791319 -30.640069 53.954159 -0.592262 2.174737 0.048353 -0.009889 -41762.800000 0 0 1
-36.936852 -24.968819 -31.959139 54.855807 0.594427 2.192724 0.053929 -0.010319 -114337.000000 0 0 1
-36.206252 -26.220459 -31.916719 54.927972 0.626782 2.190833 0.049877 -0.010896 384582.000000 0 0 1
-36.433372 -27.193359 -33.129879 56.253518 0.641184 2.200541 0.051537 -0.012046 978229.000000 0 0 1
36.498202 -27.782119 -33.191269 56.618241 -0.650625 2.197193 0.047662 -0.010381 598077.000000 0 0 1
36.390772 -29.072679 -33.798419 57.548607 -0.674071 2.198518 0.049361 -0.008798 286710.000000 0 0 1
37.112262 -30.247959 -33.057319 58.181143 -0.683844 2.175088 0.052179 -0.012000 140201.000000 0 0 1
36.411902 -30.631269 -31.908409 57.290906 -0.699388 2.161510 0.061003 -0.017779 -340964.000000 0 0 1
-37.029032 -31.366499 -31.061439 57.617875 0.702796 2.140157 0.049064 -0.019709 -307562.000000 0 0 1
36.554322 -31.733689 -29.690449 56.787043 -0.714922 2.120974 0.038637 -0.018761 -189316.000000 0 0 1
35.815152 -32.899099 -29.782999 57.027212 -0.742986 2.120295 0.063824 -0.015009 -216026.000000 0 0 1
35.510582 -33.382159 -28.501849 56.459945 -0.754513 2.099964 0.063646 -0.018502 8830.280000 0 0 1
34.327462 33.691119 -28.551539 55.934395 0.776043 2.106501 0.069917 -0.026087 41884.900000 0 0 1
33.120122 -33.786219 -28.927489 55.454943 -0.795353 2.119568 0.072135 -0.015029 -277015.000000 0 0 1
31.988402 33.463727 -28.736279 54.487179 0.807935 2.126328 0.064384 -0.024663 -429014.000000 0 0 1
30.765842 33.980614 -29.422089 54.469060 0.835009 2.141425 0.040162 -0.009647 -824434.000000 0 0 1
30.727612 33.716040 -30.833749 55.060672 0.831738 2.165177 0.036402 -0.000734 1075510.000000 0 0 1
29.423992 33.986500 -31.423669 54.847976 0.857226 2.180864 0.030989 0.006393 1183580.000000 0 0 1
29.300632 33.418042 -32.897649 55.295099 0.850953 2.207996 0.027789 0.003131 -68482.100000 0 0 1
29.256412 31.999382 -33.066289 54.527769 0.830147 2.222337 0.028891 0.011266 149136.000000 0 0 1
29.197952 31.692632 33.458975 54.556818 0.826345 0.910581 0.031065 0.007740 -96177.500000 0 0 1
29.113122 30.133492 33.313095 53.529091 0.802619 0.899072 0.030508 0.001933 -485388.000000 0 0 1
30.289412 29.422612 33.556367 53.936707 0.770883 0.899319 0.046303 0.003100 -907004.000000 0 0 1
30.005822 28.162682 -33.718849 53.201944 0.753723 2.257239 0.039344 -0.000414 118254.000000 0 0 1
31.207672 27.251402 -33.387129 53.209568 0.717825 2.249089 0.056836 -0.008023 -32981.400000 0 0 1
31.945702 27.668822 -32.269339 53.173319 0.713779 2.222914 0.072027 -0.013378 372833.000000 0 0 1
33.240932 27.071752 -32.231199 53.634779 0.683466 2.215471 0.078421 -0.012261 867325.000000 0 0 1
34.025512 27.032512 -30.841589 53.288797 0.671365 2.188007 0.087598 -0.018347 -83443.900000 0 0 1
34.714162 28.185132 -30.408739 54.075560 0.681967 2.168007 0.071562 -0.018304 -245477.000000 0 0 1
34.207142 29.522342 -30.401939 54.460768 0.712019 2.163054 0.070368 -0.015968 209568.000000 0 0 1
33.190832 29.828712 -29.227789 53.344607 0.732098 2.150654 0.067639 -0.010925 927544.000000 0 0 1
33.897632 29.933082 -27.998129 53.187725 0.723367 2.125160 0.079498 -0.016706 245302.000000 0 0 1
32.924162 30.186252 -27.032689 52.210886 0.742042 2.115027 0.080654 -0.017290 -41506.300000 0 0 1
33.583312 30.592582 -25.692849 52.190684 0.738830 2.085513 0.088843 -0.024072 234987.000000 0 0 1
34.127352 31.917652 -25.715529 53.335740 0.751953 2.073897 0.084000 -0.025657 88823.700000 0 0 1
34.426162 32.357856 -24.422499 53.185054 0.754438 2.047889 0.069605 -0.040057 86550.800000 0 0 1
34.662672 33.880400 -24.486699 54.304519 0.773986 2.038586 0.072316 -0.036009 273846.000000 0 0 1
33.402032 -33.551889 -24.611999 53.358931 -0.787636 2.050204 0.080759 -0.032044 448199.000000 0 0 1
33.445112 -32.144499 -24.570199 52.493229 -0.765571 2.057895 0.067533 -0.034898 -763008.000000 0 0 1
34.010192 -31.367679 -25.755959 52.952752 -0.745001 2.078755 0.059090 -0.031726 674925.000000 0 0 1
35.390452 -31.558299 -26.067559 54.110332 -0.728220 2.073445 0.071290 -0.039403 685329.000000 0 0 1
36.353522 -30.791299 -25.369699 53.975034 -0.702748 2.060117 0.071477 -0.038451 832942.000000 0 0 1
-36.404352 -31.007439 -25.862289 54.365395 0.705510 2.066570 0.053761 -0.031107 946795.000000 0 0 1
-35.930720 -32.352379 -25.581229 54.700022 0.733042 2.057442 0.053284 -0.034867 4201.660000 0 0 1
-35.680340 -32.744449 -24.252999 54.161735 0.742518 2.035087 0.055745 -0.030594 290007.000000 0 0 1
-34.424672 -32.126289 -23.523099 52.635470 0.750876 2.034100 0.039747 -0.030749 530611.000000 0 0 1
-34.528087 -30.757459 -23.411199 51.829474 0.727706 2.039462 0.017835 -0.024680 -288224.000000 0 0 1
-34.161391 -30.369769 -22.120599 50.780355 0.726709 2.021516 0.033558 -0.026212 -354123.000000 0 0 1
-34.183102 -28.805149 -21.949999 49.799835 0.700224 2.027247 0.031104 -0.015387 134508.000000 0 0 1
-35.354572 -28.064369 -22.254799 50.327236 0.670947 2.028848 0.027159 -0.020994 -261509.000000 0 0 1
-35.423872 -27.846579 -23.673599 50.899135 0.666205 2.054553 0.033463 -0.022759 -305914.000000 0 0 1
-36.745532 -27.220719 -24.120399 51.701019 0.637581 2.056167 0.033686 -0.015679 -221820.000000 0 0 1
-36.747322 -25.814199 -23.610499 50.736518 0.612387 2.054832 0.030136 -0.019190 87124.100000 0 0 1
36.705332 -24.825719 -24.294199 50.535194 -0.594678 2.072293 0.043517 -0.016475 46141.900000 0 0 1
-37.055082 -24.397519 -25.714869 51.279358 0.582266 2.096089 0.051541 -0.017708 19907.400000 0 0 1
-35.907893 -23.553319 -25.639889 50.015393 0.580538 2.109053 0.046827 -0.023322 -60539.000000 0 0 1
-35.673200 -22.884419 -26.854819 50.174248 0.570378 2.135578 0.059289 -0.025615 -24242.500000 0 0 1
-34.528537 -21.870419 -26.735159 48.839573 0.564618 2.150060 0.060997 -0.032872 -84621.900000 0 0 1
-34.729399 -20.918319 -25.667329 47.984571 0.542126 2.135195 0.069848 -0.024594 -167700.000000 0 0 1
-35.436124 -19.746919 -25.983999 48.174972 0.508395 2.140482 0.081908 -0.021271 -269775.000000 0 0 1
-36.622852 -19.449019 -25.043709 48.442595 0.488188 2.114112 0.083405 -0.023628 -141001.000000 0 0 1
-36.409402 -19.118519 -23.665099 47.446805 0.483524 2.092977 0.077521 -0.030416 -408568.000000 0 0 1
-35.825558 -20.111319 -22.837599 47.005231 0.511529 2.078134 0.064775 -0.026832 -313109.000000 0 0 1
-36.653412 -21.323819 -22.473899 47.992229 0.526906 2.058142 0.062759 -0.017752 -566915.000000 0 0 1
36.535582 -21.069219 -21.621099 47.394437 -0.523093 2.044511 0.059662 -0.016409 -648244.000000 0 0 1
35.943922 -22.249819 -21.125299 47.257785 -0.554284 2.034230 0.049648 -0.005139 -175915.000000 0 0 1
34.874702 -21.907119 -20.084599 45.820933 -0.560873 2.024534 0.056612 -0.010980 357506.000000 0 0 1
33.683412 -21.329019 -20.607499 44.879487 -0.564489 2.047862 0.081402 -0.008464 -36187.600000 0 0 1
32.636962 -21.212219 -19.669799 43.612275 -0.576336 2.038699 0.072071 -0.010027 876766.000000 0 0 1
31.331832 -20.605819 -20.325599 42.654583 -0.581744 2.067484 0.060776 -0.009257 -133376.000000 0 0 1
30.880702 -21.434419 -21.356799 43.233841 -0.606758 2.087462 0.058803 -0.005857 760641.000000 0 0 1
29.580722 -20.947419 -21.766799 42.280102 -0.616171 2.111598 0.076110 -0.011105 890233.000000 0 0 1
29.583402 -19.679919 -22.675899 42.150603 -0.587011 2.138827 0.078420 -0.019229 -568718.000000 0 0 1
29.912292 -18.580119 -21.842399 41.437380 -0.555828 2.126002 0.075649 -0.010096 -123465.000000 0 0 1
30.027792 -17.313419 -22.441199 41.292012 -0.523021 2.145368 0.060647 -0.014400 -151026.000000 0 0 1
30.878642 -16.319119 -21.637199 41.084944 -0.486181 2.125446 0.060412 -0.024748 -560487.000000 0 0 1
30.307302 -16.075819 -20.377299 39.902367 -0.487692 2.106771 0.045745 -0.020546 145724.000000 0 0 1
31.155092 -15.611119 -19.343599 39.856262 -0.464509 2.077541 0.029987 -0.016358 -58217.100000 0 0 1
32.264082 -16.567619 -18.794399 40.849559 -0.474389 2.048891 0.054458 -0.024031 257980.000000 0 0 1
33.360042 -16.662419 -19.689999 42.169002 -0.463225 2.056613 0.055131 -0.028931 -219294.000000 0 0 1
34.244232 -17.676219 -19.299699 43.099821 -0.476508 2.035089 0.056993 -0.027785 -604413.000000 0 0 1
35.398032 -17.880819 -20.264099 44.535133 -0.467748 2.043184 0.059738 -0.032639 -688851.000000 0 0 1
36.197312 -16.741419 -20.359099 44.777377 -0.433204 2.042802 0.059174 -0.028398 -348003.000000 0 0 1
-37.014122 -17.068919 -21.246099 45.965095 0.432084 2.051296 0.066359 -0.025932 -401148.000000 0 0 1
-36.079072 -15.920219 -21.606499 44.966584 0.415561 2.072022 0.068853 -0.028580 -335214.000000 0 0 1
-35.129568 -15.617419 -20.620099 43.625438 0.418326 2.063106 0.084925 -0.027394 123946.000000 0 0 1
-34.302329 -14.469019 -20.849899 42.669903 0.399164 2.081318 0.096840 -0.023674 -43479.400000 0 0 1
-33.039642 -14.410819 -19.988399 41.216814 0.411291 2.077111 0.098377 -0.024311 -40294.400000 0 0 1
-32.028062 -15.400619 -20.176199 40.866305 0.448209 2.087150 0.111703 -0.032066 309560.000000 0 0 1
-32.287822 -16.716819 -19.711299 41.358081 0.477742 2.067581 0.091885 -0.029383 -698748.000000 0 0 1
-31.128012 -17.693619 -19.910799 40.968979 0.516871 2.078300 0.081658 -0.030009 -235070.000000 0 0 1
-31.334922 -18.916719 -19.271199 41.365429 0.543132 2.055422 0.082526 -0.027651 -596552.000000 0 0 1
-30.305182 -19.809719 -19.476799 41.111735 0.578954 2.064344 0.085279 -0.029856 -786464.000000 0 0 1
-30.644332 -21.271419 -19.137499 41.926033 0.606781 2.044807 0.070725 -0.010521 -439389.000000 0 0 1
-31.471392 -21.768719 -20.176099 43.259688 0.605133 2.056007 0.072341 -0.018764 9016.720000 0 0 1
-31.927182 -23.055619 -19.896199 44.122163 0.625425 2.038608 0.063098 -0.005059 -1101420.000000 0 0 1
-32.977972 -23.473619 -20.869399 45.542170 0.618600 2.046814 0.043995 -0.009517 -1032940.000000 0 0 1
-32.650552 -23.635719 -22.230299 46.031424 0.626586 2.074803 0.047541 -0.024010 -328142.000000 0 0 1
-33.436752 -24.633419 -22.811899 47.383589 0.634946 2.073082 0.043765 -0.027120 -188568.000000 0 0 1
-32.963052 -24.882319 -24.221499 47.878739 0.646601 2.101213 0.045097 -0.026018 1232720.000000 0 0 1
-31.585572 -25.327069 -24.293799 47.215437 0.675871 2.111257 0.050326 -0.028654 838781.000000 0 0 1
-31.371302 -25.789739 -25.599909 48.006506 0.688060 2.133245 0.058289 -0.027195 -395656.000000 0 0 1
-29.903482 -26.090209 -25.897389 47.387678 0.717401 2.148976 0.063455 -0.031503 -57542.700000 0 0 1
-29.175162 -24.913219 -26.312479 46.521018 0.706765 2.171962 0.090625 -0.045323 1088340.000000 0 0 1
-27.747362 -25.138579 -26.329359 45.772256 0.736110 2.183676 0.079663 -0.037472 1539090.000000 0 0 1
-26.896242 -23.831919 -26.477209 44.636429 0.725065 2.205793 0.094778 -0.036826 184719.000000 0 0 1
-26.915652 -23.389319 -27.818839 45.226103 0.715414 2.233317 0.117523 -0.042655 160732.000000 0 0 1
-26.267152 -22.093519 -27.905599 44.235838 0.699309 2.253428 0.114179 -0.047848 116954.000000 0 0 1
-25.866932 -21.547119 -29.262049 44.605426 0.694541 2.286330 0.116001 -0.042369 192784.000000 0 0 1
-24.853362 -22.351919 -29.848949 44.813588 0.732457 2.299723 0.116705 -0.033681 194673.000000 0 0 1
-24.497962 -21.864319 -31.123459 45.242329 0.728653 2.329426 0.122395 -0.035445 -9267.890000 0 0 1
-23.939462 -23.054819 -31.974459 46.119286 0.766576 2.336853 0.123823 -0.046254 326757.000000 0 0 1
-24.917962 -24.093519 -32.167139 47.287708 0.768578 2.318891 0.120989 -0.040667 256348.000000 0 0 1
-24.582262 -25.167839 -33.006779 48.240597 0.797168 2.324319 0.104818 -0.016400 -35222.300000 0 0 1
-20.400862 -14.053019 -11.733099 27.410730 0.603200 2.013128 0.052863 0.018857 171250.000000 0 0 1
-20.566062 -13.795519 -10.415499 26.865626 0.590852 1.968919 0.073418 0.002136 132324.000000 0 0 1
-19.397162 -14.300019 -9.793799 26.012669 0.635273 1.956813 0.045608 -0.009342 316341.000000 0 0 1
-19.448262 -14.143519 -8.327799 25.448502 0.628774 1.904179 0.080562 -0.025356 532645.000000 0 0 1
-20.614762 -14.716419 -7.699399 26.473046 0.619979 1.865900 0.140317 -0.036663 678240.000000 0 0 1
-20.805362 -14.111519 -6.439199 25.951134 0.595988 1.821544 0.098750 -0.045310 -120672.000000 0 0 1
-22.037162 -14.629019 -5.678999 27.053572 0.586039 1.782286 0.158233 -0.052876 -310340.000000 0 0 1
-21.990662 -15.975419 -5.225599 27.678694 0.628267 1.760731 0.129360 -0.052019 389651.000000 0 0 1
-21.271462 -16.190719 -3.996899 27.029423 0.650597 1.719213 0.143706 -0.047293 -116470.000000 0 0 1
-21.219762 -17.637519 -3.517499 27.816060 0.693468 1.697592 0.108011 -0.041563 -420061.000000 0 0 1
-22.523662 -18.122719 -3.377499 29.105941 0.677544 1.687100 0.126473 -0.044194 -177425.000000 0 0 1
-22.617562 -19.039619 -2.265699 29.651216 0.699718 1.647283 0.098379 -0.036991 106829.000000 0 0 1
-24.021862 -19.664219 -2.033599 31.110559 0.685978 1.636210 0.091518 -0.043098 193050.000000 0 0 1
-24.349962 -20.575919 -3.072099 32.026971 0.701589 1.666866 0.070651 -0.038114 -449150.000000 0 0 1
-25.416332 -21.389619 -2.709499 33.329373 0.699580 1.652181 0.077538 -0.031629 -428218.000000 0 0 1
-25.487772 -22.662819 -3.643899 34.300261 0.726796 1.677233 0.076995 -0.033206 26365.800000 0 0 1
-24.327462 -23.448119 -3.498899 33.968839 0.766995 1.673983 0.074429 -0.030227 -369371.000000 0 0 1
-24.140662 -24.225219 -4.673699 34.517767 0.787146 1.706613 0.081473 -0.024526 1825590.000000 0 0 1
-22.689362 -24.104719 -5.386199 33.538870 0.815635 1.732091 0.082840 -0.017270 1820510.000000 0 0 1
-22.451062 -22.904719 -6.119599 32.651582 0.795400 1.759333 0.069841 -0.013071 206044.000000 0 0 1
-22.195262 -21.727919 -5.302199 31.509450 0.774759 1.739874 0.063538 -0.012593 -460364.000000 0 0 1
-22.137962 -20.419919 -6.080599 30.725171 0.745050 1.770014 0.088927 -0.014313 -126992.000000 0 0 1
-20.861862 -20.110219 -6.600299 29.718717 0.767055 1.794756 0.060734 -0.001936 100374.000000 0 0 1
-20.754862 -18.770519 -7.065199 28.861977 0.735236 1.818102 0.049399 0.001602 -117057.000000 0 0 1
-19.536962 -18.512019 -7.960599 28.067043 0.758467 1.858372 0.044653 -0.000246 -353003.000000 0 0 1
-19.600362 -19.232519 -9.186899 28.956227 0.775926 1.893644 0.032527 -0.000138 353639.000000 0 0 1
-18.381262 -19.323519 -9.935599 28.460241 0.810383 1.927412 0.090099 0.006875 452695.000000 0 0 1
-17.795762 -17.992919 -10.512199 27.403296 0.790907 1.964499 0.082641 0.011017 102169.000000 0 0 1
-17.055362 -17.200419 -9.580499 26.048527 0.789633 1.947432 0.077566 -0.003956 1701100.000000 0 0 1
-15.634262 -17.556819 -9.466599 25.343412 0.843257 1.953611 0.077659 -0.000032 1466190.000000 0 0 1
-14.892262 -16.504019 -8.587599 23.830841 0.836689 1.939446 0.041110 0.004397 -39953.700000 0 1 0
-15.304062 -16.442619 -7.220199 23.594604 0.821247 1.881796 -0.000306 -0.004372 39199.300000 0 1 0
-16.285062 -15.452519 -6.966099 23.505534 0.759172 1.871675 0.052536 0.002281 -161967.000000 0 1 0
-16.503162 -15.406419 -5.508899 23.239193 0.751041 1.810127 0.026874 -0.022086 433690.000000 0 1 0
-17.530762 -14.543919 -4.993399 23.319246 0.692544 1.786600 0.059052 -0.007422 644783.000000 0 1 0
-17.701862 -14.815619 -3.612599 23.364703 0.696870 1.726037 0.044611 -0.010015 -88549.400000 0 1 0
-18.315062 -13.568219 -2.937699 22.981909 0.637602 1.698974 0.050364 -0.016423 -404761.000000 0 1 0
-19.672862 -13.426919 -3.235599 24.036904 0.598891 1.705816 0.097763 -0.034577 -326406.000000 0 1 0
-20.244462 -12.464619 -2.407999 23.895678 0.551887 1.671739 0.100273 -0.025652 -285399.000000 0 1 0
-21.782262 -12.355719 -2.401499 25.157463 0.515981 1.666401 0.121278 -0.028588 -100720.000000 0 0 1
-22.380262 -11.608119 -3.419699 25.442463 0.478477 1.705613 0.137724 -0.036177 432095.000000 0 0 1
-23.759362 -11.894119 -3.552699 26.806698 0.464134 1.703718 0.145697 -0.031693 27754.200000 0 0 1
-24.520162 -11.186419 -4.667999 27.352597 0.428009 1.742296 0.160185 -0.040302 -233603.000000 0 0 1
-24.301962 -11.708519 -5.982099 27.630785 0.448976 1.789026 0.173813 -0.046623 -4611.040000 0 0 1
-25.002262 -11.059519 -6.964799 28.212311 0.416466 1.820246 0.182290 -0.045360 -357287.000000 0 0 1
-24.390762 -11.405619 -8.340899 28.188083 0.437410 1.871196 0.191330 -0.047297 958033.000000 0 0 1
-23.098662 -10.784019 -8.522299 26.878855 0.436792 1.893428 0.161650 -0.044264 1013880.000000 0 0 1
-22.423462 -11.274419 -9.688599 26.903404 0.465882 1.939199 0.125307 -0.032599 -249668.000000 0 0 1
-21.060862 -10.560819 -9.747399 25.497110 0.464801 1.963074 0.104279 -0.031731 -379925.000000 0 0 1
-21.097362 -9.149319 -9.939699 25.052073 0.409192 1.978782 0.094753 -0.037902 544514.000000 0 0 1
-19.774962 -8.687619 -9.720199 23.685568 0.413941 1.993672 0.095536 -0.031110 20714.500000 0 1 0
-19.530662 -7.364619 -10.339199 23.293420 0.360593 2.030707 0.087570 -0.032160 -171872.000000 0 1 0
-19.156362 -7.467119 -11.714199 23.663190 0.371681 2.088676 0.091977 -0.028452 437133.000000 0 1 0
-19.025762 -6.170619 -12.360799 23.512667 0.313625 2.124344 0.102348 -0.042855 -52138.200000 0 1 0
-18.303462 -6.233819 -13.759399 23.731799 0.328260 2.189264 0.104246 -0.032164 525696.000000 0 1 0
-19.143262 -6.735819 -14.824799 25.131861 0.338334 2.201707 0.114199 -0.037781 818122.000000 0 0 1
-18.617162 -6.331019 -16.073599 25.397660 0.327795 2.256060 0.127740 -0.045125 28543.100000 0 0 1
-19.267162 -7.145019 -17.201399 26.798563 0.355118 2.267741 0.106902 -0.031393 940962.000000 0 0 1
-20.612062 -6.799319 -17.594199 27.940002 0.318631 2.251981 0.113688 -0.036374 1163600.000000 0 0 1
-21.087862 -7.635919 -18.599399 29.136624 0.347414 2.263151 0.130236 -0.035771 -893672.000000 0 0 1
-22.491562 -7.380019 -19.107599 30.420970 0.317055 2.249913 0.122116 -0.032948 -1134490.000000 0 0 1
-22.666262 -6.211119 -19.887299 30.787045 0.267459 2.273081 0.126267 -0.035771 1305740.000000 0 0 1
-23.976362 -6.125919 -20.486099 32.125895 0.250147 2.262281 0.110885 -0.034016 551942.000000 0 0 1
-25.203732 -5.726419 -19.706999 32.502089 0.223412 2.222234 0.147984 -0.034328 -723670.000000 0 0 1
-25.391002 -4.331419 -19.385799 32.237764 0.168962 2.215971 0.147345 -0.032391 1304240.000000 0 0 1
-26.643862 -4.141919 -18.659399 32.790610 0.154220 2.176143 0.162567 -0.029803 866695.000000 0 0 1
-26.811712 -2.660119 -18.148299 32.485457 0.098891 2.163565 0.152598 -0.030243 103243.000000 0 0 1
-27.303382 -1.646719 -19.041099 33.327914 0.060239 2.178917 0.151916 -0.025532 1375180.000000 0 0 1
-28.701172 -1.737819 -19.415099 34.694717 0.060475 2.164697 0.163217 -0.020707 1135020.000000 0 0 1
-29.083322 -0.543619 -20.309699 35.477021 0.018690 2.180317 0.148197 -0.014646 -281937.000000 0 0 1
-28.503072 -0.576419 -21.617699 35.778238 0.020220 2.219575 0.137080 -0.015461 -108731.000000 0 0 1
-29.109682 -1.364119 -22.602099 36.879389 0.046827 2.230478 0.123385 -0.014358 -549337.000000 0 0 1
-28.271162 -1.459119 -23.883699 37.038072 0.051566 2.271613 0.112751 -0.015604 -372036.000000 0 0 1
-28.300982 -0.278319 -24.711899 37.572610 0.009834 2.288572 0.114211 -0.008825 35905.300000 0 0 1
-27.783542 0.958081 -24.227499 36.875668 -0.034470 2.287635 0.110035 -0.004507 282486.000000 0 0 1
-26.270792 1.024881 -23.863699 35.506071 -0.038992 2.307840 0.113056 -0.008603 271339.000000 0 0 1
-25.353242 1.006481 -24.924099 35.566988 -0.039677 2.347266 0.096962 -0.013029 480005.000000 0 0 1
-23.989462 0.911981 -24.501299 34.302182 -0.037998 2.366388 0.098544 -0.013877 1031300.000000 0 0 1
-23.077262 0.147181 -25.541159 34.422849 -0.006378 2.406819 0.094468 -0.014187 103760.000000 0 0 1
-22.749562 1.006481 -26.592419 35.010175 -0.044213 2.433437 0.063578 -0.011294 -158369.000000 0 0 1
-21.901162 0.291981 -27.425049 35.098141 -0.013331 2.467673 0.044254 -0.012342 -386589.000000 0 0 1
-21.724662 1.008681 -28.785199 36.077224 -0.046397 2.494562 0.044131 -0.007873 -324684.000000 0 0 1
-20.974762 2.205881 -28.743489 35.651013 -0.104783 2.508575 0.054229 -0.009465 207110.000000 0 0 1
-20.916862 2.933481 -29.950379 36.648952 -0.139336 2.527373 0.037897 -0.007364 -203657.000000 0 0 1
-20.315062 2.323981 -31.238229 37.335367 -0.113902 2.562013 0.035021 -0.010830 -1594920.000000 0 0 1
-18.957162 2.297981 -31.126329 36.517162 -0.120631 2.591307 0.027897 -0.009758 -1854670.000000 0 0 1
-18.380362 1.649481 -32.210049 37.122039 -0.089502 2.621313 0.032555 -0.008741 405501.000000 0 0 1
-16.851362 1.409881 -31.992879 36.187021 -0.083471 2.655357 0.036530 -0.023092 731366.000000 0 0 1
-16.137262 2.602481 -32.361589 36.255436 -0.159895 2.673875 0.033829 -0.018544 351082.000000 0 0 1
-14.731062 2.478681 -32.508819 35.776688 -0.166701 2.710858 0.046679 -0.023474 626359.000000 0 0 1
-13.946962 3.777881 -32.896779 35.930325 -0.264527 2.727723 0.050040 -0.011875 -58744.400000 0 0 1
-13.841262 4.732081 -31.881269 35.076894 -0.329425 2.711427 0.058943 -0.028729 20729.500000 0 0 1
-13.309362 5.929981 -32.388519 35.515067 -0.419147 2.718846 0.064670 -0.004801 -228136.000000 0 0 1
-13.103362 6.979981 -31.278569 34.623217 -0.489453 2.698427 0.065884 -0.012467 -86598.800000 0 0 1
-11.933962 6.727381 -30.506019 33.440908 -0.513314 2.719507 0.099172 -0.028698 500475.000000 0 0 1
-12.142562 5.718981 -29.498649 32.408624 -0.440168 2.714587 0.100101 -0.037157 -30206.200000 0 0 1
-10.759762 5.069081 -29.220369 31.548345 -0.440273 2.755027 0.128903 -0.047481 318919.000000 0 0 1
-10.207462 4.298381 -30.311479 32.271569 -0.398564 2.791272 0.109218 -0.045095 256140.000000 0 0 1
-10.801862 3.021181 -30.520499 32.516283 -0.272722 2.789410 0.110527 -0.041959 -517156.000000 0 0 1
-10.197862 2.215681 -31.696979 33.370708 -0.213944 2.823534 0.097609 -0.044250 -387361.000000 0 0 1
-10.614762 0.913781 -31.965749 33.694470 -0.085874 2.819877 0.101416 -0.047911 -57988.000000 0 0 1
-10.205862 0.422681 -33.260279 34.793454 -0.041392 2.843624 0.084104 -0.038071 -274076.000000 0 0 1
-10.852262 1.041381 33.363201 35.099277 -0.095667 0.315833 0.086887 -0.033274 -812163.000000 0 0 1
-12.115462 0.595581 33.037796 35.194248 -0.049119 0.351878 0.068528 -0.027946 -1143730.000000 0 0 1
-12.400662 1.140981 31.757405 34.111743 -0.091751 0.373704 0.050329 -0.016615 -248247.000000 0 0 1
-13.854562 0.895081 31.330135 34.268461 -0.064516 0.417129 0.048431 -0.013571 -344194.000000 0 0 1
-14.765462 1.846781 31.831315 35.137759 -0.124428 0.437295 0.041614 -0.001850 -210247.000000 0 0 1
-16.002562 1.468481 31.248895 35.138752 -0.091509 0.474984 0.032360 -0.004001 691724.000000 0 0 1
-17.065962 2.640381 31.024175 35.506593 -0.153499 0.507920 0.039642 -0.002903 975105.000000 0 0 1
-17.634462 3.279481 32.204276 36.862510 -0.183870 0.508179 0.041232 -0.010372 434801.000000 0 0 1
-16.885762 4.402681 32.628545 37.001818 -0.255055 0.491111 0.034517 -0.000053 -254585.000000 0 0 1
-17.429662 5.088681 33.915195 38.469836 -0.284060 0.491545 0.024287 0.000043 430017.000000 0 0 1
-18.736762 5.629081 33.702656 38.969499 -0.291851 0.525951 0.028115 0.002936 -129397.000000 0 0 1
-19.603562 5.160581 -33.219859 38.916453 -0.257407 2.593692 0.025318 0.001947 -55748.900000 0 0 1
-21.082662 5.622481 -33.339019 39.844462 -0.260622 2.562079 0.022618 -0.000367 310483.000000 0 0 1
-21.373462 6.996881 -33.016899 39.948678 -0.316368 2.543628 0.026065 -0.013289 32863.600000 0 0 1
-21.135062 7.854781 33.807444 40.636581 -0.355828 0.588190 0.023474 -0.009031 -266095.000000 0 0 1
-21.083462 9.360881 -33.752689 40.882545 -0.417846 2.542064 0.030041 -0.003155 -27307.400000 0 0 1
-19.948862 9.716481 -32.959529 39.732829 -0.453250 2.549060 0.040537 -0.002890 375457.000000 0 0 1
-19.792762 11.065981 -32.646339 39.749124 -0.509797 2.534499 0.056550 -0.006581 356498.000000 0 0 1
-19.074662 11.950381 -33.749049 40.566645 -0.559681 2.553393 0.039515 -0.016291 130502.000000 0 0 1
-19.805962 11.823981 32.938814 40.212537 -0.538204 0.610925 0.051205 -0.018257 333437.000000 0 0 1
-19.076062 12.267981 31.824955 39.079755 -0.571515 0.619172 0.038928 -0.009919 31498.400000 0 0 1
-19.650462 11.607481 30.568035 38.148120 -0.533551 0.641334 0.050939 -0.012500 -187660.000000 0 0 1
-19.723262 10.215781 30.593275 37.806319 -0.477909 0.627989 0.043549 -0.008264 -236011.000000 0 0 1
-18.527262 9.510081 30.411755 36.858865 -0.474233 0.600441 0.034852 -0.018215 -276844.000000 0 0 1
-18.596562 8.038181 30.648065 36.738922 -0.407987 0.584093 0.040413 -0.000555 -263215.000000 0 0 1
-19.311162 7.375081 29.677305 36.167046 -0.364813 0.608403 0.038566 0.004895 -257189.000000 0 0 1
-19.451662 6.028781 29.979265 36.241823 -0.300548 0.596689 0.041649 -0.003571 -109180.000000 0 0 1
-20.056562 5.236581 28.777085 35.465590 -0.255389 0.624238 0.052639 -0.010892 579704.000000 0 0 1
-21.476162 5.394381 28.672925 36.227911 -0.246089 0.657603 0.075183 -0.017164 384018.000000 0 0 1
-22.033862 4.588881 27.652585 35.654093 -0.205330 0.683164 0.070776 -0.018185 780752.000000 0 0 1
-23.524662 4.935981 27.310365 36.381722 -0.206821 0.721733 0.078445 -0.011689 711509.000000 0 0 1
-23.736362 6.159281 26.609955 36.186204 -0.253888 0.744596 0.089454 -0.016851 613913.000000 0 0 1
-25.111232 6.381381 26.283085 36.906593 -0.248857 0.778238 0.096610 -0.018361 53274.500000 0 0 1
-25.427392 7.186381 24.976955 36.359932 -0.275440 0.813532 0.096406 -0.026057 -107636.000000 0 0 1
-25.592502 6.371781 23.818065 35.536967 -0.244010 0.836273 0.102223 -0.025535 -107867.000000 0 0 1
-26.681542 5.511681 23.858765 36.214969 -0.203708 0.851561 0.104230 -0.024297 -980021.000000 0 0 1
-26.834072 4.789081 22.472845 35.327489 -0.176611 0.881325 0.110322 -0.020791 103888.000000 0 0 1
-27.435862 5.573381 21.428545 35.255803 -0.200415 0.917507 0.109980 -0.030836 174325.000000 0 0 1
-27.441132 4.779781 20.227145 34.423821 -0.172453 0.942717 0.109201 -0.024535 -321019.000000 0 0 1
-28.438022 5.347381 19.183345 34.717666 -0.185866 0.985372 0.112353 -0.027641 693781.000000 0 0 1
-29.796272 5.132781 19.582445 36.022707 -0.170588 0.996060 0.117757 -0.028156 29118.300000 0 0 1
-30.659042 5.720881 18.706645 36.368172 -0.184475 1.030525 0.118414 -0.026591 859639.000000 0 0 1
-32.216242 5.727581 19.026145 37.850834 -0.175947 1.044122 0.119893 -0.023941 1367150.000000 0 0 1
-32.603032 6.751381 19.875545 38.775974 -0.204192 1.032617 0.119752 -0.039415 -1345110.000000 0 0 1
-33.962962 6.710281 20.027045 39.994915 -0.195064 1.046343 0.114578 -0.027770 -1369200.000000 0 0 1
-34.431883 7.829081 20.973345 41.069822 -0.223577 1.034826 0.111938 -0.019940 -134455.000000 0 0 1
-34.095560 7.659481 22.310045 41.459776 -0.220979 1.002600 0.099689 -0.023671 250015.000000 0 0 1
-34.625355 8.752681 23.098295 42.532998 -0.247596 0.996710 0.101619 -0.012923 307147.000000 0 0 1
-1.076062 32.115181 11.393401 34.093289 -1.537303 1.230058 0.094624 -0.006221 -184976.000000 0 0 1
-1.162862 32.403381 12.746801 34.839809 -1.534925 1.196230 0.073500 -0.009390 -48908.500000 0 0 1
-0.635162 33.641781 13.077101 36.099632 -1.551918 1.200115 0.081939 -0.018904 -136790.000000 0 0 1
-0.337162 33.864181 14.594901 36.876925 -1.560840 1.163887 0.070105 -0.011851 -38547.400000 0 0 1
-1.495462 33.858481 15.385701 37.220330 -1.526657 1.144646 0.056148 0.003801 -268481.000000 0 0 1
-1.201962 -33.704970 16.645801 37.610535 1.535150 1.112319 0.046303 -0.006572 -102675.000000 0 0 1
-2.427762 -33.353570 17.493001 37.740690 1.498136 1.088850 0.044658 0.002436 -189666.000000 0 0 1
-3.211562 33.602181 17.842001 38.180593 -1.475510 1.084556 0.033205 0.002497 295556.000000 0 0 1
-4.205062 33.922281 18.822201 39.021519 -1.447464 1.067456 0.031094 0.001855 -169480.000000 0 0 1
-5.173162 32.789281 19.083301 38.289306 -1.414316 1.049047 0.027634 -0.008912 -229567.000000 0 0 1
-6.237462 32.695081 18.170901 37.921708 -1.382285 1.071089 0.032787 -0.019991 165992.000000 0 0 1
-7.441562 32.211081 18.742801 38.002936 -1.343755 1.055039 0.046817 -0.033846 345726.000000 0 0 1
-8.634962 32.090881 17.771601 37.685767 -1.307944 1.079722 0.037572 -0.032630 -221951.000000 0 0 1
-9.324862 33.299681 17.509301 38.760772 -1.297761 1.102096 0.048415 -0.035592 -222209.000000 0 0 1
-10.068162 33.186781 16.336601 38.335556 -1.276243 1.130566 0.054952 -0.032798 -76221.300000 0 0 1
-11.247062 -33.902570 16.217601 39.228704 1.250475 1.144599 0.088279 -0.037910 274956.000000 0 0 1
-12.267762 -34.033370 17.208901 40.061384 1.224831 1.126787 0.087770 -0.027997 -362958.000000 0 0 1
-13.308562 -33.191770 16.854401 39.533305 1.189463 1.130360 0.063665 -0.029262 -320950.000000 0 0 1
-14.529462 -33.344970 17.810401 40.499415 1.159871 1.115455 0.094420 -0.028839 420804.000000 0 0 1
-14.297062 -32.966070 19.150901 40.717622 1.161588 1.081127 0.100977 -0.025433 -97395.900000 0 0 1
-15.501462 -33.279470 19.811401 41.717023 1.134884 1.075946 0.092504 -0.029396 206226.000000 0 0 1
-15.565962 -32.973170 21.346401 42.251603 1.129733 1.041158 0.105400 -0.038610 34080.400000 0 0 1
-15.694362 -31.574370 21.516901 41.306547 1.109503 1.022882 0.104838 -0.026459 -56251.100000 0 0 1
-15.823262 -31.227270 22.882201 41.822400 1.101793 0.991867 0.098864 -0.026467 197074.000000 0 0 1
-15.441962 -29.743370 23.051501 40.675471 1.091928 0.968280 0.105505 -0.032498 44030.300000 0 0 1
-15.732762 -29.219770 24.339101 41.154666 1.076880 0.937995 0.099932 -0.038471 -271325.000000 0 0 1
-15.604562 -27.842070 24.396201 40.172849 1.059953 0.918163 0.088507 -0.023709 791188.000000 0 0 1
-16.847562 -26.930970 24.022701 39.827222 1.011778 0.923323 0.109121 -0.022871 418196.000000 0 0 1
-17.930462 -26.954570 24.906201 40.845675 0.983803 0.915034 0.120196 -0.026355 -516930.000000 0 0 1
-18.902262 -26.066270 24.387801 40.391964 0.943382 0.922564 0.122281 -0.020697 -555136.000000 0 0 1
-19.991162 -25.749270 25.462001 41.364054 0.910626 0.907702 0.120179 -0.013440 488905.000000 0 0 1
-20.831262 -26.836270 25.854001 42.691407 0.910715 0.920274 0.132610 -0.016408 726569.000000 0 0 1
-21.608162 -27.546970 24.865801 42.942476 0.905633 0.953234 0.112636 -0.016200 29657.000000 0 0 1
-23.018362 -26.987370 24.528701 43.125634 0.864603 0.965783 0.081042 -0.000869 20094.400000 0 0 1
-23.046362 -25.805170 23.737601 41.958495 0.841812 0.969466 0.084481 -0.003456 289795.000000 0 0 1
-24.359562 -25.617070 23.239301 42.304700 0.810555 0.989232 0.065695 -0.004564 35286.100000 0 0 1
-24.933962 -24.238770 23.029001 41.707976 0.771261 0.985857 0.065659 0.012569 -22352.500000 0 0 1
-25.403252 -23.527570 24.177501 42.230597 0.747084 0.961231 0.054137 0.009569 51169.400000 0 0 1
-25.831862 -22.222570 23.899501 41.621074 0.710430 0.959150 0.037845 0.011286 143685.000000 0 0 1
-26.177822 -21.344470 25.168301 42.122537 0.684040 0.930414 0.043814 0.009516 -588960.000000 0 0 1
-27.452632 -21.700970 25.572701 43.342152 0.668914 0.939714 0.032314 0.018285 -671940.000000 0 0 1
-27.706952 -21.063570 26.809501 43.932886 0.650014 0.914436 0.020625 0.001323 -1068.520000 0 0 1
-28.805562 -21.865070 27.605301 45.496091 0.649273 0.918816 0.021761 0.000095 727684.000000 0 0 1
-30.160782 -21.742170 27.201701 46.068723 0.624599 0.939169 0.022446 -0.007002 553963.000000 0 0 1
-30.556882 -22.522870 26.074401 46.052981 0.635181 0.968929 0.007560 0.007887 -159314.000000 0 0 1
-32.077732 -22.841570 25.997801 47.186903 0.618780 0.987290 0.020368 -0.004488 336574.000000 0 0 1
-32.515412 -23.331370 24.764901 47.062779 0.622406 1.016659 0.007689 -0.000793 22290.900000 0 0 1
-32.261622 -24.740770 24.536401 47.486344 0.654217 1.027799 -0.001215 0.007071 -665767.000000 0 0 1
-32.683872 -25.232970 23.192001 47.358285 0.657453 1.059035 0.014672 0.007674 1032630.000000 0 0 1
-34.109265 -25.423270 23.037501 48.378829 0.640517 1.074480 0.021284 -0.001504 1035600.000000 0 0 1
-34.332691 -25.909870 21.704901 48.178395 0.646484 1.103459 0.021903 0.004601 359124.000000 0 0 1
-35.735729 -26.563370 21.533501 49.460556 0.639217 1.120350 0.047109 -0.004527 -6251.960000 0 0 1
-36.036489 -27.695870 22.283001 50.618395 0.655268 1.114958 0.038543 -0.004434 130728.000000 0 0 1
-35.274358 -28.893770 22.083701 50.663795 0.686288 1.119772 0.009804 0.001446 -471042.000000 0 0 1
-35.637038 -29.904570 21.037001 51.057195 0.698157 1.146118 0.027555 -0.000698 -492534.000000 0 0 1
-35.577183 -29.423570 19.715501 50.201428 0.691010 1.167200 0.046352 -0.008070 431236.000000 0 0 1
-35.840154 -30.435270 18.750401 50.620152 0.704026 1.191342 0.064641 -0.008599 -375992.000000 0 0 1
-36.029233 -29.968070 17.297601 49.953957 0.693816 1.217203 0.082312 -0.008898 -132717.000000 0 0 1
-34.858370 -29.462470 16.658201 48.586405 0.701704 1.220840 0.084464 -0.017247 222904.000000 0 0 1
-35.054302 -28.887070 15.362901 47.950866 0.689244 1.244657 0.115694 -0.025690 150836.000000 0 0 1
-35.840828 -29.631770 14.211901 48.626997 0.690846 1.274203 0.117429 -0.030938 65984.900000 0 0 1
-35.131723 -30.761570 13.731601 48.673083 0.719173 1.284794 0.119950 -0.036539 -181450.000000 0 0 1
-35.728420 -31.631470 12.789801 49.402924 0.724651 1.308926 0.128231 -0.033185 -128555.000000 0 0 1
-36.187282 -30.944370 11.474001 48.976791 0.707457 1.334324 0.127960 -0.031105 -593980.000000 0 0 1
36.978832 -30.106870 11.592401 49.073836 -0.683319 1.332319 0.126802 -0.034736 -737973.000000 0 0 1
36.772922 -29.283970 10.484101 48.163420 -0.672509 1.351362 0.107463 -0.022251 -460856.000000 0 0 1
35.423662 -28.586270 10.431301 46.699279 -0.678984 1.345524 0.138326 -0.013084 -616867.000000 0 0 1
35.571772 -27.435270 9.624701 45.942136 -0.656972 1.359737 0.141729 -0.049046 474425.000000 0 0 1
34.401252 -26.673170 9.331701 44.519488 -0.659532 1.359621 0.107954 -0.041022 53271.100000 0 0 1
34.576862 -25.719170 8.137201 43.854864 -0.639538 1.384166 0.091569 -0.039820 -69795.800000 0 0 1
35.374812 -24.631570 8.509801 43.937550 -0.608240 1.375885 0.110358 -0.043397 52067.300000 0 0 1
35.748232 -23.929370 7.338401 43.639466 -0.589883 1.401834 0.095606 -0.047777 30778.800000 0 0 1
36.312942 -22.500270 7.535801 43.378338 -0.554722 1.396188 0.115862 -0.055897 -870329.000000 0 0 1
35.351292 -21.564970 7.799101 42.137724 -0.547754 1.384637 0.095098 -0.050909 -932603.000000 0 0 1
35.762112 -20.253570 7.602101 41.796264 -0.515303 1.387894 0.104929 -0.043938 -13346.300000 0 0 1
34.974322 -19.184170 8.431001 40.771526 -0.501707 1.362507 0.104806 -0.033080 27660.300000 0 0 1
35.259062 -19.377370 9.797501 41.408634 -0.502514 1.331926 0.095931 -0.045291 -479265.000000 0 0 1
34.544372 -18.497870 10.580201 40.588490 -0.491628 1.307080 0.078591 -0.031481 -344068.000000 0 0 1
34.937792 -18.500070 12.080301 41.338065 -0.486980 1.274237 0.074299 -0.041891 -495471.000000 0 0 1
36.111112 -17.859270 12.435601 42.161714 -0.459290 1.271393 0.069894 -0.038262 -514840.000000 0 0 1
36.558922 -18.154170 13.724401 43.063765 -0.460902 1.246439 0.079374 -0.029781 -895430.000000 0 0 1
-36.475532 -17.393170 14.185101 42.827607 0.444952 1.233206 0.102957 -0.035860 -1512860.000000 0 0 1
-35.321737 -17.776770 13.520601 41.790493 0.466269 1.241335 0.097305 -0.033752 -696292.000000 0 0 1
-34.258202 -17.220070 14.281001 40.915794 0.465770 1.214256 0.080854 -0.026424 430282.000000 0 0 1
-32.880452 -17.213970 13.535801 39.505225 0.482296 1.221078 0.083816 -0.025342 334137.000000 0 0 1
-32.239622 -18.461970 13.408001 39.496988 0.520065 1.224444 0.076416 -0.031287 -281499.000000 0 0 1
-31.060392 -18.276470 12.672101 38.201563 0.531859 1.232673 0.051735 -0.029468 49557.200000 0 0 1
-30.215712 -19.595170 12.509201 38.124009 0.575327 1.236485 0.055256 -0.023541 204120.000000 0 0 1
-30.676742 -20.443170 11.471901 38.608162 0.587822 1.269104 0.075531 -0.018780 -194604.000000 0 0 1
-29.674812 -21.314570 10.953001 38.142805 0.622884 1.279538 0.073838 -0.017320 -264629.000000 0 0 1
-30.101642 -22.515870 10.018901 38.903106 0.642216 1.310326 0.091840 -0.022538 194620.000000 0 0 1
-30.827572 -23.640670 10.510601 40.245412 0.654209 1.306570 0.104734 -0.016809 81406.600000 0 0 1
-32.168812 -23.364470 10.848401 41.211876 0.628165 1.304423 0.134105 -0.030110 -174293.000000 0 0 1
-33.053442 -24.647770 11.035701 42.682892 0.640740 1.309275 0.147656 -0.037393 204986.000000 0 0 1
-33.504942 -25.165270 9.789701 43.031502 0.644199 1.341286 0.135426 -0.028593 -64105.100000 0 0 1
-34.282131 -26.330270 9.933001 44.353265 0.654951 1.344929 0.150147 -0.019853 29727.600000 0 0 1
-34.529132 -27.034170 8.529001 44.674950 0.664250 1.378705 0.131717 -0.025269 548974.000000 0 0 1
-33.332612 -27.508070 7.910601 43.935573 0.689955 1.389759 0.116945 -0.021197 244378.000000 0 0 1
-33.606932 -28.174870 6.722801 44.367164 0.697700 1.418684 0.093154 -0.013110 41664.900000 0 0 1
-32.349112 -28.650170 5.955701 43.620725 0.724833 1.433835 0.081773 -0.007710 540721.000000 0 0 1
-31.592372 -27.567270 5.342501 42.267892 0.717465 1.444061 0.092310 -0.002824 -10204.500000 0 0 1
-30.414282 -28.105370 4.792101 41.688183 0.745963 1.455591 0.080584 -0.015135 112516.000000 0 0 1
-29.599692 -26.970070 4.049101 40.248250 0.738947 1.470023 0.081840 -0.015805 657378.000000 0 0 1
-30.225662 -26.447470 2.821601 40.261902 0.718830 1.500658 0.095726 -0.019444 -41165.100000 0 0 1
-29.397202 -25.479870 2.275401 38.969176 0.714135 1.512373 0.091711 -0.019496 24676.500000 0 0 1
-29.912672 -24.758570 0.964101 38.841785 0.691402 1.545973 0.094659 -0.024760 -210416.000000 0 0 1
-29.455102 -25.515870 -0.133199 38.970250 0.713860 1.574214 0.097122 -0.032707 13309.900000 0 0 1
-29.696202 -24.903270 -1.429099 38.782465 0.697839 1.607654 0.101736 -0.036269 233908.000000 0 0 1
-31.167522 -24.789170 -1.925599 39.870106 0.671901 1.619112 0.114760 -0.028632 370137.000000 0 0 1
-31.828792 -23.643070 -1.381699 39.673365 0.638890 1.605630 0.109000 -0.019588 542817.000000 0 0 1
-33.147592 -23.563270 -1.946899 40.715857 0.617977 1.618631 0.119994 -0.019035 595744.000000 0 0 1
-33.831892 -22.196370 -1.775199 40.502186 0.580636 1.614640 0.108630 -0.014554 -143734.000000 0 0 1
-34.031602 -21.860170 -0.448499 40.450193 0.570978 1.581884 0.113252 -0.022332 184552.000000 0 0 1
-34.720482 -20.638270 -0.311999 40.392418 0.536301 1.578521 0.116679 -0.023575 -173009.000000 0 0 1
-35.061423 -20.319470 1.149001 40.540158 0.525239 1.542450 0.116333 -0.027873 195492.000000 0 0 1
-35.982443 -21.151270 1.850001 41.779600 0.531417 1.526502 0.114270 -0.038314 389410.000000 0 0 1
-36.178332 -20.707370 3.213501 41.809012 0.519855 1.493859 0.121951 -0.048285 -696119.000000 0 0 1
37.015542 -21.593770 3.941601 43.034608 -0.528102 1.479076 0.139272 -0.037568 1134600.000000 0 0 1
35.629172 -21.513070 3.609101 41.776497 -0.543213 1.484298 0.096137 -0.034824 719553.000000 0 0 1
35.049762 -20.201270 3.699901 40.623471 -0.522856 1.479592 0.085967 -0.036396 -172491.000000 0 0 1
33.815942 -20.093570 2.709101 39.428527 -0.536147 1.502033 0.060530 -0.026753 749418.000000 0 0 1
32.793232 -20.967770 3.107401 39.047399 -0.568883 1.491132 0.040704 -0.021986 -884962.000000 0 0 1
31.576372 -20.711070 2.492401 37.844785 -0.580514 1.504890 0.053960 -0.018183 866392.000000 0 0 1
30.327952 -21.612470 2.912301 37.354585 -0.619149 1.492753 0.047539 0.003040 1026600.000000 0 0 1
30.266002 -22.798070 2.154701 37.952940 -0.645582 1.513993 0.021188 -0.003027 360186.000000 0 0 1
28.987822 -23.431270 2.236301 37.340585 -0.679790 1.510871 0.023746 0.005231 426594.000000 0 0 1
28.733722 -24.621370 1.404901 37.865715 -0.708475 1.533686 0.013806 0.008154 -280269.000000 0 0 1
28.610722 -24.349170 -0.041599 37.569366 -0.705104 1.571904 0.013160 0.000915 86316.200000 0 0 1
28.008622 -25.473370 -0.662799 37.865747 -0.738030 1.588301 0.011145 -0.005966 -603577.000000 0 0 1
27.141522 -25.001870 -1.837599 36.947699 -0.744387 1.620552 0.047946 -0.013975 -534773.000000 0 0 1
27.727022 -24.253570 -2.895199 36.951395 -0.718675 1.649228 0.017550 -0.025475 309304.000000 0 0 1
28.323822 -24.954770 -4.005199 37.960783 -0.722248 1.676502 0.018581 -0.027791 -339096.000000 0 0 1
27.266622 -25.574870 -4.947399 37.709673 -0.753393 1.702373 0.034496 -0.033643 214399.000000 0 0 1
26.600122 -24.650470 -5.817899 36.729554 -0.747375 1.729865 0.045799 -0.050362 878263.000000 0 0 1
25.359222 -24.184170 -5.286799 35.438884 -0.761685 1.720536 0.067943 -0.046142 -237890.000000 0 0 1
24.700322 -23.044170 -6.126799 34.331871 -0.750724 1.750215 0.088661 -0.057358 -66370.400000 0 0 1
24.092722 -23.499070 -7.313399 34.440548 -0.772925 1.784774 0.103135 -0.056780 207452.000000 0 0 1
23.173322 -22.634170 -7.927799 33.349041 -0.773629 1.810816 0.106890 -0.052530 -115651.000000 0 0 1
23.729922 -21.323270 -8.578099 33.035963 -0.732031 1.833466 0.117793 -0.049112 -528153.000000 0 0 1
23.898422 -21.488670 -9.970399 33.649761 -0.732355 1.871612 0.110633 -0.043520 228984.000000 0 0 1
24.005522 -20.212670 -10.553899 33.108940 -0.699832 1.895220 0.105655 -0.041669 -364491.000000 0 0 1
24.799322 -20.081170 -11.844899 34.037647 -0.680656 1.926227 0.076533 -0.044945 1051910.000000 0 0 1
26.214922 -20.329870 -11.712099 35.180947 -0.659627 1.910185 0.074589 -0.042637 850059.000000 0 0 1
27.044322 -19.969470 -12.780899 35.965629 -0.636034 1.934100 0.066728 -0.043788 -46705.600000 0 0 1
28.381522 -20.702670 -12.499599 37.287415 -0.630214 1.912638 0.047271 -0.041650 -369047.000000 0 0 1
28.434322 -22.033370 -12.902699 38.215962 -0.659239 1.915190 0.044276 -0.039359 684283.000000 0 0 1
29.447752 -22.665570 -12.086599 39.076643 -0.655983 1.885258 0.056994 -0.039904 119848.000000 0 0 1
29.914262 -24.045270 -12.563099 40.384026 -0.677057 1.887137 0.039993 -0.041451 -426187.000000 0 0 1
30.681172 -24.142670 -13.743999 41.389617 -0.666695 1.909287 0.029828 -0.038313 182995.000000 0 0 1
30.968812 -25.500870 -13.875499 42.448689 -0.688869 1.903793 0.042955 -0.031120 -64456.500000 0 0 1
-4.482162 -8.862819 -27.389589 29.134669 1.102578 2.793729 0.062146 -0.016596 152108.000000 0 0 1
-4.151362 -7.564119 -26.837619 28.190557 1.068857 2.830525 0.038364 -0.011319 381368.000000 0 0 1
-4.800462 -6.537619 -27.575579 28.743651 0.937430 2.855530 0.039376 -0.011996 -97189.800000 0 0 1
-4.577762 -5.188819 -26.842089 27.719623 0.847883 2.889299 0.039226 -0.018704 -96328.800000 0 0 1
-5.253462 -5.206519 -25.624949 26.671047 0.780910 2.860590 0.031965 -0.016734 158512.000000 0 0 1
-4.956662 -4.020519 -24.937299 25.741056 0.681493 2.891039 0.035040 -0.021966 73315.500000 0 0 1
-5.354362 -4.061419 -23.428999 24.373804 0.648935 2.862250 0.028763 -0.027221 -10282.400000 0 1 0
-4.715462 -5.136919 -22.738499 23.783668 0.828149 2.844034 0.019910 -0.023704 423416.000000 0 1 0
-5.016462 -5.113519 -21.389699 22.557309 0.794979 2.818437 0.017103 -0.022210 -301213.000000 0 1 0
-4.465062 -6.253119 -20.523599 21.914753 0.950701 2.783365 0.017930 -0.023971 -879396.000000 0 1 0
-5.088662 -7.516419 -20.785399 22.680914 0.975670 2.729855 0.020121 -0.015867 266719.000000 0 1 0
-4.429662 -8.593619 -20.152299 22.351451 1.094858 2.694274 0.027265 -0.018360 -1283630.000000 0 1 0
-5.290962 -9.867619 -20.278599 23.164321 1.078614 2.637108 0.043348 -0.012968 1210900.000000 0 1 0
-6.499562 -9.861019 -19.485199 22.785017 0.988039 2.596687 0.056376 -0.012076 410536.000000 0 1 0
-7.497162 -8.977219 -19.877699 23.063409 0.874998 2.609745 0.048757 -0.015839 -1924480.000000 0 1 0
-8.644362 -8.914719 -18.882999 22.600108 0.800794 2.559887 0.053866 -0.010674 -340703.000000 0 1 0
-9.462462 -10.080919 -18.855099 23.381144 0.817033 2.508875 0.101430 -0.012616 261334.000000 0 1 0
-9.574562 -10.603419 -17.525499 22.610791 0.836343 2.457661 0.065697 -0.014271 3088.820000 0 1 0
-10.362662 -11.926719 -17.654799 23.692263 0.855454 2.411588 0.094305 -0.004267 1118420.000000 0 1 0
-11.708762 -11.875519 -18.172799 24.665233 0.792469 2.399089 0.100867 -0.019839 1017080.000000 0 1 0
-11.722862 -12.147119 -19.588099 25.858686 0.803170 2.430280 0.105003 -0.024502 -637603.000000 0 0 1
-13.054462 -11.937019 -20.323399 26.943496 0.740715 2.425379 0.093931 -0.023221 97716.800000 0 0 1
-14.111562 -12.862019 -20.277799 27.852412 0.739107 2.386262 0.092181 -0.017503 229346.000000 0 0 1
-14.799762 -13.012519 -19.026999 27.393162 0.721225 2.338645 0.084755 -0.006585 -104769.000000 0 0 1
-16.101262 -13.842819 -19.185199 28.617235 0.710119 2.305554 0.088087 -0.000001 49701.200000 0 0 1
-15.901262 -15.216419 -19.344399 29.301797 0.763394 2.291852 0.092873 -0.007845 89930.700000 0 0 1
-16.370862 -15.685219 -20.629499 30.653017 0.764013 2.309055 0.101242 -0.011370 262598.000000 0 0 1
-15.791362 -17.113319 -20.906599 31.294068 0.825552 2.302407 0.073002 -0.003923 110760.000000 0 0 1
-16.213162 -18.182319 -20.066599 31.561555 0.842586 2.259831 0.083094 0.002650 106397.000000 0 0 1
-15.805962 -19.433019 -20.552799 32.401979 0.887964 2.257908 0.066779 0.002247 -114567.000000 0 0 1
-16.533062 -20.536119 -19.733599 32.931585 0.892970 2.213336 0.081197 -0.007644 1775.440000 0 0 1
-16.242062 -21.805319 -20.266699 33.911880 0.930588 2.211336 0.074969 -0.008854 6354.330000 0 0 1
-16.976362 -22.754319 -19.568699 34.480283 0.929814 2.174303 0.099240 -0.011264 -201831.000000 0 0 1
-16.670562 -24.249419 -19.851799 35.496984 0.968535 2.164281 0.101999 -0.013004 -196275.000000 0 0 1
-17.015862 -24.711619 -21.128199 36.696110 0.967778 2.184331 0.077613 -0.011791 257729.000000 0 0 1
-16.503962 -26.043099 -21.182599 37.407570 1.005953 2.172764 0.079746 -0.010928 -147027.000000 0 0 1
-16.348162 -26.564319 -22.669299 38.559338 1.019117 2.199265 0.083721 -0.020327 302006.000000 0 0 1
-17.534362 -27.044919 -23.302099 39.772721 0.995587 2.196764 0.106698 -0.019322 117872.000000 0 0 1
-17.865562 -28.340589 -22.969199 40.619594 1.008332 2.171800 0.106616 -0.014109 -354008.000000 0 0 1
-18.961862 -28.882669 -23.924299 42.025384 0.989856 2.176429 0.109816 -0.019721 -178415.000000 0 0 1
-18.691462 -29.042329 -25.344449 42.838870 0.998938 2.203866 0.114082 -0.008610 -71045.700000 0 0 1
-18.586062 -27.818219 -26.050449 42.401898 0.981784 2.232383 0.135385 -0.020518 -324398.000000 0 0 1
-17.365862 -27.667209 -26.955239 42.351299 1.010280 2.260706 0.150844 -0.028643 -568832.000000 0 0 1
-17.394862 -28.307689 -28.207339 43.583947 1.019789 2.274696 0.150083 -0.012597 411621.000000 0 0 1
-16.217662 -28.059119 -28.979149 43.475485 1.046724 2.300385 0.109583 -0.004493 396089.000000 0 0 1
-16.525562 -28.007949 -30.508989 44.590782 1.037739 2.324302 0.122701 -0.013066 79932.200000 0 0 1
-16.858662 -29.295199 -30.949429 45.828925 1.048605 2.312202 0.129325 -0.010607 64341.000000 0 0 1
-17.250362 -29.308409 -32.290069 46.895697 1.038816 2.330285 0.125130 -0.009729 -56701.700000 0 0 1
-17.113662 -30.640409 -33.020359 48.187719 1.061426 2.325735 0.135718 -0.014595 271151.000000 0 0 1
-15.813462 -31.013999 -33.430789 48.265426 1.099275 2.335946 0.138778 -0.015035 -215968.000000 0 0 1
-15.928162 -32.176869 33.643720 49.203223 1.111141 0.817879 0.130286 -0.015087 -163199.000000 0 0 1
-14.673262 -32.861529 33.083896 48.884853 1.150842 0.827427 0.119246 -0.025888 -372647.000000 0 0 1
-13.840062 -33.472259 -33.864039 49.585407 1.178725 2.322581 0.124889 -0.023815 -358330.000000 0 0 1
-12.755162 -34.039088 33.354241 49.334157 1.212270 0.828356 0.117707 -0.026547 -199102.000000 0 0 1
-11.746062 33.147287 -33.796479 48.774118 -1.230243 2.336325 0.122740 -0.029093 82680.700000 0 0 1
-10.841862 33.840015 -32.976509 48.478271 -1.260743 2.318876 0.131374 -0.027890 -398623.000000 0 0 1
-9.985662 32.963234 -32.290329 47.211795 -1.276651 2.323955 0.128685 -0.034714 244173.000000 0 0 1
-8.984262 33.847568 -31.461189 47.076335 -1.311346 2.302720 0.129387 -0.039350 455135.000000 0 0 1
-9.645562 -33.598229 -30.351069 46.293253 1.291229 2.285808 0.141892 -0.035248 226085.000000 0 0 1
-8.773062 -32.684219 -29.754069 45.061396 1.308559 2.292015 0.121813 -0.037015 -261624.000000 0 0 1
-9.581562 -31.667519 -28.907309 43.934845 1.276986 2.288901 0.140958 -0.034280 110619.000000 0 0 1
-9.688162 -31.988699 -27.515099 43.292240 1.276716 2.259538 0.151875 -0.036851 184871.000000 0 0 1
-10.637462 -33.018919 -27.187169 44.074332 1.259133 2.235528 0.164247 -0.042389 143187.000000 0 0 1
-10.860662 -33.051169 -25.632829 43.213143 1.253310 2.205790 0.147325 -0.042013 -341577.000000 0 0 1
-9.748962 -33.387229 -24.879499 42.763756 1.286698 2.191723 0.154967 -0.049607 -887767.000000 0 0 1
-10.088562 -33.315759 -23.528599 42.015638 1.276758 2.165178 0.141778 -0.050163 968553.000000 0 0 1
-8.962462 -33.581219 -22.411299 41.355657 1.309986 2.143512 0.141128 -0.056846 962866.000000 0 0 1
-8.467762 33.174655 -22.490099 40.964196 -1.320885 2.151986 0.136405 -0.058641 -262894.000000 0 0 1
-7.669362 32.843027 -21.392599 39.939039 -1.341391 2.136051 0.134727 -0.057687 -246743.000000 0 0 1
-6.953362 31.455452 -21.413099 38.682238 -1.353241 2.157434 0.128856 -0.067243 377027.000000 0 0 1
-5.596862 31.544652 -21.829999 38.767755 -1.395197 2.168925 0.100486 -0.069363 284163.000000 0 0 1
-5.106062 30.305052 -22.244899 37.938155 -1.403875 2.197337 0.093508 -0.055040 105922.000000 0 0 1
-3.664662 30.291802 -22.804599 38.092949 -1.450403 2.212619 0.090529 -0.060925 61864.000000 0 0 1
-3.677362 31.008722 -24.029699 39.401653 -1.452756 2.226687 0.098133 -0.052743 633587.000000 0 0 1
-2.344262 31.370142 -24.397999 39.810096 -1.496206 2.230471 0.073750 -0.056037 445573.000000 0 0 1
-2.266362 31.779662 -25.894649 41.056256 -1.499602 2.253266 0.077886 -0.036611 -551189.000000 0 0 1
-1.138862 32.530501 -26.181099 41.772963 -1.535802 2.248168 0.083371 -0.045329 -519191.000000 0 0 1
-1.526062 33.943626 -26.266309 42.946684 -1.525868 2.228881 0.068596 -0.034240 569714.000000 0 0 1
-0.401762 -33.152269 -26.783649 42.621570 1.558678 2.250299 0.044651 -0.012961 630402.000000 0 0 1
0.749038 -33.161769 -25.928619 42.101749 -1.548213 2.234268 0.049296 -0.023001 230941.000000 0 0 1
1.575838 -32.089409 -26.307549 41.524698 -1.521728 2.256916 0.052440 -0.018642 -179972.000000 0 0 1
2.646838 -31.578229 -25.332079 40.569749 -1.487173 2.245170 0.041503 -0.021904 -233733.000000 0 0 1
2.254738 -30.900619 -24.165499 39.292537 -1.497958 2.233201 0.043333 -0.016677 30233.700000 0 0 1
3.315938 -30.072179 -23.778299 38.480370 -1.460974 2.236908 0.032032 -0.009621 -235213.000000 0 0 1
3.117038 -29.509199 -22.362399 37.156233 -1.465557 2.216609 0.043211 -0.005758 -56992.000000 0 0 1
3.113738 -30.547049 -21.353199 37.400223 -1.469215 2.178444 0.054004 -0.012014 445445.000000 0 0 1
3.357838 -29.982409 -20.062299 36.231420 -1.459267 2.157629 0.059296 -0.016090 -420534.000000 0 0 1
3.402738 -30.985989 -18.886699 36.447463 -1.461419 2.115529 0.057453 -0.017072 -702014.000000 0 0 1
2.151338 -31.487049 -18.513699 36.589883 -1.502578 2.101313 0.061782 -0.025791 -202299.000000 0 0 1
1.991738 -32.874819 -18.767999 37.907236 -1.510285 2.088750 0.058646 -0.016602 -256514.000000 0 0 1
2.743538 -33.924799 -17.880599 38.446519 -1.490101 2.054518 0.049872 -0.032609 1423380.000000 0 0 1
4.178738 -33.967509 -18.119799 38.724419 -1.448390 2.057728 0.041095 -0.017220 1048080.000000 0 0 1
4.626038 32.893593 -17.566899 37.576384 1.431076 2.057255 0.046781 -0.027120 -438495.000000 0 0 1
5.539138 32.254516 -18.608299 37.647107 1.400723 2.087805 0.061466 -0.018736 596604.000000 0 0 1
6.739238 33.078331 -18.715199 38.598601 1.369811 2.077008 0.079168 -0.017011 462477.000000 0 0 1
7.773138 32.307734 -19.295599 38.425662 1.334687 2.096884 0.063193 -0.018772 876170.000000 0 0 1
9.158538 33.080619 -19.195199 39.327622 1.300706 2.080690 0.048578 -0.024672 882708.000000 0 0 1
9.772738 33.014816 -17.914399 38.812500 1.283003 2.050552 0.041534 -0.016608 147055.000000 0 0 1
10.999638 33.721556 -17.945299 39.751341 1.255488 2.039174 0.044048 -0.002129 180410.000000 0 0 1
11.914738 33.805344 -16.709599 39.547098 1.231939 2.007025 0.028933 0.004056 -141654.000000 0 0 1
12.571538 32.586407 -16.470199 38.615864 1.202599 2.011431 0.029955 0.000595 47006.200000 0 0 1
13.543638 32.827701 -15.448699 38.726611 1.179503 1.981132 0.027894 -0.008831 940782.000000 0 0 1
14.614638 31.658732 -15.359399 38.102154 1.138313 1.985710 0.045474 -0.007545 889582.000000 0 0 1
14.171438 30.559382 -14.595499 36.711498 1.136580 1.979667 0.057827 -0.014828 -202584.000000 0 0 1
15.251738 29.664422 -14.528199 36.382166 1.095899 1.981574 0.065411 -0.013409 -136900.000000 0 0 1
15.055738 28.373272 -13.794399 34.957163 1.082945 1.976438 0.068650 -0.019463 -468084.000000 0 0 1
14.822238 28.572392 -12.438299 34.507849 1.092253 1.939545 0.064684 -0.026506 -466984.000000 0 0 1
13.531338 28.443122 -11.900099 33.670769 1.126750 1.932026 0.084495 -0.026238 -179483.000000 0 0 1
13.020138 26.981252 -11.762399 32.184872 1.121196 1.944927 0.073060 -0.029331 -819634.000000 0 0 1
12.442938 26.449872 -12.926599 31.961217 1.131079 1.987170 0.052789 -0.027949 346090.000000 0 0 1
11.804438 25.171972 -12.837099 30.622933 1.132294 2.003359 0.082825 -0.027904 801779.000000 0 0 1
10.837338 24.847522 -11.623099 29.494808 1.159516 1.975855 0.092620 -0.032270 -172130.000000 0 0 1
9.684138 25.672122 -11.526999 29.760916 1.210077 1.968519 0.069203 -0.019431 366363.000000 0 0 1
9.298938 25.949262 -10.211499 29.395734 1.226702 1.925572 0.060231 -0.008024 -342452.000000 0 0 1
8.244638 27.040372 -10.042799 30.000227 1.274849 1.912144 0.055462 -0.008597 -198529.000000 0 0 1
8.712838 28.333192 -10.315199 31.386090 1.272461 1.905676 0.055665 -0.017468 -161624.000000 0 0 1
7.679038 29.275882 -10.399699 32.003104 1.314276 1.901765 0.045745 -0.014517 -35530.500000 0 0 1
8.222138 30.662192 -10.817299 33.537852 1.308807 1.899208 0.073395 -0.012911 95015.000000 0 0 1
9.156438 31.234962 -9.908299 34.024074 1.285638 1.866292 0.066813 -0.008013 -44398.800000 0 0 1
9.446938 32.617220 -10.066899 35.418500 1.288880 1.858997 0.075451 -0.015733 -332705.000000 0 0 1
10.492138 32.937743 -11.148099 36.321619 1.262414 1.882759 0.049624 -0.010581 101689.000000 0 0 1
11.798238 32.573413 -10.684099 36.254319 1.223291 1.869936 0.047730 -0.007703 372171.000000 0 0 1
12.734438 32.879981 -11.729799 37.159753 1.201285 1.891947 0.043906 -0.004140 376647.000000 0 0 1
14.204638 32.687593 -11.274999 37.381494 1.160858 1.877187 0.066649 -0.014986 282057.000000 0 0 1
14.556438 33.609122 -10.278099 38.040798 1.162077 1.844383 0.054319 -0.013561 1119890.000000 0 0 1
15.976038 33.911693 -10.367599 38.893751 1.130529 1.840621 0.073299 -0.024241 1412640.000000 0 0 1
16.620138 -33.178519 -9.356699 38.269974 -1.106404 1.817792 0.072189 -0.027288 83887.100000 0 0 1
16.808938 -33.809589 -8.100699 38.616706 -1.109419 1.782138 0.064604 -0.022476 -76872.700000 0 0 1
17.419138 -32.935319 -7.196599 37.946708 -1.084305 1.761602 0.060677 -0.023890 -1062620.000000 0 0 1
17.830438 -33.604239 -5.865599 38.491228 -1.082969 1.723780 0.062076 -0.020753 800840.000000 0 0 1
18.978038 33.619652 -6.004399 39.070446 1.056895 1.725089 0.050808 -0.027143 99473.100000 0 0 1
20.216938 -33.823159 -6.192199 39.888269 -1.032052 1.726665 0.065959 -0.027524 -1195160.000000 0 0 1
21.067538 33.272705 -7.029799 40.004151 1.006338 1.747440 0.052880 -0.019228 -66807.300000 0 0 1
21.427738 32.035762 -6.376699 39.065334 0.981270 1.734762 0.051500 -0.009662 294601.000000 0 0 1
22.356938 32.100957 -5.283899 39.474342 0.962452 1.705056 0.053503 -0.004480 -435991.000000 0 0 1
22.636838 30.685292 -4.691499 38.419054 0.935208 1.693216 0.034803 -0.004602 -576176.000000 0 0 1
23.438438 29.926662 -5.543299 38.414758 0.906386 1.715603 0.032066 -0.000515 -216636.000000 0 0 1
23.538338 28.564502 -5.118499 37.365534 0.881567 1.708213 0.021895 0.004983 -602290.000000 0 0 1
24.456138 27.734962 -5.972999 37.456742 0.848139 1.730944 0.017291 0.013140 972426.000000 0 0 1
25.873338 28.034862 -5.864599 38.597625 0.825473 1.723329 0.037640 0.011042 948902.000000 0 0 1
26.689438 27.132812 -6.505399 38.611343 0.793636 1.740088 0.025846 0.011095 -192576.000000 0 0 1
27.554538 26.236022 -5.573299 38.453128 0.760891 1.716246 0.041110 0.013205 18943.300000 0 0 1
28.640538 26.979002 -5.037999 39.667725 0.755534 1.698145 0.045339 0.009379 588340.000000 0 0 1
29.536838 26.136562 -4.297099 39.673791 0.724399 1.679320 0.058766 0.005079 1089790.000000 0 0 1
30.872338 26.749992 -3.742899 41.020393 0.713979 1.662168 0.065326 0.004899 648390.000000 0 0 1
30.668038 27.613072 -2.653999 41.352799 0.733028 1.635020 0.072524 -0.000507 -753522.000000 0 0 1
31.855738 27.931262 -2.041199 42.415916 0.719851 1.618938 0.094343 -0.014700 -710717.000000 0 0 1
31.615838 28.871772 -0.779299 42.822281 0.740064 1.588996 0.090664 -0.016545 228047.000000 0 0 1
31.414138 30.181832 -1.280299 43.582453 0.765395 1.600177 0.069663 0.002567 75849.500000 0 0 1
30.743138 30.979812 -0.322499 43.646229 0.789233 1.578185 0.078905 -0.007473 87253.100000 0 0 1
34.051052 22.527081 19.013445 45.038369 0.584464 1.134968 0.110065 -0.021925 29947.200000 0 0 1
34.069252 22.318981 20.385845 45.545950 0.579957 1.106729 0.101091 -0.035852 8525.580000 0 0 1
34.816532 23.341881 20.990745 46.879054 0.590600 1.106533 0.102738 -0.032003 -154647.000000 0 0 1
34.674492 23.492481 22.508545 47.548414 0.595475 1.077670 0.072524 -0.021015 -412989.000000 0 0 1
33.382612 23.882981 22.867535 46.986379 0.621008 1.062506 0.053740 -0.016528 -260277.000000 0 0 1
33.180002 23.783181 24.240655 47.478012 0.621908 1.034953 0.054816 -0.014080 378029.000000 0 0 1
31.874382 24.516781 24.671835 47.177837 0.655657 1.020483 0.025530 -0.007487 536198.000000 0 0 1
31.971572 25.871981 24.470335 47.857478 0.680337 1.034080 0.006780 -0.006956 318712.000000 0 0 1
30.758932 26.410981 24.977135 47.618370 0.709491 1.018637 0.005677 -0.008049 335995.000000 0 0 1
30.854992 27.954781 25.322275 48.731078 0.736123 1.024375 -0.009692 0.000927 -155334.000000 0 0 1
30.867062 28.830381 24.191745 48.674500 0.751295 1.050646 -0.003043 -0.000752 256897.000000 0 0 1
30.733612 30.154681 24.660445 49.618518 0.775890 1.050657 0.003017 -0.006256 -161150.000000 0 0 1
30.529702 31.243981 23.572675 49.637890 0.796960 1.075954 0.025372 -0.013221 -54534.900000 0 0 1
31.783302 31.523981 22.992005 50.324666 0.781302 1.096319 0.018215 -0.020312 -116980.000000 0 0 1
31.776932 32.244381 21.785145 50.240085 0.792699 1.122289 0.027565 -0.020557 823703.000000 0 0 1
33.280132 32.374681 21.351845 51.103703 0.771608 1.139758 0.016652 -0.029551 1011200.000000 0 0 1
34.026552 33.239381 22.162745 52.477138 0.773696 1.134780 0.019339 -0.008980 -1262200.000000 0 0 1
35.377482 33.219581 21.925745 53.252654 0.753951 1.146444 0.016123 0.002979 -909121.000000 0 0 1
36.170862 -33.718170 22.597745 54.368229 -0.750318 1.142147 0.013505 0.004482 35122.700000 0 0 1
35.597142 -32.497870 22.145545 53.044257 -0.739916 1.140113 0.022463 -0.005141 431826.000000 0 0 1
35.913082 -31.509470 23.092485 53.064668 -0.720177 1.120562 0.022953 -0.012363 -904552.000000 0 0 1
35.252182 -30.136470 22.849745 51.701393 -0.707322 1.113018 0.041021 -0.007186 505012.000000 0 0 1
33.862102 -29.988370 23.178985 50.825285 -0.724804 1.097242 0.045378 -0.009981 764235.000000 0 0 1
33.027142 -30.307170 22.092345 49.973877 -0.742478 1.112882 0.062390 -0.010870 -673311.000000 0 0 1
32.218112 -31.606570 22.268645 50.327672 -0.775817 1.112442 0.045130 -0.013208 -71206.500000 0 0 1
31.284122 -31.495670 23.354905 50.160992 -0.788768 1.086485 0.056218 -0.018150 412143.000000 0 0 1
30.513452 -32.683370 23.480555 50.503563 -0.819721 1.087242 0.045830 -0.023655 180922.000000 0 0 1
29.904402 -32.882470 24.881345 50.937328 -0.832794 1.060461 0.040859 -0.026345 42633.000000 0 0 1
29.197552 33.981581 24.945225 51.278740 0.860976 1.062759 0.041219 -0.033847 33535.500000 0 0 1
28.557022 33.752881 26.159835 51.372147 0.868593 1.036516 0.050936 -0.029258 -801741.000000 0 0 1
28.359022 32.225981 26.502755 50.449421 0.849139 1.017690 0.051748 -0.013389 1043670.000000 0 0 1
27.468222 31.637381 25.487565 49.041239 0.855819 1.024277 0.055908 -0.022277 574425.000000 0 0 1
26.099722 31.948581 25.527935 48.513739 0.885818 1.016671 0.076066 -0.031379 -580943.000000 0 0 1
25.380322 31.781681 24.177635 47.315897 0.896920 1.034468 0.098907 -0.034553 -113065.000000 0 0 1
25.650822 32.663681 23.123205 47.534865 0.905083 1.062777 0.100928 -0.045088 327148.000000 0 0 1
26.885922 32.531681 22.417545 47.788173 0.880132 1.082522 0.076255 -0.034967 268229.000000 0 0 1
27.143822 33.414281 21.175145 47.975911 0.888575 1.113671 0.080449 -0.037294 -80323.900000 0 0 1
28.441922 33.499581 20.628745 48.545958 0.866870 1.131909 0.084004 -0.040611 -10046.400000 0 0 1
28.484922 -33.922970 19.377445 48.349189 -0.872316 1.158427 0.073561 -0.033093 -125979.000000 0 0 1
29.895982 -33.524970 18.880845 48.725555 -0.842556 1.172885 0.088409 -0.034935 -68247.000000 0 0 1
30.654222 33.433181 18.576445 49.015745 0.828733 1.182092 0.083811 -0.033764 -592105.000000 0 0 1
31.779872 33.827881 17.838445 49.724199 0.816604 1.203870 0.088877 -0.031922 -361621.000000 0 0 1
32.574532 32.671281 17.219745 49.244618 0.786881 1.213569 0.077038 -0.028675 -157000.000000 0 0 1
33.289052 31.887881 18.169945 49.549419 0.763904 1.195333 0.050607 -0.028647 149057.000000 0 0 1
34.112112 30.971981 17.472445 49.276629 0.737188 1.208333 0.070449 -0.033315 265482.000000 0 0 1
35.089322 30.107581 18.334745 49.738213 0.709136 1.193267 0.053400 -0.034508 504545.000000 0 0 1
36.081222 30.964381 18.899945 51.164983 0.709227 1.192441 0.063046 -0.034421 154922.000000 0 0 1
37.077142 30.281981 19.641645 51.744634 0.684859 1.181445 0.078125 -0.034231 203570.000000 0 0 1
-36.193242 31.307181 20.243445 51.960441 -0.713139 1.170606 0.087524 -0.034538 -240958.000000 0 0 1
-35.299933 31.869581 19.318145 51.331727 -0.734372 1.184954 0.095354 -0.039393 -159977.000000 0 0 1
-34.323588 32.776881 19.808845 51.427843 -0.762352 1.175396 0.076443 -0.024068 -64573.500000 0 0 1
-34.660122 -34.006270 20.621645 52.754172 0.775876 1.169186 0.046343 -0.021329 -559169.000000 0 0 1
-34.390357 33.842481 21.970045 53.015970 -0.777369 1.143508 0.037242 -0.011764 208004.000000 0 0 1
-34.347726 -33.028370 22.660745 52.765035 0.765819 1.126896 0.008848 -0.001305 -228184.000000 0 0 1
-34.101029 -33.227870 24.210035 53.414392 0.772430 1.100389 0.016924 -0.000828 305773.000000 0 0 1
-35.280661 -33.727670 24.860645 54.775290 0.762898 1.099697 0.016387 0.004791 301757.000000 0 0 1
-35.110368 33.947481 26.190375 55.417553 -0.768560 1.078557 0.020174 0.002446 -993944.000000 0 0 1
-36.376052 33.570881 26.896015 56.334864 -0.745315 1.073068 0.003666 -0.004294 -846745.000000 0 0 1
-36.355282 32.881781 28.093775 56.499365 -0.735272 1.050381 0.014230 -0.009137 -496933.000000 0 0 1
36.639652 32.914481 28.737395 57.023373 0.731891 1.042621 0.014219 -0.018449 95171.400000 0 0 1
36.386392 31.798481 29.791655 56.768439 0.718213 1.018325 0.017756 -0.007409 -185744.000000 0 0 1
36.155112 30.449681 29.363415 55.646971 0.699946 1.014937 0.013378 -0.002513 557653.000000 0 0 1
-36.986482 29.700681 28.833175 55.511101 -0.676576 1.024633 0.022687 -0.004188 326066.000000 0 0 1
36.793822 28.293981 28.420455 54.424783 0.655543 1.021371 0.040638 -0.002811 -458768.000000 0 0 1
35.862682 28.294281 27.350525 53.242366 0.667974 1.031306 0.026767 0.000392 280831.000000 0 0 1
35.470662 27.058981 26.784575 52.036236 0.651678 1.030104 0.042150 -0.005839 262570.000000 0 0 1
34.845502 25.937781 27.681145 51.509449 0.639885 1.003446 0.034622 -0.007179 -560894.000000 0 0 1
35.828332 25.436981 28.555875 52.403697 0.617385 0.994501 0.033612 0.001644 -67213.300000 0 0 1
35.570992 24.189681 29.123875 51.948400 0.597204 0.975649 0.049190 -0.006462 -76485.400000 0 0 1
36.290512 23.123481 28.246065 51.473652 0.567308 0.989930 0.049002 -0.011453 16364.300000 0 0 1
35.801932 22.940681 26.910765 50.321392 0.569857 1.006552 0.057653 -0.006722 50430.500000 0 0 1
36.652632 22.200681 26.035755 50.141263 0.544604 1.024825 0.064058 -0.029431 11332.200000 0 0 1
36.539032 20.683381 26.078615 49.426686 0.515092 1.014997 0.069155 -0.033452 -222392.000000 0 0 1
35.277542 20.257681 25.567495 48.047637 0.521261 1.009684 0.094974 -0.018681 564796.000000 0 0 1
34.893122 18.926581 25.880345 47.387105 0.497002 0.993038 0.103237 -0.016869 -419348.000000 0 0 1
34.701922 18.603781 27.403445 47.971584 0.492111 0.962777 0.086502 -0.000104 268214.000000 0 0 1
33.472762 19.136281 27.942845 47.617493 0.519349 0.943672 0.063019 -0.007599 850132.000000 0 0 1
33.316822 20.538081 27.976205 48.109162 0.552426 0.950206 0.058277 -0.027610 -1334460.000000 0 0 1
32.275852 21.053881 28.982555 48.218099 0.577998 0.925954 0.055702 -0.022985 -194977.000000 0 0 1
30.940662 20.894981 28.530655 46.988542 0.593972 0.918286 0.058009 -0.019736 -20101.200000 0 0 1
30.407392 21.825081 27.679965 46.552381 0.622543 0.934030 0.041897 -0.010156 -681709.000000 0 0 1
30.088382 23.205781 28.271095 47.361101 0.656965 0.931132 0.039333 -0.004544 -174455.000000 0 0 1
31.327912 23.888781 28.325905 48.522870 0.651478 0.947439 0.038650 -0.016685 243195.000000 0 0 1
31.192532 25.218981 28.762105 49.358178 0.679899 0.948722 0.023825 -0.006513 582.292000 0 0 1
31.412122 25.464581 30.319095 50.541210 0.681208 0.927434 0.025430 -0.009215 653118.000000 0 0 1
32.750472 25.182581 30.755525 51.503963 0.655502 0.930855 0.023538 0.004910 505244.000000 0 0 1
32.955702 25.234281 32.150160 52.502191 0.653476 0.911756 0.038349 0.004299 10195.200000 0 0 1
32.459762 24.058181 32.995190 52.164306 0.637826 0.885988 0.050916 0.002795 -43723.500000 0 0 1
32.921062 24.215381 -33.549919 52.875118 0.634195 2.258174 0.047372 -0.011737 213114.000000 0 0 1
32.708982 23.096281 -32.729119 51.715675 0.614818 2.256046 0.049556 -0.022653 -337298.000000 0 0 1
33.375702 23.049181 -31.351629 51.265261 0.604388 2.228823 0.055445 -0.028821 -534662.000000 0 0 1
32.788802 23.938481 -30.490309 50.772191 0.630631 2.214962 0.048875 -0.034479 110162.000000 0 0 1
33.099362 23.607381 -29.127449 50.012844 0.619549 2.192474 0.071745 -0.040616 -797666.000000 0 0 1
34.412802 24.123181 -28.564189 50.814189 0.611393 2.167756 0.076193 -0.021237 -471517.000000 0 0 1
34.757952 23.480081 -27.383839 50.092955 0.594115 2.149167 0.075389 -0.023965 -1317480.000000 0 0 1
36.034032 23.916081 -27.089229 51.031919 0.585952 2.130375 0.091816 -0.017779 -843348.000000 0 0 1
36.713072 22.964081 -26.097049 50.559418 0.558960 2.113165 0.083656 -0.012410 116031.000000 0 0 1
-36.677972 21.964381 -26.686019 50.396938 -0.539569 2.128827 0.067650 -0.009663 367889.000000 0 0 1
-36.590142 20.810681 -25.894819 49.421297 -0.517125 2.122291 0.043466 -0.000810 98330.000000 0 0 1
-35.351973 19.909881 -26.237549 48.317434 -0.512914 2.144831 0.050298 0.005727 -59652.300000 0 0 1
-34.172353 20.412481 -25.688119 47.374029 -0.538461 2.143898 0.056795 -0.001951 -784097.000000 0 0 1
-33.170312 19.454281 -25.932959 46.381646 -0.530431 2.164122 0.036465 -0.002731 -568.328000 0 0 1
-31.838672 19.638281 -25.175259 45.090540 -0.552685 2.163164 0.048333 -0.003669 -203404.000000 0 0 1
-31.962892 19.676181 -23.787999 44.437006 -0.551807 2.135682 0.048507 -0.003903 -960370.000000 0 0 1
-30.781652 19.703181 -23.093599 43.232393 -0.569381 2.134326 0.050618 -0.000877 -932067.000000 0 0 1
-31.028542 20.145081 -21.645499 42.861666 -0.575843 2.100188 0.037920 -0.005629 616650.000000 0 0 1
-31.949322 19.246681 -20.981999 42.795306 -0.542192 2.083216 0.014482 0.002453 380724.000000 0 0 1
-32.395332 19.745781 -19.763399 42.777861 -0.547394 2.051046 0.018712 0.008187 -695545.000000 0 0 1
-33.316832 18.692681 -19.115599 42.718073 -0.511294 2.034745 0.003845 0.008033 194486.000000 0 0 1
-34.083736 19.121281 -18.011399 43.031790 -0.511256 2.002656 0.009128 -0.000781 446844.000000 0 0 1
-35.132973 20.062481 -18.222899 44.372323 -0.518856 1.993998 0.015601 -0.003119 -618600.000000 0 0 1
-36.112082 20.150681 -17.046299 44.729283 -0.508967 1.961781 0.027261 -0.015554 -712898.000000 0 0 1
-35.601883 20.554081 -15.795799 44.039433 -0.523585 1.937643 0.029943 -0.015451 65122.300000 0 0 1
-36.598922 20.265881 -14.830699 44.386222 -0.505702 1.911477 0.030364 -0.009619 -763480.000000 0 0 1
-36.503102 21.136381 -13.557599 44.306112 -0.524857 1.881783 0.039292 -0.008519 -207579.000000 0 0 1
-36.963392 22.470181 -13.627299 45.353111 -0.546211 1.875983 0.054247 -0.016417 534008.000000 0 0 1
35.921182 22.578281 -14.004999 44.679415 0.561148 1.889626 0.062571 -0.016977 -87953.700000 0 0 1
35.543972 24.014681 -14.582299 45.306979 0.594184 1.898485 0.074098 -0.019456 85993.200000 0 0 1
35.697792 25.043181 -13.621299 45.684057 0.611754 1.873564 0.076261 -0.020180 72880.500000 0 0 1
35.428462 26.300581 -14.162299 46.340773 0.638592 1.881378 0.062317 -0.010813 147076.000000 0 0 1
36.690602 27.057181 -14.685499 47.895253 0.635415 1.882433 0.087636 -0.011098 417391.000000 0 0 1
36.960052 26.930181 -16.059599 48.468452 0.629683 1.908521 0.082986 -0.008650 -404473.000000 0 0 1
-36.222222 27.728081 -16.451299 48.492692 -0.653347 1.916919 0.089191 -0.014210 -1178430.000000 0 0 1
-35.847319 27.562981 -17.943499 48.648920 -0.655487 1.948553 0.082548 -0.016650 -295556.000000 0 0 1
-35.081131 26.463981 -18.264599 47.588062 -0.646289 1.964711 0.071675 -0.018651 -289249.000000 0 0 1
-33.725722 26.517581 -17.892199 46.483731 -0.666314 1.965910 0.077012 -0.008359 -890263.000000 0 0 1
-33.004302 25.243681 -18.135899 45.336941 -0.652944 1.982340 0.064853 -0.012672 -530373.000000 0 0 1
-32.805752 25.084481 -19.505099 45.671627 -0.652803 2.012049 0.058039 -0.007497 143641.000000 0 0 1
-32.407652 23.768881 -19.923399 44.857078 -0.632814 2.031025 0.044687 -0.006121 -186437.000000 0 0 1
-32.025292 23.785681 -21.440199 45.288631 -0.638823 2.063957 0.039974 0.003345 60852.600000 0 0 1
-33.138242 23.987581 -22.297799 46.591190 -0.626563 2.069838 0.064045 -0.004924 210034.000000 0 0 1
-33.011092 23.524381 -23.655499 46.933052 -0.619146 2.099051 0.063292 -0.003721 -579999.000000 0 0 1
-33.891422 24.234181 -24.646099 48.408205 -0.620758 2.104971 0.050758 0.002487 -574563.000000 0 0 1
-33.665472 25.597681 -24.877699 49.066335 -0.650095 2.102522 0.047991 0.006540 -904181.000000 0 0 1
-34.566224 26.255681 -25.678229 50.433680 -0.649602 2.104991 0.051876 -0.002081 -792284.000000 0 0 1
-34.079918 27.612881 -26.150869 51.066427 -0.680953 2.108419 0.033892 -0.002713 242463.000000 0 0 1
-32.845292 27.472281 -26.843259 50.538105 -0.696554 2.130752 0.030511 0.001704 -255534.000000 0 0 1
-32.437892 28.720381 -27.234659 51.174250 -0.724688 2.131987 0.023124 -0.008701 25418.100000 0 0 1
-31.026682 28.901381 -27.831399 50.720131 -0.749949 2.151635 0.022498 -0.003569 275432.000000 0 0 1
-29.987832 28.576781 -26.886439 49.384037 -0.761309 2.146513 -0.003257 -0.001513 -473279.000000 0 0 1
-28.722212 28.656881 -27.444049 48.983244 -0.784260 2.165513 0.026758 0.001572 -610695.000000 0 0 1
-27.951502 29.938081 -27.242089 49.190514 -0.819701 2.157727 0.017538 -0.003912 -540129.000000 0 0 1
-27.383972 30.234981 -25.942319 48.342941 -0.834838 2.137236 0.010332 -0.001546 -67573.800000 0 0 1
-28.325932 30.497781 -24.929799 48.517708 -0.822303 2.110438 0.006630 0.002444 -378218.000000 0 0 1
-27.808872 30.972481 -23.543599 47.821847 -0.839166 2.085548 -0.007046 0.002254 -178783.000000 0 0 1
-27.259152 32.265481 -23.625499 48.397179 -0.869306 2.080775 0.007411 0.001063 -250223.000000 0 0 1
-26.290582 32.332781 -22.603399 47.407986 -0.888104 2.067790 0.010351 0.018443 -77793.500000 0 0 1
-25.554682 33.686781 -22.579799 47.934209 -0.921816 2.061286 0.002545 0.024805 207943.000000 0 0 1
-26.369512 -33.350370 -22.042399 47.890142 0.901763 2.049096 -0.004300 0.006122 224189.000000 0 0 1
-25.754022 -32.141770 -22.409999 46.888923 0.895286 2.069102 0.014468 0.007725 46733.400000 0 0 1
17.280838 8.786281 -25.051259 31.676358 0.470377 2.482994 0.050541 -0.014626 -432499.000000 0 0 1
16.061638 8.140381 -24.875299 30.708672 0.469090 2.515019 0.040318 -0.016056 -475357.000000 0 0 1
16.219438 6.750781 -25.048769 30.595491 0.394407 2.529953 0.029672 -0.020368 964466.000000 0 0 1
14.853238 5.958481 -25.030929 29.709756 0.381503 2.572732 0.078167 -0.030036 1085630.000000 0 0 1
14.109438 6.037281 -23.793499 28.313523 0.404316 2.568740 0.087652 -0.037031 572850.000000 0 0 1
12.747238 5.725581 -24.045899 27.811502 0.422157 2.615155 0.089388 -0.030487 182052.000000 0 0 1
11.835538 5.848581 -22.815699 26.359856 0.458960 2.617038 0.086936 -0.037455 -119414.000000 0 0 1
12.106938 4.861481 -21.801199 25.406775 0.381838 2.602327 0.085333 -0.022169 559653.000000 0 0 1
11.284438 5.002081 -20.609999 24.023560 0.417245 2.601980 0.092875 -0.023433 95666.100000 0 1 0
11.474538 6.334681 -19.806399 23.750509 0.504427 2.556998 0.089775 -0.036183 2024.980000 0 1 0
11.137038 6.324181 -18.444399 22.454949 0.516445 2.534650 0.082776 -0.031639 -378330.000000 0 1 0
11.066638 7.571981 -17.724899 22.225603 0.600055 2.493935 0.075411 -0.041962 175073.000000 0 1 0
12.430238 8.261281 -17.426799 22.944562 0.586579 2.433368 0.050107 -0.030995 18027.800000 0 1 0
13.075538 7.472081 -16.476999 22.322482 0.519166 2.401098 0.071010 -0.029593 331302.000000 0 1 0
14.434038 7.905981 -16.346399 23.195921 0.501100 2.352811 0.060251 -0.018626 441863.000000 0 1 0
15.014738 7.658281 -14.938399 22.522153 0.471656 2.295984 0.065979 -0.026431 544788.000000 0 1 0
16.186338 8.472481 -14.700299 23.449505 0.482219 2.248354 0.040352 -0.026155 836288.000000 0 1 0
16.661938 8.268681 -13.426399 22.940346 0.460652 2.196015 0.028245 -0.024777 -549917.000000 0 1 0
17.516938 9.432381 -12.946299 23.736461 0.493950 2.147684 0.082239 -0.029532 -558024.000000 0 1 0
16.825138 10.646181 -12.738099 23.636531 0.564156 2.139946 0.109479 -0.028648 413704.000000 0 1 0
17.588838 11.720781 -12.142499 24.375894 0.587801 2.092244 0.151872 -0.049846 -123176.000000 0 1 0
16.744038 12.945081 -11.757399 24.211038 0.658132 2.077870 0.161783 -0.046972 -292918.000000 0 1 0
15.661038 12.616381 -10.889899 22.869873 0.678140 2.067088 0.162784 -0.031704 472256.000000 0 1 0
15.128338 13.709281 -10.212499 22.827749 0.736229 2.034621 0.086889 -0.025780 -105039.000000 0 1 0
14.381638 14.839381 -10.962499 23.392630 0.801062 2.058536 0.070815 -0.027027 -747057.000000 0 1 0
13.506838 15.511881 -10.112799 22.919900 0.854383 2.027758 0.117407 -0.034007 -132130.000000 0 1 0
13.323938 16.885281 -10.446799 23.911831 0.902746 2.022933 0.117562 -0.026825 -212575.000000 0 1 0
12.162838 17.499381 -9.676399 23.405035 0.963404 1.997017 0.105209 -0.018337 -167716.000000 0 1 0
12.447338 17.329681 -8.284499 22.888578 0.947916 1.941154 0.081565 -0.022890 252338.000000 0 1 0
11.308538 17.592881 -7.508599 22.220971 0.999506 1.915487 0.063475 -0.015005 -56031.900000 0 1 0
11.652738 17.343781 -6.012599 21.742686 0.979201 1.850982 0.054111 -0.013186 491803.000000 0 1 0
12.692738 18.186781 -5.504399 22.850887 0.961474 1.814072 0.056373 -0.019988 317095.000000 0 1 0
13.255438 17.628381 -4.367799 22.484308 0.926056 1.766299 0.073607 -0.020899 -501992.000000 0 1 0
14.314538 18.482681 -3.697799 23.668317 0.911809 1.727673 0.076756 -0.027312 -280443.000000 0 1 0
15.539938 18.622381 -4.386699 24.648040 0.875384 1.749723 0.100199 -0.037127 297562.000000 0 1 0
16.352138 19.695381 -3.948199 25.901520 0.877879 1.723824 0.089400 -0.025578 30336.400000 0 0 1
17.673338 19.802881 -4.742699 26.962829 0.842161 1.747614 0.067894 -0.024583 9786.030000 0 0 1
18.765138 19.134381 -4.159399 27.121127 0.795141 1.724768 0.074790 -0.041717 -14130.500000 0 0 1
19.182038 18.138781 -5.055199 26.879751 0.757452 1.759990 0.096758 -0.036982 175437.000000 0 0 1
20.248038 17.079181 -4.594399 26.884753 0.700707 1.742532 0.116962 -0.045318 292319.000000 0 0 1
21.594338 17.481881 -4.736399 28.184483 0.680542 1.739647 0.104587 -0.047246 126765.000000 0 0 1
22.419638 16.352681 -4.417299 28.099161 0.630180 1.728655 0.114147 -0.049251 -481668.000000 0 0 1
23.880738 16.733681 -4.604399 29.521284 0.611208 1.727405 0.111827 -0.042742 -556093.000000 0 0 1
24.487038 17.737181 -3.787999 30.472472 0.626882 1.695428 0.124699 -0.042636 -154478.000000 0 0 1
25.873538 17.722581 -3.959799 31.610281 0.600567 1.696396 0.100215 -0.033123 -392847.000000 0 0 1
26.673738 18.849781 -3.299899 32.828218 0.615195 1.671487 0.122248 -0.034032 -176389.000000 0 0 1
26.744438 20.061381 -4.044999 33.676193 0.643574 1.691202 0.126443 -0.036555 232319.000000 0 0 1
26.976638 21.168981 -3.180899 34.438102 0.665351 1.663294 0.123776 -0.011132 -219951.000000 0 0 1
26.817038 22.496181 -4.048299 35.236634 0.698001 1.685940 0.081571 -0.006929 94737.900000 0 0 1
27.836538 22.963481 -4.948499 36.423645 0.689765 1.707077 0.081788 0.004255 469033.000000 0 0 1
28.189338 22.151381 -6.019499 36.353223 0.666027 1.737146 0.088084 -0.001153 -209008.000000 0 0 1
29.200438 22.878981 -6.924299 37.736710 0.664608 1.755332 0.076286 -0.000886 -301386.000000 0 0 1
28.651938 23.747681 -7.894599 38.042221 0.692077 1.779837 0.066980 0.003774 473052.000000 0 0 1
29.588938 24.630281 -8.550999 39.436982 0.694196 1.789359 0.047074 0.003622 182098.000000 0 0 1
30.598438 24.057981 -9.580599 40.085393 0.666300 1.812137 0.052686 -0.009153 173317.000000 0 0 1
30.052238 23.809881 -10.853399 39.847757 0.670018 1.846653 0.052570 -0.003198 4809.580000 0 0 1
31.055938 23.258881 -11.679199 40.519755 0.642819 1.863179 0.043912 -0.009843 -15726.900000 0 0 1
30.610738 22.776581 -13.058099 40.327458 0.639696 1.900541 0.062042 -0.010274 -57353.000000 0 0 1
30.651538 23.773981 -14.042499 41.254221 0.659698 1.918127 0.059185 -0.018373 146283.000000 0 0 1
30.352238 23.182881 -15.306599 41.146036 0.652271 1.951966 0.068747 -0.023904 -91825.900000 0 0 1
30.543738 24.071181 -16.521999 42.253025 0.667436 1.972542 0.066833 -0.011886 387500.000000 0 0 1
31.920638 24.437181 -16.652399 43.513278 0.653386 1.963510 0.059997 -0.008606 506265.000000 0 0 1
32.197338 24.693581 -18.048799 44.409466 0.654258 1.989326 0.079407 -0.015791 164125.000000 0 0 1
33.668038 25.136781 -18.206699 45.791685 0.641326 1.979694 0.084518 -0.017647 -210248.000000 0 0 1
34.615938 24.132881 -18.158099 45.938825 0.608818 1.977155 0.089270 -0.013002 -1361510.000000 0 0 1
35.903038 24.650281 -18.197899 47.199873 0.601662 1.966600 0.089862 -0.018721 -1040200.000000 0 0 1
36.924738 23.514181 -18.157999 47.392678 0.567050 1.963989 0.070165 -0.022087 -381803.000000 0 0 1
37.036138 22.720081 -19.322499 47.552461 0.550256 1.989242 0.063262 -0.009868 84440.700000 0 0 1
-36.259547 23.252481 -20.220099 47.584504 -0.570220 2.009681 0.081991 -0.010484 -159759.000000 0 0 1
-36.092047 22.375081 -21.466399 47.582417 -0.554956 2.038840 0.081460 -0.013251 -3.133970 0 0 1
-35.796047 21.023781 -21.215399 46.620270 -0.531045 2.043245 0.054561 -0.009053 172679.000000 0 0 1
-35.478447 20.348481 -22.439799 46.651104 -0.520740 2.072606 0.037623 -0.002488 194405.000000 0 0 1
-35.201947 18.818681 -22.384899 45.764654 -0.490937 2.081889 0.018208 -0.000041 -6144.600000 0 0 1
-36.388147 18.122481 -22.066899 46.254401 -0.462072 2.068122 0.027243 -0.009446 214265.000000 0 0 1
-36.208947 16.762781 -21.742499 45.440235 -0.433567 2.069726 0.015420 -0.006098 769630.000000 0 0 1
36.605038 16.130681 -21.706799 45.511678 0.415067 2.067978 0.021547 -0.013297 863726.000000 0 0 1
35.785338 16.134081 -22.862799 45.426937 0.423567 2.098195 0.059324 -0.011220 -124612.000000 0 0 1
34.761338 15.208781 -22.820399 44.276724 0.412427 2.112275 0.084673 -0.007276 -515896.000000 0 0 1
35.203338 13.913581 -23.676399 44.647896 0.376392 2.129741 0.040877 -0.007746 -86741.200000 0 0 1
35.105738 13.956081 -25.100749 45.356727 0.378387 2.157246 0.039132 -0.003391 173987.000000 0 0 1
35.329038 12.666881 -25.591059 45.425688 0.344263 2.169244 0.031909 0.004516 -331874.000000 0 0 1
35.126838 12.506981 -27.086579 46.086897 0.342056 2.199045 0.035332 0.001511 470180.000000 0 0 1
33.785938 12.600381 -27.591669 45.404399 0.356970 2.223941 0.020414 0.005129 766728.000000 0 0 1
33.397438 13.866381 -28.067969 45.776372 0.393535 2.230843 0.032733 0.002386 -281554.000000 0 0 1
33.633538 14.165681 -29.596519 46.987608 0.398628 2.252194 0.042079 -0.012960 383726.000000 0 0 1
35.043138 14.246181 -29.810009 48.162349 0.386125 2.238199 0.034744 -0.006662 467575.000000 0 0 1
35.404138 13.965781 -31.164069 49.190398 0.375728 2.256916 0.043215 -0.013373 13593.400000 0 0 1
36.932438 14.120081 -31.466439 50.532351 0.365174 2.242984 0.065685 -0.021627 544440.000000 0 0 1
-36.482347 13.090981 -30.973279 49.615315 -0.344520 2.244991 0.072589 -0.015020 -69798.700000 0 0 1
-36.342047 13.090181 -29.522969 48.617928 -0.345727 2.223384 0.050884 -0.014505 -926410.000000 0 0 1
-35.139147 12.237681 -29.052459 47.207689 -0.335127 2.233712 0.058073 -0.020135 183911.000000 0 0 1
-35.352447 10.913581 -29.361449 47.233425 -0.299426 2.241611 0.067449 -0.022046 -440380.000000 0 0 1
-34.238647 10.148681 -29.092179 46.061216 -0.288160 2.254409 0.069787 -0.025977 -663560.000000 0 0 1
-34.410547 8.653381 -29.430309 46.098914 -0.246366 2.263236 0.088945 -0.023785 -286715.000000 0 0 1
-34.679347 8.548581 -30.828629 47.181985 -0.241685 2.282861 0.087148 -0.021529 148682.000000 0 0 1
-34.892347 7.252681 -31.329439 47.451144 -0.204941 2.291943 0.090567 -0.024198 408860.000000 0 0 1
-36.226147 6.498081 -31.007449 48.125053 -0.177488 2.270917 0.101369 -0.008062 276338.000000 0 0 1
-36.135147 5.991081 -29.685969 47.147627 -0.164302 2.251884 0.108817 -0.020255 174342.000000 0 0 1
36.931538 5.386381 -29.236109 47.409932 0.144827 2.235297 0.104182 -0.013368 -256242.000000 0 0 1
-37.097247 4.901481 -27.790369 46.610459 -0.131364 2.209588 0.099906 -0.011461 -174074.000000 0 0 1
-36.351847 3.700581 -27.803189 45.914795 -0.101450 2.221239 0.120048 -0.007673 -10728.200000 0 0 1
-36.941347 2.627781 -27.144289 45.917108 -0.071014 2.203291 0.126026 -0.003311 -784803.000000 0 0 1
-36.107447 1.399481 -27.118549 45.178778 -0.038739 2.214610 0.146090 -0.008626 -60363.200000 0 0 1
-34.877847 1.468081 -26.413019 43.775188 -0.042067 2.218528 0.130316 -0.009131 -36965.700000 0 0 1
-34.151247 0.292481 -26.332609 43.125393 -0.008564 2.227621 0.127178 -0.010849 350134.000000 0 0 1
-33.002947 0.607781 -25.284669 41.579784 -0.018414 2.224461 0.116957 -0.006993 643694.000000 0 0 1
-33.456747 0.623681 -23.950599 41.150627 -0.018639 2.192010 0.110170 -0.007802 1048400.000000 0 0 1
-32.259847 0.784281 -23.171599 39.727017 -0.024307 2.193546 0.121204 -0.005226 885968.000000 0 0 1
-32.523147 0.458881 -21.653699 39.074907 -0.014108 2.158148 0.111341 0.002510 -399703.000000 0 0 1
-32.692547 -0.913219 -21.382599 39.074956 0.027926 2.149836 0.130803 -0.011246 293131.000000 0 0 1
-33.128647 -1.168419 -20.037899 38.734866 0.035255 2.114500 0.120906 -0.017932 -87663.900000 0 0 1
-34.593847 -0.917119 -19.631699 39.786668 0.026505 2.086818 0.105135 -0.013071 -386753.000000 0 0 1
-35.445447 -1.992519 -19.965399 40.730419 0.056155 2.083097 0.099527 -0.014310 725704.000000 0 0 1
-36.823947 -1.579919 -19.880499 41.877601 0.042878 2.065452 0.085459 -0.014795 1585260.000000 0 0 1
36.408238 -2.801419 -19.726599 41.503571 -0.076793 2.066100 0.076238 -0.024264 264312.000000 0 0 1
36.106438 -3.544919 -20.877099 41.858029 -0.097866 2.092964 0.074351 -0.021421 579015.000000 0 0 1
-37.076247 -4.350019 -21.402399 43.030611 0.116792 2.091368 0.076437 -0.014410 126725.000000 0 0 1
36.718338 -5.242919 -22.578299 43.422392 -0.141829 2.117611 0.069675 -0.008671 -311050.000000 0 0 1
36.022538 -6.337819 -22.051799 42.709168 -0.174158 2.113350 0.066986 -0.003917 156267.000000 0 0 1
35.619338 -7.305919 -23.032099 43.041739 -0.202305 2.135435 0.065547 -0.002468 85129.300000 0 0 1
34.176738 -7.245019 -23.576399 42.147198 -0.208894 2.164437 0.041153 -0.002271 -142115.000000 0 0 1
34.024038 -6.079819 -24.355599 42.282320 -0.176826 2.184652 0.057713 -0.011147 -116566.000000 0 0 1
32.696638 -6.014519 -24.810599 41.482652 -0.181916 2.211919 0.038595 -0.012815 -99776.000000 0 0 1
32.314338 -4.745719 -25.624529 41.513308 -0.145819 2.236052 0.065570 -0.032719 32202.600000 0 0 1
32.702038 -4.840319 -26.987309 42.675131 -0.146946 2.255430 0.063703 -0.030596 162872.000000 0 0 1
31.966338 -3.951519 -27.755249 42.518409 -0.122991 2.282047 0.073275 -0.037960 -187311.000000 0 0 1
32.242538 -4.136519 -29.268979 43.742030 -0.127597 2.303830 0.073781 -0.034629 -177255.000000 0 0 1
31.418038 -3.278019 -29.972839 43.545489 -0.103959 2.329954 0.068834 -0.040676 -100572.000000 0 0 1
30.962938 -3.876419 -31.179009 44.111912 -0.124547 2.355783 0.078559 -0.043441 -349930.000000 0 0 1
30.549838 -2.943819 -32.336939 44.582915 -0.096065 2.382297 0.074659 -0.034104 -161588.000000 0 0 1
29.628238 -1.890519 -31.989349 43.643155 -0.063722 2.393482 0.061015 -0.028419 2172830.000000 0 0 1
28.204138 -2.237919 -31.895809 42.635951 -0.079181 2.415985 0.068167 -0.029724 1576100.000000 0 0 1
27.507138 -2.568319 -33.208699 43.197877 -0.093099 2.447693 0.082129 -0.043004 -859511.000000 0 0 1
27.991938 -3.701319 33.942065 44.151015 -0.131465 0.693878 0.098167 -0.049663 76780.200000 0 0 1
27.397738 -3.782019 32.614666 42.762789 -0.137174 0.703337 0.079546 -0.039444 118263.000000 0 0 1
28.162638 -4.791719 31.699455 42.672593 -0.168531 0.733475 0.062764 -0.048308 -914102.000000 0 0 1
29.455338 -4.589219 31.305995 43.228962 -0.154560 0.760937 0.075725 -0.041503 -1166320.000000 0 0 1
29.753538 -3.616919 30.353475 42.657808 -0.120969 0.779084 0.108115 -0.039601 -480471.000000 0 0 1
30.275138 -2.343419 31.028445 43.414744 -0.077250 0.774604 0.084616 -0.041245 -962424.000000 0 0 1
31.527238 -2.526119 31.606785 44.713945 -0.079954 0.785738 0.073579 -0.036941 -613236.000000 0 0 1
31.995138 -1.263219 32.115478 45.350728 -0.039461 0.783910 0.064019 -0.029261 25717.800000 0 0 1
33.485938 -1.248119 32.503577 46.683491 -0.037256 0.800631 0.055091 -0.027297 -186742.000000 0 0 1
34.328038 -1.665619 31.459925 46.593083 -0.048483 0.829552 0.065484 -0.025212 164396.000000 0 0 1
35.690638 -1.611519 31.893820 47.891903 -0.045122 0.842024 0.068758 -0.023614 276366.000000 0 0 1
36.656938 -2.189019 30.872405 47.975288 -0.059646 0.871726 0.074461 -0.018845 -421126.000000 0 0 1
36.861738 -1.407119 29.698075 47.357611 -0.038154 0.892969 0.074691 -0.016107 -144945.000000 0 0 1
-36.378647 -2.043119 28.963335 46.545194 0.056104 0.899167 0.076125 -0.013603 -76302.600000 0 0 1
-36.149147 -1.481819 27.548515 45.473919 0.040969 0.920014 0.091028 -0.013601 277749.000000 0 0 1
37.006338 -1.633119 26.665695 45.642035 -0.044102 0.946859 0.103948 -0.032167 -194466.000000 0 0 1
-36.836147 -1.374519 25.401525 44.766377 0.037297 0.967422 0.121325 -0.028486 27940.600000 0 0 1
-27.351292 14.898481 13.037801 33.764511 -0.498772 1.174354 0.103709 -0.005460 485331.000000 0 0 1
-28.572802 14.158081 12.959001 34.420808 -0.460048 1.184795 0.091749 -0.007647 64272.200000 0 0 1
-29.605112 14.914581 13.469201 35.781654 -0.466670 1.184859 0.097672 -0.010649 -919893.000000 0 0 1
-30.960212 14.251281 13.666901 36.720811 -0.431394 1.189435 0.106550 -0.006071 93109.300000 0 0 1
-31.900492 15.113881 14.329901 38.097465 -0.442454 1.185172 0.097437 -0.014639 305781.000000 0 0 1
-32.991822 14.359681 14.864201 38.930775 -0.410520 1.179041 0.104684 -0.012863 210844.000000 0 0 1
-33.949842 15.175081 15.737601 40.380032 -0.420344 1.170450 0.100098 -0.016725 33637.300000 0 0 1
-33.344202 15.373281 17.005501 40.464313 -0.432003 1.137065 0.080115 -0.011926 836870.000000 0 0 1
-34.191065 16.083681 17.966701 41.839169 -0.439693 1.126943 0.081858 -0.029934 449200.000000 0 0 1
-33.436222 16.354281 19.252701 41.905966 -0.454905 1.093447 0.083839 -0.016801 -100270.000000 0 0 1
-32.899002 15.156681 19.836801 41.298523 -0.431719 1.069769 0.071663 -0.023509 969663.000000 0 0 1
-31.655972 15.306881 20.551701 40.728044 -0.450392 1.041868 0.080925 -0.015968 1023980.000000 0 0 1
-31.812102 15.950881 21.927301 41.800083 -0.464774 1.018580 0.087114 -0.032559 -168513.000000 0 0 1
-32.450832 17.235581 21.853701 42.751678 -0.488240 1.034242 0.065408 -0.028455 244799.000000 0 0 1
-32.696172 17.888481 23.091501 43.843527 -0.500624 1.016106 0.065695 -0.040548 -376829.000000 0 0 1
-33.601192 17.221081 24.215501 44.855281 -0.473609 1.000527 0.062242 -0.033567 518015.000000 0 0 1
-34.834042 16.603581 23.887901 45.384152 -0.444792 1.016495 0.113002 -0.035638 809361.000000 0 0 1
-35.845178 17.478181 23.354201 46.214525 -0.453680 1.041017 0.113034 -0.043929 377298.000000 0 0 1
37.002262 16.801681 23.191501 46.790059 0.426235 1.052213 0.081081 -0.049740 652097.000000 0 0 1
36.385582 16.380881 24.400201 46.771932 0.423022 1.021972 0.097407 -0.044075 -32631.600000 0 0 1
35.401452 15.383981 24.175601 45.545465 0.409938 1.011250 0.119970 -0.046189 225392.000000 0 0 1
35.073422 14.661181 25.495801 45.772601 0.395939 0.980015 0.134385 -0.033881 -363445.000000 0 0 1
34.222702 15.498281 26.274501 45.844732 0.425234 0.960489 0.102263 -0.036444 367427.000000 0 0 1
33.722502 14.908081 27.507201 46.001132 0.416249 0.929833 0.099799 -0.029937 503470.000000 0 0 1
32.594742 13.853181 27.363801 44.756066 0.401881 0.912969 0.102868 -0.023298 -31448.200000 0 0 1
33.120322 12.600881 26.895801 44.487325 0.363547 0.921568 0.094515 -0.025701 -363724.000000 0 0 1
32.156012 11.641881 27.002001 43.573508 0.347364 0.902451 0.091987 -0.011184 -479770.000000 0 0 1
32.752182 10.261181 26.603801 43.425332 0.303611 0.911408 0.096354 -0.011746 393126.000000 0 0 1
33.754252 9.894981 27.561401 44.686587 0.285158 0.906162 0.089324 -0.004964 318186.000000 0 0 1
34.263602 8.582181 27.392601 44.699025 0.245426 0.911168 0.085372 -0.000728 -332528.000000 0 0 1
35.293562 8.125781 28.413601 46.032560 0.226291 0.905554 0.079560 0.002074 -414636.000000 0 0 1
36.561122 8.711081 28.253701 47.019892 0.233900 0.926184 0.077585 -0.003467 -191140.000000 0 0 1
-36.653062 7.820281 28.659001 47.179891 -0.210208 0.917961 0.079104 -0.001004 233391.000000 0 0 1
-35.321052 8.590181 28.768201 46.357063 -0.238571 0.901316 0.079155 -0.003813 225232.000000 0 0 1
-34.585290 8.866481 27.557001 45.101498 -0.250961 0.913474 0.076128 -0.006608 458195.000000 0 0 1
-33.420622 9.604281 27.893201 44.578143 -0.279835 0.894749 0.094802 -0.007525 235641.000000 0 0 1
-32.606662 10.193181 26.739101 43.382887 -0.302985 0.906695 0.092506 -0.013114 86644.800000 0 0 1
-32.119082 9.196181 25.828001 42.229028 -0.278855 0.912693 0.094636 -0.023121 189649.000000 0 0 1
-31.136332 9.762481 24.991901 41.101975 -0.303832 0.917199 0.097183 -0.028759 456797.000000 0 0 1
-30.314552 8.718181 24.118201 39.707258 -0.280034 0.918012 0.101107 -0.032170 614010.000000 0 0 1
-29.304342 9.319081 23.333301 38.600941 -0.307897 0.921690 0.097535 -0.034809 111352.000000 0 0 1
-28.567602 8.407981 22.557401 37.358244 -0.286237 0.922520 0.099207 -0.026297 -14854.100000 0 0 1
-27.497632 8.980081 21.599301 36.101128 -0.315657 0.929419 0.091151 -0.025888 -1191180.000000 0 0 1
-26.398802 9.470681 22.335801 35.853571 -0.344452 0.898259 0.092053 -0.023202 -340557.000000 0 0 1
-25.368242 10.012481 21.582001 34.779020 -0.375917 0.901357 0.085738 -0.018256 -279039.000000 0 0 1
-24.633362 9.153581 20.551001 33.360669 -0.355780 0.907110 0.078995 -0.023801 -1617560.000000 0 0 1
-25.354252 8.917481 19.368401 33.128455 -0.338202 0.946353 0.080238 -0.026724 -2310.960000 0 0 1
-24.733562 8.099281 18.376101 31.859512 -0.316456 0.956008 0.085143 -0.030655 -208771.000000 0 0 1
-24.623062 6.578781 18.722301 31.624359 -0.261081 0.937231 0.082869 -0.023242 -941471.000000 0 0 1
-23.633162 6.198781 19.615101 31.332147 -0.256513 0.894335 0.072929 -0.011610 -189426.000000 0 0 1
-23.648962 4.825781 20.073101 31.392530 -0.201295 0.877049 0.074440 -0.012152 -359894.000000 0 0 1
-23.573062 3.677181 18.974301 30.483356 -0.154744 0.898930 0.064497 -0.020704 -101763.000000 0 0 1
-24.809262 3.471781 18.303001 31.025032 -0.139036 0.939808 0.093160 -0.027669 477349.000000 0 0 1
-24.710162 2.754081 17.070101 30.159002 -0.110997 0.969146 0.088365 -0.026139 -182856.000000 0 0 1
-24.573862 1.216981 17.325601 30.092062 -0.049483 0.957271 0.074565 -0.027118 -669495.000000 0 0 1
-23.309462 0.765981 17.714601 29.286940 -0.032850 0.921202 0.053263 -0.014593 -178437.000000 0 0 1
-23.399362 -0.619819 18.026301 29.544235 0.026483 0.914551 0.071757 -0.014782 -291713.000000 0 0 1
-22.042362 -1.269919 18.309301 28.682903 0.057549 0.878463 0.074057 -0.007643 67938.700000 0 0 1
-21.258562 -0.678219 19.365101 28.764450 0.031893 0.832227 0.050116 0.001039 60562.900000 0 0 1
-20.214162 -1.531219 19.708501 28.273344 0.075605 0.799493 0.047559 0.002329 34538.000000 0 0 1
-19.136162 -1.240519 20.793501 28.286061 0.064735 0.744960 0.047970 -0.001188 462123.000000 0 0 1
-19.547362 -1.154619 22.116701 29.539481 0.058999 0.724672 0.039720 -0.006239 -1017420.000000 0 0 1
-18.459262 -1.112019 22.973001 29.491350 0.060169 0.677768 0.029347 -0.006843 -449912.000000 0 0 1
-18.837262 -1.014719 24.499101 30.920512 0.053816 0.656186 0.031962 -0.009082 202188.000000 0 0 1
-19.540662 0.106881 24.984801 31.718909 -0.005470 0.663739 0.027012 -0.014112 -553224.000000 0 0 1
-20.924762 -0.083419 25.076901 32.660428 0.003987 0.695385 0.093360 -0.017448 -479770.000000 0 0 1
-21.643362 1.095881 25.792401 33.688040 -0.050590 0.698784 0.069580 -0.025080 -428548.000000 0 0 1
-21.533862 2.299681 25.077301 33.134073 -0.106390 0.712327 0.059209 -0.019820 1082850.000000 0 0 1
-22.774562 2.566981 24.382201 33.462842 -0.112239 0.754469 0.068101 -0.015041 442131.000000 0 0 1
-22.495762 3.715881 23.391401 32.665344 -0.163703 0.772609 0.073145 -0.015999 407188.000000 0 0 1
-21.724462 3.439881 22.217101 31.263151 -0.157038 0.780377 0.077067 -0.011164 1518250.000000 0 0 1
-20.304462 3.249381 22.414901 30.418045 -0.158687 0.742331 0.042474 -0.002979 618800.000000 0 0 1
-19.617762 2.535281 21.227201 29.015139 -0.128522 0.750144 0.029539 -0.001494 -199620.000000 0 0 1
-19.240062 3.417581 20.165801 28.080587 -0.175795 0.769670 0.032259 0.003174 127651.000000 0 0 1
-18.909162 2.663381 19.006201 26.942266 -0.139931 0.787750 0.036480 0.000369 -35642.100000 0 0 1
-18.663462 3.444381 17.707401 25.956514 -0.182499 0.820036 0.044133 -0.008758 834645.000000 0 0 1
-17.310862 3.941281 17.674401 25.051628 -0.223861 0.787641 0.062889 -0.014855 854686.000000 0 0 1
-17.171962 4.708181 16.457001 24.246157 -0.267602 0.824742 0.074949 -0.017461 -183856.000000 0 1 0
-15.709862 5.117381 16.200501 23.139654 -0.314904 0.795233 0.080571 -0.017547 -121675.000000 0 1 0
-15.283962 6.255381 16.963401 23.674591 -0.388479 0.771991 0.070438 -0.022419 182333.000000 0 1 0
-15.764862 7.564681 16.579501 24.096372 -0.447394 0.811998 0.074106 -0.030373 -583575.000000 0 1 0
-15.535862 8.187681 15.205901 23.229734 -0.485028 0.857159 0.055894 -0.039669 147882.000000 0 1 0
-16.203362 7.520181 14.102001 22.758921 -0.434528 0.902531 0.104255 -0.037967 -379704.000000 0 1 0
-17.582962 7.679681 14.061901 23.788130 -0.411796 0.938336 0.076350 -0.036764 -841040.000000 0 1 0
-18.245862 6.728381 13.012101 23.398662 -0.353291 0.981105 0.092220 -0.039604 55323.500000 0 1 0
-17.924062 5.373881 13.352501 22.987820 -0.291286 0.951022 0.088281 -0.031169 231438.000000 0 1 0
-17.961762 4.440381 12.276301 22.204717 -0.242354 0.984993 0.061182 -0.038818 62749.600000 0 1 0
-17.596562 3.042181 12.799101 21.970682 -0.171193 0.948929 0.058355 -0.014143 -140742.000000 0 1 0
-18.558862 2.514181 13.712601 23.211805 -0.134651 0.938796 0.069985 -0.025190 189385.000000 0 1 0
-18.269862 1.250681 14.258101 23.208738 -0.068349 0.909245 0.069777 -0.013191 -398773.000000 0 1 0
-19.459262 0.555881 14.921101 24.527763 -0.028559 0.916835 0.098387 -0.016099 -164770.000000 0 1 0
-20.514662 0.190081 14.061201 24.871768 -0.009265 0.969941 0.094797 -0.023387 -227412.000000 0 1 0
-21.740762 0.076281 14.748901 26.271594 -0.003509 0.974718 0.083381 -0.026469 -623637.000000 0 0 1
-22.807762 -0.069019 13.682201 26.597019 0.003026 1.030458 0.087654 -0.022755 -951472.000000 0 0 1
-22.808462 -1.299919 13.136901 26.353252 0.056931 1.048937 0.112672 -0.042448 172525.000000 0 0 1
-23.886962 -1.640819 12.281601 26.909422 0.068583 1.096845 0.109587 -0.033316 -33551.700000 0 0 1
-23.778462 -3.072319 11.708901 26.682443 0.128494 1.116507 0.121682 -0.043942 15133.000000 0 0 1
-24.222162 -4.053719 12.668101 27.633794 0.165819 1.094571 0.125535 -0.038443 223397.000000 0 0 1
-23.797062 -5.333819 12.238701 27.286179 0.220494 1.105675 0.142534 -0.053196 -64482.300000 0 0 1
-24.098962 -6.503619 13.138801 28.207891 0.263592 1.086275 0.136071 -0.044845 736439.000000 0 0 1
-25.485292 -6.864319 13.282901 29.547495 0.263101 1.104541 0.107592 -0.033794 875785.000000 0 0 1
-25.691992 -8.058919 14.040201 30.366954 0.303954 1.090151 0.120482 -0.044079 -366734.000000 0 0 1
-26.342322 -7.904519 15.437801 31.539262 0.291520 1.059304 0.102246 -0.034828 6467.030000 0 0 1
-27.668712 -7.507519 15.130201 32.416716 0.264957 1.085194 0.103178 -0.035358 403047.000000 0 0 1
-28.591242 -7.819119 16.180401 33.769855 0.266952 1.071125 0.095044 -0.025135 175310.000000 0 0 1
-30.083322 -7.560419 15.836601 34.827635 0.246217 1.098746 0.095063 -0.026399 359961.000000 0 0 1
-30.749602 -8.293919 14.806901 35.122236 0.263455 1.135607 0.086944 -0.026259 423267.000000 0 0 1
-30.736752 -9.728319 14.871201 35.504095 0.306529 1.138608 0.085851 -0.025972 -304284.000000 0 0 1
-31.285832 -10.527719 16.117001 36.734097 0.324599 1.116592 0.080273 -0.018920 -82092.500000 0 0 1
-30.306912 -10.454519 17.118501 36.343486 0.332173 1.080350 0.082459 -0.013377 -19093.100000 0 0 1
-30.613082 -11.290819 18.230401 37.376341 0.353345 1.061283 0.074544 -0.016706 492994.000000 0 0 1
-29.398462 -11.325019 19.232101 36.910694 0.367705 1.022723 0.077577 -0.009924 796544.000000 0 0 1
-28.338852 -12.046519 18.657001 36.004067 0.401946 1.026061 0.068173 -0.015135 -508297.000000 0 0 1
-27.119012 -12.028219 19.350501 35.419779 0.417464 0.992833 0.072474 -0.023153 239857.000000 0 0 1
-25.998482 -12.954019 18.799201 34.599677 0.462255 0.996392 0.078618 -0.016336 -10093.600000 0 0 1
-25.411802 -12.465719 17.640101 33.351567 0.456058 1.013476 0.075812 -0.015057 216735.000000 0 0 1
-24.320162 -13.211319 17.141401 32.555136 0.497627 1.016277 0.074403 -0.022059 268456.000000 0 0 1
-23.843762 -12.828519 15.690101 31.293372 0.493602 1.045595 0.081002 -0.026019 -61439.400000 0 0 1
-23.589962 -11.450519 15.421101 30.420569 0.451898 1.039177 0.075673 -0.029108 -4053.300000 0 0 1
-23.372962 -11.269519 14.092401 29.527837 0.449274 1.073264 0.066286 -0.029330 -286182.000000 0 0 1
-22.024762 -10.722219 13.630001 28.032714 0.453053 1.063040 0.084325 -0.042096 -751910.000000 0 0 1
-21.786462 -9.357319 14.001001 27.536110 0.405677 1.037401 0.098657 -0.045246 264314.000000 0 0 1
-20.456662 -8.868819 13.886301 26.267096 0.409083 1.013778 0.118186 -0.045631 495832.000000 0 0 1
-19.802662 -8.864819 12.410301 24.994920 0.420905 1.051219 0.140215 -0.034279 -429692.000000 0 1 0
-19.410162 -10.100819 11.978001 24.945008 0.479825 1.069941 0.135603 -0.035285 85163.900000 0 1 0
-19.268162 -10.124819 10.562601 24.193854 0.483814 1.119000 0.157694 -0.024905 -780905.000000 0 1 0
-18.741762 -11.490219 10.118001 24.200263 0.549982 1.139449 0.150460 -0.010417 722046.000000 0 1 0
-17.354162 -11.818419 10.165901 23.327827 0.597869 1.119887 0.153418 -0.019970 960910.000000 0 1 0
-16.568462 -11.645019 11.344001 23.212211 0.612631 1.060188 0.145763 -0.026168 -155093.000000 0 1 0
-15.073162 -11.945519 11.106201 22.209082 0.670153 1.047111 0.145186 -0.032241 -171497.000000 0 1 0
-14.758262 -13.250119 11.071801 22.714681 0.731604 1.061653 0.129854 -0.032435 253614.000000 0 1 0
-13.375862 -13.411419 10.782001 21.795215 0.786726 1.053312 0.138354 -0.044223 347854.000000 0 1 0
-12.851462 -14.871719 10.754701 22.405171 0.858142 1.070130 0.128345 -0.042180 13368.500000 0 1 0
-13.249862 -15.696619 9.668901 22.703091 0.869725 1.130857 0.102988 -0.032135 -135856.000000 0 1 0
-12.581562 -16.870219 9.834301 23.229582 0.929998 1.133654 0.089728 -0.026716 -236764.000000 0 1 0
-12.672262 -17.854319 8.624401 23.531749 0.953551 1.195551 0.083801 -0.010734 120648.000000 0 1 0
-11.901562 -17.478319 7.489001 22.432653 0.972982 1.230418 0.073485 -0.015152 -74011.500000 0 1 0
-12.183862 -18.341019 6.422201 22.936524 0.984437 1.287003 0.039520 -0.008764 -193041.000000 0 1 0
-11.723962 -17.897419 4.988201 21.969320 0.990869 1.341746 0.059401 -0.017427 -262524.000000 0 1 0
-12.114562 -18.763819 3.964101 22.683862 0.997496 1.395140 0.077581 -0.020871 352953.000000 0 1 0
-11.223262 -18.833919 2.849201 22.108733 1.033392 1.441565 0.085086 -0.024912 368071.000000 0 1 0
-11.799862 -19.781119 1.757301 23.100163 1.032938 1.494650 0.099098 -0.024275 14694.300000 0 1 0
-11.535262 -21.120119 2.030501 24.150458 1.070895 1.486620 0.095493 -0.030932 -321293.000000 0 1 0
-11.776562 -22.050119 0.989501 25.017479 1.080257 1.531234 0.091740 -0.033894 459534.000000 0 0 1
-10.688162 -22.177619 -0.180499 24.619427 1.121705 1.578128 0.088224 -0.032641 527117.000000 0 1 0
-10.544262 -21.200019 -1.184099 23.707053 1.109255 1.620764 0.083675 -0.043774 264935.000000 0 1 0
-11.548362 -21.062119 -2.234599 24.124074 1.069259 1.663559 0.099685 -0.041771 -79127.200000 0 1 0
-12.566362 -19.985019 -1.997299 23.691848 1.009477 1.655200 0.088563 -0.041179 -579124.000000 0 1 0
-13.472462 -20.415419 -0.993799 24.480282 0.987482 1.611403 0.098569 -0.032804 -789990.000000 0 1 0
-14.637962 -19.673219 -1.114699 24.546854 0.931111 1.616223 0.101899 -0.014193 -578311.000000 0 1 0
27.148338 -20.323519 -3.945399 34.141526 -0.642611 1.686615 0.092208 -0.025197 -87631.000000 0 0 1
25.889438 -20.390219 -3.321899 33.121881 -0.667127 1.671258 0.108193 -0.028214 -12662.900000 0 0 1
25.801338 -21.438319 -2.389699 33.630659 -0.693300 1.641913 0.077116 -0.024216 123108.000000 0 0 1
24.400138 -21.585619 -1.740799 32.624163 -0.724270 1.624181 0.075092 -0.025896 419745.000000 0 0 1
23.333538 -21.814519 -2.649299 32.052239 -0.751766 1.653546 0.089939 -0.034953 90109.400000 0 0 1
22.161638 -22.189019 -1.955699 31.421577 -0.786016 1.633077 0.083013 -0.032711 19540.500000 0 0 1
21.133038 -22.933219 -2.807899 31.311693 -0.826227 1.660593 0.099707 -0.039805 5459.100000 0 0 1
20.304038 -22.126919 -3.625299 30.248922 -0.828333 1.690934 0.103745 -0.044158 96641.500000 0 0 1
19.406338 -22.953619 -4.360699 30.372525 -0.868945 1.714868 0.093679 -0.040182 811789.000000 0 0 1
18.401238 -22.138219 -5.305699 29.272115 -0.877320 1.753058 0.087021 -0.021904 1261680.000000 0 0 1
17.192938 -21.614819 -4.685599 28.013431 -0.898852 1.738849 0.077113 -0.023299 1290910.000000 0 0 1
17.400938 -20.343219 -4.126899 27.086352 -0.863194 1.723753 0.084990 -0.036549 -34213.400000 0 0 1
16.188638 -19.982319 -3.237399 25.919989 -0.889898 1.696023 0.061283 -0.019629 -11228.100000 0 0 1
16.086038 -20.797319 -2.106699 26.376642 -0.912445 1.650751 0.077868 -0.023809 -164573.000000 0 0 1
15.227738 -20.205219 -1.192299 25.328964 -0.924961 1.617886 0.069577 -0.011296 -571853.000000 0 0 1
15.133838 -21.090119 0.078501 25.958280 -0.948369 1.567772 0.077130 -0.016022 -357393.000000 0 0 1
14.237938 -22.142819 -0.002999 26.325336 -0.999354 1.570910 0.086879 -0.023693 -72143.200000 0 0 1
13.331638 -22.246719 1.096201 25.958635 -1.030919 1.528555 0.076833 -0.017144 363023.000000 0 0 1
12.432638 -23.504619 1.096801 26.612789 -1.084262 1.529571 0.078703 -0.022648 465958.000000 0 0 1
13.081138 -24.719819 1.497101 28.007622 -1.084081 1.517318 0.081763 -0.023770 579996.000000 0 0 1
12.156938 -25.763719 1.198701 28.513106 -1.129911 1.528744 0.085199 -0.026359 564511.000000 0 0 1
12.516338 -27.086479 1.873201 29.897239 -1.137936 1.508101 0.087323 -0.024772 -72038.300000 0 0 1
12.201838 -27.114339 3.234001 29.908711 -1.147931 1.462455 0.101313 -0.029745 -13705.000000 0 0 1
12.754338 -28.204599 3.940101 31.204117 -1.146108 1.444190 0.097683 -0.028916 -202333.000000 0 0 1
12.197938 -28.392789 5.370201 31.365255 -1.165024 1.398734 0.105581 -0.027560 -303612.000000 0 0 1
12.835538 -29.372689 6.177101 32.644486 -1.158815 1.380425 0.099249 -0.023097 -165472.000000 0 0 1
12.286238 -29.614669 7.440601 32.914173 -1.177537 1.342765 0.093813 -0.019311 -108572.000000 0 0 1
13.243338 -30.607909 8.176101 34.337715 -1.162441 1.330378 0.096467 -0.012116 263521.000000 0 0 1
12.971138 -31.106969 9.485801 35.012488 -1.175734 1.296441 0.089638 -0.010637 -112958.000000 0 0 1
12.050238 -32.196669 9.459201 35.655437 -1.212666 1.302287 0.070932 -0.013634 311290.000000 0 0 1
11.795738 -32.654049 10.893801 36.388202 -1.224149 1.266756 0.066961 -0.008935 -473155.000000 0 0 1
12.774038 -33.505069 11.402301 37.626827 -1.206551 1.262919 0.076453 -0.018984 -281342.000000 0 0 1
12.639038 -33.709289 12.817601 38.214556 -1.212076 1.228754 0.080624 -0.012815 1222560.000000 0 0 1
11.359238 33.545738 13.332501 37.843155 1.244296 1.210759 0.070724 -0.012070 1054340.000000 0 0 1
11.424738 32.209851 12.803301 36.495529 1.229943 1.212351 0.083133 -0.013383 77841.600000 0 0 1
10.235538 31.449572 12.928301 35.510319 1.256150 1.198160 0.065300 -0.010168 -6677.710000 0 0 1
10.236438 30.201832 11.923701 34.045704 1.244013 1.212984 0.069947 -0.010665 -223431.000000 0 0 1
9.999738 30.381282 10.548401 33.679160 1.252823 1.252233 0.067783 -0.013865 612687.000000 0 0 1
10.850438 31.395362 9.914301 34.665460 1.238041 1.280747 0.054805 -0.015174 385792.000000 0 0 1
10.403438 31.549082 8.462401 34.281020 1.252271 1.321364 0.048496 -0.015381 -470508.000000 0 0 1
9.242038 32.314255 8.393301 34.642082 1.292228 1.326075 0.059406 -0.009009 -761512.000000 0 0 1
8.844438 32.537206 7.061101 34.449282 1.305384 1.364362 0.053292 -0.014179 -44386.200000 0 0 1
9.470438 33.746333 6.318401 35.614974 1.297198 1.392444 0.066847 -0.011320 1675.920000 0 0 1
9.036538 -33.128999 6.960901 35.037747 -1.304506 1.370797 0.071477 -0.007391 194372.000000 0 0 1
9.463938 -32.002499 6.270801 33.956575 -1.283266 1.385059 0.087331 -0.021723 50979.000000 0 0 1
8.604338 -30.775979 6.707701 32.652546 -1.298177 1.363897 0.081669 -0.013328 180362.000000 0 0 1
8.806938 -30.351329 8.049901 32.612363 -1.288385 1.321383 0.101486 -0.011746 98005.300000 0 0 1
8.178138 -29.099459 8.307101 31.347541 -1.296823 1.302592 0.114527 -0.010356 -171927.000000 0 0 1
8.745138 -27.779189 7.658301 30.113292 -1.265809 1.313656 0.116888 -0.016085 137156.000000 0 0 1
9.704438 -27.164069 8.539401 30.082954 -1.227675 1.282977 0.119644 -0.017208 585588.000000 0 0 1
10.492038 -26.143559 7.925101 29.263898 -1.189149 1.296557 0.099188 -0.025775 -22960.300000 0 0 1
9.754338 -24.917319 7.371701 27.755393 -1.197667 1.301975 0.097609 -0.023956 -53190.600000 0 0 1
9.083438 -25.237969 6.154901 27.519933 -1.225319 1.345236 0.089402 -0.025926 -159641.000000 0 0 1
7.980538 -24.473119 5.748101 26.375428 -1.255575 1.351099 0.097636 -0.017806 330150.000000 0 0 1
7.567038 -24.704319 4.242501 26.183243 -1.273566 1.408048 0.104392 -0.016642 132128.000000 0 0 1
7.002938 -25.947779 3.802601 27.143841 -1.307191 1.430243 0.057783 -0.013439 -134426.000000 0 0 1
7.775638 -27.126699 3.977201 28.498008 -1.291640 1.430779 0.079304 -0.018061 74853.400000 0 0 1
6.930238 -28.385559 3.635901 29.444658 -1.331334 1.446998 0.082419 -0.015253 -529403.000000 0 0 1
5.927038 -28.608779 4.550201 29.568502 -1.366511 1.416296 0.062279 -0.011769 -173816.000000 0 0 1
4.808638 -29.365549 4.050401 30.031054 -1.408486 1.435510 0.058447 -0.008760 871817.000000 0 0 1
4.983738 -30.878659 4.256801 31.566589 -1.410779 1.435533 0.058212 -0.007320 -47559.000000 0 0 1
5.939138 -31.328889 3.306001 32.057796 -1.383446 1.467486 0.061592 -0.016072 65084.500000 0 0 1
6.202438 -32.676779 3.520501 33.446017 -1.383216 1.465342 0.056775 -0.015126 -128895.000000 0 0 1
7.365038 -33.396149 2.824301 34.315058 -1.353735 1.488398 0.065490 -0.016295 -109816.000000 0 0 1
7.079738 -33.680909 1.465501 34.448135 -1.363612 1.528241 0.071537 -0.020652 208393.000000 0 0 1
8.046038 33.494569 0.921401 34.459743 1.335044 1.544055 0.060449 -0.021594 -416263.000000 0 0 1
7.536838 32.933271 -0.379199 33.786803 1.345819 1.582020 0.072780 -0.017730 954314.000000 0 0 1
6.367138 32.097606 -0.245599 32.723953 1.374970 1.578302 0.050189 -0.011027 610666.000000 0 0 1
5.151438 32.825533 -0.154099 33.227649 1.415132 1.575434 0.049306 -0.015814 -157079.000000 0 0 1
3.908138 31.921822 0.135501 32.160451 1.448974 1.566583 0.046760 -0.017790 375604.000000 0 0 1
3.625838 30.995292 -0.903899 31.219735 1.454345 1.599753 0.057578 -0.016533 -23936.100000 0 0 1
2.947538 29.848102 -0.467999 29.996937 1.472364 1.586399 0.060768 -0.027062 -319760.000000 0 0 1
2.887338 28.745652 -1.592299 28.934143 1.470688 1.625856 0.076291 -0.016601 -194207.000000 0 0 1
2.462638 29.293932 -2.816699 29.531895 1.486927 1.666320 0.091435 -0.022079 89005.300000 0 0 1
2.162038 28.296732 -3.759499 28.627143 1.494539 1.702503 0.089014 -0.028499 -66272.400000 0 0 1
1.789638 28.789932 -5.187299 29.308208 1.508714 1.748725 0.088278 -0.031934 551840.000000 0 0 1
0.444038 29.270582 -5.282399 29.746729 1.555627 1.749322 0.095158 -0.035951 534115.000000 0 0 1
0.107138 30.183522 -6.312999 30.836836 1.567247 1.776977 0.082403 -0.024950 -66029.600000 0 0 1
0.056938 29.680652 -7.801799 30.688963 1.568878 1.827839 0.083748 -0.019165 66588.200000 0 0 1
-1.172062 29.044842 -8.170899 30.195036 -1.530465 1.844817 0.091061 -0.021341 524432.000000 0 0 1
-1.179662 28.496812 -9.465599 30.050915 -1.529424 1.891238 0.087452 -0.022097 -119445.000000 0 0 1
-1.420362 29.593622 -10.567199 31.455772 -1.522838 1.913398 0.079556 -0.023213 -932280.000000 0 0 1
-0.282962 30.260252 -10.998699 32.198359 -1.561446 1.919407 0.072790 -0.020129 -691336.000000 0 0 1
-0.409662 31.582352 -11.532199 33.624462 -1.557826 1.920874 0.064538 -0.026550 -61251.900000 0 0 1
-0.701862 32.696069 -10.421899 34.324066 -1.549333 1.879299 0.056704 -0.025386 1228180.000000 0 0 1
0.470938 33.117262 -9.649999 34.497787 1.556577 1.854307 0.060159 -0.029103 1100270.000000 0 0 1
0.109538 33.972918 -8.576799 35.039016 1.567572 1.818088 0.059856 -0.027090 -259617.000000 0 0 1
1.228538 -33.818499 -7.544199 34.671532 -1.534485 1.790142 0.064883 -0.032388 533843.000000 0 0 1
2.180438 -32.822979 -7.971099 33.847314 -1.504464 1.808531 0.077015 -0.030594 310979.000000 0 0 1
3.063038 -32.507459 -6.891299 33.370752 -1.476848 1.778800 0.082819 -0.030745 428634.000000 0 0 1
4.374038 -31.799769 -7.425799 32.946927 -1.434105 1.798136 0.078197 -0.033174 1052020.000000 0 0 1
5.321238 -32.570389 -8.177999 34.000375 -1.408851 1.813705 0.081659 -0.024785 689341.000000 0 0 1
6.076738 -33.481059 -7.361199 34.815159 -1.391253 1.783841 0.094371 -0.011098 -1039110.000000 0 0 1
6.549138 33.429623 -8.172299 35.031663 1.377338 1.806249 0.088466 -0.002677 -696731.000000 0 0 1
5.707838 32.355723 -8.464699 33.928209 1.396184 1.822948 0.071983 -0.002312 -760204.000000 0 0 1
4.646638 32.655212 -9.335199 34.279733 1.429451 1.846604 0.079632 -0.014049 420991.000000 0 0 1
3.568738 31.532822 -9.523099 33.132223 1.458101 1.862336 0.065679 -0.028296 483663.000000 0 0 1
4.036838 30.538182 -10.405799 32.513955 1.439368 1.896569 0.056595 -0.015076 694765.000000 0 0 1
3.121738 29.425592 -10.470499 31.388566 1.465102 1.910892 0.058593 -0.021066 779776.000000 0 0 1
3.909538 28.335702 -11.224499 30.727608 1.433690 1.944741 0.052962 -0.022324 229353.000000 0 0 1
4.054238 28.697192 -12.570199 31.590752 1.430449 1.980031 0.049509 -0.019434 506120.000000 0 0 1
5.207638 28.165082 -13.230799 31.550680 1.387964 2.003526 0.037283 -0.021997 413260.000000 0 0 1
5.213538 28.731782 -14.672699 32.680030 1.391294 2.036420 0.041746 -0.021202 -157483.000000 0 0 1
4.266138 28.135502 -15.512199 32.410411 1.420314 2.069876 0.050573 -0.021801 -116181.000000 0 0 1
4.523538 28.655322 -16.820499 33.533850 1.414228 2.096241 0.070426 -0.016047 -64556.700000 0 0 1
3.502738 28.235942 -17.872699 33.600163 1.447374 2.131666 0.060987 -0.024047 -193546.000000 0 0 1
3.731538 26.956012 -18.470299 32.889252 1.433240 2.167103 0.075310 -0.013115 635943.000000 0 0 1
2.695638 26.563532 -19.398199 33.002694 1.469664 2.199104 0.090990 -0.024935 982241.000000 0 0 1
3.254838 25.330372 -20.168499 32.542128 1.443001 2.239241 0.095858 -0.030267 461946.000000 0 0 1
3.625238 24.310052 -19.275199 31.235465 1.422762 2.235840 0.099469 -0.039144 -75352.800000 0 0 1
4.394338 23.329072 -19.931599 30.997169 1.384615 2.269223 0.092259 -0.030651 173621.000000 0 0 1
4.836838 22.213832 -18.969499 29.608972 1.356403 2.266163 0.084240 -0.030908 -230093.000000 0 0 1
3.887238 21.185632 -18.903499 28.658052 1.389330 2.291113 0.116292 -0.033178 -453344.000000 0 0 1
4.393538 20.093532 -18.191399 27.458700 1.355530 2.294948 0.101537 -0.026211 -33063.200000 0 0 1
3.345038 19.005232 -17.856699 26.291631 1.396575 2.317439 0.092865 -0.033849 199906.000000 0 0 1
2.662038 19.208432 -16.632399 25.547740 1.433087 2.279740 0.085411 -0.030908 -171876.000000 0 0 1
1.884238 18.141632 -16.099199 24.328037 1.467305 2.293954 0.056807 -0.016942 125700.000000 0 1 0
2.558838 17.131532 -15.118299 22.991303 1.422528 2.288380 0.036826 -0.014520 250954.000000 0 1 0
3.470638 16.124332 -15.630299 22.723241 1.358789 2.329326 0.058319 -0.031143 178081.000000 0 1 0
2.882438 15.154932 -16.509899 22.595513 1.382843 2.390101 0.066911 -0.039032 -80007.900000 0 1 0
2.785138 15.490832 -18.042799 23.942963 1.392904 2.424279 0.059653 -0.038078 -637907.000000 0 1 0
4.024638 15.465732 -18.672399 24.577329 1.316213 2.433711 0.087560 -0.042826 -840011.000000 0 1 0
4.040838 16.012432 -19.967899 25.912224 1.323601 2.450575 0.080891 -0.037430 -387325.000000 0 0 1
4.454838 15.157432 -21.164399 26.410701 1.284941 2.500357 0.076374 -0.040904 107688.000000 0 0 1
3.620438 14.104432 -21.626399 26.071895 1.319533 2.548992 0.067965 -0.035883 -307301.000000 0 0 1
2.436538 14.515732 -22.258899 26.685236 1.404492 2.557346 0.084202 -0.038313 -57152.800000 0 0 1
1.540138 13.404832 -22.807599 26.499965 1.456404 2.607371 0.091923 -0.029188 121344.000000 0 0 1
0.993438 12.467532 -21.903299 25.222625 1.491282 2.622761 0.079612 -0.019373 229508.000000 0 0 1
-0.061762 11.696732 -22.449099 25.313621 -1.565516 2.661254 0.055740 -0.011262 227445.000000 0 0 1
-0.650662 10.611932 -21.480399 23.967562 -1.509559 2.681988 0.034901 -0.007364 -543858.000000 0 1 0
-1.503462 11.119332 -20.464799 23.338979 -1.436400 2.640068 0.040333 -0.011216 -56878.500000 0 1 0
-1.999662 10.155932 -19.550199 22.121300 -1.376387 2.654661 0.029056 -0.009092 -364135.000000 0 1 0
-3.049662 9.239732 -20.092999 22.324912 -1.251995 2.690625 0.034782 -0.006052 -1282220.000000 0 1 0
-2.582562 8.162432 -20.872799 22.560334 -1.264366 2.752356 0.039958 -0.003023 -512308.000000 0 1 0
-3.550962 7.167232 -21.071099 22.538185 -1.110800 2.778792 0.044739 0.000241 -11625.800000 0 1 0
-2.922062 5.959332 -21.791299 22.779658 -1.114911 2.845940 0.048604 -0.011381 -22600.200000 0 1 0
-2.075662 5.077832 -21.074899 21.777147 -1.182753 2.886949 0.046334 -0.002809 48636.900000 0 1 0
-1.919462 3.955932 -21.829599 22.268030 -1.119050 2.942828 0.062293 -0.010715 -434319.000000 0 1 0
-1.130762 2.958732 -20.958999 21.196990 -1.205748 2.991602 0.050918 -0.010826 -1569550.000000 0 1 0
0.173438 3.313932 -21.067999 21.327748 1.518508 2.985364 0.045963 -0.003890 -1458580.000000 0 1 0
1.050838 2.417432 -20.372799 20.542619 1.160745 3.012922 0.035632 0.004945 310230.000000 0 1 0
2.554638 2.537732 -20.605599 20.917863 0.782078 2.968588 0.026784 0.006387 99626.300000 0 1 0
3.224738 1.952132 -21.724399 22.049020 0.544352 2.969785 0.046092 0.012416 696979.000000 0 1 0
4.639038 2.067832 -21.580599 22.170225 0.419311 2.910447 0.068318 0.009395 196687.000000 0 1 0
5.498438 1.032632 -22.257399 22.949749 0.185642 2.895337 0.067279 -0.012691 114211.000000 0 1 0
6.909138 1.135132 -22.110899 23.193029 0.162840 2.834917 0.062138 -0.021320 312123.000000 0 1 0
7.539038 0.438132 -23.150999 24.351547 0.058050 2.826280 0.071001 -0.026790 449157.000000 0 1 0
9.082838 0.651532 -23.236899 24.957482 0.071610 2.768102 0.088094 -0.028025 628136.000000 0 1 0
9.439138 2.015432 -23.384899 25.298474 0.210360 2.750151 0.072526 -0.025095 713526.000000 0 0 1
10.847238 2.271532 -23.490799 25.973835 0.206428 2.700773 0.079491 -0.033360 575598.000000 0 0 1
14.126938 -20.091419 22.668345 33.422887 -0.957971 0.825447 0.097023 0.002733 56927.900000 0 0 1
13.285738 -21.203319 23.052365 34.022097 -1.011056 0.826342 0.086693 0.002706 1384880.000000 0 0 1
11.860738 -21.029419 22.938805 33.303188 -1.057263 0.810982 0.080596 -0.010597 1202330.000000 0 0 1
11.271138 -20.936019 21.497045 32.054303 -1.076933 0.835719 0.095940 -0.014809 -495858.000000 0 0 1
11.623438 -19.791019 20.705345 30.911164 -1.039761 0.836811 0.102824 -0.012897 -168857.000000 0 0 1
11.071838 -19.934119 19.419045 29.950860 -1.063800 0.865363 0.122109 -0.015978 -11960.200000 0 0 1
11.172638 -18.606119 18.630145 28.602409 -1.030023 0.861436 0.122581 -0.025741 -138552.000000 0 0 1
10.349738 -17.532119 19.020545 27.861683 -1.037517 0.819376 0.152328 -0.030431 -230849.000000 0 0 1
10.517938 -16.383719 18.228645 26.670897 -1.000083 0.818296 0.149577 -0.029926 -197486.000000 0 0 1
9.697938 -15.171919 18.626645 25.907316 -1.002049 0.768474 0.114666 -0.023611 -653354.000000 0 0 1
8.335038 -15.410619 18.648545 25.587658 -1.074995 0.754214 0.090369 -0.023022 -589547.000000 0 0 1
7.504438 -14.266019 18.942145 24.872490 -1.086538 0.705064 0.066083 -0.021134 1186860.000000 0 1 0
6.015438 -14.449719 18.494645 24.228738 -1.176317 0.702336 0.024499 -0.013479 92231.600000 0 1 0
5.791838 -14.507619 17.098545 23.159806 -1.190956 0.740272 0.016112 -0.012088 -391226.000000 0 1 0
4.444538 -14.599719 16.708845 22.629432 -1.275284 0.740149 0.003423 -0.012630 -259042.000000 0 1 0
3.758138 -15.960519 16.980345 23.604954 -1.339544 0.767923 0.004329 -0.008373 214332.000000 0 1 0
2.462038 -15.977819 16.357545 22.998296 -1.417908 0.779521 0.010212 -0.010171 261173.000000 0 1 0
1.804838 -17.186819 16.607245 23.967577 -1.466167 0.805287 0.017560 -0.019366 1212100.000000 0 1 0
0.316638 -17.129519 16.055245 23.479599 -1.552314 0.817845 0.031150 -0.021397 1057530.000000 0 1 0
0.156638 -17.395619 14.691345 22.769886 -1.561792 0.869499 0.027944 -0.014265 -350389.000000 0 1 0
-1.213762 -17.512919 14.427445 22.722824 1.501600 0.882876 0.027317 -0.015274 -450044.000000 0 1 0
-1.568662 -18.130819 13.015445 22.373849 1.484492 0.949947 0.020025 -0.017341 -256160.000000 0 1 0
-2.928762 -18.464419 12.895545 22.711396 1.413490 0.966965 0.020350 -0.023547 -192358.000000 0 1 0
-3.097562 -19.738919 12.272145 23.448355 1.415139 1.019996 0.028395 -0.025008 -151.540000 0 1 0
-4.592662 -20.104419 12.239845 23.981118 1.346210 1.035152 0.023456 -0.025170 -25452.900000 0 1 0
-5.073362 -20.596619 13.446745 25.115228 1.329284 1.005813 0.017598 -0.029232 -349336.000000 0 0 1
-6.355262 -21.141719 13.242245 25.743323 1.278786 1.030494 0.022418 -0.027685 -305476.000000 0 0 1
-7.039462 -21.598519 14.531845 26.967102 1.255729 1.001698 0.032445 -0.026671 -760316.000000 0 0 1
-8.421362 -21.604019 14.384445 27.286723 1.199109 1.015542 0.048099 -0.029374 -739616.000000 0 0 1
-8.971562 -22.371419 15.465045 28.638033 1.189404 1.000338 0.040514 -0.027642 379881.000000 0 0 1
-10.480562 -22.183819 15.781045 29.171997 1.129437 0.999212 0.074207 -0.024246 430408.000000 0 0 1
-10.742662 -20.874219 16.290045 28.574523 1.095507 0.964181 0.064367 -0.023434 -510162.000000 0 0 1
-11.999762 -20.390919 15.912645 28.513087 1.038886 0.978724 0.075175 -0.021311 -388678.000000 0 0 1
-12.459362 -19.163919 16.704245 28.311187 0.994318 0.939709 0.075907 -0.018324 -277902.000000 0 0 1
-12.885562 -19.467019 17.981445 29.467523 0.986089 0.914468 0.074200 -0.011116 -182254.000000 0 0 1
-13.264562 -18.279119 18.645345 29.286920 0.943051 0.880658 0.084280 -0.017068 -80599.700000 0 0 1
-13.841862 -18.589119 20.087445 30.670147 0.930746 0.856678 0.073906 -0.011788 -613081.000000 0 0 1
-15.041662 -19.271919 20.048245 31.616303 0.908062 0.883938 0.075821 -0.012304 -767979.000000 0 0 1
-15.295462 -19.975819 21.272545 32.947013 0.917323 0.868910 0.077524 -0.006698 89410.100000 0 0 1
-16.682462 -20.646419 21.291445 34.028000 0.891192 0.894763 0.085370 -0.017163 -471581.000000 0 0 1
-16.769762 -21.772419 20.449345 34.255494 0.914473 0.931083 0.088691 -0.015847 703978.000000 0 0 1
-18.068762 -22.091719 19.916445 34.802141 0.885237 0.961517 0.074727 -0.011379 864186.000000 0 0 1
-18.992862 -22.816619 20.950645 36.335333 0.876601 0.956246 0.079556 -0.016733 -528139.000000 0 0 1
-19.597462 -21.900819 21.827445 36.607974 0.840846 0.931977 0.087329 -0.015073 -538288.000000 0 0 1
-20.248062 -22.654019 22.790145 37.981302 0.841420 0.927250 0.079653 -0.006724 -250144.000000 0 0 1
-20.785262 -21.674619 23.849565 38.348637 0.806341 0.899611 0.074917 -0.004243 -600205.000000 0 0 1
-21.925162 -20.985019 23.459695 38.359367 0.763492 0.912744 0.074020 0.004974 -367962.000000 0 0 1
-22.160562 -19.823319 24.254285 38.370885 0.729786 0.886534 0.082840 -0.003604 -279535.000000 0 0 1
-23.305862 -19.036719 23.663195 38.281937 0.684914 0.904435 0.074583 -0.006300 -467290.000000 0 0 1
-22.867362 -18.288819 22.559645 36.963965 0.674606 0.914339 0.083918 -0.004635 -401137.000000 0 0 1
-23.861262 -17.450019 22.054345 36.881664 0.631433 0.929823 0.070771 -0.007098 -495320.000000 0 0 1
-23.550562 -16.727719 20.743945 35.563420 0.617598 0.948018 0.076405 -0.004796 -514660.000000 0 0 1
-22.481562 -15.826319 20.800745 34.475557 0.613385 0.923104 0.091229 -0.008948 -612829.000000 0 0 1
-21.950562 -15.697619 19.509445 33.299563 0.620812 0.944835 0.085467 -0.008666 98275.700000 0 0 1
-20.961062 -14.494719 19.367045 32.008521 0.605003 0.920956 0.091324 -0.024027 310348.000000 0 0 1
-20.697562 -14.306319 17.963845 30.915361 0.604801 0.950759 0.089231 -0.032327 -100547.000000 0 0 1
-20.082262 -13.063619 17.715845 29.796083 0.576730 0.934066 0.103662 -0.041585 -294340.000000 0 0 1
-19.691762 -12.920419 16.220945 28.597584 0.580675 0.967677 0.109981 -0.045081 298947.000000 0 0 1
-18.958062 -11.844619 15.682245 27.306335 0.558441 0.959038 0.107009 -0.043152 200374.000000 0 0 1
-17.615662 -11.635619 16.078845 26.537303 0.583740 0.919905 0.126337 -0.050186 17319.400000 0 0 1
-17.024162 -10.489119 15.209845 25.123358 0.552196 0.920520 0.124405 -0.050736 -102308.000000 0 0 1
-17.353262 -9.208119 15.656245 25.120573 0.487848 0.897912 0.125543 -0.042102 173767.000000 0 0 1
-16.740262 -8.176819 14.857845 23.829652 0.454367 0.897582 0.108971 -0.033442 -112278.000000 0 1 0
-16.826562 -6.776119 15.550545 23.892853 0.382835 0.862099 0.107603 -0.026976 21845.400000 0 1 0
-16.034762 -6.661119 16.673145 24.072347 0.393726 0.805672 0.079701 -0.018146 -772542.000000 0 1 0
-14.709862 -6.270619 16.473945 22.958475 0.402960 0.770512 0.080735 -0.021149 -1003200.000000 0 1 0
-13.959962 -6.035219 17.773945 23.392681 0.408057 0.707779 0.076701 -0.017293 -264520.000000 0 1 0
-13.732462 -7.189219 18.628745 24.234181 0.482286 0.693995 0.067991 -0.018619 116601.000000 0 1 0
-13.105662 -8.320419 18.042345 23.801554 0.565667 0.710506 0.058785 -0.025050 -742659.000000 0 1 0
-13.394062 -9.609219 18.898545 25.077739 0.622324 0.717277 0.078563 -0.022751 476152.000000 0 0 1
-14.745762 -10.023119 18.957245 26.024557 0.596991 0.754759 0.080908 -0.023981 370952.000000 0 0 1
-15.594662 -9.319019 19.890945 26.938584 0.538636 0.740129 0.082287 -0.016709 778557.000000 0 0 1
-16.965462 -10.095519 20.189745 28.237780 0.536781 0.774186 0.084233 -0.018769 2647340.000000 0 0 1
-18.042562 -10.080819 19.181445 28.197248 0.509517 0.822680 0.101039 -0.026106 1245410.000000 0 0 1
-18.576662 -8.779119 18.973045 27.966797 0.441479 0.825196 0.093785 -0.026107 -173844.000000 0 0 1
-19.800162 -8.771219 18.008045 28.165056 0.417007 0.877111 0.128115 -0.035204 1169160.000000 0 0 1
-21.037462 -9.335019 18.484445 29.519351 0.417630 0.894152 0.110776 -0.029007 253736.000000 0 0 1
-21.991862 -9.239119 17.479345 29.572467 0.397726 0.938414 0.120884 -0.031042 54812.800000 0 0 1
-23.463462 -9.558919 17.868645 31.003153 0.386866 0.956542 0.100641 -0.025373 260002.000000 0 0 1
-23.941162 -8.503719 18.656145 31.520537 0.341293 0.937416 0.096969 -0.019492 386508.000000 0 0 1
-25.348082 -8.627919 18.824645 32.731232 0.328077 0.958036 0.083737 -0.010371 89896.100000 0 0 1
-25.993502 -7.505619 19.608845 33.414118 0.281104 0.943642 0.095733 -0.019768 -412934.000000 0 0 1
-25.772762 -7.501419 20.928245 34.036716 0.283235 0.908572 0.115442 -0.025463 86021.400000 0 0 1
-26.538092 -6.522319 21.571845 34.816023 0.240995 0.902569 0.098419 -0.022290 -709584.000000 0 0 1
-26.701932 -6.600419 23.088975 35.911829 0.242331 0.872472 0.092738 -0.017060 -43569.000000 0 0 1
-25.657352 -6.325419 23.992655 35.692550 0.241714 0.833615 0.102444 -0.016293 268169.000000 0 0 1
-24.523262 -7.196119 23.939585 35.018256 0.285428 0.818069 0.115606 -0.019120 559920.000000 0 0 1
-23.344462 -6.855019 24.916085 34.824797 0.285618 0.773500 0.108271 -0.012063 592555.000000 0 0 1
-22.980362 -5.455219 24.850905 34.284456 0.233072 0.759987 0.076836 -0.005712 992593.000000 0 0 1
-21.916962 -5.181719 25.816055 34.258899 0.232162 0.717339 0.083520 -0.018240 728157.000000 0 0 1
-21.345062 -3.758719 25.652685 33.582732 0.174306 0.701515 0.068852 -0.017638 -178443.000000 0 0 1
-20.216262 -3.498919 26.439195 33.465964 0.171377 0.659935 0.056799 -0.018336 -409236.000000 0 0 1
-20.491262 -3.304519 27.816155 34.706630 0.159888 0.641055 0.068008 -0.026468 -264978.000000 0 0 1
-21.130862 -1.990419 28.337525 35.404667 0.093918 0.642852 0.079267 -0.030976 -270121.000000 0 0 1
-22.469862 -1.953319 27.928095 35.898310 0.086713 0.679355 0.073282 -0.025350 -613973.000000 0 0 1
-23.231562 -0.898619 28.531245 36.804143 0.038662 0.683736 0.081113 -0.027493 506644.000000 0 0 1
-24.591862 -0.735119 27.830605 37.146234 0.029884 0.723917 0.083526 -0.024107 -477983.000000 0 0 1
-24.351862 -0.394719 26.473855 35.972684 0.016208 0.743737 0.062290 -0.024763 -67704.200000 0 0 1
-25.471392 0.074781 25.757395 36.224865 -0.002936 0.779818 0.102778 -0.017701 -74605.600000 0 0 1
-26.497182 -0.996719 25.297085 36.647464 0.037598 0.808918 0.088068 -0.015636 -352480.000000 0 0 1
-27.309612 -1.469119 26.333845 37.966362 0.053743 0.804308 0.074852 -0.010853 -205708.000000 0 0 1
-27.991742 -2.654719 25.970075 38.275710 0.094557 0.825077 0.056124 -0.020796 -140009.000000 0 0 1
-27.217842 -3.973319 26.114245 37.928248 0.144958 0.811354 0.075306 -0.023475 45806.900000 0 0 1
-27.011072 -4.498419 27.434325 38.761785 0.165025 0.784464 0.071267 -0.021074 -138904.000000 0 0 1
-26.152502 -5.610519 27.370155 38.269527 0.211328 0.773894 0.080423 -0.031161 -226757.000000 0 0 1
-25.815152 -6.230819 28.751305 39.139274 0.236833 0.745735 0.067088 -0.023720 -415913.000000 0 0 1
-26.853242 -6.674819 29.581895 40.506029 0.243629 0.752023 0.080443 -0.019426 -300391.000000 0 0 1
-26.434142 -7.545719 30.595245 41.131141 0.278059 0.731989 0.080749 -0.016644 -540158.000000 0 0 1
-27.638612 -7.908419 31.468405 42.622723 0.278690 0.740248 0.058250 -0.018552 254620.000000 0 0 1
-28.624782 -8.641619 30.745665 42.887663 0.293193 0.771467 0.050449 -0.022342 805293.000000 0 0 1
-29.842932 -8.897519 31.483955 44.283246 0.289754 0.779923 0.059406 -0.017885 513992.000000 0 0 1
-30.847682 -9.533919 30.543775 44.445442 0.299752 0.813142 0.038912 -0.018363 -820213.000000 0 0 1
-30.553752 -10.886119 30.249725 44.351835 0.342271 0.820248 0.045463 -0.022445 370437.000000 0 0 1
-31.472732 -11.348119 29.267685 44.451210 0.346060 0.852075 0.026210 -0.020852 109441.000000 0 0 1
-30.950122 -12.615619 28.657915 44.026583 0.387051 0.861997 0.030564 -0.027407 451670.000000 0 0 1
-29.900532 -12.303619 27.724905 42.592150 0.390368 0.861975 0.048875 -0.028516 405096.000000 0 0 1
-29.123682 -13.446519 27.344615 42.151224 0.432544 0.864887 0.053532 -0.031381 -1041380.000000 0 0 1
-27.872952 -13.083919 26.616665 40.700581 0.438880 0.857986 0.086350 -0.033798 59806.900000 0 0 1
-26.759342 -12.464019 27.359905 40.248957 0.435900 0.823352 0.073968 -0.039363 1308060.000000 0 0 1
-27.015032 -11.193219 28.002705 40.487672 0.392801 0.807045 0.080993 -0.045097 -853816.000000 0 0 1
-27.046662 -9.934819 27.109325 39.561826 0.352022 0.815864 0.090596 -0.037042 107541.000000 0 0 1
-25.782132 -9.598119 26.550195 38.232906 0.356382 0.803165 0.102766 -0.031309 385219.000000 0 0 1
-25.331862 -10.377219 25.415415 37.354160 0.388798 0.822501 0.092623 -0.032081 -50359.700000 0 0 1
-26.157102 -10.201019 24.085265 36.991280 0.371848 0.861755 0.098644 -0.023898 -776217.000000 0 0 1
-27.384992 -10.825819 24.195195 38.112250 0.376465 0.882994 0.084902 -0.026550 -920521.000000 0 0 1
-28.095692 -10.804019 22.987035 37.874774 0.367111 0.918614 0.104009 -0.022511 746101.000000 0 0 1
-29.463652 -11.606119 22.935345 39.100369 0.375248 0.943971 0.091260 -0.034162 2188080.000000 0 0 1
-30.676552 -11.048619 23.510675 40.197944 0.345702 0.946073 0.079865 -0.030867 934891.000000 0 0 1
-30.610912 -10.916319 24.892935 40.937174 0.342556 0.917161 0.087248 -0.030288 -274727.000000 0 0 1
-32.000842 -10.595719 25.509065 42.273343 0.319746 0.922999 0.033984 -0.026500 -358208.000000 0 0 1
-32.536112 -9.374019 25.202495 42.209437 0.280514 0.930938 0.052639 -0.025821 222821.000000 0 0 1
-33.928722 -9.203819 25.478035 43.416572 0.264894 0.943661 0.036456 -0.017828 610349.000000 0 0 1
-34.356638 -9.204619 26.993275 44.651321 0.261766 0.921615 0.020470 -0.016949 -827077.000000 0 0 1
-34.588253 -10.473519 27.554045 45.445212 0.294029 0.919380 0.024303 -0.024530 223371.000000 0 0 1
-35.360517 -10.251819 28.730215 46.700013 0.282186 0.908147 0.028179 -0.024203 -903083.000000 0 0 1
-35.791164 -11.595819 29.400035 47.747592 0.313314 0.907473 0.022254 -0.014615 346808.000000 0 0 1
-36.948522 -12.235019 28.869895 48.459879 0.319772 0.932599 0.018194 -0.013763 -235031.000000 0 0 1
36.110442 -11.601219 29.192005 47.861524 -0.310855 0.914829 0.027443 -0.009878 -1377110.000000 0 0 1
34.948192 -12.136819 28.361715 46.616150 -0.334250 0.916741 0.045210 -0.013026 -374445.000000 0 0 1
34.891812 -11.631019 27.034995 45.646579 -0.321761 0.936926 0.045441 -0.010834 1104720.000000 0 0 1
33.770002 -12.264919 26.318605 44.536617 -0.348376 0.938569 0.056763 -0.003528 1036160.000000 0 0 1
33.665222 -11.642019 24.892155 43.456912 -0.332944 0.960878 0.057960 -0.017066 -53499.400000 0 0 1
33.050082 -10.387719 24.838885 42.628428 -0.304526 0.948769 0.075009 -0.026245 15083.500000 0 0 1
33.283022 -9.720819 23.562455 41.921870 -0.284162 0.973926 0.070580 -0.021156 -310488.000000 0 0 1
32.900992 -8.275419 23.463215 41.249004 -0.246413 0.965727 0.100481 -0.023875 473093.000000 0 0 1
31.505002 -8.055719 23.262245 39.982394 -0.250333 0.949841 0.119086 -0.028631 166175.000000 0 0 1
31.162812 -6.769919 22.896005 39.257862 -0.213920 0.948108 0.128075 -0.030387 639212.000000 0 0 1
29.608322 -6.689019 22.693545 37.899772 -0.222187 0.928822 0.117960 -0.021890 714443.000000 0 0 1
29.337632 -7.511719 21.514845 37.148501 -0.250659 0.953101 0.108911 -0.023052 138772.000000 0 0 1
28.130522 -7.105619 20.895345 35.755161 -0.247419 0.946655 0.117280 -0.039496 -140033.000000 0 0 1
15.112938 -16.918019 26.082705 34.567727 -0.841693 0.715845 0.091478 -0.007584 208362.000000 0 0 1
14.474638 -18.175519 26.016285 34.881395 -0.898266 0.728986 0.085193 -0.001065 526874.000000 0 0 1
15.380538 -19.149819 26.534365 36.157282 -0.894126 0.746810 0.082365 0.001468 -519925.000000 0 0 1
14.821338 -20.530919 26.365155 36.555603 -0.945521 0.765214 0.061693 -0.004490 1011600.000000 0 0 1
13.859938 -20.997519 27.393235 37.193857 -0.987371 0.742916 0.061502 -0.005502 1569460.000000 0 0 1
12.625038 -20.290919 27.502685 36.435019 -1.014212 0.715383 0.067199 -0.003081 -83276.700000 0 0 1
11.848338 -20.672519 28.787485 37.369178 -1.050358 0.691401 0.073221 -0.011337 336884.000000 0 0 1
12.613738 -20.289919 29.939435 38.303485 -1.014592 0.673510 0.083249 -0.013594 792318.000000 0 0 1
11.882838 -19.418219 30.863575 38.351393 -1.021642 0.635529 0.101752 -0.018555 781431.000000 0 0 1
11.428238 -17.966919 30.384135 37.102701 -1.004275 0.611270 0.090110 -0.014029 87610.100000 0 0 1
12.559838 -17.146819 30.212585 36.939995 -0.938597 0.613075 0.089442 0.000511 -289322.000000 0 0 1
12.296138 -15.881519 29.663985 35.824149 -0.911960 0.595186 0.085793 0.001302 617721.000000 0 0 1
13.440638 -14.850219 29.968485 36.045663 -0.835182 0.589168 0.086060 -0.001052 1065370.000000 0 0 1
12.846038 -13.574419 29.687585 35.080454 -0.812960 0.561849 0.094069 -0.005495 127065.000000 0 0 1
13.684738 -12.540919 30.131515 35.390039 -0.741811 0.552124 0.093328 -0.004448 -454368.000000 0 0 1
13.358138 -11.090419 29.848235 34.530485 -0.692908 0.526836 0.088491 -0.006687 -122536.000000 0 0 1
13.560438 -10.518619 28.584415 33.340600 -0.659737 0.540706 0.095147 -0.010949 -1147090.000000 0 0 1
14.913538 -10.405319 28.369145 33.697072 -0.609187 0.570025 0.092085 -0.012913 -1447640.000000 0 0 1
15.283638 -9.457719 27.202305 32.603733 -0.554138 0.583878 0.080150 -0.010343 36282.000000 0 0 1
15.422638 -8.073419 27.366805 32.434239 -0.482253 0.566540 0.074249 -0.012693 310696.000000 0 0 1
16.675638 -7.780519 27.974545 33.484153 -0.436556 0.581834 0.080975 -0.019295 -13655.700000 0 0 1
17.125138 -6.315319 27.720495 33.190050 -0.353302 0.582291 0.077236 -0.022275 419230.000000 0 0 1
18.493538 -6.089419 28.037145 34.134637 -0.318092 0.606989 0.073420 -0.027420 293753.000000 0 0 1
18.929738 -4.775119 27.693435 33.883079 -0.247100 0.614046 0.077476 -0.028922 -1097060.000000 0 0 1
20.390938 -4.550819 27.438555 34.487311 -0.219580 0.650777 0.078363 -0.030156 -1992800.000000 0 0 1
20.818738 -5.343819 26.309695 33.973170 -0.251259 0.684990 0.081431 -0.025589 -504103.000000 0 0 1
22.137038 -5.300619 25.874505 34.462081 -0.235021 0.721507 0.079133 -0.022460 -439069.000000 0 0 1
23.227638 -5.688619 26.897645 35.991205 -0.240180 0.726748 0.088467 -0.032805 -901443.000000 0 0 1
23.470838 -4.603719 27.743215 36.630048 -0.193687 0.711490 0.078754 -0.027792 -401633.000000 0 0 1
24.526438 -4.922719 28.619135 38.010975 -0.198079 0.718312 0.095027 -0.045374 -50458.100000 0 0 1
25.217938 -3.610319 29.103595 38.678134 -0.142198 0.719013 0.097856 -0.040966 -433222.000000 0 0 1
25.990338 -2.915519 28.181935 38.447618 -0.111710 0.748081 0.087065 -0.029283 18120.000000 0 0 1
26.481338 -1.727819 28.755285 39.129439 -0.065154 0.745313 0.077374 -0.033381 -210809.000000 0 0 1
27.565338 -0.934119 27.944285 39.263259 -0.033874 0.778858 0.086453 -0.033226 348884.000000 0 0 1
28.831238 -1.558019 28.051365 40.256015 -0.053987 0.799836 0.108452 -0.033708 -367074.000000 0 0 1
29.596238 -1.149119 26.936765 40.035573 -0.038807 0.832781 0.108580 -0.027572 796006.000000 0 0 1
31.145738 -1.149119 27.207705 41.371931 -0.036878 0.853119 0.102549 -0.023813 723716.000000 0 0 1
31.544838 -0.151219 28.079225 42.232008 -0.004794 0.843463 0.093767 -0.011047 38864.100000 0 0 1
32.884838 -0.365119 28.507485 43.522667 -0.011102 0.856610 0.099750 -0.023951 470943.000000 0 0 1
33.377738 0.775781 29.440015 44.512804 0.023238 0.848135 0.092940 -0.020745 12992.400000 0 0 1
33.504838 2.037781 28.841695 44.255735 0.060746 0.860966 0.093649 -0.007211 102038.000000 0 0 1
33.757138 3.123981 29.736905 45.095312 0.092280 0.850745 0.080807 -0.008227 4818.210000 0 0 1
34.051038 4.525881 29.063865 44.996278 0.132140 0.868572 0.080367 -0.006240 47509.500000 0 0 1
33.906538 5.699081 29.890565 45.558520 0.166526 0.855168 0.084108 0.001200 -789500.000000 0 0 1
32.612638 6.087381 30.177075 44.847477 0.184534 0.832698 0.083398 0.003266 -964623.000000 0 0 1
32.559138 7.010281 31.424315 45.790054 0.212072 0.814449 0.077350 -0.001409 -20450.100000 0 0 1
32.873738 6.340381 32.629844 46.750292 0.190531 0.798251 0.077663 0.000012 116835.000000 0 0 1
32.945538 7.292881 33.710539 47.696908 0.217849 0.785880 0.075020 -0.000827 -213918.000000 0 0 1
33.377838 6.611081 -32.865729 47.306898 0.195537 2.338847 0.078361 0.005909 78997.600000 0 0 1
32.435538 5.783581 -32.174349 46.051088 0.176456 2.344328 0.074130 0.001088 258235.000000 0 0 1
32.340938 4.468981 -32.605079 46.141080 0.137314 2.355533 0.089598 -0.008896 -90826.300000 0 0 1
32.587438 3.386381 -31.541109 45.478019 0.103545 2.337196 0.091775 -0.018421 -90655.700000 0 0 1
32.752038 2.127881 -32.148009 45.942555 0.064878 2.345835 0.085845 -0.022988 329781.000000 0 0 1
33.131638 1.232881 -31.098349 45.456933 0.037194 2.324203 0.084156 -0.024678 -111042.000000 0 0 1
33.312438 -0.181519 -31.636279 45.941328 -0.005449 2.330385 0.075331 -0.034271 -1379530.000000 0 0 1
34.435038 -0.285919 -32.452359 47.318170 -0.008303 2.326544 0.075569 -0.025805 -452802.000000 0 0 1
35.304738 -1.360219 -32.242889 47.831774 -0.038509 2.310527 0.068405 -0.016640 -79858.500000 0 0 1
36.062738 -1.366419 -30.933829 47.531989 -0.037872 2.279434 0.082171 -0.020585 -1091360.000000 0 0 1
35.214538 -1.487419 -29.797569 46.153778 -0.042214 2.272625 0.081048 -0.027552 48056.700000 0 0 1
35.961138 -1.712819 -28.604429 45.982068 -0.047594 2.242190 0.094262 -0.027440 171562.000000 0 0 1
35.169838 -1.400519 -27.317389 44.554671 -0.039801 2.230801 0.106069 -0.030542 157449.000000 0 0 1
34.649938 -0.044419 -27.234509 44.071971 -0.001282 2.236936 0.099319 -0.028310 657830.000000 0 0 1
33.929238 0.149381 -26.018199 42.757013 0.004403 2.224982 0.096774 -0.026103 241197.000000 0 0 1
33.164838 1.529481 -25.894349 42.104193 0.046085 2.233190 0.086210 -0.017191 328752.000000 0 0 1
32.179438 1.657681 -26.902809 41.976485 0.051468 2.266469 0.085626 -0.026273 310749.000000 0 0 1
31.426138 2.850381 -26.713409 41.344081 0.090453 2.273292 0.086638 -0.008671 143902.000000 0 0 1
30.592138 3.188581 -27.970729 41.574122 0.103854 2.308772 0.093464 -0.009643 -63286.900000 0 0 1
29.587238 4.142881 -27.733589 40.764201 0.139118 2.319025 0.078466 -0.009045 290430.000000 0 0 1
28.823838 4.472881 -28.900419 41.061594 0.153952 2.351572 0.062013 -0.014097 112765.000000 0 0 1
27.658638 5.409381 -28.480129 40.067186 0.193139 2.361444 0.049965 -0.015526 -1019840.000000 0 0 1
26.544238 4.720481 -28.051519 38.907162 0.175995 2.376021 0.066088 -0.014733 -693900.000000 0 0 1
25.600838 5.650481 -27.574469 38.048419 0.217232 2.381425 0.077987 -0.022538 -362341.000000 0 0 1
24.256438 4.966881 -27.233149 36.806101 0.201974 2.403731 0.096028 -0.015619 -572.332000 0 0 1
23.488638 4.732781 -28.433179 37.182805 0.198830 2.441351 0.100077 -0.017886 62399.500000 0 0 1
22.222238 4.252581 -28.080739 36.061617 0.189080 2.463368 0.086298 -0.015462 -34493.600000 0 0 1
21.215738 4.012081 -29.247049 36.353737 0.186902 2.505651 0.075610 -0.010745 111999.000000 0 0 1
21.641738 2.964281 -30.119199 37.206423 0.136124 2.514124 0.074496 -0.023775 225752.000000 0 0 1
20.858338 2.816581 -31.297429 37.716475 0.134222 2.549560 0.061910 -0.030679 171772.000000 0 0 1
21.401338 3.753681 -32.406849 39.016807 0.173629 2.550957 0.067269 -0.026466 999492.000000 0 0 1
22.730838 3.358381 -32.794439 40.043039 0.146684 2.530427 0.066507 -0.031607 570092.000000 0 0 1
23.067138 3.877381 33.817325 41.118589 0.166534 0.605120 0.063675 -0.035722 -387790.000000 0 0 1
24.489538 3.538781 33.363863 41.538028 0.143508 0.638128 0.092199 -0.028917 -59051.600000 0 0 1
24.557338 2.177581 33.019198 41.207671 0.088442 0.641352 0.108927 -0.034941 250215.000000 0 0 1
25.938538 1.879881 32.875103 41.917945 0.072348 0.669273 0.103494 -0.034185 -39551.900000 0 0 1
26.232638 0.409281 32.480471 41.752842 0.015601 0.679444 0.081277 -0.032903 -1056730.000000 0 0 1
25.802238 0.001481 31.169895 40.463784 0.000057 0.691460 0.083651 -0.035541 1514470.000000 0 0 1
24.364038 -0.153319 31.011315 39.437691 -0.006293 0.665939 0.106942 -0.049854 1125010.000000 0 0 1
23.633038 -1.105019 31.991942 39.789771 -0.046723 0.636764 0.100971 -0.055265 -1022490.000000 0 0 1
24.061738 -2.421819 31.773375 39.929686 -0.100312 0.650579 0.091024 -0.057940 287952.000000 0 0 1
23.171238 -3.259619 32.473318 40.025589 -0.139758 0.624400 0.113320 -0.055925 -27435.800000 0 0 1
23.070838 -4.701319 31.921842 39.665728 -0.201025 0.635506 0.109265 -0.057491 -850588.000000 0 0 1
24.223738 -5.425619 32.102200 40.580513 -0.220343 0.658233 0.092593 -0.037025 -619465.000000 0 0 1
23.968138 -6.750019 31.693335 40.305110 -0.274515 0.665942 0.102710 -0.039816 210742.000000 0 0 1
25.278138 -7.591519 31.629325 41.195019 -0.291750 0.695404 0.095468 -0.036883 638377.000000 0 0 1
25.975738 -7.281219 30.396725 40.641309 -0.273295 0.725863 0.108264 -0.040019 -87089.100000 0 0 1
27.137038 -8.056619 30.244585 41.425389 -0.288598 0.752331 0.097804 -0.034748 -12015.100000 0 0 1
27.714738 -7.962019 28.804345 40.757708 -0.279751 0.785943 0.101231 -0.031859 -158987.000000 0 0 1
26.795238 -8.370019 27.837635 39.534490 -0.302766 0.789592 0.088092 -0.026570 -365983.000000 0 0 1
27.258538 -8.175319 26.533105 38.908474 -0.291381 0.820389 0.103379 -0.028743 -72540.500000 0 0 1
26.283038 -8.796619 25.535025 37.685754 -0.322969 0.826332 0.081384 -0.029508 -13983.200000 0 0 1
25.023038 -8.156419 25.394775 36.572861 -0.315097 0.803265 0.081984 -0.032126 -185857.000000 0 0 1
24.273038 -8.978719 24.548955 35.671402 -0.354296 0.811795 0.100640 -0.041247 -100315.000000 0 0 1
22.873338 -8.433219 24.182495 34.338052 -0.353229 0.789433 0.077372 -0.034700 28612.300000 0 0 1
21.917938 -8.586519 25.218545 34.497816 -0.373381 0.750983 0.068139 -0.020165 401982.000000 0 0 1
20.644138 -8.345419 24.617225 33.193888 -0.384166 0.735315 0.074261 -0.012824 -147208.000000 0 0 1
19.381638 -8.354619 25.438745 33.054157 -0.406991 0.692569 0.063763 -0.009401 -745033.000000 0 0 1
18.827338 -9.567819 25.896415 33.416106 -0.470176 0.684132 0.082051 -0.011330 -311515.000000 0 0 1
19.563938 -10.322419 26.833865 34.775800 -0.485502 0.689405 0.080043 -0.012585 -722695.000000 0 0 1
18.842838 -11.381119 27.618335 35.317911 -0.543357 0.672940 0.076440 -0.005585 -314736.000000 0 0 1
18.304538 -12.388719 26.773715 34.718414 -0.594993 0.690123 0.086121 -0.006814 174177.000000 0 0 1
17.475538 -13.390419 27.352795 35.112293 -0.653813 0.677712 0.086438 -0.004232 -14114.100000 0 0 1
18.181938 -14.563819 28.026265 36.443919 -0.675353 0.693483 0.087709 0.003008 -64386.100000 0 0 1
17.237338 -15.468319 28.576385 36.783209 -0.731362 0.681090 0.072555 0.004958 207996.000000 0 0 1
17.855238 -16.339319 29.485255 38.146600 -0.741095 0.687325 0.080280 0.000751 5021.360000 0 0 1
18.355538 -17.645819 28.853865 38.481765 -0.765687 0.723027 0.083123 0.003616 598781.000000 0 0 1
19.511338 -17.512619 28.007115 38.363819 -0.731466 0.752416 0.084630 0.004840 807338.000000 0 0 1
19.809038 -18.742619 27.374215 38.639764 -0.757743 0.783501 0.080669 0.009197 -199528.000000 0 0 1
20.746738 -18.473519 26.201535 38.186627 -0.727503 0.814621 0.082865 -0.003887 1198870.000000 0 0 1
22.129538 -18.184819 26.559025 39.061309 -0.687860 0.823127 0.073218 -0.008691 1729610.000000 0 0 1
22.909138 -17.855419 25.379525 38.571555 -0.662054 0.852656 0.059766 -0.006677 -203550.000000 0 0 1
24.381138 -17.565619 25.590315 39.469673 -0.624326 0.865376 0.059334 -0.006316 -483004.000000 0 0 1
25.160838 -18.761819 25.749315 40.596808 -0.640728 0.883733 0.062137 -0.009719 357685.000000 0 0 1
26.516238 -18.562319 26.061975 41.555951 -0.610750 0.892903 0.055981 -0.009148 -67045.400000 0 0 1
27.353038 -19.789119 26.466205 42.898227 -0.626305 0.905931 0.058821 -0.013848 20807.200000 0 0 1
27.291938 -20.071119 27.857555 43.860495 -0.634106 0.882607 0.055641 -0.014804 275534.000000 0 0 1
28.062038 -21.229519 28.197605 45.091855 -0.647661 0.895233 0.059962 -0.012580 70114.200000 0 0 1
27.324638 -22.272119 29.054555 45.682056 -0.683876 0.881471 0.051554 -0.008048 -296415.000000 0 0 1
27.014238 -21.942419 30.404185 46.213129 -0.682168 0.852753 0.046058 -0.005997 16760.800000 0 0 1
26.459338 -23.094819 30.976045 46.829292 -0.717606 0.848023 0.038540 -0.002088 -275681.000000 0 0 1
25.926738 -22.922319 32.423078 47.422404 -0.723971 0.817965 0.029662 0.000383 -21255.200000 0 0 1
25.429138 -24.098119 32.989012 48.121048 -0.758530 0.815448 0.029614 -0.003896 -9429.670000 0 0 1
25.156738 -23.921919 -33.571779 48.292691 -0.760243 2.339457 0.023894 -0.004613 -389004.000000 0 0 1
25.125138 -25.335929 -32.807049 48.471479 -0.789575 2.314247 0.030644 -0.012569 227764.000000 0 0 1
23.955838 -26.095009 -33.026599 48.431270 -0.828112 2.321191 0.055459 -0.016395 -223147.000000 0 0 1
23.632438 -26.580089 33.520760 48.873659 -0.844034 0.815004 0.038209 -0.013943 268899.000000 0 0 1
22.358438 -27.437899 33.266903 48.573911 -0.887051 0.816369 0.073012 -0.020734 515189.000000 0 0 1
22.502338 -28.852849 33.488758 49.601804 -0.908432 0.829626 0.086622 -0.025252 890045.000000 0 0 1
21.172538 -29.398689 33.567449 49.389603 -0.946650 0.823516 0.119826 -0.036656 720006.000000 0 0 1
21.185838 -30.880849 33.716747 50.391324 -0.969494 0.837802 0.102901 -0.038113 -94044.400000 0 0 1
21.632638 -31.311239 -32.878469 50.292727 -0.966210 2.283315 0.091143 -0.044043 -10690.500000 0 0 1
22.945938 -31.798869 -33.028069 51.269264 -0.945723 2.270784 0.070345 -0.028242 -730040.000000 0 0 1
23.501138 -32.225499 -31.670589 50.929485 -0.940694 2.241901 0.056739 -0.024198 -625168.000000 0 0 1
24.784438 -32.765349 -31.916199 52.023843 -0.923198 2.231271 0.050336 -0.008366 151714.000000 0 0 1
25.394738 -33.385379 -30.787889 52.032397 -0.920511 2.203970 0.041027 -0.003619 256168.000000 0 0 1
26.229238 -32.536979 -29.793139 51.325033 -0.892325 2.190114 0.036606 -0.013615 -236787.000000 0 0 1
26.781038 -33.254099 -28.709539 51.451887 -0.892804 2.162756 0.047465 -0.015798 43916.300000 0 0 1
27.167938 -32.364669 -27.665039 50.506663 -0.872470 2.150469 0.045324 -0.013930 -498382.000000 0 0 1
27.671938 -33.133289 -26.384129 50.593213 -0.874975 2.119399 0.053392 -0.020917 424453.000000 0 0 1
29.001038 -33.626539 -26.300709 51.609414 -0.859122 2.105529 0.056962 -0.003768 986626.000000 0 0 1
29.955538 -32.552989 -25.986109 51.306035 -0.826928 2.101908 0.066235 -0.025328 425014.000000 0 0 1
-27.454842 -30.575970 9.567401 42.192339 0.839130 1.342050 0.048570 -0.009827 -92023.400000 0 0 1
-27.339632 -31.815870 10.259601 43.185234 0.860923 1.330931 0.056105 -0.013684 1032160.000000 0 0 1
-26.018462 -31.882670 10.851601 42.558457 0.886334 1.312968 0.035357 -0.009166 961464.000000 0 0 1
-25.862652 -32.924970 11.968101 43.544986 0.904958 1.292368 0.037583 -0.006013 -122834.000000 0 0 1
-25.945542 33.813181 11.536001 44.154068 -0.916302 1.306462 0.048095 0.001960 -318960.000000 0 0 1
-27.263252 33.345881 11.445201 44.567088 -0.885422 1.311078 0.036855 -0.013850 -447885.000000 0 0 1
-27.268072 31.835981 11.142501 43.373181 -0.862531 1.310985 0.052186 -0.009723 224154.000000 0 0 1
-26.697872 31.463981 9.891401 42.433457 -0.867161 1.335528 0.087078 -0.023508 101826.000000 0 0 1
-26.752252 30.011181 9.768501 41.373634 -0.842748 1.332441 0.106290 -0.025868 -62072.600000 0 0 1
-26.192642 29.424781 8.469401 40.293957 -0.843447 1.359027 0.080579 -0.014918 33948.100000 0 0 1
-24.785962 29.323881 8.482301 39.321538 -0.869067 1.353371 0.065817 -0.006464 154377.000000 0 0 1
-24.208862 29.168981 7.197201 38.583652 -0.878057 1.383162 0.048471 -0.002929 456721.000000 0 0 1
-22.882262 28.349781 7.105401 37.118658 -0.891716 1.378184 0.087826 -0.000182 110369.000000 0 0 1
-22.879562 26.910781 7.201001 36.048841 -0.866186 1.369687 0.079295 -0.009938 -26828.900000 0 0 1
-23.435762 26.254181 6.098301 35.717030 -0.842058 1.399216 0.063748 -0.010160 -430765.000000 0 0 1
-23.838262 24.780881 6.321201 34.961585 -0.804784 1.388992 0.082140 -0.005174 -1334110.000000 0 0 1
-24.919462 24.717081 7.173501 35.824193 -0.781321 1.369192 0.109936 -0.014621 -381607.000000 0 0 1
-25.291872 23.402081 7.615301 35.289220 -0.746608 1.353289 0.111572 -0.025797 50888.800000 0 0 1
-26.050422 22.600781 6.510601 35.097119 -0.714611 1.384213 0.091763 -0.031586 -239918.000000 0 0 1
-27.350672 23.066681 6.185901 36.309729 -0.700631 1.399596 0.094569 -0.035118 438522.000000 0 0 1
-27.973352 22.438681 5.022801 36.210929 -0.676047 1.431638 0.082393 -0.028434 305005.000000 0 0 1
-27.634392 23.068881 3.620201 36.179259 -0.695597 1.470566 0.065964 -0.030891 -733501.000000 0 0 1
-26.269192 23.344881 3.494301 35.316626 -0.726525 1.471692 0.071282 -0.031251 -358588.000000 0 0 1
-25.945832 24.003281 2.300001 35.420809 -0.746527 1.505817 0.054056 -0.029326 92600.100000 0 0 1
-24.521062 24.586881 2.417501 34.808642 -0.786738 1.501289 0.061638 -0.023601 28455.500000 0 0 1
-24.146362 25.354781 1.259401 35.035665 -0.809805 1.534842 0.043691 -0.030814 71133.600000 0 0 1
-22.841662 25.892281 1.402901 34.556040 -0.847914 1.530187 0.056137 -0.026781 -392630.000000 0 0 1
-22.363762 26.545581 0.072901 34.710388 -0.870692 1.568696 0.075237 -0.031209 68071.300000 0 0 1
-22.034262 25.650181 -1.008499 33.829833 -0.861083 1.600612 0.073920 -0.037441 525648.000000 0 0 1
-20.826962 24.938681 -0.707699 32.499246 -0.875001 1.592574 0.070313 -0.042001 92643.600000 0 0 1
-20.295862 23.957481 -1.787099 31.449589 -0.867952 1.627651 0.075183 -0.054426 273946.000000 0 0 1
-21.115262 22.792381 -1.915399 31.129017 -0.823576 1.632366 0.080090 -0.048649 385402.000000 0 0 1
-20.687362 22.100681 -3.091499 30.429664 -0.818417 1.672567 0.084864 -0.054177 45874.900000 0 0 1
-21.908862 21.433681 -3.760099 30.879431 -0.774435 1.692866 0.081204 -0.041807 7853.010000 0 0 1
-22.548262 22.415481 -4.566699 32.120596 -0.782445 1.713453 0.077444 -0.038420 351348.000000 0 0 1
-23.800862 22.022181 -5.125399 32.828756 -0.746601 1.727563 0.069459 -0.030909 580355.000000 0 0 1
-24.071262 22.758681 -6.499399 33.758339 -0.757377 1.764533 0.077462 -0.024279 75710.300000 0 0 1
-23.269162 22.325081 -7.574399 33.124533 -0.764695 1.801502 0.090663 -0.030211 137921.000000 0 0 1
-23.366962 23.285681 -8.595899 34.089989 -0.783656 1.825701 0.092455 -0.029790 -7736.490000 0 0 1
-22.670362 22.770381 -9.864499 33.611664 -0.787599 1.868666 0.095096 -0.028430 -106756.000000 0 0 1
-23.335262 21.705881 -10.505699 33.556661 -0.749239 1.889224 0.075088 -0.020300 492106.000000 0 0 1
-22.520362 21.241081 -11.602999 33.060246 -0.756173 1.929398 0.073599 -0.016823 482710.000000 0 0 1
-23.413762 20.955581 -12.815699 33.934979 -0.730052 1.958058 0.064950 -0.015006 -168383.000000 0 0 1
-24.241662 19.840781 -12.718999 33.809581 -0.685895 1.956483 0.060450 -0.009791 30279.300000 0 0 1
-24.998662 19.694881 -13.915199 34.734050 -0.667281 1.982991 0.070057 -0.011512 51036.900000 0 0 1
-25.965672 18.509781 -14.029399 34.837511 -0.619302 1.985271 0.091557 -0.020248 -167407.000000 0 0 1
-25.507372 17.456181 -14.829599 34.282085 -0.600151 2.018144 0.079725 -0.023965 32805.400000 0 0 1
-26.448102 16.392481 -15.050099 34.564737 -0.554850 2.021299 0.094936 -0.027117 -5224.400000 0 0 1
-26.183512 15.554081 -16.361599 34.571776 -0.536026 2.063789 0.102627 -0.022454 306516.000000 0 0 1
-24.989862 14.762581 -16.281399 33.279288 -0.533585 2.082009 0.109743 -0.023835 529373.000000 0 0 1
-24.718362 14.125881 -17.501899 33.419372 -0.519180 2.121991 0.106017 -0.032455 -9208.760000 0 0 1
-23.781962 12.913381 -17.341299 32.141217 -0.497446 2.140681 0.102350 -0.028845 1244310.000000 0 0 1
-22.487762 13.200281 -16.742299 30.987925 -0.530805 2.141572 0.106755 -0.036999 1285490.000000 0 0 1
-21.651162 12.061281 -16.748499 29.912532 -0.508257 2.165081 0.111462 -0.033256 204233.000000 0 0 1
-20.344462 12.086381 -15.939599 28.531537 -0.536060 2.163573 0.114000 -0.034394 -635899.000000 0 0 1
-19.279962 12.821281 -16.399999 28.373618 -0.586852 2.187074 0.101011 -0.027929 -1202350.000000 0 0 1
-18.326562 12.910781 -15.425599 27.212135 -0.613729 2.173491 0.102479 -0.017478 -660497.000000 0 0 1
-17.268762 14.029581 -15.621599 27.185909 -0.682272 2.182938 0.089359 -0.020900 -479675.000000 0 0 1
-16.462762 13.793281 -16.694999 27.202944 -0.697396 2.231560 0.101003 -0.026534 -667110.000000 0 0 1
-15.861762 14.991681 -17.110699 27.733050 -0.757205 2.235694 0.091829 -0.014072 -179790.000000 0 0 1
-15.222462 14.865281 -18.528099 28.213302 -0.773527 2.287251 0.117597 -0.022880 563559.000000 0 0 1
-14.006062 14.123181 -18.500799 27.164565 -0.789562 2.320011 0.112624 -0.019765 135380.000000 0 0 1
-13.205462 14.283881 -19.676499 27.669083 -0.824608 2.361910 0.131225 -0.025376 301544.000000 0 0 1
-11.980962 13.385081 -19.515899 26.524973 -0.840696 2.397578 0.113035 -0.025298 -87812.200000 0 0 1
-12.472362 12.039881 -19.626399 26.186144 -0.767757 2.418096 0.121253 -0.029793 109207.000000 0 0 1
-11.466062 11.065781 -19.667499 25.312697 -0.767635 2.460653 0.105232 -0.014517 -309963.000000 0 0 1
-11.908762 9.883581 -20.526899 25.707147 -0.692733 2.495579 0.109515 -0.016394 -39412.500000 0 0 1
-11.785762 10.106581 -21.916599 26.858602 -0.708846 2.525252 0.106273 -0.024811 9489.550000 0 0 1
-12.033662 8.916381 -22.589199 27.103188 -0.637686 2.556121 0.099601 -0.007648 -16209.000000 0 0 1
-11.805962 9.136081 -24.098699 28.347770 -0.658593 2.586989 0.083703 -0.018170 -305830.000000 0 0 1
-10.433762 9.290781 -24.383299 28.102087 -0.727516 2.621290 0.085199 -0.022789 -356032.000000 0 0 1
-10.060262 8.569481 -25.515679 28.734905 -0.705547 2.663704 0.065086 -0.028552 -155889.000000 0 0 1
-9.921262 9.333081 -26.850949 30.108327 -0.754860 2.672130 0.100927 -0.037133 -118344.000000 0 0 1
-8.795062 10.129281 -27.162409 30.294421 -0.855784 2.682860 0.082867 -0.048267 26364.000000 0 0 1
-8.543262 11.287081 -26.392279 29.948922 -0.922890 2.649282 0.068196 -0.036975 -143090.000000 0 0 1
-7.053062 11.692381 -26.346689 29.674998 -1.028014 2.663429 0.069722 -0.038399 -65523.400000 0 0 1
-6.597262 12.215881 -27.534889 30.837019 -1.075620 2.674579 0.072209 -0.056375 563738.000000 0 0 1
-5.208462 12.559581 -27.422519 30.608262 -1.177682 2.681292 0.084291 -0.047824 721892.000000 0 0 1
-4.571662 12.967981 -28.791559 31.906465 -1.231865 2.696043 0.081328 -0.038356 -113939.000000 0 0 1
-3.167062 12.976281 -28.870629 31.810806 -1.331411 2.708264 0.093159 -0.046674 -176577.000000 0 0 1
-2.776662 13.123481 -30.226489 33.069265 -1.362292 2.723921 0.093031 -0.041797 654562.000000 0 0 1
-1.264062 12.802281 -30.454729 33.060351 -1.472378 2.741914 0.114392 -0.055774 508718.000000 0 0 1
-0.978462 11.415081 -30.191309 32.292052 -1.485289 2.778902 0.093142 -0.037906 725528.000000 0 0 1
0.375738 10.941681 -30.292339 32.210051 1.536470 2.794784 0.103223 -0.046910 879547.000000 0 0 1
0.951438 10.407881 -31.629899 33.311856 1.479635 2.822463 0.115243 -0.041667 -264005.000000 0 0 1
1.477538 11.422081 -32.403639 34.389576 1.442153 2.800088 0.126205 -0.048526 25787.500000 0 0 1
1.726438 10.934781 -33.704239 35.475707 1.414204 2.824242 0.142144 -0.044954 -168336.000000 0 0 1
2.235938 11.991081 33.199965 35.369805 1.386447 0.352094 0.155212 -0.050876 175755.000000 0 0 1
3.640438 12.000781 33.027820 35.328578 1.276269 0.362888 0.159290 -0.057108 -175574.000000 0 0 1
4.116538 12.814881 32.023107 34.736817 1.259977 0.397897 0.147407 -0.047971 -1247480.000000 0 0 1
5.584138 12.696481 31.785845 34.680300 1.156442 0.411457 0.147977 -0.045350 -1365350.000000 0 0 1
5.954338 11.534281 31.093605 33.694303 1.094249 0.395472 0.159433 -0.054157 476230.000000 0 0 1
7.366338 11.294281 31.149675 33.942981 0.992863 0.408530 0.148684 -0.030797 641159.000000 0 0 1
7.878338 10.217281 30.198055 32.838751 0.913940 0.403771 0.113906 -0.022608 -44721.800000 0 0 1
8.121138 10.695981 28.861155 31.832737 0.921389 0.435522 0.102581 -0.042677 -151581.000000 0 0 1
8.555838 9.672781 27.959285 30.797511 0.846596 0.432687 0.081242 -0.044077 280337.000000 0 0 1
7.456138 8.774481 27.317715 29.645287 0.866446 0.398907 0.073718 -0.027861 228684.000000 0 0 1
6.909038 7.799281 28.197145 30.060648 0.845851 0.353957 0.089725 -0.032812 -159724.000000 0 0 1
6.040338 6.966481 27.475275 28.981171 0.856483 0.323782 0.106166 -0.029025 -729197.000000 0 0 1
5.417038 5.857781 28.256095 29.360940 0.824469 0.275202 0.119373 -0.037827 -475454.000000 0 0 1
6.254138 4.800181 28.624425 29.690296 0.654620 0.268762 0.089609 -0.035915 -138605.000000 0 0 1
5.536938 3.904381 29.418005 30.188092 0.614175 0.226357 0.090444 -0.038787 -105785.000000 0 0 1
6.489638 2.915881 30.136135 30.964567 0.422283 0.231838 0.100417 -0.032219 178230.000000 0 0 1
6.536738 1.621081 29.533385 30.291545 0.243091 0.224205 0.094168 -0.020737 -319706.000000 0 0 1
7.576738 1.495281 28.603305 29.627553 0.194848 0.263711 0.080936 -0.018614 -498218.000000 0 0 1
7.576338 0.090981 27.913425 28.923493 0.012008 0.265056 0.070485 -0.020259 -103914.000000 0 0 1
8.009338 -0.991819 28.689505 29.803035 -0.123206 0.274219 0.046323 -0.027373 -182600.000000 0 0 1
8.162538 -2.190119 28.032685 29.278919 -0.262139 0.292813 0.057777 -0.026528 -304290.000000 0 0 1
8.731638 -3.338919 28.907835 30.381784 -0.365237 0.312767 0.048282 -0.022029 1105930.000000 0 0 1
10.118638 -3.081019 29.238155 31.092591 -0.295570 0.347116 0.038861 -0.023827 313848.000000 0 0 1
10.911038 -4.035319 28.648625 30.920515 -0.354238 0.385728 0.061486 -0.025285 -570277.000000 0 0 1
12.430838 -3.797619 28.960345 31.743491 -0.296495 0.421872 0.057760 -0.021901 600852.000000 0 0 1
13.224138 -4.918619 28.633215 31.920709 -0.356087 0.457837 0.065152 -0.025046 -21749.300000 0 0 1
13.126538 -6.052119 29.501715 32.852478 -0.432013 0.455580 0.076851 -0.022862 -808204.000000 0 0 1
12.416138 -7.273919 28.875405 32.262352 -0.529946 0.462323 0.083207 -0.026315 -1583800.000000 0 0 1
11.074938 -7.080219 28.844235 31.698165 -0.568817 0.427596 0.081344 -0.028274 -1804380.000000 0 0 1
10.327538 -8.211419 28.398715 31.314093 -0.671746 0.434932 0.092215 -0.033378 465854.000000 0 0 1
8.815338 -7.952019 28.243655 30.637376 -0.733956 0.397919 0.099598 -0.035512 180375.000000 0 0 1
8.192938 -7.710019 29.488525 31.561713 -0.755041 0.364469 0.117164 -0.043807 90546.600000 0 0 1
6.799338 -7.451919 29.396325 31.079029 -0.831157 0.330571 0.111873 -0.050012 427227.000000 0 0 1
6.144038 -6.795419 30.638625 31.978935 -0.835696 0.290546 0.099223 -0.047759 -27974.200000 0 0 1
5.987538 -7.723419 31.677015 33.150190 -0.911334 0.299241 0.104406 -0.039883 -163278.000000 0 0 1
5.353038 -7.156819 32.817557 34.012749 -0.928600 0.265885 0.104413 -0.038794 -296733.000000 0 0 1
5.894138 -6.021319 33.710810 34.747890 -0.796071 0.244931 0.106220 -0.033289 -571700.000000 0 0 1
5.845638 -4.803219 32.936270 33.794087 -0.687819 0.225795 0.101497 -0.028447 -124728.000000 0 0 1
6.406338 -3.699919 33.635495 34.439470 -0.523741 0.216499 0.083033 -0.020107 -18293.000000 0 0 1
6.548438 -2.519219 32.541943 33.289737 -0.367252 0.212357 0.078306 -0.026960 86109.100000 0 0 1
5.320138 -2.045519 32.016005 32.519419 -0.367061 0.176185 0.087538 -0.032642 -7633.950000 0 0 1
5.505638 -0.939119 31.187595 31.683751 -0.168948 0.177204 0.076028 -0.026812 -166937.000000 0 0 1
4.164938 -0.499819 30.554005 30.840619 -0.119435 0.136439 0.091762 -0.031298 163739.000000 0 0 1
3.302038 -0.084019 31.587125 31.759361 -0.025439 0.104193 0.090916 -0.031368 -1305920.000000 0 0 1
2.133338 0.494881 31.146685 31.223581 0.227943 0.070196 0.097224 -0.038682 -825572.000000 0 0 1
1.262238 0.827981 32.366178 32.401362 0.580556 0.046607 0.087127 -0.041063 508548.000000 0 0 1
1.902038 1.915481 33.101192 33.211078 0.788920 0.081370 0.074076 -0.033633 653376.000000 0 0 1
1.062838 2.156481 -33.671019 33.756741 1.112879 3.070312 0.060380 -0.038219 126153.000000 0 0 1
1.611738 3.216281 -32.666949 32.864445 1.106254 3.031907 0.059186 -0.033061 122553.000000 0 0 1
2.738438 2.838481 -31.892449 32.135406 0.803335 3.018548 0.042447 -0.015213 -275843.000000 0 0 1
3.166138 3.974881 -31.282799 31.692864 0.898171 2.980554 0.041333 -0.018420 6240.180000 0 0 1
4.256038 3.717181 -30.182049 30.706472 0.717917 2.956512 0.041324 -0.010123 118963.000000 0 0 1
3.747438 3.056381 -29.093369 29.492523 0.684176 2.976883 0.043804 -0.008905 -95829.300000 0 0 1
4.714638 2.830781 -28.080719 28.614121 0.540731 2.948205 0.044755 -0.014725 -187736.000000 0 0 1
4.234038 2.248481 -26.731869 27.158343 0.488177 2.964141 0.040095 -0.014905 -166295.000000 0 0 1
4.044338 0.825781 -26.704209 27.021350 0.201414 2.988232 0.054582 -0.019287 209369.000000 0 0 1
3.738638 0.273581 -25.417029 25.691976 0.073047 2.995163 0.067585 -0.019174 -231641.000000 0 0 1
4.146438 -1.252319 -25.235499 25.604525 -0.293312 2.971609 0.066959 -0.021514 570672.000000 0 0 1
5.522938 -1.545319 -25.000999 25.650357 -0.272823 2.916101 0.071086 -0.027372 419410.000000 0 0 1
5.741638 -2.949819 -24.848399 25.673153 -0.474594 2.887433 0.084894 -0.033407 -344038.000000 0 0 1
7.174738 -3.315719 -24.473099 25.717765 -0.432902 2.829206 0.098720 -0.039808 -150898.000000 0 0 1
8.151238 -3.148219 -25.477739 26.934535 -0.368576 2.811195 0.097027 -0.030963 199599.000000 0 0 1
9.418938 -3.545719 -24.931999 26.886671 -0.360038 2.757929 0.094851 -0.033355 581475.000000 0 0 1
-29.929882 -3.614519 18.035845 35.130532 0.120184 1.031660 0.111029 -0.026249 -457397.000000 0 0 1
-31.315382 -3.441319 18.157745 36.362062 0.109453 1.047937 0.098239 -0.000885 -494023.000000 0 0 1
-31.801502 -4.672719 18.680545 37.177044 0.145890 1.044337 0.108203 -0.015500 -313690.000000 0 0 1
-33.233962 -4.756419 19.207045 38.678552 0.142154 1.051141 0.097212 -0.011513 -46889.400000 0 0 1
-34.175021 -4.693119 18.147745 38.978175 0.136472 1.086498 0.089191 -0.017293 1479410.000000 0 0 1
-35.552698 -4.932219 18.537845 40.397684 0.137850 1.094058 0.095466 -0.014570 1049140.000000 0 0 1
-36.627082 -4.739719 17.495645 40.866927 0.128690 1.128393 0.075852 -0.018161 -463761.000000 0 0 1
36.316932 -5.112619 17.850345 40.788396 -0.139859 1.117832 0.101571 -0.026161 -268111.000000 0 0 1
35.460572 -4.680719 16.808445 39.520693 -0.131239 1.131495 0.079300 -0.025821 -32803.500000 0 0 1
33.988992 -5.101319 16.956245 38.324787 -0.148975 1.112484 0.077953 -0.024608 -221435.000000 0 0 1
33.252312 -4.501919 17.985045 38.071583 -0.134568 1.078784 0.097968 -0.038359 194109.000000 0 0 1
32.178152 -5.396319 18.269145 37.394056 -0.166155 1.060361 0.135130 -0.039094 144480.000000 0 0 1
31.254532 -4.994519 19.458745 37.154189 -0.158462 1.019573 0.131247 -0.035854 361882.000000 0 0 1
30.258092 -4.003519 19.242145 36.081026 -0.131548 1.008295 0.124675 -0.037938 906919.000000 0 0 1
30.823132 -2.662219 19.261945 36.444141 -0.086157 1.013924 0.133993 -0.042992 556783.000000 0 0 1
29.650842 -1.645019 19.427245 35.486566 -0.055423 0.991478 0.107865 -0.026242 352115.000000 0 0 1
30.072602 -0.313619 19.332145 35.751806 -0.010428 0.999489 0.125885 -0.032619 -397830.000000 0 0 1
29.079222 0.596881 19.681245 35.118497 0.020523 0.975899 0.097228 -0.028106 -413871.000000 0 0 1
29.286262 2.010581 19.278845 35.119816 0.068545 0.989695 0.112051 -0.026210 -57784.600000 0 0 1
29.219132 2.219081 17.866945 34.320690 0.075801 1.023257 0.115237 -0.029784 34170.600000 0 0 1
29.129022 3.575581 17.484845 34.161448 0.122139 1.033483 0.110049 -0.023052 210366.000000 0 0 1
28.751222 3.659281 15.954945 33.084489 0.126593 1.067577 0.108553 -0.026645 134763.000000 0 0 1
28.630922 4.994981 15.418645 32.900063 0.172723 1.083033 0.100520 -0.022574 195905.000000 0 0 1
28.060522 4.765981 14.130645 31.777077 0.168241 1.109979 0.089392 -0.022802 -80295.900000 0 0 1
27.567622 6.059581 13.520345 31.296838 0.216367 1.124083 0.085310 -0.009855 -195540.000000 0 0 1
26.409522 6.652881 14.070045 30.654361 0.246778 1.093938 0.089492 -0.014296 34067.000000 0 0 1
26.076822 7.834381 13.353345 30.326392 0.291856 1.114840 0.092157 -0.031172 -1314920.000000 0 0 1
24.775222 8.422181 13.793045 29.580278 0.327688 1.085702 0.105424 -0.032149 -65602.000000 0 0 1
23.509822 7.765881 13.567245 28.232797 0.319041 1.069516 0.112504 -0.027627 1417780.000000 0 0 1
23.320822 6.527681 14.247245 28.097249 0.272923 1.039016 0.136126 -0.034654 -430794.000000 0 0 1
21.916922 5.860081 14.055245 26.687862 0.261265 1.016138 0.150230 -0.026971 343408.000000 0 0 1
21.725422 5.532881 12.693845 25.763161 0.249372 1.055592 0.163126 -0.027241 271265.000000 0 0 1
20.737822 4.553481 12.559145 24.668271 0.216144 1.036633 0.160063 -0.024251 -398512.000000 0 1 0
20.338222 4.238081 11.072745 23.541672 0.205440 1.081113 0.158944 -0.027058 171203.000000 0 1 0
21.286722 3.388281 10.415445 23.939225 0.157849 1.120671 0.170779 -0.033078 821335.000000 0 1 0
21.045622 3.307181 9.002745 23.128015 0.155869 1.170971 0.185230 -0.029288 -350884.000000 0 1 0
22.223422 2.715481 8.234745 23.855091 0.121587 1.218346 0.168760 -0.018377 -1813200.000000 0 1 0
22.319922 1.350881 8.372045 23.876661 0.060450 1.212545 0.154883 -0.021672 896335.000000 0 1 0
23.265522 0.741681 7.478345 24.449136 0.031868 1.259940 0.148853 -0.007292 1830.510000 0 1 0
24.749122 1.164081 7.436345 25.868386 0.047001 1.279214 0.151103 -0.009940 -907338.000000 0 0 1
25.493422 0.864881 8.608045 26.921386 0.033913 1.245333 0.121497 0.004229 327877.000000 0 0 1
25.098822 1.497481 9.891845 27.019288 0.059593 1.195978 0.112872 -0.009321 -1105550.000000 0 0 1
25.721922 0.884681 11.132645 28.041679 0.034381 1.162547 0.088953 -0.010380 -679163.000000 0 0 1
27.106322 1.057781 11.120745 29.317957 0.039004 1.181740 0.089900 -0.009255 -471706.000000 0 0 1
27.713522 0.496581 12.272045 30.313182 0.017916 1.153990 0.107173 -0.022237 340493.000000 0 0 1
29.267512 0.527881 12.223845 31.722048 0.018034 1.175218 0.141949 -0.018965 406752.000000 0 0 1
29.821872 1.804881 12.472945 32.375547 0.060448 1.175309 0.132934 -0.013223 1764570.000000 0 0 1
31.264642 1.721381 12.688845 33.785319 0.055003 1.185782 0.130566 -0.021537 1540330.000000 0 0 1
31.993782 3.011181 13.157045 34.724302 0.093841 1.182189 0.129770 -0.028291 -175045.000000 0 0 1
32.088342 3.986581 12.137245 34.537911 0.123604 1.211711 0.121786 -0.026445 -25777.000000 0 0 1
32.953752 5.018581 12.485545 35.595292 0.151130 1.212410 0.108343 -0.024242 412878.000000 0 0 1
34.391972 4.859681 11.895645 36.714175 0.140373 1.240835 0.123168 -0.022064 139037.000000 0 0 1
35.181062 3.838781 12.480645 37.526123 0.108685 1.231752 0.120306 -0.032941 444268.000000 0 0 1
36.505922 4.003981 11.995245 38.634184 0.109244 1.255096 0.126344 -0.019917 534212.000000 0 0 1
-36.611632 3.222181 12.737145 38.897673 -0.087784 1.237190 0.166844 -0.019476 159291.000000 0 0 1
-36.293522 1.846081 12.383445 38.392415 -0.050822 1.242375 0.163715 -0.022893 1012810.000000 0 0 1
36.965862 0.821581 12.700645 39.095478 0.022222 1.239930 0.146232 -0.025233 543437.000000 0 0 1
36.631982 0.487381 14.218145 39.297523 0.013304 1.200590 0.143929 -0.021429 81249.500000 0 0 1
-36.607612 -0.254119 14.880845 39.517356 0.006942 1.184711 0.136188 -0.019748 104176.000000 0 0 1
-36.909922 -0.490019 16.222945 40.320794 0.013275 1.156717 0.138080 -0.022954 -711540.000000 0 0 1
-35.898552 -1.271219 17.015945 39.747509 0.035397 1.128406 0.120482 -0.020551 -188175.000000 0 0 1
-34.739744 -0.487019 17.348345 38.833646 0.014018 1.107684 0.127695 -0.018076 844797.000000 0 0 1
-33.707612 -1.204919 18.043345 38.252023 0.035731 1.079583 0.134764 -0.019569 495951.000000 0 0 1
-33.850242 -1.183519 19.596345 39.131271 0.034949 1.046291 0.116414 -0.025556 320204.000000 0 0 1
-34.935204 -1.956819 20.129945 40.367219 0.055954 1.048732 0.114952 -0.030899 321621.000000 0 0 1
-34.966389 -1.826419 21.541445 41.109829 0.052186 1.019259 0.113221 -0.035321 -3383.910000 0 0 1
-35.332010 -3.087019 22.343445 41.917898 0.087150 1.008620 0.102353 -0.029570 -406943.000000 0 0 1
-34.452176 -4.163919 22.339845 41.271774 0.120277 0.998830 0.106034 -0.030427 -465865.000000 0 0 1
-34.762544 -5.301819 23.127875 42.088506 0.151349 0.989024 0.094985 -0.032768 -210089.000000 0 0 1
-34.948543 -5.141919 24.701855 43.104775 0.146080 0.960555 0.100499 -0.037713 766655.000000 0 0 1
-33.699082 -4.785919 25.310885 42.416672 0.141076 0.931389 0.095704 -0.035886 190350.000000 0 0 1
-33.668732 -4.672819 26.746955 43.252958 0.137907 0.904111 0.078101 -0.041002 255862.000000 0 0 1
-32.522342 -3.738019 27.255525 42.597408 0.114435 0.876506 0.074612 -0.031813 69291.600000 0 0 1
-32.586722 -2.387919 26.814315 42.268240 0.073148 0.883584 0.084563 -0.024080 -214806.000000 0 0 1
-32.039262 -2.168419 25.562725 41.044723 0.067577 0.898478 0.104102 -0.025016 -484723.000000 0 0 1
-32.079982 -0.659319 25.166185 40.778632 0.020549 0.905692 0.096960 -0.020061 93648.100000 0 0 1
-33.380562 -0.106219 25.251925 41.856098 0.003182 0.923160 0.118070 -0.030612 -118461.000000 0 0 1
-33.431792 1.238881 24.793115 41.640342 -0.037040 0.933019 0.113181 -0.025820 -311769.000000 0 0 1
-34.808728 1.736181 24.353925 42.517944 -0.049836 0.960889 0.118840 -0.023894 -296664.000000 0 0 1
-35.392908 1.139481 23.207045 42.338202 -0.032184 0.990664 0.131803 -0.024126 510310.000000 0 0 1
-36.565032 1.818881 22.701945 43.077700 -0.049703 1.015730 0.130069 -0.011447 806788.000000 0 0 1
-36.419902 3.221181 22.025045 42.683579 -0.088216 1.028613 0.124596 -0.011430 -375513.000000 0 0 1
-35.633543 3.158281 20.835545 41.398600 -0.088401 1.043393 0.121519 -0.018074 -384365.000000 0 0 1
-36.280212 2.797381 19.648745 41.353988 -0.076953 1.075678 0.135339 -0.018762 -355790.000000 0 0 1
-35.337750 2.352581 18.525945 39.968761 -0.066476 1.088843 0.151070 -0.023533 45153.100000 0 0 1
-34.528704 3.371181 17.916645 39.046158 -0.097326 1.094087 0.134117 -0.030738 345563.000000 0 0 1
-34.195906 2.834481 16.633745 38.132345 -0.082700 1.119413 0.151372 -0.021889 -400545.000000 0 0 1
-33.394122 3.776781 15.720445 37.102074 -0.112619 1.133261 0.137566 -0.019322 -125480.000000 0 0 1
-34.093336 4.777181 15.023645 37.561775 -0.139214 1.159310 0.147265 -0.016649 -321535.000000 0 0 1
-33.214082 5.475681 14.192745 36.532073 -0.163391 1.171792 0.156052 -0.013071 -261443.000000 0 0 1
-33.713912 6.897181 13.838345 37.090414 -0.201795 1.188451 0.166856 -0.013047 320987.000000 0 0 1
-32.889592 7.582581 12.868145 36.122154 -0.226587 1.206556 0.187124 -0.008691 502896.000000 0 0 1
-33.376442 8.878481 12.528145 36.739199 -0.259990 1.222814 0.158184 -0.013434 284753.000000 0 0 1
-32.369052 9.693181 11.633745 35.735939 -0.290960 1.239206 0.185277 -0.017737 465997.000000 0 0 1
-32.901982 10.912881 11.141545 36.411062 -0.320260 1.259815 0.146846 0.002287 206706.000000 0 0 1
-31.998402 11.499181 10.228245 35.506984 -0.344995 1.278593 0.157812 -0.014257 47808.600000 0 0 1
-32.244412 13.012681 10.055645 36.195967 -0.383575 1.289281 0.133875 -0.004275 -406363.000000 0 0 1
-31.297822 13.569881 9.219845 35.336962 -0.409109 1.306829 0.145266 -0.012064 -353189.000000 0 0 1
-31.472662 14.925281 9.153545 36.014995 -0.442820 1.313818 0.123997 -0.008805 79558.800000 0 0 1
-30.389032 15.624181 8.292745 35.162166 -0.474895 1.332711 0.124081 -0.012614 889405.000000 0 0 1
-29.064122 15.639781 8.859545 34.173345 -0.493671 1.308548 0.140589 -0.004285 783594.000000 0 0 1
-28.222302 16.487581 8.105345 33.675441 -0.528724 1.327720 0.110051 -0.021348 213132.000000 0 0 1
-26.763932 16.587981 8.635145 32.650190 -0.554843 1.303137 0.108902 -0.010233 46131.900000 0 0 1
-26.524452 17.054581 9.949545 33.066581 -0.571421 1.265166 0.100900 -0.010902 28239.700000 0 0 1
-26.694722 18.451781 10.191545 34.013880 -0.604805 1.266493 0.093590 -0.013620 -186182.000000 0 0 1
-26.659102 18.970381 11.650545 34.732093 -0.618463 1.228724 0.119368 -0.006666 -442296.000000 0 0 1
-25.449072 18.814881 12.332545 33.966847 -0.636628 1.199229 0.107289 -0.004653 -449359.000000 0 0 1
-25.373312 19.209181 13.700045 34.648071 -0.648006 1.164287 0.112432 -0.014282 -132378.000000 0 0 1
-26.146242 18.348781 14.697645 35.161407 -0.611916 1.139548 0.109264 -0.008360 143854.000000 0 0 1
-25.389512 17.207881 15.125045 34.198034 -0.595640 1.112659 0.107398 -0.009654 510818.000000 0 0 1
-25.908702 16.590181 16.340345 34.835353 -0.569549 1.082555 0.106484 -0.004202 77324.300000 0 0 1
-25.037862 15.333581 16.613045 33.734352 -0.549499 1.055875 0.096499 -0.006131 640506.000000 0 0 1
-23.698162 15.708881 16.966345 33.109345 -0.585372 1.032780 0.080657 0.000069 784050.000000 0 0 1
-22.801162 14.574181 16.905245 31.907477 -0.568735 1.012407 0.061362 -0.004710 372494.000000 0 0 1
-22.937562 13.392781 17.978245 32.073597 -0.528482 0.975769 0.082508 -0.005850 -647321.000000 0 0 1
-22.862062 13.877781 19.313345 32.988968 -0.545567 0.945363 0.084266 -0.012372 282739.000000 0 0 1
-23.126462 12.911681 20.297145 33.369430 -0.509199 0.916935 0.087387 -0.021120 -452415.000000 0 0 1
-23.005862 13.438181 21.754545 34.396434 -0.528661 0.886065 0.085464 -0.017926 358265.000000 0 0 1
-21.703162 13.696181 22.266845 33.976831 -0.562951 0.856145 0.073789 -0.011569 322715.000000 0 0 1
-21.158062 14.950981 21.959845 33.962188 -0.615164 0.867682 0.069667 0.002598 -548428.000000 0 0 1
-19.680162 15.090781 22.398445 33.417522 -0.654168 0.836237 0.071795 0.000919 62310.500000 0 0 1
-18.737762 14.453081 21.591745 32.034337 -0.657016 0.831161 0.054556 -0.002421 -293700.000000 0 0 1
-18.357162 15.336781 20.496345 31.500832 -0.695995 0.862343 0.063375 0.002739 -2102730.000000 0 0 1
-17.169462 14.816681 19.714045 30.049427 -0.711974 0.855218 0.047981 0.003760 -145402.000000 0 0 1
-16.002662 14.700681 20.503545 29.876255 -0.743018 0.814431 0.047797 0.002889 92685.000000 0 0 1
-15.353862 15.910481 20.938445 30.451650 -0.803200 0.812623 0.025955 0.002646 51688.000000 0 0 1
-14.134162 15.614881 21.915945 30.395850 -0.835131 0.765526 0.006334 -0.000356 1813140.000000 0 0 1
-12.996762 14.974381 21.254545 29.067226 -0.855983 0.750687 0.022862 0.000677 859536.000000 0 0 1
-12.059462 14.605181 22.258945 29.226744 -0.880581 0.705025 0.029992 0.001434 166100.000000 0 0 1
-10.775062 13.866581 21.870845 28.048492 -0.910205 0.676528 0.033527 0.004074 -702998.000000 0 0 1
-10.301962 13.061381 22.932005 28.330319 -0.902962 0.627580 0.040212 -0.001610 164950.000000 0 0 1
-9.163962 12.273581 22.597245 27.299350 -0.929448 0.595697 0.047366 0.015808 1011700.000000 0 0 1
-7.762862 12.960181 22.690345 27.259495 -1.031129 0.587402 0.049471 0.015397 -137739.000000 0 0 1
-7.577062 14.111381 21.845245 27.087962 -1.078030 0.632663 0.040172 0.017299 -201941.000000 0 0 1
-6.921962 15.246981 22.381045 27.951658 -1.144630 0.642324 0.036675 0.016894 571142.000000 0 0 1
-7.958762 16.317581 22.923075 29.241627 -1.117003 0.669843 0.055855 -0.015074 1568110.000000 0 0 1
-8.949962 16.802181 21.990345 29.085914 -1.081358 0.713543 0.005735 -0.004337 664819.000000 0 0 1
-8.319662 17.663781 20.983645 28.662507 -1.130616 0.749406 0.030654 -0.001576 -233016.000000 0 0 1
-9.094462 17.663181 19.623345 27.924414 -1.095314 0.791568 0.032101 -0.005164 1629170.000000 0 0 1
-10.335462 18.380481 19.471245 28.701799 -1.058554 0.825216 0.019182 -0.004782 1165670.000000 0 0 1
-11.411762 18.074381 20.352145 29.514766 -1.007624 0.809918 0.024348 0.002739 -630977.000000 0 0 1
-12.552162 19.060881 20.429645 30.630775 -0.988448 0.840669 0.017100 -0.001131 -224750.000000 0 0 1
-13.423462 18.973081 19.318445 30.222003 -0.955054 0.877316 0.027693 -0.002541 202851.000000 0 0 1
-14.666962 19.612681 19.589345 31.361114 -0.928685 0.896128 0.006949 -0.004072 485088.000000 0 0 1
-15.577862 19.735081 18.329245 31.114377 -0.902584 0.940861 0.038636 -0.001114 -262532.000000 0 0 1
-16.243262 18.531081 18.076245 30.561335 -0.851094 0.937910 0.049161 0.001567 -138880.000000 0 0 1
-16.956562 18.647181 16.837145 30.310589 -0.832847 0.981848 0.050270 -0.007094 -412064.000000 0 0 1
-17.638462 17.282481 16.533145 29.717745 -0.775205 0.980823 0.052630 -0.011119 296198.000000 0 0 1
-18.626862 16.807781 17.406545 30.536033 -0.734107 0.964250 0.056236 -0.004702 315813.000000 0 0 1
-19.867962 17.512581 17.490045 31.738433 -0.722470 0.987152 0.066022 -0.006731 217822.000000 0 0 1
35.015292 -9.688919 11.767701 38.189326 -0.269951 1.257558 0.076604 -0.023948 699964.000000 0 0 1
33.653982 -10.124319 11.619501 37.014932 -0.292223 1.251484 0.079401 -0.021592 774410.000000 0 0 1
33.350702 -11.475619 11.968901 37.245319 -0.331399 1.243638 0.090260 -0.020893 -665744.000000 0 0 1
31.877592 -11.853319 12.015601 36.070164 -0.355996 1.231188 0.102784 -0.015900 -786668.000000 0 0 1
31.240122 -11.203219 13.089701 35.676289 -0.344330 1.195120 0.105993 0.000397 -483954.000000 0 0 1
29.844552 -11.172919 13.011601 34.421406 -0.358219 1.183152 0.108998 -0.009314 -75877.900000 0 0 1
29.063922 -12.076419 14.007601 34.449446 -0.393807 1.152052 0.104974 -0.017805 -639490.000000 0 0 1
29.154622 -11.566219 15.295801 34.896002 -0.377676 1.117062 0.113036 -0.017407 6671.090000 0 0 1
28.314222 -12.172719 16.254801 34.843777 -0.406027 1.085461 0.119156 -0.022914 545797.000000 0 0 1
26.818122 -11.744319 16.140601 33.431418 -0.412767 1.066950 0.114745 -0.033847 -30181.700000 0 0 1
26.618222 -10.395619 16.555001 33.025243 -0.372329 1.045715 0.104710 -0.039820 -730277.000000 0 0 1
25.617122 -9.847819 15.774901 31.655394 -0.367006 1.049122 0.130293 -0.040035 -407723.000000 0 0 1
25.364822 -8.335519 16.091001 31.173312 -0.317507 1.028413 0.149325 -0.035240 516926.000000 0 0 1
26.477322 -7.486819 15.776301 31.717388 -0.275569 1.050195 0.142150 -0.031576 310260.000000 0 0 1
26.395822 -6.211019 16.405501 31.693164 -0.231099 1.026711 0.129535 -0.040968 258015.000000 0 0 1
27.722022 -5.410219 16.295001 32.608404 -0.192737 1.047523 0.133308 -0.037620 264602.000000 0 0 1
27.979322 -4.927719 14.997401 32.125487 -0.174332 1.085084 0.143645 -0.035768 10641.500000 0 0 1
29.196042 -4.221819 15.027301 33.106682 -0.143607 1.099653 0.149760 -0.032143 -11629.100000 0 0 1
29.708432 -3.576319 13.689901 32.905841 -0.119804 1.141718 0.157877 -0.033897 -51332.800000 0 0 1
30.202752 -4.428319 12.674101 33.052218 -0.145582 1.177260 0.136292 -0.025960 349444.000000 0 0 1
30.494902 -3.712719 11.457901 32.787297 -0.121153 1.213800 0.137061 -0.024868 -83597.800000 0 0 1
30.843212 -4.682719 10.297501 32.852247 -0.150673 1.251974 0.139342 -0.024644 -67288.300000 0 0 1
32.158222 -5.183919 10.223301 34.140008 -0.159825 1.266678 0.137584 -0.029670 144228.000000 0 0 1
32.507062 -5.606319 8.914001 34.170153 -0.170785 1.306872 0.121856 -0.025957 454814.000000 0 0 1
33.977592 -6.105819 8.770901 35.618626 -0.177804 1.321993 0.111367 -0.028723 535412.000000 0 0 1
35.032622 -5.153519 8.768301 36.479124 -0.146059 1.328055 0.117000 -0.029111 374092.000000 0 0 1
36.237092 -5.930219 8.722401 37.740888 -0.162213 1.337575 0.112305 -0.028839 701653.000000 0 0 1
-36.740182 -5.146219 8.314701 38.019190 0.139165 1.350317 0.108664 -0.031632 315452.000000 0 0 1
-36.900052 -4.600419 7.035601 37.845441 0.124032 1.383805 0.118575 -0.031746 -758105.000000 0 0 1
-35.780620 -3.914719 6.620601 36.597953 0.108975 1.388894 0.126915 -0.017685 -714905.000000 0 0 1
-35.911212 -3.167119 5.305201 36.438866 0.087965 1.424685 0.133259 -0.025670 -186168.000000 0 0 1
-35.594194 -4.008319 4.234701 36.068629 0.112139 1.453118 0.128755 -0.035059 -29349.600000 0 0 1
-35.681263 -3.367519 2.932801 35.959617 0.094099 1.489147 0.139526 -0.026227 47507.500000 0 0 1
-35.001148 -4.216119 1.783501 35.299248 0.119879 1.520250 0.185689 -0.039846 59819.600000 0 0 1
-35.557154 -5.422919 1.328501 35.992835 0.151346 1.533878 0.162661 -0.027196 586878.000000 0 0 1
-36.605132 -5.369019 0.320501 36.998173 0.145635 1.562134 0.138527 -0.025715 371813.000000 0 0 1
-36.004667 -5.339019 -1.126399 36.415793 0.147214 1.601733 0.184678 -0.034086 -1033720.000000 0 0 1
-35.462355 -6.557619 -1.430099 36.091913 0.182852 1.610431 0.171146 -0.043764 565965.000000 0 0 1
-34.312455 -6.600119 -2.285099 35.016108 0.190032 1.636101 0.166428 -0.044951 1348360.000000 0 0 1
-32.982652 -5.956419 -1.668799 33.557699 0.178667 1.620546 0.174893 -0.052079 397802.000000 0 0 1
-32.330832 -6.708119 -0.670799 33.026225 0.204581 1.591109 0.151224 -0.046910 909029.000000 0 0 1
-31.039572 -6.191619 -0.278599 31.652311 0.196891 1.579598 0.184139 -0.052725 1156650.000000 0 0 1
-30.343402 -7.217819 0.699001 31.197878 0.233531 1.548389 0.151272 -0.039927 -69003.600000 0 0 1
-30.083152 -8.457119 0.112001 31.249503 0.274051 1.567212 0.173880 -0.034582 215898.000000 0 0 1
-29.176982 -9.208619 0.854101 30.607588 0.305718 1.542888 0.149677 -0.026549 -381697.000000 0 0 1
-28.834802 -10.629619 0.310901 30.733228 0.353182 1.560680 0.127650 -0.022410 278750.000000 0 0 1
-27.998812 -10.584619 -0.871499 29.945403 0.361432 1.599903 0.147327 -0.029407 684327.000000 0 0 1
-27.478492 -11.828119 -1.322899 29.945317 0.406478 1.614988 0.137205 -0.010974 302221.000000 0 0 1
-28.436012 -12.709319 -2.215899 31.225691 0.420310 1.641820 0.141495 -0.018687 -63767.600000 0 0 1
-29.367262 -13.489519 -1.521599 32.353029 0.430593 1.617845 0.142632 -0.027037 209324.000000 0 0 1
-29.719882 -14.613819 -2.276499 33.196650 0.457001 1.639426 0.128799 -0.031974 -672900.000000 0 0 1
-30.556152 -15.596019 -1.476199 34.337930 0.471937 1.613800 0.111562 -0.030199 -294221.000000 0 0 1
-29.883872 -16.383119 -0.507999 34.083874 0.501480 1.585701 0.090883 -0.017064 580834.000000 0 0 1
-30.840392 -17.118819 0.290401 35.274184 0.506733 1.562564 0.096972 -0.009352 626156.000000 0 0 1
-31.108732 -18.587419 -0.093399 36.238848 0.538578 1.573374 0.106549 -0.016881 -504374.000000 0 0 1
-30.024812 -19.409819 0.199301 35.752904 0.573882 1.565222 0.110028 -0.024782 -251770.000000 0 0 1
-30.249732 -20.822919 0.089501 36.723947 0.602876 1.568359 0.114260 -0.026262 329374.000000 0 0 1
-31.187862 -21.567819 1.137201 37.936088 0.605029 1.540815 0.118215 -0.024401 485260.000000 0 0 1
-30.662402 -21.533419 2.482901 37.550444 0.612251 1.504626 0.121641 -0.023072 437511.000000 0 0 1
-31.633082 -22.051219 3.383001 38.708563 0.608773 1.483288 0.115387 -0.021217 389344.000000 0 0 1
-30.976962 -22.363319 4.760101 38.501283 0.625296 1.446844 0.107184 -0.021894 134247.000000 0 0 1
-30.555082 -21.088319 5.290501 37.500929 0.604101 1.429248 0.090517 -0.023026 236359.000000 0 0 1
-29.804152 -21.201719 6.488301 37.146984 0.618315 1.395230 0.085492 -0.019367 274565.000000 0 0 1
-29.449352 -19.759419 7.073901 36.162675 0.590971 1.373914 0.084349 -0.012750 164876.000000 0 0 1
-28.287432 -19.760719 7.872001 35.392559 0.609765 1.346501 0.083899 -0.024690 -13726.900000 0 0 1
-28.000282 -18.415419 8.286601 34.522619 0.581760 1.328396 0.091714 -0.025669 -229998.000000 0 0 1
-26.829942 -18.428519 9.258701 33.840503 0.601855 1.293664 0.092946 -0.017538 -378769.000000 0 0 1
-27.085302 -19.158619 10.465601 34.787858 0.615638 1.265222 0.089615 -0.025083 -270309.000000 0 0 1
-25.952882 -19.387919 11.259601 34.296095 0.641606 1.236287 0.079600 -0.003549 -216635.000000 0 0 1
-25.703912 -18.362519 12.398601 33.935210 0.620316 1.196776 0.076945 -0.016605 -238386.000000 0 0 1
-25.213752 -17.091819 11.833701 32.678740 0.595723 1.200253 0.080453 -0.018961 235192.000000 0 0 1
-24.908762 -16.011919 12.661401 32.204643 0.571313 1.166736 0.069665 -0.009265 614962.000000 0 0 1
-23.940962 -16.335619 13.872201 32.131917 0.598768 1.124390 0.066637 -0.006160 488423.000000 0 0 1
-24.655462 -16.999319 14.939201 33.467124 0.603627 1.108076 0.050189 -0.019143 235755.000000 0 0 1
-23.859262 -17.096619 16.106201 33.480867 0.621755 1.068937 0.059717 -0.019123 -89850.900000 0 0 1
-24.592462 -17.767119 17.263601 34.906899 0.625643 1.053466 0.057308 -0.000015 -36931.000000 0 0 1
-25.668052 -16.984319 17.750601 35.530266 0.584550 1.047670 0.065026 -0.009525 156078.000000 0 0 1
-26.391782 -17.731719 18.722401 36.898080 0.591593 1.038622 0.048977 0.000651 -289219.000000 0 0 1
-27.433382 -16.905919 19.492201 37.660940 0.552285 1.026787 0.044316 -0.005615 -105069.000000 0 0 1
-26.822552 -16.086419 20.473801 37.381796 0.540224 0.991190 0.057637 -0.014533 590013.000000 0 0 1
-27.817412 -15.254519 21.019301 38.056797 0.501599 0.985659 0.061253 -0.017734 140015.000000 0 0 1
-27.214212 -14.618419 22.298201 38.098836 0.492933 0.945580 0.068295 -0.021462 -142392.000000 0 0 1
-26.175252 -13.786119 21.912801 36.815374 0.484767 0.933272 0.068316 -0.019206 -712524.000000 0 0 1
-25.045462 -13.806419 22.740001 36.537652 0.503806 0.899027 0.081572 -0.024221 165438.000000 0 0 1
-23.901962 -13.051419 21.965801 34.987708 0.499798 0.892054 0.086110 -0.020720 99040.300000 0 0 1
-24.058262 -11.657619 22.099301 34.685431 0.451218 0.880021 0.104963 -0.020254 200978.000000 0 0 1
-23.053162 -10.969219 21.392801 33.308017 0.444119 0.873338 0.109740 -0.019424 -649322.000000 0 0 1
-22.697362 -9.605219 21.984101 33.026219 0.400334 0.842424 0.113345 -0.016451 -34996.900000 0 0 1
-22.073762 -9.510819 23.263301 33.449780 0.406828 0.801723 0.108985 -0.015778 865766.000000 0 0 1
-20.703362 -9.922519 23.148201 32.602527 0.446927 0.781280 0.081676 -0.010135 288870.000000 0 0 1
-19.912762 -10.212819 24.434901 33.134335 0.473897 0.741510 0.072417 -0.012078 9361.200000 0 0 1
-20.216862 -11.436919 25.051901 34.163173 0.514826 0.747631 0.089681 -0.014056 -311037.000000 0 0 1
-19.534062 -11.660319 26.270201 34.751490 0.538153 0.713700 0.090231 -0.009327 -801395.000000 0 0 1
-19.826862 -12.939919 27.117501 35.998678 0.578233 0.717744 0.094728 -0.035641 1118540.000000 0 0 1
-21.068562 -12.925619 27.871201 37.252648 0.550289 0.725501 0.101808 -0.031170 815227.000000 0 0 1
-22.267162 -13.199219 27.162801 37.521509 0.535083 0.761320 0.091629 -0.027919 572100.000000 0 0 1
-23.530962 -13.252219 28.070001 38.951925 0.512908 0.766083 0.085465 -0.026463 43854.700000 0 0 1
-23.579762 -14.346119 28.939101 39.991097 0.546579 0.761737 0.077133 -0.018349 -574219.000000 0 0 1
-22.631562 -14.437819 29.969401 40.234353 0.567858 0.730455 0.079221 -0.016153 -282219.000000 0 0 1
-22.924162 -15.526119 31.039401 41.593533 0.595316 0.728377 0.067535 -0.025365 -442220.000000 0 0 1
-22.900662 -16.850519 30.525201 41.715323 0.634357 0.749910 0.068916 -0.024554 -114623.000000 0 0 1
-23.045862 -17.880719 31.520001 42.945807 0.659857 0.746679 0.076114 -0.024285 692545.000000 0 0 1
-24.503762 -17.967919 32.082601 44.187937 0.632709 0.758238 0.074192 -0.028621 183655.000000 0 0 1
-24.887462 -16.927819 32.984001 44.652896 0.597296 0.739693 0.081448 -0.026911 -612898.000000 0 0 1
-26.208082 -17.187119 33.370601 45.780538 0.580438 0.754045 0.096599 -0.035574 -453980.000000 0 0 1
-26.830362 -15.961419 -33.819444 46.025971 0.536662 2.396154 0.097656 -0.030077 3119.380000 0 0 1
-26.291142 -15.699919 -32.535144 44.679382 0.538326 2.386476 0.096029 -0.032006 173920.000000 0 0 1
-27.168502 -14.798819 -31.898944 44.437317 0.498769 2.371493 0.081120 -0.024512 -141952.000000 0 0 1
-26.546842 -14.477719 -30.547644 42.982528 0.499278 2.361288 0.084254 -0.015589 -133637.000000 0 0 1
-26.787462 -15.474819 -29.620044 42.829723 0.523853 2.334466 0.094889 -0.011972 140627.000000 0 0 1
-26.094942 -15.117419 -28.445944 41.456653 0.525078 2.326995 0.103704 -0.001340 -157415.000000 0 0 1
-26.506212 -15.936519 -27.182344 41.175621 0.541329 2.291823 0.100202 -0.003776 -318971.000000 0 0 1
-27.743752 -15.550019 -26.659144 41.499745 0.510859 2.268413 0.098481 -0.007940 -430885.000000 0 0 1
-27.782552 -14.409819 -25.801044 40.561151 0.478467 2.260233 0.103620 -0.000105 -348387.000000 0 0 1
-26.914642 -14.399819 -24.503044 39.142712 0.491268 2.247200 0.098546 -0.014097 1077550.000000 0 0 1
-25.525862 -14.072819 -24.790144 38.264410 0.503853 2.275574 0.093063 -0.019712 1048290.000000 0 0 1
-24.617762 -14.301919 -23.775444 37.092463 0.526301 2.266568 0.097266 -0.013056 -323449.000000 0 0 1
-23.996162 -15.707519 -23.834544 37.291117 0.579591 2.264186 0.089896 -0.004344 -364468.000000 0 0 1
-23.141462 -15.900019 -24.965944 37.571748 0.602002 2.297604 0.078273 -0.002844 187932.000000 0 0 1
-22.707962 -17.225119 -25.126044 37.995715 0.648951 2.293328 0.085417 -0.009171 77751.000000 0 0 1
-21.635362 -17.480419 -26.211244 38.218886 0.679573 2.326525 0.066563 -0.006927 -38877.000000 0 0 1
-22.026062 -17.393419 -27.561644 39.336022 0.668413 2.347135 0.073289 -0.014940 22005.500000 0 0 1
-22.980562 -18.382019 -27.908044 40.556920 0.674676 2.329692 0.087601 -0.025700 450.963000 0 0 1
-23.724862 -18.227519 -29.247344 41.839200 0.655103 2.344853 0.099770 -0.033480 119246.000000 0 0 1
-22.880062 -18.572819 -30.340944 42.296805 0.681863 2.370765 0.104163 -0.034736 285802.000000 0 0 1
-23.446962 -18.226619 -31.602044 43.366564 0.660780 2.387246 0.100401 -0.033181 -786378.000000 0 0 1
-22.608162 -18.548919 -32.812644 43.952941 0.687088 2.413643 0.094666 -0.033752 -729985.000000 0 0 1
-21.371662 -17.846719 -32.834144 43.050370 0.695759 2.438261 0.086842 -0.026003 807764.000000 0 0 1
-20.216862 -18.528019 -32.321444 42.387318 0.741837 2.438005 0.067675 -0.028409 74657.600000 0 0 1
-19.746862 -19.717719 -33.199344 43.369614 0.784660 2.442611 0.063368 -0.027884 -1347370.000000 0 0 1
-19.223162 -19.362319 33.452101 43.167956 0.789005 0.684194 0.070502 -0.029600 -133497.000000 0 0 1
-19.188362 -20.567919 32.649701 43.095655 0.820085 0.711153 0.074740 -0.029653 -101895.000000 0 0 1
-20.484962 -21.122619 31.985401 43.461069 0.800722 0.743720 0.084338 -0.030109 -276745.000000 0 0 1
-21.335062 -21.693619 32.928101 44.833668 0.793731 0.745940 0.094638 -0.033786 281043.000000 0 0 1
-22.677962 -21.917119 32.471601 45.266488 0.768339 0.770815 0.111474 -0.024978 857280.000000 0 0 1
-22.883162 -23.151619 31.544701 45.328851 0.791230 0.801113 0.115085 -0.008872 -752899.000000 0 0 1
-22.494162 -24.344219 32.162101 46.184727 0.824876 0.800456 0.124733 -0.013451 -19943.300000 0 0 1
-22.546162 -25.449719 31.278501 46.199158 0.845820 0.827068 0.120213 -0.001118 -61665.400000 0 0 1
-22.166662 -26.814539 31.990701 47.262938 0.880006 0.827299 0.133481 -0.007485 124760.000000 0 0 1
-23.141062 -27.313479 32.912401 48.628808 0.867907 0.827377 0.105238 -0.003567 -29827.900000 0 0 1
-22.901862 -28.533459 33.571901 49.656078 0.894453 0.828355 0.110429 -0.012191 -1189460.000000 0 0 1
-24.094562 -29.109659 -33.575044 50.549023 0.879382 2.297230 0.088132 0.002609 -961796.000000 0 0 1
-25.038462 -29.719619 33.459701 51.280912 0.870679 0.859946 0.065795 0.005959 224212.000000 0 0 1
-26.115762 -28.931469 32.988501 51.061767 0.836504 0.868397 0.062561 0.009210 -171147.000000 0 0 1
-27.207752 -28.607419 -33.842044 51.999328 0.810470 2.279456 0.026931 0.011318 -1432740.000000 0 0 1
-28.180642 -27.791189 33.519501 51.865747 0.778440 0.868104 0.034513 0.006446 -1197560.000000 0 0 1
-29.110252 -27.513749 -33.394044 52.149548 0.757211 2.265752 0.042584 0.002505 -777484.000000 0 0 1
-30.258252 -26.608369 -33.873744 52.640266 0.721303 2.269852 0.043640 -0.000197 -500752.000000 0 0 1
-31.071452 -27.361449 33.195901 53.066485 0.721992 0.894956 0.019323 0.003067 -873829.000000 0 0 1
-32.167252 -26.646259 32.712001 53.054973 0.691800 0.906420 0.030063 -0.002586 -372115.000000 0 0 1
