# x y z rho theta phi s1 s2 stress_xx np intf bulk
-0.938548 -10.724034 -14.345597 17.935494 1.483501 2.497832 -0.007304 0.005601 431696.000000 1 0 0
2.042752 -13.487934 -13.033997 18.867493 -1.420488 2.333416 -0.002986 0.014151 97528.900000 1 0 0
1.959152 -11.192434 -14.649497 18.539596 -1.397509 2.481888 -0.004402 0.008363 1034660.000000 1 0 0
-5.711348 -6.386534 -16.734997 18.800730 0.841151 2.668415 -0.006110 0.015150 27124.800000 1 0 0
4.429652 -14.143934 -11.532797 18.779726 -1.267289 2.232053 0.000725 0.010121 404044.000000 1 0 0
14.007152 -10.625934 -8.120697 19.366376 -0.648987 2.003492 0.013523 -0.006536 -604860.000000 1 0 0
6.867552 10.913366 -10.829897 16.838987 1.009126 2.269394 0.007013 -0.008008 545581.000000 1 0 0
5.599152 -4.190634 -12.691997 14.491332 -0.642503 2.637957 0.002305 0.001331 1689930.000000 1 0 0
13.572652 0.584266 -10.113497 16.936383 0.043021 2.210735 -0.002417 0.005874 1043410.000000 1 0 0
13.993852 5.135666 -10.466897 18.214249 0.351734 2.182978 0.009876 -0.001603 -1026490.000000 1 0 0
3.985052 4.338966 -13.556197 14.780992 0.827890 2.731634 0.003546 0.000074 1652370.000000 1 0 0
10.221552 -4.964734 -13.743297 17.832748 -0.452152 2.450700 0.015195 -0.006761 -5700.630000 1 0 0
2.446452 -7.466134 -12.078597 14.409052 -1.254149 2.564889 -0.001650 0.005585 1707860.000000 1 0 0
-5.727348 -2.080934 -15.147797 16.327540 0.348503 2.759122 -0.005695 0.004158 907156.000000 1 0 0
10.586752 0.019466 -9.726897 14.376794 0.001839 2.313890 0.010690 0.002010 2125550.000000 1 0 0
-1.776448 -9.419034 -16.922697 19.448693 1.384384 2.626242 -0.005816 -0.001146 920523.000000 1 0 0
8.363952 1.902266 -18.070197 20.002658 0.223632 2.698406 0.001643 -0.005122 597716.000000 1 0 0
16.496852 -5.784634 -9.075097 19.696840 -0.337254 2.049624 0.021989 -0.002772 -1034450.000000 1 0 0
10.015052 7.613066 -10.023097 16.084853 0.649973 2.243546 0.014642 -0.003611 1347780.000000 1 0 0
13.693552 -2.266234 -10.728797 17.542983 -0.164010 2.228842 0.009370 -0.001388 -2555160.000000 1 0 0
7.130252 -1.785534 -13.799497 15.635048 -0.245371 2.652161 0.004103 -0.002504 1958200.000000 1 0 0
-3.024948 6.653766 -13.853297 15.663229 -1.144105 2.656104 -0.002356 0.004987 1132060.000000 1 0 0
11.075252 1.916166 -14.027697 17.975238 0.171317 2.466086 0.000987 -0.001403 267240.000000 1 0 0
-2.460748 10.737366 -12.964197 17.012251 -1.345511 2.437270 -0.005230 0.005123 -668242.000000 1 0 0
2.646952 -0.997634 -15.301697 15.560962 -0.360435 2.958794 0.001365 -0.000403 -86893.300000 1 0 0
-9.198948 0.537766 -15.106697 17.695257 -0.058393 2.593873 -0.015918 0.007732 -706770.000000 1 0 0
2.216052 -1.644734 -18.107497 18.316590 -0.638485 2.990349 0.012028 -0.005729 377072.000000 1 0 0
0.931852 7.882566 -13.253497 15.448572 1.453126 2.601986 0.001192 -0.000361 329906.000000 1 0 0
9.251552 -9.056934 -9.888797 16.291334 -0.774769 2.223073 0.017978 -0.003222 -1091510.000000 1 0 0
3.822152 7.298966 -13.639497 15.934855 1.088403 2.598189 -0.004319 0.000704 620278.000000 1 0 0
-2.958648 9.142666 -15.547997 18.277914 -1.257823 2.588005 -0.012727 0.009255 258359.000000 1 0 0
5.404352 -7.586534 -15.338797 17.945507 -0.951822 2.595852 0.006939 0.003060 804912.000000 1 0 0
4.023552 7.279166 -16.501297 18.478853 1.065845 2.674725 0.002947 -0.004025 759375.000000 1 0 0
-0.365748 5.103966 -13.588997 14.520505 -1.499259 2.781456 0.006740 -0.001959 2584150.000000 1 0 0
8.577052 4.492966 -16.824797 19.412015 0.482534 2.619386 0.008747 0.003203 -660541.000000 1 0 0
5.144052 0.351166 -14.444797 15.337429 0.068161 2.798743 0.003622 0.000030 1193240.000000 1 0 0
6.083552 7.987966 -11.719197 15.432329 0.919919 2.433175 -0.002106 -0.000681 249896.000000 1 0 0
2.610952 -8.387234 -14.994897 17.378426 -1.269004 2.611669 0.000859 0.003492 1078760.000000 1 0 0
3.873052 11.550966 -13.648597 18.295068 1.247276 2.412871 0.000936 -0.007645 -1081320.000000 1 0 0
0.498152 -4.504234 -13.748097 14.475719 -1.460648 2.823185 0.004614 0.002245 1528370.000000 1 0 0
8.331452 0.016066 -11.677297 14.344776 0.001928 2.521880 0.002443 0.001184 1102360.000000 1 0 0
-1.026848 -5.036534 -16.274397 17.066842 1.369673 2.835666 -0.001237 -0.000808 -255035.000000 1 0 0
4.281052 0.955166 -11.734197 12.527215 0.219519 2.783869 0.002945 -0.002695 339025.000000 1 0 0
-3.003148 -7.087434 -15.638597 17.430328 1.170003 2.684198 -0.005451 0.005707 3381450.000000 1 0 0
11.287152 -3.795234 -11.438997 16.512245 -0.324368 2.336103 0.019080 -0.007025 1406470.000000 1 0 0
6.364552 -7.056434 -12.568497 15.756519 -0.836905 2.494218 0.006845 0.003098 -931909.000000 1 0 0
3.297452 -3.869834 -14.722497 15.575645 -0.865089 2.809081 0.004468 0.002109 2769100.000000 1 0 0
-0.748048 -1.530434 -18.357797 18.436662 1.116164 3.049065 0.007670 -0.004391 16996.300000 1 0 0
14.816152 2.999866 -8.602597 17.393166 0.199772 2.088167 -0.004239 0.008251 -113477.000000 1 0 0
6.758052 4.294366 -14.473597 16.540793 0.566075 2.636282 0.005881 0.003119 3211410.000000 1 0 0
10.144852 -9.670834 -13.980097 19.796115 -0.761481 2.354919 0.029226 -0.007196 601786.000000 1 0 0
8.938452 -3.155834 -15.525097 18.190213 -0.339401 2.593435 0.002518 -0.009641 315134.000000 1 0 0
-5.572148 -1.938234 -18.130397 19.066118 0.334752 2.826999 -0.014919 0.018158 -1799760.000000 1 0 0
4.936652 -9.129634 -11.168897 15.246803 -1.075099 2.392842 -0.000484 0.004760 1856840.000000 1 0 0
-2.726748 3.959966 -17.282297 17.938625 -0.967777 2.870253 -0.002830 0.003379 407818.000000 1 0 0
9.046452 9.416766 -14.665697 19.636609 0.805452 2.414116 0.028105 -0.005316 -361512.000000 1 0 0
9.611952 9.974266 -11.762297 18.172155 0.803894 2.274794 0.024023 -0.010961 252543.000000 1 0 0
12.012252 -5.980834 -9.717397 16.567811 -0.461962 2.197555 0.027000 -0.006747 261261.000000 1 0 0
7.985452 6.841266 -13.724997 17.290052 0.708380 2.487843 0.011086 -0.000816 -688874.000000 1 0 0
3.835452 -4.037534 -17.635697 18.494058 -0.811060 2.835729 0.010447 -0.003772 -164680.000000 1 0 0
9.221852 -7.459034 -12.352697 17.125095 -0.680110 2.376505 0.021390 -0.006712 1239070.000000 1 0 0
11.928952 -8.723734 -8.969697 17.287536 -0.631430 2.116305 0.019460 -0.006258 560721.000000 1 0 0
-3.008148 -2.530534 -13.894597 14.439958 0.699379 2.865884 0.000268 0.000596 -1786260.000000 1 0 0
-0.694848 6.120966 -17.677297 18.719932 -1.457761 2.806268 -0.002681 0.002578 2122540.000000 1 0 0
0.964552 -8.578534 -17.522397 19.533458 -1.458829 2.683834 -0.006053 0.000384 -712660.000000 1 0 0
-0.160448 8.571966 -16.074397 18.217864 -1.552081 2.651613 -0.006748 0.007562 342671.000000 1 0 0
1.618652 3.410966 -15.110697 15.575233 1.127720 2.896747 0.008128 -0.002554 3124680.000000 1 0 0
-2.152048 -0.481734 -15.845797 15.998520 0.220219 3.003308 0.006751 0.000859 571530.000000 1 0 0
14.137152 -4.355934 -8.639797 17.131238 -0.298889 2.099402 0.019792 -0.002129 -974430.000000 1 0 0
0.350552 0.694166 -14.651197 14.671821 1.103159 3.088564 0.008117 -0.004032 2064120.000000 1 0 0
8.610852 2.859366 -12.620297 15.543315 0.320609 2.518271 0.004835 0.000589 1719450.000000 1 0 0
5.731352 0.964566 -17.155897 18.113629 0.166734 2.814955 0.009715 -0.001981 -225653.000000 1 0 0
15.128252 1.534066 -12.561497 19.723300 0.101059 2.261249 -0.007395 0.002067 -1609050.000000 1 0 0
8.732852 -11.271034 -11.914297 18.580888 -0.911608 2.266874 0.020569 -0.000537 1039430.000000 1 0 0
-4.759948 0.699466 -14.933397 15.689254 -0.145904 2.829924 -0.001266 0.001204 333788.000000 1 0 0
2.144452 5.181766 -17.423397 18.303664 1.178411 2.830199 0.001602 -0.000043 625636.000000 1 0 0
5.832452 -11.721834 -12.515297 18.112193 -1.109093 2.333650 0.008727 0.009924 1193850.000000 1 0 0
12.685352 7.318466 -8.752797 17.061346 0.523278 2.109495 0.007717 -0.000151 266952.000000 1 0 0
-5.184848 3.542666 -15.670597 16.881965 -0.599411 2.760463 -0.009727 0.005303 2839880.000000 1 0 0
-0.633548 -4.388734 -19.115897 19.623452 1.427429 2.913658 0.005474 -0.006490 435724.000000 1 0 0
9.677552 4.452666 -10.343897 14.848483 0.431223 2.341486 0.001787 0.003110 586121.000000 1 0 0
13.246552 3.686466 -12.931997 18.875850 0.271428 2.325548 0.001443 -0.003778 3818.600000 1 0 0
-6.381548 5.842266 -17.075997 19.142776 -0.741309 2.672621 -0.012231 0.010292 -792524.000000 1 0 0
-10.330748 3.244466 -15.311597 18.753557 -0.304305 2.526056 -0.013533 0.010573 -531424.000000 1 0 0
10.543152 13.463966 -8.348897 19.029989 0.906468 2.024974 0.012737 -0.010949 641965.000000 1 0 0
7.296452 13.461266 -12.192997 19.573274 1.074090 2.243293 0.022264 -0.017405 -358934.000000 1 0 0
5.181852 15.257966 -11.155897 19.598753 1.243402 2.176347 0.008462 -0.015568 1000780.000000 1 0 0
13.963452 9.599166 -10.037997 19.694754 0.602253 2.105608 0.030498 -0.006312 -2350860.000000 1 0 0
8.352952 -17.312134 -2.187997 19.346037 -1.121254 1.684137 0.015188 0.000294 400450.000000 1 0 0
0.638852 -15.960634 -0.038997 15.973463 -1.530791 1.573238 0.009699 -0.007957 2567030.000000 1 0 0
-9.011448 -11.645934 7.586803 16.564829 0.912246 1.095045 0.003785 -0.002152 1862650.000000 1 0 0
2.017752 -15.894234 -2.601897 16.231694 -1.444523 1.731788 0.011083 -0.009257 2885600.000000 1 0 0
-1.429248 -10.986534 -9.457497 14.566775 1.441432 2.277396 -0.000874 0.005738 724484.000000 1 0 0
-4.883248 -12.574334 -12.910897 18.672205 1.200373 2.334291 -0.001402 0.001454 50466.700000 1 0 0
-8.550848 -17.746234 -1.738697 19.775462 1.121782 1.658832 0.001178 -0.001376 -1669230.000000 1 0 0
-11.441548 -7.085334 -8.817097 16.088884 0.554464 2.150797 0.007575 0.001530 1534020.000000 1 0 0
-13.449148 -11.567434 -4.598197 18.325625 0.710321 1.824423 -0.008590 0.002447 -417985.000000 1 0 0
-5.614848 -13.419034 9.786303 17.531935 1.174509 0.978583 -0.002832 -0.003418 -113773.000000 1 0 0
0.089952 -13.994734 -3.693797 14.474281 -1.564369 1.828848 0.005563 -0.006369 -335055.000000 1 0 0
-14.710648 -11.480734 1.981003 18.765255 0.662698 1.465032 -0.007804 0.006770 1474530.000000 1 0 0
-3.971748 -16.518334 -7.544797 18.589086 1.334831 1.988730 -0.011527 0.000941 -807683.000000 1 0 0
0.427952 -15.308034 -9.192897 17.861366 -1.542848 2.111431 -0.002366 0.006049 1447440.000000 1 0 0
4.506552 -14.238234 -2.633297 15.164781 -1.264262 1.745327 0.005752 -0.004836 168333.000000 1 0 0
-3.635248 -18.035134 -2.471297 18.563093 1.371897 1.704322 -0.002594 -0.008260 2186430.000000 1 0 0
-0.920948 -13.466034 0.628903 13.512133 1.502512 1.524236 0.009101 -0.005444 1264350.000000 1 0 0
-8.538748 -11.201034 -10.468597 17.548929 0.919458 2.209976 0.004905 -0.005927 1625540.000000 1 0 0
-3.731148 -14.064234 -0.335497 14.554611 1.311476 1.593849 0.004232 -0.001500 3206150.000000 1 0 0
-1.557548 -14.909634 -7.292197 16.670312 1.466708 2.023542 -0.007222 -0.000457 147074.000000 1 0 0
-14.206048 -7.940134 -1.716197 16.364684 0.509671 1.675861 0.005745 0.001376 1672460.000000 1 0 0
-10.848848 -7.292734 -11.663297 17.518960 0.591832 2.299299 0.008928 0.003723 44757.100000 1 0 0
-9.337748 -14.667934 6.791903 18.667399 1.003892 1.198412 -0.004784 0.002700 -697676.000000 1 0 0
-2.567048 -14.278734 -12.289397 19.013187 1.392915 2.273603 0.000628 0.004714 -1105.630000 1 0 0
2.275152 -17.814334 -4.691697 18.561758 -1.443769 1.826330 0.012203 -0.009056 -14060.100000 1 0 0
-6.691348 -9.560534 -9.131797 14.817816 0.960142 2.234796 -0.000408 -0.000693 702100.000000 1 0 0
-11.014048 -15.265734 0.612003 18.834183 0.945794 1.538296 -0.014991 0.004866 -622897.000000 1 0 0
-12.600348 -10.947334 4.105203 17.189113 0.715315 1.329640 0.002108 0.003126 2768020.000000 1 0 0
-17.037948 -8.877934 -1.552597 19.274853 0.480360 1.651434 0.000919 0.004987 -649827.000000 1 0 0
-1.498948 -19.228134 -4.010497 19.699038 1.492998 1.775818 0.000136 -0.002017 266427.000000 1 0 0
3.146152 -14.251434 -8.782097 17.033111 -1.353521 2.112492 -0.003206 0.007161 1589900.000000 1 0 0
-4.431448 -7.957434 -13.140197 15.988223 1.062676 2.535477 0.002292 0.005753 2514810.000000 1 0 0
5.554952 -16.530134 1.182103 17.478564 -1.246603 1.503113 0.017075 -0.008866 2749490.000000 1 0 0
-2.857548 -13.733734 -3.201597 14.388581 1.365655 1.795184 0.004507 -0.005982 -248381.000000 1 0 0
-0.469248 -13.949834 3.599003 14.414260 1.537171 1.318443 -0.001434 -0.002105 -3895380.000000 1 0 0
1.225352 -16.198734 7.032503 17.701881 -1.495295 1.162251 0.008946 -0.006652 513385.000000 1 0 0
-5.596848 -10.340534 -14.670397 18.800848 1.074693 2.465950 0.002023 0.005892 -237644.000000 1 0 0
-0.302848 -17.317934 -5.934397 18.309004 1.553311 1.900882 0.000556 -0.004209 563307.000000 1 0 0
-6.466448 -13.327534 -1.217497 14.863392 1.119063 1.652801 0.002793 -0.006093 2569240.000000 1 0 0
-1.757148 -17.731134 -0.264697 17.819954 1.472019 1.585651 0.005336 -0.006959 2415260.000000 1 0 0
-9.451248 -9.863034 -4.746597 14.461526 0.806715 1.905217 0.007470 -0.005118 1058110.000000 1 0 0
-0.769748 -16.578534 4.832303 17.285586 1.524399 1.287464 0.007729 -0.010083 1960380.000000 1 0 0
-6.842548 -9.906534 -6.202497 13.543665 0.966332 2.046499 0.006350 -0.002103 2401880.000000 1 0 0
-6.014048 -14.498334 -8.581497 17.888895 1.177589 2.071121 -0.009809 -0.001968 -167359.000000 1 0 0
-5.785748 -12.052834 -10.239197 16.840037 1.123250 2.224369 -0.004739 -0.003076 552207.000000 1 0 0
-10.759048 -12.188334 -8.744797 18.460338 0.847603 2.064292 0.004455 -0.012789 -274422.000000 1 0 0
3.983852 -17.273734 6.461903 18.868205 -1.344129 1.221246 0.017576 -0.006786 573870.000000 1 0 0
-6.729548 -14.280034 -4.087697 16.306915 1.130407 1.824171 -0.003637 -0.007218 -994465.000000 1 0 0
-2.872648 -12.256434 -7.122297 14.463727 1.340573 2.085670 0.001673 0.001165 3097040.000000 1 0 0
-6.989548 -12.787434 4.441503 15.234803 1.070571 1.274963 0.004592 0.001749 3409870.000000 1 0 0
2.637352 -16.452934 2.246603 16.813742 -1.411852 1.436778 0.007426 -0.007729 2583100.000000 1 0 0
-6.024448 -11.959134 7.222603 15.214495 1.104151 1.076152 -0.002818 0.001332 1869570.000000 1 0 0
-11.213148 -12.785734 -0.926097 17.031364 0.850832 1.625199 -0.008774 0.006941 1759100.000000 1 0 0
-14.180748 -8.649034 4.706103 17.264033 0.547677 1.294706 -0.000914 0.002143 -29122.500000 1 0 0
-7.831648 -15.499234 4.359003 17.904242 1.102924 1.324863 -0.001943 0.001789 328278.000000 1 0 0
-16.395348 -9.035834 1.315603 18.766581 0.503704 1.500635 -0.009682 0.012016 -1544250.000000 1 0 0
-6.625448 -17.099134 2.263503 18.477024 1.201136 1.447984 -0.002877 0.000889 1815950.000000 1 0 0
-11.552348 -14.957634 -4.616097 19.454972 0.913152 1.810352 -0.002369 0.002678 797893.000000 1 0 0
-10.189048 -9.946634 -12.594197 19.009630 0.773360 2.294970 0.004858 0.005150 1495620.000000 1 0 0
-4.405448 -15.975934 -4.599797 17.198738 1.301728 1.841542 -0.005445 -0.004116 -118603.000000 1 0 0
-11.796748 -8.318234 0.206003 14.436022 0.614160 1.556526 0.004251 -0.000806 2420590.000000 1 0 0
-9.582748 -11.120934 3.583903 15.111208 0.859557 1.331346 0.002381 0.000673 2133710.000000 1 0 0
-14.136248 -12.824734 -0.585497 19.095815 0.736792 1.601462 -0.016304 0.014264 -251443.000000 1 0 0
5.439252 -14.880134 -7.146297 17.380259 -1.220347 1.994537 0.002426 -0.002390 1242400.000000 1 0 0
-7.498448 -10.485734 -1.127397 12.940185 0.950002 1.658031 0.002077 -0.003342 2054180.000000 1 0 0
-11.547948 -8.296934 -6.019197 15.441015 0.623019 1.971231 0.006706 -0.001973 -690562.000000 1 0 0
-14.460248 -6.731734 -9.123997 18.375591 0.435696 2.090391 0.000516 0.001027 2777830.000000 1 0 0
-3.864448 -16.495934 1.347203 16.996022 1.340679 1.491447 0.003699 -0.006602 174354.000000 1 0 0
-8.097848 -15.492034 0.065703 17.480921 1.089146 1.567038 -0.001677 -0.000210 1304650.000000 1 0 0
1.003752 -18.597834 3.649303 18.979051 -1.516877 1.377311 0.006229 -0.009923 236381.000000 1 0 0
-14.030148 -8.707434 -4.502797 17.115480 0.555446 1.837013 0.000083 -0.000560 -1174730.000000 1 0 0
-3.168048 -14.489634 11.095503 18.522857 1.355541 0.928524 -0.015101 -0.004706 183753.000000 1 0 0
-10.747048 -12.186334 -3.736297 16.672304 0.848075 1.796818 0.000266 -0.001714 1482080.000000 1 0 0
-9.952548 -10.671934 0.669403 14.607926 0.820264 1.524956 -0.000491 0.001489 927706.000000 1 0 0
-0.163948 -13.175734 -11.110197 17.235525 1.558354 2.271310 -0.000482 0.004466 1344970.000000 1 0 0
-5.900148 -12.615334 -6.302097 15.286426 1.133324 1.995738 -0.004437 -0.007142 2148640.000000 1 0 0
1.829452 -15.847034 9.861903 18.754534 -1.455861 1.017093 0.010750 -0.007656 461455.000000 1 0 0
-8.942548 -15.675334 -5.442197 18.849477 1.052362 1.863685 -0.006457 -0.000761 -826481.000000 1 0 0
-3.290548 -15.381334 5.890503 16.796166 1.360042 1.212472 -0.004824 -0.002806 -690341.000000 1 0 0
-17.506648 -5.508534 -6.308297 19.406733 0.304846 1.901868 -0.005051 0.002263 712712.000000 1 0 0
18.768652 5.612766 -3.029197 19.822751 0.290585 1.724212 -0.027669 0.024149 -638303.000000 1 0 0
12.791252 -12.435334 -6.112597 18.857823 -0.771290 1.900900 0.019386 -0.006461 -226033.000000 1 0 0
10.965252 -13.569634 -1.726897 17.531512 -0.891152 1.669459 0.012880 -0.004176 2383460.000000 1 0 0
18.753352 -2.942734 4.369103 19.479142 -0.155649 1.344575 0.002479 -0.005989 -996155.000000 1 0 0
8.564652 -16.998934 4.893403 19.653560 -1.104086 1.319166 -0.001158 -0.010750 271417.000000 1 0 0
18.003452 -1.185634 6.503203 19.178677 -0.065761 1.224852 0.010212 -0.007642 -619765.000000 1 0 0
17.857652 -4.207134 -5.228297 19.076970 -0.231374 1.848412 0.012069 -0.001562 75180.000000 1 0 0
5.603552 -11.886334 14.628503 19.664126 -1.130266 0.731882 -0.003120 -0.001049 885598.000000 1 0 0
15.916552 -8.920634 -0.960197 18.271188 -0.510841 1.623373 0.000841 -0.001106 806665.000000 1 0 0
13.816752 -12.713434 -1.576897 18.841992 -0.743835 1.654585 0.011058 0.001119 -1257190.000000 1 0 0
11.141052 -2.104434 13.684703 17.771404 -0.186691 0.691891 0.000228 -0.001638 455847.000000 1 0 0
16.834052 -6.124134 -1.565297 17.981671 -0.348911 1.657956 0.002084 0.000980 -345065.000000 1 0 0
17.726652 3.739966 -1.097997 18.150127 0.207930 1.631329 -0.017052 0.016704 948816.000000 1 0 0
9.772052 -11.293334 9.335803 17.612201 -0.857490 1.012106 0.003941 -0.001505 -603696.000000 1 0 0
9.139152 -11.227834 4.188103 15.070785 -0.887593 1.289194 0.000851 -0.005163 -1676810.000000 1 0 0
14.040252 -10.212734 6.685903 18.604567 -0.628873 1.203205 0.003502 -0.009221 83746.600000 1 0 0
16.168152 -0.580334 -4.822497 16.882014 -0.035878 1.860490 0.003498 0.006150 768233.000000 1 0 0
15.745252 -0.615034 -1.821297 15.862167 -0.039042 1.685870 0.005961 0.005006 2174770.000000 1 0 0
12.837652 -5.253534 -0.393297 13.876585 -0.388437 1.599143 0.009062 -0.000840 737183.000000 1 0 0
14.195152 -7.605734 0.943403 16.131942 -0.491874 1.512282 0.006360 0.001926 1619700.000000 1 0 0
15.499352 2.421366 3.644003 16.105020 0.154971 1.342555 0.002520 0.002130 2245570.000000 1 0 0
15.860552 -7.159034 4.872003 18.070564 -0.423996 1.297808 0.001821 -0.004613 -1054440.000000 1 0 0
13.717852 -12.241834 3.168703 18.656973 -0.728601 1.400129 0.002749 -0.001655 1633560.000000 1 0 0
14.003552 -1.046334 9.110903 16.739260 -0.074581 0.995262 0.019465 -0.006424 975494.000000 1 0 0
14.177752 -2.925034 -1.687897 14.574411 -0.203457 1.686869 0.006899 0.001888 530751.000000 1 0 0
15.067352 1.718266 9.013303 17.641348 0.113548 1.034543 0.021192 -0.008533 -1222930.000000 1 0 0
14.312952 -10.276034 -3.139997 17.897404 -0.622674 1.747153 0.009572 0.000906 438134.000000 1 0 0
7.414152 -12.734734 6.005403 15.912510 -1.043569 1.183808 -0.001351 -0.009987 750477.000000 1 0 0
12.348852 -4.657334 6.907303 14.896165 -0.360652 1.088633 0.011928 -0.001834 2784620.000000 1 0 0
14.869452 -9.062734 -5.740397 18.335373 -0.547366 1.889228 0.012780 -0.006792 -1330600.000000 1 0 0
14.267252 -4.592134 4.554503 15.664791 -0.311394 1.275788 0.010237 -0.004288 1529520.000000 1 0 0
17.088552 -4.285334 0.817003 17.636615 -0.245705 1.524455 0.000336 -0.000820 -1298810.000000 1 0 0
10.213652 -14.499434 1.057103 17.767097 -0.957112 1.511263 0.012141 -0.004260 -76153.900000 1 0 0
16.388852 -2.681834 8.502703 18.656974 -0.162200 1.097594 0.016862 -0.007570 1049690.000000 1 0 0
16.096752 -2.683334 3.077903 16.606601 -0.165181 1.384376 0.002549 -0.002499 2249500.000000 1 0 0
7.792852 -15.227034 2.606603 17.302760 -1.097771 1.419574 0.001888 -0.008975 2188530.000000 1 0 0
16.568752 -7.064634 7.666803 19.575813 -0.403041 1.168376 0.008279 -0.007333 -728072.000000 1 0 0
10.182152 -8.668334 5.105403 14.313678 -0.705264 1.206085 0.005550 -0.003450 1625070.000000 1 0 0
10.963352 -11.931034 2.097703 16.338452 -0.827640 1.442050 0.006030 -0.004560 232312.000000 1 0 0
12.215552 -7.575134 11.916503 18.670978 -0.555084 0.878591 -0.003435 -0.005812 -286098.000000 1 0 0
15.257452 -9.965234 4.136103 18.686976 -0.578579 1.347612 0.002433 -0.003259 -400476.000000 1 0 0
7.377252 -10.500034 7.705103 14.968072 -0.958332 1.030058 -0.003230 -0.004448 1096970.000000 1 0 0
15.133652 -3.320134 -4.555997 16.149545 -0.215966 1.856792 0.011635 0.001099 1504290.000000 1 0 0
11.798152 -9.207834 9.618403 17.790286 -0.662704 0.999581 -0.003707 -0.007206 -1224860.000000 1 0 0
16.876052 -6.799634 2.263403 18.334643 -0.383018 1.447031 0.001072 -0.000346 1413970.000000 1 0 0
17.424352 3.943666 1.926803 17.968670 0.222581 1.463358 -0.008539 0.006814 -551071.000000 1 0 0
14.737652 -5.076034 8.657003 17.829981 -0.331701 1.063826 0.011716 -0.006029 410404.000000 1 0 0
12.860052 -12.720734 5.992503 19.055396 -0.779952 1.250890 -0.002140 -0.002850 -240707.000000 1 0 0
18.165952 0.825066 -1.172497 18.222439 0.045387 1.635184 0.002679 0.006930 263824.000000 1 0 0
11.715752 -2.295634 10.800903 16.099326 -0.193493 0.835386 0.006367 0.000174 1397950.000000 1 0 0
5.921452 -12.582734 10.533403 17.445383 -1.130943 0.922545 -0.001911 -0.001508 -3109340.000000 1 0 0
10.779152 -5.222034 10.971803 16.243159 -0.451136 0.829191 0.001576 0.001644 75900.900000 1 0 0
17.788152 1.084866 4.870103 18.474663 0.060913 1.304034 0.008541 -0.001863 -1761800.000000 1 0 0
12.241552 -7.799934 7.035003 16.130277 -0.567302 1.119495 0.010631 -0.007919 -1685380.000000 1 0 0
10.565252 -8.203134 14.160203 19.478894 -0.660200 0.756925 -0.012063 -0.005408 54174.500000 1 0 0
14.154352 -0.371034 3.648403 14.621703 -0.026207 1.318612 0.006942 0.001444 835738.000000 1 0 0
11.685852 -7.782034 2.595003 14.277718 -0.587497 1.388029 0.007977 -0.001742 1700050.000000 1 0 0
9.371052 6.006166 3.442203 11.650725 0.569971 1.270870 -0.000730 0.002718 2012970.000000 1 0 0
-3.960048 14.852066 -9.769097 18.212663 -1.310226 2.136951 -0.017803 0.001715 685188.000000 1 0 0
8.886052 -6.653134 9.258203 14.454772 -0.642679 0.875654 -0.003962 0.002177 -1585180.000000 1 0 0
5.694552 -10.620234 -8.579697 14.792853 -1.078611 2.189512 -0.003576 0.002073 370180.000000 1 0 0
5.411352 1.096666 0.462503 5.540696 0.199952 1.487225 -0.001588 0.001010 4579570.000000 1 0 0
-0.478548 9.810466 11.069903 14.799223 -1.522056 0.725744 0.002247 0.000477 -831403.000000 1 0 0
-6.289048 -5.099634 1.093703 8.170348 0.681337 1.436531 0.009944 -0.005157 2523740.000000 1 0 0
-1.107748 4.034066 -10.939697 11.712291 -1.302803 2.776346 0.009667 -0.004248 2197430.000000 1 0 0
10.995352 5.690766 1.153103 12.434316 0.477598 1.477927 -0.003647 0.004954 754327.000000 1 0 0
-10.198448 -1.764434 -13.507097 17.016558 0.171314 2.487766 -0.012117 0.004822 876845.000000 1 0 0
7.330952 10.898266 -6.075797 14.471709 0.978648 2.004065 0.004036 -0.003719 698388.000000 1 0 0
-12.598848 -2.938834 -9.533997 16.070620 0.229164 2.205894 -0.001186 -0.000938 596310.000000 1 0 0
-3.897348 -8.617034 2.518903 9.787108 1.146045 1.310497 0.006139 -0.001373 -2235480.000000 1 0 0
7.933952 -6.661734 -5.956497 11.950153 -0.698454 2.092601 -0.001032 -0.003915 1206810.000000 1 0 0
14.379052 3.149866 -4.332897 15.344471 0.215653 1.857065 0.003795 0.008124 2478410.000000 1 0 0
-2.457048 -4.880334 9.887403 11.296703 1.104385 0.504850 -0.001621 -0.003233 1148150.000000 1 0 0
3.476252 -1.839734 -4.648997 6.089509 -0.486757 2.439424 -0.001669 -0.001011 -2478440.000000 1 0 0
-4.007048 8.408266 -3.431897 9.926393 -1.126075 1.923818 -0.001089 0.000691 87451.900000 1 0 0
5.905852 -0.048134 11.735803 13.138131 -0.008150 0.466245 -0.006777 0.000894 1450360.000000 1 0 0
7.113952 4.693366 12.300803 14.964817 0.583193 0.605915 -0.004538 0.002218 1060530.000000 1 0 0
1.228952 -14.582534 12.415003 19.190960 -1.486719 0.867259 -0.002128 0.000292 295189.000000 1 0 0
2.947152 8.745266 -9.092097 12.954983 1.245750 2.348749 0.001290 -0.000924 431205.000000 1 0 0
-4.454848 -8.859934 -4.526197 10.900943 1.104905 1.998972 0.008262 -0.002691 1798240.000000 1 0 0
5.762852 -6.565234 -4.013597 9.613622 -0.850392 2.001478 -0.002250 -0.003417 2498050.000000 1 0 0
-3.043348 3.378366 8.589003 9.718349 -0.837520 0.486890 -0.000622 -0.000170 3208670.000000 1 0 0
-3.861248 3.102066 -11.075797 12.132820 -0.676801 2.721078 0.002786 -0.006764 924120.000000 1 0 0
3.113352 -6.213834 8.553303 11.021057 -1.106321 0.682359 -0.012447 0.003810 611793.000000 1 0 0
-5.035448 -8.579534 10.500103 14.464312 1.040055 0.758408 0.001497 -0.004577 1455750.000000 1 0 0
-13.208248 -2.409434 6.584703 14.953980 0.180435 1.114829 -0.001389 0.001966 244511.000000 1 0 0
3.967452 -5.922634 -8.355997 10.983668 -0.980573 2.435288 -0.001219 0.000944 2733520.000000 1 0 0
3.048352 -0.589234 12.436003 12.817715 -0.190941 0.244659 -0.008290 -0.001262 1172960.000000 1 0 0
1.420452 -1.407034 -7.604497 7.862938 -0.780653 2.884494 0.001622 -0.004033 -623971.000000 1 0 0
3.632252 -3.471634 3.438203 6.088246 -0.762792 0.970693 -0.008135 0.000940 1825430.000000 1 0 0
1.333352 0.500466 -11.908297 11.993157 0.359072 3.022562 0.004504 -0.005995 625859.000000 1 0 0
3.938752 3.623366 -10.722197 11.983657 0.743716 2.678634 0.000550 0.000917 403414.000000 1 0 0
2.903452 3.229366 3.394703 5.512064 0.838491 0.907309 -0.007055 0.003254 -839585.000000 1 0 0
-5.285048 0.855566 2.574303 5.940603 -0.160492 1.122600 0.010399 -0.006641 3362380.000000 1 0 0
-9.375148 -9.206634 5.785903 14.357305 0.776330 1.156011 0.004977 -0.001089 -576001.000000 1 0 0
-3.046748 3.863766 -0.671397 4.966098 -0.903080 1.706408 0.007828 -0.006663 -377224.000000 1 0 0
-15.737048 -6.377534 5.067203 17.720163 0.385029 1.280791 -0.000336 0.001924 2143760.000000 1 0 0
0.919852 6.869966 -8.140997 10.691977 1.437693 2.436284 0.001881 -0.003123 1696850.000000 1 0 0
-1.724948 6.558266 -9.510297 11.680413 -1.313603 2.522162 0.005118 -0.000786 1273800.000000 1 0 0
2.104052 -0.355834 5.282903 5.697606 -0.167533 0.383891 -0.006063 0.000865 1440880.000000 1 0 0
-3.452348 -0.586634 -6.279997 7.190355 0.168316 2.632920 0.012431 -0.011472 -462077.000000 1 0 0
1.820752 -1.195434 -2.453997 3.281204 -0.580974 2.415682 0.003777 -0.001017 -794461.000000 1 0 0
2.431552 -8.526034 -7.554497 11.648010 -1.292980 2.276495 -0.006300 0.003546 2025570.000000 1 0 0
-2.439348 14.066466 -5.468097 15.287771 -1.399088 1.936576 -0.010389 0.006266 1695090.000000 1 0 0
6.839152 -5.101534 -8.216997 11.845619 -0.640892 2.337374 0.000427 -0.001975 3023730.000000 1 0 0
-14.220248 -4.972234 -2.004297 15.197229 0.336371 1.703067 0.007716 -0.002615 -1927850.000000 1 0 0
-2.837348 6.846066 -6.763397 10.033080 -1.177896 2.310555 0.001320 0.001549 -1531930.000000 1 0 0
-5.777748 -1.159034 -8.029597 9.959928 0.197975 2.508481 0.011609 -0.014381 62369.300000 1 0 0
-5.710548 -10.535134 3.567903 12.503174 1.074079 1.281414 0.004547 -0.002220 -2198200.000000 1 0 0
8.039952 -7.729534 6.632903 12.976206 -0.765716 1.034264 -0.003786 -0.000888 41625.700000 1 0 0
8.783752 -6.139934 13.150703 16.964495 -0.610062 0.683781 -0.006244 0.001090 792187.000000 1 0 0
-4.673248 9.551666 -0.712897 10.657476 -1.115778 1.637738 0.000405 0.000270 630469.000000 1 0 0
2.817352 6.523766 12.223903 14.139335 1.163130 0.526579 -0.000668 -0.000139 -532994.000000 1 0 0
6.139552 -2.975934 10.915503 12.872393 -0.451345 0.558638 -0.009370 0.002627 -406187.000000 1 0 0
-9.724548 -6.498834 -0.964397 11.735917 0.589127 1.653064 0.002783 -0.004443 -457317.000000 1 0 0
0.957952 -13.395134 6.237803 14.807346 -1.499403 1.135958 -0.002160 -0.003974 77864.000000 1 0 0
-0.441048 -3.161734 8.695403 9.262890 1.432195 0.351854 -0.004763 -0.002540 1884680.000000 1 0 0
4.194852 0.743566 3.336403 5.411216 0.175434 0.906415 -0.007902 0.002560 1468590.000000 1 0 0
-10.108948 5.520466 8.374003 14.240446 -0.499842 0.942158 -0.008096 -0.008827 -185208.000000 1 0 0
9.409852 7.909166 -0.155797 12.293270 0.698964 1.583470 -0.003740 0.003868 1190030.000000 1 0 0
4.349252 2.824166 8.109803 9.626049 0.575915 0.568916 -0.008704 0.001353 2930660.000000 1 0 0
1.220552 2.723466 -9.840997 10.283590 1.149473 2.847140 0.005871 -0.005053 1251180.000000 1 0 0
-1.425748 -10.064934 2.980803 10.593434 1.430078 1.285562 0.002528 -0.001460 -1894230.000000 1 0 0
-9.830548 9.486966 9.086203 16.407355 -0.767614 0.983889 -0.012230 -0.010675 443239.000000 1 0 0
9.709852 -1.946634 -7.723097 12.558536 -0.197857 2.233142 0.008724 0.000364 1353440.000000 1 0 0
-5.115048 -1.859834 6.763403 8.681378 0.348739 0.677615 0.006613 -0.007348 2453820.000000 1 0 0
3.197852 -7.753034 -4.906697 9.716557 -1.179591 2.100159 -0.005339 -0.000928 2078530.000000 1 0 0
-5.196448 4.897166 -13.015997 14.845924 -0.755756 2.639835 -0.009226 -0.002539 2456080.000000 1 0 0
-5.559548 9.548666 5.554203 12.366680 -1.043543 1.105009 0.001649 -0.003530 1771400.000000 1 0 0
-0.576948 -1.763234 -9.363697 9.545715 1.254567 2.945996 0.003726 -0.008322 -965019.000000 1 0 0
-16.779348 0.306466 6.549203 18.014786 -0.018262 1.198725 0.000772 0.002514 814064.000000 1 0 0
-5.918948 -2.856734 4.140103 7.767582 0.449665 1.008657 0.005274 -0.006429 2602590.000000 1 0 0
0.935052 -5.603634 -5.171397 7.682342 -1.405454 2.309261 0.000875 -0.000860 2406800.000000 1 0 0
-7.095248 1.396766 -8.409397 11.091053 -0.194374 2.431367 0.001829 -0.006682 -109492.000000 1 0 0
8.023752 1.905766 4.717603 9.500964 0.233194 1.051189 -0.003136 0.001885 893958.000000 1 0 0
0.507852 -8.068934 -0.579897 8.105671 -1.507940 1.642400 0.002509 -0.001405 1311820.000000 1 0 0
5.352152 5.447066 -3.567097 8.428537 0.794187 2.007789 0.000520 0.001822 2131550.000000 1 0 0
-0.768748 -0.342634 -1.251397 1.508100 0.419276 2.549516 0.005625 -0.004382 955346.000000 1 0 0
9.015952 6.423766 -6.456397 12.815507 0.619059 2.098784 0.002648 -0.001214 1360410.000000 1 0 0
-14.956848 -6.952634 2.584803 16.695138 0.435131 1.415347 -0.003359 0.001704 1810240.000000 1 0 0
-6.381448 6.865066 8.920403 12.939304 -0.821891 0.810131 -0.002537 -0.003020 685107.000000 1 0 0
-9.600048 -3.160434 -9.506997 13.875599 0.318035 2.325619 0.003625 -0.003994 639738.000000 1 0 0
14.881352 3.432666 -1.353697 15.332003 0.226704 1.659204 -0.008806 0.009083 92040.200000 1 0 0
12.009252 1.716966 -5.904097 13.491792 0.142008 2.023731 0.006517 0.005128 -248707.000000 1 0 0
1.760552 -9.565234 12.732703 16.022328 -1.388776 0.652308 -0.008070 -0.002813 -579041.000000 1 0 0
-3.541248 6.302966 7.898903 10.707964 -1.058910 0.741189 -0.000351 0.000205 1771310.000000 1 0 0
-4.069648 13.165566 -12.283097 18.459919 -1.271000 2.298816 -0.013694 0.003270 93114.200000 1 0 0
-10.237348 7.759466 6.538503 14.414043 -0.648574 1.099973 -0.008064 -0.009924 191760.000000 1 0 0
7.882252 -9.335134 -7.138397 14.150312 -0.869583 2.099563 0.002046 -0.003321 568410.000000 1 0 0
5.807752 -3.815234 -0.405597 6.960640 -0.581225 1.629099 -0.001559 0.000520 22266.000000 1 0 0
-1.485648 -4.450834 4.132703 6.252705 1.248634 0.848717 0.000780 -0.000014 1905120.000000 1 0 0
9.866552 -2.090934 -2.708997 10.443156 -0.208832 1.833201 0.001531 -0.000960 -2099710.000000 1 0 0
13.571752 7.120866 1.338603 15.384766 0.483198 1.483678 -0.007483 0.006450 -1092460.000000 1 0 0
5.372852 -3.709334 -3.325997 7.327275 -0.604244 2.041956 0.000128 -0.003486 -2989080.000000 1 0 0
-12.249048 -5.849434 1.990503 13.719226 0.445520 1.425194 0.000450 0.000894 1249630.000000 1 0 0
3.749252 -5.733934 -0.293097 6.857171 -0.991705 1.613552 -0.000333 -0.001433 -133336.000000 1 0 0
-5.273548 3.711466 -8.641397 10.782348 -0.613264 2.500494 0.002444 -0.006472 513628.000000 1 0 0
-1.569248 -9.241734 7.312303 11.888733 1.402600 0.908332 -0.002780 0.000762 2829920.000000 1 0 0
-7.336248 -7.337334 2.644303 10.707444 0.785472 1.321255 0.010913 -0.005339 -5233990.000000 1 0 0
-5.755348 13.113866 -8.416097 16.611086 -1.157232 2.102097 -0.008695 -0.000099 3063810.000000 1 0 0
9.129552 -13.960034 -4.217497 17.205190 -0.991630 1.818449 0.014091 -0.003827 2088110.000000 1 0 0
-6.571348 -5.130834 -6.769197 10.739185 0.662916 2.252770 0.009779 -0.003524 2720890.000000 1 0 0
3.335152 0.438166 -6.350697 7.186555 0.130630 2.654487 -0.000649 -0.001927 2410350.000000 1 0 0
-3.550748 5.711066 4.988303 8.373007 -1.014551 0.932585 0.004705 0.001346 2585310.000000 1 0 0
-2.715048 -10.744634 -2.901297 11.455836 1.323289 1.826844 0.009535 -0.001962 1070800.000000 1 0 0
-12.604048 -0.315034 1.764703 12.730886 0.024990 1.431733 -0.000591 -0.000271 799083.000000 1 0 0
8.337352 -12.035634 -6.143197 15.877871 -0.964971 1.968067 0.007297 -0.005445 955812.000000 1 0 0
6.188952 3.937966 0.917103 7.392684 0.566677 1.446420 -0.002086 0.002007 -273607.000000 1 0 0
3.304552 -4.773034 -10.970097 12.411484 -0.965231 2.654862 -0.002262 0.001415 835335.000000 1 0 0
-7.504848 4.192366 8.656503 12.199743 -0.509438 0.781916 -0.001273 -0.005113 2075240.000000 1 0 0
8.232852 8.671166 4.040803 12.621294 0.811322 1.244900 -0.001329 0.005695 1633890.000000 1 0 0
0.216252 10.598266 -6.344697 12.354156 1.550395 2.110134 -0.003074 0.001507 742557.000000 1 0 0
5.459952 8.029966 3.221203 10.230717 0.973656 1.250491 -0.002034 0.004302 2158020.000000 1 0 0
8.073252 6.657666 -3.855597 11.152019 0.689596 1.923814 -0.002437 0.000503 -168365.000000 1 0 0
10.457052 2.601366 -8.294897 13.598616 0.243818 2.226833 0.003155 0.003587 779860.000000 1 0 0
3.357252 -12.557334 -0.286897 13.001542 -1.309552 1.592864 0.000109 -0.006833 -1457610.000000 1 0 0
0.656352 2.155366 5.207403 5.673927 1.275198 0.408349 -0.003349 0.000595 949018.000000 1 0 0
-4.721348 13.362866 1.592703 14.261627 -1.231168 1.458885 -0.000979 -0.004083 343856.000000 1 0 0
8.066352 4.081566 -8.103497 12.140505 0.468435 2.301610 -0.002077 0.001378 -586265.000000 1 0 0
-13.884448 -0.590334 -3.456097 14.320300 0.042492 1.814545 -0.004366 -0.001680 542512.000000 1 0 0
-8.657248 0.052366 -0.439997 8.668580 -0.006049 1.621576 0.003055 -0.003788 219477.000000 1 0 0
1.772152 -3.824534 -1.084197 4.352364 -1.136885 1.822553 0.001887 -0.001924 -1872810.000000 1 0 0
8.083752 -5.713834 -0.360097 9.905787 -0.615295 1.607156 -0.001435 0.000362 1720900.000000 1 0 0
-2.165248 -1.128934 7.409903 7.801888 0.480611 0.318336 0.002151 -0.004101 1880290.000000 1 0 0
-6.035848 8.893866 -11.829297 15.983259 -0.974541 2.404023 -0.008636 0.005474 -1703260.000000 1 0 0
-6.170248 9.184066 -8.915397 14.209269 -0.979219 2.249051 -0.007222 0.006414 -234221.000000 1 0 0
-1.529648 14.020066 -8.312797 16.370848 -1.462122 2.103403 -0.003474 0.003605 -1722950.000000 1 0 0
-1.345148 7.134366 9.811003 12.205097 -1.384439 0.637065 0.000146 -0.000367 1051940.000000 1 0 0
9.998952 2.323266 -4.120697 11.061498 0.228300 1.952526 0.001879 0.001920 -1124050.000000 1 0 0
-3.037748 -7.395034 -6.905597 10.564171 1.181030 2.283235 0.009838 -0.003080 2199780.000000 1 0 0
-5.548048 -4.907634 -1.594297 7.576773 0.724224 1.782800 0.008233 -0.004294 1155630.000000 1 0 0
5.605652 7.431866 -8.944497 12.909685 0.924566 2.336233 -0.002100 -0.000754 -665886.000000 1 0 0
-9.571048 5.251966 -7.463997 13.224952 -0.501871 2.170487 -0.010373 0.006201 -1362270.000000 1 0 0
-0.465548 6.216966 -5.355897 8.219065 -1.496052 2.280545 0.005371 -0.000214 -1054410.000000 1 0 0
-8.338048 2.777166 -6.297197 10.811586 -0.321515 2.192535 0.000114 -0.001218 682599.000000 1 0 0
3.628052 1.332366 -2.055897 4.377747 0.351950 2.059662 -0.003184 0.000746 3135680.000000 1 0 0
-6.668148 12.536366 -3.305197 14.579060 -1.081952 1.799493 0.003136 0.001396 1330790.000000 1 0 0
-6.615248 3.156466 -2.282397 7.676856 -0.445201 1.872669 0.006200 -0.002015 -1368550.000000 1 0 0
12.097852 3.988266 -0.899197 12.769998 0.318447 1.641269 -0.004776 0.005983 -214212.000000 1 0 0
2.144252 12.460566 -5.469897 13.776185 1.400382 1.979102 -0.000010 -0.000074 942958.000000 1 0 0
-9.269048 -1.412434 -4.288697 10.310342 0.151219 1.999795 0.002131 -0.002006 -1367510.000000 1 0 0
-1.114248 5.662266 3.419403 6.707840 -1.376494 1.035888 0.001847 0.001755 1115030.000000 1 0 0
11.536852 2.556966 12.025103 16.859423 0.218109 0.776662 0.013527 -0.000448 706760.000000 1 0 0
-7.130748 -2.340334 -5.708997 9.429601 0.317126 2.221107 0.009407 -0.007186 -60758.200000 1 0 0
7.507252 -7.520634 10.823003 15.167603 -0.786289 0.776229 -0.007551 0.000634 -310522.000000 1 0 0
-5.596348 -1.956834 -10.815397 12.333739 0.336374 2.640161 0.008929 -0.002260 334707.000000 1 0 0
0.851152 -6.212234 4.419703 7.671381 -1.434632 0.956812 -0.005123 0.001806 339837.000000 1 0 0
-4.687248 -9.333034 7.418603 12.810601 1.105373 0.953174 -0.000576 -0.001037 1545100.000000 1 0 0
-8.752948 9.376566 1.761603 12.947483 -0.819783 1.434315 0.000135 -0.008697 1077840.000000 1 0 0
-8.202448 7.239666 -9.095397 14.227409 -0.723131 2.264367 -0.008550 0.006042 706020.000000 1 0 0
-1.275548 -10.608734 -0.165497 10.686424 1.451135 1.586284 0.006567 -0.001804 -1023260.000000 1 0 0
-3.851748 10.206766 7.786203 13.402947 -1.209948 0.950923 0.000332 -0.001476 2546650.000000 1 0 0
-7.351748 12.034366 2.070303 14.253432 -1.022403 1.425031 -0.003036 -0.011314 2166990.000000 1 0 0
-8.221748 -8.240734 -2.673997 11.943915 0.786551 1.796589 0.008720 -0.004055 482431.000000 1 0 0
5.390452 4.637666 -8.201197 10.854701 0.710471 2.427279 -0.000044 0.001720 716009.000000 1 0 0
-9.033048 -0.118134 -10.062897 13.523010 0.013077 2.410030 -0.002677 -0.006482 -1014810.000000 1 0 0
-15.210048 -2.229034 -1.393397 15.435534 0.145514 1.661191 -0.002740 -0.002015 -435892.000000 1 0 0
-7.111848 -5.747034 8.732603 12.643779 0.679656 0.808389 0.003574 -0.003306 77147.000000 1 0 0
8.158452 3.389366 -1.044897 8.896063 0.393747 1.688524 0.000328 0.003403 1041250.000000 1 0 0
11.822152 7.286966 -5.959697 15.112284 0.552378 1.976169 -0.000724 0.000962 391613.000000 1 0 0
3.575952 13.420166 -9.498097 16.825639 1.310386 2.170625 -0.001043 -0.006762 826430.000000 1 0 0
-9.751948 5.469666 -0.399197 11.188257 -0.511157 1.606484 -0.000140 -0.002297 1098390.000000 1 0 0
11.256252 -1.287534 -5.258897 12.490674 -0.113889 2.005372 0.010810 -0.001697 -540748.000000 1 0 0
10.617052 1.647266 -1.301997 10.822683 0.153926 1.691391 0.000777 0.004595 -912832.000000 1 0 0
14.636952 5.048466 4.810703 16.213273 0.332135 1.269547 -0.001798 0.003073 2329590.000000 1 0 0
1.041552 -0.894034 10.284503 10.375699 -0.709332 0.132682 -0.005126 -0.002475 2573560.000000 1 0 0
-8.063048 1.394966 -12.460797 14.907385 -0.171311 2.560532 -0.010570 0.000246 -636002.000000 1 0 0
3.046152 -11.484634 -7.761597 14.192190 -1.311529 2.149444 -0.007206 0.003701 -329307.000000 1 0 0
2.824952 5.151366 -6.888797 9.053863 1.069191 2.435446 0.000754 -0.000261 -1332140.000000 1 0 0
6.534852 7.962566 0.457803 10.310981 0.883562 1.526382 -0.000512 0.002600 -690617.000000 1 0 0
-8.993948 -5.295634 6.749403 12.429372 0.532143 0.996766 0.004605 -0.002260 -1474520.000000 1 0 0
-0.370548 -6.832334 -11.883097 13.712260 1.516615 2.619152 -0.000895 0.005486 1857980.000000 1 0 0
6.358952 -13.448334 -4.739897 15.612834 -1.129109 1.879254 0.003550 -0.004422 2151660.000000 1 0 0
-3.102048 -0.421534 10.117903 10.591145 0.135062 0.300065 0.000676 -0.003351 64350.900000 1 0 0
8.717252 8.426766 6.959903 13.980025 0.768456 1.049683 -0.003423 0.006092 -776347.000000 1 0 0
-7.975548 5.781666 -2.576897 10.182211 -0.627258 1.826657 0.002482 -0.000571 1092670.000000 1 0 0
-5.542548 5.815866 -6.430397 10.290488 -0.809457 2.245784 0.002883 0.000715 -950457.000000 1 0 0
3.336052 -13.714334 2.553303 14.343346 -1.332178 1.391829 0.004338 -0.009528 -2447750.000000 1 0 0
-11.228448 -6.919934 6.591703 14.744968 0.552308 1.107334 0.005385 -0.002569 702160.000000 1 0 0
-12.918648 -3.742534 -6.602997 14.983244 0.281981 2.027166 0.003622 -0.001845 7368.520000 1 0 0
5.984552 0.320966 -7.377397 9.504939 0.053581 2.459356 0.001362 0.000302 1178420.000000 1 0 0
-1.415248 2.264466 -2.532897 3.680529 -1.012211 2.329785 0.007520 -0.005896 3639560.000000 1 0 0
7.538552 0.946066 -5.105997 9.154016 0.124844 2.162514 -0.000017 0.002483 243087.000000 1 0 0
3.742852 -4.543034 10.853503 12.346928 -0.881671 0.496941 -0.013041 0.002349 -864720.000000 1 0 0
6.087952 -2.555534 1.993103 6.896838 -0.397432 1.277627 -0.001420 0.000846 -1101120.000000 1 0 0
-6.317648 7.752566 1.192403 10.071583 -0.887029 1.452125 0.002107 -0.003296 1474050.000000 1 0 0
6.073852 -3.532734 7.915703 10.584434 -0.526803 0.725960 -0.007133 0.000823 10851.800000 1 0 0
6.674352 -2.266834 -7.921097 10.603268 -0.327410 2.414399 0.001131 -0.001195 774821.000000 1 0 0
12.002652 -8.146134 -5.962797 15.683689 -0.596283 1.960799 0.013518 -0.006191 1104690.000000 1 0 0
5.592852 -9.764334 9.903803 14.990248 -1.050629 0.849068 -0.010885 0.001965 1937630.000000 1 0 0
-6.668348 7.555966 -4.466897 11.023278 -0.847719 1.988020 -0.000416 0.002373 -3810.240000 1 0 0
-1.204748 -7.519934 9.851103 12.451709 1.411939 0.658118 -0.003316 -0.003421 -463865.000000 1 0 0
10.115152 -9.406434 0.681903 13.829761 -0.749110 1.521469 0.002463 -0.001649 913920.000000 1 0 0
11.201952 6.025666 9.791403 16.051914 0.493515 0.914757 0.000764 0.003651 1669120.000000 1 0 0
-15.305948 -4.235034 -4.830997 16.599581 0.269939 1.866101 -0.002396 -0.000958 837839.000000 1 0 0
-4.618648 -4.600834 7.819203 10.180350 0.783466 0.694977 0.005370 -0.006619 258564.000000 1 0 0
2.799752 11.004266 -10.968197 15.787141 1.321658 2.338876 -0.005370 0.001886 47414.600000 1 0 0
9.918752 -1.451734 1.482003 10.133386 -0.145331 1.424020 -0.000651 0.002578 -837900.000000 1 0 0
-1.595448 -2.608634 0.681003 3.132761 1.021889 1.351666 0.004270 -0.006010 -592738.000000 1 0 0
1.606952 2.991366 0.908003 3.514973 1.077836 1.309509 -0.005842 0.001433 -636665.000000 1 0 0
-8.954548 -2.285434 4.383903 10.228673 0.249891 1.127865 0.006725 -0.005946 4441770.000000 1 0 0
9.933952 4.869466 -2.778397 11.406778 0.455764 1.816846 -0.001685 0.003275 702375.000000 1 0 0
2.612852 8.463066 2.474403 9.196366 1.271344 1.298376 -0.003137 0.002840 1283040.000000 1 0 0
-8.194148 -0.027634 2.485003 8.562714 0.003372 1.276348 0.006295 -0.006315 1051170.000000 1 0 0
6.953552 2.003166 13.696703 15.490779 0.280484 0.486051 -0.004578 0.000137 -237041.000000 1 0 0
6.925052 4.349566 3.727103 8.987011 0.560819 1.143160 -0.005376 0.002535 1482730.000000 1 0 0
-0.144948 3.298766 7.764303 8.437255 -1.526884 0.402102 -0.004171 0.001095 738359.000000 1 0 0
2.729352 -10.303534 9.180803 14.067670 -1.311849 0.859763 -0.006691 -0.001771 980408.000000 1 0 0
1.448452 -4.632934 6.854803 8.399430 -1.267782 0.616160 -0.007879 0.001652 588715.000000 1 0 0
-0.140448 10.768666 -1.987697 10.951476 -1.557755 1.753308 -0.001298 0.000350 1398270.000000 1 0 0
8.867352 5.521666 8.003903 13.159832 0.556941 0.916996 -0.002258 0.001593 -55818.800000 1 0 0
2.663852 11.364466 -2.865197 12.019007 1.340551 1.811503 -0.001277 -0.002700 586614.000000 1 0 0
1.461352 2.524266 -6.855397 7.450096 1.046020 2.739325 0.001745 -0.002387 1682990.000000 1 0 0
-13.665848 -2.081734 3.628603 14.291808 0.151169 1.314092 -0.000900 -0.002083 2375760.000000 1 0 0
-0.950248 -10.639834 -5.280897 11.916246 1.481722 2.029926 0.003757 0.000219 -22640.900000 1 0 0
-5.648848 2.862666 0.449903 6.348760 -0.469049 1.499872 0.010756 -0.003864 795192.000000 1 0 0
3.749352 7.320266 -5.122597 9.689423 1.097446 2.127840 0.002914 -0.003182 -2559900.000000 1 0 0
2.975752 9.835566 -6.493597 12.155667 1.277002 2.134361 0.000308 -0.000426 1528870.000000 1 0 0
-12.252548 1.747666 -2.453097 12.617328 -0.141681 1.766465 -0.003133 -0.001249 876735.000000 1 0 0
-2.581748 9.588866 -5.763797 11.481860 -1.307789 2.096696 -0.005281 0.000359 1714910.000000 1 0 0
-1.288548 3.292666 1.626803 3.892106 -1.197779 1.139581 0.001284 -0.001507 153806.000000 1 0 0
12.951852 3.648366 9.577303 16.516228 0.274572 0.952224 0.014111 0.000206 511706.000000 1 0 0
-2.525348 -9.564034 11.644803 15.279057 1.312642 0.704182 -0.007815 -0.005552 1147830.000000 1 0 0
-0.481648 -8.896034 -7.502697 11.647398 1.516707 2.270711 0.002470 0.002689 1381110.000000 1 0 0
2.359252 7.566766 -0.521697 7.943184 1.268557 1.636522 -0.000134 -0.000175 1166340.000000 1 0 0
-11.895648 -1.322334 -5.456397 13.153983 0.110707 1.998530 -0.000535 -0.001312 -1368270.000000 1 0 0
-6.266848 -7.067934 -10.911697 14.432401 0.845401 2.428062 0.004336 0.002074 970725.000000 1 0 0
-4.659348 -2.205834 -1.362097 5.332029 0.442159 1.829115 0.010238 -0.006604 -2144580.000000 1 0 0
-10.538548 3.789366 4.527903 12.079826 -0.345177 1.186581 -0.003820 -0.006954 2475260.000000 1 0 0
6.762652 9.314566 -3.641497 12.072907 0.942813 1.877193 0.004141 -0.000913 -387765.000000 1 0 0
1.093952 -2.638434 -11.526797 11.875399 -1.177749 2.898694 0.001219 -0.003654 -862456.000000 1 0 0
1.398752 8.761766 7.698303 11.746868 1.412489 0.856151 -0.000559 0.002921 144712.000000 1 0 0
10.388952 0.352966 10.380303 14.690323 0.033962 0.786103 0.004244 -0.001495 298653.000000 1 0 0
-5.309748 -0.848834 -3.886797 6.634842 0.158522 2.196683 0.010043 -0.007952 1216190.000000 1 0 0
11.784052 5.672066 5.359603 14.133703 0.448604 1.181857 -0.003184 0.004052 2642300.000000 1 0 0
9.892652 -3.551134 3.600503 11.110299 -0.344641 1.240769 0.006661 -0.001996 -913503.000000 1 0 0
7.260752 -1.676034 -3.516597 8.239785 -0.226861 2.011728 -0.000270 0.000581 -3166640.000000 1 0 0
2.406452 9.236766 10.619503 14.278750 1.315932 0.732167 0.000130 0.005272 1596240.000000 1 0 0
2.493852 -10.940434 6.341103 12.888832 -1.346678 1.056429 -0.008525 -0.003161 2650110.000000 1 0 0
5.868052 -7.609634 -1.226797 9.687394 -0.913906 1.697776 -0.003961 -0.003182 2068590.000000 1 0 0
-0.243548 -5.526334 -2.363697 6.015542 1.526754 1.974614 0.005976 -0.000539 21747.000000 1 0 0
7.726852 -5.139334 2.570503 9.629355 -0.586936 1.300575 -0.002014 -0.001016 742196.000000 1 0 0
-2.600548 -12.390434 4.652603 13.488233 1.363916 1.218624 -0.000711 -0.000074 -524445.000000 1 0 0
4.846752 -10.381134 -1.132397 11.512657 -1.133993 1.669317 -0.001515 -0.007007 1092960.000000 1 0 0
1.031452 0.173666 1.023603 1.463495 0.166806 0.796205 -0.005001 -0.000884 -1335900.000000 1 0 0
-1.543948 8.501866 2.519903 9.000856 -1.391153 1.287041 0.000040 0.002079 407833.000000 1 0 0
-7.594448 0.623466 -3.033397 8.201576 -0.081911 1.949650 0.006505 -0.003989 -1569630.000000 1 0 0
4.494552 -6.419034 12.813803 15.019939 -0.959942 0.548861 -0.007793 -0.000522 -181838.000000 1 0 0
-5.089348 12.949266 8.439503 16.272989 -1.196320 1.025560 -0.003895 -0.002456 1592680.000000 1 0 0
0.806352 6.040566 8.309103 10.304360 1.438091 0.632812 -0.003862 0.004176 1279240.000000 1 0 0
7.949852 -0.596934 -0.880297 8.020686 -0.074947 1.680771 -0.000444 0.001390 3618470.000000 1 0 0
2.402052 -9.288034 -2.412397 9.892275 -1.317723 1.817147 -0.002196 -0.002445 930247.000000 1 0 0
-7.099848 12.144666 4.936003 14.908550 -1.041773 1.233343 -0.001139 -0.008666 753137.000000 1 0 0
-14.976948 0.412366 0.211103 14.984111 -0.027526 1.556707 -0.004524 -0.002336 -796956.000000 1 0 0
6.858852 -0.579434 3.836303 7.880153 -0.084280 1.062338 -0.001781 0.002263 1509510.000000 1 0 0
-4.134448 -4.984434 5.074803 8.227507 0.878341 0.906114 0.004125 -0.004253 781894.000000 1 0 0
3.006552 5.095066 6.794603 9.009200 1.037695 0.716384 -0.007701 0.003324 -426858.000000 1 0 0
2.161352 -7.268134 1.747903 7.781541 -1.281751 1.344241 -0.002867 0.000135 1817070.000000 1 0 0
-2.408548 6.466966 -1.737797 7.116367 -1.214273 1.817488 0.002463 0.000367 2256950.000000 1 0 0
2.683552 -3.784634 -6.618797 8.082907 -0.954012 2.530224 -0.002345 -0.001815 -915114.000000 1 0 0
-5.260848 0.855766 -12.051097 13.177169 -0.161254 2.725175 0.001787 -0.002214 178257.000000 1 0 0
-7.608148 6.375766 -11.945397 15.531478 -0.697497 2.448242 -0.007526 0.003232 1701140.000000 1 0 0
-1.039248 11.253666 -8.991997 14.442335 -1.478710 2.242875 -0.005055 0.002933 -201639.000000 1 0 0
4.673852 5.869366 -0.693697 7.534956 0.898308 1.662991 -0.000925 0.001724 925861.000000 1 0 0
-2.555248 13.358966 3.652103 14.082937 -1.381803 1.308470 0.000946 -0.000083 1821490.000000 1 0 0
1.571352 -7.984934 10.269403 13.103014 -1.376490 0.670126 -0.009894 -0.000808 -1267370.000000 1 0 0
12.960252 -0.319834 -1.102597 13.011001 -0.024673 1.655642 0.001624 0.002883 -381157.000000 1 0 0
-1.047148 3.192666 -5.455597 6.407275 -1.253866 2.589577 0.006774 -0.005844 2251260.000000 1 0 0
6.557552 1.026666 7.193303 9.787704 0.155302 0.745229 -0.005462 0.002493 1602530.000000 1 0 0
5.499252 -6.258134 6.853203 10.787605 -0.849854 0.882419 -0.008931 0.002308 970833.000000 1 0 0
12.135952 -4.981434 2.538803 13.361944 -0.389499 1.379632 0.008424 -0.001671 47093.700000 1 0 0
4.455752 -9.265734 13.793003 17.203328 -1.122557 0.640556 -0.007910 0.000148 -55269.800000 1 0 0
-2.715848 -4.248834 -1.425697 5.240328 1.002052 1.846332 0.010585 -0.005798 2822150.000000 1 0 0
-9.403148 -5.228134 -7.480197 13.103661 0.507437 2.178334 0.007611 -0.002948 311156.000000 1 0 0
-10.511748 -3.026234 7.913203 13.500879 0.280311 0.944528 0.005225 -0.003892 1003500.000000 1 0 0
12.045852 -0.638034 1.590003 12.167076 -0.052918 1.439741 0.000780 0.001890 204503.000000 1 0 0
-7.615848 4.654766 4.481603 9.987630 -0.548610 1.105469 0.004954 -0.006670 1633260.000000 1 0 0
-0.988348 10.493866 7.050503 12.680995 -1.476890 0.981243 0.000624 0.004831 1721480.000000 1 0 0
7.434552 -10.132334 1.833103 12.700277 -0.937780 1.425955 -0.000199 -0.005142 2917390.000000 1 0 0
-4.280848 -1.685334 1.712003 4.908866 0.375056 1.214551 0.007633 -0.005183 1862130.000000 1 0 0
6.680452 -15.011434 -1.049497 16.464296 -1.152088 1.634583 0.012834 -0.005448 -1472270.000000 1 0 0
-10.477848 1.742566 2.448203 10.900254 -0.164801 1.344263 -0.000905 -0.001781 -126663.000000 1 0 0
-3.196048 8.311866 -11.454297 14.508713 -1.203709 2.480753 -0.003643 0.003667 531272.000000 1 0 0
-1.381648 -5.078534 -6.852397 8.640359 1.305169 2.486626 0.005818 -0.004715 -450395.000000 1 0 0
12.893552 -0.479834 6.356503 14.383291 -0.037198 1.113040 0.011341 -0.004611 2269480.000000 1 0 0
5.937652 -13.295034 3.651703 15.011615 -1.150768 1.325072 0.003690 -0.007938 -257056.000000 1 0 0
-5.697748 3.485666 -4.883897 8.274457 -0.549023 2.202150 0.004605 -0.002774 1509480.000000 1 0 0
-4.320948 8.041066 3.401603 9.741675 -1.077709 1.214100 0.003740 -0.000503 30197.000000 1 0 0
13.971152 6.205366 -4.092697 15.825606 0.417983 1.832382 -0.000038 0.008746 1174850.000000 1 0 0
-6.659148 -8.429034 5.346103 11.998904 0.902167 1.109009 0.009147 -0.001949 364016.000000 1 0 0
1.789652 11.387966 2.704403 11.840710 1.414918 1.340364 -0.001422 0.002059 1145100.000000 1 0 0
-7.356848 7.232266 6.068003 11.968690 -0.776859 1.039107 -0.001760 -0.006436 -675161.000000 1 0 0
-17.366648 -3.956034 5.280303 18.577736 0.223973 1.282596 0.004695 -0.001568 -623726.000000 1 0 0
7.367652 -13.124534 -8.659797 17.364555 -1.059270 2.092901 0.009385 0.001492 -1815130.000000 1 0 0
-2.219548 12.823666 -2.746797 13.301041 -1.399412 1.778803 -0.007840 0.001801 1183520.000000 1 0 0
-5.469948 13.924166 -5.693597 16.006866 -1.196479 1.934456 -0.006335 0.005369 3143800.000000 1 0 0
-5.557448 2.378966 7.425403 9.575036 -0.404466 0.683296 0.005407 -0.004334 1668030.000000 1 0 0
-7.420948 5.132066 1.543003 9.153656 -0.605042 1.401421 0.006562 -0.003235 2266590.000000 1 0 0
10.629852 -5.775734 -5.207897 13.170993 -0.497724 1.977307 0.009665 -0.003234 2012020.000000 1 0 0
-9.495648 -0.633134 6.916503 11.764617 0.066578 0.942327 0.006067 -0.005334 544766.000000 1 0 0
-11.321748 -4.580734 -2.420197 12.450802 0.384462 1.766422 0.003003 -0.002723 906433.000000 1 0 0
6.611152 -4.394834 13.521803 15.679957 -0.586682 0.530879 -0.004218 -0.001555 -142876.000000 1 0 0
0.118452 10.232366 -11.699297 15.543130 1.559221 2.422948 -0.002050 0.002425 -944499.000000 1 0 0
-11.760948 -3.073634 1.508503 12.249192 0.255625 1.447332 0.004347 -0.001920 3771570.000000 1 0 0
5.266752 5.980966 5.375203 9.612671 0.848812 0.977401 -0.006200 0.004821 -4499900.000000 1 0 0
-7.061548 -0.072534 8.141303 10.777363 0.010271 0.714520 0.004572 -0.006353 -158729.000000 1 0 0
1.913152 2.043766 9.615703 10.014933 0.818395 0.283306 -0.007378 -0.000484 1361380.000000 1 0 0
10.467552 -4.988034 -2.176497 11.797765 -0.444691 1.756343 -0.000490 -0.001319 2397390.000000 1 0 0
-9.722948 -2.368634 -1.570597 10.129804 0.238958 1.726471 0.003369 -0.004022 207870.000000 1 0 0
-2.066848 -5.128734 -9.954397 11.387089 1.187712 2.634547 0.010744 -0.002505 1565320.000000 1 0 0
7.562452 -1.637234 6.473003 10.088161 -0.213205 0.874157 -0.007159 0.001695 282980.000000 1 0 0
1.528452 -11.890134 -2.611197 12.269059 -1.442950 1.785264 0.000361 -0.004243 -4232330.000000 1 0 0
-0.670148 -1.516534 4.790603 5.069404 1.154703 0.333192 -0.000987 -0.001374 2725140.000000 1 0 0
7.678152 1.452566 9.840903 12.566119 0.186972 0.671113 -0.002100 0.000132 1283060.000000 1 0 0
-3.889148 10.739366 -7.955397 13.919331 -1.223348 2.179173 -0.010027 0.006780 2166820.000000 1 0 0
-9.476348 12.637066 6.490303 17.076904 -0.927369 1.180932 -0.014060 -0.007231 922118.000000 1 0 0
-2.631648 -2.350534 -11.063997 11.613036 0.729034 2.832869 0.009718 -0.005888 -1919650.000000 1 0 0
1.298652 -12.008934 11.091403 16.398787 -1.463074 0.827993 -0.003968 0.000693 2384300.000000 1 0 0
1.428152 3.428566 -1.994597 4.215815 1.176109 2.063628 -0.000024 -0.000340 2539930.000000 1 0 0
-2.003448 -9.351534 -12.035097 15.372331 1.359749 2.470120 -0.001268 0.005159 218038.000000 1 0 0
1.296752 -2.618934 1.569403 3.317139 -1.111040 1.077968 -0.000777 -0.000007 3870400.000000 1 0 0
-1.074348 -2.152334 -6.558897 6.986122 1.107825 2.790062 0.004975 -0.008434 -266576.000000 1 0 0
1.890452 5.860866 4.032703 7.361131 1.258777 0.991019 -0.006005 0.004909 -1313870.000000 1 0 0
-10.977348 8.670566 3.733903 14.478360 -0.668527 1.309953 -0.011808 -0.007784 796242.000000 1 0 0
-16.401248 -1.330634 4.128503 16.965143 0.080953 1.324976 -0.000504 0.003272 339867.000000 1 0 0
-12.191848 0.365166 6.852503 13.990401 -0.029943 1.058936 0.000154 -0.003514 141433.000000 1 0 0
-5.143548 3.030466 4.600103 7.536628 -0.532424 0.914273 0.006810 -0.002828 1659030.000000 1 0 0
5.185052 -6.060434 3.883403 8.870989 -0.863085 1.117686 -0.008020 0.001258 1273530.000000 1 0 0
9.966252 3.427066 6.289503 12.273093 0.331201 1.032746 -0.002142 0.005147 604495.000000 1 0 0
-12.090448 5.942666 3.159203 13.837441 -0.456839 1.340457 -0.006867 -0.007083 1096030.000000 1 0 0
-4.821248 12.348966 -1.178197 13.309002 -1.198578 1.659439 -0.005678 0.000190 1236780.000000 1 0 0
-1.657248 -12.176234 10.308003 16.039392 1.435522 0.872821 -0.003920 -0.005376 2096410.000000 1 0 0
5.283652 6.322966 13.915603 16.172226 0.874705 0.534618 -0.002105 0.002950 1390840.000000 1 0 0
12.827752 -3.795234 -6.108197 14.705954 -0.287655 1.999130 0.009225 -0.000705 1131580.000000 1 0 0
3.592252 -2.561534 6.417303 7.787651 -0.619445 0.602298 -0.012790 0.003413 785384.000000 1 0 0
7.213652 -11.881734 -0.717197 13.918576 -1.025157 1.622347 0.003937 -0.003120 -2349870.000000 1 0 0
-6.181148 -6.517534 -4.084597 9.867562 0.811882 1.997576 0.008785 -0.004878 510131.000000 1 0 0
0.391452 -8.995234 5.046003 10.321319 -1.527306 1.059978 -0.002982 0.000551 1228800.000000 1 0 0
-10.292248 2.572866 -0.317697 10.613715 -0.244961 1.600733 -0.003367 0.000403 -959275.000000 1 0 0
-1.814148 8.966966 -0.313997 9.154026 -1.371176 1.605105 0.001753 0.000803 384465.000000 1 0 0
-3.605248 2.352566 -6.571897 7.856348 -0.578158 2.561675 0.011055 -0.009143 -344365.000000 1 0 0
-12.704648 3.126866 6.492803 14.606227 -0.241323 1.110155 -0.006335 -0.009204 -831913.000000 1 0 0
11.428752 1.637666 7.917703 13.999584 0.142325 0.969676 0.005646 -0.002385 -2602440.000000 1 0 0
5.995152 2.648966 -3.303197 7.339617 0.416057 2.037618 -0.003494 0.002411 1801310.000000 1 0 0
10.515652 -2.328634 6.302603 12.478954 -0.217928 1.041346 0.010618 -0.000547 6217470.000000 1 0 0
-0.856248 10.960866 4.112703 11.738316 -1.492836 1.212835 0.001196 0.003427 2345870.000000 1 0 0
-1.443548 -12.193634 7.405003 14.338850 1.452959 1.028120 -0.006428 0.000155 -710249.000000 1 0 0
7.986352 8.695766 -7.869697 14.189090 0.827898 2.158715 0.003722 -0.003576 1435250.000000 1 0 0
-4.731848 -5.925834 -8.667197 11.516345 0.896964 2.422797 0.009737 -0.003317 633346.000000 1 0 0
-8.640548 -5.305334 -11.536097 15.358619 0.550653 2.420547 0.008126 0.004478 1462400.000000 1 0 0
5.861952 -0.675034 -10.021497 11.629641 -0.114650 2.609447 0.003266 0.000189 -101725.000000 1 0 0
-11.198348 -5.520534 -5.235097 13.538299 0.458014 1.967834 0.005371 -0.005255 -834430.000000 1 0 0
3.888452 8.881966 -2.717697 10.069521 1.158141 1.844079 0.003519 -0.002178 1508770.000000 1 0 0
11.589952 -10.401634 -4.182697 16.125010 -0.731416 1.833189 0.015458 -0.003835 867075.000000 1 0 0
3.934052 -11.334634 3.872803 12.607510 -1.236723 1.258566 -0.003648 -0.003753 1029090.000000 1 0 0
-0.900448 0.867966 3.124603 3.365608 -0.767032 0.380735 0.001931 -0.002060 -1626270.000000 1 0 0
-10.624748 -5.006434 4.584103 12.608079 0.440347 1.198683 0.003695 -0.002980 5919250.000000 1 0 0
4.650052 -8.740134 2.762803 10.278425 -1.081851 1.298653 -0.006041 -0.001591 5114170.000000 1 0 0
-3.676248 -5.641034 2.617903 7.224229 0.993229 1.199978 0.006728 -0.003690 2078430.000000 1 0 0
9.987752 4.995966 12.249403 16.575969 0.463815 0.739233 0.005167 0.003444 1328580.000000 1 0 0
1.539452 -12.326334 -5.360197 13.529233 -1.446548 1.978164 -0.003070 -0.001085 68752.800000 1 0 0
9.841352 -10.744834 -1.818797 14.683722 -0.829258 1.694980 0.005877 -0.003140 1338230.000000 1 0 0
9.581452 -4.470634 -9.191997 14.010125 -0.436566 2.286431 0.012128 -0.003616 2258610.000000 1 0 0
-7.513048 -3.141534 -13.005697 15.344813 0.396049 2.582173 0.000176 0.001707 2245310.000000 1 0 0
0.494952 6.196866 -2.568097 6.726161 1.491094 1.962547 0.003205 -0.000603 2295110.000000 1 0 0
-5.973648 -9.411434 1.070003 11.198414 1.005236 1.475101 0.005813 -0.003464 -513464.000000 1 0 0
-8.943548 -4.050134 0.662903 9.840228 0.425226 1.503379 0.002487 -0.004866 2738840.000000 1 0 0
2.004252 3.681066 12.078803 12.785334 1.072204 0.333999 -0.002957 -0.002564 217699.000000 1 0 0
6.711752 4.237666 9.533903 12.405673 0.563174 0.694285 -0.007491 0.003214 2471500.000000 1 0 0
-8.249548 9.970966 -3.439097 13.390392 -0.879595 1.830540 -0.001314 0.002645 2784290.000000 1 0 0
16.409052 2.076766 -6.167497 17.652421 0.125893 1.927711 0.002138 0.008418 -42564.800000 1 0 0
-11.051848 2.654966 -5.096197 12.456461 -0.235761 1.992287 -0.006171 0.000923 1330.340000 1 0 0
-13.828648 4.222266 1.461503 14.532551 -0.296337 1.470058 -0.006482 0.001687 -105576.000000 1 0 0
-17.282448 10.609266 3.467903 20.573427 -0.550559 1.401425 0.012141 -0.007019 -506800.000000 1 0 0
-14.446648 2.986166 -1.155497 14.797229 -0.203832 1.648965 -0.002928 0.001773 582628.000000 1 0 0
-14.260448 5.231766 5.152503 16.039951 -0.351626 1.243769 -0.008688 -0.007199 463346.000000 1 0 0
-17.333148 7.665266 3.270503 19.232538 -0.416375 1.399915 0.001191 -0.003507 -1491510.000000 1 0 0
-15.003248 12.811566 -3.213497 19.989003 -0.706765 1.732260 0.041286 -0.006364 276710.000000 1 0 0
-8.609648 12.579766 -9.420597 17.919938 -0.970614 2.124340 -0.002040 -0.006065 770216.000000 1 0 0
-12.346948 8.903766 -9.662397 18.030144 -0.624767 2.136373 -0.008524 0.005743 -2066980.000000 1 0 0
-13.999948 -3.623134 -12.085497 18.846349 0.253240 2.266942 -0.001429 0.005765 -610946.000000 1 0 0
-14.848148 5.872166 -7.506197 17.643492 -0.376605 2.010241 0.007503 0.010379 -217722.000000 1 0 0
-10.869748 13.673266 -8.004397 19.214057 -0.899134 2.000488 0.010790 -0.007415 -556996.000000 1 0 0
-10.787648 13.520366 4.009103 17.755184 -0.897349 1.343033 -0.003762 -0.012771 -1366950.000000 1 0 0
-15.215748 3.494466 3.043403 15.905741 -0.225746 1.378269 -0.006301 0.001642 -229305.000000 1 0 0
-11.197148 9.441866 -12.430497 19.210471 -0.700555 2.274530 -0.014900 0.001540 433356.000000 1 0 0
-12.945648 11.715566 -8.768397 19.537888 -0.735560 2.036207 0.003178 -0.010938 -976165.000000 1 0 0
-8.731948 14.732866 -3.265597 17.434689 -1.035773 1.759214 0.005494 -0.005987 2293030.000000 1 0 0
-16.587948 8.474466 -3.828697 19.016717 -0.472314 1.773515 0.021023 0.004672 179160.000000 1 0 0
-16.841048 6.905866 0.395703 18.206275 -0.389150 1.549060 0.005024 0.005617 -584267.000000 1 0 0
-10.598548 2.803266 -12.405597 16.555553 -0.258574 2.417848 -0.008741 0.002375 -412237.000000 1 0 0
-16.828148 1.026366 2.451403 17.036707 -0.060916 1.426406 -0.008919 0.000671 -86594.300000 1 0 0
-12.644248 1.127166 -6.914497 14.455372 -0.088910 2.069553 -0.004590 -0.001718 1004210.000000 1 0 0
-12.246448 9.154766 -5.309697 16.185738 -0.641928 1.905033 0.001968 0.003969 -1750010.000000 1 0 0
-9.508348 13.900966 1.340903 16.895075 -0.970885 1.491346 0.007518 -0.013591 496311.000000 1 0 0
-12.165448 11.171966 2.808603 16.754080 -0.742853 1.402364 -0.004100 -0.012925 -653157.000000 1 0 0
-12.554548 6.965266 -3.592997 14.800042 -0.506521 1.816016 -0.001761 0.003932 -729720.000000 1 0 0
-15.736648 3.610566 -9.160597 18.563265 -0.225533 2.086882 -0.006515 0.001499 -965134.000000 1 0 0
-15.102648 6.018766 -4.606197 16.897709 -0.379233 1.846883 0.015174 0.003721 592545.000000 1 0 0
-17.699548 5.543666 7.663603 20.068310 -0.303531 1.178971 -0.004078 -0.006221 -909714.000000 1 0 0
-15.684648 10.374966 -1.847597 18.896077 -0.584398 1.668730 0.022984 0.000986 -1012540.000000 1 0 0
-8.725448 9.969866 -8.244297 15.604490 -0.851863 2.127427 -0.007906 -0.000263 186014.000000 1 0 0
-17.006948 4.368266 -1.203697 17.600196 -0.251417 1.639241 0.003838 0.001331 348410.000000 1 0 0
-10.247848 5.478666 -4.577997 12.489685 -0.490956 1.946086 -0.004155 0.004838 -298726.000000 1 0 0
-18.003248 2.958166 6.423403 19.342383 -0.162858 1.232278 -0.004411 0.000211 -624462.000000 1 0 0
-10.240148 10.264466 -5.580997 15.536004 -0.786584 1.938239 -0.003263 0.001701 973650.000000 1 0 0
-15.394848 0.412566 -5.767197 16.444820 -0.026793 1.929115 -0.008086 0.000005 1842280.000000 1 0 0
-16.414348 -4.241834 -8.706797 19.058654 0.252890 2.045238 -0.009351 -0.001415 -1963830.000000 1 0 0
-9.905548 9.679166 -0.985297 13.884414 -0.773840 1.641820 0.001252 -0.001896 1905550.000000 1 0 0
-17.364648 -2.966934 -3.099997 17.886970 0.169226 1.744986 -0.011159 0.001588 702161.000000 1 0 0
-12.024648 5.064966 -11.458297 17.364867 -0.398661 2.291422 -0.005883 0.004720 -389282.000000 1 0 0
-16.079948 7.324466 5.943803 18.642460 -0.427421 1.246300 -0.010967 -0.005553 1095030.000000 1 0 0
-12.188548 6.046666 -8.655897 16.125986 -0.460518 2.137397 -0.001247 0.005346 1479130.000000 1 0 0
-14.462448 8.457466 0.069503 16.753983 -0.529159 1.566648 0.008311 -0.002310 291316.000000 1 0 0
-14.776248 11.987866 4.049203 19.453598 -0.681589 1.361116 -0.004250 -0.009127 577112.000000 1 0 0
-17.248548 4.210266 -4.097497 18.221642 -0.239412 1.797606 0.008715 0.001080 38677.200000 1 0 0
-13.784948 13.622066 -0.751397 19.394588 -0.779455 1.609549 0.023645 -0.010377 91207.600000 1 0 0
-10.141648 6.819666 -13.055697 17.883291 -0.591990 2.389191 -0.018792 0.004866 -343241.000000 1 0 0
-15.981548 -1.273134 -8.209297 18.011755 0.079495 2.044038 -0.003548 -0.002393 -932041.000000 1 0 0
-11.443948 12.035466 -0.051697 16.607801 -0.810586 1.573909 0.008610 -0.010573 428260.000000 1 0 0
-11.923648 7.423766 -0.838897 14.070872 -0.556878 1.630451 -0.003241 0.002095 1318960.000000 1 0 0
-11.562248 0.088766 -11.590997 16.372070 -0.007677 2.357421 -0.011620 -0.003107 123341.000000 1 0 0
-19.106848 -1.097034 -4.502697 19.660860 0.057353 1.801865 -0.015857 0.002266 -1096630.000000 1 0 0
-18.001148 1.487866 -4.991997 18.739667 -0.082466 1.840439 -0.002970 0.000778 -494424.000000 1 0 0
-13.489148 -0.202734 -9.427297 16.458194 0.015028 2.180717 -0.003293 -0.002491 171861.000000 1 0 0
-6.200048 11.461966 -13.194197 18.544651 -1.074948 2.362402 -0.022976 0.007482 -735842.000000 1 0 0
16.376252 5.766566 7.073803 18.747629 0.338571 1.183899 0.013710 0.000489 816216.000000 1 0 0
14.793452 10.266766 -5.567597 18.848099 0.606693 1.870663 0.013717 0.002530 -1145090.000000 1 0 0
2.481952 16.928266 4.485603 17.687479 1.425218 1.314393 0.001664 0.001440 1800090.000000 1 0 0
-3.892848 18.333666 -5.708597 19.592489 -1.361570 1.866451 -0.011177 0.002931 2223890.000000 1 0 0
5.494352 14.470866 5.675003 16.486343 1.207926 1.219384 0.001506 0.003902 -2053720.000000 1 0 0
9.835652 5.903166 15.006703 18.888847 0.540552 0.652655 0.012148 0.000358 -978028.000000 1 0 0
4.719352 12.740866 -1.202797 13.639965 1.216055 1.659093 -0.002809 -0.001440 1911690.000000 1 0 0
3.715652 13.502066 13.244103 19.274805 1.302252 0.813279 0.010469 0.001171 462768.000000 1 0 0
-0.750448 12.281666 9.254903 15.396614 -1.509769 0.925920 0.005563 0.008135 1826090.000000 1 0 0
-7.712848 13.898966 8.438403 17.996553 -1.064182 1.082763 -0.006222 -0.010196 931437.000000 1 0 0
11.416852 12.893166 -4.193197 17.724591 0.846052 1.809636 0.017992 0.001542 292383.000000 1 0 0
-5.624048 16.125566 1.111803 17.114318 -1.235221 1.505787 -0.002712 -0.001997 1558170.000000 1 0 0
3.338652 10.592366 6.865603 13.056849 1.265459 1.017113 0.001181 0.007704 2786610.000000 1 0 0
-1.017548 15.547466 2.646603 15.803911 -1.505442 1.402538 0.000256 -0.000458 -1438200.000000 1 0 0
9.960152 8.816066 9.529103 16.362501 0.724541 0.949150 -0.002502 0.004970 2952050.000000 1 0 0
7.367452 12.227766 6.196703 15.562671 1.028527 1.161267 -0.003395 0.002488 -468921.000000 1 0 0
11.832352 14.042366 -1.577497 18.430439 0.870603 1.656493 0.000655 0.003240 -469055.000000 1 0 0
9.613952 15.945166 -1.302797 18.664770 1.028219 1.640653 -0.001854 0.000780 616163.000000 1 0 0
10.112252 13.751766 2.906003 17.315125 0.936742 1.402168 0.002644 -0.000114 4032160.000000 1 0 0
-5.997248 14.501466 6.262103 16.895959 -1.178654 1.191112 -0.007694 -0.008708 -32927.900000 1 0 0
-0.960848 18.344466 -6.069497 19.346355 -1.518466 1.889913 0.001553 0.006232 908572.000000 1 0 0
-3.457048 15.711066 5.492503 16.998716 -1.354209 1.241779 -0.004021 -0.001772 1439710.000000 1 0 0
7.105152 12.280766 10.641403 17.735271 1.046291 0.927278 -0.001616 0.002381 2595890.000000 1 0 0
1.540652 14.520266 6.301403 15.903440 1.465088 1.163390 0.001907 0.004052 170750.000000 1 0 0
17.377052 7.771266 -1.604797 19.103138 0.420535 1.654902 -0.022042 0.022130 -794798.000000 1 0 0
2.126452 16.231866 -3.306597 16.701163 1.440533 1.770099 -0.006782 -0.000497 2178000.000000 1 0 0
6.792952 11.107866 0.434603 13.027577 1.021932 1.537430 0.000505 0.001823 2134650.000000 1 0 0
12.649252 9.279166 3.167303 16.004321 0.632905 1.371578 -0.002733 0.004434 -2058290.000000 1 0 0
6.017352 14.258266 -3.499097 15.866642 1.171448 1.793156 -0.006371 -0.000066 729828.000000 1 0 0
3.208252 16.514066 1.662403 16.904757 1.378913 1.472298 -0.002035 -0.006822 -1463230.000000 1 0 0
2.847852 18.915466 -2.454997 19.285541 1.421362 1.698440 0.001030 -0.012144 110257.000000 1 0 0
4.050852 11.887466 10.779603 16.550561 1.242371 0.861482 0.005565 -0.002265 2556920.000000 1 0 0
8.047652 11.465066 3.316203 14.394778 0.958777 1.338333 -0.001023 0.004108 613664.000000 1 0 0
0.826452 12.495266 0.211203 12.524348 1.504751 1.553932 -0.000778 -0.000404 -634270.000000 1 0 0
12.042352 9.928966 -4.647897 16.285132 0.689505 1.860228 0.015356 0.001822 1596770.000000 1 0 0
-1.297948 16.457766 9.907903 19.253812 -1.492094 1.030262 0.004138 0.006280 -308000.000000 1 0 0
7.961752 14.839066 -8.066497 18.672325 1.078346 2.017509 0.015147 -0.007140 1015320.000000 1 0 0
14.538352 7.609566 -1.483797 16.476371 0.482202 1.660975 -0.005284 0.011554 874161.000000 1 0 0
12.542252 8.297066 5.949503 16.172383 0.584437 1.194068 -0.001476 0.005569 -1526430.000000 1 0 0
-3.064448 14.161266 10.307503 17.781364 -1.357686 0.952460 0.002452 -0.000252 2696530.000000 1 0 0
-4.518648 17.101766 -3.011497 17.943179 -1.312478 1.739430 -0.000637 -0.000357 -309853.000000 1 0 0
-6.952848 16.471366 -1.533197 17.944321 -1.171370 1.656343 0.000466 -0.001480 836332.000000 1 0 0
8.457752 11.186066 -1.949397 14.158452 0.923404 1.708919 0.003713 0.000577 -502066.000000 1 0 0
8.564452 12.972566 -4.198997 16.101828 0.987286 1.834624 0.008090 0.000826 642486.000000 1 0 0
2.450252 14.873066 -7.230997 16.718227 1.407519 2.018084 -0.013797 -0.000078 302170.000000 1 0 0
11.465052 11.279066 9.742603 18.803804 0.777221 1.026146 0.005054 -0.001001 653152.000000 1 0 0
8.619152 15.875566 1.371803 18.116435 1.073406 1.495002 -0.004859 0.002872 514076.000000 1 0 0
6.170052 9.904866 7.732603 13.998895 1.013686 0.985589 -0.001674 0.010055 2260260.000000 1 0 0
14.357152 11.468166 2.624403 18.561630 0.673995 1.428932 -0.001196 0.004276 1424480.000000 1 0 0
12.160052 12.609466 1.048003 17.548897 0.803540 1.511042 0.003788 0.001820 2020200.000000 1 0 0
5.378552 15.693466 8.289603 18.545382 1.240617 1.107399 0.010879 0.004523 386254.000000 1 0 0
11.506252 15.058766 5.083003 19.621345 0.918338 1.308753 0.011851 -0.000221 556791.000000 1 0 0
6.005052 16.939466 1.824503 18.064743 1.230118 1.469626 -0.012218 -0.005433 479384.000000 1 0 0
-0.663648 16.216166 -4.115997 16.743533 -1.529894 1.819168 -0.006411 0.002486 -273914.000000 1 0 0
16.018252 6.478666 2.522003 17.461901 0.384341 1.425861 -0.018014 0.008057 -105863.000000 1 0 0
7.657152 16.728566 -3.183697 18.671176 1.141533 1.742148 -0.009948 -0.001968 -811141.000000 1 0 0
14.827452 8.165366 7.438703 18.489479 0.503375 1.156746 0.010742 0.002915 152424.000000 1 0 0
2.138852 12.835466 8.740703 15.675578 1.405677 0.979304 0.003074 0.005716 918892.000000 1 0 0
15.952552 7.580666 -6.011897 18.657259 0.443612 1.898879 -0.000140 0.012060 -445742.000000 1 0 0
-2.828548 16.922766 0.855803 17.178856 -1.405183 1.520958 -0.007097 -0.000787 574502.000000 1 0 0
-2.860348 18.580866 4.651803 19.366709 -1.418055 1.328229 -0.007714 0.002282 1214420.000000 1 0 0
-0.709048 19.028566 0.936703 19.064797 -1.533551 1.521644 0.000965 -0.002124 -1033250.000000 1 0 0
6.916352 16.826066 -6.042697 19.169418 1.180801 1.891491 0.002339 -0.001472 1311680.000000 1 0 0
11.021352 9.989366 0.724703 14.892374 0.736320 1.522114 0.002763 0.003274 -2351580.000000 1 0 0
9.135352 8.655666 14.230003 18.996531 0.758442 0.724118 0.005209 -0.001552 1248350.000000 1 0 0
6.177952 12.446066 -8.330497 16.200889 1.110051 2.110871 0.010325 -0.008664 1556440.000000 1 0 0
6.384452 8.940466 13.286003 17.239810 0.950665 0.690923 -0.002739 -0.004311 -29712.800000 1 0 0
16.566152 9.417566 3.114503 19.308756 0.516922 1.408789 -0.010266 0.010585 142326.000000 1 0 0
2.671052 14.734466 -0.702397 14.991076 1.391465 1.617668 -0.004605 -0.002507 138448.000000 1 0 0
9.195652 12.865966 8.330503 17.874293 0.950255 1.085963 0.006427 -0.002892 1832940.000000 1 0 0
7.269752 9.326466 10.548103 15.845969 0.908696 0.842412 -0.004758 0.000945 762368.000000 1 0 0
4.330052 15.804266 -5.241697 17.204637 1.303379 1.880386 -0.004725 -0.003856 912110.000000 1 0 0
0.114952 16.444766 -8.012097 18.293092 1.563806 2.024152 -0.008056 0.005933 519293.000000 1 0 0
-2.309848 15.637066 -1.874297 15.917481 -1.424141 1.688821 -0.010076 0.003617 -545899.000000 1 0 0
13.347552 10.553366 7.579203 18.627265 0.669019 1.151752 0.007710 -0.003019 3034810.000000 1 0 0
-0.964348 15.818066 7.069903 17.352945 -1.509907 1.151171 0.004154 0.002704 2875640.000000 1 0 0
13.378852 13.432366 6.665103 20.095913 0.787394 1.232729 0.015225 -0.006276 292507.000000 1 0 0
5.382052 17.323966 4.676703 18.733868 1.269579 1.318489 -0.001515 -0.003125 -601900.000000 1 0 0
10.838252 9.422866 -1.943397 14.492580 0.715654 1.705297 0.004335 0.003556 -748321.000000 1 0 0
3.333052 12.682966 4.771303 13.954647 1.313810 1.221842 0.001331 0.005662 1763020.000000 1 0 0
-0.091948 18.069166 3.667403 18.437816 -1.565708 1.370554 0.004120 0.001154 2051370.000000 1 0 0
-7.586748 16.036666 -5.692397 18.631607 -1.128909 1.881285 0.018875 -0.004075 1639500.000000 1 0 0
-12.381448 -9.059134 8.344403 17.464170 0.631666 1.072646 0.009231 -0.004657 484172.000000 1 0 0
-13.233248 -11.642334 6.886003 18.922998 0.721530 1.198349 0.011242 -0.000668 60110.800000 1 0 0
-6.380848 -12.196934 12.295003 18.456639 1.088799 0.841753 0.003311 -0.009057 -607170.000000 1 0 0
-1.645348 -10.726534 14.339603 17.983046 1.418592 0.647829 -0.008563 -0.003141 843521.000000 1 0 0
-8.663848 2.830466 11.067003 14.337097 -0.315767 0.688950 -0.002954 -0.005720 496609.000000 1 0 0
0.647252 9.946466 15.235203 18.206112 1.505814 0.579351 0.002000 -0.009755 649335.000000 1 0 0
1.176852 -6.864534 16.616103 18.016706 -1.401008 0.396907 0.002512 -0.010143 916672.000000 1 0 0
6.151852 2.089066 17.839103 18.985339 0.327365 0.349263 0.008568 -0.004675 871033.000000 1 0 0
-4.948548 -3.139834 17.577603 18.528865 0.565399 0.321822 0.012162 -0.014176 1186560.000000 1 0 0
-4.280848 8.181366 13.099403 16.026689 -1.088727 0.614001 -0.007935 0.001320 -593430.000000 1 0 0
0.274252 -4.836034 18.534403 19.156893 -1.514147 0.255624 0.012206 -0.014302 152964.000000 1 0 0
-11.452048 1.942766 11.149903 16.101059 -0.168044 0.805854 0.004806 -0.008672 184909.000000 1 0 0
-3.269848 -6.234834 14.317503 15.954810 1.087782 0.457004 0.009063 -0.013970 1625520.000000 1 0 0
-7.360748 -2.297734 14.663203 16.567128 0.302575 0.484134 0.005762 -0.007368 978424.000000 1 0 0
-5.985248 -1.120034 10.640703 12.259781 0.184993 0.519765 0.003398 -0.006345 2296800.000000 1 0 0
-3.840548 2.369866 11.111903 11.993351 -0.552872 0.385780 -0.003117 -0.000569 1104080.000000 1 0 0
-6.276848 6.218766 13.589203 16.209205 -0.780750 0.576522 -0.015581 -0.001216 -240565.000000 1 0 0
-8.870048 5.460866 12.548803 16.308626 -0.551849 0.692804 -0.010720 -0.004259 337707.000000 1 0 0
-11.982548 -2.213934 15.819503 19.968466 0.182703 0.656351 0.000961 -0.001294 386763.000000 1 0 0
-3.322248 -7.624834 16.951603 18.882063 1.159886 0.456134 0.010570 -0.012430 -2169800.000000 1 0 0
-0.436848 -5.440434 14.426603 15.424527 1.490672 0.361683 0.004975 -0.008126 561361.000000 1 0 0
-14.023048 -2.147134 13.752303 19.758085 0.151935 0.800937 0.002695 -0.002459 -500063.000000 1 0 0
-6.375748 1.366166 12.245603 13.873405 -0.211083 0.489289 -0.001663 -0.004117 1118710.000000 1 0 0
2.337152 -2.364334 14.569403 14.943891 -0.791180 0.224343 -0.005984 -0.004427 366687.000000 1 0 0
-12.475748 4.015166 9.332503 16.089172 -0.311369 0.952008 -0.004285 -0.007413 378754.000000 1 0 0
-8.977048 -2.924134 12.560403 15.713106 0.314896 0.644570 -0.001444 -0.001341 1447220.000000 1 0 0
-6.997848 -7.404434 15.336503 18.412057 0.813621 0.586361 0.013515 -0.009271 -832949.000000 1 0 0
-3.234448 5.846566 19.445303 20.561221 -1.065483 0.330972 0.013017 -0.003187 -44193.400000 1 0 0
0.689152 5.355966 16.183503 17.060688 1.442829 0.322063 -0.002833 -0.001920 540537.000000 1 0 0
3.551052 1.346066 16.710403 17.136494 0.362326 0.223465 0.002601 -0.005367 1174550.000000 1 0 0
-11.673148 11.379966 7.816803 18.079503 -0.772681 1.123691 -0.016898 -0.014338 -215858.000000 1 0 0
0.740652 -9.614434 15.524803 18.275815 -1.493913 0.555812 -0.011722 0.001651 85653.800000 1 0 0
-2.406048 -3.841334 18.825403 19.363386 1.011222 0.236276 0.018209 -0.018651 1712680.000000 1 0 0
-12.567848 2.302466 13.829503 18.828365 -0.181194 0.745861 -0.000836 -0.011798 -905531.000000 1 0 0
-5.223748 -0.724234 15.761703 16.620570 0.137764 0.322881 0.005775 -0.004260 757037.000000 1 0 0
-4.398048 -5.943134 11.716703 13.854415 0.933712 0.562917 0.002676 -0.005659 453883.000000 1 0 0
2.531852 1.786066 14.004903 14.343557 0.614367 0.217732 -0.006133 -0.005363 -382881.000000 1 0 0
0.195752 3.253866 14.280503 14.647824 1.510709 0.224421 0.001387 -0.006561 553107.000000 1 0 0
-12.876948 6.963266 12.353503 19.154945 -0.495717 0.869871 -0.006396 -0.011154 -42075.700000 1 0 0
0.983352 1.311566 18.117903 18.191910 0.927453 0.090232 0.003542 -0.008184 972244.000000 1 0 0
-2.016548 6.372266 12.470703 14.148875 -1.264311 0.491996 -0.009620 -0.000801 1063220.000000 1 0 0
-13.526048 -2.580634 10.960503 17.599610 0.188524 0.898519 0.009493 -0.003729 1156430.000000 1 0 0
-2.452548 3.583466 13.428303 14.112957 -0.970612 0.312761 -0.005802 -0.003642 -777349.000000 1 0 0
3.520452 6.078666 16.290003 17.740010 1.045850 0.407124 -0.002907 -0.003631 487911.000000 1 0 0
-3.631848 12.265866 12.385703 17.805826 -1.282927 0.801544 -0.002802 -0.003079 269667.000000 1 0 0
3.847552 -1.566534 17.077203 17.575226 -0.386656 0.238627 0.009550 -0.007457 -371529.000000 1 0 0
-15.870948 0.553366 9.408203 18.458264 -0.034852 1.035959 0.003802 -0.001066 -330001.000000 1 0 0
-4.493348 4.549366 15.215503 16.504498 -0.791593 0.397839 -0.005561 -0.004886 -36091.800000 1 0 0
-7.894348 -8.140934 10.473503 15.436639 0.800775 0.825100 0.004484 -0.005314 2637900.000000 1 0 0
-2.565048 -0.569634 14.664803 14.898336 0.218529 0.177292 0.006067 -0.005048 1736030.000000 1 0 0
-1.748448 0.873366 17.105503 17.216796 -0.463255 0.113765 0.001663 -0.006264 942224.000000 1 0 0
-0.615848 -2.575834 14.445803 14.686573 1.336115 0.181322 0.004725 -0.006614 -77589.600000 1 0 0
5.251552 -8.368334 16.426503 19.168668 -1.010365 0.541483 -0.005456 0.001048 2635120.000000 1 0 0
-4.438248 9.965666 10.713103 15.289968 -1.151813 0.794471 -0.007063 -0.002692 -279791.000000 1 0 0
-5.907048 2.016766 15.299103 16.523411 -0.329008 0.387373 -0.003095 -0.000335 230810.000000 1 0 0
-4.822048 6.776466 17.335903 19.227745 -0.952336 0.447322 -0.004175 0.009053 -561277.000000 1 0 0
-3.976948 9.154266 15.799803 18.688244 -1.160960 0.563406 -0.006595 0.007798 122166.000000 1 0 0
-4.359548 -9.986934 18.249503 21.255326 1.159204 0.538293 0.015059 -0.008733 -1390760.000000 1 0 0
-6.683348 -4.039034 11.139203 13.603779 0.543607 0.611424 0.005152 -0.005392 373007.000000 1 0 0
-2.287648 -0.881434 19.466803 19.620568 0.367771 0.125277 0.011846 -0.010423 -2680220.000000 1 0 0
-5.644648 -4.687234 15.193703 16.872488 0.692996 0.449875 0.013286 -0.014577 2862130.000000 1 0 0
-12.940048 0.062266 9.760003 16.208220 -0.004812 0.924588 0.000063 -0.003988 2917000.000000 1 0 0
-14.177048 8.817466 10.480003 19.712099 -0.556406 1.010245 -0.019746 -0.012721 -2758530.000000 1 0 0
-8.220748 10.391966 12.928603 18.512764 -0.901526 0.797690 -0.018485 -0.008120 -2164060.000000 1 0 0
-10.413248 7.083266 10.815303 16.600577 -0.597325 0.861234 -0.009230 -0.007096 -609339.000000 1 0 0
-9.681048 -6.604634 14.744303 18.834499 0.598695 0.671587 0.005423 -0.006369 -1622850.000000 1 0 0
-0.689448 -13.512634 14.440003 19.788389 1.519818 0.752882 -0.014930 -0.000258 1070270.000000 1 0 0
3.984152 -5.844634 16.949503 18.366243 -0.972474 0.395350 0.000419 -0.005039 2194530.000000 1 0 0
-7.202048 9.327866 10.367603 15.696043 -0.913300 0.849281 -0.012583 -0.005344 876317.000000 1 0 0
-10.187448 -6.693334 11.832703 16.988163 0.581293 0.800251 -0.000326 -0.005922 1104980.000000 1 0 0
-10.816548 -3.813334 10.725003 15.702386 0.338941 0.818910 -0.003381 0.002238 975612.000000 1 0 0
-9.968648 -10.219334 9.856903 17.348409 0.797815 0.966512 0.008202 -0.004474 2053800.000000 1 0 0
-9.710048 -3.724234 15.278003 18.481676 0.366241 0.597656 0.006366 -0.007668 818281.000000 1 0 0
5.688852 -3.458934 16.065003 17.389985 -0.546296 0.392887 -0.002733 -0.005413 -18700.700000 1 0 0
-11.033248 0.464366 15.317603 18.883251 -0.042063 0.624639 0.007537 -0.009435 -55012.200000 1 0 0
-3.102648 2.991666 18.735103 19.224479 -0.767189 0.226118 0.005005 -0.004231 -62217.600000 1 0 0
0.506252 7.264366 13.967303 15.751599 1.501219 0.480589 -0.002859 -0.004917 1978770.000000 1 0 0
-12.987248 -7.451234 12.325403 19.393429 0.520883 0.882082 -0.006410 0.003377 45321.600000 1 0 0
-1.329448 -1.188734 12.094903 12.225678 0.729577 0.146396 -0.000048 -0.005192 456382.000000 1 0 0
2.073252 -5.011934 13.079803 14.159771 -1.178567 0.393090 -0.005270 -0.004120 231036.000000 1 0 0
-14.648648 -3.975834 8.678603 17.484516 0.265028 1.051396 0.000718 -0.003436 -938051.000000 1 0 0
8.211552 0.833266 16.021803 18.022822 0.101129 0.475698 0.001390 -0.004635 806640.000000 1 0 0
-1.240748 11.192266 13.472403 17.558813 -1.460389 0.696218 -0.000723 -0.002368 614085.000000 1 0 0
2.766152 -12.363834 -13.888397 18.799031 -1.350692 2.402058 -0.001241 0.014852 68317.000000 1 0 0
0.612352 -10.804234 -13.944597 17.651012 -1.514180 2.481633 -0.008955 0.011221 -1608020.000000 1 0 0
3.148752 -14.450034 -12.440297 19.325608 -1.356244 2.270147 -0.002546 0.013776 -553927.000000 1 0 0
-5.171648 -10.390134 -16.263597 19.980126 1.108954 2.521782 -0.010653 0.002934 9374.810000 1 0 0
-1.410348 -12.092634 -15.041297 19.351008 1.454692 2.461139 -0.004934 0.006173 -31440.100000 1 0 0
5.630552 -15.066134 -12.012697 20.074770 -1.213146 2.212296 0.005637 0.013053 -279851.000000 1 0 0
1.848052 -11.779634 -16.124797 20.054529 -1.415179 2.504868 -0.000832 0.005311 -434245.000000 1 0 0
1.171552 -14.404834 -14.012797 20.130332 -1.489644 2.340752 -0.000195 0.017730 -559056.000000 1 0 0
-1.221148 -10.499834 -15.914297 19.105040 1.455015 2.555285 -0.007971 -0.003856 -373754.000000 1 0 0
-6.349448 -5.838734 -15.405997 17.656473 0.743520 2.631176 0.002809 0.015832 62674.100000 1 0 0
-6.444648 -7.826334 -16.965897 19.764277 0.881915 2.602963 -0.008950 0.023241 917652.000000 1 0 0
4.893352 -12.606834 -11.523497 17.767052 -1.200546 2.276524 0.002808 0.011215 389997.000000 1 0 0
-1.958848 -15.462434 -13.150897 20.392892 1.444783 2.271658 0.000738 0.004579 -173587.000000 1 0 0
16.143652 -7.284434 -8.735797 19.748282 -0.423873 2.029022 0.023251 -0.002528 586448.000000 1 0 0
19.143652 -3.687334 -4.375297 19.980467 -0.190284 1.791564 -0.005185 -0.002395 844754.000000 1 0 0
14.850452 -11.695734 -8.982397 20.928678 -0.667114 2.014393 0.010880 -0.005529 57002.500000 1 0 0
17.828652 -3.420434 -6.652997 19.334492 -0.189547 1.922076 0.028104 0.000804 402343.000000 1 0 0
9.592752 -9.136234 -15.367497 20.289200 -0.761028 2.430153 0.024505 -0.006420 5581.850000 1 0 0
0.986952 1.961166 -15.420997 15.576501 1.104554 3.000172 0.005447 -0.004123 254462.000000 1 0 0
4.685752 -4.237534 -13.990097 15.350432 -0.735210 2.717424 0.004870 0.004447 -168004.000000 1 0 0
13.322352 -5.676534 -8.899597 16.997380 -0.402794 2.121851 0.026520 -0.002026 -1942300.000000 1 0 0
2.783552 1.040866 -12.250997 12.606287 0.357836 2.903614 0.004781 -0.005182 -2503790.000000 1 0 0
0.491652 6.358166 -13.053097 14.527606 1.493624 2.687143 0.008578 -0.001641 207825.000000 1 0 0
2.951452 -1.051934 -16.826797 17.116037 -0.342376 2.957492 0.007499 -0.002217 -23131.900000 1 0 0
13.124452 4.313366 -11.479197 17.961857 0.317531 2.264107 0.010433 -0.003026 124565.000000 1 0 0
-4.122748 9.565966 -16.555997 19.560311 -1.163871 2.579999 -0.014100 0.011653 -365899.000000 1 0 0
-0.281148 -5.030634 -17.689997 18.393540 1.514967 2.864119 0.001592 -0.003047 361907.000000 1 0 0
-0.593348 -8.499634 -17.492997 19.457666 1.501101 2.688342 -0.003598 -0.003128 -2582580.000000 1 0 0
5.394152 -10.232834 -12.259397 16.855284 -1.085672 2.385223 0.003434 0.006776 500884.000000 1 0 0
1.430052 -9.970034 -18.103997 20.717175 -1.428333 2.633891 -0.007824 0.001886 -574313.000000 1 0 0
10.583252 9.178266 -15.131597 20.620645 0.714421 2.394707 0.022836 -0.001333 176167.000000 1 0 0
10.901152 -3.768634 -12.989997 17.371751 -0.332848 2.415487 0.016520 -0.009430 -16809.200000 1 0 0
4.740852 7.453266 -12.379497 15.207853 1.004271 2.521836 -0.006361 0.002022 -1093100.000000 1 0 0
9.538352 -5.952134 -12.711497 16.970274 -0.557895 2.417416 0.018187 -0.005355 -686228.000000 1 0 0
-3.477548 0.352566 -15.813597 16.195292 -0.101038 2.924054 0.005259 0.002425 -2485600.000000 1 0 0
-0.873648 10.741666 -12.829997 16.755759 -1.489642 2.442936 -0.006245 0.004279 -1271310.000000 1 0 0
6.491352 -5.455634 -12.531497 15.130764 -0.698922 2.546708 0.006852 0.000498 -386468.000000 1 0 0
18.065652 -5.641734 -8.678597 20.821023 -0.302694 2.000739 0.024297 -0.002280 941668.000000 1 0 0
13.085452 4.859466 -13.991897 19.764024 0.355579 2.357385 0.012487 -0.010657 222799.000000 1 0 0
13.999652 0.958066 -11.603597 18.208558 0.068328 2.261735 -0.000503 -0.000405 -153025.000000 1 0 0
14.788452 6.227466 -11.316397 19.635184 0.398565 2.185030 0.000191 -0.004261 -324195.000000 1 0 0
8.113052 1.617666 -11.724297 14.349132 0.196809 2.527113 0.000794 0.002897 815329.000000 1 0 0
9.860252 1.296566 -9.021497 13.427325 0.130744 2.307535 0.001536 0.002024 583985.000000 1 0 0
-0.211948 -5.766934 -13.061097 14.279170 1.534061 2.725551 -0.001336 0.003101 -34087.800000 1 0 0
10.625152 -5.647334 -8.982297 15.015588 -0.488534 2.212047 0.018045 -0.006959 -129345.000000 1 0 0
10.018752 8.464966 -11.385197 17.368182 0.701533 2.285668 0.019079 -0.008364 367367.000000 1 0 0
8.265852 8.042466 -14.726297 18.704795 0.771701 2.477215 0.023706 -0.001129 449895.000000 1 0 0
8.450352 10.562666 -10.822597 17.323595 0.896043 2.245584 0.022765 -0.009557 493676.000000 1 0 0
6.754652 1.831566 -17.986997 19.300570 0.264789 2.770526 0.006833 -0.003386 -645139.000000 1 0 0
12.056752 2.623866 -13.047797 17.958144 0.214285 2.384109 0.000788 -0.000321 -1281770.000000 1 0 0
2.632152 -0.665634 -19.325497 19.515279 -0.247693 3.002018 0.015485 -0.010879 -54105.300000 1 0 0
10.286752 -2.230634 -15.403597 18.656468 -0.213539 2.542139 0.008192 -0.007884 729017.000000 1 0 0
8.156152 -0.670034 -13.168697 15.504397 -0.081967 2.585553 0.004943 -0.002235 1093220.000000 1 0 0
0.384352 4.428166 -14.798597 15.451694 1.484216 2.849811 0.007325 -0.001320 487640.000000 1 0 0
3.859852 -7.728634 -15.731097 17.947079 -1.107611 2.639395 0.005133 0.000661 -844765.000000 1 0 0
11.326852 -5.648934 -14.702997 19.400674 -0.462624 2.430823 0.013477 -0.002314 -274578.000000 1 0 0
-6.090248 4.336466 -16.700597 18.297704 -0.618757 2.720678 -0.009214 0.005759 -131488.000000 1 0 0
11.292052 7.977266 -9.136697 16.571856 0.615041 2.154764 0.019304 -0.004597 -1496810.000000 1 0 0
9.409152 6.145066 -13.518197 17.579409 0.578548 2.448039 0.021031 -0.002132 -517016.000000 1 0 0
11.979752 0.642566 -10.152597 15.716315 0.053586 2.273117 0.008247 0.002761 -1953600.000000 1 0 0
5.379452 -7.391434 -13.744997 16.507475 -0.941658 2.554677 0.006493 0.003047 -1143380.000000 1 0 0
8.524052 -10.240534 -10.662397 17.065014 -0.876619 2.245685 0.014847 -0.000302 45445.400000 1 0 0
9.923852 4.903966 -16.046397 19.494065 0.458964 2.537720 0.015271 -0.002433 -403938.000000 1 0 0
9.759952 -0.391134 -11.073997 14.766281 -0.040054 2.418785 0.005917 0.000592 239031.000000 1 0 0
-1.875148 5.498266 -14.028397 15.183643 -1.242123 2.748986 -0.001237 0.000988 1680030.000000 1 0 0
1.141352 -0.699834 -14.959497 15.019287 -0.550042 3.052334 0.006938 -0.003963 -1316780.000000 1 0 0
11.574852 -10.394234 -14.239297 21.089686 -0.731710 2.312003 0.022513 -0.004336 963523.000000 1 0 0
9.300652 -7.730234 -10.765497 16.191188 -0.693448 2.298154 0.016483 -0.004968 -562386.000000 1 0 0
13.949252 -0.960134 -9.887697 17.125129 -0.068722 2.186312 0.002358 0.002376 748816.000000 1 0 0
3.893952 11.313566 -12.063397 16.990738 1.239312 2.360292 -0.000390 -0.002041 -1927720.000000 1 0 0
-1.476648 2.992566 -17.248497 17.568340 -1.112411 2.950484 0.003984 0.002996 -447251.000000 1 0 0
5.828752 -0.562534 -17.637297 18.583999 -0.096212 2.821030 0.003507 0.001380 110650.000000 1 0 0
6.104152 -6.362034 -16.036897 18.300771 -0.806082 2.638916 0.003706 0.000646 -228341.000000 1 0 0
-1.864048 -5.170934 -19.800997 20.549762 1.224811 2.870816 0.003316 -0.012726 50142.500000 1 0 0
-0.150248 -4.345434 -15.186897 15.797063 1.536234 2.862750 0.001983 -0.001445 -948718.000000 1 0 0
0.294052 0.913366 -13.038397 13.073656 1.259332 3.068132 0.004627 -0.006936 276911.000000 1 0 0
15.361952 0.505566 -13.749297 20.622520 0.032898 2.300586 -0.009909 -0.004144 418179.000000 1 0 0
-0.404848 7.049566 -16.454897 17.905974 -1.513431 2.736235 -0.002212 0.007764 31288.800000 1 0 0
-5.127648 -0.436134 -18.157597 18.872766 0.084851 2.865419 -0.013664 0.009861 -593090.000000 1 0 0
10.335052 -8.460834 -12.951097 18.604567 -0.686012 2.340781 0.024558 -0.015911 842896.000000 1 0 0
3.980752 8.570966 -17.420897 19.819069 1.135994 2.644550 0.002894 -0.006134 -498621.000000 1 0 0
9.080952 0.826366 -17.062197 19.345933 0.090750 2.650785 0.005220 -0.002815 59653.500000 1 0 0
3.069452 4.967166 -18.663397 19.555476 1.017284 2.838380 0.003788 0.001472 -991013.000000 1 0 0
1.329052 -8.361434 -15.986997 18.090440 -1.413165 2.654562 -0.008214 0.002505 407814.000000 1 0 0
4.410652 7.668166 -15.019197 17.430745 1.048819 2.609308 0.002521 -0.001099 171086.000000 1 0 0
-5.765648 -0.524634 -15.014497 16.092018 0.090743 2.773568 -0.007908 0.000607 -511227.000000 1 0 0
2.725052 3.413166 -13.937697 14.605992 0.897035 2.837921 0.008222 -0.003402 509005.000000 1 0 0
-2.452148 -10.199634 -18.169597 20.980463 1.334859 2.617992 -0.002132 -0.004132 -235093.000000 1 0 0
6.182252 -8.937034 -15.658597 19.059970 -0.965624 2.534909 0.012927 0.002843 114428.000000 1 0 0
-2.088648 5.388566 -17.343397 18.280933 -1.201019 2.819943 -0.002850 -0.000951 748955.000000 1 0 0
9.928252 -12.223334 -11.448097 19.468924 -0.888638 2.199404 0.021908 -0.002389 -104557.000000 1 0 0
10.794152 3.646666 -9.474397 14.818100 0.325799 2.264488 0.003437 0.002849 -457243.000000 1 0 0
4.672352 -0.421734 -11.061197 12.014941 -0.090018 2.740462 0.002496 -0.002652 308412.000000 1 0 0
6.121652 9.602566 -11.404197 16.116438 1.003257 2.356910 -0.000501 -0.005624 -203146.000000 1 0 0
10.719952 -9.518234 -9.538897 17.219312 -0.726089 2.157916 0.020898 -0.005640 -2466210.000000 1 0 0
2.980752 -2.360934 -14.515797 15.005574 -0.669881 2.885394 0.005218 -0.001288 -81775.100000 1 0 0
8.968752 -4.428734 -14.555197 17.660859 -0.458672 2.539496 0.006991 -0.008762 -80381.500000 1 0 0
-4.128248 -6.465534 -16.619197 18.304187 1.002548 2.709151 -0.010279 0.004879 -425480.000000 1 0 0
5.808752 -7.782734 -11.270297 14.877236 -0.929626 2.430353 0.004424 0.003326 205094.000000 1 0 0
5.185052 6.323266 -17.083697 18.939935 0.883981 2.695161 0.009380 -0.008800 -1447810.000000 1 0 0
8.689352 1.575966 -19.608897 21.505751 0.179417 2.718437 -0.002725 -0.002458 524989.000000 1 0 0
12.993152 5.928466 -9.517197 17.162335 0.428061 2.158606 0.003003 0.001370 140947.000000 1 0 0
-1.794248 -0.860334 -17.352297 17.466016 0.447110 3.027418 0.006472 0.001960 622454.000000 1 0 0
-0.703048 -0.449634 -19.579597 19.597374 0.568994 3.098996 0.005104 -0.006313 -4770.140000 1 0 0
2.625052 6.476766 -16.643697 18.051372 1.185727 2.744058 -0.004333 -0.000175 -139353.000000 1 0 0
7.575452 3.871566 -15.782097 17.929057 0.472462 2.647190 0.008533 -0.000091 -662152.000000 1 0 0
2.944652 -9.901534 -14.704797 17.970598 -1.281733 2.529191 -0.000830 0.001809 1027100.000000 1 0 0
8.981352 -10.600334 -13.347797 19.266433 -0.867889 2.336162 0.025723 -0.001421 672640.000000 1 0 0
3.595052 0.182366 -14.826897 15.257605 0.050683 2.903421 0.002359 -0.000864 -1115130.000000 1 0 0
-1.286448 -2.921334 -18.932097 19.199308 1.155985 2.974559 0.005666 0.000947 651892.000000 1 0 0
8.982052 10.066766 -13.213597 18.884283 0.842281 2.345793 0.029824 -0.011670 326742.000000 1 0 0
4.534752 2.221366 -10.799497 11.921727 0.455498 2.704218 -0.000526 -0.000393 -67572.800000 1 0 0
-0.951748 7.052966 -18.988097 20.278017 -1.436664 2.782990 -0.001159 0.001500 275215.000000 1 0 0
0.685252 -1.715134 -17.809197 17.904713 -1.190693 3.038254 0.013111 -0.002478 -4162290.000000 1 0 0
-4.546948 -2.533734 -14.208097 15.131575 0.508384 2.790420 0.001218 0.004400 -3300050.000000 1 0 0
10.050552 6.044866 -10.476597 15.726191 0.541482 2.299882 0.009780 0.003309 67613.500000 1 0 0
7.977452 5.774466 -17.609297 20.176014 0.626553 2.631673 0.016168 -0.006909 -767431.000000 1 0 0
11.247352 0.353766 -13.821597 17.823148 0.031443 2.458280 0.000693 0.005045 424180.000000 1 0 0
6.539252 12.163866 -11.760797 18.139399 1.077526 2.276220 0.014513 -0.012072 -1288650.000000 1 0 0
-1.092448 0.575566 -15.312397 15.362103 -0.484903 3.061127 0.005109 -0.002040 -948416.000000 1 0 0
-4.661148 -2.811934 -19.114897 19.874923 0.542821 2.864152 -0.009986 0.015036 38405.200000 1 0 0
5.703352 -12.091734 -14.039897 19.387031 -1.130066 2.380656 0.011412 0.007803 -123442.000000 1 0 0
2.095252 -4.696034 -14.053597 14.964839 -1.151128 2.790821 0.002073 0.002491 621676.000000 1 0 0
11.545752 2.336866 -15.535297 19.496430 0.199703 2.492823 -0.003031 -0.003775 241573.000000 1 0 0
9.538252 2.313466 -13.837597 16.964948 0.237951 2.524662 0.005458 -0.002870 372005.000000 1 0 0
-2.299548 -4.089734 -16.388297 17.046704 1.058579 2.862756 -0.007342 0.002573 -1487010.000000 1 0 0
-2.976648 10.187966 -14.340997 17.841504 -1.286536 2.504451 -0.011034 0.005934 93055.900000 1 0 0
3.414652 5.763966 -13.713697 15.262655 1.035974 2.687167 -0.004019 0.001363 -252915.000000 1 0 0
-5.366748 -2.526434 -16.641497 17.667039 0.439981 2.799193 -0.003356 0.012159 576759.000000 1 0 0
-4.490548 6.183866 -13.572397 15.576109 -0.942721 2.628764 -0.009052 0.005181 -1843880.000000 1 0 0
5.736852 -1.078834 -14.151597 15.308267 -0.185882 2.750365 0.003974 0.001165 -594741.000000 1 0 0
6.626652 -2.930934 -12.832097 14.736540 -0.416428 2.627557 0.003839 -0.003028 1356100.000000 1 0 0
2.846852 -3.093334 -18.437197 18.910407 -0.826868 2.917410 0.010388 -0.005780 65937.600000 1 0 0
7.353852 -12.041034 -12.128797 18.605735 -1.022523 2.280864 0.014727 0.006293 -702658.000000 1 0 0
-6.168148 -5.369834 -17.872097 19.654338 0.716318 2.712445 -0.000508 0.015360 406511.000000 1 0 0
0.412652 8.696166 -11.952297 14.786851 1.523380 2.512065 -0.001139 0.001501 397268.000000 1 0 0
0.271052 8.607066 -14.539197 16.898026 1.539315 2.606866 -0.000277 0.003805 428475.000000 1 0 0
7.648852 -2.325834 -15.192897 17.167951 -0.295192 2.657198 0.007956 -0.006035 -738240.000000 1 0 0
14.205752 1.582766 -9.025797 16.904838 0.110960 2.134024 -0.007513 0.008950 321461.000000 1 0 0
2.595752 10.804566 -14.299197 18.109213 1.335019 2.480968 -0.004935 0.000523 -245791.000000 1 0 0
5.971952 1.087766 -15.586597 16.726908 0.180171 2.770214 0.006723 -0.001585 377967.000000 1 0 0
16.418052 -5.525334 -10.662497 20.341352 -0.324634 2.122546 0.021011 -0.005540 498137.000000 1 0 0
4.758152 -4.156134 -11.316997 12.961014 -0.717967 2.632438 0.002121 0.001945 -234326.000000 1 0 0
8.871852 -3.730234 -17.007097 19.541385 -0.398017 2.626631 0.003789 -0.006403 330490.000000 1 0 0
13.287452 -9.598034 -9.094297 18.745263 -0.625561 2.077333 0.016279 -0.003060 670330.000000 1 0 0
2.231652 -7.586634 -13.646397 15.772173 -1.284710 2.616385 -0.000314 0.004520 -70725.500000 1 0 0
-7.059848 -2.071834 -18.629797 20.030059 0.285453 2.765459 -0.014325 0.019915 -1702830.000000 1 0 0
-1.514248 -6.463234 -15.750097 17.091866 1.340661 2.742713 -0.006026 0.002021 729758.000000 1 0 0
1.473452 -7.358934 -18.398297 19.870136 -1.373183 2.754279 0.004352 -0.002683 -105484.000000 1 0 0
5.152152 10.837966 -14.331297 18.692037 1.127038 2.444491 0.011978 -0.018434 -267335.000000 1 0 0
5.302752 -3.409034 -17.447397 18.551343 -0.571354 2.794873 0.016605 -0.001609 -254527.000000 1 0 0
3.808852 13.127766 -14.019397 19.580323 1.288412 2.368843 0.000633 -0.005170 189717.000000 1 0 0
8.357552 10.486466 -15.626897 20.591613 0.897897 2.432413 0.021256 -0.014752 58451.900000 1 0 0
2.344152 3.946066 -16.448397 17.076775 1.034765 2.869471 0.004400 -0.002688 458996.000000 1 0 0
16.448352 1.650066 -11.706597 20.256244 0.099983 2.186981 -0.007065 0.005065 -824213.000000 1 0 0
9.930852 -3.743434 -10.552797 14.966517 -0.360479 2.353352 0.017182 -0.004021 476724.000000 1 0 0
14.508552 -2.150434 -12.147897 19.044523 -0.147147 2.262523 0.004820 -0.001893 684634.000000 1 0 0
-2.839848 -8.579534 -16.078297 18.444099 1.251145 2.629521 -0.002546 0.005034 -174019.000000 1 0 0
13.852952 8.358766 -9.085997 18.556093 0.542910 2.082485 0.022414 -0.001245 622680.000000 1 0 0
-8.365948 0.107966 -16.438297 18.445009 -0.012905 2.670793 -0.021948 0.009377 139457.000000 1 0 0
-3.581048 3.830766 -15.929597 16.770531 -0.819077 2.823573 -0.002307 0.001594 1416190.000000 1 0 0
14.999952 4.148666 -9.689397 18.332877 0.269833 2.127659 0.003042 0.007809 387154.000000 1 0 0
5.182552 1.092166 -13.029697 14.065016 0.207700 2.755508 0.001510 0.001282 150814.000000 1 0 0
7.752952 -7.727134 -12.921897 16.934943 -0.783730 2.438787 0.014670 0.000132 -1943400.000000 1 0 0
3.127052 -6.020934 -11.911097 13.707820 -1.091778 2.623827 0.000681 0.003366 -1087880.000000 1 0 0
-3.532848 3.668266 -18.633297 19.316753 -0.804201 2.874789 0.004803 0.004337 -311256.000000 1 0 0
0.615652 5.209566 -17.861797 18.616186 1.453165 2.855936 -0.000748 -0.002071 -486442.000000 1 0 0
6.227252 7.194866 -10.354597 14.062803 0.857365 2.398398 -0.004339 -0.000075 91591.900000 1 0 0
9.580452 3.823666 -11.807097 15.678425 0.379740 2.423526 0.007103 0.003746 279601.000000 1 0 0
4.313052 1.647266 -17.540597 18.138038 0.364829 2.884217 0.009995 -0.006221 81443.300000 1 0 0
2.496252 8.118666 -13.319697 15.797415 1.272500 2.573924 -0.005064 0.000536 -1533290.000000 1 0 0
14.299652 -3.480534 -9.955297 17.768008 -0.238757 2.165536 0.019518 -0.002615 29057.200000 1 0 0
-1.577548 9.275766 -16.307297 18.827013 -1.402336 2.618273 -0.008382 0.008516 -1371860.000000 1 0 0
-5.436748 1.989366 -15.591497 16.631614 -0.350778 2.786061 -0.009975 0.004503 388477.000000 1 0 0
4.437752 4.365766 -12.054697 13.567213 0.777221 2.664899 -0.000303 -0.000146 200152.000000 1 0 0
8.937152 3.368166 -17.840697 20.236296 0.360411 2.650077 0.001894 0.000091 774468.000000 1 0 0
-4.274048 14.384766 -13.288197 20.044080 -1.281981 2.295547 -0.014459 0.001082 -437051.000000 1 0 0
15.572252 -4.787434 -8.238497 18.256160 -0.298263 2.038987 0.021204 -0.004239 -1574380.000000 1 0 0
0.961852 9.228266 -16.994097 19.361957 1.466942 2.641849 -0.006841 0.009394 -469866.000000 1 0 0
0.303752 -3.221734 -12.795597 13.198452 -1.476792 2.893885 0.003705 -0.000181 -87781.300000 1 0 0
7.322252 3.583466 -13.186997 15.503338 0.455127 2.587904 0.001580 0.004776 -588860.000000 1 0 0
-3.209348 7.606266 -15.112097 17.220066 -1.171525 2.641601 -0.007210 0.008437 379769.000000 1 0 0
12.045152 -5.182234 -11.114397 17.189271 -0.406296 2.273901 0.024150 -0.007119 -725735.000000 1 0 0
0.634252 -4.355234 -20.171197 20.645763 -1.426183 2.926768 0.011528 -0.005841 493020.000000 1 0 0
3.209552 -4.314934 -16.214497 17.083026 -0.931260 2.821348 0.007158 -0.002407 270399.000000 1 0 0
-5.762248 4.111966 -14.293697 15.950597 -0.619798 2.681752 -0.012371 0.003670 703874.000000 1 0 0
12.072652 -7.505034 -10.023597 17.393877 -0.556191 2.184956 0.017075 -0.004354 -360650.000000 1 0 0
-2.106148 -1.748734 -14.935097 15.183907 0.692945 2.960312 0.004480 0.000607 235756.000000 1 0 0
6.933352 5.860266 -14.339997 16.972024 0.701717 2.577211 0.010255 0.000209 -762668.000000 1 0 0
4.021052 -5.392834 -18.494597 19.679980 -0.930099 2.792744 0.011847 -0.008129 157386.000000 1 0 0
7.439452 7.543166 -12.439497 16.339702 0.792320 2.436120 0.006039 -0.001062 -680342.000000 1 0 0
12.209252 -2.531734 -11.074497 16.676930 -0.204464 2.297033 0.020688 -0.005365 -2644700.000000 1 0 0
7.262852 -0.669134 -10.720297 12.966168 -0.091872 2.544173 0.002396 0.000081 -1667430.000000 1 0 0
5.162352 4.044866 -14.604197 16.009165 0.664618 2.719515 0.001547 0.001007 351906.000000 1 0 0
14.664452 3.008266 -13.067197 19.870768 0.202333 2.288437 -0.004201 -0.004103 -280818.000000 1 0 0
-6.829648 6.610766 -15.719797 18.370039 -0.769114 2.597757 -0.006469 0.007885 435352.000000 1 0 0
-11.444748 3.779466 -16.355097 20.316393 -0.318960 2.506505 -0.001715 0.003901 81500.500000 1 0 0
-5.148948 6.536266 -17.837197 19.682480 -0.903569 2.705118 -0.008658 0.011769 -150464.000000 1 0 0
-10.195648 1.692466 -15.472997 18.607238 -0.164499 2.552703 -0.015404 0.005073 -394538.000000 1 0 0
-7.678348 5.810566 -18.017697 20.429320 -0.647805 2.650786 -0.022861 0.014381 -274114.000000 1 0 0
-8.942948 3.985066 -15.631097 18.444193 -0.419197 2.582017 -0.017361 0.015100 -940207.000000 1 0 0
8.841952 13.404666 -11.806197 19.931168 0.987690 2.204767 0.031442 -0.029643 -1242090.000000 1 0 0
13.463952 9.211266 -11.493897 19.955828 0.600004 2.184583 0.018997 -0.011820 157344.000000 1 0 0
8.224152 15.985266 -9.206797 20.197289 1.095629 2.044116 0.028037 -0.014675 -144757.000000 1 0 0
7.116952 13.580666 -13.763197 20.603666 1.088094 2.302311 0.020726 -0.015844 88845.700000 1 0 0
4.478652 16.134666 -12.345297 20.803656 1.300034 2.206097 0.019153 -0.015031 741419.000000 1 0 0
10.911752 10.917766 -11.666997 19.348973 0.785674 2.218025 0.030661 -0.011526 189872.000000 1 0 0
15.470252 10.063366 -10.149697 21.062202 0.576725 2.073608 0.024204 0.004956 -833465.000000 1 0 0
13.112452 10.861566 -9.452197 19.474445 0.691784 2.077576 0.042259 -0.005628 445395.000000 1 0 0
10.230852 11.893566 -8.558597 17.871117 0.860410 2.070205 0.015173 0.000550 216362.000000 1 0 0
5.274052 16.307066 -9.915997 19.800581 1.257993 2.095311 0.011199 -0.014670 -551774.000000 1 0 0
6.660052 14.765266 -11.540997 19.888790 1.147059 2.189864 0.019410 -0.007564 -91158.100000 1 0 0
10.721252 14.106066 -9.788397 20.242012 0.920897 2.075523 0.031529 -0.008250 -377823.000000 1 0 0
8.155152 -18.711234 -1.459397 20.463300 -1.159778 1.642175 0.014243 0.012283 -311186.000000 1 0 0
7.654452 -17.299934 -3.662597 19.268964 -1.154234 1.762037 0.031737 -0.002874 -291079.000000 1 0 0
4.487652 -18.663034 5.811903 20.055575 -1.334820 1.276789 0.016539 0.013874 85470.100000 1 0 0
9.917752 -17.100634 -2.506797 19.926804 -1.045239 1.696931 0.025008 -0.002456 -751294.000000 1 0 0
-9.717948 -12.118434 -9.933397 18.438203 0.894889 2.139737 0.009175 -0.010462 -907972.000000 1 0 0
-5.329248 -6.926934 -12.218297 15.022319 0.915025 2.520672 0.002972 0.005288 981792.000000 1 0 0
-10.747448 -9.541134 -5.576497 15.415518 0.726010 1.940936 0.007574 -0.002572 -1808100.000000 1 0 0
-4.668448 -11.478634 -14.064097 18.744393 1.184521 2.419326 0.004316 0.002592 -68914.500000 1 0 0
-2.816548 -15.395534 7.416403 17.319309 1.389852 1.128279 -0.006398 0.000066 -48855.300000 1 0 0
-4.830048 -11.887834 -11.473097 17.212842 1.184869 2.300358 -0.005065 0.002799 97661.600000 1 0 0
-14.276848 -12.894334 -4.196497 19.690171 0.734560 1.785570 -0.009416 0.007284 -188782.000000 1 0 0
-3.303048 -12.192134 -3.283797 13.051498 1.306231 1.825133 0.007026 -0.005133 496063.000000 1 0 0
-2.477548 -17.325234 -1.621397 17.576431 1.428757 1.663176 0.000263 -0.007624 -585637.000000 1 0 0
-5.729448 -12.098134 3.731403 13.896575 1.128506 1.298948 0.004306 -0.000828 633575.000000 1 0 0
-8.871848 -10.648034 -11.925797 18.284282 0.876142 2.281336 0.002035 0.004263 1374460.000000 1 0 0
-10.060948 -11.961834 -7.323497 17.260990 0.871499 2.008963 0.000635 -0.008169 -23387.800000 1 0 0
-10.771448 -15.017934 6.194903 19.492031 0.948594 1.247370 0.000060 -0.006556 -990136.000000 1 0 0
-9.478448 -15.365134 0.847603 18.073372 1.018057 1.523881 -0.003380 0.002869 -2846120.000000 1 0 0
-14.949748 -7.645934 -7.919097 18.565220 0.472760 2.011477 -0.001098 -0.001335 157106.000000 1 0 0
-2.334448 -16.373134 5.082403 17.302023 1.429173 1.272653 -0.001354 -0.005676 -467279.000000 1 0 0
4.369052 -16.158234 5.377903 17.581212 -1.306719 1.259924 0.011835 -0.002168 93933.300000 1 0 0
4.037152 -14.612834 -10.089897 18.210973 -1.301246 2.158025 -0.001230 0.008538 130105.000000 1 0 0
-7.510148 -14.025034 -0.211097 15.910640 1.079168 1.584064 0.001535 -0.002482 1095320.000000 1 0 0
2.875652 -14.641134 9.521903 17.700250 -1.376856 1.002789 0.006531 -0.016728 -147072.000000 1 0 0
2.626152 -17.213934 10.207003 20.184131 -1.419404 1.040610 0.019367 -0.009094 -483865.000000 1 0 0
-8.282048 -17.141634 -5.565097 19.834270 1.120716 1.855195 -0.002988 0.003528 -494461.000000 1 0 0
-6.539048 -9.130234 -7.601197 13.560919 0.949282 2.165813 0.005941 -0.001822 230808.000000 1 0 0
-6.143148 -13.000734 -4.782297 15.153472 1.129371 1.891876 0.000099 -0.009638 259867.000000 1 0 0
2.137952 -19.386034 -4.704097 20.062844 -1.460957 1.807468 0.007062 -0.012996 -22769.400000 1 0 0
-5.337748 -12.909934 8.314303 16.256863 1.178740 1.033944 -0.002694 0.000798 882195.000000 1 0 0
2.185052 -17.549034 3.332203 17.995740 -1.446923 1.384555 0.006395 -0.008743 523614.000000 1 0 0
-17.747048 -10.183034 -2.174497 20.576208 0.520923 1.676674 0.013311 0.002092 462419.000000 1 0 0
-3.510448 -15.455034 2.507103 16.045775 1.347446 1.413907 -0.000029 -0.001759 102101.000000 1 0 0
-10.204348 -10.446834 -14.095597 20.296574 0.797140 2.338495 0.003622 -0.000847 -276009.000000 1 0 0
6.020152 -14.652734 -5.702197 16.836267 -1.180967 1.916316 0.002654 -0.004600 61149.600000 1 0 0
-7.328548 -12.203434 -10.597197 17.746324 1.029986 2.210738 -0.000898 -0.006037 -2166760.000000 1 0 0
-7.173048 -14.171334 3.731303 16.315697 1.102228 1.340060 0.003698 0.001612 879527.000000 1 0 0
3.211352 -14.963334 -3.159697 15.626831 -1.359388 1.774397 0.007971 -0.008507 -929570.000000 1 0 0
-7.415948 -11.335634 7.726703 15.594705 0.991463 1.052421 -0.002444 -0.001895 212409.000000 1 0 0
-12.722148 -12.175034 -0.945697 17.634593 0.763427 1.624449 -0.012204 0.007662 -208567.000000 1 0 0
-1.912048 -13.634034 4.003303 14.337687 1.431464 1.287819 -0.006995 0.000305 -4042620.000000 1 0 0
-3.092648 -13.876134 5.232103 15.148811 1.351505 1.218152 -0.007952 -0.000527 -70768.300000 1 0 0
-14.367048 -10.279434 -4.392497 18.203650 0.621044 1.814499 -0.004364 -0.000793 743021.000000 1 0 0
-6.236948 -8.544434 -10.299197 14.764157 0.940256 2.342812 -0.001680 0.000769 338852.000000 1 0 0
0.766552 -19.614334 2.378603 19.772897 -1.531735 1.450208 0.011085 -0.006358 205313.000000 1 0 0
6.286052 -14.089134 -8.208497 17.475628 -1.151138 2.059760 0.006021 0.002318 -3397670.000000 1 0 0
-4.020948 -16.721134 -5.940597 18.194918 1.334806 1.903392 -0.007135 -0.002932 -31406.200000 1 0 0
-3.716048 -13.577434 -13.127597 19.248105 1.303646 2.321318 -0.000924 0.002031 -1967090.000000 1 0 0
-8.236448 -14.645734 -4.392297 17.367466 1.058499 1.826477 -0.003924 -0.007562 -1455150.000000 1 0 0
-4.413748 -14.401834 10.126903 18.150707 1.273413 0.978902 -0.009510 0.002472 -1000000.000000 1 0 0
-0.371448 -12.117534 -9.948997 15.682957 1.540152 2.258006 0.000436 0.004707 910763.000000 1 0 0
2.435952 -17.228834 6.802303 18.682557 -1.430339 1.198131 0.010937 -0.007803 -967516.000000 1 0 0
-2.965648 -19.159534 -3.368897 19.678219 1.417228 1.742843 -0.004340 -0.002050 -314841.000000 1 0 0
0.589952 -15.370834 -3.129997 15.697372 -1.532434 1.771538 0.007602 -0.008701 210654.000000 1 0 0
6.078252 -17.832134 0.425503 18.844395 -1.242288 1.548215 0.017206 -0.011605 -484405.000000 1 0 0
-6.898948 -16.670134 3.789103 18.434917 1.178407 1.363781 -0.001604 0.001373 276980.000000 1 0 0
-5.305748 -13.413034 -9.499497 17.271389 1.194118 2.153177 -0.008719 -0.002338 -85571.800000 1 0 0
5.649052 -15.292534 -2.220497 16.453085 -1.216945 1.706169 0.008659 -0.003813 -703215.000000 1 0 0
-8.936248 -10.178134 -0.427197 13.551142 0.850278 1.602326 -0.001421 -0.001619 -23873.800000 1 0 0
-7.611448 -18.103034 -3.015197 19.868201 1.172785 1.723145 0.004644 -0.005027 495778.000000 1 0 0
7.871652 -16.052834 -1.275997 17.924413 -1.114891 1.642044 0.014563 -0.002357 -255119.000000 1 0 0
-8.179848 -10.018334 -9.448897 16.017446 0.886082 2.201747 0.004340 -0.001932 -945630.000000 1 0 0
-9.126448 -14.991734 -6.884197 18.853019 1.023957 1.944591 -0.004746 -0.005375 -347974.000000 1 0 0
-11.556248 -10.570434 -11.961697 19.706931 0.740874 2.223050 0.017432 0.007248 569240.000000 1 0 0
6.537552 -16.203234 2.392903 17.635486 -1.187300 1.434690 0.011393 -0.008948 -364249.000000 1 0 0
-2.161548 -11.141434 -6.197997 12.931319 1.379167 2.070655 0.007535 -0.001006 -463702.000000 1 0 0
-12.365948 -15.337534 -3.299397 19.976052 0.892254 1.736724 -0.012572 0.004478 -269366.000000 1 0 0
-0.446848 -19.829034 -2.938097 20.050504 1.548265 1.717861 0.012311 -0.002697 -165005.000000 1 0 0
-5.907548 -15.502534 -4.708597 17.245248 1.206715 1.847345 -0.009568 -0.007415 -2908190.000000 1 0 0
1.908152 -15.854234 -1.024297 16.001468 -1.451016 1.634853 0.012049 -0.010236 661919.000000 1 0 0
-13.269348 -11.841834 5.249903 18.543628 0.728612 1.283760 0.014158 0.001910 120197.000000 1 0 0
2.000452 -15.392034 -8.864097 17.874248 -1.441554 2.089684 -0.000761 0.011142 -536782.000000 1 0 0
-11.612548 -16.712934 0.418403 20.355552 0.963553 1.550240 -0.012823 0.006204 222791.000000 1 0 0
-8.164948 -16.330034 -1.307597 18.304268 1.107152 1.642294 -0.002941 -0.003539 237262.000000 1 0 0
-3.009848 -14.424134 -1.750497 14.838433 1.365081 1.689042 0.005114 -0.006822 584606.000000 1 0 0
-2.023648 -10.437534 -13.234097 16.975824 1.379290 2.464799 -0.001099 0.006228 -229430.000000 1 0 0
1.526352 -19.439534 4.907603 20.107457 -1.492439 1.324237 0.009401 -0.010813 22473.100000 1 0 0
-17.378248 -9.243034 2.557803 19.848918 0.488820 1.441573 -0.000319 0.009680 -211201.000000 1 0 0
-2.701748 -15.709634 -8.036397 17.851491 1.400482 2.037764 -0.006764 0.001385 -1519360.000000 1 0 0
-10.488848 -12.143934 0.322003 16.049759 0.858396 1.550732 -0.001923 0.004536 252118.000000 1 0 0
-6.947448 -11.456834 -6.506297 14.894898 1.025683 2.022850 -0.000925 -0.005087 -81747.100000 1 0 0
-2.187248 -13.605134 -6.612697 15.284355 1.411394 2.018221 -0.006569 -0.000853 536857.000000 1 0 0
-14.325448 -14.379334 -1.019497 20.322970 0.787275 1.620982 -0.001753 0.012876 257745.000000 1 0 0
-9.485548 -11.440234 -4.406097 15.500590 0.878538 1.859024 0.002325 -0.004887 1003290.000000 1 0 0
9.443052 -15.192534 -5.188797 18.625465 -1.014675 1.853118 0.016261 -0.004992 185753.000000 1 0 0
-5.675048 -10.824334 -9.273797 15.341959 1.087909 2.219900 -0.001712 0.000110 -54910.200000 1 0 0
-10.357348 -16.028434 -4.833397 19.686216 0.997107 1.818854 -0.007660 0.001391 -1311670.000000 1 0 0
2.131752 -17.356934 -3.156797 17.770000 -1.448590 1.749392 0.014100 -0.007704 448349.000000 1 0 0
-0.317248 -14.430134 -8.107697 16.554884 1.548815 2.082595 -0.000924 0.001715 -1269330.000000 1 0 0
-0.646548 -18.274734 -7.177997 19.644531 1.535432 1.944853 -0.003428 -0.001957 17000.200000 1 0 0
-1.970148 -10.070234 -10.608597 14.759181 1.377596 2.372842 0.002926 0.003585 10608.400000 1 0 0
-5.054148 -17.347334 1.975503 18.176277 1.287294 1.461895 -0.000984 -0.003619 36004.900000 1 0 0
0.251052 -12.800434 -2.684097 13.081228 -1.551186 1.777451 0.003174 -0.004518 -1970890.000000 1 0 0
2.692052 -15.068934 3.043503 15.607141 -1.394012 1.374532 0.008756 -0.004860 -665744.000000 1 0 0
-9.342048 -13.067034 6.901803 17.483024 0.950119 1.164977 0.000348 0.001681 -143505.000000 1 0 0
-1.057148 -17.792934 -4.586897 18.405046 1.511452 1.822671 -0.000649 -0.010362 -30476.200000 1 0 0
-10.061548 -17.811334 -2.200797 20.574788 1.056589 1.677967 -0.001891 0.008643 -1275920.000000 1 0 0
1.331852 -16.098434 1.384803 16.212683 -1.488253 1.485277 0.006905 -0.010813 413304.000000 1 0 0
-0.374148 -17.944934 4.121103 18.415867 1.549950 1.345105 0.014306 -0.011989 -21169.500000 1 0 0
-17.315348 -9.085234 0.020203 19.554109 0.483206 1.569763 -0.007016 0.005908 746153.000000 1 0 0
-14.859548 -7.647834 -10.394497 19.680983 0.475318 2.127216 0.006152 0.000375 637185.000000 1 0 0
2.666552 -12.683534 -8.775397 15.652161 -1.363577 2.165968 -0.007475 0.003524 541398.000000 1 0 0
-11.817448 -14.537834 1.835503 18.824712 0.888254 1.473136 -0.007996 0.007614 282491.000000 1 0 0
-2.088648 -15.546134 10.540303 18.898221 1.437244 0.979135 -0.007652 -0.000586 -167126.000000 1 0 0
-7.061248 -16.057034 1.128403 17.577340 1.156490 1.506556 0.000360 0.001498 -1199310.000000 1 0 0
-12.507448 -15.187834 -5.941097 20.552450 0.881879 1.864052 -0.004151 0.006948 626594.000000 1 0 0
0.878652 -13.769034 -5.067297 14.698158 -1.507069 1.922777 0.000420 -0.004796 298475.000000 1 0 0
5.598152 -16.455934 -7.466597 18.917906 -1.242887 1.976520 0.013906 -0.005486 138440.000000 1 0 0
-6.368348 -12.820334 5.961003 15.506463 1.109762 1.176216 0.004304 -0.000493 616998.000000 1 0 0
-2.525548 -13.567034 0.580703 13.812315 1.386750 1.528742 0.007862 -0.004638 190130.000000 1 0 0
-4.337048 -15.483734 0.193603 16.080843 1.297692 1.558757 0.001642 -0.005384 158693.000000 1 0 0
-17.715248 -7.514034 -2.159497 19.363733 0.401156 1.682552 -0.003451 0.004325 765667.000000 1 0 0
1.117052 -12.794334 -11.985797 17.567075 -1.483709 2.321683 -0.004053 0.010779 -506307.000000 1 0 0
1.263252 -17.131334 -5.689397 18.095515 -1.497190 1.890631 0.008340 -0.005054 -1350980.000000 1 0 0
-12.876648 -6.396834 -8.930397 16.925707 0.461067 2.126597 0.007962 0.001369 846806.000000 1 0 0
-11.439148 -13.678034 -8.746997 19.860833 0.874301 2.026857 0.002139 -0.009527 607890.000000 1 0 0
-4.270548 -9.758834 3.647703 11.259581 1.158295 1.240879 0.004140 -0.000573 -3040160.000000 1 0 0
-6.948548 -14.289034 9.685503 18.608272 1.118181 1.023366 -0.000423 -0.001600 -966698.000000 1 0 0
-5.243248 -15.785934 -8.071297 18.488732 1.250114 2.022559 -0.014526 -0.007276 -1850690.000000 1 0 0
-0.318448 -13.460234 2.085103 13.624499 1.547142 1.417152 0.000468 -0.005649 303528.000000 1 0 0
-10.981748 -13.446334 -4.622297 17.965754 0.885949 1.831007 -0.000120 -0.000776 -1339480.000000 1 0 0
-9.612148 -10.466934 6.689303 15.706587 0.827943 1.130849 0.004098 -0.003666 -117345.000000 1 0 0
-15.410448 -8.034134 -4.757697 18.018460 0.480576 1.838011 0.004022 0.001081 -1666990.000000 1 0 0
-14.425648 -7.302834 5.518103 17.084501 0.468627 1.241910 0.002545 0.001664 786459.000000 1 0 0
-1.594148 -19.279334 -0.046897 19.345187 1.488297 1.573221 0.011411 -0.004905 -303737.000000 1 0 0
-15.216148 -11.981234 -1.410197 19.418285 0.667012 1.643482 -0.011576 0.012765 -13661.900000 1 0 0
-4.419648 -12.099734 -6.699197 14.519508 1.220585 2.050361 0.000849 -0.001821 292404.000000 1 0 0
-7.466848 -18.427534 2.069203 19.990234 1.185815 1.467100 0.000073 -0.000159 -113713.000000 1 0 0
-2.509848 -11.853934 -8.651797 14.888542 1.362147 2.190881 0.000342 0.004145 -81091.500000 1 0 0
-1.498448 -20.257434 -5.249697 20.980189 1.496961 1.823705 -0.002515 0.002650 -162577.000000 1 0 0
-5.375548 -8.910834 -14.000297 17.444420 1.027983 2.502380 -0.004199 0.008664 211323.000000 1 0 0
-8.229248 -18.849134 -0.596897 20.575876 1.159154 1.599810 -0.010911 -0.000979 156207.000000 1 0 0
-16.946248 -7.113834 5.868703 19.293098 0.397448 1.261712 -0.000205 0.002977 20712.600000 1 0 0
-3.627948 -14.611834 -4.291097 15.655070 1.327429 1.848453 -0.001045 -0.007116 -2413040.000000 1 0 0
-3.119148 -14.971434 -10.916997 18.789725 1.365395 2.190764 -0.006984 0.003186 -8283.730000 1 0 0
-0.058448 -16.613834 6.274403 17.759252 1.567278 1.209697 0.008536 -0.009494 -1960450.000000 1 0 0
-11.080448 -11.497634 3.946103 16.448211 0.803874 1.328522 -0.001769 0.002830 -222103.000000 1 0 0
-0.190548 -14.614734 -0.194697 14.617273 1.557759 1.584116 0.008982 -0.005017 231543.000000 1 0 0
-7.302148 -9.468934 -2.336497 12.183649 0.913884 1.763765 0.006097 -0.004120 -673480.000000 1 0 0
-11.257348 -14.384534 -0.708597 18.279629 0.906755 1.609570 -0.010013 0.002203 -245480.000000 1 0 0
0.207352 -14.620434 -10.606397 18.063658 -1.556615 2.198352 -0.003197 0.004835 -88016.300000 1 0 0
-1.452548 -14.054634 -3.846297 14.643655 1.467812 1.836574 0.001025 -0.005159 -3633260.000000 1 0 0
-11.412348 -8.124334 -7.600297 15.937723 0.618661 2.067892 0.008754 -0.000356 574002.000000 1 0 0
-0.255148 -17.201634 -0.486797 17.210413 1.555965 1.599085 0.012936 -0.004855 23067.600000 1 0 0
-12.760148 -9.422034 4.619003 16.520633 0.636033 1.287429 0.003408 0.000098 190711.000000 1 0 0
3.991452 -16.783234 1.465903 17.313507 -1.337310 1.486027 0.013459 -0.011831 341962.000000 1 0 0
-3.932448 -17.990134 -8.141797 20.134496 1.355592 1.987087 -0.016889 0.000361 -133391.000000 1 0 0
-13.306648 -11.131234 2.682103 17.554627 0.696614 1.417409 -0.005937 0.006384 -60146.900000 1 0 0
-8.495748 -12.149434 4.239403 15.419437 0.960560 1.292270 0.002779 -0.000894 2063560.000000 1 0 0
-8.277348 -9.398734 -5.739197 13.776396 0.848754 2.000494 0.008817 -0.004158 -882260.000000 1 0 0
3.759552 -17.461834 -5.237697 18.614063 -1.358732 1.856032 0.004138 0.001285 204840.000000 1 0 0
-2.486648 -13.063034 11.346903 17.480804 1.382689 0.864387 -0.010117 -0.005353 262450.000000 1 0 0
-0.080048 -16.807934 -9.456297 19.285606 1.566034 2.083264 -0.003083 0.005395 -595033.000000 1 0 0
-7.140248 -10.742434 -14.559097 19.451230 0.984173 2.416582 -0.003775 0.009518 -1079110.000000 1 0 0
-4.689348 -18.779534 -1.464297 19.411467 1.326095 1.646303 0.003066 -0.007712 78489.200000 1 0 0
-2.469048 -17.143834 1.043003 17.352093 1.427760 1.510652 0.007267 -0.010222 -687429.000000 1 0 0
3.862652 -14.624734 -7.386197 16.833266 -1.312575 2.025043 -0.000833 0.001007 254233.000000 1 0 0
-0.955348 -15.905034 -6.211797 17.101732 1.510803 1.942525 -0.002511 -0.002607 -70118.000000 1 0 0
-9.264048 -15.339234 8.199803 19.706635 1.027481 1.141651 -0.008482 0.002278 -351066.000000 1 0 0
-7.205748 -11.960034 -1.649997 14.060147 1.028551 1.688420 0.000958 -0.005609 1057160.000000 1 0 0
-7.341648 -15.001334 -9.375097 19.152866 1.115665 2.082299 -0.005533 -0.004604 297581.000000 1 0 0
-4.991048 -13.130034 -0.562997 14.057928 1.207541 1.610855 0.005968 -0.003931 764800.000000 1 0 0
-6.458148 -13.724934 -7.276197 16.823333 1.130992 2.018067 -0.006263 -0.006222 242340.000000 1 0 0
5.754852 -15.297234 0.240803 16.345693 -1.210972 1.556064 0.010152 -0.004341 55434.500000 1 0 0
-14.396748 -12.729934 0.979103 19.242563 0.724030 1.519892 -0.012548 0.010202 844366.000000 1 0 0
0.917752 -15.502534 11.113403 19.096559 -1.511665 0.949661 0.008923 -0.000447 -217442.000000 1 0 0
-9.235048 -10.828634 2.055403 14.379504 0.864658 1.427365 0.002678 0.001013 -310422.000000 1 0 0
-9.452548 -8.978634 -3.414697 13.476895 0.759691 1.826963 0.006406 -0.004489 -296170.000000 1 0 0
-12.304448 -6.982334 -12.319897 18.759859 0.516153 2.287252 0.002716 0.003079 564714.000000 1 0 0
-13.242848 -8.408134 -0.519397 15.695207 0.565700 1.603895 -0.000063 0.000083 377459.000000 1 0 0
-11.238848 -9.727634 0.725003 14.881674 0.713445 1.522059 0.001696 0.000651 251191.000000 1 0 0
-15.646248 -12.077234 3.177403 20.019005 0.657366 1.411403 -0.006769 0.012912 -66287.700000 1 0 0
-10.373248 -12.497034 -2.228397 16.393471 0.877995 1.707150 -0.003778 0.001062 338301.000000 1 0 0
-3.451148 -8.739734 -12.111697 15.329272 1.194711 2.481773 0.001247 0.003473 -811411.000000 1 0 0
-0.248848 -15.521434 3.771303 15.974967 1.554765 1.332471 0.007465 -0.004632 -723595.000000 1 0 0
-15.628048 -7.613634 1.271703 17.430449 0.453337 1.497773 -0.010427 0.004144 552139.000000 1 0 0
-6.233548 -13.410034 -13.221697 19.836820 1.135669 2.300331 0.002395 -0.000079 -88348.200000 1 0 0
-15.371948 -10.247234 1.196903 18.513108 0.587970 1.506100 0.000818 0.006538 -269354.000000 1 0 0
-10.035248 -8.366734 -12.495197 18.078672 0.694975 2.333885 0.007141 0.005570 351412.000000 1 0 0
-13.166648 -11.715634 -6.185997 18.678417 0.727149 1.908355 0.001913 -0.000368 -269936.000000 1 0 0
-12.128348 -11.396434 -3.713497 17.051850 0.754296 1.790332 -0.003016 -0.000252 -1480700.000000 1 0 0
-11.902648 -11.101334 -9.025497 18.611079 0.750579 2.077106 0.007736 -0.005334 139987.000000 1 0 0
-13.076048 -8.441934 -5.750197 16.592590 0.573278 1.924689 -0.002069 -0.000500 -2444020.000000 1 0 0
-13.450248 -8.094134 -3.123597 16.005657 0.541730 1.767213 0.006469 -0.003950 446236.000000 1 0 0
-4.449748 -16.978334 -3.319897 17.862973 1.314477 1.757737 -0.003191 -0.006703 230968.000000 1 0 0
-15.477348 -8.901234 -1.734097 17.938433 0.521920 1.667617 0.002111 0.004768 -2111280.000000 1 0 0
-9.224548 -15.637334 3.600503 18.508975 1.037832 1.375021 -0.003228 0.002843 -1599020.000000 1 0 0
4.881052 -16.958034 7.765703 19.279672 -1.290541 1.156231 0.023768 -0.034166 232529.000000 1 0 0
-8.214248 -15.409834 5.911603 18.435941 1.081058 1.244374 0.001809 0.001215 -78261.200000 1 0 0
0.890652 -16.051034 8.584403 18.224186 -1.515364 1.080322 0.006524 -0.006055 426328.000000 1 0 0
-11.006348 -7.809534 -10.157397 16.890863 0.617105 2.215992 0.007271 0.005456 728885.000000 1 0 0
-4.805648 -15.923634 5.795903 17.613883 1.277695 1.235496 -0.003930 -0.000707 -205160.000000 1 0 0
-1.431048 -13.225334 -12.063197 17.957675 1.463011 2.307375 -0.002688 0.004671 -1470360.000000 1 0 0
-6.439448 -14.236034 -2.504897 15.824212 1.146003 1.729760 -0.001370 -0.008666 313787.000000 1 0 0
-17.808448 -7.056634 -6.698997 20.293188 0.377271 1.907217 0.003015 -0.003858 -53441.200000 1 0 0
-17.185248 -4.098134 -10.073097 20.337029 0.234096 2.088986 -0.011680 0.000070 -60838.400000 1 0 0
-15.378848 -5.412934 -9.032197 18.638385 0.338431 2.076704 -0.006406 0.001515 -159125.000000 1 0 0
-16.145148 -5.376734 -5.484297 17.878831 0.321473 1.882571 0.000349 0.002873 -640281.000000 1 0 0
-15.296148 -4.550534 -12.302197 20.150026 0.289157 2.227526 0.000428 0.006026 -34375.700000 1 0 0
-18.681548 -4.963834 -5.329297 20.050967 0.259707 1.839817 -0.014463 -0.000480 -234703.000000 1 0 0
-17.503948 -4.621934 -7.593597 19.631943 0.258159 1.967953 -0.013547 0.003226 715091.000000 1 0 0
12.272152 -8.041134 8.637203 17.025476 -0.580046 1.038735 0.008454 -0.006654 296759.000000 1 0 0
15.992052 -3.483534 1.676703 16.452722 -0.214479 1.468709 0.002073 -0.001855 204403.000000 1 0 0
12.001052 -2.147634 12.365403 17.364930 -0.177079 0.778325 0.004825 -0.000831 43465.400000 1 0 0
9.590052 -10.132834 5.226403 14.898279 -0.812912 1.212365 0.003537 -0.004684 -168102.000000 1 0 0
16.919052 -2.174034 7.093303 18.474190 -0.127796 1.176718 0.012556 -0.009144 -204219.000000 1 0 0
5.459252 -12.962534 9.047403 16.723822 -1.172186 0.999184 -0.001301 -0.000774 -161053.000000 1 0 0
15.064552 -9.112534 -2.269197 17.751852 -0.544014 1.698976 0.000142 0.001247 419764.000000 1 0 0
11.006052 -8.573234 6.463903 15.375811 -0.661777 1.136916 0.007418 -0.008646 -3109460.000000 1 0 0
20.095252 -2.991834 3.482203 20.613005 -0.147797 1.401050 0.005335 -0.004100 165611.000000 1 0 0
13.458452 -8.706334 6.549703 17.315565 -0.574196 1.182886 0.003428 -0.008248 -924646.000000 1 0 0
8.316752 -11.193734 8.746103 16.460935 -0.931801 1.010633 -0.002653 -0.004836 -2601790.000000 1 0 0
16.807352 0.050866 -0.844997 16.828657 0.003026 1.621029 0.001120 0.007278 -909172.000000 1 0 0
12.459052 -12.465834 2.220003 17.763823 -0.785670 1.445495 0.000412 -0.003249 -1216540.000000 1 0 0
10.472752 -11.664734 3.533003 16.069433 -0.839191 1.349127 0.001444 -0.005719 -1638570.000000 1 0 0
16.201652 2.981266 2.293103 16.632492 0.181974 1.432487 -0.006237 0.003587 -282651.000000 1 0 0
18.284852 -3.273034 0.454103 18.581033 -0.177127 1.546355 -0.003185 -0.000271 417950.000000 1 0 0
13.575852 -11.785134 -0.318497 17.980395 -0.714906 1.588511 0.011795 0.001403 -221319.000000 1 0 0
16.918052 -7.635034 -0.973297 18.586596 -0.423930 1.623186 0.009367 -0.000143 975166.000000 1 0 0
10.210952 -5.919034 9.641903 15.240236 -0.525341 0.885812 0.004163 -0.000145 -1161030.000000 1 0 0
11.356252 -13.326334 5.830503 18.454008 -0.865046 1.249341 -0.001220 -0.007645 168115.000000 1 0 0
13.155852 -1.981134 10.134003 16.724215 -0.149467 0.919839 0.017507 -0.002815 1077580.000000 1 0 0
15.577652 -2.189534 -1.542697 15.806240 -0.139641 1.668552 0.004482 0.002542 -424634.000000 1 0 0
10.487052 -12.640734 8.842303 18.653492 -0.878251 1.076935 -0.001387 -0.009320 286193.000000 1 0 0
14.531152 1.168766 3.239103 14.933592 0.080259 1.352158 0.006677 0.001620 1360940.000000 1 0 0
14.846652 -5.968734 5.127003 16.802828 -0.382251 1.260724 0.000987 -0.005712 -783423.000000 1 0 0
14.188152 -3.304234 -3.229197 14.921439 -0.228808 1.788935 0.005519 0.001158 1460570.000000 1 0 0
14.110052 0.490066 9.438103 16.982683 0.034718 0.981533 0.020353 -0.006937 182311.000000 1 0 0
15.458052 -3.518734 4.285003 16.422366 -0.223817 1.306816 0.005188 -0.003250 230513.000000 1 0 0
18.473252 4.810766 -4.422997 19.595086 0.254759 1.798478 -0.026442 0.013789 530500.000000 1 0 0
18.037452 -5.801734 -5.465797 19.720160 -0.311198 1.851642 0.023069 -0.002409 739427.000000 1 0 0
17.204952 -0.075234 5.717203 18.130153 -0.004373 1.249979 0.008400 -0.007836 187752.000000 1 0 0
16.952552 -6.659234 3.837703 18.613500 -0.374298 1.363128 -0.004258 -0.004455 -160725.000000 1 0 0
9.663652 -6.904734 14.194603 18.508060 -0.620395 0.696735 -0.008758 -0.000495 -1069820.000000 1 0 0
8.668952 -12.439634 5.059103 15.984047 -0.962166 1.248749 -0.000526 -0.010209 -1553210.000000 1 0 0
16.805452 -10.248034 -0.727997 19.697091 -0.547597 1.607764 0.000603 0.004295 55469.700000 1 0 0
14.876252 -8.835434 0.250003 17.304054 -0.535943 1.556348 0.008065 -0.004048 -101914.000000 1 0 0
9.995052 -13.004734 1.501503 16.470540 -0.915516 1.479507 0.007808 -0.006676 -307408.000000 1 0 0
16.853852 -8.256234 8.645703 20.663154 -0.455513 1.139101 -0.000805 -0.005261 390646.000000 1 0 0
19.023652 -0.002334 -2.269497 19.158548 -0.000123 1.689534 -0.004600 0.010943 -113743.000000 1 0 0
13.406352 -1.295434 7.627603 15.478655 -0.096329 1.055512 0.016625 -0.005113 86072.500000 1 0 0
12.782952 -9.849534 -3.254797 16.462408 -0.656506 1.769818 0.009964 0.000665 -1455580.000000 1 0 0
8.794652 -15.191934 1.331903 17.604395 -1.046034 1.495067 0.007932 -0.002205 -79201.800000 1 0 0
11.376452 -8.583034 10.971303 17.985039 -0.646347 0.914706 -0.001255 -0.005335 -204667.000000 1 0 0
13.913952 -4.121134 -0.704197 14.528513 -0.287955 1.619285 0.006810 -0.000231 -1128210.000000 1 0 0
7.256552 -13.356334 10.831903 18.664923 -1.073108 0.951657 0.004017 0.003795 -1546820.000000 1 0 0
15.326152 -6.806934 1.731803 16.858957 -0.417969 1.467892 0.001722 -0.002616 298128.000000 1 0 0
15.609952 -6.055334 -2.633497 16.949129 -0.370045 1.726805 0.003867 0.000714 644862.000000 1 0 0
11.296352 -8.555734 3.921503 14.703277 -0.648213 1.300819 0.010413 -0.002906 1263510.000000 1 0 0
10.740352 -14.535434 -0.454397 18.078730 -0.934432 1.595933 0.020922 -0.002589 698749.000000 1 0 0
13.526352 -12.958734 4.599803 19.288577 -0.763970 1.330003 0.001124 -0.000294 -297993.000000 1 0 0
12.829652 -11.182234 6.374203 18.173409 -0.716897 1.212432 -0.003351 -0.007535 -192194.000000 1 0 0
10.896552 -10.607834 1.259903 15.259369 -0.771973 1.488136 0.001697 -0.003676 -189877.000000 1 0 0
13.801552 -7.818534 11.768203 19.751023 -0.515420 0.932501 0.002493 -0.008405 -50530.000000 1 0 0
15.262752 -1.856734 -5.132097 16.209179 -0.121057 1.892957 0.009469 0.003437 -225630.000000 1 0 0
12.931552 -11.358334 -7.270897 18.684291 -0.720720 1.970499 0.015129 -0.007653 -912933.000000 1 0 0
17.610552 -5.489634 1.727303 18.527040 -0.302178 1.477429 -0.000430 0.001556 274533.000000 1 0 0
10.638752 -10.046234 8.933303 17.143914 -0.756761 1.022684 -0.005503 -0.005940 -1170900.000000 1 0 0
16.530752 1.515466 9.666903 19.209670 0.091420 1.043463 0.023794 -0.011239 465730.000000 1 0 0
18.026052 3.650066 0.499003 18.398656 0.199787 1.543671 -0.023498 0.012578 222820.000000 1 0 0
13.228852 -4.079334 5.631503 14.945144 -0.299115 1.184445 0.015213 -0.007415 -509055.000000 1 0 0
12.112852 -6.244634 6.621603 15.151312 -0.476001 1.118500 0.014047 -0.004484 -282294.000000 1 0 0
16.675352 -10.276634 3.467903 19.892283 -0.552302 1.395567 0.004987 0.001108 -287678.000000 1 0 0
16.196452 -8.279434 -5.529697 19.011881 -0.472558 1.865916 0.009439 -0.003250 -938178.000000 1 0 0
14.077852 -0.519534 5.257403 15.036493 -0.036888 1.213606 0.011305 -0.002843 657455.000000 1 0 0
18.449352 -4.382434 5.002303 19.611409 -0.233216 1.312875 0.017103 -0.003800 136940.000000 1 0 0
13.568052 -13.543434 7.121803 20.450837 -0.784490 1.215103 -0.011722 0.006039 -601475.000000 1 0 0
14.879652 -13.826034 -1.180897 20.345953 -0.748710 1.628870 0.005796 0.007186 97076.000000 1 0 0
17.804352 -6.079334 7.900303 20.405098 -0.329040 1.173233 0.016844 -0.004450 -358850.000000 1 0 0
14.461052 3.171466 9.365203 17.518198 0.215893 1.006764 0.016689 -0.004010 -83394.900000 1 0 0
18.586752 3.707766 2.988003 19.187054 0.196900 1.414430 -0.002004 0.003340 -759750.000000 1 0 0
14.806352 -10.632834 8.010703 19.911218 -0.622788 1.156746 -0.003310 -0.006150 -433302.000000 1 0 0
14.773652 -4.870734 10.255003 18.631960 -0.318469 0.987955 0.007743 -0.007445 223367.000000 1 0 0
17.704252 -8.067634 1.788403 19.537800 -0.427575 1.479132 0.001780 -0.002331 -411702.000000 1 0 0
18.296952 -5.862434 -2.183597 19.336874 -0.310070 1.683962 0.000311 -0.001168 218532.000000 1 0 0
14.255452 -12.921434 -5.654397 20.053767 -0.736351 1.856635 0.012828 -0.006733 -986864.000000 1 0 0
15.506052 -1.533734 9.216903 18.103626 -0.098591 1.036635 0.012792 -0.010710 -1000930.000000 1 0 0
12.960052 -10.302834 10.061203 19.373672 -0.671665 1.024737 -0.008237 -0.009167 -298050.000000 1 0 0
16.673352 2.110166 4.651903 17.438282 0.125890 1.300763 0.006131 -0.002068 -2372960.000000 1 0 0
14.978152 2.415866 -0.113697 15.172158 0.159915 1.578290 -0.005732 0.007757 -1354120.000000 1 0 0
14.989652 -9.794134 -7.151997 19.281229 -0.578757 1.950807 0.012628 -0.006782 1009380.000000 1 0 0
15.976052 -0.126034 -3.330097 16.319916 -0.007889 1.776291 -0.002669 0.007851 -101965.000000 1 0 0
12.124552 2.568166 13.483203 18.313847 0.208730 0.743314 0.030142 -0.007583 -414179.000000 1 0 0
17.547852 -3.118834 9.576203 20.232595 -0.175896 1.077757 0.010535 -0.005203 714041.000000 1 0 0
7.668652 -18.256334 4.426103 20.290204 -1.173122 1.350888 0.010689 -0.006707 -15381.700000 1 0 0
6.742952 -11.408334 6.591203 14.800725 -1.036980 1.109254 -0.000889 -0.008037 549011.000000 1 0 0
17.851452 2.267266 -1.690097 18.074049 0.126331 1.664443 -0.010121 0.011663 -153735.000000 1 0 0
17.621952 -2.378234 3.428103 18.109144 -0.134148 1.380345 0.006024 -0.003492 -1454470.000000 1 0 0
12.531852 -13.432734 -2.117897 18.492462 -0.820081 1.685576 0.013272 0.000562 -867870.000000 1 0 0
15.080752 -8.398434 4.163403 17.756596 -0.508123 1.334122 0.006890 -0.001070 -633427.000000 1 0 0
11.703352 -3.176234 14.741403 19.088370 -0.265012 0.688387 -0.005145 -0.001148 194352.000000 1 0 0
11.968152 -13.732634 -6.574597 19.366136 -0.853945 1.917170 0.022238 -0.011477 -70739.100000 1 0 0
10.596252 -12.081934 -1.352897 16.127121 -0.850816 1.654785 0.013868 -0.004204 -725854.000000 1 0 0
13.175652 -8.085934 2.075003 15.597621 -0.550434 1.437367 0.005366 -0.001404 -785476.000000 1 0 0
8.772852 -8.066634 9.991103 15.551709 -0.743485 0.873113 -0.003447 -0.004067 -1344280.000000 1 0 0
15.644452 -3.973634 7.993503 18.012072 -0.248736 1.110977 0.015829 -0.010427 -1272110.000000 1 0 0
10.052552 -17.565834 5.208803 20.898420 -1.051010 1.318897 -0.007559 -0.002377 484498.000000 1 0 0
15.146752 -6.510434 8.128203 18.381445 -0.405949 1.112751 0.008120 -0.003799 -496890.000000 1 0 0
16.521852 -4.984734 -0.493597 17.264495 -0.293021 1.599391 0.003030 0.000002 -903961.000000 1 0 0
14.067152 -10.734634 3.388403 18.016615 -0.651832 1.381599 0.006168 -0.002907 251661.000000 1 0 0
14.859552 -10.185534 -4.632497 18.601382 -0.600896 1.822486 0.012622 -0.005117 -113951.000000 1 0 0
13.498552 -6.658834 -0.170397 15.052575 -0.458273 1.582117 0.006337 0.000410 -91213.700000 1 0 0
17.754352 -0.938734 -5.026697 18.476090 -0.052824 1.846335 0.001750 0.006629 1258040.000000 1 0 0
14.359452 0.156366 -1.545697 14.443251 0.010889 1.678020 0.002260 0.005797 -2701980.000000 1 0 0
4.878052 -13.060934 11.583003 18.125931 -1.213355 0.877561 -0.004078 0.000799 -1214650.000000 1 0 0
11.930252 -7.797134 13.421303 19.576966 -0.578874 0.815415 -0.007582 -0.005022 328942.000000 1 0 0
12.001452 -6.018534 11.544103 17.706607 -0.464834 0.860622 0.000817 0.000139 -508165.000000 1 0 0
13.287052 -4.637634 8.170203 16.272849 -0.335814 1.044799 0.019604 -0.006418 -1229240.000000 1 0 0
15.348552 -1.257834 2.985703 15.686766 -0.081769 1.379295 0.004550 0.000175 988008.000000 1 0 0
15.229452 -10.453234 5.654603 19.317889 -0.601528 1.273733 0.003731 -0.005722 2223.040000 1 0 0
13.592652 -8.071834 -5.772297 16.829560 -0.535876 1.920890 0.014233 -0.006264 -27465.800000 1 0 0
9.577052 -2.424434 13.347303 16.605671 -0.247942 0.637175 -0.004287 -0.002587 424499.000000 1 0 0
9.772852 -9.456734 13.540003 19.190366 -0.768961 0.787580 -0.010610 0.003093 -79594.800000 1 0 0
20.201252 6.315466 -3.218997 21.408821 0.303001 1.721727 -0.019026 0.024546 -59264.000000 1 0 0
11.234452 -3.800434 10.465303 15.817041 -0.326199 0.847783 0.007998 0.001911 489339.000000 1 0 0
10.174952 -14.041134 -3.010897 17.599676 -0.943716 1.742719 0.015126 -0.005638 225942.000000 1 0 0
14.981652 -13.003334 2.438203 19.987032 -0.714823 1.448502 0.001603 0.012059 835092.000000 1 0 0
11.270152 -0.652134 14.337803 18.248677 -0.057799 0.666986 0.010930 0.001928 -89254.900000 1 0 0
19.029652 -2.001434 5.602403 19.937911 -0.104789 1.285968 0.003962 -0.006707 325186.000000 1 0 0
18.806452 -0.526634 7.753303 20.348801 -0.027996 1.179897 0.009840 -0.011449 217636.000000 1 0 0
19.006052 0.896266 0.186503 19.028087 0.047122 1.560995 0.000742 0.005885 -300288.000000 1 0 0
18.399952 0.520466 3.509703 18.738920 0.028279 1.382389 -0.002159 -0.001200 122225.000000 1 0 0
16.608052 -3.917134 -4.272197 17.590423 -0.231624 1.816120 0.006649 0.000287 54535.100000 1 0 0
10.926552 -8.624734 15.666503 20.957455 -0.668205 0.726448 -0.005658 -0.003873 339752.000000 1 0 0
16.618952 -7.607234 6.172303 19.291369 -0.429276 1.245118 0.006429 -0.003555 355791.000000 1 0 0
18.925052 1.825566 5.743203 19.861386 0.096165 1.277443 0.016710 -0.005799 74059.500000 1 0 0
15.256352 1.868366 7.427903 17.071052 0.121858 1.120628 0.014623 -0.004961 -28438.600000 1 0 0
8.699252 -15.825134 3.792403 18.452485 -1.068175 1.363799 -0.003563 -0.009936 717981.000000 1 0 0
11.313452 -15.214334 1.969703 19.061739 -0.931401 1.467279 0.006356 0.004522 23242.500000 1 0 0
7.874752 -16.304134 6.110803 19.109642 -1.120848 1.245303 -0.004107 -0.005029 -346478.000000 1 0 0
14.466852 -11.816134 -2.692697 18.872240 -0.684885 1.713965 0.005816 0.001841 395309.000000 1 0 0
13.624952 -4.915034 3.134203 14.819585 -0.346209 1.357696 0.007010 -0.001702 -1105220.000000 1 0 0
-1.092448 10.135966 -5.618397 11.640345 -1.463431 2.074492 -0.004847 0.003429 -1343830.000000 1 0 0
8.186552 -1.787634 -8.170197 11.703306 -0.214988 2.343551 0.000771 -0.002342 -2030350.000000 1 0 0
2.912652 -10.105934 7.636203 12.997117 -1.290189 0.942793 -0.006957 -0.002613 354146.000000 1 0 0
-6.140748 1.194466 8.308903 10.400645 -0.192116 0.645360 0.002869 -0.004506 -729878.000000 1 0 0
7.067052 -6.285634 -7.191497 11.881500 -0.726943 2.220899 -0.002411 -0.002995 -557833.000000 1 0 0
-11.443348 -4.593034 -3.946597 12.946884 0.381688 1.880556 0.004226 -0.004648 69102.200000 1 0 0
2.143852 -3.180934 2.863403 4.786807 -0.977755 0.929560 -0.003534 0.000317 1369680.000000 1 0 0
-3.498748 -4.233334 8.933403 10.486565 0.880119 0.551212 0.001135 -0.005055 -1925010.000000 1 0 0
-4.887648 -1.020834 -2.349997 5.518486 0.205900 2.010687 0.010530 -0.005908 -227186.000000 1 0 0
5.018752 -5.199334 -3.719997 8.127689 -0.803069 2.046197 -0.000596 -0.002579 -57660.000000 1 0 0
2.556152 14.376866 -8.727697 17.011786 1.394839 2.109517 -0.004558 -0.004026 -29708.400000 1 0 0
5.510952 -5.541434 13.670503 15.746769 -0.788156 0.519341 -0.007344 -0.000076 -1053490.000000 1 0 0
-4.630548 -0.748734 9.888403 10.944547 0.160307 0.442928 0.003801 -0.003740 -3023340.000000 1 0 0
-0.922748 11.917266 -2.718097 12.258088 -1.493521 1.794394 -0.006768 -0.000915 -571181.000000 1 0 0
3.046652 9.517366 -10.435397 14.448524 1.260989 2.377841 0.003483 0.002256 -34045.500000 1 0 0
-10.802848 2.684066 1.205103 11.196339 -0.243528 1.462954 -0.002204 -0.001301 330691.000000 1 0 0
5.642552 -9.089834 -0.682497 10.720508 -1.015256 1.634502 -0.004126 -0.003691 396391.000000 1 0 0
-6.931548 5.459066 9.416303 12.904051 -0.667114 0.752889 -0.001801 -0.004532 -171576.000000 1 0 0
-5.232748 -1.897534 5.156203 7.587406 0.347879 0.823615 0.009454 -0.008080 678778.000000 1 0 0
6.598352 -3.759634 -7.386697 10.594168 -0.517905 2.342339 0.000426 -0.002430 380088.000000 1 0 0
6.156252 4.737266 10.998903 13.465400 0.655868 0.614907 -0.005931 0.003225 1017490.000000 1 0 0
3.780852 -10.007634 3.120903 11.143950 -1.209576 1.286946 -0.006585 -0.002557 877583.000000 1 0 0
-6.770748 6.625966 -5.755197 11.084617 -0.774591 2.116718 -0.001777 0.001777 46152.600000 1 0 0
-11.093348 8.342266 5.318503 14.864126 -0.644784 1.204877 -0.010344 -0.010244 -91590.100000 1 0 0
-9.091048 -5.417034 5.122103 11.757013 0.537373 1.120021 0.003757 -0.002618 1592240.000000 1 0 0
3.226052 9.869366 -8.058197 13.143299 1.254869 2.230779 -0.000698 -0.002294 575573.000000 1 0 0
-8.022648 -8.460334 6.138303 13.176453 0.811946 1.086197 0.006553 -0.001631 -2296450.000000 1 0 0
-7.912248 -5.772134 -7.530997 12.354640 0.630264 2.226312 0.009741 -0.002839 708429.000000 1 0 0
9.118452 -1.509834 6.849703 11.504095 -0.164091 0.933015 0.002710 -0.001302 3828350.000000 1 0 0
-4.082648 -0.392834 -4.807697 6.319516 0.095925 2.435295 0.011385 -0.010143 92140.100000 1 0 0
9.038252 1.163766 -4.663997 10.237051 0.128055 2.043842 -0.000164 0.002436 -2928700.000000 1 0 0
-1.952048 -10.665534 10.684103 15.222161 1.389776 0.792765 -0.005909 -0.005316 352601.000000 1 0 0
-12.957648 0.349466 -2.522497 13.205520 -0.026963 1.762996 -0.002118 -0.001290 -600985.000000 1 0 0
-9.895448 -5.117534 -5.998397 12.652660 0.477282 2.064717 0.007152 -0.005892 -1804510.000000 1 0 0
-5.596648 8.413066 -0.081297 10.104888 -0.983787 1.578842 0.000328 -0.000963 799116.000000 1 0 0
6.307052 9.560666 0.238303 11.456091 0.987641 1.549993 0.002011 0.000721 463015.000000 1 0 0
-0.579748 -12.012134 0.000303 12.026117 1.522570 1.570771 0.008438 -0.003183 -514122.000000 1 0 0
6.326952 4.769066 2.300803 8.250333 0.645909 1.288175 -0.002756 0.001845 498473.000000 1 0 0
3.462452 -7.468034 -8.216997 11.630956 -1.136660 2.355303 -0.003500 0.001867 720067.000000 1 0 0
-6.466348 -9.827834 4.701403 12.668985 0.988844 1.190608 0.005306 -0.001209 -3019030.000000 1 0 0
-0.163448 6.665566 -9.308197 11.449847 -1.546280 2.520003 0.004184 -0.000986 -1256280.000000 1 0 0
-17.339648 -2.531034 4.553703 18.105407 0.144944 1.316556 0.005149 -0.001523 -64731.000000 1 0 0
-8.440148 0.907866 -9.038097 12.399496 -0.107153 2.387522 -0.001522 -0.005378 -585181.000000 1 0 0
-10.100348 -5.908234 -11.723397 16.563885 0.529282 2.357131 0.004186 0.005443 -1220730.000000 1 0 0
2.310152 9.371366 6.532503 11.654737 1.329103 0.975804 -0.002579 0.005914 104675.000000 1 0 0
-11.405548 1.687466 -1.051397 11.577543 -0.146886 1.661735 -0.002217 -0.001284 -753509.000000 1 0 0
-6.049548 -5.246634 -3.106097 8.589065 0.714439 1.940816 0.010872 -0.004326 730702.000000 1 0 0
-6.867548 -8.125934 1.341003 10.723447 0.869131 1.445415 0.008700 -0.003246 -483254.000000 1 0 0
0.045452 11.053666 -7.867197 13.567548 1.566684 2.189346 -0.004803 0.002160 122833.000000 1 0 0
-2.952148 9.190066 -4.293897 10.564565 -1.259976 1.989354 -0.000947 -0.000311 -334925.000000 1 0 0
3.497452 -4.853534 9.308503 11.065134 -0.946379 0.571212 -0.011725 0.002031 -1241730.000000 1 0 0
-9.019148 1.630966 -0.376797 9.173171 -0.178900 1.611884 -0.000102 -0.001599 -1946660.000000 1 0 0
2.357152 3.588166 -10.568297 11.407015 0.989569 2.755728 0.003086 -0.001746 -1039780.000000 1 0 0
-13.668648 0.618066 1.045903 13.722531 -0.045187 1.494504 -0.005186 -0.001676 -1455890.000000 1 0 0
9.384152 -12.637034 -5.090497 16.542977 -0.932054 1.883585 0.015323 -0.006093 -1688380.000000 1 0 0
-4.677648 9.445066 -8.465797 13.518852 -1.110958 2.247494 -0.005876 0.005360 -1092120.000000 1 0 0
-2.247148 7.080466 8.469803 11.265888 -1.263478 0.719994 0.000692 -0.000009 -30787.200000 1 0 0
-10.811148 -1.228434 -4.357397 11.720788 0.113141 1.951708 0.002079 -0.002756 -4258440.000000 1 0 0
2.807552 -7.231734 9.763303 12.470061 -1.200480 0.671419 -0.010026 0.000427 -2330310.000000 1 0 0
-16.165848 -6.510434 3.530903 17.781667 0.382856 1.370898 0.004662 0.002409 -69640.300000 1 0 0
-10.697748 0.227266 6.330403 12.432517 -0.021241 1.036563 0.003922 -0.006527 -1415650.000000 1 0 0
-8.333448 9.876966 9.328703 15.938178 -0.869956 0.945540 -0.011298 -0.007862 -1062780.000000 1 0 0
0.157952 -5.986234 -3.825597 7.105993 -1.544417 2.139288 0.002721 -0.000358 428879.000000 1 0 0
4.932052 1.453866 -3.021997 5.964170 0.286660 2.102140 -0.003879 0.002828 1447780.000000 1 0 0
0.417552 5.375666 3.675903 6.525672 1.493278 0.972423 -0.001188 0.003954 -1907210.000000 1 0 0
6.058952 -11.314934 -1.590497 12.933225 -1.079167 1.694086 -0.002209 -0.004856 -2481650.000000 1 0 0
6.310852 -13.545034 5.187603 15.817902 -1.134786 1.236655 0.003682 -0.010584 199152.000000 1 0 0
8.070452 -8.224934 -6.006397 12.994558 -0.794878 2.051298 -0.001005 -0.004374 514208.000000 1 0 0
-13.187448 -1.408834 -4.600897 14.037872 0.106428 1.904716 -0.001131 -0.001811 -3632220.000000 1 0 0
-6.903848 -1.401434 -6.940297 9.889128 0.200272 2.348733 0.008594 -0.009806 -371996.000000 1 0 0
-5.644748 12.883266 -4.492497 14.765644 -1.157844 1.879951 -0.004940 0.002206 544843.000000 1 0 0
-4.390848 6.833566 -6.686197 10.520570 -0.999682 2.259498 0.002297 0.002703 -3482930.000000 1 0 0
-9.457548 -3.721734 -7.997397 12.932706 0.374908 2.237483 0.006089 -0.002875 496842.000000 1 0 0
-2.101748 -6.312934 9.326303 11.456458 1.249411 0.619679 -0.001973 -0.003067 -335649.000000 1 0 0
7.551652 -6.127634 9.983303 13.937062 -0.681672 0.772292 -0.007118 0.002459 -6937.140000 1 0 0
9.702052 -5.221034 12.164403 16.412243 -0.493690 0.735972 0.001405 0.005101 -165091.000000 1 0 0
-6.569148 2.799666 -8.997897 11.487122 -0.402873 2.470758 0.000257 -0.005838 261729.000000 1 0 0
7.523052 5.462566 8.879203 12.855978 0.628036 0.808385 -0.006979 0.002494 92445.900000 1 0 0
12.702352 3.120566 11.046103 17.120282 0.240898 0.869504 0.015553 -0.001494 424129.000000 1 0 0
-7.587448 -7.173334 -3.737397 11.090276 0.757351 1.914522 0.008122 -0.007658 -517179.000000 1 0 0
2.242052 1.527266 -5.915397 6.507784 0.597991 2.711609 0.002044 -0.001542 -80319.600000 1 0 0
12.771952 7.044866 -7.173797 16.254730 0.504062 2.027883 0.003436 0.002617 -389595.000000 1 0 0
0.876752 -7.809034 0.960903 7.916631 -1.458991 1.449118 -0.000268 -0.000390 992266.000000 1 0 0
-10.299748 -6.069634 -8.489797 14.662944 0.532514 2.188294 0.007047 0.000444 -1221540.000000 1 0 0
-6.743048 0.298866 3.102703 7.428646 -0.044293 1.139920 0.008816 -0.006730 1471890.000000 1 0 0
10.718452 -8.096534 1.370303 13.502474 -0.646937 1.469136 0.000800 -0.001177 -253457.000000 1 0 0
6.277452 0.904366 10.503403 12.269709 0.143081 0.543230 -0.003347 0.000912 1181970.000000 1 0 0
-12.975048 5.544766 1.876003 14.234314 -0.403852 1.438617 -0.008082 -0.001369 298245.000000 1 0 0
2.109152 7.392466 3.612903 8.494124 1.292870 1.131457 -0.004500 0.004341 43329.600000 1 0 0
10.188052 -9.471434 -0.932797 13.941828 -0.748963 1.637753 0.001561 -0.001177 680838.000000 1 0 0
6.771852 -11.731134 -9.125397 16.332494 -1.047269 2.163646 0.001191 0.000798 194603.000000 1 0 0
10.250552 3.461066 11.839203 16.038065 0.325628 0.740407 0.000509 0.000798 -994057.000000 1 0 0
-11.128848 -3.088434 -1.858897 11.698085 0.270704 1.730379 0.001989 -0.003850 -19455.000000 1 0 0
12.367852 0.964466 6.810103 14.151730 0.077824 1.068750 0.008292 -0.000887 -131216.000000 1 0 0
-9.528448 9.128266 3.162403 13.568985 -0.763952 1.335572 -0.004689 -0.009342 951612.000000 1 0 0
-6.659148 7.654766 -8.894797 13.492854 -0.854842 2.290581 -0.007765 0.004875 -420850.000000 1 0 0
8.475652 5.444866 12.016703 15.680701 0.571023 0.697676 -0.001587 0.004133 -2106450.000000 1 0 0
1.369352 4.871366 -2.663797 5.718491 1.296766 2.055359 0.001529 -0.001688 331986.000000 1 0 0
1.611452 0.463466 9.553003 9.699044 0.280049 0.173753 -0.005304 -0.001277 821976.000000 1 0 0
2.527852 12.611566 -3.905297 13.442208 1.372979 1.865572 0.000883 -0.002435 478963.000000 1 0 0
2.167052 0.561966 13.063303 13.253747 0.253733 0.169727 -0.006241 -0.005112 -964.220000 1 0 0
-12.262248 -1.677434 0.881403 12.407795 0.135953 1.499700 -0.002930 -0.000982 136460.000000 1 0 0
3.226252 8.692266 -1.321197 9.365348 1.215393 1.712341 0.000524 -0.000451 -227430.000000 1 0 0
3.635252 -2.785434 -5.919197 7.484022 -0.653807 2.483093 -0.001688 -0.000845 -1898100.000000 1 0 0
-7.626448 -7.207234 9.149403 13.921872 0.757145 0.853703 0.003705 -0.002895 -195581.000000 1 0 0
-6.949248 10.953066 -3.295397 13.383622 -1.005425 1.819581 0.002212 0.002008 1164310.000000 1 0 0
0.428952 0.436166 2.428503 2.504370 0.793736 0.246771 -0.003342 -0.000591 -3010230.000000 1 0 0
-7.106848 4.593866 -1.953797 8.684942 -0.573840 1.797702 0.006123 -0.001888 -612892.000000 1 0 0
-6.825348 -3.834234 -5.898797 9.802170 0.511830 2.216530 0.009931 -0.006737 137529.000000 1 0 0
3.020352 -6.204134 13.393403 15.066422 -1.117741 0.475733 -0.009071 -0.001917 -1357400.000000 1 0 0
-5.699648 -0.575934 -11.551097 12.893623 0.100706 2.681197 0.006972 -0.003244 -1417900.000000 1 0 0
11.886152 2.392166 -0.754497 12.147935 0.198603 1.632945 -0.005788 0.004906 -1767050.000000 1 0 0
6.129852 -11.006534 10.752603 16.563133 -1.062649 0.864279 -0.005827 -0.001562 526830.000000 1 0 0
-8.299548 6.492066 -10.504797 14.878850 -0.663805 2.354662 -0.012737 0.005152 18955.600000 1 0 0
2.851252 7.863466 11.317703 14.073171 1.222946 0.636461 -0.000819 0.000918 745092.000000 1 0 0
-6.223348 -10.146934 -0.264297 11.906309 1.020638 1.592996 0.007865 -0.003317 -35953.600000 1 0 0
11.315252 4.257766 5.945703 13.472746 0.359897 1.113735 -0.001169 0.001916 685886.000000 1 0 0
-7.733548 10.595066 1.575203 13.211527 -0.940271 1.451283 -0.003214 -0.008907 868191.000000 1 0 0
4.262552 -2.678634 -3.603297 6.190976 -0.561048 2.192012 -0.002251 -0.001559 -4970510.000000 1 0 0
6.518052 6.425966 6.177703 11.042737 0.778284 0.977091 -0.005233 0.004703 -4711770.000000 1 0 0
-0.519148 10.368066 -10.176397 14.537034 -1.520766 2.346239 -0.004923 0.002651 275918.000000 1 0 0
14.005252 6.551066 -2.530197 15.667337 0.437523 1.733002 -0.001605 0.009820 792130.000000 1 0 0
1.409152 9.573366 -6.198997 11.491849 1.424651 2.140551 -0.001100 -0.000156 -457946.000000 1 0 0
0.769052 7.353866 7.384903 10.450243 1.466597 0.786012 -0.002542 0.005068 -56689.000000 1 0 0
12.300852 6.313266 1.782603 13.940802 0.474182 1.442576 -0.003647 0.003904 -2097900.000000 1 0 0
-6.876648 6.813866 -3.078097 10.158333 -0.780812 1.878648 0.001864 -0.000555 353600.000000 1 0 0
1.088352 9.817866 11.242203 14.965364 1.460393 0.720896 0.004704 0.000067 -2292880.000000 1 0 0
-3.622248 13.716766 -10.852397 17.861827 -1.312616 2.223800 -0.018015 0.004761 -145158.000000 1 0 0
-10.117948 -5.584734 -2.138697 11.753134 0.504349 1.753784 0.003038 -0.003170 -352994.000000 1 0 0
-4.136248 3.826166 -12.454097 13.669404 -0.746475 2.716724 -0.002149 -0.005193 -300874.000000 1 0 0
-3.131448 8.485666 2.482303 9.379462 -1.217272 1.302952 0.003708 0.002119 -2580750.000000 1 0 0
7.169652 8.835966 7.089503 13.406687 0.889133 1.013606 -0.002720 0.006233 -516679.000000 1 0 0
-1.459248 -2.134034 -8.110697 8.512750 0.971027 2.833028 0.005678 -0.008323 -1921160.000000 1 0 0
0.937952 -1.322134 4.883903 5.145902 -0.953775 0.320475 -0.003340 -0.000875 -1274560.000000 1 0 0
2.786452 -8.798934 -6.025197 11.022185 -1.264107 2.149146 -0.005392 0.001275 530904.000000 1 0 0
5.452052 3.888266 8.623903 10.918571 0.619513 0.660251 -0.008786 0.001780 -223234.000000 1 0 0
6.095452 -7.547534 -2.812297 10.100932 -0.891433 1.852945 -0.003153 -0.003760 660473.000000 1 0 0
1.747252 2.312366 -8.422597 8.907304 0.923713 2.810179 0.002142 -0.003582 -34298.900000 1 0 0
-5.355648 10.961666 -0.613997 12.215485 -1.116327 1.621081 -0.002183 -0.000901 336654.000000 1 0 0
-5.437748 3.334166 -3.328097 7.194581 -0.550034 2.051704 0.008031 -0.002471 -11051.800000 1 0 0
1.844752 13.747966 -6.328397 15.246582 1.437409 1.998816 -0.013376 0.000423 687866.000000 1 0 0
-5.287448 -2.483634 2.719503 6.443698 0.439134 1.135101 0.003016 -0.006910 643951.000000 1 0 0
10.390552 -3.400934 -1.914097 11.099265 -0.316320 1.744115 -0.001404 0.000462 52278.200000 1 0 0
2.414152 -3.400634 7.001303 8.149276 -0.953449 0.537225 -0.010204 0.001817 -2282860.000000 1 0 0
-3.025048 9.822166 -11.797897 15.646604 -1.272033 2.424962 -0.004902 0.006065 -2232850.000000 1 0 0
0.626852 -2.067534 9.249003 9.497984 -1.276417 0.229475 -0.004127 -0.003137 508459.000000 1 0 0
9.450352 2.530466 5.050703 11.010087 0.261627 1.094226 -0.001302 0.001400 -569207.000000 1 0 0
13.393152 2.184266 -5.211397 14.536375 0.161665 1.937465 0.003406 0.005580 -433642.000000 1 0 0
-6.280448 3.734166 7.734103 10.639754 -0.536417 0.756990 0.002856 -0.003280 -468853.000000 1 0 0
10.576952 -0.003234 1.757603 10.721991 -0.000306 1.406128 -0.000930 0.003546 1090610.000000 1 0 0
15.301852 6.880666 -4.723397 17.429880 0.422573 1.845222 -0.005091 0.013944 724840.000000 1 0 0
8.052452 -5.005234 -9.268197 13.258726 -0.556135 2.344831 0.001908 0.000248 860095.000000 1 0 0
4.462852 5.561366 -2.230897 7.471461 0.894549 1.874010 -0.000465 0.000202 232408.000000 1 0 0
-1.672148 -10.447734 1.394903 10.672253 1.412093 1.439718 0.004003 -0.001129 -896745.000000 1 0 0
-2.881148 12.300066 -12.874397 18.037259 -1.340706 2.365658 -0.010356 0.003933 -467126.000000 1 0 0
8.251252 4.275866 -9.670297 13.411966 0.478108 2.376070 -0.002829 0.002526 -1644630.000000 1 0 0
4.056852 7.612166 -9.053797 12.504973 1.081143 2.380403 -0.000546 -0.002372 -2687250.000000 1 0 0
-1.714948 -4.968934 -2.476497 5.810714 1.238463 2.011079 0.008762 -0.003945 -793458.000000 1 0 0
-3.160348 -9.142534 7.101603 12.000271 1.237979 0.937523 -0.001361 0.002404 -1355050.000000 1 0 0
1.057752 7.199366 -1.413297 7.412632 1.424917 1.762631 0.000836 -0.000301 517108.000000 1 0 0
0.305652 -1.003234 -2.205797 2.442425 -1.275064 2.697771 0.005940 -0.000615 -3014850.000000 1 0 0
4.184352 -6.817034 7.509503 10.971481 -1.020286 0.816938 -0.009925 0.003649 -1301160.000000 1 0 0
-13.878248 3.989666 6.004403 15.638928 -0.279928 1.176737 -0.009172 -0.005240 -1919800.000000 1 0 0
4.289152 6.382666 12.679003 14.828768 0.979110 0.545193 -0.000973 0.000919 -2855580.000000 1 0 0
8.198652 10.124966 -7.213297 14.891758 0.890141 2.076453 0.006451 -0.004181 464409.000000 1 0 0
12.562552 5.226466 9.520303 16.606319 0.394253 0.960276 0.010039 0.002954 -10473.400000 1 0 0
7.603152 4.020466 0.235403 8.603922 0.486413 1.543433 -0.002072 0.004245 -1382740.000000 1 0 0
-10.876048 -7.594334 -0.877497 13.294072 0.609559 1.636851 0.003831 0.000736 -1348110.000000 1 0 0
10.403652 6.723166 0.137703 12.387731 0.573721 1.559680 -0.003707 0.004486 -840784.000000 1 0 0
14.560352 3.561966 4.307103 15.596236 0.239923 1.290997 0.001197 0.002741 920584.000000 1 0 0
2.309952 5.451466 8.225903 10.135080 1.170002 0.623865 -0.007256 0.003874 105068.000000 1 0 0
4.323952 0.010766 11.667503 12.442962 0.002490 0.354907 -0.005365 -0.001366 -1455720.000000 1 0 0
-1.580748 -1.420034 -0.433997 2.168782 0.731892 1.772267 0.008429 -0.006699 -1347470.000000 1 0 0
3.018552 -5.282734 -9.500597 11.281856 -1.051672 2.571986 -0.004100 0.001955 741854.000000 1 0 0
-3.980048 -5.242734 -1.388997 6.727285 0.921462 1.778764 0.009512 -0.007024 -34758.500000 1 0 0
-1.149148 -8.549234 8.666703 12.227906 1.437182 0.783051 -0.005387 0.001597 -413388.000000 1 0 0
3.962552 8.631566 -6.069797 11.271565 1.140420 2.139458 0.003934 -0.002260 23620.200000 1 0 0
-14.179148 -1.803234 -2.513697 14.512704 0.126496 1.744881 -0.003916 -0.002600 -410611.000000 1 0 0
8.739352 -10.577934 -6.652597 15.248804 -0.880290 2.022246 0.000778 -0.005420 293329.000000 1 0 0
14.753852 6.120566 1.591003 16.052064 0.393238 1.471518 -0.014868 0.008131 -1335930.000000 1 0 0
-5.881148 0.362566 -8.430697 10.285718 -0.061571 2.531597 0.009335 -0.011699 -173346.000000 1 0 0
-8.132948 -4.595534 -12.896097 15.923979 0.514326 2.514699 0.002649 0.003101 344651.000000 1 0 0
0.955152 -10.713434 12.008703 16.121382 -1.481877 0.730422 -0.004297 -0.003439 -518556.000000 1 0 0
0.368752 11.664466 3.340203 12.138892 1.539194 1.292035 -0.001209 0.002585 -1026820.000000 1 0 0
5.083352 -13.283234 -3.783097 14.717221 -1.205301 1.830767 -0.000272 -0.004673 408377.000000 1 0 0
-7.564848 1.576866 -6.899197 10.359167 -0.205504 2.299629 0.002410 -0.004979 486943.000000 1 0 0
1.537252 2.806466 4.066103 5.174223 1.069679 0.666746 -0.005476 0.001770 -1948030.000000 1 0 0
17.175452 5.503466 2.056003 18.152450 0.310090 1.457290 -0.017655 0.006527 -290314.000000 1 0 0
2.582052 -8.148034 -3.524997 9.245705 -1.263915 1.961953 -0.004093 -0.000895 580936.000000 1 0 0
-0.440948 -9.384134 -0.758197 9.425035 1.523842 1.651328 0.007001 -0.001323 -753197.000000 1 0 0
0.685252 11.800266 -5.434597 13.009638 1.512791 2.001749 -0.005929 0.001083 -343138.000000 1 0 0
6.065252 -5.065434 7.825603 11.121420 -0.695813 0.790273 -0.008162 0.002652 -953384.000000 1 0 0
-6.148448 -1.971534 -9.321597 11.339424 0.310298 2.535802 0.008503 -0.008007 -433833.000000 1 0 0
2.190052 -1.309934 11.329303 11.613155 -0.539043 0.221551 -0.009832 -0.003291 -598582.000000 1 0 0
18.014552 2.013966 -6.072897 19.117014 0.111334 1.894067 -0.000386 0.014464 -495948.000000 1 0 0
-8.794048 4.759366 7.879003 12.730496 -0.496064 0.903445 -0.003328 -0.009677 -497660.000000 1 0 0
11.246352 -7.145134 -5.003597 14.232686 -0.565993 1.930030 0.015433 -0.004631 -331097.000000 1 0 0
10.947952 0.537766 8.910303 14.125875 0.049081 0.888240 0.003296 -0.000022 -254112.000000 1 0 0
-8.465648 -7.336534 -1.391597 11.288422 0.714066 1.694387 0.005250 -0.005604 -1586050.000000 1 0 0
10.212552 -10.485634 -3.334497 15.012116 -0.798591 1.794785 0.010684 -0.003539 963258.000000 1 0 0
7.553052 -13.992634 -3.853397 16.361268 -1.075827 1.808549 0.008756 -0.006283 -1512760.000000 1 0 0
1.569652 -1.104034 -11.756097 11.911696 -0.612979 2.979782 0.003416 -0.005444 387114.000000 1 0 0
-11.836448 -2.614634 -6.273497 13.648977 0.217406 2.048376 0.002425 -0.002060 -15142.700000 1 0 0
2.738852 -12.175034 -6.370097 14.011099 -1.349523 2.042772 -0.005812 0.002334 394265.000000 1 0 0
-5.476748 1.428266 1.125203 5.770684 -0.255105 1.374553 0.010827 -0.006785 734544.000000 1 0 0
0.187752 6.843666 -4.026997 7.942777 1.543369 2.102498 0.003936 -0.000349 1010550.000000 1 0 0
5.462952 -11.789034 3.548703 13.469167 -1.136861 1.304180 -0.005671 -0.007734 -1378410.000000 1 0 0
-4.413648 -9.210634 1.130403 10.275889 1.123935 1.460568 0.007777 -0.001352 -1589850.000000 1 0 0
7.160252 -6.107834 -4.703497 10.521299 -0.706244 2.034256 0.000872 -0.003242 380050.000000 1 0 0
-6.937148 -5.893134 2.294903 9.387206 0.704206 1.323822 0.008478 -0.004695 -42194.900000 1 0 0
-6.339448 -0.860034 6.996703 9.480618 0.134841 0.740694 0.005973 -0.006863 -1550640.000000 1 0 0
4.142352 -4.985834 3.272003 7.261104 -0.877541 1.103336 -0.007811 0.002561 -443860.000000 1 0 0
-2.477748 10.713966 -8.683897 14.012079 -1.343528 2.239212 -0.009090 0.005018 -1948850.000000 1 0 0
-2.280148 -4.776634 2.780303 5.978746 1.125429 1.087126 0.002872 -0.001227 645850.000000 1 0 0
15.143352 5.021866 6.345503 17.169905 0.320209 1.192249 0.005421 0.000936 524676.000000 1 0 0
6.811752 0.322466 -0.098397 6.820090 0.047304 1.585224 -0.000980 0.001552 4826490.000000 1 0 0
-9.771348 9.347066 0.591403 13.535015 -0.763209 1.527088 -0.004999 -0.005768 -2039100.000000 1 0 0
7.248052 10.424866 -2.705297 12.981938 0.963255 1.780724 0.001555 0.001120 135453.000000 1 0 0
1.648452 -4.209434 -5.454597 7.084445 -1.197545 2.449543 0.000067 -0.001977 -214371.000000 1 0 0
0.887752 -8.106134 -7.729797 11.235981 -1.461715 2.329457 -0.003806 0.003523 66283.400000 1 0 0
-10.507348 0.314866 -10.402597 14.789102 -0.029957 2.350961 -0.006383 -0.004502 -2619980.000000 1 0 0
5.813052 -2.475334 0.444903 6.333782 -0.402568 1.500496 -0.002065 0.001005 53684.300000 1 0 0
-3.297648 5.392666 -1.051697 6.407916 -1.021959 1.735667 0.008673 -0.003163 499738.000000 1 0 0
-0.371248 4.615466 -5.202697 6.964797 -1.490533 2.414333 0.005661 -0.003070 -1069560.000000 1 0 0
3.995252 -9.827534 10.018203 14.591329 -1.184668 0.814013 -0.008297 0.000068 -2035550.000000 1 0 0
7.288752 -13.495434 -0.974197 15.368855 -1.075593 1.634227 0.008881 -0.007169 442925.000000 1 0 0
13.004752 -0.083734 0.493603 13.014385 -0.006439 1.532860 -0.001340 0.000793 21158.800000 1 0 0
9.316552 2.351166 -0.732697 9.636543 0.247203 1.646903 -0.000490 0.004065 -904264.000000 1 0 0
-0.680748 -5.793934 4.381103 7.295695 1.453839 0.926663 -0.002666 0.000802 -1114500.000000 1 0 0
11.419052 -3.856734 3.308503 12.498614 -0.325716 1.302894 0.006554 -0.003730 -2282250.000000 1 0 0
1.772652 -8.286434 11.788903 14.518455 -1.360051 0.623235 -0.007758 -0.001802 140054.000000 1 0 0
9.342852 -5.920534 -6.156397 12.658706 -0.564829 2.078689 0.001496 -0.006591 -820320.000000 1 0 0
3.210352 6.277366 -0.204397 7.053613 1.098057 1.599778 -0.001200 0.001169 -797008.000000 1 0 0
6.480752 -1.491434 11.472103 13.260229 -0.226195 0.525345 -0.008820 0.002577 317452.000000 1 0 0
-4.993148 -7.550434 -3.848997 9.836430 0.986514 1.972840 0.008744 -0.002409 -271357.000000 1 0 0
-3.469748 -8.422134 -5.714097 10.752786 1.180005 2.131056 0.009998 -0.000420 -53692.400000 1 0 0
9.900052 5.285366 2.186003 11.433491 0.490377 1.378419 -0.004258 0.002007 -789418.000000 1 0 0
8.883852 -1.492334 0.200503 9.010554 -0.166429 1.548542 0.001245 0.002192 2005900.000000 1 0 0
-3.825648 9.615366 9.294603 13.909726 -1.192129 0.838998 -0.004609 -0.001096 -19566.000000 1 0 0
-14.394248 -3.610734 -5.996397 16.005891 0.245774 1.954801 -0.004028 0.000697 -553220.000000 1 0 0
10.600952 6.278566 -6.273197 13.825830 0.534712 2.041743 -0.000716 0.000471 -401901.000000 1 0 0
-1.777648 4.458466 2.552203 5.436147 -1.191400 1.082086 0.002838 0.000907 603015.000000 1 0 0
6.984552 -3.711934 2.524203 8.302652 -0.488489 1.261883 -0.003170 -0.000278 -2280990.000000 1 0 0
8.315452 -11.159334 -1.597397 14.008182 -0.930402 1.685078 0.005392 -0.005010 -1957480.000000 1 0 0
4.529352 0.489366 1.750603 4.880483 0.107626 1.203927 -0.004256 0.002118 857621.000000 1 0 0
-10.831648 2.391566 3.847303 11.740781 -0.217308 1.236942 -0.002522 -0.003663 199569.000000 1 0 0
-0.691348 -3.056334 4.464503 5.454442 1.348338 0.611987 -0.000590 -0.000824 447284.000000 1 0 0
8.505252 -8.807034 -8.506897 14.908738 -0.802828 2.178030 0.010018 -0.001813 -427064.000000 1 0 0
12.028852 -4.795534 0.920803 12.982230 -0.379359 1.499809 0.004370 -0.000749 296846.000000 1 0 0
2.958052 4.828866 3.494903 6.654499 1.021180 1.017853 -0.007395 0.003374 -1102270.000000 1 0 0
6.161652 7.456666 1.940603 9.865787 0.880207 1.372805 -0.002973 0.002066 -410259.000000 1 0 0
-1.664048 -1.275134 -10.398497 10.607722 0.653842 2.942650 0.010680 -0.007524 -145063.000000 1 0 0
-0.820748 -8.670834 6.021803 10.588631 1.476421 0.965866 -0.003939 0.001516 -530218.000000 1 0 0
-4.120148 -0.219134 2.350603 4.748576 0.053136 1.052947 0.007030 -0.006362 895693.000000 1 0 0
-8.424748 6.091266 -8.001397 13.118775 -0.626009 2.226755 -0.010003 0.003237 -2310670.000000 1 0 0
6.313952 11.193366 -9.382897 15.912139 1.057208 2.201445 0.002678 -0.008169 94311.400000 1 0 0
-11.167148 -5.704634 3.196203 12.940779 0.472283 1.321227 0.003864 -0.001660 949507.000000 1 0 0
1.632352 -6.365834 3.009603 7.228149 -1.319781 1.141344 -0.007568 0.002326 531795.000000 1 0 0
10.137252 2.189066 7.254903 12.656599 0.212677 0.960377 0.001669 0.001354 -2122700.000000 1 0 0
-4.090848 -2.330334 -10.468497 11.478455 0.517801 2.718961 0.009835 -0.004564 -2045460.000000 1 0 0
-8.228448 11.762466 6.004503 15.560110 -0.960372 1.174623 -0.006028 -0.007785 -197799.000000 1 0 0
6.857452 5.938866 -3.154597 9.604491 0.713736 1.905459 0.002660 0.000677 -1015200.000000 1 0 0
3.862152 -9.946434 -2.326997 10.920746 -1.200421 1.785523 -0.004324 -0.005276 -1470670.000000 1 0 0
8.404352 -12.974134 -7.454297 17.161813 -0.995985 2.020117 0.009585 -0.002871 526592.000000 1 0 0
-1.061748 9.440866 3.704403 10.197051 -1.458804 1.199008 0.001112 0.002259 -143012.000000 1 0 0
0.563052 -13.289834 4.674103 14.099077 -1.528455 1.232884 0.001657 -0.005685 -766836.000000 1 0 0
-11.118348 -7.111834 -5.014497 14.118818 0.569064 1.933886 0.006385 -0.004955 -102760.000000 1 0 0
3.658052 10.306366 -3.395297 11.451225 1.229735 1.871823 0.004490 -0.003044 -918300.000000 1 0 0
11.617452 -8.090434 -7.497697 16.019856 -0.608308 2.057851 0.018985 -0.005815 251829.000000 1 0 0
11.672952 -4.900034 -6.026697 14.021028 -0.397438 2.015104 0.010991 -0.002483 -242573.000000 1 0 0
1.294852 -10.357734 -2.709597 10.784304 -1.446428 1.824772 -0.002452 -0.001329 -1781880.000000 1 0 0
2.300352 -11.984934 -4.003397 12.843577 -1.381166 1.887782 -0.001646 -0.002738 -1383750.000000 1 0 0
-7.542448 -5.497734 7.251203 11.819203 0.629864 0.910298 0.004031 0.000469 -3411530.000000 1 0 0
-7.180348 -0.893334 9.532903 11.967944 0.123778 0.649252 0.002445 -0.006315 1087230.000000 1 0 0
16.094052 2.654066 -7.642897 18.013230 0.163439 2.008978 -0.004968 0.009503 419239.000000 1 0 0
-2.045548 6.328766 -5.476597 8.615721 -1.258180 2.259649 0.003797 0.000546 -731759.000000 1 0 0
7.692952 1.178866 8.302003 11.379565 0.152057 0.753127 -0.000158 0.000097 -273569.000000 1 0 0
7.906452 8.268366 -3.872997 12.077995 0.807770 1.897228 0.002085 0.000842 -548531.000000 1 0 0
8.009752 0.528366 3.918403 8.932479 0.065870 1.116679 -0.004385 0.000470 301828.000000 1 0 0
-6.989448 5.767766 5.433903 10.566305 -0.689925 1.030643 0.001073 -0.007828 71292.100000 1 0 0
-6.184348 -2.026234 -4.489897 7.906387 0.316617 2.174727 0.008465 -0.007384 -1286730.000000 1 0 0
-15.230048 -2.080334 3.269003 15.715233 0.135754 1.361251 0.006196 0.000104 135574.000000 1 0 0
0.939352 1.295566 -10.594597 10.714773 0.943454 2.991680 0.005389 -0.005626 402425.000000 1 0 0
1.547152 -9.288234 9.366603 13.281500 -1.405741 0.788039 -0.007608 -0.000143 -1245080.000000 1 0 0
-0.179248 -6.715434 -1.267797 6.836410 1.544111 1.757324 0.003986 -0.000096 926932.000000 1 0 0
-0.493048 -10.151734 -8.471197 13.231099 1.522267 2.265619 -0.000209 0.003027 149689.000000 1 0 0
-4.262448 6.529066 3.813103 8.679684 -0.992426 1.115962 0.006975 -0.001568 -51382.600000 1 0 0
10.700052 -1.222934 -8.751497 13.877153 -0.113799 2.253175 0.014170 0.000261 357689.000000 1 0 0
3.010652 -1.050534 6.366903 7.120752 -0.335729 0.464304 -0.009732 0.003494 96453.600000 1 0 0
1.984352 -12.348234 6.805203 14.238235 -1.411459 1.072474 -0.003374 -0.004628 -464018.000000 1 0 0
2.791952 -4.997934 -1.349197 5.881724 -1.061358 1.802245 0.004677 -0.000698 -1386350.000000 1 0 0
-0.999848 9.496566 -1.619797 9.685463 -1.465898 1.738826 -0.000200 -0.000559 -8677.190000 1 0 0
4.622452 -2.616934 2.595003 5.911806 -0.515147 1.116364 -0.005091 0.002718 -1536590.000000 1 0 0
17.645952 6.727066 -2.842897 19.097515 0.364216 1.720214 -0.024252 0.023615 -38822.800000 1 0 0
-7.226348 3.449666 -5.373797 9.643547 -0.445383 2.161858 0.000600 -0.002188 -298567.000000 1 0 0
-13.814548 -5.791034 2.404403 15.170991 0.396946 1.411638 0.001206 0.000307 1625060.000000 1 0 0
6.640152 -6.066534 3.196003 9.545098 -0.740286 1.229369 -0.004674 -0.001341 -456393.000000 1 0 0
-4.591248 1.957266 3.534403 6.115755 -0.402974 0.954621 0.009090 -0.006333 942678.000000 1 0 0
6.833452 -12.143934 -5.518497 14.987495 -1.058251 1.947876 0.002151 -0.002035 290641.000000 1 0 0
2.901252 -12.404334 3.365103 13.176065 -1.341036 1.312540 -0.002091 -0.008259 -1379620.000000 1 0 0
3.206052 11.382266 -6.081797 13.297481 1.296239 2.045826 -0.000367 -0.000528 -506339.000000 1 0 0
-5.500948 -8.300534 6.467603 11.873887 0.985530 0.994775 0.004953 0.000569 213083.000000 1 0 0
-3.856948 6.523266 6.344103 9.883152 -1.036828 0.873808 0.004286 -0.000831 617008.000000 1 0 0
4.261852 4.500366 -7.103897 9.427726 0.812612 2.424183 -0.002132 0.001184 -1127190.000000 1 0 0
-0.322048 -2.632034 1.660203 3.128513 1.449044 1.011407 0.000588 -0.002483 -107593.000000 1 0 0
-13.111148 -0.861234 6.591403 14.700018 0.065593 1.105828 -0.003492 0.000689 -416639.000000 1 0 0
-0.621348 -9.315134 -5.963597 11.078009 1.504192 2.139248 0.002197 0.002077 220537.000000 1 0 0
2.064852 -1.543134 -3.990897 4.751014 -0.641793 2.568097 0.000813 -0.000592 -1184460.000000 1 0 0
11.379152 -2.012234 1.083703 11.606403 -0.175026 1.477289 -0.001016 0.001491 447948.000000 1 0 0
0.534052 -4.229734 -1.972097 4.697343 -1.445200 2.004057 0.005263 -0.002898 -2275060.000000 1 0 0
1.048752 -7.277334 -11.305797 13.486308 -1.427670 2.564984 -0.003368 0.004807 -549038.000000 1 0 0
-4.555648 4.043766 -10.003597 11.712298 -0.725943 2.594635 0.001072 -0.004483 -6863.610000 1 0 0
-1.009048 5.767466 -2.185897 6.249799 -1.397594 1.928106 0.004277 -0.000965 101184.000000 1 0 0
-11.381348 1.758066 -3.810797 12.130460 -0.153258 1.890359 -0.002242 -0.000989 167817.000000 1 0 0
-1.628348 -11.226334 4.088103 12.057972 1.426754 1.224903 0.003762 -0.000361 -598185.000000 1 0 0
-3.635848 -5.399234 -9.703897 11.684893 0.978146 2.550738 0.008630 -0.000462 -726682.000000 1 0 0
-12.869548 -3.754834 -8.229997 15.730763 0.283881 2.121373 0.000656 0.000081 242082.000000 1 0 0
11.359752 4.357666 0.441303 12.174891 0.366294 1.534541 -0.003482 0.006179 -15520.800000 1 0 0
-9.002048 -2.274234 -3.004097 9.758771 0.247457 1.883714 0.003849 -0.005321 -65984.800000 1 0 0
-2.617048 -5.944334 -6.339797 9.076182 1.156072 2.344108 0.008180 -0.003237 -507399.000000 1 0 0
0.010152 2.702366 -1.947697 3.331127 1.567040 2.195302 0.003660 -0.003140 -817901.000000 1 0 0
8.031952 6.067066 -5.304897 11.378201 0.646927 2.055825 0.002620 0.000477 -343659.000000 1 0 0
-9.857348 -0.923134 -0.937197 9.944739 0.093377 1.665177 0.003501 -0.003566 32901.200000 1 0 0
6.044552 0.540566 -8.960997 10.822582 0.089193 2.546311 0.001221 -0.000143 696978.000000 1 0 0
-4.013948 2.317666 7.859903 9.124770 -0.523638 0.532814 0.003251 -0.001300 -335954.000000 1 0 0
-10.118948 -3.304734 1.465803 10.745369 0.315668 1.433957 0.001067 -0.003120 2127980.000000 1 0 0
-1.813348 -8.072134 -7.762497 11.344776 1.349822 2.324351 0.003657 -0.002060 322559.000000 1 0 0
-9.314948 -9.710234 4.282003 14.120640 0.806172 1.262701 0.007166 -0.003191 -631182.000000 1 0 0
-0.963148 -10.718934 7.373703 13.045869 1.481182 0.970104 -0.002310 -0.000336 -219123.000000 1 0 0
9.462552 3.782766 -3.856497 10.895952 0.380301 1.932575 0.000870 0.002735 -799028.000000 1 0 0
12.814552 -0.818234 3.000203 13.186488 -0.063765 1.341265 0.004093 -0.000452 -1505980.000000 1 0 0
6.348152 11.917266 -6.849297 15.140446 1.081344 2.040233 0.005376 -0.005311 201307.000000 1 0 0
-11.813148 -0.095734 -6.407997 13.439571 0.008104 2.067808 -0.000083 -0.001089 172293.000000 1 0 0
-7.744848 -6.607434 -11.247097 15.170301 0.706314 2.405934 0.008752 0.000346 -1926520.000000 1 0 0
4.197452 6.075766 6.533103 9.859765 0.966237 0.846508 -0.006465 0.004677 -2405210.000000 1 0 0
-4.385848 -1.416734 -7.292397 8.626810 0.312444 2.577956 0.010499 -0.013154 -679299.000000 1 0 0
9.659952 9.193966 0.784303 13.358847 0.760688 1.512052 0.000801 0.003500 -1975850.000000 1 0 0
-8.986348 3.939666 4.933503 10.982480 -0.413170 1.104909 0.000033 -0.008070 390298.000000 1 0 0
-7.137048 7.857766 -12.290297 16.239868 -0.833426 2.429196 -0.008240 0.004456 -1230240.000000 1 0 0
11.095552 -3.628134 7.099703 13.663104 -0.316031 1.024383 0.012053 -0.000207 648659.000000 1 0 0
11.917752 6.861466 6.390403 15.164095 0.522386 1.135789 -0.001395 0.004390 -21720.800000 1 0 0
-10.104448 -0.720934 -14.730697 17.877725 0.071228 2.539177 -0.016745 0.010565 300454.000000 1 0 0
1.851552 -13.213534 11.984903 17.934984 -1.431577 0.838954 0.002408 -0.000892 -327600.000000 1 0 0
3.102452 2.936266 12.983703 13.668336 0.757885 0.317845 -0.008105 -0.002668 -402889.000000 1 0 0
-2.423548 -1.511734 11.035203 11.398888 0.557714 0.253284 0.000536 -0.004295 -1123400.000000 1 0 0
2.509852 -10.019534 -8.183097 13.177765 -1.325351 2.240786 -0.007438 0.006918 -1301540.000000 1 0 0
13.839152 3.698566 -7.543697 16.189777 0.261150 2.055509 0.003869 0.005304 -2481220.000000 1 0 0
7.239852 -1.668034 4.938103 8.920911 -0.226445 0.984184 -0.004854 0.002047 182922.000000 1 0 0
-1.137648 8.663166 10.166003 13.404936 -1.440223 0.709976 -0.001236 0.001169 86807.200000 1 0 0
-12.142748 -4.581834 1.001303 13.016995 0.360813 1.493797 0.000329 -0.002604 -384121.000000 1 0 0
-5.054948 4.888966 -5.265897 8.785451 -0.768708 2.213533 0.002772 -0.000410 49193.300000 1 0 0
-11.255748 0.411966 2.177803 11.471896 -0.036584 1.379799 -0.001841 0.000418 -2631520.000000 1 0 0
-1.255748 2.293966 -4.154297 4.908906 -1.069941 2.579755 0.007653 -0.006424 764426.000000 1 0 0
3.211552 -10.015134 13.161203 16.847381 -1.260486 0.674208 -0.003726 -0.000194 -2631810.000000 1 0 0
8.894352 4.644866 -1.631397 10.165910 0.481270 1.731970 -0.001101 0.000924 -1313200.000000 1 0 0
4.113552 2.271966 3.787903 6.035839 0.504617 0.892370 -0.009870 0.004134 -78636.100000 1 0 0
-5.446748 -3.244534 7.496703 9.818077 0.537239 0.701986 0.005411 -0.007142 210004.000000 1 0 0
1.800152 -5.904534 7.728203 9.890864 -1.274872 0.673974 -0.010350 0.001395 -861031.000000 1 0 0
-5.858848 -6.104334 -9.769697 12.924240 0.805915 2.427855 0.009896 0.001388 -775138.000000 1 0 0
-11.709648 -5.654034 5.649303 14.177397 0.449836 1.160945 0.007410 -0.003441 -1096860.000000 1 0 0
10.559952 6.198566 4.461003 13.032089 0.530797 1.221423 -0.002637 0.002971 -825586.000000 1 0 0
1.406652 -3.747834 0.459703 4.029424 -1.211742 1.456461 0.005590 -0.001215 -717202.000000 1 0 0
8.841652 4.294066 6.970103 12.049736 0.452113 0.953976 -0.001943 0.005419 -508687.000000 1 0 0
-7.862248 12.033466 3.541503 14.804104 -0.992059 1.329229 -0.005597 -0.009746 -236997.000000 1 0 0
-6.175548 13.260266 -6.937597 16.189573 -1.134948 2.013653 -0.000310 -0.000773 167088.000000 1 0 0
4.417752 -6.983434 -0.924197 8.314988 -1.006747 1.682175 -0.000080 -0.002200 -156682.000000 1 0 0
-1.802948 -8.207334 11.225303 14.022068 1.354556 0.642591 -0.005956 -0.004515 -58304.900000 1 0 0
11.597252 8.888866 -5.790297 15.717370 0.653954 1.948085 0.007410 -0.000666 335567.000000 1 0 0
-3.311048 -2.850234 -1.914997 4.770125 0.710745 1.983903 0.011255 -0.006191 -2181180.000000 1 0 0
-1.917748 5.803266 4.789903 7.765232 -1.251634 0.906075 0.000929 0.000736 1777350.000000 1 0 0
0.340952 -11.434134 -5.690397 12.776396 -1.540986 2.032399 -0.001505 -0.001620 -2404020.000000 1 0 0
-8.850648 6.337766 -1.395497 10.974910 -0.621436 1.698295 0.001439 -0.002000 -750490.000000 1 0 0
2.892752 -0.066334 3.876403 4.837243 -0.022927 0.641220 -0.008644 0.001513 118883.000000 1 0 0
-10.214648 4.079366 -0.978897 11.042577 -0.379958 1.659560 -0.000598 -0.001328 127594.000000 1 0 0
6.482652 5.304666 13.610703 15.981724 0.685792 0.551687 0.003315 0.005032 -459886.000000 1 0 0
-8.760248 -1.436834 5.717503 10.559180 0.162570 0.998609 0.006103 -0.007445 -229119.000000 1 0 0
12.893452 -1.940034 -1.469297 13.121115 -0.149346 1.683011 0.003822 0.000844 -474315.000000 1 0 0
5.259552 -5.618434 5.439903 9.424555 -0.818378 0.955494 -0.010666 0.001264 192473.000000 1 0 0
-9.032948 -1.138834 3.259703 9.670406 0.125414 1.226982 0.003329 -0.005628 90631.700000 1 0 0
2.007652 5.395066 5.593203 8.026289 1.214546 0.799786 -0.004256 0.003839 -1108890.000000 1 0 0
9.198952 3.155566 -7.483697 12.271268 0.330457 2.226674 0.001668 0.001480 -941746.000000 1 0 0
2.313352 -2.458934 -1.634597 3.750981 -0.815895 2.021699 -0.000713 0.001064 -373987.000000 1 0 0
-6.289448 0.412466 -3.789397 7.354374 -0.065487 2.112104 0.006463 -0.005875 -3124180.000000 1 0 0
-4.069948 4.166766 5.025703 7.693121 -0.797152 0.858898 0.008541 -0.002197 680672.000000 1 0 0
-6.579048 1.765766 -12.117697 13.901093 -0.262213 2.629474 -0.006765 0.001140 -2417920.000000 1 0 0
-0.052048 3.165266 6.192803 6.955029 -1.554354 0.472559 -0.002470 0.000570 995154.000000 1 0 0
-8.629048 9.472166 -1.962597 12.962800 -0.831942 1.722783 -0.003543 0.002711 537142.000000 1 0 0
-1.373548 -3.644434 -6.096697 7.234518 1.210370 2.573118 0.004777 -0.003467 163119.000000 1 0 0
-3.276848 7.062166 -2.980697 8.336454 -1.136361 1.936439 0.002475 0.001955 1102970.000000 1 0 0
7.101752 -0.415334 -4.442397 8.387030 -0.058417 2.129013 -0.000062 0.002025 -500682.000000 1 0 0
-4.990448 -10.795534 6.948003 13.773993 1.137786 1.042076 0.000631 0.001233 -70304.900000 1 0 0
9.839952 8.269466 -1.641097 12.957697 0.698893 1.697788 0.000405 0.002999 -554202.000000 1 0 0
13.727252 4.631466 -4.365597 15.130973 0.325399 1.863478 -0.002422 0.004357 1077540.000000 1 0 0
4.700052 1.096566 -6.849297 8.378891 0.229209 2.527761 -0.004053 0.000688 -704144.000000 1 0 0
8.967652 -4.883434 3.484603 10.789308 -0.498658 1.241932 0.000311 -0.000726 -856942.000000 1 0 0
-8.741448 -3.248334 -0.667597 9.349346 0.355788 1.642263 0.005519 -0.004544 465979.000000 1 0 0
-8.702248 -4.201034 -10.376597 14.179266 0.449755 2.391777 0.005391 -0.000973 114708.000000 1 0 0
10.564452 -1.219634 10.556103 14.984207 -0.114938 0.789103 0.006329 0.000643 286093.000000 1 0 0
2.184752 -11.682734 9.786803 15.396134 -1.385925 0.881925 -0.004213 -0.004836 334648.000000 1 0 0
-6.392648 -10.441034 2.162303 12.432084 1.021409 1.395978 0.009727 -0.002465 -1543950.000000 1 0 0
-3.658648 -1.214534 6.907803 7.910660 0.320516 0.509010 0.006707 -0.001722 -883499.000000 1 0 0
4.704552 -7.575034 3.902903 9.733787 -1.015035 1.158227 -0.007760 0.001244 -59640.800000 1 0 0
11.334152 -9.540534 -5.478397 15.795494 -0.699686 1.924989 0.014957 -0.005460 834353.000000 1 0 0
11.278352 1.040966 11.519803 16.155207 0.092037 0.776928 0.005218 0.000836 235054.000000 1 0 0
-10.224148 -3.405034 4.448203 11.658215 0.321485 1.179323 0.006026 -0.003959 2053970.000000 1 0 0
2.119352 8.691766 9.127903 12.781121 1.331629 0.775358 -0.001807 0.003628 -418757.000000 1 0 0
6.629452 8.768866 4.042603 11.712612 0.923453 1.218398 -0.000917 0.006542 35488.400000 1 0 0
-4.225748 3.529466 0.372103 5.518382 -0.695856 1.503315 0.010830 -0.005059 -1247150.000000 1 0 0
4.949352 6.937766 4.180203 9.492248 0.951138 1.114774 -0.004591 0.004723 -1433680.000000 1 0 0
-8.164248 13.037466 1.120903 15.423582 -1.011324 1.498058 -0.002538 -0.011065 584770.000000 1 0 0
8.742152 8.194666 -9.201997 15.108094 0.753084 2.225693 0.003227 -0.006792 -591728.000000 1 0 0
7.006452 1.917666 5.985003 9.412124 0.267157 0.881645 -0.007814 0.002658 87217.300000 1 0 0
11.555952 -6.319734 3.125603 13.536930 -0.500446 1.337799 0.006343 -0.000640 -187561.000000 1 0 0
11.386552 4.594166 -2.195697 12.473211 0.383497 1.747751 -0.003999 0.005214 -746259.000000 1 0 0
-3.920948 14.388166 -5.906497 16.039945 -1.304745 1.947908 -0.011811 0.007711 -609723.000000 1 0 0
7.143652 -3.088934 6.846403 10.365641 -0.408124 0.849325 -0.004892 0.000605 -824439.000000 1 0 0
-8.079548 -0.421634 0.967003 8.148127 0.052138 1.451838 0.005001 -0.005426 320244.000000 1 0 0
-2.971248 1.041266 10.770803 11.221531 -0.337073 0.284387 -0.001123 -0.001639 321433.000000 1 0 0
7.085052 -1.304534 -1.979997 7.471289 -0.182085 1.839015 -0.000861 0.001858 -2329160.000000 1 0 0
-7.689348 5.381566 3.081003 9.878254 -0.610641 1.253607 0.007000 -0.005503 782000.000000 1 0 0
9.455952 -2.323734 2.700303 10.104771 -0.240968 1.300278 -0.001420 0.000694 -1982260.000000 1 0 0
0.281452 3.427366 1.630303 3.805777 1.488861 1.128102 -0.001313 0.000848 -3977310.000000 1 0 0
-7.530448 -3.000334 4.186303 9.123310 0.379150 1.094087 0.006367 -0.005427 843142.000000 1 0 0
-2.323048 8.381166 -6.739697 11.002909 -1.300409 2.230063 -0.002122 0.000889 -219958.000000 1 0 0
4.640852 9.742066 7.318203 13.038460 1.126229 0.974867 -0.000101 0.009864 11800.700000 1 0 0
-11.801148 -3.048634 6.927403 14.019636 0.252807 1.053972 0.004183 -0.001909 -810398.000000 1 0 0
-4.817248 2.348566 -5.556297 7.719720 -0.453624 2.374244 0.008366 -0.007157 -490471.000000 1 0 0
-2.766348 3.017566 -1.972197 4.544001 -0.828805 2.019749 0.009083 -0.004106 2056940.000000 1 0 0
2.467452 5.102166 11.507903 12.827792 1.120348 0.457619 -0.004376 -0.002022 335675.000000 1 0 0
-0.660148 1.643566 4.483403 4.820582 -1.188863 0.376235 -0.000358 -0.001667 396.213000 1 0 0
5.082152 1.457066 7.609903 9.266172 0.279213 0.607187 -0.010509 0.002963 55554.900000 1 0 0
3.501252 -8.169534 1.775903 9.063878 -1.165902 1.373589 -0.003497 -0.000007 2091650.000000 1 0 0
4.993852 6.423866 -4.780297 9.436940 0.909995 2.101977 0.003375 -0.001462 -2609960.000000 1 0 0
-4.145548 2.885966 -7.947697 9.417019 -0.608144 2.575441 0.008367 -0.008745 -620065.000000 1 0 0
-8.748748 -2.123634 -12.839597 15.681379 0.238130 2.530079 -0.003922 0.001022 925747.000000 1 0 0
-7.823748 8.199266 1.295303 11.406875 -0.808830 1.456996 0.003779 -0.004020 -1572230.000000 1 0 0
7.372752 0.878866 -6.693497 9.996638 0.118645 2.304432 0.000478 0.001693 1678560.000000 1 0 0
9.065652 8.815566 5.439103 13.765322 0.771413 1.164586 -0.004574 0.008441 733428.000000 1 0 0
9.426352 -1.120534 -1.451097 9.602989 -0.118317 1.722486 0.001343 0.001873 1177210.000000 1 0 0
5.382552 0.039366 4.116803 6.776539 0.007313 0.917877 -0.009454 0.003277 -550080.000000 1 0 0
-4.280548 -7.234834 -7.880397 11.522438 1.036533 2.323915 0.013338 -0.004119 -746602.000000 1 0 0
-2.112748 7.476066 -0.591397 7.791342 -1.295377 1.646774 0.003851 -0.000538 2930.600000 1 0 0
13.276952 -3.484134 -7.583397 15.681982 -0.256633 2.075529 0.011347 -0.000101 1189760.000000 1 0 0
-4.768648 -4.926834 1.633703 7.048595 0.801712 1.336892 0.010169 -0.005784 1123940.000000 1 0 0
-8.943848 1.393666 2.583703 9.413302 -0.154581 1.292754 0.003578 -0.003981 -1451780.000000 1 0 0
-0.995548 11.002766 10.212203 15.044636 -1.480560 0.824678 0.002697 0.002522 73335.500000 1 0 0
-8.470748 0.397166 7.590303 11.380862 -0.046852 0.840708 0.004984 -0.006994 -1051590.000000 1 0 0
-5.985348 13.062166 -1.962997 14.501652 -1.141128 1.706577 -0.006922 0.000538 -284194.000000 1 0 0
-13.073548 -0.659534 3.254403 13.488654 0.050405 1.327122 -0.003361 0.001070 226998.000000 1 0 0
-6.640748 12.742466 8.725003 16.810581 -1.090371 1.025094 -0.004926 -0.003015 -736781.000000 1 0 0
-8.152548 0.968666 -13.987097 16.218546 -0.118263 2.610815 -0.016354 0.005267 -81484.100000 1 0 0
7.337052 2.849666 3.692203 8.693980 0.370461 1.132182 -0.003771 0.002896 -458063.000000 1 0 0
-1.655148 0.744966 -2.089997 2.768136 -0.422929 2.426480 0.008166 -0.007161 1211610.000000 1 0 0
-6.313248 9.708366 -10.448497 15.597453 -0.994218 2.304850 -0.009898 0.005725 -201556.000000 1 0 0
-9.937548 13.714766 5.378003 17.769991 -0.943759 1.263329 -0.014837 -0.008331 426972.000000 1 0 0
-5.609148 8.284766 2.520503 10.317598 -0.975644 1.324007 0.001948 -0.002976 -1025720.000000 1 0 0
-2.423048 -10.793934 -1.285997 11.137054 1.349975 1.686525 0.009661 -0.002687 -124302.000000 1 0 0
-2.170748 -12.462434 8.804003 15.412167 1.398343 0.962784 -0.004257 -0.001106 491085.000000 1 0 0
-14.685048 -6.426134 -1.512197 16.100701 0.412492 1.664856 0.012954 -0.001809 421982.000000 1 0 0
-2.704448 -9.227434 3.322803 10.173525 1.285693 1.238079 0.002097 -0.000365 -1867230.000000 1 0 0
4.725052 -2.765834 7.524403 9.305514 -0.529582 0.629034 -0.010688 0.003482 -1816540.000000 1 0 0
-15.136048 -1.154534 -0.223797 15.181666 0.076130 1.585538 -0.000556 -0.002280 351688.000000 1 0 0
5.502452 8.735966 -2.869697 10.715840 1.008708 1.841905 0.001108 -0.000035 -108562.000000 1 0 0
-5.528448 -5.691634 8.491803 11.621926 0.799941 0.751492 0.004708 -0.003840 -1832100.000000 1 0 0
3.566952 3.558866 6.937303 8.574080 0.784263 0.628174 -0.008386 0.003194 -31959.900000 1 0 0
3.427752 2.463566 9.393603 10.298467 0.623174 0.422331 -0.006911 -0.000444 -690957.000000 1 0 0
9.841252 -3.088734 5.089103 11.501717 -0.304120 1.112451 0.007347 0.000047 -742898.000000 1 0 0
6.542652 9.935866 -5.101097 12.944068 0.988477 1.975871 0.002589 -0.002860 -207302.000000 1 0 0
-4.565348 12.035466 -8.484797 15.417088 -1.208240 2.153580 -0.014196 0.002894 -524527.000000 1 0 0
-3.439548 -7.154034 2.158503 8.226168 1.122639 1.305293 0.004030 -0.002914 675226.000000 1 0 0
-7.431848 -3.980734 1.308903 8.531813 0.491745 1.416774 0.008291 -0.006399 2767720.000000 1 0 0
-2.081148 -3.857634 -10.950297 11.794979 1.076059 2.760843 0.009300 -0.001671 -1238780.000000 1 0 0
-5.251548 8.210366 -4.379997 10.685187 -1.001750 1.993155 -0.002550 0.003432 -2699640.000000 1 0 0
-11.088848 -3.106634 -10.037697 15.276423 0.273156 2.287723 -0.001331 0.000137 -1230500.000000 1 0 0
4.606052 -11.328134 -7.727097 14.465489 -1.184611 2.134327 -0.006523 0.000315 -3201810.000000 1 0 0
-9.345848 -3.896834 7.314403 12.491225 0.395040 0.945221 0.004785 -0.003588 -1260280.000000 1 0 0
-5.735648 -9.689634 -5.045997 12.338912 1.036327 1.992099 0.007255 -0.005926 657094.000000 1 0 0
4.674152 4.423966 -9.604097 11.561048 0.757906 2.551212 0.001267 0.002467 161795.000000 1 0 0
-3.489548 -7.091534 -14.119497 16.181069 1.113511 2.631284 -0.005249 0.009580 352062.000000 1 0 0
0.511852 -0.808234 -8.775697 8.827689 -1.006253 3.033007 0.004419 -0.007771 -709311.000000 1 0 0
-7.745648 2.184366 -2.867697 8.543430 -0.274873 1.913103 0.005031 -0.002845 -512628.000000 1 0 0
-2.519448 7.510966 -12.603997 14.887006 -1.247155 2.580444 -0.002588 0.001157 -38745.200000 1 0 0
-9.805348 8.825666 7.611703 15.230734 -0.732863 1.047475 -0.009954 -0.008825 -369242.000000 1 0 0
-10.650748 -3.126334 -14.210697 18.032091 0.285512 2.478477 -0.013787 0.008424 -875944.000000 1 0 0
-3.359948 4.763166 7.974303 9.877576 -0.956454 0.631210 0.000731 -0.000763 46837.700000 1 0 0
8.628652 -2.379134 -3.608497 9.650656 -0.269040 1.954020 0.000821 0.000890 -5330930.000000 1 0 0
1.923052 -8.416234 -1.183997 8.713953 -1.346160 1.707092 0.002003 -0.000911 -1288000.000000 1 0 0
-13.587148 -2.786834 5.112803 14.782348 0.202302 1.217628 -0.001063 0.000363 242089.000000 1 0 0
6.984252 2.838966 -2.018197 7.804654 0.386081 1.832357 -0.001098 0.001849 944888.000000 1 0 0
-10.967248 4.374266 8.979703 14.834076 -0.379513 0.920600 -0.006035 -0.007385 -2116300.000000 1 0 0
-1.676848 -2.540334 7.884403 8.451564 0.987361 0.368433 0.000600 -0.004158 -337830.000000 1 0 0
2.781752 12.094566 -9.830897 15.832346 1.344728 2.240734 -0.001849 -0.003714 632695.000000 1 0 0
3.597852 -5.004734 -7.125697 9.421648 -0.947505 2.428452 -0.003480 -0.002170 177784.000000 1 0 0
8.091752 -13.917834 -9.836897 18.866560 -1.044170 2.119279 0.015157 0.006912 -162294.000000 1 0 0
-6.269048 -5.714634 -0.395897 8.492040 0.739167 1.617433 0.010267 -0.004577 -260314.000000 1 0 0
-1.080248 -4.076934 9.891103 10.752779 1.311783 0.403061 -0.004521 -0.002247 509929.000000 1 0 0
2.866552 3.276166 1.805403 4.712734 0.851982 1.177657 -0.007639 0.002687 -533158.000000 1 0 0
-9.096548 13.339366 7.888903 17.969993 -0.972299 1.116306 -0.012963 -0.013320 -446911.000000 1 0 0
4.125552 -11.171434 0.026203 11.908896 -1.217037 1.568596 -0.002157 -0.007112 -742335.000000 1 0 0
-12.760148 -1.498434 -8.911497 15.635903 0.116895 2.177227 -0.002822 -0.002459 -400795.000000 1 0 0
-4.413248 0.832866 -13.394697 14.127573 -0.186526 2.818079 0.000897 -0.001768 349539.000000 1 0 0
4.025352 -3.056234 4.935303 7.064081 -0.649393 0.797291 -0.009585 0.003781 42808.800000 1 0 0
1.856252 -1.217834 1.042103 2.452503 -0.580632 1.131929 -0.004722 0.000004 767337.000000 1 0 0
8.087952 -9.162334 7.271403 14.220993 -0.847600 1.034082 0.001441 -0.003752 -1714010.000000 1 0 0
-0.074048 2.344066 -6.427197 6.841709 -1.539217 2.791713 0.006155 -0.006217 -211457.000000 1 0 0
-3.694548 -9.557634 -3.303397 10.766174 1.201934 1.882658 0.010548 -0.000410 6938.900000 1 0 0
-9.584048 2.279866 -5.485897 11.275940 -0.233541 2.078891 -0.002693 -0.000301 -2402660.000000 1 0 0
8.887752 -7.732034 5.266403 12.903933 -0.715971 1.150398 -0.002216 -0.002099 875805.000000 1 0 0
-5.460848 -4.248334 4.627903 8.323863 0.661158 0.981255 0.006052 -0.006215 -1173480.000000 1 0 0
-0.090948 -12.525534 10.451203 16.313336 1.563535 0.875447 -0.003777 -0.001162 -422934.000000 1 0 0
-14.126148 -8.155934 3.191403 16.620842 0.523609 1.377584 -0.006815 0.000607 -1561600.000000 1 0 0
10.904752 -1.355734 -3.679197 11.588275 -0.123690 1.893881 0.007560 0.000165 -211887.000000 1 0 0
-13.683548 3.207366 2.682003 14.308034 -0.230239 1.382234 -0.008309 -0.000182 -1498780.000000 1 0 0
-6.326448 6.189666 1.046003 8.912353 -0.774470 1.453160 0.005074 -0.003215 782504.000000 1 0 0
7.146052 -6.955934 -0.525497 9.986352 -0.771917 1.623442 -0.001431 -0.002749 -537584.000000 1 0 0
-6.779248 7.798166 10.114303 14.459209 -0.855182 0.796090 -0.006795 -0.003576 -113747.000000 1 0 0
-12.698648 -5.038934 -1.817297 13.782202 0.377752 1.703040 0.005180 -0.004928 -4416600.000000 1 0 0
-9.397248 -5.560034 0.324003 10.923701 0.534269 1.541131 0.004733 -0.003665 -1112520.000000 1 0 0
-1.740848 1.802366 2.123003 3.284238 -0.802758 0.867911 0.004829 -0.004174 -91609.500000 1 0 0
-7.107148 7.396566 7.622103 12.779562 -0.805350 0.931751 -0.002716 -0.007240 -537834.000000 1 0 0
5.613552 7.137666 -0.525697 9.095856 0.904361 1.628624 -0.000812 0.001056 -1876170.000000 1 0 0
0.071752 -4.089834 7.479003 8.524517 -1.553254 0.500480 -0.005377 -0.000515 -354437.000000 1 0 0
6.532152 0.579966 13.054803 14.609355 0.088554 0.465512 -0.006231 -0.000623 286801.000000 1 0 0
5.754152 6.147666 -8.082697 11.671934 0.818449 2.335731 -0.002469 0.000591 -1354460.000000 1 0 0
10.078552 5.228066 8.987603 14.480569 0.478521 0.901204 0.000263 0.003278 -1774310.000000 1 0 0
-1.391248 -4.946234 -8.478197 9.913659 1.296606 2.596740 0.008982 -0.002807 421050.000000 1 0 0
9.898552 -3.494534 -7.950897 13.168518 -0.339376 2.219032 0.011615 -0.004177 421378.000000 1 0 0
8.418252 -5.600334 1.200903 10.181988 -0.587029 1.452577 -0.000048 -0.000400 1236610.000000 1 0 0
15.815252 3.088566 -5.089797 16.898741 0.192863 1.876741 0.006095 0.008739 281347.000000 1 0 0
-6.811148 3.666566 1.259903 7.837270 -0.493830 1.409338 0.009183 -0.004435 1254070.000000 1 0 0
-1.734848 3.782366 0.145603 4.163795 -1.140758 1.535820 0.006535 -0.006230 -1692810.000000 1 0 0
-2.488648 9.938666 6.946003 12.378102 -1.325441 0.975019 0.001346 0.001421 335361.000000 1 0 0
5.487952 -5.707034 -8.851297 11.875745 -0.804965 2.411819 -0.001550 -0.001728 -91187.000000 1 0 0
-1.132148 -0.913034 6.213703 6.381653 0.678669 0.229930 0.000584 -0.004130 80794.900000 1 0 0
-5.724648 5.035066 -7.849497 10.942490 -0.721396 2.370775 -0.000301 -0.001556 -371053.000000 1 0 0
6.852052 -1.251934 2.388203 7.363523 -0.180716 1.240494 -0.003050 0.002467 -1726600.000000 1 0 0
8.823052 7.494566 3.132503 11.992803 0.704163 1.306533 -0.002557 0.003520 -34875.600000 1 0 0
-5.317248 -4.809434 -7.716397 10.533118 0.735294 2.392907 0.010290 -0.005650 586294.000000 1 0 0
-2.461748 7.880666 -10.074597 13.025459 -1.268022 2.455069 0.001216 0.001734 841438.000000 1 0 0
-2.816648 -2.325834 1.669803 4.016373 0.690243 1.142030 0.004880 -0.002840 -564306.000000 1 0 0
5.818552 -2.135634 -9.265697 11.147628 -0.351773 2.552025 0.001288 -0.001656 938630.000000 1 0 0
1.183552 -7.639834 5.060503 9.239944 -1.417100 0.991211 -0.006962 0.001927 -27355.400000 1 0 0
1.906952 11.827166 1.199403 12.039804 1.410937 1.471011 -0.001393 0.000591 651221.000000 1 0 0
-1.086048 6.965066 2.526703 7.488382 -1.416114 1.226625 0.001550 0.002119 614361.000000 1 0 0
8.717252 7.936866 -6.730197 13.574972 0.738574 2.089529 0.004949 -0.004321 -248145.000000 1 0 0
3.800852 -11.209334 5.425803 13.020560 -1.243883 1.140973 -0.004654 -0.004178 758639.000000 1 0 0
7.879952 -7.228634 12.355303 16.340144 -0.742316 0.713414 -0.010797 0.000061 -18286.500000 1 0 0
-8.727148 -0.016834 -3.986697 9.594642 0.001929 1.999303 0.005088 -0.002498 -733591.000000 1 0 0
-3.192348 -4.993134 11.314003 12.772202 1.001946 0.482516 0.000837 -0.006875 -26007.500000 1 0 0
-8.309348 0.111266 -11.492897 14.182536 -0.013390 2.515555 -0.005304 -0.004849 -2581380.000000 1 0 0
1.462252 -5.060034 5.340203 7.500660 -1.289479 0.778505 -0.006882 0.002297 -834114.000000 1 0 0
6.602352 3.663466 -7.818797 10.869481 0.506577 2.373641 -0.002408 0.003008 -1973180.000000 1 0 0
16.219852 4.266266 -1.398597 16.829756 0.257202 1.653995 -0.016600 0.016486 -609319.000000 1 0 0
7.890352 7.389666 -0.019997 10.810421 0.752642 1.572646 -0.002182 0.000612 -2074580.000000 1 0 0
5.520652 -10.453734 13.830603 18.194608 -1.084920 0.707255 -0.007096 -0.000773 -108440.000000 1 0 0
-4.994648 -9.216734 8.981703 13.804554 1.074185 0.862378 -0.002105 -0.003435 417627.000000 1 0 0
-12.622448 -3.063234 2.834103 13.294425 0.238079 1.355968 0.001281 -0.001820 759005.000000 1 0 0
-2.062648 -1.143234 -5.904897 6.358404 0.506105 2.761623 0.011472 -0.010634 -2419710.000000 1 0 0
-2.440448 13.035166 -4.282297 13.935903 -1.385719 1.883135 -0.008914 0.006138 397617.000000 1 0 0
3.959752 -0.387434 -5.075997 6.449456 -0.097533 2.476797 -0.000508 0.000099 101321.000000 1 0 0
-8.939548 3.804166 -7.355997 12.185971 -0.402331 2.218861 -0.008530 0.001936 496089.000000 1 0 0
-4.779348 8.035166 -11.480997 14.806058 -1.034206 2.458185 -0.005347 0.004381 -2357180.000000 1 0 0
-9.967948 -6.380434 7.423503 13.970624 0.569381 1.010585 0.005840 -0.002008 -1476440.000000 1 0 0
8.184752 5.239966 4.191503 10.583766 0.569463 1.163606 -0.005563 0.003239 -988453.000000 1 0 0
-6.570148 -7.455634 4.053803 10.732505 0.848447 1.183472 0.012084 -0.003634 -1291800.000000 1 0 0
-4.064548 11.742166 8.127903 14.847957 -1.237556 0.991531 -0.001298 0.002903 445499.000000 1 0 0
-7.148048 10.013566 -7.962597 14.655000 -0.950844 2.145203 -0.005090 0.003771 -1285010.000000 1 0 0
13.132552 5.525266 4.542003 14.954005 0.398249 1.262190 -0.003777 0.002239 -659953.000000 1 0 0
5.291552 3.944466 -3.890497 7.661285 0.640568 2.103440 -0.000400 0.002442 374519.000000 1 0 0
-2.752448 -4.152834 5.072203 7.109800 0.985484 0.776444 0.003959 -0.002204 -124359.000000 1 0 0
12.342452 -2.443634 -5.483297 13.724941 -0.195458 1.981782 0.009449 -0.002293 -1683170.000000 1 0 0
-5.192848 9.659566 7.071403 13.049047 -1.077534 0.998089 -0.002445 -0.002916 187406.000000 1 0 0
1.811552 3.746366 -0.466997 4.187489 1.120396 1.682551 -0.004318 0.000038 609104.000000 1 0 0
0.042352 9.562766 7.802603 12.342159 1.566368 0.886418 0.001434 0.004020 -1078490.000000 1 0 0
-5.538948 2.114466 5.841403 8.323035 -0.364671 0.792825 0.008122 -0.004659 672936.000000 1 0 0
8.891652 0.816166 10.524003 13.801530 0.091534 0.703590 0.001288 0.001657 -3329430.000000 1 0 0
0.300352 -2.850034 -10.153697 10.550377 -1.465799 2.866505 0.002562 -0.003849 -2690540.000000 1 0 0
1.277652 10.606966 -2.666197 11.011300 1.450920 1.815360 -0.001786 0.000215 -1732990.000000 1 0 0
2.401752 -4.381634 11.633103 12.660815 -1.069382 0.405697 -0.010470 -0.000072 -1438400.000000 1 0 0
6.608052 -3.113334 9.399503 11.904195 -0.440296 0.660646 -0.005175 0.001759 257408.000000 1 0 0
-10.589248 -8.142034 5.786103 14.556919 0.655486 1.162026 0.003476 -0.001165 -488789.000000 1 0 0
-3.129248 0.872466 -6.801197 7.537219 -0.271905 2.695984 0.013376 -0.011507 652495.000000 1 0 0
11.017452 2.691466 -5.240397 12.493598 0.239598 2.003632 0.001713 0.002517 -2975510.000000 1 0 0
-1.931848 -4.028734 -0.029997 4.468069 1.123669 1.577510 0.006044 -0.003929 1060950.000000 1 0 0
-1.401148 -6.326434 -10.753697 12.555038 1.352839 2.599294 0.003851 0.001296 749994.000000 1 0 0
0.261952 6.969066 -6.659297 9.642755 1.533226 2.333116 0.003803 -0.000827 -2064930.000000 1 0 0
1.972152 3.950766 -6.348497 7.733133 1.107803 2.533865 0.000806 -0.000814 -1828470.000000 1 0 0
1.669952 -14.802334 6.468403 16.240015 -1.458455 1.161133 0.005102 -0.006656 252740.000000 1 0 0
-1.818848 5.422166 -10.616297 12.058766 -1.247145 2.647459 0.006808 -0.002667 -92627.600000 1 0 0
13.647352 4.331266 -0.935897 14.348727 0.307316 1.636068 -0.005423 0.007526 -1194880.000000 1 0 0
-2.436548 3.351366 -6.277797 7.521911 -0.942158 2.558205 0.008967 -0.006939 -330083.000000 1 0 0
5.872052 7.771666 14.232703 17.246728 0.923739 0.600168 0.002444 0.001592 127780.000000 1 0 0
15.878752 0.559466 -5.934897 16.960860 0.035219 1.928279 0.003118 0.005662 374508.000000 1 0 0
6.170852 -8.389934 10.482003 14.776427 -0.936636 0.782188 -0.012464 0.002184 1115410.000000 1 0 0
-0.065848 -5.848634 -6.391697 8.663986 1.559538 2.400500 0.001205 -0.001467 -655764.000000 1 0 0
8.445752 5.523266 -7.659597 12.669120 0.579161 2.220045 0.002546 0.001322 -1099200.000000 1 0 0
-15.932448 -0.563234 5.467303 16.853829 0.035337 1.240424 -0.004375 0.000220 226092.000000 1 0 0
-0.495648 4.022166 -12.424197 13.068441 -1.448185 2.826289 0.006606 -0.003837 546002.000000 1 0 0
-11.409848 3.832166 5.870303 13.391437 -0.324027 1.117020 -0.003971 -0.007209 -1147740.000000 1 0 0
5.014852 -9.668334 -9.656897 14.556136 -1.092310 2.296183 -0.006550 0.002688 -194691.000000 1 0 0
1.388452 11.115466 -11.725597 16.216380 1.446528 2.379034 -0.001497 0.001280 -2815200.000000 1 0 0
5.952052 2.401366 1.206503 6.530630 0.383478 1.384984 -0.002134 0.002069 -242158.000000 1 0 0
5.745452 4.556266 4.825703 8.778222 0.670471 0.988748 -0.007737 0.003512 445224.000000 1 0 0
0.389052 -1.535334 -6.346397 6.541052 -1.322621 2.897020 0.004410 -0.004575 -338335.000000 1 0 0
12.604152 6.800666 -4.641797 15.055231 0.494791 1.884221 -0.002615 0.003446 223977.000000 1 0 0
7.377552 3.115566 12.672903 14.991247 0.399584 0.563570 -0.002699 0.001715 -453520.000000 1 0 0
-2.324748 -0.207534 8.698103 9.005805 0.089036 0.262158 0.000025 -0.004171 997629.000000 1 0 0
2.319752 -15.375634 13.252003 20.430540 -1.421054 0.865004 0.001730 0.003730 -219434.000000 1 0 0
18.842352 4.573366 -1.811597 19.473874 0.238113 1.663958 -0.014629 0.023429 52462.200000 1 0 0
-0.312048 -13.294934 7.184303 15.115121 1.547329 1.075485 -0.007357 -0.002816 -1818760.000000 1 0 0
4.329752 1.521266 -0.632497 4.632607 0.337878 1.707756 -0.002136 0.001989 353975.000000 1 0 0
2.712952 -0.510334 -7.485397 7.978202 -0.185938 2.788278 -0.001951 -0.001792 -269828.000000 1 0 0
7.235352 -11.406634 0.830803 13.533361 -1.005530 1.509368 -0.000336 -0.005005 124667.000000 1 0 0
-11.812948 -7.295234 1.430603 13.957536 0.553233 1.468119 0.003620 0.000706 133479.000000 1 0 0
0.276352 -7.037834 10.100403 12.313636 -1.531550 0.608928 -0.008707 -0.000729 -1365260.000000 1 0 0
-4.582848 -7.087734 10.615403 13.561905 0.996823 0.671745 0.002534 -0.004895 -1372470.000000 1 0 0
11.887652 0.728866 -1.737097 12.035988 0.061236 1.715627 -0.002960 0.004811 702867.000000 1 0 0
6.359852 -9.687334 -7.470797 13.787856 -0.989857 2.143420 -0.006114 -0.001096 -539622.000000 1 0 0
-10.868548 4.955766 3.501903 12.447822 -0.427810 1.285620 -0.007691 -0.007406 329886.000000 1 0 0
6.085952 -9.161834 2.052303 11.188832 -0.984453 1.386328 -0.001709 -0.004546 3791660.000000 1 0 0
11.632052 -1.294034 5.799403 13.061862 -0.110792 1.110744 0.008630 -0.003820 -292860.000000 1 0 0
-6.571148 3.543466 4.126003 8.529950 -0.494549 1.065910 0.006397 -0.005379 -1238780.000000 1 0 0
9.491252 6.271966 -3.314797 11.849443 0.583941 1.854323 0.000248 0.002682 -963377.000000 1 0 0
-2.287548 6.530766 10.920903 12.928647 -1.233879 0.564781 -0.007321 -0.002053 256152.000000 1 0 0
2.040352 9.851966 2.966503 10.489252 1.366582 1.284070 -0.003234 0.002729 -29735.100000 1 0 0
2.815052 6.236466 -5.701897 8.906719 1.146791 2.265528 0.000255 -0.000187 -2641570.000000 1 0 0
11.913552 0.142066 -5.607697 13.168112 0.011924 2.010702 0.006572 0.001582 259830.000000 1 0 0
-2.483548 -12.380834 6.238403 14.084415 1.372828 1.111933 -0.003060 0.001281 -544832.000000 1 0 0
10.760352 1.720866 -2.882497 11.271883 0.158584 1.829393 -0.001615 0.003352 300757.000000 1 0 0
-8.899648 5.325166 0.928203 10.412621 -0.539210 1.481536 0.004978 -0.004912 428222.000000 1 0 0
1.252352 -10.291434 5.506303 11.738883 -1.449703 1.082564 -0.006831 -0.000827 305015.000000 1 0 0
9.360452 -5.832534 -1.325597 11.108273 -0.557235 1.690416 -0.001565 -0.001133 690552.000000 1 0 0
-7.695148 8.765566 -4.407997 12.469197 -0.850335 1.932118 -0.006472 0.004006 -192494.000000 1 0 0
-7.556248 -0.085834 -1.580397 7.720227 0.011359 1.776962 0.004605 -0.004172 -1687580.000000 1 0 0
4.189852 8.789066 2.647003 10.090052 1.125952 1.305352 -0.000438 0.002664 -215229.000000 1 0 0
-1.338748 -10.571134 -3.711197 11.283356 1.444825 1.905944 0.007362 -0.001190 -959612.000000 1 0 0
3.209952 7.850466 -3.695197 9.251383 1.182652 1.981682 0.002851 -0.002393 -396052.000000 1 0 0
-4.404848 1.611166 -10.937597 11.900822 -0.350655 2.736491 0.004794 -0.008504 -236418.000000 1 0 0
1.360752 2.631066 10.987003 11.379297 1.093494 0.263341 -0.004562 -0.002966 738054.000000 1 0 0
2.051752 5.719066 -8.127697 10.147751 1.226342 2.499653 0.002101 -0.001340 -110313.000000 1 0 0
15.672552 5.970066 3.995903 17.240586 0.363955 1.336896 -0.003109 0.005719 274366.000000 1 0 0
-4.334048 8.971166 4.693403 11.013347 -1.120753 1.130557 0.003083 -0.000580 171591.000000 1 0 0
-1.018248 -8.177534 -12.452897 14.932633 1.446916 2.557003 -0.003051 0.005359 -334914.000000 1 0 0
14.208252 -4.236134 -5.444297 15.794291 -0.289755 1.922716 0.010336 -0.000147 397843.000000 1 0 0
-6.202548 -6.137434 -5.624197 10.381295 0.780122 2.143329 0.009771 -0.004592 369894.000000 1 0 0
-9.060148 2.610966 -12.123897 15.358786 -0.280579 2.480592 -0.012835 -0.000232 -1207530.000000 1 0 0
10.521852 5.356766 13.686603 18.075603 0.470908 0.711801 0.011049 0.003301 746250.000000 1 0 0
-0.404748 10.843966 5.603703 12.212981 -1.533489 1.094116 0.001480 0.005788 613804.000000 1 0 0
0.334852 11.257766 -0.615297 11.279539 1.541061 1.625373 -0.000128 -0.000122 -136319.000000 1 0 0
-1.348748 -0.640334 3.611903 3.908324 0.443254 0.391974 0.002729 -0.003199 113491.000000 1 0 0
-4.781548 6.791366 8.761503 12.072688 -0.957349 0.758702 -0.000619 -0.001683 -544507.000000 1 0 0
3.425152 -8.707034 -11.596997 14.900820 -1.196012 2.462717 -0.005526 0.006550 1377880.000000 1 0 0
6.813852 -3.897834 12.033503 14.367564 -0.519611 0.578019 -0.001743 0.002820 -730272.000000 1 0 0
-2.795748 -1.810934 -12.536697 12.971679 0.574789 2.881892 0.003882 -0.004730 775689.000000 1 0 0
-15.953648 -4.773134 5.284003 17.470615 0.290711 1.263533 -0.002108 -0.002403 928148.000000 1 0 0
-8.892248 7.378966 5.797503 12.927964 -0.692661 1.105770 -0.009777 -0.007735 -3401450.000000 1 0 0
-12.836948 1.614666 6.114503 14.310190 -0.125126 1.129311 -0.003986 -0.004842 203393.000000 1 0 0
-3.485848 3.553966 10.118203 11.276517 -0.795074 0.457225 -0.002344 0.001211 553212.000000 1 0 0
2.076252 -12.288934 -1.186197 12.519417 -1.403424 1.665687 0.002399 -0.005178 -2504230.000000 1 0 0
10.196452 -5.146734 -3.765397 12.026418 -0.467446 1.889245 0.005705 -0.001361 611009.000000 1 0 0
3.106752 -13.441934 1.009803 13.833192 -1.343661 1.497733 0.003479 -0.005318 279113.000000 1 0 0
9.988252 -1.538034 -6.163397 11.837153 -0.152784 2.118446 0.008027 -0.000315 -594386.000000 1 0 0
11.910352 -5.506434 -1.692897 13.230389 -0.433055 1.699103 0.006206 -0.000637 -263935.000000 1 0 0
1.524252 0.998066 5.873503 6.149595 0.579735 0.300785 -0.005012 -0.000067 48205.200000 1 0 0
-10.678548 11.627266 6.580203 17.103326 -0.827905 1.175878 -0.020601 -0.010157 -720941.000000 1 0 0
4.783852 -14.093534 3.013003 15.185228 -1.243564 1.371054 0.003898 -0.005665 -5181650.000000 1 0 0
5.184852 -3.447734 -1.787297 6.477962 -0.586822 1.850327 0.000343 -0.000487 -1482210.000000 1 0 0
1.984152 -2.886834 -7.769597 8.522752 -0.968638 2.718029 -0.002440 -0.001614 -84369.500000 1 0 0
-2.796748 14.830366 -8.726097 17.432909 -1.384403 2.095034 -0.009515 0.000032 -3105660.000000 1 0 0
-2.487448 6.119366 -8.164997 10.502438 -1.184709 2.461379 0.005490 -0.001435 377642.000000 1 0 0
2.461252 -3.443934 -11.287397 12.055031 -0.950297 2.782803 -0.003216 0.001644 -576158.000000 1 0 0
14.560452 2.795666 -2.765697 15.082161 0.189695 1.755215 0.000121 0.008788 482307.000000 1 0 0
-3.364248 13.042866 2.308403 13.666135 -1.318361 1.401068 -0.001192 -0.001351 -1451640.000000 1 0 0
7.916552 -5.137534 14.052303 16.927294 -0.575645 0.591408 -0.004036 0.001123 -960183.000000 1 0 0
-11.432448 7.386666 2.946703 13.926477 -0.573639 1.357595 -0.008806 -0.007426 921470.000000 1 0 0
-2.200248 11.885166 4.152603 12.780546 -1.387743 1.239873 0.001710 0.000456 985012.000000 1 0 0
1.904952 1.448866 0.746203 2.506965 0.650237 1.268564 -0.007981 0.000984 -1533390.000000 1 0 0
-6.769548 8.519066 5.416703 12.154914 -0.899335 1.108908 -0.002751 -0.004533 -1202580.000000 1 0 0
-1.035848 9.120466 1.092803 9.243922 -1.457707 1.452301 -0.000344 0.001994 656485.000000 1 0 0
4.703352 13.023966 -8.480397 16.237682 1.224240 2.120303 0.002793 -0.011846 -2232960.000000 1 0 0
9.038852 6.890266 7.163703 13.434852 0.651323 1.008397 -0.003488 0.004505 -1447700.000000 1 0 0
7.244652 -13.727834 2.843403 15.780474 -1.085208 1.389622 0.007222 -0.008152 -183789.000000 1 0 0
4.140152 -13.470234 -1.289997 14.151048 -1.272605 1.662082 0.000835 -0.002832 -3557580.000000 1 0 0
12.048052 -11.820334 -4.828297 17.555293 -0.775858 1.849421 0.015362 -0.004324 -860109.000000 1 0 0
2.709552 0.015166 -1.969597 3.349808 0.005597 2.199347 0.001209 -0.001876 711126.000000 1 0 0
-13.774048 -3.372734 -10.548697 17.674126 0.240137 2.210358 -0.000124 -0.000600 325291.000000 1 0 0
-6.502948 13.644866 4.999303 15.920544 -1.126055 1.251376 -0.002963 -0.009801 319510.000000 1 0 0
7.291552 -4.373534 -0.681797 8.529911 -0.540279 1.650812 -0.001803 0.000578 -432121.000000 1 0 0
11.704252 2.122966 -7.401897 14.010159 0.179433 2.127421 0.006034 0.005069 -1129450.000000 1 0 0
-7.404948 -4.605734 9.817803 13.131463 0.556425 0.726273 0.007522 -0.005744 659110.000000 1 0 0
1.093052 2.658366 8.447103 8.922736 1.180694 0.327982 -0.005098 0.000299 -2753050.000000 1 0 0
1.502152 8.196466 -8.770997 12.098301 1.389540 2.381798 0.000947 -0.001365 -1134550.000000 1 0 0
-8.705548 -2.215434 -5.525797 10.546523 0.249196 2.122272 0.005213 -0.006219 -898633.000000 1 0 0
6.542852 -0.529334 6.990103 9.589090 -0.080727 0.753989 -0.006676 0.002587 60685.500000 1 0 0
-10.786448 6.486666 7.300003 14.550407 -0.541428 1.045228 -0.007068 -0.008818 70775.100000 1 0 0
-5.894348 11.080666 5.008803 13.513423 -1.081917 1.191083 -0.002174 -0.007076 334652.000000 1 0 0
5.966952 -1.237234 -6.960497 9.251150 -0.204451 2.422483 0.001431 0.000057 -781495.000000 1 0 0
4.627152 -5.755734 11.378203 13.564753 -0.893670 0.575709 -0.011062 0.002617 -1752980.000000 1 0 0
-8.869548 -7.281634 2.807403 11.814085 0.687397 1.330869 0.010822 -0.004220 -3523210.000000 1 0 0
-1.128948 12.812466 -9.285797 15.863790 -1.482910 2.196102 -0.003098 0.003800 705404.000000 1 0 0
-4.453048 9.344366 -2.232197 10.589122 -1.126085 1.783191 -0.001770 -0.000485 159276.000000 1 0 0
-3.190348 9.743366 -0.180097 10.253971 -1.254361 1.588361 0.000444 -0.000550 -1634870.000000 1 0 0
-3.609448 10.684766 -6.376097 12.955576 -1.245020 2.085355 -0.005095 0.006000 1039150.000000 1 0 0
4.949852 -4.928034 0.322103 6.992160 -0.783189 1.524714 -0.003817 0.000006 -1667820.000000 1 0 0
-2.283948 2.921766 -10.857197 11.473093 -0.907313 2.812445 0.007293 -0.003916 187835.000000 1 0 0
-3.515948 12.114266 -2.125797 12.792042 -1.288325 1.737752 -0.006714 0.002058 413440.000000 1 0 0
-0.157648 0.401866 0.006603 0.431732 -1.196953 1.555501 -0.001694 -0.002808 -1507550.000000 1 0 0
-4.812648 -1.726034 0.196003 5.116561 0.344356 1.532479 0.008449 -0.006227 180795.000000 1 0 0
2.669852 2.518766 -2.503297 4.442835 0.756288 2.169347 -0.008498 -0.000142 1014440.000000 1 0 0
6.053452 -9.885434 8.382403 14.304921 -1.021338 0.944707 -0.007489 -0.000879 241421.000000 1 0 0
-4.212348 -5.465734 6.557103 9.519125 0.914189 0.810916 0.003972 -0.005092 -20383.500000 1 0 0
-6.393748 5.295066 -11.991297 14.584544 -0.691679 2.536048 -0.008628 0.001345 1151550.000000 1 0 0
-12.938848 3.193266 8.082103 15.586248 -0.241962 1.025653 -0.006455 -0.006956 448304.000000 1 0 0
4.764552 -7.400534 -4.909897 10.078489 -0.998784 2.079638 -0.007136 -0.002625 -19311.200000 1 0 0
-6.085448 2.444266 -0.997997 6.633484 -0.381934 1.721818 0.011821 -0.004225 -620345.000000 1 0 0
-6.989448 -2.844834 -14.495797 16.342386 0.386542 2.661617 -0.001597 0.004526 106791.000000 1 0 0
2.812952 -6.150634 0.912603 6.824650 -1.141852 1.436673 -0.001634 0.000524 -67510.900000 1 0 0
4.944252 -7.969334 13.006203 16.034876 -1.015505 0.624732 -0.009851 -0.000322 -85642.000000 1 0 0
-9.992948 -1.552734 8.120803 12.969867 0.154150 0.894218 0.004223 -0.003862 -688776.000000 1 0 0
-4.376048 13.252766 0.069503 13.956734 -1.251869 1.565816 -0.003651 -0.001874 710832.000000 1 0 0
6.789952 2.247566 -4.609397 8.508909 0.319661 2.143271 -0.001281 0.002390 -1497640.000000 1 0 0
5.020052 4.535866 0.048203 6.765894 0.734773 1.563672 -0.002967 0.002039 -875316.000000 1 0 0
-5.753448 12.240266 2.038303 13.677754 -1.131400 1.421216 -0.001483 -0.005954 -115095.000000 1 0 0
6.472552 -7.487034 6.515203 11.848945 -0.857943 0.988606 -0.007544 0.000134 -1114190.000000 1 0 0
-0.172748 4.886466 7.819503 9.222365 -1.535459 0.558813 -0.002351 0.000885 -486709.000000 1 0 0
-5.795748 -3.300734 -1.570597 6.852176 0.517698 1.802064 0.007586 -0.006394 -407155.000000 1 0 0
2.246952 -6.538434 -5.182597 8.640557 -1.239787 2.214046 -0.001846 -0.000246 263833.000000 1 0 0
-14.482048 -4.758734 -3.569997 15.656313 0.317480 1.800843 0.005495 -0.002249 -531407.000000 1 0 0
-12.431448 -5.195534 -6.160997 14.815275 0.395871 1.999678 0.005402 -0.001892 -1631790.000000 1 0 0
-14.748648 -3.740634 -1.108297 15.255926 0.248388 1.643507 0.003706 -0.003961 449840.000000 1 0 0
12.048952 2.914766 8.522003 15.043192 0.237350 0.968541 0.009131 -0.001536 -2120130.000000 1 0 0
8.750452 -6.760134 7.658203 13.450573 -0.657776 0.965071 0.000504 -0.002220 -13373.400000 1 0 0
-9.027448 -1.644534 -9.563997 13.254031 0.180194 2.376895 0.002408 -0.006111 142324.000000 1 0 0
-8.903348 5.222966 -3.762097 10.986462 -0.530530 1.920299 0.000135 0.000244 -770344.000000 1 0 0
-4.079648 -6.214034 4.038203 8.459600 0.989850 1.073158 0.006932 -0.001386 -1309020.000000 1 0 0
-0.096748 -9.284434 3.514503 9.927830 1.560376 1.208946 -0.003733 -0.001506 972769.000000 1 0 0
8.050852 -10.546634 3.267003 13.664590 -0.918801 1.329373 -0.001425 -0.003698 -712077.000000 1 0 0
0.103552 6.434766 9.688903 11.631499 1.554705 0.586309 -0.004321 -0.000925 503875.000000 1 0 0
-0.064348 3.652766 -9.789197 10.448694 -1.553182 2.784401 0.009006 -0.004948 -973970.000000 1 0 0
4.582752 -3.203234 10.995803 12.335721 -0.610039 0.470418 -0.009106 0.000258 -2327990.000000 1 0 0
8.579052 -9.294434 1.144203 12.700230 -0.825402 1.480581 -0.001301 -0.002902 -643210.000000 1 0 0
-0.111648 -0.471234 11.340903 11.351238 1.338159 0.042676 0.001624 -0.003780 -1664860.000000 1 0 0
10.879952 5.949666 11.308903 16.782824 0.500419 0.831405 0.003388 0.004507 204973.000000 1 0 0
-6.379648 -2.953234 -11.830597 13.761705 0.433542 2.605430 0.006086 -0.002167 979576.000000 1 0 0
-1.545548 2.773966 8.395703 8.976159 -1.062471 0.361596 0.000806 -0.000875 1255750.000000 1 0 0
-1.694948 13.549166 -6.813497 15.260291 -1.446347 2.033630 -0.005795 0.006015 699762.000000 1 0 0
7.753252 3.028966 9.761703 12.828811 0.372438 0.706066 -0.002109 0.001184 568980.000000 1 0 0
6.402352 8.487966 -8.019697 13.317327 0.924558 2.217050 0.003036 -0.003030 139710.000000 1 0 0
6.559652 -2.999334 -3.999197 8.247340 -0.428858 2.077054 0.000683 -0.000888 -3123470.000000 1 0 0
2.072152 8.189766 0.962003 8.502442 1.322980 1.457409 -0.002110 0.002749 693824.000000 1 0 0
-17.424848 6.618366 6.515503 19.745376 -0.362993 1.234518 -0.004975 -0.004285 719980.000000 1 0 0
-14.413448 2.991266 -9.847297 17.710573 -0.204628 2.160377 -0.013514 -0.002227 -388716.000000 1 0 0
-18.330448 0.235266 -4.197997 18.806484 -0.012834 1.795914 -0.005281 0.002892 -191140.000000 1 0 0
-12.963648 8.012766 0.197103 15.241372 -0.553618 1.557864 -0.002863 -0.002502 -1859740.000000 1 0 0
-12.720048 -4.260634 -12.809797 18.548410 0.323209 2.333134 -0.004058 0.008898 -833388.000000 1 0 0
-17.502648 -0.904534 -8.516597 19.485720 0.051634 2.023133 -0.001702 -0.000244 -601201.000000 1 0 0
-16.701848 -2.161434 -1.896397 16.947562 0.128698 1.682929 -0.008524 -0.003140 -1196560.000000 1 0 0
-15.405348 4.304466 1.706303 16.086163 -0.272465 1.464524 -0.006600 0.002910 -1400480.000000 1 0 0
-13.028648 5.952566 4.427703 14.992774 -0.428563 1.271003 -0.008221 -0.005702 -716688.000000 1 0 0
-9.937448 14.174966 2.845603 17.543659 -0.959362 1.407875 0.005443 -0.012441 -123668.000000 1 0 0
-11.911648 2.433966 -6.424397 13.750797 -0.201560 2.056920 -0.005894 0.004573 -152464.000000 1 0 0
-15.778448 10.757766 3.953903 19.501854 -0.598407 1.366636 -0.001491 -0.004747 -887667.000000 1 0 0
-12.952048 0.953366 -8.484297 15.512825 -0.073475 2.149479 -0.005999 -0.002500 596788.000000 1 0 0
-12.147548 14.337366 4.111303 19.236054 -0.867892 1.355406 -0.005376 -0.014150 -380040.000000 1 0 0
-10.462048 11.188066 -0.956797 15.347401 -0.818920 1.633179 0.004551 -0.006967 42090.100000 1 0 0
-16.793648 5.854066 8.943903 19.907037 -0.335416 1.104833 -0.004784 -0.009413 93878.300000 1 0 0
-11.813748 12.783766 -8.943997 19.569987 -0.824813 2.045445 0.011198 -0.002772 -1522790.000000 1 0 0
-17.222348 -0.279934 3.269003 17.532085 0.016253 1.383240 -0.000342 0.000059 290628.000000 1 0 0
-13.094248 15.080066 -0.629597 19.981594 -0.855765 1.602310 0.029688 -0.012231 104158.000000 1 0 0
-16.317448 4.628466 -10.274597 19.830510 -0.276391 2.115449 -0.002102 0.005633 413230.000000 1 0 0
-11.888348 7.627466 -8.791997 16.637616 -0.570442 2.127559 -0.006479 0.007033 2154.360000 1 0 0
-14.931448 13.658066 -1.852697 20.320516 -0.740887 1.662097 0.044105 -0.016787 527249.000000 1 0 0
-11.772748 10.719266 -5.354497 16.797943 -0.738594 1.895216 0.007678 -0.000928 1137110.000000 1 0 0
-17.633948 2.986266 -0.718997 17.899466 -0.167756 1.610976 -0.003469 0.000196 -1119870.000000 1 0 0
-9.267548 15.392166 0.756603 17.982732 -1.028838 1.528710 0.007502 -0.013020 81096.800000 1 0 0
-8.035848 13.325066 -3.520497 15.953875 -1.028128 1.793295 0.001264 -0.003076 -584032.000000 1 0 0
-17.657348 11.674566 2.344103 21.297236 -0.584190 1.460507 0.023821 0.007344 -283544.000000 1 0 0
-8.062148 15.731866 -7.207597 19.090293 -1.097221 1.957949 0.024194 -0.012177 -94509.100000 1 0 0
-6.168148 15.297366 -5.263897 17.313696 -1.187520 1.879717 -0.005120 0.002520 1115050.000000 1 0 0
-17.421448 5.538166 -0.189697 18.281524 -0.307791 1.581173 0.009108 0.006832 916492.000000 1 0 0
-5.411748 12.345066 -12.157197 18.151724 -1.157653 2.304674 -0.026203 0.001831 -1394760.000000 1 0 0
-11.187648 3.699266 -11.235497 16.281413 -0.319339 2.332398 -0.010293 -0.001192 462939.000000 1 0 0
-11.819348 11.203566 1.248703 16.333283 -0.758658 1.494270 0.003053 -0.012608 180036.000000 1 0 0
-13.027248 0.027266 -10.941697 17.012662 -0.002093 2.269401 -0.005399 -0.003644 514371.000000 1 0 0
-14.275148 -2.169934 -12.770797 19.276455 0.150853 2.294958 -0.001340 0.000907 145111.000000 1 0 0
-18.749848 -2.204034 -3.420397 19.186289 0.117012 1.750027 -0.017271 0.003397 1316340.000000 1 0 0
-18.231748 4.838466 -5.196897 19.565662 -0.259407 1.839636 0.012856 0.001767 189034.000000 1 0 0
-8.117548 15.445066 -1.972097 17.559436 -1.086898 1.683344 0.008157 -0.007674 358664.000000 1 0 0
-16.005748 9.372566 -5.056297 19.224856 -0.529745 1.836935 0.023712 0.004391 68414.400000 1 0 0
-18.106448 1.939566 2.156203 18.337246 -0.106713 1.452938 -0.012475 0.000313 -759905.000000 1 0 0
-15.749248 -2.822134 -8.468497 18.103002 0.177310 2.057591 -0.010689 -0.004183 -992830.000000 1 0 0
-9.482248 10.581166 -6.939697 15.812447 -0.840116 2.025143 -0.001023 -0.002164 323026.000000 1 0 0
-13.815848 11.968566 -7.453697 19.740360 -0.713877 1.957985 0.016877 -0.012286 -251835.000000 1 0 0
-11.036748 6.605166 -3.842297 13.423906 -0.539294 1.861084 -0.004557 0.004169 -1697820.000000 1 0 0
-13.128148 4.949766 -12.603897 18.860187 -0.360553 2.302691 -0.007896 0.004676 -310588.000000 1 0 0
-17.485548 9.174266 2.815703 19.945920 -0.483194 1.429156 0.004316 -0.000925 683633.000000 1 0 0
-13.332248 8.834066 -6.409097 17.229802 -0.585188 1.951935 0.004587 0.004582 -601749.000000 1 0 0
-15.700748 7.146066 -3.605597 17.623282 -0.427122 1.776844 0.012864 0.004959 -888192.000000 1 0 0
-15.055348 -0.445134 -9.216497 17.658014 0.029558 2.119925 -0.002968 -0.003359 -204259.000000 1 0 0
-9.949548 5.936966 -6.082397 13.085741 -0.537995 2.054217 -0.008996 0.005855 434164.000000 1 0 0
-12.717248 12.409466 -0.945897 17.793762 -0.773150 1.623980 0.020549 -0.011916 -157339.000000 1 0 0
-10.710848 3.469966 -13.820797 17.826311 -0.313298 2.457991 -0.016148 0.005484 13897.600000 1 0 0
-11.014448 6.252266 -11.820897 17.324621 -0.516287 2.321725 -0.014003 0.005796 -465625.000000 1 0 0
-5.912248 11.868766 -14.746697 19.831473 -1.108642 2.409236 -0.015453 0.004030 -257375.000000 1 0 0
-15.519848 13.363066 3.721703 20.815578 -0.710863 1.391036 -0.004730 -0.008129 20956.100000 1 0 0
-14.907748 11.258266 -2.942297 18.911547 -0.646818 1.727013 0.029047 -0.003581 667535.000000 1 0 0
-18.032548 7.899566 -4.351397 20.162108 -0.412891 1.788328 0.014198 0.003625 727890.000000 1 0 0
-4.009748 16.344666 -10.405197 19.786215 -1.330223 2.124547 -0.008083 0.002913 -82573.700000 1 0 0
-15.695748 4.573366 -4.368197 16.921978 -0.283526 1.831890 0.008126 0.003284 562413.000000 1 0 0
-18.742548 -1.799034 -5.890297 19.728538 0.095693 1.873987 -0.007701 0.000595 387208.000000 1 0 0
-10.758948 8.703666 -5.666197 14.953747 -0.680187 1.959420 -0.005929 0.005096 129511.000000 1 0 0
-11.213348 13.593066 -6.427697 18.757022 -0.881037 1.920567 0.012321 -0.006182 313147.000000 1 0 0
-9.430548 10.683866 -4.227497 14.864453 -0.847627 1.859180 -0.006524 0.001605 -470643.000000 1 0 0
-11.069348 6.292366 -0.109597 12.733277 -0.516897 1.579404 -0.007841 0.000316 -1152250.000000 1 0 0
-14.590948 9.537066 -1.079397 17.464721 -0.578922 1.632640 0.016254 -0.001388 30905.900000 1 0 0
-18.436048 3.586466 5.017203 19.440240 -0.192136 1.309758 -0.014463 0.001122 251712.000000 1 0 0
-14.486248 13.402366 0.699703 19.747516 -0.746553 1.535356 0.009796 -0.005511 415188.000000 1 0 0
-16.830548 2.472466 -8.836497 19.169353 -0.145860 2.049884 -0.002854 0.001718 274781.000000 1 0 0
-9.154348 8.534166 -8.754897 15.273581 -0.750351 2.181208 -0.011551 0.007509 -1847560.000000 1 0 0
-17.660348 4.753166 -2.653997 18.480373 -0.262913 1.714906 0.007191 0.003983 1189830.000000 1 0 0
-13.531248 6.009566 -4.404897 15.447093 -0.417958 1.859970 0.001830 0.005970 -1581680.000000 1 0 0
-12.118748 9.693666 3.371003 15.880645 -0.674674 1.356898 -0.009940 -0.006769 303418.000000 1 0 0
-17.624148 2.660366 -3.996897 18.266454 -0.149819 1.791392 0.012497 0.000579 1038550.000000 1 0 0
-11.421248 1.446366 -12.462797 16.966384 -0.125968 2.395812 -0.007722 0.001287 154496.000000 1 0 0
-11.059248 12.026566 3.542603 16.718113 -0.827275 1.357275 -0.004402 -0.014603 -195554.000000 1 0 0
-16.429748 13.149166 -3.950197 21.411241 -0.674940 1.756351 0.039838 -0.008639 1354140.000000 1 0 0
-11.065348 4.144766 -4.587897 12.675559 -0.358395 1.941153 -0.008312 0.003394 -296613.000000 1 0 0
-10.979148 15.148066 -8.542397 20.566432 -0.943627 1.999131 0.014971 -0.008321 277175.000000 1 0 0
-15.409348 7.210966 -0.208497 17.014391 -0.437689 1.583051 0.002888 0.000991 -1115830.000000 1 0 0
-12.748548 8.525866 -3.959197 15.839542 -0.589458 1.823432 0.003070 0.001225 782108.000000 1 0 0
-19.241748 1.998966 -5.897997 20.224418 -0.103516 1.866724 0.004275 0.001824 561286.000000 1 0 0
-12.424348 10.196166 -8.691897 18.272255 -0.687212 2.066543 -0.003614 -0.002233 586209.000000 1 0 0
-16.504548 11.256266 -0.774597 19.992589 -0.598550 1.609550 0.015094 0.001500 442819.000000 1 0 0
-10.886248 6.508266 -14.426397 19.209082 -0.538832 2.420401 -0.009549 0.002918 -398870.000000 1 0 0
-13.804348 13.338266 -4.149797 19.638996 -0.768228 1.783705 0.034585 -0.002052 133960.000000 1 0 0
-17.956448 7.964166 -0.150897 19.643949 -0.417458 1.578478 0.015579 0.005821 973053.000000 1 0 0
-12.682148 6.712266 -2.016597 14.489929 -0.486788 1.710422 -0.006256 0.006211 214239.000000 1 0 0
-13.775648 8.585066 -10.267497 19.206596 -0.557308 2.134809 -0.004144 0.000390 -1530980.000000 1 0 0
-15.087248 1.529066 -0.952997 15.194450 -0.101003 1.633558 -0.001926 0.002517 -1211230.000000 1 0 0
-13.413748 2.826166 -2.394297 13.915765 -0.207655 1.743713 -0.005303 0.000307 300410.000000 1 0 0
-11.349148 9.261666 -10.884797 18.249943 -0.684461 2.209841 -0.011454 -0.000128 321796.000000 1 0 0
-15.371048 4.403866 -7.774797 17.779500 -0.279030 2.023379 0.000482 0.004946 771937.000000 1 0 0
-18.289348 10.620966 4.743603 21.675030 -0.526121 1.350159 0.012081 -0.002339 684374.000000 1 0 0
-15.416848 6.382566 -6.122497 17.773613 -0.392516 1.922472 0.014257 0.009189 700218.000000 1 0 0
-7.785948 11.528866 -12.916497 18.983456 -0.976810 2.319116 -0.022624 0.010004 -425976.000000 1 0 0
-16.701248 9.324266 -2.522897 19.293487 -0.509191 1.701936 0.018829 -0.000838 843873.000000 1 0 0
-20.700848 -0.888534 -4.460897 21.194674 0.042896 1.782855 -0.012205 0.003406 350557.000000 1 0 0
-15.391048 4.492966 4.251603 16.587563 -0.284028 1.311591 -0.005852 -0.002352 552317.000000 1 0 0
-7.025248 12.687166 -9.362197 17.261779 -1.065095 2.144047 -0.005621 -0.000598 139433.000000 1 0 0
-17.019748 1.782466 6.069403 18.157276 -0.104349 1.229967 -0.007535 -0.002695 -12601.400000 1 0 0
-10.311648 14.410966 -2.931197 17.961011 -0.949716 1.734727 0.025268 -0.011853 1623400.000000 1 0 0
-10.075848 8.448066 -13.001797 18.491599 -0.697749 2.350571 -0.021358 0.003620 -159864.000000 1 0 0
-13.649548 11.707766 2.954803 18.223962 -0.708970 1.407939 0.002760 -0.011826 -551696.000000 1 0 0
-16.875248 6.806966 1.989303 18.304811 -0.383408 1.461905 0.001899 0.002155 757129.000000 1 0 0
-9.362548 13.286866 -8.222097 18.215405 -0.956958 2.039109 0.011423 -0.009637 -1469220.000000 1 0 0
-5.816048 9.886066 -13.033597 17.361894 -1.039018 2.419919 -0.004779 0.008236 -106275.000000 1 0 0
-15.837948 2.045766 3.213203 16.289581 -0.128457 1.372239 -0.009088 0.000737 -491560.000000 1 0 0
-18.555448 -4.744334 4.605403 19.698302 0.250321 1.334815 0.006162 0.002531 -560913.000000 1 0 0
-5.328048 14.522466 -9.009497 17.901428 -1.219161 2.098191 -0.009380 -0.000358 -137227.000000 1 0 0
-15.563348 -0.906734 -6.698097 16.967748 0.058195 1.976597 -0.004445 0.000599 897211.000000 1 0 0
-8.935948 11.007566 -9.453997 17.041001 -0.888901 2.158894 -0.010810 -0.004854 386550.000000 1 0 0
-16.783848 1.214666 -5.970097 17.855392 -0.072245 1.911720 -0.000792 -0.002726 203920.000000 1 0 0
-11.055048 8.666366 -1.407497 14.117402 -0.664864 1.670662 0.001499 -0.002581 -802945.000000 1 0 0
-10.914548 11.008166 -12.787897 20.095705 -0.789668 2.260553 -0.010408 0.001326 -114556.000000 1 0 0
-13.884248 11.878266 -10.088297 20.871973 -0.707691 2.075264 0.003271 -0.002458 128903.000000 1 0 0
-13.254948 5.781466 -7.498097 16.289274 -0.411297 2.049139 0.001331 0.009735 -559484.000000 1 0 0
-8.717248 15.604766 -4.634497 18.465581 -1.061354 1.824489 0.016884 -0.004388 553177.000000 1 0 0
-8.734148 6.115966 -13.010397 16.821439 -0.610884 2.455049 -0.013553 0.003237 -1789120.000000 1 0 0
-16.171148 7.642266 4.372903 18.412836 -0.441477 1.331013 -0.005101 -0.000938 142199.000000 1 0 0
-12.719048 5.517566 -10.091297 17.147944 -0.409303 2.199979 -0.003179 0.006245 452555.000000 1 0 0
-12.565048 9.083166 -13.230797 20.382304 -0.625925 2.277239 -0.001230 0.001008 -392191.000000 1 0 0
-10.829348 5.222866 -8.408297 14.671488 -0.449378 2.181086 -0.010300 0.007382 -797802.000000 1 0 0
-17.732748 -4.420034 -2.506397 18.446384 0.244280 1.707093 -0.010460 0.000172 394956.000000 1 0 0
-9.122448 13.337266 -10.725897 19.394499 -0.970902 2.156803 0.005739 -0.005959 -46071.700000 1 0 0
-14.864548 6.300866 6.147903 17.275775 -0.400926 1.206953 -0.010145 -0.008586 -185384.000000 1 0 0
-16.331448 -3.142334 -4.353297 17.191325 0.190087 1.826810 -0.011957 -0.000187 -293925.000000 1 0 0
-11.173448 -1.240634 -12.409397 16.744499 0.110581 2.405508 -0.014588 0.002872 -584189.000000 1 0 0
-15.400048 6.936866 -8.619897 18.962706 -0.423223 2.042687 0.004883 0.012208 34999.500000 1 0 0
-14.848948 9.169966 1.430903 17.510768 -0.553224 1.488989 0.004949 -0.007825 -886593.000000 1 0 0
-19.209448 5.546266 8.193703 21.607886 -0.281082 1.181865 0.014248 -0.012631 -635559.000000 1 0 0
-16.261548 0.621166 1.060303 16.307913 -0.038180 1.505733 -0.007977 -0.000766 -1182800.000000 1 0 0
-17.225548 4.099966 7.180903 19.107449 -0.233669 1.185518 -0.010786 -0.001993 641943.000000 1 0 0
-15.419448 4.214866 -1.429297 16.048905 -0.266829 1.659973 0.002744 0.001523 -1029620.000000 1 0 0
-10.673848 13.325466 0.432403 17.078818 -0.895439 1.545476 0.009600 -0.017772 -865880.000000 1 0 0
-13.539448 3.524166 0.035903 13.990629 -0.254638 1.568230 -0.005102 0.002319 -284637.000000 1 0 0
-15.155648 0.056566 -4.186597 15.723373 -0.003732 1.840313 -0.006344 0.000202 43704.800000 1 0 0
-18.722348 7.053866 3.796803 20.364161 -0.360314 1.383254 0.001721 -0.000013 188241.000000 1 0 0
-14.104048 1.257266 -6.272897 15.487225 -0.088907 1.987815 -0.008017 -0.000037 418107.000000 1 0 0
-14.075048 12.083366 5.461903 19.337712 -0.709406 1.284451 -0.011864 -0.013407 -127357.000000 1 0 0
17.714052 5.421066 6.222003 19.541978 0.296981 1.246764 0.012568 0.000901 498800.000000 1 0 0
18.401652 7.644466 -0.392897 19.930204 0.393731 1.590511 -0.022990 0.022805 -629749.000000 1 0 0
16.757452 5.196766 8.521703 19.504820 0.300712 1.118644 0.025596 -0.001010 422622.000000 1 0 0
11.816152 12.237266 10.974603 20.243864 0.802904 0.997838 0.008509 -0.002488 508457.000000 1 0 0
-2.207848 16.101866 -0.361297 16.256543 -1.434529 1.593023 -0.008521 -0.002194 -82655.500000 1 0 0
14.937552 12.821366 3.351803 19.968787 0.709311 1.402146 0.002153 0.001228 250213.000000 1 0 0
13.756752 11.868266 6.673703 19.355678 0.711834 1.218778 0.015052 0.002804 877036.000000 1 0 0
-0.659848 15.740466 8.622703 17.959640 -1.528900 1.070010 0.005844 0.003586 -116426.000000 1 0 0
0.776252 12.735466 9.542203 15.932617 1.509920 0.928657 0.003616 0.003566 -512819.000000 1 0 0
0.756652 15.573966 -3.920997 16.077784 1.522250 1.817158 -0.008768 0.003839 96406.800000 1 0 0
5.417352 10.177066 13.533903 17.778833 1.081636 0.705578 0.005250 -0.008995 -312406.000000 1 0 0
-1.255448 16.466866 -2.680997 16.730856 -1.494703 1.731733 -0.010097 0.003093 -1080010.000000 1 0 0
8.722652 10.031566 3.369503 13.713880 0.855078 1.322554 -0.002262 0.003654 742632.000000 1 0 0
12.521952 13.856166 -4.811697 19.285876 0.835935 1.822953 0.019806 -0.003647 -332892.000000 1 0 0
2.571852 11.544366 7.925103 14.237066 1.351596 0.980445 0.006823 0.005296 434178.000000 1 0 0
-0.420248 15.078866 -8.540697 17.334714 -1.542934 2.085978 -0.006662 0.005736 -2321300.000000 1 0 0
2.475152 15.905966 0.371703 16.101686 1.416423 1.547710 -0.002020 -0.003785 -757216.000000 1 0 0
1.950152 13.322066 5.297303 14.468654 1.425444 1.195957 0.003516 0.005704 555204.000000 1 0 0
17.455552 9.246366 -2.173097 19.872441 0.487131 1.680368 -0.030606 0.022153 46992.200000 1 0 0
-7.182848 14.902966 7.266603 18.069179 -1.121673 1.156927 -0.004930 -0.010758 -706148.000000 1 0 0
8.493052 15.874466 -0.175397 18.004481 1.079532 1.580538 -0.008427 -0.002696 -238411.000000 1 0 0
15.618652 10.541266 2.364703 18.990850 0.593691 1.445954 -0.008116 0.009302 76300.800000 1 0 0
14.191552 7.515866 8.783703 18.304148 0.487047 1.070284 0.012702 0.003562 -750167.000000 1 0 0
4.282252 18.524666 -1.819097 19.100001 1.343622 1.666182 0.000453 -0.010879 -95405.900000 1 0 0
-0.542348 17.702166 -4.670797 18.316035 -1.540169 1.828656 0.000639 0.004575 335867.000000 1 0 0
1.422152 13.730766 -0.658397 13.819910 1.467590 1.618456 -0.001896 -0.002289 131971.000000 1 0 0
10.198852 14.672066 4.216903 18.359422 0.963353 1.339041 0.000681 -0.005282 532215.000000 1 0 0
-1.649048 15.399066 -5.094597 16.303542 -1.464115 1.888603 -0.010565 0.005455 300157.000000 1 0 0
15.179052 8.925366 -6.356897 18.721002 0.531553 1.917245 0.014232 0.007126 447250.000000 1 0 0
-2.156548 18.386966 1.032503 18.541771 -1.454043 1.515082 -0.008918 0.000060 -1156630.000000 1 0 0
-3.764148 19.324866 3.550003 20.005543 -1.378422 1.392401 0.003635 -0.001476 -149895.000000 1 0 0
1.836552 17.699666 -2.678597 17.995165 1.467404 1.720202 -0.004735 -0.005359 -147959.000000 1 0 0
3.033052 12.184866 3.304403 12.984199 1.326835 1.313472 0.000637 0.004723 503808.000000 1 0 0
-2.408648 16.131466 2.133503 16.449243 -1.422578 1.440728 -0.003110 -0.003304 -1175020.000000 1 0 0
11.719652 12.819666 -2.605397 17.563660 0.830195 1.719686 0.002528 0.001050 440432.000000 1 0 0
7.286552 11.595166 4.732703 14.489313 1.009747 1.238056 -0.002819 0.004962 -122674.000000 1 0 0
7.172152 15.864566 1.998803 17.524823 1.146209 1.456492 -0.008826 -0.000059 -1773080.000000 1 0 0
5.553552 12.133066 10.256103 16.829762 1.141541 0.915489 0.000623 0.004221 -141855.000000 1 0 0
-1.183348 14.126866 3.341803 14.564899 -1.487226 1.339292 0.000848 0.000040 -49892.400000 1 0 0
4.711952 16.051966 1.621503 16.807658 1.285273 1.474172 -0.010516 -0.005637 -2735880.000000 1 0 0
7.280752 13.144866 12.029403 19.248464 1.064975 0.895724 0.005150 0.000360 114662.000000 1 0 0
0.544952 17.247366 -9.333097 19.618239 1.539211 2.066597 -0.004853 0.000719 332342.000000 1 0 0
9.825052 9.490566 15.400503 20.585868 0.768083 0.725586 0.013561 -0.007355 -163240.000000 1 0 0
13.535052 7.579666 -0.213797 15.514337 0.510490 1.584577 -0.006166 0.007474 274317.000000 1 0 0
12.335952 13.646166 -0.168597 18.396249 0.835783 1.579961 0.001244 0.005107 390024.000000 1 0 0
9.358452 12.360466 3.248803 15.840343 0.922749 1.364234 -0.002180 0.006872 402842.000000 1 0 0
-0.512748 12.937666 0.948003 12.982481 -1.531185 1.497710 -0.000496 -0.000889 -855967.000000 1 0 0
16.019552 7.404266 -0.878497 17.669775 0.432954 1.620534 -0.016423 0.016877 -1540470.000000 1 0 0
-4.142548 18.442966 -2.203397 19.030466 -1.349849 1.686839 -0.002695 0.003425 -80795.000000 1 0 0
11.609552 9.256466 -3.298297 15.209951 0.673101 1.789384 0.010578 0.002671 -288841.000000 1 0 0
14.740052 9.694066 7.771903 19.278136 0.581747 1.155844 0.011200 -0.000502 1154130.000000 1 0 0
4.501652 13.760166 4.719003 15.227476 1.254620 1.255708 -0.001648 0.007857 -1272360.000000 1 0 0
2.193452 15.885366 5.728703 17.028626 1.433584 1.227688 -0.002542 0.009080 233794.000000 1 0 0
6.192752 18.304366 5.620503 20.124364 1.244564 1.287743 0.006402 -0.011847 -385899.000000 1 0 0
10.706852 17.050066 -0.953497 20.155658 1.010067 1.618121 -0.008804 -0.004519 -1100220.000000 1 0 0
9.985952 13.592166 -4.458097 17.445367 0.937169 1.829209 0.016556 -0.001881 -846102.000000 1 0 0
16.537352 7.987066 2.326603 18.511896 0.449932 1.444782 -0.018143 0.008815 -84483.100000 1 0 0
4.063452 14.012466 -0.514297 14.598813 1.288550 1.606032 -0.003616 -0.003267 -408037.000000 1 0 0
5.578952 13.114666 -2.506097 14.470649 1.168589 1.744859 -0.004341 -0.000787 38958.700000 1 0 0
-6.069648 16.903366 -2.780597 18.174051 -1.226056 1.724398 0.003159 0.001788 -1704850.000000 1 0 0
18.111752 9.932566 3.041903 20.879286 0.501617 1.424586 -0.007116 0.014325 830436.000000 1 0 0
7.984952 12.908066 9.422003 17.864819 1.016811 1.015252 0.005504 0.002122 1144890.000000 1 0 0
-2.547848 15.660366 6.778803 17.253717 -1.409515 1.167025 0.002186 0.001670 138529.000000 1 0 0
11.211352 16.132566 6.239903 20.612872 0.963467 1.263252 0.018895 -0.001153 51141.400000 1 0 0
13.572352 11.941266 1.301703 18.124486 0.721555 1.498914 0.001474 0.003314 -639907.000000 1 0 0
17.484252 7.918966 -5.630097 20.002677 0.425279 1.856119 -0.011682 0.021903 308077.000000 1 0 0
9.502352 9.271566 8.052903 15.527584 0.773106 1.025561 -0.003953 0.004822 -544493.000000 1 0 0
-1.850648 14.095666 -1.908997 14.344231 -1.440251 1.704277 -0.010786 0.002198 784063.000000 1 0 0
10.973452 11.541366 0.740303 15.942641 0.810617 1.524344 0.003870 0.003857 531325.000000 1 0 0
11.770552 9.654366 -0.652897 15.237419 0.686945 1.613658 0.000596 0.007853 -1891370.000000 1 0 0
-0.320548 16.266066 11.196003 19.749383 -1.551092 0.968054 0.008586 0.012190 31504.100000 1 0 0
2.138952 20.016666 -1.542197 20.189611 1.464342 1.647256 0.004816 -0.011875 -442312.000000 1 0 0
9.207152 14.480166 1.798603 17.253458 1.004436 1.466361 -0.001992 0.002976 -71614.300000 1 0 0
8.397552 11.752466 -5.242797 15.366400 0.950382 1.918974 0.009583 -0.003557 -62214.700000 1 0 0
10.714052 9.991466 10.256103 17.883175 0.750514 0.960017 -0.002294 0.003243 -7266.260000 1 0 0
-5.035648 15.710166 5.832403 17.498114 -1.260609 1.230978 -0.014323 -0.002741 750783.000000 1 0 0
14.453652 9.152866 -2.016697 17.226435 0.564514 1.688135 0.004538 0.013372 -806563.000000 1 0 0
12.225452 9.660066 6.790203 16.996629 0.668712 1.159822 -0.001087 0.000807 -414521.000000 1 0 0
3.125452 12.913566 9.960003 16.605128 1.333334 0.927527 0.002701 0.002910 -851677.000000 1 0 0
8.568452 12.576966 -2.663197 15.449629 0.972744 1.744041 0.003417 0.001025 -802184.000000 1 0 0
9.481652 17.134166 1.902403 19.674869 1.065364 1.473953 -0.003843 0.005595 -61172.000000 1 0 0
9.368652 14.253866 -7.575197 18.663545 0.989327 1.988740 0.017360 -0.017545 -211376.000000 1 0 0
6.536152 11.415366 7.301903 15.044921 1.050786 1.064044 -0.003623 0.007463 -950384.000000 1 0 0
5.406152 16.999766 -5.474997 18.659960 1.262897 1.868587 -0.001226 -0.000611 -214304.000000 1 0 0
-4.014448 17.341266 -4.511997 18.362827 -1.343307 1.819052 -0.009525 0.008289 115321.000000 1 0 0
-0.091348 18.331266 -0.335897 18.334570 -1.565813 1.589118 -0.002836 -0.007404 -821632.000000 1 0 0
6.518052 15.598966 -2.804597 17.137050 1.174996 1.735193 -0.007039 0.000437 1086090.000000 1 0 0
-0.566148 20.627866 0.663403 20.646294 -1.543357 1.538659 0.004932 0.001875 -177912.000000 1 0 0
-1.305048 18.892466 4.292703 19.417922 -1.501828 1.347886 0.003054 0.002237 344027.000000 1 0 0
7.281052 13.858066 -4.392597 16.258985 1.087034 1.844360 0.001807 0.003014 -661305.000000 1 0 0
-0.981848 11.906066 7.747503 14.238758 -1.488516 0.995464 0.002729 0.006446 444558.000000 1 0 0
7.669852 10.824866 10.926003 17.186678 0.954362 0.881849 -0.004303 0.002094 156642.000000 1 0 0
1.381852 16.105566 -7.098897 17.654832 1.485206 1.984599 -0.009759 0.000372 574637.000000 1 0 0
8.922452 7.166966 14.747703 18.667359 0.676720 0.659945 0.007688 0.002181 2674.000000 1 0 0
11.403152 11.408766 -4.847897 16.843215 0.785644 1.862751 0.015193 -0.000578 31642.500000 1 0 0
-3.309148 17.043866 4.594403 17.959743 -1.379027 1.312104 -0.007805 0.000732 -98323.200000 1 0 0
3.877852 15.351866 -6.685897 17.187749 1.323374 1.970333 -0.002468 -0.006046 -159910.000000 1 0 0
-4.451248 13.954166 9.518303 17.467983 -1.262009 0.994527 0.001546 -0.004270 73745.400000 1 0 0
6.182952 18.001466 0.636703 19.044344 1.239951 1.537357 -0.015109 0.000115 -515584.000000 1 0 0
9.855752 10.591666 -2.301497 14.649782 0.821373 1.728551 0.007575 0.003023 -2302600.000000 1 0 0
7.293852 18.161966 -2.515997 19.732904 1.188911 1.698647 -0.008392 0.002666 -43608.200000 1 0 0
3.601052 10.340366 10.544503 15.201226 1.235680 0.804237 0.002989 0.004456 1064710.000000 1 0 0
0.118252 18.539666 2.169803 18.666581 1.564418 1.454293 0.002883 -0.003971 -379860.000000 1 0 0
-1.068948 17.228466 -7.240297 18.718562 -1.508830 1.967953 -0.003070 0.007662 461572.000000 1 0 0
10.193652 8.746966 13.001403 18.693754 0.709166 0.801688 0.006932 0.001744 -409220.000000 1 0 0
3.810852 11.411166 5.537103 13.243746 1.248484 1.139452 0.000956 0.007025 686178.000000 1 0 0
13.207552 14.009166 8.182403 20.920035 0.814843 1.168940 0.017600 -0.006715 -89086.300000 1 0 0
-0.520148 17.314966 6.682003 18.566846 -1.540765 1.202647 0.001491 0.000835 -619938.000000 1 0 0
12.170052 13.686066 5.645003 19.164671 0.843964 1.271809 0.008632 -0.005805 -132529.000000 1 0 0
4.773352 14.575166 -4.399597 15.955463 1.254306 1.850158 -0.005399 -0.000468 -1456860.000000 1 0 0
3.858552 17.638866 4.906103 18.710635 1.355436 1.305485 -0.001258 -0.000951 -1857030.000000 1 0 0
7.100752 11.452966 1.997503 13.622816 1.015806 1.423637 0.002522 0.000455 535385.000000 1 0 0
6.455552 8.585466 11.729203 15.904672 0.926070 0.741481 -0.004861 0.000443 532867.000000 1 0 0
-5.237748 14.824166 1.951603 15.842937 -1.231162 1.447298 -0.002962 -0.002963 133518.000000 1 0 0
6.813852 13.700466 5.968303 16.424128 1.109275 1.198896 0.000867 0.004603 -1184990.000000 1 0 0
5.946652 15.838866 4.969303 17.633103 1.211634 1.285109 -0.000682 -0.004663 982171.000000 1 0 0
1.344052 18.088166 4.383903 18.660301 1.496627 1.333648 0.007540 0.003831 585256.000000 1 0 0
7.390552 18.076066 -6.935297 20.723483 1.182677 1.912039 0.006300 -0.005641 309102.000000 1 0 0
-2.395048 18.983566 -5.854197 20.009589 -1.445295 1.867709 -0.005751 0.009370 9276.520000 1 0 0
13.655652 10.051366 -4.533697 17.551672 0.634519 1.832064 0.014064 0.003210 -984044.000000 1 0 0
-1.598048 18.002666 9.700703 20.512274 -1.482261 1.078192 0.012654 0.000292 -492640.000000 1 0 0
3.466552 11.791366 -1.541597 12.386678 1.284862 1.695576 0.000224 -0.002305 348596.000000 1 0 0
4.109252 14.112966 -10.867197 18.279981 1.287461 2.207423 0.000107 -0.013387 262491.000000 1 0 0
11.601952 13.492566 2.260103 17.937745 0.860596 1.444463 0.007963 0.001971 1423570.000000 1 0 0
15.960652 6.555366 -7.240897 18.712183 0.389714 1.968131 0.006841 0.008473 209355.000000 1 0 0
2.592152 16.103966 3.112203 16.605504 1.411202 1.382261 -0.001889 0.000875 -191094.000000 1 0 0
13.344952 10.661066 3.555003 17.446607 0.674060 1.365595 -0.003880 0.004890 -504380.000000 1 0 0
-5.030548 19.473966 -5.572097 20.870793 -1.318001 1.841055 -0.006212 0.000943 193985.000000 1 0 0
5.680852 12.163266 -0.069797 13.424678 1.133855 1.575995 -0.003278 0.000179 316844.000000 1 0 0
5.178852 15.100466 9.730303 18.695544 1.240407 1.023405 0.014027 0.001243 -208918.000000 1 0 0
7.781752 9.429066 13.827003 18.456678 0.880821 0.724003 -0.001946 -0.006463 -1501170.000000 1 0 0
-4.972948 13.546166 6.993603 16.035564 -1.218960 1.119502 -0.005530 -0.001267 -1296360.000000 1 0 0
-4.394848 17.085666 0.796403 17.659811 -1.319030 1.525684 -0.006326 -0.000163 -1991130.000000 1 0 0
-0.513948 16.512966 3.734303 16.937745 -1.539682 1.348498 0.001947 -0.001219 -1749500.000000 1 0 0
7.822652 16.877866 -4.747997 19.198950 1.136784 1.820694 -0.007981 -0.001395 215233.000000 1 0 0
3.150952 16.471866 -4.483997 17.359639 1.381787 1.832059 -0.005736 0.000792 -1726730.000000 1 0 0
9.594452 14.402966 8.182203 19.142815 0.983156 1.129149 0.015825 -0.002146 104987.000000 1 0 0
12.848552 10.907366 9.042203 19.126352 0.703866 1.078374 0.008379 -0.006297 -66382.300000 1 0 0
3.815652 12.192266 12.356403 17.773329 1.267495 0.802068 0.008800 0.000007 490213.000000 1 0 0
-3.158948 19.234366 6.063603 20.413404 -1.408015 1.269205 0.001848 0.000732 61401.300000 1 0 0
-2.646348 15.693566 10.206703 18.906823 -1.403742 1.000547 0.008063 -0.001542 -760107.000000 1 0 0
2.040952 14.173666 7.777203 16.295495 1.427783 1.073261 0.000449 0.008160 26000.900000 1 0 0
4.590652 17.105066 8.205503 19.518905 1.308595 1.136924 0.011837 0.005160 210863.000000 1 0 0
-1.865848 13.360766 9.561103 16.534997 -1.432042 0.954233 0.003962 0.004657 16753.400000 1 0 0
5.871652 17.740266 3.197203 18.958255 1.251166 1.401342 -0.010755 -0.007788 623899.000000 1 0 0
7.131252 15.421066 -6.843797 18.316702 1.137649 1.953723 0.006467 -0.007131 -492858.000000 1 0 0
11.011652 7.591066 9.385103 16.338939 0.603554 0.958924 -0.002344 0.000978 307157.000000 1 0 0
9.068252 16.250766 -2.763197 18.813714 1.061817 1.718201 -0.004486 -0.007584 -1971080.000000 1 0 0
14.379652 11.461366 -6.558397 19.523060 0.672942 1.913390 0.016824 -0.000295 335563.000000 1 0 0
11.068852 6.262766 15.950003 20.399616 0.514893 0.673124 0.026376 -0.007816 -186657.000000 1 0 0
8.578052 8.456766 10.335003 15.871741 0.778278 0.861688 -0.001354 0.005124 131365.000000 1 0 0
16.267652 9.256966 4.703403 19.298961 0.517345 1.324604 -0.003012 0.008522 -335008.000000 1 0 0
-3.337848 14.247466 4.734003 15.379931 -1.340670 1.257912 -0.001580 -0.001702 -1355460.000000 1 0 0
4.542352 14.741766 12.704803 19.984110 1.271899 0.881823 0.005964 0.004253 -565598.000000 1 0 0
16.034852 10.766266 -4.727497 19.884119 0.591292 1.810848 0.001291 0.005411 -485573.000000 1 0 0
14.694352 14.209066 6.111203 21.334674 0.768610 1.280282 0.012419 -0.001643 174699.000000 1 0 0
6.290752 9.484866 9.265303 14.675901 0.985169 0.887532 -0.002909 0.003145 913475.000000 1 0 0
10.528452 12.075366 8.723003 18.241533 0.853728 1.072198 0.002950 -0.001982 70643.400000 1 0 0
8.168352 11.334666 -0.389697 13.976712 0.946344 1.598682 0.001234 0.000868 49785.000000 1 0 0
7.192552 13.605566 -8.741097 17.698898 1.084494 2.087340 0.018288 -0.009067 -739713.000000 1 0 0
2.790952 15.339266 -2.149697 15.738605 1.390817 1.707812 -0.005157 -0.001288 499751.000000 1 0 0
11.932152 13.754966 -7.587797 19.726885 0.856242 1.965617 0.007833 -0.018172 208448.000000 1 0 0
-7.965948 14.717466 9.811303 19.399015 -1.074689 1.040530 -0.006449 -0.005662 250099.000000 1 0 0
11.542552 9.437666 2.097103 15.056490 0.685406 1.431060 0.002818 0.005241 -2637150.000000 1 0 0
12.002352 8.703466 4.499703 15.493679 0.627404 1.276129 -0.003857 0.005138 219360.000000 1 0 0
14.093352 8.058066 6.006203 17.309808 0.519399 1.216444 -0.000941 0.004221 -3408600.000000 1 0 0
16.224152 7.392166 7.217503 19.234333 0.427524 1.186140 0.017397 0.001848 347962.000000 1 0 0
13.624652 8.313366 2.406303 16.141050 0.547865 1.421159 -0.004935 0.006719 -3267840.000000 1 0 0
-4.248048 17.447266 -6.976297 19.264519 -1.331964 1.941350 -0.013276 0.000378 8954.300000 1 0 0
3.010552 19.669166 -3.865097 20.270137 1.418916 1.762650 -0.006258 -0.005701 372354.000000 1 0 0
-0.037548 14.695266 6.371903 16.017284 -1.568241 1.161663 0.004369 0.004672 -478607.000000 1 0 0
6.971052 15.999666 8.159303 19.265490 1.159898 1.133470 0.019247 0.000232 107583.000000 1 0 0
12.867452 15.173366 -2.038497 19.998945 0.867448 1.672904 0.003479 -0.000942 -18731.700000 1 0 0
12.515952 15.828266 4.113903 20.593864 0.901731 1.369680 0.005418 0.001806 -680365.000000 1 0 0
3.003952 18.110666 1.475903 18.417335 1.406426 1.490574 0.000372 -0.005767 -794841.000000 1 0 0
10.340352 14.562766 -1.401197 17.915367 0.953354 1.649088 0.004297 0.005305 -971294.000000 1 0 0
-6.233148 15.727166 -0.307597 16.920121 -1.193458 1.588977 -0.002101 -0.006549 -225379.000000 1 0 0
-3.776748 15.827566 -2.434197 16.452993 -1.336558 1.719290 -0.010926 0.003942 -1405890.000000 1 0 0
-6.777948 16.958166 1.917803 18.362950 -1.190560 1.466167 -0.004459 -0.001807 469689.000000 1 0 0
0.106552 19.471266 -6.493097 20.525639 1.565324 1.892666 0.003507 -0.000638 290227.000000 1 0 0
4.874552 14.792666 7.096203 17.115499 1.252477 1.143286 0.003375 0.004527 -534194.000000 1 0 0
8.777252 12.316066 6.869703 16.610793 0.951620 1.144426 0.002392 0.000343 -1508320.000000 1 0 0
-7.320448 17.592866 -5.573197 19.853423 -1.176485 1.855338 0.015538 -0.002282 -96688.000000 1 0 0
-7.657448 17.802966 -0.984397 19.404925 -1.164595 1.621547 0.003196 -0.000917 421266.000000 1 0 0
-13.672448 -9.108734 9.300903 18.878869 0.587687 1.055650 0.005352 -0.006763 -90053.300000 1 0 0
-12.598648 -12.959234 7.554003 19.589044 0.799506 1.174912 0.016968 -0.000405 -60769.000000 1 0 0
-3.718848 -15.128334 12.448603 19.941516 1.329756 0.896618 -0.015235 -0.001214 -4601.120000 1 0 0
-2.095048 -14.208834 14.853203 20.661507 1.424404 0.768602 -0.011928 0.002053 -1294580.000000 1 0 0
-6.994248 -13.657534 12.666803 19.897127 1.097503 0.880696 0.006841 -0.011740 -193175.000000 1 0 0
-9.688748 -11.543934 9.026803 17.567511 0.872551 1.031147 -0.000153 -0.002867 720122.000000 1 0 0
-10.409848 -10.618834 11.325903 18.692262 0.795336 0.919882 0.007644 -0.007746 270711.000000 1 0 0
-5.709548 -12.224334 10.854203 17.316091 1.133843 0.893321 0.001239 -0.005216 328125.000000 1 0 0
-12.470748 -10.282634 7.319703 17.743455 0.689526 1.145567 0.009613 -0.003133 -186280.000000 1 0 0
-7.489748 -11.062234 12.528103 18.314550 0.975636 0.817493 0.004673 -0.012667 -184989.000000 1 0 0
-14.744648 -11.375334 7.426703 20.048910 0.657113 1.191325 0.005079 0.004442 374614.000000 1 0 0
-11.102248 -9.273034 9.298903 17.196473 0.695862 0.999474 0.009478 -0.001253 -457013.000000 1 0 0
-5.284948 -11.865234 13.445303 18.694669 1.151762 0.768139 0.001476 -0.007221 -544486.000000 1 0 0
4.161752 -12.648534 14.604603 19.763604 -1.252923 0.739264 -0.005346 0.002304 642987.000000 1 0 0
6.743952 -12.830534 14.000503 20.152359 -1.086865 0.802748 0.002874 -0.001034 -70742.100000 1 0 0
6.821452 -8.633134 15.997103 19.415729 -0.902092 0.602494 -0.003420 0.000743 1436870.000000 1 0 0
0.802852 -1.928334 14.505403 14.655025 -1.176280 0.143018 0.000466 -0.007551 -2425280.000000 1 0 0
0.055752 -6.502134 15.538603 16.844259 -1.562222 0.396323 0.003739 -0.009605 -174843.000000 1 0 0
-1.282948 -4.863634 18.297803 18.976578 1.312887 0.268270 0.012921 -0.019936 -2036030.000000 1 0 0
-5.144148 12.495066 12.870403 18.661088 -1.180249 0.809733 -0.008294 -0.006340 -492186.000000 1 0 0
-4.091048 8.823466 11.671303 15.192417 -1.136645 0.694721 -0.008622 0.000436 -362835.000000 1 0 0
-0.547348 -4.036834 15.085003 15.625394 1.436030 0.263763 0.004510 -0.008722 211431.000000 1 0 0
-4.337948 9.260366 14.267403 17.553659 -1.132712 0.621874 -0.010020 0.003592 57134.100000 1 0 0
-13.195648 -2.385834 16.874203 21.553563 0.178872 0.671489 -0.003171 0.002771 -162519.000000 1 0 0
-0.166648 0.698766 17.167603 17.182626 -1.336680 0.041820 0.003286 -0.005147 -505231.000000 1 0 0
-3.175648 -7.389634 15.368703 17.346137 1.164915 0.482147 0.006980 -0.014102 325363.000000 1 0 0
-7.279648 5.606666 12.575903 15.575022 -0.656294 0.630996 -0.010975 -0.002047 -1527440.000000 1 0 0
-9.648448 9.861466 13.371103 19.212690 -0.796316 0.801052 -0.021650 -0.009127 -552742.000000 1 0 0
-5.396548 2.064366 11.255303 12.651727 -0.365360 0.474271 -0.000093 -0.002611 -1892460.000000 1 0 0
-7.091548 -7.458734 16.957803 19.836579 0.810628 0.545486 0.015766 -0.012604 -298028.000000 1 0 0
-4.644048 2.514666 18.648003 19.381402 -0.496279 0.275976 0.000706 0.001379 -35930.300000 1 0 0
1.156652 -8.464534 16.589303 18.659881 -1.434991 0.475561 0.001729 -0.005067 704893.000000 1 0 0
-14.692248 -3.490134 14.142303 20.689319 0.233227 0.818173 -0.000251 -0.003265 -568035.000000 1 0 0
-14.010548 2.263466 13.163003 19.356740 -0.160170 0.823004 0.000455 -0.008157 -1018320.000000 1 0 0
-5.289948 0.832866 16.106603 16.973505 -0.156161 0.320982 0.005200 -0.003968 -244842.000000 1 0 0
4.549152 5.658366 15.158103 16.807141 0.893640 0.446683 -0.004049 -0.000211 -187108.000000 1 0 0
-0.917948 -12.059634 13.906503 18.430091 1.494825 0.715822 -0.009133 -0.000976 -269746.000000 1 0 0
-5.787748 -4.248734 16.734703 18.209889 0.633241 0.405286 0.015840 -0.016618 244976.000000 1 0 0
-12.995848 -1.495534 9.929503 16.423268 0.114574 0.921533 0.003666 -0.001626 -674758.000000 1 0 0
-13.877148 10.395366 10.485503 20.262888 -0.642925 1.026901 -0.037018 0.001066 189047.000000 1 0 0
-3.426148 -3.640734 17.594303 18.290789 0.815754 0.276849 0.014533 -0.017251 -836619.000000 1 0 0
-7.684548 9.352366 11.852603 16.941170 -0.882982 0.795912 -0.016395 -0.006578 -395582.000000 1 0 0
-3.957948 10.612066 16.454303 19.975620 -1.213809 0.602857 -0.012682 0.008576 257036.000000 1 0 0
-12.342548 12.718866 8.335303 19.585334 -0.800413 1.131184 -0.021116 -0.008543 -125098.000000 1 0 0
-12.388948 3.063166 10.553303 16.560230 -0.242389 0.879849 0.000589 -0.007266 47041.400000 1 0 0
-9.958448 -3.525934 13.721103 17.316800 0.340291 0.656132 0.000608 -0.001274 -1227440.000000 1 0 0
-4.158648 -6.470434 17.700603 19.299540 0.999559 0.409923 0.014975 -0.014950 -537583.000000 1 0 0
0.928352 -3.486234 17.873103 18.233581 -1.310545 0.199176 0.007182 -0.014406 -548078.000000 1 0 0
-5.766948 1.652066 13.705303 14.960693 -0.278999 0.412585 -0.004053 -0.000037 -463601.000000 1 0 0
-10.370348 8.551466 10.274103 16.918300 -0.689566 0.918167 -0.020615 -0.014242 -230089.000000 1 0 0
4.727252 2.339466 17.193603 17.984438 0.459551 0.297655 0.006249 -0.007375 -778661.000000 1 0 0
0.541752 -5.345634 13.178103 14.231364 -1.469796 0.387146 -0.001106 -0.004313 -1663970.000000 1 0 0
-4.242948 5.551166 20.646903 21.797079 -0.918184 0.326307 0.028620 -0.002430 -250006.000000 1 0 0
-10.763948 10.794866 9.004703 17.705264 -0.786832 1.037251 -0.014351 -0.013608 501413.000000 1 0 0
0.797252 4.036766 12.992103 13.628127 1.375808 0.306716 0.000366 -0.002105 -3209610.000000 1 0 0
-3.145248 7.085366 13.323303 15.414454 -1.153020 0.526963 -0.007238 -0.000309 -1178110.000000 1 0 0
0.887352 8.821666 14.137803 16.687920 1.470546 0.560127 0.002067 -0.005290 292081.000000 1 0 0
-4.046048 -6.746434 13.044303 15.232818 1.030574 0.542678 0.007153 -0.010850 -277753.000000 1 0 0
-5.028448 8.173866 16.551503 19.132424 -1.019285 0.525442 -0.003081 0.008944 569063.000000 1 0 0
1.654252 -10.877634 15.844403 19.290013 -1.419874 0.606973 -0.003723 0.004746 -430235.000000 1 0 0
-14.812948 -0.951134 14.468403 20.728309 0.064122 0.798193 -0.002934 0.000480 131305.000000 1 0 0
-13.540748 -5.097934 8.586003 16.824394 0.360075 1.035227 0.000602 0.000629 -1174760.000000 1 0 0
-14.156048 -1.818734 12.196803 18.774011 0.127778 0.863654 0.011664 -0.005566 125503.000000 1 0 0
9.555052 1.134166 16.831703 19.387924 0.118145 0.519326 0.009697 -0.005516 -525767.000000 1 0 0
5.197352 -6.818134 16.573103 18.659238 -0.919480 0.477388 -0.005589 -0.010073 472889.000000 1 0 0
-5.864348 -2.670234 10.938803 12.695596 0.427280 0.532340 0.003644 -0.005270 626872.000000 1 0 0
0.914452 -6.235334 18.043303 19.112206 -1.425178 0.336027 0.012140 -0.010833 -590536.000000 1 0 0
-8.331348 11.870166 12.295003 19.012609 -0.958814 0.867577 -0.015761 -0.003775 -144462.000000 1 0 0
-6.484048 -6.001534 14.811803 17.246762 0.746772 0.537841 0.010757 -0.010956 -1315700.000000 1 0 0
-4.199048 -8.932234 17.098803 19.742996 1.131353 0.523511 0.012870 -0.010480 -8931.700000 1 0 0
2.610052 -6.312834 16.244803 17.622653 -1.178748 0.398063 -0.000709 -0.007790 -1170540.000000 1 0 0
2.246652 5.137966 16.079203 17.029002 1.158583 0.335564 -0.002875 -0.003050 -2283540.000000 1 0 0
1.107452 -8.994634 14.092303 16.754788 -1.448289 0.571499 -0.006784 -0.002913 -664210.000000 1 0 0
-9.852748 -2.631034 11.260903 15.192331 0.260947 0.735906 -0.002445 -0.002745 105842.000000 1 0 0
-1.215148 9.940366 12.471303 15.994401 -1.449156 0.676563 -0.003703 -0.000221 -598101.000000 1 0 0
-12.277348 -3.546534 11.379703 17.111658 0.281213 0.843267 -0.000721 -0.002023 748122.000000 1 0 0
-1.814448 6.395666 20.002503 21.078351 -1.294360 0.320876 0.012392 -0.005150 269996.000000 1 0 0
0.259952 -13.526134 15.743403 20.757616 -1.551580 0.709880 -0.019065 0.003151 -789959.000000 1 0 0
4.174752 -8.837434 15.295603 18.151702 -1.129476 0.568603 -0.005561 -0.000749 429269.000000 1 0 0
4.463052 -4.508034 16.194903 17.392990 -0.790412 0.373334 0.001709 -0.003661 56598.400000 1 0 0
8.160852 1.685266 14.682203 16.882142 0.203644 0.516226 -0.001325 0.000162 -28816.100000 1 0 0
-6.179148 -0.203734 11.904303 13.414016 0.032959 0.479008 0.001101 -0.004101 84463.800000 1 0 0
-3.153748 -10.978634 18.293503 21.566845 1.291066 0.558174 0.005648 -0.005689 -1094840.000000 1 0 0
3.293652 -1.601534 13.568903 14.054472 -0.452586 0.263628 -0.007571 -0.002763 -41485.400000 1 0 0
-2.466148 8.583666 15.869803 18.210213 -1.291025 0.512588 -0.003703 -0.002810 -768277.000000 1 0 0
-3.083048 4.028966 14.794403 15.640080 -0.917625 0.330350 -0.003134 -0.003181 -2159350.000000 1 0 0
-4.335148 -9.281234 19.683603 22.189616 1.133824 0.479851 0.021516 -0.001779 -6462.780000 1 0 0
-5.591048 -3.174134 19.078103 20.132287 0.516344 0.325042 0.020399 -0.016986 -650135.000000 1 0 0
-6.514748 -8.561234 11.150903 15.494493 0.920318 0.767471 0.006151 -0.007444 -726816.000000 1 0 0
-11.466648 2.390366 12.677903 17.260565 -0.205519 0.745865 0.004392 -0.013144 -380372.000000 1 0 0
-11.482548 -7.612534 11.806803 18.143875 0.585436 0.862248 -0.001593 0.000165 -1163850.000000 1 0 0
-10.830948 -7.387434 15.512703 20.310775 0.598589 0.701667 0.011175 -0.014061 -594813.000000 1 0 0
0.223152 5.535466 17.730403 18.575747 1.530505 0.302844 0.000552 -0.000980 -24387.900000 1 0 0
-2.043348 -0.196334 13.206303 13.364889 0.095791 0.154204 0.002339 -0.005521 424776.000000 1 0 0
-5.798548 -10.712134 18.131603 21.843260 1.074652 0.591549 0.009854 -0.002756 493338.000000 1 0 0
0.523552 2.544966 19.005303 19.182088 1.367906 0.135870 0.011990 -0.011957 -377067.000000 1 0 0
-0.670948 10.790066 14.893203 18.403347 -1.508694 0.627895 0.002341 -0.002378 -121620.000000 1 0 0
-12.514148 -2.180634 14.327703 19.147902 0.172521 0.725354 0.001452 -0.004558 -510449.000000 1 0 0
-13.783648 8.176866 11.883903 19.951873 -0.535426 0.932749 0.001994 -0.015868 200044.000000 1 0 0
-18.185448 -0.421834 6.965103 19.478222 0.023192 1.205117 0.018924 -0.006017 606866.000000 1 0 0
-1.950948 -7.857034 17.687303 19.451989 1.327413 0.429246 0.007207 -0.007923 -2176880.000000 1 0 0
5.715152 2.635666 14.489703 15.797506 0.432105 0.409765 -0.001021 -0.002885 -2163950.000000 1 0 0
-13.788048 -6.686734 11.155303 18.954247 0.451548 0.941546 -0.010744 -0.002604 243460.000000 1 0 0
3.242252 7.641366 16.163103 18.169991 1.169516 0.474439 0.000460 -0.015212 -510493.000000 1 0 0
1.127952 2.065566 14.617203 14.805454 1.070972 0.159637 -0.002028 -0.007823 -3101860.000000 1 0 0
-14.392048 0.762466 9.844103 17.453331 -0.052929 0.971545 -0.001336 -0.005460 -1986550.000000 1 0 0
-9.412148 -5.282134 15.581903 18.954820 0.511404 0.605786 0.003949 0.001368 -102343.000000 1 0 0
-2.476648 -0.252134 18.003403 18.174705 0.101455 0.137405 0.005343 -0.009540 208783.000000 1 0 0
6.880152 3.560866 17.772603 19.387668 0.477594 0.411064 0.014709 0.001134 142976.000000 1 0 0
-4.111048 -1.036934 14.646503 15.247820 0.247077 0.281774 0.008505 -0.005872 -341.018000 1 0 0
4.863952 -9.113434 17.815403 20.593720 -1.080544 0.525468 -0.007274 0.005381 -97274.300000 1 0 0
1.923452 6.661266 13.519203 15.193452 1.289691 0.473880 -0.000569 -0.001688 -1054490.000000 1 0 0
-3.639148 -0.802234 20.252403 20.592397 0.216975 0.181969 0.012595 -0.013647 -2115930.000000 1 0 0
-10.380948 1.611166 16.252503 19.352101 -0.153976 0.573824 0.003304 -0.010583 -301829.000000 1 0 0
-3.786048 7.009766 18.512403 20.153909 -1.075577 0.406396 0.006968 0.007120 -422357.000000 1 0 0
-12.414648 1.072566 14.784303 19.335188 -0.086181 0.700326 0.007936 -0.007679 -190632.000000 1 0 0
-16.039648 -4.732934 8.450803 18.737317 0.286934 1.102895 0.007516 -0.005282 -1750400.000000 1 0 0
-2.241048 0.657566 15.639903 15.813326 -0.285408 0.148236 0.003150 -0.004970 -150676.000000 1 0 0
-13.611648 -8.883334 12.624303 20.580662 0.578220 0.910430 -0.002543 -0.008362 93252.000000 1 0 0
6.208752 -3.270334 14.575303 16.176624 -0.484802 0.448704 -0.005048 -0.002559 585127.000000 1 0 0
-15.853048 0.265366 7.830903 17.683682 -0.016738 1.112041 0.001771 -0.000063 517466.000000 1 0 0
-13.773848 5.669866 12.706203 19.578403 -0.390500 0.864539 -0.006101 -0.012520 -169947.000000 1 0 0
0.476352 9.289466 16.696403 19.112587 1.519562 0.508283 0.004360 -0.014396 -96062.600000 1 0 0
-10.317348 -5.347334 10.871403 15.913173 0.478169 0.818701 -0.000130 -0.003486 -88592.400000 1 0 0
-3.049248 -11.105334 15.068503 18.965394 1.302825 0.652569 -0.003494 -0.003760 -443225.000000 1 0 0
-3.426748 2.693066 12.556903 13.291765 -0.666081 0.334078 -0.002421 -0.002081 -1621580.000000 1 0 0
-12.274348 -7.613934 7.628903 16.334987 0.555222 1.084869 0.005139 -0.001732 361764.000000 1 0 0
-8.038348 -1.872234 13.277003 15.633270 0.228833 0.556179 -0.000125 -0.003317 -688484.000000 1 0 0
-9.725848 6.349166 9.635003 15.090968 -0.578351 0.878299 -0.009433 -0.005995 -995837.000000 1 0 0
-17.788048 -3.669734 6.799903 19.393821 0.203449 1.212561 -0.000590 -0.002078 -450578.000000 1 0 0
-1.289348 -0.082034 20.353403 20.394366 0.063539 0.063391 0.008168 -0.010696 -1662920.000000 1 0 0
-2.552748 2.610766 20.181403 20.509063 -0.796634 0.178992 0.005947 -0.004351 -657773.000000 1 0 0
-3.679048 11.237966 11.174403 16.269436 -1.254416 0.813672 -0.006081 -0.001544 -1069870.000000 1 0 0
-4.061448 -4.929434 14.810403 16.128941 0.881641 0.407157 0.010509 -0.016021 1656340.000000 1 0 0
-0.130748 -14.363834 13.245803 19.539400 1.561694 0.825891 -0.007921 -0.002713 -381577.000000 1 0 0
-12.147948 0.571266 8.436103 14.800906 -0.046991 0.964324 0.001244 -0.004779 -94226.200000 1 0 0
-7.482848 1.972166 15.670403 17.476956 -0.257698 0.458692 -0.001207 0.002813 -169723.000000 1 0 0
3.622352 -2.247834 18.518603 19.002970 -0.555390 0.226265 0.007870 -0.007066 -383023.000000 1 0 0
-1.997848 4.802866 12.571803 13.605482 -1.176599 0.392319 -0.007214 -0.000272 -450766.000000 1 0 0
-10.061148 -6.194434 13.288703 17.781658 0.551868 0.726767 -0.011213 -0.007642 -213043.000000 1 0 0
2.522152 -3.909434 14.195203 14.938163 -0.997842 0.316713 -0.005983 -0.005175 -75265.500000 1 0 0
6.967452 1.008766 17.003503 18.403318 0.143783 0.392549 0.001441 -0.003530 -861839.000000 1 0 0
-1.808348 -5.789534 13.850803 15.120634 1.268050 0.412753 0.000837 -0.009831 -3221640.000000 1 0 0
-12.492948 3.597366 14.762603 19.671026 -0.280367 0.722017 -0.010374 -0.005749 -99846.400000 1 0 0
-13.147448 -6.483834 13.601003 19.997070 0.458163 0.822829 -0.004855 -0.002538 -219610.000000 1 0 0
-9.358748 6.863766 12.004203 16.697255 -0.632796 0.768531 -0.014930 -0.003820 -92574.300000 1 0 0
-0.937348 -2.527734 12.870403 13.149728 1.215691 0.206482 0.003045 -0.004706 182754.000000 1 0 0
0.144752 6.623066 15.379503 16.745599 1.548944 0.406727 -0.002010 -0.002420 424287.000000 1 0 0
-16.494548 -0.724934 10.156003 19.384015 0.043922 1.019330 0.012910 0.000614 -198297.000000 1 0 0
-1.195548 2.715466 13.778903 14.094725 -1.156060 0.212091 -0.002094 -0.004303 -2319500.000000 1 0 0
-11.048248 -3.435234 16.115903 19.839026 0.301454 0.622654 0.006519 -0.007451 -544161.000000 1 0 0
-4.990348 -1.596934 17.068403 17.854528 0.309707 0.297847 0.012328 -0.008488 61380.300000 1 0 0
-11.858948 6.569966 11.203203 17.587236 -0.505916 0.880186 -0.008115 -0.007330 -2099540.000000 1 0 0
-2.890148 4.568966 18.599203 19.369016 -1.006779 0.282880 0.012222 -0.003239 68600.200000 1 0 0
5.252752 -1.949834 16.443003 17.371402 -0.355437 0.328411 0.001415 -0.005531 -609156.000000 1 0 0
-7.926848 -4.045134 12.116503 15.033552 0.471860 0.633494 0.005762 -0.007218 -1448800.000000 1 0 0
-11.263448 -0.818734 16.199603 19.747474 0.072562 0.608795 0.006377 -0.004262 295305.000000 1 0 0
2.203152 1.893566 17.301603 17.543801 0.709972 0.166356 0.000062 -0.008725 -2080530.000000 1 0 0
-8.841448 -7.453234 11.527903 16.328333 0.700409 0.786954 0.004102 -0.010068 -1024160.000000 1 0 0
-7.090748 6.697766 14.870703 17.784167 -0.756905 0.580522 -0.021626 0.001648 -895691.000000 1 0 0
-5.244848 3.348266 15.929303 17.101521 -0.568171 0.372404 -0.005208 0.001041 -98294.800000 1 0 0
-9.225848 4.197966 11.619903 15.419512 -0.427023 0.717298 -0.006759 -0.007542 -91751.000000 1 0 0
-9.999548 0.127766 14.140903 17.319712 -0.012776 0.615538 0.007331 -0.010038 -402423.000000 1 0 0
8.154252 -0.717134 15.609303 17.625449 -0.087720 0.482987 -0.005320 -0.003807 -128223.000000 1 0 0
-8.419848 -7.515334 14.639803 18.485073 0.728697 0.656752 0.011965 -0.008003 -2661360.000000 1 0 0
-0.087648 4.103366 15.622203 16.152354 -1.549440 0.256916 -0.000920 -0.006418 6042.140000 1 0 0
-7.884448 3.045266 9.709703 12.873092 -0.368586 0.716265 -0.005661 -0.005018 -627263.000000 1 0 0
-2.030948 -9.670834 13.175703 16.469637 1.363797 0.643502 -0.009618 -0.007522 776831.000000 1 0 0
-5.993348 10.312666 10.413703 15.834030 -1.044342 0.853063 -0.006184 -0.005584 -1546280.000000 1 0 0
-8.468148 -2.839434 15.711403 18.072634 0.323526 0.516915 0.009722 -0.012089 -424748.000000 1 0 0
4.162352 5.738366 17.703803 19.070361 0.943256 0.380871 0.001995 -0.001339 118302.000000 1 0 0
-6.683348 -1.026834 15.240903 16.673532 0.152449 0.417569 0.004082 -0.003599 -1194110.000000 1 0 0
-0.805248 -10.010934 15.486703 18.458202 1.490532 0.575326 -0.011556 -0.002650 -766947.000000 1 0 0
-4.218748 5.758966 16.227403 17.728286 -0.938555 0.414446 -0.003358 -0.001299 67051.200000 1 0 0
3.884352 -0.030934 17.355903 17.785290 -0.007964 0.220184 0.009309 -0.008163 -922278.000000 1 0 0
1.533852 0.233066 19.132103 19.194905 0.150794 0.080915 0.005346 -0.009151 -509483.000000 1 0 0
-6.226348 6.222566 17.892703 19.940827 -0.785094 0.457205 -0.012319 0.009480 -755517.000000 1 0 0
-12.058648 0.545666 11.007703 16.336410 -0.045220 0.831438 0.006680 -0.007668 -400085.000000 1 0 0
-5.310748 4.987066 13.925203 15.715793 -0.753976 0.482011 -0.009150 -0.000581 -1213680.000000 1 0 0
-8.542748 -9.446334 9.850403 16.101001 0.835586 0.912477 0.006600 -0.004530 514943.000000 1 0 0
6.929852 -3.769834 17.012903 18.752956 -0.498224 0.434188 -0.005554 -0.003962 -674137.000000 1 0 0
-16.790248 1.864866 9.644203 19.452527 -0.110615 1.052062 0.014002 -0.006619 499920.000000 1 0 0
-4.119848 -9.440434 11.476803 15.421153 1.159306 0.731423 -0.000875 -0.007567 -51899.300000 1 0 0
-10.969748 -3.760734 9.181103 14.790915 0.330271 0.901128 0.001431 -0.000783 -232590.000000 1 0 0
3.875152 -5.712234 18.565503 19.807179 -0.974718 0.355962 0.005505 -0.004800 -230046.000000 1 0 0
2.665652 -1.984834 16.103703 16.443069 -0.640034 0.203520 -0.001540 -0.006253 -909481.000000 1 0 0
-3.043848 -4.583634 20.081203 20.821370 0.984594 0.267436 0.019470 -0.017516 -900728.000000 1 0 0
-6.247348 -3.457934 14.387403 16.061882 0.505530 0.460685 0.010553 -0.008107 196483.000000 1 0 0
-9.479348 5.215466 14.023303 17.711921 -0.502991 0.657138 -0.007929 -0.001633 99382.100000 1 0 0
-5.792048 -5.147534 11.773103 14.094357 0.726550 0.582107 0.005781 -0.006271 -623163.000000 1 0 0
5.921852 1.616366 19.345403 20.295950 0.266459 0.307261 0.004999 -0.008743 165615.000000 1 0 0
-2.744548 11.677166 13.576203 18.116347 -1.339951 0.723657 -0.001330 -0.008319 -1284360.000000 1 0 0
3.500552 1.181766 15.137203 15.581571 0.325580 0.239397 0.000585 -0.005136 -718058.000000 1 0 0
-5.648748 7.458266 12.894303 15.931012 -0.922588 0.627694 -0.014210 -0.002047 -2224670.000000 1 0 0
-1.742148 -1.761634 15.218003 15.418368 0.790960 0.161390 0.006455 -0.007895 -594094.000000 1 0 0
-7.240748 10.454666 14.174203 19.043017 -0.965064 0.731272 -0.007216 -0.001989 -302072.000000 1 0 0
-9.945748 2.015866 10.636803 14.701129 -0.199977 0.761884 -0.000079 -0.006343 -1169300.000000 1 0 0
-13.550348 5.222066 9.393903 17.295298 -0.367842 0.996615 -0.005963 -0.008683 266124.000000 1 0 0
0.577552 -4.810734 20.138503 20.713185 -1.451313 0.236110 0.013737 -0.012808 -127845.000000 1 0 0
-14.356948 -2.860034 7.609803 16.498814 0.196635 1.091412 0.000051 -0.001321 468431.000000 1 0 0
-2.274848 2.353566 17.542303 17.845072 -0.802404 0.184471 -0.000407 -0.004727 -51137.300000 1 0 0
-6.137448 -8.608134 14.748803 18.146500 0.951410 0.621917 0.012421 -0.005907 -457359.000000 1 0 0
-7.859648 1.942166 12.093603 14.553395 -0.242253 0.589927 -0.003784 -0.004533 -322437.000000 1 0 0
-14.627748 -3.336134 10.131103 18.103593 0.224234 0.976871 0.012293 -0.006378 -239594.000000 1 0 0
-0.533448 6.855866 12.813003 14.541682 -1.493144 0.492566 -0.001306 -0.003795 -520225.000000 1 0 0
-1.796848 -2.409934 19.214903 19.448623 0.930117 0.155187 0.015837 -0.015670 31080.900000 1 0 0
-12.759348 10.279666 7.378103 17.969666 -0.678181 1.147699 -0.015176 -0.015202 56767.400000 1 0 0
-19.370648 2.459166 7.153603 20.795277 -0.126278 1.219621 0.011070 -0.009354 1186010.000000 1 0 0
-15.662248 8.586666 6.831603 19.123484 -0.501491 1.205489 -0.017881 -0.003689 588708.000000 1 0 0
-12.136348 7.501666 13.672803 19.761363 -0.553633 0.806685 -0.009790 -0.004743 -8431.540000 1 0 0
-15.718548 8.550466 10.321803 20.657271 -0.498204 1.047579 -0.006042 -0.012290 -2041460.000000 1 0 0
1.940352 10.938066 15.212703 18.837000 1.395228 0.630731 0.005348 -0.008747 326685.000000 1 0 0
2.141452 13.898466 13.384103 19.413588 1.417920 0.810109 0.004122 0.004644 95888.900000 1 0 0
-3.135448 13.677966 11.823203 18.349548 -1.345456 0.870647 -0.004895 0.001888 212020.000000 1 0 0
8.863652 4.758466 15.616903 18.576732 0.492692 0.572277 0.004625 -0.001339 514835.000000 1 0 0
-0.283048 12.413466 13.011103 17.985079 -1.547999 0.762026 0.001303 -0.001969 -370725.000000 1 0 0
4.339252 13.178666 14.683303 20.201627 1.252713 0.757090 0.013040 -0.005209 304490.000000 1 0 0
-2.796248 -4.088634 -13.658797 14.529235 0.970952 2.793692 -0.003738 0.003410 -962847.000000 1 0 0
6.017552 -11.606034 16.180903 20.802226 -1.092471 0.679567 -0.003542 -0.005967 117294.000000 1 0 0
7.930152 -13.715134 7.175503 17.391954 -1.046557 1.145516 -0.006384 -0.007882 -318881.000000 1 0 0
0.047952 15.579366 1.466103 15.648271 1.567718 1.476968 -0.004206 -0.000473 -2917870.000000 1 0 0
-13.387248 8.159366 9.243503 18.199890 -0.547367 1.038065 -0.020918 -0.008148 14479.500000 1 0 0
-15.421848 -9.603134 4.985503 18.839024 0.556941 1.302969 0.005171 0.004422 -1206430.000000 1 0 0
9.683652 -11.377834 10.907203 18.498522 -0.865665 0.940201 0.000420 -0.004191 -271399.000000 1 0 0
-5.844848 -10.864534 -16.737097 20.792565 1.077232 2.506397 -0.001082 0.000940 128814.000000 1 0 0
-2.314448 -12.314034 -14.851497 19.430879 1.385012 2.440789 -0.002938 0.002975 -88702.100000 1 0 0
5.414952 -15.836834 -12.524597 20.904367 -1.241337 2.213220 0.007017 0.014238 258946.000000 1 0 0
2.751852 -11.799634 -16.416697 20.403725 -1.341677 2.505786 0.002852 -0.001446 297222.000000 1 0 0
0.378552 -13.990334 -14.331797 20.031804 -1.543745 2.368067 0.000632 0.013056 418723.000000 1 0 0
-7.104348 -6.349834 -15.138697 17.887770 0.729377 2.579826 0.009971 0.019907 -55971.600000 1 0 0
-5.814548 -8.354034 -17.442197 20.194779 0.962749 2.613358 -0.024611 0.008166 109772.000000 1 0 0
-2.426748 -16.289034 -13.168397 21.086214 1.422904 2.245291 -0.002933 0.003468 267352.000000 1 0 0
16.418552 -7.878934 -9.423897 20.505031 -0.447422 2.048329 0.013721 -0.000952 -152232.000000 1 0 0
18.998052 -3.091534 -3.649897 19.590950 -0.161315 1.758197 -0.010057 -0.002568 5513.740000 1 0 0
15.722052 -11.382734 -9.194197 21.477495 -0.626651 2.013169 0.005513 -0.005575 255964.000000 1 0 0
18.683952 -3.281734 -7.042597 20.235069 -0.173871 1.926275 0.138882 0.000900 -408777.000000 1 0 0
8.945552 -9.754134 -15.686597 20.524019 -0.828612 2.440758 0.032717 0.002485 243902.000000 1 0 0
-4.572948 10.354566 -16.276797 19.825816 -1.154920 2.533939 -0.013684 0.018599 425841.000000 1 0 0
1.932252 -9.929134 -18.909397 21.444967 -1.378594 2.650385 -0.001795 0.019179 173979.000000 1 0 0
10.839652 8.268966 -15.031897 20.293638 0.651671 2.404937 0.022692 -0.029537 569925.000000 1 0 0
18.537852 -6.465734 -8.698097 21.473578 -0.335592 1.987841 0.017115 0.001494 259990.000000 1 0 0
12.171952 5.110666 -14.061697 19.287473 0.397519 2.387742 0.007222 -0.005768 178148.000000 1 0 0
15.631952 6.482366 -10.961397 20.162619 0.393103 2.145575 -0.010521 -0.004562 110407.000000 1 0 0
3.352652 -0.110634 -19.051397 19.344463 -0.032987 2.967304 0.015564 -0.013122 84174.400000 1 0 0
10.233552 -1.402334 -14.941397 18.164181 -0.136185 2.536720 0.008528 -0.003985 102910.000000 1 0 0
12.151152 -5.936234 -14.328197 19.702451 -0.454432 2.385073 0.019803 0.004028 2387.550000 1 0 0
10.133752 6.753466 -13.432797 18.131251 0.587841 2.405153 0.025391 0.000945 466051.000000 1 0 0
10.411452 5.466266 -16.636797 20.373056 0.483466 2.526306 0.010913 -0.001520 274477.000000 1 0 0
12.132952 -10.131334 -14.961697 21.764761 -0.695737 2.328737 0.035464 -0.007276 419942.000000 1 0 0
-1.706148 2.153166 -17.629797 17.842556 -0.900713 2.987009 -0.002721 -0.002101 416666.000000 1 0 0
6.159752 -1.168734 -16.984997 18.105209 -0.187508 2.787979 0.006618 0.002128 -15601.000000 1 0 0
6.887852 -6.106934 -15.564397 18.082798 -0.725376 2.607497 0.001598 -0.000803 226897.000000 1 0 0
-2.192948 -4.663134 -20.533497 21.170223 1.131212 2.895713 0.004622 -0.014235 333639.000000 1 0 0
16.047052 -0.121434 -13.549197 21.002461 -0.007567 2.271982 0.005194 -0.000898 67944.600000 1 0 0
-4.199148 -0.369234 -18.347197 18.825217 0.087705 2.915757 -0.009534 0.002130 62778.400000 1 0 0
3.170952 8.788966 -17.867197 20.162777 1.224543 2.659761 -0.000861 -0.009551 -179266.000000 1 0 0
9.258052 -0.028334 -17.437297 19.742635 -0.003061 2.653503 0.004322 -0.003327 -169239.000000 1 0 0
3.785052 4.346966 -18.587597 19.460768 0.854387 2.840901 0.003724 0.001027 403214.000000 1 0 0
-3.287748 -10.590134 -17.942097 21.092157 1.269777 2.588022 0.004078 -0.021998 241677.000000 1 0 0
5.652152 -9.520434 -16.188797 19.612818 -1.035032 2.541741 0.009572 0.001916 248567.000000 1 0 0
9.914452 -12.508234 -10.541897 19.128091 -0.900563 2.154504 0.006767 0.000780 38781.500000 1 0 0
5.853952 6.895566 -17.440797 19.646856 0.866915 2.663153 0.013755 -0.001396 48473.600000 1 0 0
8.062852 1.998466 -20.184597 21.827079 0.242964 2.751175 -0.005851 -0.003490 70976.300000 1 0 0
-1.501348 -0.458434 -20.094497 20.155719 0.296356 3.063631 0.006271 -0.007743 235877.000000 1 0 0
-1.046248 6.604866 -19.820397 20.918102 -1.413696 2.816195 -0.000233 -0.004533 110307.000000 1 0 0
8.529752 6.311566 -18.165097 21.037188 0.637036 2.612916 0.019684 -0.011266 92477.300000 1 0 0
11.619552 0.133466 -12.975797 17.418470 0.011486 2.411248 -0.029163 -0.003327 42362.200000 1 0 0
-4.964548 -2.734134 -20.011797 20.798900 0.503405 2.865605 0.000794 0.012257 349770.000000 1 0 0
6.181052 -11.507434 -14.616897 19.603064 -1.077883 2.412296 0.014063 0.006534 137454.000000 1 0 0
11.067952 1.905566 -16.233997 19.740147 0.170498 2.536386 0.011439 -0.001254 -297057.000000 1 0 0
-2.818948 -4.248134 -17.167897 17.908931 0.984938 2.852918 -0.014460 0.004017 207894.000000 1 0 0
-6.906548 -4.851334 -17.574797 19.496393 0.612352 2.693877 -0.010674 0.007310 53421.400000 1 0 0
2.630852 10.601966 -15.226697 18.739673 1.327562 2.519289 -0.010548 -0.005174 382664.000000 1 0 0
17.080052 -6.053234 -11.093197 21.246855 -0.340593 2.120119 0.025910 -0.008768 -85783.800000 1 0 0
9.564752 -3.440834 -17.588997 20.314936 -0.345326 2.617575 0.000587 -0.006159 -33834.800000 1 0 0
-7.199248 -1.377734 -19.263297 20.610724 0.189086 2.777999 -0.033442 0.031327 486554.000000 1 0 0
1.406452 -7.561434 -19.323997 20.798323 -1.386895 2.762804 0.005037 -0.008860 191157.000000 1 0 0
6.008652 11.016466 -13.960997 18.771677 1.071473 2.409424 0.017672 -0.001005 459779.000000 1 0 0
5.888652 -3.821834 -18.070897 19.386592 -0.575684 2.771058 0.010084 -0.003693 421667.000000 1 0 0
4.456752 13.345866 -14.679097 20.333486 1.248498 2.377366 0.004356 -0.006072 131553.000000 1 0 0
8.491452 11.407066 -15.434397 20.986817 0.930887 2.397102 0.029629 -0.018933 183347.000000 1 0 0
16.991052 0.873166 -11.772597 20.689425 0.051345 2.176104 0.004547 0.009430 166167.000000 1 0 0
14.347952 -2.881034 -12.733397 19.398543 -0.198162 2.286846 -0.009141 0.003156 86264.200000 1 0 0
-8.788548 0.422666 -17.228897 19.345597 -0.048056 2.669426 -0.023093 0.007335 389875.000000 1 0 0
-3.510648 4.416266 -19.218597 20.029541 -0.899151 2.856063 0.009051 0.003258 138908.000000 1 0 0
4.231552 2.515166 -17.163197 17.855179 0.536280 2.862278 0.014133 -0.008497 408246.000000 1 0 0
-5.078548 14.291466 -13.784697 20.495256 -1.229359 2.308486 -0.015650 -0.001767 231690.000000 1 0 0
0.719052 9.288466 -17.910597 20.188663 1.493537 2.661953 -0.007535 0.001946 319663.000000 1 0 0
0.823652 -5.255734 -20.407397 21.089405 -1.415346 2.886584 0.007018 0.013950 452917.000000 1 0 0
3.741952 -6.122334 -17.953897 19.334622 -1.022184 2.761386 0.012866 -0.020429 202816.000000 1 0 0
-7.464548 7.282266 -15.939897 19.048128 -0.773038 2.562249 -0.009194 0.009240 93988.400000 1 0 0
-11.983148 3.045866 -16.627797 20.720926 -0.248908 2.502210 0.003866 -0.003154 264163.000000 1 0 0
-4.381448 6.740566 -17.315997 19.091256 -0.994413 2.706929 -0.010030 0.015011 452107.000000 1 0 0
-8.268948 5.126266 -17.725497 20.219974 -0.554954 2.639616 -0.019473 0.011271 265922.000000 1 0 0
-8.441648 4.072066 -14.828897 17.542500 -0.449451 2.577946 -0.032728 -0.006543 384254.000000 1 0 0
9.399952 13.755166 -12.490497 20.822492 0.971315 2.214117 0.028365 -0.031157 328596.000000 1 0 0
13.604252 9.876766 -12.157197 20.746653 0.627967 2.196890 0.023439 -0.013980 39933.400000 1 0 0
8.561252 15.616366 -10.014697 20.431839 1.069318 2.083060 0.012806 -0.018250 10128.800000 1 0 0
7.680552 14.252366 -14.128797 21.488222 1.076518 2.288310 0.030000 -0.023247 92885.400000 1 0 0
3.850452 15.675366 -12.890197 20.656724 1.329928 2.244672 0.014226 -0.014590 208309.000000 1 0 0
10.949852 11.442866 -10.876297 19.212815 0.807411 2.172558 0.034057 -0.032196 255689.000000 1 0 0
15.650152 10.216666 -11.069897 21.722111 0.578352 2.105533 0.028707 0.004224 3695.680000 1 0 0
13.163352 11.642166 -9.991297 20.214843 0.724150 2.087775 0.042764 -0.007276 -7650.050000 1 0 0
10.672252 11.400766 -7.876897 17.490566 0.818391 2.037955 0.011553 -0.006649 220102.000000 1 0 0
5.866952 17.011666 -10.149697 20.659967 1.238692 2.084348 0.038172 -0.006278 -14420.000000 1 0 0
11.585252 14.000166 -10.168997 20.823813 0.879506 2.080977 0.040021 -0.026083 184510.000000 1 0 0
8.778652 -19.369834 -1.742297 21.337545 -1.145274 1.652541 0.026497 0.003015 198991.000000 1 0 0
6.727752 -17.099834 -3.601697 18.725363 -1.195958 1.764346 0.014781 -0.010643 300991.000000 1 0 0
3.994952 -18.944934 5.050003 20.009316 -1.362969 1.315655 0.017253 -0.011354 39849.800000 1 0 0
10.391852 -17.913534 -2.636997 20.876759 -1.045129 1.697447 0.018839 -0.000109 633635.000000 1 0 0
-1.938848 -15.735434 7.544703 17.558063 1.448199 1.126636 -0.005616 -0.005598 -107480.000000 1 0 0
-15.210548 -12.908034 -4.371297 20.422692 0.703695 1.786506 -0.013161 0.010296 82237.600000 1 0 0
-9.479548 -12.590034 -6.911297 17.208626 0.925416 1.984079 0.001133 -0.009948 260994.000000 1 0 0
-11.336448 -15.509934 6.779103 20.372270 0.939622 1.231566 0.003539 0.003414 241884.000000 1 0 0
-15.348548 -8.457134 -8.211297 19.352686 0.503615 2.008982 0.051077 0.002439 91966.500000 1 0 0
4.339852 -15.297834 5.779603 16.919275 -1.294369 1.222179 0.003418 -0.014829 236409.000000 1 0 0
2.677452 -14.140534 8.739203 16.837373 -1.383666 1.025074 0.003218 -0.010261 318035.000000 1 0 0
3.504152 -17.185034 9.845603 20.113190 -1.369647 1.059269 0.021798 -0.014973 236183.000000 1 0 0
-7.368348 -17.233334 -5.321797 19.483375 1.166756 1.847458 -0.041827 0.001518 -162657.000000 1 0 0
1.840952 -19.764234 -3.884797 20.226362 -1.477919 1.764063 0.018143 -0.012870 23493.300000 1 0 0
-18.551348 -10.368934 -1.704197 21.320685 0.509675 1.650813 0.017112 0.002502 11809.300000 1 0 0
-4.187848 -14.833034 2.745403 15.655485 1.295626 1.394521 0.001248 -0.000690 130619.000000 1 0 0
-11.002948 -10.254834 -14.572997 20.942749 0.750220 2.340398 0.007970 0.007779 -39262.300000 1 0 0
0.191952 -20.359434 2.509303 20.514386 -1.561368 1.448170 0.007898 -0.006853 212694.000000 1 0 0
6.642052 -18.357334 0.981203 19.546645 -1.223630 1.520577 0.015950 -0.002918 236606.000000 1 0 0
-7.903748 -18.867134 -3.497997 20.752686 1.174090 1.740161 0.005599 -0.001320 109268.000000 1 0 0
-9.056948 -15.584134 -7.623597 19.570712 1.044341 1.970930 -0.003093 -0.004601 14144.500000 1 0 0
-11.617148 -11.480934 -12.225697 20.401903 0.779501 2.213351 -0.005873 0.012103 354028.000000 1 0 0
-13.293848 -15.292934 -3.498297 20.563033 0.855215 1.741753 -0.015458 0.012322 89609.600000 1 0 0
-0.523948 -20.751134 -2.723297 20.935626 1.545553 1.701246 0.011703 0.003964 388877.000000 1 0 0
-11.968648 -16.695134 -0.462197 20.547255 0.948822 1.593293 -0.015709 0.005309 44403.200000 1 0 0
0.914952 -20.065634 5.277203 20.768141 -1.525230 1.313878 0.009278 -0.010931 -14151.300000 1 0 0
-17.957848 -8.528934 2.795703 20.075931 0.443401 1.431086 -0.000993 0.007057 -299301.000000 1 0 0
-14.824848 -14.844434 -0.358697 20.982422 0.786058 1.587892 -0.017014 0.012539 -91493.600000 1 0 0
10.043952 -15.817734 -4.800797 19.342423 -1.005052 1.821618 0.018556 -0.001759 4702.550000 1 0 0
-0.380548 -19.181434 -7.080397 20.450043 1.550960 1.924345 -0.001286 0.001542 89383.200000 1 0 0
-10.340148 -16.982034 -2.571197 20.047923 1.023868 1.699403 -0.003892 0.008672 454916.000000 1 0 0
-15.018748 -7.178734 -11.205097 20.066171 0.445881 2.163261 0.021454 -0.002605 72706.000000 1 0 0
-12.745848 -14.737334 1.861703 19.573237 0.857734 1.475538 0.002098 -0.003447 417398.000000 1 0 0
-2.386848 -16.120434 9.844703 19.039003 1.423801 1.027359 -0.011201 -0.013558 333809.000000 1 0 0
-12.270348 -14.455234 -6.497597 20.043303 0.866969 1.900939 -0.009239 0.002801 256084.000000 1 0 0
5.927552 -16.965534 -6.735597 19.192016 -1.234667 1.929391 0.030262 -0.009999 105292.000000 1 0 0
-17.826848 -7.515634 -3.102897 19.593602 0.398979 1.729829 -0.001524 0.004552 13376.700000 1 0 0
-11.782548 -13.888134 -9.607497 20.591569 0.867238 2.056210 -0.004873 -0.008542 -6430.390000 1 0 0
-6.962848 -15.008934 9.065803 18.866323 1.136432 1.069539 -0.002332 0.008690 389025.000000 1 0 0
-15.721548 -8.104534 -5.652497 18.568825 0.475974 1.880113 0.009815 0.004436 329256.000000 1 0 0
-0.723248 -19.632334 -0.185797 19.646531 1.533973 1.580253 0.014993 -0.004396 182210.000000 1 0 0
-14.823048 -11.232934 -1.843797 18.689600 0.648476 1.669611 -0.008926 0.001060 31424.500000 1 0 0
-7.116648 -18.982934 1.382603 20.320189 1.212116 1.502703 -0.000538 -0.006356 2941.500000 1 0 0
-2.145748 -20.949734 -5.184897 21.688217 1.468729 1.812199 -0.007807 0.012175 72880.700000 1 0 0
-8.925848 -19.487634 -0.498697 21.440321 1.141288 1.594058 -0.012826 0.006892 89175.500000 1 0 0
-17.642048 -7.423334 5.300803 19.860672 0.398287 1.300622 0.004230 0.004882 88286.300000 1 0 0
-2.969748 -15.895734 -10.756197 19.421368 1.386099 2.157757 -0.007679 0.006238 -57115.300000 1 0 0
-3.143148 -18.460234 -7.899697 20.323997 1.402148 1.970004 -0.011477 0.007079 186442.000000 1 0 0
3.855252 -17.756134 -6.135897 19.177917 -1.356993 1.896469 0.005510 0.023782 360058.000000 1 0 0
0.568352 -17.408334 -9.805097 19.987823 -1.538160 2.083521 -0.002279 0.012185 -303156.000000 1 0 0
-7.777148 -10.045634 -14.453097 19.242942 0.911998 2.420501 -0.007154 -0.005814 347503.000000 1 0 0
-5.578048 -18.875934 -1.786097 19.763746 1.283463 1.661292 0.000205 -0.011926 230976.000000 1 0 0
-9.617648 -16.215134 8.301203 20.599508 1.035445 1.156025 -0.013901 0.006986 137440.000000 1 0 0
-7.498048 -14.683834 -10.256697 19.417403 1.098679 2.127301 0.008408 -0.016710 212296.000000 1 0 0
-12.671548 -7.756434 -12.730397 19.565107 0.549279 2.279261 0.002925 0.006110 321612.000000 1 0 0
-15.388948 -12.976934 3.341303 20.405511 0.700570 1.406310 -0.009447 0.011954 161897.000000 1 0 0
-6.217748 -14.359734 -13.207997 20.477147 1.162170 2.271835 -0.013307 0.008937 382616.000000 1 0 0
-13.957948 -11.943534 -6.659597 19.540280 0.707782 1.918579 0.005552 -0.001897 218094.000000 1 0 0
-11.931648 -10.382534 -8.404997 17.911036 0.716087 2.059253 0.018629 -0.003683 252312.000000 1 0 0
-9.771048 -14.861234 3.639403 18.154199 0.989177 1.368957 -0.004501 0.006025 600199.000000 1 0 0
5.678152 -17.471234 7.827803 19.968975 -1.256564 1.167994 0.040918 -0.042835 285752.000000 1 0 0
-4.820948 -16.727034 5.289303 18.193734 1.290188 1.275816 -0.006102 0.008528 346414.000000 1 0 0
-18.655648 -7.334234 -6.370797 21.033574 0.374576 1.878517 0.000428 -0.011963 -20237.800000 1 0 0
-16.892448 -3.377134 -10.617997 20.236148 0.197318 2.123164 -0.003291 -0.002712 -234461.000000 1 0 0
-15.779748 -4.385634 -13.103097 20.974398 0.271086 2.245567 -0.004596 0.006170 148013.000000 1 0 0
-19.265448 -4.315534 -5.705097 20.550656 0.220366 1.852103 -0.012084 0.004839 -110177.000000 1 0 0
5.848352 -13.771234 8.735703 17.325202 -1.169198 1.042319 0.018666 -0.004933 210540.000000 1 0 0
20.171852 -2.512134 2.665803 20.501730 -0.123899 1.440399 0.020051 -0.000315 186201.000000 1 0 0
17.877852 -2.499734 0.081603 18.051951 -0.138922 1.566276 -0.005751 -0.005607 381704.000000 1 0 0
14.357752 -11.561234 0.172303 18.434665 -0.677919 1.561449 0.015262 0.004801 79536.700000 1 0 0
11.381752 -14.012434 5.173903 18.779294 -0.888624 1.291675 0.009325 0.001755 402020.000000 1 0 0
9.928252 -13.385734 9.030003 18.954921 -0.932626 1.074248 -0.003098 -0.003579 286537.000000 1 0 0
17.553952 4.925666 -4.633397 18.811480 0.273566 1.819664 -0.037362 0.020579 -46564.600000 1 0 0
18.714252 -6.109534 -4.874497 20.280788 -0.315556 1.813523 0.006777 -0.005779 -76740.700000 1 0 0
17.676452 -10.100234 -0.378797 20.362101 -0.519121 1.589400 0.008406 0.004363 300883.000000 1 0 0
17.739952 -8.588434 8.561903 21.488911 -0.450871 1.160988 0.032408 -0.004525 -135924.000000 1 0 0
19.963352 0.132966 -2.235897 20.088612 0.006660 1.682329 0.005679 0.009055 66714.900000 1 0 0
7.793652 -12.843634 11.424403 18.873710 -1.025384 0.920644 0.007157 -0.014261 261055.000000 1 0 0
15.917152 -6.163534 -3.525897 17.429195 -0.369446 1.774501 0.002142 -0.000015 353117.000000 1 0 0
14.376252 -7.096734 11.542103 19.755010 -0.458549 0.946826 0.001003 -0.024783 311618.000000 1 0 0
16.599852 1.191666 10.557403 19.708727 0.071665 1.005494 0.035832 -0.015609 97307.100000 1 0 0
16.628552 -10.239034 2.519803 19.689997 -0.551920 1.442471 -0.000821 -0.001094 304124.000000 1 0 0
16.104952 -7.397334 -5.870297 18.669505 -0.430578 1.890655 0.009280 -0.002877 98244.400000 1 0 0
18.736752 -4.614034 5.877603 20.171797 -0.241452 1.275130 0.100919 -0.010144 -129268.000000 1 0 0
13.302552 -13.222934 7.975803 20.381789 -0.782397 1.168731 -0.007335 -0.008068 248443.000000 1 0 0
15.098852 -14.287434 -1.981997 20.881437 -0.757793 1.665856 0.008841 -0.000813 199774.000000 1 0 0
18.671852 -6.374834 7.650003 21.161265 -0.329006 1.200910 0.013024 -0.006821 161679.000000 1 0 0
19.425952 3.831566 2.560403 19.965074 0.194740 1.442198 -0.002168 0.005482 197754.000000 1 0 0
15.629352 -10.168034 8.106603 20.331812 -0.576778 1.160681 0.005291 -0.024207 128146.000000 1 0 0
14.518552 -4.005134 10.551903 18.389457 -0.269169 0.959656 0.016545 -0.007034 -105244.000000 1 0 0
18.611452 -7.852334 1.606403 20.263905 -0.399249 1.491439 -0.001101 -0.003510 -22996.800000 1 0 0
19.006352 -5.772534 -1.558197 19.924647 -0.294863 1.649081 0.004541 -0.002748 -112172.000000 1 0 0
14.563752 -13.777734 -5.926797 20.905878 -0.757671 1.858237 0.014555 -0.004098 418532.000000 1 0 0
13.785852 -9.955834 10.377503 19.921369 -0.625456 1.022864 -0.002081 0.004770 426548.000000 1 0 0
14.163452 2.252766 0.347003 14.345687 0.157734 1.546605 -0.010560 0.004227 -230111.000000 1 0 0
13.040352 2.817366 13.525503 18.998094 0.212779 0.778539 0.030645 -0.013260 105742.000000 1 0 0
18.463052 -3.091934 9.323103 20.913264 -0.165926 1.108730 0.018944 -0.007516 199765.000000 1 0 0
6.842852 -18.440934 4.857903 20.260600 -1.215477 1.328666 -0.006579 -0.011294 337072.000000 1 0 0
11.755152 -2.839034 15.628003 19.760521 -0.236976 0.658567 -0.011861 0.027485 183550.000000 1 0 0
11.420552 -13.652834 -7.346797 19.256280 -0.874194 1.962244 0.020598 -0.006922 268211.000000 1 0 0
10.501052 -18.105034 4.568003 21.422675 -1.045207 1.355914 -0.013088 0.003356 594771.000000 1 0 0
18.139852 -0.704434 -5.862797 19.076762 -0.038814 1.883179 0.001742 0.008933 265928.000000 1 0 0
4.361752 -13.811734 11.314203 18.379339 -1.264907 0.907657 -0.003904 -0.005131 248674.000000 1 0 0
8.958152 -2.311234 14.059003 16.829910 -0.252497 0.582012 -0.012788 -0.002889 447023.000000 1 0 0
8.900452 -9.563934 13.900603 19.076521 -0.821316 0.754410 -0.014765 -0.003448 438068.000000 1 0 0
20.902452 5.674566 -3.229597 21.898481 0.265089 1.718817 -0.012246 0.027025 320344.000000 1 0 0
14.779852 -13.826334 2.008803 20.338310 -0.752078 1.471866 0.005041 0.014748 191772.000000 1 0 0
12.144052 -0.297334 14.224503 18.705692 -0.024479 0.706810 0.040756 -0.015702 -144286.000000 1 0 0
19.603852 -0.098234 7.464903 20.977260 -0.005011 1.206965 0.046720 -0.015052 -48255.000000 1 0 0
19.770652 1.453266 0.099303 19.824241 0.073374 1.565787 -0.002760 0.010621 198585.000000 1 0 0
17.819052 0.479366 2.759203 18.037783 0.026895 1.417225 -0.002407 0.003600 -21878.500000 1 0 0
10.380652 -8.227534 16.334803 21.030360 -0.670202 0.681347 0.006170 -0.003635 114565.000000 1 0 0
19.014752 2.747466 5.532003 19.992809 0.143498 1.290438 0.008874 -0.003160 127749.000000 1 0 0
15.906952 2.496866 7.137903 17.612925 0.155697 1.153528 0.028681 -0.004277 106254.000000 1 0 0
11.243552 -16.161334 1.997903 19.788830 -0.962957 1.469663 -0.013143 0.011291 131159.000000 1 0 0
8.295652 -16.441034 6.951403 19.683685 -1.103499 1.209854 -0.008931 0.001402 396361.000000 1 0 0
6.347252 6.678366 7.077503 11.618056 0.810813 0.915768 -0.004018 0.004341 -820454.000000 1 0 0
18.374152 2.207966 -6.930497 19.761487 0.119593 1.929123 -0.014109 0.016894 49908.600000 1 0 0
13.953752 4.625266 -7.368597 16.443737 0.320074 2.035446 0.004664 0.004365 304610.000000 1 0 0
-10.532948 -3.936034 -13.727997 17.745232 0.357620 2.455324 -0.011321 -0.000724 -531311.000000 1 0 0
7.523452 -14.390534 -10.433597 19.301548 -1.089071 2.141896 0.004715 0.014422 -69958.300000 1 0 0
1.885452 -15.787134 13.989903 21.177959 -1.451930 0.849195 -0.012104 -0.001623 494437.000000 1 0 0
-9.386748 -7.323434 2.011603 12.074365 0.662544 1.403415 0.007651 0.002243 250173.000000 1 0 0
-13.638748 3.305666 -9.396097 16.888739 -0.237788 2.160786 -0.010654 0.000131 258106.000000 1 0 0
-12.782848 -4.387534 -13.749097 19.279246 0.330636 2.364785 -0.009441 0.004831 158989.000000 1 0 0
-17.707548 0.019166 -8.602397 19.686515 -0.001082 2.023022 0.009020 -0.002891 407280.000000 1 0 0
-11.910348 15.218666 4.374803 19.814214 -0.906747 1.348171 -0.009889 -0.014392 413351.000000 1 0 0
-16.992948 6.702266 9.322403 20.508239 -0.375682 1.098908 -0.005823 -0.008741 143900.000000 1 0 0
-12.903848 15.367066 0.255803 20.067921 -0.872308 1.558049 0.015997 -0.030386 41743.800000 1 0 0
-15.714948 5.314566 -10.536597 19.652584 -0.326111 2.136658 -0.013393 0.005035 -56964.600000 1 0 0
-18.299748 3.104466 -0.051697 18.561281 -0.168045 1.573582 0.019797 0.002488 -67627.600000 1 0 0
-9.900148 15.587666 0.075303 18.466021 -1.004948 1.566718 0.009509 -0.014354 82557.600000 1 0 0
-18.230748 12.343166 2.700103 22.181174 -0.595158 1.448764 0.025420 -0.004979 -114206.000000 1 0 0
-8.244848 16.451866 -7.799897 19.986991 -1.106229 1.971698 0.031791 -0.013379 162617.000000 1 0 0
-15.161248 -1.870434 -12.604497 19.804931 0.122749 2.260660 -0.000110 -0.011443 -174775.000000 1 0 0
-18.839448 5.450266 -4.798397 20.190463 -0.281612 1.810749 0.019752 -0.001033 -67511.900000 1 0 0
-16.588548 9.567266 -5.780797 20.003252 -0.523140 1.863971 0.022926 0.014226 -59033.000000 1 0 0
-18.835848 1.666766 2.700403 19.101295 -0.088259 1.428948 -0.015367 -0.008837 221547.000000 1 0 0
-14.304248 12.782366 -7.413097 20.565855 -0.729271 1.939554 0.029005 0.022437 123992.000000 1 0 0
-12.900548 5.347166 -13.436297 19.379123 -0.392936 2.336908 -0.005198 0.002779 -300285.000000 1 0 0
-14.003948 9.482866 -6.583897 18.148912 -0.595230 1.942036 0.012437 0.000162 315702.000000 1 0 0
-6.677748 11.697466 -15.282597 20.371077 -1.052070 2.419177 -0.016683 -0.011875 -291156.000000 1 0 0
-15.175248 13.890066 3.010403 20.791455 -0.741210 1.425495 0.013434 -0.016327 -20167.900000 1 0 0
-18.562148 8.615166 -4.682997 20.992972 -0.434538 1.795764 0.021155 -0.001520 252939.000000 1 0 0
-3.389948 16.934566 -9.992497 19.952976 -1.373228 2.095322 -0.012605 0.000884 171629.000000 1 0 0
-19.333648 -1.545234 -6.589397 20.484088 0.079755 1.898303 -0.004254 0.002866 -208659.000000 1 0 0
-10.654448 14.173566 -5.924597 18.695135 -0.926200 1.893262 0.014150 -0.006083 80296.600000 1 0 0
-19.346248 3.547266 4.747803 20.233686 -0.181342 1.333939 0.006646 0.004447 81077.700000 1 0 0
-14.871148 12.537966 0.784403 19.467073 -0.700479 1.530492 0.004782 -0.009170 -18921.100000 1 0 0
-17.482448 2.748366 -8.202897 19.505820 -0.155931 2.004832 -0.004675 -0.000518 245822.000000 1 0 0
-16.468048 14.075866 -4.155997 22.058987 -0.707238 1.760333 0.018716 0.034925 325262.000000 1 0 0
-10.173748 15.646366 -8.617697 20.556717 -0.994259 2.003378 0.005978 -0.009391 -90424.800000 1 0 0
-19.286948 1.906566 -6.842397 20.553339 -0.098533 1.910183 0.019203 -0.000707 -233276.000000 1 0 0
-17.159348 10.833366 -0.231497 20.294300 -0.563145 1.582204 0.021538 0.007700 17357.600000 1 0 0
-11.623648 7.103566 -14.493297 19.890337 -0.548563 2.387160 -0.010064 0.003064 218708.000000 1 0 0
-13.172748 12.668266 -4.383297 18.794136 -0.765878 1.806191 0.030038 -0.008919 326924.000000 1 0 0
-18.845348 7.634466 -0.090497 20.333234 -0.384905 1.575247 0.014886 0.008312 84402.500000 1 0 0
-14.497148 9.051366 -9.861897 19.731993 -0.558135 2.094155 -0.000401 -0.001971 487072.000000 1 0 0
-18.397848 11.488566 5.115103 22.285247 -0.558205 1.339203 0.006935 -0.008104 150173.000000 1 0 0
-8.155048 12.215566 -13.459397 19.921853 -0.982151 2.312588 -0.029580 0.008429 444074.000000 1 0 0
-21.188448 -1.600034 -4.858997 21.797254 0.075371 1.795603 -0.021354 -0.003620 322692.000000 1 0 0
-10.491748 13.479766 -2.878297 17.322397 -0.909407 1.737731 0.018570 -0.009702 398644.000000 1 0 0
-18.649748 -4.674934 3.662603 19.572501 0.245609 1.382557 0.005028 0.000887 62363.400000 1 0 0
-11.274848 11.324466 -13.608097 20.989188 -0.787594 2.276196 -0.008239 0.004241 37238.500000 1 0 0
-14.733648 11.462066 -10.000697 21.177187 -0.661151 2.062626 0.006158 -0.001010 323627.000000 1 0 0
-13.070048 9.850566 -13.472897 21.198555 -0.645849 2.259526 0.019609 -0.004573 264070.000000 1 0 0
-18.248248 -5.028334 -3.022697 19.168187 0.268879 1.729151 -0.026879 -0.000121 -222073.000000 1 0 0
-9.178948 12.717866 -11.443897 19.415457 -0.945631 2.201139 -0.003718 -0.004348 -28775.600000 1 0 0
-15.576848 7.790166 -8.241597 19.267818 -0.463737 2.012786 -0.002921 0.011258 -205910.000000 1 0 0
-14.490448 8.845366 2.248603 17.125122 -0.548051 1.439112 0.004265 -0.005935 -162944.000000 1 0 0
-19.368748 6.389066 8.602103 22.135147 -0.318626 1.171666 0.010163 -0.005122 242327.000000 1 0 0
-18.802248 6.116566 3.664903 20.108914 -0.314513 1.387519 -0.002003 0.002584 221433.000000 1 0 0
-14.266048 12.837466 6.007203 20.109877 -0.732739 1.267446 -0.012749 -0.009379 75768.500000 1 0 0
18.103652 6.115666 5.704203 19.941954 0.325778 1.280704 0.008262 0.003760 199474.000000 1 0 0
18.239952 8.167766 0.383303 19.988876 0.421019 1.551619 -0.011885 0.023234 16308.100000 1 0 0
16.683052 4.252966 8.600803 19.245409 0.249611 1.107498 0.011180 -0.001639 1671.700000 1 0 0
12.073152 13.129466 10.773703 20.837863 0.827287 1.027424 0.011014 -0.006244 160321.000000 1 0 0
15.386152 12.603366 4.160303 20.319612 0.686301 1.364595 0.007833 0.000727 103488.000000 1 0 0
5.150852 10.243966 14.443303 18.441234 1.104897 0.670989 0.006664 -0.010093 228057.000000 1 0 0
13.318352 13.570766 -5.243797 19.724137 0.794785 1.839889 0.027358 0.005652 442531.000000 1 0 0
17.700052 9.260566 -3.090997 20.213960 0.482030 1.724313 -0.024373 0.022276 -88942.700000 1 0 0
14.675852 7.814166 9.544603 19.171366 0.489270 1.049670 0.022019 -0.000129 149400.000000 1 0 0
4.930352 19.218266 -1.783197 19.920590 1.319667 1.660432 -0.003375 -0.005995 554295.000000 1 0 0
-4.558648 19.554466 4.017403 20.476765 -1.341761 1.373322 -0.007923 0.012675 142042.000000 1 0 0
7.301952 12.667466 12.850503 19.465832 1.047885 0.849769 0.027526 -0.000165 -50868.600000 1 0 0
-0.139648 17.403766 -9.972797 20.059093 -1.562772 2.091131 -0.003266 0.013227 -68088.400000 1 0 0
10.667052 9.163066 15.694303 21.072706 0.709700 0.730607 0.024922 -0.008325 43966.200000 1 0 0
-1.263548 12.363066 0.855203 12.456858 -1.468947 1.502089 -0.005277 0.002181 494102.000000 1 0 0
-4.672048 19.221466 -2.329397 19.917803 -1.332356 1.688015 -0.004851 0.017388 59828.500000 1 0 0
6.016052 18.224266 6.550503 20.278704 1.251948 1.241874 0.013470 -0.015167 210870.000000 1 0 0
10.624152 17.656566 -1.679997 20.674847 1.029120 1.652144 -0.023141 0.008284 275033.000000 1 0 0
18.469952 10.433066 3.765503 21.544535 0.514186 1.395116 0.002424 0.009276 367394.000000 1 0 0
11.524152 16.991666 5.982003 21.384741 0.974835 1.287281 0.019279 0.003636 -131178.000000 1 0 0
18.173052 7.497166 -6.130197 20.592392 0.391272 1.873071 -0.011648 0.022833 300353.000000 1 0 0
0.117652 15.423166 11.205203 19.064219 1.563168 0.942508 0.003860 0.015509 338766.000000 1 0 0
1.193952 20.065166 -1.626497 20.166355 1.511363 1.651538 0.003604 -0.010038 344632.000000 1 0 0
14.158852 9.747566 -1.336997 17.241684 0.602928 1.648419 -0.013012 0.009454 -172555.000000 1 0 0
9.436252 17.431666 2.803503 20.019127 1.074635 1.430293 -0.012526 -0.003979 204145.000000 1 0 0
0.602752 17.715366 -0.132097 17.726109 1.536785 1.578248 -0.006620 0.002723 -103805.000000 1 0 0
0.003252 21.199866 1.164503 21.231825 1.570643 1.515922 0.005277 0.009748 226920.000000 1 0 0
6.062852 17.655666 -0.239997 18.669180 1.240019 1.583652 -0.016307 -0.009980 -4536.070000 1 0 0
6.549352 18.545466 -2.964397 19.890097 1.231317 1.720393 -0.034410 -0.003487 -408.240000 1 0 0
10.362452 9.646566 12.747403 19.050799 0.749635 0.837763 0.006834 0.001772 128926.000000 1 0 0
12.777952 14.855866 8.211603 21.246252 0.860452 1.173966 0.015492 -0.006918 173999.000000 1 0 0
-0.005948 17.775866 7.334403 19.229532 -1.570462 1.179471 0.006322 0.014846 281463.000000 1 0 0
6.767752 18.273766 -7.624897 20.925392 1.216106 1.943769 -0.003109 -0.006403 57954.200000 1 0 0
-0.870048 18.612966 9.705703 21.009525 -1.524086 1.090585 0.021262 0.009485 -57210.500000 1 0 0
16.095252 6.943066 -8.097697 19.308961 0.407257 2.003553 0.028231 0.005239 -529763.000000 1 0 0
-5.220948 19.785166 -6.449197 21.454678 -1.312796 1.876114 -0.013990 0.002352 280344.000000 1 0 0
4.311652 15.351566 10.026103 18.835702 1.296990 1.009490 0.007553 0.003684 243145.000000 1 0 0
9.367752 14.909466 7.411103 19.104224 1.009821 1.172412 0.017493 0.001235 2875.790000 1 0 0
-2.501848 19.887366 6.273903 21.003057 -1.445653 1.267452 0.003387 0.003891 -34850.100000 1 0 0
4.782952 17.614266 8.984103 20.343380 1.305651 1.113390 0.008260 0.003029 281232.000000 1 0 0
14.701152 11.301666 -7.437997 19.979372 0.655400 1.952265 -0.000784 -0.024696 22076.400000 1 0 0
11.626352 6.961766 15.628803 20.685689 0.539531 0.714323 0.031005 -0.003706 291821.000000 1 0 0
17.004452 8.895866 5.182203 19.878205 0.481995 1.307051 0.004328 0.004315 103519.000000 1 0 0
5.475052 14.569866 12.649903 20.056850 1.211343 0.888338 0.006491 -0.012569 1907.780000 1 0 0
15.837652 11.033966 -3.837597 19.680111 0.608502 1.767052 0.001092 0.009078 126382.000000 1 0 0
15.337552 14.169166 6.809303 21.962977 0.745822 1.255566 0.011318 0.016504 193974.000000 1 0 0
12.496652 14.388366 -8.015197 20.674495 0.855646 1.968915 0.027420 -0.021746 321889.000000 1 0 0
-8.055848 15.647766 9.641303 20.067486 -1.095360 1.069635 -0.008247 -0.003908 242688.000000 1 0 0
-3.992748 16.533466 -6.927497 18.365395 -1.333838 1.957572 -0.020559 -0.003071 113180.000000 1 0 0
2.317752 19.587166 -4.509997 20.232872 1.453014 1.795589 -0.005373 -0.014264 69746.100000 1 0 0
7.409552 16.079566 8.998303 19.860094 1.138993 1.100574 0.019865 -0.012085 607530.000000 1 0 0
13.347052 15.569066 -1.320297 20.549520 0.862091 1.635090 0.012338 -0.003399 257553.000000 1 0 0
13.419452 15.601366 4.300603 21.023308 0.860441 1.364778 0.019999 -0.011546 207751.000000 1 0 0
2.707052 18.191766 0.577103 18.401128 1.423074 1.539429 -0.000120 -0.015858 31837.900000 1 0 0
-7.535748 16.465366 2.209803 18.242231 -1.141580 1.449361 -0.002003 -0.015794 163171.000000 1 0 0
0.068752 20.306666 -6.042497 21.186721 1.567411 1.860014 0.007252 0.012625 236424.000000 1 0 0
-7.517048 18.198066 -6.278497 20.666280 -1.179075 1.879479 0.029778 -0.003467 151397.000000 1 0 0
-6.903048 18.366666 -0.859497 19.639888 -1.211284 1.614573 -0.010378 0.005230 288809.000000 1 0 0
-14.136948 -9.935634 9.355703 19.649410 0.612612 1.074546 -0.000309 0.023947 379294.000000 1 0 0
-13.234648 -13.369834 8.127903 20.493199 0.790479 1.162970 0.017142 -0.002454 -54786.600000 1 0 0
-4.041548 -16.000934 12.256403 20.556834 1.323389 0.932011 0.009440 -0.002783 215085.000000 1 0 0
-1.984748 -14.965534 15.416903 21.577473 1.438944 0.774900 -0.014365 0.002826 413767.000000 1 0 0
-7.930148 -13.572234 12.805603 20.275016 1.042007 0.887187 0.004879 -0.009559 145142.000000 1 0 0
-9.967848 -11.390734 11.659403 19.106243 0.851919 0.914432 0.019026 -0.000299 45314.200000 1 0 0
-7.318548 -10.494134 13.270003 18.433149 0.961821 0.767140 0.006683 -0.003638 273571.000000 1 0 0
-15.249848 -12.177034 7.494003 20.904500 0.673827 1.204149 0.007742 0.006436 265686.000000 1 0 0
-4.467148 -12.328434 13.306603 18.681847 1.223166 0.778063 -0.001591 -0.009209 320657.000000 1 0 0
3.774452 -12.752334 13.743403 19.124582 -1.283031 0.768973 -0.001033 0.001592 453571.000000 1 0 0
6.886052 -13.574334 14.574003 21.073249 -1.101338 0.807111 0.008024 0.000573 422672.000000 1 0 0
7.251152 -9.350434 16.448103 20.262032 -0.911181 0.623620 -0.008556 -0.003538 595350.000000 1 0 0
-5.476748 13.383466 12.921503 19.392709 -1.182369 0.841551 -0.006282 -0.010494 416549.000000 1 0 0
-13.438748 -1.610134 17.365903 22.017427 0.119244 0.662049 0.008337 -0.010999 381245.000000 1 0 0
-9.666748 8.912566 13.411703 18.781737 -0.744828 0.775484 -0.032338 -0.011752 376549.000000 1 0 0
-6.723048 -8.278534 17.265203 20.293367 0.888717 0.553327 0.014866 -0.004769 -83317.100000 1 0 0
-4.789748 1.633066 18.325403 19.011286 -0.328590 0.269432 0.003269 -0.002414 518285.000000 1 0 0
-15.114548 -3.279934 14.966803 21.522378 0.213692 0.801811 0.002500 -0.003085 -25651.400000 1 0 0
-14.120648 3.059266 12.656003 19.207452 -0.213355 0.851426 -0.003631 -0.005134 280265.000000 1 0 0
-14.286248 10.863366 9.767103 20.432961 -0.650128 1.072412 -0.042712 0.008154 -98884.700000 1 0 0
-4.576548 11.275866 16.172803 20.239800 -1.185239 0.645067 0.008721 0.016645 148215.000000 1 0 0
-12.978148 12.558266 9.023003 20.188040 -0.768957 1.107446 -0.021606 -0.012748 5394.960000 1 0 0
-4.139448 -6.497834 18.650003 20.178689 1.003578 0.391749 0.017909 -0.010511 344384.000000 1 0 0
0.841352 -2.690934 18.385403 18.600324 -1.267764 0.152164 0.007076 -0.007083 16428.600000 1 0 0
-4.381448 6.249866 21.275603 22.603301 -0.959368 0.344451 0.014923 0.007565 249876.000000 1 0 0
2.282252 -10.744234 16.544603 19.858780 -1.361491 0.586084 -0.003825 -0.000248 363064.000000 1 0 0
-14.505848 -0.073234 14.275103 20.351992 0.005049 0.793422 -0.023038 0.006278 -255900.000000 1 0 0
-13.914348 -5.958234 8.435003 17.327981 0.404585 1.062391 0.007020 0.003415 179756.000000 1 0 0
10.338952 0.616766 16.688903 19.641635 0.059584 0.555438 0.018071 0.012411 516082.000000 1 0 0
-7.484548 12.281866 12.168703 18.839852 -1.023495 0.868592 -0.011204 -0.000924 -149491.000000 1 0 0
-1.705048 7.334466 19.906203 21.282822 -1.342383 0.361640 0.017491 -0.012725 450526.000000 1 0 0
1.113552 -13.874234 15.513803 20.842564 -1.490708 0.731261 -0.018548 0.006097 475464.000000 1 0 0
-2.689248 -11.194334 17.493403 20.941928 1.335031 0.582065 -0.016827 -0.018751 508123.000000 1 0 0
-2.032348 8.973866 16.619403 18.996454 -1.348079 0.505632 0.001833 -0.006722 281781.000000 1 0 0
-5.007548 -9.728934 20.183603 22.958779 1.095453 0.496776 0.051683 -0.007921 140524.000000 1 0 0
-6.540548 -3.166134 19.050903 20.389706 0.450829 0.364396 0.016194 -0.018461 398380.000000 1 0 0
-10.549548 -8.168334 15.974703 20.813596 0.658862 0.695844 0.029866 -0.013312 228464.000000 1 0 0
-0.691948 5.789966 17.711903 18.647091 -1.451852 0.318047 0.012398 -0.015101 -46539.700000 1 0 0
-5.616848 -11.640234 18.221903 22.340139 1.121216 0.616931 0.010081 -0.013128 511906.000000 1 0 0
0.381352 3.352666 18.525803 18.830592 1.457537 0.180165 0.007594 -0.013637 142986.000000 1 0 0
-18.675848 0.067066 7.615303 20.168903 -0.003591 1.183619 0.019553 -0.007159 342264.000000 1 0 0
-1.562448 -8.705334 17.508503 19.615600 1.393205 0.467760 0.002570 -0.006674 200961.000000 1 0 0
5.949252 3.417866 14.975303 16.472253 0.521461 0.429623 -0.001100 -0.003708 466921.000000 1 0 0
-13.332848 -6.647734 10.322303 18.124766 0.462526 0.964882 -0.014745 -0.003692 59263.400000 1 0 0
3.848952 8.118666 16.716703 18.978286 1.128093 0.493177 0.005513 -0.011105 156649.000000 1 0 0
6.246152 4.267766 17.801503 19.342227 0.599405 0.401837 0.011835 -0.014881 302736.000000 1 0 0
5.611252 -9.455834 18.291603 21.342017 -1.035231 0.541241 0.005422 0.011226 382163.000000 1 0 0
-4.422048 -0.734034 19.718503 20.221590 0.164494 0.223529 0.008880 -0.011581 797016.000000 1 0 0
-11.003048 1.861966 16.925303 20.273132 -0.167635 0.582911 0.018859 -0.011112 330417.000000 1 0 0
-16.766748 -4.318634 8.900403 19.467707 0.252092 1.095965 0.014291 -0.005538 477571.000000 1 0 0
-12.954248 -9.493134 12.938103 20.623449 0.632415 0.892652 -0.000764 -0.011530 192899.000000 1 0 0
-14.494248 5.973366 13.246003 20.523668 -0.390911 0.869248 -0.000023 -0.014841 30299.000000 1 0 0
1.318352 9.176866 17.121603 19.470547 1.428112 0.496282 0.008856 -0.016558 204009.000000 1 0 0
-3.670948 -10.396634 14.951503 18.577226 1.231371 0.635408 0.001955 -0.008655 587410.000000 1 0 0
-17.871048 -2.772834 7.101903 19.429359 0.153931 1.196600 0.027702 -0.003756 -142346.000000 1 0 0
-0.864348 -0.572134 21.047403 21.072912 0.584713 0.049209 0.014157 -0.008831 312924.000000 1 0 0
-1.614148 2.471866 20.227703 20.442005 -0.992309 0.144926 0.003891 -0.012592 137387.000000 1 0 0
-7.639648 1.856566 16.600203 18.367847 -0.238396 0.442313 -0.009784 0.010045 534253.000000 1 0 0
2.846352 -1.914734 18.953703 19.261641 -0.592166 0.179052 0.004484 -0.004800 -67829.600000 1 0 0
-12.538548 4.393166 14.245703 19.479609 -0.337007 0.750550 0.009142 -0.010293 77819.500000 1 0 0
-13.402148 -5.609134 13.331703 19.718374 0.396374 0.828332 0.012444 0.000297 110364.000000 1 0 0
-17.215048 -1.075834 9.645903 19.762559 0.062413 1.060897 0.012610 -0.015720 150944.000000 1 0 0
-7.218248 7.639166 14.866403 18.206315 -0.813721 0.615384 -0.018690 0.000438 -51937.200000 1 0 0
-9.204648 0.646066 14.096003 16.847559 -0.070074 0.579605 0.005079 -0.009720 265866.000000 1 0 0
7.345452 -0.900234 15.145703 16.856999 -0.121949 0.454498 -0.005400 -0.000970 176409.000000 1 0 0
3.925252 6.413466 18.328703 19.811146 1.021576 0.389310 0.003754 0.001799 127855.000000 1 0 0
1.884252 0.486866 19.977803 20.072371 0.252856 0.097108 0.010596 -0.005704 203425.000000 1 0 0
-6.935348 6.722766 17.506003 19.993869 -0.769835 0.504185 -0.014706 0.004912 515368.000000 1 0 0
7.670052 -3.236834 16.747403 18.702468 -0.399335 0.461322 -0.008248 0.004461 362697.000000 1 0 0
-16.324248 2.675866 9.810603 19.232506 -0.162475 1.035489 0.010379 -0.001248 130610.000000 1 0 0
4.171252 -6.504434 18.998203 20.509479 -1.000566 0.386290 0.009180 -0.014191 135458.000000 1 0 0
-3.563248 -4.029434 20.651803 21.340807 0.846721 0.254798 0.015276 -0.012176 335122.000000 1 0 0
-9.661848 5.985966 14.548203 18.461671 -0.554668 0.663207 -0.010164 0.003566 -64167.300000 1 0 0
6.313352 2.268066 19.915103 21.014611 0.344891 0.324912 0.013567 -0.001666 -25244.500000 1 0 0
-7.003448 11.356366 14.356103 19.598802 -1.018189 0.748811 -0.017614 -0.003074 264731.000000 1 0 0
-14.345948 4.981166 8.934003 17.619156 -0.334194 1.039024 -0.006706 -0.017618 136297.000000 1 0 0
1.372152 -5.273334 20.377203 21.093157 -1.316236 0.261290 0.019413 -0.011108 364546.000000 1 0 0
-5.719848 -8.399834 13.921403 17.235990 0.972972 0.630566 0.004481 -0.004220 280968.000000 1 0 0
-12.648548 9.816966 6.555803 17.301362 -0.660018 1.182169 -0.028923 -0.023587 14353.600000 1 0 0
-19.340648 2.436466 8.102803 21.110482 -0.125316 1.176858 -0.010787 -0.007529 -28471.700000 1 0 0
-15.825248 9.451566 6.473903 19.536683 -0.538392 1.233039 -0.010277 -0.001777 100168.000000 1 0 0
-12.698548 7.964466 14.283003 20.704831 -0.560176 0.809529 -0.006587 -0.005003 177430.000000 1 0 0
-16.225948 9.164566 10.839403 21.558370 -0.514142 1.043969 -0.010165 -0.015144 279091.000000 1 0 0
2.786752 10.506766 15.208403 18.693679 1.311532 0.620550 0.008249 -0.028131 490302.000000 1 0 0
1.869752 14.752866 13.069703 19.797984 1.444730 0.849774 0.000836 -0.010952 700131.000000 1 0 0
8.809652 4.820566 16.563303 19.369843 0.500684 0.545038 0.004397 -0.002259 249467.000000 1 0 0
-0.386448 13.121666 13.635903 18.927898 -1.541354 0.766399 0.003837 0.015408 291190.000000 1 0 0
3.685252 13.310566 15.359703 20.656058 1.300696 0.732368 0.003414 0.017818 150135.000000 1 0 0
-3.483448 -4.527034 -13.170897 14.356217 0.914946 2.732382 -0.009449 0.002091 121873.000000 1 0 0
5.526852 -12.073034 16.847003 21.450542 -1.141487 0.667473 -0.047085 0.014762 223001.000000 1 0 0
8.822152 -13.995834 7.008203 17.967433 -1.008365 1.170110 -0.005982 -0.007097 474600.000000 1 0 0
-0.232248 15.309366 0.599503 15.322859 -1.555627 1.531662 -0.005975 0.000427 -566535.000000 1 0 0
-13.829648 7.786566 8.490003 17.999165 -0.512795 1.079591 -0.016064 -0.011634 -172968.000000 1 0 0
-15.767148 -9.659434 5.868803 19.399755 0.549655 1.263461 -0.004041 0.009287 197836.000000 1 0 0
9.084852 -10.717334 11.235203 17.989597 -0.867652 0.896255 -0.012043 0.002109 96091.700000 1 0 0
-24.899748 6.270066 31.206799 40.412566 -0.246684 0.688492 0.002006 -0.010227 246336.000000 0 0 1
-23.917648 5.232266 31.120769 39.597130 -0.215369 0.666590 -0.005953 -0.005380 430200.000000 0 0 1
-23.196248 5.067366 32.331619 40.113311 -0.215077 0.633421 -0.005758 -0.001376 -852008.000000 0 0 1
-21.783548 4.569266 32.156319 39.107927 -0.206760 0.605451 -0.010142 -0.008963 -990169.000000 0 0 1
-21.628248 3.228666 31.728059 38.534077 -0.148186 0.603461 -0.003197 -0.015874 285306.000000 0 0 1
-20.277048 2.792866 31.769309 37.792165 -0.136874 0.572347 -0.009572 -0.009834 -187275.000000 0 0 1
-19.959448 1.554466 32.656499 38.304606 -0.077724 0.549956 -0.010516 -0.011337 -445620.000000 0 0 1
-20.468348 0.282166 32.223509 38.175744 -0.013785 0.565943 -0.005403 -0.004232 178213.000000 0 0 1
-20.410548 -0.661134 33.319599 39.079704 0.032380 0.549844 -0.007993 -0.006080 51944.200000 0 0 1
-21.061248 -2.034334 32.985779 39.188982 0.096293 0.570353 0.000608 -0.029416 -74875.500000 0 0 1
-20.186548 -2.835834 32.209039 38.117724 0.139568 0.564253 0.012339 -0.044057 107422.000000 0 0 1
-20.206748 -4.238734 32.411379 38.428856 0.206770 0.567193 0.027413 -0.045124 504012.000000 0 0 1
-21.569948 -4.978834 32.012229 38.920872 0.226850 0.605012 0.016953 -0.028474 1679000.000000 0 0 1
-22.752048 -4.746934 32.797999 40.198231 0.205687 0.616501 0.013566 -0.023920 923099.000000 0 0 1
-22.669648 -5.145334 34.164273 41.322935 0.223189 0.597467 0.017506 -0.022829 -846309.000000 0 0 1
-23.951348 -4.648234 -34.421693 42.191541 0.191687 2.524983 0.012891 -0.015897 -121482.000000 0 0 1
-23.988548 -5.071534 -33.087007 41.181560 0.208347 2.503851 0.027847 -0.018724 169675.000000 0 0 1
-25.185248 -4.667834 -32.462087 41.350604 0.183261 2.473565 0.025603 -0.008949 -195889.000000 0 0 1
-25.343808 -5.079434 -30.924427 40.304211 0.197800 2.445378 0.024232 -0.003861 -455768.000000 0 0 1
-25.464288 -6.514134 -30.725787 40.434365 0.250444 2.433945 0.021217 -0.006822 572378.000000 0 0 1
-25.378018 -6.843134 -29.369557 39.413743 0.263384 2.411572 0.006318 -0.007315 -327232.000000 0 0 1
-25.385638 -8.366934 -29.080907 39.498549 0.318381 2.398312 0.005694 -0.005658 202235.000000 0 0 1
-26.594398 -9.049434 -29.422297 40.679550 0.327986 2.379322 0.028005 0.000054 359054.000000 0 0 1
-26.585748 -10.420134 -29.030577 40.720457 0.373543 2.364455 0.031250 -0.001273 790224.000000 0 0 1
-27.874528 -10.659334 -28.156847 41.029486 0.365246 2.327129 0.059636 -0.000060 685316.000000 0 0 1
-28.045208 -11.891134 -27.533467 41.061229 0.401022 2.305742 0.054255 -0.002712 227769.000000 0 0 1
-29.394988 -11.840434 -27.076717 41.682248 0.382922 2.277852 0.048677 -0.003402 314023.000000 0 0 1
-29.521178 -12.450634 -25.676887 41.058748 0.399117 2.246401 0.035575 0.002674 -131097.000000 0 0 1
-28.976208 -11.706634 -24.617397 39.782938 0.383957 2.238001 0.032709 0.008987 119817.000000 0 0 1
-28.943838 -12.473534 -23.445797 39.281551 0.406905 2.210385 0.015557 0.007101 -118667.000000 0 0 1
-28.537868 -11.668534 -22.197997 37.990995 0.388137 2.194809 0.011806 0.009319 44792.500000 0 0 1
-28.390078 -12.301934 -20.931397 37.355823 0.408895 2.165574 0.010801 0.009808 -3655.160000 0 0 1
-27.385948 -13.278734 -20.792197 36.859604 0.451474 2.170129 -0.003908 0.010327 -626800.000000 0 0 1
-27.166188 -13.598634 -19.291597 35.987364 0.464105 2.136566 -0.013011 0.002625 338907.000000 0 0 1
-26.303818 -12.595834 -18.657697 34.621605 0.446593 2.139931 -0.016588 -0.005085 801295.000000 0 0 1
-26.042678 -12.904234 -17.303797 33.825460 0.460044 2.107797 0.011470 -0.004449 32316.900000 0 0 1
-26.131308 -11.589734 -16.439697 32.976216 0.417451 2.092701 0.012583 -0.016841 139037.000000 0 0 1
-24.921048 -10.837634 -16.531497 31.808856 0.410208 2.117312 -0.008819 -0.009711 662445.000000 0 0 1
-25.019648 -9.543034 -15.931397 31.158654 0.364389 2.107492 -0.000892 -0.015295 154580.000000 0 0 1
-23.644048 -8.811034 -15.689397 29.712498 0.356712 2.127088 -0.004489 -0.012686 137279.000000 0 0 1
-22.805248 -9.476634 -14.816797 28.799712 0.393836 2.111194 -0.015118 -0.016893 -1078740.000000 0 0 1
-21.680948 -8.689634 -14.738397 27.618718 0.381192 2.133693 -0.004176 -0.031222 -790921.000000 0 0 1
-20.595148 -9.258334 -13.765997 26.445785 0.422471 2.118276 -0.008256 -0.013896 75331.500000 0 0 1
-19.895448 -10.397334 -14.268697 26.599420 0.481563 2.136996 -0.012123 -0.007346 152251.000000 0 0 1
-18.756648 -10.645534 -13.498797 25.443207 0.516225 2.130041 0.003424 -0.004499 -47504.700000 0 0 1
-17.847148 -11.830034 -13.917397 25.537509 0.585358 2.147160 0.004477 -0.003138 434130.000000 0 0 1
-17.085148 -11.723534 -15.142297 25.663840 0.601392 2.201886 0.020056 -0.010843 516552.000000 0 0 1
-17.932848 -11.660834 -16.287197 26.885589 0.576551 2.221563 0.013506 -0.012986 -109135.000000 0 0 1
-17.325548 -10.904834 -17.453697 26.902074 0.561763 2.276785 0.023060 -0.006983 -408267.000000 0 0 1
-18.072048 -11.113934 -18.597497 28.213212 0.551361 2.290520 0.010595 -0.001141 33548.800000 0 0 1
-17.515548 -10.518134 -19.775297 28.433922 0.540789 2.339888 0.011909 -0.001107 -400847.000000 0 0 1
-18.156248 -10.895234 -21.107897 29.898140 0.540480 2.354622 0.020806 0.000686 265276.000000 0 0 1
-19.405948 -10.196134 -21.180897 30.482493 0.483771 2.339014 -0.009044 -0.003074 597142.000000 0 0 1
-20.045548 -10.599934 -22.425297 31.891638 0.486415 2.350645 -0.006369 0.012147 324767.000000 0 0 1
-21.130948 -9.622434 -22.893597 32.607131 0.427312 2.349144 -0.024889 0.000718 -538653.000000 0 0 1
-20.537948 -8.599634 -23.616197 32.457446 0.396539 2.385620 -0.025917 -0.006172 167299.000000 0 0 1
-21.364448 -8.064134 -24.620097 33.580040 0.360922 2.393778 -0.022829 -0.006342 -350253.000000 0 0 1
-20.517348 -7.420634 -25.719897 33.727444 0.347039 2.438089 -0.026173 -0.005344 -379201.000000 0 0 1
-19.778548 -8.342834 -26.464467 34.075825 0.399168 2.460102 -0.015536 -0.010621 191721.000000 0 0 1
-19.071448 -7.659734 -27.523487 34.350167 0.381914 2.500198 -0.023487 -0.008578 -153001.000000 0 0 1
-17.948748 -8.509234 -28.148667 34.451590 0.442702 2.527072 0.000502 -0.007366 -301041.000000 0 0 1
-18.432648 -9.579234 -28.910597 35.599815 0.479274 2.518538 0.011538 -0.012819 244666.000000 0 0 1
-17.334848 -10.296734 -29.420367 35.666198 0.535989 2.540788 -0.004378 -0.010867 -47696.400000 0 0 1
-17.702848 -11.505434 -30.365847 36.984463 0.576319 2.534033 0.005539 -0.003407 -266914.000000 0 0 1
-18.211448 -11.089734 -31.623907 38.140668 0.546969 2.548362 0.008746 -0.007432 420175.000000 0 0 1
-18.320748 -12.215834 -32.467707 39.230453 0.588078 2.545641 -0.002760 -0.006493 -50725.300000 0 0 1
-18.836948 -11.882334 -33.926637 40.583706 0.562759 2.560689 0.003838 -0.001124 250605.000000 0 0 1
-17.849848 -11.154434 34.619378 40.515920 0.558530 0.546279 0.007830 -0.001534 483727.000000 0 0 1
-18.226348 -11.071334 33.233011 39.486798 0.545869 0.570514 0.004847 -0.012040 56700.900000 0 0 1
-18.063748 -12.212834 32.230839 38.913742 0.594502 0.594794 0.005537 -0.002476 144710.000000 0 0 1
-16.706948 -12.292034 31.810619 37.975409 0.634315 0.577805 0.009488 -0.002538 441366.000000 0 0 1
-16.435748 -13.327934 30.908199 37.457768 0.681359 0.600332 0.012569 0.000513 38782.200000 0 0 1
-16.284248 -14.798334 31.485249 38.412086 0.737629 0.609961 0.006879 0.009784 -816448.000000 0 0 1
-17.453248 -15.557034 31.361489 39.117517 0.728018 0.640621 -0.004980 0.008959 -248569.000000 0 0 1
-17.307448 -16.898834 31.780499 39.938934 0.773453 0.650589 0.002808 -0.000489 -380004.000000 0 0 1
-17.542348 -17.163934 33.239281 41.318088 0.774495 0.636009 -0.002291 -0.011827 -386620.000000 0 0 1
-16.516348 -16.914034 34.166260 41.547655 0.797294 0.605287 -0.005103 -0.003465 -229470.000000 0 0 1
-17.035848 -16.597434 -33.814927 41.341798 0.772364 2.528610 -0.000432 -0.008795 -647566.000000 0 0 1
-16.023848 -15.885134 -33.004377 39.979871 0.781051 2.541928 -0.001309 0.000846 -809417.000000 0 0 1
-15.671448 -14.627734 -33.608197 39.863213 0.750965 2.573796 -0.001878 0.000145 621768.000000 0 0 1
-14.441348 -13.982634 -33.231917 38.838472 0.769261 2.597591 0.001994 0.001937 615778.000000 0 0 1
-14.435748 -13.445134 -31.775047 37.400749 0.749883 2.585991 0.016678 0.000545 -385411.000000 0 0 1
-14.462348 -14.477834 -30.825817 36.999975 0.785933 2.555541 0.014014 -0.001831 -108392.000000 0 0 1
-14.707048 -13.959434 -29.545247 35.834127 0.759324 2.540115 0.006849 0.001068 -413220.000000 0 0 1
-14.928448 -15.003134 -28.462157 35.468958 0.787893 2.502190 0.025626 0.012150 667903.000000 0 0 1
-13.717748 -15.656534 -28.028177 34.912496 0.851305 2.502793 -0.003376 -0.000672 509475.000000 0 0 1
-13.232348 -16.730734 -28.853997 35.882665 0.901628 2.504991 -0.001568 -0.007347 299080.000000 0 0 1
-11.734148 -17.055534 -28.562017 35.275633 0.968172 2.514405 -0.028784 0.006558 561678.000000 0 0 1
-10.971448 -15.905734 -28.940347 34.798114 0.966963 2.552894 -0.030017 0.013294 756171.000000 0 0 1
-9.586548 -16.066834 -28.553307 34.137024 1.032831 2.561537 -0.039484 0.015395 1235030.000000 0 0 1
-8.745948 -14.781334 -28.454617 33.236195 1.036511 2.598536 -0.042374 0.014998 -298803.000000 0 0 1
-9.150248 -13.958034 -27.341487 32.032962 0.990526 2.593543 -0.040014 0.006528 246915.000000 0 0 1
-8.332048 -12.829334 -26.943837 30.983628 0.994806 2.625219 -0.024717 0.012721 -111009.000000 0 0 1
-8.469948 -11.714134 -28.008627 31.518949 0.944765 2.665142 -0.027373 -0.003639 209031.000000 0 0 1
-7.654648 -11.976134 -29.192547 32.468850 1.002080 2.688492 -0.009416 -0.004966 651447.000000 0 0 1
-7.425248 -10.748234 -29.854297 32.587388 0.966248 2.729115 -0.013084 -0.002225 -610718.000000 0 0 1
-6.391348 -10.749134 -30.964907 33.394890 1.034363 2.757756 -0.012712 0.007992 -587782.000000 0 0 1
-5.064948 -10.766734 -30.428637 32.672285 1.131087 2.768841 0.000678 0.001217 695266.000000 0 0 1
-4.144848 -10.517734 -31.508637 33.475315 1.195402 2.797109 0.005169 0.001509 129108.000000 0 0 1
-3.978248 -9.053034 -32.005917 33.498695 1.156760 2.841935 -0.000836 -0.000654 -997917.000000 0 0 1
-2.830748 -8.772234 -32.763027 34.034999 1.258651 2.867339 -0.000453 0.001517 19970.800000 0 0 1
-2.846248 -7.337934 -33.023127 33.948097 1.200780 2.907622 -0.003489 -0.001409 569990.000000 0 0 1
-1.476648 -6.822934 -33.583657 34.301529 1.357659 2.936645 0.000181 -0.003207 587923.000000 0 0 1
-0.989448 -7.255834 34.416592 35.187042 1.435266 0.209648 0.001071 -0.003349 104647.000000 0 0 1
0.210052 -6.562734 34.085794 34.712461 -1.538800 0.190303 -0.005878 0.013032 517556.000000 0 0 1
0.853652 -6.996434 32.718089 33.468674 -1.449384 0.212183 -0.005366 0.015384 175732.000000 0 0 1
0.109052 -6.606634 31.569439 32.253511 -1.554291 0.206323 -0.008802 0.014078 175708.000000 0 0 1
0.551152 -7.371134 30.475529 31.359133 -1.496164 0.237951 -0.005909 0.013872 69924.500000 0 0 1
0.208752 -6.734934 29.110119 29.879791 -1.539811 0.227466 -0.009027 0.018258 55257.500000 0 0 1
0.800052 -5.487534 28.836269 29.364664 -1.426022 0.189992 0.000841 0.006462 -28800.300000 0 0 1
0.529952 -5.174734 27.447889 27.936451 -1.468741 0.187294 0.000991 0.016146 -1067150.000000 0 0 1
-0.641548 -4.261434 27.185389 27.524839 1.421371 0.157213 -0.003858 0.021567 271262.000000 0 0 1
-1.934348 -4.778534 27.473709 27.953189 1.186159 0.185484 -0.004660 0.029367 -55147.800000 0 0 1
-3.012548 -4.035134 26.991849 27.457561 0.929488 0.184441 -0.004445 0.006536 -211041.000000 0 0 1
-4.365148 -4.620434 27.415379 28.142600 0.813801 0.227827 -0.002617 0.008722 -102680.000000 0 0 1
-4.731048 -5.805834 26.716279 27.746172 0.887049 0.273314 -0.009870 0.019441 -92664.100000 0 0 1
-6.035548 -6.209334 27.090559 28.440852 0.799590 0.309379 -0.010887 0.012916 495013.000000 0 0 1
-6.290648 -7.714634 26.819489 28.607216 0.886725 0.355399 0.001925 0.010191 -11362.200000 0 0 1
-5.481448 -8.431334 27.689599 29.459252 0.994331 0.348375 -0.002569 0.008385 -281310.000000 0 0 1
-5.811748 -9.812334 27.704399 29.959840 1.036065 0.390503 0.000810 0.007705 39240.000000 0 0 1
-5.124248 -10.533934 28.868729 31.154858 1.118046 0.385474 0.002102 -0.002626 -163213.000000 0 0 1
-5.261048 -11.929434 29.024859 31.818744 1.155440 0.422190 0.006306 -0.006503 23250.500000 0 0 1
-4.522248 -12.338134 30.158809 32.897326 1.219475 0.410915 0.011113 -0.011738 -444572.000000 0 0 1
-4.519848 -13.814234 30.373649 33.672253 1.254587 0.446329 0.007457 -0.010492 383713.000000 0 0 1
-5.798348 -14.362734 30.691089 34.378073 1.187098 0.467380 0.031309 -0.025228 265226.000000 0 0 1
-5.712548 -15.780534 30.682069 34.972101 1.223472 0.500527 0.020807 -0.022397 68968.200000 0 0 1
-5.787748 -16.417234 32.099329 36.515620 1.231860 0.496915 0.023406 -0.014415 134815.000000 0 0 1
-7.096848 -16.610034 32.604989 37.273902 1.167011 0.505896 0.026142 -0.010689 -39004.900000 0 0 1
-7.124748 -17.143134 33.875441 38.628934 1.176911 0.501329 0.020069 -0.011566 -602847.000000 0 0 1
-8.543448 -17.362634 34.403895 39.472516 1.113521 0.512358 0.025573 -0.009045 85290.400000 0 0 1
-9.191548 -18.578834 33.924720 39.756059 1.111372 0.548472 0.021515 -0.009994 621956.000000 0 0 1
-9.806648 -18.504234 32.605869 38.752029 1.083463 0.570932 0.017909 -0.010394 -284804.000000 0 0 1
-10.287748 -19.923834 32.244989 39.275135 1.094151 0.607631 0.016092 -0.012036 -389091.000000 0 0 1
-11.336948 -20.498734 32.970109 40.444438 1.065610 0.617730 0.020344 -0.010298 -32953.700000 0 0 1
-11.470948 -21.894434 32.676219 40.971749 1.088196 0.647606 0.013065 -0.011231 -224079.000000 0 0 1
-11.065348 -22.737734 33.858721 42.259430 1.117885 0.641480 0.015028 -0.014750 1210040.000000 0 0 1
-9.610548 -22.796734 33.970144 42.024093 1.171830 0.629454 0.007636 -0.012962 1388310.000000 0 0 1
-9.216248 -23.675334 -34.229970 42.628060 1.199569 2.503094 0.004015 -0.018503 -185592.000000 0 0 1
-9.518748 -25.201394 -34.316736 43.627459 1.209654 2.476056 0.013880 -0.007215 -188152.000000 0 0 1
-8.888248 -25.978524 33.928585 43.646690 1.241142 0.680360 0.007666 0.001401 16390.900000 0 0 1
-8.897248 -27.364484 34.216134 44.707045 1.256439 0.699225 0.013417 0.004266 -667941.000000 0 0 1
-8.437048 -28.151824 32.974499 44.170426 1.279617 0.727967 0.010027 0.007839 529062.000000 0 0 1
-7.114648 -27.902704 32.503529 43.424170 1.321136 0.724980 -0.005085 -0.005937 487407.000000 0 0 1
-6.127248 -28.633004 33.232229 44.291908 1.359983 0.722280 -0.004319 0.000526 1276980.000000 0 0 1
-4.698248 -27.928654 33.350401 43.753086 1.404134 0.704028 0.000318 -0.004317 1349000.000000 0 0 1
-4.734048 -26.820674 34.288633 43.788927 1.396088 0.671252 -0.014295 -0.002821 82888.400000 0 0 1
-4.869748 -25.622484 33.564869 42.506783 1.382979 0.660581 -0.006586 -0.004876 -20515.900000 0 0 1
-4.439148 -24.386734 34.385952 42.388826 1.390737 0.624590 -0.009382 -0.002164 851305.000000 0 0 1
-3.030148 -24.279834 -34.629777 42.401811 1.446637 2.526474 -0.015271 -0.000927 527107.000000 0 0 1
-2.866448 -22.966934 -34.087963 41.202983 1.446631 2.545112 -0.016390 -0.006359 -286848.000000 0 0 1
32.992144 -15.964234 2.141203 36.714072 -0.450669 1.512442 0.017805 -0.007767 -830386.000000 0 0 1
33.717324 -16.160034 3.353703 37.540005 -0.446935 1.481340 0.017927 -0.004751 517545.000000 0 0 1
33.014374 -16.853834 4.403303 37.328135 -0.472012 1.452559 0.013877 -0.016409 259837.000000 0 0 1
33.858759 -16.774134 5.725203 38.217340 -0.459973 1.420424 0.009101 -0.000638 578741.000000 0 0 1
-34.751794 -17.532834 5.640303 39.330656 0.467254 1.426893 0.022967 -0.001851 95145.900000 0 0 1
-34.112928 -17.572034 6.915803 38.990981 0.475665 1.392484 0.011395 0.002337 85909.000000 0 0 1
-32.809498 -18.385234 6.849603 38.228224 0.510765 1.390647 0.008777 -0.009476 -242693.000000 0 0 1
-32.940248 -19.809334 6.877903 39.048370 0.541428 1.393735 0.023681 -0.013976 62842.700000 0 0 1
-31.713368 -20.375134 7.290103 38.393091 0.571069 1.379756 0.013557 -0.009143 110212.000000 0 0 1
-31.817168 -21.891634 7.470703 39.336843 0.602657 1.379720 0.008538 -0.007985 -185012.000000 0 0 1
-31.545938 -22.749434 6.351303 39.408401 0.624782 1.408924 0.026700 -0.008481 206616.000000 0 0 1
-31.926238 -24.065634 6.679703 40.534650 0.645921 1.405251 0.039041 -0.014950 -275672.000000 0 0 1
-31.543398 -25.117264 5.615603 40.711153 0.672466 1.432417 0.034999 -0.013102 115032.000000 0 0 1
-32.095378 -24.895134 4.325503 40.848390 0.659723 1.464706 0.032249 -0.011813 286915.000000 0 0 1
-31.477978 -25.801764 3.402603 40.843260 0.686624 1.487391 0.028826 -0.007478 92247.500000 0 0 1
-31.746298 -25.513924 1.865003 40.770897 0.676982 1.525037 0.029494 -0.002935 -63548.100000 0 0 1
-32.937878 -26.117774 1.399903 42.059502 0.670421 1.537506 0.019344 -0.001158 145192.000000 0 0 1
-33.559328 -25.591924 0.251303 42.204718 0.651509 1.564842 0.007910 0.007480 98774.600000 0 0 1
-34.622827 -24.523734 0.562003 42.431940 0.616282 1.557551 0.022026 0.006861 179967.000000 0 0 1
33.807575 -24.902134 0.605803 41.993278 -0.634860 1.556370 0.011860 0.004200 301014.000000 0 0 1
33.045914 -23.773034 0.963603 40.719996 -0.623624 1.547130 0.015577 0.002064 -358934.000000 0 0 1
31.546924 -23.934734 0.735203 39.605813 -0.649048 1.552232 -0.008842 0.006089 -325598.000000 0 0 1
31.297584 -23.623434 -0.630797 39.217385 -0.646566 1.586882 -0.002956 0.003171 165431.000000 0 0 1
29.923804 -23.501034 -0.983797 38.061798 -0.665752 1.596647 -0.014044 0.007816 405486.000000 0 0 1
29.621664 -23.384534 -2.561397 37.826448 -0.668269 1.638563 -0.024245 0.014148 8951.310000 0 0 1
29.915874 -22.068434 -3.033197 37.298466 -0.635572 1.652209 -0.015320 -0.001972 -5491.020000 0 0 1
29.775824 -22.093634 -4.445097 37.342834 -0.638361 1.690114 -0.013992 -0.027886 42642.700000 0 0 1
29.871594 -20.670634 -5.002897 36.669009 -0.605325 1.707657 -0.009445 -0.029253 695346.000000 0 0 1
28.805114 -19.918534 -4.386397 35.294802 -0.604994 1.695397 -0.020695 -0.028599 345701.000000 0 0 1
28.731554 -18.558134 -4.796097 34.538516 -0.573498 1.710109 -0.022846 -0.027636 342116.000000 0 0 1
27.782214 -17.879834 -3.716997 33.246894 -0.571843 1.682830 -0.023260 -0.016112 278008.000000 0 0 1
28.188154 -17.805834 -2.324497 33.421895 -0.563387 1.640403 -0.020797 -0.010860 -122655.000000 0 0 1
28.828084 -18.893034 -1.682797 34.508506 -0.580140 1.619580 -0.025586 0.006546 -765951.000000 0 0 1
27.942744 -20.080334 -1.329897 34.435235 -0.623116 1.609426 -0.032665 0.009150 -71879.600000 0 0 1
27.096824 -19.846334 -0.188697 33.587951 -0.632157 1.576414 -0.025999 0.024620 553132.000000 0 0 1
26.558214 -21.093134 0.356903 33.917347 -0.671208 1.560273 -0.025347 0.022707 377612.000000 0 0 1
25.530444 -20.864534 1.532903 33.007304 -0.685166 1.524338 -0.026435 0.027332 -503907.000000 0 0 1
24.777724 -22.011234 1.909203 33.197516 -0.726340 1.513254 -0.028656 0.041068 543515.000000 0 0 1
23.803014 -21.658734 2.919903 32.314239 -0.738266 1.480313 -0.027489 0.038442 1542850.000000 0 0 1
22.433614 -21.065934 2.379603 30.865889 -0.753967 1.493625 -0.014602 0.034272 114258.000000 0 0 1
22.415614 -19.738434 1.851903 29.924824 -0.721974 1.508872 -0.000374 0.016178 39613.000000 0 0 1
22.584114 -18.732934 2.835803 29.478921 -0.692456 1.474450 0.005028 0.030217 -338895.000000 0 0 1
22.404114 -17.279234 2.315303 28.387971 -0.656965 1.489146 0.001669 0.027834 -1043090.000000 0 0 1
21.139514 -16.984434 1.893703 27.183380 -0.676838 1.501076 -0.001055 0.022764 -1256270.000000 0 0 1
21.122814 -15.639834 1.537403 26.327577 -0.637344 1.512368 0.003435 0.016048 -13239.500000 0 0 1
19.908214 -15.237634 0.693803 25.079949 -0.653281 1.543129 -0.008387 0.018072 -505254.000000 0 0 1
18.686214 -15.186034 1.364503 24.117464 -0.682429 1.514189 -0.007212 0.014044 436081.000000 0 1 0
17.853014 -13.982234 1.272503 22.712381 -0.664404 1.514740 -0.001871 0.007536 50840.600000 0 1 0
18.392314 -12.706534 1.865903 22.432450 -0.604566 1.487521 0.005824 0.006617 -304105.000000 0 1 0
19.447414 -12.098934 1.099303 22.930211 -0.556537 1.522837 0.003301 0.004422 633049.000000 0 1 0
19.906614 -10.974134 1.795503 22.801946 -0.503826 1.491971 0.006027 0.003955 -266674.000000 0 1 0
20.751214 -10.157034 0.812403 23.117920 -0.455186 1.535647 0.007939 0.004349 -101416.000000 0 1 0
19.977314 -9.748134 -0.325597 22.231176 -0.453969 1.585443 0.001791 0.006364 678752.000000 0 1 0
20.717414 -8.856334 -1.135097 22.559573 -0.403972 1.621133 0.005580 0.006875 -172492.000000 0 1 0
20.146814 -8.694434 -2.578297 22.093775 -0.407409 1.687761 0.014464 0.002813 -222164.000000 0 1 0
20.929714 -7.952234 -3.502797 22.661874 -0.363103 1.725986 0.007628 -0.000029 401280.000000 0 1 0
21.946614 -8.688234 -4.164097 23.968291 -0.376950 1.745416 0.003499 0.004092 -456307.000000 0 1 0
21.501114 -9.796934 -5.152297 24.183134 -0.427541 1.785495 -0.005728 0.001423 -400797.000000 0 1 0
20.904114 -9.433934 -6.386297 23.806845 -0.423931 1.842377 -0.005032 -0.007464 605220.000000 0 1 0
19.502114 -9.200434 -6.297297 22.464113 -0.440806 1.854931 -0.014918 -0.000717 93241.900000 0 1 0
18.805414 -9.128534 -7.679497 22.269899 -0.451916 1.922862 -0.009027 0.000566 -317073.000000 0 1 0
18.568414 -10.319734 -8.423897 22.852679 -0.507261 1.948318 -0.017959 0.000851 1058500.000000 0 1 0
19.765714 -10.855134 -9.005997 24.282203 -0.502221 1.950762 -0.010656 0.003794 283753.000000 0 1 0
19.630414 -12.287434 -9.607797 25.072773 -0.559274 1.964051 -0.021861 0.006249 287179.000000 0 0 1
18.610014 -12.303934 -10.632997 24.713964 -0.584171 2.015558 -0.005506 0.002411 766801.000000 0 1 0
18.527814 -13.677934 -11.139297 25.582215 -0.635931 2.021314 -0.004306 0.010404 -202665.000000 0 0 1
17.510914 -13.931134 -12.263497 25.516700 -0.672033 2.072143 -0.004499 0.005229 -280580.000000 0 0 1
17.529714 -15.305634 -12.624697 26.475201 -0.717767 2.067864 -0.001240 0.005747 315368.000000 0 0 1
16.504914 -15.633234 -13.553897 26.467306 -0.758282 2.108424 0.002951 0.002991 -119354.000000 0 0 1
16.465514 -17.139934 -13.887897 27.527517 -0.805464 2.099610 0.000414 -0.001783 -461907.000000 0 0 1
15.939814 -17.835334 -12.810297 27.134489 -0.841461 2.062472 0.000936 0.001588 183446.000000 0 0 1
15.981214 -19.200434 -13.038897 28.179225 -0.876647 2.051850 -0.001932 -0.001418 -366564.000000 0 0 1
15.153514 -20.066034 -12.060297 27.887730 -0.923987 2.018014 -0.000932 0.003989 189506.000000 0 0 1
13.765514 -19.850434 -12.224997 27.073597 -0.964472 2.039295 -0.002574 0.010411 -473409.000000 0 0 1
12.971414 -20.729934 -11.492897 27.019890 -1.011670 2.010144 -0.005526 0.005767 398354.000000 0 0 1
11.468314 -20.406434 -11.772297 26.201751 -1.058791 2.036772 0.001934 0.003953 200025.000000 0 0 1
10.655014 -21.339234 -11.135997 26.323044 -1.107696 2.007606 -0.000751 0.008710 -188241.000000 0 0 1
9.287014 -20.978434 -11.343897 25.593502 -1.154035 2.029999 0.009761 0.014708 934298.000000 0 0 1
8.298214 -21.667734 -10.342297 25.403035 -1.205052 1.990104 0.010743 0.011978 195990.000000 0 0 1
8.031114 -23.053434 -10.503497 26.575987 -1.235575 1.977109 0.022530 0.007936 -233582.000000 0 0 1
7.246014 -23.596634 -9.479497 26.441761 -1.272858 1.937462 0.020958 -0.004722 157079.000000 0 0 1
7.255814 -25.157374 -9.609497 27.890549 -1.290000 1.922548 0.026818 -0.002126 -184581.000000 0 0 1
8.541014 -25.647084 -9.414497 28.624371 -1.249327 1.905933 0.017126 0.008045 -871061.000000 0 0 1
8.651714 -27.021544 -9.868097 30.039896 -1.260932 1.905511 0.008144 0.007337 1022620.000000 0 0 1
10.106014 -27.631714 -9.766697 31.000508 -1.220169 1.891305 0.011636 0.010643 1062490.000000 0 0 1
10.448314 -27.752254 -8.417497 30.825462 -1.210724 1.847379 0.012985 0.013953 -261565.000000 0 0 1
11.806014 -28.106574 -8.260797 31.584842 -1.173130 1.835417 0.011243 0.025363 -142466.000000 0 0 1
12.204014 -28.176264 -6.735097 31.435670 -1.162059 1.786720 0.011954 0.013308 146042.000000 0 0 1
11.599914 -29.125434 -5.873697 31.895913 -1.191778 1.756005 0.019909 0.011103 -210574.000000 0 0 1
10.199414 -29.241144 -5.807097 31.508649 -1.235188 1.756158 0.022770 0.008820 -525965.000000 0 0 1
9.750914 -30.248254 -4.722097 32.129977 -1.258951 1.718299 0.031223 -0.002085 54156.200000 0 0 1
9.926114 -31.627244 -5.087497 33.536442 -1.266685 1.723085 0.042749 -0.003019 -40480.000000 0 0 1
9.104114 -32.085514 -6.161797 33.916557 -1.294318 1.753486 0.039675 0.003825 186052.000000 0 0 1
9.337514 -33.574824 -6.420897 35.435659 -1.299541 1.753002 0.026096 0.002311 229243.000000 0 0 1
8.790614 -34.353403 -5.325397 35.857929 -1.320284 1.719862 0.026374 -0.002372 231332.000000 0 0 1
9.245314 33.797083 -5.501297 35.468055 1.303775 1.726531 0.021797 -0.005022 99135.500000 0 0 1
8.976614 32.826912 -4.306397 34.303510 1.303869 1.696667 0.011874 0.003540 -8291.310000 0 0 1
7.665314 32.312422 -4.357497 33.493841 1.337877 1.701265 0.015749 -0.004996 -632552.000000 0 0 1
7.440214 31.294382 -3.421897 32.348176 1.337381 1.676778 -0.002630 -0.003985 128672.000000 0 0 1
6.022214 30.663052 -3.503197 31.444589 1.376865 1.682437 -0.007672 -0.009252 441492.000000 0 0 1
5.604714 29.899302 -4.675797 30.777332 1.385494 1.723310 -0.011756 -0.008263 124195.000000 0 0 1
5.463714 30.698702 -5.821897 31.719977 1.394662 1.755383 -0.006305 -0.019931 -683892.000000 0 0 1
5.390914 29.955442 -7.198197 31.276261 1.392738 1.803027 0.014275 -0.025781 224034.000000 0 0 1
4.437714 28.897952 -7.330097 30.141587 1.418422 1.816448 0.012290 -0.025741 98983.600000 0 0 1
4.953214 27.675902 -6.907397 28.951718 1.393699 1.811703 0.008402 -0.017523 277560.000000 0 0 1
4.046414 26.461892 -7.432197 27.782058 1.419057 1.841612 0.013462 -0.014595 799917.000000 0 0 1
2.770614 26.354292 -6.807497 27.359953 1.466052 1.822250 0.014184 -0.016094 414994.000000 0 0 1
1.670914 26.928422 -7.527397 28.010597 1.508826 1.842875 0.012383 -0.021638 595439.000000 0 0 1
1.111014 26.172132 -8.774397 27.626163 1.528372 1.894006 0.022872 -0.016649 328319.000000 0 0 1
2.064314 26.115392 -9.901497 28.005619 1.491914 1.932164 0.018098 -0.016913 690399.000000 0 0 1
1.551714 25.519592 -11.052097 27.853298 1.510066 1.978821 0.019990 -0.012275 -372120.000000 0 0 1
1.468614 23.967362 -11.044397 26.430474 1.509597 2.001891 0.027412 -0.004829 -205220.000000 0 0 1
0.614914 23.308862 -10.150597 25.430607 1.544421 1.981385 0.025934 -0.004912 -230555.000000 0 0 1
0.856714 21.950062 -10.147797 24.197458 1.531786 2.003553 0.013705 -0.006247 -224578.000000 0 1 0
-0.231386 21.179162 -9.384197 23.166216 -1.559872 1.987864 0.017401 -0.000819 -533399.000000 0 1 0
-1.515886 21.289262 -9.896597 23.526011 -1.499712 2.004976 0.023153 -0.003901 -808626.000000 0 1 0
-2.450486 20.606262 -9.081897 22.651794 -1.452433 1.983334 0.011308 0.000950 825612.000000 0 1 0
-3.936386 20.803562 -9.541597 23.223380 -1.383790 1.994195 0.011546 -0.000983 639115.000000 0 1 0
-4.869986 19.942362 -8.956997 22.397374 -1.331281 1.982218 0.004254 -0.009005 -112749.000000 0 1 0
-5.766886 19.468262 -9.929197 22.602193 -1.282811 2.025618 0.001895 -0.003813 -925634.000000 0 1 0
-6.611886 18.260362 -9.498697 21.619045 -1.223392 2.025690 0.008892 -0.003541 299582.000000 0 1 0
-7.741586 18.567862 -8.665497 21.904075 -1.175777 1.977530 0.033567 -0.002665 418336.000000 0 1 0
-8.881486 18.894562 -9.466497 22.923783 -1.131390 1.996493 0.037665 -0.002873 -506875.000000 0 1 0
-10.057686 19.178362 -8.533497 23.276322 -1.087797 1.946167 0.056080 -0.011633 -219926.000000 0 1 0
-10.331586 18.038762 -7.671197 22.158201 -1.050659 1.924315 0.052966 -0.013923 323356.000000 0 1 0
-11.417486 18.289462 -6.764397 22.596913 -1.012725 1.874808 0.055613 -0.011524 461051.000000 0 1 0
-11.683886 17.232562 -5.682897 21.581698 -0.974980 1.837259 0.038927 -0.017156 -449434.000000 0 1 0
-12.705486 17.628262 -4.833197 22.260835 -0.946283 1.789656 0.055601 -0.014144 -215555.000000 0 1 0
-13.128686 16.499562 -4.045297 21.470034 -0.898683 1.760345 0.056731 -0.016479 164109.000000 0 1 0
-14.340286 16.844862 -3.120297 22.341205 -0.865539 1.710920 0.053403 -0.017446 -149416.000000 0 1 0
-15.551186 16.876062 -3.815997 23.263763 -0.826232 1.735573 0.061937 -0.027966 -369976.000000 0 1 0
-16.543686 17.401162 -2.960697 24.192142 -0.810654 1.693486 0.049427 -0.021025 211594.000000 0 1 0
-17.894786 17.787762 -3.632597 25.491638 -0.782399 1.713785 0.036810 -0.022126 39468.300000 0 0 1
-17.781486 18.652462 -4.711097 26.197138 -0.809299 1.751612 0.042671 -0.020617 -90356.800000 0 0 1
-19.038886 18.900562 -5.307297 27.347355 -0.781752 1.766105 0.013914 -0.022303 -19809.700000 0 0 1
-19.053986 19.718262 -6.567897 28.195771 -0.802529 1.805895 0.004476 -0.009522 -268948.000000 0 0 1
-18.598386 21.006162 -6.336697 28.763041 -0.846119 1.792925 0.010147 -0.007480 -75426.900000 0 0 1
-18.580786 21.761262 -7.521897 29.586772 -0.864073 1.827850 -0.003234 0.005832 -37070.700000 0 0 1
-18.483986 23.217862 -7.026697 30.497563 -0.898431 1.803287 -0.005601 0.007010 887927.000000 0 0 1
-17.153186 23.563562 -6.591097 29.881697 -0.941555 1.793198 0.013480 0.002075 836413.000000 0 0 1
-17.111686 24.761272 -5.791997 30.650899 -0.966091 1.760906 0.010683 -0.001471 48594.400000 0 0 1
-15.701886 25.012522 -5.209197 29.988518 -1.010214 1.745388 0.023929 -0.002098 156907.000000 0 0 1
-15.559986 26.320672 -4.746397 30.942192 -1.036895 1.724800 0.020264 -0.011503 -223408.000000 0 0 1
-14.241286 26.530902 -4.308097 30.418131 -1.078159 1.712903 0.028547 -0.010652 -67982.900000 0 0 1
-13.668386 27.869942 -4.856897 31.418910 -1.114830 1.726004 0.034727 -0.005385 -334246.000000 0 0 1
-14.358986 28.997942 -4.409597 32.657398 -1.111018 1.706236 0.040486 -0.003813 -104071.000000 0 0 1
-13.885186 30.152212 -5.097997 33.584875 -1.139242 1.723180 0.026617 -0.006184 -241359.000000 0 0 1
-14.572186 31.455832 -4.642597 34.976730 -1.136971 1.703923 0.020788 -0.017152 -1095520.000000 0 0 1
-15.907186 31.438552 -4.971397 35.582803 -1.102379 1.710968 0.037171 -0.009878 -1242970.000000 0 0 1
-16.453286 32.624042 -4.434197 36.806261 -1.103691 1.691564 0.039941 -0.008851 -202001.000000 0 0 1
12.679952 -8.550934 18.789799 24.227179 -0.593314 0.683184 0.020362 -0.006996 -12685.900000 0 1 0
13.161752 -9.773534 19.290799 25.315778 -0.638730 0.704390 0.033315 -0.002628 -40351.700000 0 0 1
13.367352 -10.740734 18.233599 25.030254 -0.676875 0.754721 0.022387 -0.009615 -4401.910000 0 0 1
13.603552 -12.165034 18.813299 26.210397 -0.729632 0.770188 0.024632 -0.013956 186287.000000 0 0 1
14.835552 -12.262234 19.530999 27.421085 -0.690718 0.778081 0.018072 -0.005285 461651.000000 0 0 1
14.980552 -13.440934 20.346999 28.619504 -0.731280 0.779950 0.027392 -0.007254 -231728.000000 0 0 1
15.448352 -14.679234 19.550299 28.919642 -0.759875 0.828446 0.011307 -0.004875 -501749.000000 0 0 1
14.639452 -15.055134 18.460599 27.960049 -0.799396 0.849646 0.013670 -0.007267 8611.130000 0 0 1
15.069452 -16.264634 17.914899 28.505619 -0.823523 0.891213 0.011413 -0.003333 -379623.000000 0 0 1
14.482652 -16.624634 16.536399 27.560446 -0.854148 0.927289 -0.000740 -0.001902 -217956.000000 0 0 1
13.086852 -16.837634 16.568699 27.005433 -0.910089 0.910271 0.011374 -0.006937 -121607.000000 0 0 1
12.567552 -16.502134 15.259299 25.750922 -0.919931 0.936547 0.009830 -0.009140 81451.400000 0 0 1
11.964952 -17.680634 14.508999 25.812322 -0.975862 0.973879 -0.000306 -0.000152 134287.000000 0 0 1
12.977252 -18.632434 14.204499 26.783287 -0.962432 1.011784 -0.013238 0.007092 356149.000000 0 0 1
12.398652 -19.750534 13.616499 27.004059 -1.010213 1.042296 0.000151 0.002675 -88672.800000 0 0 1
13.478652 -20.756834 13.171099 28.035657 -0.994871 1.081734 -0.004959 -0.001547 -56139.400000 0 0 1
14.240352 -21.416834 14.181199 29.369624 -0.984008 1.066887 0.001067 -0.004320 70829.000000 0 0 1
14.478352 -22.766034 13.763199 30.287632 -1.004352 1.099079 -0.011195 -0.013082 -450998.000000 0 0 1
15.315752 -23.591734 14.764099 31.766662 -0.994984 1.087425 -0.009060 -0.015960 -71250.000000 0 0 1
16.664752 -23.159834 14.714199 32.102952 -0.947067 1.094665 -0.040438 -0.011967 27556.700000 0 0 1
17.435052 -23.895734 15.698499 33.487759 -0.940460 1.082884 -0.022723 -0.016831 346664.000000 0 0 1
18.863052 -23.310834 15.822199 33.905039 -0.890473 1.085283 -0.046279 -0.019643 -194618.000000 0 0 1
19.686752 -23.783934 14.806699 34.241525 -0.879372 1.123622 -0.036645 -0.012539 -1446520.000000 0 0 1
20.907152 -23.125434 14.887399 34.547494 -0.835734 1.125278 -0.021936 -0.006318 -912968.000000 0 0 1
22.053552 -24.022434 14.462999 35.673728 -0.828103 1.153353 -0.012753 -0.009515 -634749.000000 0 0 1
22.232052 -25.061064 15.418199 36.878746 -0.845146 1.139468 -0.009346 -0.015575 605852.000000 0 0 1
23.477052 -25.704784 15.132099 37.959035 -0.830663 1.160760 0.001737 -0.011682 467850.000000 0 0 1
23.978552 -26.872214 16.014799 39.415234 -0.842242 1.152384 0.004953 -0.014764 -304265.000000 0 0 1
24.505352 -26.477424 17.262899 39.994674 -0.824060 1.124497 -0.002490 -0.001624 70190.400000 0 0 1
24.618052 -27.690794 17.984599 41.185852 -0.844073 1.118903 0.005467 0.009296 -52854.800000 0 0 1
24.830152 -27.406344 19.457399 41.787971 -0.834676 1.086459 0.006006 0.009187 99468.700000 0 0 1
23.694752 -27.047054 20.204299 41.245583 -0.851368 1.058874 0.005454 0.019191 140872.000000 0 0 1
24.144352 -26.640364 21.506699 41.895069 -0.834508 1.031716 0.013405 0.019506 13368.100000 0 0 1
22.988352 -26.640774 22.505599 41.769572 -0.858860 1.001780 0.025734 0.008593 -170286.000000 0 0 1
22.600352 -27.962664 22.700199 42.520413 -0.891055 1.007630 0.028365 0.007268 826439.000000 0 0 1
21.338152 -28.105264 23.389799 42.335627 -0.921419 0.985454 0.029384 0.004979 656217.000000 0 0 1
20.955352 -29.564244 23.392799 43.132289 -0.954184 0.997565 0.055871 0.007062 133794.000000 0 0 1
21.870652 -30.416204 24.126199 44.559448 -0.947402 0.998649 0.043421 0.002474 872473.000000 0 0 1
21.822952 -31.733004 23.650799 45.194967 -0.968370 1.020070 0.049867 -0.002137 427176.000000 0 0 1
22.863852 -32.636394 24.428839 46.740327 -0.959693 1.020840 0.026523 0.001007 674588.000000 0 0 1
22.389352 -32.834904 25.769529 47.365416 -0.972338 0.995530 0.027617 -0.005547 156558.000000 0 0 1
23.445352 -33.021524 26.659359 48.485328 -0.953389 0.988619 0.025616 -0.007588 -872994.000000 0 0 1
22.945452 -33.307304 28.071929 49.233154 -0.967558 0.964067 0.009977 -0.011526 130058.000000 0 0 1
22.313452 -34.504779 28.475469 49.993222 -0.996761 0.964794 0.008166 -0.003734 -625656.000000 0 0 1
21.107852 34.735522 27.865169 49.280478 1.024754 0.969829 0.021566 -0.002397 -1418720.000000 0 0 1
20.453852 33.433682 28.406629 48.405658 1.021765 0.943639 0.028790 -0.013312 -232599.000000 0 0 1
20.045852 33.563328 29.782859 49.146229 1.032398 0.919768 0.013627 -0.016309 251432.000000 0 0 1
19.465952 32.394832 30.308419 48.445316 1.029718 0.894869 0.019704 -0.013807 -148328.000000 0 0 1
19.319452 32.581052 31.821499 49.470940 1.035565 0.872079 0.012346 -0.014691 -1029200.000000 0 0 1
20.560652 32.735662 32.388419 50.431871 1.009984 0.873404 0.007342 -0.004199 -958835.000000 0 0 1
20.502752 33.070542 33.725830 51.492283 1.015822 0.856655 -0.006982 0.000689 -681888.000000 0 0 1
21.855952 33.100782 34.428288 52.522865 0.987225 0.855963 -0.011874 0.009568 -390981.000000 0 0 1
22.128652 31.772452 -34.440569 51.820061 0.962441 2.297779 -0.013728 0.007833 1206360.000000 0 0 1
23.413952 31.645412 -33.758907 51.858548 0.933801 2.279672 -0.013343 0.021350 1153560.000000 0 0 1
23.701052 30.162872 -33.439377 50.889396 0.904793 2.287760 -0.004836 0.014534 -286599.000000 0 0 1
24.070852 29.534492 34.624952 51.483778 0.886971 0.833159 0.009477 0.008565 141001.000000 0 0 1
23.418452 28.297012 34.578941 50.446486 0.879454 0.815564 0.007984 -0.000256 -86454.400000 0 0 1
23.526952 27.614352 33.171419 49.157023 0.865152 0.830096 0.015275 -0.006348 -661604.000000 0 0 1
24.804952 27.116312 32.984199 49.381549 0.829885 0.839351 0.013407 -0.009398 -261857.000000 0 0 1
24.787452 26.413122 31.761619 48.175421 0.817139 0.850921 0.023943 -0.018245 -328712.000000 0 0 1
25.758552 25.228122 31.720609 48.022475 0.774995 0.849263 0.021272 -0.016145 -340670.000000 0 0 1
25.574152 24.326062 32.774239 48.165810 0.760392 0.822425 0.030412 -0.026016 212046.000000 0 0 1
26.370252 24.631192 33.888137 49.502440 0.751313 0.816776 0.030946 -0.025237 -1325570.000000 0 0 1
26.075452 23.804562 -34.054807 49.054217 0.739903 2.338143 0.026875 -0.023544 -844848.000000 0 0 1
24.959652 24.274662 -33.357537 48.217929 0.771486 2.334786 0.020853 -0.011209 984897.000000 0 0 1
23.622052 24.122862 -33.849817 47.809245 0.795887 2.357484 0.019648 -0.005814 353910.000000 0 0 1
23.177252 22.639962 -34.014657 46.976055 0.773672 2.380503 0.005250 -0.016661 -1110960.000000 0 0 1
23.024252 21.980662 -32.738007 45.662268 0.762214 2.370228 -0.004280 -0.016615 287638.000000 0 0 1
23.157752 20.562962 -32.793687 45.105906 0.726118 2.384794 0.003050 -0.009912 -109827.000000 0 0 1
23.410852 19.804062 -31.425677 43.907198 0.702129 2.368464 -0.000479 -0.016170 -75558.300000 0 0 1
22.242052 19.684062 -30.635377 42.669632 0.724462 2.371673 -0.004294 -0.008247 250943.000000 0 0 1
22.498952 19.136462 -29.357067 41.644260 0.704813 2.353147 -0.006375 -0.004379 532046.000000 0 0 1
21.207552 19.145562 -28.449467 40.319784 0.734344 2.354060 0.008779 -0.015979 648208.000000 0 0 1
21.367452 18.620162 -27.161227 39.255709 0.716802 2.334921 0.016877 -0.012095 146428.000000 0 0 1
22.016352 19.411962 -26.168997 39.323789 0.722616 2.298926 0.013215 -0.008401 -280507.000000 0 0 1
21.923652 18.690662 -24.795897 38.010839 0.705963 2.281461 0.019165 -0.005566 -121310.000000 0 0 1
22.711852 17.497762 -24.848797 37.940250 0.656445 2.284907 0.012821 -0.009257 425745.000000 0 0 1
22.658452 16.698762 -23.684997 36.786318 0.635114 2.270320 0.021741 -0.004340 -505023.000000 0 0 1
23.611152 15.496662 -23.724097 36.884492 0.580811 2.269466 0.035295 -0.016717 727884.000000 0 0 1
25.002352 15.831562 -23.488797 37.782000 0.564476 2.241698 0.035472 -0.020351 1689590.000000 0 0 1
25.883452 14.672462 -23.482997 37.903632 0.515700 2.238959 0.038426 -0.020179 556378.000000 0 0 1
25.845852 13.766462 -22.202397 36.748741 0.489415 2.219517 0.045869 -0.014099 -233094.000000 0 0 1
24.667352 12.967962 -22.133797 35.588639 0.484006 2.242007 0.056699 -0.012836 274325.000000 0 0 1
24.418252 12.489462 -20.816797 34.432204 0.472790 2.220027 0.047516 -0.019179 -498375.000000 0 0 1
22.935252 12.122662 -20.742297 33.214870 0.486234 2.245272 0.047247 -0.009489 -273260.000000 0 0 1
22.127352 13.267262 -20.802897 33.142125 0.540115 2.249375 0.067411 -0.010790 238273.000000 0 0 1
20.738452 12.995162 -21.012697 32.256643 0.559765 2.280254 0.058538 -0.015392 684875.000000 0 0 1
19.884152 14.248062 -21.021797 32.253724 0.621750 2.280704 0.051653 -0.014847 -812783.000000 0 0 1
20.154452 15.142762 -22.097797 33.523392 0.644355 2.290518 0.043613 -0.009071 -104924.000000 0 0 1
19.254352 16.194262 -22.238697 33.578919 0.699287 2.294656 0.034916 -0.011743 416923.000000 0 0 1
17.908552 15.867162 -22.996097 33.185893 0.725032 2.336366 0.032964 0.002421 703452.000000 0 0 1
16.945252 15.097762 -22.300397 31.818103 0.727805 2.347415 0.024390 -0.008590 218930.000000 0 0 1
15.797752 14.933562 -23.096297 31.717805 0.757285 2.386460 0.026426 -0.020227 -22121.000000 0 0 1
14.600152 14.182662 -22.476997 30.323715 0.770894 2.405705 0.000832 -0.014545 -258763.000000 0 0 1
13.447452 14.393462 -23.233897 30.460132 0.819364 2.438373 0.005708 -0.012247 -586083.000000 0 0 1
12.337052 13.778862 -22.586897 29.192941 0.840550 2.455474 0.014281 -0.014040 69162.700000 0 0 1
11.074152 13.861462 -23.480197 29.429519 0.896716 2.494509 0.012632 -0.011283 -204467.000000 0 0 1
10.626852 15.202462 -23.469597 29.914324 0.960727 2.472783 -0.001818 -0.006657 133117.000000 0 0 1
10.200852 15.749862 -24.705097 31.023496 0.996055 2.492008 0.013629 -0.011930 -895231.000000 0 0 1
10.198452 17.354662 -24.811797 31.950242 1.039508 2.460009 0.005626 -0.005386 232948.000000 0 0 1
11.476352 18.012662 -24.611797 32.586856 1.003524 2.426859 -0.004005 -0.005873 986460.000000 0 0 1
12.499752 17.729662 -25.554057 33.520061 0.956710 2.437735 0.002472 -0.012042 -355200.000000 0 0 1
12.356552 18.222662 -26.983917 34.826449 0.974929 2.457212 0.010006 -0.021973 -746334.000000 0 0 1
13.437252 17.893462 -27.814337 35.698362 0.926682 2.464103 0.004991 -0.019631 -59439.800000 0 0 1
13.011252 17.606362 -29.164697 36.467193 0.934367 2.497678 0.015131 -0.018528 -144424.000000 0 0 1
14.024652 18.050962 -30.252977 37.917947 0.910271 2.494523 0.016759 -0.008872 67780.900000 0 0 1
15.068952 17.095762 -30.354777 37.957224 0.848328 2.497609 0.001551 -0.010861 -283276.000000 0 0 1
15.996152 17.476162 -31.336837 39.284735 0.829585 2.494243 -0.004555 0.001294 -527994.000000 0 0 1
17.163052 16.528962 -31.545437 39.533423 0.766580 2.494672 0.001500 -0.000156 -1727360.000000 0 0 1
18.055752 16.538562 -30.493947 39.107736 0.741570 2.465050 0.004163 0.000044 -170787.000000 0 0 1
19.203852 15.750762 -30.799097 39.565879 0.686930 2.462950 0.009815 0.001871 1052410.000000 0 0 1
20.356552 16.481162 -31.606927 41.048943 0.680582 2.449608 0.002031 0.000077 -180055.000000 0 0 1
19.978852 16.903862 -32.889667 42.031241 0.702218 2.469476 -0.000947 0.001295 -425571.000000 0 0 1
21.063952 17.494662 -33.521067 43.282966 0.693093 2.456663 0.006151 -0.001369 -664485.000000 0 0 1
21.050052 17.719262 34.247496 43.931400 0.699696 0.676821 0.010730 0.005457 -493279.000000 0 0 1
22.034352 18.644262 33.911694 44.532282 0.702252 0.705160 0.010273 0.000481 -108507.000000 0 0 1
22.121352 18.974962 32.536809 43.681201 0.708986 0.730457 0.012247 0.003742 59661.600000 0 0 1
23.046952 20.248162 32.323239 44.563907 0.720844 0.759292 0.021288 -0.003353 494523.000000 0 0 1
24.425752 19.978362 32.463829 45.273088 0.685574 0.771211 0.019102 -0.011802 -258483.000000 0 0 1
25.084252 21.199762 32.274749 46.046813 0.701667 0.794121 0.019309 -0.021445 2485.630000 0 0 1
26.624552 21.073562 32.128279 46.745995 0.669542 0.813038 0.031221 -0.023677 35145.800000 0 0 1
27.194452 20.611162 33.313259 47.687854 0.648549 0.797401 0.019358 -0.024631 -46398.000000 0 0 1
28.591352 20.414362 33.183129 48.325269 0.620063 0.813909 0.002576 -0.018958 76527.900000 0 0 1
29.277952 19.875962 34.421444 49.366873 0.596404 0.799231 0.002929 -0.015527 -498144.000000 0 0 1
29.311852 20.695162 -33.671647 49.206241 0.614764 2.324435 -0.000005 -0.014090 -351727.000000 0 0 1
28.195652 20.537962 -32.854917 47.919184 0.629539 2.326268 -0.006643 -0.018457 -672959.000000 0 0 1
28.588852 20.752162 -31.399847 47.264416 0.627887 2.297413 -0.004906 -0.016366 37890.900000 0 0 1
29.555652 19.760462 -31.056177 47.206975 0.589329 2.288787 -0.002378 -0.015998 70217.900000 0 0 1
30.027452 19.942262 -29.745557 46.734782 0.586247 2.260717 -0.006596 -0.010520 259285.000000 0 0 1
31.535152 19.571862 -29.669877 47.516578 0.555455 2.245174 -0.019214 -0.003270 309712.000000 0 0 1
32.378852 20.266762 -30.561167 48.919491 0.559265 2.245574 -0.013390 -0.008179 -796162.000000 0 0 1
33.573052 20.592562 -29.957397 49.483826 0.550189 2.221062 -0.019021 0.000472 -1020390.000000 0 0 1
34.556052 21.369662 -30.815037 50.993624 0.553843 2.219673 -0.014855 -0.009921 -274561.000000 0 0 1
-34.705510 20.703762 -31.911717 51.492483 -0.537883 2.239202 -0.011668 -0.009639 -552267.000000 0 0 1
-33.742310 21.467162 -32.524697 51.548408 -0.566619 2.253579 -0.004034 -0.006859 -223715.000000 0 0 1
-32.828010 20.776862 -33.605517 51.368151 -0.564260 2.283933 -0.003036 -0.005151 609869.000000 0 0 1
-31.841610 19.895162 -33.066267 50.030826 -0.558467 2.292837 -0.005106 -0.007927 905240.000000 0 0 1
-30.954210 19.366162 -34.082670 49.948370 -0.559059 2.321780 -0.004780 0.000583 15502.200000 0 0 1
-30.336110 18.055962 -33.673947 48.787622 -0.536880 2.332582 -0.008804 0.002647 -780665.000000 0 0 1
-31.184010 17.035062 -33.273887 48.680462 -0.499979 2.323365 -0.012958 0.000787 -76570.700000 0 0 1
-30.485010 15.806762 -33.423667 47.920049 -0.478345 2.342683 -0.013706 0.007575 374476.000000 0 0 1
-31.469110 14.591262 -33.316957 48.096044 -0.434163 2.336046 -0.020813 0.005220 319243.000000 0 0 1
-30.865910 13.277162 -33.506507 47.451801 -0.406230 2.354795 -0.010669 -0.000438 143825.000000 0 0 1
-31.862110 12.275762 -33.549487 47.869160 -0.367751 2.347396 -0.007145 -0.001660 -177181.000000 0 0 1
-31.302210 10.843862 -33.459347 47.084451 -0.333486 2.361181 -0.005159 0.006814 -300418.000000 0 0 1
-30.844110 10.292562 34.553670 47.447361 -0.322077 0.755027 -0.013949 0.005938 329228.000000 0 0 1
-31.450910 9.036962 34.250553 47.370105 -0.279798 0.762601 0.005443 -0.009529 -512943.000000 0 0 1
-30.887710 8.401862 33.011379 45.982530 -0.265587 0.769999 0.008189 -0.012975 295338.000000 0 0 1
-29.518410 8.086862 33.254034 45.194741 -0.267399 0.743957 0.011407 0.001786 181070.000000 0 0 1
-28.957010 7.317862 32.247709 43.954229 -0.247532 0.747095 0.008843 -0.004293 26677.400000 0 0 1
19.351252 -4.294034 -31.276707 37.028935 -0.218361 2.576718 0.018175 -0.004628 5359.300000 0 0 1
20.275752 -4.372334 -32.352327 38.430411 -0.212391 2.571483 0.027285 -0.012737 44174.800000 0 0 1
21.384752 -3.512334 -32.292987 38.890630 -0.162791 2.550539 0.016701 -0.010587 65558.000000 0 0 1
21.076052 -1.991134 -32.497277 38.784502 -0.094194 2.564209 0.020611 -0.004955 -1183740.000000 0 0 1
22.173452 -1.196934 -32.160387 39.081774 -0.053928 2.537292 0.015747 -0.004108 -243148.000000 0 0 1
22.130952 0.165866 -32.587357 39.392161 0.007495 2.545000 0.010272 -0.001463 -539985.000000 0 0 1
23.154052 1.106966 -31.957667 39.479462 0.047772 2.514055 0.014223 0.004841 -84140.000000 0 0 1
24.433252 0.892666 -32.509137 40.677077 0.036519 2.496760 0.020830 -0.005886 121520.000000 0 0 1
25.495552 1.631266 -31.886717 40.858866 0.063895 2.466120 0.022583 0.004864 1225950.000000 0 0 1
26.899352 1.373066 -32.529107 42.232727 0.051000 2.450005 0.014077 -0.009663 485775.000000 0 0 1
27.170752 2.154366 -33.698417 43.341370 0.079124 2.461495 0.022613 -0.019379 -251537.000000 0 0 1
28.089352 1.493666 -34.517680 44.527665 0.053125 2.457822 0.015934 -0.016827 -592981.000000 0 0 1
28.823352 2.355166 33.728920 44.429410 0.081529 0.708779 0.028545 -0.020846 -114646.000000 0 0 1
28.032052 3.117966 32.785659 43.248319 0.110773 0.710433 0.025829 -0.011622 350118.000000 0 0 1
27.552952 4.324366 33.386728 43.503320 0.155677 0.695938 0.015873 -0.010219 72561.900000 0 0 1
26.844452 5.285866 32.368019 42.382232 0.194420 0.701745 0.013360 -0.007812 -49074.600000 0 0 1
26.671852 6.577466 32.888119 42.851827 0.241783 0.695888 0.009491 -0.009775 125434.000000 0 0 1
26.253952 7.468366 31.844599 41.941923 0.277146 0.708629 0.009470 -0.007254 -445652.000000 0 0 1
26.694252 8.951366 32.139459 42.727682 0.323546 0.719413 0.013451 -0.006370 -30268.700000 0 0 1
28.031852 9.153366 31.765629 43.343096 0.315619 0.748239 0.012323 -0.007883 -453187.000000 0 0 1
28.264452 10.506166 31.863329 43.869471 0.355883 0.757842 0.011571 -0.012617 165841.000000 0 0 1
29.656552 10.972566 31.352439 44.529582 0.354369 0.789668 0.011333 0.000066 94505.300000 0 0 1
30.720952 10.589566 32.222769 45.762677 0.331947 0.789602 0.017585 -0.009997 211954.000000 0 0 1
31.998252 10.825866 31.688209 46.316628 0.326238 0.817338 0.002261 -0.005499 -103420.000000 0 0 1
32.511852 12.287866 31.836829 47.133808 0.361355 0.829213 0.006090 -0.001243 -885718.000000 0 0 1
32.907252 12.630666 33.125909 48.370929 0.366486 0.816425 0.007466 -0.009306 62698.500000 0 0 1
33.283252 14.022066 33.270251 49.105018 0.398728 0.826394 0.008142 0.002436 -414889.000000 0 0 1
32.227752 15.098266 33.131369 48.623793 0.438120 0.821147 0.009748 -0.005989 -625500.000000 0 0 1
31.674052 15.377566 31.795199 47.441013 0.451976 0.836312 0.003154 -0.011870 670740.000000 0 0 1
30.599152 16.301266 31.860269 47.086262 0.489492 0.827612 -0.005210 -0.014051 1657010.000000 0 0 1
29.141852 15.684566 32.071529 46.085096 0.493750 0.801096 -0.001720 -0.008825 1221060.000000 0 0 1
28.481452 15.100666 30.930819 44.675930 0.487509 0.806073 -0.009743 0.003048 764899.000000 0 0 1
27.228952 14.520666 31.312689 43.963053 0.489916 0.778098 -0.010649 0.006269 292868.000000 0 0 1
26.461152 13.946566 30.137439 42.461329 0.485059 0.781636 -0.000925 0.008579 -261121.000000 0 0 1
26.960052 12.740566 29.578839 42.000882 0.441465 0.789440 -0.007149 0.008068 125196.000000 0 0 1
26.101352 12.306366 28.539409 40.586020 0.440576 0.790932 -0.013459 -0.000399 -513532.000000 0 0 1
25.948752 10.791466 28.466079 40.001389 0.394117 0.778985 -0.010115 0.015433 -1171770.000000 0 0 1
26.979652 10.155166 27.793219 40.043626 0.359998 0.803664 -0.016170 0.013761 -507623.000000 0 0 1
26.898952 8.724766 27.747799 39.618373 0.313647 0.794871 -0.006705 0.016496 -246242.000000 0 0 1
28.163552 8.049966 27.193599 39.968480 0.278406 0.822521 -0.011551 0.006769 -351445.000000 0 0 1
28.294752 8.210566 25.792369 39.156770 0.282423 0.851713 -0.014420 0.013623 155424.000000 0 0 1
29.182552 7.275466 25.195469 39.234747 0.244328 0.873468 -0.019232 0.021602 -10044.600000 0 0 1
29.625052 7.670966 23.753899 38.739323 0.253370 0.910726 -0.007875 0.025067 -270906.000000 0 0 1
30.471652 8.835766 23.739199 39.625016 0.282227 0.928424 -0.010926 0.013054 498051.000000 0 0 1
29.818152 10.100366 23.514999 39.294971 0.326602 0.929266 -0.011642 0.006392 -126269.000000 0 0 1
29.284752 10.359166 22.051499 38.094325 0.340002 0.953459 -0.018848 0.017543 -341861.000000 0 0 1
30.323152 10.480366 21.137399 38.420323 0.332770 0.988238 -0.017069 0.004114 -127384.000000 0 0 1
29.845052 10.489766 19.824199 37.333111 0.337988 1.011006 -0.028745 -0.000163 -993735.000000 0 0 1
30.786452 11.127966 18.763999 37.732279 0.346844 1.050321 -0.020847 -0.015708 1020190.000000 0 0 1
32.019352 10.544566 18.298799 38.357174 0.318133 1.073486 -0.014424 -0.011069 659718.000000 0 0 1
33.007052 10.410566 19.257899 39.606969 0.305529 1.063032 -0.000690 0.001192 -938084.000000 0 0 1
34.301152 9.707666 18.793799 40.299065 0.275800 1.085627 0.013460 -0.005263 -228897.000000 0 0 1
34.195052 8.326466 18.572799 39.794226 0.238851 1.085217 0.016790 -0.007110 431817.000000 0 0 1
-34.555310 7.760566 17.808499 39.641373 -0.220918 1.104882 0.023682 0.002046 -202974.000000 0 0 1
-34.828710 6.289866 17.462499 39.465685 -0.178669 1.112442 0.015630 0.005175 178507.000000 0 0 1
33.820052 6.014366 16.657599 38.176486 0.175994 1.119279 -0.010876 0.015783 640356.000000 0 0 1
33.849552 4.704966 16.116399 37.784483 0.138111 1.130138 -0.004768 0.012160 -778092.000000 0 0 1
32.670952 3.815966 16.412599 36.760387 0.116273 1.107974 -0.012335 0.012340 -783593.000000 0 0 1
32.768952 3.095566 17.641499 37.344467 0.094187 1.078785 0.000381 0.020509 209080.000000 0 0 1
31.584052 2.368166 17.948599 36.404845 0.074840 1.055230 -0.008248 0.025803 113713.000000 0 0 1
31.687252 1.549066 19.221599 37.093819 0.048847 1.026065 -0.011267 0.015975 -103053.000000 0 0 1
32.404852 0.362566 19.087299 37.610249 0.011188 1.038512 -0.003514 0.019007 -210783.000000 0 0 1
32.196252 -0.452134 20.233199 38.028744 -0.014042 1.009776 -0.000723 0.016228 219103.000000 0 0 1
32.680452 -1.915534 20.100699 38.415092 -0.058547 1.020136 0.005261 0.018912 75410.200000 0 0 1
32.380152 -2.630434 21.253899 38.821664 -0.081058 0.991452 0.013359 0.021759 -40264.200000 0 0 1
32.586652 -4.026734 21.210899 39.089726 -0.122947 0.997242 -0.004477 0.021434 -219425.000000 0 0 1
32.062452 -4.610034 22.516199 39.449112 -0.142804 0.963358 -0.006397 0.023874 -221542.000000 0 0 1
32.649252 -4.125634 23.679799 40.542908 -0.125696 0.947065 -0.001134 0.014263 7264.350000 0 0 1
32.023052 -4.742234 24.771829 40.762828 -0.147020 0.917627 -0.005077 0.013188 -22988.800000 0 0 1
32.565352 -4.260434 26.152569 41.983453 -0.130088 0.898319 -0.007820 0.013485 -289983.000000 0 0 1
31.773152 -4.614034 27.255889 42.115389 -0.144210 0.866928 -0.008125 0.013114 -208677.000000 0 0 1
32.065152 -3.895334 28.424299 43.026601 -0.120889 0.849150 -0.005262 0.006181 -514142.000000 0 0 1
31.134652 -4.133034 29.584129 43.147065 -0.131975 0.815289 -0.007302 0.003946 -384365.000000 0 0 1
31.313952 -5.406834 30.144869 43.800805 -0.170979 0.811755 -0.005412 0.006971 123252.000000 0 0 1
30.238052 -5.718434 31.018599 43.694322 -0.186907 0.781440 0.003866 -0.001156 119983.000000 0 0 1
30.249652 -7.204634 31.367179 44.168406 -0.233816 0.781053 -0.001555 0.005105 952864.000000 0 0 1
31.515352 -7.521534 31.984979 45.528340 -0.234280 0.791851 -0.007668 -0.000333 664939.000000 0 0 1
31.967652 -8.834634 31.667359 45.856332 -0.269632 0.808509 -0.010277 0.000368 34390.000000 0 0 1
33.283452 -9.217434 32.358569 47.326802 -0.270167 0.817940 -0.010797 0.005450 -241815.000000 0 0 1
33.123052 -9.524634 33.697951 48.201733 -0.279999 0.796655 -0.013626 0.001783 659959.000000 0 0 1
34.373252 -9.851934 34.316001 49.559751 -0.279133 0.805963 -0.025811 0.001000 190267.000000 0 0 1
34.126852 -10.250834 -33.476507 48.891698 -0.291800 2.324998 -0.017582 -0.005694 -414406.000000 0 0 1
33.967352 -9.197734 -32.534047 47.925395 -0.264440 2.316989 -0.019210 -0.007218 1042460.000000 0 0 1
-34.702510 -8.310634 -32.382327 48.186574 0.235055 2.307729 -0.007902 -0.003801 563754.000000 0 0 1
34.707552 -6.966634 -31.772387 47.567139 -0.198092 2.302245 -0.012286 -0.007880 -299787.000000 0 0 1
34.380552 -7.122734 -30.454547 46.478329 -0.204283 2.285299 -0.014793 -0.003353 285893.000000 0 0 1
33.593452 -6.026134 -30.017917 45.452279 -0.177496 2.292184 -0.007057 -0.009710 -83101.900000 0 0 1
33.911152 -5.801434 -28.528717 44.693518 -0.169437 2.263109 0.002707 -0.012044 -245261.000000 0 0 1
-34.592410 -5.323934 -28.335047 45.031700 0.152707 2.251351 0.015818 -0.013897 -422690.000000 0 0 1
-34.412610 -5.133634 -26.964867 44.019155 0.148087 2.230106 0.017247 -0.004348 39817.900000 0 0 1
-32.974210 -4.745234 -26.578667 42.617383 0.142926 2.244210 0.041216 -0.001342 -894791.000000 0 0 1
-32.908110 -4.449734 -25.172997 41.670416 0.134402 2.219429 0.049397 -0.005217 637024.000000 0 0 1
-31.560210 -4.375234 -24.684597 40.305320 0.137753 2.229940 0.061217 -0.002232 1028280.000000 0 0 1
-30.617610 -3.264134 -25.278237 39.838196 0.106209 2.258187 0.060028 0.002009 -155595.000000 0 0 1
-29.968110 -3.732434 -26.467437 40.156492 0.123909 2.290427 0.054501 -0.002106 219738.000000 0 0 1
-29.045410 -2.904034 -27.135797 39.854996 0.099651 2.319737 0.053455 -0.002322 -126667.000000 0 0 1
-28.560210 -3.559334 -28.439257 40.461658 0.123986 2.350220 0.045119 0.001330 108638.000000 0 0 1
-29.482310 -3.605434 -29.525857 41.880568 0.121687 2.353221 0.044399 0.000172 -28096.500000 0 0 1
-28.979510 -4.391034 -30.543877 42.332276 0.150378 2.376801 0.031728 0.001951 -1324290.000000 0 0 1
-29.964110 -4.523634 -31.749387 43.890030 0.149837 2.379489 0.024058 0.006382 -588223.000000 0 0 1
-31.060910 -5.384834 -31.583277 44.623760 0.171658 2.357130 0.015707 0.007157 131172.000000 0 0 1
-32.009910 -4.985134 -30.604817 44.566139 0.154496 2.327775 0.026372 -0.004704 -1197900.000000 0 0 1
-33.068610 -3.995734 -31.131047 45.592115 0.120249 2.322407 0.031922 -0.008324 -1113490.000000 0 0 1
-32.524310 -2.816234 -31.624607 45.451927 0.086373 2.340304 0.041079 -0.002743 -150295.000000 0 0 1
-32.199610 -1.814134 -30.649987 44.491883 0.056281 2.330752 0.046494 -0.001586 -65938.400000 0 0 1
-31.714710 -0.512934 -31.389367 44.624862 0.016172 2.350973 0.047282 -0.000313 -448354.000000 0 0 1
-32.691510 0.170666 -32.098497 45.815690 -0.005220 2.347035 0.049629 -0.002175 -427912.000000 0 0 1
-32.348610 1.517966 -32.443727 45.840290 -0.046891 2.357113 0.062157 -0.001904 -377849.000000 0 0 1
-33.588210 2.361766 -32.689847 46.929435 -0.070200 2.341408 0.031922 -0.002349 -517269.000000 0 0 1
-34.179210 2.148566 -33.915427 48.198453 -0.062779 2.351335 0.021986 -0.006201 38199.800000 0 0 1
34.242052 2.441366 -33.872777 48.226998 0.071177 2.349506 0.002953 -0.004997 -95887.300000 0 0 1
33.432352 1.945866 34.189780 47.858642 0.058137 0.775043 0.004301 -0.005358 -178072.000000 0 0 1
33.921152 2.262966 32.870039 47.288529 0.066614 0.802244 -0.001096 -0.005538 865770.000000 0 0 1
34.898452 1.342266 32.324479 47.587557 0.038443 0.824038 -0.009885 0.001613 352513.000000 0 0 1
-34.645710 1.551066 30.782199 46.371055 -0.044739 0.844877 0.000228 -0.002755 -268585.000000 0 0 1
-34.096610 2.766066 30.385799 45.755073 -0.080947 0.844511 0.002313 -0.007192 216799.000000 0 0 1
-33.639310 2.819166 29.036539 44.527199 -0.083610 0.860435 -0.001357 -0.007319 -1710.360000 0 0 1
-33.345510 4.227766 28.572179 44.115376 -0.126114 0.866275 0.005726 0.002327 -274904.000000 0 0 1
-32.639810 4.295866 27.357239 42.804558 -0.130862 0.877443 0.009864 0.006913 347203.000000 0 0 1
-32.408910 5.697166 27.035479 42.587701 -0.174012 0.883022 0.009256 0.013361 -80282.100000 0 0 1
-31.661410 5.976366 25.664989 41.192881 -0.186564 0.898168 0.015854 0.015167 574372.000000 0 0 1
-30.372410 5.336866 25.687809 40.135133 -0.173939 0.876255 0.012942 0.014797 942080.000000 0 0 1
-29.514310 5.683466 24.615439 38.849918 -0.190238 0.884594 0.013883 0.010937 -86906.700000 0 0 1
-29.860910 5.247566 23.217799 38.187394 -0.173957 0.917262 0.029899 0.003558 -558087.000000 0 0 1
-29.959010 3.863366 22.973199 37.950438 -0.128247 0.920594 0.019453 0.005886 -51290.300000 0 0 1
-30.493610 3.652966 21.724599 37.618647 -0.119226 0.955139 0.027681 0.003402 -519871.000000 0 0 1
-30.599210 2.122366 21.460799 37.435037 -0.069249 0.960292 0.019177 0.013789 449664.000000 0 0 1
-29.431710 1.487866 20.921299 36.140559 -0.050510 0.953433 0.020655 0.009354 585708.000000 0 0 1
-29.024810 1.938466 19.648199 35.103404 -0.066687 0.976744 0.014815 0.010029 -381355.000000 0 0 1
-27.970610 1.065166 18.960699 33.808249 -0.038063 0.975408 0.011183 0.012659 -180649.000000 0 0 1
-28.468610 -0.168234 18.594299 34.003500 0.005909 0.992217 0.016979 0.005453 424366.000000 0 0 1
-27.439310 -0.903834 17.934999 32.793244 0.032927 0.992126 0.022139 0.007947 298119.000000 0 0 1
-27.392210 -0.651634 16.402599 31.934355 0.023785 1.031380 0.011556 0.018393 72786.100000 0 0 1
-26.979710 0.685266 16.135399 31.444005 -0.025394 1.031949 0.014577 0.020645 267648.000000 0 0 1
-27.106110 0.853466 14.751099 30.871743 -0.031476 1.072626 0.024452 0.020668 -63524.500000 0 0 1
-26.637510 2.208866 14.274099 30.301583 -0.082734 1.080295 0.023313 0.014247 -36172.500000 0 0 1
-25.241010 2.372266 14.162399 29.039796 -0.093709 1.061355 0.015070 0.006393 -43073.300000 0 0 1
-24.999810 3.663366 13.704299 28.744018 -0.145500 1.073819 0.019180 0.004177 -872785.000000 0 0 1
-23.569210 4.026166 13.369099 27.394351 -0.169190 1.060972 0.029624 -0.000515 -457112.000000 0 0 1
-22.693610 4.156366 14.498699 27.248625 -0.181144 1.009730 0.018945 0.005488 181874.000000 0 0 1
-21.439710 4.640466 14.090699 26.071879 -0.213155 0.999818 0.039867 -0.001389 -252260.000000 0 0 1
-20.583510 5.160366 15.246799 26.129966 -0.245641 0.947766 0.019627 0.000337 -438376.000000 0 0 1
-20.905910 6.447566 15.595899 26.867457 -0.299153 0.951484 0.022797 -0.003111 613785.000000 0 0 1
-20.042310 7.008666 16.603499 26.953511 -0.336402 0.907135 0.018170 -0.004812 38948.800000 0 0 1
-20.279210 8.438666 17.106899 27.840679 -0.394329 0.909099 0.019965 -0.004595 -299882.000000 0 0 1
-19.534110 9.370966 16.293599 27.108630 -0.447295 0.925984 0.015172 -0.008929 705313.000000 0 0 1
-19.720410 10.759266 16.546399 27.900532 -0.499451 0.935955 0.013637 -0.007028 -268056.000000 0 0 1
-19.174010 11.317966 17.875199 28.552789 -0.533239 0.894331 0.024548 -0.010788 -176894.000000 0 0 1
-20.040010 11.048466 18.955399 29.714941 -0.503856 0.879018 0.028201 -0.011380 665525.000000 0 0 1
-19.482310 11.670066 20.109199 30.333656 -0.539690 0.846066 0.034803 -0.003700 73429.200000 0 0 1
-12.629648 -33.408931 -22.558997 42.244207 1.209370 2.134137 0.024749 -0.007893 -337727.000000 0 0 1
-12.922948 -34.198531 -21.444897 42.384262 1.209503 2.101295 0.029214 -0.011702 -680251.000000 0 0 1
-13.963548 -33.683531 -20.705297 41.931733 1.177809 2.087234 0.016121 -0.019040 -680491.000000 0 0 1
-14.584148 -34.656331 -19.719697 42.457332 1.172470 2.053820 0.011246 -0.010021 -1303640.000000 0 0 1
-15.205148 33.780966 -20.441997 42.311055 -1.147851 2.075029 -0.006607 -0.011692 153867.000000 0 0 1
-16.047448 32.881566 -19.717097 41.562987 -1.116764 2.065068 -0.004616 -0.000093 1042080.000000 0 0 1
-17.345848 33.583466 -19.141397 42.368864 -1.094036 2.039556 0.002188 0.003734 -401670.000000 0 0 1
-17.074948 34.526466 -18.082097 42.551062 -1.111521 2.009704 0.013853 0.000487 935101.000000 0 0 1
-18.317748 -34.531131 -17.462797 42.812243 1.083070 1.990941 0.000429 0.004255 1239550.000000 0 0 1
-18.825448 34.323366 -16.158997 42.350963 -1.069126 1.962269 0.010071 0.002445 -119835.000000 0 0 1
-19.014248 32.898966 -16.182597 41.300847 -1.046741 1.973408 0.012925 -0.005608 72787.900000 0 0 1
-19.405648 32.405466 -14.901997 40.604961 -1.031231 1.946578 0.021527 -0.000978 -94503.800000 0 0 1
-19.450448 30.875066 -14.718397 39.347437 -1.008629 1.954182 0.010257 -0.003828 -338352.000000 0 0 1
-18.290148 30.286666 -14.208197 38.127214 -1.027513 1.952662 0.008702 -0.005000 -513023.000000 0 0 1
-18.446448 28.834466 -14.131297 37.032302 -1.001670 1.962316 0.003887 -0.003448 1764100.000000 0 0 1
-17.103648 28.019066 -13.675397 35.561486 -1.022744 1.965524 0.007255 0.001630 1843750.000000 0 0 1
-16.004848 28.232766 -14.533097 35.559178 -1.055079 1.991827 0.008372 0.000683 -355133.000000 0 0 1
-14.865848 27.513666 -14.093697 34.302005 -1.075425 1.994205 0.011131 -0.001585 -351357.000000 0 0 1
-13.668548 27.963666 -14.915897 34.514921 -1.116151 2.017681 0.013949 -0.000714 -977021.000000 0 0 1
-13.771548 27.730466 -16.272397 34.977495 -1.109855 2.054685 -0.000168 -0.004727 -298353.000000 0 0 1
-12.783348 28.449266 -16.977697 35.510800 -1.148493 2.069286 0.002939 -0.003692 -376064.000000 0 0 1
-12.864548 28.531966 -18.521797 36.367934 -1.147209 2.105155 0.018154 -0.018685 -401913.000000 0 0 1
-12.676648 27.336366 -19.250197 35.756739 -1.136585 2.139293 0.005843 -0.022453 154815.000000 0 0 1
-13.054348 27.539966 -20.594597 36.783191 -1.128152 2.165051 0.007536 -0.029194 -153640.000000 0 0 1
-12.525148 26.349166 -21.377097 36.168192 -1.127060 2.203152 0.001368 -0.022630 161822.000000 0 0 1
-11.194748 26.634766 -21.798797 36.192826 -1.172908 2.217171 0.017486 -0.027622 262584.000000 0 0 1
-10.474648 25.453966 -22.139597 35.323991 -1.180404 2.248182 0.020249 -0.020645 355851.000000 0 0 1
-9.152548 25.657966 -22.905697 35.591730 -1.228153 2.269947 0.026360 -0.020227 6372.100000 0 0 1
-9.323148 26.282566 -24.157697 36.895645 -1.229916 2.284658 0.031361 -0.020054 -1255010.000000 0 0 1
-8.171948 26.345266 -24.885197 37.150057 -1.270020 2.304811 0.014288 -0.021140 -1435810.000000 0 0 1
-8.286548 27.097366 -26.212957 38.601207 -1.274021 2.317293 0.013598 -0.013509 -446450.000000 0 0 1
-8.938548 26.371766 -27.189487 38.918323 -1.244005 2.344276 0.031571 -0.018719 -392849.000000 0 0 1
-9.351648 27.157666 -28.244657 40.283405 -1.239167 2.347804 0.046436 -0.016081 41975.000000 0 0 1
-10.765148 26.762566 -28.769667 40.740852 -1.188355 2.354860 0.020202 -0.011242 215712.000000 0 0 1
-11.128248 27.465366 -29.923827 42.114364 -1.185838 2.361058 0.020094 -0.005644 -570175.000000 0 0 1
-12.268648 26.874366 -30.451677 42.427065 -1.142535 2.371350 0.017926 -0.003089 -638191.000000 0 0 1
-12.443248 27.163366 -31.963267 43.753094 -1.141236 2.389905 0.001620 -0.001655 -173121.000000 0 0 1
-11.486448 26.538566 -32.789097 43.719090 -1.162320 2.418851 -0.004171 -0.004899 51491.400000 0 0 1
-11.453448 25.144466 -32.787447 42.877060 -1.143373 2.441349 0.017502 -0.006660 -77404.100000 0 0 1
-10.828848 24.639566 -34.110255 43.449760 -1.156717 2.473574 -0.012801 0.010596 447706.000000 0 0 1
-11.677448 24.694766 33.976619 43.595927 -1.129086 0.677164 -0.015208 0.015313 365019.000000 0 0 1
-10.947648 24.155266 32.903449 42.260677 -1.145268 0.678392 -0.013735 0.013214 -207583.000000 0 0 1
-11.630148 24.226266 31.491269 41.398941 -1.123225 0.706439 -0.005675 0.017588 1025930.000000 0 0 1
-12.899248 23.481666 31.395259 41.272769 -1.068466 0.706440 0.006295 0.005630 1539860.000000 0 0 1
-13.449748 23.380866 30.102859 40.419583 -1.048777 0.730622 0.018986 0.009881 -733344.000000 0 0 1
-14.680448 22.523866 30.164349 40.407029 -0.993176 0.727991 0.007817 0.015951 -842051.000000 0 0 1
-14.411848 21.127966 30.437449 39.755887 -0.972170 0.698809 -0.019866 0.002084 -578163.000000 0 0 1
-15.551848 20.317266 30.608849 39.894271 -0.917480 0.696255 -0.021678 0.000613 -235612.000000 0 0 1
-15.273448 18.820366 30.749339 39.153623 -0.889059 0.667533 -0.034023 -0.012053 -473734.000000 0 0 1
-14.986948 18.236966 29.535099 37.808962 -0.882910 0.674264 -0.020580 -0.006400 -50578.700000 0 0 1
-14.436848 16.964066 29.633379 37.072082 -0.865707 0.644592 -0.036741 -0.018141 -187034.000000 0 0 1
-14.122748 16.283666 28.276169 35.554908 -0.856347 0.651324 -0.028030 -0.004146 -237443.000000 0 0 1
-13.176648 16.925266 27.461029 34.845326 -0.909291 0.663107 -0.042348 -0.003155 -225542.000000 0 0 1
-12.900548 16.073266 26.337829 33.443314 -0.894467 0.663995 -0.039658 0.003014 -185647.000000 0 0 1
-11.752648 16.613466 25.482729 32.611370 -0.955110 0.673880 -0.035193 0.007232 -239626.000000 0 0 1
-12.118548 17.598866 24.514469 32.519816 -0.967764 0.716922 -0.035698 0.012739 -345283.000000 0 0 1
-12.422748 18.870266 24.975509 33.677702 -0.988592 0.735339 -0.022766 0.013983 -41736.600000 0 0 1
-11.420248 19.788866 25.777289 34.445462 -1.047382 0.725224 -0.029149 0.018176 160072.000000 0 0 1
-11.158748 19.435966 27.148769 35.204120 -1.049617 0.690101 -0.027641 0.011047 308136.000000 0 0 1
-12.188548 19.923666 28.010019 36.470184 -1.021773 0.695045 -0.017424 0.011126 41814.000000 0 0 1
-11.888448 19.695166 29.490599 37.402275 -1.027717 0.662478 -0.018914 0.002934 -582930.000000 0 0 1
-10.756548 20.356666 30.026769 37.837865 -1.084684 0.654152 -0.024186 0.001272 -70500.400000 0 0 1
-10.859948 20.411566 31.404409 38.997530 -1.081840 0.634628 -0.024071 -0.003288 -343615.000000 0 0 1
-9.745548 21.016466 32.250629 39.708571 -1.136600 0.622912 -0.024410 -0.002768 683898.000000 0 0 1
-8.498248 20.289766 32.301049 39.080079 -1.174151 0.597873 -0.022606 -0.007393 820453.000000 0 0 1
-7.459648 21.037766 32.899309 39.756741 -1.230044 0.596129 -0.022731 0.007600 1044740.000000 0 0 1
-6.197348 20.145366 33.262324 39.377977 -1.272353 0.564804 -0.022466 0.008244 426212.000000 0 0 1
-6.306348 19.390266 34.490788 40.067030 -1.256354 0.533903 -0.023589 0.000343 277722.000000 0 0 1
-5.046348 19.031266 -34.213840 39.474568 -1.311600 2.619407 -0.019052 0.004957 554164.000000 0 0 1
-4.085748 18.067166 34.313197 38.993734 -1.348395 0.495004 -0.015929 0.003141 -257259.000000 0 0 1
-4.538848 16.724166 34.380005 38.500436 -1.305785 0.466880 -0.005914 -0.000119 133701.000000 0 0 1
-4.280048 15.990466 33.164589 37.066208 -1.309264 0.462949 -0.008169 0.007225 -381965.000000 0 0 1
-5.031548 14.673566 33.109499 36.563218 -1.240462 0.438143 0.004221 -0.003172 -202875.000000 0 0 1
-4.438248 13.630866 33.935385 36.838959 -1.256019 0.399689 0.000974 0.002631 274728.000000 0 0 1
-5.140248 12.415666 33.852170 36.421701 -1.178268 0.377876 0.008911 0.004720 341396.000000 0 0 1
-4.190448 11.270966 34.366141 36.409149 -1.214842 0.336587 0.008277 0.005231 540652.000000 0 0 1
-3.919248 11.234766 -33.507507 35.557467 -1.235146 2.800375 0.017298 -0.000919 -84847.500000 0 0 1
-3.040848 10.151566 -33.284927 34.931181 -1.279757 2.833361 0.020563 0.003118 116959.000000 0 0 1
-2.959248 9.630866 -31.862127 33.417149 -1.272686 2.835328 0.025311 0.003175 1138750.000000 0 0 1
-4.151348 8.865366 -31.517037 33.002303 -1.132857 2.840439 0.024470 0.004951 1249520.000000 0 0 1
-3.965748 8.430666 -30.170967 31.576740 -1.131111 2.842081 0.024788 0.009931 -292392.000000 0 0 1
-5.306048 7.913766 -29.675587 31.167648 -0.980156 2.830919 0.023381 0.002844 -268384.000000 0 0 1
-5.237048 7.381266 -28.400657 29.807835 -0.953719 2.833098 0.028419 -0.000994 -154418.000000 0 0 1
-6.438948 6.673366 -28.293237 29.774168 -0.803274 2.824870 0.029838 -0.008510 -430932.000000 0 0 1
-6.497648 5.866066 -26.942397 28.328835 -0.734359 2.827442 0.027615 -0.011763 -252314.000000 0 0 1
-7.004648 6.443066 -25.776317 27.477203 -0.743662 2.787895 0.009874 -0.002740 -32098.000000 0 0 1
-6.303248 7.583066 -25.340497 27.191443 -0.877302 2.770493 0.019351 0.000648 -214227.000000 0 0 1
-6.916248 8.138066 -24.055797 26.320030 -0.866381 2.723766 0.009712 0.002117 178848.000000 0 0 1
-6.839448 7.118066 -23.058497 25.082647 -0.805357 2.737096 0.001469 0.003371 376176.000000 0 0 1
-7.864648 7.239166 -22.077497 24.529045 -0.744010 2.690693 -0.008082 0.001470 167995.000000 0 1 0
-7.251248 7.478866 -20.648097 23.126996 -0.800849 2.674350 -0.023753 0.008729 -98995.000000 0 1 0
-7.051148 8.885266 -20.411597 23.351658 -0.899984 2.634369 -0.031183 0.010986 -20542.900000 0 1 0
-6.820748 9.169966 -19.090597 22.249983 -0.931266 2.602169 -0.022884 0.011928 -898649.000000 0 1 0
-8.042248 9.416666 -18.229397 22.037746 -0.863959 2.544884 -0.032796 0.014610 -853914.000000 0 1 0
-7.839648 9.717166 -16.854997 20.975564 -0.891933 2.504038 -0.032369 0.014952 582821.000000 0 1 0
-9.057048 10.071866 -16.162697 21.088038 -0.838400 2.444075 -0.016710 0.011158 946326.000000 0 1 0
-9.564348 11.546066 -16.284497 22.135339 -0.878998 2.397464 -0.020231 0.007627 -610755.000000 0 1 0
-8.696448 12.475766 -15.684997 21.847015 -0.962041 2.371645 -0.035940 0.005667 -464500.000000 0 1 0
-8.962448 13.854766 -15.961697 22.957695 -0.996614 2.339586 -0.026375 0.000033 -393473.000000 0 1 0
-7.812248 14.754866 -15.497697 22.779725 -1.083852 2.319007 -0.020095 -0.002418 -374173.000000 0 1 0
-7.402448 14.639866 -14.136797 21.655736 -1.102650 2.282067 -0.020142 -0.009627 -294452.000000 0 1 0
-8.175348 15.284166 -13.173697 21.771273 -1.079628 2.220682 -0.020701 -0.019372 -1243440.000000 0 1 0
-7.428148 16.123866 -12.164297 21.520375 -1.139086 2.171527 -0.015910 -0.011329 -66028.700000 0 1 0
-6.945148 17.387466 -12.624297 22.581672 -1.190778 2.164037 -0.006322 -0.011068 -113892.000000 0 1 0
-5.855948 17.471666 -13.504097 22.845390 -1.247395 2.203228 -0.008226 -0.006691 -479446.000000 0 1 0
-5.799648 18.780566 -14.235897 24.269452 -1.271276 2.197622 0.013726 -0.001264 -49431.000000 0 1 0
-5.286048 19.868366 -13.511797 24.602091 -1.310766 2.152219 0.012736 -0.000315 -2768.440000 0 1 0
-5.691548 21.044866 -14.132097 25.980690 -1.306667 2.145929 0.026699 -0.003851 -33114.400000 0 0 1
-4.933548 22.231966 -13.413097 26.429365 -1.352423 2.103086 0.022592 -0.012156 -155975.000000 0 0 1
-5.165048 23.516766 -13.920097 27.811600 -1.354596 2.094989 0.007450 -0.013578 877924.000000 0 0 1
-6.466448 24.130766 -13.712197 28.497950 -1.308973 2.072779 0.020669 -0.016728 1123600.000000 0 0 1
-6.986548 24.310866 -12.218097 28.091136 -1.290954 2.020773 0.006639 -0.006800 -21411.900000 0 0 1
-7.329348 23.091866 -11.583297 26.853796 -1.263454 2.016781 0.015778 -0.005528 286915.000000 0 0 1
-8.116848 23.029666 -10.364697 26.526886 -1.231939 1.972215 0.022556 -0.001848 571284.000000 0 0 1
-7.436948 23.504266 -9.027697 26.253724 -1.264355 1.921825 0.018614 0.000949 50381.300000 0 0 1
-7.259148 24.898066 -9.008197 27.454626 -1.287105 1.905101 0.002297 0.002508 -69485.000000 0 0 1
-6.695748 25.376266 -7.779597 27.373528 -1.312817 1.858970 0.000569 0.002830 116975.000000 0 0 1
-6.616348 26.928266 -7.741697 28.789606 -1.329866 1.843053 -0.017748 -0.003191 396999.000000 0 0 1
-5.685848 27.650266 -8.558597 29.497722 -1.367989 1.865174 -0.019605 -0.005677 159587.000000 0 0 1
-6.079148 27.645666 -9.910897 29.991078 -1.354346 1.907589 -0.017398 0.001579 301162.000000 0 0 1
-5.398148 28.776366 -10.800297 31.206820 -1.385362 1.924194 -0.021367 0.001821 95896.900000 0 0 1
-5.943548 30.076766 -10.698797 32.471554 -1.375697 1.906551 -0.024057 0.005685 -168844.000000 0 0 1
-6.984148 30.214366 -11.642097 33.124381 -1.343633 1.929933 -0.024935 0.004568 11644.100000 0 0 1
-8.024748 31.327066 -11.335897 34.267830 -1.320028 1.907951 -0.016784 0.004905 -49418.700000 0 0 1
-8.924348 30.980366 -10.328697 33.854232 -1.290325 1.880833 -0.010160 0.002519 -94446.000000 0 0 1
-9.821048 32.074766 -10.050797 35.018025 -1.273668 1.861909 0.000898 0.003941 685335.000000 0 0 1
-10.878148 31.647666 -8.965097 34.645083 -1.239721 1.832545 0.013241 0.001167 971687.000000 0 0 1
-11.761448 30.629566 -9.496697 34.156832 -1.204167 1.852541 0.015556 -0.002817 80874.800000 0 0 1
-12.833748 30.197966 -8.698697 33.945391 -1.168937 1.829943 0.034198 0.001164 -262766.000000 0 0 1
-13.700348 29.219166 -9.434497 33.622446 -1.132351 1.855217 0.036670 -0.000567 -447658.000000 0 0 1
-13.631748 27.876266 -8.997797 32.308994 -1.115980 1.853020 0.022936 0.005962 -581375.000000 0 0 1
-14.577948 27.077166 -9.605197 32.217220 -1.076914 1.873538 0.028538 0.001072 -582230.000000 0 0 1
-14.673248 25.649066 -8.952297 30.875919 -1.051161 1.864965 0.024264 0.000076 -289409.000000 0 0 1
-13.786248 24.608266 -9.368897 29.722106 -1.060134 1.891481 0.026448 0.004508 272456.000000 0 0 1
-14.223348 23.351766 -8.893897 28.752565 -1.023719 1.885280 0.039816 0.002437 85304.100000 0 0 1
-13.269548 22.168066 -9.231597 27.435860 -1.031415 1.913972 0.046017 0.001719 -38729.500000 0 0 1
-13.138048 21.946366 -10.626097 27.697747 -1.031375 1.964536 0.043274 0.008002 276098.000000 0 0 1
-12.417048 20.758166 -10.928397 26.542690 -1.031719 1.995147 0.039089 0.004761 -169353.000000 0 0 1
-12.414748 20.260066 -12.400597 26.802444 -1.021040 2.051797 0.027285 0.005057 -600022.000000 0 0 1
-13.679248 19.941266 -12.880097 27.398409 -0.969544 2.060205 0.026914 0.015959 -567972.000000 0 0 1
-13.613348 19.320566 -14.149097 27.546405 -0.956987 2.110225 0.023499 0.014536 160451.000000 0 0 1
-15.012748 19.125466 -14.761697 28.444221 -0.905293 2.116442 0.012385 0.017661 135063.000000 0 0 1
-15.678348 20.311766 -15.116897 29.780849 -0.913435 2.103199 -0.014143 0.017272 739636.000000 0 0 1
-17.002448 19.988066 -15.612997 30.534762 -0.865937 2.107515 -0.010753 0.020756 1084430.000000 0 0 1
-17.741448 21.186566 -16.255797 32.060575 -0.873668 2.102536 -0.019738 0.017175 2716.350000 0 0 1
-18.180548 22.150866 -15.306797 32.488324 -0.883524 2.061388 -0.023084 0.002121 287556.000000 0 0 1
-18.436848 23.341966 -16.019897 33.784639 -0.902270 2.064825 -0.017728 -0.000573 -169420.000000 0 0 1
-18.678348 24.545866 -15.136697 34.358402 -0.920320 2.027011 -0.018868 0.013931 -316395.000000 0 0 1
-20.013948 24.478166 -14.717897 34.876284 -0.885401 2.006450 -0.013727 0.017940 -207369.000000 0 0 1
-20.368948 25.530466 -13.849397 35.475407 -0.897381 1.971856 -0.019059 0.004156 -73927.300000 0 0 1
-25.138068 -0.681034 3.843203 25.439271 0.027085 1.419142 0.029453 -0.017621 -216498.000000 0 0 1
-25.579528 0.217766 4.851603 26.036469 -0.008513 1.383362 0.042061 -0.017871 365165.000000 0 0 1
-26.788198 -0.262234 5.410403 27.330364 0.009789 1.371517 0.035653 -0.013278 -65647.400000 0 0 1
-27.325518 0.445566 6.678003 28.133222 -0.016304 1.331138 0.031845 -0.012981 -452760.000000 0 0 1
-27.726988 1.768266 6.418003 28.514968 -0.063688 1.343776 0.046482 -0.017907 64863.400000 0 0 1
-28.132758 2.480766 7.567003 29.238088 -0.087953 1.309010 0.050664 -0.006859 -877512.000000 0 0 1
-27.055668 2.913366 8.518703 28.514298 -0.107267 1.267412 0.055622 -0.006783 -848834.000000 0 0 1
-26.485588 1.867866 9.219003 28.106322 -0.070407 1.236606 0.047588 -0.010901 -588897.000000 0 0 1
-25.435608 2.267466 10.004003 27.426112 -0.088910 1.197419 0.037588 -0.021707 -901132.000000 0 0 1
-24.469948 1.221266 10.566003 26.681647 -0.049867 1.163637 0.019917 -0.012181 -372770.000000 0 0 1
-23.698148 0.625966 9.567903 25.564406 -0.026408 1.187191 0.031253 -0.018501 157355.000000 0 0 1
-24.359348 -0.477834 8.933303 25.950146 0.019614 1.219358 0.028275 -0.014552 -84813.800000 0 0 1
-23.459848 -1.441734 8.091903 24.858036 0.061378 1.239230 0.040641 -0.017909 -121268.000000 0 1 0
-22.498548 -2.165934 8.807903 24.258094 0.095974 1.199213 0.023683 -0.015703 -508007.000000 0 1 0
-21.375248 -2.428934 8.045503 22.968045 0.113148 1.212914 0.023433 -0.018482 -1088580.000000 0 1 0
-20.176348 -2.864934 8.861103 22.221882 0.141052 1.160637 0.027781 -0.014556 -910868.000000 0 1 0
-19.486848 -1.802534 9.500903 21.754391 0.092238 1.118830 0.018868 -0.014786 190504.000000 0 1 0
-20.077648 -1.296634 10.660803 22.769408 0.064491 1.083535 0.022130 -0.012657 -790058.000000 0 1 0
-19.775048 0.191466 11.006703 22.632647 -0.009682 1.062923 0.026225 -0.012817 -361213.000000 0 1 0
-20.168848 1.158166 10.052603 22.564986 -0.057360 1.109069 0.020102 -0.011346 343841.000000 0 1 0
-20.299548 2.374666 10.689803 23.064748 -0.116452 1.088890 0.019006 -0.006224 -216091.000000 0 1 0
-21.067948 3.475166 9.917503 23.543409 -0.163478 1.135981 0.011838 -0.016714 -483257.000000 0 1 0
-21.288848 4.629266 10.708603 24.275900 -0.214117 1.113949 0.012488 -0.018535 587845.000000 0 1 0
-22.114048 5.529366 10.019003 24.899507 -0.245015 1.156684 0.022533 -0.027502 -439893.000000 0 1 0
-22.228948 6.906966 10.741403 25.636108 -0.301262 1.138458 0.032683 -0.024030 105222.000000 0 0 1
-23.124448 6.907566 11.855603 26.888843 -0.290275 1.114182 0.024281 -0.013706 580828.000000 0 0 1
-23.131148 8.159666 12.537703 27.546763 -0.339128 1.098264 0.028044 -0.010595 -263427.000000 0 0 1
-23.808048 8.004266 13.941103 28.727091 -0.324328 1.064096 0.026048 -0.000700 1058910.000000 0 0 1
-25.230928 7.868566 13.751903 29.793102 -0.302303 1.091021 0.031036 0.005746 980944.000000 0 0 1
-25.835968 7.250866 14.886603 30.686858 -0.273611 1.064304 0.018849 0.008912 382416.000000 0 0 1
-27.270158 6.712666 14.621303 31.662342 -0.241356 1.090786 0.013509 0.016014 194957.000000 0 0 1
-27.404508 5.612366 13.718003 31.155888 -0.202004 1.114861 0.014897 0.021522 -229704.000000 0 0 1
-28.516918 5.877366 12.903403 31.847384 -0.203255 1.153638 0.007666 0.011555 -554986.000000 0 0 1
-28.818618 4.735766 11.871103 31.525598 -0.162874 1.184722 0.020375 0.006865 -21864.100000 0 0 1
-29.346168 3.585966 12.527303 32.109034 -0.121593 1.170003 0.012678 0.010080 303749.000000 0 0 1
-29.808488 2.619566 11.606903 32.095612 -0.087655 1.200775 -0.000697 0.011870 47712.100000 0 0 1
-30.868308 1.624366 12.165903 33.218974 -0.052574 1.195838 -0.008472 0.017802 -27048.700000 0 0 1
-30.347288 0.520766 12.961103 33.003322 -0.017159 1.167208 -0.002913 0.019332 850043.000000 0 0 1
-31.456238 -0.116734 13.637403 34.285380 0.003711 1.161721 -0.003732 0.019742 591330.000000 0 0 1
-31.078378 -1.185934 14.694603 34.397724 0.038141 1.129406 0.000627 0.019026 -304594.000000 0 0 1
-30.876388 -2.504234 14.200303 34.077429 0.080928 1.140977 -0.008879 0.019156 79989.100000 0 0 1
-31.125678 -3.470834 15.212503 34.817737 0.111052 1.118627 -0.011002 0.023279 -241270.000000 0 0 1
-31.133768 -4.970334 14.775703 34.818632 0.158309 1.132539 -0.002962 0.019572 -433069.000000 0 0 1
-32.143578 -5.370434 13.904903 35.431589 0.165547 1.167509 -0.009229 0.012298 -414008.000000 0 0 1
-31.929448 -6.692634 13.486903 35.301240 0.206616 1.178781 0.005786 0.007262 -742788.000000 0 0 1
-33.083938 -7.205834 12.611603 36.132029 0.214455 1.214247 0.008212 0.011399 21611.800000 0 0 1
-34.368328 -7.237534 13.183603 37.514947 0.207555 1.211706 -0.005995 0.017034 -83743.300000 0 0 1
34.788660 -5.968234 13.277003 37.711397 -0.169903 1.211016 -0.001200 0.020572 -1051790.000000 0 0 1
33.347794 -6.059334 12.758003 36.215432 -0.179740 1.210789 0.002526 0.018504 -260046.000000 0 0 1
32.490574 -6.923434 13.505103 35.860272 -0.209950 1.184669 -0.002619 0.022187 177571.000000 0 0 1
31.174974 -6.456934 13.189903 34.460768 -0.204231 1.178024 -0.003969 0.017725 -217435.000000 0 0 1
30.092514 -7.450234 13.563703 33.838431 -0.242698 1.158366 -0.016518 0.018283 -525968.000000 0 0 1
29.926644 -7.558734 14.971403 34.305705 -0.247401 1.119190 -0.008076 0.017289 678024.000000 0 0 1
28.955714 -8.617634 15.257903 33.845245 -0.289267 1.103120 -0.004347 0.018531 776321.000000 0 0 1
28.441054 -8.652034 16.723803 34.109190 -0.295314 1.058360 -0.025528 0.014705 821915.000000 0 0 1
29.468424 -9.100734 17.625203 35.522657 -0.299538 1.051617 -0.038800 0.021848 358737.000000 0 0 1
28.852564 -9.097434 18.890303 35.666193 -0.305441 1.012618 -0.034508 0.017284 -568115.000000 0 0 1
29.735244 -9.469734 20.059603 37.097820 -0.308313 0.999501 -0.032261 0.022377 55320.600000 0 0 1
30.753054 -8.506934 20.335203 37.837002 -0.269872 1.003395 -0.024859 0.021318 345991.000000 0 0 1
31.990564 -8.856734 19.714903 38.607193 -0.270090 1.034851 -0.026891 0.021011 -186282.000000 0 0 1
33.185024 -8.109034 20.338903 39.757681 -0.239662 1.033783 -0.013173 0.021922 -47040.600000 0 0 1
33.462354 -8.669134 21.634603 40.779150 -0.253498 1.011569 -0.011362 0.017732 1091680.000000 0 0 1
34.604082 -8.055234 22.322403 41.959730 -0.228710 1.009840 -0.017969 0.018627 1136410.000000 0 0 1
-34.853053 -8.794234 23.650403 43.028077 0.247164 0.988851 -0.012151 0.013369 404336.000000 0 0 1
34.045749 -8.362334 24.687803 42.878074 -0.240853 0.957254 -0.007233 0.016233 562257.000000 0 0 1
34.126628 -9.155734 25.858403 43.784829 -0.262115 0.939020 -0.002062 -0.001105 168815.000000 0 0 1
33.372984 -8.543934 27.089803 43.824791 -0.250630 0.904424 -0.000635 0.007536 -286455.000000 0 0 1
34.217612 -7.780934 27.872803 44.813849 -0.223593 0.899542 -0.002514 -0.005752 -565196.000000 0 0 1
33.626034 -7.107034 28.943503 44.932688 -0.208290 0.870882 -0.003324 -0.006780 -109551.000000 0 0 1
34.674541 -6.495334 29.953403 46.278716 -0.185177 0.866839 -0.007699 -0.004731 708566.000000 0 0 1
-34.473898 -7.453334 30.814503 46.835195 0.212925 0.852723 -0.013598 -0.007208 -1156240.000000 0 0 1
-33.118868 -7.156834 30.722403 45.737794 0.212823 0.834286 -0.018186 -0.013057 -744784.000000 0 0 1
-32.365278 -7.801234 31.890203 46.101579 0.236525 0.806904 -0.022254 -0.004985 -315170.000000 0 0 1
-32.372228 -9.214234 31.830103 46.325142 0.277301 0.813303 -0.018679 -0.003203 252399.000000 0 0 1
-31.811008 -9.697134 33.049003 46.885086 0.295887 0.788523 -0.024655 0.005576 -591306.000000 0 0 1
-31.856388 -11.231334 33.195403 47.359341 0.338955 0.794101 -0.008105 0.000379 17172.000000 0 0 1
-33.190308 -11.722934 33.220203 48.400472 0.339526 0.814323 -0.020914 -0.005881 347215.000000 0 0 1
-33.223788 -13.151634 33.473203 48.961627 0.376924 0.818028 -0.015100 -0.004592 506960.000000 0 0 1
-34.708663 -13.606234 33.604503 50.190473 0.373602 0.837208 -0.014499 -0.005732 465538.000000 0 0 1
-34.881588 -14.967334 33.875503 50.875299 0.405330 0.842159 -0.009925 -0.010769 -619866.000000 0 0 1
33.600814 -15.262834 34.171303 50.295594 -0.426374 0.823839 -0.018102 -0.010458 -838281.000000 0 0 1
33.312154 -16.746134 34.378103 50.714757 -0.465808 0.825932 -0.021098 -0.005923 -300347.000000 0 0 1
33.820063 -17.282434 -33.673892 50.758351 -0.472418 2.296171 -0.015451 -0.017298 168489.000000 0 0 1
33.580254 -18.699134 -33.606192 51.055531 -0.508086 2.289259 -0.010746 -0.025345 -393086.000000 0 0 1
34.085975 -19.336534 -32.301492 50.785250 -0.516019 2.260153 -0.015282 -0.012292 -141585.000000 0 0 1
33.277004 -19.033834 -31.201792 49.428713 -0.519563 2.253958 -0.015753 -0.005206 -443499.000000 0 0 1
33.645104 -19.781434 -30.050892 49.258038 -0.531508 2.226946 -0.027407 0.003256 -1075590.000000 0 0 1
32.635034 -19.802234 -28.882592 47.868341 -0.545389 2.218524 -0.029220 0.007261 1305070.000000 0 0 1
31.327314 -20.381634 -29.157092 47.401979 -0.576799 2.233313 -0.021232 0.011006 1354710.000000 0 0 1
30.503394 -19.652234 -30.062792 47.121532 -0.572332 2.262674 -0.023950 0.011919 -1430930.000000 0 0 1
29.242354 -20.461934 -30.315492 46.827717 -0.610549 2.274943 -0.023120 0.009521 -722242.000000 0 0 1
28.344194 -19.815734 -31.178992 46.563786 -0.610129 2.304463 -0.023183 0.007918 -314106.000000 0 0 1
27.117424 -20.494434 -31.166292 46.116312 -0.647181 2.312872 -0.012216 0.000191 206239.000000 0 0 1
26.052134 -20.071934 -32.223792 46.043121 -0.656463 2.345999 -0.002127 0.003910 207919.000000 0 0 1
26.523924 -20.185234 -33.526592 47.275729 -0.650517 2.359118 -0.014428 0.002623 193600.000000 0 0 1
25.542414 -19.930634 -34.560492 47.371645 -0.662610 2.388476 0.015467 -0.005821 267497.000000 0 0 1
26.108664 -20.050534 33.294303 46.820902 -0.654900 0.779736 0.021092 -0.004649 512014.000000 0 0 1
27.058134 -18.989434 32.977103 46.692939 -0.611934 0.786603 -0.004230 -0.007230 739778.000000 0 0 1
27.439074 -18.893334 31.607603 45.922777 -0.603004 0.811685 -0.000805 -0.006432 -546654.000000 0 0 1
26.385334 -18.296934 30.659503 44.395594 -0.606317 0.808481 -0.001304 0.003607 -242545.000000 0 0 1
26.334394 -16.932834 30.944703 44.020402 -0.571434 0.791242 -0.001427 -0.001691 183886.000000 0 0 1
25.350494 -16.267134 30.194303 42.649304 -0.570511 0.784181 0.017334 -0.001508 -80232.700000 0 0 1
24.981844 -14.886534 30.746703 42.320931 -0.537395 0.757563 0.017794 -0.003769 205333.000000 0 0 1
26.151084 -14.073934 30.678103 42.697785 -0.493721 0.769162 0.015486 0.001642 610061.000000 0 0 1
25.908154 -12.778234 31.161503 42.491823 -0.458203 0.747556 0.025166 -0.001985 -1021760.000000 0 0 1
27.168534 -11.994134 31.305903 43.151455 -0.415739 0.759052 0.008080 0.003819 -944069.000000 0 0 1
27.578894 -11.396534 30.056603 42.354171 -0.391863 0.781796 -0.005931 0.002105 449211.000000 0 0 1
29.003014 -11.317334 30.010003 43.241845 -0.372040 0.803761 -0.019327 0.010697 455975.000000 0 0 1
29.426174 -10.718934 28.666503 42.456609 -0.349326 0.829567 -0.014955 0.009462 -150551.000000 0 0 1
29.131434 -9.358834 28.638303 41.909195 -0.310848 0.818466 -0.012029 0.018520 -97481.100000 0 0 1
29.450524 -8.756234 27.424603 41.183903 -0.288996 0.842089 -0.015015 0.022277 -30017.100000 0 0 1
29.525054 -7.217334 27.442703 40.950222 -0.239746 0.836388 -0.010349 0.023484 -79921.200000 0 0 1
28.214764 -6.746534 27.278503 39.820916 -0.234707 0.816152 -0.009941 0.024847 -572318.000000 0 0 1
28.160194 -5.366534 27.145603 39.480121 -0.188314 0.812650 0.000796 0.020929 569072.000000 0 0 1
26.771424 -4.709634 26.845103 38.204049 -0.174138 0.791643 0.001115 0.020385 536670.000000 0 0 1
26.305074 -5.016334 25.538703 37.004674 -0.188436 0.809103 -0.002734 0.022982 -83063.100000 0 0 1
24.954604 -4.621434 25.448103 35.940171 -0.183119 0.784037 0.007807 0.019798 -310952.000000 0 0 1
24.413914 -5.064634 24.061603 34.650403 -0.204547 0.803196 0.004711 0.023353 -300044.000000 0 0 1
24.888494 -4.155034 23.126903 34.227987 -0.165420 0.828920 0.007571 0.026935 292713.000000 0 0 1
24.765424 -4.711234 21.861203 33.368161 -0.187988 0.856413 0.010515 0.021509 -71774.500000 0 0 1
24.976684 -3.754334 20.673203 32.639104 -0.149197 0.884873 0.013047 0.016841 226575.000000 0 0 1
23.998614 -2.727334 20.436803 31.639133 -0.113160 0.868550 0.008792 0.021221 305865.000000 0 0 1
24.569914 -1.714634 19.718803 31.550782 -0.069673 0.895682 0.008428 0.012724 -1175060.000000 0 0 1
23.481914 -0.804234 19.176203 30.327773 -0.034236 0.886280 -0.017817 0.016464 -92618.100000 0 0 1
22.712714 -1.539534 18.214503 29.154857 -0.067679 0.895985 0.003107 0.007533 656759.000000 0 0 1
21.596614 -0.727834 17.770303 27.977261 -0.033689 0.882568 0.006663 0.010751 1099510.000000 0 0 1
20.441714 -1.557834 17.117303 26.707538 -0.076062 0.875105 0.012563 0.010019 255088.000000 0 0 1
20.742214 -2.178534 15.872103 26.208951 -0.104645 0.920278 0.008663 -0.006220 608146.000000 0 0 1
19.537414 -2.761534 15.345003 24.996114 -0.140416 0.909810 0.022156 -0.008707 717000.000000 0 1 0
19.840314 -3.287034 13.978803 24.491827 -0.164183 0.963373 0.012581 -0.019638 -198661.000000 0 1 0
18.960614 -4.280034 13.591003 23.717903 -0.222012 0.960601 0.014187 -0.014196 245007.000000 0 1 0
19.475314 -4.776734 12.344903 23.547859 -0.240523 1.018965 0.021599 -0.017449 90032.100000 0 1 0
18.476014 -5.692034 11.619403 22.555994 -0.298850 1.029630 0.019570 -0.016757 -262629.000000 0 1 0
18.479514 -6.994834 12.182003 23.212525 -0.361852 1.018313 0.021598 -0.012342 405886.000000 0 1 0
17.238814 -7.599134 11.937303 22.302976 -0.415190 1.006012 0.005241 -0.004265 -523982.000000 0 1 0
17.247114 -9.042534 12.365703 23.068181 -0.482892 1.005045 0.000782 -0.008510 -39917.500000 0 1 0
18.278814 -9.782834 11.729203 23.820014 -0.491410 1.055940 -0.002800 -0.011410 452049.000000 0 1 0
17.886214 -11.112234 11.510403 23.997662 -0.555915 1.070544 0.001875 -0.015326 -172818.000000 0 1 0
18.553014 -11.846434 10.337303 24.318967 -0.568261 1.131755 0.010008 -0.009493 -239887.000000 0 1 0
18.174914 -11.267934 9.110003 23.244053 -0.554975 1.168070 0.013017 -0.007088 300571.000000 0 1 0
18.630714 -12.017234 8.003903 23.570742 -0.572868 1.224337 -0.007211 -0.005880 68871.200000 0 1 0
18.248214 -11.254234 6.663603 22.451252 -0.552631 1.269453 -0.013910 -0.003878 -197054.000000 0 1 0
18.945714 -10.027934 6.640003 22.440793 -0.486811 1.270409 0.005817 0.000746 479683.000000 0 1 0
19.316914 -9.681434 5.336403 22.256472 -0.464599 1.328669 -0.015269 0.001224 -286170.000000 0 1 0
19.815614 -8.228734 5.094503 22.052768 -0.393596 1.337676 0.003327 -0.000490 -501679.000000 0 1 0
20.106014 -7.969834 3.733303 21.947838 -0.377391 1.399866 -0.013353 -0.004905 377365.000000 0 1 0
20.376914 -6.586834 3.561503 21.709199 -0.312648 1.405996 -0.012433 -0.005706 -995785.000000 0 1 0
21.245314 -6.360334 2.334503 22.299487 -0.290884 1.465915 0.003908 -0.001648 52701.800000 0 1 0
20.414114 -6.366234 1.175003 21.416013 -0.302297 1.515903 -0.011711 -0.008721 641496.000000 0 1 0
20.999514 -5.609134 0.140503 21.736184 -0.261014 1.564332 0.002183 -0.005339 -284096.000000 0 1 0
-24.996048 -15.895934 -0.151997 29.622732 0.566426 1.575927 0.044164 0.003957 -299065.000000 0 0 1
-23.966048 -15.371434 -0.973097 28.488583 0.570294 1.604960 0.032896 0.009450 691349.000000 0 0 1
-22.630348 -15.732134 -0.618097 27.568365 0.607483 1.593219 0.022948 0.010626 804588.000000 0 0 1
-22.016148 -15.131634 0.658903 26.722861 0.602150 1.546137 0.013055 0.011122 -835455.000000 0 0 1
-22.570348 -15.646534 1.834803 27.524556 0.606171 1.504086 0.024007 0.016147 -161803.000000 0 0 1
-21.680748 -15.431434 2.894103 26.768635 0.618573 1.462469 0.017979 0.028470 -52721.700000 0 0 1
-22.130848 -16.068434 4.198803 27.669459 0.628006 1.418459 0.024131 0.023493 -585062.000000 0 0 1
-21.864948 -17.418634 4.281703 28.281050 0.672693 1.418814 0.024521 0.016424 107369.000000 0 0 1
-22.437748 -18.095834 5.401403 29.327239 0.678686 1.385562 0.037620 0.007044 -173211.000000 0 0 1
-22.240748 -19.651334 5.313503 30.150608 0.723665 1.393639 0.026945 0.009771 -330117.000000 0 0 1
-22.797048 -20.289234 6.385603 31.179069 0.727259 1.364533 0.016405 0.005170 -242999.000000 0 0 1
-22.839348 -21.670434 6.175903 32.084036 0.759142 1.377096 0.023740 0.002747 -362331.000000 0 0 1
-23.738548 -22.237934 7.249403 33.325639 0.752771 1.351511 0.033102 0.003950 -245351.000000 0 0 1
-23.065048 -22.510834 8.477003 33.325571 0.773239 1.313601 0.028473 0.012222 -4867.590000 0 0 1
-23.929448 -23.155634 9.391903 34.597829 0.768965 1.295887 0.044898 0.016867 284279.000000 0 0 1
-23.188848 -23.561734 10.720803 34.753613 0.793374 1.257201 0.009117 0.011233 399497.000000 0 0 1
-22.999748 -22.385234 11.532903 34.104179 0.771859 1.225828 0.043807 0.013498 -53298.500000 0 0 1
-21.941348 -22.731834 12.394103 33.937779 0.803091 1.196948 0.033670 0.014451 -168777.000000 0 0 1
-22.045548 -22.038934 13.751303 34.070796 0.785248 1.155338 0.022591 0.020208 137293.000000 0 0 1
-23.114748 -22.606234 14.494103 35.431800 0.774277 1.149361 0.031791 0.015394 -44834.500000 0 0 1
-23.258448 -22.002534 15.756103 35.683634 0.757657 1.113471 0.029968 0.018417 -149905.000000 0 0 1
-24.571748 -22.482834 16.444203 37.143781 0.741034 1.112169 0.029205 0.011829 1140190.000000 0 0 1
-25.771828 -22.100834 15.702903 37.406085 0.708865 1.137576 0.026762 0.007449 1039070.000000 0 0 1
-26.168338 -23.085934 14.760803 37.889624 0.722898 1.170628 0.022701 0.005526 -204169.000000 0 0 1
-27.180568 -24.189834 15.255703 39.454630 0.727245 1.173784 0.014650 -0.000903 212899.000000 0 0 1
-26.700768 -24.976734 16.325603 40.041149 0.752049 1.150840 0.011163 0.009728 -100425.000000 0 0 1
-27.603228 -26.012804 16.647503 41.421535 0.755744 1.157201 0.001309 0.012578 -77443.200000 0 0 1
-27.615528 -27.259624 15.718603 41.866204 0.778913 1.185916 0.002365 0.010894 -130807.000000 0 0 1
-28.301428 -27.201924 14.499103 41.846619 0.765591 1.216978 0.009104 -0.002374 -167094.000000 0 0 1
-29.602958 -27.754224 14.650103 43.142295 0.753177 1.224330 0.028028 -0.018752 -1175.530000 0 0 1
-30.175858 -28.081014 13.237903 43.293970 0.749455 1.260052 0.032960 -0.032116 161484.000000 0 0 1
-29.338358 -29.037024 12.604203 43.159634 0.780236 1.274440 0.043723 -0.033903 374139.000000 0 0 1
-29.867048 -29.343734 11.280903 43.363050 0.776560 1.307619 0.038718 -0.029510 169214.000000 0 0 1
-29.106498 -30.458384 10.513103 43.421501 0.808090 1.326249 0.036574 -0.027949 -170661.000000 0 0 1
-29.283878 -31.713534 11.157103 44.584467 0.825209 1.317862 0.036948 -0.019802 -103627.000000 0 0 1
-28.751608 -32.755854 10.412003 44.810833 0.850408 1.336298 0.043910 -0.023567 -631561.000000 0 0 1
-28.942008 -34.124364 11.098403 46.100831 0.867387 1.327666 0.042671 -0.012492 -86298.400000 0 0 1
-30.234408 -34.633747 11.337903 47.351494 0.853114 1.329006 0.040335 -0.012521 -235408.000000 0 0 1
-30.292688 33.557773 11.861603 46.738300 -0.836490 1.314202 0.035381 -0.009630 306783.000000 0 0 1
-31.717588 33.105802 12.371603 47.487431 -0.806810 1.307232 0.046787 -0.008708 1578910.000000 0 0 1
-32.744098 32.786402 11.411203 47.721480 -0.786044 1.329336 0.028351 -0.010029 396795.000000 0 0 1
-33.328998 33.888010 10.827603 48.748911 -0.793714 1.346819 0.039942 -0.009787 874086.000000 0 0 1
-34.873130 33.658620 10.477103 49.586365 -0.767678 1.357902 0.024458 0.003482 1520410.000000 0 0 1
34.837350 32.994092 9.276203 48.870226 0.758231 1.379825 0.010109 0.006591 -48210.300000 0 0 1
33.516444 32.790782 8.822803 47.711940 0.774455 1.384808 0.014771 0.011491 -94189.000000 0 0 1
33.365484 32.165492 7.446503 46.939586 0.767088 1.411483 0.013684 0.008491 -62876.100000 0 0 1
33.536694 30.775142 7.332403 46.104049 0.742485 1.411078 0.023773 0.010467 -53587.500000 0 0 1
33.270064 30.322092 6.043103 45.418559 0.739074 1.437347 0.037372 0.003714 -40405.000000 0 0 1
33.644894 28.840832 5.810203 44.693746 0.708667 1.440427 0.033012 0.007730 339107.000000 0 0 1
32.813334 27.863362 6.454103 43.528580 0.703999 1.421975 0.033044 0.005582 451183.000000 0 0 1
33.428704 27.354392 7.656903 43.867632 0.685795 1.395352 0.017574 0.010739 623092.000000 0 0 1
32.556824 26.169352 8.188303 42.565597 0.677057 1.377221 0.015981 -0.002463 498325.000000 0 0 1
32.620844 25.067182 7.319803 41.785913 0.655199 1.394714 0.018660 -0.005171 1019790.000000 0 0 1
31.370814 24.327862 7.367903 40.376464 0.659618 1.387288 0.008667 -0.002449 400506.000000 0 0 1
31.403034 22.981762 6.624303 39.473957 0.631772 1.402184 0.004000 -0.001766 -86961.400000 0 0 1
32.306444 21.983462 7.035003 39.704788 0.597496 1.392673 0.015717 -0.005912 -64367.600000 0 0 1
33.688774 22.257462 6.949003 40.970925 0.583846 1.400364 0.038956 -0.009064 -417571.000000 0 0 1
34.583259 21.028362 6.893403 41.057433 0.546318 1.402101 0.024269 -0.013748 -279597.000000 0 0 1
34.411716 20.205562 5.785703 40.322516 0.530933 1.426814 0.037506 -0.016792 9899.450000 0 0 1
-34.678504 19.012662 5.992103 39.999816 -0.501502 1.420427 0.040367 -0.019526 -258346.000000 0 0 1
34.894503 17.909462 4.988203 39.538049 0.474188 1.444297 0.026994 -0.015258 -884227.000000 0 0 1
-34.156960 17.871662 3.834503 38.740130 -0.482052 1.471654 0.017094 -0.012501 -407223.000000 0 0 1
-34.734971 16.967162 2.932903 38.768605 -0.454385 1.495072 0.010295 -0.011322 -873837.000000 0 0 1
-33.870538 16.459962 1.742003 37.698518 -0.452358 1.524571 0.010863 0.002657 -204245.000000 0 0 1
-32.836158 15.615262 2.149003 36.423453 -0.443898 1.511762 0.022048 -0.007104 191156.000000 0 0 1
-31.606938 16.273062 2.415603 35.632095 -0.475463 1.502951 0.023156 -0.007321 438385.000000 0 0 1
-30.353688 15.352262 2.673603 34.120177 -0.468260 1.492357 0.006339 -0.000984 472076.000000 0 0 1
-30.404678 14.659262 3.911003 33.979911 -0.449256 1.455443 0.017046 -0.003148 1027030.000000 0 0 1
-29.077018 14.171562 4.163303 32.613483 -0.453501 1.442791 0.005454 0.004845 346646.000000 0 0 1
-28.910088 13.627162 5.575603 32.443491 -0.440477 1.398083 0.011423 0.003821 -402597.000000 0 0 1
-29.369348 12.313762 5.755003 32.362129 -0.397009 1.392014 0.008017 0.002365 285690.000000 0 0 1
-29.087488 11.833062 7.035903 32.180852 -0.386363 1.350380 0.002749 0.007009 -374244.000000 0 0 1
-29.216188 10.341362 7.283203 31.836684 -0.340198 1.339985 0.006267 0.000750 -98089.500000 0 0 1
-30.540108 9.869462 7.243703 32.902518 -0.312570 1.348821 -0.009299 0.001084 -369937.000000 0 0 1
-30.499848 8.448262 7.029903 32.419645 -0.270219 1.352219 -0.005847 0.001481 499209.000000 0 0 1
-31.931868 7.840162 6.878003 33.591952 -0.240765 1.364586 -0.018149 0.006184 412506.000000 0 0 1
-32.624178 7.783762 8.111503 34.506817 -0.234210 1.333506 -0.028740 0.002724 -1081620.000000 0 0 1
-33.810588 7.146362 7.831203 35.433799 -0.208299 1.347947 -0.038060 0.002633 -792207.000000 0 0 1
-34.444860 6.541962 9.153803 36.235863 -0.187690 1.315412 -0.028210 0.001033 118459.000000 0 0 1
34.749000 7.374962 10.158103 36.946855 0.209132 1.292271 -0.027570 0.002180 482295.000000 0 0 1
-34.130206 7.994062 11.043703 36.752406 -0.230075 1.265591 -0.014956 -0.005321 -67821.900000 0 0 1
-34.802102 9.021862 12.024503 37.910012 -0.253650 1.248036 -0.013787 -0.007554 -639477.000000 0 0 1
34.361303 8.416162 13.136003 37.737057 0.240203 1.215260 -0.025148 -0.007601 574936.000000 0 0 1
33.800579 9.387662 14.020403 37.778023 0.270909 1.190575 -0.002993 -0.009495 -477287.000000 0 0 1
33.073204 8.823162 15.208603 37.456463 0.260705 1.152686 -0.020320 -0.007242 -503662.000000 0 0 1
31.686924 8.593262 15.057803 36.119838 0.264823 1.140781 -0.021838 -0.002703 203954.000000 0 0 1
31.164684 8.236062 16.303403 36.123001 0.258369 1.102541 -0.026945 0.005795 -568165.000000 0 0 1
29.720784 7.738262 16.283103 34.761259 0.254710 1.083287 -0.035999 0.020236 -882248.000000 0 0 1
28.805684 8.804862 16.242603 34.221560 0.296645 1.076252 -0.048260 0.012851 1350070.000000 0 0 1
27.401364 8.439762 16.365003 33.013295 0.298785 1.052145 -0.040640 0.017832 1683920.000000 0 0 1
26.906144 7.754662 17.718503 33.136395 0.280607 1.006627 -0.039146 0.021571 -592290.000000 0 0 1
27.117124 8.693062 18.789703 34.116868 0.310224 0.987539 -0.027595 -0.001502 352221.000000 0 0 1
26.522734 8.363562 20.046003 34.281873 0.305466 0.946236 -0.016653 0.008584 -114309.000000 0 0 1
27.211304 7.235662 20.839103 35.029674 0.259893 0.933657 -0.024696 0.015877 -214262.000000 0 0 1
26.516514 7.038762 22.035803 35.188724 0.259465 0.894104 -0.037660 0.021487 99325.300000 0 0 1
26.799034 5.803762 22.631803 35.553767 0.213273 0.880778 -0.023793 0.026512 -966790.000000 0 0 1
25.994804 5.547662 23.930703 35.765695 0.210260 0.837804 -0.011784 0.027651 840840.000000 0 0 1
24.623514 5.215262 23.659503 34.544008 0.208716 0.816317 -0.027499 0.022791 294772.000000 0 0 1
23.748314 6.284262 23.706003 34.138672 0.258690 0.803206 -0.022185 0.032185 -1163690.000000 0 0 1
22.281714 5.910062 23.837003 33.160312 0.259272 0.768662 -0.005867 0.031495 -473074.000000 0 0 1
21.792514 5.186062 22.719403 31.905802 0.233629 0.778344 -0.015070 0.037307 161708.000000 0 0 1
20.388414 5.081962 22.825203 31.024243 0.244280 0.744065 0.002720 0.022922 -594656.000000 0 0 1
19.643114 4.354262 21.686203 29.582139 0.218141 0.747950 0.017073 0.024085 231761.000000 0 0 1
18.259414 4.567162 21.490903 28.567885 0.245098 0.719288 0.021723 0.013447 658852.000000 0 0 1
17.405214 3.816962 22.363603 28.594430 0.215882 0.672773 0.032907 0.007045 -66968.900000 0 0 1
15.996714 3.582962 21.788803 27.266911 0.220344 0.645011 0.046286 0.008984 -683102.000000 0 0 1
15.951414 2.692262 20.716103 26.284079 0.167203 0.662980 0.035550 0.009559 -444546.000000 0 0 1
14.721314 2.518462 20.086703 25.030689 0.169436 0.639351 0.031931 -0.001929 -701468.000000 0 0 1
13.687714 1.672262 20.864603 25.009631 0.121570 0.584002 0.022382 -0.005248 -635728.000000 0 0 1
14.017814 0.307262 20.859403 25.133806 0.021916 0.591807 0.008557 -0.001093 255202.000000 0 0 1
13.245714 -0.377038 21.813503 25.522931 -0.028457 0.545895 -0.003309 -0.000364 -167448.000000 0 0 1
13.684814 -1.834838 21.952803 25.933884 -0.133284 0.561437 -0.015592 0.001998 -155027.000000 0 0 1
13.303414 -2.667638 20.867603 24.890841 -0.197898 0.576520 -0.008272 0.008104 199874.000000 0 1 0
13.735614 -4.022838 20.939003 25.363205 -0.284909 0.599592 0.002813 0.016839 -126102.000000 0 0 1
13.568214 -4.700838 19.600203 24.297372 -0.333517 0.632284 0.005024 0.009924 -466571.000000 0 1 0
12.259714 -4.739038 19.121903 23.203583 -0.368861 0.602198 0.004702 0.002681 -591319.000000 0 1 0
12.204214 -5.240438 17.771503 22.186287 -0.405588 0.641811 0.016520 0.001420 414637.000000 0 1 0
10.724614 -5.469638 17.353203 21.120321 -0.471622 0.606522 0.013156 -0.005232 346256.000000 0 1 0
10.092714 -6.394638 18.200803 21.772081 -0.564752 0.580899 0.010236 0.001960 -209709.000000 0 1 0
8.699414 -6.270138 17.942203 20.902562 -0.624520 0.538706 0.003549 -0.009242 231737.000000 0 1 0
7.817914 -7.012538 18.965803 21.679418 -0.731146 0.505712 0.001494 -0.008929 -367090.000000 0 1 0
7.764714 -8.439038 18.843903 22.059031 -0.826989 0.546692 -0.010117 -0.007317 396966.000000 0 1 0
8.773114 -9.078538 19.652703 23.358427 -0.802506 0.571013 0.005922 -0.006874 594678.000000 0 1 0
8.884214 -10.517638 19.248803 23.665722 -0.869389 0.620888 0.011761 -0.012184 189712.000000 0 1 0
9.334314 -10.614838 17.907703 22.814251 -0.849500 0.668205 0.006384 -0.000689 45697.200000 0 1 0
9.392814 -11.924138 17.436903 23.118296 -0.903592 0.716290 -0.011391 -0.004869 168141.000000 0 1 0
9.708314 -11.930338 15.904603 22.125567 -0.887727 0.768673 -0.002732 -0.012192 146377.000000 0 1 0
10.047114 -13.171438 15.321003 22.564672 -0.919156 0.824421 -0.024766 -0.004809 -8946.290000 0 1 0
10.261614 -12.919038 13.964903 21.615291 -0.899540 0.868377 0.003129 -0.007965 -353249.000000 0 1 0
10.781114 -14.113038 13.085303 22.059815 -0.918451 0.935801 -0.000093 -0.013484 -282179.000000 0 1 0
12.109114 -14.082738 12.677003 22.486898 -0.860609 0.971876 -0.012494 -0.008180 -871275.000000 0 1 0
12.274314 -13.229638 11.573703 21.439046 -0.822839 1.000547 -0.026784 -0.006187 182139.000000 0 1 0
13.732214 -13.129138 10.975003 21.940799 -0.762951 1.046955 -0.022107 -0.007621 874353.000000 0 1 0
14.161714 -14.306638 10.359703 22.639732 -0.790489 1.095514 -0.024436 0.001962 -343376.000000 0 1 0
15.414514 -14.102238 9.756603 23.058006 -0.740969 1.133896 -0.021039 -0.004894 1280.310000 0 1 0
16.184114 -15.403138 9.308103 24.203780 -0.760679 1.176052 -0.021315 0.003148 275671.000000 0 1 0
16.429114 -16.280638 10.473103 25.390172 -0.780859 1.145614 -0.022046 0.004455 348319.000000 0 0 1
15.304314 -17.030138 10.963003 25.385726 -0.838722 1.124246 -0.020510 0.007074 465656.000000 0 0 1
15.562414 -17.612538 12.367603 26.558385 -0.847117 1.086398 -0.027982 0.010511 70958.500000 0 0 1
16.523014 -18.658538 12.353003 27.816321 -0.846024 1.110636 -0.023806 0.001143 49334.100000 0 0 1
16.588314 -19.264938 13.657803 28.859064 -0.859915 1.077810 -0.044704 -0.003892 -464949.000000 0 0 1
17.865314 -20.142038 13.660903 30.190916 -0.845229 1.101248 -0.042904 -0.012180 837074.000000 0 0 1
19.030614 -19.316338 13.501503 30.291513 -0.792849 1.108819 -0.035138 -0.012540 -239416.000000 0 0 1
20.226614 -20.051738 13.423903 31.486335 -0.781057 1.130353 -0.040686 -0.011958 367849.000000 0 0 1
21.239914 -19.314038 12.494703 31.309481 -0.737945 1.160293 -0.009575 -0.007089 -58798.800000 0 0 1
20.895714 -19.333238 11.093503 30.552754 -0.746578 1.199211 -0.012644 0.007455 325357.000000 0 0 1
19.641814 -18.849138 10.607803 29.216713 -0.764807 1.199232 -0.017086 0.014334 509957.000000 0 0 1
19.570114 -17.271038 10.532403 28.146219 -0.723074 1.187259 -0.002319 0.015626 -391438.000000 0 0 1
20.407414 -16.805838 9.541603 28.105888 -0.688917 1.224424 0.007610 0.023329 -423530.000000 0 0 1
20.375214 -15.405138 9.539103 27.266502 -0.647376 1.213389 0.003098 0.007118 134646.000000 0 0 1
-33.107318 24.823366 7.881303 42.123734 -0.643363 1.382588 0.037582 0.002814 -98240.000000 0 0 1
-32.224978 24.282666 8.845303 41.307826 -0.645760 1.354994 0.034474 -0.001156 -313384.000000 0 0 1
-31.247188 25.194666 9.201903 41.180493 -0.678572 1.345441 0.033947 0.007682 -281300.000000 0 0 1
-30.055698 24.437366 9.890403 39.979368 -0.682659 1.320813 0.029383 -0.006410 208347.000000 0 0 1
-29.358998 23.542566 9.066603 38.709255 -0.675890 1.334377 0.018881 -0.005984 -574194.000000 0 0 1
-28.411198 22.817066 9.768003 37.725701 -0.676629 1.308891 0.024984 -0.008392 -57150.300000 0 0 1
-27.632088 21.838866 8.796703 36.302208 -0.668826 1.326041 0.031424 -0.016000 420263.000000 0 0 1
-28.556318 21.021966 8.045703 36.360964 -0.634583 1.347677 0.031634 -0.023662 477769.000000 0 0 1
-27.994188 20.313866 6.956503 35.280599 -0.627731 1.372319 0.019467 -0.018146 391145.000000 0 0 1
-29.109248 19.586266 6.091303 35.610028 -0.592274 1.398895 0.016651 -0.015265 328366.000000 0 0 1
-29.656548 18.411166 6.622303 35.529379 -0.555583 1.383310 0.016734 -0.011450 542027.000000 0 0 1
-30.603528 17.816966 5.739303 35.874222 -0.527218 1.410122 0.005882 -0.016104 382496.000000 0 0 1
-31.354868 16.573066 6.345703 36.028630 -0.486237 1.393743 0.018947 -0.009634 -28501.000000 0 0 1
-31.995808 16.849966 7.593103 36.950078 -0.484724 1.363826 0.026735 -0.015710 591942.000000 0 0 1
-33.143208 16.014266 7.689803 37.604016 -0.450104 1.364849 0.029183 -0.015818 -81434.700000 0 0 1
-34.030968 16.322166 8.901803 38.778370 -0.447217 1.339175 0.027848 -0.020857 -233247.000000 0 0 1
-34.887247 17.418666 8.713603 39.955686 -0.463075 1.350948 0.029666 -0.023671 -146882.000000 0 0 1
34.226114 17.701166 9.899803 39.783969 0.477299 1.319315 0.031604 -0.020218 -74540.100000 0 0 1
33.299134 18.935666 9.875603 39.559061 0.517052 1.318486 0.018548 -0.021872 -735781.000000 0 0 1
32.130884 18.743766 9.163603 38.310495 0.528092 1.329262 0.002847 -0.020260 -879276.000000 0 0 1
31.444754 19.950666 9.082503 38.331364 0.565378 1.331574 -0.001092 -0.009695 -46231.300000 0 0 1
29.995274 19.777166 8.540503 36.929567 0.582915 1.337419 -0.024630 -0.008591 234002.000000 0 0 1
29.378334 21.088166 8.403003 37.126913 0.622582 1.342486 -0.035492 -0.005137 723979.000000 0 0 1
28.042194 20.980966 7.880903 35.898108 0.642343 1.349458 -0.029993 -0.005880 642026.000000 0 0 1
27.908024 20.818666 6.319703 35.386626 0.640920 1.391243 -0.043041 0.008709 -669171.000000 0 0 1
28.246154 19.528266 5.930403 34.847784 0.604904 1.399784 -0.036128 0.000237 -4782.320000 0 0 1
28.166614 19.303966 4.523703 34.445103 0.600825 1.439085 -0.030349 -0.003033 -726581.000000 0 0 1
26.805844 19.504666 3.838603 33.372445 0.629028 1.455518 -0.005830 0.006297 -1553670.000000 0 0 1
25.842294 18.599966 4.304203 32.129566 0.623858 1.436428 -0.012781 0.001556 1322560.000000 0 0 1
24.469114 18.930166 3.945603 31.187441 0.658457 1.443944 0.015929 0.003391 1469370.000000 0 0 1
23.868114 20.240466 4.552803 31.624220 0.703339 1.426329 0.036430 0.001574 -850542.000000 0 0 1
24.488614 21.458466 4.125703 32.820411 0.719545 1.444757 0.029869 0.000040 366618.000000 0 0 1
23.791714 22.604666 4.605603 33.139525 0.759819 1.431369 0.028879 0.001596 -66133.700000 0 0 1
24.479814 23.911666 4.196703 34.476678 0.773658 1.448768 0.005336 0.003231 -68979.100000 0 0 1
25.693034 24.039366 4.890003 35.523727 0.752159 1.432703 -0.005346 0.003099 336356.000000 0 0 1
26.494344 25.218766 4.657803 36.873182 0.760737 1.444138 -0.002891 -0.001033 -507342.000000 0 0 1
27.880384 25.265066 5.312803 37.998226 0.736227 1.430520 -0.012114 0.000630 118297.000000 0 0 1
28.826564 24.178066 5.102203 37.968172 0.697922 1.436007 -0.012534 -0.000616 708511.000000 0 0 1
29.104374 23.924866 3.755603 37.862492 0.688034 1.471442 -0.002220 -0.007018 -1013940.000000 0 0 1
29.985134 24.946566 3.016303 39.122084 0.693930 1.493620 0.004816 -0.006910 -1207120.000000 0 0 1
29.371974 26.172766 2.813403 39.441624 0.727865 1.499405 0.008913 -0.010095 -604785.000000 0 0 1
30.188524 27.137266 2.195403 40.652158 0.732222 1.516765 0.028992 -0.005626 -1387470.000000 0 0 1
29.730194 28.570166 2.472803 41.306822 0.765503 1.510896 0.029786 -0.002879 557804.000000 0 0 1
28.467024 28.932166 1.951503 40.635576 0.793502 1.522753 0.040473 -0.006230 113356.000000 0 0 1
27.328854 28.276866 2.460603 39.401801 0.802445 1.508307 0.027373 -0.005611 -1527200.000000 0 0 1
26.011994 28.892366 2.049503 38.930619 0.837812 1.518127 0.011196 -0.004764 -662893.000000 0 0 1
25.779514 30.153366 2.630203 39.758354 0.863438 1.504593 0.010627 -0.013083 546005.000000 0 0 1
24.500514 30.697466 2.293803 39.342993 0.897198 1.512461 0.009534 -0.004280 531547.000000 0 0 1
24.203714 32.106866 2.888703 40.311477 0.924837 1.499075 0.006735 -0.014437 -253598.000000 0 0 1
24.086314 32.254366 4.292403 40.483569 0.929371 1.464568 -0.001658 -0.020540 -35249.600000 0 0 1
25.338964 32.224266 4.928803 41.288733 0.904445 1.451137 -0.005466 -0.018149 -274677.000000 0 0 1
25.299474 32.139466 6.483603 41.413111 0.903923 1.413590 0.007661 -0.021002 -86908.600000 0 0 1
24.633414 31.005966 7.002303 40.214515 0.899434 1.395780 0.009983 -0.023292 23974.800000 0 0 1
25.218504 29.793266 6.626503 39.591945 0.868367 1.402635 0.009719 -0.018515 -284703.000000 0 0 1
24.476614 28.520966 7.114803 38.251412 0.861563 1.383706 0.023422 -0.015867 -422195.000000 0 0 1
23.418114 28.226066 6.257603 37.205865 0.878228 1.401804 0.004544 -0.022420 -869412.000000 0 0 1
22.782714 27.067066 6.698903 36.007685 0.871133 1.383665 0.012319 -0.015375 -118547.000000 0 0 1
21.515414 26.814566 5.806103 34.866098 0.894607 1.403491 0.028578 -0.012804 69925.600000 0 0 1
21.643914 26.540966 4.404503 34.529429 0.886681 1.442890 0.027952 -0.009640 -30514.600000 0 0 1
21.959214 27.716366 3.670103 35.551001 0.900778 1.467377 0.021565 -0.009576 -192567.000000 0 0 1
22.103614 27.435466 2.118203 35.295344 0.892615 1.510747 0.017778 0.002242 1091940.000000 0 0 1
23.309514 26.650466 1.848203 35.454148 0.852171 1.518643 0.009939 0.015891 1159880.000000 0 0 1
23.316714 26.267266 0.552803 35.127539 0.844834 1.555059 0.019133 0.013797 -1043910.000000 0 0 1
24.546614 25.614466 -0.028797 35.477287 0.806683 1.571608 0.033253 0.007943 -1337200.000000 0 0 1
25.604484 26.589966 -0.071197 36.913696 0.804277 1.572725 0.028962 0.015775 403255.000000 0 0 1
26.774864 26.177666 -0.735597 37.452698 0.774121 1.590438 0.023012 0.030242 289886.000000 0 0 1
27.601484 24.961966 -0.218997 37.215448 0.735224 1.576681 0.011738 0.018438 -779052.000000 0 0 1
26.955444 23.693366 -0.414097 35.890709 0.721081 1.582334 0.019618 0.007579 222269.000000 0 0 1
27.567244 22.632966 0.270603 35.668996 0.687421 1.563210 0.011031 0.003107 -437691.000000 0 0 1
26.485144 21.746066 0.847503 34.279330 0.687455 1.546070 0.015256 -0.002607 -234392.000000 0 0 1
25.927384 20.881866 -0.146397 33.291184 0.678024 1.575194 0.032921 -0.014129 506096.000000 0 0 1
24.748644 20.308666 0.402303 32.017169 0.687175 1.558231 0.030669 -0.002156 -118761.000000 0 0 1
24.189814 19.132766 -0.456297 30.845065 0.669194 1.585590 0.042248 -0.016342 -1007710.000000 0 0 1
23.002114 18.634166 0.050803 29.602904 0.680873 1.569080 0.040000 -0.009976 -468443.000000 0 0 1
22.479014 17.703266 -0.942097 28.628643 0.667101 1.603710 0.036049 -0.028967 -382135.000000 0 0 1
21.072514 17.271666 -0.548197 27.251822 0.686596 1.590914 0.024196 -0.003488 -738583.000000 0 0 1
20.477714 16.148666 -1.309897 26.111913 0.667749 1.620982 0.017771 -0.012927 1107680.000000 0 0 1
19.129314 15.862966 -0.936297 24.868473 0.692323 1.608455 0.019662 -0.009336 813917.000000 0 1 0
17.987814 16.858566 -1.277297 24.686113 0.753003 1.622561 0.009511 -0.011339 -507505.000000 0 1 0
17.845314 17.991166 -0.430297 25.344080 0.789468 1.587775 0.016930 -0.013609 283712.000000 0 0 1
16.823114 18.875666 -0.883797 25.299980 0.842831 1.605736 -0.007634 -0.016467 323470.000000 0 0 1
17.043614 20.331466 -0.364697 26.532739 0.873141 1.584542 0.007445 -0.002738 -135369.000000 0 0 1
16.616714 20.470266 0.987003 26.384107 0.888932 1.533379 0.015964 0.000318 8003.490000 0 0 1
16.618014 21.873366 1.377603 27.504550 0.921092 1.520689 0.016654 0.002331 291469.000000 0 0 1
15.440814 22.767966 0.886003 27.524244 0.974864 1.538601 -0.000758 0.005860 695085.000000 0 0 1
14.245614 22.698566 1.658703 26.849836 1.010330 1.508980 -0.004293 0.007771 239847.000000 0 0 1
13.240614 23.597666 1.291403 27.089322 1.059472 1.523106 -0.006661 0.007594 347051.000000 0 0 1
11.894914 23.548966 2.055103 26.462543 1.103066 1.493057 -0.007289 0.007753 335536.000000 0 0 1
12.008714 24.064766 3.385403 27.106883 1.107936 1.445578 -0.003696 0.010897 349358.000000 0 0 1
10.812314 23.861566 4.146003 26.523005 1.145345 1.413835 -0.009363 0.012874 347049.000000 0 0 1
10.888214 24.284666 5.614403 27.199627 1.149309 1.362887 -0.009164 0.007631 -744073.000000 0 0 1
11.760414 23.432466 6.294403 26.963073 1.105641 1.335177 -0.013586 0.000010 -79514.600000 0 0 1
11.069514 22.787866 7.331803 26.373780 1.118603 1.289089 -0.010939 0.001440 -441781.000000 0 0 1
11.892514 21.666466 7.983903 25.973262 1.068805 1.258348 0.003805 0.001315 470145.000000 0 0 1
13.039214 22.020066 8.746903 27.044643 1.036168 1.241450 0.017587 0.009515 613998.000000 0 0 1
14.218814 22.149566 7.973903 27.502019 1.000104 1.276633 0.011323 0.012462 -1196080.000000 0 0 1
15.525714 22.050066 8.690003 28.333184 0.957316 1.259064 0.034340 0.007805 -1231270.000000 0 0 1
15.706714 20.760366 9.221103 27.617429 0.923102 1.230372 0.039170 0.005805 -704678.000000 0 0 1
16.869814 20.595666 9.921903 28.411551 0.884520 1.214057 0.035775 0.005705 -1041850.000000 0 0 1
16.957614 21.245866 11.322603 29.447391 0.897178 1.176127 0.021868 0.001358 -427845.000000 0 0 1
16.195314 20.657866 12.355503 29.011964 0.905901 1.130866 0.020056 -0.001509 21062.900000 0 0 1
16.199414 21.460166 13.540103 30.104719 0.924192 1.104292 0.010175 0.019914 -348621.000000 0 0 1
17.405214 21.334666 14.495203 31.116239 0.886484 1.086212 0.019206 0.007738 121695.000000 0 0 1
18.551814 21.937966 13.920903 31.925471 0.868834 1.119599 0.027215 0.007318 84378.000000 0 0 1
19.728014 21.523066 14.608203 32.647151 0.828886 1.106876 0.014361 0.005649 -61838.000000 0 0 1
21.047314 22.117066 14.161603 33.655683 0.810176 1.136493 0.010329 0.004424 -558102.000000 0 0 1
21.632114 21.573266 13.014803 33.207518 0.784036 1.168075 0.018438 0.009919 416520.000000 0 0 1
22.961414 22.071066 12.863803 34.348739 0.765629 1.186933 0.002544 0.006098 513536.000000 0 0 1
23.832814 21.370266 11.804303 34.117925 0.730975 1.217508 0.012077 0.009672 -260658.000000 0 0 1
23.399114 21.800766 10.587503 33.688086 0.750051 1.251098 0.012533 0.012200 302386.000000 0 0 1
24.346614 21.567666 9.591603 33.910480 0.724947 1.284031 0.030472 0.004269 -67965.800000 0 0 1
23.797414 22.281966 8.278303 33.635297 0.752522 1.322122 0.014404 0.001088 302478.000000 0 0 1
23.838914 23.712766 8.315303 34.637167 0.782745 1.328360 0.021092 -0.000871 948372.000000 0 0 1
25.169944 24.197666 8.077803 35.837187 0.765706 1.343440 0.002794 0.001468 566073.000000 0 0 1
25.671654 25.294766 9.094703 37.169512 0.778003 1.323605 0.015697 -0.001844 419119.000000 0 0 1
26.865354 25.959666 8.652403 38.347302 0.768255 1.343204 -0.004616 -0.001837 597493.000000 0 0 1
27.249994 26.980266 9.495803 39.505280 0.780424 1.328051 0.000690 -0.004318 292232.000000 0 0 1
28.510904 27.720566 8.959803 40.762476 0.771344 1.349182 -0.006856 0.000936 346378.000000 0 0 1
28.246364 28.339266 7.704903 40.747228 0.787040 1.380561 0.000424 0.000878 -432955.000000 0 0 1
29.412324 28.555166 6.982203 41.584053 0.770612 1.402091 0.009354 0.005938 -530063.000000 0 0 1
29.334144 29.621366 5.899403 42.103684 0.790270 1.430218 0.032542 0.007712 -63956.000000 0 0 1
29.332644 30.936866 6.409703 43.111227 0.812009 1.421565 0.026061 0.001569 52901.300000 0 0 1
29.384504 31.856566 5.354303 43.668735 0.825742 1.447875 0.027930 -0.004066 40245.900000 0 0 1
29.535344 33.317166 5.826503 44.903432 0.845495 1.440673 -0.000130 0.004517 -1872.000000 0 0 1
28.298414 33.712366 6.357903 44.471865 0.872484 1.427340 -0.015319 -0.000063 -168797.000000 0 0 1
28.218074 -34.355631 6.375703 44.913457 -0.883171 1.428360 -0.019555 -0.000983 -484292.000000 0 0 1
26.883404 -33.869031 6.927303 43.792878 -0.899881 1.411946 -0.006489 -0.003471 -655607.000000 0 0 1
25.889654 -34.135431 5.997603 43.260525 -0.921916 1.431709 -0.006915 -0.008342 -421451.000000 0 0 1
24.626014 -33.573731 6.342803 42.117302 -0.937945 1.419623 -0.002853 -0.012673 589007.000000 0 0 1
23.547514 -33.820931 5.254903 41.544612 -0.962598 1.443968 0.019383 -0.017385 -90865.400000 0 0 1
23.687714 -33.013331 4.134603 40.842169 -0.948409 1.469389 -0.005639 -0.000971 259175.000000 0 0 1
22.681514 -33.141231 3.126703 40.281119 -0.970624 1.493096 0.003070 -0.005043 -75698.100000 0 0 1
23.152414 -32.497031 1.769303 39.940227 -0.951765 1.526483 0.002203 0.005318 -4254.730000 0 0 1
23.322214 -31.112931 1.919203 38.931009 -0.927552 1.521479 0.007194 0.008199 -161852.000000 0 0 1
24.220914 -30.656031 0.945803 39.081190 -0.902130 1.546593 0.002662 0.004629 -399479.000000 0 0 1
24.699214 -29.211431 1.231703 38.273698 -0.868902 1.538609 -0.013282 0.014111 -186017.000000 0 0 1
23.743714 -28.176331 1.137803 36.864131 -0.870566 1.539927 0.000211 0.006318 -70438.200000 0 0 1
23.222814 -27.953531 -0.170397 36.341822 -0.877576 1.575485 0.003905 0.010996 496688.000000 0 0 1
22.066714 -26.885731 -0.363197 34.783822 -0.883525 1.581238 0.010221 0.008956 361586.000000 0 0 1
22.342614 -25.482331 -0.375197 33.892216 -0.850954 1.581867 0.007430 0.002926 -377031.000000 0 0 1
22.500814 -24.913131 0.903603 33.582245 -0.836232 1.543886 -0.008184 0.014515 -192394.000000 0 0 1
21.300314 -24.867431 1.865203 32.795906 -0.862509 1.513893 -0.001074 0.013517 -106334.000000 0 0 1
21.484114 -24.127531 2.997003 32.445137 -0.843288 1.478293 -0.021876 0.024365 -784585.000000 0 0 1
20.276114 -24.156031 3.700003 31.754128 -0.872500 1.454011 -0.000778 0.026045 -357540.000000 0 0 1
20.208414 -23.375031 5.040003 31.307726 -0.857927 1.409110 -0.011786 0.032472 -5414.950000 0 0 1
20.192814 -21.914331 4.926103 30.203545 -0.826260 1.406968 0.002855 0.039014 748150.000000 0 0 1
18.886014 -21.403731 4.622803 28.916630 -0.847807 1.410241 -0.004962 0.032355 140251.000000 0 0 1
18.766214 -19.879631 4.814803 27.758833 -0.814201 1.396463 -0.006359 0.026550 82350.200000 0 0 1
18.948514 -19.434231 6.147003 27.830220 -0.798052 1.348085 -0.008840 0.035102 540485.000000 0 0 1
17.721114 -19.224131 6.865403 27.032181 -0.826058 1.314012 -0.014214 0.035483 829581.000000 0 0 1
18.203452 -26.637364 -12.371397 34.553817 -0.971312 1.936956 0.033522 -0.021671 -264245.000000 0 0 1
18.389252 -25.360164 -12.895397 33.876154 -0.943407 1.961309 0.028796 -0.015443 -125119.000000 0 0 1
17.121652 -24.857034 -13.272297 32.972367 -0.967623 1.985073 0.015638 -0.014439 -66275.000000 0 0 1
17.086852 -23.365434 -13.655997 32.006098 -0.939379 2.011602 0.012057 -0.013597 -32771.000000 0 0 1
17.342652 -22.460834 -12.552397 31.029330 -0.913283 1.987265 0.010150 -0.007539 -214234.000000 0 0 1
18.662152 -22.388934 -12.044597 31.537479 -0.875934 1.962662 0.009718 -0.011660 -426283.000000 0 0 1
18.847552 -23.029134 -10.636697 31.602382 -0.884923 1.914078 0.011566 -0.013012 228571.000000 0 0 1
18.001452 -22.576034 -9.577497 30.421342 -0.897661 1.891072 0.000259 -0.007090 505643.000000 0 0 1
16.623752 -22.932134 -9.692097 29.936076 -0.943547 1.900497 0.004010 0.005730 139760.000000 0 0 1
15.762252 -22.189134 -8.651397 28.559638 -0.953152 1.878556 -0.005011 0.005796 -1133590.000000 0 0 1
15.778252 -20.796334 -8.829197 27.557131 -0.921748 1.896944 -0.005218 -0.006201 92132.800000 0 0 1
15.212252 -20.019534 -7.758597 26.313308 -0.921008 1.870100 -0.000356 -0.007557 -51485.200000 0 0 1
13.664852 -20.112434 -7.721797 25.512043 -0.974014 1.878292 0.006458 0.005448 -364719.000000 0 0 1
13.180052 -21.387934 -7.457097 26.206217 -1.018523 1.859338 -0.010548 0.005379 -607888.000000 0 0 1
11.801652 -21.429734 -7.766197 25.667612 -1.067405 1.878182 -0.000500 -0.000002 42438.000000 0 0 1
11.144852 -22.827934 -7.614797 26.519944 -1.116624 1.862031 0.001705 0.007863 39612.600000 0 0 1
11.198552 -23.236234 -6.308097 26.554138 -1.121698 1.810645 0.002397 0.006250 288300.000000 0 0 1
10.381752 -24.383634 -6.075097 27.189138 -1.168276 1.796137 -0.003052 0.011499 508884.000000 0 0 1
10.996952 -25.346634 -4.947797 28.068942 -1.161443 1.747995 0.009373 0.016646 -614502.000000 0 0 1
10.046952 -25.917684 -4.133197 28.102507 -1.200983 1.718408 0.030587 -0.000853 -906856.000000 0 0 1
10.572952 -26.393724 -2.893397 28.579499 -1.189785 1.672210 0.022642 0.001909 120804.000000 0 0 1
9.528252 -27.176254 -2.019197 28.868903 -1.233579 1.640797 0.033684 0.004095 949437.000000 0 0 1
8.457252 -26.392424 -1.499297 27.754875 -1.260692 1.624842 0.019048 0.008062 -398885.000000 0 0 1
7.664552 -27.094614 -0.616397 28.164578 -1.295118 1.592684 0.026367 -0.002436 -337834.000000 0 0 1
6.982752 -26.173534 0.392303 27.091819 -1.310082 1.556315 0.026814 0.000952 1273890.000000 0 0 1
5.576552 -25.957124 0.105103 26.549601 -1.359176 1.566838 0.038475 -0.005451 1070210.000000 0 0 1
4.927852 -25.407724 1.269303 25.912300 -1.379224 1.521792 0.043135 -0.006023 223350.000000 0 0 1
3.463852 -24.960934 1.038003 25.221498 -1.432906 1.529629 0.019964 -0.008933 -118295.000000 0 0 1
2.644852 -26.074774 0.808203 26.221028 -1.469709 1.539969 0.002806 -0.007798 -763070.000000 0 0 1
1.322352 -25.646454 1.030403 25.701186 -1.519281 1.530694 -0.006437 -0.003655 -436268.000000 0 0 1
0.321652 -26.627474 0.434203 26.632957 -1.558717 1.554492 -0.001150 -0.000240 -374015.000000 0 0 1
0.107952 -27.825594 1.150303 27.849570 -1.566917 1.529480 -0.006643 0.001111 -447890.000000 0 0 1
0.919552 -28.917514 0.827503 28.943963 -1.539008 1.542203 -0.012181 -0.001739 -397377.000000 0 0 1
0.535552 -30.161974 1.623103 30.210362 -1.553042 1.517044 -0.009359 0.004690 -15700.300000 0 0 1
0.981152 -30.062044 2.944603 30.221844 -1.538170 1.473209 -0.033477 0.002158 -79127.800000 0 0 1
0.377252 -31.009534 3.786803 31.242174 -1.558631 1.449290 -0.022698 0.006111 -83309.900000 0 0 1
0.417952 -30.662804 5.267803 31.114820 -1.557167 1.400675 -0.027721 -0.000566 438269.000000 0 0 1
1.752652 -30.862164 5.746003 31.441398 -1.514068 1.387011 -0.030370 0.011507 2223.590000 0 0 1
1.797052 -31.143334 7.156903 32.005592 -1.513158 1.345275 -0.019800 0.007480 -516729.000000 0 0 1
3.123152 -31.640484 7.693003 32.711720 -1.472408 1.333397 -0.012174 0.008606 -387833.000000 0 0 1
3.323652 -32.932074 7.100703 33.852447 -1.470212 1.359472 -0.012803 0.011383 743855.000000 0 0 1
4.612852 -33.504644 7.439403 34.629241 -1.433978 1.354278 -0.000930 0.012997 1081430.000000 0 0 1
4.631752 34.473977 7.157403 35.512485 1.437241 1.367860 -0.023207 0.021665 -124304.000000 0 0 1
4.734952 34.191902 5.770203 34.997159 1.433190 1.405164 -0.025502 0.018171 -11057.300000 0 0 1
4.463352 32.869312 5.473503 33.619524 1.435831 1.407261 -0.026093 0.017181 -255818.000000 0 0 1
4.845752 32.437842 3.954303 33.035305 1.422507 1.450809 -0.020923 0.020934 668736.000000 0 0 1
6.238552 32.226642 3.742103 33.037544 1.379578 1.457285 -0.006775 0.022978 567715.000000 0 0 1
6.828452 30.981822 4.272903 32.011853 1.353863 1.436918 -0.011484 0.019232 -1613820.000000 0 0 1
8.214352 30.922542 3.776803 32.217129 1.311150 1.453296 -0.015753 0.015792 -1822450.000000 0 0 1
9.128752 31.712182 4.507203 33.306328 1.290512 1.435054 -0.012029 0.007877 -869617.000000 0 0 1
10.353552 31.749462 3.846403 33.615758 1.255568 1.456123 -0.009457 0.003413 -457742.000000 0 0 1
11.476452 32.188412 4.827803 34.512469 1.228307 1.430450 -0.006785 0.004289 126185.000000 0 0 1
11.979452 31.250812 5.752303 33.958938 1.204741 1.400586 0.000894 -0.000389 260137.000000 0 0 1
13.140352 31.637282 6.491403 34.867245 1.177133 1.383529 0.015624 -0.001033 280486.000000 0 0 1
13.720952 30.465772 7.309503 34.203167 1.147633 1.355427 0.017418 -0.009011 -570253.000000 0 0 1
13.058552 30.195592 8.528103 33.985704 1.162619 1.317153 0.011923 -0.008487 118818.000000 0 0 1
13.794652 29.275072 9.301203 33.672461 1.130446 1.290931 0.004548 -0.012159 6183.220000 0 0 1
13.629352 29.437202 10.848303 34.205172 1.137186 1.248069 -0.000101 -0.004317 -176144.000000 0 0 1
14.266252 30.542092 11.413603 35.589544 1.133812 1.244327 0.012237 -0.011725 199858.000000 0 0 1
13.789452 30.771652 12.771603 36.057695 1.149505 1.208739 0.004527 -0.004771 -29702.300000 0 0 1
14.689152 31.775062 13.525503 37.528189 1.137773 1.202090 0.005620 -0.006214 -1138070.000000 0 0 1
15.801852 31.231842 14.061003 37.720529 1.102397 1.188806 -0.000059 -0.003490 -1512640.000000 0 0 1
16.457352 32.181572 14.811903 39.062648 1.098078 1.181883 0.012182 -0.002415 -732422.000000 0 0 1
17.578352 31.670662 15.707103 39.480911 1.064095 1.161635 0.010139 0.002778 -306521.000000 0 0 1
18.739552 31.271052 15.022203 39.429888 1.030920 1.179935 0.016787 0.001659 -123511.000000 0 0 1
18.864552 29.869162 14.804603 38.304235 1.007484 1.173962 0.009323 0.009444 661709.000000 0 0 1
20.270252 29.364402 14.286303 38.435006 0.966610 1.189956 0.020753 0.003571 1396550.000000 0 0 1
21.347352 29.395892 15.228003 39.391877 0.942701 1.173879 0.014375 0.005243 -297132.000000 0 0 1
22.572352 29.252072 14.591903 39.725539 0.913583 1.194673 0.021141 0.002900 -420701.000000 0 0 1
23.762252 29.236792 15.589903 40.773517 0.888328 1.178454 0.025278 0.007621 22456.100000 0 0 1
23.807852 28.098462 16.445203 40.333387 0.867871 1.150828 0.013486 0.008085 22779.500000 0 0 1
24.593952 28.333612 17.606203 41.444353 0.855937 1.132038 0.012818 0.003969 703671.000000 0 0 1
25.520952 27.154072 18.184903 41.465085 0.816392 1.116801 -0.005729 0.009409 1219880.000000 0 0 1
24.699052 26.023542 18.610803 40.418188 0.811505 1.092287 -0.010833 0.007070 655705.000000 0 0 1
24.334352 26.022712 19.959103 40.837581 0.818913 1.060147 0.005923 0.009957 -200661.000000 0 0 1
23.946352 24.618712 20.505803 39.999959 0.799242 1.032533 0.015357 0.005446 651681.000000 0 0 1
25.027152 23.626762 20.568203 40.095301 0.756623 1.032140 -0.007200 0.010092 724882.000000 0 0 1
24.489652 22.379162 20.787803 39.149747 0.740399 1.011038 0.001525 0.004029 -622124.000000 0 0 1
25.510752 21.300562 20.548803 39.073849 0.695700 1.017027 -0.011332 0.009484 -128506.000000 0 0 1
24.900852 20.021762 20.683403 38.062141 0.677211 0.996301 -0.007428 0.017648 95955.800000 0 0 1
25.911052 19.068262 20.768403 38.292399 0.634424 0.997548 -0.011103 0.011887 -276228.000000 0 0 1
26.403952 18.774262 22.228803 39.290728 0.618097 0.969452 -0.001041 0.020468 -87770.800000 0 0 1
25.503652 18.160562 23.128603 38.925243 0.618785 0.934550 0.000005 0.024265 148488.000000 0 0 1
26.215652 17.840162 24.308803 39.955597 0.597529 0.916759 0.009792 0.025682 -41610.700000 0 0 1
25.414552 17.097762 25.401003 39.792510 0.592206 0.878461 -0.006949 0.022078 -157486.000000 0 0 1
24.969252 15.879762 24.888303 38.665980 0.566451 0.871506 0.000918 0.018912 60908.800000 0 0 1
23.985852 15.359262 25.743003 38.391799 0.569559 0.835868 0.001872 0.023995 -311795.000000 0 0 1
23.275452 14.165062 25.067903 37.024254 0.546707 0.827026 -0.005491 0.028482 -521717.000000 0 0 1
22.157952 13.672662 25.755703 36.623391 0.552865 0.790826 -0.003405 0.022624 -66389.700000 0 0 1
21.678152 12.660162 24.922103 35.374188 0.528576 0.789039 -0.003393 0.023879 111427.000000 0 0 1
20.400252 11.940062 25.461303 34.742097 0.529533 0.748271 -0.006821 0.020967 810645.000000 0 0 1
19.163352 12.560862 25.103403 33.988089 0.580206 0.739814 0.001562 0.018701 992474.000000 0 0 1
18.060252 11.749262 25.485503 33.372574 0.576768 0.701824 -0.000164 0.024985 469933.000000 0 0 1
16.640652 12.309162 25.692003 32.992511 0.636879 0.678170 -0.000861 0.017617 131893.000000 0 0 1
16.415452 12.929462 26.929803 34.085955 0.667159 0.659896 0.006333 0.012762 316632.000000 0 0 1
15.253352 13.730162 27.045703 33.950731 0.732893 0.649120 0.012627 0.015411 120840.000000 0 0 1
14.869952 14.078862 28.544003 35.129616 0.758078 0.622310 0.011469 0.016609 -272778.000000 0 0 1
14.518252 12.925762 29.298303 35.160283 0.727436 0.585785 0.000440 0.022774 -24881.900000 0 0 1
14.890852 12.959762 30.673003 36.476376 0.716172 0.571851 -0.001461 0.015243 308445.000000 0 0 1
16.424052 12.888562 30.963103 37.344053 0.665365 0.593245 0.007682 0.025298 309298.000000 0 0 1
17.151552 14.055162 30.693503 37.865742 0.686500 0.625641 0.022405 0.011436 -1258650.000000 0 0 1
18.504352 13.939762 30.604403 38.384339 0.645625 0.647963 0.013982 0.016711 -1461890.000000 0 0 1
19.195552 15.234062 30.088303 38.805307 0.670841 0.683502 0.023283 0.007020 -354615.000000 0 0 1
18.866752 15.697362 28.800003 37.839155 0.693958 0.705764 0.029785 0.003210 299955.000000 0 0 1
19.199952 14.863562 27.722003 36.852043 0.658776 0.719324 0.029699 0.009761 -326147.000000 0 0 1
19.061852 15.515662 26.328503 36.017774 0.683198 0.751030 0.007400 0.017040 367394.000000 0 0 1
20.058552 16.510862 25.995203 36.751934 0.688688 0.785103 0.005001 0.020645 900956.000000 0 0 1
19.975352 16.783662 24.618003 35.871327 0.698788 0.814425 0.005936 0.014371 438530.000000 0 0 1
21.060652 17.911262 24.333703 36.830605 0.704762 0.849055 -0.001563 0.013196 371886.000000 0 0 1
21.095352 18.187162 22.960603 36.096759 0.711500 0.881383 0.005960 0.009935 87438.300000 0 0 1
22.164552 18.944962 22.412503 36.776341 0.707240 0.915458 0.012230 0.012560 9076.640000 0 0 1
22.510252 20.344162 23.002903 38.075319 0.734896 0.922107 0.022211 0.004254 -344812.000000 0 0 1
21.648552 21.432662 22.665003 37.970003 0.780387 0.931141 0.009404 0.006099 227449.000000 0 0 1
21.953352 22.579262 23.432903 39.253964 0.799452 0.931094 0.019460 0.004481 -323463.000000 0 0 1
20.977652 23.719862 23.158503 39.230218 0.846672 0.939337 -0.002425 0.000382 -249877.000000 0 0 1
21.134852 24.347762 21.885503 38.967560 0.855921 0.974437 0.009870 0.002088 -228063.000000 0 0 1
20.174252 25.341722 21.663203 38.967906 0.898445 0.981322 0.017558 0.003122 -405203.000000 0 0 1
20.568652 26.367382 20.517003 39.233349 0.908321 1.020490 0.011740 0.001153 -253502.000000 0 0 1
20.618752 25.812302 19.260803 38.241161 0.896790 1.042958 0.005672 0.004003 99293.400000 0 0 1
20.863452 26.758542 18.289103 38.546005 0.908561 1.076429 0.006923 0.003237 -159589.000000 0 0 1
21.024452 26.299582 16.829703 37.642190 0.896408 1.107279 0.013001 0.009527 864158.000000 0 0 1
19.771052 25.806852 16.286703 36.361309 0.917060 1.106367 0.021867 0.010066 734381.000000 0 0 1
19.933352 25.481772 14.880703 35.610315 0.906967 1.139690 0.024917 0.008935 -673652.000000 0 0 1
18.603952 25.238032 14.146803 34.397635 0.935577 1.146947 0.024453 0.012633 183404.000000 0 0 1
17.818952 26.415142 14.027803 34.814566 0.977340 1.156081 0.016965 0.015530 -194004.000000 0 0 1
17.038252 26.786512 15.134603 35.169240 1.004272 1.125931 0.011123 0.023040 -1863420.000000 0 0 1
15.582552 27.121742 14.818503 34.612033 1.049307 1.128372 -0.002940 0.025159 -748478.000000 0 0 1
14.840852 26.014842 14.314903 33.195472 1.052368 1.124940 -0.002937 0.018289 15662.800000 0 0 1
14.497852 25.021192 15.253103 32.694111 1.045644 1.085422 0.003346 0.013125 -197851.000000 0 0 1
13.383752 25.364252 16.304303 32.989398 1.085265 1.053849 0.015511 0.013318 133669.000000 0 0 1
13.806752 26.467532 17.088003 34.397042 1.089980 1.050904 0.010071 0.016414 48966.900000 0 0 1
12.861952 26.772052 18.087303 34.775323 1.122931 1.023806 0.006318 0.022201 228939.000000 0 0 1
13.448252 27.994192 18.869703 36.340005 1.122956 1.024818 0.011440 0.010728 -99056.900000 0 0 1
13.410852 29.163132 18.038203 36.820049 1.139776 1.058819 0.010109 0.004274 -273035.000000 0 0 1
14.070252 30.220152 18.649603 38.197346 1.135052 1.060720 0.006061 0.001475 -387346.000000 0 0 1
14.031452 31.519262 17.797403 38.821297 1.151966 1.094552 0.003746 -0.010956 551711.000000 0 0 1
12.719752 32.092472 17.678703 38.784731 1.193443 1.097507 0.007984 -0.006622 516210.000000 0 0 1
12.798152 33.352422 17.062103 39.589040 1.204399 1.125217 0.008651 -0.006311 -667533.000000 0 0 1
11.494552 34.124077 16.937103 39.792497 1.245888 1.131132 0.004806 -0.006827 -674318.000000 0 0 1
11.445252 -34.062349 16.298403 39.457260 -1.246640 1.144980 0.003782 -0.007518 -298216.000000 0 0 1
12.032152 -32.902654 16.895503 38.894927 -1.220213 1.121437 0.011750 -0.014893 -289215.000000 0 0 1
11.666052 -32.531044 18.355003 39.131468 -1.226469 1.082570 0.012362 -0.020535 -212919.000000 0 0 1
12.326752 -33.430724 19.212303 40.480548 -1.217538 1.076280 0.030322 -0.019604 225309.000000 0 0 1
11.919052 -33.270834 20.553403 40.883427 -1.226797 1.044040 0.027679 -0.025128 -616471.000000 0 0 1
12.869552 -33.961754 21.502403 42.206391 -1.208574 1.036241 0.047308 -0.016885 -362374.000000 0 0 1
14.134752 -33.345624 21.520903 42.129220 -1.169869 1.034645 0.050177 -0.021086 -261005.000000 0 0 1
15.039752 -33.903914 22.464403 43.362645 -1.153278 1.026216 0.045048 -0.018944 -703743.000000 0 0 1
16.371152 -33.241624 22.237803 43.215045 -1.113175 1.030273 0.070302 -0.018753 -960003.000000 0 0 1
16.373552 -31.783334 22.436103 42.209623 -1.095093 1.010379 0.076391 -0.023532 -204354.000000 0 0 1
17.594552 -31.184454 22.092603 42.072813 -1.057110 1.017959 0.070969 -0.020725 -354748.000000 0 0 1
-4.662748 13.219566 18.563599 23.261671 -1.231704 0.646771 0.001217 0.016181 -316188.000000 0 1 0
-4.399848 14.511466 17.994999 23.532133 -1.276408 0.700222 0.003148 0.012249 143877.000000 0 1 0
-5.620248 15.170366 17.767099 24.029086 -1.215998 0.738618 0.001041 0.013789 -12101.100000 0 1 0
-5.265948 16.684666 17.518799 24.759172 -1.265075 0.784746 0.004325 0.012617 155519.000000 0 1 0
-4.898648 17.412566 18.713399 26.026630 -1.296556 0.768420 0.009594 0.017953 160643.000000 0 0 1
-4.471148 18.689566 18.450799 26.640627 -1.335977 0.805735 0.005884 0.017482 -758890.000000 0 0 1
-4.040148 19.496166 19.752599 28.046184 -1.366461 0.789376 0.006470 0.012107 180633.000000 0 0 1
-5.063348 19.644866 20.740599 29.012595 -1.318542 0.774340 0.014060 0.013458 35629.700000 0 0 1
-4.606448 20.417566 21.849199 30.256963 -1.348899 0.763932 0.023993 0.011518 -219302.000000 0 0 1
-5.588148 20.543866 23.015299 31.352540 -1.305212 0.746484 0.008161 0.011234 -262103.000000 0 0 1
-5.720048 19.317366 23.781499 31.167920 -1.282913 0.702836 -0.005045 0.006713 64929.100000 0 0 1
-6.223048 19.444666 25.126079 32.375009 -1.261058 0.682347 -0.014163 0.012512 759026.000000 0 0 1
-5.144648 20.154766 26.049769 33.335753 -1.320876 0.673832 -0.023877 0.009930 4077.060000 0 0 1
-4.959248 21.531566 25.675729 33.873965 -1.344420 0.710588 -0.008299 0.013622 -263728.000000 0 0 1
-3.916648 22.174066 26.334119 34.648451 -1.395968 0.707426 -0.013122 0.024601 393545.000000 0 0 1
-2.430948 21.801266 26.024299 34.036287 -1.459750 0.700369 -0.006897 0.022056 -30995.200000 0 0 1
-2.081748 20.504366 26.515269 33.583064 -1.469616 0.660733 0.009955 0.018001 -679822.000000 0 0 1
-0.845848 20.174766 25.947959 32.879069 -1.528895 0.661301 0.023858 0.015183 -238990.000000 0 0 1
-0.232948 18.899666 26.601219 32.632445 -1.558471 0.617762 0.019902 0.021325 -29607.000000 0 0 1
-0.802648 17.649266 26.126429 31.539358 -1.525350 0.594595 0.023794 0.011878 85451.300000 0 0 1
-0.242048 16.476966 26.739269 31.409194 -1.556107 0.552301 0.016201 0.018290 775784.000000 0 0 1
1.266852 16.163166 26.390539 30.972784 1.492577 0.550896 0.016449 0.020944 587084.000000 0 0 1
1.572952 15.788966 25.080539 29.678259 1.471500 0.564079 0.025862 0.011994 -136965.000000 0 0 1
0.979952 14.564866 24.708309 28.698365 1.503616 0.533631 0.027556 0.007407 -413820.000000 0 0 1
1.053052 14.279366 23.181899 27.247195 1.497183 0.553292 0.032805 -0.005075 -410069.000000 0 0 1
2.347452 14.134866 22.681199 26.828003 1.406223 0.563427 0.024303 -0.007619 -648055.000000 0 0 1
2.450352 13.651266 21.351199 25.460459 1.393191 0.576084 0.018395 -0.014713 198874.000000 0 0 1
3.921752 13.491966 20.875499 25.163460 1.287918 0.592413 0.009958 -0.013335 432842.000000 0 0 1
4.392652 14.638166 20.221699 25.347354 1.279264 0.647186 0.012317 -0.013041 198322.000000 0 0 1
5.800352 14.539666 20.011699 25.406968 1.191210 0.663817 0.011007 -0.015859 493550.000000 0 0 1
6.371352 15.706966 19.155499 25.578038 1.185439 0.724389 0.016865 -0.017834 -97844.600000 0 0 1
5.948452 15.578166 17.828499 24.411446 1.206038 0.751986 0.017654 -0.024832 -84905.500000 0 1 0
6.353052 16.589866 17.004399 24.591350 1.205076 0.807262 0.012047 -0.012398 -327754.000000 0 1 0
6.544852 15.990166 15.568699 23.257361 1.182294 0.837383 0.007816 -0.012927 1137520.000000 0 1 0
7.737352 15.260366 15.142199 22.848010 1.101546 0.846330 0.014239 -0.010168 876034.000000 0 1 0
7.962652 14.088666 15.828099 22.636763 1.056372 0.796489 0.026408 -0.011193 -539552.000000 0 1 0
8.888852 13.188466 15.020199 21.875870 0.977743 0.813980 0.019666 -0.017922 -770679.000000 0 1 0
10.193152 13.698266 15.008499 22.733188 0.931069 0.849709 0.007819 -0.022784 -613984.000000 0 1 0
10.964852 12.831066 14.179499 22.043648 0.863664 0.872065 0.010301 -0.011189 -575662.000000 0 1 0
12.427852 13.253566 14.127399 23.015036 0.817539 0.909889 0.022956 -0.008056 -1553680.000000 0 1 0
13.031352 13.037066 15.389199 24.012677 0.785617 0.875155 0.018015 -0.011594 360825.000000 0 1 0
14.273852 13.749066 15.458299 25.134412 0.766673 0.908378 0.021629 -0.011047 -95566.500000 0 0 1
15.455752 13.039466 14.842499 25.084013 0.700804 0.937616 0.025644 -0.009768 -1400500.000000 0 0 1
16.664452 13.785166 14.887699 26.256015 0.691119 0.967912 0.028532 -0.017281 1600.590000 0 0 1
17.520452 13.335566 13.882499 26.029355 0.650594 1.008252 0.028723 -0.012733 -412135.000000 0 0 1
18.920352 13.978866 13.971299 27.360292 0.636312 1.034866 0.027150 -0.009702 200994.000000 0 0 1
19.616052 13.685366 15.204499 28.341762 0.609155 1.004548 0.002284 -0.014897 179926.000000 0 0 1
20.967452 14.063766 15.024299 29.379467 0.590819 1.033997 -0.005977 -0.013708 315617.000000 0 0 1
21.891052 13.789566 16.263299 30.559207 0.562128 1.009611 -0.015662 -0.014748 5242.740000 0 0 1
22.227352 12.430766 16.386799 30.283763 0.509921 0.999042 0.000984 -0.010222 626190.000000 0 0 1
23.035452 12.260666 17.579899 31.464405 0.489115 0.977951 -0.018194 -0.006275 127061.000000 0 0 1
23.457952 10.841866 17.947799 31.463392 0.432939 0.963762 -0.007675 0.006144 -596898.000000 0 0 1
22.360152 10.060066 18.324499 30.609942 0.422779 0.928987 -0.022728 0.009728 215868.000000 0 0 1
22.587152 8.721266 18.064899 30.208947 0.368481 0.929795 -0.023298 0.011550 -95905.600000 0 0 1
21.353252 7.882266 18.451599 29.301075 0.353620 0.889598 0.009099 0.013484 -91380.400000 0 0 1
21.403652 6.556866 18.008499 28.730033 0.297266 0.893334 0.011081 0.014030 577749.000000 0 0 1
20.222252 5.907566 18.456199 28.008393 0.284223 0.851371 0.007219 0.015775 -16953.400000 0 0 1
20.080852 4.419166 18.019499 27.339934 0.216616 0.851187 0.053503 0.012999 -770119.000000 0 0 1
19.545652 4.340466 16.739399 26.097502 0.218522 0.874452 0.056971 -0.003038 315010.000000 0 0 1
19.604452 3.052466 16.135099 25.573296 0.154462 0.888038 0.042076 -0.003408 -449896.000000 0 0 1
18.407652 2.213666 16.552199 24.853918 0.119683 0.841990 0.053095 0.002493 -600577.000000 0 1 0
18.707452 1.567566 17.772399 25.851193 0.083598 0.812771 0.036768 0.000469 -9218.990000 0 0 1
17.526552 1.062966 18.357099 25.402618 0.060575 0.763174 0.043468 -0.001544 -244415.000000 0 0 1
17.745452 0.049166 19.510899 26.373825 0.002771 0.738049 0.025706 -0.001815 -150203.000000 0 0 1
18.032952 -1.253434 19.104099 26.300666 -0.069396 0.757766 0.030369 -0.000976 -39950.800000 0 0 1
17.320852 -2.183834 19.896999 26.470202 -0.125419 0.720198 0.028263 0.004106 199115.000000 0 0 1
17.523752 -3.589834 19.318299 26.328036 -0.202060 0.746966 0.010374 0.006194 27531.400000 0 0 1
17.042252 -3.711634 18.014999 25.074983 -0.214441 0.769232 -0.001761 0.005816 62694.600000 0 0 1
17.011752 -5.079934 17.548699 24.963218 -0.290184 0.791214 0.006406 0.008448 -9149.950000 0 1 0
16.600852 -5.081834 16.007699 23.614820 -0.297061 0.825939 0.002722 0.000147 -561645.000000 0 1 0
15.298952 -4.722334 15.664999 22.399789 -0.299392 0.796327 -0.006225 0.002799 -511102.000000 0 1 0
15.071352 -4.688434 14.243399 21.260326 -0.301593 0.836652 0.000253 -0.001881 237308.000000 0 1 0
15.679552 -3.495534 13.428199 20.937613 -0.219349 0.874548 0.004242 -0.000936 83125.400000 0 1 0
14.952452 -2.279034 13.549599 20.306685 -0.151255 0.840288 0.008761 0.000606 300599.000000 0 1 0
15.610352 -1.202334 12.921199 20.299903 -0.076870 0.880825 0.016674 -0.007094 369622.000000 0 1 0
14.637452 0.051066 12.901999 19.512026 0.003489 0.848335 0.020620 -0.006520 -42574.400000 0 1 0
15.105852 1.357966 12.684499 19.771883 0.089656 0.874289 0.026649 -0.006676 -111193.000000 0 1 0
15.865152 2.007966 13.663799 21.034124 0.125895 0.863736 0.034461 -0.009128 -233322.000000 0 1 0
16.177352 3.415566 13.240199 21.181966 0.208077 0.895576 0.035206 -0.005516 -101305.000000 0 1 0
15.005452 4.205866 13.237799 20.447303 0.273277 0.866614 0.031790 -0.006624 460854.000000 0 1 0
15.253952 5.500166 12.719199 20.608563 0.346063 0.905642 0.040556 -0.002454 490631.000000 0 1 0
13.968952 6.374266 12.836099 20.013203 0.428094 0.874499 0.029171 -0.007981 255747.000000 0 1 0
14.182152 7.621166 12.154699 20.173059 0.493100 0.924140 0.017568 -0.010675 436171.000000 0 1 0
13.191752 8.625966 12.407099 20.059055 0.579106 0.903928 0.006445 0.002157 -705665.000000 0 1 0
13.505252 9.545266 13.626999 21.428929 0.615263 0.881602 0.017266 -0.004202 -163357.000000 0 1 0
13.074952 8.969466 14.840799 21.717619 0.601271 0.818451 0.025079 -0.007676 349788.000000 0 1 0
13.521252 9.636666 16.021299 23.073179 0.619202 0.803254 0.035900 -0.009902 -290402.000000 0 1 0
13.174352 8.986666 17.383799 23.590680 0.598634 0.742334 0.043708 -0.014202 -261908.000000 0 1 0
11.890352 9.425066 17.775599 23.370585 0.670252 0.706564 0.025791 -0.011951 -170749.000000 0 1 0
11.395152 8.643266 18.836599 23.651067 0.648921 0.649415 0.033899 -0.007147 -179694.000000 0 1 0
11.929152 8.967766 20.210699 25.123651 0.644622 0.636049 0.029966 0.000143 -1003000.000000 0 0 1
13.199752 8.497366 20.492599 25.814439 0.571970 0.653695 0.039126 0.001404 -765288.000000 0 0 1
13.763552 9.060666 21.645699 27.204178 0.582194 0.650674 0.031106 0.011892 142196.000000 0 0 1
15.269152 8.684866 21.765699 27.969975 0.517151 0.679032 0.030627 0.009175 162228.000000 0 0 1
15.999752 9.446866 20.853399 27.930263 0.533359 0.727824 0.041747 0.012933 -546478.000000 0 0 1
16.821352 8.711466 20.012699 27.556408 0.477850 0.757953 0.038801 0.005687 -265140.000000 0 0 1
17.595352 9.666666 19.057399 27.680774 0.502373 0.811418 0.033250 0.002344 -143908.000000 0 0 1
18.564752 10.446966 19.701099 29.015899 0.512565 0.824429 0.015322 0.013183 -120299.000000 0 0 1
19.020852 11.439166 18.809499 29.093720 0.541449 0.867790 0.001545 0.006648 378915.000000 0 0 1
19.965352 12.372366 19.695899 30.653207 0.554773 0.872988 -0.005588 0.006583 -91491.000000 0 0 1
19.308552 13.299466 20.602799 31.211717 0.603160 0.849847 -0.002936 0.005951 407356.000000 0 0 1
20.083952 13.875166 21.660999 32.635628 0.604564 0.845012 -0.007568 0.011856 -553227.000000 0 0 1
21.283752 14.713366 21.265799 33.492020 0.604860 0.882851 -0.017799 0.005738 -302143.000000 0 0 1
22.475952 14.065766 20.872499 33.744264 0.559184 0.903901 -0.023350 0.007533 -479025.000000 0 0 1
23.598052 14.835966 21.066999 34.939839 0.561252 0.923602 -0.025154 0.003689 -2024670.000000 0 0 1
24.820552 14.037166 21.201599 35.533218 0.514700 0.931451 -0.031142 0.002522 -1572160.000000 0 0 1
25.303952 13.542366 19.942299 34.948261 0.491400 0.963531 -0.033514 -0.005312 234108.000000 0 0 1
26.482852 12.777466 20.121199 35.629590 0.449534 0.970687 -0.027768 -0.010642 -69669.900000 0 0 1
26.837252 12.057366 18.826099 34.929073 0.422253 1.001570 -0.019564 -0.012474 -763740.000000 0 0 1
27.354952 12.914566 17.841699 35.119875 0.441088 1.037909 -0.021729 -0.018900 109650.000000 0 0 1
27.775252 12.255366 16.643099 34.621544 0.415540 1.069326 -0.020366 -0.023040 8946.250000 0 0 1
26.708252 11.795266 15.603999 33.105042 0.415875 1.079978 -0.019108 -0.030401 16370.900000 0 0 1
25.993052 12.800166 14.958199 32.607218 0.457586 1.094221 -0.013329 -0.030756 -138952.000000 0 0 1
24.882952 12.352266 14.217099 31.206821 0.460775 1.097776 -0.012890 -0.021887 119212.000000 0 0 1
24.524352 13.378266 13.100399 30.855182 0.499389 1.132302 -0.020744 -0.017450 -183701.000000 0 0 1
24.052752 14.619166 13.500299 31.217190 0.546132 1.123573 -0.020431 -0.009357 232768.000000 0 0 1
23.615752 15.380866 12.377799 30.781239 0.577286 1.156964 -0.028446 -0.000984 -172783.000000 0 0 1
23.012152 16.698266 12.777399 31.171351 0.627720 1.148443 -0.017440 0.002971 -351382.000000 0 0 1
21.786152 16.674966 13.485699 30.570492 0.653280 1.113934 -0.002272 -0.006658 482442.000000 0 0 1
21.162252 17.962466 13.724199 30.965218 0.703796 1.111616 0.010593 -0.005388 -196146.000000 0 0 1
20.399752 18.552666 12.474199 30.264780 0.738015 1.145963 0.006237 0.003926 857092.000000 0 0 1
19.254252 17.755666 12.070999 28.839190 0.744929 1.138935 0.026027 0.010818 1012080.000000 0 0 1
18.097452 17.786766 12.899799 28.465621 0.776740 1.100477 0.022117 0.002476 -478280.000000 0 0 1
16.886052 17.306766 12.090899 27.034288 0.797702 1.107116 0.028990 0.012838 -448805.000000 0 0 1
16.810852 15.936366 11.835699 26.012617 0.758700 1.098426 0.031318 0.009292 234575.000000 0 0 1
15.625152 15.716466 11.097699 24.785310 0.788312 1.106545 0.027834 -0.000515 128193.000000 0 1 0
15.627052 14.318166 10.357099 23.589915 0.741717 1.116258 0.030509 -0.006147 -267291.000000 0 1 0
15.867852 13.222666 11.246399 23.518271 0.694718 1.072194 0.041774 0.001351 389253.000000 0 1 0
16.003852 12.140766 10.346499 22.595829 0.648992 1.095171 0.027026 0.005268 -44847.800000 0 1 0
16.482752 10.876366 11.151599 22.678946 0.583278 1.056737 0.033483 0.003296 -515948.000000 0 1 0
16.829452 9.786266 10.321199 22.034713 0.526703 1.083310 0.011950 -0.001212 406402.000000 0 1 0
17.313652 8.613966 10.985499 22.240596 0.461665 1.054182 0.004896 -0.003067 1118810.000000 0 1 0
18.720952 8.733466 11.704199 23.743120 0.436496 1.055318 0.020668 -0.006876 457729.000000 0 1 0
18.652752 9.422466 12.917099 24.567447 0.467760 1.017163 0.033818 -0.011145 -51370.600000 0 1 0
19.862652 9.495966 13.634399 25.895852 0.445960 1.016307 0.032244 -0.012578 -801121.000000 0 0 1
19.586552 9.597866 15.149999 26.557005 0.455634 0.963717 0.038257 -0.002734 85339.500000 0 0 1
19.117652 8.376166 15.735899 26.139305 0.412946 0.924791 0.050349 -0.005589 518641.000000 0 0 1
17.728352 8.108666 15.656999 25.003730 0.428978 0.894144 0.056251 -0.012591 -49717.300000 0 0 1
17.279052 6.788366 16.324499 24.721181 0.374342 0.849519 0.053204 -0.002080 842110.000000 0 1 0
15.926652 6.836166 16.838099 24.164291 0.405446 0.799846 0.048897 -0.005595 1163670.000000 0 1 0
15.483952 5.477366 17.125599 23.728473 0.340007 0.764495 0.052201 -0.002167 -260776.000000 0 1 0
13.994852 5.369766 17.506799 23.047305 0.366372 0.708094 0.041937 -0.012385 -166458.000000 0 1 0
13.507252 4.031766 17.671099 22.604617 0.290070 0.673333 0.039083 -0.007217 217196.000000 0 1 0
13.235452 3.375466 16.447599 21.379767 0.249709 0.693041 0.048884 -0.009114 -412872.000000 0 1 0
13.038152 1.849866 16.553399 21.152551 0.140940 0.672009 0.033335 -0.008543 419659.000000 0 1 0
14.322452 1.214866 16.651199 21.997067 0.084620 0.712127 0.024407 -0.006769 842385.000000 0 1 0
14.294352 -0.267934 16.615599 21.919818 -0.018742 0.710529 0.023189 0.002511 -73296.100000 0 1 0
13.394152 -1.007334 17.637599 22.169865 -0.075066 0.650855 0.022754 0.000599 917419.000000 0 1 0
11.980552 -0.938334 17.407199 21.152415 -0.078162 0.604227 0.020464 -0.003305 351884.000000 0 1 0
11.305252 -1.675634 18.353299 21.620824 -0.147146 0.556950 0.009990 -0.006170 -196601.000000 0 1 0
-24.929248 14.048766 28.847999 40.633019 -0.513183 0.781349 0.034578 -0.003614 -624448.000000 0 0 1
-23.998348 14.205366 29.875989 40.869155 -0.534465 0.750987 0.031686 0.002070 21674.200000 0 0 1
-23.458848 12.945766 30.175249 40.354133 -0.504262 0.726113 0.027773 0.000783 15732.000000 0 0 1
-22.278448 12.994066 31.196439 40.477065 -0.528018 0.690828 0.028798 -0.006380 -5311.010000 0 0 1
-22.676548 13.190466 32.516899 41.779934 -0.526839 0.678859 0.029484 -0.009253 11114.100000 0 0 1
-21.585848 13.304266 33.407105 41.940279 -0.552349 0.649246 0.015619 -0.006754 -364565.000000 0 0 1
-22.026748 13.434466 -34.372600 42.978345 -0.547679 2.497701 0.008516 -0.001562 -290795.000000 0 0 1
-22.518248 12.244666 -33.876687 42.480975 -0.498045 2.493863 0.000934 -0.003648 -144106.000000 0 0 1
-22.931948 12.479866 -32.549537 41.726414 -0.498389 2.465575 -0.019475 0.001927 249093.000000 0 0 1
-23.957648 11.437166 -31.939127 41.531741 -0.445397 2.448118 -0.025672 -0.001379 243891.000000 0 0 1
-23.482448 10.227666 -31.368517 40.497091 -0.410768 2.456858 -0.019407 -0.002185 47122.400000 0 0 1
-22.952948 9.228866 -32.233867 40.632892 -0.382296 2.486998 -0.013932 -0.002563 -441359.000000 0 0 1
-22.183548 8.218366 -31.412787 39.324477 -0.354794 2.496111 -0.013051 0.005627 -323991.000000 0 0 1
-22.974648 7.345866 -30.613067 38.973787 -0.309465 2.474265 -0.014006 0.001063 1212400.000000 0 0 1
-22.113448 6.723566 -29.583497 37.541899 -0.295167 2.478371 -0.013112 0.009815 873783.000000 0 0 1
-22.966148 5.989266 -28.516817 37.101538 -0.255105 2.447470 -0.009453 0.021745 -92411.600000 0 0 1
-23.353448 4.740866 -28.970747 37.512178 -0.200283 2.453254 -0.010641 0.016911 -113918.000000 0 0 1
-23.771248 3.873866 -27.975577 36.914929 -0.161544 2.430791 -0.003946 0.025282 -559486.000000 0 0 1
-24.609048 2.675866 -28.498597 37.748318 -0.108310 2.426395 0.008015 0.022822 191229.000000 0 0 1
-25.913228 2.878466 -28.990187 38.989895 -0.110627 2.409131 0.016575 0.013328 82131.900000 0 0 1
-26.127898 3.816166 -30.028127 39.986480 -0.145032 2.420306 0.015179 0.003246 -1616480.000000 0 0 1
-27.432898 3.677166 -30.765427 41.383535 -0.133248 2.408969 0.030219 -0.007898 -435638.000000 0 0 1
-28.586938 3.796966 -29.906257 41.545327 -0.132049 2.374377 0.031529 -0.006007 1391770.000000 0 0 1
-29.856658 4.050966 -30.528607 42.893195 -0.134857 2.362762 0.043606 -0.018206 989326.000000 0 0 1
-29.999298 5.492366 -31.159947 43.601218 -0.181078 2.366931 0.033526 -0.036854 -740616.000000 0 0 1
-29.146458 5.601266 -32.310967 43.873554 -0.189862 2.398614 0.024975 -0.028481 402507.000000 0 0 1
-29.306788 6.845066 -32.967857 44.638798 -0.229452 2.401709 0.022646 -0.023707 -663464.000000 0 0 1
-28.820978 8.113666 -32.183807 43.957682 -0.274417 2.392276 0.007311 -0.017461 262007.000000 0 0 1
-27.399718 8.113066 -31.985907 42.891312 -0.287875 2.412446 -0.011589 -0.018171 832265.000000 0 0 1
-26.980128 7.748866 -30.640047 41.554599 -0.279679 2.399927 -0.013537 -0.023960 -472009.000000 0 0 1
-27.216228 8.711666 -29.438237 41.027137 -0.309785 2.371047 -0.018574 -0.017205 -106119.000000 0 0 1
-28.513488 8.892366 -28.904877 41.564228 -0.302306 2.339810 -0.009545 -0.021013 114038.000000 0 0 1
-28.894058 7.766766 -28.135787 41.070814 -0.262594 2.325476 -0.002490 -0.001520 -3206.070000 0 0 1
-30.227938 7.815666 -27.326397 41.491503 -0.253017 2.289756 -0.010505 -0.001912 298601.000000 0 0 1
-30.286038 8.771966 -26.287597 41.051544 -0.281923 2.265758 -0.032569 0.003512 -87941.300000 0 0 1
-29.802438 8.288866 -25.038997 39.797512 -0.271271 2.251268 -0.028984 0.012114 -91954.300000 0 0 1
-29.399878 9.399866 -24.010497 39.105169 -0.309453 2.231912 -0.026841 0.001155 -272778.000000 0 0 1
-30.422468 10.093266 -23.333697 39.646715 -0.320343 2.200049 -0.031126 0.005388 -103326.000000 0 0 1
-29.919138 11.221266 -22.660497 39.173585 -0.358817 2.187640 -0.021496 0.006204 -602993.000000 0 0 1
-30.869778 11.930866 -21.725497 39.588963 -0.368806 2.151696 -0.030124 0.009539 -675970.000000 0 0 1
-30.941068 11.354466 -20.433297 38.778773 -0.351713 2.125768 -0.038558 0.007546 35046.600000 0 0 1
-31.564828 12.173466 -19.483297 39.040114 -0.368088 2.093308 -0.044075 0.018350 -488239.000000 0 0 1
-30.671308 13.203366 -18.718897 38.281263 -0.406503 2.081720 -0.039011 0.009140 8021.620000 0 0 1
-29.960558 12.784266 -17.525897 36.989587 -0.403312 2.064404 -0.028653 0.001964 460440.000000 0 0 1
-30.750108 12.436066 -16.386297 36.996427 -0.384314 2.029644 -0.030892 -0.002601 -140461.000000 0 0 1
-31.292128 13.594966 -15.498697 37.473057 -0.409850 1.997196 -0.033935 0.001126 -193073.000000 0 0 1
-31.911608 14.631866 -16.238797 38.679979 -0.429910 2.004048 -0.035118 0.003987 206596.000000 0 0 1
-32.671338 15.474466 -15.419397 39.301822 -0.442338 1.973963 -0.026753 0.005944 286737.000000 0 0 1
-33.575118 16.556166 -16.098997 40.750127 -0.458119 1.976936 -0.024014 0.002833 -26346.800000 0 0 1
-34.682080 16.072166 -16.795497 41.752244 -0.433953 1.984787 -0.036956 0.011147 -83504.900000 0 0 1
34.386701 17.156166 -17.357697 42.167154 0.462782 1.995049 -0.033366 0.006217 -349696.000000 0 0 1
34.085899 16.895466 -18.880397 42.470868 0.460180 2.031467 -0.040733 0.009815 1002920.000000 0 0 1
33.029944 15.913566 -19.190597 41.382336 0.448975 2.053007 -0.020044 0.012034 2221200.000000 0 0 1
31.717134 16.524666 -19.161097 40.573252 0.480307 2.062649 0.000977 0.004556 997459.000000 0 0 1
30.583834 15.521666 -19.618897 39.511949 0.469639 2.090394 0.016316 -0.001417 302763.000000 0 0 1
30.576934 15.182466 -20.990697 40.075747 0.460870 2.122073 0.014852 -0.001726 383301.000000 0 0 1
29.748534 14.041366 -21.212597 39.142170 0.440999 2.143537 0.007974 -0.002612 -73398.400000 0 0 1
30.386104 12.668066 -20.864097 38.975707 0.394993 2.135671 0.003444 0.019849 -3534.740000 0 0 1
30.754004 12.523966 -19.527997 38.522735 0.386724 2.102406 0.014870 0.018218 89979.800000 0 0 1
31.235064 11.229166 -19.320597 38.405844 0.345117 2.097937 -0.012745 0.026197 -266886.000000 0 0 1
31.534464 10.799266 -17.837697 37.805158 0.329941 2.062164 -0.014257 0.026694 -839041.000000 0 0 1
30.430714 10.494666 -17.049697 36.426069 0.332098 2.057894 -0.004241 0.017098 -503636.000000 0 0 1
30.732654 10.086766 -15.753497 35.977931 0.317133 2.024019 -0.034253 0.014485 -627871.000000 0 0 1
30.371114 11.180066 -14.746397 35.564795 0.352721 1.998338 -0.023618 0.002626 -434649.000000 0 0 1
28.986484 11.313366 -14.583997 34.364246 0.372115 2.009089 0.001380 0.010385 -311267.000000 0 0 1
28.642794 12.443166 -13.846897 34.161068 0.409827 1.988149 -0.016601 0.012865 275675.000000 0 0 1
27.101544 12.638166 -13.753697 32.914755 0.436348 2.001883 0.017039 0.012380 391741.000000 0 0 1
26.368144 11.633066 -12.982197 31.609249 0.415494 1.994028 -0.006719 0.012079 590112.000000 0 0 1
25.062294 11.466566 -13.507097 30.692708 0.429092 2.026479 -0.001706 0.009290 -386913.000000 0 0 1
24.961764 10.594666 -14.773497 30.880298 0.401393 2.069641 0.005384 0.001527 -760440.000000 0 0 1
25.357824 9.247966 -14.535797 30.656704 0.349709 2.064792 -0.007480 0.003722 850137.000000 0 0 1
26.745014 8.963866 -14.682597 31.799769 0.323394 2.050730 -0.007841 0.002684 196746.000000 0 0 1
27.327454 7.737966 -13.801697 31.577724 0.275934 2.023136 0.001412 0.004823 -157001.000000 0 0 1
26.740634 6.480766 -14.125097 30.928630 0.237772 2.045078 -0.013702 -0.001566 580093.000000 0 0 1
25.679514 6.051866 -13.296497 29.544193 0.231446 2.037623 0.012913 -0.004156 -112911.000000 0 0 1
25.252274 4.551866 -13.530297 29.008029 0.178341 2.056050 0.015538 -0.001831 -93415.100000 0 0 1
24.629414 4.029966 -12.378397 27.858093 0.162187 2.031231 0.006513 -0.001549 211482.000000 0 0 1
24.049214 2.752866 -12.581097 27.280523 0.113972 2.050115 0.001467 -0.001830 359302.000000 0 0 1
23.206914 2.337066 -11.275697 25.906834 0.100367 2.021101 -0.004893 0.002396 382162.000000 0 0 1
23.997114 1.930066 -10.164797 26.132541 0.080256 1.970311 -0.004131 0.008193 671156.000000 0 0 1
23.177314 1.870166 -9.004397 24.935207 0.080515 1.940256 -0.011250 0.016165 -566897.000000 0 1 0
23.656414 1.048066 -7.755997 24.917460 0.044275 1.887323 -0.017408 0.021432 -643606.000000 0 1 0
23.671014 -0.357034 -7.719297 24.900440 -0.015082 1.885996 -0.029346 0.013974 1109230.000000 0 1 0
24.653314 -0.984834 -8.591997 26.126197 -0.039926 1.905898 -0.011542 0.008071 143819.000000 0 0 1
24.742364 -2.476134 -8.223497 26.190489 -0.099745 1.890187 0.004764 0.001658 -625501.000000 0 0 1
25.594054 -2.661734 -7.107597 26.695662 -0.103626 1.840292 0.008161 0.002070 403033.000000 0 0 1
25.703044 -3.948334 -6.588497 26.826183 -0.152422 1.818934 0.009490 -0.005941 -997766.000000 0 0 1
26.772784 -4.227434 -5.551497 27.667169 -0.156607 1.772821 0.002677 -0.008053 -1348400.000000 0 0 1
28.011544 -4.296434 -6.149897 28.998744 -0.152195 1.784494 0.009534 0.000042 -955923.000000 0 0 1
29.041524 -4.663834 -5.269497 29.881918 -0.159232 1.748067 0.016343 -0.002770 -308220.000000 0 0 1
30.392184 -4.639434 -6.010097 31.326194 -0.151483 1.763849 0.013924 0.004139 -373031.000000 0 0 1
30.447394 -5.728434 -6.897797 31.740169 -0.185968 1.789865 0.002903 0.008032 328518.000000 0 0 1
31.351024 -5.417334 -7.952297 32.794408 -0.171106 1.815727 0.003046 -0.014493 -414641.000000 0 0 1
31.225934 -6.376534 -9.201197 33.171993 -0.201437 1.851861 -0.001472 -0.014421 -765020.000000 0 0 1
30.022564 -6.381934 -9.893697 32.248545 -0.209454 1.882620 0.015794 -0.003215 45046.900000 0 0 1
28.935494 -7.128434 -9.291197 31.215440 -0.241546 1.873024 -0.002837 -0.001591 762085.000000 0 0 1
27.680264 -6.201234 -9.217397 29.826376 -0.220392 1.884975 -0.004788 -0.002527 -675129.000000 0 0 1
27.083604 -5.883434 -10.501997 29.638292 -0.213909 1.933003 -0.012511 -0.000599 760591.000000 0 0 1
25.777244 -5.342534 -10.416697 28.311067 -0.204364 1.947586 0.013776 0.000254 828584.000000 0 0 1
24.595314 -6.278234 -9.984297 27.276947 -0.249924 1.945540 0.024347 0.003745 -834875.000000 0 0 1
24.569114 -6.838734 -8.702997 26.947204 -0.271475 1.899657 0.009030 -0.001906 8788.360000 0 0 1
23.329414 -7.323334 -8.280997 25.816035 -0.304169 1.897338 0.014307 -0.008164 -586073.000000 0 0 1
22.272214 -6.356234 -7.707497 24.410218 -0.277998 1.892042 0.022498 -0.005076 108216.000000 0 1 0
21.614214 -5.517934 -8.709497 23.947383 -0.249953 1.943026 0.006669 -0.000764 739983.000000 0 1 0
21.368614 -4.239534 -8.146297 23.258406 -0.195857 1.928636 0.002549 -0.000782 -362067.000000 0 1 0
21.113114 -3.273834 -9.312097 23.306581 -0.153837 1.981820 -0.008221 0.006293 -102259.000000 0 1 0
22.253714 -3.025634 -10.122497 24.634268 -0.135132 1.994250 -0.013857 0.008193 564971.000000 0 1 0
21.926614 -2.365434 -11.294997 24.777987 -0.107464 2.044121 -0.017752 0.010881 -223550.000000 0 1 0
23.135714 -2.163434 -12.237497 26.262102 -0.093239 2.055533 -0.007279 0.003567 363291.000000 0 0 1
24.122814 -1.253134 -11.737097 26.855910 -0.051901 2.023101 -0.006652 0.002389 992330.000000 0 0 1
25.325854 -1.270534 -12.488297 28.266069 -0.050125 2.028414 0.005676 0.006469 -313130.000000 0 0 1
26.365764 -0.298834 -11.937397 28.943812 -0.011334 1.995920 0.014606 0.003503 -3867.040000 0 0 1
27.625074 -0.568534 -12.557797 30.350720 -0.020577 1.997372 0.017819 0.002465 747873.000000 0 0 1
28.722794 0.289766 -12.354297 31.268378 0.010088 1.976979 0.019714 -0.000097 145767.000000 0 0 1
28.787134 1.658166 -13.098797 31.670602 0.057537 1.997195 0.022546 0.000328 -379521.000000 0 0 1
28.663414 1.434066 -14.446597 32.130235 0.049990 2.037143 0.014835 -0.002344 439173.000000 0 0 1
28.869724 2.550266 -15.285597 32.766054 0.088108 2.056134 0.019952 0.002546 -192568.000000 0 0 1
29.047994 2.208166 -16.780397 33.619096 0.075872 2.093394 0.007809 -0.008822 -560467.000000 0 0 1
27.907194 1.640766 -17.345397 32.899337 0.058726 2.126129 0.014508 -0.003578 -417943.000000 0 0 1
28.156854 1.261066 -18.682397 33.814651 0.044757 2.156150 0.003740 -0.007649 52827.900000 0 0 1
26.922594 0.725466 -19.479197 33.238403 0.026940 2.196965 -0.010771 -0.000456 -63316.700000 0 0 1
26.721464 -0.695134 -19.344397 32.995841 -0.026008 2.197240 0.003901 0.003904 233392.000000 0 0 1
26.405544 -1.302534 -20.561197 33.491971 -0.049288 2.231806 -0.013553 0.001861 -163758.000000 0 0 1
26.383924 -2.802834 -20.415597 33.477812 -0.105836 2.226636 -0.010070 0.002108 1109510.000000 0 0 1
25.051154 -3.273034 -20.060197 32.259643 -0.129918 2.241881 0.001690 0.002801 1501420.000000 0 0 1
24.874474 -4.693634 -20.144797 32.350927 -0.186500 2.242980 0.002641 -0.002654 79283.300000 0 0 1
25.675384 -5.525734 -19.077997 32.461193 -0.211982 2.199031 -0.010583 -0.000565 -93753.800000 0 0 1
27.065924 -5.511734 -19.209197 33.644267 -0.200894 2.178459 -0.009959 -0.010743 -212604.000000 0 0 1
27.753524 -5.733834 -17.991997 33.568540 -0.203732 2.136462 -0.010454 -0.002314 577503.000000 0 0 1
29.295954 -5.542534 -17.907897 34.780244 -0.186981 2.111672 -0.000718 -0.003056 39871.800000 0 0 1
29.976354 -6.433834 -18.657197 35.889650 -0.211423 2.117470 -0.004531 -0.006210 394367.000000 0 0 1
31.317254 -5.995834 -18.978197 37.106500 -0.189166 2.107670 0.011830 -0.004908 914364.000000 0 0 1
32.046664 -7.087734 -19.770697 38.315859 -0.217665 2.112962 0.007771 -0.001205 -389231.000000 0 0 1
32.315064 -8.157334 -18.959897 38.344271 -0.247266 2.088015 0.002193 -0.001763 122152.000000 0 0 1
33.140764 -9.024434 -19.743497 39.617626 -0.265860 2.092492 -0.001164 0.004269 -329849.000000 0 0 1
33.778814 -10.052534 -18.856797 39.970495 -0.289252 2.062091 0.001629 0.005616 -580713.000000 0 0 1
32.865754 -11.003434 -18.284497 39.186173 -0.323069 2.056246 -0.013356 -0.001205 569534.000000 0 0 1
33.523414 -11.871334 -17.345297 39.567754 -0.340341 2.024580 -0.004280 0.004210 -56721.000000 0 0 1
34.171364 -11.184334 -16.081897 39.387801 -0.316312 1.991383 0.007193 -0.003370 -201808.000000 0 0 1
34.524858 -12.029734 -14.969597 39.506571 -0.335282 1.959419 -0.012043 -0.008103 166012.000000 0 0 1
-34.463081 -13.157634 -15.115597 39.866133 0.364710 1.959683 0.005534 -0.009814 -839148.000000 0 0 1
-32.978928 -12.887134 -15.353497 38.592976 0.372523 1.979948 0.013240 -0.010964 -810539.000000 0 0 1
-32.743198 -12.486334 -16.661097 38.802290 0.364319 2.014607 0.019956 -0.007569 -145139.000000 0 0 1
-31.403378 -12.637134 -17.080197 37.915728 0.382585 2.038097 0.011443 -0.000644 -200626.000000 0 0 1
-31.110908 -11.725634 -18.321697 37.961345 0.360434 2.074464 0.030035 0.003075 148605.000000 0 0 1
-31.121238 -10.343634 -18.162397 37.488597 0.320879 2.076563 0.032444 -0.003768 -314859.000000 0 0 1
-32.390798 -9.815734 -18.398197 38.522800 0.294244 2.068709 0.031236 -0.009761 -835006.000000 0 0 1
-32.549388 -8.307234 -18.327997 38.267326 0.249885 2.070250 0.029707 -0.007206 -651411.000000 0 0 1
-33.857848 -7.852734 -18.464097 39.356603 0.227903 2.059123 0.027478 -0.007765 -674768.000000 0 0 1
-33.882068 -6.410234 -18.344097 39.058821 0.186983 2.059694 0.029330 -0.009445 -15716.500000 0 0 1
23.166952 27.684666 -27.408357 45.325119 0.874007 2.220193 0.030745 0.019597 -218498.000000 0 0 1
23.856352 26.830466 -26.540027 44.647199 0.844007 2.207364 0.030040 0.011364 -677494.000000 0 0 1
25.177352 26.700266 -26.955177 45.534435 0.814746 2.204302 0.019268 0.012702 -448630.000000 0 0 1
26.052052 25.742466 -26.084467 44.964245 0.779421 2.189667 0.000609 0.011541 -132863.000000 0 0 1
26.234052 26.247666 -24.787497 44.627182 0.785658 2.159682 0.010317 0.016716 223109.000000 0 0 1
26.534752 25.165966 -23.890197 43.682495 0.758929 2.149460 0.002872 0.011239 -184507.000000 0 0 1
27.093352 25.664666 -22.554997 43.605649 0.758325 2.114430 0.019920 0.011773 -121300.000000 0 0 1
26.194452 26.409366 -21.784197 43.106323 0.789484 2.100595 0.027579 0.007416 -315095.000000 0 0 1
26.906752 27.280066 -20.978397 43.683732 0.792287 2.071717 0.016587 0.007200 -372237.000000 0 0 1
26.008252 28.250566 -20.259397 43.416204 0.826701 2.056275 0.027207 0.009106 -45750.000000 0 0 1
25.230052 27.646766 -19.200297 42.066026 0.831071 2.044778 0.035146 0.008521 119667.000000 0 0 1
24.510052 28.643566 -18.539197 42.010693 0.863007 2.027840 0.034701 0.006142 -192497.000000 0 0 1
23.318452 28.206766 -17.664997 40.637716 0.879987 2.020495 0.032984 0.006139 -58695.500000 0 0 1
22.357052 27.531766 -18.456097 39.980788 0.888753 2.050622 0.038462 0.008095 -562593.000000 0 0 1
21.226652 27.331066 -17.670997 38.856428 0.910457 2.042918 0.018307 0.014804 56954.100000 0 0 1
20.042152 26.535766 -18.318497 37.965801 0.923919 2.074303 0.006022 0.009240 275485.000000 0 0 1
19.588852 27.085566 -19.507597 38.702678 0.944655 2.099063 0.010428 0.014358 -201896.000000 0 0 1
18.971452 26.079266 -20.306397 38.110285 0.941882 2.132741 0.006402 0.018617 258125.000000 0 0 1
18.076352 26.553866 -21.494797 38.650855 0.973112 2.160515 -0.001653 0.028612 34656.700000 0 0 1
16.999852 27.336466 -21.066797 38.471902 1.014448 2.150277 -0.015689 0.033606 -211207.000000 0 0 1
15.900252 27.226966 -21.994497 38.443251 1.042233 2.179896 -0.019061 0.022119 -67721.100000 0 0 1
14.878652 28.277466 -21.612897 38.575985 1.086435 2.165506 -0.009988 0.029391 -730784.000000 0 0 1
14.388252 27.992166 -20.308797 37.457047 1.096004 2.143836 -0.013120 0.032379 -1117700.000000 0 0 1
13.475352 28.914766 -19.931497 37.615334 1.134686 2.129252 -0.026785 0.027872 -775193.000000 0 0 1
13.092552 28.794566 -18.464697 36.626315 1.144050 2.099179 -0.020921 0.026310 -349560.000000 0 0 1
12.254052 27.747866 -18.061397 35.303256 1.154932 2.107851 -0.022171 0.034853 -315585.000000 0 0 1
12.112952 27.654266 -16.661697 34.483244 1.157955 2.075082 0.000156 0.035906 318005.000000 0 0 1
11.312352 26.414166 -16.119497 32.947164 1.166161 2.082029 0.016833 0.027948 -43599.400000 0 0 1
12.046652 25.252466 -16.139797 32.300184 1.125678 2.094027 -0.020411 0.032896 -418738.000000 0 0 1
11.195552 24.166666 -15.857897 30.997435 1.136967 2.107828 0.029096 0.026843 431271.000000 0 0 1
11.894752 22.816366 -16.268897 30.442547 1.090234 2.134610 -0.002371 0.025727 187517.000000 0 0 1
12.178252 22.702866 -17.632297 31.219030 1.078440 2.170979 -0.004533 0.026872 56670.300000 0 0 1
12.984752 21.569566 -17.968797 30.931013 1.028912 2.190669 -0.008640 0.029518 609042.000000 0 0 1
12.129552 20.240666 -18.169097 29.781314 1.030916 2.226963 0.000574 0.012292 530156.000000 0 0 1
11.705252 19.644066 -16.957597 28.468620 1.033421 2.208882 0.001242 0.007844 -15780.000000 0 0 1
11.299652 18.281266 -17.080097 27.452077 1.017174 2.242319 0.011393 0.002511 433031.000000 0 0 1
12.517852 17.309366 -17.264197 27.465674 0.944680 2.250514 0.006420 0.001441 625541.000000 0 0 1
13.123952 16.984166 -16.027697 26.787815 0.912914 2.212200 0.003510 -0.004455 141371.000000 0 0 1
14.191252 16.048966 -16.099197 26.798229 0.846753 2.215243 0.005758 0.000414 -611650.000000 0 0 1
14.796552 15.639166 -14.736597 26.090012 0.813076 2.171032 0.024973 -0.000310 -817541.000000 0 0 1
15.563152 16.608566 -14.020597 26.732626 0.817882 2.122895 0.001540 0.007463 1453200.000000 0 0 1
16.822752 17.036866 -14.600697 28.043540 0.791722 2.118401 -0.007710 0.013663 678951.000000 0 0 1
17.851052 15.923966 -15.001897 28.236318 0.728403 2.130928 -0.005037 0.003321 -1129680.000000 0 0 1
18.270152 14.995266 -14.039197 27.491007 0.687267 2.106776 0.009859 0.008942 602032.000000 0 0 1
18.995752 15.481866 -12.897197 27.692317 0.683831 2.055258 0.004287 0.007771 -324302.000000 0 0 1
19.713352 14.380166 -12.125197 27.247492 0.630228 2.031973 0.009534 0.007824 -33307.400000 0 0 1
18.726852 13.534966 -11.525197 25.820930 0.625836 2.033480 0.018659 0.002335 932593.000000 0 0 1
19.338852 12.521566 -10.750697 25.423577 0.574603 2.007399 0.023610 0.006446 -99032.500000 0 0 1
19.900152 11.279266 -11.480597 25.593788 0.515645 2.035961 0.025627 -0.002038 64180.300000 0 0 1
21.152852 11.449366 -12.157197 26.950483 0.496115 2.038787 0.022378 0.000794 856204.000000 0 0 1
21.501552 10.410066 -13.052197 27.222161 0.450891 2.070846 0.011635 -0.001588 -154030.000000 0 0 1
22.130252 9.120966 -12.391897 26.953648 0.390936 2.048508 0.009785 0.005607 -217653.000000 0 0 1
21.208852 8.449266 -11.557197 25.588558 0.379112 2.039416 0.006977 -0.002609 466925.000000 0 0 1
21.865052 7.523966 -10.741897 25.496645 0.331417 2.005682 -0.002982 0.016878 -529112.000000 0 0 1
22.196452 6.142166 -11.361797 25.680714 0.269963 2.029098 0.009604 0.005684 -1169390.000000 0 0 1
21.143552 5.349766 -11.745597 24.771532 0.247820 2.064803 0.024859 -0.005298 -649427.000000 0 1 0
20.714152 5.777066 -13.020497 25.139290 0.271983 2.115230 0.019939 -0.013267 -298776.000000 0 0 1
19.326652 5.231966 -13.418097 24.102661 0.264376 2.161212 0.004902 -0.011128 -234391.000000 0 1 0
19.424752 3.989066 -14.098197 24.330902 0.202544 2.188833 -0.016384 -0.006024 201200.000000 0 1 0
18.203152 3.296866 -14.227797 23.337829 0.179173 2.226409 -0.026245 0.010427 -798906.000000 0 1 0
18.337452 2.054666 -15.116097 23.853305 0.111582 2.257137 -0.033028 0.014634 -582881.000000 0 1 0
19.150052 1.030566 -14.617697 24.113557 0.053763 2.222073 -0.052758 0.010414 84325.200000 0 1 0
20.522152 1.179866 -14.916997 25.398181 0.057429 2.198547 -0.014360 0.008832 21256.800000 0 0 1
21.276952 -0.193634 -15.086997 26.083781 -0.009100 2.187569 0.002521 0.002951 42614.200000 0 0 1
20.764652 -0.930234 -16.178797 26.339885 -0.044769 2.232209 -0.004138 -0.000954 -274063.000000 0 0 1
21.384752 -2.131634 -16.457097 27.068201 -0.099352 2.224318 0.003244 -0.007709 -740940.000000 0 0 1
20.780452 -2.890434 -17.676997 27.434613 -0.138207 2.270946 0.007810 -0.005128 13547.400000 0 0 1
19.682652 -3.687734 -17.304997 26.466376 -0.185212 2.283456 0.008406 -0.001778 -59633.500000 0 0 1
19.035752 -4.331034 -18.378297 26.811928 -0.223713 2.326021 0.010068 -0.004553 -250777.000000 0 0 1
18.048652 -5.362034 -17.810697 25.917681 -0.288783 2.328428 0.007646 -0.002632 -595441.000000 0 0 1
18.620352 -6.359134 -17.000797 26.003523 -0.329096 2.283376 0.004247 0.001626 555373.000000 0 0 1
17.792552 -7.520634 -16.750197 25.567635 -0.399908 2.285155 0.014215 0.006233 717464.000000 0 0 1
18.654952 -8.638834 -15.980697 26.038805 -0.433682 2.231568 0.010071 0.001249 568950.000000 0 0 1
19.308352 -9.532934 -16.834997 27.333247 -0.458612 2.234345 0.018806 0.001982 81539.100000 0 0 1
19.963152 -10.566434 -16.169997 27.778513 -0.486810 2.192111 0.017924 -0.001032 -380853.000000 0 0 1
20.670352 -11.547334 -17.089897 29.200496 -0.509454 2.195998 0.023576 -0.001845 -348689.000000 0 0 1
21.718852 -10.986334 -17.837197 30.175713 -0.468311 2.203232 0.019874 -0.002779 139257.000000 0 0 1
22.354752 -11.877734 -18.769997 31.513938 -0.488396 2.208820 0.029495 -0.001824 5725.340000 0 0 1
21.680652 -11.952634 -20.202997 31.954299 -0.503844 2.255246 0.038706 -0.000627 1313360.000000 0 0 1
20.342052 -12.506434 -20.202097 31.278342 -0.551236 2.272973 0.030421 -0.003664 892602.000000 0 0 1
20.232252 -13.899334 -19.974597 31.646801 -0.601940 2.253861 0.023078 0.005431 96067.800000 0 0 1
18.725352 -14.294334 -19.881797 30.826168 -0.652002 2.271774 0.019242 0.012500 741592.000000 0 0 1
18.099152 -14.109834 -21.186097 31.233274 -0.662168 2.316268 0.015460 0.015742 -307545.000000 0 0 1
16.706952 -14.276434 -21.082597 30.453484 -0.707113 2.335452 0.013168 0.017722 152087.000000 0 0 1
15.961852 -13.642534 -22.333697 30.654420 -0.707214 2.387019 0.019202 0.011811 -60234.400000 0 0 1
16.308452 -14.165134 -23.581597 31.979811 -0.715180 2.399995 0.007206 0.014843 161873.000000 0 0 1
15.855252 -13.449934 -24.736797 32.314066 -0.703504 2.442633 0.016262 0.007700 -102820.000000 0 0 1
15.713652 -14.307734 -26.000267 33.580411 -0.738602 2.456355 0.014052 0.002921 -33221.800000 0 0 1
14.743052 -15.360734 -26.016937 33.618310 -0.805914 2.455760 0.008750 0.006683 203910.000000 0 0 1
14.648452 -16.015134 -27.240857 34.829958 -0.829939 2.468841 0.012923 -0.004353 -61400.800000 0 0 1
15.650752 -17.180834 -27.292397 35.846925 -0.831968 2.436204 0.003464 -0.007175 840303.000000 0 0 1
17.057752 -16.901434 -27.282867 36.345291 -0.780795 2.419853 0.010395 -0.007438 865003.000000 0 0 1
17.766852 -18.147134 -27.539037 37.461688 -0.795986 2.396648 0.010246 -0.008311 295492.000000 0 0 1
19.289752 -17.950834 -27.432597 38.037802 -0.749460 2.376319 0.006121 -0.006310 -183988.000000 0 0 1
19.727752 -17.476934 -26.173067 37.143732 -0.724974 2.352716 0.010225 0.000583 -372788.000000 0 0 1
21.095652 -17.150034 -26.225217 37.774491 -0.682597 2.338184 0.011803 0.001835 -76564.200000 0 0 1
21.677552 -16.552134 -24.922397 36.946113 -0.652124 2.311166 0.013680 0.010463 188575.000000 0 0 1
21.386052 -15.132634 -24.647697 35.970388 -0.615804 2.325705 0.016674 0.008341 -199683.000000 0 0 1
20.023752 -14.859134 -24.369197 34.865488 -0.638410 2.344723 0.030081 0.006831 311940.000000 0 0 1
19.810752 -13.397134 -23.773997 33.721685 -0.594612 2.353228 0.030749 0.008608 -18343.600000 0 0 1
19.995352 -12.388634 -24.750997 34.145339 -0.554689 2.381645 0.030077 0.000492 91076.700000 0 0 1
19.725452 -11.201834 -24.056897 33.065221 -0.516473 2.385553 0.037091 -0.000928 73175.000000 0 0 1
19.824452 -9.988934 -24.957697 33.401711 -0.466738 2.414633 0.050708 -0.005147 -80965.400000 0 0 1
19.529852 -8.804734 -24.200797 32.320536 -0.423548 2.417008 0.063527 -0.007632 188919.000000 0 0 1
19.360052 -7.687634 -25.063797 32.589956 -0.377993 2.448173 0.054403 -0.007637 -590723.000000 0 0 1
18.778152 -6.522434 -24.326997 31.415982 -0.334305 2.456485 0.057644 -0.013523 -425108.000000 0 0 1
17.454752 -6.686634 -23.875797 30.322155 -0.365839 2.477383 0.042524 -0.001276 -75036.900000 0 0 1
17.098352 -5.869534 -22.761697 29.067162 -0.330676 2.470387 0.021718 0.001989 211738.000000 0 0 1
17.874052 -6.159934 -21.407397 28.560517 -0.331883 2.418171 0.027586 -0.010982 11985.000000 0 0 1
17.601952 -7.337734 -20.689497 28.137632 -0.394965 2.396900 0.032675 -0.010533 146918.000000 0 0 1
17.684552 -8.586134 -21.384997 29.047946 -0.451993 2.398229 0.042621 -0.007629 -282258.000000 0 0 1
17.253552 -9.671334 -20.381997 28.401506 -0.510901 2.371201 0.039057 -0.004814 61447.700000 0 0 1
15.897652 -9.636934 -20.002397 27.307540 -0.544956 2.392763 0.021140 -0.001298 -261536.000000 0 0 1
15.639952 -10.678834 -19.079197 26.882361 -0.599083 2.359910 0.020056 0.000317 620952.000000 0 0 1
14.183052 -10.734234 -18.476597 25.646976 -0.647861 2.375204 0.004963 0.002444 680460.000000 0 0 1
13.852952 -9.895634 -17.381897 24.330191 -0.620281 2.366587 0.016252 0.000371 135577.000000 0 1 0
13.972752 -8.500034 -17.690497 24.092365 -0.546521 2.395399 0.027429 -0.008287 -1061120.000000 0 1 0
12.846952 -7.615834 -17.173997 22.759422 -0.535118 2.425823 0.029724 -0.000972 -304605.000000 0 1 0
11.777252 -7.602934 -18.108997 22.900743 -0.573248 2.482846 0.019878 -0.003939 560384.000000 0 1 0
10.822752 -6.578734 -17.748297 21.803985 -0.546180 2.521790 0.011880 -0.001126 1294190.000000 0 1 0
9.293052 -6.793134 -18.020097 21.382969 -0.631224 2.573133 0.012309 -0.002556 1128920.000000 0 1 0
8.821452 -6.609934 -19.369197 22.286207 -0.643054 2.624199 -0.000046 -0.003693 506401.000000 0 1 0
7.451452 -6.225234 -19.451797 21.740517 -0.695980 2.678613 0.002500 -0.011203 526784.000000 0 1 0
7.019352 -5.788834 -20.849597 22.748354 -0.689619 2.730118 -0.001964 -0.011387 35846.900000 0 1 0
7.159052 -6.864534 -21.718797 23.876348 -0.764400 2.713204 0.009112 -0.004872 161130.000000 0 1 0
6.484452 -6.633534 -22.943097 24.747476 -0.796762 2.757365 0.013976 -0.008740 -175546.000000 0 1 0
6.541752 -7.758234 -23.992997 26.050885 -0.870263 2.741449 0.016928 -0.005176 129276.000000 0 0 1
5.734052 -8.915434 -23.634297 25.902593 -0.999244 2.719979 0.013455 -0.006396 646877.000000 0 0 1
5.550452 -9.719034 -24.804697 27.212867 -1.051905 2.717728 0.012134 0.005366 278820.000000 0 0 1
4.772052 -11.087934 -24.616697 27.417085 -1.164376 2.685680 0.018993 -0.000510 523053.000000 0 0 1
5.516452 -12.011134 -23.873897 27.288487 -1.140254 2.635965 0.017613 -0.008334 288852.000000 0 0 1
4.653752 -13.117234 -23.580597 27.381815 -1.229868 2.608378 0.025544 -0.014281 209359.000000 0 0 1
5.314352 -14.253934 -22.743497 27.362084 -1.213926 2.552068 0.027050 -0.009690 459030.000000 0 0 1
6.378652 -15.047834 -23.316097 28.473933 -1.169865 2.530214 0.027193 -0.006978 834856.000000 0 0 1
7.675152 -14.491134 -23.502297 28.657615 -1.083715 2.532393 0.033224 -0.004273 770009.000000 0 0 1
8.438352 -14.051534 -22.195497 27.591511 -1.029988 2.505515 0.023635 0.001655 -495495.000000 0 0 1
8.945952 -15.179534 -21.463697 27.769382 -1.038250 2.454237 0.020566 0.011538 -20335.400000 0 0 1
8.120152 -15.617434 -20.404097 26.947510 -1.091323 2.429780 0.008398 0.003951 -102104.000000 0 0 1
8.869852 -15.786134 -19.067297 26.295211 -1.058881 2.382011 0.004667 0.004858 -73859.200000 0 0 1
9.765352 -16.875834 -19.028097 27.243795 -1.046217 2.344009 0.006064 0.006637 -458734.000000 0 0 1
10.196652 -17.252434 -17.716297 26.748558 -1.037001 2.294717 -0.006470 0.008103 -309052.000000 0 0 1
9.133152 -17.922834 -16.778397 26.194600 -1.099513 2.265983 -0.008956 0.006149 -97417.000000 0 0 1
8.750752 -19.276034 -17.156997 27.248921 -1.144645 2.251885 -0.015830 0.004513 -12436.600000 0 0 1
8.089852 -19.489034 -18.380397 27.984052 -1.177343 2.287386 -0.009264 0.004036 69921.000000 0 0 1
6.576852 -19.121034 -18.475497 27.390015 -1.239513 2.311130 -0.003962 0.001425 330850.000000 0 0 1
6.403252 -17.726734 -18.212697 26.209561 -1.224161 2.339060 -0.002842 -0.005170 -422521.000000 0 0 1
5.028052 -17.411534 -18.313197 25.764627 -1.289667 2.361415 0.004160 -0.001210 252032.000000 0 0 1
4.682152 -15.954734 -17.986697 24.494843 -1.285346 2.395439 0.010049 0.004099 43451.500000 0 1 0
4.623352 -15.682534 -16.571097 23.279143 -1.284109 2.362915 0.000726 0.003989 -145271.000000 0 1 0
4.111352 -14.456634 -16.248497 22.133936 -1.293720 2.395135 -0.003247 0.010604 -101221.000000 0 1 0
10.020052 30.403166 -18.224297 36.835837 1.252434 2.088336 0.016547 0.004205 -785306.000000 0 0 1
9.061852 29.879066 -19.088497 36.595716 1.276329 2.119527 0.041168 0.000735 -272588.000000 0 0 1
7.983252 29.369866 -18.313897 35.520700 1.305391 2.112485 0.030746 0.005992 45517.400000 0 0 1
6.843652 28.691066 -19.077897 35.128037 1.336643 2.144916 0.029285 -0.004909 194359.000000 0 0 1
6.060052 29.722366 -19.705297 36.172392 1.369665 2.146900 0.029066 -0.013893 170039.000000 0 0 1
5.026852 29.116266 -20.484697 35.953428 1.399834 2.177006 0.017763 -0.020239 545390.000000 0 0 1
4.123352 30.093866 -21.306797 37.102862 1.434628 2.182500 0.007451 -0.010634 -28450.500000 0 0 1
3.442252 30.961166 -20.450297 37.264695 1.460071 2.151706 0.005741 -0.014642 -28119.600000 0 0 1
2.355852 31.639366 -21.081297 38.092264 1.496474 2.157270 -0.008765 -0.015554 -628903.000000 0 0 1
0.998452 31.160666 -20.613297 37.375018 1.538765 2.154989 -0.022122 -0.006670 -945433.000000 0 0 1
0.723152 29.811666 -21.009797 36.478348 1.546544 2.184565 -0.019197 -0.010475 -79857.800000 0 0 1
0.425652 29.647066 -22.397797 37.158996 1.556440 2.217747 -0.022629 -0.011443 -649552.000000 0 0 1
0.000452 28.193566 -22.713297 36.204571 1.570780 2.248955 -0.020173 -0.006831 217179.000000 0 0 1
-0.966948 27.738466 -21.775297 35.277769 -1.535951 2.236042 -0.024727 -0.009218 -80206.500000 0 0 1
-1.527448 26.548766 -22.248497 34.672261 -1.513326 2.267483 -0.013764 -0.009531 170707.000000 0 0 1
-2.700848 25.986766 -21.402997 33.774174 -1.467236 2.257135 -0.014718 -0.006320 201623.000000 0 0 1
-3.867248 26.771166 -21.381597 34.479321 -1.427333 2.239702 -0.005615 -0.010442 702921.000000 0 0 1
-4.974148 26.073166 -20.765697 33.701132 -1.382285 2.234670 0.002443 -0.016454 978698.000000 0 0 1
-6.115448 27.019466 -20.296997 34.342660 -1.348212 2.203112 0.016164 -0.025608 -641684.000000 0 0 1
-7.332548 26.415566 -20.043097 33.959889 -1.300029 2.202102 0.019513 -0.026488 -765719.000000 0 0 1
-8.145648 27.412566 -19.372797 34.541361 -1.281956 2.166218 0.019947 -0.026640 -31017.600000 0 0 1
-9.374348 26.758066 -18.767897 34.001565 -1.233821 2.155523 0.011887 -0.020462 -562630.000000 0 0 1
-9.026848 25.840966 -17.792697 32.646892 -1.234725 2.147191 0.009621 -0.024674 -440612.000000 0 0 1
-10.152648 25.615566 -16.967397 32.359327 -1.193443 2.122740 0.000461 -0.022114 -174114.000000 0 0 1
-10.015148 24.860366 -15.636197 31.029528 -1.187830 2.098920 0.012457 -0.009707 -289884.000000 0 0 1
-9.577848 23.535966 -15.764597 29.903166 -1.184317 2.126085 0.021502 -0.017569 -149123.000000 0 0 1
-9.838448 22.847166 -14.556297 28.821412 -1.164175 2.100238 0.033908 -0.007530 -97668.700000 0 0 1
-9.199148 21.416466 -14.569797 27.487603 -1.165090 2.129456 0.049596 -0.006081 -239093.000000 0 0 1
-9.923248 20.451466 -15.305497 27.404225 -1.119051 2.163383 0.014286 -0.002294 -284999.000000 0 0 1
-10.011948 20.631866 -16.725397 28.384007 -1.119005 2.200932 0.016412 -0.004367 71382.600000 0 0 1
-8.725748 20.364466 -17.563097 28.272115 -1.165983 2.241090 -0.002759 -0.001564 286363.000000 0 0 1
-8.231448 19.030866 -17.417097 27.079251 -1.162564 2.269453 -0.003005 -0.001922 -162469.000000 0 0 1
-7.200448 18.691966 -18.322497 27.146821 -1.203099 2.311681 0.001454 -0.004422 10983.200000 0 0 1
-6.660748 17.288166 -18.048597 25.864997 -1.203045 2.343118 -0.006099 0.000325 325801.000000 0 0 1
-7.526748 16.215466 -18.487997 25.717684 -1.136221 2.372990 -0.008626 -0.006698 38323.500000 0 0 1
-7.418148 15.760266 -19.827397 26.392055 -1.130873 2.420771 0.001331 -0.000875 197157.000000 0 0 1
-6.280248 14.721266 -20.071997 25.671818 -1.167562 2.468454 -0.008143 0.008117 445276.000000 0 0 1
-6.489348 13.441266 -19.364197 24.448954 -1.121009 2.484916 -0.021117 0.005846 338399.000000 0 1 0
-5.232348 12.884466 -18.997797 23.543645 -1.185045 2.509712 -0.023665 0.018304 556306.000000 0 1 0
-4.730248 13.302966 -17.579697 22.547503 -1.229160 2.464941 -0.002976 0.013534 153313.000000 0 1 0
-4.146648 14.620066 -17.606197 23.257669 -1.294427 2.429515 -0.005979 0.006300 -333277.000000 0 1 0
-3.852948 15.013766 -16.330497 22.515406 -1.319590 2.382271 0.003001 0.009550 391019.000000 0 1 0
-2.988448 16.359366 -16.234197 23.240241 -1.390113 2.344149 0.013191 0.006806 366679.000000 0 1 0
-3.599448 17.591366 -16.489597 24.378658 -1.368968 2.313653 0.003125 0.002681 77183.800000 0 1 0
-2.664648 18.665266 -16.289997 24.916992 -1.428995 2.283353 0.005572 0.000506 555976.000000 0 1 0
-3.197648 19.965966 -16.996797 26.415068 -1.411990 2.269794 0.021347 -0.007037 232591.000000 0 0 1
-3.293448 19.759766 -18.384597 27.189861 -1.405640 2.313329 0.024234 -0.005811 -33465.400000 0 0 1
-3.886448 20.855666 -19.101597 28.547053 -1.386560 2.303829 0.037099 -0.004666 -26107.900000 0 0 1
-3.101648 22.200666 -19.268497 29.559512 -1.431985 2.280823 0.013451 -0.004935 -783124.000000 0 0 1
-2.140448 22.084666 -20.302097 30.074725 -1.474178 2.311836 0.008868 0.007295 597533.000000 0 0 1
-1.000248 22.958066 -20.146697 30.560803 -1.527255 2.290595 0.000014 0.010119 1194550.000000 0 0 1
-0.004248 22.692466 -18.950597 29.564728 -1.570609 2.266579 0.014379 0.007774 -549232.000000 0 0 1
-0.412948 22.857466 -17.594597 28.847948 -1.552732 2.226741 0.015732 0.000999 -555041.000000 0 0 1
0.556152 22.374766 -16.685297 27.916636 1.545945 2.211404 0.030966 -0.003610 210671.000000 0 0 1
0.025052 22.436266 -15.191397 27.095483 1.569680 2.165981 0.030577 -0.011449 577671.000000 0 0 1
-0.826348 21.313566 -14.823997 25.975023 -1.532045 2.178157 0.030903 -0.003141 351692.000000 0 0 1
-0.861648 21.313366 -13.396497 25.188650 -1.530391 2.131576 0.048352 -0.010864 208286.000000 0 0 1
-1.636248 20.079166 -12.835697 23.887346 -1.489486 2.138080 0.022300 -0.005169 208092.000000 0 1 0
-1.050648 18.831066 -13.083097 22.953874 -1.515061 2.177270 0.019843 -0.001061 -130025.000000 0 1 0
-1.906048 17.827166 -12.590397 21.907965 -1.464283 2.183028 0.012690 -0.003729 12521.300000 0 1 0
-1.474348 16.369866 -12.848497 20.862168 -1.480974 2.234293 -0.001290 0.001139 -768362.000000 0 1 0
-0.441848 15.873066 -12.047997 19.932478 -1.542967 2.219860 0.000859 -0.000084 -245449.000000 0 1 0
-0.222948 14.504266 -12.173097 18.936940 -1.555426 2.268974 -0.000389 0.002707 340177.000000 0 1 0
0.522552 14.002666 -13.466797 19.434565 1.533496 2.336342 0.000114 0.002899 196573.000000 0 1 0
-0.438748 13.698666 -14.454297 19.919152 -1.538779 2.382772 -0.001101 -0.003678 334583.000000 0 1 0
0.203052 12.862366 -15.398397 20.064703 1.555011 2.445630 0.001862 -0.000540 -137812.000000 0 1 0
-0.398448 12.758966 -16.787497 21.089571 -1.539578 2.491470 -0.007668 0.008360 -217973.000000 0 1 0
-0.368448 13.966966 -17.454897 22.358115 -1.544422 2.466576 -0.005723 0.006183 -46593.200000 0 1 0
-0.782148 13.802966 -18.779997 23.319989 -1.514192 2.507007 -0.010609 0.008709 -292528.000000 0 1 0
-1.223948 15.102166 -19.376197 24.596960 -1.489929 2.477940 -0.010185 0.013491 96114.400000 0 1 0
-0.189848 16.062166 -19.497597 25.262333 -1.558977 2.452471 -0.008173 0.016362 -183042.000000 0 0 1
-0.778648 17.308166 -19.630297 26.182579 -1.525839 2.418475 0.006236 0.008143 111699.000000 0 0 1
0.247352 18.380066 -20.069997 27.215671 1.557340 2.400072 0.020610 0.009466 262952.000000 0 0 1
0.716452 18.130566 -21.398997 28.056154 1.531301 2.438305 0.018628 0.002347 51194.900000 0 0 1
1.266152 19.308566 -21.943597 29.256543 1.505315 2.418920 0.014222 0.005920 -18027.500000 0 0 1
1.595252 19.214666 -23.462897 30.368663 1.487964 2.453726 0.017174 0.000214 -405940.000000 0 0 1
2.691452 18.426666 -23.789497 30.211357 1.425759 2.477434 0.009332 -0.002283 -478881.000000 0 0 1
2.982452 18.516466 -25.182967 31.399623 1.411098 2.501457 0.015389 -0.013938 51487.600000 0 0 1
4.049852 17.442566 -25.500437 31.159536 1.342656 2.529388 0.009009 -0.002792 563324.000000 0 0 1
5.310252 17.706866 -24.855597 30.976322 1.279433 2.502113 -0.001507 0.008378 954183.000000 0 0 1
6.345452 16.739166 -24.944697 30.703458 1.208455 2.519120 0.004576 0.000526 597149.000000 0 0 1
7.010452 16.514366 -26.364337 31.889637 1.169344 2.544079 -0.002475 -0.013497 -927611.000000 0 0 1
7.897452 17.549866 -26.782427 32.979780 1.147942 2.518515 -0.002727 -0.007436 194609.000000 0 0 1
8.224152 17.539066 -28.161887 34.181096 1.132333 2.539059 0.010751 -0.014259 159095.000000 0 0 1
8.840652 16.259166 -28.863087 34.286956 1.072777 2.571423 0.009697 -0.015523 79214.100000 0 0 1
10.141952 15.957566 -28.368427 34.092092 1.004641 2.553701 0.020206 -0.012065 427932.000000 0 0 1
10.625052 14.654666 -28.708067 33.938239 0.943469 2.579031 0.014225 -0.004562 17936.300000 0 0 1
10.189852 13.550266 -27.688047 32.466455 0.926014 2.592158 0.004158 -0.008027 -1294010.000000 0 0 1
8.878252 13.179766 -27.837967 32.054360 0.977990 2.622886 0.001702 -0.005353 -1329010.000000 0 0 1
8.470852 12.693166 -26.598427 30.665096 0.982317 2.620718 -0.005494 -0.001322 602700.000000 0 0 1
6.986552 12.218066 -26.478407 29.986648 1.051354 2.653026 0.003056 -0.004611 1076530.000000 0 0 1
5.978752 13.210566 -26.606067 30.300946 1.145804 2.642591 0.012902 -0.011099 1476540.000000 0 0 1
4.637952 12.734266 -26.281777 29.570321 1.221518 2.665492 0.006749 -0.008072 1565330.000000 0 0 1
3.497652 13.676566 -26.679167 30.183770 1.320422 2.654914 0.027241 -0.007694 -504668.000000 0 0 1
3.086152 13.739866 -28.001287 31.342947 1.349850 2.675618 0.033755 -0.016626 106575.000000 0 0 1
3.687852 14.783666 -28.729387 32.519758 1.326331 2.653959 0.037395 -0.024644 -22744.500000 0 0 1
3.559052 14.484566 -30.241147 33.719378 1.329856 2.683387 0.049101 -0.025346 -307837.000000 0 0 1
4.430952 13.497466 -30.703247 33.830523 1.253600 2.708234 0.039542 -0.022289 -337033.000000 0 0 1
4.453152 13.599866 -32.129967 35.172740 1.254358 2.722579 0.030037 -0.011291 -1012610.000000 0 0 1
5.525952 12.624066 -32.630587 35.421157 1.158192 2.741995 0.020023 -0.006820 655837.000000 0 0 1
6.900752 12.954466 -32.364537 35.537330 1.081338 2.715819 0.028327 -0.009060 805138.000000 0 0 1
7.345652 12.915866 -31.030447 34.404459 1.053686 2.695016 0.025121 -0.010873 -992079.000000 0 0 1
7.333352 11.488566 -30.313757 33.236863 1.002678 2.719058 0.022729 -0.003948 -799178.000000 0 0 1
8.406452 10.698266 -30.642317 33.527196 0.904788 2.723719 0.009008 0.000869 -714562.000000 0 0 1
8.114452 9.393666 -30.269107 32.715502 0.858333 2.752417 0.007350 -0.002107 112393.000000 0 0 1
9.234152 8.384766 -30.670077 33.109326 0.737227 2.755340 -0.005492 0.002646 537964.000000 0 0 1
10.386052 8.482066 -29.847167 32.721077 0.684828 2.719343 -0.005470 0.002752 107702.000000 0 0 1
11.195052 7.303966 -29.940337 32.788731 0.578080 2.721691 -0.019224 0.007249 187097.000000 0 0 1
12.416452 7.450866 -28.949207 32.368816 0.540478 2.677783 -0.013942 0.020642 726610.000000 0 0 1
13.010052 6.143166 -28.697757 32.102355 0.441150 2.676869 -0.001657 0.008838 209970.000000 0 0 1
14.129452 5.960766 -29.556407 33.297948 0.399215 2.662980 -0.016735 0.014781 -508289.000000 0 0 1
14.921852 4.672166 -29.298487 33.209820 0.303440 2.651361 -0.007325 0.005980 108611.000000 0 0 1
15.855052 4.926366 -28.253717 32.770784 0.301256 2.610318 -0.002385 0.008143 163868.000000 0 0 1
16.435952 3.716366 -27.774177 32.486255 0.222373 2.596254 0.008823 0.008569 227154.000000 0 0 1
17.212052 3.967266 -26.426727 31.786252 0.226537 2.552398 0.017772 0.007116 86382.900000 0 0 1
18.217152 4.947666 -26.528197 32.559012 0.265197 2.523134 0.037852 -0.001209 5615.640000 0 0 1
18.813552 5.176566 -25.275467 31.931110 0.268506 2.484158 0.042722 -0.010365 516864.000000 0 0 1
19.908352 6.311166 -25.338337 32.836026 0.306989 2.452248 0.030735 -0.006761 157426.000000 0 0 1
19.321252 7.581666 -25.510367 32.887250 0.373938 2.458607 0.040569 -0.006599 550286.000000 0 0 1
20.118452 8.582666 -26.187887 34.120663 0.403231 2.445741 0.040553 -0.012883 -247126.000000 0 0 1
20.241552 8.461866 -27.780677 35.399005 0.395964 2.473149 0.037818 -0.003464 635288.000000 0 0 1
19.058652 8.864266 -28.484297 35.400036 0.435344 2.505866 0.031287 0.005000 580597.000000 0 0 1
17.969752 7.970366 -28.510377 34.630626 0.417472 2.537945 0.029063 0.004392 -303095.000000 0 0 1
16.721452 8.626466 -29.127067 34.675768 0.476280 2.568049 0.011928 0.009870 -360628.000000 0 0 1
16.708952 8.508866 -30.558277 35.852450 0.471012 2.591229 -0.002221 0.016644 -30478.300000 0 0 1
15.651952 9.205566 -31.162617 36.067086 0.531655 2.613993 -0.015331 0.020905 -393468.000000 0 0 1
15.313752 8.813366 -32.636297 37.112185 0.522225 2.645388 -0.022796 0.028141 413110.000000 0 0 1
14.414652 7.685366 -32.647867 36.506578 0.489825 2.677663 -0.024847 0.027457 922948.000000 0 0 1
13.263852 7.797166 -33.488577 36.853905 0.531438 2.710919 -0.031495 0.020565 693210.000000 0 0 1
12.650752 6.421066 -33.826077 36.680718 0.469680 2.744466 -0.030694 0.013053 -38098.400000 0 0 1
12.347752 5.647666 -32.682107 35.390439 0.428978 2.747832 -0.023405 0.010951 364829.000000 0 0 1
11.663752 4.467266 -33.161937 35.436050 0.365769 2.781388 -0.005411 0.006447 94511.600000 0 0 1
11.337952 3.429266 -32.092417 34.208657 0.293711 2.788007 -0.005313 0.006641 397832.000000 0 0 1
12.429352 2.650766 -31.556617 34.019633 0.210119 2.758733 -0.006327 0.000684 712914.000000 0 0 1
11.955352 1.669866 -30.663757 32.954284 0.138777 2.766555 -0.007624 -0.000568 -37123.200000 0 0 1
11.378952 0.337666 -31.219457 33.230243 0.029666 2.791933 -0.005650 0.002939 -73377.200000 0 0 1
12.287752 -0.546534 -31.827417 34.121430 -0.044449 2.772816 -0.002765 0.001895 -13529.600000 0 0 1
13.101752 -1.308634 -30.964387 33.647610 -0.099552 2.739528 -0.002709 -0.005251 94913.000000 0 0 1
13.666552 -2.546234 -31.704087 34.618016 -0.184199 2.728357 0.003824 -0.004236 112917.000000 0 0 1
12.677852 -3.480534 -32.128867 34.714638 -0.267935 2.753186 -0.001727 -0.002713 507067.000000 0 0 1
13.269752 -4.728834 -32.653797 35.562883 -0.342331 2.734306 0.014724 -0.003129 26246.700000 0 0 1
12.328752 -5.935834 -32.871367 35.605604 -0.448708 2.747142 0.012286 -0.002313 -221750.000000 0 0 1
12.064052 -6.598634 -31.604217 34.466068 -0.500511 2.731205 0.023684 -0.009957 77683.300000 0 0 1
11.572052 -7.853234 -31.798567 34.738085 -0.596245 2.727248 0.032874 -0.012639 -353720.000000 0 0 1
11.641052 -8.767634 -30.550357 33.848335 -0.645524 2.696489 0.033573 -0.010839 1121190.000000 0 0 1
13.030052 -9.066534 -30.251907 34.163755 -0.607913 2.658359 0.014418 -0.007587 1248520.000000 0 0 1
13.183952 -9.598834 -28.951457 33.228618 -0.629317 2.628602 0.022890 -0.004405 83416.400000 0 0 1
13.650052 -11.113134 -28.880587 33.821797 -0.683307 2.594239 0.027505 -0.005792 332995.000000 0 0 1
12.588952 -12.026534 -29.121897 33.929399 -0.762554 2.602761 0.021945 -0.003088 140790.000000 0 0 1
13.089652 -13.286034 -29.351057 34.775598 -0.792844 2.575518 0.027972 -0.009943 -48209.000000 0 0 1
-9.990248 -3.460234 -17.762097 20.670519 0.333429 2.604688 -0.024115 0.025434 -258945.000000 0 1 0
-10.701948 -2.827434 -18.744997 21.769267 0.258296 2.608179 -0.033430 0.021685 -531508.000000 0 1 0
-11.556648 -3.736234 -19.371897 22.864513 0.312691 2.581578 -0.033943 0.024935 -58571.300000 0 1 0
-12.521248 -3.138534 -20.455897 24.188339 0.245597 2.578658 -0.031475 0.009851 629826.000000 0 1 0
-13.515648 -2.198134 -20.024497 24.258710 0.161225 2.541806 -0.036844 0.009695 302512.000000 0 1 0
-14.213448 -1.742034 -21.152197 25.543536 0.121954 2.546478 -0.039304 0.019590 -214635.000000 0 0 1
-14.863948 -0.408034 -20.974697 25.710724 0.027444 2.524900 -0.030125 0.018767 -62120.200000 0 0 1
-14.012648 0.699066 -21.286497 25.494273 -0.049847 2.558842 -0.021073 0.014245 390874.000000 0 0 1
-14.705248 1.919966 -21.045097 25.745421 -0.129829 2.527733 -0.026089 0.017643 14209.700000 0 0 1
-14.043248 3.095366 -21.798397 26.114444 -0.216948 2.558431 -0.011452 0.001231 -216889.000000 0 0 1
-12.887048 3.564066 -21.162897 25.032914 -0.269818 2.578115 -0.017227 0.006925 -125162.000000 0 0 1
-12.532948 4.800766 -21.688597 25.505242 -0.365811 2.587462 -0.014679 0.002027 -5903.550000 0 0 1
-11.445548 5.588566 -20.897797 24.473466 -0.454223 2.594222 -0.026757 0.000781 163747.000000 0 1 0
-11.939348 6.191966 -19.733597 23.881024 -0.478431 2.543355 -0.009702 -0.005770 478246.000000 0 1 0
-10.856748 6.640366 -18.939297 22.817984 -0.548931 2.549933 -0.017235 -0.003496 -79073.000000 0 1 0
-11.323348 7.211166 -17.596597 22.132766 -0.567068 2.489882 -0.002664 0.000866 -118408.000000 0 1 0
-11.962148 8.445766 -17.750297 23.010801 -0.614769 2.451819 0.007600 -0.001668 -590354.000000 0 1 0
-12.984348 8.521666 -16.847597 22.914048 -0.580793 2.396835 0.009426 0.004034 -1165850.000000 0 1 0
-13.627748 9.889066 -16.673797 23.696511 -0.627738 2.351303 0.013676 0.002818 -506003.000000 0 1 0
-12.797648 10.865066 -16.110397 23.267452 -0.703907 2.335607 -0.002082 0.016124 278280.000000 0 1 0
-13.370748 12.179566 -16.278897 24.333541 -0.738811 2.303645 0.003766 0.004843 -509716.000000 0 1 0
-12.637948 13.306766 -15.549097 24.053319 -0.811171 2.273709 0.001586 0.015161 -826087.000000 0 1 0
-12.528148 13.142966 -14.140597 23.014094 -0.809343 2.232462 0.025206 0.008558 82594.500000 0 1 0
-11.806748 14.214366 -13.544797 22.910893 -0.877661 2.203336 0.020078 0.000793 -940435.000000 0 1 0
-12.300248 14.459566 -12.084397 22.503506 -0.865916 2.137674 0.013160 -0.005476 1804620.000000 0 1 0
-13.663648 14.949166 -11.903797 23.491982 -0.830296 2.102169 -0.001839 0.000109 2237290.000000 0 1 0
-14.731848 14.094866 -12.352297 23.838453 -0.763305 2.115503 0.004535 0.006750 404600.000000 0 1 0
-16.137048 14.227466 -11.691997 24.485259 -0.722592 2.068617 -0.003423 0.008327 808322.000000 0 1 0
-17.165148 13.547466 -12.391197 25.133999 -0.668147 2.086337 -0.003942 0.005228 1072710.000000 0 0 1
-18.462348 14.025066 -11.955597 26.086338 -0.649653 2.046888 0.023964 0.005528 1310990.000000 0 0 1
-19.680348 13.548166 -12.813397 27.111843 -0.602906 2.063049 0.019376 0.006011 244801.000000 0 0 1
-20.012048 12.214766 -12.575097 26.604805 -0.548010 2.063106 0.017521 0.004812 -116524.000000 0 0 1
-21.219948 11.939866 -13.241397 27.716082 -0.512520 2.068890 0.024570 -0.002621 -398451.000000 0 0 1
-21.781548 10.560266 -12.774097 27.370287 -0.451435 2.056368 0.016728 -0.002187 -205034.000000 0 0 1
-20.874948 9.509366 -12.939997 26.336951 -0.427451 2.084406 0.013183 -0.005962 100471.000000 0 0 1
-21.310748 8.465266 -12.058297 25.907745 -0.378116 2.054919 0.003426 -0.005946 211933.000000 0 0 1
-20.375548 7.214966 -11.915697 24.682028 -0.340322 2.074609 0.010490 0.001294 75230.400000 0 1 0
-20.373348 6.333366 -13.032597 25.000668 -0.301395 2.119158 0.024920 0.000201 -111223.000000 0 0 1
-19.381348 5.393566 -12.822197 23.856570 -0.271419 2.138231 0.022925 -0.002016 -416485.000000 0 1 0
-19.277848 4.404366 -14.003697 24.230918 -0.224613 2.186982 0.022622 -0.003887 423105.000000 0 1 0
-20.264848 3.377566 -13.777397 24.736384 -0.165153 2.161528 0.032022 -0.007190 831394.000000 0 1 0
-20.075248 2.275666 -14.629397 24.944208 -0.112875 2.197508 0.032902 -0.011445 125939.000000 0 1 0
-20.849148 0.923466 -14.204197 25.244781 -0.044264 2.168395 0.043256 -0.007159 1298540.000000 0 0 1
-22.109948 0.911566 -14.931797 26.695305 -0.041205 2.164388 0.039887 -0.007631 997603.000000 0 0 1
-22.686748 -0.394134 -14.846497 27.115721 0.017371 2.150198 0.035913 -0.014814 -1034110.000000 0 0 1
-24.065948 -0.576134 -15.433697 28.595468 0.023935 2.140907 0.044234 -0.008201 -1001060.000000 0 0 1
-24.987748 0.010166 -14.560097 28.920306 -0.000407 2.098390 0.054347 -0.013658 -256820.000000 0 0 1
-26.292538 0.030666 -15.096597 30.318406 -0.001166 2.092012 0.017314 -0.007588 453169.000000 0 0 1
-27.456488 0.389166 -14.121997 30.877840 -0.014173 2.045810 0.017793 0.005662 349015.000000 0 0 1
-27.748218 -0.560134 -13.113797 30.696075 0.020184 2.012206 0.012345 -0.001895 905339.000000 0 0 1
-29.075678 -0.358234 -12.589397 31.686216 0.012320 1.979385 0.008561 0.000886 835999.000000 0 0 1
-29.353458 -1.129034 -11.235697 31.450614 0.038444 1.936117 0.006128 -0.007482 -544141.000000 0 0 1
-29.443848 -2.533734 -11.099097 31.568179 0.085842 1.930067 0.012847 -0.016987 575921.000000 0 0 1
-28.402858 -3.320134 -11.682797 30.890668 0.116366 1.958646 0.016152 -0.016265 -121431.000000 0 0 1
-28.501398 -4.768334 -11.170797 30.981501 0.165767 1.939668 0.011976 -0.024645 -625816.000000 0 0 1
-29.706868 -5.350234 -11.562597 32.323624 0.178191 1.936615 0.010148 -0.021291 -197888.000000 0 0 1
-29.947738 -6.685734 -11.167097 32.653792 0.219645 1.919824 0.018698 -0.018293 -71342.300000 0 0 1
-29.120348 -7.730234 -11.979197 32.423022 0.259474 1.949230 0.021521 -0.026791 -42434.400000 0 0 1
-27.786258 -7.792734 -11.536197 31.078718 0.273429 1.951090 0.015036 -0.024976 -385600.000000 0 0 1
-27.008988 -8.632734 -12.346297 30.926374 0.309362 1.981458 0.017639 -0.025832 -1146200.000000 0 0 1
-25.564438 -8.693534 -11.953597 29.529756 0.327796 1.987555 0.018877 -0.027606 -1665550.000000 0 0 1
-24.875148 -7.481434 -12.037197 28.629337 0.292153 2.004737 0.014605 -0.032547 530151.000000 0 0 1
-23.521448 -7.577234 -11.594397 27.296576 0.311644 2.009489 0.012410 -0.031877 275655.000000 0 0 1
-23.318848 -7.572134 -10.084297 26.510355 0.313980 1.961015 -0.000887 -0.020697 -622329.000000 0 0 1
-23.590948 -6.381834 -9.292897 26.146101 0.264197 1.934162 -0.003275 -0.017721 637708.000000 0 0 1
-24.933648 -5.898334 -9.308397 27.260290 0.232291 1.919270 -0.003303 -0.021299 -92325.000000 0 0 1
-25.138658 -4.529634 -8.638097 26.964540 0.178273 1.896896 -0.009839 -0.013780 -362520.000000 0 0 1
-24.971048 -4.517834 -7.209097 26.380583 0.178987 1.847590 -0.019524 -0.006016 346675.000000 0 0 1
-25.092778 -3.176034 -6.760897 26.180994 0.125902 1.831993 0.007841 -0.003477 -280017.000000 0 0 1
-24.912548 -2.894634 -5.262097 25.626229 0.115673 1.777608 0.001265 0.002518 -823718.000000 0 0 1
-23.632248 -3.114934 -4.773697 24.309960 0.131053 1.768449 -0.038253 0.008171 -389902.000000 0 1 0
-23.533248 -2.794634 -3.401097 23.941412 0.118199 1.713338 -0.052386 0.010544 -54339.200000 0 1 0
-22.290248 -3.533834 -2.878197 22.751421 0.157229 1.697642 -0.057692 0.011856 -224275.000000 0 1 0
-22.468448 -4.920334 -2.928497 23.186568 0.215585 1.697436 -0.033620 0.008212 1007290.000000 0 1 0
-21.318848 -5.661834 -2.474397 22.196223 0.259586 1.682507 -0.020058 0.000202 408078.000000 0 1 0
-21.558048 -7.164534 -2.529197 22.857752 0.320853 1.681673 0.015133 -0.002661 42143.500000 0 1 0
-22.257348 -7.613434 -1.352997 23.562354 0.329587 1.628250 0.022478 0.010046 804708.000000 0 1 0
-22.892248 -8.888634 -1.588897 24.608686 0.370364 1.635408 0.026089 -0.000547 153603.000000 0 1 0
-23.082248 -9.753934 -0.282097 25.060108 0.399813 1.582053 0.012630 -0.000630 1786630.000000 0 0 1
-21.779948 -10.246334 0.207003 24.070654 0.439728 1.562196 0.001783 0.008572 1950840.000000 0 1 0
-21.975648 -11.040234 1.312703 24.628014 0.465554 1.517470 -0.010405 0.012500 -95078.000000 0 1 0
-20.662948 -11.578034 1.881003 23.760187 0.510738 1.491547 -0.016302 0.018200 -211756.000000 0 1 0
-19.995548 -12.573334 1.164703 23.648831 0.561332 1.521526 -0.008513 0.021056 207118.000000 0 1 0
-18.800248 -12.963534 1.812903 22.908277 0.603672 1.491576 -0.035678 0.023935 -72771.400000 0 1 0
-18.001448 -14.092334 1.141403 22.889929 0.664192 1.520911 -0.035786 0.028869 -276644.000000 0 1 0
-18.688448 -15.342134 1.030003 24.201242 0.687381 1.528224 -0.024869 0.032612 382226.000000 0 1 0
-18.013248 -16.372334 0.277803 24.343533 0.737713 1.559384 -0.035938 0.029264 836814.000000 0 1 0
-16.859948 -17.176034 1.046503 24.090853 0.794685 1.527343 -0.030246 0.034404 106105.000000 0 1 0
-15.700148 -16.443034 1.240803 22.768567 0.808506 1.516273 -0.026622 0.030124 -217616.000000 0 1 0
-14.705548 -17.103334 2.021203 22.646467 0.860637 1.481427 -0.017475 0.023316 425057.000000 0 1 0
-14.842948 -16.812934 3.519203 22.701821 0.847549 1.415150 -0.006102 0.009931 -71780.600000 0 1 0
-14.682848 -15.420034 3.837703 21.635421 0.809882 1.392472 -0.006139 0.007063 75434.900000 0 1 0
-13.939948 -15.083134 5.034303 21.146331 0.824767 1.330418 -0.004905 -0.001586 65952.600000 0 1 0
-14.461548 -15.428434 6.472603 22.114872 0.817735 1.273767 0.004646 -0.000024 -656476.000000 0 1 0
-15.386648 -14.539634 7.090303 22.325374 0.757102 1.247610 0.003360 0.004536 113817.000000 0 1 0
-15.573548 -14.891834 8.477103 23.155203 0.763025 1.195982 0.004202 0.009638 -255155.000000 0 1 0
-16.306248 -16.223934 8.814303 24.633346 0.782868 1.204864 0.002400 0.009119 -445315.000000 0 1 0
-15.638248 -17.474534 8.560403 24.963867 0.840797 1.220781 0.001915 0.010470 -363081.000000 0 1 0
-16.374948 -18.588634 8.968903 26.346109 0.848628 1.223426 0.011681 0.007373 -287099.000000 0 0 1
-16.145248 -18.982034 10.468103 27.029019 0.865981 1.173105 0.016777 0.008435 45970.200000 0 0 1
-14.862648 -19.517634 10.712903 26.769435 0.919977 1.159070 0.008767 0.009430 -170908.000000 0 0 1
-14.655648 -19.981034 12.012803 27.537923 0.937953 1.119394 0.005562 0.013964 408097.000000 0 0 1
-13.216948 -20.487834 12.326203 27.319853 0.997865 1.102708 -0.009428 0.020865 577195.000000 0 0 1
-12.165348 -19.548434 12.293103 26.100908 1.014128 1.080391 -0.005314 0.015354 -459625.000000 0 0 1
-10.931948 -20.180634 12.505403 26.137150 1.074344 1.071904 -0.003995 0.012984 -601311.000000 0 0 1
-9.816448 -19.228834 12.843503 25.121033 1.098779 1.034140 -0.010507 0.005194 -613756.000000 0 0 1
-9.215448 -18.743334 11.667403 23.924159 1.113839 1.061363 -0.014958 0.007536 343430.000000 0 1 0
-8.086148 -17.947834 12.145403 23.130529 1.147497 1.017986 -0.004026 0.005950 956194.000000 0 1 0
-7.264448 -17.378034 10.971003 21.797504 1.174849 1.043366 -0.007173 0.007990 -21817.600000 0 1 0
-6.478048 -18.331734 10.296603 22.000855 1.231115 1.083760 -0.007751 0.006451 -309261.000000 0 1 0
-5.868348 -17.696034 9.198903 20.789588 1.250589 1.112438 -0.003355 0.010918 -325092.000000 0 1 0
-4.644648 -18.423334 8.585503 20.849529 1.323836 1.146385 -0.007850 0.004604 416503.000000 0 1 0
-3.457748 -18.225834 9.365703 20.781084 1.383308 1.103265 -0.002927 -0.005724 -397468.000000 0 1 0
-2.475748 -18.925234 8.696003 20.974134 1.440718 1.143286 0.005454 -0.002239 -393838.000000 0 1 0
-1.045548 -18.943834 9.285503 21.123035 1.515660 1.115653 -0.002055 -0.014370 320452.000000 0 1 0
-0.111348 -19.482734 8.360403 21.201077 1.565081 1.165448 0.009827 -0.006498 -111683.000000 0 1 0
1.027052 -19.974134 9.052203 21.953662 -1.519422 1.145784 0.007850 0.002977 312193.000000 0 1 0
1.966452 -20.753534 8.078803 22.357173 -1.476326 1.201079 0.012894 -0.002274 -88282.500000 0 1 0
1.615052 -22.017134 7.654603 23.365692 -1.497573 1.237034 -0.004052 -0.000929 -373065.000000 0 1 0
1.825552 -22.969534 8.656603 24.614405 -1.491486 1.211422 0.003306 0.002745 47326.000000 0 1 0
1.292052 -24.387834 8.293303 25.791757 -1.517866 1.243432 -0.018679 -0.001554 53268.400000 0 0 1
1.439452 -25.433614 9.252103 27.102439 -1.514260 1.222417 -0.007750 0.002111 19334.700000 0 0 1
0.766952 -26.635834 8.828603 28.071340 -1.542010 1.250860 -0.012002 0.004918 -236424.000000 0 0 1
1.115052 -27.825834 9.795503 29.520709 -1.530745 1.232566 0.004059 0.005597 140661.000000 0 0 1
0.454752 -27.886854 11.029103 29.992075 -1.554491 1.194225 -0.014239 0.000676 119385.000000 0 0 1
-0.963548 -27.997464 10.910303 30.063619 1.536394 1.199410 -0.037336 0.004522 245560.000000 0 0 1
-1.604548 -28.089664 12.320303 30.714715 1.513736 1.158057 -0.028759 -0.004252 -223133.000000 0 0 1
-1.173148 -29.236074 13.020303 32.025812 1.530691 1.152114 -0.043779 -0.001498 -89205.200000 0 0 1
-1.349148 -29.147554 14.405103 32.540853 1.524543 1.112214 -0.048294 -0.003947 -553057.000000 0 0 1
-0.905048 -30.397874 15.176503 33.987882 1.541032 1.107916 -0.048719 0.002541 91301.500000 0 0 1
-0.848548 -30.118724 16.567403 34.385120 1.542630 1.068067 -0.039388 -0.000711 -117929.000000 0 0 1
-0.563048 -31.290664 17.302903 35.760497 1.552804 1.065742 -0.044137 0.001396 -13308.400000 0 0 1
-0.770948 -31.010704 18.798303 36.271674 1.545941 1.025977 -0.026341 -0.004229 866804.000000 0 0 1
-2.163948 -30.866784 19.123503 36.375121 1.500805 1.017223 -0.035398 0.002112 705553.000000 0 0 1
-2.320548 -30.421484 20.407003 36.705551 1.494664 0.981273 -0.014925 -0.005235 -272399.000000 0 0 1
-3.798448 -30.419374 20.820203 37.057353 1.446570 0.974191 0.000879 -0.010424 -357614.000000 0 0 1
-4.580948 -29.426494 20.130003 35.946080 1.416362 0.976404 -0.000774 -0.004046 584493.000000 0 0 1
-5.912548 -29.365214 20.630903 36.371805 1.372108 0.967667 0.003010 -0.009438 491400.000000 0 0 1
-6.043248 -28.397454 21.878803 36.354069 1.361115 0.925011 0.013390 -0.014570 -378740.000000 0 0 1
-5.221948 -28.688554 22.997503 37.137408 1.390746 0.903004 0.005538 -0.013542 124717.000000 0 0 1
-5.358748 -27.712734 24.065803 37.092785 1.379786 0.864790 0.014492 -0.018269 -175096.000000 0 0 1
-4.177848 -27.908924 25.039803 37.727367 1.422204 0.845037 0.014995 -0.022242 -33184.800000 0 0 1
-4.199748 -29.167244 25.689703 39.093822 1.427791 0.853792 0.004642 -0.020764 17382.200000 0 0 1
-3.436048 -30.209414 25.151203 39.458816 1.457542 0.879672 0.010122 -0.022238 -289686.000000 0 0 1
-3.604548 -31.560534 25.886903 40.977944 1.457078 0.887016 0.006430 -0.021297 29810.300000 0 0 1
-3.124548 -31.573254 27.210503 41.797664 1.472156 0.861888 0.008244 -0.024343 300275.000000 0 0 1
-3.775148 -32.613314 27.890303 43.078406 1.455554 0.866587 0.011772 -0.017265 -173028.000000 0 0 1
-3.411748 -32.472074 29.398203 43.935521 1.466113 0.837770 0.015519 -0.012814 90844.600000 0 0 1
-2.052648 -32.694754 29.718903 44.230912 1.508096 0.834020 0.005777 -0.009234 201222.000000 0 0 1
-1.653448 -32.572434 31.059503 45.037652 1.520078 0.809813 0.015750 -0.015595 50509.600000 0 0 1
-27.482228 3.305266 -10.220697 29.506953 -0.119694 1.924509 0.025819 0.006351 -519403.000000 0 0 1
-28.373538 2.786766 -11.131997 30.606292 -0.097903 1.943050 0.009705 0.002173 -243139.000000 0 0 1
-29.209138 3.835366 -11.608997 31.664690 -0.130560 1.946173 -0.011646 0.001455 46732.700000 0 0 1
-30.039938 3.467966 -12.855797 32.858731 -0.114936 1.972780 -0.007583 0.001024 834162.000000 0 0 1
-31.115178 2.534566 -12.513497 33.632810 -0.081278 1.952026 -0.006107 0.003120 756100.000000 0 0 1
-31.929798 2.309966 -13.622697 34.791174 -0.072219 1.973118 -0.007019 0.004169 185469.000000 0 0 1
-33.062458 1.303066 -13.267697 35.649066 -0.039392 1.952148 -0.012541 0.000820 366240.000000 0 0 1
-32.458418 0.041766 -13.042897 34.980964 -0.001287 1.952882 -0.006069 -0.002653 -65265.000000 0 0 1
-33.387728 -0.941134 -12.764697 35.757008 0.028181 1.935834 -0.001021 0.004027 -592202.000000 0 0 1
-32.748708 -2.363334 -12.672497 35.194537 0.072041 1.939139 -0.005084 -0.006607 2999.020000 0 0 1
-32.216568 -2.858734 -13.876397 35.194233 0.088503 1.976081 -0.002692 -0.005743 320440.000000 0 0 1
-31.656158 -4.147734 -13.716897 34.748659 0.130282 1.976588 0.004087 -0.011808 -360677.000000 0 0 1
-32.547828 -5.234134 -14.314597 35.939741 0.159448 1.980453 0.007902 -0.011825 96217.500000 0 0 1
-32.243738 -6.539534 -13.805297 35.679271 0.200101 1.968094 0.011146 -0.021737 109070.000000 0 0 1
-33.174088 -7.400834 -14.408897 36.917594 0.219497 1.971753 0.015796 -0.020224 -775517.000000 0 0 1
-33.024948 -8.722234 -13.648597 36.783267 0.258214 1.950941 0.022374 -0.025250 636992.000000 0 0 1
-31.656738 -9.199834 -13.603597 35.662920 0.282822 1.962160 0.028971 -0.027372 1140490.000000 0 0 1
-31.138388 -9.542434 -14.870497 35.802080 0.297366 1.999127 0.019155 -0.022170 -1089150.000000 0 0 1
-29.802738 -10.258634 -14.621297 34.745145 0.331514 2.005140 0.017977 -0.018491 -499789.000000 0 0 1
-30.015428 -11.500334 -14.084597 35.093582 0.365894 1.983780 0.024068 -0.023188 -115017.000000 0 0 1
-28.854168 -12.275434 -13.934597 34.313588 0.402235 1.988974 0.033490 -0.022992 -394996.000000 0 0 1
-29.119748 -13.828834 -13.928697 35.117018 0.443363 1.978646 0.034752 -0.018863 -271911.000000 0 0 1
-29.245158 -14.237434 -15.270297 35.932795 0.453057 2.009723 0.019881 -0.009167 -28775.900000 0 0 1
-29.319668 -15.595634 -15.513897 36.654437 0.488854 2.007823 0.019223 -0.005802 -113014.000000 0 0 1
-28.108828 -16.485634 -15.122997 35.924746 0.530429 2.005303 0.007878 -0.005449 890059.000000 0 0 1
-26.936598 -16.257434 -15.929597 35.265231 0.543022 2.039475 0.002089 -0.006890 153851.000000 0 0 1
-26.181588 -17.399434 -16.183497 35.357056 0.586548 2.046221 -0.005513 -0.002434 -199822.000000 0 0 1
-24.816248 -17.083534 -16.803097 34.496918 0.602899 2.079551 -0.004436 -0.012250 -54434.400000 0 0 1
-24.981448 -16.480034 -18.079097 34.964525 0.583158 2.114220 -0.011418 -0.005818 175741.000000 0 0 1
-23.720648 -16.108034 -18.612297 34.184141 0.596542 2.146555 -0.025848 0.001420 -36232.000000 0 0 1
-23.776748 -15.638534 -20.071697 34.824855 0.581786 2.185065 -0.025488 0.008579 -205313.000000 0 0 1
-24.186548 -16.504734 -21.097097 36.089927 0.598811 2.195147 -0.016955 0.001326 358230.000000 0 0 1
-25.575868 -16.727434 -21.259397 37.227598 0.579204 2.178600 0.001044 -0.001741 -28285.700000 0 0 1
-25.988668 -17.995534 -22.060897 38.547805 0.605633 2.180104 0.008389 0.000472 -234630.000000 0 0 1
-25.612758 -17.942334 -23.412197 39.064968 0.611077 2.213441 0.017278 0.007839 106443.000000 0 0 1
-26.007908 -19.138434 -24.031597 40.251815 0.634396 2.210592 0.013525 0.010992 -834019.000000 0 0 1
-25.395188 -19.288334 -25.414987 40.778389 0.649571 2.243684 0.029752 0.011920 154310.000000 0 0 1
-24.056248 -19.745734 -25.442157 40.198264 0.687305 2.256111 0.042044 0.005996 -51299.900000 0 0 1
-23.748248 -21.041734 -24.968897 40.375484 0.725045 2.237523 0.030755 0.009777 -667132.000000 0 0 1
-22.228348 -21.282634 -24.982697 39.638178 0.763667 2.252695 0.034539 0.007472 11646.400000 0 0 1
-21.747848 -21.409634 -26.273197 40.269371 0.777562 2.281591 0.044447 0.001654 -1344440.000000 0 0 1
-20.403748 -21.670434 -26.387947 39.777436 0.815495 2.296136 0.034919 0.005043 -816407.000000 0 0 1
-19.856748 -21.675034 -27.857527 40.498634 0.829151 2.329338 0.041403 0.004807 -79883.600000 0 0 1
-20.374748 -22.753934 -28.638697 41.869402 0.840507 2.324029 0.074041 0.000165 -107704.000000 0 0 1
-20.495348 -22.440334 -30.013987 42.713784 0.830667 2.349949 0.057587 -0.003807 232574.000000 0 0 1
-19.175748 -22.502734 -30.857027 42.734511 0.865054 2.377577 0.050603 -0.016387 435825.000000 0 0 1
-18.826148 -23.814334 -31.198327 43.530242 0.901851 2.369862 0.039694 -0.025247 -252541.000000 0 0 1
-18.136148 -23.768134 -32.428877 44.107552 0.918999 2.396792 0.035887 -0.025612 -138684.000000 0 0 1
-17.826648 -25.178914 -33.007217 45.180123 0.954722 2.389952 0.037805 -0.018308 -228704.000000 0 0 1
-17.362548 -25.214934 -34.358592 46.019168 0.967775 2.413755 0.031444 -0.021500 -361715.000000 0 0 1
-18.247048 -24.952034 33.854944 45.844476 0.939381 0.739992 0.034254 -0.020142 -548135.000000 0 0 1
-17.439248 -24.934934 32.521319 44.536665 0.960480 0.752160 0.030968 -0.015650 31995.400000 0 0 1
-16.744748 -23.727334 32.305479 43.439808 0.956245 0.732233 0.020330 -0.014714 20118.100000 0 0 1
-15.951648 -23.835534 31.109199 42.312764 0.981016 0.744805 0.025940 -0.011696 -101172.000000 0 0 1
-15.123848 -22.593934 30.817119 41.096368 0.980920 0.722924 0.004991 -0.002279 -583162.000000 0 0 1
-15.885148 -21.467134 30.424759 40.482610 0.933742 0.720386 0.008414 -0.006514 -325606.000000 0 0 1
-15.242448 -20.218234 30.355139 39.529023 0.924806 0.695208 0.009459 -0.005537 -209593.000000 0 0 1
-14.619848 -19.650634 31.701929 40.061199 0.931154 0.657803 0.007673 -0.007707 348040.000000 0 0 1
-14.184248 -18.302734 31.532089 39.121038 0.911499 0.633410 0.011479 -0.004853 -236458.000000 0 0 1
-13.581648 -17.744234 32.644289 39.559684 0.917504 0.600256 0.008708 -0.004981 -235140.000000 0 0 1
-13.041148 -16.305334 32.331999 38.487577 0.896172 0.573397 0.007522 -0.001834 -115656.000000 0 0 1
-12.065648 -16.205234 31.317869 37.269269 0.930791 0.572935 0.021204 -0.007793 -87566.700000 0 0 1
-11.714348 -14.845034 31.131949 36.425255 0.902732 0.545862 0.014090 -0.006980 -171398.000000 0 0 1
-10.269848 -14.651434 30.646359 35.487091 0.959436 0.528446 0.030938 -0.012671 -37758.300000 0 0 1
-10.018148 -13.264634 30.400019 34.647871 0.923942 0.500382 0.032230 -0.015343 250987.000000 0 0 1
-8.726648 -12.942534 30.915759 34.633044 0.977554 0.467569 0.030609 -0.016419 381911.000000 0 0 1
-8.246748 -11.480134 30.719669 33.815683 0.947861 0.431249 0.029264 -0.015777 -599785.000000 0 0 1
-8.866848 -10.663534 31.618169 34.525940 0.877134 0.413351 0.021376 -0.012492 -246821.000000 0 0 1
-8.617148 -9.281934 31.400029 33.858106 0.822522 0.383393 0.011959 -0.006395 -277959.000000 0 0 1
-9.354748 -8.354834 32.417109 34.758934 0.728996 0.369171 -0.004487 -0.006043 -637554.000000 0 0 1
-10.729848 -8.493234 32.237449 35.021676 0.669569 0.401438 0.007617 -0.007484 -561736.000000 0 0 1
-11.622748 -7.860434 33.125839 35.974934 0.594640 0.400661 0.005310 -0.013855 9462.820000 0 0 1
-11.428648 -6.346534 33.562823 36.018822 0.506917 0.371419 -0.002024 -0.011105 -677093.000000 0 0 1
-11.374848 -5.454434 32.489479 34.852608 0.447127 0.370362 0.005416 -0.010150 313547.000000 0 0 1
-11.681448 -4.179734 33.022359 35.276091 0.343615 0.359390 -0.002186 -0.015543 -308772.000000 0 0 1
-11.390148 -2.976134 32.134999 34.223544 0.255576 0.351163 -0.003460 -0.002535 -1084720.000000 0 0 1
-10.037948 -2.744434 32.061209 33.707765 0.266884 0.313850 0.007533 -0.006603 -1046570.000000 0 0 1
-9.739648 -1.659034 31.157829 32.686747 0.168719 0.307064 0.006637 -0.003386 -123475.000000 0 0 1
-8.302448 -1.136634 31.337099 32.438193 0.136058 0.261297 0.009678 0.000154 -34103.900000 0 0 1
-8.043248 -0.645634 32.649159 33.631507 0.080099 0.242291 0.011842 -0.013374 -292540.000000 0 0 1
-6.723348 -0.164234 32.728829 33.412671 0.024423 0.202666 0.023860 -0.014968 -233918.000000 0 0 1
-6.338448 0.485666 34.048306 34.636670 -0.076473 0.184581 0.032412 -0.022769 -84228.400000 0 0 1
-7.062148 1.680566 34.286548 35.046620 -0.233623 0.208645 0.025181 -0.017244 162645.000000 0 0 1
-6.510248 2.765066 33.507948 34.246335 -0.401638 0.208034 0.033547 -0.016219 193009.000000 0 0 1
-7.241248 4.138366 33.612116 34.631432 -0.519199 0.243223 0.044030 -0.006319 436077.000000 0 0 1
-8.467648 4.157766 32.887319 34.213503 -0.456436 0.279339 0.018886 0.007295 342859.000000 0 0 1
-9.146248 5.397866 33.089699 34.752251 -0.533162 0.310569 0.013519 0.013162 371080.000000 0 0 1
-10.524848 5.412566 32.362579 34.458740 -0.474995 0.350594 -0.012655 0.025975 278052.000000 0 0 1
-11.250248 6.562566 32.658449 35.159773 -0.528069 0.379477 -0.012153 0.023798 -254287.000000 0 0 1
-12.449948 6.769066 31.943279 34.945594 -0.497995 0.417548 -0.027082 0.024008 90683.300000 0 0 1
-13.108548 8.099466 32.425019 35.900100 -0.553460 0.443626 -0.013823 0.012910 -329053.000000 0 0 1
-13.786048 8.033566 33.638078 37.230546 -0.527625 0.442912 -0.003697 0.006535 -155298.000000 0 0 1
-14.239748 9.339866 33.818603 37.864250 -0.580512 0.466487 0.001026 0.004480 -328549.000000 0 0 1
-14.975448 9.468666 -34.081565 38.411883 -0.563817 2.662180 0.009117 0.006880 -5443.430000 0 0 1
-14.198848 9.539866 -32.891067 37.073422 -0.591600 2.662009 0.016335 -0.000889 -236836.000000 0 0 1
-14.946548 10.040066 -31.812597 36.554665 -0.591501 2.626556 0.019321 -0.006061 -1519700.000000 0 0 1
-14.130748 10.105266 -30.561957 35.154340 -0.620806 2.624712 0.021056 -0.009928 616187.000000 0 0 1
-13.089448 11.113266 -30.488607 34.991334 -0.703928 2.628680 0.030436 -0.012205 1633190.000000 0 0 1
-11.952348 10.866966 -31.361027 35.276955 -0.737870 2.665941 0.030339 -0.018066 49435.600000 0 0 1
-11.186648 12.192466 -31.734777 35.789571 -0.828394 2.660964 0.025846 -0.018393 -246581.000000 0 0 1
-11.791648 13.057066 -32.672167 37.107956 -0.836279 2.647633 0.018527 -0.020328 -245019.000000 0 0 1
-11.102848 14.255666 -32.825667 37.470277 -0.909093 2.638396 0.014834 -0.023740 -336959.000000 0 0 1
-11.273248 15.384766 -31.744097 37.033293 -0.938424 2.600560 0.015613 -0.024603 536981.000000 0 0 1
-12.532148 16.059566 -31.817217 37.779620 -0.908150 2.572109 0.016214 -0.023683 665537.000000 0 0 1
-12.638548 16.905366 -30.646137 37.211691 -0.928829 2.538459 0.010236 -0.020694 -126723.000000 0 0 1
-13.939948 17.711966 -30.826717 38.187987 -0.904011 2.510250 0.001456 -0.027384 -452262.000000 0 0 1
-14.038048 18.466966 -32.003697 39.526348 -0.920818 2.514403 0.000824 -0.026216 121820.000000 0 0 1
-15.346848 18.942766 -32.246157 40.424853 -0.889885 2.494237 -0.008112 -0.026865 27974.600000 0 0 1
-15.797948 20.143166 -31.458247 40.557904 -0.905712 2.458521 -0.012198 -0.024525 -460299.000000 0 0 1
-15.056248 21.325566 -31.827857 41.164096 -0.956042 2.454660 -0.005235 -0.021960 135294.000000 0 0 1
-15.549848 22.540566 -31.395947 41.660297 -0.966908 2.424345 -0.007520 -0.010556 -83269.700000 0 0 1
-16.911748 22.996966 -31.962307 42.853899 -0.936711 2.412597 -0.007631 -0.012275 351044.000000 0 0 1
-18.082948 22.457766 -31.356127 42.597546 -0.892894 2.398089 -0.002185 -0.013807 627806.000000 0 0 1
-19.153848 22.500666 -32.303017 43.779387 -0.865573 2.400689 0.020054 -0.017308 -440926.000000 0 0 1
-20.383248 21.664166 -31.912547 43.625950 -0.815852 2.391321 0.021589 -0.019991 -268663.000000 0 0 1
-21.303248 22.315966 -31.052127 43.772883 -0.808611 2.359431 0.056411 -0.020869 788086.000000 0 0 1
-22.217048 23.260866 -31.642627 45.121180 -0.808346 2.347989 0.041918 -0.014365 386045.000000 0 0 1
-23.543148 22.722566 -32.250717 45.942394 -0.767664 2.348972 0.041037 -0.019042 56470.800000 0 0 1
-23.243748 22.045466 -33.394357 46.275884 -0.758946 2.376959 0.043310 -0.012375 1107920.000000 0 0 1
-24.464448 21.722466 -34.106334 47.261155 -0.726101 2.376989 0.051293 -0.012909 858766.000000 0 0 1
-24.254548 20.589466 34.070596 46.615606 -0.703850 0.751180 0.046150 -0.001673 -56409.000000 0 0 1
-23.973148 19.310166 -34.612754 46.321022 -0.678080 2.414690 0.049241 -0.005378 485730.000000 0 0 1
-23.477548 18.369266 33.658762 44.961510 -0.663928 0.724829 0.041225 -0.011986 -56860.600000 0 0 1
-23.402848 16.838566 33.972555 44.557436 -0.623700 0.703714 0.025921 -0.006224 151603.000000 0 0 1
-24.684848 16.228466 34.045263 45.075323 -0.581578 0.714689 0.018657 0.002650 792945.000000 0 0 1
-25.020348 15.405366 32.887079 44.101055 -0.551893 0.729180 0.024928 0.002972 -470389.000000 0 0 1
-25.793648 14.128966 33.231699 44.376635 -0.501129 0.724462 0.010127 0.009459 802362.000000 0 0 1
-27.111338 14.418566 33.758575 45.635086 -0.488785 0.738097 0.016530 0.007721 1172350.000000 0 0 1
-28.097598 13.391466 33.802430 45.950088 -0.444757 0.744195 0.007404 0.009133 181177.000000 0 0 1
-27.901738 12.256266 -34.449307 45.994323 -0.413891 2.417333 -0.004302 0.000953 68184.700000 0 0 1
-26.745888 11.418766 34.602668 45.200391 -0.403509 0.698917 -0.006200 -0.011311 359789.000000 0 0 1
-27.095508 10.039066 34.562881 45.050440 -0.354825 0.696326 -0.002432 0.000975 -426778.000000 0 0 1
-25.904908 8.984966 -34.544351 44.103356 -0.333861 2.470687 -0.006859 -0.006727 564658.000000 0 0 1
-24.987848 8.805266 33.663583 42.838791 -0.338795 0.666775 -0.010731 -0.007576 321533.000000 0 0 1
-24.304448 10.028966 33.339604 42.459575 -0.391354 0.667764 -0.017615 -0.010682 -1381000.000000 0 0 1
-22.938548 9.792766 32.686059 41.115127 -0.403490 0.651807 0.000278 -0.003813 -355681.000000 0 0 1
-23.125748 9.462166 31.305409 40.054481 -0.388379 0.673617 0.001266 -0.001587 563167.000000 0 0 1
-21.852948 9.412166 30.661309 38.810515 -0.406693 0.659945 0.007267 0.001501 526797.000000 0 0 1
-21.911048 9.165466 29.158349 37.607301 -0.396185 0.683547 0.024589 -0.008504 -257669.000000 0 0 1
-22.484648 10.240166 28.510339 37.726116 -0.427360 0.714045 0.019371 -0.010526 181352.000000 0 0 1
-22.607848 9.991566 27.140829 36.709274 -0.416140 0.738699 0.014867 -0.012265 -643607.000000 0 0 1
-22.796848 11.279966 26.302969 36.589344 -0.459482 0.768621 0.021650 -0.012846 1224580.000000 0 0 1
-24.101048 11.867966 26.530479 37.756793 -0.457569 0.791656 0.020347 -0.009031 1557320.000000 0 0 1
-25.176508 11.458466 25.678929 37.743349 -0.427108 0.822548 0.017434 0.001089 179526.000000 0 0 1
-26.508458 12.166966 25.943289 39.035723 -0.430300 0.843833 0.008809 -0.000988 -488014.000000 0 0 1
-26.463248 13.579666 25.723369 39.324325 -0.474114 0.857760 0.022537 -0.005866 180802.000000 0 0 1
-27.541608 14.334966 26.275069 40.674447 -0.479900 0.868484 -0.004028 -0.001556 -47544.900000 0 0 1
-27.622438 15.768766 25.731129 40.911417 -0.518723 0.890598 -0.005429 -0.003087 172766.000000 0 0 1
-26.553968 16.642066 26.109249 40.789269 -0.559840 0.876167 0.011701 -0.004595 421485.000000 0 0 1
-26.496638 17.748866 25.296059 40.706076 -0.590206 0.900227 0.007523 -0.005710 -444157.000000 0 0 1
-21.941248 -9.506834 32.515749 40.361766 0.408868 0.634096 0.023131 -0.014826 300073.000000 0 0 1
-20.932148 -9.086934 31.594799 38.973818 0.409565 0.625505 0.018479 -0.023141 420980.000000 0 0 1
-21.504748 -8.838334 30.301209 38.193371 0.389948 0.654483 0.013237 -0.025613 271163.000000 0 0 1
-20.547448 -8.343034 29.141879 36.620390 0.385700 0.650497 0.005615 -0.010622 -495808.000000 0 0 1
-20.082048 -7.017134 29.329069 36.231521 0.336161 0.627513 0.009223 -0.015429 1046840.000000 0 0 1
-18.667948 -6.802234 29.512139 35.577086 0.349428 0.592537 0.017734 -0.017848 1977230.000000 0 0 1
-17.592248 -7.515634 28.535109 34.354394 0.403743 0.590594 0.030185 -0.019361 -199816.000000 0 0 1
-17.359248 -8.937634 28.613239 34.640182 0.475467 0.598799 0.023836 -0.014739 190697.000000 0 0 1
-16.965048 -9.568634 29.862629 35.653166 0.513544 0.577945 0.033507 -0.016611 308789.000000 0 0 1
-15.550248 -9.151334 30.390599 35.343254 0.531921 0.535782 0.034761 -0.017919 559426.000000 0 0 1
-14.463248 -9.752334 29.674019 34.421519 0.593258 0.531441 0.025023 -0.008587 -925178.000000 0 0 1
-13.279048 -9.216734 30.130459 34.192482 0.606742 0.492399 0.021062 -0.015754 -1158280.000000 0 0 1
-12.101948 -10.068834 29.671479 33.589213 0.693952 0.487806 0.017901 -0.013244 -651903.000000 0 0 1
-11.687948 -9.806434 28.384089 32.224692 0.698086 0.493209 0.042582 -0.010357 -203307.000000 0 0 1
-10.776148 -10.812834 27.988559 31.881063 0.787097 0.499326 0.043215 -0.007230 197137.000000 0 0 1
-10.172348 -10.629234 26.551199 30.354958 0.807359 0.505999 0.045509 -0.009126 912472.000000 0 0 1
-11.212548 -10.899934 25.591839 29.991199 0.771262 0.548492 0.040405 -0.011978 701124.000000 0 0 1
-10.642948 -10.833734 24.294499 28.650738 0.794281 0.558684 0.035244 -0.008494 -18105.800000 0 0 1
-11.559148 -11.265034 23.147599 28.219253 0.772513 0.608902 0.032516 -0.009838 -711022.000000 0 0 1
-11.841948 -12.653634 23.106899 28.883818 0.818522 0.643510 0.047135 -0.007107 -195399.000000 0 0 1
-13.066848 -12.942234 22.512299 29.069702 0.780607 0.684991 0.041816 -0.002149 -114766.000000 0 0 1
-14.344448 -12.782034 23.385099 30.265598 0.727864 0.687771 0.022525 0.002880 -425114.000000 0 0 1
-15.562848 -13.163234 22.792999 30.577668 0.702057 0.729642 0.011175 0.010891 -498689.000000 0 0 1
-16.545648 -13.076834 23.769299 31.776432 0.668828 0.725728 0.000912 0.017523 -439148.000000 0 0 1
-17.767948 -13.951234 23.377299 32.508999 0.665646 0.768287 0.003598 0.012241 -309972.000000 0 0 1
-17.572148 -15.365434 23.526399 33.141642 0.718501 0.781477 0.008479 0.014923 822965.000000 0 0 1
-18.781848 -16.158034 23.610199 34.223988 0.710444 0.809483 -0.012636 0.015204 825747.000000 0 0 1
-19.595448 -16.190434 24.929889 35.603527 0.690534 0.795107 -0.012765 0.015201 -95873.400000 0 0 1
-18.879548 -16.716434 26.030899 36.242023 0.724704 0.769510 0.002954 0.017724 -27499.700000 0 0 1
-19.645648 -16.760834 27.219869 37.520639 0.706324 0.759088 -0.000748 0.010653 -579961.000000 0 0 1
-19.095348 -17.521334 28.399889 38.447148 0.742438 0.739696 0.004128 0.006092 -433837.000000 0 0 1
-19.182348 -18.895734 28.069399 38.896046 0.777871 0.764611 0.014667 0.006035 352654.000000 0 0 1
-18.774848 -19.769134 29.163979 39.923067 0.811189 0.751736 0.014344 0.000244 -291061.000000 0 0 1
-18.676548 -21.272434 28.837909 40.409837 0.850287 0.776121 0.026570 0.000998 519402.000000 0 0 1
-19.962948 -21.910834 28.729409 41.279328 0.831883 0.801019 0.025571 0.003261 724753.000000 0 0 1
-19.821748 -23.261634 28.217859 41.596309 0.865072 0.825249 0.034871 0.008186 1013800.000000 0 0 1
-21.208348 -23.915934 27.801629 42.363859 0.845329 0.854947 0.034997 0.012696 905681.000000 0 0 1
-21.978148 -24.211134 28.942369 43.667823 0.833705 0.846265 0.030443 0.013978 24362.400000 0 0 1
-23.101848 -24.966234 28.518899 44.388465 0.824165 0.873060 0.010738 0.017410 451503.000000 0 0 1
-23.926748 -25.771884 29.584269 45.955503 0.822508 0.871396 -0.002056 0.014634 444633.000000 0 0 1
-24.609848 -25.050874 30.646119 46.608749 0.794279 0.853276 -0.011717 0.024710 502059.000000 0 0 1
-25.398718 -25.928244 31.423929 48.008666 0.795715 0.857213 -0.019625 0.028831 -278007.000000 0 0 1
-26.357588 -25.186524 32.361289 48.747682 0.762682 0.844837 0.000216 0.019363 -123480.000000 0 0 1
-27.348448 -24.574534 31.531129 48.436117 0.732025 0.861917 -0.007964 0.019593 44752.600000 0 0 1
-28.539688 -24.412134 32.263199 49.511414 0.707606 0.861063 -0.000939 0.003457 103611.000000 0 0 1
-29.768628 -24.020134 31.377849 49.474311 0.678931 0.883791 -0.002139 0.004682 -180609.000000 0 0 1
-30.210828 -24.994434 30.448279 49.643867 0.691187 0.910521 -0.003666 0.009249 716807.000000 0 0 1
-31.402788 -24.630034 29.720579 49.760290 0.665111 0.930697 -0.012491 0.005088 796368.000000 0 0 1
-32.662898 -25.151254 30.453449 51.252932 0.656195 0.934551 -0.013987 0.003500 -578865.000000 0 0 1
-32.708008 -26.554994 30.453609 51.984650 0.681943 0.944906 -0.002896 -0.001162 -233327.000000 0 0 1
-33.684858 -27.027894 31.323499 53.351085 0.676188 0.943300 0.003239 -0.000473 -422764.000000 0 0 1
-33.550858 -28.534534 31.451279 54.120816 0.704776 0.950679 0.013549 -0.004709 199405.000000 0 0 1
-32.367588 -28.920814 32.129769 54.003669 0.729219 0.933586 0.007955 -0.002212 84791.100000 0 0 1
-32.268898 -30.315454 32.290119 54.799273 0.754195 0.940674 0.008551 -0.008685 -97774.200000 0 0 1
-31.244528 -30.804874 33.335672 55.103792 0.778313 0.921079 0.015133 -0.003317 -70298.600000 0 0 1
-31.692808 -30.735704 -34.571359 56.074027 0.770068 2.235125 0.014846 -0.002202 -810483.000000 0 0 1
-30.687138 -31.006314 -33.686397 55.116833 0.790572 2.228349 0.005570 -0.012081 -793909.000000 0 0 1
-31.132458 -30.797164 -32.207427 54.360037 0.779984 2.204935 0.008908 -0.015598 -180011.000000 0 0 1
-31.343248 -29.451894 -31.833777 53.508902 0.754298 2.207969 -0.001225 -0.002212 653221.000000 0 0 1
-30.090528 -28.837054 -31.510387 52.248637 0.764130 2.218160 0.008125 -0.006306 431860.000000 0 0 1
-30.234678 -27.299714 -31.441657 51.458604 0.734430 2.228131 -0.009542 -0.000463 -136614.000000 0 0 1
-31.118198 -26.879564 -30.432707 51.156650 0.712445 2.207928 -0.019326 -0.007347 -86834.900000 0 0 1
-31.227298 -25.487154 -30.262257 50.403803 0.684530 2.214793 -0.012629 0.008881 -208660.000000 0 0 1
-30.016328 -24.883434 -29.514587 48.900676 0.692173 2.218757 -0.008667 0.000286 -60675.800000 0 0 1
-29.980358 -23.474734 -29.584897 48.219821 0.664291 2.231335 -0.009529 0.004637 -406638.000000 0 0 1
-29.060278 -23.028034 -28.649907 46.857308 0.670104 2.228661 0.028478 0.001605 -570447.000000 0 0 1
-28.840408 -21.501234 -28.709137 46.024849 0.640631 2.244359 0.044936 -0.007109 -107272.000000 0 0 1
-28.414938 -21.035134 -29.957127 46.339131 0.637254 2.273752 0.050132 -0.003907 218791.000000 0 0 1
-28.279068 -19.650334 -29.941737 45.632762 0.607276 2.286496 0.043304 -0.007982 -231190.000000 0 0 1
-27.420478 -19.064934 -31.108377 45.640831 0.607552 2.320731 0.055996 -0.002881 269364.000000 0 0 1
-28.058398 -18.818034 -32.358317 46.780902 0.590772 2.334636 0.043489 -0.010285 175951.000000 0 0 1
-28.626148 -17.500734 -32.449127 46.676310 0.548727 2.339487 0.042908 -0.014177 -322612.000000 0 0 1
-29.087908 -16.984634 -33.813767 47.727927 0.528502 2.358123 0.044071 -0.016509 -115514.000000 0 0 1
-30.096218 -17.740634 -34.453465 49.066829 0.532636 2.349243 0.033432 -0.018985 286813.000000 0 0 1
-31.362788 -17.177534 -34.128564 49.431276 0.501079 2.332872 0.016714 -0.011505 -313386.000000 0 0 1
-32.506158 -17.678534 34.236044 50.411186 0.498111 0.824212 0.007436 -0.017145 -281270.000000 0 0 1
-32.761708 -19.020334 34.400363 51.171160 0.526007 0.833538 -0.011722 -0.013987 -203743.000000 0 0 1
-33.533158 -19.501234 33.341690 51.151140 0.526743 0.860805 -0.005156 -0.014989 -412843.000000 0 0 1
-33.903108 -20.976134 33.633678 52.159786 0.554062 0.870008 -0.012291 -0.019770 -113411.000000 0 0 1
-32.798808 -21.856334 33.606341 51.796209 0.587801 0.864766 -0.005954 -0.017476 -75886.800000 0 0 1
-33.127968 -23.173734 33.998733 52.824219 0.610405 0.871577 -0.012607 -0.014387 -1042070.000000 0 0 1
-31.930888 -24.103634 34.305706 52.701501 0.646610 0.861970 -0.005699 -0.002675 -255217.000000 0 0 1
-31.316358 -23.917634 -33.725767 51.867088 0.652238 2.278689 -0.022681 -0.007612 -298047.000000 0 0 1
-30.400658 -22.851634 -33.765987 50.858029 0.644577 2.296854 -0.019568 -0.012039 -1017040.000000 0 0 1
-29.102988 -23.104334 -32.954497 49.666820 0.670999 2.296299 -0.002931 -0.002835 176344.000000 0 0 1
-28.264198 -24.159134 -33.487357 50.039302 0.707252 2.303956 -0.002548 -0.000478 461545.000000 0 0 1
-26.997918 -24.176134 -32.853677 48.915612 0.730313 2.307216 0.016559 -0.002572 -300646.000000 0 0 1
-26.814548 -24.826334 -31.453797 48.215228 0.746916 2.281493 0.022185 0.003724 -825090.000000 0 0 1
-26.695908 -26.238314 -31.447787 48.888485 0.776754 2.269539 0.016126 -0.011916 13932.400000 0 0 1
-26.354858 -26.633654 -30.177107 48.110164 0.790660 2.248814 0.010825 -0.019386 -222798.000000 0 0 1
-25.973848 -28.082464 -29.871077 48.533976 0.824386 2.233775 0.012770 -0.022258 -251212.000000 0 0 1
-27.096528 -28.895194 -30.049357 49.720398 0.817511 2.219767 0.000943 -0.003479 211580.000000 0 0 1
-26.701238 -30.113104 -29.522147 49.913048 0.845379 2.203679 0.001487 -0.003276 -236848.000000 0 0 1
-27.509518 -31.290534 -30.037257 51.362515 0.849613 2.195441 0.005588 0.002673 -281582.000000 0 0 1
-27.183778 -31.489844 -31.385437 52.111551 0.858657 2.217143 0.015416 -0.011338 384977.000000 0 0 1
-27.706498 -32.727664 -31.796907 53.383456 0.868293 2.208849 0.032497 -0.004143 -323942.000000 0 0 1
-27.342108 -33.016374 -33.251887 54.252740 0.879132 2.230531 0.009068 -0.019564 -302581.000000 0 0 1
-25.956888 -33.178014 -33.407827 53.764520 0.906909 2.241290 0.017173 -0.015048 -565387.000000 0 0 1
-25.533338 -33.629154 34.581812 54.578137 0.921394 0.884573 0.020375 -0.024309 605667.000000 0 0 1
-24.042648 -34.094071 34.504920 54.139118 0.956599 0.879757 0.022047 -0.021485 613415.000000 0 0 1
-23.932748 34.722886 33.279183 53.721125 -0.967322 0.902716 0.018873 -0.007277 -446827.000000 0 0 1
-22.771248 33.966548 33.126429 52.627145 -0.980212 0.889944 0.018263 0.000690 -540090.000000 0 0 1
-22.684348 33.216112 31.779379 51.262254 -0.971617 0.902134 0.025658 0.000669 -260424.000000 0 0 1
-23.783548 32.335152 31.597619 51.084525 -0.936619 0.903918 0.019243 -0.020496 71999.700000 0 0 1
-23.833248 31.630542 30.378379 49.913533 -0.925066 0.916476 0.010026 -0.007385 -927928.000000 0 0 1
-25.240148 31.226262 29.980049 50.109359 -0.891016 0.929428 0.015284 -0.008867 -853727.000000 0 0 1
-25.771728 30.350242 30.942119 50.425528 -0.866799 0.910159 0.020465 -0.012182 -876542.000000 0 0 1
-26.967978 29.886182 30.439479 50.467986 -0.836681 0.923359 0.014268 -0.018270 -649184.000000 0 0 1
-27.559588 28.674222 31.291989 50.605637 -0.805217 0.904155 0.030404 -0.022389 -101622.000000 0 0 1
-26.613418 27.628482 31.333829 49.531968 -0.804110 0.885893 0.022368 -0.013163 187362.000000 0 0 1
-27.044348 26.404922 31.913679 49.468167 -0.773435 0.869596 0.024460 -0.009297 -93316.100000 0 0 1
-27.963398 25.535542 31.059309 48.976486 -0.740048 0.883865 0.030704 -0.011634 -73272.900000 0 0 1
-27.318628 25.096102 29.926199 47.662345 -0.743021 0.891971 0.021635 -0.000627 -489784.000000 0 0 1
-28.157928 24.240762 29.210319 47.262312 -0.710780 0.904541 0.022936 0.014402 138846.000000 0 0 1
-27.504208 23.865862 27.866159 45.853938 -0.714690 0.917615 0.040429 -0.000961 994242.000000 0 0 1
-26.274728 23.099662 27.847779 44.715260 -0.721181 0.898505 0.041403 -0.005376 742948.000000 0 0 1
-25.866458 22.929962 26.535249 43.577244 -0.725292 0.916092 0.021106 0.005078 -521006.000000 0 0 1
-24.547548 22.154762 26.584289 42.428057 -0.734208 0.893648 0.013233 0.000799 -718701.000000 0 0 1
-24.614448 20.795162 27.062279 42.079410 -0.701488 0.872225 0.034245 -0.012398 991694.000000 0 0 1
-23.323648 20.188062 27.224539 41.142750 -0.713459 0.847700 0.023256 0.004329 535986.000000 0 0 1
-23.503248 18.972762 28.123789 41.271247 -0.679140 0.821071 0.036722 -0.003612 -469454.000000 0 0 1
-22.330848 18.302062 28.470619 40.548839 -0.686570 0.792410 0.023162 0.002086 -475947.000000 0 0 1
-22.559948 17.147162 29.276849 40.744451 -0.649915 0.769084 0.027144 0.003955 -462910.000000 0 0 1
-21.316448 16.345362 29.609349 39.978436 -0.654164 0.736784 0.027328 -0.005716 116672.000000 0 0 1
-20.367448 16.880062 30.546959 40.408986 -0.692043 0.713700 0.043275 -0.001643 277109.000000 0 0 1
-19.209348 16.098862 30.631129 39.578257 -0.697530 0.685760 0.025177 -0.003291 329546.000000 0 0 1
-18.074648 16.642062 31.555749 39.992704 -0.744157 0.661555 0.009547 -0.015195 145455.000000 0 0 1
-18.427748 16.559762 32.932519 41.211144 -0.732059 0.644972 0.011055 -0.025390 1077340.000000 0 0 1
-17.284248 16.749762 33.797096 41.491486 -0.769695 0.618835 0.005640 -0.022147 311458.000000 0 0 1
-17.571148 16.231962 -33.998087 41.570323 -0.745802 2.528453 0.006704 -0.030414 290397.000000 0 0 1
-18.479148 16.997762 -33.209027 41.632226 -0.743666 2.494228 0.020051 -0.030483 584297.000000 0 0 1
-19.844648 16.672862 -33.417217 42.290717 -0.698759 2.481897 0.030797 -0.023528 309299.000000 0 0 1
-20.818148 17.632262 -32.599767 42.509255 -0.702730 2.444772 0.045590 -0.028835 337484.000000 0 0 1
-20.892948 17.338162 -31.228757 41.380701 -0.692683 2.425947 0.048922 -0.027707 171282.000000 0 0 1
-21.648448 18.255762 -30.478377 41.603601 -0.700581 2.392915 0.050692 -0.027779 -900223.000000 0 0 1
-21.885048 17.882062 -28.964157 40.467837 -0.685075 2.368469 0.051535 -0.032510 -265229.000000 0 0 1
-22.629248 16.718862 -28.659007 40.161448 -0.636305 2.365413 0.029241 -0.024457 318737.000000 0 0 1
-23.939848 16.695562 -29.220717 41.300223 -0.608976 2.356778 0.035534 -0.025770 -226296.000000 0 0 1
-24.838048 15.640362 -28.580507 40.968218 -0.561967 2.342875 0.035206 -0.026008 -359692.000000 0 0 1
-24.434348 14.315462 -28.957777 40.503366 -0.529968 2.367345 0.007960 -0.015791 422834.000000 0 0 1
-25.241558 13.344762 -28.286597 40.191423 -0.486329 2.351524 -0.010293 -0.006310 195589.000000 0 0 1
-24.702448 11.845562 -28.568757 39.581588 -0.447138 2.377151 -0.005995 -0.003227 507449.000000 0 0 1
-23.838148 11.330762 -27.522487 38.133066 -0.443710 2.377122 -0.012910 0.000886 -34176.900000 0 0 1
-23.020148 10.364762 -28.115837 37.786979 -0.423060 2.409925 -0.024815 0.010019 -125829.000000 0 0 1
-21.874848 9.916362 -27.182527 36.273034 -0.425614 2.417932 -0.001341 0.009675 -149091.000000 0 0 1
-22.331448 8.951462 -26.281807 35.630824 -0.381235 2.400327 -0.013423 0.017840 -355772.000000 0 0 1
-21.317048 8.348562 -25.529117 34.290681 -0.373277 2.410569 0.011250 0.030817 -875793.000000 0 0 1
-21.740948 7.269562 -24.518197 33.565717 -0.322685 2.389782 0.012337 0.034060 -149523.000000 0 0 1
-22.286048 6.143162 -25.198167 34.195818 -0.268971 2.399238 0.006713 0.020307 256100.000000 0 0 1
-22.655048 5.155762 -24.245197 33.580689 -0.223766 2.377482 0.011750 0.030952 -336930.000000 0 0 1
33.484424 25.853066 -10.433897 43.571250 0.657491 1.812614 -0.027823 0.001297 -80966.500000 0 0 1
34.336291 25.013766 -9.664097 43.566777 0.629594 1.794480 -0.016796 0.001068 -132036.000000 0 0 1
34.769479 24.003566 -10.453397 43.524261 0.604229 1.813341 -0.008333 -0.004802 -195263.000000 0 0 1
-33.955458 23.116866 -9.804697 42.231442 -0.597723 1.805100 0.006748 -0.008890 -66087.700000 0 0 1
-34.424833 22.316566 -8.746397 41.947559 -0.575158 1.780845 -0.019487 -0.003445 -137268.000000 0 0 1
-33.333038 21.829666 -8.003897 40.640966 -0.579809 1.769034 -0.002564 0.006418 -486245.000000 0 0 1
-33.757318 21.024666 -6.794397 40.345470 -0.557029 1.740008 -0.025070 0.017311 -286866.000000 0 0 1
-34.197489 19.766866 -7.154897 40.142120 -0.524102 1.749993 -0.027082 0.010641 190560.000000 0 0 1
-34.601407 18.949766 -6.118697 39.922293 -0.501044 1.724668 -0.013848 -0.008586 -280951.000000 0 0 1
34.603263 17.561366 -6.461797 39.338812 0.469634 1.735804 -0.013599 0.007900 364388.000000 0 0 1
33.345724 17.696166 -7.114297 38.414903 0.487895 1.757068 -0.002283 -0.002998 179026.000000 0 0 1
32.952964 16.573766 -7.854297 37.713094 0.466007 1.780596 0.013699 0.002995 511046.000000 0 0 1
31.681244 16.910866 -8.704397 36.951930 0.490306 1.808591 0.013284 -0.007841 455917.000000 0 0 1
31.254704 15.845666 -9.539697 36.317316 0.469220 1.836591 0.025569 -0.012111 -112006.000000 0 0 1
30.631204 16.198866 -10.730297 36.274139 0.486449 1.871101 0.031261 -0.009237 -532019.000000 0 0 1
30.043854 14.901366 -11.448997 35.436752 0.460432 1.899781 0.019743 -0.004539 822769.000000 0 0 1
28.764954 14.382666 -11.038097 34.001812 0.463653 1.901420 0.007655 0.006601 1032690.000000 0 0 1
28.701574 13.958366 -9.706197 33.359055 0.452650 1.866028 0.016367 0.003272 -121983.000000 0 0 1
27.558214 12.918666 -9.431397 31.863746 0.438359 1.871290 0.000117 0.016636 502663.000000 0 0 1
27.950744 11.643066 -9.960897 31.875139 0.394697 1.888617 0.001066 0.019666 513711.000000 0 0 1
26.927854 10.686466 -9.851597 30.600062 0.377793 1.898582 0.003388 0.015832 -338116.000000 0 0 1
27.380564 9.282366 -10.428697 30.734594 0.326853 1.916985 -0.002426 0.016670 -411066.000000 0 0 1
28.274264 8.756366 -9.497197 31.085441 0.300326 1.881280 0.010089 0.019214 122227.000000 0 0 1
28.653844 7.411866 -9.787197 31.173189 0.253121 1.890159 -0.002015 0.014354 -566643.000000 0 0 1
29.794774 6.955666 -8.879697 31.858419 0.229345 1.853261 0.011649 0.014918 215915.000000 0 0 1
31.079524 7.453466 -9.255697 33.273997 0.235374 1.852681 0.010536 0.013555 233960.000000 0 0 1
32.070344 7.172266 -8.294797 33.893244 0.220021 1.818041 0.026406 0.008882 -734456.000000 0 0 1
33.449784 7.470366 -8.857097 35.399754 0.219725 1.823685 0.018056 0.011289 -725987.000000 0 0 1
33.817024 6.561466 -9.881297 35.836908 0.191647 1.850145 0.006991 0.013001 -1091400.000000 0 0 1
-34.643201 6.545366 -10.143097 36.686177 -0.186735 1.850929 0.004920 0.008350 -1874250.000000 0 0 1
-34.319751 5.692666 -11.472297 36.631480 -0.164375 1.889337 0.000167 0.012454 173281.000000 0 0 1
-32.992988 5.679366 -11.994597 35.562098 -0.170468 1.914829 -0.001289 0.011886 605794.000000 0 0 1
-32.502138 6.771466 -12.691597 35.543190 -0.205401 1.935931 -0.012285 0.013182 -266495.000000 0 0 1
-31.738678 7.812266 -11.809297 34.753916 -0.241346 1.917498 -0.008393 0.017843 -792085.000000 0 0 1
-32.512868 8.638366 -10.931697 35.372446 -0.259691 1.884986 -0.002874 0.012222 138731.000000 0 0 1
-32.956138 9.843166 -11.489597 36.263008 -0.290241 1.893193 -0.005317 0.010519 -184920.000000 0 0 1
-33.745978 10.667766 -10.410997 36.891478 -0.306179 1.856889 0.016914 0.006260 50295.800000 0 0 1
-33.050248 11.365766 -9.406297 36.193617 -0.331224 1.833703 0.008401 0.000861 -383702.000000 0 0 1
-33.932388 11.989066 -8.536397 36.986683 -0.339631 1.803693 0.024083 0.001656 -88768.700000 0 0 1
-33.121558 12.905166 -7.549797 36.339790 -0.371535 1.780076 0.019934 0.003432 441629.000000 0 0 1
-32.464988 13.979566 -8.237197 36.294009 -0.406608 1.799749 0.000994 -0.001121 -234174.000000 0 0 1
-31.867248 14.880666 -7.350997 35.930389 -0.436866 1.776841 -0.006868 0.003009 -111189.000000 0 0 1
-30.880468 15.780366 -8.105097 35.613422 -0.472420 1.800394 -0.013430 0.005352 9287.950000 0 0 1
-31.526938 16.812066 -8.823697 36.802867 -0.489900 1.812911 -0.008934 0.002525 371009.000000 0 0 1
-30.557098 17.768366 -9.252597 36.538495 -0.526691 1.826813 -0.002082 0.004946 341200.000000 0 0 1
-31.198418 18.802166 -10.214197 37.831105 -0.542376 1.844184 -0.015767 -0.003694 320060.000000 0 0 1
-31.328978 18.326666 -11.546797 38.088057 -0.529298 1.878804 -0.016592 -0.005780 -339344.000000 0 0 1
-32.261548 19.088366 -12.269297 39.442475 -0.534276 1.887113 -0.015843 -0.013176 -607488.000000 0 0 1
-32.052608 19.253666 -13.781197 39.849651 -0.540926 1.923919 -0.012580 -0.001161 371483.000000 0 0 1
-30.946358 20.115966 -14.102797 39.512252 -0.576394 1.935767 -0.004664 -0.005380 636843.000000 0 0 1
-30.918618 20.395166 -15.483697 40.145592 -0.583122 1.966750 -0.017719 -0.006673 -92024.100000 0 0 1
-30.030568 21.654666 -15.839297 40.269627 -0.624739 1.975048 0.004309 -0.015018 1799460.000000 0 0 1
-28.620588 21.436766 -15.509497 38.977140 -0.642860 1.980037 0.006971 -0.009393 1650200.000000 0 0 1
-27.829948 22.583466 -15.340497 38.985251 -0.681702 1.975226 0.015950 -0.010259 2486.230000 0 0 1
-27.215288 23.272666 -16.610997 39.474220 -0.707466 2.005130 0.014448 -0.020015 -363114.000000 0 0 1
-28.091198 23.992566 -17.488897 40.873220 -0.706867 2.012944 0.019180 -0.014899 457467.000000 0 0 1
-27.335968 24.613366 -18.520397 41.183468 -0.733037 2.037231 0.017599 -0.016495 277568.000000 0 0 1
-26.539948 25.897466 -18.123097 41.273408 -0.773146 2.025391 0.012677 -0.006615 443813.000000 0 0 1
-27.333608 27.004866 -17.684597 42.298154 -0.779348 2.002142 0.015718 -0.006991 411309.000000 0 0 1
-26.495558 28.158766 -17.612097 42.486664 -0.815820 1.998225 0.010126 -0.004214 318489.000000 0 0 1
-27.204738 29.456366 -17.153597 43.612167 -0.825116 1.975038 -0.001134 0.000891 -336449.000000 0 0 1
-27.526228 29.653666 -15.832997 43.447864 -0.822587 1.943799 -0.001352 -0.005113 156016.000000 0 0 1
-26.504198 29.536766 -14.846197 42.371011 -0.839459 1.928779 -0.006241 0.002671 -203284.000000 0 0 1
-26.950158 30.001766 -13.473797 42.520115 -0.838929 1.893235 -0.012132 0.005259 -292376.000000 0 0 1
-26.702018 31.419766 -13.382697 43.350848 -0.866391 1.884629 -0.006247 0.010936 104975.000000 0 0 1
-27.455588 32.138666 -12.430897 44.059396 -0.863820 1.856820 -0.027872 0.013572 276914.000000 0 0 1
-26.773688 33.566066 -12.240297 44.646792 -0.897495 1.848511 -0.040558 0.015788 220453.000000 0 0 1
-26.971128 34.485466 -13.317897 45.760851 -0.907065 1.866102 -0.043255 0.002641 -60335.300000 0 0 1
-26.088568 -33.904031 -13.337797 44.810641 0.914942 1.873024 -0.021320 0.015452 -164599.000000 0 0 1
-26.304188 -33.013431 -14.580197 44.658471 0.898027 1.903376 -0.021291 0.010338 -40978.900000 0 0 1
-25.733228 -33.613831 -15.737397 45.163639 0.917414 1.926716 -0.021477 0.001939 98504.800000 0 0 1
-26.202038 -32.878731 -16.870097 45.300749 0.897930 1.952392 -0.010862 0.010703 235711.000000 0 0 1
-25.498858 -33.279131 -18.232897 45.717949 0.917000 1.981018 -0.016717 0.003788 237027.000000 0 0 1
-25.834358 -34.537231 -18.763197 47.035007 0.928567 1.981135 -0.014729 0.007705 -39390.900000 0 0 1
-24.912448 33.986466 -18.307797 45.944372 -0.938257 1.980653 -0.023130 0.008251 -496308.000000 0 0 1
-24.896148 32.695566 -19.238097 45.375352 -0.920005 2.008628 -0.020734 0.000540 183307.000000 0 0 1
-26.132288 31.985766 -19.242197 45.565862 -0.885777 2.006771 -0.000307 0.006131 454077.000000 0 0 1
-26.995628 32.539266 -20.272997 46.888827 -0.878246 2.017908 0.006667 0.003354 -16073.600000 0 0 1
-28.485468 32.209666 -20.101297 47.465214 -0.846680 2.008097 0.012924 -0.002650 -146234.000000 0 0 1
-28.808758 30.865066 -20.411197 46.895776 -0.819844 2.021108 0.008318 0.003466 -450079.000000 0 0 1
-30.164138 30.751766 -20.709097 47.795533 -0.795044 2.018931 0.010658 -0.000414 -594717.000000 0 0 1
-30.617078 29.306366 -21.023297 47.310121 -0.763529 2.031270 0.013234 -0.004776 -70389.900000 0 0 1
-31.976008 29.107366 -21.358197 48.227341 -0.738470 2.029588 0.012900 -0.010271 193420.000000 0 0 1
-32.131228 27.798166 -21.883597 47.791690 -0.713221 2.046423 0.010122 -0.000897 885459.000000 0 0 1
-33.621668 27.447966 -22.274497 48.784840 -0.684648 2.044951 0.004149 -0.000402 1125790.000000 0 0 1
-34.220448 28.080466 -23.410197 50.075832 -0.687162 2.057251 -0.008246 0.003504 -344659.000000 0 0 1
34.583251 27.268266 -23.930697 50.122228 0.667678 2.068543 -0.002294 0.003795 -90738.900000 0 0 1
33.745950 27.919066 -25.039897 50.450568 0.691185 2.090157 0.007332 0.005053 237643.000000 0 0 1
34.474024 27.865866 -26.264447 51.524615 0.679790 2.105685 -0.002839 0.006387 -125258.000000 0 0 1
33.719554 28.349466 -27.345827 51.850697 0.699095 2.126329 0.030111 0.006007 -297732.000000 0 0 1
34.518205 28.528366 -28.620947 53.146333 0.690676 2.139489 0.025702 0.001011 -202288.000000 0 0 1
34.677805 27.292066 -29.254747 52.945701 0.666775 2.156208 0.002808 0.009514 -162309.000000 0 0 1
-34.400924 27.406066 -30.451397 53.495828 -0.672705 2.176365 -0.010197 0.006553 -685154.000000 0 0 1
-34.021828 26.020166 -31.033817 52.892642 -0.652911 2.197814 -0.011858 0.004002 12498.200000 0 0 1
-32.994468 25.296666 -30.449927 51.534011 -0.654100 2.202934 -0.008895 0.005819 -887705.000000 0 0 1
-31.664388 25.627066 -30.666877 50.988600 -0.680407 2.216106 -0.015908 0.006804 -449588.000000 0 0 1
-30.680488 25.135666 -29.582267 49.479334 -0.686382 2.211639 -0.014527 0.013746 -560880.000000 0 0 1
-30.496678 23.741166 -29.739517 48.766066 -0.661483 2.226656 -0.009231 0.002072 121200.000000 0 0 1
-31.399208 22.862366 -29.084997 48.523552 -0.629350 2.213547 -0.024563 0.001582 -88112.500000 0 0 1
-31.293248 21.483066 -29.664407 48.174335 -0.601613 2.234162 -0.034710 -0.007981 -542745.000000 0 0 1
-29.979208 21.020866 -29.550087 47.051433 -0.611518 2.249826 0.021626 -0.013778 -303232.000000 0 0 1
-29.893518 19.740366 -30.072717 46.772564 -0.583621 2.269148 0.006018 -0.014693 -611689.000000 0 0 1
-28.456918 19.246666 -30.162117 45.716339 -0.594672 2.291305 0.024008 -0.020784 -593369.000000 0 0 1
-27.679428 19.994766 -31.097857 46.184609 -0.625582 2.309511 0.031478 -0.018351 136078.000000 0 0 1
-26.426918 19.447966 -31.459897 45.456908 -0.634426 2.335165 0.037141 -0.023967 165478.000000 0 0 1
-26.258588 18.157766 -32.344517 45.446514 -0.604997 2.362719 0.032566 -0.013111 -338853.000000 0 0 1
-26.652588 17.045966 -31.550347 44.680530 -0.569002 2.354817 0.010465 -0.012646 214946.000000 0 0 1
-26.732568 15.867766 -32.357167 44.870953 -0.535681 2.376208 -0.008620 -0.000778 -173310.000000 0 0 1
-27.052338 14.624666 -31.503827 44.025004 -0.495603 2.368264 -0.006824 -0.001242 316101.000000 0 0 1
-28.328888 14.566866 -30.853517 44.347029 -0.474947 2.340231 -0.004189 -0.002244 488639.000000 0 0 1
-28.818248 13.251966 -30.898957 44.281503 -0.431012 2.343097 -0.012311 -0.000756 -384499.000000 0 0 1
-28.400258 12.374366 -29.748157 42.949417 -0.410910 2.335929 -0.023967 -0.012903 -572143.000000 0 0 1
-28.902328 12.855666 -28.493987 42.573701 -0.418519 2.304044 -0.024372 -0.011289 312538.000000 0 0 1
-28.798028 11.899566 -27.467617 41.537887 -0.391840 2.293302 -0.019245 -0.005786 -52485.000000 0 0 1
-28.776148 12.491766 -26.076337 40.793213 -0.409554 2.264296 -0.025542 -0.007327 -611334.000000 0 0 1
-27.472508 12.859166 -25.785197 39.811722 -0.437782 2.275330 -0.018158 -0.015016 -693149.000000 0 0 1
-27.408348 13.538766 -24.538797 39.200361 -0.458808 2.247189 -0.011054 -0.007496 -50352.800000 0 0 1
-25.979248 14.029466 -24.259397 38.213421 -0.495153 2.258597 0.005472 -0.006201 -386673.000000 0 0 1
-25.368028 14.945366 -25.197067 38.752974 -0.532397 2.278640 0.021875 -0.014153 705392.000000 0 0 1
-23.965948 15.143966 -25.041897 37.825956 -0.563542 2.294320 0.021377 -0.020886 644653.000000 0 0 1
-23.433248 15.787466 -23.719097 36.891147 -0.592870 2.269138 0.028040 -0.013487 -771946.000000 0 0 1
-23.886448 17.120666 -23.537397 37.652206 -0.621881 2.246090 0.040148 -0.016047 230078.000000 0 0 1
-24.282748 17.371666 -22.188797 37.199050 -0.620981 2.209915 0.040241 -0.013500 1168320.000000 0 0 1
-25.808518 17.438366 -21.767097 37.999772 -0.594218 2.180741 0.037521 -0.010294 1038200.000000 0 0 1
-26.522238 16.202666 -21.834697 37.983016 -0.548402 2.183222 0.032853 -0.003163 863114.000000 0 0 1
-27.621418 16.285766 -20.905097 38.277826 -0.532742 2.148547 0.022886 0.004894 330448.000000 0 0 1
-28.684238 15.127366 -20.981597 38.624475 -0.485307 2.145064 -0.023424 0.004312 446427.000000 0 0 1
-29.435528 14.907566 -22.173397 39.753558 -0.468793 2.162495 -0.021723 0.002736 259938.000000 0 0 1
-30.317388 15.926566 -22.526797 40.990927 -0.483704 2.152629 -0.036504 0.007288 -755505.000000 0 0 1
-30.691468 16.012766 -24.021197 42.135410 -0.480883 2.177418 -0.039389 0.002827 -487565.000000 0 0 1
-31.749948 15.181466 -24.358697 42.800493 -0.446021 2.176234 -0.031679 0.010729 -318416.000000 0 0 1
-31.988158 15.293266 -25.748297 43.818957 -0.445968 2.198894 -0.032183 0.006416 679159.000000 0 0 1
-33.184598 14.362566 -26.255607 44.686214 -0.408466 2.198830 -0.037721 0.008928 604755.000000 0 0 1
-33.150288 12.939566 -26.492897 44.364936 -0.372143 2.210750 -0.035337 0.007402 -151794.000000 0 0 1
-32.906558 12.141566 -25.340877 43.271460 -0.353475 2.196448 -0.038201 0.006927 -515559.000000 0 0 1
-32.800228 10.682066 -25.706177 43.020565 -0.314838 2.211216 -0.035790 -0.004134 1041380.000000 0 0 1
-34.075016 9.981766 -25.908057 43.954178 -0.284963 2.201153 -0.032314 0.004797 1084610.000000 0 0 1
-33.982718 8.803866 -26.622177 44.057615 -0.253496 2.219631 -0.024510 0.009167 -210782.000000 0 0 1
34.484200 8.148966 -27.014317 44.557143 0.232053 2.222177 -0.015127 0.004003 -78203.400000 0 0 1
33.918414 7.394666 -25.990187 43.366227 0.214655 2.213446 -0.013966 0.011900 462181.000000 0 0 1
32.737234 6.655566 -26.383037 42.568623 0.200569 2.239254 -0.004065 0.004558 877437.000000 0 0 1
32.076184 5.945466 -25.133807 41.181772 0.183275 2.227253 0.001607 0.002355 512588.000000 0 0 1
32.931604 4.949966 -24.594797 41.399236 0.149194 2.206928 0.005402 -0.004282 476480.000000 0 0 1
32.137804 4.189466 -23.735297 40.171562 0.129628 2.202906 0.016026 -0.003418 485858.000000 0 0 1
33.100354 3.274066 -22.955797 40.414373 0.098593 2.174883 0.018388 -0.008466 415970.000000 0 0 1
33.764443 2.258566 -23.671597 41.297496 0.066792 2.181198 0.020486 -0.017565 -34234.900000 0 0 1
34.535061 1.400566 -22.870197 41.444878 0.040533 2.155344 0.029125 -0.011705 -63148.000000 0 0 1
-34.698800 0.295766 -23.805097 42.080599 -0.008524 2.172081 0.041373 -0.003885 135010.000000 0 0 1
34.244471 -0.806934 -23.981297 41.814322 -0.023560 2.181591 0.021569 -0.009673 455964.000000 0 0 1
-34.780311 -1.852434 -24.577297 42.627985 0.053211 2.185300 0.029208 -0.007143 482056.000000 0 0 1
-22.138748 29.603466 27.791439 46.247739 -0.928677 0.926138 -0.003080 0.002762 -973214.000000 0 0 1
-23.117548 30.057166 26.911089 46.497967 -0.915171 0.953591 -0.013509 -0.004283 129819.000000 0 0 1
-23.350448 29.263666 25.769109 45.449450 -0.897317 0.967957 -0.015032 0.012584 -265674.000000 0 0 1
-23.911948 27.796566 25.836009 44.854539 -0.860383 0.956975 -0.015763 0.006688 -707889.000000 0 0 1
-25.174348 27.643466 26.409049 45.774959 -0.832112 0.955829 0.003502 0.006087 -388984.000000 0 0 1
-25.267718 27.581466 27.793919 46.601467 -0.829150 0.931766 0.006850 0.005554 -770035.000000 0 0 1
-24.703148 26.253166 28.460789 45.929192 -0.815807 0.902478 0.006912 0.009582 406677.000000 0 0 1
-23.300548 26.252566 28.719169 45.353097 -0.844901 0.885070 0.001997 0.010518 372598.000000 0 0 1
-22.964748 26.823066 29.990079 46.327760 -0.862739 0.866699 -0.003819 0.003122 374560.000000 0 0 1
-21.556048 26.442366 30.538179 45.786922 -0.886850 0.840671 0.006198 0.007398 -366039.000000 0 0 1
-20.475948 27.045466 29.895709 45.215872 -0.922771 0.848409 0.017479 0.004967 -439131.000000 0 0 1
-19.243448 26.780166 30.512869 44.927973 -0.947715 0.824191 0.029177 0.005218 -22833.900000 0 0 1
-18.573848 25.411566 30.176289 43.604402 -0.939618 0.806476 0.025703 0.007185 -662981.000000 0 0 1
-18.203148 25.312466 28.799089 42.443645 -0.947341 0.825043 0.026813 0.011692 382895.000000 0 0 1
-19.123948 24.635466 27.923329 41.861006 -0.910689 0.840556 0.022450 0.008520 139140.000000 0 0 1
-19.070348 23.069366 27.919259 40.931147 -0.880014 0.820162 0.017064 0.019832 14601.100000 0 0 1
-19.502648 22.404266 29.091529 41.576693 -0.854527 0.795808 0.007113 0.010811 69671.200000 0 0 1
-19.650348 20.999966 28.998609 40.841817 -0.818587 0.781266 0.004378 0.017281 76280.200000 0 0 1
-20.225948 20.352666 30.280379 41.715960 -0.788521 0.758497 0.012793 0.003633 -484744.000000 0 0 1
-19.381748 20.523366 31.354859 42.189902 -0.813999 0.732980 0.012104 -0.007401 -437854.000000 0 0 1
-19.861748 19.972666 32.557379 43.050892 -0.788183 0.713229 0.018832 -0.010380 -323758.000000 0 0 1
-19.001448 20.342966 33.778029 43.770384 -0.819482 0.689271 0.015431 -0.013375 -187628.000000 0 0 1
-18.967348 21.763166 33.983734 44.590244 -0.853933 0.704194 0.020783 -0.011889 20904.800000 0 0 1
-18.101348 22.572266 33.219658 44.053509 -0.894880 0.716551 0.033966 -0.007518 -851059.000000 0 0 1
-16.643848 22.741866 33.644408 43.887997 -0.939007 0.697272 0.017327 -0.003270 -58492.000000 0 0 1
-15.921448 21.504366 33.530803 42.898077 -0.933479 0.673507 0.005694 -0.017039 -322160.000000 0 0 1
-14.605148 21.638966 34.000094 42.866788 -0.977083 0.654821 -0.001906 -0.005551 -358957.000000 0 0 1
-13.796548 20.281466 33.914689 41.855569 -0.973446 0.626168 -0.005865 -0.008817 -84713.300000 0 0 1
-12.448248 20.314766 34.310540 41.771542 -1.021041 0.606960 -0.019813 -0.011731 9807.270000 0 0 1
-12.227548 20.530366 -33.547797 41.188148 -1.033631 2.522665 -0.011706 -0.017339 -979103.000000 0 0 1
-10.781348 20.366866 -33.065287 40.303348 -1.083940 2.532925 -0.016465 -0.013223 -71110.100000 0 0 1
-9.979348 21.491366 -33.338027 40.900981 -1.136080 2.523683 -0.030400 -0.001534 213065.000000 0 0 1
-8.709548 21.410366 -32.690077 40.036247 -1.184449 2.526140 -0.037079 0.000011 452554.000000 0 0 1
-7.723048 22.562466 -32.991957 40.708470 -1.241001 2.515707 -0.039110 0.004765 -191295.000000 0 0 1
-7.846048 23.762766 -32.214277 40.792023 -1.251884 2.481149 -0.028334 0.009463 268821.000000 0 0 1
-7.377548 23.630866 -30.836887 39.544400 -1.268185 2.465149 -0.030163 0.002631 -74344.300000 0 0 1
-7.126648 24.989966 -30.169547 39.818200 -1.292990 2.430551 -0.030748 0.002227 315122.000000 0 0 1
-5.956248 25.582966 -30.735717 40.430796 -1.342050 2.434426 -0.042144 0.004455 383250.000000 0 0 1
-5.760748 26.895366 -30.186317 40.838225 -1.359793 2.402631 -0.025126 0.006306 -151275.000000 0 0 1
-4.367048 27.398966 -30.591057 41.298755 -1.412738 2.404947 -0.032238 0.011811 -255085.000000 0 0 1
-3.273048 26.717466 -29.976177 40.287802 -1.448898 2.409910 -0.029067 0.004802 240193.000000 0 0 1
-2.012148 27.126866 -30.437897 40.821332 -1.496756 2.412287 -0.024176 0.007254 108251.000000 0 0 1
-1.459048 28.539166 -29.999967 41.432002 -1.519716 2.380492 -0.017718 0.002703 -596163.000000 0 0 1
-1.078348 28.519866 -28.631177 40.426351 -1.533004 2.357785 -0.016191 -0.002647 180023.000000 0 0 1
-0.411048 29.697466 -28.270227 41.003831 -1.556956 2.331530 -0.019411 -0.001341 -1138760.000000 0 0 1
0.070052 29.614266 -26.816967 39.951963 1.568431 2.306664 -0.014944 -0.008229 -320174.000000 0 0 1
0.941352 28.526466 -26.501377 38.948278 1.537809 2.319139 -0.002029 -0.009181 -217943.000000 0 0 1
2.240952 28.914966 -26.879167 39.542214 1.493449 2.318230 -0.005024 -0.008251 -1130500.000000 0 0 1
3.218552 29.002366 -25.711557 38.891907 1.460273 2.293084 -0.008898 -0.012791 -439216.000000 0 0 1
3.423952 27.758066 -25.117057 37.591225 1.448066 2.302533 0.015951 -0.008696 500677.000000 0 0 1
4.548552 27.843166 -24.232697 37.190789 1.408863 2.280459 0.010047 -0.000038 427115.000000 0 0 1
5.103052 26.518466 -23.615197 35.874053 1.380686 2.289329 0.026822 -0.001867 228115.000000 0 0 1
6.377452 26.784066 -23.040197 35.901375 1.337043 2.267592 0.009986 -0.006170 -74348.500000 0 0 1
7.098152 25.563566 -22.969397 35.092347 1.299953 2.284372 0.021822 0.007354 -83424.000000 0 0 1
8.562152 25.753466 -22.556897 35.289730 1.249827 2.264243 0.013448 0.016255 -812362.000000 0 0 1
8.696352 26.306266 -21.241097 34.911751 1.251525 2.224868 0.019301 0.014392 84392.400000 0 0 1
9.987252 26.755266 -20.882497 35.378922 1.213533 2.202168 0.020360 0.012413 51442.200000 0 0 1
11.049952 25.730066 -20.502797 34.705942 1.165157 2.202794 0.003143 0.023630 -489865.000000 0 0 1
11.354652 24.823966 -21.516097 34.757730 1.141800 2.238304 -0.003122 0.015698 -317776.000000 0 0 1
11.777152 23.600766 -20.932897 33.673188 1.107936 2.241642 -0.002249 0.015032 -435769.000000 0 0 1
11.954252 22.458566 -21.907697 33.574372 1.081659 2.281692 -0.010529 0.008698 110277.000000 0 0 1
10.836852 22.171666 -22.747797 33.563110 1.116173 2.315511 -0.006398 0.001976 508285.000000 0 0 1
11.188052 21.062466 -23.520597 33.496544 1.082514 2.349251 -0.019193 -0.001975 17009.800000 0 0 1
10.363952 21.027466 -24.787997 34.117599 1.112863 2.384078 0.006003 0.000405 1508380.000000 0 0 1
8.916052 20.868266 -24.698897 33.541258 1.167018 2.398491 -0.001648 -0.000123 1622040.000000 0 0 1
8.331852 20.959466 -25.983247 34.407093 1.192428 2.426712 -0.011594 -0.001945 -575152.000000 0 0 1
6.844152 20.582466 -26.070277 33.913709 1.249775 2.447640 0.009264 -0.004582 -112454.000000 0 0 1
5.871752 21.537266 -25.732877 34.066292 1.304633 2.427025 0.018417 -0.000958 33865.200000 0 0 1
5.783152 21.848666 -24.387897 33.250241 1.312039 2.394202 0.024845 0.004170 -109676.000000 0 0 1
4.317952 22.046666 -23.859297 32.771424 1.377389 2.386272 0.030418 0.002526 572949.000000 0 0 1
3.806252 23.304266 -24.203697 33.814128 1.408897 2.368546 0.019220 0.005965 -873843.000000 0 0 1
2.414352 23.323666 -24.259897 33.739666 1.467649 2.373205 0.013959 0.004269 -481580.000000 0 0 1
1.934952 24.785666 -24.504797 34.907855 1.492887 2.348977 0.000989 0.015416 355666.000000 0 0 1
0.579852 24.977166 -24.923597 35.289952 1.547585 2.354986 0.000096 -0.004231 468870.000000 0 0 1
0.408652 25.620866 -26.154757 36.615120 1.554848 2.366442 -0.004257 0.000595 953395.000000 0 0 1
-1.079448 25.692766 -26.681887 37.056801 -1.528807 2.374637 0.004557 0.002510 844904.000000 0 0 1
-1.515548 24.376366 -27.149637 36.518582 -1.508703 2.409006 0.017078 -0.005805 1422950.000000 0 0 1
-2.782748 24.502766 -27.895067 37.232566 -1.457712 2.417667 0.014192 -0.002002 1432900.000000 0 0 1
-3.328748 23.101466 -28.213097 36.616077 -1.427689 2.450439 0.007264 -0.007387 -416099.000000 0 0 1
-2.567348 22.400266 -29.187077 36.881549 -1.456682 2.483849 0.017204 -0.012669 26440.000000 0 0 1
-3.024748 21.110666 -29.496957 36.398898 -1.428484 2.515598 0.002017 -0.002421 -283306.000000 0 0 1
-4.222848 21.018266 -30.482607 37.266463 -1.372523 2.528658 -0.014422 0.004613 -235798.000000 0 0 1
-4.097148 21.273366 -31.889337 38.552205 -1.380531 2.544854 -0.013351 0.002240 -184578.000000 0 0 1
-3.956348 22.621266 -32.212117 39.560015 -1.397652 2.522249 -0.001255 0.006894 -381628.000000 0 0 1
-3.564348 22.678166 -33.697767 40.774296 -1.414901 2.543563 -0.007631 0.007229 66572.500000 0 0 1
-2.421448 21.882166 -33.945697 40.459893 -1.460586 2.566232 -0.009553 0.010771 82726.200000 0 0 1
-1.917148 22.087066 34.039164 40.622390 -1.484214 0.577297 -0.010167 0.022283 237004.000000 0 0 1
-0.744948 21.151866 33.616176 39.724094 -1.535592 0.561905 0.006279 0.026975 225554.000000 0 0 1
-1.175748 19.869466 33.151859 38.668124 -1.511692 0.540710 -0.004047 0.032903 217443.000000 0 0 1
-0.123948 18.983966 32.812779 37.908901 -1.564267 0.524510 0.004827 0.029159 -183672.000000 0 0 1
-0.663648 17.646166 32.378389 36.880722 -1.533205 0.499292 0.003305 0.039120 62661.700000 0 0 1
-1.388748 17.755066 31.140909 35.873767 -1.492738 0.519497 0.002771 0.030930 307989.000000 0 0 1
-1.646748 16.448566 30.658189 34.830900 -1.471014 0.494511 -0.004107 0.026882 -500380.000000 0 0 1
-2.617548 16.405866 29.450779 33.813494 -1.412580 0.513609 0.007432 0.025113 468404.000000 0 0 1
-3.954548 16.751866 29.823119 34.433731 -1.338974 0.523446 -0.001646 0.016861 383553.000000 0 0 1
-4.284348 18.111766 29.621929 34.983573 -1.338515 0.560972 -0.000079 0.015931 -1728410.000000 0 0 1
-5.676548 18.534966 29.942439 35.669564 -1.273605 0.574545 -0.005947 0.006122 -1020480.000000 0 0 1
-6.548948 18.040766 28.923879 34.712371 -1.222580 0.585847 -0.007734 0.006264 -155030.000000 0 0 1
-7.889448 18.357666 29.273719 35.442882 -1.164898 0.598928 -0.021315 0.006647 -105014.000000 0 0 1
-8.918048 17.582066 28.434379 34.600210 -1.101386 0.606237 -0.015539 0.000371 -290408.000000 0 0 1
-9.133748 16.174066 28.687019 34.175588 -1.056725 0.574616 -0.003144 -0.013062 377702.000000 0 0 1
-9.907848 15.967266 29.892289 35.308185 -1.015432 0.561212 -0.007206 -0.017161 -210668.000000 0 0 1
-10.397748 14.501666 30.185779 35.065549 -0.948749 0.533881 -0.003072 -0.024188 944338.000000 0 0 1
-9.371548 13.455466 30.437589 34.573433 -0.962432 0.494144 0.007858 -0.013944 1438200.000000 0 0 1
-8.543948 13.698466 31.592429 35.478565 -1.013121 0.472430 0.009597 -0.006137 -12974.300000 0 0 1
-9.056348 13.246166 33.000389 36.694741 -0.971097 0.452580 0.025662 -0.015442 -463622.000000 0 0 1
-9.364448 11.862366 32.994319 36.290959 -0.902537 0.429532 0.020725 -0.004827 451400.000000 0 0 1
-9.879848 11.480466 34.249166 37.448870 -0.860193 0.416382 0.025085 -0.003442 -554694.000000 0 0 1
-10.248548 9.971866 34.411243 37.263983 -0.771716 0.393833 0.025058 0.001918 -855924.000000 0 0 1
-9.174948 9.077566 34.356580 36.700905 -0.780063 0.359356 0.012928 0.013151 -104110.000000 0 0 1
-8.829548 8.488066 -33.671637 35.829978 -0.765682 2.792729 0.024399 0.000045 -442055.000000 0 0 1
-7.950648 9.310366 -32.727597 34.942686 -0.864010 2.783617 0.013313 -0.006889 -824808.000000 0 0 1
-8.584048 10.388266 -32.099597 34.813590 -0.880210 2.744120 0.018045 -0.008848 221151.000000 0 0 1
-7.727648 11.164566 -31.240257 34.063437 -0.965353 2.731590 0.008073 -0.003189 549505.000000 0 0 1
-6.798548 12.230866 -31.944177 34.874701 -1.063472 2.728715 -0.004146 -0.000682 730389.000000 0 0 1
-7.522748 13.486666 -32.182467 35.695841 -1.061991 2.694192 0.004703 -0.004688 855814.000000 0 0 1
-6.714348 14.451066 -32.890197 36.546967 -1.135846 2.690436 -0.006195 -0.000778 -87436.300000 0 0 1
-7.297248 15.828766 -33.167107 37.468075 -1.138823 2.657741 -0.011728 -0.000162 -451683.000000 0 0 1
-8.156948 15.809866 -34.276537 38.618242 -1.094478 2.662848 -0.006382 -0.007354 -35820.800000 0 0 1
-8.464348 17.123466 34.568658 39.494941 -1.111709 0.504807 -0.006677 -0.005559 -1444710.000000 0 0 1
-9.133948 17.121566 33.208214 38.462481 -1.080728 0.528841 -0.005859 -0.016137 344920.000000 0 0 1
-10.417548 16.541266 33.025429 38.377307 -1.008759 0.534456 0.000117 -0.021983 766811.000000 0 0 1
-11.459948 17.163966 33.810781 39.611880 -0.982096 0.548032 -0.006013 -0.033657 -224205.000000 0 0 1
-12.824948 17.006966 33.049069 39.318661 -0.924677 0.572510 -0.015224 -0.030665 231108.000000 0 0 1
-13.224248 15.683966 32.669659 38.576860 -0.870281 0.560721 -0.022805 -0.025064 368337.000000 0 0 1
-13.530548 14.686866 33.608637 39.093736 -0.826354 0.536127 -0.005921 -0.024905 -308705.000000 0 0 1
-12.890248 13.339266 33.119389 37.960353 -0.802515 0.510556 -0.012517 -0.010563 -338395.000000 0 0 1
-13.309548 12.743866 31.917679 36.854964 -0.763689 0.523580 -0.030253 -0.010660 -144691.000000 0 0 1
-12.413748 11.734266 31.519449 35.850659 -0.757267 0.496642 -0.017297 -0.005936 -453356.000000 0 0 1
-12.567748 11.153466 30.125629 34.494950 -0.725848 0.508790 -0.025907 -0.003339 -328357.000000 0 0 1
-13.616248 10.218466 29.948999 34.449409 -0.643796 0.516887 -0.025318 0.009820 244653.000000 0 0 1
-13.528948 9.663566 28.629719 33.107065 -0.620251 0.526121 -0.043463 0.017423 69026.200000 0 0 1
-14.424648 8.442666 28.342909 32.903944 -0.529536 0.532810 -0.025989 0.024026 144021.000000 0 0 1
-14.032848 7.234866 28.987719 33.008362 -0.476023 0.498725 -0.037781 0.023775 132536.000000 0 0 1
-14.886148 6.229766 28.550709 32.795584 -0.396347 0.514446 -0.020006 0.031861 -185392.000000 0 0 1
-14.065248 4.923666 28.463399 32.128473 -0.336727 0.482313 -0.020935 0.032277 -28879.600000 0 0 1
-13.130448 4.819966 27.423729 30.784763 -0.351812 0.471646 -0.018076 0.022504 -147248.000000 0 0 1
-13.613948 4.641966 26.069759 29.774481 -0.328609 0.504174 -0.017235 0.025571 225872.000000 0 0 1
-12.469748 4.346466 25.036129 28.305373 -0.335392 0.485373 -0.020609 0.035037 203880.000000 0 0 1
-11.818648 3.109566 25.108929 27.925045 -0.257276 0.452963 -0.021876 0.027038 138064.000000 0 0 1
-11.008548 2.893466 23.958799 26.525164 -0.257025 0.443517 -0.020844 0.021617 -601049.000000 0 0 1
-10.270048 1.547966 23.994399 26.145769 -0.149600 0.408504 -0.017457 0.012785 -76963.100000 0 0 1
-9.032048 1.786266 24.647889 26.311348 -0.195250 0.357491 -0.018585 0.007538 232192.000000 0 0 1
-8.269548 0.598366 24.821279 26.169435 -0.072232 0.322382 -0.014585 0.003150 -845977.000000 0 0 1
-6.779248 0.785466 24.711719 25.636774 -0.115349 0.269452 0.003266 -0.004934 -1553410.000000 0 0 1
-6.472648 0.830966 23.359499 24.253904 -0.127683 0.272418 0.011629 0.000884 1367170.000000 0 1 0
-5.109848 1.228566 22.995899 23.588796 -0.235952 0.224681 0.004159 -0.004552 1446840.000000 0 1 0
-4.594048 2.629966 23.431999 24.022501 -0.519933 0.222183 0.025876 -0.008147 -608271.000000 0 1 0
-4.309348 2.762766 24.782209 25.305360 -0.570100 0.203692 0.020107 -0.012994 66744.500000 0 0 1
-4.000948 4.167366 25.032849 25.690816 -0.805769 0.226809 0.024438 -0.022604 -76823.000000 0 0 1
3.778052 -23.949134 12.873703 27.451174 -1.414333 1.082675 0.018805 0.013776 309453.000000 0 0 1
3.487252 -25.160884 13.565603 28.796816 -1.433076 1.080282 0.006590 -0.000176 864044.000000 0 0 1
2.190552 -25.775244 13.322003 29.097036 -1.486013 1.095224 -0.015842 -0.001086 1215440.000000 0 0 1
1.902352 -27.056844 14.146003 30.590868 -1.500602 1.090067 -0.024552 0.006659 -241153.000000 0 0 1
1.754652 -26.814154 15.532703 31.037760 -1.505452 1.046683 -0.015805 -0.002361 20194.400000 0 0 1
1.745152 -28.034834 16.261103 32.456447 -1.508627 1.046027 -0.018997 -0.001045 -519177.000000 0 0 1
1.587652 -27.892794 17.761603 33.105939 -1.513938 1.004503 -0.034177 -0.000510 -1335480.000000 0 0 1
2.589652 -27.292074 18.422103 33.029343 -1.476193 0.979124 -0.023931 -0.002512 -1004510.000000 0 0 1
2.426852 -27.678794 19.756403 34.092825 -1.483341 0.952695 -0.037001 -0.004708 113758.000000 0 0 1
3.244952 -26.842034 20.739303 34.075552 -1.450489 0.916467 -0.036175 0.005502 -29425.400000 0 0 1
2.669552 -25.551994 20.893003 33.114174 -1.466699 0.888034 -0.039733 0.007018 446622.000000 0 0 1
3.311752 -24.860434 21.988003 33.353878 -1.438362 0.850997 -0.022669 0.004073 273846.000000 0 0 1
2.571252 -23.584334 22.511203 32.704532 -1.462202 0.811625 -0.016935 0.001714 -187038.000000 0 0 1
2.196052 -22.621534 21.549103 31.319647 -1.474022 0.812015 -0.013501 0.002809 207750.000000 0 0 1
3.237752 -21.857434 20.961603 30.456843 -1.423735 0.811737 -0.006228 0.009658 -140036.000000 0 0 1
2.653952 -20.732034 20.049503 28.962792 -1.443477 0.806194 -0.011900 -0.000101 212553.000000 0 0 1
2.149352 -19.621434 20.802003 28.676536 -1.461690 0.759179 -0.021000 -0.000783 60486.000000 0 0 1
1.428052 -18.695234 20.037803 27.442024 -1.494558 0.752201 -0.025085 -0.003813 -22552.200000 0 0 1
1.048952 -17.349434 20.665103 27.002772 -1.510410 0.699296 -0.029444 -0.001929 -42265.600000 0 0 1
2.166752 -16.480034 20.681303 26.533048 -1.440069 0.677002 -0.032814 0.010463 -60999.000000 0 0 1
1.809652 -15.252734 21.207003 26.185067 -1.452704 0.626833 -0.027346 0.013290 117236.000000 0 0 1
2.804252 -14.085534 21.043203 25.477098 -1.374278 0.598884 -0.027676 0.017321 -519302.000000 0 0 1
3.180852 -13.658034 19.761803 24.231975 -1.341983 0.617159 -0.037788 0.016381 -29538.300000 0 1 0
2.104452 -13.278234 18.916103 23.206878 -1.413615 0.617881 -0.023881 0.024814 694605.000000 0 1 0
1.187452 -12.035634 19.265203 22.746749 -1.472453 0.560587 -0.022593 0.019308 523122.000000 0 1 0
1.820452 -10.745434 18.940703 21.852429 -1.402974 0.522138 -0.015202 0.009765 104053.000000 0 1 0
1.534952 -9.612034 19.824803 22.085518 -1.412443 0.456415 -0.012085 0.001143 -13424.200000 0 1 0
0.070752 -9.152434 19.928903 21.930190 -1.563066 0.430534 -0.001987 -0.000473 -26029.700000 0 1 0
-0.227848 -8.193134 20.960303 22.505859 1.542994 0.372758 -0.001354 -0.003373 258049.000000 0 1 0
-1.617548 -7.880734 21.044203 22.529557 1.368354 0.365148 0.001642 -0.004116 500385.000000 0 1 0
-1.787648 -7.131334 22.425603 23.599985 1.325182 0.316797 0.009572 0.002060 -144759.000000 0 1 0
-1.952548 -7.891334 23.582303 24.944150 1.328239 0.331964 -0.001514 0.018764 172416.000000 0 1 0
-1.935748 -7.165534 24.796903 25.883941 1.306947 0.290840 -0.001669 0.019043 -202316.000000 0 0 1
-2.203248 -8.075634 25.977403 27.292777 1.304452 0.311728 -0.005721 0.019147 129397.000000 0 0 1
-1.144448 -8.984734 26.233803 27.753336 1.444102 0.332441 -0.011733 0.025531 254221.000000 0 0 1
-1.454848 -9.912034 27.289703 29.070482 1.425061 0.351833 -0.002849 0.017943 -210294.000000 0 0 1
-0.304848 -10.915034 27.495003 29.583883 1.542874 0.378036 -0.016464 0.022907 -211395.000000 0 0 1
0.763452 -10.310034 28.174903 30.011745 -1.496882 0.351678 -0.019771 0.026178 335336.000000 0 0 1
1.833852 -11.273334 28.345203 30.559804 -1.409537 0.383041 -0.013690 0.025776 535540.000000 0 0 1
2.952852 -10.913534 29.313003 31.417777 -1.306555 0.368116 -0.014234 0.024710 -79896.200000 0 0 1
2.457452 -10.818134 30.643603 32.589899 -1.347427 0.347347 -0.015202 0.013151 -475055.000000 0 0 1
3.445052 -10.434834 31.554103 33.412806 -1.251914 0.335118 -0.025394 0.023809 -570092.000000 0 0 1
3.075452 -10.248534 33.070803 34.758724 -1.279260 0.312919 -0.033121 0.021884 -386969.000000 0 0 1
2.858452 -11.462734 33.762903 35.770081 -1.326412 0.336589 -0.033403 0.018362 13752.900000 0 0 1
2.366252 -11.317134 -34.161192 36.064716 -1.364680 2.815244 -0.029322 0.017384 -283730.000000 0 0 1
3.238752 -10.705934 -33.016692 34.859841 -1.277030 2.814956 -0.036685 0.026425 -172667.000000 0 0 1
3.288252 -9.319234 -33.173092 34.613795 -1.231589 2.852061 -0.044059 0.019019 274327.000000 0 0 1
3.849152 -8.584134 -32.081792 33.432689 -1.149271 2.856350 -0.037433 0.020394 -621402.000000 0 0 1
3.236652 -7.177534 -31.930192 32.886625 -1.147159 2.899829 -0.042975 0.018292 178935.000000 0 0 1
3.698052 -6.304434 -32.976992 33.777263 -1.040303 2.923479 -0.036240 0.014728 213230.000000 0 0 1
3.647752 -4.999834 -32.440392 33.025497 -0.940496 2.953076 -0.032407 0.018822 126561.000000 0 0 1
3.645652 -3.833134 -33.456692 33.872318 -0.810462 2.984777 -0.029858 0.023044 -705569.000000 0 0 1
2.387952 -3.644234 -34.013692 34.291603 -0.990726 3.014193 -0.027193 0.020361 -644945.000000 0 0 1
2.337752 -2.563834 34.329203 34.504094 -0.831490 0.100727 -0.003386 0.015331 101741.000000 0 0 1
1.933152 -2.884534 32.827403 33.010544 -0.980367 0.105386 0.001238 0.003132 -68041.300000 0 0 1
0.559852 -3.135634 32.700803 32.855565 -1.394113 0.097099 0.009804 0.000271 -632730.000000 0 0 1
0.267152 -3.413034 31.362003 31.548303 -1.492682 0.108729 0.013508 0.001539 106285.000000 0 0 1
-1.231548 -3.490434 31.034103 31.254046 1.231598 0.118706 0.014644 -0.005041 91904.900000 0 0 1
-1.918948 -2.282134 30.808003 30.951956 0.871634 0.096483 0.018238 -0.007613 815435.000000 0 0 1
-3.348348 -2.447634 30.881903 31.159177 0.631228 0.133505 0.000346 -0.008247 1288680.000000 0 0 1
-4.180148 -1.279534 30.272303 30.586324 0.297042 0.143418 0.023980 -0.015126 -317720.000000 0 0 1
-4.239348 -1.532334 28.880903 29.230578 0.346843 0.154833 0.011426 -0.008821 434397.000000 0 0 1
-5.176348 -0.703334 28.125803 28.606819 0.135048 0.183641 0.005137 -0.008844 593288.000000 0 0 1
-5.421248 0.786766 28.460403 28.982814 -0.144120 0.190154 0.009991 -0.008588 -239352.000000 0 0 1
-6.369148 0.897166 29.512803 30.205571 -0.139940 0.214585 0.013380 -0.005067 -125532.000000 0 0 1
-6.896948 2.201066 29.598603 30.471132 -0.308919 0.239885 0.013987 -0.007484 -217220.000000 0 0 1
-8.387448 2.381366 29.937003 31.180833 -0.276640 0.283404 0.013089 0.001390 -347912.000000 0 0 1
-9.213248 1.923566 28.868203 30.363748 -0.205826 0.315164 -0.010943 0.015780 525912.000000 0 0 1
-10.564548 2.276866 29.232203 31.165935 -0.212273 0.354115 -0.021047 0.025994 116897.000000 0 0 1
-11.489148 1.472166 28.358903 30.633237 -0.127441 0.387766 -0.023208 0.028191 -692437.000000 0 0 1
-11.423748 0.080566 28.669403 30.861678 -0.007052 0.379191 -0.021052 0.028714 -78207.600000 0 0 1
-11.793848 -0.721934 27.586303 30.010334 0.061137 0.404684 -0.016105 0.032960 -811096.000000 0 0 1
-11.561348 -2.264534 27.847003 30.236542 0.193422 0.400229 -0.004619 0.025462 143373.000000 0 0 1
-10.256248 -2.714934 28.167503 30.099331 0.258775 0.360223 0.000821 0.015773 72409.500000 0 0 1
-9.210748 -2.543634 27.259703 28.885972 0.269444 0.337153 0.011646 0.007832 -595944.000000 0 0 1
-9.240248 -3.323234 25.884203 27.684256 0.345244 0.362596 -0.001954 0.010829 -853041.000000 0 0 1
-10.245548 -2.786734 25.062703 27.219042 0.265570 0.400725 -0.012222 0.012908 22559.300000 0 0 1
-10.262448 -3.299934 23.721803 26.056311 0.311112 0.426534 0.000003 0.007094 112315.000000 0 0 1
-9.262848 -2.750134 22.621403 24.598607 0.288610 0.403681 -0.000602 0.001692 -189783.000000 0 1 0
-7.981548 -2.718434 23.135703 24.624292 0.328267 0.349489 0.002842 -0.001716 -528281.000000 0 1 0
-6.987948 -2.601034 22.096803 23.320924 0.356329 0.325441 0.002423 -0.002793 742440.000000 0 1 0
-5.503248 -2.516334 22.545203 23.343176 0.428863 0.262225 0.006453 -0.005877 351855.000000 0 1 0
-4.742748 -3.657034 22.843003 23.615045 0.656856 0.256408 0.002891 -0.002582 156374.000000 0 1 0
-5.345348 -4.557934 23.814503 24.828977 0.706055 0.286844 0.003707 0.004532 -139984.000000 0 1 0
-5.447448 -6.045934 23.312203 24.691837 0.837423 0.335864 0.012887 0.010262 -274743.000000 0 1 0
-6.422748 -6.284534 22.337003 24.076727 0.774522 0.382478 0.027789 -0.004134 -254247.000000 0 1 0
-6.050148 -5.982434 20.991803 22.650599 0.779771 0.385087 0.027086 -0.007298 -357185.000000 0 1 0
-7.251948 -6.216234 20.062903 22.220540 0.708648 0.444330 0.033591 -0.007007 -292051.000000 0 1 0
-8.249548 -5.274934 20.318603 22.554947 0.568902 0.449075 0.032259 -0.004822 -664946.000000 0 1 0
-9.141348 -5.218534 19.239703 21.930881 0.518726 0.500614 0.029748 -0.003360 254839.000000 0 1 0
-9.940748 -3.896334 19.173703 21.946088 0.373553 0.508095 0.024434 -0.014366 123306.000000 0 1 0
-8.991748 -2.909134 18.874803 21.108595 0.312905 0.464209 0.018191 -0.013001 58175.000000 0 1 0
-9.493248 -1.623934 18.813403 21.135351 0.169422 0.473146 0.007830 -0.019223 -29986.700000 0 1 0
-8.345848 -0.618834 18.478803 20.285520 0.074013 0.425250 0.007675 -0.006048 1194100.000000 0 1 0
-7.321048 -0.395034 19.468603 20.803373 0.053906 0.360165 0.011977 0.007312 1021790.000000 0 1 0
-7.851548 0.422966 20.505603 21.961454 -0.053818 0.366161 0.024176 0.006636 -157981.000000 0 1 0
-7.724348 1.968566 20.280503 21.790815 -0.249540 0.374501 0.009300 0.005095 -183809.000000 0 1 0
-8.436548 2.421266 19.179503 21.092445 -0.279485 0.429181 -0.003555 -0.011104 -29598.300000 0 1 0
-8.256848 3.794866 19.136603 21.184573 -0.430810 0.443332 -0.007063 -0.000432 -97055.400000 0 1 0
-9.019748 4.401466 17.961803 20.575596 -0.453986 0.509545 -0.005789 0.002017 -1478620.000000 0 1 0
-10.351648 4.580766 18.282903 21.503595 -0.416612 0.554383 -0.010095 0.004074 -1111810.000000 0 1 0
-11.071848 4.901266 17.120303 20.969335 -0.416748 0.615569 -0.002220 0.005500 -324752.000000 0 1 0
-11.333748 6.380666 16.944703 21.360939 -0.512753 0.654658 -0.003625 0.006581 166854.000000 0 1 0
-10.146448 7.185666 16.765703 20.872781 -0.616205 0.638094 -0.011681 0.008825 1060360.000000 0 1 0
-10.525948 8.556066 16.714903 21.526491 -0.682530 0.681735 -0.009338 0.006562 740576.000000 0 1 0
-9.286448 9.541966 16.671703 21.336188 -0.798968 0.673920 -0.016650 0.012482 519380.000000 0 1 0
-8.500348 9.589466 17.834403 21.960868 -0.845532 0.623056 -0.009736 0.022161 -15423.600000 0 1 0
-7.599348 10.687166 17.905903 22.194300 -0.952678 0.632116 -0.009756 0.015021 -40220.400000 0 1 0
-8.111148 12.138466 17.860403 23.067880 -0.981720 0.685260 -0.010875 0.021664 -548020.000000 0 1 0
-8.187548 12.515966 16.507303 22.275017 -0.991496 0.736137 -0.013322 0.007155 48716.200000 0 1 0
-8.746248 13.797766 16.224703 23.024252 -1.005831 0.788826 -0.011198 0.001579 -168759.000000 0 1 0
-8.615348 14.288766 14.762303 22.278210 -1.028214 0.846466 -0.013133 -0.001247 -404128.000000 0 1 0
-7.365948 14.760766 14.378603 21.883364 -1.107931 0.853889 -0.015467 0.006528 -733501.000000 0 1 0
-7.453348 15.626366 13.293903 21.828045 -1.125740 0.915961 -0.017046 0.001258 -196237.000000 0 1 0
-6.620948 16.910966 13.517603 22.639419 -1.197623 0.930937 -0.019735 0.015789 1469420.000000 0 1 0
-5.188048 16.660066 13.564903 22.101589 -1.268908 0.909992 -0.018457 0.012318 611115.000000 0 1 0
-4.468848 17.768166 13.950003 23.027829 -1.324398 0.920039 -0.015800 0.015793 31125.000000 0 1 0
-2.936348 17.515066 14.049703 22.644951 -1.404694 0.901500 -0.006289 0.014361 206422.000000 0 1 0
-2.497248 16.711766 15.084803 22.651063 -1.422463 0.842010 0.001371 0.005568 -196437.000000 0 1 0
-2.841948 15.311366 14.986603 21.612794 -1.387274 0.804581 -0.007909 0.001113 -454068.000000 0 1 0
-1.924348 14.467966 15.891003 21.576587 -1.438565 0.742925 -0.007864 -0.004414 -396359.000000 0 1 0
-0.587748 14.433566 15.491503 21.181594 -1.530098 0.750473 0.008055 -0.007303 -950086.000000 0 1 0
0.154952 13.638866 16.358603 21.298980 1.559436 0.695012 0.005954 -0.003693 30478.800000 0 1 0
1.418752 14.288866 16.962303 22.223957 1.471830 0.702477 -0.003245 -0.009871 -144633.000000 0 1 0
1.108852 15.305166 17.842103 23.533344 1.498473 0.710306 0.001993 -0.010203 9595.750000 0 1 0
2.242252 16.109966 18.158303 24.377913 1.432501 0.730461 0.014866 -0.016480 -122005.000000 0 1 0
1.884952 17.374866 19.012603 25.824757 1.462732 0.743334 0.012883 -0.008993 164184.000000 0 0 1
1.047252 18.351666 18.455603 26.047834 1.513792 0.783387 0.006629 0.002670 -790945.000000 0 0 1
-0.300848 18.013566 18.374603 25.733346 -1.554097 0.775546 0.001939 0.006053 -1037430.000000 0 0 1
-1.079348 18.694566 17.273603 25.476050 -1.513124 0.825713 -0.000011 0.002728 -774215.000000 0 0 1
-1.514348 20.019666 17.486503 26.624388 -1.495297 0.854249 0.007832 0.010572 112117.000000 0 0 1
-2.134248 20.612166 16.365003 26.405108 -1.467621 0.902351 0.001988 0.010296 -98076.800000 0 0 1
-2.774448 22.001266 16.734703 27.781352 -1.445354 0.924327 0.004382 0.007496 -662667.000000 0 0 1
-3.909148 21.891766 17.521603 28.311436 -1.394092 0.903470 -0.002182 0.015067 -480408.000000 0 0 1
-4.399048 23.134066 17.916603 29.589547 -1.382885 0.920397 0.002557 0.006984 271125.000000 0 0 1
-5.398848 23.189566 19.111903 30.531432 -1.342057 0.894416 -0.012521 0.019288 145344.000000 0 0 1
-6.760648 23.093666 18.801003 30.536887 -1.286005 0.907546 -0.018614 0.017579 -115204.000000 0 0 1
-7.591848 22.774766 19.928103 31.200247 -1.249036 0.877968 -0.021523 0.015665 -449468.000000 0 0 1
-9.033448 22.952866 19.500403 31.443647 -1.195850 0.901837 -0.021559 0.006998 -783001.000000 0 0 1
-9.529148 24.285866 19.630803 32.649294 -1.196881 0.925716 -0.015659 0.014636 145097.000000 0 0 1
-10.808748 24.519566 19.083303 32.896969 -1.155602 0.951953 -0.014547 0.013268 27134.800000 0 0 1
-11.275048 25.982266 19.261303 34.252046 -1.161368 0.973583 -0.003567 0.009413 -190663.000000 0 0 1
-11.839648 26.100366 20.561103 35.272728 -1.144936 0.948481 -0.009573 0.020635 280209.000000 0 0 1
-12.485948 27.344466 20.813303 36.562444 -1.142453 0.965199 -0.003775 0.014182 -479902.000000 0 0 1
-13.348248 27.314366 22.075103 37.570740 -1.116238 0.942755 0.025504 -0.001376 -99412.900000 0 0 1
-14.598848 26.634166 21.940903 37.468765 -1.069394 0.945203 0.022613 -0.000653 479576.000000 0 0 1
-15.278748 26.781066 23.163303 38.564287 -1.052346 0.926493 0.012859 0.002786 275182.000000 0 0 1
-16.795848 26.441766 23.181303 38.969736 -1.004895 0.933712 0.024447 0.003338 388215.000000 0 0 1
-16.903948 25.096766 22.858203 37.922138 -0.978043 0.923832 0.024638 0.010172 -1206090.000000 0 0 1
-18.188548 24.639766 22.949803 38.270547 -0.934904 0.927704 0.030059 0.018210 -1334830.000000 0 0 1
26.382852 24.400666 23.940099 43.180733 0.746386 0.983135 0.010781 -0.007754 107233.000000 0 0 1
26.433552 23.662266 25.167109 43.497343 0.730135 0.953798 0.009710 -0.018532 119673.000000 0 0 1
25.854252 22.415766 24.949429 42.348352 0.714284 0.940793 -0.001862 -0.007026 -292594.000000 0 0 1
25.556552 21.554966 26.169449 42.456966 0.700663 0.906664 0.010057 -0.006467 -49650.300000 0 0 1
24.376852 22.029366 26.783269 42.389472 0.734856 0.886874 0.010459 -0.004095 49514.200000 0 0 1
24.204452 21.259866 27.980299 42.670065 0.720722 0.855639 0.027745 -0.007018 227173.000000 0 0 1
22.816552 21.415766 28.653319 42.429267 0.753740 0.829398 0.031800 -0.008397 169562.000000 0 0 1
22.692552 22.757366 29.097139 43.353121 0.786824 0.835016 0.024657 -0.013475 1577740.000000 0 0 1
21.323152 22.940366 29.595229 43.090773 0.821918 0.813704 0.028997 -0.013827 1668140.000000 0 0 1
20.994552 24.314566 30.239479 44.117971 0.858542 0.815612 0.018767 -0.014304 -328015.000000 0 0 1
21.028352 25.402466 29.334049 44.135737 0.879328 0.843794 0.013141 -0.016303 -70543.700000 0 0 1
20.711752 26.692566 29.881529 45.104052 0.910901 0.846642 0.015843 -0.013165 698177.000000 0 0 1
19.271352 26.854966 30.484269 44.965151 0.948350 0.825822 0.022604 -0.012894 -149727.000000 0 0 1
18.207152 26.941666 29.543829 43.933945 0.976498 0.833269 0.017243 -0.009604 -69444.900000 0 0 1
16.972652 27.142766 30.148039 43.973911 1.011974 0.815384 0.013903 -0.004414 -308212.000000 0 0 1
16.209352 26.044066 30.902659 43.543206 1.014082 0.781723 -0.002060 0.002083 -887870.000000 0 0 1
16.767852 25.788866 32.146929 44.493274 0.994282 0.763367 0.007853 -0.000437 -36495.800000 0 0 1
15.974652 24.888066 32.928219 44.259156 1.000165 0.731779 0.017388 -0.001241 24110.300000 0 0 1
16.342952 24.597766 34.443339 45.370538 0.984359 0.708780 0.015065 -0.000843 -500083.000000 0 0 1
16.142052 25.666766 -33.921487 45.497428 1.009391 2.412185 0.007781 -0.005270 208510.000000 0 0 1
16.456252 25.145766 -32.605097 44.341967 0.991310 2.396920 -0.010367 0.011887 -132263.000000 0 0 1
16.929252 26.299166 -31.754637 44.571321 0.998850 2.363773 0.004067 0.017413 -300448.000000 0 0 1
15.941352 27.255066 -31.483027 44.588634 1.041557 2.354740 0.008658 0.000064 16458.400000 0 0 1
16.574152 28.388766 -30.981287 45.171503 1.042353 2.326580 0.026184 -0.004724 -5019.530000 0 0 1
15.887752 28.993666 -29.722187 44.457414 1.069511 2.303059 0.019792 0.001060 -432260.000000 0 0 1
16.010752 28.114966 -28.631247 43.203515 1.053125 2.295223 0.013323 0.007702 522286.000000 0 0 1
15.409352 28.580566 -27.401237 42.486758 1.076318 2.271736 0.012375 0.007284 -5459.770000 0 0 1
15.993752 27.753766 -26.215187 41.392120 1.048006 2.256655 0.009398 0.008667 556968.000000 0 0 1
17.412352 27.850066 -26.115987 41.962613 1.012041 2.242555 0.030586 0.006862 165232.000000 0 0 1
17.963852 27.085366 -25.073797 41.048901 0.985176 2.227902 0.028598 0.009027 104037.000000 0 0 1
19.504452 27.224166 -24.989597 41.785868 0.949123 2.211849 0.020961 0.009885 164487.000000 0 0 1
20.025052 26.468466 -23.900397 40.900016 0.923108 2.194889 0.022574 0.015330 -478559.000000 0 0 1
21.395952 26.323966 -24.191797 41.665105 0.888303 2.190292 0.021606 0.018085 211625.000000 0 0 1
22.353452 26.133566 -22.957297 41.348247 0.863202 2.159422 0.025532 0.017346 370201.000000 0 0 1
22.137752 24.937666 -22.246597 40.085886 0.844805 2.159127 0.021868 0.015611 83245.200000 0 0 1
22.808952 25.017366 -20.988497 39.832573 0.831541 2.125766 0.021234 0.011475 -144781.000000 0 0 1
22.264852 24.114466 -19.864497 38.364428 0.825257 2.115055 0.015161 0.003746 -728207.000000 0 0 1
22.481752 22.783566 -20.130197 37.811967 0.792066 2.132202 0.005481 0.008802 287301.000000 0 0 1
22.302752 21.942266 -19.033297 36.621608 0.777251 2.117330 0.000147 0.008037 -760794.000000 0 0 1
22.648252 20.471866 -19.434297 36.190226 0.734968 2.137678 0.019942 0.003874 3161.340000 0 0 1
21.937852 19.852666 -20.479297 35.983319 0.735543 2.176247 0.010552 0.002191 -199592.000000 0 0 1
20.543952 19.770766 -20.338297 35.022613 0.766222 2.190408 0.008854 0.007267 -502602.000000 0 0 1
19.897852 19.678366 -21.772197 35.456891 0.779852 2.231974 0.027560 -0.003542 -195398.000000 0 0 1
20.186552 20.686866 -22.721497 36.765605 0.797638 2.237005 0.020507 -0.005543 -18013.400000 0 0 1
19.925752 21.979166 -22.213497 37.061553 0.834361 2.213507 0.013712 0.003271 5636.500000 0 0 1
19.307452 22.950466 -23.275697 37.963925 0.871395 2.230775 0.019021 0.008893 387488.000000 0 0 1
17.915352 22.897066 -23.512697 37.390939 0.906861 2.250849 0.020842 -0.004488 -284910.000000 0 0 1
17.599252 23.520866 -24.782897 38.433797 0.928423 2.271585 0.014854 -0.001232 390746.000000 0 0 1
16.062052 23.483166 -25.002397 37.875697 0.970902 2.291771 0.015321 -0.001261 265096.000000 0 0 1
15.374652 24.513366 -24.267097 37.764759 1.010620 2.268665 0.004504 -0.000891 -432677.000000 0 0 1
14.017552 24.400466 -24.584697 37.366854 1.049354 2.288860 0.007471 -0.000952 -474729.000000 0 0 1
13.174052 25.498366 -23.912897 37.357046 1.093908 2.265447 -0.005614 0.008325 -289435.000000 0 0 1
13.321752 26.753766 -24.592097 38.704060 1.108799 2.259307 -0.015668 0.016938 333066.000000 0 0 1
12.408652 27.729866 -24.072497 38.760872 1.150037 2.240880 -0.016096 0.020112 253087.000000 0 0 1
12.562252 29.121666 -24.806797 40.264857 1.163541 2.234566 -0.012679 0.008537 93012.600000 0 0 1
12.418752 29.051966 -26.239827 41.070313 1.166838 2.263864 -0.013291 -0.000346 -92183.800000 0 0 1
11.734352 30.111466 -26.871437 42.029388 1.199203 2.264447 -0.002504 -0.004569 -275502.000000 0 0 1
12.378552 31.519666 -26.735507 43.145164 1.196577 2.239111 0.013997 -0.007092 936486.000000 0 0 1
13.655052 31.560866 -27.412937 43.977469 1.162457 2.243804 0.013989 0.006815 569142.000000 0 0 1
14.186752 32.831866 -27.620367 45.189379 1.162925 2.228389 0.006350 0.002665 835470.000000 0 0 1
15.661352 32.694266 -28.157767 45.902644 1.124070 2.231185 0.009976 0.014828 976030.000000 0 0 1
16.627652 32.305066 -27.203937 45.388878 1.095452 2.213488 0.002484 0.021668 45626.700000 0 0 1
17.918952 32.149266 -27.755157 46.097861 1.062314 2.216915 0.018499 0.016315 540545.000000 0 0 1
18.866852 31.314666 -26.740937 45.295078 1.028546 2.202316 0.018103 0.019938 -35259.100000 0 0 1
19.314652 31.987666 -25.524957 45.252513 1.027576 2.170086 0.023472 0.018702 282190.000000 0 0 1
20.175952 33.107166 -25.702047 46.516112 1.023484 2.156206 0.027321 0.010146 -498772.000000 0 0 1
21.604352 32.810166 -26.142487 47.187759 0.988493 2.157970 0.028537 0.015748 -1014870.000000 0 0 1
21.694552 32.151666 -27.415807 47.497470 0.977214 2.186099 0.025067 0.019125 -967530.000000 0 0 1
22.969952 32.188366 -27.950537 48.424602 0.950994 2.186088 0.022538 0.026717 -976378.000000 0 0 1
23.007252 31.403466 -29.335057 48.744813 0.938502 2.216560 0.006434 0.025424 -5873.120000 0 0 1
22.170052 31.860566 -30.352717 49.273667 0.962864 2.234455 0.008733 0.026380 242270.000000 0 0 1
20.912952 31.222766 -30.501827 48.400145 0.980629 2.252609 0.015147 0.019006 1143830.000000 0 0 1
19.721752 31.952866 -31.268087 48.863344 1.017816 2.265176 0.001158 0.013330 514775.000000 0 0 1
19.139652 33.038966 -30.571337 48.913251 1.045732 2.245942 0.000517 0.013062 82126.600000 0 0 1
18.438352 33.873866 -31.506747 49.800469 1.072321 2.255779 -0.003776 0.010480 140459.000000 0 0 1
16.895552 33.760966 -31.561057 49.207345 1.106792 2.267104 0.003088 0.005178 -161438.000000 0 0 1
16.378852 32.504566 -32.058797 48.503402 1.104038 2.292893 0.009732 0.001719 110167.000000 0 0 1
16.819552 31.918266 -33.284357 49.086876 1.085816 2.315930 0.017929 -0.009716 -1080020.000000 0 0 1
16.507852 32.684766 -34.591833 50.372591 1.103107 2.327763 0.028281 -0.016055 -404061.000000 0 0 1
17.081252 33.973166 34.624052 51.427328 1.104922 0.832185 0.017426 -0.006941 60087.000000 0 0 1
16.850952 34.744066 33.453193 51.090320 1.119219 0.856898 0.027700 -0.014501 359277.000000 0 0 1
15.374552 -34.332231 33.122139 50.121402 -1.149759 0.848861 0.029618 -0.015032 340868.000000 0 0 1
14.636352 34.096466 32.545889 49.356120 1.165320 0.850763 0.034587 -0.021928 644000.000000 0 0 1
13.230952 34.403466 32.524779 49.158089 1.203652 0.847797 0.023967 -0.018664 1217400.000000 0 0 1
12.629252 -34.430031 31.205049 48.152675 -1.219226 0.865783 0.009030 -0.014093 -210944.000000 0 0 1
13.058552 -33.075131 30.991829 47.169731 -1.194768 0.853927 0.024610 -0.011848 227590.000000 0 0 1
12.599752 -32.572131 29.755279 45.881086 -1.201698 0.865144 0.020447 -0.019320 -248681.000000 0 0 1
12.998052 -31.143431 29.561899 44.863888 -1.175414 0.851409 0.017788 -0.019095 -194318.000000 0 0 1
12.492652 -30.182931 30.488129 44.683349 -1.178367 0.819871 0.002117 -0.010498 298249.000000 0 0 1
12.982752 -28.865831 30.193349 43.742729 -1.148140 0.808964 0.011289 -0.015496 -580419.000000 0 0 1
12.635452 -27.888931 31.322809 43.801432 -1.145398 0.774016 0.000275 -0.002958 -416949.000000 0 0 1
11.294952 -27.490731 31.481769 43.294549 -1.180960 0.756631 -0.019211 0.002220 -352899.000000 0 0 1
10.861352 -26.558131 30.527559 41.895526 -1.182585 0.754434 -0.024371 -0.003012 -581394.000000 0 0 1
11.083552 -25.085531 30.945019 41.348799 -1.154757 0.725165 -0.037237 0.008222 63975.400000 0 0 1
10.228352 -24.745231 32.021979 41.741499 -1.178838 0.696410 -0.025444 0.004967 365011.000000 0 0 1
10.756852 -23.571431 32.600429 41.642648 -1.142673 0.671545 -0.034722 0.005916 -106045.000000 0 0 1
9.876552 -23.033131 33.726192 42.018179 -1.165713 0.639059 -0.023944 0.002915 -717618.000000 0 0 1
9.786352 -23.770031 -34.319450 42.879035 -1.180236 2.498722 -0.029206 0.004846 488359.000000 0 0 1
10.944752 -23.859531 -33.468417 42.534688 -1.140718 2.476484 -0.026247 0.003026 529435.000000 0 0 1
11.376252 -22.593131 -32.702317 41.343805 -1.104331 2.483213 -0.017765 -0.009526 -127278.000000 0 0 1
11.757752 -21.579331 -33.601747 41.629192 -1.071907 2.510135 -0.033823 -0.001400 -122610.000000 0 0 1
12.707352 -20.771531 -32.941407 40.964247 -1.021769 2.505041 -0.022129 -0.006550 -282243.000000 0 0 1
13.293952 -19.656331 -33.811347 41.307477 -0.976141 2.529641 -0.028355 -0.005144 -533511.000000 0 0 1
14.072752 -20.037231 34.337134 42.173116 -0.958508 0.619455 -0.026001 0.007390 258179.000000 0 0 1
13.657752 -19.306231 33.175689 40.741761 -0.955103 0.619288 -0.039379 0.009927 -179261.000000 0 0 1
14.121752 -17.869231 32.969299 40.071286 -0.902008 0.604536 -0.007962 -0.003595 -347970.000000 0 0 1
13.882852 -17.031831 34.092774 40.560252 -0.886908 0.572505 -0.008892 -0.007934 222252.000000 0 0 1
14.363952 -15.702831 33.863044 39.995096 -0.829899 0.561082 0.021913 -0.014201 867097.000000 0 0 1
15.865352 -15.434631 34.257125 40.785878 -0.771638 0.573649 0.027584 -0.005929 11057.500000 0 0 1
16.792252 -15.973131 33.403862 40.656348 -0.760404 0.606558 0.037660 -0.007453 -555053.000000 0 0 1
18.084852 -15.638631 33.891927 41.476395 -0.712987 0.614368 0.059809 -0.007957 -108415.000000 0 0 1
19.148752 -16.312231 33.002369 41.496023 -0.705578 0.651271 0.087494 -0.016604 -420094.000000 0 0 1
19.274152 -15.820631 31.705069 40.336047 -0.687308 0.666447 0.063672 -0.004749 567383.000000 0 0 1
20.117552 -16.657131 30.887389 40.450052 -0.691577 0.701936 0.060172 -0.002280 13003.000000 0 0 1
20.383352 -16.085731 29.518009 39.313415 -0.668096 0.721466 0.040744 0.009443 -721243.000000 0 0 1
21.295052 -15.048031 29.643869 39.480139 -0.615171 0.721440 0.036128 0.006843 110318.000000 0 0 1
21.639552 -14.393531 28.438359 38.525111 -0.586951 0.740432 0.015223 0.002921 101561.000000 0 0 1
22.497552 -13.114131 28.594819 38.675366 -0.527761 0.738685 0.006596 0.006023 -419470.000000 0 0 1
21.714852 -12.040531 28.935829 38.128616 -0.506279 0.709173 0.008451 0.006122 -300346.000000 0 0 1
22.463352 -10.889131 29.226899 38.436792 -0.451374 0.706885 -0.001669 0.009447 153059.000000 0 0 1
21.605152 -9.577531 29.251219 37.605126 -0.417267 0.679556 0.005740 0.005380 483105.000000 0 0 1
20.574452 -9.552831 30.221249 37.787412 -0.434686 0.643884 0.021483 -0.009336 -177505.000000 0 0 1
19.809552 -8.378031 30.128799 37.018296 -0.400115 0.619981 0.024951 -0.002322 -740394.000000 0 0 1
18.527452 -8.292031 30.904139 36.974181 -0.420818 0.581153 0.012543 0.002478 -840633.000000 0 0 1
18.613252 -7.959031 32.279849 38.102335 -0.404071 0.560126 0.015628 -0.001809 50070.400000 0 0 1
18.938052 -9.067731 33.088439 39.188242 -0.446552 0.565453 0.027527 -0.012759 -677154.000000 0 0 1
19.019852 -8.687831 34.599744 40.427409 -0.428475 0.543607 0.040793 -0.019322 -620999.000000 0 0 1
17.800752 -8.430031 -34.049957 39.336138 -0.442287 2.617174 0.030913 -0.016440 -397138.000000 0 0 1
17.998352 -7.817331 -32.795197 38.217486 -0.409752 2.602394 0.024941 -0.017808 -248417.000000 0 0 1
16.700752 -7.619931 -32.005327 36.896062 -0.428050 2.620841 0.014689 -0.017078 -297267.000000 0 0 1
16.776052 -6.696931 -30.972067 35.854619 -0.379813 2.613607 0.015287 -0.010699 361181.000000 0 0 1
15.520352 -6.498031 -30.339497 34.692806 -0.396504 2.635238 0.010510 -0.004797 78513.000000 0 0 1
15.443052 -5.280631 -29.385127 33.613369 -0.329478 2.634602 0.003222 -0.001670 -456794.000000 0 0 1
16.300652 -5.320331 -28.246097 33.043292 -0.315486 2.596002 0.004082 0.005312 243430.000000 0 0 1
16.007352 -6.165131 -27.110927 32.081872 -0.367634 2.577463 0.031429 -0.005401 213208.000000 0 0 1
14.645052 -5.876031 -26.397377 30.754297 -0.381566 2.602805 0.011705 -0.000841 343886.000000 0 0 1
14.511752 -4.616731 -25.736777 29.904629 -0.308012 2.607299 0.010298 0.004006 -244138.000000 0 0 1
13.331252 -4.523231 -24.955297 28.652203 -0.327107 2.627976 -0.012371 0.008224 -20386.500000 0 0 1
13.140152 -3.318231 -24.020897 27.580387 -0.247355 2.627911 -0.013636 0.010895 -59946.000000 0 0 1
12.977852 -2.048231 -24.641497 27.925316 -0.156534 2.651750 -0.017027 0.005909 199283.000000 0 0 1
12.824652 -1.052231 -23.678297 26.948852 -0.081864 2.643799 -0.010420 0.006044 -191976.000000 0 0 1
13.264852 0.296769 -24.249997 27.642480 0.022369 2.640947 -0.005591 0.000524 -595800.000000 0 0 1
12.420752 0.917769 -25.175537 28.087809 0.073756 2.682185 -0.014351 -0.004184 -236992.000000 0 0 1
12.986452 2.118769 -25.679487 28.854344 0.161727 2.668075 -0.006908 0.005567 21442.500000 0 0 1
12.210552 2.746769 -26.870027 29.641873 0.221267 2.705689 -0.002821 0.001034 -343284.000000 0 0 1
11.069152 3.493769 -26.610537 29.031934 0.305735 2.730276 -0.000228 -0.009984 -245593.000000 0 0 1
10.410252 3.871769 -27.814937 29.950537 0.356067 2.761677 -0.004464 -0.001235 103722.000000 0 0 1
9.220152 4.832769 -27.579617 29.478842 0.482783 2.780675 -0.003254 -0.001297 -106813.000000 0 0 1
9.576252 6.042769 -27.097677 29.368414 0.562914 2.745773 -0.004899 -0.012064 1084160.000000 0 0 1
8.386752 6.869769 -26.887767 28.991091 0.686292 2.758329 0.003615 -0.015616 1241380.000000 0 0 1
7.745452 5.132366 -31.904627 33.230083 0.585202 2.858202 -0.004505 -0.002296 -31736.100000 0 0 1
7.836552 4.212466 -30.793247 32.052776 0.493227 2.860326 -0.010185 0.009172 328349.000000 0 0 1
7.585852 2.920366 -31.328667 32.366017 0.367487 2.887729 -0.009387 0.013980 -284499.000000 0 0 1
7.402852 1.895066 -30.178037 31.130490 0.250610 2.893589 -0.006580 0.008569 -463575.000000 0 0 1
8.539452 1.666266 -29.407107 30.667191 0.192704 2.853935 -0.001326 -0.003315 -127938.000000 0 0 1
8.183552 0.699766 -28.481767 29.642389 0.085301 2.860835 -0.006959 -0.002235 -395326.000000 0 0 1
9.294052 0.212066 -27.567537 29.092842 0.022813 2.816343 -0.006344 -0.008575 -17499.400000 0 0 1
10.390252 -0.457734 -28.211767 30.067767 -0.044026 2.788399 -0.009550 0.001501 246518.000000 0 0 1
11.225652 -0.949234 -27.217697 29.457076 -0.084359 2.749152 -0.006012 0.000160 -710534.000000 0 0 1
12.032352 -2.158334 -27.658157 30.239205 -0.177490 2.725427 -0.004177 0.008197 -346317.000000 0 0 1
11.194752 -3.203534 -28.035267 30.357228 -0.278715 2.747934 -0.008241 0.002334 594068.000000 0 0 1
12.029052 -4.233934 -28.586577 31.302023 -0.338434 2.721988 0.002404 0.000861 166015.000000 0 0 1
11.339652 -5.597534 -28.389147 31.078349 -0.458535 2.722529 -0.004569 0.015625 -183511.000000 0 0 1
11.196652 -5.782934 -27.019127 29.813429 -0.476751 2.705180 -0.012425 0.011848 248016.000000 0 0 1
10.665552 -7.073434 -26.689037 29.598854 -0.585601 2.694462 -0.008027 0.004314 -338233.000000 0 0 1
10.178652 -7.155234 -25.263847 28.161397 -0.612713 2.683979 -0.009441 0.008023 -342631.000000 0 0 1
11.188152 -7.115734 -24.285497 27.669365 -0.566475 2.641845 -0.009590 0.013297 -127924.000000 0 0 1
10.613052 -7.066134 -23.015397 26.311131 -0.587400 2.635695 -0.012932 0.016709 70621.400000 0 0 1
11.575352 -7.110634 -21.772097 25.662698 -0.550861 2.583742 -0.010821 0.008721 -13752.300000 0 0 1
12.273852 -5.948734 -21.572897 25.523024 -0.451306 2.577797 -0.014496 0.004066 -661726.000000 0 0 1
13.400952 -6.200234 -20.782397 25.493851 -0.433341 2.523858 -0.013940 0.004995 -90438.600000 0 0 1
13.840252 -4.980834 -19.913597 24.757072 -0.345450 2.505394 -0.011960 -0.003483 98592.100000 0 1 0
14.485552 -4.039734 -20.784097 25.654032 -0.271970 2.515236 -0.007972 -0.005744 360660.000000 0 0 1
15.037752 -2.954834 -20.035797 25.224951 -0.194023 2.488626 -0.012390 -0.002214 3850.100000 0 0 1
16.060252 -2.116634 -20.855397 26.407563 -0.131038 2.481199 0.007489 -0.000067 -919480.000000 0 0 1
17.250252 -2.701234 -21.161397 27.434879 -0.155330 2.451728 0.011816 -0.003298 -642550.000000 0 0 1
18.101952 -1.721434 -21.801897 28.389553 -0.094812 2.446438 0.007652 -0.006663 796390.000000 0 0 1
19.539452 -2.195034 -22.190797 29.648606 -0.111870 2.416533 0.013256 -0.007850 -629227.000000 0 0 1
20.446752 -2.073034 -21.129197 29.475585 -0.101042 2.370052 0.003639 -0.009448 248840.000000 0 0 1
21.707352 -2.678034 -21.356497 30.569281 -0.122750 2.344272 0.003957 -0.005404 371470.000000 0 0 1
22.672552 -2.049634 -22.384497 31.926655 -0.090157 2.347767 -0.001347 -0.005148 -1356910.000000 0 0 1
22.298152 -2.177734 -23.721697 32.629266 -0.097356 2.384749 0.002105 -0.000391 -205434.000000 0 0 1
23.239052 -1.633334 -24.561897 33.852741 -0.070169 2.382631 -0.002822 0.010216 447713.000000 0 0 1
24.573652 -2.407934 -24.899197 35.066116 -0.097677 2.360386 -0.001144 -0.000720 111189.000000 0 0 1
25.534452 -2.508034 -23.850597 35.030693 -0.097908 2.319717 0.000553 -0.001632 404820.000000 0 0 1
26.739352 -3.085534 -24.308297 36.268537 -0.114885 2.305316 -0.006203 0.004721 68922.600000 0 0 1
27.731952 -2.274634 -25.138397 37.498988 -0.081839 2.305511 -0.006427 -0.001289 -1242300.000000 0 0 1
27.399452 -2.098334 -26.517657 38.187944 -0.076434 2.338380 0.001445 0.004816 -123768.000000 0 0 1
27.944752 -1.000534 -27.189687 39.002427 -0.035789 2.342180 -0.007234 -0.002074 -653045.000000 0 0 1
27.451452 -0.627334 -28.652967 39.685870 -0.022849 2.377477 -0.001146 -0.003970 1225340.000000 0 0 1
26.074752 -0.186834 -28.788237 38.841861 -0.007165 2.405601 0.007641 0.001640 1205680.000000 0 0 1
25.747452 1.049766 -28.193007 38.195273 0.040749 2.401088 0.008080 0.008980 -53709.600000 0 0 1
24.233952 1.424466 -28.202917 37.211800 0.058712 2.430888 0.001265 0.006362 551503.000000 0 0 1
23.489952 0.923866 -27.103707 35.878159 0.039310 2.427118 0.006631 0.000856 602940.000000 0 0 1
22.098952 1.161066 -27.277687 35.125261 0.052491 2.460020 0.003219 0.003240 230379.000000 0 0 1
21.114952 0.847666 -26.156557 33.626257 0.040124 2.462051 0.007538 0.003902 -255473.000000 0 0 1
21.260852 1.794166 -25.069697 32.920093 0.084189 2.436470 0.006054 0.004798 86087.200000 0 0 1
20.416552 1.518766 -23.988797 31.537353 0.074252 2.435106 0.013481 -0.000800 -910406.000000 0 0 1
20.754252 2.131866 -22.624697 30.775976 0.102360 2.396672 0.001592 -0.005162 -821676.000000 0 0 1
20.581152 3.556966 -22.618897 30.787178 0.171136 2.395999 0.016653 -0.004089 533379.000000 0 0 1
20.776352 4.070166 -21.314797 30.042363 0.193454 2.359572 0.013392 -0.010587 -615970.000000 0 0 1
20.432452 5.503766 -21.140197 29.911276 0.263119 2.355709 0.014957 -0.009604 276259.000000 0 0 1
21.325152 6.457066 -21.793197 31.167278 0.294015 2.345121 0.014164 -0.007855 756278.000000 0 0 1
20.939452 7.809166 -21.624997 31.097977 0.356964 2.339749 0.008489 -0.013824 -329153.000000 0 0 1
21.203352 8.318566 -20.201397 30.444656 0.373871 2.296344 0.016180 -0.007177 -520778.000000 0 0 1
22.565852 8.418866 -19.875497 31.227077 0.357086 2.260726 0.014925 -0.001513 -97247.200000 0 0 1
22.766952 8.500866 -18.489897 30.536455 0.357355 2.221193 0.019542 -0.011435 -113723.000000 0 0 1
22.369652 9.860866 -17.796097 30.238040 0.415189 2.200040 0.040367 -0.018470 -534334.000000 0 0 1
20.999652 9.886866 -17.513997 29.077063 0.440025 2.217214 0.030361 -0.016469 -320879.000000 0 0 1
20.555852 11.189366 -17.209697 29.050277 0.498487 2.204844 0.010172 -0.009891 159099.000000 0 0 1
19.014952 11.363466 -17.180697 28.033428 0.538658 2.230477 0.020237 -0.007196 271121.000000 0 0 1
18.303452 11.308266 -18.380897 28.297537 0.553421 2.277800 0.010959 -0.008618 364742.000000 0 0 1
17.803352 10.021566 -18.818497 27.776374 0.512696 2.315155 0.018356 0.006309 -387729.000000 0 0 1
17.070152 10.212966 -20.139397 28.307067 0.539164 2.362373 0.002209 -0.013870 -809330.000000 0 0 1
17.848352 10.565266 -21.206397 29.663104 0.534477 2.367289 0.019883 -0.022604 -373659.000000 0 0 1
17.095252 10.725266 -22.401197 30.151162 0.560311 2.408283 0.022727 -0.022603 -202184.000000 0 0 1
17.897652 10.768766 -23.721897 31.607288 0.541658 2.419645 0.040201 -0.023320 -146833.000000 0 0 1
18.763252 11.883866 -23.745797 32.513824 0.564587 2.389600 0.037602 -0.019249 31133.800000 0 0 1
19.462652 11.995466 -24.946197 33.837830 0.552342 2.399755 0.047703 -0.020510 -126724.000000 0 0 1
20.259052 13.311666 -25.085817 34.884493 0.581331 2.373318 0.030475 -0.029194 -82565.800000 0 0 1
20.499252 13.734166 -26.405257 36.139787 0.590296 2.390059 0.030924 -0.037452 143846.000000 0 0 1
20.520552 15.162366 -26.475667 36.768890 0.636351 2.374680 0.030968 -0.026221 162328.000000 0 0 1
19.218952 15.772866 -27.041837 36.734348 0.687232 2.398154 0.026796 -0.019949 449298.000000 0 0 1
18.031352 15.659666 -26.289427 35.517443 0.715119 2.404140 0.040116 -0.026040 80840.300000 0 0 1
16.897352 16.078666 -27.020957 35.695603 0.760577 2.429480 0.029402 -0.021942 848178.000000 0 0 1
15.509052 15.622566 -26.460787 34.420466 0.789044 2.447683 0.025426 -0.027655 503278.000000 0 0 1
15.331452 14.242866 -26.350377 33.648997 0.748606 2.470424 0.015378 -0.010762 102400.000000 0 0 1
13.964152 13.891766 -26.232667 32.804443 0.782800 2.497539 0.004281 -0.014985 30497.700000 0 0 1
13.824252 12.364866 -25.991187 31.930262 0.729731 2.521799 0.007118 -0.013670 169462.000000 0 0 1
12.495152 11.925766 -25.771187 31.024293 0.762087 2.551120 0.002949 -0.012039 96414.200000 0 0 1
12.534952 10.546066 -25.409977 30.232622 0.699441 2.568969 0.006464 -0.014198 -916807.000000 0 0 1
11.212352 9.816166 -25.437857 29.481494 0.719101 2.611661 0.004643 -0.021136 -839995.000000 0 0 1
10.487252 10.207166 -24.290397 28.358280 0.771865 2.599351 0.006180 -0.020113 -1298960.000000 0 0 1
9.286352 9.565466 -24.255397 27.677766 0.800203 2.639027 0.010889 -0.017400 -1264900.000000 0 0 1
8.328052 9.984266 -23.120397 26.525361 0.875595 2.629322 0.004190 -0.013943 -119167.000000 0 0 1
7.752052 11.273366 -23.375897 27.085340 0.968412 2.612066 0.001766 -0.016392 114222.000000 0 0 1
6.958452 11.815766 -22.333197 26.206946 1.038569 2.590946 0.008821 -0.001167 300206.000000 0 0 1
7.700852 12.797666 -21.359797 26.063850 1.029099 2.531366 0.016454 -0.006641 -614997.000000 0 0 1
8.755952 12.172466 -20.766597 25.614198 0.947218 2.516221 0.018094 -0.017778 -1555470.000000 0 0 1
9.550652 13.053766 -20.059397 25.768103 0.939150 2.463002 0.025374 -0.016725 316068.000000 0 0 1
10.746252 12.295566 -19.296197 25.278569 0.852536 2.439267 0.022100 -0.019173 933939.000000 0 0 1
11.739252 11.672066 -20.117897 26.053348 0.782528 2.453063 0.027067 -0.024713 480989.000000 0 0 1
11.275252 10.562966 -20.882197 25.976406 0.752793 2.504605 0.020419 -0.030825 -1115430.000000 0 0 1
12.371952 10.012866 -21.781997 26.977362 0.680398 2.510558 0.024868 -0.026414 80032.200000 0 0 1
13.230852 9.123466 -21.040397 26.476241 0.603685 2.489293 0.047348 -0.031525 188610.000000 0 0 1
14.080752 8.373266 -21.843297 27.304006 0.536484 2.498097 0.041899 -0.029323 -335346.000000 0 0 1
14.692752 7.099266 -21.227297 26.774515 0.450102 2.486214 0.051573 -0.026110 -60676.100000 0 0 1
15.572252 7.417266 -20.164197 26.534990 0.444519 2.433971 0.021664 -0.024778 -37931.200000 0 0 1
15.937252 6.167566 -19.611597 26.012489 0.369241 2.424820 0.011630 -0.031045 -182047.000000 0 0 1
16.883352 6.325466 -18.409997 25.767946 0.358470 2.366639 0.014327 -0.026785 49281.100000 0 0 1
18.232752 6.680666 -18.725797 26.976286 0.351219 2.338045 0.007513 -0.028897 803608.000000 0 0 1
18.966152 7.098866 -17.567897 26.809323 0.358149 2.285364 0.011841 -0.022574 236686.000000 0 0 1
19.791252 5.949466 -16.890797 26.690613 0.292017 2.256008 0.008487 -0.024837 -309013.000000 0 0 1
20.855152 5.354666 -17.596497 27.807310 0.251326 2.255962 0.013286 -0.030898 329595.000000 0 0 1
21.298552 4.264266 -16.797697 27.458603 0.197601 2.229062 0.009164 -0.027131 301715.000000 0 0 1
22.649652 3.604766 -17.236897 28.689923 0.157830 2.215297 -0.003415 -0.013681 387949.000000 0 0 1
23.150452 2.739666 -16.203897 28.390411 0.117794 2.178218 -0.006448 -0.004393 1572280.000000 0 0 1
24.474152 2.305566 -16.655897 29.693747 0.093927 2.166296 -0.012830 -0.003375 1564850.000000 0 0 1
25.181552 1.169766 -15.854197 29.779766 0.046420 2.132208 0.000032 -0.009176 89702.700000 0 0 1
24.540852 -0.068834 -16.064697 29.331427 -0.002805 2.150404 0.007881 -0.006351 571957.000000 0 0 1
25.533452 -1.038034 -16.425797 30.378306 -0.040632 2.142075 0.013881 0.004914 -776.459000 0 0 1
24.991552 -2.503234 -16.575797 30.093203 -0.099830 2.154137 0.000124 -0.000210 -282423.000000 0 0 1
24.510152 -3.090234 -15.348597 29.083956 -0.125418 2.126727 0.006364 -0.000025 542212.000000 0 0 1
24.567752 -4.503634 -15.437997 29.363053 -0.181302 2.124408 0.008340 0.000630 -2084220.000000 0 0 1
24.105552 -5.290434 -14.189797 28.467818 -0.216044 2.092607 0.002874 0.005033 -223446.000000 0 0 1
22.741052 -5.172534 -13.837897 27.118222 -0.223649 2.106307 0.005721 0.008239 202294.000000 0 0 1
21.840052 -5.628734 -14.826597 26.990711 -0.252236 2.152349 -0.000892 0.012912 -1059340.000000 0 0 1
20.367452 -5.606834 -14.348697 25.537321 -0.268630 2.167443 0.008113 0.008367 -51991.700000 0 0 1
20.068152 -6.637334 -13.397797 25.025704 -0.319414 2.135732 0.005987 0.012713 452245.000000 0 0 1
20.304952 -6.210834 -12.046297 24.412677 -0.296841 2.086842 0.013093 0.008132 -560176.000000 0 1 0
20.199852 -7.403734 -11.018197 24.171263 -0.351319 2.044111 0.024058 0.005672 -467838.000000 0 1 0
18.866852 -7.816734 -10.853497 23.126993 -0.392782 2.059294 0.026139 -0.000390 335120.000000 0 1 0
18.602552 -8.869934 -11.760597 23.728513 -0.444926 2.089358 0.014230 -0.004615 238690.000000 0 1 0
17.096352 -9.308534 -11.720697 22.722429 -0.498591 2.112762 0.020747 -0.009651 787410.000000 0 1 0
16.134452 -8.287734 -11.920797 21.705126 -0.474521 2.152222 0.017635 -0.008534 366237.000000 0 1 0
14.966652 -8.840234 -12.516997 21.420215 -0.533525 2.194881 0.016414 -0.003713 442243.000000 0 1 0
13.889352 -7.748934 -12.834397 20.437265 -0.508892 2.249764 0.012627 -0.007584 -73042.000000 0 1 0
14.059852 -6.976634 -13.994397 21.028457 -0.460611 2.298957 0.017843 -0.003119 781612.000000 0 1 0
15.171152 -6.054434 -13.842797 21.411283 -0.379709 2.273809 0.016642 -0.003454 633533.000000 0 1 0
14.982252 -4.853734 -14.811097 21.619325 -0.313296 2.325518 0.000289 -0.006437 35762.000000 0 1 0
13.800052 -4.117634 -14.543997 20.467638 -0.289968 2.361126 0.006754 -0.011146 62670.400000 0 1 0
13.417252 -3.158634 -15.509297 20.749407 -0.231206 2.415023 -0.003636 -0.012517 -834728.000000 0 1 0
14.441552 -2.053434 -15.724297 21.448275 -0.141243 2.393704 -0.013771 -0.010671 -132922.000000 0 1 0
15.552052 -2.458734 -16.558397 22.849337 -0.156799 2.381362 -0.017770 -0.005203 602415.000000 0 1 0
16.674852 -1.607334 -16.472897 23.494479 -0.096096 2.347790 -0.002632 0.002081 -64362.200000 0 1 0
17.684852 -2.076034 -15.419997 23.555046 -0.116856 2.284498 0.000943 0.000730 -1345000.000000 0 1 0
17.262452 -2.028834 -14.071197 22.363072 -0.116992 2.251340 -0.004797 0.004493 322655.000000 0 1 0
18.289552 -2.554634 -13.223697 22.713433 -0.138779 2.192225 -0.002413 0.007786 167071.000000 0 1 0
17.947952 -2.603034 -11.760297 21.615026 -0.144028 2.146088 0.000945 0.011633 -413864.000000 0 1 0
17.905052 -1.387134 -11.024797 21.072759 -0.077317 2.121372 0.005751 0.007981 761427.000000 0 1 0
17.545752 -1.621334 -9.622597 20.076765 -0.092144 2.070642 0.010038 0.009188 -655869.000000 0 1 0
17.524652 -0.248534 -8.907797 19.660215 -0.014181 2.041022 0.004281 0.010538 -841777.000000 0 1 0
18.766452 0.070166 -8.350097 20.540418 0.003739 1.989439 -0.001152 0.014817 527921.000000 0 1 0
19.737752 0.693666 -9.200497 21.787821 0.035130 2.006752 -0.004052 0.018277 -248869.000000 0 1 0
19.371952 2.031666 -9.815397 21.811515 0.104495 2.037573 -0.011969 0.012319 -928763.000000 0 1 0
19.103252 3.127066 -8.978097 21.338205 0.162254 2.005071 -0.019568 0.021528 695801.000000 0 1 0
18.724252 4.225666 -9.814997 21.558943 0.221960 2.043464 -0.011530 0.013092 -139097.000000 0 1 0
18.309752 5.498766 -9.059597 21.155607 0.291749 2.013336 -0.017188 0.011304 -595251.000000 0 1 0
17.720252 6.429766 -9.952197 21.316553 0.348075 2.056552 -0.004981 0.006018 298393.000000 0 1 0
18.095052 7.752266 -9.618897 21.910082 0.404763 2.025301 0.002481 0.003809 -497499.000000 0 1 0
-24.865848 -29.571724 5.580803 39.037708 0.871629 1.427346 0.033912 -0.007923 -166279.000000 0 0 1
-25.116638 -28.732294 6.713503 38.748695 0.852442 1.396660 0.037068 -0.007019 1003.830000 0 0 1
-24.087948 -27.754884 6.752803 37.365267 0.856012 1.389074 0.030036 0.000968 -187894.000000 0 0 1
-24.338448 -26.575624 7.710303 36.852037 0.829310 1.360016 0.026877 0.008729 -86876.000000 0 0 1
-25.413578 -25.682574 7.427103 36.886399 0.790663 1.368060 0.018741 0.006043 1692760.000000 0 0 1
-26.758448 -26.155334 7.785503 38.219499 0.774001 1.365656 0.021307 0.002962 1578080.000000 0 0 1
-27.111248 -26.235664 9.287303 38.853364 0.768987 1.329425 0.005705 0.000841 -460754.000000 0 0 1
-26.404128 -27.245504 10.001903 39.236890 0.801080 1.313041 0.011649 0.001599 -115415.000000 0 0 1
-26.629808 -27.226874 11.399703 39.754278 0.796484 1.279959 0.013563 -0.001682 -346655.000000 0 0 1
-25.505728 -28.026324 12.076003 39.772439 0.832449 1.262299 0.002411 0.006312 1535120.000000 0 0 1
-24.254148 -27.357244 12.415403 38.611200 0.845450 1.243431 0.015650 0.015996 1085870.000000 0 0 1
-24.432948 -26.594974 13.608803 38.593538 0.827742 1.210428 0.028685 0.014401 -481380.000000 0 0 1
-23.140648 -26.024334 14.227603 37.618882 0.843984 1.182941 0.031150 0.015478 -29339.700000 0 0 1
-22.453348 -27.025454 14.927103 38.175207 0.877542 1.169061 0.028295 0.012293 -354116.000000 0 0 1
-21.432448 -26.590204 15.785703 37.624158 0.892391 1.137833 0.027538 0.014751 -143220.000000 0 0 1
-20.751648 -27.774954 16.520203 38.405678 0.929131 1.126137 0.023100 -0.000756 284458.000000 0 0 1
-21.611348 -28.509884 17.429103 39.794943 0.922176 1.117454 0.030184 0.000335 420201.000000 0 0 1
-21.082248 -29.764324 17.771703 40.573509 0.954518 1.117410 0.024766 0.006058 -305987.000000 0 0 1
-21.935948 -30.564114 18.787603 42.051456 0.948288 1.107637 0.032573 -0.007495 -164986.000000 0 0 1
-23.063348 -31.076504 18.110503 42.727713 0.932340 1.133095 0.015226 -0.003034 -124180.000000 0 0 1
-23.756148 -32.037744 18.852003 44.115413 0.932754 1.129255 0.009413 0.004984 -114506.000000 0 0 1
-24.809048 -32.781814 18.005703 44.881417 0.922962 1.157987 0.010041 0.001874 141453.000000 0 0 1
-24.092648 -33.480084 17.043703 44.630254 0.947029 1.178959 0.005819 0.002676 321688.000000 0 0 1
-24.960348 -34.358957 16.352903 45.507960 0.942533 1.203234 0.008600 0.008782 -308488.000000 0 0 1
-24.354348 34.573589 15.047503 44.887578 -0.957110 1.228951 -0.000452 0.001910 427673.000000 0 0 1
-23.232148 33.716588 15.325903 43.719839 -0.967463 1.212640 -0.008580 0.001263 960220.000000 0 0 1
-22.030348 34.352442 14.870903 43.434667 -1.000559 1.221354 -0.002947 -0.002048 -334869.000000 0 0 1
-20.760648 33.531896 14.972303 42.184860 -1.016428 1.207966 0.010286 -0.004051 -455350.000000 0 0 1
-20.667748 32.624632 13.872103 41.036053 -1.006107 1.225956 0.010683 -0.006416 -356146.000000 0 0 1
-19.473448 31.907642 13.862903 39.868445 -1.022833 1.215662 0.004478 0.000686 -600435.000000 0 0 1
-19.398848 30.823222 12.799203 38.603185 -1.009069 1.232842 0.002637 -0.001535 7679.810000 0 0 1
-19.200948 31.296002 11.465103 38.465111 -1.020490 1.268131 -0.001715 -0.002072 -54090.700000 0 0 1
-19.139548 30.310812 10.454103 37.341075 -1.007577 1.287041 -0.000078 -0.003200 152830.000000 0 0 1
-18.701348 30.966312 9.084403 37.298516 -1.027495 1.324762 -0.009874 -0.004655 228387.000000 0 0 1
-17.323448 31.290682 9.033703 36.889245 -1.065171 1.323393 -0.016615 -0.008239 -108205.000000 0 0 1
-16.880348 31.783152 7.769003 36.816739 -1.082572 1.358180 -0.019955 -0.008111 281516.000000 0 0 1
-16.174448 30.811742 6.760603 35.449710 -1.087393 1.378911 -0.021065 -0.003346 -560354.000000 0 0 1
-17.017548 29.864852 6.148403 34.918608 -1.052865 1.393795 -0.010000 -0.003613 -249261.000000 0 0 1
-17.063148 28.648022 6.808803 34.032631 -1.033608 1.369370 -0.009381 -0.005027 265469.000000 0 0 1
-18.147448 27.656622 6.258803 33.665876 -0.990096 1.383799 -0.002326 -0.003350 407852.000000 0 0 1
-17.817448 27.165482 4.981003 32.866933 -0.990295 1.418660 0.007945 -0.010463 124455.000000 0 0 1
-18.922848 26.458942 4.471303 32.835078 -0.949956 1.434197 0.014424 -0.013940 -615165.000000 0 0 1
-18.644548 25.603212 3.156203 31.829314 -0.941386 1.471473 0.029788 -0.017440 -1410790.000000 0 0 1
-18.327848 26.262812 1.892403 32.081560 -0.961506 1.511775 0.034018 -0.016992 1189220.000000 0 0 1
-17.080848 27.008082 1.827603 32.008311 -1.006869 1.513667 0.022556 -0.013892 917691.000000 0 0 1
-15.795248 26.188792 2.147703 30.658691 -1.028078 1.500687 0.019775 -0.014885 -894181.000000 0 0 1
-15.481348 25.048182 1.350303 29.477226 -1.017201 1.524972 0.028496 -0.011865 131708.000000 0 0 1
-15.326848 25.217852 -0.032097 29.510225 -1.024678 1.571884 0.034115 -0.008189 -378411.000000 0 0 1
-15.094148 23.881162 -0.740497 28.261131 -1.007142 1.597001 0.043480 -0.014820 468291.000000 0 0 1
-16.176148 22.917362 -0.795397 28.062535 -0.956157 1.599144 0.056019 -0.019605 526908.000000 0 0 1
-16.034448 21.767362 -1.598997 27.082806 -0.935908 1.629872 0.054810 -0.015723 122293.000000 0 0 1
-15.015248 20.660462 -1.164597 25.566944 -0.942334 1.616363 0.055634 -0.021261 179579.000000 0 0 1
-15.590348 19.759762 -0.267297 25.170987 -0.902802 1.581416 0.062385 -0.025752 289265.000000 0 0 1
-14.714748 18.675262 0.059903 23.775887 -0.903460 1.568277 0.066648 -0.041925 -179207.000000 0 1 0
-15.310048 17.678162 1.072803 23.410807 -0.857062 1.524955 0.046853 -0.041375 126596.000000 0 1 0
-16.127148 16.781562 0.357903 23.277324 -0.805281 1.555420 0.049625 -0.036452 439632.000000 0 1 0
-17.105848 16.084962 1.128103 23.507630 -0.754650 1.522789 0.050675 -0.039256 464771.000000 0 1 0
-17.841548 14.970362 0.345103 23.292739 -0.698116 1.555980 0.076386 -0.033949 140428.000000 0 1 0
-18.701048 15.427162 -0.694797 24.253026 -0.689762 1.599448 0.064630 -0.028448 150415.000000 0 1 0
-19.469148 14.346162 -1.150297 24.211222 -0.635043 1.618325 0.047349 -0.016723 -932406.000000 0 1 0
-20.427548 14.794762 -2.245897 25.322199 -0.626820 1.659606 0.044143 0.002380 87124.700000 0 0 1
-21.428648 13.814762 -2.665197 25.634701 -0.572631 1.674953 0.028423 0.002968 1782070.000000 0 0 1
-22.479548 13.448162 -1.766397 26.254586 -0.539124 1.638127 0.013951 0.004999 356016.000000 0 0 1
-23.597448 14.507962 -1.460297 27.739016 -0.551239 1.623465 -0.017018 0.011419 -330289.000000 0 0 1
-23.118748 15.551062 -0.622297 27.869325 -0.592141 1.593127 -0.019378 -0.000184 212307.000000 0 0 1
-24.087648 16.377962 -0.013297 29.128210 -0.597130 1.571253 -0.026833 0.001958 -270224.000000 0 0 1
-23.366248 17.496662 0.833803 29.202910 -0.642733 1.542240 -0.026492 -0.000128 231002.000000 0 0 1
-22.894148 16.962962 2.040103 28.566521 -0.637671 1.499320 -0.018479 0.005195 51203.500000 0 0 1
-22.431148 17.953862 2.925003 28.879979 -0.674984 1.469341 -0.010590 -0.001025 204810.000000 0 0 1
-23.558748 18.886362 3.483403 30.394792 -0.675759 1.455939 -0.015643 -0.010071 -922129.000000 0 0 1
-24.442548 18.272662 4.350003 30.826139 -0.641948 1.429210 -0.012940 -0.003554 335004.000000 0 0 1
-25.743708 18.862362 4.410703 32.217720 -0.632336 1.433462 -0.005754 -0.013109 638261.000000 0 0 1
-26.619048 18.651962 3.147603 32.655425 -0.611195 1.474258 -0.003216 -0.008881 -937367.000000 0 0 1
-27.866768 19.324862 3.115603 34.054574 -0.606332 1.479180 -0.001280 -0.010274 -16668.000000 0 0 1
-28.470638 19.166862 1.896603 34.373579 -0.592522 1.515592 -0.000217 -0.007489 -592039.000000 0 0 1
-29.717108 20.038562 1.718603 35.883200 -0.593276 1.522884 0.008664 -0.014070 556258.000000 0 0 1
-30.842888 19.591862 2.512703 36.625653 -0.565911 1.502137 0.019832 -0.008587 919293.000000 0 0 1
-32.069048 20.257162 2.280703 37.999711 -0.563384 1.510741 0.016243 -0.011950 153393.000000 0 0 1
-32.508868 20.832962 3.615203 38.780259 -0.569908 1.477438 0.014676 -0.016896 -514533.000000 0 0 1
-31.678998 21.907762 3.998103 38.723298 -0.605035 1.467364 0.017117 -0.015466 288725.000000 0 0 1
-31.674758 22.151862 5.407403 39.028647 -0.610292 1.431800 0.021512 -0.014831 304387.000000 0 0 1
-30.546048 23.170162 5.858903 38.784587 -0.648939 1.419153 0.020505 -0.010205 300759.000000 0 0 1
-30.753558 24.470352 5.501803 39.684371 -0.672108 1.431709 0.014868 -0.006889 330075.000000 0 0 1
-29.663828 25.279232 5.914403 39.420330 -0.705764 1.420193 0.007576 -0.005375 -164597.000000 0 0 1
-29.819228 26.786582 5.757203 40.495095 -0.731875 1.428143 0.010415 0.000465 -639235.000000 0 0 1
-30.798618 27.322422 6.630203 41.701669 -0.725660 1.411127 0.020812 0.007736 145517.000000 0 0 1
-30.968578 28.700592 6.511203 42.722038 -0.747407 1.417792 0.019030 0.013396 -16958.500000 0 0 1
-32.193208 29.269972 7.256303 44.111085 -0.737873 1.405545 0.022351 0.015703 -171552.000000 0 0 1
-31.770648 29.494802 8.618403 44.199483 -0.748268 1.374550 0.022999 0.010828 1058920.000000 0 0 1
-32.739368 30.103462 9.540803 45.487488 -0.743478 1.359481 0.032883 0.012653 1484160.000000 0 0 1
-34.051548 29.316322 9.914803 46.013672 -0.710811 1.353618 0.036061 0.011115 743540.000000 0 0 1
-33.596688 28.136132 10.508703 45.064534 -0.697173 1.335437 0.034675 0.011038 635728.000000 0 0 1
-34.640886 27.421312 11.179703 45.573074 -0.669591 1.322953 0.032262 0.012566 326849.000000 0 0 1
-34.112429 26.156562 11.880003 44.597736 -0.654151 1.301160 0.035845 0.007980 -360866.000000 0 0 1
-33.177248 26.405422 12.884003 44.316742 -0.672229 1.275811 0.019896 0.008618 -289104.000000 0 0 1
-33.016488 25.361462 13.801703 43.860908 -0.655013 1.250688 0.027771 0.009988 -4486.370000 0 0 1
-31.847968 25.670392 14.763203 43.488093 -0.678406 1.224436 0.016169 0.014411 -136350.000000 0 0 1
-32.028818 26.861932 15.513803 44.587965 -0.697885 1.215427 0.005446 0.005054 32771.200000 0 0 1
-30.956868 27.128962 16.394303 44.306675 -0.719592 1.191767 0.021769 0.007183 -114976.000000 0 0 1
-31.234298 28.375172 17.246503 45.586990 -0.737471 1.182815 0.004699 0.002288 -479704.000000 0 0 1
-31.298318 29.559882 16.439503 46.082845 -0.756841 1.206022 0.018320 0.000382 124547.000000 0 0 1
-31.585838 30.723072 17.192303 47.298495 -0.771552 1.198790 0.006401 0.005007 -174804.000000 0 0 1
-31.235988 32.034312 16.444803 47.668812 -0.798015 1.218578 0.016020 0.005254 555498.000000 0 0 1
-29.815418 32.108832 16.315203 46.755985 -0.822417 1.214353 0.002814 0.012901 272707.000000 0 0 1
-29.560248 33.271342 15.580403 47.154421 -0.844394 1.234056 0.016504 0.014855 408292.000000 0 0 1
-28.046408 33.420382 15.163103 46.189205 -0.872605 1.236312 0.022514 0.008621 518668.000000 0 0 1
-27.533718 32.573632 14.193503 44.951114 -0.869051 1.249545 0.017689 0.010480 5288.890000 0 0 1
-27.418998 31.171592 14.468903 43.963835 -0.849359 1.235436 0.012910 0.010203 -292213.000000 0 0 1
-28.584328 30.228102 14.051603 43.911838 -0.813340 1.245071 0.026449 0.013321 195825.000000 0 0 1
-28.594078 29.958612 12.704803 43.319185 -0.808698 1.273137 0.035998 0.005446 -362873.000000 0 0 1
-29.573428 29.023922 12.374003 43.244556 -0.776021 1.280600 0.029167 0.009308 -151618.000000 0 0 1
-29.638648 28.715832 10.839503 42.667825 -0.769586 1.313937 0.033905 0.008994 -73173.800000 0 0 1
-28.599288 27.889682 10.334603 41.262061 -0.772837 1.317638 0.012950 0.013163 -146111.000000 0 0 1
-28.366478 28.164942 8.987903 40.971984 -0.781833 1.349631 0.009854 0.006133 228868.000000 0 0 1
-27.179178 27.393802 8.313803 39.474643 -0.789331 1.358596 -0.001443 0.006548 416911.000000 0 0 1
-27.113648 27.750532 6.972503 39.419002 -0.797006 1.392979 -0.009171 0.003651 -402781.000000 0 0 1
-26.148508 26.974702 6.290103 38.091264 -0.800949 1.404904 -0.015138 -0.000427 -530215.000000 0 0 1
-25.926928 27.387162 4.818203 38.019433 -0.812781 1.443725 -0.024021 0.000036 -465002.000000 0 0 1
-25.209408 28.559692 4.593603 38.370190 -0.847626 1.450790 -0.016953 -0.005892 55070.000000 0 0 1
-25.018248 28.761492 3.187403 38.253048 -0.854889 1.487375 -0.014753 -0.003271 -75001.800000 0 0 1
-23.982048 29.848022 2.791303 38.390551 -0.893942 1.498024 0.000383 -0.007741 146432.000000 0 0 1
-22.667548 29.579122 3.231203 37.405653 -0.916922 1.484306 0.005053 -0.013768 -122209.000000 0 0 1
-21.755848 30.563532 2.780903 37.618876 -0.952179 1.496806 0.014014 -0.010320 581411.000000 0 0 1
-20.286448 30.155982 3.064803 36.473500 -0.978617 1.486669 0.001248 -0.018944 786020.000000 0 0 1
-19.269448 31.109992 2.769603 36.698964 -1.016236 1.495256 -0.003454 -0.013009 992047.000000 0 0 1
-17.943648 30.682812 3.161803 35.684821 -1.041620 1.482076 -0.002974 -0.012879 1320640.000000 0 0 1
-16.786348 31.597812 2.723303 35.883416 -1.082462 1.494830 0.000419 -0.010164 -144578.000000 0 0 1
-16.750648 32.874812 3.360903 37.049064 -1.099555 1.479957 -0.000331 -0.011610 -485819.000000 0 0 1
-15.575348 33.568619 3.096203 37.135295 -1.136373 1.487323 0.005697 -0.001797 -435270.000000 0 0 1
-15.380548 -34.662790 4.040103 38.136501 1.153178 1.464659 0.006288 0.000649 241359.000000 0 0 1
-16.359448 -33.681144 3.728803 37.629178 1.118642 1.471540 0.009868 -0.007122 161447.000000 0 0 1
-16.169148 -32.632144 4.638503 36.712585 1.110757 1.444111 -0.001051 -0.004203 356787.000000 0 0 1
-17.306548 -31.561774 4.768003 36.309724 1.069229 1.439101 -0.000233 -0.001707 203266.000000 0 0 1
-17.537248 -30.750084 3.627603 35.584860 1.052490 1.468677 0.005199 0.000234 206750.000000 0 0 1
-18.638348 -29.907444 3.903003 35.455277 1.013492 1.460490 0.014676 -0.007068 -322549.000000 0 0 1
-19.020648 -29.015154 2.747203 34.802462 0.990535 1.491777 0.005470 -0.012417 176777.000000 0 0 1
-18.140448 -27.899844 2.521203 33.374146 0.994281 1.495181 -0.004933 0.002529 6327.390000 0 0 1
-18.643848 -27.055124 1.572003 32.894438 0.967419 1.522989 -0.006181 0.010144 35853.800000 0 0 1
-17.813648 -25.745584 1.456003 31.341364 0.965520 1.524323 -0.008181 0.008716 -394876.000000 0 0 1
-16.529248 -25.952894 0.991403 30.785575 1.003690 1.538587 -0.016103 0.014772 -1242110.000000 0 0 1
-15.756848 -24.778234 0.994103 29.380732 1.004387 1.536955 -0.012670 0.013926 116378.000000 0 0 1
-14.400548 -24.938534 0.285403 28.799093 1.047129 1.560886 0.002616 0.007782 -261163.000000 0 0 1
-14.462748 -25.187834 -1.081797 29.064899 1.049567 1.608025 0.008803 0.009322 47725.800000 0 0 1
-14.615948 -24.027234 -1.886397 28.186742 1.024291 1.637771 0.027699 0.010200 -114268.000000 0 0 1
-14.768548 -24.326334 -3.419197 28.663068 1.025172 1.690370 0.020664 0.006814 -280656.000000 0 0 1
-13.532548 -24.644034 -4.005297 28.398956 1.068628 1.712305 0.021846 0.008141 -260509.000000 0 0 1
-13.654748 -24.666734 -5.385297 28.703682 1.065217 1.759532 0.026511 0.001065 145540.000000 0 0 1
-12.454548 -25.299814 -6.103997 28.852299 1.113345 1.783967 0.033300 -0.002672 -7681.020000 0 0 1
-12.284048 -26.670124 -5.833897 29.937063 1.139169 1.766923 0.027211 -0.002893 -162402.000000 0 0 1
-11.217248 -27.203114 -6.615497 30.159590 1.179688 1.791944 0.033323 0.003945 370439.000000 0 0 1
22.432352 12.840266 28.630139 38.571592 0.519878 0.734360 0.009898 0.007969 -528694.000000 0 0 1
23.213652 11.780366 29.092629 39.038848 0.469610 0.729928 0.004791 0.004269 -240966.000000 0 0 1
22.409852 10.734366 29.694239 38.719193 0.446709 0.696780 -0.005401 0.006621 -85524.100000 0 0 1
22.273452 10.840566 31.224169 39.856909 0.452954 0.670668 0.004187 0.009323 134045.000000 0 0 1
21.458252 11.960166 31.627109 40.047174 0.508483 0.660401 0.005673 0.011400 331966.000000 0 0 1
21.752552 12.364166 32.961369 41.382338 0.516861 0.649299 0.013968 0.005100 -528879.000000 0 0 1
20.901652 13.540566 33.480140 41.727038 0.574843 0.639556 0.004358 0.012812 249557.000000 0 0 1
19.603652 13.165066 33.923872 41.333415 0.591384 0.608096 0.002110 0.018107 -142010.000000 0 0 1
18.965552 14.147166 34.600725 41.917116 0.640898 0.599787 0.002904 0.019210 -191808.000000 0 0 1
17.664452 13.546766 -34.055447 40.685638 0.654226 2.562644 -0.006642 0.025472 268607.000000 0 0 1
16.639052 13.133166 34.307279 40.327750 0.668181 0.553459 -0.017522 0.023985 207273.000000 0 0 1
15.545152 12.771166 -34.142644 39.629213 0.687746 2.609116 -0.018703 0.021706 -93051.500000 0 0 1
14.200752 12.336666 34.532873 39.323962 0.715270 0.498787 -0.011407 0.025562 266224.000000 0 0 1
14.447952 11.248466 33.692448 38.346477 0.661525 0.497806 -0.018428 0.030249 1169580.000000 0 0 1
13.145952 10.708266 33.341808 37.405336 0.683561 0.470449 -0.014624 0.023135 1034980.000000 0 0 1
13.230152 9.492766 32.310929 36.182118 0.622381 0.466811 -0.016345 0.014331 -140661.000000 0 0 1
13.847952 8.279666 32.800529 36.553978 0.538873 0.457142 -0.024629 0.016023 469237.000000 0 0 1
14.324452 7.415866 31.717879 35.583828 0.477712 0.470467 -0.024748 0.004599 125172.000000 0 0 1
14.795352 5.997766 32.088009 35.840144 0.385137 0.461672 -0.012798 0.002557 -288946.000000 0 0 1
13.768152 5.073766 32.329409 35.503461 0.353073 0.426066 -0.021109 0.008398 -269837.000000 0 0 1
14.293652 3.801266 32.625309 35.821347 0.259925 0.425631 -0.020028 0.003778 -438227.000000 0 0 1
13.256752 2.809566 33.093309 35.760344 0.208844 0.388656 -0.012822 0.001207 -508788.000000 0 0 1
13.792952 1.546066 33.379741 36.150283 0.111625 0.394053 -0.002210 -0.005210 -6791.210000 0 0 1
12.803852 0.767166 34.027064 36.364381 0.059845 0.360487 -0.003954 -0.001907 -24007.600000 0 0 1
13.282252 -0.653834 34.418136 36.897883 -0.049186 0.368706 -0.015629 0.000697 -82360.200000 0 0 1
13.128152 -1.493734 33.327650 35.851246 -0.113294 0.377445 -0.042512 0.010050 352805.000000 0 0 1
13.851252 -2.717834 33.540728 36.389892 -0.193754 0.398344 -0.000716 0.003642 -275966.000000 0 0 1
13.758452 -3.797734 32.455969 35.455714 -0.269323 0.414309 0.002654 0.005715 -476203.000000 0 0 1
14.264852 -5.072034 32.826819 36.149849 -0.341621 0.432129 0.014236 -0.000397 798527.000000 0 0 1
15.632352 -5.259234 33.202360 37.073261 -0.324537 0.461046 0.000309 0.002802 1500850.000000 0 0 1
16.849052 -4.924734 32.240429 36.709519 -0.284364 0.498589 0.007167 -0.001112 531930.000000 0 0 1
16.938352 -3.546434 32.208519 36.563283 -0.206392 0.493040 0.003874 -0.000221 209881.000000 0 0 1
18.121752 -3.097334 31.569489 36.532506 -0.169282 0.527342 0.013820 -0.003967 100130.000000 0 0 1
18.164752 -1.573534 31.470789 36.370933 -0.086410 0.525101 0.015480 -0.012320 -572931.000000 0 0 1
18.230652 -0.901934 32.743419 37.487353 -0.049433 0.508548 0.012962 -0.009589 177647.000000 0 0 1
18.052452 0.526866 32.626839 37.291812 0.029177 0.505554 0.007549 -0.009991 270714.000000 0 0 1
19.261652 1.301566 32.006399 37.378000 0.067470 0.542753 0.015771 -0.014088 -17802.300000 0 0 1
19.535052 1.075666 30.635969 36.350212 0.055008 0.568331 0.028887 -0.011528 -6451.680000 0 0 1
20.570152 1.928666 30.173659 36.569121 0.093487 0.600394 0.018028 -0.004337 -183520.000000 0 0 1
20.183352 3.372266 29.822379 36.167861 0.165552 0.601382 0.014984 0.002535 -589610.000000 0 0 1
20.041852 4.099366 31.051809 37.184613 0.201757 0.582534 0.004115 0.002710 691533.000000 0 0 1
19.164852 5.233766 31.037969 36.851585 0.266591 0.569367 0.007311 -0.001902 -126510.000000 0 0 1
18.860852 5.966066 32.387629 37.951076 0.306361 0.548314 0.011056 0.004202 -332673.000000 0 0 1
18.054952 5.231166 33.263937 38.207798 0.282014 0.514364 -0.004937 0.014107 32897.200000 0 0 1
17.713652 5.962266 34.432526 39.178067 0.324680 0.497303 -0.008077 0.015860 191392.000000 0 0 1
16.494852 5.419066 -34.021947 38.196064 0.317422 2.669720 -0.002146 0.013156 -19447.300000 0 0 1
16.702152 4.019866 -33.808637 37.922884 0.236187 2.671464 -0.013826 0.005826 -115825.000000 0 0 1
15.794152 3.418266 -32.899637 36.654138 0.213139 2.685022 -0.019432 0.004462 -87873.600000 0 0 1
15.590452 1.860466 -33.105667 36.640261 0.118772 2.698739 -0.012437 -0.003655 -602442.000000 0 0 1
16.676652 1.183066 -32.581327 36.620393 0.070823 2.667494 -0.014151 0.006216 -536803.000000 0 0 1
16.603252 -0.198934 -32.915957 36.866892 -0.011981 2.674392 -0.003733 0.000542 324883.000000 0 0 1
17.744052 -1.057834 -32.239007 36.814725 -0.059546 2.637700 0.000323 0.000810 -92435.700000 0 0 1
17.783652 -1.152834 -30.803627 35.587227 -0.064735 2.617106 0.010434 0.000630 203449.000000 0 0 1
17.651652 0.043266 -30.001107 34.808750 0.002451 2.609770 -0.000030 0.006624 -286804.000000 0 0 1
17.343652 -0.174134 -28.484227 33.349419 -0.010040 2.594642 -0.005116 0.009417 191454.000000 0 0 1
16.080452 -0.781634 -28.269017 32.531972 -0.048570 2.623895 -0.004193 -0.000607 252676.000000 0 0 1
15.750252 -1.095234 -26.903237 31.193815 -0.069426 2.610895 0.005745 0.003529 314489.000000 0 0 1
16.604752 -2.231934 -26.195337 31.094935 -0.133615 2.572576 0.012088 0.000981 -45127.200000 0 0 1
17.904552 -1.860434 -25.797947 31.457404 -0.103537 2.532367 0.015590 0.002750 -196203.000000 0 0 1
18.776452 -2.947434 -25.632157 31.910029 -0.155704 2.503550 0.020137 0.002304 214401.000000 0 0 1
19.596552 -3.386134 -26.871127 33.429750 -0.171103 2.504467 0.020747 -0.000281 -43700.100000 0 0 1
20.739852 -2.571534 -27.108447 34.228966 -0.123360 2.484831 0.018336 0.008222 187476.000000 0 0 1
21.234752 -2.660034 -28.431887 35.585990 -0.124619 2.496365 0.010933 0.001321 -537753.000000 0 0 1
22.708852 -2.325834 -28.621347 36.609875 -0.102064 2.468333 0.013847 -0.003712 -315346.000000 0 0 1
23.492352 -3.492434 -28.329297 36.968050 -0.147582 2.443887 0.015019 -0.007041 -509730.000000 0 0 1
24.838252 -3.240034 -28.595007 38.014615 -0.129713 2.422207 0.008129 -0.008569 -943815.000000 0 0 1
25.770452 -4.415934 -28.381937 38.589519 -0.169708 2.397176 0.005322 -0.008822 -424649.000000 0 0 1
25.707152 -5.443334 -29.341727 39.388126 -0.208662 2.411239 0.016612 -0.018545 492372.000000 0 0 1
26.826052 -6.323434 -29.231027 40.175562 -0.231494 2.385587 0.016738 -0.016228 -3124.740000 0 0 1
26.768352 -7.511134 -28.221517 39.615853 -0.273563 2.363679 0.001874 -0.011577 -210665.000000 0 0 1
26.912452 -6.950034 -26.925187 38.698175 -0.252724 2.340293 -0.004548 -0.002794 125952.000000 0 0 1
26.360152 -7.766034 -25.922107 37.777302 -0.286507 2.327024 -0.014966 0.000559 -170510.000000 0 0 1
26.378652 -7.017634 -24.613597 36.754722 -0.260012 2.304563 -0.027433 -0.000640 -478173.000000 0 0 1
27.598952 -7.079534 -23.948097 37.220066 -0.251101 2.269753 -0.025084 0.000443 -351086.000000 0 0 1
27.491052 -6.392534 -22.677097 36.205982 -0.228471 2.247640 -0.024226 -0.000812 -673087.000000 0 0 1
28.794052 -5.863834 -22.108297 36.773071 -0.200900 2.215809 -0.014641 -0.001121 -825112.000000 0 0 1
29.445052 -4.863634 -22.844397 37.583673 -0.163699 2.224118 -0.009630 -0.002643 -749562.000000 0 0 1
30.483452 -4.358834 -22.111897 37.910108 -0.142027 2.193547 -0.006197 0.000084 -887625.000000 0 0 1
31.004752 -2.976934 -22.600497 38.482973 -0.095722 2.198497 0.008079 -0.010690 -387881.000000 0 0 1
30.205352 -1.839734 -22.437497 37.672127 -0.060832 2.208808 -0.001132 -0.009366 -117236.000000 0 0 1
30.852052 -0.649934 -22.762197 38.345653 -0.021063 2.206328 0.013035 -0.008209 -405975.000000 0 0 1
29.869252 0.499466 -22.668297 37.500311 0.016720 2.219913 0.011991 -0.005102 -796642.000000 0 0 1
28.876252 0.488566 -23.627797 37.314198 0.016918 2.256492 0.005735 0.001429 -316233.000000 0 0 1
27.846352 1.351466 -23.195897 36.267001 0.048495 2.264757 -0.004279 0.003662 -130535.000000 0 0 1
26.463452 1.193966 -23.854897 35.648225 0.045087 2.303894 -0.007240 0.006001 -517175.000000 0 0 1
25.601752 2.219366 -23.579097 34.876197 0.086472 2.313226 -0.010456 0.002407 -165735.000000 0 0 1
24.588552 2.410766 -24.579697 34.850684 0.097732 2.353623 -0.013485 0.000204 353391.000000 0 0 1
23.747552 3.678466 -24.270897 34.154850 0.153677 2.361166 -0.002971 0.000842 75368.100000 0 0 1
24.513852 4.875266 -24.329897 34.880382 0.196316 2.342732 -0.013203 0.006275 184449.000000 0 0 1
23.585752 5.908266 -24.107497 34.239841 0.245451 2.351919 0.008882 0.002151 77511.600000 0 0 1
24.201452 7.053466 -23.276997 34.311517 0.283593 2.316381 0.023393 -0.005772 -222469.000000 0 0 1
24.965052 7.946766 -24.049097 35.563520 0.308174 2.313429 0.014008 -0.002215 -97964.100000 0 0 1
25.026052 9.269066 -23.555797 35.596270 0.354711 2.293946 0.024866 -0.003965 -264591.000000 0 0 1
25.761152 10.195966 -24.535697 37.008041 0.376870 2.295592 0.039320 -0.007967 -2512.950000 0 0 1
25.181552 10.405466 -25.846607 37.555710 0.391849 2.329830 0.035664 -0.017254 125288.000000 0 0 1
23.967252 11.116466 -25.840047 36.955554 0.434286 2.345102 0.043640 -0.026632 -27913.900000 0 0 1
23.469852 11.498866 -27.280437 37.779361 0.455569 2.377628 0.029196 -0.019376 -79049.000000 0 0 1
23.019952 10.418666 -28.150537 37.827497 0.425008 2.410106 0.030785 -0.007881 168405.000000 0 0 1
24.030552 9.651066 -28.761307 38.701722 0.381899 2.408567 0.031554 -0.014526 -202915.000000 0 0 1
24.840452 10.208466 -29.929357 40.212277 0.389920 2.410259 0.026260 -0.011620 -1219050.000000 0 0 1
25.787852 11.165566 -29.519367 40.756302 0.408608 2.380800 0.018726 -0.003351 861806.000000 0 0 1
26.667152 11.700366 -30.569717 42.220174 0.413464 2.380459 0.016332 -0.001508 1173270.000000 0 0 1
27.591652 10.648566 -31.269027 43.040019 0.368322 2.384026 0.012862 -0.007946 -624859.000000 0 0 1
26.844152 9.884866 -32.184407 43.059901 0.352824 2.414987 0.016721 -0.005950 142738.000000 0 0 1
27.624852 8.769766 -32.571677 43.599947 0.307397 2.414421 0.015111 -0.006872 -98766.300000 0 0 1
26.894652 7.743566 -33.460467 43.622104 0.280340 2.445031 0.026465 -0.004568 -118030.000000 0 0 1
25.873652 7.145966 -32.701617 42.307286 0.269469 2.454281 0.035742 -0.002805 -337072.000000 0 0 1
25.335252 6.000666 -33.282297 42.256292 0.232565 2.477748 0.021506 -0.000145 -59625.200000 0 0 1
24.055652 5.458766 -32.578687 40.863717 0.223143 2.493526 0.030381 0.009761 654575.000000 0 0 1
22.848952 6.194866 -32.733087 40.396855 0.264758 2.515440 0.028299 0.010786 315336.000000 0 0 1
22.747052 7.362166 -31.872977 39.843651 0.313014 2.498010 0.031413 0.007043 -1599260.000000 0 0 1
21.299552 7.670266 -31.680247 38.937667 0.345656 2.521138 0.017203 0.009243 -1059890.000000 0 0 1
20.722152 8.457166 -32.696057 39.622763 0.387488 2.541324 0.018155 0.010901 1399040.000000 0 0 1
19.320752 8.813866 -32.482617 38.808454 0.427987 2.562571 0.005383 0.015677 1357120.000000 0 0 1
18.858452 9.817466 -33.582967 39.747195 0.479981 2.577201 0.001972 0.019897 -303737.000000 0 0 1
18.378152 9.218166 34.493360 40.156231 0.464913 0.537524 0.012229 0.014731 111814.000000 0 0 1
17.937652 10.201766 33.574207 39.408917 0.517113 0.551109 -0.000033 0.018233 234215.000000 0 0 1
17.093352 9.643066 32.348739 37.836653 0.513635 0.545327 -0.018830 0.020751 231061.000000 0 0 1
17.756352 8.722666 31.409689 37.120634 0.456617 0.562074 -0.016791 0.014609 852025.000000 0 0 1
18.829652 9.306466 30.635779 37.144542 0.459033 0.600997 -0.007343 0.013450 -16735.000000 0 0 1
18.443852 10.215266 29.420439 36.195159 0.505800 0.621806 -0.011546 0.009334 -193266.000000 0 0 1
17.710052 9.577166 28.363739 34.783181 0.495734 0.617300 -0.008483 0.018222 -931227.000000 0 0 1
16.361852 9.712366 28.527139 34.290493 0.535699 0.588227 -0.007812 0.019596 -1830390.000000 0 0 1
15.515752 8.726666 27.738279 32.959147 0.512343 0.570565 0.001495 0.019126 -717306.000000 0 0 1
15.508052 8.909266 26.296669 31.802350 0.521453 0.597263 0.000624 0.022351 16237.700000 0 0 1
14.360152 8.416166 25.657929 30.583903 0.530120 0.575472 0.011263 0.021415 -179409.000000 0 0 1
14.231352 6.841466 25.534389 30.022359 0.448115 0.553838 0.006069 0.026865 -238355.000000 0 0 1
14.225052 6.243966 26.797639 30.975033 0.413620 0.525373 -0.000251 0.015479 77195.600000 0 0 1
14.016952 4.856966 26.752689 30.590381 0.333559 0.506298 -0.000045 0.009505 -200255.000000 0 0 1
14.525152 4.324166 28.092479 31.919677 0.289347 0.494725 -0.012118 0.002851 211091.000000 0 0 1
15.935652 4.361466 28.295329 32.765729 0.267150 0.528499 -0.004248 0.007742 400646.000000 0 0 1
16.262752 3.680866 29.500989 33.887080 0.222587 0.514442 0.004397 0.003093 -422082.000000 0 0 1
16.690752 2.234766 29.423789 33.901839 0.133101 0.519815 0.015078 0.002978 -295067.000000 0 0 1
15.616852 1.317266 29.209669 33.148544 0.084150 0.492455 0.004613 -0.005747 362072.000000 0 0 1
15.045652 0.706366 30.323089 33.857943 0.046914 0.461024 -0.006084 0.001709 -91954.800000 0 0 1
14.781952 -0.815334 30.144319 33.583490 -0.055102 0.456517 -0.006907 0.001690 -685870.000000 0 0 1
13.963252 -1.196334 29.089189 32.289077 -0.085469 0.448961 -0.011021 0.008536 -138979.000000 0 0 1
14.523252 -1.253834 27.792489 31.383425 -0.086119 0.483058 -0.003376 0.007674 -633437.000000 0 0 1
15.723152 -2.173634 27.492129 31.745225 -0.137373 0.523601 0.008057 0.006551 459631.000000 0 0 1
17.040652 -1.960734 27.958769 32.801235 -0.114558 0.550297 0.009601 0.002233 352677.000000 0 0 1
17.685152 -0.819134 27.424389 32.642498 -0.046285 0.573248 0.016527 0.000313 -1480990.000000 0 0 1
19.150452 -0.688434 27.758159 33.730240 -0.035933 0.604219 0.028636 -0.000507 -565255.000000 0 0 1
19.974252 -1.526734 26.943779 33.574825 -0.076287 0.639324 0.018263 0.002062 -70632.000000 0 0 1
21.327752 -1.439134 27.306689 34.678514 -0.067375 0.664178 0.033309 -0.000908 -443719.000000 0 0 1
22.324952 -2.288934 26.561959 34.773271 -0.102171 0.701521 0.024637 0.005271 -686206.000000 0 0 1
22.465652 -1.706334 25.287859 33.868760 -0.075807 0.727796 0.017912 0.019547 260027.000000 0 0 1
21.602952 -2.273834 24.321579 32.609769 -0.104870 0.729006 0.021394 0.031776 -139358.000000 0 0 1
21.344652 -1.534634 23.004499 31.419042 -0.071774 0.749274 0.014182 0.009918 -33332.700000 0 0 1
20.712152 -0.298734 23.273399 31.156597 -0.014422 0.727286 0.015647 0.016817 184372.000000 0 0 1
20.294752 0.319566 22.106899 30.011565 0.015745 0.742748 0.021162 0.018650 -137234.000000 0 0 1
-29.381818 -28.134531 -10.636497 42.047332 0.763716 1.826540 -0.026191 0.025293 -68792.900000 0 0 1
-29.105808 -26.990631 -9.812797 40.889280 0.747710 1.813146 -0.026348 0.028819 -290343.000000 0 0 1
-29.720338 -27.124831 -8.578897 41.141857 0.739771 1.780858 -0.022109 0.021544 -672058.000000 0 0 1
-29.870678 -25.754131 -7.775997 40.199487 0.711527 1.765459 -0.013124 0.017424 19021.100000 0 0 1
-28.775388 -25.121331 -7.138197 38.859466 0.717704 1.755538 -0.019917 0.012228 -542124.000000 0 0 1
-28.352048 -25.865931 -5.963697 38.838778 0.739576 1.724956 -0.016141 0.013743 -49199.200000 0 0 1
-27.130168 -25.252531 -5.263997 37.435892 0.749569 1.711878 -0.015125 0.021379 -297217.000000 0 0 1
-27.329688 -24.100331 -4.401797 36.703046 0.722689 1.691016 -0.016672 0.011601 -65226.800000 0 0 1
-27.981308 -22.917231 -4.901697 36.499037 0.686231 1.705500 -0.017476 0.009072 129515.000000 0 0 1
-27.979268 -21.794031 -3.841997 35.673242 0.661764 1.678705 -0.011516 -0.003663 590532.000000 0 0 1
-26.861268 -20.892331 -3.957997 34.259056 0.661049 1.686586 -0.002990 -0.006035 783504.000000 0 0 1
-27.192948 -19.790431 -3.152997 33.779564 0.629127 1.664273 0.010684 -0.001687 98434.300000 0 0 1
-26.158498 -18.633631 -3.070697 32.263112 0.618957 1.666117 0.012709 -0.003989 103321.000000 0 0 1
-26.082368 -17.859631 -4.243697 31.894597 0.600411 1.704246 0.015460 -0.007325 128752.000000 0 0 1
-25.135158 -16.813231 -4.132497 30.521115 0.589556 1.706611 0.026197 -0.006622 196560.000000 0 0 1
-25.368608 -15.724531 -5.237697 30.302815 0.554882 1.744514 0.016812 -0.015095 1078330.000000 0 0 1
-26.518138 -14.836731 -5.040997 30.801816 0.510103 1.735195 0.011979 -0.010815 1018720.000000 0 0 1
-26.585388 -13.920831 -6.125397 30.628302 0.482370 1.772145 0.020889 -0.022418 -333650.000000 0 0 1
-27.902648 -13.163631 -6.238297 31.476266 0.440810 1.770308 0.018938 -0.016030 -357746.000000 0 0 1
-29.011488 -13.926931 -6.625997 32.856197 0.447560 1.773855 0.015896 -0.010316 291552.000000 0 0 1
-30.220268 -13.157731 -6.676197 33.629780 0.410642 1.770644 0.002980 -0.010825 546944.000000 0 0 1
-31.295208 -13.967231 -7.453197 35.071694 0.419778 1.784942 -0.000641 -0.012969 -368933.000000 0 0 1
-31.744068 -15.113331 -6.774797 35.804979 0.444345 1.761158 0.001280 -0.011683 17627.900000 0 0 1
-32.143868 -16.126631 -7.660197 36.769214 0.465008 1.780665 0.000049 -0.006855 -565785.000000 0 0 1
-32.970678 -17.229531 -6.959797 37.846547 0.481541 1.755744 -0.009158 -0.008997 -681028.000000 0 0 1
-34.344977 -17.101031 -6.899397 38.982360 0.461982 1.748721 -0.009043 -0.024396 -958729.000000 0 0 1
-34.798765 -16.226531 -5.895297 38.845963 0.436323 1.723146 -0.000384 -0.021066 -10152.000000 0 0 1
33.468114 -16.240631 -5.640497 37.625629 -0.451784 1.721275 0.011958 -0.025872 -448037.000000 0 0 1
32.802794 -15.480831 -6.584697 36.865127 -0.440946 1.750376 0.017768 -0.025124 416225.000000 0 0 1
31.381174 -15.463731 -6.649897 35.610759 -0.457848 1.758637 0.017530 -0.027111 366485.000000 0 0 1
30.679654 -14.718731 -5.503197 34.469804 -0.447321 1.731135 0.031536 -0.028994 -1030880.000000 0 0 1
30.850434 -15.502531 -4.338997 34.798055 -0.465650 1.695813 0.014327 -0.029471 406448.000000 0 0 1
30.206604 -14.886631 -3.217997 33.829073 -0.457893 1.666066 -0.001109 -0.019472 -1347480.000000 0 0 1
30.418144 -15.545731 -1.870797 34.211593 -0.472463 1.625507 0.008296 -0.010203 321641.000000 0 0 1
31.740304 -15.665331 -1.320997 35.420255 -0.458472 1.608100 0.017217 -0.006089 835608.000000 0 0 1
32.629124 -16.615031 -1.903197 36.665258 -0.470987 1.622727 0.013794 -0.011594 -618402.000000 0 0 1
32.251814 -18.121131 -1.902097 37.042851 -0.511906 1.622167 0.020476 -0.019788 -1354080.000000 0 0 1
32.645904 -18.897231 -0.782697 37.728941 -0.524726 1.591543 0.015655 -0.016950 106963.000000 0 0 1
32.599234 -20.302831 -1.049497 38.418959 -0.557016 1.598117 0.008773 -0.016470 224963.000000 0 0 1
33.719894 -20.945831 -1.922797 39.742373 -0.555841 1.619197 0.020984 -0.028873 30566.000000 0 0 1
33.598914 -20.440431 -3.203397 39.458332 -0.546548 1.652070 0.000552 -0.029500 -321857.000000 0 0 1
34.575295 -20.882331 -4.107797 40.600452 -0.543331 1.672146 0.015457 -0.023391 -442237.000000 0 0 1
34.445743 -20.212131 -5.512297 40.316558 -0.530643 1.707951 0.038329 -0.030275 -65039.600000 0 0 1
33.230394 -20.436731 -6.215397 39.503800 -0.551377 1.728789 0.025424 -0.041718 397072.000000 0 0 1
33.075104 -19.345331 -7.109197 38.971079 -0.529236 1.754246 0.026625 -0.035755 -149234.000000 0 0 1
32.030634 -19.649731 -8.203397 38.462568 -0.550263 1.785730 0.019992 -0.038279 14338.600000 0 0 1
32.459814 -20.591031 -9.121297 39.507317 -0.565298 1.803774 0.020992 -0.036348 924199.000000 0 0 1
31.352984 -20.801431 -10.034597 38.941010 -0.585779 1.831424 0.017050 -0.042366 558830.000000 0 0 1
31.268484 -22.230831 -10.641397 39.814159 -0.618048 1.841362 0.020936 -0.024710 52144.300000 0 0 1
30.834734 -23.240531 -9.685597 39.808465 -0.645873 1.816568 0.018513 -0.027481 -879.875000 0 0 1
30.734794 -24.484431 -10.345597 40.634299 -0.672686 1.828233 0.001912 -0.017196 -41643.300000 0 0 1
29.874404 -25.562931 -9.607697 40.475317 -0.707782 1.810456 0.001644 -0.018512 280518.000000 0 0 1
28.544204 -25.142431 -9.426697 39.188978 -0.722119 1.813723 0.003438 -0.020823 -633737.000000 0 0 1
27.694794 -26.082431 -8.852397 39.059694 -0.755425 1.799420 -0.008784 -0.011550 691634.000000 0 0 1
26.208794 -25.572431 -8.867397 37.675998 -0.773109 1.808385 0.003786 -0.023049 613375.000000 0 0 1
25.659524 -25.368431 -10.147197 37.482450 -0.779694 1.844936 0.001012 -0.019828 150462.000000 0 0 1
24.343614 -24.834431 -10.022697 36.191365 -0.795378 1.851400 0.007673 -0.027337 225837.000000 0 0 1
23.699714 -24.745631 -11.418897 36.116670 -0.806984 1.892483 0.023410 -0.029589 -255253.000000 0 0 1
23.219214 -25.980031 -11.876297 36.812230 -0.841454 1.899291 0.023961 -0.029381 273202.000000 0 0 1
22.386014 -25.806231 -13.014797 36.557900 -0.856250 1.934786 0.030028 -0.018193 385558.000000 0 0 1
21.729014 -27.119731 -13.600197 37.317492 -0.895309 1.943834 0.032828 -0.016255 -170424.000000 0 0 1
22.615314 -28.016031 -14.206897 38.706412 -0.891664 1.946624 0.028190 -0.007310 -313013.000000 0 0 1
22.063814 -29.252331 -14.426497 39.378097 -0.924575 1.945889 0.040635 -0.018477 -821511.000000 0 0 1
23.085314 -30.180831 -15.061897 40.873891 -0.917827 1.948188 0.031897 -0.012954 -353596.000000 0 0 1
23.276914 -29.938931 -16.433897 41.330706 -0.909939 1.979717 0.020850 -0.009391 200806.000000 0 0 1
23.815414 -31.090431 -17.049097 42.713704 -0.917131 1.981384 0.029985 -0.007058 -583521.000000 0 0 1
23.640614 -31.056631 -18.552897 43.215771 -0.920159 2.014523 0.019657 0.001898 270825.000000 0 0 1
22.274114 -31.113231 -18.952197 42.700761 -0.949476 2.030673 0.017427 0.006622 311601.000000 0 0 1
22.106214 -31.237431 -20.331597 43.334000 -0.954932 2.059162 0.010215 0.005845 82893.800000 0 0 1
20.689314 -30.748831 -20.707597 42.454009 -0.978526 2.080324 -0.000919 0.002331 -39715.300000 0 0 1
20.547914 -30.595931 -22.093997 42.970600 -0.979393 2.110831 -0.002143 0.001171 -35431.100000 0 0 1
19.190214 -30.360831 -22.392897 42.325951 -1.007128 2.128287 0.012482 0.000644 -345103.000000 0 0 1
18.832114 -30.559631 -23.862697 43.104151 -1.018520 2.157484 0.002212 0.006400 -577318.000000 0 0 1
19.501514 -29.647731 -24.711897 43.243205 -0.988975 2.179084 -0.002249 0.000686 330871.000000 0 0 1
19.247514 -29.791031 -26.080647 44.024680 -0.997179 2.204843 -0.008570 -0.001342 -513394.000000 0 0 1
19.863614 -28.669331 -26.970247 44.089544 -0.964884 2.229023 -0.020326 -0.004950 -269681.000000 0 0 1
19.176814 -27.461731 -27.132217 43.105151 -0.961205 2.251632 -0.001289 -0.014696 -322553.000000 0 0 1
18.220414 -27.511731 -28.171767 43.388100 -0.985838 2.277456 -0.008926 -0.013587 -199002.000000 0 0 1
17.644614 -26.108231 -28.451087 42.455111 -0.976480 2.305201 -0.011378 -0.009899 -603185.000000 0 0 1
16.722914 -25.701231 -27.468767 41.167247 -0.993953 2.301304 -0.019455 -0.000846 20072.800000 0 0 1
16.212114 -24.414231 -27.788977 40.387059 -0.984612 2.329617 -0.017465 0.001316 -494570.000000 0 0 1
15.199614 -23.895531 -26.786707 38.981435 -1.004265 2.328377 -0.012277 -0.002817 -178176.000000 0 0 1
13.904414 -24.446531 -27.033117 39.009678 -1.053658 2.336417 -0.005093 -0.008267 623442.000000 0 0 1
12.856114 -24.192531 -26.080857 37.825511 -1.082339 2.331601 -0.003111 -0.005160 461328.000000 0 0 1
12.987814 -24.737531 -24.624497 37.242376 -1.087330 2.293208 -0.002684 0.001873 -1098620.000000 0 0 1
13.811214 -24.071331 -23.771697 36.541376 -1.049893 2.279094 -0.029593 -0.003845 -605440.000000 0 0 1
13.833714 -24.652731 -22.484297 36.120249 -1.059438 2.242710 -0.012393 -0.007327 -109588.000000 0 0 1
14.864214 -24.038631 -21.539497 35.535201 -1.016996 2.222001 -0.021043 -0.009133 -60655.100000 0 0 1
14.512714 -22.753331 -21.032697 34.215599 -1.003025 2.232816 -0.024960 -0.011099 -504207.000000 0 0 1
15.648514 -22.076531 -20.611497 34.015923 -0.954169 2.221739 -0.012879 -0.002418 -591278.000000 0 0 1
15.328714 -20.720131 -19.956297 32.596734 -0.933856 2.229659 -0.010149 0.015735 329478.000000 0 0 1
14.736214 -20.799431 -18.647297 31.583128 -0.954394 2.202375 -0.000998 -0.002191 67548.500000 0 0 1
13.331914 -20.686031 -18.623097 30.862137 -0.998305 2.218590 -0.029061 0.002859 -334702.000000 0 0 1
12.788714 -20.449831 -17.170397 29.606913 -1.011931 2.189458 -0.012580 -0.000542 -124658.000000 0 0 1
13.057714 -19.146031 -16.688297 28.558250 -0.972249 2.194887 -0.002627 0.000864 267819.000000 0 0 1
12.561614 -19.014131 -15.321397 27.460453 -0.986973 2.162703 0.001679 -0.005227 6166.340000 0 0 1
12.766814 -17.625931 -14.677897 26.250821 -0.943934 2.164145 -0.000741 0.004403 -419819.000000 0 0 1
12.016614 -16.564931 -15.236297 25.513539 -0.943210 2.210783 0.001950 -0.005354 357865.000000 0 0 1
12.433314 -15.322431 -14.737997 24.628697 -0.889115 2.212308 0.018252 -0.012658 -503012.000000 0 1 0
11.172114 -14.647931 -14.225397 23.275307 -0.919211 2.228347 0.017162 -0.010143 -281888.000000 0 1 0
10.394914 -14.206131 -15.322097 23.337417 -0.939097 2.287027 0.013753 0.000654 425750.000000 0 1 0
9.116714 -13.671531 -14.933997 22.204717 -0.982674 2.308458 0.019205 -0.007556 1086720.000000 0 1 0
8.243414 -13.292531 -16.183997 22.507043 -1.015689 2.373250 0.022078 0.000785 99018.800000 0 1 0
8.462714 -12.085431 -16.883497 22.421588 -0.959909 2.423408 0.014960 0.005254 -21150.000000 0 1 0
9.615414 -12.007031 -17.713997 23.460832 -0.895558 2.426520 0.013254 0.004915 222163.000000 0 1 0
9.551514 -10.798631 -18.678397 23.595007 -0.846605 2.484260 0.009098 0.003796 133257.000000 0 1 0
8.674114 -10.957331 -19.781397 24.219971 -0.901182 2.526533 0.009446 0.009889 122651.000000 0 1 0
8.695414 -9.795731 -20.644597 24.449252 -0.844833 2.576214 -0.005737 0.012290 -123671.000000 0 1 0
8.538814 -10.153631 -22.115797 25.789843 -0.871573 2.601263 0.012186 0.016065 -432103.000000 0 0 1
9.580314 -10.839031 -22.731997 26.944585 -0.846964 2.574856 0.010180 0.015660 -783395.000000 0 0 1
9.381814 -10.767031 -24.169097 28.072987 -0.854039 2.607907 0.003200 0.017933 723053.000000 0 0 1
10.563214 -11.472531 -24.929697 29.405616 -0.826640 2.582595 0.024998 0.015980 552099.000000 0 0 1
10.596414 -12.901331 -24.774697 29.874971 -0.883176 2.548613 0.019677 0.014675 -177900.000000 0 0 1
11.605814 -13.531631 -25.548517 31.153277 -0.861860 2.532366 0.015433 0.003899 18661.400000 0 0 1
11.709114 -15.018031 -25.207497 31.592127 -0.908575 2.494607 0.007157 0.004039 302528.000000 0 0 1
10.621814 -15.808831 -25.722947 32.006438 -0.979185 2.504251 0.007715 -0.003294 358706.000000 0 0 1
10.699014 -17.077731 -25.143667 32.223000 -1.011127 2.465945 0.002049 0.000460 778633.000000 0 0 1
9.403714 -17.883331 -25.505267 32.538623 -1.086694 2.471632 0.017632 -0.007593 857704.000000 0 0 1
9.539914 -18.220331 -26.825707 33.802499 -1.088458 2.487502 0.021157 -0.015033 -1023550.000000 0 0 1
8.470314 -18.997231 -27.146617 34.199120 -1.151381 2.487797 0.027738 -0.016268 -1110710.000000 0 0 1
8.632914 -19.937131 -28.384187 35.744628 -1.162163 2.488293 0.014790 -0.010613 -650184.000000 0 0 1
9.477014 -20.989731 -28.028647 36.276544 -1.146690 2.453783 0.006135 -0.005530 -426253.000000 0 0 1
9.473114 -22.086831 -28.952127 37.627033 -1.165624 2.448776 0.012666 -0.008152 278108.000000 0 0 1
10.431114 -23.326631 -28.685667 38.416238 -1.150293 2.413894 0.005308 -0.006493 418100.000000 0 0 1
10.411014 -24.279931 -29.773447 39.804050 -1.165719 2.415841 -0.004741 -0.001781 190680.000000 0 0 1
11.035414 -25.579031 -29.539907 40.603858 -1.163497 2.385489 0.006919 -0.002920 323001.000000 0 0 1
10.292814 -26.431831 -28.470687 40.189099 -1.199453 2.358051 0.015303 -0.004104 -117225.000000 0 0 1
10.899414 -26.442731 -27.215507 39.480363 -1.179826 2.331378 0.008716 0.007127 -229504.000000 0 0 1
10.013314 -26.893831 -26.134737 38.814547 -1.214371 2.309491 0.009938 0.005265 1174290.000000 0 0 1
8.972414 -25.778631 -25.741577 37.518939 -1.235854 2.326905 0.007581 0.004726 529672.000000 0 0 1
9.639814 -24.567831 -25.370987 36.608623 -1.196880 2.336484 0.000327 0.007270 286353.000000 0 0 1
8.692114 -23.545531 -25.047997 35.459089 -1.217154 2.355183 -0.004136 0.006977 357440.000000 0 0 1
9.422514 -22.211431 -24.851097 34.636807 -1.169587 2.370969 -0.002640 0.007699 96244.000000 0 0 1
9.915414 -22.094331 -23.518897 33.758160 -1.148960 2.341566 -0.013987 0.001716 -238685.000000 0 0 1
11.013914 -21.219931 -23.511697 33.531950 -1.092036 2.347838 -0.011531 0.000662 28984.400000 0 0 1
11.792514 -21.214831 -22.115197 32.836174 -1.063464 2.309731 -0.020596 0.009005 107618.000000 0 0 1
11.202814 -20.555031 -20.982797 31.437081 -1.071788 2.301580 -0.029662 0.009775 -376198.000000 0 0 1
10.897014 -19.150931 -21.085797 30.497768 -1.053478 2.334205 -0.034090 0.015401 -208286.000000 0 0 1
12.015914 -18.081131 -21.077197 30.258184 -0.984257 2.341414 -0.021580 0.012589 327900.000000 0 0 1
12.844214 -18.170631 -22.267197 31.479735 -0.955477 2.356539 -0.017432 0.010651 419405.000000 0 0 1
13.609514 -16.972131 -22.460797 31.269146 -0.894914 2.372160 -0.007644 0.019351 -466467.000000 0 0 1
14.844114 -17.060231 -23.315697 32.481085 -0.854748 2.371468 -0.018207 0.020532 39650.500000 0 0 1
16.031014 -17.478631 -22.615697 32.771415 -0.828571 2.332430 -0.008994 0.021547 215469.000000 0 0 1
17.159614 -17.468031 -23.425897 33.887418 -0.794305 2.334064 -0.002411 0.023824 268957.000000 0 0 1
18.408514 -18.066431 -22.658797 34.332060 -0.776020 2.291601 -0.001328 0.022322 629108.000000 0 0 1
18.455514 -19.471731 -22.485497 35.005026 -0.812186 2.268358 -0.006375 0.014769 -197601.000000 0 0 1
19.690314 -19.830631 -21.917897 35.515582 -0.788949 2.235892 -0.008373 0.015525 37147.200000 0 0 1
19.922514 -21.385331 -21.745397 36.429400 -0.820796 2.210452 0.003134 0.008820 14849.200000 0 0 1
19.100414 -22.021231 -20.739797 35.775684 -0.856308 2.189178 -0.002753 0.016675 526277.000000 0 0 1
19.422314 -23.389731 -20.616697 36.733554 -0.877805 2.166691 0.008572 0.005100 -216140.000000 0 0 1
-15.452748 13.282866 29.541889 35.887952 -0.710029 0.603825 0.000086 -0.001454 -568946.000000 0 0 1
-16.615648 13.929766 29.108929 36.296665 -0.697693 0.640206 0.019024 -0.006462 -186552.000000 0 0 1
-16.651048 13.779166 27.723029 35.152370 -0.691301 0.662181 0.007698 -0.005684 39411.500000 0 0 1
-17.960548 14.349766 27.122589 35.554632 -0.674107 0.703098 0.020948 -0.001076 163483.000000 0 0 1
-18.089948 15.759966 27.350629 36.382408 -0.716674 0.720078 0.013719 0.007527 -815374.000000 0 0 1
-19.053148 16.269666 26.538879 36.497076 -0.706759 0.756634 0.017278 0.005423 -1335210.000000 0 0 1
-19.275548 17.786066 26.566579 37.331943 -0.745230 0.778979 0.022291 0.013591 -17047.000000 0 0 1
-18.260748 18.714666 26.178869 37.000362 -0.797674 0.784799 -0.016864 0.022060 1310840.000000 0 0 1
-17.114148 18.798666 27.094419 37.153619 -0.832270 0.753566 -0.015000 0.021725 1241100.000000 0 0 1
-15.901848 19.580466 26.521379 36.601188 -0.888704 0.760336 -0.006274 0.022868 72176.400000 0 0 1
-16.124948 21.020966 26.560239 37.514547 -0.916448 0.784136 0.001403 0.016861 834587.000000 0 0 1
-15.083948 21.737766 25.860219 36.997390 -0.964173 0.796834 0.017731 0.012834 626742.000000 0 0 1
-15.368548 23.266166 25.839759 38.015784 -0.987038 0.823427 0.019964 0.011868 -24743.300000 0 0 1
-14.888948 23.900366 27.013239 39.020806 -1.013666 0.806156 0.020870 0.012964 133530.000000 0 0 1
-15.303348 25.252466 27.080699 40.065493 -1.025966 0.828596 0.018775 0.011930 -491636.000000 0 0 1
-14.601548 26.095666 28.133709 41.057210 -1.060659 0.815874 0.000963 0.014849 152544.000000 0 0 1
-13.231048 26.339166 27.826279 40.535343 -1.105284 0.814174 -0.002247 0.012466 216827.000000 0 0 1
-12.664748 27.071466 28.872449 41.555726 -1.133217 0.802670 0.018406 0.014874 -167253.000000 0 0 1
-11.163248 27.341466 28.717569 41.193113 -1.183164 0.799389 0.028236 0.011303 -248517.000000 0 0 1
-10.669948 28.196166 27.734989 40.964633 -1.209032 0.827053 0.034327 0.007079 27543.700000 0 0 1
-9.304048 27.935066 27.486919 40.279820 -1.249292 0.819756 0.012646 0.018531 -200677.000000 0 0 1
-8.663248 28.764666 26.330089 39.946607 -1.278260 0.851132 0.034728 -0.008016 753044.000000 0 0 1
-7.253348 28.490066 26.447049 39.544169 -1.321500 0.838206 0.016199 0.004723 739375.000000 0 0 1
-6.485248 28.957966 25.385599 39.051899 -1.350478 0.863149 0.034442 -0.003984 -519644.000000 0 0 1
-5.009048 28.588166 25.538359 38.659818 -1.397343 0.849190 0.001296 -0.002920 -1302460.000000 0 0 1
-4.352348 29.307566 26.566699 39.795299 -1.423368 0.839837 0.008174 0.002514 1110510.000000 0 0 1
-2.910748 29.187966 26.510759 39.537705 -1.471401 0.835889 -0.010733 0.010204 1392180.000000 0 0 1
-2.289348 30.035266 25.340449 39.363646 -1.494721 0.871404 -0.015755 0.014509 -971792.000000 0 0 1
-2.528948 29.555766 24.012899 38.164881 -1.485439 0.890288 -0.010911 0.017802 -113125.000000 0 0 1
-2.084448 30.531666 23.072899 38.326051 -1.502630 0.924773 -0.008667 0.009109 -164998.000000 0 0 1
-2.473148 30.147666 21.595699 37.166819 -1.488945 0.950781 -0.007233 0.015316 -63165.200000 0 0 1
-3.859948 30.042666 21.424099 37.100579 -1.443014 0.955182 -0.000904 0.022829 -419830.000000 0 0 1
-4.341848 28.687266 21.439199 36.075616 -1.420585 0.934420 -0.006506 0.019455 114681.000000 0 0 1
-5.841748 28.662066 21.047699 36.036726 -1.369736 0.947072 0.016009 0.016954 -162208.000000 0 0 1
-6.119448 28.999466 19.725799 35.602300 -1.362828 0.983563 0.001649 0.016744 519922.000000 0 0 1
-7.316148 28.375466 19.251599 35.061619 -1.318459 0.989534 -0.000263 0.011711 -593258.000000 0 0 1
-7.130748 26.879066 18.778899 33.555607 -1.311480 0.976851 -0.011147 0.017125 -298291.000000 0 0 1
-6.178848 26.629166 17.780499 32.610378 -1.342798 0.994120 -0.006854 0.015936 -265863.000000 0 0 1
-4.857448 26.829566 18.206299 32.785511 -1.391688 0.982054 -0.005475 0.019950 -416353.000000 0 0 1
-3.845848 27.292366 17.057099 32.413090 -1.430805 1.016622 -0.004434 0.014488 504430.000000 0 0 1
-3.515848 26.223066 16.311299 31.081648 -1.437517 1.018329 0.007484 0.006658 -214914.000000 0 0 1
-2.619048 26.478066 15.269799 30.677583 -1.472203 1.049792 0.012972 -0.003450 -18790.100000 0 0 1
-2.033248 25.299566 14.381999 29.172658 -1.490602 1.055267 0.007245 -0.005399 149065.000000 0 0 1
-1.019048 24.639766 15.111799 28.922707 -1.529462 1.021029 0.006039 -0.000398 38133.700000 0 0 1
-0.311648 23.681366 14.363699 27.698737 -1.557637 1.025620 0.003033 -0.008449 -106053.000000 0 0 1
0.941652 23.056366 15.001199 27.523057 1.529978 0.994358 -0.008340 -0.003551 429314.000000 0 0 1
1.995552 23.998466 15.214199 28.484740 1.487834 1.007333 -0.004098 -0.002117 52613.800000 0 0 1
3.217052 23.361166 15.469599 28.202872 1.433948 0.990213 0.002472 0.002833 -103969.000000 0 0 1
4.435052 24.331766 15.505499 29.191180 1.390501 1.010815 0.006666 0.001162 184093.000000 0 0 1
5.652252 23.637066 15.314299 28.726061 1.336077 1.008518 0.003941 0.004794 -46255.000000 0 0 1
6.714452 24.550966 15.579599 29.842213 1.303834 1.021525 0.005199 0.007122 682838.000000 0 0 1
8.130852 23.860466 15.606199 29.647698 1.242371 1.016449 -0.000690 0.020118 544613.000000 0 0 1
8.596352 23.254366 14.400499 28.671190 1.216710 1.044582 0.012837 0.007874 199255.000000 0 0 1
9.159352 24.174666 13.459599 29.145651 1.208626 1.090768 0.008229 0.005526 -549932.000000 0 0 1
9.835352 23.506966 12.274999 28.284044 1.174528 1.121879 0.018142 0.007711 -262192.000000 0 0 1
11.005852 22.840166 12.725699 28.368034 1.121763 1.105606 0.027955 0.009321 160365.000000 0 0 1
11.402352 21.983466 11.661899 27.373094 1.092318 1.130691 0.042021 0.005611 556808.000000 0 0 1
12.480052 20.907066 12.076499 27.179016 1.032637 1.110368 0.013968 0.008304 424082.000000 0 0 1
11.928652 19.694366 12.523199 26.210518 1.026205 1.072656 0.017400 0.006209 281771.000000 0 0 1
12.925552 18.710966 12.811999 26.102058 0.966271 1.057740 0.036148 -0.001732 388468.000000 0 0 1
13.605152 18.863466 14.237999 27.269967 0.945955 1.021470 0.020816 0.002370 11231.200000 0 0 1
14.577752 17.871566 14.509399 27.247502 0.886558 1.009240 0.024118 0.002050 -140666.000000 0 0 1
15.029852 18.008866 15.788599 28.275352 0.875322 0.978356 0.015445 -0.010037 -239338.000000 0 0 1
16.059252 16.869966 15.966899 28.238930 0.810013 0.969852 0.000812 -0.017054 -13224.600000 0 0 1
16.577552 16.690866 17.273699 29.185285 0.788804 0.937428 0.012217 -0.021025 599468.000000 0 0 1
17.817752 15.971866 17.243099 29.494020 0.730824 0.946372 0.010830 -0.017793 972321.000000 0 0 1
18.541052 15.662166 18.635599 30.599993 0.701426 0.915989 0.016463 -0.015678 288400.000000 0 0 1
19.079352 16.810266 19.253599 31.895262 0.722258 0.922724 0.012948 -0.005378 582049.000000 0 0 1
18.061552 17.566766 19.897499 32.104850 0.771512 0.902352 0.002829 -0.006251 346088.000000 0 0 1
18.677852 18.833466 20.527199 33.539938 0.789547 0.912181 -0.001963 0.004838 -31847.100000 0 0 1
17.675252 19.596966 21.132699 33.808971 0.836911 0.895586 -0.000247 0.001796 -93425.200000 0 0 1
18.301052 20.752266 21.618299 35.113186 0.848082 0.907554 -0.001135 0.012754 -197918.000000 0 0 1
17.419352 21.862066 22.176699 35.681784 0.898019 0.900124 0.003505 0.009219 -375135.000000 0 0 1
16.709152 21.477966 23.307799 35.829488 0.909635 0.862527 0.004045 -0.001770 75630.200000 0 0 1
15.919952 22.537066 23.862599 36.479964 0.955795 0.857766 -0.001000 0.000156 255939.000000 0 0 1
15.431452 22.316066 25.302369 37.099142 0.965801 0.820275 0.010732 -0.000295 328506.000000 0 0 1
14.412452 21.302366 25.246069 36.039888 0.975972 0.794694 0.008700 0.002859 -79009.200000 0 0 1
13.799552 21.121366 26.478069 36.573595 0.992073 0.761261 0.018922 0.004159 -167494.000000 0 0 1
12.690352 20.024866 26.506399 35.561629 1.005944 0.729714 0.032786 0.008110 -65520.200000 0 0 1
13.011152 18.616066 26.425399 34.844650 0.960795 0.709976 0.016156 0.005968 -251143.000000 0 0 1
13.602752 18.087966 25.240179 33.900973 0.925995 0.730971 0.020343 0.001257 -77596.200000 0 0 1
12.643952 17.947266 23.978599 32.510722 0.957053 0.741347 0.025734 0.004232 18019.200000 0 0 1
12.491152 19.134866 23.120599 32.507446 0.992458 0.779536 0.020533 0.006915 280974.000000 0 0 1
13.637352 19.542866 22.361899 32.679588 0.961537 0.817184 0.016728 0.000006 772369.000000 0 0 1
14.381252 18.494966 21.455499 31.768264 0.909879 0.829323 0.015773 -0.000282 -79600.800000 0 0 1
13.532052 17.963466 20.431199 30.384805 0.925180 0.833330 0.035744 -0.006606 180585.000000 0 0 1
14.137052 16.952066 19.618999 29.531913 0.875699 0.844196 0.028152 -0.010938 108458.000000 0 0 1
13.149152 16.176066 18.686299 27.995411 0.888253 0.839981 0.025238 -0.012290 350710.000000 0 0 1
12.445252 17.008566 17.767499 27.565551 0.939107 0.870356 0.026965 -0.006581 -263520.000000 0 0 1
11.443252 16.244466 17.172799 26.262820 0.957097 0.858092 0.023834 -0.009678 -246115.000000 0 0 1
10.789552 16.853666 15.945499 25.587485 1.001348 0.898000 0.024638 -0.004203 -75147.600000 0 0 1
10.161052 18.114166 16.038899 26.241498 1.059589 0.913216 0.018044 -0.004399 4524.190000 0 0 1
9.613952 18.376866 14.779599 25.467112 1.088797 0.951649 0.006064 0.009269 -586086.000000 0 0 1
8.744952 19.620566 14.671199 26.013167 1.151521 0.971585 0.009138 0.006859 -960828.000000 0 0 1
7.480152 19.424466 15.171799 25.757446 1.203210 0.940944 -0.006524 0.007179 -846208.000000 0 0 1
6.570552 20.476466 14.833699 26.124632 1.260293 0.966959 -0.005302 0.005716 867406.000000 0 0 1
5.221752 20.456466 15.612899 26.258261 1.320872 0.934041 0.004048 0.005168 244893.000000 0 0 1
4.284552 19.515366 15.133699 25.064631 1.354678 0.922553 0.008268 0.003974 526856.000000 0 0 1
3.066052 19.582866 15.928799 25.428644 1.415489 0.893855 0.000340 0.008384 1471680.000000 0 0 1
1.884152 18.963366 15.108599 24.319314 1.471764 0.900448 0.003239 0.006212 191933.000000 0 1 0
1.398452 19.699566 14.000199 24.208141 1.499926 0.954121 0.002610 -0.003227 -466038.000000 0 1 0
0.390852 19.141966 13.240299 23.278168 1.550381 0.965767 0.000589 -0.002001 -577678.000000 0 1 0
-0.346548 20.145966 12.362099 23.638983 -1.553596 1.020483 0.001528 -0.004714 914015.000000 0 1 0
-1.467948 20.867666 12.941299 24.598609 -1.500566 1.016790 0.006326 0.004148 1115400.000000 0 1 0
-2.374048 21.398166 11.966499 24.631579 -1.460302 1.063496 0.007330 0.001496 539166.000000 0 1 0
-3.680548 22.007566 12.532299 25.591754 -1.405090 1.059050 0.005333 -0.010097 406812.000000 0 0 1
-4.470648 20.980866 13.152499 25.162902 -1.360854 1.020788 0.007783 -0.007034 59657.600000 0 0 1
-5.557948 21.531466 13.845999 26.195543 -1.318179 1.013889 -0.006099 -0.001431 -286043.000000 0 0 1
-6.037848 20.842566 15.162899 26.472281 -1.288826 0.960898 -0.007983 0.002019 -375170.000000 0 0 1
-6.961248 19.753666 15.078699 25.807624 -1.231982 0.946812 -0.009055 0.004179 293904.000000 0 0 1
-7.510648 19.427866 16.341099 26.474201 -1.201902 0.905559 -0.007106 0.020162 195860.000000 0 0 1
-8.640748 20.352466 16.902199 27.831092 -1.169302 0.918122 -0.012067 0.021386 -138046.000000 0 0 1
-9.768248 20.433766 16.088199 27.781065 -1.124867 0.953164 -0.012832 0.002948 114691.000000 0 0 1
-10.992748 19.953466 16.625599 28.202692 -1.067248 0.940352 -0.012565 0.012954 318187.000000 0 0 1
-12.167148 19.821866 15.655199 28.036246 -1.020274 0.978351 0.003293 0.003688 -362908.000000 0 0 1
-12.832348 21.041466 15.331999 29.025551 -1.023158 1.014288 -0.006132 0.006033 -477227.000000 0 0 1
-13.797048 20.799166 14.395099 28.812891 -0.985096 1.047652 -0.005133 0.003295 -853658.000000 0 0 1
-14.733748 21.967066 14.031999 29.942149 -0.979993 1.083049 -0.007818 0.003099 -252806.000000 0 0 1
-15.716648 22.160166 15.006899 31.036961 -0.953903 1.066128 -0.012426 -0.000298 -178119.000000 0 0 1
-16.648548 23.161166 14.622699 32.053659 -0.947555 1.097082 0.006496 0.007521 -119690.000000 0 0 1
-17.954348 23.146466 15.428599 33.108294 -0.911059 1.086027 0.037977 0.001671 -1460670.000000 0 0 1
-18.781148 22.083566 14.949599 32.617570 -0.866036 1.094681 0.022975 -0.006595 874719.000000 0 0 1
-19.969148 21.880966 15.752299 33.551132 -0.831049 1.082070 0.027811 0.003114 639061.000000 0 0 1
-20.968048 23.019366 15.824599 34.928043 -0.831999 1.100598 0.027559 -0.003189 -1745660.000000 0 0 1
-21.862448 23.066066 14.730199 35.028400 -0.812181 1.136776 0.026875 0.009055 280108.000000 0 0 1
-22.710348 24.212866 14.675799 36.296031 -0.817408 1.154543 0.036923 -0.002746 182216.000000 0 0 1
-22.169848 25.522766 13.993099 36.588530 -0.855585 1.178355 0.024058 0.001870 225701.000000 0 0 1
-20.898748 25.947166 14.475699 36.325734 -0.892750 1.160919 0.018487 0.000229 259110.000000 0 0 1
-20.561648 27.099166 13.749099 36.690378 -0.921715 1.186687 0.004116 0.005460 -1580130.000000 0 0 1
-19.172748 27.576666 14.008099 36.390845 -0.963264 1.175659 0.016783 -0.001251 -1121320.000000 0 0 1
-18.205548 26.699166 13.460599 35.006787 -0.972337 1.176115 0.009558 0.001300 -12130.400000 0 0 1
-16.884248 27.198666 13.643199 34.799168 -1.015241 1.167932 -0.002260 -0.002547 67483.600000 0 0 1
-15.912148 26.433066 12.752699 33.384648 -1.028923 1.178845 -0.003110 -0.003639 -184329.000000 0 0 1
-14.555748 26.728366 13.002099 33.095769 -1.072123 1.167054 -0.006409 0.000913 -94524.600000 0 0 1
-13.666648 26.174166 12.059399 31.895036 -1.089592 1.183057 -0.005576 -0.000349 -826611.000000 0 0 1
-12.272048 26.697266 12.287999 31.848737 -1.139926 1.174696 -0.003611 0.003943 -1267770.000000 0 0 1
-11.287248 26.098866 11.473499 30.662582 -1.162607 1.187278 -0.005532 0.000608 96150.300000 0 0 1
-9.951648 26.472466 11.733299 30.618573 -1.211215 1.177529 0.004936 -0.000142 175497.000000 0 0 1
-9.491748 27.803866 11.121099 31.413804 -1.241819 1.208931 -0.002681 -0.006993 -512754.000000 0 0 1
-8.195848 28.207666 11.501099 31.545516 -1.288028 1.197607 0.012285 -0.011811 113920.000000 0 0 1
-7.878148 29.500966 11.047999 32.471995 -1.309839 1.223633 0.020737 -0.014700 -276439.000000 0 0 1
-6.604848 30.056766 11.698099 32.922313 -1.354488 1.207535 0.019242 -0.019313 -187798.000000 0 0 1
-5.440148 29.422066 11.228999 31.958466 -1.387961 1.211771 0.028775 -0.018200 -987826.000000 0 0 1
-4.316848 29.787666 11.937099 32.379539 -1.426878 1.193227 0.022651 -0.020755 -812897.000000 0 0 1
-3.047848 29.264166 11.248699 31.499428 -1.467021 1.205626 0.021445 -0.022286 -392777.000000 0 0 1
-2.887148 29.894366 9.931299 31.632885 -1.474517 1.251441 0.033520 -0.026728 -34925.200000 0 0 1
-1.664148 29.683966 9.266699 31.141273 -1.514793 1.268650 0.012588 -0.019726 78657.500000 0 0 1
-1.367948 30.748966 8.145799 31.839036 -1.526338 1.312077 0.002952 -0.012640 -67211.100000 0 0 1
-2.274448 30.636866 7.050699 31.519883 -1.496693 1.345197 0.017792 -0.013781 310810.000000 0 0 1
-2.190848 31.694266 6.116699 32.353366 -1.501782 1.380592 0.013131 -0.003058 -63902.500000 0 0 1
9.784952 -34.561831 -26.715617 44.765942 -1.294902 2.210284 0.023782 -0.001025 -339188.000000 0 0 1
10.569352 -34.548531 -25.584077 44.270274 -1.273910 2.186957 0.007112 -0.000039 -108196.000000 0 0 1
11.823952 -33.930831 -25.829287 44.252222 -1.235483 2.194054 0.006231 0.000727 197043.000000 0 0 1
12.647152 -33.871431 -24.542697 43.698607 -1.213441 2.167158 0.009710 0.010892 -590811.000000 0 0 1
12.188952 -32.777031 -23.750497 42.272809 -1.214768 2.167403 0.007894 0.019163 476167.000000 0 0 1
12.849352 -32.642531 -22.498597 41.675263 -1.195786 2.141061 0.014797 0.014121 343709.000000 0 0 1
14.373252 -32.329231 -22.400997 41.875699 -1.152450 2.135233 0.010151 0.015994 161550.000000 0 0 1
15.126252 -33.503031 -22.575797 43.138419 -1.146705 2.121555 0.012314 0.013455 355716.000000 0 0 1
16.521252 -33.195031 -22.483897 43.363434 -1.108988 2.115891 0.007927 0.010505 1090680.000000 0 0 1
17.471352 -34.482431 -22.436997 44.695693 -1.101824 2.096700 0.010144 0.017118 581766.000000 0 0 1
18.835452 -34.283231 -22.128297 44.941914 -1.068408 2.085613 0.013570 0.019343 69283.100000 0 0 1
19.490852 33.969266 -22.004997 44.922424 1.049880 2.082708 0.020090 0.023458 -375912.000000 0 0 1
20.968752 34.291366 -21.741997 45.697929 1.021973 2.066643 0.021706 0.019376 -280074.000000 0 0 1
21.678252 -34.736531 -22.879797 46.904779 -1.012861 2.080355 0.018050 0.019404 -771343.000000 0 0 1
23.017752 -34.500731 -22.602497 47.233359 -0.982447 2.069774 0.019762 0.023059 -307735.000000 0 0 1
23.799552 -34.082731 -23.890297 47.945776 -0.961220 2.092407 0.025021 0.008983 -28711.800000 0 0 1
23.908852 -32.655131 -24.106597 47.107523 -0.938810 2.108000 0.026436 0.004590 260685.000000 0 0 1
22.727152 -31.937131 -24.483297 46.216183 -0.952313 2.129109 0.012430 0.004091 322066.000000 0 0 1
22.750952 -30.449231 -24.184897 45.051867 -0.929105 2.137464 0.002299 -0.004876 -54049.500000 0 0 1
23.610652 -29.590931 -24.961997 45.345202 -0.897336 2.153745 0.011401 -0.010578 313373.000000 0 0 1
23.313952 -28.224531 -24.614997 44.114199 -0.880391 2.162750 0.005254 -0.004314 300781.000000 0 0 1
23.922952 -27.309731 -25.674497 44.466941 -0.851408 2.186317 -0.000855 -0.001515 766353.000000 0 0 1
23.074152 -27.253731 -26.848147 44.676675 -0.868255 2.215477 -0.005727 -0.006331 180939.000000 0 0 1
23.796152 -26.723431 -27.928837 45.391833 -0.843277 2.233542 -0.004865 -0.002269 -170074.000000 0 0 1
22.865052 -26.062231 -28.988917 45.193006 -0.850651 2.267179 -0.013190 -0.004695 320444.000000 0 0 1
22.284152 -24.820431 -28.689927 43.997149 -0.839190 2.281129 0.002109 -0.006807 -364672.000000 0 0 1
21.047852 -24.929931 -28.028587 43.012965 -0.869632 2.280529 -0.015719 -0.004553 -762024.000000 0 0 1
20.266552 -23.617531 -27.969007 41.842397 -0.861610 2.302902 -0.012351 -0.006963 -451115.000000 0 0 1
19.910052 -23.113631 -29.256747 42.268278 -0.859722 2.335285 0.002953 -0.010301 24465.200000 0 0 1
19.415552 -21.820731 -29.007767 41.165015 -0.843659 2.352755 0.000603 0.003915 -641710.000000 0 0 1
18.496652 -21.320131 -30.112677 41.272841 -0.856191 2.388534 0.014816 -0.011542 -234824.000000 0 0 1
17.265752 -21.996631 -30.044207 41.044029 -0.905314 2.392048 -0.003899 -0.015123 388459.000000 0 0 1
16.174652 -21.444431 -30.799827 40.867007 -0.924575 2.424409 -0.009935 -0.017171 342102.000000 0 0 1
14.962452 -22.371431 -30.776417 40.884517 -0.981305 2.423048 -0.016817 -0.016622 -808952.000000 0 0 1
15.211452 -23.552331 -31.454387 42.136433 -0.997339 2.413566 -0.024712 -0.005663 219968.000000 0 0 1
14.384252 -24.642931 -31.048207 42.168375 -1.042443 2.398369 -0.020850 -0.007718 -160469.000000 0 0 1
14.825852 -26.039531 -31.497627 43.473711 -1.053211 2.381136 -0.005654 -0.001360 -112741.000000 0 0 1
13.960552 -27.034531 -30.976287 43.419963 -1.094117 2.365150 -0.005473 0.005065 344974.000000 0 0 1
14.412752 -28.383931 -31.249427 44.608313 -1.100945 2.346935 0.002472 0.002761 134977.000000 0 0 1
13.640452 -29.346531 -30.336187 44.357243 -1.135698 2.323900 0.003302 -0.000450 -238395.000000 0 0 1
13.961852 -29.471631 -28.908497 43.579944 -1.128378 2.296075 0.001757 -0.004892 -1291.000000 0 0 1
13.692652 -28.323631 -28.088347 42.174305 -1.120488 2.299638 -0.007481 -0.005655 -104030.000000 0 0 1
14.651752 -28.197031 -26.866447 41.611925 -1.091576 2.272661 -0.014166 -0.001930 -16795.000000 0 0 1
14.620652 -29.253831 -25.904217 41.720241 -1.107320 2.240690 -0.007483 -0.012221 -41847.000000 0 0 1
15.435052 -29.116731 -24.749397 41.213559 -1.083352 2.214942 0.009097 -0.008493 -799663.000000 0 0 1
14.963752 -28.120031 -23.665697 39.682681 -1.081770 2.209772 0.006487 0.000005 2017510.000000 0 0 1
13.716652 -28.422131 -22.927297 39.008012 -1.121162 2.199082 0.009752 -0.001299 1648040.000000 0 0 1
12.501452 -28.490531 -23.636997 39.073063 -1.157301 2.220491 0.008456 0.002482 -310018.000000 0 0 1
11.282152 -28.312931 -22.690097 37.996704 -1.191601 2.210752 0.001944 0.002448 49916.800000 0 0 1
11.168152 -26.931731 -22.366697 36.746631 -1.177696 2.225184 -0.003332 0.001945 589354.000000 0 0 1
9.845552 -26.644531 -21.910397 35.873826 -1.216843 2.227820 0.003790 -0.000850 265062.000000 0 0 1
9.611752 -25.159631 -21.577797 34.510782 -1.205876 2.246246 -0.007813 -0.001059 -40049.900000 0 0 1
10.125352 -24.741231 -20.342497 33.592684 -1.182341 2.221270 -0.014248 -0.004207 18233.200000 0 0 1
9.698552 -23.410931 -20.121797 32.357693 -1.178045 2.241906 -0.014634 0.000932 -486594.000000 0 0 1
10.178952 -22.763331 -18.824497 31.243271 -1.150303 2.217443 -0.028009 -0.002279 -251455.000000 0 0 1
9.450452 -23.293831 -17.766697 30.782610 -1.185381 2.186051 -0.019794 -0.005114 1037.390000 0 0 1
9.549052 -22.445731 -16.656897 29.537221 -1.168563 2.169932 -0.015728 -0.005563 -224631.000000 0 0 1
8.816852 -22.977431 -15.429797 29.047854 -1.204405 2.130795 0.004758 -0.002615 -108348.000000 0 0 1
9.321452 -24.198031 -14.934497 29.924461 -1.203100 2.093325 0.001848 -0.001093 -288950.000000 0 0 1
8.666352 -24.676131 -13.798097 29.570332 -1.233049 2.056261 0.008706 -0.000331 -579177.000000 0 0 1
8.853452 -26.151531 -13.520897 30.742492 -1.244363 2.026185 0.010441 0.000052 -141799.000000 0 0 1
10.196152 -26.530731 -13.347697 31.400672 -1.203884 2.009843 0.006472 -0.006398 -448291.000000 0 0 1
10.358352 -27.880031 -13.710497 32.750104 -1.215069 2.002743 0.011483 -0.015001 -128621.000000 0 0 1
11.716452 -28.487031 -13.289697 33.547015 -1.180595 1.978118 0.014272 -0.026542 1091610.000000 0 0 1
12.989452 -28.047631 -13.788997 33.845707 -1.137085 1.990410 0.017617 -0.015948 876879.000000 0 0 1
13.172352 -28.344131 -15.155897 34.736174 -1.135761 2.022295 0.026878 -0.024075 -1185330.000000 0 0 1
14.522652 -27.908031 -15.692297 35.156988 -1.090982 2.033478 0.025071 -0.023715 -224855.000000 0 0 1
15.604652 -28.760731 -15.309097 36.125521 -1.073677 2.008405 0.032936 -0.019297 31377.900000 0 0 1
16.793952 -28.217531 -15.849197 36.461801 -1.033943 2.020479 0.041729 -0.022797 533083.000000 0 0 1
18.060152 -29.088631 -15.560297 37.609046 -1.015175 1.997353 0.041675 -0.025567 476411.000000 0 0 1
18.061852 -30.354631 -16.259897 38.884680 -1.034041 2.002212 0.046589 -0.017497 -812078.000000 0 0 1
19.323552 -30.922131 -16.263097 39.925758 -1.012262 1.990329 0.048852 -0.011744 -645402.000000 0 0 1
19.547352 -32.002031 -17.257897 41.280309 -1.022462 2.002112 0.029248 -0.007497 160603.000000 0 0 1
19.004252 -33.265331 -16.848797 41.852428 -1.051752 1.985126 0.039040 -0.003207 115590.000000 0 0 1
19.363952 -34.201231 -17.853897 43.167678 -1.055618 1.997194 0.024508 0.006715 346867.000000 0 0 1
18.923452 33.862066 -17.442597 42.532114 1.061192 1.993365 0.023731 0.009763 -595197.000000 0 0 1
19.833352 33.440266 -16.471597 42.224717 1.035467 1.971530 0.035977 0.001655 -129974.000000 0 0 1
19.716052 32.058866 -16.157497 40.958006 1.019424 1.976308 0.023942 0.005270 -914779.000000 0 0 1
20.672852 31.473066 -15.149097 40.588370 0.989626 1.953292 0.028836 0.002197 -421848.000000 0 0 1
21.880852 31.087866 -15.822497 41.177402 0.957499 1.965194 0.036672 0.000835 527447.000000 0 0 1
22.947652 30.750066 -14.938297 41.174191 0.929691 1.942075 0.040583 -0.009102 223074.000000 0 0 1
22.797352 29.556466 -13.965297 39.853901 0.913792 1.928808 0.035242 0.002424 -1255880.000000 0 0 1
22.823852 28.214766 -14.528597 39.090681 0.890632 1.951597 0.034638 0.013541 278133.000000 0 0 1
22.304652 27.164066 -13.696597 37.722417 0.883316 1.942377 0.015213 0.017231 489970.000000 0 0 1
20.780552 27.210566 -13.382697 36.760615 0.918588 1.943409 0.022065 0.010102 -262417.000000 0 0 1
19.929452 26.813366 -14.451797 36.400468 0.931619 1.979067 0.020091 0.009973 -338230.000000 0 0 1
18.558952 26.843366 -14.203297 35.591215 0.965879 1.981296 0.025022 0.008118 -577545.000000 0 0 1
17.986152 28.276366 -14.352497 36.456120 1.004266 1.975441 0.010196 0.006738 -834823.000000 0 0 1
17.969352 29.020466 -15.617397 37.536490 1.016382 1.999903 0.008367 0.009295 153030.000000 0 0 1
17.177352 28.457666 -16.652797 37.178163 1.027726 2.035232 -0.009166 0.023769 -25701.200000 0 0 1
17.344352 29.343066 -17.899797 38.499932 1.036955 2.054353 -0.009856 0.023389 99606.700000 0 0 1
16.634352 30.570966 -17.887097 39.130983 1.072477 2.045538 -0.007371 0.015114 -41665.900000 0 0 1
16.884952 31.334766 -19.076397 40.384131 1.076549 2.062778 -0.013819 0.026855 -460127.000000 0 0 1
15.978152 32.517466 -19.348097 41.073541 1.114075 2.061288 -0.008454 0.028344 -475087.000000 0 0 1
16.151452 33.704666 -18.594797 41.744944 1.123922 2.032460 0.002261 0.008217 -462562.000000 0 0 1
15.309352 -34.729031 -18.986897 42.438003 -1.155600 2.034656 0.004392 0.010781 -68859.100000 0 0 1
15.017752 -33.636331 -17.880197 40.946759 -1.150878 2.022689 0.013059 0.012851 118763.000000 0 0 1
14.103252 -32.699831 -18.442997 40.103925 -1.163606 2.048656 0.015151 0.008361 131615.000000 0 0 1
13.814852 -31.653731 -17.495997 38.715871 -1.159279 2.039699 0.016329 0.004166 216208.000000 0 0 1
12.608552 -30.787531 -17.964297 37.809570 -1.182098 2.065903 0.010047 -0.002391 -331548.000000 0 0 1
11.368952 -31.388131 -17.774797 37.820778 -1.223290 2.060058 0.014165 0.000710 -320829.000000 0 0 1
10.318052 -30.473131 -18.142097 36.935208 -1.244318 2.084248 0.003438 0.001196 -296914.000000 0 0 1
8.988152 -31.149231 -18.302197 37.229449 -1.289876 2.084729 0.007736 0.001514 -2588810.000000 0 0 1
8.361052 -31.572131 -17.090597 36.861838 -1.311915 2.052895 0.006301 -0.002339 276133.000000 0 0 1
7.211652 -32.354931 -17.391197 37.433984 -1.351489 2.053960 0.007727 0.001179 684685.000000 0 0 1
5.988652 -31.779431 -18.168997 37.093242 -1.384536 2.082679 0.005562 0.007246 -1143160.000000 0 0 1
6.219052 -31.398031 -19.554397 37.508497 -1.375256 2.119208 -0.002260 0.011322 -244128.000000 0 0 1
6.270852 -32.530131 -20.440197 38.927299 -1.380362 2.123613 0.000887 0.008496 -1183240.000000 0 0 1
6.443452 -32.061231 -21.909997 39.363543 -1.372465 2.161092 -0.000418 0.016592 837460.000000 0 0 1
7.777952 -31.711131 -22.350797 39.568301 -1.330270 2.171067 0.013726 0.014776 1567650.000000 0 0 1
8.814052 -32.711131 -22.203097 40.505346 -1.307596 2.150950 0.015880 0.009522 -100387.000000 0 0 1
8.735652 -34.058431 -23.033897 42.033900 -1.319719 2.150748 0.013343 0.008789 -741464.000000 0 0 1
7.719752 34.549566 -22.620197 42.011193 1.350967 2.139372 0.005545 0.005118 -217800.000000 0 0 1
7.548652 33.604366 -23.649697 41.779704 1.349831 2.172511 0.001782 -0.003051 -457231.000000 0 0 1
6.323352 32.704466 -23.368197 40.689550 1.379805 2.182551 0.005332 -0.009578 534699.000000 0 0 1
5.024152 33.257066 -23.484897 41.022127 1.420860 2.180340 -0.000187 -0.008810 318858.000000 0 0 1
4.634452 34.274966 -22.587897 41.309375 1.436398 2.149332 -0.007587 -0.006530 -1084280.000000 0 0 1
3.349452 -34.494631 -23.014197 41.602303 -1.473999 2.156991 -0.007668 -0.002272 661915.000000 0 0 1
2.142052 34.259866 -22.727497 41.168749 1.508354 2.155626 -0.016027 -0.006999 591734.000000 0 0 1
1.035952 -34.641631 -23.388197 41.810567 -1.540900 2.164440 -0.016350 -0.003135 368532.000000 0 0 1
-0.281348 34.190566 -22.869997 41.135273 -1.562568 2.160326 -0.019561 -0.006783 143189.000000 0 0 1
-0.642248 34.464566 -21.559997 40.657745 -1.552163 2.129727 -0.019174 -0.004617 -108374.000000 0 0 1
-1.827048 33.823566 -21.112997 39.914037 -1.516832 2.128173 -0.010466 -0.006174 265488.000000 0 0 1
-2.185948 34.085866 -19.637697 39.398778 -1.506753 2.092588 -0.008850 -0.010501 -116926.000000 0 0 1
-1.356148 33.488066 -18.668297 38.363980 -1.530322 2.079001 -0.026081 -0.006629 -41859.000000 0 0 1
-1.927648 33.493366 -17.382497 37.784554 -1.513307 2.048839 -0.024645 -0.006053 -219630.000000 0 0 1
-1.070148 32.624266 -16.486597 36.569055 -1.538006 2.038497 -0.029357 -0.001719 466219.000000 0 0 1
0.251752 33.011466 -16.151397 36.751705 1.563170 2.025809 -0.026560 -0.007424 163304.000000 0 0 1
0.890052 31.937066 -15.450697 35.489328 1.542935 2.021236 -0.018201 -0.003080 729362.000000 0 0 1
1.894652 32.362666 -14.321697 35.440694 1.512319 1.986794 0.000245 -0.010696 20768.700000 0 0 1
3.074752 32.993466 -14.723197 36.260107 1.477872 1.988917 0.009691 -0.013245 -231287.000000 0 0 1
3.843052 33.429466 -13.604297 36.295662 1.456339 1.954998 0.017912 -0.016484 -666432.000000 0 0 1
5.306652 33.672966 -13.899097 36.813232 1.414488 1.957953 0.026845 -0.015854 -502758.000000 0 0 1
5.998952 32.495466 -14.311897 36.010736 1.388243 1.979515 0.028867 -0.007745 -306907.000000 0 0 1
6.996052 32.708766 -15.267997 36.768462 1.360082 1.999011 0.019839 -0.002314 -415631.000000 0 0 1
7.978152 31.598466 -15.547097 36.108533 1.323480 2.015916 0.016370 0.000408 -127241.000000 0 0 1
8.939352 31.409966 -14.521097 35.740176 1.293525 1.989193 0.018128 -0.007273 -87613.800000 0 0 1
9.783052 30.272866 -14.586197 34.998737 1.258227 2.000678 0.031596 -0.005334 -72751.200000 0 0 1
9.145852 28.941566 -14.243497 33.528168 1.264716 2.009561 0.027597 -0.000581 -727279.000000 0 0 1
8.303152 28.423566 -15.215897 33.292115 1.286583 2.045463 0.034441 -0.005782 -113392.000000 0 0 1
7.861752 27.127166 -14.804897 31.888481 1.288713 2.053608 0.032173 0.007976 -162965.000000 0 0 1
7.160752 26.287966 -15.869597 31.530582 1.304852 2.098219 0.034024 0.005607 295709.000000 0 0 1
8.063652 25.615066 -16.753397 31.651704 1.265816 2.128577 0.036760 0.010575 69241.100000 0 0 1
7.384052 24.721766 -17.610297 31.237997 1.280545 2.169711 0.020941 0.019079 405208.000000 0 0 1
8.312952 23.934566 -18.598197 31.430264 1.236511 2.203998 0.015461 0.029230 572262.000000 0 0 1
7.500752 22.956766 -19.265697 30.894036 1.254997 2.244143 0.029419 0.020618 75335.900000 0 0 1
8.226552 22.272766 -20.227897 31.191666 1.216984 2.276413 0.016720 0.024146 -633366.000000 0 0 1
7.379652 21.405766 -21.148297 30.982519 1.238806 2.322094 0.017134 0.014440 -144893.000000 0 0 1
6.815052 20.320966 -20.436297 29.614672 1.247213 2.332387 0.008286 0.015569 396941.000000 0 0 1
5.802752 19.633766 -21.184997 29.461174 1.283427 2.373277 0.003598 0.012495 456877.000000 0 0 1
24.144552 -12.837534 -9.493597 28.946331 -0.488681 1.904953 0.019547 0.007311 -47723.500000 0 0 1
24.816852 -12.164634 -8.482597 28.910360 -0.455758 1.868589 0.011619 0.002511 366929.000000 0 0 1
24.008652 -12.282134 -7.335097 27.947627 -0.472862 1.836366 0.006680 0.004938 -394217.000000 0 0 1
24.623052 -11.690834 -6.064597 27.923997 -0.443279 1.789723 -0.009082 0.005246 -509528.000000 0 0 1
24.684652 -10.276034 -5.956197 27.393525 -0.394472 1.789978 -0.002880 0.004240 413797.000000 0 0 1
25.842752 -9.706034 -6.544897 28.370594 -0.359280 1.803586 0.001444 -0.003754 -660493.000000 0 0 1
26.129352 -8.241734 -6.287497 28.110529 -0.305543 1.796375 0.030822 -0.007864 -476699.000000 0 0 1
26.534652 -7.890534 -5.013397 28.133298 -0.289040 1.749955 0.018618 -0.009982 -6811.420000 0 0 1
27.885052 -8.162234 -4.742897 29.439655 -0.284755 1.732607 0.011738 -0.005265 -711335.000000 0 0 1
28.323852 -7.846534 -3.270697 29.572050 -0.270252 1.681624 0.013486 -0.000436 -363352.000000 0 0 1
28.582852 -6.501534 -2.989097 29.464963 -0.223657 1.672417 0.020359 -0.002817 312588.000000 0 0 1
29.173452 -6.411034 -1.707497 29.918342 -0.216317 1.627899 0.018225 0.002028 -125174.000000 0 0 1
29.450152 -4.961334 -1.295297 29.893211 -0.166898 1.614141 0.020933 -0.004707 -351619.000000 0 0 1
28.256352 -4.420034 -0.817097 28.611637 -0.155169 1.599358 0.020466 -0.004681 -730884.000000 0 0 1
28.360252 -3.096334 -0.325297 28.530632 -0.108748 1.582198 0.018663 0.002413 -191514.000000 0 0 1
29.056152 -2.902834 1.054003 29.219811 -0.099574 1.534717 0.018855 -0.003907 -70422.100000 0 0 1
28.396752 -3.611334 2.098903 28.702311 -0.126495 1.497604 0.027318 -0.009236 316427.000000 0 0 1
29.037052 -3.266734 3.278203 29.403547 -0.112031 1.459074 0.015169 -0.005282 -470088.000000 0 0 1
28.500352 -4.096434 4.442103 29.133883 -0.142755 1.417727 0.020742 -0.005537 -330728.000000 0 0 1
28.924452 -5.397434 4.432903 29.755787 -0.184483 1.421264 0.014982 -0.008147 162405.000000 0 0 1
28.668052 -5.922434 5.721503 29.827303 -0.203721 1.377779 0.022098 -0.002968 -142176.000000 0 0 1
29.279152 -7.322734 5.875103 30.747488 -0.245073 1.378538 0.007967 0.002963 73669.000000 0 0 1
30.685652 -7.268534 5.779003 32.059908 -0.232584 1.389549 0.006363 0.000531 -64972.900000 0 0 1
31.325852 -8.534934 5.678303 32.960540 -0.266000 1.397657 0.005748 0.004804 218902.000000 0 0 1
32.860452 -8.363434 5.643003 34.374406 -0.249222 1.405887 0.001647 0.006186 -54113.200000 0 0 1
33.354452 -7.834534 4.464003 34.551798 -0.230705 1.441237 0.001460 0.006139 519349.000000 0 0 1
34.765252 -7.571834 4.511603 35.865164 -0.214450 1.444669 0.002095 0.006014 999460.000000 0 0 1
-34.454610 -7.193334 3.106903 35.334361 0.205821 1.482754 -0.002178 0.009018 -278194.000000 0 0 1
-34.303410 -8.320734 2.204103 35.366886 0.237967 1.508435 0.002046 0.014752 632303.000000 0 0 1
-33.201610 -8.168334 1.299303 34.216323 0.241231 1.532814 0.014345 0.006981 268782.000000 0 0 1
-32.833510 -9.463434 0.530703 34.174224 0.280619 1.555266 0.012036 0.010753 1784.690000 0 0 1
-32.400110 -10.481934 1.413603 34.082787 0.312889 1.529309 0.007593 0.011467 216970.000000 0 0 1
-32.666210 -11.722134 0.811403 34.715243 0.344533 1.547421 0.005549 0.007740 -927333.000000 0 0 1
-32.494610 -12.862834 1.854803 34.997035 0.376920 1.517773 0.010046 -0.004313 597794.000000 0 0 1
-31.212410 -13.077134 2.450503 33.929794 0.396754 1.498511 0.008311 -0.002738 443156.000000 0 0 1
-30.293910 -13.634334 1.519203 33.255436 0.422911 1.525098 0.022992 0.005079 -435239.000000 0 0 1
-28.959210 -14.103634 2.132503 32.281510 0.453208 1.504689 0.023333 0.006812 92505.000000 0 0 1
-28.167110 -12.997934 2.533603 31.124774 0.432341 1.489305 0.024216 0.005472 -81830.200000 0 0 1
-26.871010 -13.393434 2.906203 30.164238 0.462394 1.474301 0.035940 0.009932 181444.000000 0 0 1
-26.140010 -12.389534 3.859103 29.183786 0.442606 1.438173 0.030228 0.013357 -1165500.000000 0 0 1
-24.878410 -12.689334 4.282903 28.254163 0.471658 1.418625 0.025467 0.019934 -1077350.000000 0 0 1
-24.456310 -11.802134 5.282103 27.664094 0.449615 1.378680 0.018570 0.026493 1574370.000000 0 0 1
-22.935010 -12.077534 5.704303 26.540923 0.484699 1.354181 0.018460 0.035837 1499530.000000 0 0 1
-22.871510 -13.247334 6.479103 27.213537 0.524990 1.330404 0.019301 0.022480 358339.000000 0 0 1
-21.626510 -13.519434 7.123203 26.480579 0.558695 1.298445 0.021291 0.026104 173084.000000 0 0 1
-21.187010 -12.792034 8.427603 26.144790 0.543185 1.242592 0.026712 0.012966 -530059.000000 0 0 1
-20.962810 -11.374234 8.329803 25.262586 0.497137 1.234780 0.029660 0.009874 106565.000000 0 0 1
-21.984110 -10.551934 8.819703 25.931286 0.447504 1.223754 0.032405 0.008803 -998016.000000 0 0 1
-22.265010 -10.605834 10.358103 26.748920 0.444545 1.173166 0.031873 0.011724 -56079.200000 0 0 1
-22.893710 -11.817534 10.871603 27.963688 0.476517 1.171494 0.026792 0.002865 284650.000000 0 0 1
-24.261610 -11.910034 10.558603 29.016525 0.456341 1.198364 0.028311 -0.000074 -803095.000000 0 0 1
-25.216310 -11.577334 11.683603 30.106537 0.430413 1.172254 0.026227 0.001138 -843625.000000 0 0 1
-25.322810 -12.595334 12.685903 30.997085 0.461558 1.149152 0.020957 0.002763 10362.400000 0 0 1
-26.106310 -12.071834 13.725003 31.869175 0.433127 1.125565 0.007386 0.003425 -102894.000000 0 0 1
-26.128710 -12.903334 15.004103 32.776953 0.458705 1.095318 0.006988 0.004105 -102440.000000 0 0 1
-26.380910 -14.229034 14.693203 33.381253 0.494644 1.115016 0.004076 -0.003347 287333.000000 0 0 1
-26.032810 -15.015834 15.832403 33.968330 0.523189 1.085927 -0.015939 0.009054 -590051.000000 0 0 1
-26.010110 -16.528034 15.587103 34.534903 0.566076 1.102526 0.002184 -0.005199 -189164.000000 0 0 1
-27.126410 -17.314434 15.977403 35.929225 0.568097 1.109967 -0.000653 -0.006611 -62072.600000 0 0 1
-26.858810 -18.709434 15.992703 36.430827 0.608430 1.116324 0.001548 -0.001578 639390.000000 0 0 1
-27.942310 -19.534034 16.834803 38.023174 0.610111 1.112132 -0.005130 0.008369 797885.000000 0 0 1
-27.988210 -19.391334 18.217703 38.616686 0.605904 1.079514 -0.002157 0.014504 -240378.000000 0 0 1
-28.494010 -20.544134 18.864703 39.872887 0.624680 1.077966 0.007196 0.013959 -254164.000000 0 0 1
-27.467210 -21.654634 19.111403 39.857453 0.667616 1.070718 0.004774 0.015010 -79156.700000 0 0 1
-26.275810 -21.182134 19.727103 39.092961 0.678477 1.041854 0.011439 0.017566 411698.000000 0 0 1
-25.462510 -22.320934 20.034503 39.343930 0.719747 1.036524 0.022602 0.019449 -380974.000000 0 0 1
-24.100510 -22.028534 20.642903 38.629268 0.740511 1.007016 0.028375 0.016920 -173320.000000 0 0 1
-23.176410 -21.531634 19.703003 37.268829 0.748625 1.013761 0.030789 0.011773 224778.000000 0 0 1
-21.839410 -21.367734 20.136303 36.592494 0.774482 0.988091 0.030689 0.014457 1124080.000000 0 0 1
-20.703910 -21.367834 19.038203 35.322647 0.801178 1.001571 0.025162 0.007665 578081.000000 0 0 1
-20.457510 -22.636234 18.404503 35.631932 0.835913 1.028018 0.026271 0.016216 126291.000000 0 0 1
-19.364910 -22.547534 17.522503 34.502597 0.861188 1.038097 0.018670 0.015628 -138813.000000 0 0 1
-19.087010 -23.856734 16.739303 34.837652 0.896014 1.069578 0.014135 0.028983 -1078540.000000 0 0 1
-18.707810 -25.001634 17.467203 35.779422 0.928408 1.060780 0.015541 0.019951 973969.000000 0 0 1
-17.313310 -25.117064 17.819803 35.329351 0.967285 1.042120 0.015029 0.018735 1173000.000000 0 0 1
-16.302910 -25.218584 16.652203 34.337410 0.996911 1.064481 0.017844 0.014447 -767137.000000 0 0 1
-16.040010 -23.939034 16.105103 33.011114 0.980465 1.061149 0.011267 0.018790 -298554.000000 0 0 1
-14.952910 -24.071434 15.208503 32.160878 1.014942 1.078230 -0.003190 0.021401 3553.830000 0 0 1
-13.952510 -22.886834 15.319603 30.873451 1.023326 1.051573 0.004127 0.025418 -367981.000000 0 0 1
-14.403210 -21.639534 14.922203 29.973222 0.983535 1.049677 -0.001866 0.025910 14312.400000 0 0 1
-15.460410 -21.041934 15.693003 30.464038 0.937132 1.029635 0.007852 0.023395 491281.000000 0 0 1
-14.971210 -19.907134 16.695703 29.986291 0.925983 0.980295 0.017169 0.009871 -393494.000000 0 0 1
-14.540810 -18.820234 15.961303 28.642618 0.912978 0.979718 0.018990 0.005733 -176945.000000 0 0 1
-14.350910 -17.642334 16.689703 28.208984 0.887916 0.937699 0.006855 0.000118 -400520.000000 0 0 1
-13.810110 -16.384434 15.930603 26.701179 0.870450 0.931507 0.012305 -0.002809 -62464.000000 0 0 1
-14.616310 -15.749234 14.976503 26.191040 0.822690 0.962076 0.009525 -0.008622 -169270.000000 0 0 1
-14.602710 -16.405234 13.728203 25.900471 0.843464 1.012152 0.006762 -0.005746 -88537.600000 0 0 1
-15.409410 -15.518434 12.719003 25.299106 0.788923 1.044025 0.011804 -0.009454 139450.000000 0 0 1
-16.779010 -15.632634 13.027203 26.374656 0.750044 1.054194 0.013375 -0.013878 -566566.000000 0 0 1
-17.618010 -14.791334 12.335503 26.102538 0.698400 1.078582 0.018366 -0.014862 -134303.000000 0 0 1
-19.134610 -15.084934 12.521503 27.394828 0.667602 1.096092 0.023517 -0.015875 599710.000000 0 0 1
-19.824810 -16.133734 11.829003 28.164620 0.683108 1.137356 0.030664 -0.017766 277564.000000 0 0 1
-19.883210 -15.990034 10.452703 27.573216 0.677295 1.181985 0.025726 -0.004140 -639696.000000 0 0 1
-20.632710 -17.127634 9.768003 28.539069 0.692839 1.221467 0.022365 -0.002301 -423331.000000 0 0 1
-20.042410 -18.337634 9.828403 28.888831 0.741009 1.223651 0.028038 0.007303 -315144.000000 0 0 1
-20.896910 -19.374734 9.314303 29.980284 0.747618 1.254887 0.027921 0.004929 173539.000000 0 0 1
-20.325910 -20.787834 9.232003 30.504206 0.796633 1.263328 0.024758 0.014384 459311.000000 0 0 1
-19.192010 -20.904134 8.363503 29.584866 0.828073 1.284193 0.025835 0.013859 241490.000000 0 0 1
-18.733810 -22.273734 8.226903 30.244947 0.871508 1.295316 0.017911 0.016561 131634.000000 0 0 1
-17.351510 -22.535234 7.628003 29.446530 0.914635 1.308762 0.010886 0.012185 -497060.000000 0 0 1
-16.259610 -22.006034 8.305003 28.593943 0.934456 1.276103 0.005134 0.008470 -652677.000000 0 0 1
-15.079510 -22.332134 7.611703 28.000962 0.976883 1.295495 0.017765 0.015195 148909.000000 0 0 1
-13.772010 -21.787034 8.294403 27.076563 1.007094 1.259459 -0.043841 0.010338 1309540.000000 0 0 1
-12.667410 -22.296434 7.488303 26.714583 1.054136 1.286682 -0.014700 0.016515 644304.000000 0 0 1
-11.402610 -21.934234 8.026603 25.991470 1.091392 1.256848 -0.005552 0.009491 1029200.000000 0 0 1
-10.183010 -22.618134 7.316203 25.861178 1.147764 1.283977 -0.007720 0.015406 670693.000000 0 0 1
-10.254310 -24.030134 7.509203 27.184304 1.167464 1.290924 -0.010559 0.016390 56574.400000 0 0 1
-9.039910 -24.573734 7.010703 27.106058 1.218292 1.309183 0.002218 0.012361 299453.000000 0 0 1
-8.986210 -26.074154 7.445003 28.566441 1.238904 1.307131 -0.017563 0.016966 -373366.000000 0 0 1
-9.883110 -26.767434 6.610303 29.289376 1.217101 1.343146 -0.011445 0.012540 -406422.000000 0 0 1
-9.809510 -28.159714 6.693603 30.561419 1.235590 1.349985 -0.003318 0.010907 465404.000000 0 0 1
-8.635210 -28.811584 5.872603 30.645746 1.279603 1.377975 -0.013895 0.006463 1183930.000000 0 0 1
-7.334810 -28.443484 6.400703 30.063271 1.318422 1.356246 -0.014722 0.007589 701325.000000 0 0 1
-6.272010 -29.258654 5.904003 30.500233 1.359628 1.375994 -0.014553 0.012281 504152.000000 0 0 1
-6.226110 -30.715624 6.455403 31.998223 1.370804 1.367660 -0.016766 0.009804 -600999.000000 0 0 1
-6.029310 -30.818654 7.881503 32.376846 1.377598 1.324895 -0.014604 0.003867 46659.000000 0 0 1
-6.165510 -32.120414 8.272203 33.736685 1.381153 1.323071 0.007451 -0.001954 -198340.000000 0 0 1
-6.274110 -32.249364 9.800603 34.284658 1.378647 1.280893 0.005918 -0.000445 -1036460.000000 0 0 1
-5.158510 -31.884984 10.513603 33.967607 1.410401 1.256110 -0.015394 0.009184 -664942.000000 0 0 1
-5.356510 -32.154204 11.866503 34.690041 1.405724 1.221675 -0.010107 0.004817 -112156.000000 0 0 1
-4.717010 -31.090444 12.817903 33.958277 1.420226 1.183744 -0.020677 0.015647 175054.000000 0 0 1
-5.468610 -29.891734 12.883503 33.006153 1.389850 1.169799 -0.025291 0.015393 137310.000000 0 0 1
-4.869010 -28.899414 13.753003 32.373269 1.403883 1.132027 -0.038746 0.007873 -549078.000000 0 0 1
-5.625110 -28.495654 15.019503 32.699077 1.375900 1.093561 -0.021752 0.007486 -258787.000000 0 0 1
-5.886310 -29.558374 15.941303 34.095033 1.374226 1.084274 -0.008026 0.003011 296210.000000 0 0 1
-4.755010 -30.037514 16.670903 34.681139 1.413797 1.069354 -0.012666 0.001711 318808.000000 0 0 1
-4.987210 -31.474364 17.130603 36.179628 1.413650 1.077550 0.004429 0.005042 -17418.400000 0 0 1
-4.718010 -32.390134 16.076303 36.466806 1.426152 1.114254 0.001663 0.005036 119911.000000 0 0 1
-5.169010 -33.651204 16.486603 37.827640 1.418382 1.119831 -0.001149 0.003137 -401933.000000 0 0 1
-4.742010 34.684355 15.581703 38.318150 -1.434920 1.152023 -0.006163 0.000742 152491.000000 0 0 1
-5.628410 34.344695 14.475303 37.693122 -1.408360 1.176639 0.015680 -0.001171 495291.000000 0 0 1
-5.245410 33.249392 13.614203 36.309543 -1.414326 1.186455 0.007191 -0.003984 388293.000000 0 0 1
-3.963010 33.466343 12.708503 36.016768 -1.452927 1.210181 -0.002058 -0.012285 689421.000000 0 0 1
-4.253010 34.301833 11.605903 36.460949 -1.447438 1.246850 -0.000203 -0.016680 -5173.770000 0 0 1
-3.094010 34.590868 10.884303 36.394630 -1.481588 1.267085 -0.009713 -0.010838 -876356.000000 0 0 1
-3.504010 -34.538184 9.433603 35.974396 1.469689 1.305463 -0.011227 -0.009884 -585018.000000 0 0 1
-3.789010 33.922709 8.482303 35.171810 -1.459562 1.327227 0.000838 -0.021497 1005000.000000 0 0 1
-4.745010 32.858732 8.782703 34.341626 -1.427381 1.312178 0.012264 -0.022569 339638.000000 0 0 1
-6.190510 33.143732 9.194803 34.948158 -1.386146 1.304564 0.021468 -0.019648 -560603.000000 0 0 1
-7.006310 33.501751 8.115603 35.175541 -1.364635 1.337982 0.026695 -0.011804 -284379.000000 0 0 1
-8.258010 34.002107 8.572703 36.025397 -1.332542 1.330528 0.027682 -0.006267 271846.000000 0 0 1
-9.232110 34.309167 7.415803 36.295247 -1.307937 1.365028 0.034766 -0.010713 -109547.000000 0 0 1
-8.946910 -33.941184 6.789003 35.751109 1.313059 1.379740 0.028764 -0.009918 98423.800000 0 0 1
-9.476410 -34.013034 5.477403 35.730810 1.299076 1.416893 0.014291 0.002903 -247973.000000 0 0 1
-9.355110 -32.591804 4.802203 34.246240 1.291273 1.430107 0.002788 0.013482 318304.000000 0 0 1
-10.249210 -31.593064 5.270203 33.629497 1.257095 1.413434 0.020055 0.007950 -986721.000000 0 0 1
-11.556210 -31.634824 4.866003 34.029195 1.220557 1.427310 0.012729 0.010732 -904778.000000 0 0 1
-12.571610 -30.740454 5.628303 33.685289 1.182590 1.402924 0.010007 0.003447 224926.000000 0 0 1
-13.159310 -31.357304 6.777403 34.675368 1.173460 1.374077 0.019591 0.005035 342365.000000 0 0 1
-13.942910 -30.429644 7.564103 34.315939 1.141143 1.348546 0.008547 0.000621 453202.000000 0 0 1
32.050954 -13.659434 -12.982197 37.180387 -0.402869 1.927479 -0.023770 0.000891 135672.000000 0 0 1
30.932894 -13.569834 -12.100597 35.880479 -0.413406 1.914788 -0.016930 0.005531 503546.000000 0 0 1
30.572194 -14.749934 -11.365497 35.796566 -0.449519 1.893891 -0.013419 -0.001977 -543622.000000 0 0 1
31.524674 -15.117534 -10.237097 36.429975 -0.447151 1.855640 -0.012140 -0.008926 -650789.000000 0 0 1
32.720564 -15.589234 -10.774097 37.811912 -0.444619 1.859739 -0.003610 -0.011857 -747573.000000 0 0 1
33.769798 -15.709334 -9.843197 38.523641 -0.435413 1.829172 0.000365 -0.016947 -2761.360000 0 0 1
-34.641373 -15.751734 -10.487997 39.473281 0.426763 1.839725 -0.002412 -0.024480 -336849.000000 0 0 1
-34.162643 -14.534334 -10.893497 38.691102 0.402248 1.856206 -0.009072 -0.016050 167782.000000 0 0 1
-32.764528 -14.614434 -11.137597 37.565171 0.419560 1.871809 0.000328 -0.015294 427979.000000 0 0 1
-32.076768 -13.345934 -11.614597 36.632388 0.394276 1.893422 0.013209 -0.027673 -145565.000000 0 0 1
-32.318168 -12.332334 -10.648697 36.193165 0.364537 1.869434 0.019541 -0.018203 426423.000000 0 0 1
-31.626268 -11.158734 -11.041597 35.308003 0.339195 1.888854 0.021351 -0.019999 -28710.400000 0 0 1
-31.915818 -10.052234 -10.053397 34.939056 0.305125 1.862664 0.016587 -0.023589 -196926.000000 0 0 1
-31.296998 -10.200034 -8.820297 34.078445 0.315056 1.832600 0.017839 -0.016707 -32471.600000 0 0 1
-31.913968 -9.400734 -7.818197 34.176006 0.286463 1.801603 0.013719 -0.012993 -144977.000000 0 0 1
-31.223158 -9.373834 -6.425097 33.227041 0.291659 1.765392 0.010345 -0.002273 188890.000000 0 0 1
-30.090978 -8.473534 -6.298897 31.889557 0.274489 1.769626 0.015311 -0.014412 644648.000000 0 0 1
-29.684178 -8.307634 -4.933297 31.217057 0.272886 1.729494 0.017416 -0.007582 -85011.200000 0 0 1
-28.873828 -9.509634 -4.257797 30.696253 0.318163 1.709952 0.012814 0.000968 -575057.000000 0 0 1
-29.601058 -10.654134 -4.026297 31.716625 0.345488 1.698086 0.029349 -0.000576 -159276.000000 0 0 1
-30.442818 -10.587634 -2.920597 32.363453 0.334702 1.661163 0.018538 -0.002573 -197605.000000 0 0 1
-31.080028 -11.891434 -2.384297 33.362542 0.365423 1.642324 0.025321 0.000094 -122400.000000 0 0 1
-32.108298 -12.401834 -3.213597 34.569864 0.368597 1.663890 0.024110 -0.007071 33470.900000 0 0 1
-32.579328 -13.639134 -2.747097 35.425770 0.396475 1.648419 0.021565 -0.007166 -241478.000000 0 0 1
-34.100772 -13.627934 -2.538197 36.810674 0.380194 1.639804 0.008570 -0.003796 -220865.000000 0 0 1
-34.584483 -13.001534 -1.345397 36.972104 0.359591 1.607194 0.014170 0.001383 -545005.000000 0 0 1
33.879739 -13.290134 -1.130297 36.410739 -0.373828 1.601844 0.021890 0.002043 -752933.000000 0 0 1
33.256064 -12.290734 -0.101597 35.454735 -0.354009 1.573662 0.018687 0.004221 -189345.000000 0 0 1
33.727384 -12.425634 1.203303 35.963603 -0.352984 1.537331 0.017910 0.009477 174019.000000 0 0 1
33.317444 -11.258534 1.856903 35.217251 -0.325870 1.518045 0.015345 0.012128 -151183.000000 0 0 1
33.798651 -11.281734 3.328403 35.786933 -0.322164 1.477656 0.007670 0.007553 -99953.300000 0 0 1
33.010674 -11.994934 4.230403 35.376254 -0.348532 1.450926 0.010769 0.000814 87724.700000 0 0 1
33.800643 -12.414634 5.350203 36.403726 -0.351994 1.423293 0.000175 -0.000348 -368777.000000 0 0 1
32.968764 -12.693234 6.623403 35.943387 -0.367516 1.385464 0.005070 -0.012381 -1634.360000 0 0 1
32.388954 -11.477134 7.079803 35.084078 -0.340548 1.367606 0.008816 -0.007754 -123898.000000 0 0 1
31.835994 -11.659734 8.323103 34.910657 -0.351072 1.330066 -0.005686 0.009228 -553784.000000 0 0 1
31.130424 -10.400634 8.858903 33.996421 -0.322439 1.307170 -0.012804 -0.001027 -41087.400000 0 0 1
29.805334 -10.227634 8.386503 32.608218 -0.330557 1.310683 -0.006462 0.003426 -132385.000000 0 0 1
29.060544 -9.567834 9.390403 32.003724 -0.318060 1.272998 -0.000954 0.013234 1673740.000000 0 0 1
27.500424 -9.804234 9.050703 30.566510 -0.342464 1.270191 0.002217 0.009181 1570300.000000 0 0 1
27.071064 -9.105834 7.926903 29.641095 -0.324479 1.300072 0.020381 0.003120 -207813.000000 0 0 1
26.384314 -9.999534 7.054803 29.084239 -0.362269 1.325788 0.023200 -0.002315 321407.000000 0 0 1
25.496044 -9.171734 6.012603 27.754646 -0.345318 1.352431 0.030019 -0.005848 1045250.000000 0 0 1
24.436914 -8.479034 6.719803 26.724755 -0.333979 1.316624 0.013743 -0.000583 1108900.000000 0 0 1
23.477614 -7.714734 5.958603 25.420866 -0.317484 1.334197 0.002234 -0.002357 628987.000000 0 0 1
24.062914 -6.456734 5.190603 25.449079 -0.262152 1.365395 0.006870 -0.000171 -204059.000000 0 0 1
24.663714 -6.703134 3.924703 25.857960 -0.265371 1.418428 0.001796 -0.003821 249247.000000 0 0 1
25.131484 -5.509034 3.350103 25.945407 -0.215795 1.441314 0.010263 -0.006484 -365707.000000 0 0 1
25.833674 -5.615134 2.033803 26.514992 -0.214028 1.494017 0.015779 -0.009476 -275270.000000 0 0 1
24.965024 -5.737934 0.938803 25.633136 -0.225915 1.534164 0.016289 -0.015262 29422.700000 0 0 1
25.741774 -5.798134 -0.229997 26.387690 -0.221545 1.579512 0.014718 -0.013537 -645624.000000 0 0 1
24.914134 -5.923534 -1.517297 25.653548 -0.233424 1.629977 0.017059 -0.014346 72124.500000 0 0 1
23.973614 -4.906334 -1.780297 24.535194 -0.201868 1.643421 0.018717 -0.007756 86740.400000 0 1 0
23.302914 -5.091534 -3.001597 24.040780 -0.215113 1.695977 0.007651 -0.010749 -810459.000000 0 1 0
22.335814 -4.001034 -3.268997 22.925601 -0.177251 1.713876 -0.000385 -0.004261 -1033700.000000 0 1 0
22.868614 -2.686734 -3.369797 23.271175 -0.116950 1.716113 -0.011085 -0.001371 58415.300000 0 1 0
22.990014 -2.328134 -4.674797 23.575722 -0.100923 1.770408 -0.016770 0.002686 -304252.000000 0 1 0
21.881114 -1.476134 -5.338597 22.571281 -0.067360 1.809581 -0.032106 0.010957 -88157.500000 0 1 0
21.777114 -0.226434 -4.645797 22.268304 -0.010397 1.780968 -0.031815 0.016792 313054.000000 0 1 0
21.027814 0.727866 -5.392997 21.720570 0.034601 1.821711 -0.017926 0.018448 -692794.000000 0 1 0
20.815414 2.071266 -4.661197 21.431247 0.099180 1.790044 -0.009763 0.023433 -74828.900000 0 1 0
21.924314 2.979966 -4.564097 22.591740 0.135093 1.774221 -0.004058 0.023239 416767.000000 0 1 0
22.819314 2.642766 -3.526497 23.240944 0.115299 1.723121 0.014190 0.027860 -160526.000000 0 1 0
23.810114 3.819566 -3.268797 24.335070 0.159063 1.705528 0.006216 0.022619 -209939.000000 0 1 0
23.209114 5.025866 -2.811397 23.912888 0.213254 1.688637 -0.007263 0.023588 247266.000000 0 1 0
24.112614 6.123366 -2.780097 25.032832 0.248692 1.682084 -0.006410 0.024767 -269063.000000 0 0 1
23.521114 7.534166 -2.919197 24.870226 0.309989 1.688445 -0.019123 0.019034 -726888.000000 0 1 0
22.818214 7.962166 -1.807097 24.234945 0.335729 1.645431 -0.004792 0.021772 410648.000000 0 1 0
21.990714 9.058466 -2.256197 23.890117 0.390742 1.665378 -0.016701 0.018338 -701835.000000 0 1 0
20.935014 9.416866 -1.261397 22.990069 0.422699 1.625691 -0.028462 0.023286 -1295820.000000 0 1 0
21.525214 9.870366 -0.067997 23.680447 0.429941 1.573668 -0.029363 0.022364 331243.000000 0 1 0
20.520014 10.278166 0.784603 22.963607 0.464355 1.536622 -0.039428 0.024741 -547667.000000 0 1 0
21.130514 10.891666 2.044403 23.860146 0.475929 1.485008 -0.013778 0.018349 -666904.000000 0 1 0
21.801214 12.113066 1.829503 25.007326 0.507143 1.497572 -0.012663 0.017015 13364.200000 0 0 1
21.049614 13.257366 1.599603 24.927950 0.562054 1.506583 -0.009137 0.009577 -527337.000000 0 1 0
20.146314 13.781166 2.767803 24.565325 0.599944 1.457885 -0.002024 0.010162 -942269.000000 0 1 0
18.976714 13.055466 2.885703 23.213964 0.602608 1.446165 0.009066 0.002156 -355252.000000 0 1 0
18.078014 13.755266 3.771803 23.027123 0.650430 1.406257 0.008896 0.001110 -85656.600000 0 1 0
18.345414 13.527766 5.262103 23.393255 0.635383 1.343914 0.013545 0.005860 -602209.000000 0 1 0
17.771614 12.337266 5.735803 22.381640 0.606831 1.311632 -0.000829 0.005121 261228.000000 0 1 0
18.036814 12.159966 7.118603 22.888117 0.593183 1.254533 0.005154 0.002140 -92282.500000 0 1 0
18.229414 10.626666 7.366303 22.349496 0.527781 1.234921 0.007372 -0.003198 -799653.000000 0 1 0
19.394014 10.143766 6.816203 22.923446 0.481906 1.268884 0.004490 -0.004472 -510403.000000 0 1 0
19.528314 8.806466 7.222803 22.607029 0.423651 1.245601 0.017391 -0.006205 591501.000000 0 1 0
20.523314 7.864166 6.429303 22.899508 0.365925 1.286209 0.024712 -0.010329 591687.000000 0 1 0
20.038114 7.757566 5.131403 22.091562 0.369372 1.336376 0.011805 -0.002288 1050260.000000 0 1 0
20.881414 6.804666 4.506603 22.419777 0.315020 1.368407 0.010670 -0.008195 247400.000000 0 1 0
20.494214 6.733766 2.988503 21.778144 0.317457 1.433137 0.001128 0.000798 17326.600000 0 1 0
21.355414 5.885966 2.272403 22.267961 0.268942 1.468570 -0.003079 0.001243 402266.000000 0 1 0
21.002414 5.848666 0.910103 21.820554 0.271595 1.529076 -0.005403 0.018182 -278549.000000 0 1 0
21.821314 4.877466 0.043903 22.359815 0.219904 1.568833 -0.010647 0.014799 -265945.000000 0 1 0
21.718914 3.506866 0.398003 22.003812 0.160084 1.552707 -0.015525 0.015878 1161150.000000 0 1 0
22.977214 2.830466 0.247103 23.152213 0.122568 1.560123 -0.005258 0.014986 691804.000000 0 1 0
22.830914 1.281966 0.500503 22.872354 0.056092 1.548912 0.006318 0.007796 -558922.000000 0 1 0
21.981714 0.657266 -0.400197 21.995179 0.029892 1.588992 -0.007810 0.007789 14965.400000 0 1 0
22.321514 -0.626234 -0.870597 22.347261 -0.028048 1.609764 0.003300 0.006001 -1107560.000000 0 1 0
22.082814 -1.828934 0.067003 22.158523 -0.082633 1.567773 0.010672 0.003309 83827.100000 0 1 0
22.959814 -1.905734 1.175203 23.068723 -0.082813 1.519831 0.011117 0.002195 957221.000000 0 1 0
24.304514 -2.276034 0.826003 24.424823 -0.093374 1.536972 0.020114 0.000648 -44276.500000 0 1 0
25.230444 -1.895134 1.986703 25.379397 -0.074972 1.492436 0.018878 -0.000969 -568828.000000 0 0 1
25.273584 -0.516134 2.213603 25.375588 -0.020419 1.483452 0.016032 -0.001613 320489.000000 0 0 1
25.905394 -0.305134 3.462303 26.137522 -0.011778 1.437941 0.018498 -0.002769 -361226.000000 0 0 1
25.743294 1.100766 4.138403 26.097035 0.042733 1.411547 0.023105 -0.001328 -328121.000000 0 0 1
26.061024 2.268866 3.416303 26.381733 0.086841 1.440937 0.027534 0.007288 354206.000000 0 0 1
27.358754 2.463566 2.868603 27.618824 0.089805 1.466745 0.038520 0.002982 -142012.000000 0 0 1
27.484234 3.617366 1.885103 27.785285 0.130864 1.502899 0.043955 0.000112 -277404.000000 0 0 1
26.779644 3.455166 0.655503 27.009576 0.128313 1.546525 0.038554 0.009963 348317.000000 0 0 1
27.168534 4.422166 -0.361097 27.528443 0.161353 1.583914 0.036835 0.014977 761138.000000 0 0 1
28.594514 4.234666 -1.006797 28.923904 0.147025 1.605612 0.032832 0.013898 442790.000000 0 0 1
29.645074 4.457366 -0.115697 29.978524 0.149240 1.574656 0.037808 0.004018 -1189060.000000 0 0 1
30.872094 4.209766 -0.708597 31.165853 0.135526 1.593535 0.016930 0.003134 -340664.000000 0 0 1
32.066584 4.388566 0.274903 32.366663 0.136013 1.562303 -0.015363 -0.002898 26338.900000 0 0 1
32.010244 3.615666 1.421103 32.245128 0.112477 1.526710 -0.030501 0.002571 -55813.500000 0 0 1
31.263344 4.062066 2.545803 31.628755 0.129207 1.490219 -0.011875 0.008323 -86346.100000 0 0 1
31.203724 2.929766 3.590303 31.545938 0.093617 1.456737 -0.013910 0.005183 -321126.000000 0 0 1
30.467534 1.810966 3.204203 30.689039 0.059369 1.466197 0.003175 0.001399 -206293.000000 0 0 1
30.393754 0.712666 4.184403 30.688718 0.023443 1.434020 -0.005687 -0.000560 -247471.000000 0 0 1
31.669204 -0.127634 4.374203 31.970117 -0.004030 1.433544 -0.001577 0.000566 323819.000000 0 0 1
32.768484 0.491466 5.045503 33.158290 0.014997 1.418039 -0.013457 0.001045 1489930.000000 0 0 1
34.003226 -0.178034 4.704303 34.327562 -0.005236 1.433322 -0.022321 -0.002309 1143170.000000 0 0 1
-34.481542 0.681866 4.865403 34.829784 -0.019772 1.430647 -0.022157 -0.010360 619533.000000 0 0 1
-34.345245 1.728066 3.916803 34.611030 -0.050272 1.457387 -0.035423 -0.008657 247380.000000 0 0 1
-34.071788 1.258566 2.632503 34.196503 -0.036922 1.493738 -0.019170 -0.002611 -694236.000000 0 0 1
-34.578609 2.329066 1.568703 34.692443 -0.067254 1.525563 -0.034975 -0.008040 282902.000000 0 0 1
-33.843098 3.541066 1.439503 34.058283 -0.104252 1.528518 -0.009239 -0.006316 913671.000000 0 0 1
-32.492478 3.422366 0.935703 32.685612 -0.104941 1.542165 0.034806 -0.002890 576592.000000 0 0 1
-31.680378 4.611166 1.468803 32.047880 -0.144538 1.524949 0.038942 -0.001800 -270352.000000 0 0 1
-31.208298 4.392466 2.794603 31.639555 -0.139828 1.482355 0.033558 -0.004458 178554.000000 0 0 1
-30.199368 5.308366 3.178403 30.826658 -0.174000 1.467507 0.038976 -0.015241 -177463.000000 0 0 1
-29.635788 4.922566 4.575603 30.388283 -0.164599 1.419650 0.019377 -0.009415 -135528.000000 0 0 1
-30.528638 4.979166 5.641203 31.442217 -0.161675 1.390405 -0.004348 -0.000221 -158103.000000 0 0 1
-31.637868 4.095966 5.629903 32.394868 -0.128748 1.396119 -0.003833 -0.003228 -190379.000000 0 0 1
-31.844658 3.271366 6.909703 32.749475 -0.102370 1.358212 -0.015114 -0.003646 -741047.000000 0 0 1
-32.429238 3.947366 7.988703 33.631184 -0.121127 1.330965 -0.026596 0.007714 187981.000000 0 0 1
-32.595548 3.148166 9.177703 34.008983 -0.096284 1.297547 -0.026394 0.011281 -422438.000000 0 0 1
-33.669978 2.039766 9.115203 34.941594 -0.060507 1.306873 -0.029865 0.012092 -1389690.000000 0 0 1
-33.351158 0.912066 8.422503 34.410321 -0.027341 1.323517 -0.019481 0.003340 -254569.000000 0 0 1
-34.200680 -0.194134 8.631403 35.273578 0.005676 1.323587 -0.002530 0.001022 -234829.000000 0 0 1
-33.951858 -1.060534 9.924603 35.388574 0.031226 1.286537 -0.000634 0.010191 -1092070.000000 0 0 1
-32.898498 -1.925334 9.895103 34.408301 0.058457 1.279098 -0.001256 0.000386 -680370.000000 0 0 1
-32.992768 -2.892234 10.955403 34.884218 0.087439 1.251340 -0.006690 0.018690 -1180380.000000 0 0 1
-31.733258 -3.665034 11.007503 33.787531 0.114986 1.238953 -0.011263 0.017828 -1261460.000000 0 0 1
-31.676208 -4.632834 9.975903 33.531537 0.145226 1.268715 -0.002811 0.009467 542610.000000 0 0 1
-30.471858 -5.414334 10.114003 32.559825 0.175848 1.254942 0.013592 -0.002088 702134.000000 0 0 1
-30.288558 -6.411234 8.993403 32.239448 0.208593 1.288089 0.007522 0.002237 242680.000000 0 0 1
-31.080048 -7.568134 9.238203 33.295502 0.238856 1.289646 0.006705 0.003436 26980.900000 0 0 1
-31.200898 -8.425634 8.072203 33.311377 0.263753 1.326034 0.006046 0.003338 -56650.900000 0 0 1
-32.132148 -9.599434 8.387803 34.568473 0.290308 1.325707 0.007939 0.005786 146062.000000 0 0 1
-33.469748 -9.209334 8.601803 35.763486 0.268509 1.327896 0.008849 0.004663 -115928.000000 0 0 1
-34.357960 -10.305834 8.724803 36.916146 0.291415 1.332198 0.014244 0.005011 170822.000000 0 0 1
6.938952 -24.185334 10.534503 27.277376 -1.291394 1.174289 0.060767 -0.003456 -86510.400000 0 0 1
6.450252 -24.826334 9.429103 27.328751 -1.316602 1.218531 0.051772 -0.014362 -537484.000000 0 0 1
5.186552 -25.394594 9.719003 27.681127 -1.369329 1.212045 0.047277 -0.010190 304558.000000 0 0 1
4.828552 -26.396704 8.633303 28.189268 -1.389874 1.259532 0.029862 -0.003645 -183115.000000 0 0 1
4.338152 -25.856574 7.435103 27.251840 -1.404567 1.294464 0.034966 -0.001580 -273108.000000 0 0 1
4.220452 -26.788474 6.382903 27.859936 -1.414533 1.339636 0.026620 -0.005224 -556595.000000 0 0 1
3.592052 -26.137374 5.079403 26.867555 -1.434222 1.380598 0.015489 -0.003017 46002.400000 0 0 1
2.198052 -25.966664 5.063403 26.546886 -1.486349 1.378886 -0.014676 -0.003669 -674996.000000 0 0 1
1.571252 -27.198464 4.761903 27.656844 -1.513091 1.397756 -0.022918 -0.002144 -256294.000000 0 0 1
0.028652 -26.981094 4.661103 27.380763 -1.569734 1.399730 -0.019351 -0.003867 217436.000000 0 0 1
-0.489348 -26.973044 5.988403 27.634138 1.552656 1.352360 -0.021293 0.003501 -484798.000000 0 0 1
-1.899148 -27.035564 6.067103 27.772977 1.500665 1.350567 -0.043745 0.005574 260969.000000 0 0 1
-2.420048 -28.478494 6.338903 29.275638 1.486022 1.352543 -0.044567 0.008314 -292306.000000 0 0 1
-2.014748 -28.920814 7.604403 29.971648 1.501244 1.314272 -0.039051 0.002590 57869.900000 0 0 1
-2.536448 -30.233734 7.768803 31.318789 1.487098 1.320124 -0.031656 0.003635 -5929.470000 0 0 1
-2.315348 -30.941994 9.104303 32.336608 1.496107 1.285389 -0.033237 0.008350 757909.000000 0 0 1
-0.948748 -31.256694 9.414403 32.657496 1.540452 1.278369 -0.031858 0.010717 485856.000000 0 0 1
-0.730948 -31.618294 10.783203 33.414492 1.547683 1.242205 -0.037600 0.015022 1414690.000000 0 0 1
0.739352 -31.946384 11.309603 33.897275 -1.547657 1.230630 -0.020999 0.009247 922804.000000 0 0 1
1.270352 -33.157904 10.863203 34.915177 -1.532503 1.254413 -0.018589 0.007621 258451.000000 0 0 1
2.641152 -33.232784 11.262903 35.188729 -1.491489 1.244992 -0.010948 0.014284 654932.000000 0 0 1
2.901952 -33.729254 12.759503 36.178569 -1.484971 1.210361 -0.007984 0.018128 -601990.000000 0 0 1
2.566652 -32.828214 13.765603 35.689931 -1.492771 1.174830 -0.014048 0.010742 -111589.000000 0 0 1
3.207952 -33.130464 14.992503 36.506079 -1.474269 1.147591 -0.012546 0.009638 -550083.000000 0 0 1
3.055152 -32.113244 16.154903 36.077352 -1.475945 1.106510 -0.016003 0.010008 -56897.100000 0 0 1
3.494152 -30.796464 15.904203 34.836403 -1.457820 1.096694 -0.023239 0.005522 978182.000000 0 0 1
4.931852 -30.663404 15.825403 34.857007 -1.411324 1.099536 -0.009782 0.009037 750679.000000 0 0 1
5.272352 -29.325664 15.168803 33.434786 -1.392910 1.099902 0.000847 0.002012 -193720.000000 0 0 1
5.412052 -29.401594 13.721203 32.894004 -1.388761 1.140507 0.006786 0.007544 -587063.000000 0 0 1
4.236652 -29.408864 12.966103 32.418365 -1.427720 1.159321 -0.016405 0.020653 -903372.000000 0 0 1
4.495952 -29.681944 11.433503 32.124078 -1.420468 1.206901 -0.003444 0.006783 158878.000000 0 0 1
5.032052 -30.884954 10.955303 33.154496 -1.409287 1.234035 0.005592 0.004583 -183020.000000 0 0 1
6.390852 -31.074034 11.283503 33.671294 -1.367959 1.229077 0.017720 0.004976 -394101.000000 0 0 1
6.925952 -32.376664 10.667203 34.785147 -1.360055 1.259115 0.003285 0.014624 -369097.000000 0 0 1
6.512152 -33.518104 11.349203 35.981605 -1.378899 1.249900 -0.011078 0.018572 177150.000000 0 0 1
6.764452 -34.731562 10.612003 36.941222 -1.378441 1.279424 -0.004584 0.019428 -127975.000000 0 0 1
6.507752 33.455567 11.402003 35.939275 1.378676 1.247960 -0.001158 0.020434 273703.000000 0 0 1
5.195452 33.188172 11.862103 35.625229 1.415511 1.231346 -0.009789 0.019481 90278.900000 0 0 1
5.148852 31.864202 12.345303 34.557843 1.410594 1.205489 -0.005283 0.018799 -52085.700000 0 0 1
3.936252 31.528532 13.218703 34.413319 1.446592 1.176546 -0.007159 0.019844 -134370.000000 0 0 1
3.958652 32.081382 14.509703 35.431871 1.448023 1.148879 0.007892 0.013590 1430920.000000 0 0 1
2.707552 31.814742 15.222403 35.372732 1.485897 1.125924 0.012640 0.006488 1195660.000000 0 0 1
2.953352 31.847212 16.726503 36.093533 1.478326 1.088944 0.000109 0.000743 -28223.800000 0 0 1
3.442052 33.104602 17.152403 37.442854 1.467194 1.094945 -0.009538 -0.000914 416042.000000 0 0 1
3.886352 33.105262 18.521603 38.132819 1.453937 1.063618 -0.011177 0.003161 -36011.700000 0 0 1
4.409452 34.422226 19.153403 39.638186 1.443391 1.066484 -0.017543 0.000528 -275008.000000 0 0 1
3.416752 -34.116969 19.357903 39.374741 -1.470981 1.056833 -0.032749 -0.007112 -129643.000000 0 0 1
3.893352 -33.196654 20.379503 39.147161 -1.454048 1.023258 -0.031538 -0.011797 29130.800000 0 0 1
2.789552 -32.282614 20.914903 38.566591 -1.484600 0.997617 -0.036240 -0.013919 294437.000000 0 0 1
1.750752 -33.065354 21.534603 39.498379 -1.517897 0.994166 -0.038123 -0.006250 204600.000000 0 0 1
0.791052 -32.190234 22.094003 39.051017 -1.546227 0.969426 -0.020305 -0.008131 518603.000000 0 0 1
-0.488448 -32.917174 22.688403 39.981778 1.555959 0.967368 -0.026635 -0.002871 -112855.000000 0 0 1
-1.311748 -33.357864 21.635803 39.781601 1.531493 0.995761 -0.032812 -0.000912 -291322.000000 0 0 1
-2.170148 -34.413460 22.015203 40.910451 1.507819 1.002578 -0.027844 0.006616 218465.000000 0 0 1
-3.433048 -34.074255 22.857203 41.173929 1.470383 0.982268 -0.004098 0.003292 513402.000000 0 0 1
-4.496048 -33.503464 22.058203 40.364104 1.437397 0.992640 -0.005612 0.001339 1047990.000000 0 0 1
-5.655048 -33.082184 22.776803 40.560982 1.401493 0.974545 0.000794 0.005379 393883.000000 0 0 1
-6.975248 -32.792534 22.058403 40.132002 1.361212 0.988856 0.019613 0.000330 300343.000000 0 0 1
-7.628448 -33.923744 21.476603 40.868792 1.349605 1.017492 0.031435 0.003668 20022.000000 0 0 1
-8.925948 -33.601724 21.038503 40.637016 1.311153 1.026615 0.033247 0.006654 -386890.000000 0 0 1
-9.725048 34.613679 20.650603 41.462402 -1.296898 1.049441 0.048513 -0.001969 -26922.300000 0 0 1
-10.270648 34.048304 21.819503 41.723662 -1.277827 1.020485 0.070819 -0.011347 -911634.000000 0 0 1
-11.660648 34.211186 21.754803 42.185867 -1.242302 1.028984 0.058604 -0.007464 -652870.000000 0 0 1
-12.262448 33.731456 23.130203 42.698771 -1.222118 0.998330 0.060465 -0.013255 -235335.000000 0 0 1
-12.121848 -34.743551 24.174903 44.028167 1.235106 0.989536 0.050365 -0.013305 -18526.800000 0 0 1
-10.867148 -34.530847 24.789703 43.874864 1.265901 0.970352 0.038528 -0.017698 -115332.000000 0 0 1
-10.777448 -33.101464 25.437003 43.114980 1.256032 0.939761 0.023388 -0.012538 -62280.300000 0 0 1
-11.462448 -33.000464 26.696003 43.966976 1.236491 0.918286 0.033577 -0.002160 198749.000000 0 0 1
-11.927448 -31.676704 26.873303 43.218654 1.210679 0.899759 0.022755 0.001018 149239.000000 0 0 1
-12.700648 -31.304834 28.185403 43.996774 1.185378 0.875485 0.017015 -0.002888 18704.300000 0 0 1
-11.924848 -31.157644 29.324303 44.417514 1.205269 0.849716 0.003759 0.000644 -235403.000000 0 0 1
-12.823348 -30.620564 30.269803 44.925697 1.174204 0.831491 0.003280 0.003887 -157138.000000 0 0 1
-12.220248 -30.208034 31.619203 45.405218 1.186385 0.800458 0.002126 0.012488 -552949.000000 0 0 1
-13.102848 -29.534094 32.497603 45.826211 1.153234 0.782506 0.005699 0.013160 397633.000000 0 0 1
-12.555748 -29.142394 33.801403 46.362278 1.163988 0.753832 0.002995 0.016436 -24112.900000 0 0 1
-11.979848 -30.249844 -34.521292 47.437216 1.193717 2.385797 0.002660 0.021930 -411779.000000 0 0 1
-10.731448 -30.771644 34.369403 47.363635 1.235240 0.758818 -0.006062 0.026585 -374249.000000 0 0 1
-10.340048 -31.842824 -34.068192 47.765299 1.256816 2.364908 -0.006660 0.034542 -1189650.000000 0 0 1
-8.891948 -32.193744 -34.197992 47.801743 1.301314 2.368011 -0.004766 0.025901 -1468540.000000 0 0 1
-8.056548 -31.157614 -33.780492 46.656474 1.317764 2.380417 0.003515 0.017305 -1066350.000000 0 0 1
-6.740348 -31.613554 -33.802292 46.770119 1.360731 2.378544 0.007400 0.009890 -513245.000000 0 0 1
-5.846848 -30.821474 -32.826192 45.406033 1.383323 2.378856 0.006519 0.013095 -18181.300000 0 0 1
-6.295748 -30.963634 -31.486492 44.606976 1.370204 2.354440 0.011111 0.006201 -80272.000000 0 0 1
-5.599048 -30.139524 -30.594092 43.309800 1.387119 2.355197 0.008901 0.006845 10948.400000 0 0 1
-6.213048 -30.085464 -29.140292 42.342576 1.367146 2.329806 0.010042 0.008411 -52058.500000 0 0 1
-5.922348 -31.285784 -28.500692 42.733640 1.383712 2.300888 0.007578 0.003316 454227.000000 0 0 1
-6.842748 -31.622574 -27.442992 42.425561 1.357694 2.274244 0.011643 0.001647 186160.000000 0 0 1
-6.470448 -32.873384 -26.637292 42.802704 1.376451 2.242509 0.011816 -0.003239 -284129.000000 0 0 1
-5.365248 -32.645944 -25.825092 41.969977 1.407906 2.233592 0.003870 -0.008371 -477267.000000 0 0 1
-4.996948 -33.858354 -25.255392 42.534603 1.424270 2.206521 0.002546 -0.014824 -67661.100000 0 0 1
-3.981848 -33.861674 -24.101792 41.753617 1.453742 2.186139 0.003400 -0.013619 -148911.000000 0 0 1
-4.542148 -33.517504 -22.862292 40.825710 1.436101 2.165179 0.009369 -0.018546 -58179.500000 0 0 1
-4.875348 -32.141414 -22.702292 39.651401 1.420260 2.180405 0.002251 -0.007533 -187323.000000 0 0 1
-5.209448 -31.789624 -21.226492 38.578265 1.408367 2.153423 0.010205 -0.011293 -186663.000000 0 0 1
-6.601748 -31.849024 -20.980992 38.705884 1.366408 2.143685 0.013010 -0.015866 -98470.100000 0 0 1
-7.159448 -30.629194 -20.589892 37.594533 1.341173 2.150389 0.015502 -0.012774 -214884.000000 0 0 1
-7.528748 -29.542394 -21.584192 37.353882 1.321262 2.186864 0.022029 -0.012506 -1136220.000000 0 0 1
-6.396948 -29.018834 -22.175892 37.078078 1.353825 2.211907 0.015837 0.000817 -814129.000000 0 0 1
-6.738048 -28.189004 -23.294092 37.183814 1.336168 2.247797 0.023417 0.002148 -480824.000000 0 0 1
-5.633848 -28.231084 -24.399992 37.737170 1.373822 2.273885 0.021297 0.003152 1056220.000000 0 0 1
-4.435148 -27.457994 -24.326492 36.951187 1.410655 2.289409 0.020269 0.006958 346231.000000 0 0 1
-3.667648 -27.696464 -23.178192 36.301162 1.439139 2.263340 0.011304 0.008097 -1086850.000000 0 0 1
-2.166648 -27.329314 -23.360992 36.018353 1.491683 2.276521 0.010031 0.004165 69720.200000 0 0 1
-1.834448 -25.952334 -23.506592 35.063496 1.500228 2.305545 0.015568 0.008826 147596.000000 0 0 1
-2.206948 -25.110254 -22.380892 33.709047 1.483131 2.296876 0.023296 0.011457 -911076.000000 0 0 1
-1.953248 -23.580734 -22.558392 32.691700 1.488153 2.332333 0.025692 0.014201 480709.000000 0 0 1
-2.737448 -22.929734 -23.585892 33.008494 1.451974 2.366763 0.032672 0.012440 976657.000000 0 0 1
-4.156548 -23.069834 -23.457692 33.162592 1.392536 2.356544 0.021191 0.015847 277809.000000 0 0 1
-4.912248 -23.329734 -24.789992 34.394046 1.363270 2.375700 0.009104 0.023379 33997.900000 0 0 1
-4.829248 -22.203034 -25.659592 34.274058 1.356628 2.416834 0.011342 0.016166 60611.900000 0 0 1
-5.266348 -22.488934 -26.953392 35.496084 1.340766 2.433086 0.003106 0.020916 -65750.400000 0 0 1
-5.156148 -21.258134 -27.926392 35.473617 1.332842 2.477123 0.003606 0.017434 -51149.900000 0 0 1
-5.539948 -21.593534 -29.226992 36.758520 1.319657 2.489982 0.004653 0.008802 51160.000000 0 0 1
-4.470248 -21.931034 -30.104992 37.513517 1.369719 2.502288 0.004484 0.001668 269666.000000 0 0 1
-5.030948 -22.227834 -31.545392 38.916562 1.348211 2.515956 0.006687 -0.014596 -449701.000000 0 0 1
-5.609848 -21.156134 -32.177492 38.915851 1.311597 2.544276 0.002453 -0.018381 -403434.000000 0 0 1
-6.658948 -21.578834 -33.009992 39.995591 1.271480 2.541602 0.004081 -0.016294 -561477.000000 0 0 1
-6.692948 -20.816134 -34.319692 40.693344 1.259709 2.574327 0.013391 -0.012982 -837682.000000 0 0 1
-5.572948 -20.971234 34.171703 40.479078 1.311057 0.565759 0.002601 -0.009009 -1359600.000000 0 0 1
-5.545648 -20.310534 32.979503 39.126968 1.304250 0.568175 -0.000111 0.000439 874608.000000 0 0 1
-4.228948 -20.663434 32.183203 38.478827 1.368925 0.580137 -0.011718 0.000971 -308009.000000 0 0 1
-4.188448 -22.069434 31.944503 39.051944 1.383242 0.612870 -0.014075 -0.000881 -392872.000000 0 0 1
-3.147048 -22.541634 31.169503 38.594911 1.432082 0.630714 -0.021249 0.011740 -189929.000000 0 0 1
-1.663948 -22.291834 31.523003 38.644461 1.496291 0.616826 -0.020090 0.004832 -496138.000000 0 0 1
-1.229948 -20.923634 31.335103 37.698806 1.512081 0.589541 -0.018048 -0.000548 518336.000000 0 0 1
-0.152948 -20.531634 32.210603 38.198094 1.563347 0.567492 -0.013081 0.002811 556914.000000 0 0 1
-0.643948 -20.017734 33.619503 39.133047 1.538639 0.537273 -0.023140 -0.004214 180523.000000 0 0 1
-1.444248 -18.855734 33.717403 38.658607 1.494351 0.511148 -0.036494 -0.001421 -71682.000000 0 0 1
-1.873648 -18.618934 -34.202192 38.986731 1.470503 2.640957 -0.029598 -0.006506 291857.000000 0 0 1
-2.774448 -17.371534 -34.075992 38.348938 1.412422 2.665031 -0.017853 -0.013702 546301.000000 0 0 1
-2.081048 -16.160334 -34.339092 38.008689 1.442726 2.698555 -0.006848 -0.010021 24801.800000 0 0 1
-3.064348 -15.137534 -34.336592 37.650189 1.371062 2.718905 0.001906 -0.008714 29186.900000 0 0 1
-2.718448 -13.691234 34.407203 37.130789 1.374792 0.385398 0.001076 -0.009742 -252603.000000 0 0 1
-1.811448 -13.012434 -33.991592 36.442189 1.432476 2.772774 0.004121 -0.007276 120225.000000 0 0 1
-1.696548 -11.604434 -34.140292 36.098486 1.425627 2.810704 -0.004419 -0.000229 -29940.500000 0 0 1
-1.179848 -10.962634 33.771703 35.526037 1.463584 0.315574 -0.010599 0.005037 -1981.660000 0 0 1
-2.071248 -11.088034 32.649203 34.542800 1.386124 0.332647 -0.010531 0.001064 332258.000000 0 0 1
-1.396848 -10.989334 31.422003 33.317547 1.444365 0.338943 -0.008699 0.005744 -606945.000000 0 0 1
-0.460348 -12.047534 30.996203 33.258377 1.532604 0.370954 -0.018852 0.005528 -785358.000000 0 0 1
-1.157448 -13.209934 30.671403 33.415222 1.483400 0.408073 -0.019959 0.002782 162655.000000 0 0 1
-0.203348 -14.180334 30.313603 33.466966 1.556457 0.437587 -0.017978 0.001997 -145914.000000 0 0 1
-0.584048 -15.608234 30.736903 34.477751 1.533395 0.470152 -0.022642 0.000442 -357387.000000 0 0 1
-1.495848 -16.221434 29.888903 34.039962 1.478842 0.499017 -0.017022 -0.004581 -437252.000000 0 0 1
-1.989048 -17.340934 30.611903 35.238515 1.456593 0.518213 -0.013888 0.003034 -148160.000000 0 0 1
-2.477448 -18.448734 29.642103 35.002112 1.437307 0.560732 -0.009796 0.003985 -368429.000000 0 0 1
-3.658148 -18.137334 28.950203 34.357812 1.371775 0.568686 -0.006183 0.005012 -414596.000000 0 0 1
-4.187748 -19.122834 28.116603 34.260231 1.355208 0.608200 -0.001516 0.012354 -273184.000000 0 0 1
-3.420448 -19.574734 26.846603 33.400746 1.397805 0.637187 0.000452 0.003885 -848057.000000 0 0 1
-4.144248 -20.137234 25.813403 33.000224 1.367830 0.672577 0.010541 0.006315 -656202.000000 0 0 1
-4.230648 -21.573534 25.863503 33.944610 1.377150 0.704505 -0.001178 0.001992 -359464.000000 0 0 1
-28.240178 34.415266 -0.450297 44.521017 -0.883637 1.580911 -0.003641 -0.014155 -213726.000000 0 0 1
-27.681378 -33.762131 -0.459197 43.661780 0.884042 1.581314 0.010158 -0.001105 147923.000000 0 0 1
-27.990008 -33.076531 0.735303 43.336337 0.868501 1.553828 -0.000010 0.001506 -259095.000000 0 0 1
-27.232788 -31.758231 0.974303 41.846855 0.861962 1.547512 0.014818 -0.006620 10304.100000 0 0 1
-25.885528 -31.904931 1.366803 41.107826 0.889183 1.537541 0.018932 -0.016985 -471435.000000 0 0 1
-25.397268 -30.621131 1.676503 39.818156 0.878382 1.528680 0.034029 -0.010384 -960196.000000 0 0 1
-23.902548 -30.558931 1.841703 38.840339 0.907017 1.523361 0.039616 -0.005290 -1117900.000000 0 0 1
-23.569848 -31.288931 3.013603 39.288888 0.925189 1.494017 0.034946 -0.008379 -1561390.000000 0 0 1
-22.232248 -31.196831 3.269203 38.447403 0.951634 1.485663 0.031788 -0.002748 -1481960.000000 0 0 1
-21.701248 -31.748631 4.603303 38.731255 0.971208 1.451662 0.028370 -0.010730 -194490.000000 0 0 1
-22.070848 -30.993331 5.733803 38.478376 0.951985 1.421226 0.018899 -0.007278 -345088.000000 0 0 1
-21.598248 -31.631431 6.883303 38.915442 0.971701 1.392982 0.006360 -0.003510 -134915.000000 0 0 1
-22.021848 -31.000331 8.227703 38.906007 0.953141 1.357711 0.007350 0.010507 -26139.500000 0 0 1
-21.364848 -29.843431 8.703903 37.720618 0.949480 1.337951 0.012692 0.012282 -116256.000000 0 0 1
-22.009148 -29.416831 9.875403 38.043082 0.928460 1.308204 0.002739 0.014037 48863.900000 0 0 1
-21.353848 -28.157831 10.506603 36.867858 0.921965 1.281811 0.009432 0.016574 1250320.000000 0 0 1
-20.091048 -28.425431 11.161403 36.554511 0.955522 1.260505 -0.000633 0.015383 614337.000000 0 0 1
-19.688748 -27.430031 12.106303 35.869429 0.948236 1.226526 0.011194 0.015814 560110.000000 0 0 1
-18.349448 -27.746731 12.833203 35.654935 0.986505 1.202606 0.011566 0.017816 432364.000000 0 0 1
-18.462248 -28.874931 13.696203 36.908024 1.001918 1.190614 0.017904 0.010185 -298226.000000 0 0 1
-17.345648 -28.938331 14.545503 36.740579 1.030818 1.163751 0.011453 0.010995 -104685.000000 0 0 1
-17.427748 -30.141031 15.491603 38.107715 1.046555 1.152153 0.020334 -0.009605 167680.000000 0 0 1
-17.068548 -31.364931 14.848203 38.672514 1.072423 1.176729 0.028659 -0.009910 40854.800000 0 0 1
-17.029048 -32.369431 15.825303 39.852337 1.086500 1.162443 0.042809 -0.011510 88770.200000 0 0 1
-16.922848 -33.762831 15.241403 40.726059 1.106167 1.187217 0.027810 -0.011323 44194.900000 0 0 1
-16.741848 34.704466 16.218703 41.805930 -1.121318 1.172388 0.036083 -0.001666 30029.700000 0 0 1
-16.712848 33.470766 15.565303 40.520243 -1.107687 1.176524 0.015896 -0.000004 -313360.000000 0 0 1
-16.642948 32.346166 16.583303 39.978345 -1.095595 1.143065 0.004089 0.001669 305017.000000 0 0 1
-17.732348 32.338966 17.504903 40.824827 -1.069238 1.127654 0.013280 -0.002598 282947.000000 0 0 1
-17.765448 31.164366 18.286703 40.264530 -1.052685 1.099363 0.005222 0.004707 89718.500000 0 0 1
-18.753548 31.290966 19.473003 41.352363 -1.030871 1.080481 0.014961 0.003360 260950.000000 0 0 1
-18.263848 32.135466 20.501803 42.267958 -1.053982 1.064383 0.008007 0.005888 1037140.000000 0 0 1
-19.298348 32.246466 21.524403 43.307744 -1.031507 1.050646 -0.001398 0.011948 794571.000000 0 0 1
-18.817648 33.080766 22.721103 44.324818 -1.053604 1.032581 -0.014160 0.013481 1016640.000000 0 0 1
-17.637048 32.522666 23.360403 43.754973 -1.073884 1.007600 -0.018839 0.007127 1052870.000000 0 0 1
-17.173248 33.063366 24.617003 44.655385 -1.091746 0.986915 -0.022009 0.007944 -210833.000000 0 0 1
-18.089348 32.691266 25.782303 45.394609 -1.065393 0.966772 -0.023827 0.020542 -497596.000000 0 0 1
-19.295148 33.399866 25.739903 46.372367 -1.046934 0.982349 -0.025761 0.012832 -430681.000000 0 0 1
-20.304748 32.613866 26.354703 46.588812 -1.013939 0.969530 -0.031014 0.013921 1133770.000000 0 0 1
-21.775548 32.970866 25.872903 47.229859 -0.987111 0.991054 -0.026323 0.004949 938269.000000 0 0 1
-21.849148 32.700066 24.506303 46.338304 -0.981755 1.013544 -0.007341 0.013734 29763.200000 0 0 1
-23.202448 32.730266 24.147803 46.826705 -0.954123 1.028990 -0.015193 0.011649 -354398.000000 0 0 1
-23.402748 32.314266 22.664403 45.886551 -0.943997 1.054201 -0.030002 0.010798 -142279.000000 0 0 1
-22.950748 33.338066 21.763303 45.954378 -0.967881 1.077440 -0.022964 0.007440 73994.100000 0 0 1
-23.033948 32.785566 20.390303 44.957986 -0.958352 1.100062 -0.020434 0.019848 -269398.000000 0 0 1
-22.552148 33.746366 19.280103 44.934830 -0.981675 1.127335 -0.015021 0.016808 1473990.000000 0 0 1
-21.131648 34.058966 19.384503 44.523237 -1.015481 1.120337 -0.003281 0.016659 1280010.000000 0 0 1
-20.772948 -34.473731 18.353903 44.235950 1.028487 1.142953 0.004712 0.018617 977089.000000 0 0 1
-19.330948 -33.865931 18.467603 43.146717 1.052118 1.128497 0.024559 0.005800 772138.000000 0 0 1
-19.424448 -32.753331 19.385403 42.730361 1.035501 1.099919 0.015529 -0.000619 447589.000000 0 0 1
-18.160648 -32.263431 19.804603 41.987622 1.058113 1.079604 0.024801 0.000622 -127829.000000 0 0 1
-18.296448 -31.269431 20.985003 41.867740 1.041388 1.045787 0.034026 -0.002990 -51977.800000 0 0 1
-19.112548 -30.139431 20.711303 41.262972 1.005653 1.044963 0.026568 0.002057 459238.000000 0 0 1
-19.360648 -29.398631 21.921003 41.468597 0.988430 1.013826 0.029958 0.001929 -99193.800000 0 0 1
-20.105248 -28.034731 21.744503 40.779781 0.948649 1.008397 0.024491 -0.004443 -30370.600000 0 0 1
-19.276648 -26.954531 21.312403 39.399929 0.949972 0.999260 0.021941 0.004189 366007.000000 0 0 1
-19.950948 -25.745531 21.036503 38.773795 0.911531 0.997333 0.023772 0.017583 -537330.000000 0 0 1
-21.113248 -25.559531 20.050203 38.743638 0.880377 1.026858 0.022375 0.018950 402179.000000 0 0 1
-22.383548 -25.968731 20.581503 39.987454 0.859410 1.030140 0.024291 0.015299 -367182.000000 0 0 1
-23.244548 -26.033731 19.554603 40.005583 0.841938 1.060086 0.021247 0.015778 -276502.000000 0 0 1
-24.727348 -26.381431 19.994503 41.318299 0.817751 1.065675 0.015689 0.005952 889938.000000 0 0 1
-25.096018 -27.726531 20.024603 42.421167 0.835156 1.079190 0.006039 0.006620 -162826.000000 0 0 1
-25.207568 -28.338331 18.765603 42.315840 0.843800 1.111335 0.004552 -0.001534 -343708.000000 0 0 1
-26.305618 -29.434331 18.724103 43.691617 0.841470 1.127907 -0.006171 -0.009023 504719.000000 0 0 1
-27.604658 -28.925131 18.998203 44.267506 0.808753 1.127225 -0.014461 -0.005503 241613.000000 0 0 1
-28.640188 -29.673831 18.391603 45.155816 0.803122 1.151309 -0.005604 0.000803 32468.900000 0 0 1
-30.049668 -29.124431 18.618603 45.802483 0.769764 1.152179 -0.008199 0.003440 -238084.000000 0 0 1
-30.351308 -27.954831 17.879803 44.970677 0.744320 1.161910 -0.000064 0.009122 -90761.400000 0 0 1
-31.715108 -27.633631 18.005003 45.756374 0.716735 1.166364 -0.033238 0.028412 -397197.000000 0 0 1
-32.131398 -26.411831 17.214003 45.014814 0.688009 1.178396 -0.023350 0.009388 -349836.000000 0 0 1
-32.195038 -26.583931 15.793203 44.639121 0.690225 1.209168 -0.002597 -0.007375 -26544.000000 0 0 1
-32.999418 -25.541831 15.291403 44.442927 0.658690 1.219550 -0.009809 -0.008119 -707949.000000 0 0 1
-32.319008 -24.187031 15.002903 43.065274 0.642466 1.214958 -0.014555 -0.003072 -408187.000000 0 0 1
-31.816648 -23.614831 16.154803 42.789450 0.638501 1.183656 -0.026868 0.003558 78797.700000 0 0 1
-31.107088 -22.430231 15.870303 41.504611 0.624724 1.178432 -0.013353 0.001981 21955.900000 0 0 1
-31.850088 -21.082631 16.188403 41.484573 0.584718 1.169918 -0.018790 -0.000828 -104585.000000 0 0 1
-31.892968 -20.678731 17.546603 41.864718 0.575235 1.138314 -0.014961 0.005012 33778.800000 0 0 1
-32.893518 -19.698831 17.630303 42.200178 0.539586 1.139798 -0.002996 -0.004660 -306822.000000 0 0 1
-33.307888 -19.281631 19.044803 42.940671 0.524753 1.111280 -0.024907 0.010411 -481274.000000 0 0 1
-34.141271 -20.189631 19.713003 44.292777 0.534039 1.109554 -0.024317 0.010895 165976.000000 0 0 1
-34.119597 -20.007331 21.134203 44.845231 0.530351 1.080066 -0.025360 0.020713 -777254.000000 0 0 1
34.326764 -20.227731 21.794103 45.414433 -0.532492 1.070263 -0.023220 0.011478 -458006.000000 0 0 1
33.837163 -21.587431 21.973603 45.758169 -0.567879 1.069900 -0.013145 0.008305 175946.000000 0 0 1
34.643134 -22.343231 22.852703 47.133987 -0.572820 1.064610 -0.016231 0.017100 -209116.000000 0 0 1
33.973886 -23.696331 23.292403 47.521333 -0.609037 1.058539 -0.013673 0.022085 123871.000000 0 0 1
33.192434 -23.526231 24.461603 47.472005 -0.616596 1.029456 0.000331 0.003979 128043.000000 0 0 1
32.535624 -24.725531 24.780703 47.791233 -0.649840 1.025677 0.001442 -0.009805 -363737.000000 0 0 1
31.730844 -24.660731 26.100603 47.919094 -0.660674 0.994788 0.010748 -0.017318 491092.000000 0 0 1
30.445564 -24.029031 26.006403 46.697534 -0.668149 0.980133 0.019576 -0.017976 825337.000000 0 0 1
29.638454 -24.305531 27.173703 46.985178 -0.686858 0.954096 0.005265 -0.010250 476438.000000 0 0 1
28.426174 -25.220931 26.804003 46.503734 -0.725722 0.956500 0.011646 -0.004588 -309696.000000 0 0 1
27.414264 -24.455731 26.200803 45.123239 -0.728422 0.951270 0.010004 0.000490 -860202.000000 0 0 1
26.382574 -25.259631 25.768203 44.699994 -0.763657 0.956394 0.008651 0.011539 -348480.000000 0 0 1
25.110744 -24.566631 25.224303 43.247361 -0.774446 0.948064 0.010153 0.018489 -38476.400000 0 0 1
25.232164 -23.977331 23.934603 42.242629 -0.759904 0.968425 0.020441 0.007012 1213.180000 0 0 1
25.808434 -22.689031 23.931803 41.875990 -0.721166 0.962473 0.014618 0.009083 -78749.400000 0 0 1
25.723634 -22.001031 22.579703 40.688987 -0.707554 0.982513 0.023778 0.004824 498174.000000 0 0 1
24.825194 -20.882031 22.462303 39.457629 -0.699341 0.965171 0.014134 0.002398 365398.000000 0 0 1
24.850094 -20.475531 21.109903 38.501981 -0.689182 0.990489 0.003599 0.006381 189026.000000 0 0 1
24.366214 -18.970931 20.813803 37.240072 -0.661540 0.977727 0.022180 0.015602 666989.000000 0 0 1
25.109954 -17.846931 21.420203 37.521298 -0.617905 0.963218 0.016801 -0.008332 476261.000000 0 0 1
24.816664 -17.713931 22.812803 38.079839 -0.619922 0.928447 0.019111 -0.001558 -281453.000000 0 0 1
24.780334 -16.302231 23.259903 37.694174 -0.581888 0.905784 0.030185 0.008356 -130695.000000 0 0 1
23.569514 -15.602031 23.012303 36.448751 -0.584736 0.887490 0.000511 0.011712 -121523.000000 0 0 1
23.557414 -14.467531 23.868603 36.523573 -0.550751 0.858581 -0.011337 0.014765 147821.000000 0 0 1
22.165414 -13.802031 23.897503 35.396218 -0.556932 0.829638 -0.035726 0.016458 533415.000000 0 0 1
21.126814 -14.492131 24.608003 35.523484 -0.601240 0.805536 -0.004683 0.018207 330577.000000 0 0 1
19.912114 -13.791231 24.386203 34.371169 -0.605746 0.782014 0.005260 0.017130 318706.000000 0 0 1
18.692614 -14.665031 24.814303 34.354426 -0.665240 0.763670 0.014060 0.018340 20411.100000 0 0 1
18.399414 -15.674031 23.848303 33.955194 -0.705583 0.792108 0.023446 0.023535 243929.000000 0 0 1
17.212414 -16.340231 24.257803 33.936873 -0.759410 0.774470 0.017883 0.030454 14677.900000 0 0 1
16.736114 -17.581331 23.488003 33.777019 -0.810023 0.801842 0.008378 0.017011 -379528.000000 0 0 1
17.396114 -18.804131 23.819703 34.979971 -0.824274 0.821734 0.000826 0.024438 175977.000000 0 0 1
17.020914 -19.825231 22.895103 34.740999 -0.861361 0.851278 0.001339 0.017983 66604.000000 0 0 1
17.524514 -21.243131 23.258103 36.046062 -0.881026 0.869468 -0.004876 0.018960 -386237.000000 0 0 1
16.692714 -21.727931 24.265303 36.599926 -0.915710 0.845994 -0.006012 0.012479 143342.000000 0 0 1
16.964814 -23.092931 24.603303 37.767855 -0.937203 0.861322 0.019080 0.008332 -156428.000000 0 0 1
16.501614 -24.218331 23.634103 37.648395 -0.972684 0.892126 0.012196 0.010912 -120762.000000 0 0 1
17.251814 -24.339131 22.428703 37.323787 -0.954182 0.926142 0.011264 0.012442 -330038.000000 0 0 1
18.249314 -25.310531 22.606203 38.531816 -0.946104 0.943832 0.021020 0.005288 -222340.000000 0 0 1
19.281214 -25.280231 21.442303 38.348763 -0.919217 0.977449 0.017655 0.013514 -351482.000000 0 0 1
18.823514 -25.843031 20.241903 37.840739 -0.941277 1.006379 0.027967 -0.006532 -208648.000000 0 0 1
19.763114 -25.981831 19.201403 37.872550 -0.920513 1.039095 0.017178 0.004273 -118128.000000 0 0 1
19.069914 -26.546931 17.948203 37.289933 -0.947863 1.068642 0.013292 -0.006805 259284.000000 0 0 1
18.652214 -27.897331 18.162003 38.157889 -0.981455 1.074730 0.040774 -0.021701 -400827.000000 0 0 1
17.736214 -28.398731 17.260603 37.669478 -1.012526 1.094814 0.039366 -0.022398 -556593.000000 0 0 1
16.953514 -29.578331 17.852203 38.483768 -1.050336 1.088416 0.052391 -0.025253 -178558.000000 0 0 1
15.905414 -29.209231 18.723003 38.166899 -1.072159 1.058069 0.058324 -0.032569 -281676.000000 0 0 1
15.259314 -30.347231 19.212703 39.024723 -1.104892 1.056042 0.069868 -0.035264 324275.000000 0 0 1
13.921714 -30.002731 19.962203 38.632467 -1.136349 1.027780 0.053575 -0.029142 599084.000000 0 0 1
12.987014 -29.433931 19.041703 37.384559 -1.155263 1.036371 0.052008 -0.035315 131498.000000 0 0 1
11.764014 -29.173831 19.729503 37.131627 -1.187501 1.010615 0.020676 -0.024536 40057.500000 0 0 1
10.710414 -28.453331 18.907603 35.802269 -1.210781 1.014421 0.015050 -0.023934 -525423.000000 0 0 1
10.211514 -29.351831 17.894203 35.860947 -1.235993 1.048365 0.013956 -0.021496 -37665.000000 0 0 1
9.803814 -28.659931 16.755903 34.615989 -1.241200 1.065518 0.023902 -0.020222 -46702.300000 0 0 1
9.520514 -29.626531 15.586303 34.803798 -1.259868 1.106456 0.023254 -0.020423 129902.000000 0 0 1
8.460014 -30.544331 15.666603 35.354921 -1.300595 1.111716 0.003546 -0.006641 -135404.000000 0 0 1
8.799614 -31.603931 14.735803 35.963670 -1.299240 1.148626 0.008124 -0.004002 696800.000000 0 0 1
7.721514 -32.755431 14.543403 36.661296 -1.339290 1.162881 -0.004646 0.004954 422422.000000 0 0 1
7.497114 -33.528331 15.725003 37.784010 -1.350810 1.141555 -0.000410 0.000204 -23726.100000 0 0 1
6.859114 -34.706931 15.250503 38.525269 -1.375681 1.163795 -0.019586 0.007878 11433.800000 0 0 1
6.868614 33.649766 16.251303 37.994597 1.369442 1.128820 -0.003209 0.006852 405015.000000 0 0 1
8.094314 32.926466 16.305203 37.623526 1.329746 1.122559 0.006676 0.006418 282253.000000 0 0 1
7.939114 31.868866 17.214403 37.080855 1.326648 1.088020 0.013833 0.003431 668535.000000 0 0 1
9.289214 31.086266 17.360703 36.797275 1.280422 1.079473 0.008853 0.002679 526524.000000 0 0 1
9.564114 30.236666 16.288903 35.651881 1.264446 1.096303 0.026373 0.001957 -434491.000000 0 0 1
10.829914 29.640866 16.362403 35.547098 1.220494 1.092461 0.021755 0.002839 -357625.000000 0 0 1
11.434214 29.027566 15.059003 34.642667 1.195552 1.121096 0.014995 0.003563 -239917.000000 0 0 1
10.756914 27.931266 14.483003 33.250927 1.203182 1.120128 0.007689 0.008569 -280584.000000 0 0 1
11.370314 27.393266 13.350403 32.525502 1.177361 1.147838 0.008236 0.011217 -79698.200000 0 0 1
-9.072248 -9.269034 18.795599 22.836270 0.796127 0.604020 0.027550 -0.018910 -288377.000000 0 1 0
-9.462648 -9.524834 17.485799 22.045801 0.788673 0.654820 0.028350 -0.022637 -32054.200000 0 1 0
-9.222948 -10.875734 17.168399 22.318116 0.867447 0.693117 0.026409 -0.021261 69296.900000 0 1 0
-9.649648 -11.160134 15.700999 21.544969 0.857856 0.754295 0.026514 -0.021725 367605.000000 0 1 0
-11.067148 -11.258534 15.605499 22.198377 0.793970 0.791187 0.033804 -0.010374 146487.000000 0 1 0
-11.533248 -11.887534 14.449299 21.979798 0.800524 0.853446 0.032185 -0.012395 10964.600000 0 1 0
-11.322448 -13.472634 14.395999 22.736633 0.871900 0.885163 0.026564 -0.008505 -851098.000000 0 1 0
-9.996148 -13.820734 14.103999 22.132746 0.944622 0.879877 0.014949 -0.003379 -391921.000000 0 1 0
-9.727448 -15.164134 14.399999 23.063698 1.000436 0.896487 0.009745 0.001415 243728.000000 0 1 0
-9.292448 -15.409934 15.874499 23.996153 1.028162 0.847921 0.011462 0.003078 111829.000000 0 1 0
-10.405948 -15.311134 16.742499 24.960486 0.973871 0.835563 0.047412 -0.005428 67679.000000 0 1 0
-10.003748 -15.414034 18.130099 25.814103 0.995123 0.792127 0.044287 0.002837 -159500.000000 0 0 1
-11.080048 -14.773334 19.028599 26.516154 0.927293 0.770413 0.047610 -0.007634 -93463.200000 0 0 1
-11.434448 -13.456334 18.663499 25.693301 0.866451 0.757734 0.050450 -0.006417 514045.000000 0 0 1
-12.578648 -13.289434 17.813499 25.537271 0.812869 0.798825 0.039415 -0.018532 1477560.000000 0 0 1
-14.000948 -13.339634 18.519099 26.775538 0.761215 0.807036 0.020460 -0.010455 992194.000000 0 0 1
-14.516948 -14.643434 18.904099 27.973861 0.789736 0.828778 0.025291 -0.004131 -145310.000000 0 0 1
-15.569448 -14.514534 19.807799 29.076250 0.750347 0.821346 0.027793 0.000860 -557229.000000 0 0 1
-16.008148 -15.842834 20.421099 30.401932 0.780208 0.834290 0.018327 0.018001 -395091.000000 0 0 1
-16.876748 -16.528334 19.586099 30.685921 0.774969 0.878539 0.009392 0.012972 -457917.000000 0 0 1
-16.791848 -17.882634 19.935899 31.610043 0.816846 0.888364 -0.012820 0.012042 -450067.000000 0 0 1
-17.947748 -18.748134 19.438199 32.426190 0.807206 0.927970 0.005382 0.010834 -405526.000000 0 0 1
-18.145848 -18.842734 18.019199 31.764949 0.804237 0.967613 0.016759 0.004514 27819.600000 0 0 1
-18.570448 -17.716034 17.317499 30.961511 0.761856 0.977227 0.020831 0.000722 -903539.000000 0 0 1
-18.094848 -17.685734 15.816199 29.838915 0.773965 1.012134 0.028509 -0.007170 -13857.500000 0 0 1
-18.711748 -18.665934 14.980499 30.380289 0.784172 1.055148 0.028808 -0.012033 -237867.000000 0 0 1
-18.178848 -18.634034 13.752899 29.442146 0.797762 1.084770 0.028118 -0.009717 -188649.000000 0 0 1
-18.699748 -19.857134 12.958599 30.197875 0.815407 1.127275 0.035747 0.006535 -160947.000000 0 0 1
-18.137548 -21.030634 13.406499 30.838165 0.859127 1.121050 0.031993 0.018152 -102266.000000 0 0 1
-18.226848 -22.084234 12.442599 31.220981 0.880798 1.160879 0.019595 0.016030 -431023.000000 0 0 1
-17.728048 -23.434734 12.998099 32.131309 0.923157 1.154331 0.012423 0.020603 -183501.000000 0 0 1
-17.591248 -24.566134 12.154699 32.568139 0.949362 1.188332 0.005728 0.015301 217350.000000 0 0 1
-16.551748 -24.455534 11.187099 31.578232 0.975804 1.208667 -0.001162 0.012921 116476.000000 0 0 1
-16.345548 -25.717184 10.298099 32.165220 1.004619 1.244895 0.002218 0.014040 164361.000000 0 0 1
-17.490648 -25.873984 9.477499 32.637537 0.976364 1.276166 0.008408 0.012928 -18616.200000 0 0 1
-17.335348 -26.993594 8.588899 33.210505 0.999922 1.309203 0.008130 0.015127 393761.000000 0 0 1
-18.401648 -26.942564 7.477099 33.472816 0.971574 1.345517 0.000142 0.005249 302441.000000 0 0 1
-18.129448 -25.856924 6.595899 32.260863 0.959302 1.364889 -0.001937 0.003732 -380587.000000 0 0 1
-19.163248 -25.666004 5.677399 32.530089 0.929450 1.395370 -0.000732 0.003586 -292594.000000 0 0 1
-19.117848 -24.437834 4.720099 31.384378 0.906938 1.419827 -0.002076 0.003737 77134.100000 0 0 1
-20.289048 -24.302034 3.939699 31.902282 0.875152 1.446988 0.002085 0.001531 3813.030000 0 0 1
-20.275248 -23.136834 3.165499 30.926028 0.851220 1.468260 -0.004942 0.005343 298093.000000 0 0 1
-21.219348 -23.128034 1.945099 31.447577 0.828411 1.508905 -0.011400 0.004564 -203250.000000 0 0 1
-20.686248 -24.019434 1.042699 31.716578 0.859819 1.537915 -0.020253 -0.002874 -51185.400000 0 0 1
-21.289048 -23.882834 -0.240101 31.994859 0.842756 1.578301 -0.015057 0.003716 -194423.000000 0 0 1
-20.603148 -24.683134 -1.416001 32.183100 0.875249 1.614809 -0.013490 0.008160 1470170.000000 0 0 1
-19.206348 -24.287534 -1.623801 31.006529 0.901696 1.623190 -0.024472 0.009474 1789110.000000 0 0 1
-18.584748 -24.555034 -2.907201 30.932093 0.922919 1.664922 -0.011633 0.009510 425589.000000 0 0 1
-18.265848 -25.997944 -3.173501 31.931261 0.958335 1.670346 0.004952 0.003675 -92669.400000 0 0 1
-19.434648 -26.628444 -3.672001 33.170215 0.940319 1.681725 0.014248 0.005543 62887.100000 0 0 1
-19.053348 -27.921014 -4.115901 34.052221 0.971979 1.691963 0.017258 -0.003758 897227.000000 0 0 1
-20.226348 -28.792584 -4.750501 35.506131 0.958405 1.704993 0.025755 -0.008118 857823.000000 0 0 1
-20.733348 -28.291334 -5.948201 35.576009 0.938361 1.738782 0.015188 0.004368 17660.800000 0 0 1
-21.567548 -29.149184 -6.716101 36.877366 0.933789 1.753938 0.018220 0.001506 -211943.000000 0 0 1
-21.834048 -28.465384 -8.048301 36.766546 0.916479 1.791486 -0.000410 0.014532 717665.000000 0 0 1
-20.660548 -28.256524 -8.896001 36.116870 0.939451 1.819669 0.004839 0.016587 1157710.000000 0 0 1
-20.968948 -28.262924 -10.283001 36.663740 0.932484 1.855078 0.003515 0.023905 43618.600000 0 0 1
-21.862948 -27.104124 -10.836401 36.469846 0.892027 1.872485 0.001677 0.032920 59496.800000 0 0 1
-21.331648 -25.785554 -10.948901 35.210971 0.879646 1.886990 0.000140 0.029459 -106536.000000 0 0 1
-21.060248 -25.055544 -9.768801 34.157632 0.871819 1.860838 -0.008873 0.032682 -48042.600000 0 0 1
-20.959248 -23.577234 -9.838101 33.044883 0.844114 1.873099 -0.006564 0.014561 463338.000000 0 0 1
-22.169748 -22.960134 -10.265301 33.526734 0.802910 1.881977 -0.021593 0.024609 376696.000000 0 0 1
-21.904148 -21.589134 -10.223701 32.409975 0.778155 1.891726 -0.009032 0.020065 459565.000000 0 0 1
-23.187348 -20.751834 -10.453801 32.826418 0.730026 1.894898 0.004154 0.021325 250728.000000 0 0 1
-23.714948 -20.856734 -11.780501 33.707304 0.721360 1.927827 -0.004436 0.019863 346102.000000 0 0 1
-24.886048 -20.111134 -12.107801 34.210700 0.679678 1.932554 -0.005220 0.011012 148379.000000 0 0 1
-24.937148 -18.560034 -12.246601 33.411308 0.639825 1.946084 -0.001388 0.007450 -717823.000000 0 0 1
-24.032348 -18.052934 -13.230301 32.840571 0.644264 1.985441 -0.000764 0.017083 571589.000000 0 0 1
-23.751448 -16.665534 -12.968401 31.781296 0.611842 1.991115 0.004725 0.001335 149951.000000 0 0 1
-22.763948 -16.312034 -11.812201 30.394208 0.621763 1.969944 -0.004810 -0.002863 -500825.000000 0 0 1
-23.356648 -16.348934 -10.469101 30.371413 0.610705 1.922718 0.017255 -0.005538 20203.900000 0 0 1
-22.488048 -16.743834 -9.466601 29.591973 0.640014 1.896425 0.012461 -0.004009 -423700.000000 0 0 1
-23.296048 -17.157134 -8.227301 30.079255 0.634794 1.847848 0.004472 -0.002586 131298.000000 0 0 1
-23.655348 -18.506534 -8.306601 31.161947 0.663880 1.840621 -0.004990 0.003594 129112.000000 0 0 1
-24.458448 -18.933934 -7.216201 31.761346 0.658764 1.799999 0.002313 0.007629 43283.700000 0 0 1
-24.846448 -20.419734 -7.076301 32.930010 0.687915 1.787375 -0.008980 0.008456 307042.000000 0 0 1
-25.778158 -20.802434 -8.105801 34.102181 0.678982 1.810785 -0.008608 -0.000592 161489.000000 0 0 1
-26.149848 -22.160134 -7.941201 35.184497 0.702999 1.798460 -0.018270 0.013198 38912.400000 0 0 1
-25.167918 -23.279434 -8.389601 35.295065 0.746438 1.810793 -0.027065 0.027157 228031.000000 0 0 1
-25.613698 -24.494334 -7.859801 36.301659 0.763063 1.789038 -0.029751 0.027981 -629987.000000 0 0 1
-24.939148 -25.515234 -8.524001 36.683060 0.796816 1.805309 -0.032024 0.039956 -214359.000000 0 0 1
-25.456968 -26.924144 -8.295601 37.970828 0.813400 1.791046 -0.032242 0.033109 -188251.000000 0 0 1
-25.204948 -27.406904 -6.953701 37.878513 0.827227 1.755422 -0.013593 0.005540 -28760.300000 0 0 1
-25.656848 -28.715744 -6.748701 39.094920 0.841597 1.744289 -0.005460 0.006786 -237539.000000 0 0 1
-25.160298 -29.422164 -5.489101 39.100315 0.863321 1.711647 0.009945 0.007005 -160938.000000 0 0 1
-25.731868 -28.912194 -4.261701 38.938492 0.843533 1.680463 -0.009268 -0.001208 94883.400000 0 0 1
-25.054748 -29.241514 -3.061801 38.628761 0.862356 1.650142 -0.006721 0.007791 -316948.000000 0 0 1
-25.485898 -30.521394 -2.356401 39.832639 0.875065 1.629988 -0.005821 0.012541 -408552.000000 0 0 1
-25.157598 -31.628504 -3.145601 40.535933 0.898861 1.648475 0.014792 -0.009444 -144735.000000 0 0 1
-25.104318 -32.859734 -2.486401 41.426696 0.918405 1.630852 0.017734 -0.012900 -35244.300000 0 0 1
-24.085648 -32.991344 -1.323801 40.869300 0.940180 1.603193 0.031970 -0.017040 486065.000000 0 0 1
-22.749348 -32.605764 -1.677601 39.793003 0.961609 1.612967 0.036744 -0.027861 211834.000000 0 0 1
-21.929948 -32.724924 -0.537301 39.397106 0.980400 1.584435 0.042060 -0.020490 348126.000000 0 0 1
-20.827948 -31.627964 -0.310201 37.871200 0.988448 1.578987 0.037380 -0.016475 197195.000000 0 0 1
-21.200548 -30.300014 -0.090301 36.980566 0.960280 1.573238 0.035091 -0.015361 -547461.000000 0 0 1
-21.387548 -29.665744 -1.296201 36.594586 0.946147 1.606224 0.025150 -0.010551 -117838.000000 0 0 1
-21.965048 -28.260704 -1.060801 35.808603 0.910095 1.600425 0.025375 -0.012365 1072160.000000 0 0 1
-23.337948 -28.291654 -0.577101 36.679839 0.881052 1.586530 0.027327 -0.017527 1150660.000000 0 0 1
-23.867748 -27.008104 -0.235801 36.043900 0.847046 1.577338 0.022337 -0.017724 126925.000000 0 0 1
-23.344348 -26.402894 1.071099 35.259306 0.846803 1.540414 0.026964 -0.008954 -356893.000000 0 0 1
-23.865148 -26.922014 2.284999 36.049430 0.845515 1.507369 0.014515 -0.008567 20138.100000 0 0 1
-23.203048 -26.433634 3.459399 35.342410 0.850391 1.472757 0.025551 -0.006234 330958.000000 0 0 1
-23.851948 -25.165544 4.109299 34.915704 0.812190 1.452831 0.042865 -0.010491 142487.000000 0 0 1
-23.974148 -24.059534 3.167799 34.112401 0.787176 1.477799 0.024779 -0.010210 -311436.000000 0 0 1
-24.867048 -23.090434 3.644999 34.129522 0.748369 1.463793 0.020907 -0.000929 -265081.000000 0 0 1
-25.098958 -21.988834 2.567899 33.467307 0.719444 1.493992 0.035965 -0.004531 721873.000000 0 0 1
-23.964948 -21.113534 2.555499 32.041078 0.722228 1.490955 0.002985 0.002579 693658.000000 0 0 1
-24.193148 -20.196534 1.494999 31.550649 0.695606 1.523394 0.008072 0.002872 303655.000000 0 0 1
-23.047248 -19.146134 1.486799 29.999345 0.693202 1.521215 0.017057 0.010108 1323650.000000 0 0 1
-21.770548 -19.706434 1.120299 29.386313 0.735674 1.532664 0.005930 0.006890 1153780.000000 0 0 1
-20.614148 -18.901934 1.413899 28.004024 0.742096 1.520286 -0.000229 0.010260 417672.000000 0 0 1
-19.384048 -19.765134 1.094199 27.705579 0.795132 1.531292 -0.024304 0.010215 -639359.000000 0 0 1
-19.081348 -19.957334 -0.269201 27.612778 0.807833 1.580546 -0.026091 0.003852 -846775.000000 0 0 1
-18.003648 -20.782934 -0.448101 27.500227 0.856932 1.587092 -0.010912 0.008517 -859669.000000 0 0 1
-17.769848 -21.113934 -1.941401 27.664685 0.871189 1.641030 -0.003531 0.005941 -142226.000000 0 0 1
-17.123548 -20.087734 -2.625201 26.525924 0.864889 1.669926 -0.018539 0.007900 -237115.000000 0 0 1
-16.907048 -20.522634 -3.967301 26.884313 0.881696 1.718907 -0.001046 0.007832 582770.000000 0 0 1
-16.027448 -19.411534 -4.690901 25.606470 0.880600 1.755029 -0.003417 0.012389 1243350.000000 0 0 1
-14.627048 -19.404034 -4.384401 24.691903 0.924858 1.749307 0.003141 0.011220 561107.000000 0 1 0
-13.944348 -18.633234 -5.339601 23.877890 0.928346 1.796324 0.000787 0.008514 -562983.000000 0 1 0
-12.434148 -18.772834 -5.384801 23.152180 0.985790 1.805529 0.004113 0.013072 -425690.000000 0 1 0
-11.908448 -20.008534 -5.846401 24.006936 1.033937 1.816800 0.015471 0.008938 423670.000000 0 1 0
-10.481748 -19.942134 -5.956001 23.302998 1.086873 1.829254 0.003484 0.015008 746085.000000 0 1 0
-9.836848 -21.318434 -6.111101 24.260766 1.138482 1.825431 0.011912 0.017479 -13161.000000 0 1 0
-10.266548 -22.011534 -7.272401 25.353451 1.134374 1.861724 0.033254 0.008575 -171134.000000 0 0 1
-9.468948 -23.156234 -7.441701 26.100787 1.182628 1.859922 0.033427 0.013566 -232864.000000 0 0 1
-9.886248 -23.994334 -8.695901 27.369412 1.179967 1.894124 0.038709 -0.004795 -193846.000000 0 0 1
-9.788848 -23.327334 -9.979001 27.194973 1.173483 1.946517 0.037623 0.003485 -201901.000000 0 0 1
-10.149348 -24.254734 -10.952601 28.482642 1.174488 1.965501 0.051848 -0.000937 194323.000000 0 0 1
-11.157148 -23.569434 -11.920701 28.672344 1.128676 1.999570 0.059434 -0.006464 465626.000000 0 0 1
-10.366448 -22.731734 -12.748701 28.048608 1.142936 2.042632 0.037718 -0.001978 53395.800000 0 0 1
-11.124348 -22.151334 -13.767301 28.354388 1.105392 2.077782 0.044510 -0.002213 -306634.000000 0 0 1
-10.401048 -21.019334 -14.572701 27.610828 1.111291 2.126792 0.039057 0.000768 67556.000000 0 0 1
-10.105148 -19.968934 -13.623501 26.200614 1.102326 2.117611 0.042767 -0.002526 -131068.000000 0 0 1
-10.096448 -18.749534 -14.270101 25.634334 1.076832 2.161179 0.033014 0.005709 41116.400000 0 0 1
-9.656248 -17.609634 -13.302601 24.089449 1.069221 2.155817 0.019232 0.000541 -322190.000000 0 1 0
-10.679948 -17.301434 -12.345201 23.786654 1.017763 2.116473 0.013041 -0.003107 505490.000000 0 1 0
-10.275348 -16.268434 -11.437801 22.384549 1.007456 2.107108 0.006124 -0.008636 65698.400000 0 1 0
-9.961448 -14.830234 -11.915001 21.474021 0.979318 2.158987 0.010673 -0.004044 -177533.000000 0 1 0
-11.050848 -14.089234 -12.403701 21.782552 0.905673 2.176612 0.011933 -0.002384 -261039.000000 0 1 0
-11.200448 -14.251634 -13.810001 22.787612 0.904708 2.221858 0.015917 -0.001543 -978310.000000 0 1 0
-12.514148 -13.731734 -14.346201 23.472919 0.831756 2.228348 0.016285 -0.010797 -1036950.000000 0 1 0
-12.610748 -12.310234 -14.236001 22.654725 0.773340 2.250278 0.012948 0.010079 -492008.000000 0 1 0
-13.775748 -11.828934 -14.851301 23.457538 0.709511 2.256366 0.018730 0.008105 -401117.000000 0 1 0
-14.172748 -10.351234 -14.424701 22.717545 0.630814 2.258751 0.014981 0.002906 445802.000000 0 1 0
-13.182148 -9.284934 -14.548501 21.717227 0.613644 2.304879 0.013226 0.007335 725473.000000 0 1 0
-13.152248 -8.638934 -15.782301 22.286629 0.581169 2.357672 0.006926 0.002899 -18084.500000 0 1 0
-12.208948 -7.378534 -15.774301 21.268046 0.543615 2.406383 0.008793 0.011829 445635.000000 0 1 0
-10.859248 -7.783134 -15.876601 20.750107 0.621865 2.442045 0.002009 0.011605 -338334.000000 0 1 0
-9.966748 -6.734234 -15.750101 19.817963 0.594210 2.489373 -0.003833 0.017507 -205778.000000 0 1 0
11.260352 22.159666 15.942499 29.529808 1.100653 1.000504 0.017949 0.021553 -540134.000000 0 0 1
11.884652 21.922766 17.157699 30.269444 1.074027 0.968141 0.023277 0.016965 -267680.000000 0 0 1
12.160652 20.533366 17.275399 29.460821 1.036103 0.944207 0.023554 0.010414 -589122.000000 0 0 1
13.415852 20.363766 18.130499 30.387218 0.988253 0.931478 0.020627 0.010875 -971491.000000 0 0 1
14.543652 20.898266 17.514599 30.903341 0.962810 0.968235 0.010138 0.013627 -1538710.000000 0 0 1
15.540552 20.872366 18.453199 31.901175 0.930791 0.953970 0.016872 0.008558 246023.000000 0 0 1
16.955952 21.436066 18.035199 32.745650 0.901567 0.987514 0.017486 0.006949 184501.000000 0 0 1
17.136552 22.825766 18.276099 33.892370 0.926812 1.001263 0.020964 0.010198 235468.000000 0 0 1
18.370152 23.393466 17.842499 34.685321 0.905103 1.030476 0.019097 0.007518 -8462.970000 0 0 1
19.635252 23.005066 18.571799 35.492082 0.864263 1.020117 0.003866 0.004261 -1101410.000000 0 0 1
20.025152 21.666766 18.298899 34.717505 0.824753 1.015636 0.010005 0.001144 -85200.000000 0 0 1
21.274152 21.415266 18.909799 35.619989 0.788704 1.011162 0.016203 0.000272 -121795.000000 0 0 1
21.750452 19.977666 18.743099 34.978465 0.742939 1.005286 0.004705 -0.006582 -214636.000000 0 0 1
21.930852 19.548966 17.403999 34.147086 0.728038 1.035987 -0.000560 -0.007896 139407.000000 0 0 1
21.536152 18.173466 17.230499 33.029847 0.700918 1.021996 -0.001874 -0.007982 -95619.500000 0 0 1
22.448152 17.101066 17.871999 33.403208 0.651012 1.006243 -0.013265 -0.002135 -159755.000000 0 0 1
23.610052 16.907366 17.128899 33.714874 0.621456 1.037875 -0.020192 -0.000861 246939.000000 0 0 1
24.579152 15.958466 17.615299 34.192193 0.575861 1.029573 -0.029574 -0.004100 580342.000000 0 0 1
25.818652 15.769466 16.675799 34.545059 0.548307 1.067032 -0.017415 -0.010043 -749527.000000 0 0 1
26.545852 16.946666 16.538199 35.572233 0.568172 1.087253 -0.019284 -0.003132 -58597.700000 0 0 1
27.727852 17.053866 17.315599 36.871372 0.551408 1.081934 -0.026654 -0.012821 411911.000000 0 0 1
28.930552 16.195366 16.810199 37.173236 0.510337 1.101552 -0.014353 -0.021568 -587084.000000 0 0 1
29.099952 16.470366 15.461599 36.839397 0.515039 1.137678 -0.002078 -0.023116 -101750.000000 0 0 1
28.950752 15.218566 14.754099 35.880833 0.483973 1.147029 0.022035 -0.032384 -109343.000000 0 0 1
28.199252 15.438866 13.432799 34.842452 0.500916 1.175015 0.004455 -0.019017 -228297.000000 0 0 1
28.990052 16.128166 12.470699 35.440925 0.507694 1.211225 -0.004205 -0.011791 136428.000000 0 0 1
28.412052 16.273066 11.146699 34.587660 0.520143 1.242666 -0.015497 -0.007800 1393090.000000 0 0 1
27.005752 17.028566 10.974799 33.759871 0.562583 1.239696 -0.022882 -0.000332 1063000.000000 0 0 1
26.937252 18.443366 11.210199 34.517269 0.600369 1.240027 -0.038509 0.004979 -216961.000000 0 0 1
27.382452 18.939766 12.434399 35.540507 0.605117 1.213369 -0.033786 -0.001858 -806235.000000 0 0 1
26.582152 18.631466 13.679399 35.225960 0.611331 1.171975 -0.038874 -0.004575 -753516.000000 0 0 1
25.403852 19.369366 13.799699 34.798846 0.651427 1.163034 -0.035210 0.010565 -326781.000000 0 0 1
24.732452 19.263766 15.039299 34.770208 0.661733 1.123495 -0.028219 0.009298 153395.000000 0 0 1
25.392752 19.945266 16.334499 36.185927 0.665819 1.102457 -0.014151 0.000618 15359.000000 0 0 1
25.517852 21.314866 16.311299 37.034345 0.695893 1.114711 -0.021238 0.000581 394704.000000 0 0 1
24.277952 22.008166 16.468999 36.674326 0.736399 1.105083 -0.003783 0.001791 160308.000000 0 0 1
24.332352 23.536966 16.303999 37.574891 0.768784 1.121972 -0.009104 0.004955 -202931.000000 0 0 1
24.163052 24.005966 15.020299 37.225647 0.782137 1.155465 0.011240 0.002650 128144.000000 0 0 1
24.077652 25.428566 14.894499 38.055109 0.812679 1.168652 0.005885 0.004750 -329114.000000 0 0 1
24.049352 25.872566 13.435399 37.792472 0.821903 1.207342 0.010362 0.001494 -433065.000000 0 0 1
22.875552 25.437366 12.819499 36.533409 0.838374 1.212266 0.023732 0.003491 -214059.000000 0 0 1
22.657552 26.102866 11.629899 36.468874 0.855939 1.246228 0.023205 -0.010182 -426609.000000 0 0 1
21.916252 25.259866 10.630999 35.091324 0.856155 1.263007 0.020712 -0.006684 -907853.000000 0 0 1
20.563552 25.104166 11.042199 34.278403 0.884500 1.242815 0.030200 -0.005599 58682.800000 0 0 1
20.069652 23.794166 10.751099 32.932345 0.870106 1.238240 0.029740 0.005333 66638.800000 0 0 1
19.856452 23.572866 9.248699 32.179141 0.870764 1.279272 0.028986 0.023334 -1100410.000000 0 0 1
18.726852 24.194266 8.711299 31.811070 0.912099 1.293408 0.022722 0.025880 -451826.000000 0 0 1
18.789252 24.393666 7.299099 31.644332 0.914460 1.338040 0.021601 0.006405 33484.000000 0 0 1
17.495752 24.846666 6.553899 31.087163 0.957291 1.358379 0.019046 0.009670 -957088.000000 0 0 1
16.885852 23.713966 5.981299 29.719692 0.952020 1.368155 0.047817 0.017020 677877.000000 0 0 1
15.978052 23.947366 4.850799 29.194258 0.982414 1.403866 0.050946 0.010460 585920.000000 0 0 1
14.769652 24.828566 5.165999 29.347706 1.034161 1.393847 0.013783 0.010709 -1234140.000000 0 0 1
15.032452 26.151866 4.833299 30.549230 1.049102 1.411915 0.026711 -0.006546 965539.000000 0 0 1
13.824952 26.856566 5.157899 30.643243 1.095403 1.401670 0.019587 -0.011266 386544.000000 0 0 1
13.825952 28.211566 4.457999 31.732052 1.115115 1.429841 0.010388 -0.014547 -458367.000000 0 0 1
13.416552 28.162866 3.126499 31.351648 1.126213 1.470907 0.007956 -0.007011 231462.000000 0 0 1
13.029052 29.402766 2.614299 32.266288 1.153676 1.489685 0.004049 -0.004853 -187568.000000 0 0 1
12.572552 29.257366 1.132699 31.864487 1.164932 1.535241 0.017208 -0.011915 -346542.000000 0 0 1
13.638352 28.980266 0.276399 32.030249 1.130937 1.562167 0.028778 -0.007389 -342161.000000 0 0 1
13.901252 27.573066 0.091399 30.879234 1.103826 1.567836 0.013853 -0.000701 1071390.000000 0 0 1
15.083752 27.345566 -0.945801 31.244104 1.066727 1.601072 0.024263 -0.000257 1197660.000000 0 0 1
14.556752 27.739366 -2.216101 31.405135 1.087531 1.641420 0.029481 0.000762 612877.000000 0 0 1
15.568052 27.660866 -3.227301 31.904595 1.058165 1.672124 0.025276 0.008144 462981.000000 0 0 1
14.930152 28.041466 -4.614501 32.101820 1.081542 1.715042 0.034539 0.017779 -343323.000000 0 0 1
13.945852 27.097666 -4.943101 30.874010 1.095496 1.731594 0.039389 0.006930 -442412.000000 0 0 1
13.411652 27.439166 -6.220101 31.168411 1.116167 1.771710 0.033750 0.011634 207113.000000 0 0 1
12.163052 26.639166 -6.617901 30.023018 1.142480 1.793049 0.009452 0.004017 -115755.000000 0 0 1
12.443752 25.296166 -6.983801 29.043354 1.113632 1.813637 0.035299 -0.007356 -357065.000000 0 0 1
11.282652 24.584966 -7.370901 28.036565 1.140545 1.836826 0.019816 0.019746 -212474.000000 0 0 1
11.425652 23.160466 -7.942901 27.019296 1.112502 1.869176 0.008691 0.003203 -470030.000000 0 0 1
11.976152 23.041366 -9.226201 27.558221 1.091460 1.912178 0.010489 0.005972 24519.400000 0 0 1
11.877152 21.715566 -9.751501 26.603088 1.070304 1.946100 0.010704 -0.000916 -369456.000000 0 0 1
12.352052 21.578266 -11.204401 27.271475 1.050895 1.994179 0.012882 0.001820 85684.000000 0 0 1
11.756452 20.377666 -11.661001 26.257235 1.047514 2.030973 0.018263 -0.005471 -151281.000000 0 0 1
11.771652 20.082566 -13.076401 26.699691 1.040613 2.082609 0.018793 -0.001126 -223680.000000 0 0 1
13.115852 19.612166 -13.666401 27.265970 0.981345 2.095811 0.001517 0.001018 175036.000000 0 0 1
14.086952 20.643266 -13.618001 28.461142 0.971981 2.069716 -0.000853 0.007248 -512666.000000 0 0 1
15.322252 20.247366 -14.170201 29.077858 0.922987 2.079814 0.002021 0.011707 724527.000000 0 0 1
16.422452 21.360766 -13.859801 30.299725 0.915363 2.045892 -0.002373 0.020183 332637.000000 0 0 1
16.489052 22.572566 -14.619301 31.545737 0.939898 2.052661 -0.000886 0.023366 56311.300000 0 0 1
15.346152 23.424966 -14.590701 31.577238 0.990831 2.051117 0.007922 0.025009 293659.000000 0 0 1
15.687752 24.787666 -15.321401 33.095004 1.006547 2.052119 0.010849 0.026172 427070.000000 0 0 1
16.079052 24.675966 -16.679901 33.847574 0.993292 2.086095 -0.010494 0.028251 -39292.300000 0 0 1
14.906552 24.822266 -17.448201 33.805175 1.029986 2.113134 -0.015407 0.032096 10653.700000 0 0 1
15.119252 24.741666 -18.962201 34.645445 1.022266 2.149957 -0.018991 0.028887 -10659.700000 0 0 1
15.530952 23.522566 -19.447401 34.245043 0.987244 2.174736 -0.023345 0.031217 -21033.400000 0 0 1
15.574852 23.528166 -20.831301 35.072692 0.986055 2.206752 -0.024509 0.030296 -434238.000000 0 0 1
15.883152 22.125166 -21.383001 34.627016 0.948173 2.236387 -0.005784 0.020003 -481988.000000 0 0 1
14.861352 21.165566 -21.514201 33.640776 0.958630 2.264680 0.008640 0.022231 -236077.000000 0 0 1
15.371252 20.011566 -22.093101 33.538683 0.915800 2.289932 0.014517 0.009802 466004.000000 0 0 1
14.302452 18.846566 -22.178601 32.429054 0.921630 2.323907 0.015185 0.003795 -11628.700000 0 0 1
13.888552 18.359966 -20.925001 31.110061 0.923175 2.308529 0.015739 0.001819 485920.000000 0 0 1
13.079052 17.173066 -21.118601 30.198859 0.919911 2.345239 0.011449 -0.003093 30010.000000 0 0 1
11.579852 17.390566 -21.325401 29.854606 0.983346 2.366432 0.006220 -0.000140 -899617.000000 0 0 1
10.756152 17.302466 -20.196301 28.687292 1.014607 2.351832 0.003082 0.007661 1138030.000000 0 0 1
9.374952 17.547266 -20.568201 28.615505 1.080111 2.372840 -0.002761 0.015885 1367800.000000 0 0 1
8.315952 17.273366 -19.477201 27.329207 1.122113 2.364119 0.004214 0.005597 -144265.000000 0 0 1
8.278652 15.908266 -19.153501 26.238628 1.090963 2.389079 -0.003536 0.000901 -464515.000000 0 0 1
7.132952 15.433666 -18.529401 25.147878 1.137869 2.399148 0.006896 0.000325 -489317.000000 0 0 1
7.163252 15.594666 -16.982101 24.143271 1.140203 2.350950 0.003410 -0.009178 -29131.800000 0 1 0
7.060852 16.970766 -16.593601 24.763080 1.176522 2.305132 0.007369 -0.009882 -42861.400000 0 1 0
6.441352 17.110366 -15.323201 23.854897 1.210747 2.268357 0.012328 -0.018030 -65431.700000 0 1 0
6.121552 18.534766 -14.881501 24.545265 1.251802 2.222181 0.019313 -0.016524 -28965.500000 0 1 0
7.231752 19.400766 -14.668901 25.374487 1.213994 2.187190 0.015255 -0.015593 27317.200000 0 0 1
7.626952 20.138566 -15.785101 26.700218 1.208765 2.203339 0.026797 -0.001132 -425270.000000 0 0 1
8.739552 21.141566 -15.458401 27.609921 1.178807 2.165044 0.013348 0.016655 -599184.000000 0 0 1
8.542452 22.404766 -14.786101 28.170477 1.206533 2.123370 0.027677 0.016562 -234388.000000 0 0 1
8.232452 22.277866 -13.437001 27.287901 1.216825 2.085660 0.011277 0.002858 -105911.000000 0 0 1
7.978752 23.645266 -12.779401 28.036978 1.245358 2.044073 0.028629 0.003575 -568705.000000 0 0 1
6.725452 24.176166 -13.144701 28.328464 1.299471 2.053313 0.032413 0.004749 -72266.200000 0 0 1
6.032352 25.000566 -12.229301 28.477594 1.334033 2.014664 0.024453 0.004561 397498.000000 0 0 1
5.477452 24.250866 -10.949001 27.165927 1.348658 1.985634 0.013443 0.000873 115426.000000 0 0 1
6.454452 24.089966 -9.926501 26.842537 1.309014 1.949595 -0.000268 0.000898 463958.000000 0 0 1
5.749452 23.594566 -8.808801 25.833209 1.331778 1.918763 0.004475 -0.007610 352770.000000 0 0 1
6.712052 23.474766 -7.612001 25.574574 1.292301 1.873015 -0.010497 -0.008539 171406.000000 0 0 1
6.929052 24.801366 -7.008801 26.687877 1.298361 1.836534 -0.021207 -0.006598 54508.000000 0 0 1
7.836552 24.771466 -5.927801 26.649125 1.264404 1.795112 -0.012022 -0.005608 -79289.900000 0 0 1
8.006652 26.144666 -5.205701 27.834319 1.273621 1.758929 -0.021641 -0.001637 -121100.000000 0 0 1
8.616752 27.042666 -6.086801 29.027630 1.262332 1.782054 -0.000262 0.000001 -56703.300000 0 0 1
8.969252 28.205466 -5.355601 30.077869 1.262911 1.749809 -0.006403 -0.000069 3057.770000 0 0 1
9.094352 29.477466 -6.234001 31.472067 1.271543 1.770196 -0.005341 0.006037 -696335.000000 0 0 1
10.175752 29.484166 -7.084701 31.985230 1.238470 1.794148 0.004308 0.008594 -823876.000000 0 0 1
10.212052 30.634066 -7.838301 33.229068 1.249025 1.808927 0.005199 0.007641 -435792.000000 0 0 1
11.430052 30.783866 -8.739701 33.980507 1.215273 1.830917 -0.001871 0.008172 151691.000000 0 0 1
12.604252 31.054266 -7.969601 34.449225 1.185233 1.804255 0.020873 0.014640 400741.000000 0 0 1
13.694352 31.423966 -8.837401 35.399160 1.159819 1.823115 0.018194 0.011556 1294540.000000 0 0 1
15.049752 31.681366 -8.101301 35.997709 1.127320 1.797791 0.016653 0.011986 667817.000000 0 0 1
15.808052 30.576466 -7.675601 35.266551 1.093641 1.790198 0.021668 0.020200 -467494.000000 0 0 1
17.006752 31.011666 -7.082201 36.070910 1.069183 1.768421 0.030214 0.025376 204505.000000 0 0 1
17.996852 29.862666 -6.794101 35.522180 1.028428 1.763246 0.031838 0.018788 -202634.000000 0 0 1
17.604052 29.051866 -5.759001 34.454022 1.026011 1.738735 0.029117 0.015827 225956.000000 0 0 1
18.567752 28.037566 -5.333101 34.048619 0.985861 1.728076 0.019321 0.019228 -28163.800000 0 0 1
18.674552 26.853866 -6.302401 33.310497 0.963155 1.761145 0.016258 0.030963 72289.100000 0 0 1
19.345452 27.075966 -7.548301 34.122299 0.950413 1.793855 0.028858 0.029430 298510.000000 0 0 1
19.395452 25.968966 -8.412001 33.486303 0.929301 1.824724 0.021344 0.022265 -516839.000000 0 0 1
20.088852 26.290066 -9.780501 34.501996 0.918317 1.858214 0.031773 0.011472 45427.500000 0 0 1
21.461052 26.542966 -9.723901 35.491689 0.890870 1.848322 0.018953 0.011002 293069.000000 0 0 1
22.336252 25.378666 -9.622701 35.150835 0.849074 1.848091 0.026697 0.006730 550351.000000 0 0 1
23.858452 25.667666 -9.667501 36.352653 0.821912 1.839972 0.013782 0.005225 251294.000000 0 0 1
24.383752 26.140466 -10.888701 37.369173 0.820154 1.866467 0.025471 0.007354 -440493.000000 0 0 1
25.775952 26.013266 -10.744601 38.164593 0.789980 1.856188 0.011853 0.017773 -640723.000000 0 0 1
26.527752 26.165766 -12.054101 39.162102 0.778529 1.883676 0.007355 0.009641 -462958.000000 0 0 1
26.554752 27.446666 -12.596901 40.213881 0.801913 1.889407 0.016135 0.008200 -63896.200000 0 0 1
27.021952 27.529466 -13.932301 41.014222 0.794701 1.917388 0.008440 0.006799 -127344.000000 0 0 1
26.535952 28.747666 -14.722401 41.801126 0.825384 1.930718 0.015982 -0.002391 -361012.000000 0 0 1
26.900052 30.030366 -14.348101 42.793734 0.840328 1.912704 0.019768 -0.008518 -92398.400000 0 0 1
26.849752 30.952266 -15.418401 43.779893 0.856255 1.930696 0.025396 0.000371 -144390.000000 0 0 1
27.459052 32.339766 -15.077201 45.024238 0.866837 1.912262 0.013438 -0.004657 92679.600000 0 0 1
28.828352 32.306566 -14.720301 45.732650 0.842231 1.898508 0.018006 -0.002102 113200.000000 0 0 1
29.202952 33.638966 -14.445901 46.830294 0.855871 1.884384 0.012196 -0.009882 -169070.000000 0 0 1
14.471952 -33.254831 -29.615797 46.823248 -1.160332 2.255575 -0.004114 0.004791 90444.400000 0 0 1
15.393052 -33.527731 -28.560857 46.655946 -1.140389 2.229584 -0.005920 0.003077 380864.000000 0 0 1
15.518552 -32.394531 -27.684387 45.350373 -1.124050 2.227432 0.005271 0.001392 -1075620.000000 0 0 1
16.535252 -32.592231 -26.541557 45.167713 -1.101296 2.198913 0.009499 0.003791 289933.000000 0 0 1
17.909352 -32.470531 -26.852467 45.783569 -1.066758 2.197538 0.020669 -0.004482 395735.000000 0 0 1
18.464852 -33.370231 -27.871707 47.237221 -1.065398 2.201901 0.009237 -0.000941 187298.000000 0 0 1
20.020852 -33.086831 -27.923607 47.700112 -1.026635 2.196169 0.018046 0.003158 921970.000000 0 0 1
20.370452 -31.803831 -28.431927 47.273813 -1.001126 2.216087 -0.009210 -0.004789 373402.000000 0 0 1
21.752352 -31.596331 -28.150577 47.580961 -0.967867 2.203882 -0.010773 0.007373 274621.000000 0 0 1
22.440052 -30.401531 -28.845467 47.538089 -0.934940 2.222808 -0.015964 0.011793 -228832.000000 0 0 1
22.758352 -30.571331 -30.203117 48.628974 -0.930867 2.240933 -0.021353 0.011177 94439.300000 0 0 1
23.258952 -29.388531 -30.817187 48.521785 -0.901303 2.258961 -0.022168 0.000127 50090.000000 0 0 1
23.581852 -29.367231 -32.347447 49.647712 -0.894230 2.280408 -0.015348 -0.001166 -179207.000000 0 0 1
24.576252 -30.247831 -32.739997 50.900204 -0.888482 2.269492 -0.009198 -0.006523 -478944.000000 0 0 1
24.470252 -30.445031 -34.133008 51.872491 -0.893772 2.288979 -0.010230 -0.008989 519370.000000 0 0 1
25.726752 -31.216731 34.616854 53.241681 -0.881512 0.862971 -0.009416 -0.003764 981891.000000 0 0 1
26.937752 -30.469131 -34.589571 53.389595 -0.846836 2.275583 -0.002836 -0.015405 1104900.000000 0 0 1
28.123252 -31.184331 34.244762 54.185639 -0.836966 0.886678 0.003447 -0.006987 935075.000000 0 0 1
29.448952 -30.440131 34.308944 54.506384 -0.801947 0.889953 0.015032 -0.015366 -353320.000000 0 0 1
29.435252 -29.296931 33.486794 53.348941 -0.783043 0.892209 0.007000 -0.016210 -292680.000000 0 0 1
30.705452 -28.741531 33.222549 53.596997 -0.752374 0.902234 0.005237 -0.017052 -255356.000000 0 0 1
30.930752 -27.538431 32.284459 52.510598 -0.727444 0.908641 -0.000034 -0.024814 -420025.000000 0 0 1
32.172352 -27.499231 31.624419 52.833434 -0.707244 0.929084 -0.009939 -0.020190 182796.000000 0 0 1
32.187152 -26.604931 30.525949 51.726866 -0.690733 0.939568 0.004016 -0.015002 -354698.000000 0 0 1
32.938252 -27.060631 29.265929 51.707840 -0.687748 0.969167 0.001748 -0.003916 -156871.000000 0 0 1
32.316252 -28.125831 28.534299 51.474350 -0.716179 0.983226 0.000794 -0.011055 -422061.000000 0 0 1
31.211652 -27.709931 27.820709 50.159738 -0.726038 0.982863 0.003342 -0.014328 -926515.000000 0 0 1
30.654652 -28.889731 26.992429 50.029146 -0.755766 1.000913 -0.010306 -0.001322 -205233.000000 0 0 1
29.368252 -28.625531 26.494329 48.824837 -0.772592 0.997219 0.000465 -0.000215 -155409.000000 0 0 1
28.826652 -29.693331 25.777099 48.755805 -0.800207 1.013730 0.001427 0.008373 62849.700000 0 0 1
27.471052 -29.365131 25.103689 47.404270 -0.818711 1.012707 0.001254 0.005148 172942.000000 0 0 1
26.390252 -29.369131 26.019249 47.286283 -0.838771 0.988133 0.005139 0.007852 -559730.000000 0 0 1
25.218852 -29.004331 25.369029 46.052463 -0.855098 0.987387 0.008797 0.016166 -507038.000000 0 0 1
24.046252 -28.739531 26.323429 45.794167 -0.874077 0.958411 0.017119 0.016130 -215138.000000 0 0 1
24.148452 -27.560031 27.058299 45.550571 -0.851280 0.934740 0.011187 0.011621 477996.000000 0 0 1
23.059252 -27.423631 27.976789 45.458611 -0.871636 0.907859 0.019329 0.001882 320042.000000 0 0 1
23.179652 -26.261931 28.977079 45.460492 -0.847659 0.879661 0.023967 0.010997 161231.000000 0 0 1
21.919852 -26.170331 29.638119 45.208232 -0.873555 0.855831 0.036213 0.006636 545815.000000 0 0 1
21.804952 -25.119131 30.580569 45.184044 -0.855910 0.827389 0.035133 0.004879 -357891.000000 0 0 1
21.353752 -23.709531 30.059299 43.837039 -0.837628 0.815224 0.039658 0.009012 -251941.000000 0 0 1
22.097552 -23.167831 28.949549 43.163950 -0.809038 0.835660 0.047230 0.009137 221814.000000 0 0 1
21.814452 -21.781931 28.652249 42.086508 -0.784652 0.821950 0.062427 0.017063 -34098.300000 0 0 1
22.471752 -20.733031 29.554849 42.524432 -0.745176 0.802364 0.059541 0.013012 131082.000000 0 0 1
21.799252 -20.618931 30.817469 43.012371 -0.757580 0.772054 0.064331 0.011313 407887.000000 0 0 1
22.561152 -19.758831 31.656929 43.607088 -0.719277 0.758370 0.059336 0.000693 170316.000000 0 0 1
21.971652 -19.462231 33.082239 44.226309 -0.724908 0.725720 0.073655 -0.010003 66141.200000 0 0 1
22.218752 -20.478431 34.013371 45.496686 -0.744661 0.726354 0.048247 -0.010680 365016.000000 0 0 1
21.450452 -20.093031 -34.105697 45.022776 -0.752735 2.430304 0.051445 -0.016868 161685.000000 0 0 1
21.372952 -21.211431 -33.073537 44.727919 -0.781605 2.403032 0.029682 -0.010161 -323451.000000 0 0 1
22.593852 -21.442331 -32.437477 44.971609 -0.759255 2.376456 0.021375 -0.004521 -345785.000000 0 0 1
22.385052 -22.456631 -31.555757 44.734289 -0.786994 2.353790 0.009278 -0.008239 109850.000000 0 0 1
23.661352 -22.797231 -30.759017 45.007671 -0.766800 2.323230 -0.001620 -0.005252 59396.300000 0 0 1
24.693152 -23.474131 -31.432367 46.354938 -0.760095 2.315944 -0.000053 -0.006170 -375758.000000 0 0 1
25.605252 -23.965331 -30.472587 46.460139 -0.752328 2.286153 -0.007357 -0.007910 751727.000000 0 0 1
26.914152 -24.654731 -31.022487 47.902213 -0.741613 2.275255 -0.010836 -0.005110 771441.000000 0 0 1
27.861952 -23.870631 -31.752067 48.521017 -0.708398 2.284183 -0.007049 -0.004321 373321.000000 0 0 1
27.585252 -23.707731 -33.162727 49.221632 -0.709946 2.310059 0.002910 -0.006673 -143476.000000 0 0 1
27.968752 -24.934731 -34.023287 50.612014 -0.728111 2.308023 -0.002513 -0.015206 -132252.000000 0 0 1
27.035152 -25.967331 -33.785597 50.464525 -0.765254 2.304321 0.010604 -0.024329 -198762.000000 0 0 1
27.307252 -27.235731 -34.431436 51.701014 -0.784087 2.299593 0.010427 -0.023039 -120850.000000 0 0 1
26.766052 -27.419931 33.366117 50.809171 -0.797465 0.854369 0.008753 -0.022483 -352654.000000 0 0 1
27.261952 -26.466531 32.458049 49.972154 -0.770595 0.863840 -0.003350 -0.027501 -211914.000000 0 0 1
26.982252 -26.739931 31.106009 49.098366 -0.780888 0.884670 -0.004690 -0.015116 -592848.000000 0 0 1
28.125052 -26.231031 30.192669 48.894609 -0.750568 0.905230 -0.012301 -0.013976 -98372.400000 0 0 1
28.427552 -24.864031 30.197689 48.355415 -0.718629 0.896312 -0.015951 -0.015153 -144422.000000 0 0 1
28.999052 -24.420431 31.362279 49.202591 -0.699896 0.879663 -0.010189 -0.012229 -1897490.000000 0 0 1
29.310852 -22.892431 31.447359 48.704474 -0.663062 0.868887 -0.019456 -0.007736 959505.000000 0 0 1
30.627852 -22.381531 31.213119 49.124912 -0.631072 0.882292 -0.016887 -0.021730 495754.000000 0 0 1
31.676252 -22.903731 32.008009 50.522059 -0.626033 0.884670 -0.020601 -0.017865 -85898.600000 0 0 1
33.046152 -22.301431 31.557049 50.845347 -0.593652 0.901228 -0.023299 -0.016740 89937.100000 0 0 1
33.320352 -22.832631 30.279289 50.481781 -0.600755 0.927537 -0.015639 -0.020104 690325.000000 0 0 1
34.450552 -22.187631 29.657859 50.583793 -0.572176 0.944298 -0.026094 -0.015348 567239.000000 0 0 1
34.732852 -22.692131 28.177519 50.152531 -0.578715 0.974192 -0.011825 -0.012799 -15780.500000 0 0 1
-34.458410 -23.989431 28.085829 50.514241 0.608161 0.981233 -0.009466 -0.007316 458459.000000 0 0 1
-34.141410 -24.256631 26.747079 49.693322 0.617722 1.002445 -0.014194 0.008590 -368532.000000 0 0 1
-33.921110 -25.762831 26.495089 50.163282 0.649549 1.014344 -0.022878 0.001457 -307834.000000 0 0 1
34.668652 -26.483231 26.397399 50.991172 -0.652335 1.026653 -0.010574 -0.002055 115137.000000 0 0 1
34.737952 -27.781531 25.835309 51.439303 -0.674586 1.044599 -0.004975 0.005768 -41148.700000 0 0 1
-34.286310 -28.879531 26.618059 52.135395 0.700010 1.034965 -0.011807 -0.001412 -610596.000000 0 0 1
-34.142110 -30.100431 25.872639 52.355640 0.722568 1.053915 -0.005856 0.000290 645279.000000 0 0 1
-33.270910 -30.997731 26.603519 52.683583 0.750043 1.041452 0.000641 -0.005406 1306650.000000 0 0 1
-31.747710 -30.628131 26.746619 51.588575 0.767451 1.025747 0.009459 -0.001816 -22592.600000 0 0 1
-31.114110 -30.485131 25.509769 50.479494 0.775188 1.041010 -0.001753 0.005543 -287005.000000 0 0 1
-29.922710 -29.759631 25.472249 49.293404 0.782666 1.027749 -0.017746 0.010819 -307179.000000 0 0 1
-29.337410 -29.573931 24.084299 48.118130 0.789413 1.046592 -0.025134 0.013436 -282588.000000 0 0 1
-29.006810 -30.795431 23.451799 48.370864 0.815298 1.064624 -0.020807 0.007910 403160.000000 0 0 1
-28.630910 -30.702831 22.091899 47.438853 0.820304 1.086380 -0.020818 0.003857 -1025890.000000 0 0 1
-28.868410 -32.043331 21.374399 48.135486 0.837474 1.110686 -0.025098 0.008643 -143467.000000 0 0 1
-28.086910 -33.186831 21.655499 48.571606 0.868439 1.108676 -0.021784 0.001647 -20010.700000 0 0 1
-26.707910 -32.930231 21.490799 47.534903 0.889357 1.101672 -0.012719 0.004336 -641428.000000 0 0 1
-25.809310 -34.176131 21.472299 47.908120 0.923985 1.106048 -0.015674 0.017196 -420573.000000 0 0 1
-26.016910 34.395066 20.412199 47.713289 -0.923203 1.128728 -0.026853 0.016272 154747.000000 0 0 1
-27.206410 33.612666 20.296199 47.769611 -0.890344 1.131971 -0.023927 0.018029 339671.000000 0 0 1
-27.436010 32.586866 21.417299 47.679546 -0.871003 1.104935 -0.019871 0.023230 180203.000000 0 0 1
-26.675710 31.366366 21.221699 46.322812 -0.866038 1.094910 -0.020081 0.018739 297025.000000 0 0 1
-26.826510 30.440966 22.245699 46.272942 -0.848430 1.069287 -0.007986 0.013007 -43086.900000 0 0 1
-25.914110 29.208066 22.088499 44.861498 -0.845085 1.055985 -0.001367 0.009602 -395169.000000 0 0 1
-24.545810 29.457566 22.157399 44.285384 -0.876101 1.046814 -0.000991 0.010651 -409198.000000 0 0 1
-23.749610 28.431566 21.564699 42.865302 -0.874884 1.043637 0.003463 0.002759 783838.000000 0 0 1
-22.233810 28.816166 21.568599 42.307424 -0.913630 1.035837 -0.011288 0.013948 403929.000000 0 0 1
-21.665810 28.726566 22.846499 42.621419 -0.924607 1.005065 -0.014975 0.011488 741791.000000 0 0 1
-20.244510 28.893466 22.863299 42.040492 -0.959627 0.995790 0.008776 0.009604 562394.000000 0 0 1
-19.720810 28.873566 24.308149 42.584965 -0.971567 0.963298 0.001225 0.005391 -555833.000000 0 0 1
-19.667910 27.591366 24.937709 42.071361 -0.951512 0.936330 0.014031 -0.001135 388468.000000 0 0 1
-19.473010 27.728866 26.342269 42.918565 -0.958552 0.909965 0.012958 -0.000664 1125880.000000 0 0 1
-17.973510 27.941866 26.863899 42.725449 -0.999183 0.890843 0.017939 0.000322 1146650.000000 0 0 1
-17.554710 29.297966 26.913439 43.484156 -1.030981 0.903423 -0.006006 0.001251 570961.000000 0 0 1
-16.253910 29.468966 27.477779 43.446954 -1.066756 0.886092 -0.000297 0.001704 261034.000000 0 0 1
-16.194110 29.924766 28.944279 44.671155 -1.074765 0.865918 -0.009361 0.012986 -309326.000000 0 0 1
-16.058110 28.838266 29.819849 44.482939 -1.062722 0.836094 -0.000997 0.010166 330983.000000 0 0 1
-16.141710 29.219866 31.193239 45.687783 -1.066095 0.819279 -0.005886 0.018307 -113863.000000 0 0 1
-15.947210 27.919766 32.101089 45.434642 -1.051838 0.786209 -0.006380 0.020091 238501.000000 0 0 1
-14.612010 27.415166 32.111929 44.679728 -1.081106 0.768846 0.004220 0.026037 582993.000000 0 0 1
-14.457110 26.157266 32.762969 44.346620 -1.065883 0.739519 0.012032 0.019601 -391426.000000 0 0 1
-14.614910 26.014366 34.289591 45.454580 -1.058938 0.716102 0.026582 0.010921 536885.000000 0 0 1
-15.918410 25.852066 -34.370074 45.858773 -1.018876 2.418067 0.034357 0.012773 504900.000000 0 0 1
-16.320610 27.103766 -33.794277 46.292867 -1.028795 2.389134 0.028407 0.004582 -658010.000000 0 0 1
-17.735810 26.969166 -33.255897 46.344897 -0.989074 2.371109 0.012999 0.005283 -28486.800000 0 0 1
-18.730910 26.816266 -34.284887 47.385784 -0.961084 2.379694 0.002141 0.006572 1328060.000000 0 0 1
-20.048210 26.632166 -33.720267 47.415813 -0.925517 2.361944 0.021497 0.000843 689740.000000 0 0 1
-21.217710 26.623466 34.553337 48.507043 -0.897915 0.777975 0.012130 -0.005871 -973083.000000 0 0 1
-21.235210 25.561866 33.553366 47.224691 -0.877592 0.780581 0.016173 0.000088 -11109.600000 0 0 1
-21.560110 24.306366 34.046716 47.061838 -0.845202 0.762015 0.021673 -0.000983 -387082.000000 0 0 1
-21.669510 23.351966 32.867479 45.772843 -0.822751 0.769791 0.010749 0.003832 -1191640.000000 0 0 1
-22.962510 23.277766 32.395489 46.028240 -0.792216 0.790039 0.017706 -0.000987 -1087050.000000 0 0 1
-23.082510 22.845666 31.032509 44.919298 -0.780241 0.808132 0.016000 -0.000093 -378690.000000 0 0 1
-24.501110 22.492166 30.607649 45.199890 -0.742675 0.826897 0.011766 0.007954 -337738.000000 0 0 1
-25.045210 21.338366 31.215879 45.354377 -0.705650 0.811700 0.018866 -0.006109 -46088.200000 0 0 1
-26.279810 21.020966 30.604159 45.487624 -0.674674 0.832807 0.017019 0.002436 -30648.000000 0 0 1
-26.782710 19.618666 31.054449 45.459701 -0.632215 0.818769 0.028636 -0.012793 -49415.800000 0 0 1
-27.340710 19.682766 32.390769 46.734223 -0.623962 0.805037 0.031210 -0.009804 123425.000000 0 0 1
-27.454210 18.480866 33.132069 46.829585 -0.592479 0.784838 0.028717 0.000068 -122701.000000 0 0 1
-28.272210 17.277966 32.565419 46.458072 -0.548562 0.794049 0.012215 -0.001421 802715.000000 0 0 1
-29.665810 17.563566 32.335369 47.266428 -0.534551 0.817415 -0.001461 -0.004150 992279.000000 0 0 1
-30.414810 16.420266 31.958949 47.075048 -0.495038 0.824542 -0.000668 0.004406 -490359.000000 0 0 1
-31.918310 16.593666 31.873039 48.062655 -0.479424 0.845769 -0.011828 0.006452 -720630.000000 0 0 1
-32.530110 16.697666 33.219803 49.402180 -0.474230 0.833301 -0.005459 -0.000098 960026.000000 0 0 1
-33.928610 16.930166 33.078059 50.318377 -0.462842 0.853466 0.003471 -0.007480 70328.400000 0 0 1
-34.443410 17.477966 34.389477 51.715219 -0.469582 0.843332 0.001746 0.002394 394644.000000 0 0 1
33.975652 17.840666 34.375375 51.519905 0.483527 0.840319 0.000364 -0.008899 644388.000000 0 0 1
33.624952 18.261466 -33.539007 50.882055 0.497525 2.290487 -0.014391 -0.004022 -327600.000000 0 0 1
32.152152 18.348266 -33.148247 49.691307 0.518574 2.301083 -0.009370 0.000284 -612040.000000 0 0 1
31.533252 17.082366 -33.211197 48.878797 0.496468 2.317823 -0.002299 0.003447 -536136.000000 0 0 1
30.233252 17.173966 -32.722657 47.746904 0.516595 2.325861 -0.011440 0.006450 -890873.000000 0 0 1
29.482152 15.854866 -32.677517 46.780275 0.493412 2.344140 -0.008571 0.010015 -713867.000000 0 0 1
29.129152 15.408866 -33.987387 47.340079 0.486565 2.371636 -0.004947 -0.009303 -347581.000000 0 0 1
28.520652 14.160466 -33.896587 46.507257 0.460843 2.387430 0.001784 -0.010688 -243572.000000 0 0 1
29.398752 12.931366 -34.247957 46.951351 0.414390 2.388292 0.006418 -0.006788 125144.000000 0 0 1
30.075252 12.473466 -33.065107 46.404842 0.393150 2.363902 0.009163 0.001153 25984.100000 0 0 1
30.782252 11.320366 -33.449287 46.846051 0.352405 2.366028 0.015460 -0.002957 -502952.000000 0 0 1
16.800552 -21.367234 10.157503 29.017101 -0.904480 1.213169 -0.043735 0.002874 -228646.000000 0 0 1
16.654952 -22.504834 10.971603 30.070435 -0.933687 1.197310 -0.035678 -0.006818 -398552.000000 0 0 1
17.895252 -23.080134 11.227703 31.288879 -0.911266 1.203771 -0.033697 -0.010840 -842138.000000 0 0 1
17.758252 -24.443234 12.037303 32.522667 -0.942499 1.191658 -0.010202 -0.026458 -15547.800000 0 0 1
17.117652 -25.538214 11.389903 32.786343 -0.980299 1.216002 -0.008628 -0.019544 1052510.000000 0 0 1
15.683152 -25.470304 11.538303 32.059790 -1.018882 1.202636 0.006238 -0.017674 641564.000000 0 0 1
14.893952 -26.536314 10.816603 32.295583 -1.059344 1.229271 0.045697 -0.008334 -243184.000000 0 0 1
14.877252 -26.363624 9.441603 31.709891 -1.057033 1.268462 0.045070 -0.013753 945720.000000 0 0 1
13.761852 -27.089094 8.838003 31.643608 -1.100752 1.287733 0.047956 -0.002351 973868.000000 0 0 1
13.465352 -26.617034 7.364203 30.724806 -1.102446 1.328757 0.049794 -0.008181 -175720.000000 0 0 1
12.775552 -25.401094 7.418903 29.384868 -1.104789 1.315561 0.067626 -0.016414 -42252.600000 0 0 1
12.394952 -24.914134 6.130603 28.494442 -1.109145 1.353950 0.056741 0.003789 209840.000000 0 0 1
11.845052 -23.452434 6.164903 26.987552 -1.103103 1.340326 0.048870 0.009511 107132.000000 0 0 1
11.270252 -23.060234 4.926103 26.135407 -1.116204 1.381178 0.042079 0.009721 -45255.500000 0 0 1
10.900652 -21.710734 5.095303 24.822214 -1.105481 1.364055 0.043636 0.005905 -190763.000000 0 1 0
10.121952 -21.042734 3.951503 23.682588 -1.122449 1.403160 0.019600 0.003899 -74822.200000 0 1 0
10.951152 -20.588834 2.933303 23.503874 -1.081957 1.445669 0.009638 0.014352 -118280.000000 0 1 0
10.133852 -19.854434 2.016603 22.382140 -1.098857 1.480575 0.005885 0.016013 611772.000000 0 1 0
10.872552 -19.279134 0.722603 22.145419 -1.057303 1.538161 0.001088 0.016723 843803.000000 0 1 0
11.726852 -18.131134 0.969503 21.614741 -0.996688 1.525927 -0.000620 0.013847 479828.000000 0 1 0
12.361852 -17.621134 -0.194497 21.525742 -0.959041 1.579832 0.004279 0.001323 -711965.000000 0 1 0
13.675452 -16.897334 0.030703 21.737958 -0.890395 1.569384 0.012183 0.006931 -813026.000000 0 1 0
14.648052 -17.749434 0.579403 23.020503 -0.880836 1.545625 0.008181 0.008194 -1024630.000000 0 1 0
15.857252 -17.071734 0.492603 23.305347 -0.822263 1.549658 0.013659 0.001585 -893205.000000 0 1 0
17.062852 -17.837534 1.024503 24.705630 -0.807591 1.529316 0.018025 0.012591 -375363.000000 0 1 0
17.450452 -19.021934 0.369003 25.816437 -0.828458 1.556502 0.023034 0.003406 261979.000000 0 0 1
18.580252 -19.593734 1.024203 27.022013 -0.811941 1.532885 0.016550 0.018717 628147.000000 0 0 1
18.986452 -20.983234 0.464603 28.301896 -0.835314 1.554380 0.016247 0.019943 -130225.000000 0 0 1
18.037352 -21.918134 0.865803 28.398949 -0.882222 1.540304 0.021169 0.017623 -303365.000000 0 0 1
18.201952 -23.193434 0.240003 29.483963 -0.905399 1.562656 0.024238 0.014400 -516148.000000 0 0 1
17.134152 -24.225634 0.519703 29.677106 -0.955205 1.553284 0.015960 0.018088 -427478.000000 0 0 1
17.163352 -24.782834 1.755803 30.196893 -0.965088 1.512618 0.011975 0.011503 95233.200000 0 0 1
16.044052 -25.633614 1.892603 30.299765 -1.011551 1.508293 0.015026 0.011263 28609.800000 0 0 1
16.116752 -26.251474 3.319903 30.982436 -1.020192 1.463436 0.027611 0.007158 70959.600000 0 0 1
16.926152 -27.387184 3.401003 32.374671 -1.017224 1.465551 0.025890 0.002155 57456.900000 0 0 1
18.192552 -27.119614 3.991603 32.899473 -0.979919 1.449169 0.010421 0.009981 -246992.000000 0 0 1
19.222652 -28.239854 3.863703 34.379179 -0.973146 1.458173 0.015964 0.008827 -406266.000000 0 0 1
19.638352 -28.482634 2.554903 34.690818 -0.967162 1.497082 0.018317 0.005847 -680912.000000 0 0 1
20.505952 -29.557184 2.487003 36.059762 -0.964262 1.501773 0.022437 0.005325 -400266.000000 0 0 1
19.949552 -30.943114 2.872203 36.928451 -0.998144 1.492940 0.024171 0.009586 -339664.000000 0 0 1
19.927052 -31.149964 4.278403 37.225158 -1.001686 1.455609 0.042451 0.008520 115973.000000 0 0 1
19.013052 -32.223134 4.579203 37.693443 -1.037730 1.449010 0.040247 -0.009002 220857.000000 0 0 1
18.983752 -32.620434 6.088203 38.230116 -1.043748 1.410864 0.037210 -0.014698 551201.000000 0 0 1
20.119452 -33.355744 6.574203 39.504660 -1.028043 1.403603 0.033028 -0.026230 236772.000000 0 0 1
19.739552 -34.179181 7.588403 40.192664 -1.047062 1.380856 0.024048 -0.023827 -504253.000000 0 0 1
20.805352 34.404297 8.185703 41.030769 1.026905 1.369947 0.042601 -0.027570 -482681.000000 0 0 1
21.593752 -34.361690 9.088303 41.588618 -1.009738 1.350490 0.039060 -0.023041 -113195.000000 0 0 1
22.601252 34.308473 9.665903 42.205658 0.988283 1.339726 0.045249 -0.023866 117041.000000 0 0 1
23.567952 -34.372869 10.559703 42.993602 -0.969762 1.322646 0.036503 -0.014528 -333985.000000 0 0 1
24.367552 -33.483314 9.780603 42.550795 -0.941687 1.338865 0.019813 -0.004766 26007.000000 0 0 1
25.101752 -32.646014 10.646503 42.534789 -0.915304 1.317805 0.001361 0.001217 -352683.000000 0 0 1
25.788952 -31.659854 9.727603 41.976692 -0.887238 1.336932 -0.004845 -0.000394 -474356.000000 0 0 1
24.889852 -30.742484 9.159503 40.601744 -0.890215 1.343244 -0.002581 -0.003127 366628.000000 0 0 1
25.591752 -29.844114 8.267203 40.174066 -0.861956 1.363531 -0.008893 -0.001271 164928.000000 0 0 1
25.201052 -28.354724 8.464703 38.868170 -0.844216 1.351257 -0.014524 0.007764 7478.620000 0 0 1
25.786552 -27.750434 9.624703 39.085391 -0.822064 1.321989 -0.007478 -0.009655 -93427.000000 0 0 1
25.297352 -26.420274 9.691203 37.840538 -0.807107 1.311804 -0.002346 0.003347 -117956.000000 0 0 1
25.944652 -25.630054 10.853103 38.050158 -0.779298 1.281548 0.015846 -0.007010 64288.900000 0 0 1
27.227552 -25.281314 10.379503 38.577435 -0.748350 1.298383 0.013666 -0.003057 -496938.000000 0 0 1
27.963552 -24.468834 11.303103 38.838695 -0.718845 1.275496 0.021051 -0.008664 981327.000000 0 0 1
29.368252 -24.073834 10.736903 39.462955 -0.686652 1.295247 0.027345 -0.006486 793815.000000 0 0 1
29.177252 -23.345434 9.540103 38.565981 -0.674817 1.320830 0.030798 -0.007024 1049870.000000 0 0 1
30.465552 -23.073634 8.903203 39.240406 -0.648200 1.341914 0.022412 -0.004137 1176150.000000 0 0 1
30.414452 -22.351034 7.558003 38.493260 -0.633755 1.373166 0.022061 0.009928 -499925.000000 0 0 1
29.927252 -21.069534 7.650703 37.391161 -0.613422 1.364728 0.022428 0.014133 -127363.000000 0 0 1
30.465552 -20.267634 6.630203 37.187181 -0.587031 1.391545 0.015649 0.015403 -105579.000000 0 0 1
29.986852 -18.773234 6.705403 36.008444 -0.559353 1.383485 0.013477 0.014265 -107632.000000 0 0 1
30.614152 -17.961834 7.661603 36.311898 -0.530595 1.358204 0.016100 0.006763 -67702.100000 0 0 1
30.096452 -16.650834 7.788903 35.266326 -0.505334 1.348101 0.016721 0.000165 -211722.000000 0 0 1
30.578252 -15.998534 9.054103 35.678556 -0.482035 1.314222 0.013360 -0.009784 -1047080.000000 0 0 1
31.937552 -15.740934 8.973103 36.719216 -0.457924 1.323926 0.009772 -0.007427 -970101.000000 0 0 1
32.411252 -15.128434 10.155403 37.181864 -0.436708 1.294153 0.011711 -0.017440 -456021.000000 0 0 1
33.922452 -15.173534 10.365503 38.579950 -0.420607 1.298778 0.007497 -0.021132 -373480.000000 0 0 1
34.500952 -14.257234 9.429203 38.503172 -0.391869 1.323386 0.012594 -0.009898 102391.000000 0 0 1
-33.929710 -14.572134 9.244503 38.066168 0.405659 1.325490 0.010593 -0.013612 375475.000000 0 0 1
-33.179710 -13.653834 8.278103 36.821832 0.390391 1.344043 0.007098 -0.005051 -407923.000000 0 0 1
-33.616910 -13.782534 6.934603 36.988425 0.389087 1.382200 0.003553 -0.005837 371229.000000 0 0 1
-32.680610 -13.221234 5.985903 35.758277 0.384430 1.402605 0.002453 -0.001647 -166107.000000 0 0 1
-31.580810 -14.171634 5.489703 35.047391 0.421807 1.413512 -0.010133 0.006348 -283609.000000 0 0 1
-30.849810 -14.624734 6.625503 34.777736 0.442683 1.379115 0.007401 0.003952 -638976.000000 0 0 1
-29.974910 -15.607334 6.162103 34.351938 0.480054 1.390439 0.005488 0.010596 -501031.000000 0 0 1
-29.213010 -16.218734 7.336203 34.209168 0.506818 1.354666 0.005246 -0.003964 -639107.000000 0 0 1
-29.947810 -17.120334 8.075803 35.428742 0.519330 1.340830 0.007877 -0.015353 -423857.000000 0 0 1
-29.698110 -17.015934 9.444203 35.506517 0.520302 1.301571 -0.011790 -0.016686 1111.550000 0 0 1
-30.773210 -17.879134 10.159103 37.011637 0.526329 1.292743 -0.027527 -0.016701 892874.000000 0 0 1
-32.073510 -17.201934 10.206503 37.799329 0.492286 1.297384 -0.006291 -0.012263 1644290.000000 0 0 1
-33.026310 -17.901134 11.030303 39.151697 0.496701 1.285197 0.011201 -0.024255 230721.000000 0 0 1
-33.540910 -19.315934 10.625103 40.137150 0.522504 1.302883 0.008035 -0.020279 -705741.000000 0 0 1
-32.604810 -20.435734 10.783603 39.962219 0.559872 1.297564 0.004461 -0.012739 519481.000000 0 0 1
-32.282810 -20.817934 12.117203 40.278938 0.572754 1.265231 -0.007098 -0.019139 -67343.300000 0 0 1
-33.489910 -21.514734 12.837403 41.824117 0.571031 1.258822 -0.010997 -0.027639 479384.000000 0 0 1
-33.627610 -22.863834 12.545603 42.555414 0.597117 1.271544 -0.001035 -0.027875 -355426.000000 0 0 1
34.829152 -23.226634 12.411103 43.664423 -0.588146 1.282584 -0.000794 -0.017172 -351461.000000 0 0 1
34.524052 -24.646534 11.910903 44.059408 -0.619990 1.297053 -0.002390 -0.017277 -285646.000000 0 0 1
-34.692510 -25.654344 12.717003 44.982639 0.636733 1.284179 -0.014027 -0.005300 435018.000000 0 0 1
34.211552 -26.696474 13.153703 45.344812 -0.662635 1.276484 -0.011999 -0.010899 -4644.620000 0 0 1
33.342452 -26.498374 14.371103 44.948988 -0.671522 1.245362 -0.016239 -0.016052 -252506.000000 0 0 1
32.238952 -25.640634 14.152303 43.555480 -0.671887 1.239863 -0.016792 -0.015109 114699.000000 0 0 1
31.452652 -25.479374 15.343103 43.288320 -0.680861 1.208481 -0.010557 -0.003415 -198757.000000 0 0 1
31.313052 -23.990134 15.789303 42.489244 -0.653750 1.190057 0.000790 -0.004238 -630493.000000 0 0 1
32.433052 -23.365334 16.324403 43.177863 -0.624298 1.183082 -0.008502 -0.007002 -631850.000000 0 0 1
33.160052 -22.639934 15.361603 42.989935 -0.599053 1.205388 -0.012622 -0.011960 -71266.000000 0 0 1
34.200152 -21.714934 16.079303 43.585924 -0.565713 1.192960 -0.016393 -0.010786 -255971.000000 0 0 1
33.847152 -20.450434 16.495203 42.847890 -0.543502 1.175620 -0.005971 -0.011898 -581104.000000 0 0 1
32.821152 -20.332534 17.419803 42.356694 -0.554631 1.146955 -0.007512 -0.009020 -400029.000000 0 0 1
32.858252 -18.924534 18.140703 42.034365 -0.522544 1.124566 -0.004311 -0.003664 -373503.000000 0 0 1
32.673552 -17.832234 17.278503 41.037742 -0.499590 1.136205 0.000622 -0.013138 150309.000000 0 0 1
32.760852 -16.513934 17.822703 40.787648 -0.466902 1.118577 -0.000880 -0.012160 -399939.000000 0 0 1
34.109952 -15.946334 18.286803 41.859068 -0.437310 1.118685 -0.014795 -0.008143 -688692.000000 0 0 1
34.547252 -16.451934 19.500003 42.946815 -0.444440 1.099491 -0.015360 0.009618 217180.000000 0 0 1
-34.208810 -15.656934 20.038603 42.625437 0.429228 1.081382 -0.023601 -0.001206 40145.600000 0 0 1
-33.904810 -15.823134 21.554603 43.179957 0.436649 1.048143 -0.018972 0.005648 -364262.000000 0 0 1
-33.152010 -16.928734 21.977503 43.227867 0.472123 1.037458 -0.026498 0.012467 68043.500000 0 0 1
-33.077910 -16.922634 23.392703 43.906062 0.472884 1.008902 -0.013406 0.013062 134215.000000 0 0 1
-32.175010 -18.036034 23.995003 44.003295 0.510915 0.994049 -0.017294 0.016339 92506.300000 0 0 1
-32.756510 -19.322434 23.674603 44.797681 0.532946 1.013989 -0.024020 0.017446 943978.000000 0 0 1
-31.968310 -20.366434 24.281003 45.014793 0.567240 1.001071 -0.024504 0.022169 442100.000000 0 0 1
-30.775910 -20.927034 23.438303 43.982400 0.597164 1.008770 -0.025428 0.029106 821830.000000 0 0 1
-29.739510 -19.936334 23.279903 42.706554 0.590559 0.994272 -0.020870 0.032193 254706.000000 0 0 1
-28.623710 -20.438634 22.612303 41.813524 0.620090 0.999421 -0.012671 0.022009 -34909.900000 0 0 1
-27.328310 -19.586834 22.582803 40.502637 0.621862 0.979348 0.002527 0.022154 542063.000000 0 0 1
-26.680510 -19.535634 23.882903 40.790731 0.632015 0.945302 0.004161 0.024429 252376.000000 0 0 1
-25.811210 -18.454734 24.055403 39.817813 0.620715 0.922114 0.009698 0.023130 -325754.000000 0 0 1
-25.246610 -18.335134 25.490503 40.290622 0.628121 0.885805 0.004076 0.009201 -1016710.000000 0 0 1
-24.455810 -17.200734 25.653503 39.396118 0.612964 0.861674 0.000318 0.008524 -147894.000000 0 0 1
-24.222510 -16.898134 27.056103 40.053835 0.609128 0.829163 -0.005128 0.003404 285320.000000 0 0 1
-23.087610 -17.658334 27.790403 40.213941 0.652931 0.807836 0.001482 0.004735 -551876.000000 0 0 1
-23.439110 -18.938634 28.060903 41.176183 0.679596 0.821008 0.012664 0.006635 -107205.000000 0 0 1
-22.452410 -19.607434 28.818203 41.461440 0.717860 0.802292 0.012493 0.001503 -148708.000000 0 0 1
-23.036710 -20.865834 29.595503 42.918141 0.735991 0.809887 0.014869 0.009201 -57174.900000 0 0 1
-24.057410 -20.596834 30.525103 43.986026 0.708056 0.803804 0.015956 0.001450 118147.000000 0 0 1
-24.382710 -21.820534 31.259703 45.252860 0.730000 0.808231 0.008272 0.005852 -734348.000000 0 0 1
-25.568910 -21.686934 32.202103 46.487286 0.703434 0.805560 0.011423 0.000847 -1126830.000000 0 0 1
-25.299710 -20.823334 33.318603 46.731316 0.688648 0.777054 0.021517 -0.004994 337340.000000 0 0 1
-26.342010 -20.893934 34.265903 48.006355 0.670568 0.775918 0.032900 -0.013258 372481.000000 0 0 1
-27.669510 -20.144734 33.937803 48.199446 0.629303 0.789625 0.022222 -0.016909 -282699.000000 0 0 1
-28.374910 -20.773934 32.916303 48.168194 0.631962 0.818439 0.019370 -0.015566 -655651.000000 0 0 1
-29.500210 -19.987134 32.616003 48.306848 0.595482 0.829582 0.026287 -0.017492 -245225.000000 0 0 1
-30.105410 -20.480334 31.275103 47.999082 0.597373 0.861135 0.013567 -0.003226 445847.000000 0 0 1
-31.175510 -19.717534 30.683403 47.980880 0.563952 0.876959 0.016195 -0.008730 842776.000000 0 0 1
-31.712410 -20.411634 29.605903 47.946025 0.571897 0.905256 0.003286 -0.004022 53911.100000 0 0 1
-32.496410 -19.447134 28.663403 47.495246 0.539271 0.922912 -0.007476 0.001584 66445.900000 0 0 1
-33.567610 -20.023234 27.941403 48.046190 0.537845 0.950160 -0.013728 0.002551 139437.000000 0 0 1
-34.182410 -18.955334 27.248003 47.646569 0.506318 0.962004 -0.014811 0.003902 -301591.000000 0 0 1
34.490552 -19.408834 26.304603 47.520871 -0.512563 0.984190 -0.014332 0.007530 -480352.000000 0 0 1
33.416652 -19.939834 27.006803 47.367046 -0.537992 0.964096 -0.021091 0.002495 -874134.000000 0 0 1
32.362452 -20.316834 26.181003 46.320049 -0.560603 0.970097 -0.003763 -0.002931 -1143040.000000 0 0 1
31.166752 -20.707734 26.998403 46.142068 -0.586444 0.945775 -0.007721 -0.006952 -687325.000000 0 0 1
30.587452 -19.549434 27.676903 45.648478 -0.568698 0.919390 -0.012443 -0.010412 715210.000000 0 0 1
29.347952 -19.860434 28.303703 45.352384 -0.594932 0.896837 -0.013743 -0.006232 -20804.100000 0 0 1
-29.276268 -6.168234 34.268045 45.491163 0.207654 0.717746 -0.007253 0.005097 -313480.000000 0 0 1
-30.157898 -5.724134 33.325196 45.308202 0.187574 0.744359 -0.013483 0.003404 156393.000000 0 0 1
-29.516428 -4.611734 32.690219 44.284738 0.154990 0.740424 0.001351 0.000977 424692.000000 0 0 1
-30.138468 -4.448234 31.252259 43.644218 0.146535 0.772642 -0.006635 -0.004814 325660.000000 0 0 1
-29.799148 -5.434734 30.251269 42.809635 0.180396 0.786049 -0.004535 -0.005925 -562825.000000 0 0 1
-28.518168 -5.274134 29.732369 41.534518 0.182873 0.772960 0.002251 -0.010925 -718431.000000 0 0 1
-28.219468 -6.286034 28.578889 40.652251 0.219177 0.791177 0.010100 -0.021007 -261490.000000 0 0 1
-28.785818 -5.961734 27.306649 40.122546 0.204219 0.822241 0.013811 -0.014793 43664.500000 0 0 1
-28.421938 -6.868534 26.265449 39.304671 0.237117 0.838939 0.027735 -0.011495 210828.000000 0 0 1
-29.310198 -6.582634 25.005819 39.085928 0.220920 0.876604 0.016141 -0.004342 209833.000000 0 0 1
-28.876978 -5.376534 24.453219 38.219719 0.184080 0.876550 0.022542 -0.011799 164882.000000 0 0 1
-29.774148 -4.956334 23.427499 38.208806 0.164952 0.910762 0.031311 -0.008818 163663.000000 0 0 1
-29.341148 -3.655834 22.748099 37.306087 0.123959 0.915027 0.024228 -0.013130 652936.000000 0 0 1
-28.087448 -3.784234 22.069899 35.920824 0.133924 0.909166 0.028754 -0.007153 380330.000000 0 0 1
-27.509368 -2.606634 21.614999 35.082304 0.094472 0.906986 0.021931 -0.006482 1013550.000000 0 0 1
-25.982308 -2.714634 21.227899 33.661154 0.104102 0.888425 0.010884 0.001483 1012440.000000 0 0 1
-25.792118 -3.313134 19.962599 32.782855 0.127756 0.916080 0.017604 0.003743 620859.000000 0 0 1
-24.556648 -2.833134 19.381599 31.411813 0.114864 0.905851 0.011859 0.003138 588214.000000 0 0 1
-24.160348 -3.705434 18.141699 30.439676 0.152183 0.932300 0.023585 -0.002796 -586562.000000 0 0 1
-25.143448 -3.655334 17.125699 30.640562 0.144368 0.977711 0.027045 0.003831 150869.000000 0 0 1
-24.849548 -4.369834 15.958799 29.854292 0.174072 1.006814 0.034994 0.000008 -357839.000000 0 0 1
-26.116188 -4.506134 15.108199 30.506035 0.170860 1.052671 0.029291 0.000449 -136098.000000 0 0 1
-26.491018 -3.342534 14.449899 30.360273 0.125513 1.074755 0.023406 -0.000923 -253666.000000 0 0 1
-27.580228 -3.620134 13.608699 30.967258 0.130512 1.115805 0.010730 0.003106 -287478.000000 0 0 1
-28.121628 -2.459634 12.798099 30.994630 0.087242 1.145146 0.006622 0.011952 -233117.000000 0 0 1
-27.353488 -2.195134 11.606699 29.795090 0.080079 1.170653 0.020537 0.000122 267965.000000 0 0 1
-27.672038 -0.972034 10.960099 29.779360 0.035113 1.193892 0.013883 0.001023 97261.100000 0 0 1
-28.870178 -0.765134 9.986199 30.558089 0.026496 1.237887 -0.008882 0.007675 317089.000000 0 0 1
-28.785198 -1.631834 8.829599 30.153148 0.056629 1.273616 -0.001295 -0.003431 -883930.000000 0 0 1
-30.033808 -1.892434 8.306499 31.218726 0.062927 1.301478 -0.010072 -0.001376 -1018840.000000 0 0 1
-30.086488 -2.631834 6.895499 30.978561 0.087254 1.346327 -0.000538 -0.008109 -617798.000000 0 0 1
-29.757178 -1.782534 5.818699 30.373086 0.059831 1.378031 0.010967 -0.010656 543093.000000 0 0 1
-30.759178 -0.809234 5.549999 31.266346 0.026303 1.392344 -0.005724 -0.010579 -308421.000000 0 0 1
-30.408928 0.030066 4.314399 30.713480 -0.000989 1.429858 0.007688 -0.009778 -236855.000000 0 0 1
-30.567048 -0.573834 3.023899 30.721616 0.018771 1.472208 0.011693 -0.007183 500132.000000 0 0 1
-30.120038 0.275166 1.945899 30.184084 -0.009135 1.506284 0.020837 -0.006788 -26889.500000 0 0 1
-30.600428 -0.370834 0.643599 30.609442 0.012118 1.549769 0.018270 -0.004962 -279430.000000 0 0 1
-31.974368 -0.184734 0.449299 31.978058 0.005778 1.556746 0.008797 -0.002123 -121923.000000 0 0 1
-32.475258 -0.738834 -0.782001 32.493073 0.022747 1.594865 0.008900 -0.000940 315510.000000 0 0 1
-34.022918 -0.618034 -0.867201 34.039579 0.018163 1.596275 0.006404 0.000227 118345.000000 0 0 1
-34.743943 -1.376834 0.049499 34.771248 0.039607 1.569373 -0.000018 0.001788 733897.000000 0 0 1
33.659844 -1.053134 0.052299 33.676355 -0.031277 1.569243 0.010733 0.004472 982264.000000 0 0 1
32.811394 -2.216434 0.725199 32.894164 -0.067448 1.548748 0.008070 -0.005547 -201195.000000 0 0 1
32.955264 -2.423934 2.072599 33.109221 -0.073420 1.508157 0.004644 -0.004397 265055.000000 0 0 1
32.538544 -3.737334 2.381199 32.838919 -0.114358 1.498221 0.005165 0.003869 -493482.000000 0 0 1
32.819894 -4.305134 3.793699 33.317739 -0.130430 1.456685 0.007593 0.007135 120572.000000 0 0 1
32.262964 -3.328734 4.739699 32.778713 -0.102811 1.425691 0.009212 0.001786 570168.000000 0 0 1
32.299224 -3.710334 6.073599 33.074084 -0.114372 1.386112 0.006963 0.003681 -306725.000000 0 0 1
31.713794 -2.588634 6.942399 32.567816 -0.081444 1.355981 0.001941 0.004955 -221748.000000 0 0 1
30.309324 -2.532134 6.955699 31.200137 -0.083350 1.345969 0.005087 0.002537 -132747.000000 0 0 1
29.871354 -1.474034 7.765299 30.899359 -0.049306 1.316764 0.010675 -0.002923 -1207730.000000 0 0 1
28.433704 -1.529434 8.199699 29.631904 -0.053738 1.290419 0.013535 -0.007893 -1218610.000000 0 0 1
27.533874 -1.416134 7.112399 28.472897 -0.051387 1.318327 0.010420 -0.003717 -215007.000000 0 0 1
26.173384 -1.545934 7.382899 27.238633 -0.058997 1.296318 0.014029 -0.003933 -497176.000000 0 0 1
25.678014 -2.981334 7.322299 26.867542 -0.115587 1.294771 0.007919 -0.005093 -1104280.000000 0 0 1
26.160084 -3.761834 8.391499 27.729382 -0.142821 1.263355 0.005748 -0.004469 246404.000000 0 0 1
25.601024 -5.035734 8.428399 27.419135 -0.194221 1.258346 0.009188 -0.003813 -360012.000000 0 0 1
26.088154 -6.010334 9.508099 28.409854 -0.226435 1.229535 0.004046 -0.000803 -464181.000000 0 0 1
25.674504 -5.735934 10.782399 28.431342 -0.219800 1.181818 -0.011590 -0.000800 83000.900000 0 0 1
26.052314 -6.729534 11.719699 29.348953 -0.252783 1.160019 -0.004528 0.007193 -399852.000000 0 0 1
25.051554 -7.076334 12.837999 29.025318 -0.275298 1.112631 0.004448 -0.003917 420630.000000 0 0 1
23.847914 -7.629334 12.304099 27.898397 -0.309627 1.114048 0.003290 -0.008936 119613.000000 0 0 1
22.671914 -7.180234 12.939699 27.074106 -0.306708 1.072493 0.009519 -0.011756 300168.000000 0 0 1
21.575314 -8.268234 12.787799 26.408060 -0.365963 1.065304 0.020173 -0.010238 -65223.000000 0 0 1
21.737614 -9.307334 13.696699 27.326725 -0.404550 1.045788 0.006279 -0.013569 -439558.000000 0 0 1
20.670814 -10.231834 13.790199 26.872710 -0.459631 1.031925 0.019142 -0.023397 -470161.000000 0 0 1
20.879214 -11.452334 14.692899 27.981758 -0.501694 1.017977 0.013797 -0.019310 -408651.000000 0 0 1
20.950214 -11.023734 16.013399 28.580817 -0.484377 0.976067 0.008376 -0.018904 144677.000000 0 0 1
21.417414 -12.089534 16.813799 29.792051 -0.513886 0.971124 0.005993 -0.019339 -497794.000000 0 0 1
21.381714 -11.806834 18.321799 30.533053 -0.504525 0.927215 0.017940 -0.012811 458992.000000 0 0 1
20.090214 -11.818134 18.935699 30.030745 -0.531737 0.888543 0.016823 -0.017286 194304.000000 0 0 1
20.091114 -12.143434 20.317299 31.046875 -0.543662 0.857398 0.046191 -0.008000 249022.000000 0 0 1
20.709114 -11.063834 21.262099 31.675743 -0.490670 0.834913 0.020566 -0.000503 -39226.900000 0 0 1
19.931014 -9.914234 21.474099 30.930151 -0.461587 0.803381 0.032454 -0.000112 -282739.000000 0 0 1
20.082814 -8.882134 20.538399 30.067217 -0.416412 0.818821 0.019624 0.002510 -257794.000000 0 0 1
21.141114 -7.781734 20.999899 30.797692 -0.352695 0.820486 0.004304 0.010065 965141.000000 0 0 1
22.477814 -8.209734 21.105499 31.907584 -0.350184 0.848036 -0.002909 0.014081 155559.000000 0 0 1
23.203214 -8.375934 19.863599 31.671880 -0.346424 0.892884 -0.003147 -0.001900 268341.000000 0 0 1
24.526314 -9.181034 20.025499 32.967439 -0.358187 0.917972 -0.031501 0.008175 166938.000000 0 0 1
24.259014 -10.524134 20.438899 33.421636 -0.409321 0.912782 -0.029995 0.005356 574607.000000 0 0 1
25.390174 -11.402534 20.427399 34.524735 -0.422099 0.937662 -0.020627 -0.002333 191484.000000 0 0 1
24.973854 -12.792734 20.716699 34.878776 -0.473396 0.934820 -0.024865 -0.000775 -270084.000000 0 0 1
24.193314 -13.255334 19.641199 33.864391 -0.501224 0.952073 0.010931 -0.018419 47046.400000 0 0 1
24.095014 -14.666734 19.757799 34.439126 -0.546795 0.959778 0.008394 -0.008948 -909877.000000 0 0 1
22.856614 -15.266534 19.164599 33.507816 -0.588874 0.961922 0.025173 -0.013388 -1098390.000000 0 0 1
22.954014 -15.312434 17.784299 32.827407 -0.588297 0.998277 0.011304 -0.016445 1057780.000000 0 0 1
21.803014 -15.780734 17.019599 31.844461 -0.626513 1.006927 0.005445 -0.013823 625929.000000 0 0 1
21.418714 -17.244934 17.112599 32.388117 -0.677864 1.014128 0.001470 -0.014874 -783014.000000 0 0 1
22.456414 -18.114734 16.758499 33.365872 -0.678790 1.044581 0.038148 -0.014737 -12326.800000 0 0 1
22.140014 -19.453334 17.042999 34.045209 -0.720894 1.046506 0.020658 -0.004809 330370.000000 0 0 1
23.376014 -20.368634 16.766799 35.248331 -0.716758 1.075063 0.017779 -0.002922 357452.000000 0 0 1
23.764914 -20.369534 15.426699 34.895159 -0.708617 1.112872 0.021975 -0.016844 326016.000000 0 0 1
24.857314 -21.277034 15.263199 36.104895 -0.707948 1.134323 0.032096 -0.009753 254074.000000 0 0 1
25.197354 -21.518634 13.770499 35.882933 -0.706814 1.176930 0.026932 -0.020882 186154.000000 0 0 1
24.115614 -22.046034 12.991199 35.161935 -0.740595 1.192360 0.029139 -0.014238 369208.000000 0 0 1
24.397414 -22.000334 11.621699 34.846985 -0.733780 1.230776 0.049165 -0.011840 339007.000000 0 0 1
23.158114 -22.370834 10.757499 33.948140 -0.768108 1.248358 0.000516 0.002336 201363.000000 0 0 1
22.674814 -23.660834 11.034999 34.579668 -0.806675 1.245998 -0.007573 0.005552 162232.000000 0 0 1
21.407214 -23.953534 10.454699 33.783744 -0.841474 1.256172 -0.020760 0.011630 202975.000000 0 0 1
21.365314 -24.292834 8.944599 33.565224 -0.849429 1.301053 -0.023433 0.013311 -1026800.000000 0 0 1
21.944214 -25.548784 8.686099 34.781277 -0.861150 1.318390 -0.029333 0.013817 -115747.000000 0 0 1
21.529414 -26.301694 7.546399 34.817279 -0.884843 1.352319 -0.019204 0.016718 -72063.900000 0 0 1
20.042214 -26.729044 7.578399 34.257324 -0.927405 1.347731 -0.005816 0.009553 438280.000000 0 0 1
19.148714 -25.609314 7.589599 32.865061 -0.928753 1.337761 -0.007853 0.017006 -1453320.000000 0 0 1
17.831114 -25.991644 7.698299 32.446541 -0.969506 1.331251 0.000333 -0.003273 -1088350.000000 0 0 1
16.889014 -24.799334 7.603599 30.952552 -0.972918 1.322603 -0.004232 -0.000551 -457447.000000 0 0 1
16.748814 -24.317134 6.280899 30.187671 -0.967650 1.361203 0.010308 0.005805 32206.300000 0 0 1
15.985014 -23.136234 6.302199 28.818808 -0.966198 1.350331 0.012662 0.012539 -135187.000000 0 0 1
15.527414 -22.545834 4.942999 27.818132 -0.967692 1.392158 0.022953 0.013440 -515410.000000 0 0 1
14.952614 -21.299734 5.201699 26.538972 -0.958723 1.373517 0.037165 0.016768 -99930.400000 0 0 1
14.452714 -20.744834 3.997099 25.596990 -0.962295 1.414000 0.015107 0.016031 2675.270000 0 0 1
13.698814 -19.401534 4.115199 24.104188 -0.956009 1.399230 -0.004840 0.023442 -324814.000000 0 1 0
14.521614 -18.307534 4.407899 23.779669 -0.900213 1.384354 -0.006362 0.022076 20206.000000 0 1 0
13.879314 -17.091834 4.113899 22.398445 -0.888755 1.386079 -0.020724 0.019302 658761.000000 0 1 0
14.944514 -15.923634 4.126399 22.224486 -0.817107 1.384044 -0.023949 0.016060 51943.300000 0 1 0
15.328014 -15.526534 5.415799 22.480039 -0.791832 1.327487 -0.025219 0.006626 -61882.600000 0 1 0
16.469614 -14.731134 5.417299 22.750860 -0.729737 1.330373 -0.016748 0.002180 -1016200.000000 0 1 0
17.869114 -15.253234 5.212999 24.065364 -0.706585 1.352447 -0.020374 0.008281 -992862.000000 0 1 0
18.838214 -14.242034 5.461099 24.239172 -0.647342 1.343545 -0.009977 0.006672 -50303.600000 0 1 0
20.123614 -14.763534 5.192099 25.492738 -0.632950 1.365692 0.005767 0.009179 242034.000000 0 0 1
21.196114 -13.620834 5.189399 25.724156 -0.571163 1.367670 0.009101 0.004057 187141.000000 0 0 1
21.479014 -13.214034 6.566599 26.059143 -0.551526 1.316062 0.016641 0.002707 271858.000000 0 0 1
22.609214 -12.377634 6.705899 26.633653 -0.500891 1.316274 0.025602 0.004075 18761.800000 0 0 1
22.668914 -11.631934 8.055199 26.722047 -0.474091 1.264590 0.023600 -0.000941 -48866.600000 0 0 1
23.004814 -12.459134 9.210099 27.735850 -0.496362 1.232305 0.023184 -0.010519 386246.000000 0 0 1
22.730014 -11.724934 10.435599 27.622986 -0.476235 1.183392 0.017512 -0.014179 -79252.600000 0 0 1
23.024214 -12.594834 11.654899 28.715517 -0.500557 1.152861 0.013392 -0.014328 -593577.000000 0 0 1
22.088614 -13.561034 11.959499 28.545369 -0.550605 1.138492 0.015477 -0.016327 -352066.000000 0 0 1
22.584214 -14.508934 12.891399 29.778248 -0.571040 1.123074 0.014327 -0.025769 -646888.000000 0 0 1
21.542114 -15.560634 13.271699 29.704107 -0.625560 1.107615 0.008817 -0.022129 -774133.000000 0 0 1
20.454514 -14.928034 13.895099 28.884375 -0.630458 1.068934 0.001128 -0.024803 -160536.000000 0 0 1
19.451014 -15.921034 14.105099 28.823169 -0.685932 1.059433 -0.023412 -0.016474 -462838.000000 0 0 1
18.143014 -15.518534 14.742399 28.059440 -0.707589 1.017612 -0.018047 -0.021069 -1041690.000000 0 0 1
18.227314 -15.037634 16.114299 28.601329 -0.689803 0.972288 -0.017975 -0.008067 122310.000000 0 0 1
18.131414 -13.614234 16.173199 27.850815 -0.644054 0.951198 -0.000030 -0.021818 259947.000000 0 0 1
16.649014 -13.114834 16.137099 26.638215 -0.667211 0.920041 0.008642 -0.021460 95388.400000 0 0 1
16.013014 -13.378634 14.884399 25.631032 -0.696007 0.951186 -0.002520 -0.022703 781324.000000 0 0 1
14.588814 -13.175034 14.963799 24.704864 -0.734521 0.920148 0.009570 -0.017358 690316.000000 0 1 0
14.147314 -11.824134 14.623199 23.532840 -0.696184 0.900274 0.008171 -0.015793 -760848.000000 0 1 0
14.683814 -10.764734 15.403599 23.848789 -0.632598 0.868613 0.010480 -0.012867 -59500.500000 0 1 0
14.455114 -9.442534 14.933399 22.828013 -0.578644 0.857712 0.006612 -0.012172 -713878.000000 0 1 0
14.877014 -8.279734 15.856299 23.265892 -0.507855 0.820951 0.011763 -0.008853 81158.700000 0 1 0
16.260514 -8.181134 16.116499 24.312071 -0.466148 0.846109 0.016309 -0.015729 -53694.400000 0 1 0
16.848814 -9.028334 17.079799 25.634213 -0.491910 0.841575 0.029459 -0.012864 428386.000000 0 0 1
18.410314 -9.031534 16.975699 26.621093 -0.456075 0.879316 0.017432 -0.010818 434105.000000 0 0 1
18.941114 -7.751834 17.110699 26.676445 -0.388463 0.874454 0.020868 -0.014048 30665.200000 0 0 1
20.312014 -7.798934 16.726299 27.443949 -0.366600 0.915403 0.019982 -0.011018 278093.000000 0 0 1
20.920514 -6.381934 17.006399 27.705858 -0.296089 0.909906 0.017939 0.002658 -226552.000000 0 0 1
21.315514 -6.145534 18.350499 28.789920 -0.280700 0.879686 0.010848 0.003636 101591.000000 0 0 1
21.912614 -4.883834 18.452199 29.060250 -0.219294 0.882835 0.011866 0.001776 -74734.600000 0 0 1
-5.373948 -33.374931 -6.171697 34.363573 1.411149 1.751376 -0.015255 -0.015159 -449068.000000 0 0 1
-5.923648 -32.149531 -6.567297 33.343835 1.388587 1.769049 -0.012606 -0.021801 74302.300000 0 0 1
-5.817248 -31.106731 -5.624397 32.141918 1.385922 1.746688 -0.016025 -0.020804 -569369.000000 0 0 1
-6.686748 -29.881631 -5.917097 31.187121 1.350649 1.761682 -0.001973 -0.021529 1066320.000000 0 0 1
-8.102848 -29.894631 -5.656397 31.485551 1.306109 1.751428 0.004221 -0.020909 1103010.000000 0 0 1
-8.853148 -30.501731 -6.711697 32.461988 1.288308 1.779054 -0.001491 -0.017325 104002.000000 0 0 1
-10.321448 -30.746231 -6.292097 33.037153 1.246919 1.762422 -0.015401 -0.014362 568719.000000 0 0 1
-11.304248 -30.994031 -7.302697 33.789722 1.221066 1.788637 -0.000261 -0.010855 -282367.000000 0 0 1
-12.570548 -30.666131 -6.792697 33.831509 1.181771 1.772951 0.017135 -0.011250 -554190.000000 0 0 1
-13.600948 -31.050431 -7.849997 34.795653 1.157943 1.798358 0.030888 -0.017412 -264187.000000 0 0 1
-13.313248 -30.292031 -9.012997 34.294078 1.156711 1.836735 0.040970 -0.024744 -228154.000000 0 0 1
-14.186148 -30.691531 -9.998897 35.258968 1.137829 1.858326 0.042319 -0.016976 -530761.000000 0 0 1
-14.381848 -29.494631 -10.968397 34.598794 1.117111 1.893379 0.049425 -0.014040 -708175.000000 0 0 1
-14.917548 -28.276931 -10.542497 33.663961 1.085351 1.889324 0.051786 -0.016899 -110138.000000 0 0 1
-14.006048 -27.337031 -10.020697 32.309395 1.097320 1.886145 0.039429 -0.014414 -157170.000000 0 0 1
-14.572448 -25.882131 -9.898397 31.308452 1.058003 1.892473 0.047694 -0.007853 77912.800000 0 0 1
-14.683948 -25.176931 -11.092697 31.185639 1.042799 1.934458 0.052791 -0.022689 125468.000000 0 0 1
-15.167148 -23.888031 -10.751297 30.269965 1.005091 1.933903 0.043173 -0.004143 -95285.400000 0 0 1
-15.684248 -22.957431 -11.920797 30.251358 0.971443 1.975839 0.062810 0.001653 -192603.000000 0 0 1
-16.860948 -23.576431 -12.362297 31.511364 0.949967 1.973940 0.054766 -0.001755 -502887.000000 0 0 1
-17.236748 -23.230631 -13.682897 31.999834 0.932445 2.012624 0.052811 -0.011686 -371071.000000 0 0 1
-18.647948 -23.742231 -14.025697 33.289032 0.905001 2.005709 0.028393 0.012801 -445836.000000 0 0 1
-18.790748 -25.129931 -14.335397 34.497960 0.928741 1.999336 0.047308 0.006443 -57685.500000 0 0 1
-18.789448 -25.940631 -13.183197 34.637499 0.943931 1.961247 0.057209 -0.001349 -970828.000000 0 0 1
-19.122548 -27.460331 -13.457297 36.067166 0.962511 1.953163 0.052990 0.001528 672427.000000 0 0 1
-18.158248 -28.359031 -14.075997 36.497812 1.001271 1.966727 0.058323 -0.009246 524580.000000 0 0 1
-16.791248 -28.231731 -13.774397 35.618965 1.034235 1.967863 0.069730 -0.016052 -221897.000000 0 0 1
-15.980348 -29.502531 -14.153197 36.415434 1.074379 1.969972 0.059140 -0.016775 -53860.600000 0 0 1
-16.014748 -29.721131 -15.539497 37.165760 1.076566 2.002164 0.051665 -0.015326 188152.000000 0 0 1
-15.231348 -30.848131 -15.972697 37.930570 1.112159 2.005458 0.048662 -0.012125 94292.000000 0 0 1
-15.790148 -32.227431 -15.694497 39.169546 1.115213 1.983056 0.042690 -0.009119 -350974.000000 0 0 1
-15.870548 -32.510031 -14.304997 38.902562 1.116654 1.947345 0.049559 -0.007148 30778.900000 0 0 1
-16.128448 -33.896631 -14.142697 40.113891 1.126685 1.931105 0.032010 0.006100 -1039080.000000 0 0 1
-16.586648 -34.226331 -12.687397 40.093998 1.119531 1.892772 0.049546 0.001637 675985.000000 0 0 1
-17.932248 -33.935831 -12.289097 40.301712 1.084675 1.880659 0.048221 0.008676 583384.000000 0 0 1
-18.428048 -32.602331 -12.394597 39.447826 1.056330 1.890413 0.051334 -0.000728 -530718.000000 0 0 1
-17.874048 -31.430831 -11.580097 37.966793 1.053726 1.880741 0.063840 -0.002586 -349404.000000 0 0 1
-18.280648 -31.562531 -10.203697 37.874673 1.045820 1.843573 0.050463 -0.001372 374021.000000 0 0 1
-17.795048 -30.467131 -9.419697 36.519043 1.042170 1.831685 0.047200 0.002672 -310272.000000 0 0 1
-18.093448 -30.549131 -7.933997 36.380909 1.036077 1.790644 0.041337 0.002799 44466.700000 0 0 1
-17.398448 -31.593931 -7.216897 36.782687 1.067424 1.768281 0.045739 -0.007976 284253.000000 0 0 1
-17.697248 -31.669631 -5.848097 36.747222 1.061216 1.730620 0.040183 -0.016903 -162116.000000 0 0 1
-16.930348 -32.811331 -5.108697 37.273568 1.094438 1.708289 0.043587 -0.010264 52003.400000 0 0 1
-15.549848 -32.557731 -5.002397 36.425645 1.125222 1.708563 0.032755 -0.013525 -74680.900000 0 0 1
-15.181348 -32.412531 -3.656997 35.978036 1.132764 1.672617 0.025034 -0.010288 -241751.000000 0 0 1
-13.910648 -31.613831 -3.321697 34.698330 1.156275 1.666674 0.018223 -0.007966 128249.000000 0 0 1
-12.721648 -32.379831 -3.380097 34.953095 1.196436 1.667651 -0.014974 -0.008130 328617.000000 0 0 1
-11.604448 -31.602131 -2.896297 33.789738 1.218877 1.656617 -0.016451 -0.004020 831472.000000 0 0 1
-10.255148 -32.339331 -2.965497 34.055756 1.263716 1.657984 -0.004021 -0.012445 -129595.000000 0 0 1
-10.322148 -33.442031 -2.057197 35.059210 1.271416 1.629508 -0.010473 0.001570 18345.700000 0 0 1
-9.095248 -34.091231 -1.765697 35.327797 1.310077 1.620798 -0.005192 -0.004631 404172.000000 0 0 1
-8.143348 -33.482131 -0.686297 34.465029 1.332214 1.590710 -0.010005 -0.000370 35529.700000 0 0 1
-8.532648 -33.592031 0.637503 34.664636 1.322049 1.552405 -0.005975 0.007308 -406822.000000 0 0 1
-7.533048 -33.198631 1.541703 34.077452 1.347666 1.525540 -0.003708 0.006918 339810.000000 0 0 1
-6.641848 -34.402331 2.049603 35.097512 1.380079 1.512366 0.007892 -0.001132 323898.000000 0 0 1
-7.406948 34.130866 2.790203 35.036611 -1.357094 1.491075 0.016455 0.001762 470814.000000 0 0 1
-6.590848 33.227266 3.551203 34.060263 -1.374981 1.466344 0.020964 0.004004 165031.000000 0 0 1
-5.906448 33.741666 4.846403 34.595863 -1.397503 1.430248 0.021709 0.000715 467232.000000 0 0 1
-4.866148 34.686966 4.571803 35.323737 -1.431418 1.441006 0.010471 0.002297 143492.000000 0 0 1
-4.292148 -34.204231 5.704803 34.941332 1.445963 1.406794 0.000006 -0.004446 -488342.000000 0 0 1
-3.124348 -33.314831 5.384803 33.891527 1.477287 1.411237 -0.007295 0.002523 -565170.000000 0 0 1
-3.548148 -32.118031 4.747803 32.660357 1.460770 1.424910 -0.012060 0.007331 168599.000000 0 0 1
-3.519748 -32.202031 3.325703 32.564086 1.461926 1.468490 -0.013619 0.004052 -161233.000000 0 0 1
-3.922648 -30.915131 2.547803 31.266976 1.444586 1.489220 -0.022780 0.004339 150926.000000 0 0 1
-3.111548 -29.754931 2.755003 30.043763 1.466603 1.478968 -0.019601 0.005545 -178155.000000 0 0 1
-3.507848 -28.605031 2.056703 28.892608 1.448775 1.499552 -0.016506 0.005029 127354.000000 0 0 1
-3.077648 -27.260731 2.678203 27.564327 1.458376 1.473481 -0.011579 -0.001064 -113529.000000 0 0 1
-3.523348 -26.120131 1.930603 26.427305 1.436715 1.497678 0.002316 -0.003295 -378191.000000 0 0 1
-3.142048 -24.823931 2.367303 25.133725 1.444892 1.476468 0.002236 -0.003984 -415918.000000 0 0 1
-3.972848 -24.214731 3.466603 24.782132 1.408178 1.430453 -0.019188 -0.000933 -414052.000000 0 1 0
-4.045448 -24.927731 4.703303 25.688100 1.409912 1.386665 -0.013714 -0.001823 -442891.000000 0 0 1
-4.807948 -24.217031 5.634103 25.324377 1.374809 1.346441 -0.030430 0.000887 -150055.000000 0 0 1
-5.516248 -25.252131 6.542203 26.662699 1.355728 1.322896 -0.027523 0.000588 -791622.000000 0 0 1
-4.686848 -25.766931 7.527103 27.249927 1.390870 1.290933 -0.033249 -0.001664 -680777.000000 0 0 1
-5.413048 -26.602631 8.385303 28.413278 1.370059 1.271216 -0.034381 0.000520 -298548.000000 0 0 1
-4.683848 -27.270531 9.554303 29.272940 1.400701 1.238318 -0.040517 0.005081 -369049.000000 0 0 1
-4.287248 -26.398131 10.598203 28.767407 1.409795 1.193498 -0.038937 0.001209 60996.700000 0 0 1
-5.276648 -25.666931 11.362303 28.561097 1.368040 1.161652 -0.031804 0.002518 154748.000000 0 0 1
-4.722048 -24.716831 12.417603 28.060940 1.382025 1.112386 -0.037112 0.001345 -785887.000000 0 0 1
-4.057348 -25.369331 13.375103 28.964779 1.412208 1.090805 -0.026220 -0.001463 -1265480.000000 0 0 1
-3.397048 -24.419131 14.112203 28.407537 1.432569 1.050915 -0.025446 -0.005179 -260477.000000 0 0 1
-2.312748 -25.114231 15.001903 29.345025 1.478966 1.034187 -0.018850 -0.010923 131177.000000 0 0 1
-2.767348 -25.787231 16.135003 30.544686 1.463891 1.014267 -0.016895 -0.011595 -535403.000000 0 0 1
-1.715748 -26.397131 16.839403 31.357899 1.505890 1.003912 -0.022845 -0.011678 -285892.000000 0 0 1
-2.142448 -27.037231 18.154503 32.637217 1.491721 0.980928 -0.022240 -0.007827 -11617.300000 0 0 1
-2.647848 -26.030031 19.030703 32.353381 1.469422 0.941948 -0.004118 -0.010667 -142241.000000 0 0 1
-2.597448 -26.513331 20.323203 33.507253 1.473140 0.919106 0.007200 -0.010492 145398.000000 0 0 1
-2.946248 -25.415331 21.365003 33.332908 1.455387 0.875050 0.020004 -0.015356 -268523.000000 0 0 1
-2.771548 -25.698731 22.734703 34.423436 1.463364 0.849388 0.020122 -0.017467 -40635.800000 0 0 1
-2.817248 -24.604831 23.603803 34.212192 1.456793 0.809413 0.014326 -0.015313 319608.000000 0 0 1
-1.645548 -23.574031 23.520503 33.341518 1.501106 0.787750 -0.004911 -0.007478 201616.000000 0 0 1
-1.957648 -22.547331 22.628203 32.003907 1.484190 0.785486 0.012981 -0.008180 495344.000000 0 0 1
-0.829348 -21.676531 22.452203 31.219565 1.532555 0.768188 0.013445 -0.009004 70984.700000 0 0 1
-1.236948 -20.422731 21.596403 29.749330 1.510303 0.758388 0.003220 0.009203 608508.000000 0 0 1
-2.174648 -19.481931 22.158603 29.585105 1.459633 0.724277 0.002419 -0.003486 445275.000000 0 0 1
-3.441148 -19.901331 22.602803 30.311568 1.399579 0.729238 0.019034 -0.009014 -541533.000000 0 0 1
-4.624448 -19.617031 21.644103 29.575000 1.339287 0.749781 0.017311 -0.005852 -141225.000000 0 0 1
-4.798848 -20.401531 20.502103 29.318725 1.339776 0.796402 0.025350 -0.008802 -58522.900000 0 0 1
-5.113448 -21.777731 20.654403 30.447024 1.340172 0.825252 0.025072 -0.010039 -164186.000000 0 0 1
-5.059148 -22.475431 19.288703 30.046531 1.349390 0.873743 0.019641 -0.014734 -21322.300000 0 0 1
-5.425348 -23.835931 19.345403 31.174198 1.346997 0.901342 0.038004 -0.017280 -411724.000000 0 0 1
-5.386848 -24.417131 18.056203 30.842193 1.353657 0.945376 0.028898 -0.018250 -73265.200000 0 0 1
-5.998848 -25.830231 17.935203 32.013411 1.342600 0.976120 0.012364 -0.014281 167469.000000 0 0 1
-7.401248 -25.716231 18.034403 32.269842 1.290565 0.977783 0.025142 -0.011722 -687504.000000 0 0 1
-8.034248 -26.947831 17.801203 33.280889 1.281046 1.006433 0.018006 -0.006476 543554.000000 0 0 1
-9.558748 -26.919831 18.119003 33.828172 1.229601 1.005556 0.026121 -0.005852 -308012.000000 0 0 1
-10.340048 -26.204631 17.163803 32.987807 1.194964 1.023585 0.027183 -0.002145 222683.000000 0 0 1
-11.729348 -26.404831 17.409403 33.732477 1.152766 1.028502 0.026636 -0.000788 589318.000000 0 0 1
-12.316648 -25.642331 18.621403 33.999788 1.123012 0.991193 0.022680 0.002551 -1095360.000000 0 0 1
-12.636748 -24.321231 18.165803 32.881698 1.091610 0.985484 0.023042 0.004001 -58615.400000 0 0 1
-12.660648 -23.331031 19.213803 32.768876 1.073611 0.944259 0.011658 0.009106 88770.600000 0 0 1
-11.314448 -22.737531 19.706203 32.145707 1.109062 0.910909 0.001926 0.005684 106082.000000 0 0 1
-10.515948 -23.609031 20.464203 32.965969 1.151757 0.901075 0.005674 0.003441 -642283.000000 0 0 1
-9.173048 -23.366431 20.143703 32.185458 1.196708 0.894558 0.026306 -0.004599 -669965.000000 0 0 1
-8.219448 -24.149131 20.999703 33.041298 1.242733 0.882064 0.021402 -0.015159 -472017.000000 0 0 1
-8.348548 -23.759731 22.365603 33.681497 1.232898 0.844597 0.025909 -0.009160 -304320.000000 0 0 1
-7.412748 -24.472131 23.096603 34.457033 1.276676 0.836181 0.015769 -0.007196 -268122.000000 0 0 1
-7.552048 -24.280631 24.567303 35.357246 1.269250 0.802612 0.010575 -0.004901 -134794.000000 0 0 1
-6.685948 -25.048031 25.378503 36.279115 1.309953 0.796050 0.009897 -0.009897 -44481.600000 0 0 1
-6.615548 -24.518731 26.677703 36.832506 1.307256 0.760781 0.013219 -0.005461 -600422.000000 0 0 1
-5.597648 -25.137831 27.606903 37.754275 1.351693 0.750679 -0.009143 -0.005268 -288153.000000 0 0 1
-4.306148 -24.615531 27.354803 37.050675 1.397613 0.740238 -0.005402 -0.011339 -593519.000000 0 0 1
-3.358648 -24.850531 28.332803 37.836188 1.436456 0.724504 -0.006748 -0.008443 -842708.000000 0 0 1
-1.982848 -24.440731 27.859703 37.113934 1.489845 0.721746 -0.010620 -0.007602 -1449700.000000 0 0 1
-1.971448 -23.025331 27.674803 36.054781 1.485384 0.695745 -0.006408 -0.006023 582968.000000 0 0 1
-0.792848 -22.435231 27.071903 35.168965 1.535472 0.692321 -0.002518 -0.013243 -19701.500000 0 0 1
0.289352 -22.195031 28.093903 35.804616 -1.557760 0.668673 0.005894 -0.005201 -1076730.000000 0 0 1
0.755852 -23.364931 28.725603 37.035815 -1.538458 0.683105 0.007847 -0.001579 -247814.000000 0 0 1
1.563352 -23.059231 29.834403 37.739420 -1.503103 0.659111 -0.004258 -0.008579 -353896.000000 0 0 1
2.143552 -24.377231 30.384603 39.013694 -1.483089 0.678016 0.025606 -0.019946 -760492.000000 0 0 1
3.006652 -25.006531 29.483003 38.776462 -1.451136 0.706972 0.025417 -0.029931 210521.000000 0 0 1
3.810652 -26.044231 30.016803 39.922819 -1.425513 0.719901 0.016638 -0.013016 133841.000000 0 0 1
5.162952 -25.643931 30.723003 40.350591 -1.372120 0.705324 0.005910 -0.017325 727681.000000 0 0 1
6.221152 -25.236931 29.865203 39.592118 -1.329105 0.716176 0.005437 -0.017070 138467.000000 0 0 1
6.783952 -26.218731 29.042003 39.709971 -1.317605 0.750493 -0.002313 -0.007324 -728764.000000 0 0 1
7.989452 -25.638031 28.259303 38.983691 -1.268709 0.759906 -0.015530 -0.008469 -177673.000000 0 0 1
7.613752 -24.640431 27.319903 37.569897 -1.271108 0.756598 -0.002024 -0.005992 -510797.000000 0 0 1
8.673952 -24.113831 26.613803 36.946025 -1.225499 0.766500 -0.018725 0.006630 -815728.000000 0 0 1
8.258952 -22.930431 25.753203 35.457614 -1.225086 0.757859 -0.000237 0.006050 -268228.000000 0 0 1
7.509452 -23.232031 24.626903 34.678574 -1.258160 0.781089 -0.002168 0.011153 -237389.000000 0 0 1
7.321752 -22.204931 23.714503 33.302322 -1.252287 0.778315 0.001156 0.019728 -23373.500000 0 0 1
6.573652 -22.626731 22.442303 32.539804 -1.288054 0.809739 -0.001399 0.025903 8204.070000 0 0 1
7.317352 -23.591331 21.726103 32.895563 -1.270034 0.849369 -0.010868 0.020495 782351.000000 0 0 1
6.666052 -23.645531 20.403403 31.935031 -1.296012 0.877724 -0.007141 0.011801 481456.000000 0 0 1
7.414352 -24.525531 19.374703 32.122475 -1.277220 0.923351 0.001273 0.003513 -1013170.000000 0 0 1
8.702752 -24.107731 19.177403 32.010832 -1.224361 0.928431 0.019236 -0.004247 -1509610.000000 0 0 1
9.364852 -25.056431 18.350503 32.438652 -1.213122 0.969516 0.031830 -0.012297 467435.000000 0 0 1
10.759252 -24.488231 17.956903 32.216228 -1.156822 0.979561 0.020290 -0.008986 503435.000000 0 0 1
10.507852 -23.507131 16.951703 30.827916 -1.150434 0.988574 0.030071 -0.005306 174022.000000 0 0 1
11.776652 -23.179131 16.414603 30.747371 -1.100713 1.007645 0.025655 -0.013635 281528.000000 0 0 1
-12.126148 22.887266 11.232603 28.231928 -1.083578 1.161604 0.005752 -0.002541 222186.000000 0 0 1
-13.149548 21.909666 11.018103 27.827013 -1.030251 1.163694 -0.013285 -0.002177 468120.000000 0 0 1
-12.597248 20.821666 10.326903 26.436288 -1.026704 1.169477 -0.005481 -0.007037 -420990.000000 0 0 1
-13.610748 20.153466 9.419903 26.079671 -0.976803 1.201245 -0.017258 0.001980 -1032190.000000 0 0 1
-13.776948 20.861966 8.217103 26.316282 -0.987155 1.253242 -0.013915 0.006100 572978.000000 0 0 1
-14.687148 20.356966 7.221403 26.120242 -0.945799 1.290680 0.000793 0.009808 92425.200000 0 0 1
-16.162548 20.141566 7.555003 26.907038 -0.894565 1.286188 -0.014906 0.009580 -959308.000000 0 0 1
-16.374948 19.065066 8.420903 26.505231 -0.861159 1.247486 -0.019965 0.008525 552869.000000 0 0 1
-17.746248 19.042866 8.830603 27.487081 -0.820628 1.243733 -0.000063 0.011835 518141.000000 0 0 1
-18.033548 17.868866 9.792103 27.210118 -0.780811 1.202668 -0.016837 0.013353 -154993.000000 0 0 1
-17.868548 16.559866 9.224803 26.050166 -0.747405 1.208827 -0.022760 0.014522 -41693.200000 0 0 1
-18.178848 15.592966 10.215103 26.037654 -0.708978 1.167643 -0.018151 0.010759 -337627.000000 0 0 1
-17.097448 15.000366 11.151003 25.331375 -0.720157 1.114969 -0.016559 0.008757 -113551.000000 0 0 1
-16.337048 14.049666 10.383003 23.918591 -0.710264 1.121760 -0.028310 0.008851 268502.000000 0 1 0
-15.597948 13.053166 11.139103 23.189669 -0.696811 1.069745 -0.031496 -0.001005 -251714.000000 0 1 0
-16.288448 12.049266 12.029903 23.563041 -0.636904 1.034982 -0.017823 -0.009463 -313840.000000 0 1 0
-17.200448 11.197966 11.320803 23.439506 -0.577097 1.066742 -0.036470 -0.010030 679195.000000 0 1 0
-18.198848 10.597066 12.165203 24.320527 -0.527298 1.046963 -0.001993 -0.009434 580006.000000 0 1 0
-19.409748 9.977766 11.404803 24.624453 -0.474832 1.089251 0.010550 -0.016682 -78163.800000 0 1 0
-19.109148 8.923166 10.501403 23.559752 -0.436866 1.108801 0.008173 -0.019111 299314.000000 0 1 0
-18.687448 9.317966 9.180403 22.810634 -0.462544 1.156592 0.010043 -0.010750 -956531.000000 0 1 0
-19.824948 9.665966 8.242403 23.545630 -0.453651 1.213160 0.018909 -0.006662 -654405.000000 0 1 0
-20.548248 8.531266 7.855603 23.594989 -0.393526 1.231382 0.024624 -0.006801 281733.000000 0 1 0
-21.217148 8.732566 6.634103 23.883810 -0.390450 1.289329 0.021118 -0.004094 -184972.000000 0 1 0
-21.252348 7.429266 5.867803 23.265584 -0.336295 1.315833 0.010108 -0.002875 -587802.000000 0 1 0
-22.122848 6.471666 6.422803 23.928127 -0.284592 1.299043 0.020739 -0.002990 -78155.100000 0 1 0
-21.767448 5.121966 6.277403 23.226324 -0.231100 1.297122 0.016179 -0.010300 -953372.000000 0 1 0
-22.917448 4.100666 6.391503 24.142829 -0.177058 1.302865 0.049720 -0.005172 -319236.000000 0 1 0
-23.886948 4.319066 5.388403 24.865146 -0.178880 1.352358 0.039658 -0.011241 -43944.100000 0 1 0
-24.615048 3.132666 5.207603 25.354158 -0.126586 1.363930 0.042284 -0.012344 -1031950.000000 0 0 1
-25.717888 3.242866 4.185503 26.257273 -0.125432 1.410710 0.047024 -0.009909 -814532.000000 0 0 1
-25.239888 3.344266 2.877803 25.622604 -0.131732 1.458244 0.041125 -0.011595 409151.000000 0 0 1
-26.260338 3.078366 1.925603 26.510180 -0.116692 1.498096 0.039581 -0.006511 -22049.600000 0 0 1
-25.820368 3.136966 0.438303 26.013921 -0.120899 1.553947 0.041844 -0.009619 -284877.000000 0 0 1
-25.548278 4.418566 0.006903 25.927558 -0.171256 1.570530 0.043127 -0.018567 435604.000000 0 0 1
-25.295588 4.465766 -1.397897 25.724773 -0.174743 1.625164 0.048768 -0.012346 -254916.000000 0 0 1
-26.539028 4.930066 -2.219797 27.084185 -0.183673 1.652848 0.041805 -0.018248 -103684.000000 0 0 1
-27.576948 4.029466 -2.133197 27.951300 -0.145090 1.647189 0.029128 -0.014621 178295.000000 0 0 1
-28.867828 4.619366 -2.316697 29.326731 -0.158673 1.649875 0.011871 -0.008125 93575.600000 0 0 1
-29.979998 3.606766 -2.478697 30.297739 -0.119730 1.652699 0.007716 0.000798 -902267.000000 0 0 1
-29.979348 3.035666 -3.722197 30.361675 -0.100915 1.693701 0.004213 0.001552 196706.000000 0 0 1
-30.828488 1.923666 -3.814397 31.123075 -0.062318 1.693664 0.014039 0.004058 -247092.000000 0 0 1
-30.824338 1.293466 -5.228797 31.291424 -0.041938 1.738684 0.011557 0.002559 601964.000000 0 0 1
-29.502908 0.846266 -5.612497 30.043932 -0.028676 1.758710 0.016267 0.000646 1278660.000000 0 0 1
-29.530638 0.067466 -6.778797 30.298766 -0.002285 1.796438 0.013822 -0.004253 -220218.000000 0 0 1
-29.981548 0.649766 -8.167097 31.080812 -0.021669 1.836688 0.010317 0.002936 608745.000000 0 0 1
-31.399338 0.864966 -8.234397 32.472633 -0.027540 1.827175 -0.000780 0.002424 905614.000000 0 0 1
-31.761748 1.601366 -9.337397 33.144532 -0.050375 1.856380 -0.003611 0.004567 -663298.000000 0 0 1
-33.264538 1.838866 -9.441997 34.627478 -0.055224 1.846967 0.007802 0.009870 -560588.000000 0 0 1
-33.689198 2.806566 -8.563397 34.873638 -0.083116 1.818889 -0.005989 0.016129 498950.000000 0 0 1
34.765082 2.684166 -8.122497 35.802104 0.077056 1.799661 0.006424 0.014917 211872.000000 0 0 1
34.344921 3.832066 -7.170697 35.294152 0.111116 1.775390 0.012404 0.010634 353053.000000 0 0 1
33.001854 3.700066 -6.689697 33.875727 0.111651 1.769580 0.027868 0.008600 884422.000000 0 0 1
32.845734 4.554866 -5.584797 33.627057 0.137796 1.737650 0.020726 0.004709 453537.000000 0 0 1
31.443974 4.327266 -4.934997 32.121689 0.136759 1.725042 0.036253 -0.001003 621756.000000 0 0 1
31.564344 3.179166 -4.153597 31.994800 0.100382 1.700985 0.037096 -0.001325 -373968.000000 0 0 1
30.393024 2.435666 -4.254097 30.785803 0.079968 1.709424 0.060909 0.004154 -584892.000000 0 0 1
30.393954 1.130566 -3.429197 30.607679 0.037180 1.683069 0.053687 0.004425 161914.000000 0 0 1
31.268424 0.130166 -3.964697 31.519043 0.004163 1.696918 0.045624 -0.004896 285754.000000 0 0 1
31.087544 -1.091434 -3.341997 31.285708 -0.035094 1.677822 0.040925 0.001133 -24648.800000 0 0 1
32.199184 -2.082634 -3.718897 32.480071 -0.064590 1.685546 0.034471 0.001580 68113.300000 0 0 1
32.017194 -3.404734 -3.213997 32.357730 -0.105943 1.670287 0.024847 0.004998 885075.000000 0 0 1
33.276064 -4.113434 -3.312897 33.692611 -0.122991 1.669283 0.038653 0.001191 735118.000000 0 0 1
33.214054 -5.579234 -2.888897 33.803061 -0.166424 1.656363 0.016924 0.005776 -151383.000000 0 0 1
32.941474 -5.737134 -1.479397 33.470047 -0.172432 1.615011 0.013668 0.007789 -16673.200000 0 0 1
33.207444 -7.076534 -1.070497 33.969952 -0.209960 1.602315 0.018413 0.005019 -56132.600000 0 0 1
32.657934 -7.324134 0.355903 33.471036 -0.220618 1.560163 0.007450 0.009903 485950.000000 0 0 1
31.235734 -7.299134 0.440103 32.080245 -0.229560 1.557077 0.005899 0.008740 384381.000000 0 0 1
30.584794 -7.465534 1.674703 31.527265 -0.239411 1.517652 0.006814 0.006928 -322657.000000 0 0 1
30.458844 -8.935234 2.247003 31.821826 -0.285349 1.500125 0.011272 0.004849 -307415.000000 0 0 1
29.494574 -9.797934 1.685203 31.125059 -0.320725 1.516627 0.009214 -0.002681 456866.000000 0 0 1
28.164764 -9.513234 2.108203 29.802686 -0.325739 1.499998 0.010008 -0.005771 -1537290.000000 0 0 1
27.243894 -10.686734 1.942103 29.329299 -0.373818 1.504531 0.009226 -0.005970 -231312.000000 0 0 1
25.912824 -10.573834 2.478903 28.096715 -0.387430 1.482454 0.020471 -0.008228 964978.000000 0 0 1
25.062064 -9.537534 2.069203 26.895226 -0.363633 1.493785 0.023190 -0.004858 -1106510.000000 0 0 1
24.566514 -9.682834 0.624803 26.413278 -0.375451 1.547139 0.016934 -0.000213 -1097340.000000 0 0 1
25.526374 -9.412034 -0.385897 27.209025 -0.353252 1.584979 0.010442 -0.005581 325952.000000 0 0 1
25.036464 -9.542234 -1.723597 26.848641 -0.364137 1.635037 -0.000071 -0.000272 -271505.000000 0 0 1
24.622014 -10.979034 -2.135297 27.043340 -0.419442 1.649837 0.002026 0.006126 176683.000000 0 0 1
23.252014 -11.158434 -1.791197 25.852953 -0.447431 1.640136 0.008186 0.003505 168649.000000 0 0 1
22.929914 -12.458734 -2.121297 26.182072 -0.497715 1.651906 -0.001034 0.006739 370281.000000 0 0 1
21.490614 -12.867334 -1.654397 25.102825 -0.539494 1.636749 0.003327 0.009418 -135343.000000 0 0 1
20.535314 -12.292034 -2.450897 24.058265 -0.539375 1.672847 -0.001259 0.008781 -1557420.000000 0 1 0
19.271414 -12.721834 -2.083397 23.185621 -0.583471 1.660775 0.000560 0.010603 -742859.000000 0 1 0
18.176414 -12.207934 -3.037797 22.105291 -0.591435 1.708657 -0.004661 0.008794 -207857.000000 0 1 0
18.250914 -12.797234 -4.327797 22.706715 -0.611520 1.762565 -0.002798 0.000935 252386.000000 0 1 0
17.338414 -12.185334 -5.206697 21.822297 -0.612599 1.811715 0.003128 -0.002259 -802652.000000 0 1 0
17.425514 -12.777234 -6.640797 22.605451 -0.632694 1.868965 -0.001160 -0.005810 -500013.000000 0 1 0
16.856214 -14.082034 -6.798597 22.992533 -0.695969 1.870971 0.005965 -0.004613 351818.000000 0 1 0
16.700314 -14.222134 -8.189797 23.414576 -0.705427 1.928126 -0.002907 -0.013799 -652901.000000 0 1 0
15.942914 -15.459034 -8.647297 23.831366 -0.769990 1.942125 0.005932 -0.014506 -1455720.000000 0 1 0
14.607614 -15.459834 -8.275197 22.822527 -0.813734 1.941841 0.012855 -0.013381 15761.700000 0 1 0
13.789414 -16.408634 -9.045897 23.264124 -0.871916 1.970163 0.014899 -0.011794 532374.000000 0 1 0
13.670114 -16.225534 -10.632997 23.731848 -0.870669 2.035377 0.008370 -0.010740 -688796.000000 0 1 0
12.896314 -15.149434 -11.188497 22.825484 -0.865563 2.083088 0.006539 -0.007072 479909.000000 0 1 0
13.309714 -13.819334 -10.811497 22.022964 -0.804181 2.083941 0.011186 -0.006817 -216710.000000 0 1 0
13.358014 -12.751334 -11.940597 21.991155 -0.762166 2.144769 0.022424 -0.000356 110163.000000 0 1 0
14.395814 -13.000434 -12.889997 23.289542 -0.734509 2.157318 0.014590 0.004648 335472.000000 0 1 0
14.356514 -12.098434 -13.966197 23.399493 -0.700249 2.210377 0.022268 -0.003970 102286.000000 0 1 0
15.569714 -12.219134 -14.959997 24.809771 -0.665405 2.218038 0.020548 -0.000088 405825.000000 0 1 0
15.660614 -13.400634 -15.708497 25.915028 -0.707788 2.222012 0.013130 0.003719 27608.700000 0 0 1
16.628614 -13.293434 -16.727697 27.074749 -0.674394 2.236781 0.010043 0.004791 251974.000000 0 0 1
17.894014 -14.177734 -16.523497 28.182083 -0.670039 2.197295 0.017425 0.002216 -200826.000000 0 0 1
18.702114 -13.849434 -15.455497 27.936504 -0.637411 2.157041 0.008909 -0.002153 -520148.000000 0 0 1
19.699114 -14.805134 -15.295197 29.003278 -0.644501 2.126288 0.009660 0.000695 -342186.000000 0 0 1
20.722214 -14.640334 -14.147797 29.050124 -0.615078 2.079463 -0.001080 0.007627 -330635.000000 0 0 1
21.422814 -13.476834 -14.220697 29.030850 -0.561534 2.082711 0.001322 0.002048 -234283.000000 0 0 1
22.393114 -13.348534 -13.193297 29.218111 -0.537547 2.039293 -0.004905 0.011272 521822.000000 0 0 1
23.133514 -11.965534 -13.158097 29.179941 -0.477343 2.038603 0.014766 0.001468 -51508.300000 0 0 1
22.259514 -10.931534 -12.733097 27.876803 -0.456498 2.045150 0.009322 -0.000830 330390.000000 0 0 1
22.722414 -9.610134 -12.960597 27.868259 -0.400121 2.054506 0.020699 -0.001471 64789.300000 0 0 1
23.837914 -9.063134 -12.022297 28.194364 -0.363320 2.011314 0.017985 -0.003673 498728.000000 0 0 1
25.067294 -9.766034 -12.125997 29.509057 -0.371502 1.994264 0.011742 0.010106 -297291.000000 0 0 1
25.995724 -9.363634 -11.180297 29.806951 -0.345732 1.955290 0.000091 0.007044 -715751.000000 0 0 1
27.302134 -10.145834 -11.394797 31.275963 -0.355798 1.943710 -0.016870 0.016749 -442734.000000 0 0 1
27.887934 -9.850734 -12.609997 32.152540 -0.339546 1.973811 -0.030005 0.013771 -72774.100000 0 0 1
29.151274 -10.467134 -12.764997 33.500788 -0.344726 1.961713 -0.032944 0.018354 164005.000000 0 0 1
29.939634 -10.020434 -13.991197 34.533236 -0.322969 1.987941 -0.030482 0.019382 -308398.000000 0 0 1
29.294344 -10.484734 -15.184297 34.621541 -0.343704 2.024814 -0.027481 0.014131 549369.000000 0 0 1
30.115834 -10.195834 -16.297697 35.728608 -0.326442 2.044463 -0.021454 0.013278 1714.610000 0 0 1
29.703804 -10.955334 -17.585897 36.216006 -0.353341 2.077827 -0.035956 0.010181 448910.000000 0 0 1
28.467524 -10.615734 -18.224497 35.429169 -0.356934 2.111095 -0.018172 0.002479 542174.000000 0 0 1
28.583564 -9.502034 -19.151797 35.694539 -0.320937 2.137136 -0.022121 0.003860 -209584.000000 0 0 1
27.262704 -8.979334 -19.739197 34.835605 -0.318173 2.173217 -0.051153 0.002380 -182498.000000 0 0 1
26.674034 -9.741334 -20.729197 35.158175 -0.350151 2.201358 -0.035567 0.005195 -826048.000000 0 0 1
25.389334 -9.341634 -21.038997 34.271326 -0.352563 2.231782 0.001727 0.006229 -849694.000000 0 0 1
25.023004 -9.852034 -22.401897 35.000832 -0.375080 2.265345 0.012921 -0.000684 -358616.000000 0 0 1
24.671514 -11.169734 -22.327897 35.099594 -0.425129 2.260268 0.010222 0.000400 52408.400000 0 0 1
24.078914 -11.536234 -23.563597 35.610699 -0.446789 2.293880 0.011780 -0.004253 -610010.000000 0 0 1
23.866514 -13.095134 -23.744197 36.123121 -0.501831 2.288044 0.007851 0.003066 376732.000000 0 0 1
24.954694 -13.833634 -24.265597 37.455645 -0.506177 2.275553 0.002424 0.005075 -89412.900000 0 0 1
26.192924 -13.748134 -23.596297 37.840001 -0.483353 2.244111 -0.008318 0.011080 -243726.000000 0 0 1
27.351634 -14.453934 -24.338497 39.362298 -0.486147 2.237400 -0.020204 0.014020 226838.000000 0 0 1
27.711384 -13.830534 -25.614617 40.190957 -0.462921 2.261815 -0.024095 -0.000220 -423224.000000 0 0 1
29.036724 -14.115034 -25.929327 41.408882 -0.452474 2.247438 -0.039793 0.001011 -532271.000000 0 0 1
29.660704 -13.460334 -27.194447 42.432015 -0.426018 2.266459 -0.032752 -0.002280 63812.500000 0 0 1
29.442834 -14.130734 -28.411027 43.286771 -0.447470 2.286759 -0.021456 -0.007676 77491.400000 0 0 1
30.275434 -13.611734 -29.404747 44.345466 -0.422518 2.295727 -0.028421 -0.005224 -79442.200000 0 0 1
30.130324 -14.417234 -30.732507 45.389206 -0.446297 2.314595 -0.021373 -0.009533 512463.000000 0 0 1
30.974174 -15.600034 -30.642087 46.278483 -0.466561 2.294446 -0.016272 -0.013408 480881.000000 0 0 1
31.240054 -16.162934 -31.943787 47.514071 -0.477454 2.308110 -0.030377 -0.012092 37778.000000 0 0 1
30.085344 -16.967334 -32.635737 47.519571 -0.513508 2.327853 -0.031569 -0.009968 953481.000000 0 0 1
29.090084 -16.080334 -33.196667 46.976897 -0.504973 2.355562 -0.035547 -0.010237 673685.000000 0 0 1
27.891594 -16.789534 -33.523917 46.729888 -0.541857 2.370856 -0.028544 -0.009909 561878.000000 0 0 1
27.076954 -16.051634 34.623246 46.793007 -0.535120 0.737840 -0.001921 -0.008785 173708.000000 0 0 1
26.327904 -14.878934 -34.249986 45.690291 -0.514392 2.418272 0.000978 -0.012636 245955.000000 0 0 1
27.166274 -13.861834 -33.727347 45.471868 -0.471821 2.406426 -0.011351 -0.003664 -401562.000000 0 0 1
26.369544 -12.604134 -33.548017 44.493668 -0.445878 2.424920 -0.001623 -0.005966 -32264.800000 0 0 1
25.888204 -11.911534 34.609571 44.831977 -0.431233 0.688840 0.021485 -0.006222 -160208.000000 0 0 1
25.442754 -10.616234 -34.339953 44.037149 -0.395296 2.465135 0.011870 -0.009680 125929.000000 0 0 1
20.224752 -30.256531 8.932703 37.473877 -0.981565 1.330108 0.014342 -0.013162 -63446.900000 0 0 1
20.647552 -29.814531 7.688103 37.072019 -0.965099 1.361897 0.020517 -0.014255 191235.000000 0 0 1
21.834752 -30.520731 7.343703 38.238742 -0.949805 1.377547 0.019220 -0.013977 150696.000000 0 0 1
22.479352 -30.068631 6.014003 38.021205 -0.928832 1.411954 0.011069 -0.004807 -118650.000000 0 0 1
22.999352 -28.758731 5.997903 37.309645 -0.896217 1.409336 0.001375 0.012716 496303.000000 0 0 1
23.736752 -28.505431 4.781603 37.401293 -0.876426 1.442600 -0.011882 0.016001 314863.000000 0 0 1
23.601952 -27.069531 4.351703 36.176635 -0.853724 1.450214 -0.016411 0.016875 376022.000000 0 0 1
24.462652 -26.222331 5.136603 36.227292 -0.820102 1.428529 -0.017590 0.021917 566037.000000 0 0 1
24.115152 -24.865831 4.973303 34.994054 -0.800723 1.428195 -0.020531 0.025977 -12906.500000 0 0 1
24.818752 -23.950831 6.012603 35.010915 -0.767604 1.398206 -0.021891 0.028694 681661.000000 0 0 1
26.198452 -23.686631 5.715203 35.778190 -0.735089 1.410369 -0.026120 0.023913 728719.000000 0 0 1
26.804952 -22.879531 6.736703 35.879821 -0.706555 1.381918 -0.011093 0.017256 23054.800000 0 0 1
26.383152 -21.409531 6.704203 34.632139 -0.681705 1.375983 -0.008127 0.028415 -350332.000000 0 0 1
26.771452 -20.680731 5.574503 34.285250 -0.657741 1.407479 -0.011578 0.034071 -53703.200000 0 0 1
26.257352 -19.373931 5.581603 33.105166 -0.635678 1.401385 0.006624 0.030485 12183.900000 0 0 1
26.221152 -18.574831 4.274603 32.416745 -0.616335 1.438547 -0.012581 0.037908 -434104.000000 0 0 1
27.516352 -18.219031 3.887803 33.229471 -0.584846 1.453529 -0.004541 0.024157 -163770.000000 0 0 1
27.459552 -17.620131 2.630503 32.732485 -0.570501 1.490346 -0.011353 0.036363 157383.000000 0 0 1
28.722452 -16.760331 2.428903 33.343478 -0.528219 1.497887 -0.010033 0.015073 80457.900000 0 0 1
28.583152 -15.575531 3.143003 32.702786 -0.498935 1.474540 -0.000548 0.010353 -68650.800000 0 0 1
29.806952 -15.073031 3.635203 33.598591 -0.468188 1.462389 0.004215 0.007834 -323129.000000 0 0 1
29.746052 -13.835631 4.549503 33.120239 -0.435360 1.432997 0.016556 0.000564 122323.000000 0 0 1
29.250352 -14.147831 5.856803 33.015850 -0.450507 1.392459 0.014342 -0.001918 49827.300000 0 0 1
28.752552 -12.999631 6.518003 32.220863 -0.424616 1.367099 0.002017 -0.000844 36233.500000 0 0 1
28.225352 -13.336231 7.957403 32.215614 -0.441399 1.321209 0.019440 -0.001433 -438556.000000 0 0 1
26.948552 -13.892831 7.972803 31.349654 -0.475996 1.313653 0.014901 -0.001949 -588034.000000 0 0 1
26.193252 -13.868431 9.172903 31.025183 -0.486941 1.270650 0.020185 0.000290 369231.000000 0 0 1
26.559052 -14.904631 10.268303 32.139840 -0.511393 1.245607 0.028375 -0.006777 123259.000000 0 0 1
27.731252 -14.665131 11.033803 33.254070 -0.486445 1.232582 0.011842 0.001240 55835.500000 0 0 1
27.981652 -15.905931 11.697103 34.246076 -0.516891 1.222220 0.025363 -0.008457 -360668.000000 0 0 1
28.735852 -15.727731 13.003103 35.244736 -0.500784 1.192931 0.019829 -0.010707 -460118.000000 0 0 1
30.130152 -15.627631 12.852203 36.293636 -0.478472 1.208826 0.007230 -0.006025 -373102.000000 0 0 1
30.636352 -15.733131 14.177203 37.243933 -0.474424 1.180289 0.014496 -0.006679 -291995.000000 0 0 1
32.171152 -15.682131 14.231303 38.515480 -0.453565 1.192330 0.009849 -0.016849 -514869.000000 0 0 1
32.678352 -14.362631 13.972903 38.332778 -0.414101 1.197684 0.012323 -0.014962 -499195.000000 0 0 1
33.963752 -14.325031 14.491603 39.607443 -0.399135 1.196217 0.007927 -0.016475 -811437.000000 0 0 1
34.687452 -12.978231 14.215503 39.670320 -0.358023 1.204306 0.008221 -0.012919 -143359.000000 0 0 1
-34.276410 -12.977631 13.079603 38.914871 0.361938 1.228015 0.018473 -0.013160 152680.000000 0 0 1
-33.612410 -11.740831 12.942303 37.883300 0.336051 1.222139 0.019947 -0.008307 240361.000000 0 0 1
-32.480010 -11.636831 11.861103 36.483594 0.344029 1.239671 0.015927 -0.010413 1223610.000000 0 0 1
-31.270110 -12.392331 12.080503 35.739729 0.377312 1.225991 0.007467 -0.005217 820749.000000 0 0 1
-31.381910 -13.811231 11.945503 36.307980 0.414592 1.235547 0.000312 -0.010235 -1005450.000000 0 0 1
-30.165310 -14.534231 12.465703 35.729309 0.448998 1.214407 -0.006838 -0.011247 -324644.000000 0 0 1
-28.954110 -14.318131 11.777903 34.381221 0.459247 1.221147 -0.002527 -0.010558 -486193.000000 0 0 1
-28.054810 -15.318931 12.111203 34.182207 0.499795 1.208617 0.003078 -0.005513 385966.000000 0 0 1
-26.646610 -15.348631 11.406703 32.798402 0.522591 1.215592 0.008306 0.002448 814779.000000 0 0 1
-26.748010 -15.456331 9.989303 32.467528 0.523973 1.258052 0.003977 0.002442 -851989.000000 0 0 1
-25.492510 -15.279431 9.449903 31.187012 0.539956 1.262949 0.008712 0.001175 -800397.000000 0 0 1
-25.410310 -15.011031 7.927203 30.559049 0.533587 1.308389 0.015262 0.012552 -120644.000000 0 0 1
-25.652810 -16.176031 7.154103 31.159458 0.562599 1.339133 0.020434 0.016860 151019.000000 0 0 1
-25.691910 -15.816431 5.760403 30.715077 0.551825 1.382136 0.026895 0.015440 -218736.000000 0 0 1
-26.067810 -16.908131 4.718403 31.427360 0.575405 1.420090 0.023088 0.015592 -659421.000000 0 0 1
-27.424810 -17.202131 4.692803 32.711709 0.560214 1.426840 0.007383 0.005192 -752704.000000 0 0 1
-27.735710 -18.245531 3.793903 33.415007 0.581864 1.457012 0.014263 0.008189 167509.000000 0 0 1
-29.225610 -18.634131 3.960603 34.886294 0.567606 1.457022 0.020404 0.001991 87524.600000 0 0 1
-30.119610 -17.760831 3.325103 35.123985 0.532794 1.475987 0.024797 0.004960 117166.000000 0 0 1
-31.467210 -18.127531 3.623403 36.495503 0.522643 1.471349 0.030078 0.003326 1001570.000000 0 0 1
-32.556910 -17.263731 2.891903 36.964197 0.487564 1.492481 0.018122 -0.004657 534421.000000 0 0 1
-32.620810 -17.531631 1.517003 37.064493 0.493147 1.529856 0.021158 -0.004873 304441.000000 0 0 1
-33.686510 -16.769331 0.951903 37.641699 0.461890 1.545505 0.030204 -0.002930 -235488.000000 0 0 1
-33.961710 -17.073831 -0.522597 38.015609 0.465835 1.584544 0.024163 -0.003739 -684875.000000 0 0 1
-32.858410 -16.879731 -1.367397 36.965798 0.474556 1.607796 0.026760 -0.004785 -277548.000000 0 0 1
-33.017610 -17.663931 -2.496097 37.528756 0.491242 1.637357 0.013876 0.000871 -811016.000000 0 0 1
-31.840610 -18.343531 -3.137997 36.880301 0.522664 1.655985 0.007748 -0.000695 -1029070.000000 0 0 1
-32.266110 -19.382631 -3.945997 37.846521 0.540943 1.675249 0.000718 -0.001875 -279743.000000 0 0 1
-31.241310 -19.954131 -4.698397 37.366586 0.568397 1.696868 -0.016490 0.001795 -644699.000000 0 0 1
-31.799110 -20.964931 -5.699597 38.512298 0.582880 1.719336 -0.013643 -0.000804 -373686.000000 0 0 1
-32.221510 -22.159231 -5.031897 39.428127 0.602434 1.698767 -0.001224 -0.001986 12589.300000 0 0 1
-32.310410 -23.146031 -6.020097 40.198792 0.621625 1.721120 -0.001471 0.001483 7007.250000 0 0 1
-32.885910 -24.522531 -5.637997 41.408026 0.640734 1.707378 0.004263 0.004687 -91675.100000 0 0 1
-32.014410 -25.452331 -5.027297 41.207005 0.671701 1.693102 0.004379 0.010790 -269879.000000 0 0 1
-32.702110 -26.669931 -4.726997 42.462427 0.684146 1.682349 0.002168 0.023175 467276.000000 0 0 1
-31.810410 -27.644831 -3.893797 42.323758 0.715450 1.662927 -0.005826 0.015660 201868.000000 0 0 1
-30.697110 -28.117731 -4.641397 41.886297 0.741570 1.681834 -0.000636 0.011482 338002.000000 0 0 1
-30.127010 -29.352731 -4.110497 42.262462 0.772381 1.668212 -0.007056 0.000926 598400.000000 0 0 1
-29.067710 -29.187431 -2.975297 41.300003 0.787453 1.642900 0.001539 0.001023 -246654.000000 0 0 1
-29.682210 -28.768231 -1.768597 41.373574 0.769763 1.613556 0.004528 -0.002710 309318.000000 0 0 1
-28.787010 -28.653231 -0.671097 40.622038 0.783069 1.587318 0.012686 -0.010998 329280.000000 0 0 1
-29.600610 -28.504031 0.663003 41.098850 0.766528 1.554664 0.007572 -0.006986 293114.000000 0 0 1
-30.268010 -29.684931 1.032403 42.407704 0.775673 1.546449 -0.001664 -0.000986 -215773.000000 0 0 1
-30.999810 -29.449831 2.196903 42.814800 0.759763 1.519462 0.007068 0.001920 -468682.000000 0 0 1
-31.423710 -30.843731 2.704703 44.114631 0.776084 1.509447 -0.004773 0.000861 -509586.000000 0 0 1
-32.267510 -30.785231 3.857703 44.763875 0.761894 1.484510 -0.000083 0.000093 259353.000000 0 0 1
-32.750310 -32.084731 4.241803 46.043519 0.775133 1.478540 0.005491 -0.005317 472067.000000 0 0 1
-33.837110 -32.819231 3.333803 47.256388 0.770129 1.500191 0.003674 0.001861 381295.000000 0 0 1
-34.416310 -33.906931 4.043503 48.482082 0.777943 1.487297 0.010379 -0.004263 557395.000000 0 0 1
34.396952 -34.604131 3.250703 48.899522 -0.788401 1.504270 0.005433 0.003694 858665.000000 0 0 1
33.097752 34.411366 4.012503 47.913500 0.804854 1.486953 0.007066 -0.002573 931343.000000 0 0 1
32.262652 -34.128831 4.723103 47.201308 -0.813499 1.470566 0.004821 -0.002611 677751.000000 0 0 1
31.883852 -32.966731 4.062203 46.042229 -0.802095 1.482454 -0.003152 0.000427 -1168670.000000 0 0 1
30.788552 -33.065231 3.021803 45.281074 -0.821038 1.504012 0.002826 0.001934 -1059430.000000 0 0 1
31.137052 -33.717231 1.856103 45.932698 -0.825161 1.530376 0.009321 -0.000207 -227275.000000 0 0 1
30.214352 -33.373931 0.830203 45.026831 -0.835045 1.552357 0.007319 -0.003187 -1084440.000000 0 0 1
30.699552 -34.118031 -0.452897 45.898885 -0.838089 1.580664 0.013605 0.001834 -17696.900000 0 0 1
31.869152 -33.659731 -1.063697 46.365416 -0.812716 1.593740 0.001306 0.010239 -799553.000000 0 0 1
33.043752 -33.761731 -0.316597 47.242399 -0.796145 1.577498 -0.011275 0.009567 -959125.000000 0 0 1
34.354152 -33.492031 -1.119197 47.991421 -0.772692 1.594119 -0.019880 0.021144 359020.000000 0 0 1
34.723652 -34.589631 -1.976297 49.051812 -0.783465 1.611097 -0.011554 0.011634 -94311.200000 0 0 1
-34.199110 -34.202131 -2.991897 48.459430 0.785442 1.632576 -0.010773 0.007318 -440584.000000 0 0 1
-33.615810 34.048666 -3.691097 47.989150 -0.791795 1.647788 -0.005447 0.000406 -81319.700000 0 0 1
-32.403610 33.465466 -3.258297 46.696336 -0.801517 1.640629 -0.006245 0.008411 106465.000000 0 0 1
-31.970610 32.576566 -4.305997 45.846419 -0.794786 1.664857 -0.004715 0.001564 508948.000000 0 0 1
-30.624110 31.824966 -4.032797 44.350062 -0.804625 1.661853 0.002694 -0.002361 -135911.000000 0 0 1
-29.505610 32.679966 -4.093597 44.218986 -0.836400 1.663505 0.002837 -0.004699 585158.000000 0 0 1
-28.233910 32.027066 -3.888397 42.871975 -0.848261 1.661619 0.006431 -0.009522 949847.000000 0 0 1
-27.882810 31.514366 -2.477697 42.151457 -0.846462 1.629611 0.000693 -0.015457 -729287.000000 0 0 1
-28.783310 30.557666 -1.982397 42.025941 -0.815290 1.617985 0.004636 -0.003320 -377421.000000 0 0 1
-28.680610 30.537766 -0.583197 41.898361 -0.816749 1.584716 -0.003918 0.010715 -152766.000000 0 0 1
-29.883110 29.932366 0.158803 42.296241 -0.786222 1.567042 -0.004722 0.018010 -177684.000000 0 0 1
-30.245010 28.594266 -0.155897 41.622313 -0.757350 1.574542 -0.005212 0.013209 -705604.000000 0 0 1
-31.535910 28.472166 -0.666797 42.492616 -0.734387 1.586489 -0.002161 0.012645 -477181.000000 0 0 1
-31.889010 27.076066 -1.188097 41.850136 -0.703955 1.599189 -0.004548 0.019082 -79273.600000 0 0 1
-32.140410 26.157066 -0.089197 41.439184 -0.683122 1.572949 0.001070 0.018972 102253.000000 0 0 1
-32.741510 24.979166 -0.568497 41.186022 -0.651719 1.584600 0.012509 0.016335 -215947.000000 0 0 1
-32.737010 23.830166 0.532103 40.495330 -0.629224 1.557656 0.002420 0.007250 1055070.000000 0 0 1
-31.378210 23.391366 0.769303 39.145113 -0.640593 1.551142 0.003562 0.002043 1100450.000000 0 0 1
-30.878810 24.001466 1.932303 39.157439 -0.660733 1.521429 0.009151 -0.003436 89600.600000 0 0 1
-29.322310 23.761466 2.077103 37.798406 -0.681023 1.515816 0.001034 -0.014151 1325030.000000 0 0 1
-28.408910 24.530866 1.307503 37.557144 -0.712275 1.535976 0.004248 -0.011884 203536.000000 0 0 1
-28.440210 25.924866 1.703703 38.520732 -0.739163 1.526554 -0.018645 -0.007737 -669434.000000 0 0 1
-27.887810 26.969666 0.675603 38.801408 -0.768663 1.553384 -0.022380 -0.002734 -833460.000000 0 0 1
-26.521010 26.771466 0.548203 37.687874 -0.790098 1.556250 -0.017778 -0.012324 -1194230.000000 0 0 1
-25.914710 27.705266 -0.273097 37.937165 -0.818779 1.577995 -0.012275 -0.010814 -275999.000000 0 0 1
-24.751810 27.152466 -1.095197 36.757420 -0.831617 1.600596 0.000077 -0.012098 -985790.000000 0 0 1
-25.082010 26.325766 -2.177797 36.426583 -0.809587 1.630618 0.007014 -0.015663 -539398.000000 0 0 1
-24.042910 25.578166 -2.750197 35.211754 -0.816328 1.648980 -0.004203 -0.010253 -18075.700000 0 0 1
-23.246210 24.568066 -1.869697 33.874354 -0.813037 1.626019 -0.005659 -0.011207 -319065.000000 0 0 1
-23.947710 23.418466 -1.482597 33.527831 -0.774225 1.615031 -0.021295 -0.005358 -264190.000000 0 0 1
-23.071610 22.610166 -0.716597 32.311488 -0.775297 1.592976 -0.014838 -0.017798 -926287.000000 0 0 1
-23.503610 21.144866 -0.465597 31.618694 -0.732618 1.585522 -0.017149 -0.015380 -316502.000000 0 0 1
-24.542810 20.928166 0.494503 32.258056 -0.706072 1.555466 -0.029606 -0.010447 1451890.000000 0 0 1
-25.836610 21.453066 0.082603 33.582306 -0.692967 1.568337 -0.033637 -0.015084 149692.000000 0 0 1
-26.605410 20.794266 -1.031297 33.783323 -0.663408 1.601328 -0.036202 -0.011751 -1118380.000000 0 0 1
-26.924310 19.461366 -0.758597 33.230087 -0.625876 1.593627 -0.051208 -0.005666 176082.000000 0 0 1
-27.685410 18.923866 -1.826797 33.584696 -0.599588 1.625217 -0.025934 0.001908 9840.000000 0 0 1
-27.790310 17.424166 -1.656697 32.842770 -0.560027 1.621261 -0.042085 0.002564 -108370.000000 0 0 1
-28.428510 17.050266 -0.445297 33.152527 -0.540243 1.584228 -0.024054 -0.004935 313502.000000 0 0 1
-28.661810 15.681366 -0.427397 32.673954 -0.500627 1.583877 -0.014620 -0.003488 -135529.000000 0 0 1
-27.516610 14.743066 0.062403 31.217394 -0.491866 1.568797 -0.014852 0.001630 -217419.000000 0 0 1
-27.431810 14.576866 1.487003 31.099845 -0.488440 1.522964 -0.001239 0.000125 1013070.000000 0 0 1
-26.255710 13.921166 2.058003 29.789202 -0.487526 1.501656 -0.005514 0.003552 651569.000000 0 0 1
-26.068010 12.409966 1.833003 28.929367 -0.444314 1.507393 -0.005797 0.014833 -148586.000000 0 0 1
-25.740310 12.039266 0.480903 28.420745 -0.437492 1.553875 -0.019112 0.014313 578608.000000 0 0 1
-25.160210 10.731666 0.455303 27.357122 -0.403169 1.554153 -0.011134 0.012787 -149234.000000 0 0 1
-25.089910 10.104266 -0.939897 27.064426 -0.382851 1.605531 -0.009431 0.007106 647655.000000 0 0 1
-26.409310 9.711566 -1.357397 28.171061 -0.352384 1.618999 0.002050 -0.015876 935328.000000 0 0 1
-26.378910 9.089366 -2.667597 28.028192 -0.331829 1.666116 0.002335 -0.016275 192615.000000 0 0 1
-27.756710 8.591966 -3.188897 29.230564 -0.300191 1.680108 0.013740 -0.022730 347481.000000 0 0 1
-27.672210 8.460566 -4.584797 29.297657 -0.296717 1.727932 0.007771 -0.010597 801051.000000 0 0 1
-28.994410 8.188766 -5.062797 30.551000 -0.275257 1.737281 0.001424 -0.009665 551055.000000 0 0 1
-10.718948 18.296966 -19.691797 28.938584 -1.040860 2.319198 0.022450 0.002089 -39597.800000 0 0 1
-10.972548 17.331766 -20.664797 29.117361 -1.006401 2.359879 0.029465 0.002861 -283465.000000 0 0 1
-10.064048 17.471866 -21.697797 29.620019 -1.048200 2.392840 0.021732 0.004598 -643013.000000 0 0 1
-10.281648 16.290566 -22.747997 29.808827 -1.007793 2.438938 0.018867 0.007904 92819.000000 0 0 1
-9.598848 15.094466 -22.373597 28.645394 -1.004384 2.467148 0.025186 0.011509 244223.000000 0 0 1
-10.018148 14.017666 -23.195297 28.894291 -0.950286 2.502712 0.008666 0.008383 130685.000000 0 0 1
-9.221548 12.707766 -22.834297 27.711538 -0.943054 2.539231 0.002479 0.010204 -773980.000000 0 0 1
-7.885348 12.809466 -23.161397 27.617231 -1.018994 2.565610 -0.003967 0.010201 -1063640.000000 0 0 1
-7.255248 11.722366 -22.466997 26.359409 -1.016579 2.591227 -0.014810 0.011421 -146203.000000 0 0 1
-5.727448 11.686866 -22.589797 26.070777 -1.115120 2.618903 -0.011896 0.014212 -97399.600000 0 0 1
-5.264548 11.103466 -23.807097 26.791422 -1.128054 2.665100 -0.004126 0.005398 -1191980.000000 0 0 1
-3.889448 11.197066 -23.881297 26.661178 -1.236473 2.680873 -0.003841 0.008909 -817180.000000 0 0 1
-3.260948 10.597266 -25.186797 27.519276 -1.272276 2.726904 0.009313 0.002481 -258746.000000 0 0 1
-3.277148 9.211266 -25.219857 27.048628 -1.228985 2.771765 0.008524 0.000063 -236815.000000 0 0 1
-2.936948 8.721866 -26.446337 28.001881 -1.245988 2.806709 0.012736 -0.003902 -337446.000000 0 0 1
-2.339948 7.323266 -26.491237 27.584256 -1.261527 2.859142 0.018144 0.006173 -14859.900000 0 0 1
-1.077248 7.222666 -25.872427 26.883263 -1.422739 2.866496 0.018460 0.000085 -364053.000000 0 0 1
-0.664648 5.930166 -25.514207 26.202736 -1.459183 2.911841 0.019832 -0.002244 -547207.000000 0 0 1
0.837352 5.798866 -25.264697 25.935167 1.427388 2.913716 0.028819 0.000958 -326851.000000 0 0 1
1.160352 6.433666 -24.041597 24.914591 1.392358 2.876089 0.016666 0.000103 -282379.000000 0 1 0
1.496752 5.562966 -23.049297 23.758302 1.307964 2.896676 0.008939 -0.008825 -286647.000000 0 1 0
1.609752 6.230866 -21.674397 22.609610 1.317973 2.852969 -0.002605 -0.009770 554302.000000 0 1 0
2.493352 7.361766 -21.584297 22.941104 1.244233 2.795947 -0.003644 -0.012614 309145.000000 0 1 0
2.049352 8.219866 -20.552197 22.229683 1.326461 2.750619 -0.006479 -0.007405 99315.500000 0 1 0
2.659552 9.612866 -20.647297 22.930139 1.300882 2.691585 -0.018733 -0.008040 -553900.000000 0 1 0
2.174052 10.450266 -19.639897 22.353078 1.365684 2.643764 -0.007834 -0.005292 -257468.000000 0 1 0
2.685852 11.739066 -19.581497 22.988138 1.345872 2.590225 -0.020525 0.006547 -698945.000000 0 1 0
3.969152 11.825866 -18.767197 22.534705 1.246977 2.554967 -0.003840 0.000478 -169735.000000 0 1 0
5.055752 11.096766 -19.361797 22.881827 1.143290 2.579543 0.006528 -0.002022 -475774.000000 0 1 0
6.068452 11.044666 -18.395697 22.298260 1.068378 2.540969 0.014178 0.000068 -597853.000000 0 1 0
7.126752 10.007366 -18.797097 22.455930 0.951962 2.562695 0.025188 -0.010300 -336065.000000 0 1 0
6.715752 8.653266 -18.856897 21.807404 0.910803 2.615352 0.015482 -0.013344 -250270.000000 0 1 0
6.197152 8.375966 -20.112397 22.651048 0.933808 2.663607 0.008442 -0.012116 -243156.000000 0 1 0
5.851252 6.915766 -20.419997 22.339231 0.868586 2.724047 0.017098 -0.009160 -185959.000000 0 1 0
7.005552 6.121566 -20.536297 22.545306 0.718159 2.716232 0.019104 -0.008551 -94380.200000 0 1 0
6.739852 4.773566 -20.748897 22.332247 0.616248 2.762769 0.012179 -0.007786 -190965.000000 0 1 0
6.955252 4.279766 -22.197697 23.652265 0.551614 2.789062 0.007371 -0.013712 -483635.000000 0 1 0
6.030852 4.973666 -22.988597 24.281353 0.689624 2.813812 0.005114 -0.010232 -170675.000000 0 1 0
6.043052 4.608366 -24.343397 25.502088 0.651510 2.838992 -0.004049 -0.006465 157267.000000 0 0 1
5.013052 5.327966 -25.260847 26.298827 0.815842 2.859702 -0.011098 -0.005112 74020.500000 0 0 1
5.285552 6.730766 -25.459007 26.858914 0.905094 2.817309 -0.015398 -0.003611 113361.000000 0 0 1
5.280052 7.711866 -24.408597 26.136783 0.970436 2.775908 0.001823 -0.009762 -1027220.000000 0 0 1
4.989452 9.153266 -24.869797 26.966344 1.071722 2.744665 0.000247 -0.011793 667890.000000 0 0 1
3.732552 9.350866 -25.525317 27.439250 1.191009 2.765885 0.005620 -0.004497 1166160.000000 0 0 1
2.549952 9.172766 -24.712597 26.483095 1.299651 2.773863 -0.004538 0.003503 176990.000000 0 0 1
1.267952 9.520466 -25.496237 27.245276 1.438394 2.781329 0.003645 0.004752 -73035.900000 0 0 1
1.325952 10.870166 -25.980887 28.194417 1.449415 2.742697 0.005849 0.002721 147114.000000 0 0 1
0.061452 11.287166 -26.453867 28.761275 1.565352 2.738300 0.017047 -0.009957 -174615.000000 0 0 1
-0.022848 12.757766 -26.865877 29.741157 -1.569005 2.698251 0.011868 -0.012291 -259145.000000 0 0 1
-0.109248 13.656066 -25.760797 29.156795 -1.562797 2.654135 0.002247 -0.004536 70299.500000 0 0 1
-0.186948 14.999966 -26.236837 30.222599 -1.558334 2.622198 0.001717 -0.007903 -149769.000000 0 0 1
-0.428848 16.047666 -25.117807 29.809658 -1.544079 2.572901 0.002969 -0.000428 629777.000000 0 0 1
-1.613448 15.668766 -24.386497 29.031270 -1.468186 2.568094 -0.002193 0.011723 466838.000000 0 0 1
-1.949148 16.493766 -23.313597 28.624592 -1.453167 2.522595 0.000110 0.012571 -281527.000000 0 0 1
-3.152748 16.006766 -22.459097 27.759096 -1.376322 2.513367 -0.011654 0.005457 1231830.000000 0 0 1
-4.505048 16.139466 -22.912497 28.385918 -1.298592 2.510153 -0.019401 0.004266 553505.000000 0 0 1
-4.767148 15.411166 -24.127497 29.023539 -1.270801 2.552253 -0.011919 0.002575 -1051350.000000 0 0 1
-6.216548 15.184366 -24.579097 29.552367 -1.182209 2.552983 -0.019505 0.010036 -339055.000000 0 0 1
-6.807848 16.387066 -24.937597 30.606641 -1.177051 2.523141 -0.005848 0.012647 -756922.000000 0 0 1
-8.056348 16.166766 -25.515937 31.262311 -1.108487 2.525579 0.011680 0.008064 -718830.000000 0 0 1
-8.738348 17.449666 -25.981317 32.494282 -1.106529 2.497368 0.015666 0.004327 -275781.000000 0 0 1
-9.318948 18.254066 -24.999597 32.326979 -1.098773 2.454882 0.021090 -0.000283 -20707.300000 0 0 1
-10.175948 19.172066 -25.656827 33.606410 -1.082837 2.439435 0.017943 0.001136 485989.000000 0 0 1
-11.165348 19.974566 -24.757997 33.713598 -1.061086 2.395523 0.035106 -0.002883 211719.000000 0 0 1
-10.553548 21.036966 -24.017697 33.627088 -1.105816 2.366329 0.020245 -0.013851 149858.000000 0 0 1
-10.985848 22.391666 -24.354897 34.860243 -1.114679 2.344297 0.017097 -0.008068 -129399.000000 0 0 1
-10.358348 23.042866 -25.590777 35.960491 -1.148337 2.362620 0.012323 -0.003959 -412030.000000 0 0 1
-10.803348 22.341966 -26.714687 36.462998 -1.120399 2.393007 0.002728 -0.008118 80360.700000 0 0 1
-10.497048 22.991266 -27.906257 37.650305 -1.142495 2.405647 0.009086 0.005055 -313451.000000 0 0 1
-11.134148 22.447866 -29.189647 38.469617 -1.110354 2.432221 0.007535 0.004543 -495031.000000 0 0 1
-10.556548 21.356666 -29.841317 38.184448 -1.111721 2.467870 -0.010643 0.001558 -249088.000000 0 0 1
-10.563148 20.087066 -29.217727 36.996565 -1.086669 2.481184 -0.000432 0.005882 -448713.000000 0 0 1
-9.555748 19.191166 -29.916957 36.805400 -1.108811 2.519810 -0.013038 0.001908 179957.000000 0 0 1
-8.223448 19.737866 -29.775197 36.657479 -1.176034 2.518803 -0.020873 0.008853 1278400.000000 0 0 1
-7.166948 18.892566 -30.283727 36.406020 -1.208215 2.553198 -0.024580 0.009628 781093.000000 0 0 1
-6.798148 17.534666 -29.586177 35.057398 -1.200940 2.575374 -0.015363 -0.001202 -584499.000000 0 0 1
-7.755648 16.554066 -29.867577 35.017985 -1.132661 2.592352 -0.007741 -0.004971 20461.400000 0 0 1
-7.386048 15.435666 -29.141327 33.793940 -1.124492 2.610638 -0.016322 0.000955 62063.000000 0 0 1
-8.538748 14.426866 -28.998367 33.495521 -1.036380 2.617421 0.001074 0.002964 -413969.000000 0 0 1
-9.483848 14.684266 -28.037587 33.040540 -0.997343 2.584094 0.006395 0.004232 -405901.000000 0 0 1
-10.650448 13.873666 -28.114727 33.111154 -0.916080 2.585078 0.034785 -0.006143 127028.000000 0 0 1
-11.676148 14.413566 -27.126227 32.862068 -0.889939 2.541808 0.029421 -0.005005 -292867.000000 0 0 1
-12.295348 15.636066 -27.512447 33.949917 -0.904437 2.515602 0.020750 -0.002514 -284343.000000 0 0 1
-13.174348 16.098566 -26.523567 33.707964 -0.884963 2.476506 0.012591 -0.003701 3069.710000 0 0 1
-14.219848 17.117066 -26.969657 34.965131 -0.877590 2.451725 0.000087 -0.004266 -143395.000000 0 0 1
-13.669748 18.392666 -27.181987 35.552954 -0.931650 2.441138 -0.004693 -0.004707 -293111.000000 0 0 1
-14.660448 19.320466 -27.461317 36.637864 -0.921684 2.418154 -0.019115 -0.007974 -817017.000000 0 0 1
-14.221748 20.797266 -27.362057 37.194980 -0.971007 2.397405 0.000291 -0.004867 -665620.000000 0 0 1
-15.209348 21.727466 -27.630037 38.299164 -0.960067 2.376657 -0.020558 -0.002966 -342454.000000 0 0 1
-14.749248 23.087566 -27.601027 38.889493 -1.002307 2.359911 -0.004716 -0.003797 30781.000000 0 0 1
-14.246848 23.695566 -26.275417 38.142496 -1.029462 2.330732 -0.029331 -0.008034 -78668.100000 0 0 1
-13.760848 24.999166 -26.588147 39.003189 -1.067606 2.320869 -0.001256 -0.019015 71283.600000 0 0 1
-13.158348 25.567466 -25.451327 38.400618 -1.095496 2.295327 0.021008 -0.026249 -263847.000000 0 0 1
-12.855248 27.062166 -25.730667 39.492853 -1.127326 2.280392 0.034818 -0.028904 64244.400000 0 0 1
-14.006148 27.828266 -26.010347 40.584759 -1.104507 2.266453 0.032368 -0.026050 -90290.400000 0 0 1
-14.351448 28.736266 -24.981397 40.691611 -1.107613 2.231813 0.029693 -0.028536 294717.000000 0 0 1
-15.681248 29.493166 -25.292597 41.898255 -1.082119 2.218889 0.026919 -0.028817 493914.000000 0 0 1
-16.771748 28.598566 -25.309627 41.710271 -1.040397 2.222820 0.016350 -0.024317 -486020.000000 0 0 1
-17.870148 29.123166 -26.037957 42.959006 -1.020432 2.221959 -0.002362 -0.016122 -188395.000000 0 0 1
-19.092648 28.226466 -25.890337 42.796870 -0.976079 2.220510 -0.021498 0.005947 -392670.000000 0 0 1
-19.554848 28.041966 -24.528797 42.076190 -0.961856 2.193165 -0.020884 0.002935 -149044.000000 0 0 1
-20.263648 26.830266 -24.402997 41.544974 -0.923942 2.198623 -0.010698 -0.002915 -282916.000000 0 0 1
-20.792648 26.691666 -22.945697 40.881343 -0.908996 2.166722 0.006291 -0.001330 225761.000000 0 0 1
-21.764948 27.710166 -22.652297 41.889053 -0.904991 2.142147 0.000167 0.003999 244418.000000 0 0 1
-22.161848 27.803866 -21.274897 41.434571 -0.897840 2.110006 -0.010362 0.003032 121036.000000 0 0 1
-23.453348 28.636166 -21.021397 42.567460 -0.884570 2.087293 -0.013765 0.010102 1037590.000000 0 0 1
-24.647448 27.888166 -21.279197 42.872493 -0.847006 2.090170 -0.010317 0.006071 416016.000000 0 0 1
-25.854088 28.615466 -21.144097 43.981264 -0.836051 2.072309 -0.006443 0.010563 226923.000000 0 0 1
-27.087368 27.777266 -21.491797 44.353121 -0.797972 2.076658 -0.001949 0.010478 -291010.000000 0 0 1
-27.240938 27.516766 -22.893697 44.981801 -0.790435 2.104766 -0.004863 0.015055 -484279.000000 0 0 1
-28.551128 27.168566 -23.247397 45.757396 -0.760590 2.103725 -0.019635 0.018496 -251242.000000 0 0 1
-28.748388 26.753866 -24.685797 46.385641 -0.749478 2.131977 -0.021692 0.024550 23715.300000 0 0 1
-28.205788 25.494766 -24.977897 45.491152 -0.734957 2.152049 -0.004101 0.012542 -182953.000000 0 0 1
-28.562038 25.210266 -26.334017 46.312287 -0.723146 2.175622 -0.008472 0.011390 -225838.000000 0 0 1
-28.397778 23.774766 -26.810467 45.721706 -0.697019 2.197384 0.002928 0.002580 -579675.000000 0 0 1
-27.156008 23.186466 -27.011687 44.773789 -0.706710 2.218419 0.029649 -0.005150 -588215.000000 0 0 1
-27.438958 21.992166 -27.692457 44.759624 -0.675651 2.237874 0.031012 -0.013601 902795.000000 0 0 1
-26.347148 20.840366 -27.532227 43.434048 -0.669224 2.257363 0.048010 -0.011556 801917.000000 0 0 1
-26.526818 20.379966 -26.211967 42.498027 -0.655097 2.235443 0.046409 -0.017551 -206940.000000 0 0 1
-25.867538 19.179166 -26.080877 41.438895 -0.637999 2.251553 0.047553 -0.024479 -556921.000000 0 0 1
-26.769688 17.954566 -25.940667 41.375123 -0.590793 2.248445 0.045901 -0.022723 -388666.000000 0 0 1
-27.461978 17.653866 -27.139837 42.454563 -0.571331 2.264342 0.032421 -0.017431 -61081.600000 0 0 1
-28.038448 16.400266 -27.031807 42.259222 -0.529258 2.264861 0.017142 -0.018738 -290260.000000 0 0 1
-28.918118 16.025366 -28.266117 43.497624 -0.506034 2.278159 -0.006419 -0.015470 77761.100000 0 0 1
-30.201948 16.608366 -28.318317 44.608548 -0.502774 2.258569 -0.015397 -0.010408 -113713.000000 0 0 1
-30.931658 15.921366 -29.320287 45.496556 -0.475360 2.271101 -0.011166 -0.003730 -84028.500000 0 0 1
-32.232128 16.622666 -29.734597 46.897434 -0.476142 2.257556 -0.009434 -0.008252 668028.000000 0 0 1
-33.381248 16.472066 -28.875337 47.110739 -0.458396 2.230553 -0.022870 0.001289 173356.000000 0 0 1
-34.513232 17.069066 -29.432747 48.464449 -0.459291 2.223461 -0.023277 0.000478 -413742.000000 0 0 1
34.066350 16.806266 -28.547267 47.517504 0.458305 2.215265 -0.001187 0.013488 -432546.000000 0 0 1
33.941318 17.730666 -27.458037 47.120413 0.481400 2.192869 -0.032532 0.019381 -435579.000000 0 0 1
33.069144 17.331366 -26.465467 45.764237 0.482737 2.187440 -0.029420 0.023283 -460973.000000 0 0 1
32.591674 18.598866 -25.726157 45.496924 0.518569 2.171773 -0.023587 0.015870 -84178.100000 0 0 1
31.855594 19.511966 -26.573457 45.843694 0.549569 2.189100 -0.020349 0.008057 358307.000000 0 0 1
31.434994 20.616666 -25.775207 45.580336 0.580477 2.171823 -0.010183 0.005758 -1116310.000000 0 0 1
30.871994 21.770766 -26.609357 46.207187 0.614204 2.184465 -0.004142 0.002428 703708.000000 0 0 1
29.554254 21.540366 -27.132577 45.536996 0.629822 2.209102 -0.007801 0.003539 504080.000000 0 0 1
28.522264 21.756166 -26.203867 44.424013 0.651629 2.201680 -0.012701 0.007256 29197.600000 0 0 1
27.075444 21.363366 -26.634417 43.575970 0.668017 2.228395 -0.005092 0.007862 685597.000000 0 0 1
26.956764 19.971866 -26.724627 42.892286 0.637642 2.243450 -0.012491 0.004496 -88963.500000 0 0 1
25.635444 19.578766 -27.025547 42.081875 0.652236 2.268179 -0.006152 0.003284 -321239.000000 0 0 1
25.428784 18.078566 -26.759957 41.104171 0.618036 2.279734 -0.001558 0.001372 -324350.000000 0 0 1
26.201934 17.210066 -27.582217 41.755315 0.581158 2.292371 -0.003475 -0.001160 -159961.000000 0 0 1
27.176534 16.479066 -26.904947 41.641323 0.545091 2.273275 -0.006636 0.003898 -206356.000000 0 0 1
27.972114 15.545266 -27.882127 42.444168 0.507241 2.287513 -0.018594 0.009210 126084.000000 0 0 1
27.273404 14.408366 -28.444477 41.958644 0.486025 2.315722 -0.005204 0.018182 313451.000000 0 0 1
26.691274 13.490266 -27.521287 40.642743 0.467973 2.314681 0.014553 0.005409 346707.000000 0 0 1
27.726094 12.613866 -26.685177 40.496229 0.426959 2.290224 0.008716 0.001882 517702.000000 0 0 1
28.451514 13.364666 -25.745577 40.631732 0.439144 2.257036 0.001460 0.006874 31816.300000 0 0 1
29.241224 12.602566 -24.845097 40.387531 0.406930 2.233395 0.002452 0.004939 125562.000000 0 0 1
-13.725548 -31.942131 -25.706557 43.237917 1.164951 2.207486 0.017955 0.011654 -66399.600000 0 0 1
-12.866448 -30.864731 -25.862827 42.273667 1.175836 2.229124 0.010801 0.023103 -131523.000000 0 0 1
-13.436848 -30.063731 -26.919727 42.532911 1.150485 2.256109 0.001777 0.024048 14930.400000 0 0 1
-12.754348 -28.735531 -27.266857 41.615930 1.153066 2.285247 0.013495 0.017142 -407913.000000 0 0 1
-13.096748 -27.610431 -26.412417 40.391539 1.127886 2.283537 0.024028 0.009218 -42163.800000 0 0 1
-12.593448 -26.388831 -26.875227 39.714520 1.125533 2.314082 0.020690 0.004775 -515524.000000 0 0 1
-13.097148 -25.140331 -26.184017 38.589821 1.090520 2.316544 0.017407 0.002718 -167312.000000 0 0 1
-12.543248 -24.981231 -24.874197 37.418186 1.105465 2.297972 0.012253 0.003948 120672.000000 0 0 1
-12.748648 -23.657231 -24.435397 36.321911 1.076523 2.308709 0.026558 0.010972 14018.300000 0 0 1
-12.207948 -23.433431 -22.980597 35.018102 1.090519 2.286633 0.013921 0.011573 336503.000000 0 0 1
-10.813148 -23.179731 -22.993097 34.393409 1.134313 2.303029 0.005501 0.010922 15708.300000 0 0 1
-10.429048 -22.532831 -21.779197 33.027669 1.137318 2.290847 0.009845 0.014799 -1071900.000000 0 0 1
-9.018248 -22.056431 -21.804597 32.299464 1.182665 2.311864 0.006246 0.018045 -1276600.000000 0 0 1
-8.911248 -20.957531 -22.684297 32.143518 1.168752 2.354234 0.003266 0.020649 935004.000000 0 0 1
-7.565548 -20.470931 -22.846997 31.595598 1.216790 2.379086 0.007854 0.019079 810239.000000 0 0 1
-7.553648 -19.293331 -23.805797 31.559565 1.197625 2.425404 0.012030 0.023680 46573.700000 0 0 1
-8.223448 -18.142931 -23.311497 30.662957 1.145235 2.434493 0.003387 0.031315 -87849.200000 0 0 1
-8.615748 -17.112231 -24.184997 30.854070 1.104365 2.471640 0.000652 0.024739 -1064030.000000 0 0 1
-7.549348 -16.394831 -24.978897 30.817664 1.139269 2.515867 0.002881 0.024798 -498716.000000 0 0 1
-7.103148 -17.156431 -26.088037 32.021610 1.178260 2.523010 -0.031297 0.026381 -351266.000000 0 0 1
-6.075348 -16.453331 -26.726827 31.967878 1.217079 2.560845 -0.004848 0.014895 -488189.000000 0 0 1
-5.601148 -17.219731 -27.976017 33.324908 1.256316 2.567145 -0.013543 0.023833 -635889.000000 0 0 1
-6.368748 -17.084831 -29.108437 34.347540 1.213980 2.581993 -0.011905 0.014954 -440910.000000 0 0 1
-5.992848 -18.043431 -30.133517 35.630162 1.250125 2.578729 -0.009483 0.005523 207096.000000 0 0 1
-6.721648 -17.791431 -31.513497 36.807826 1.209571 2.598594 -0.010518 0.002027 423343.000000 0 0 1
-6.230548 -16.715431 -32.336137 36.930355 1.214006 2.637468 -0.006698 -0.005062 51718.100000 0 0 1
-6.075348 -15.405631 -31.803017 35.856313 1.195162 2.661511 -0.005472 -0.000588 -250672.000000 0 0 1
-6.764048 -14.423031 -32.742957 36.412599 1.132275 2.688781 -0.001590 -0.002891 -287306.000000 0 0 1
-6.034148 -14.159931 -33.921107 37.249914 1.167958 2.715617 0.000831 -0.015336 -517278.000000 0 0 1
-6.608848 -13.359831 34.359703 37.453319 1.111413 0.409297 0.006939 -0.008914 -527147.000000 0 0 1
-6.957448 -11.889431 -34.473097 37.123565 1.041346 2.761430 0.002871 -0.007950 -120450.000000 0 0 1
-5.900148 -10.970831 -34.509874 36.689266 1.077365 2.795186 -0.000778 -0.005272 -305783.000000 0 0 1
-5.709048 -10.495131 33.402334 35.474736 1.072594 0.343502 -0.007711 -0.007598 -194686.000000 0 0 1
-4.760248 -9.309831 33.483209 35.077887 1.098138 0.302687 -0.000714 -0.005875 -245760.000000 0 0 1
-4.395348 -8.716031 32.257329 33.701981 1.103728 0.293855 -0.002133 -0.000407 -22596.500000 0 0 1
-3.416948 -7.733231 32.567289 33.646793 1.154738 0.253994 -0.007675 -0.007672 -885537.000000 0 0 1
-3.305248 -6.587231 31.516229 32.366479 1.105737 0.229718 -0.006929 -0.004795 -309352.000000 0 0 1
-4.457948 -5.805531 31.548399 32.386401 0.915950 0.227980 0.008227 -0.005572 416493.000000 0 0 1
-5.589548 -6.433431 30.893039 32.047027 0.855472 0.269174 -0.002400 -0.001245 -310351.000000 0 0 1
-6.832248 -5.579831 30.694489 31.936903 0.684835 0.279846 -0.003559 0.002678 -233552.000000 0 0 1
-7.826648 -6.277431 29.969779 31.604591 0.675995 0.323046 -0.001735 0.008658 -655007.000000 0 0 1
-8.943548 -5.435531 29.807929 31.591845 0.546106 0.337660 -0.001769 0.003310 394999.000000 0 0 1
-10.126648 -6.157231 29.067659 31.390911 0.546298 0.387148 0.016542 0.003073 353841.000000 0 0 1
-9.812748 -6.361931 27.722119 30.087872 0.575203 0.399201 0.008062 0.005516 661125.000000 0 0 1
-10.977048 -6.849231 27.064739 29.998460 0.557851 0.445943 0.014854 -0.003630 299255.000000 0 0 1
-10.852748 -6.761831 25.545059 28.566668 0.557198 0.464097 0.016828 -0.004094 -129038.000000 0 0 1
-9.918048 -7.549731 24.845219 27.796601 0.650638 0.464999 0.015439 0.002890 199311.000000 0 0 1
-9.431448 -7.033431 23.589899 26.361045 0.640771 0.462640 0.012820 -0.004838 788433.000000 0 0 1
-10.500948 -7.019631 22.380299 25.698694 0.589254 0.513821 0.024770 -0.009256 904350.000000 0 0 1
-11.462248 -5.986631 22.539299 25.985436 0.481321 0.520879 0.022681 -0.005349 22228.600000 0 0 1
-12.359048 -6.015131 21.436699 25.464876 0.452950 0.570160 0.023121 -0.002413 233034.000000 0 0 1
-13.488648 -4.963131 21.444099 25.815222 0.352574 0.590475 0.016037 0.004276 350961.000000 0 0 1
-12.973148 -3.682231 20.984799 24.944402 0.276561 0.571181 0.009390 0.000601 166624.000000 0 1 0
-14.039448 -2.787231 20.771099 25.225251 0.195980 0.603376 0.001540 0.002232 138829.000000 0 0 1
-13.658148 -1.365231 20.186199 24.410889 0.099626 0.597163 0.004302 -0.001331 -216387.000000 0 1 0
-12.692848 -0.670231 20.931399 24.488386 0.052755 0.545731 -0.001853 0.003891 -204352.000000 0 1 0
-12.710748 0.769769 20.733399 24.331656 -0.060487 0.550781 -0.001357 -0.003883 -540525.000000 0 1 0
-12.416848 1.365769 19.300599 22.990358 -0.109553 0.574418 0.016742 -0.017196 633253.000000 0 1 0
-13.347148 1.170769 18.192999 22.594297 -0.087493 0.634778 0.027573 -0.007934 643276.000000 0 1 0
-14.703348 1.523769 18.413599 23.612940 -0.103266 0.676435 0.022995 -0.006731 -97013.700000 0 1 0
-15.596648 0.763769 17.434499 23.405139 -0.048931 0.730411 0.038499 -0.007069 -367594.000000 0 1 0
-15.707748 -0.591231 17.841199 23.777958 0.037622 0.722243 0.009004 -0.003423 144728.000000 0 1 0
-16.674948 -1.331231 17.130299 23.943124 0.079665 0.773517 0.001692 0.009481 -175242.000000 0 1 0
-16.706148 -2.802231 17.447699 24.318102 0.166189 0.770622 0.002499 0.013819 31969.500000 0 1 0
-17.060548 -3.041231 18.841499 25.599091 0.176408 0.743621 -0.013131 0.018601 93414.500000 0 0 1
-17.119348 -4.439231 19.159699 26.074373 0.253722 0.745410 -0.012870 0.018728 98223.400000 0 0 1
-17.942448 -4.736331 20.465799 27.626313 0.258086 0.736524 -0.017788 0.023852 -517954.000000 0 0 1
-17.363248 -4.236231 21.635999 28.063223 0.239302 0.690428 -0.006343 0.017962 -293594.000000 0 0 1
-18.122848 -4.374231 22.804599 29.455411 0.236836 0.685334 0.000673 0.016199 -686760.000000 0 0 1
-18.323948 -5.778531 23.478499 30.338068 0.305483 0.685827 -0.003893 0.018929 963316.000000 0 0 1
-17.172348 -6.365631 24.156599 30.314222 0.354987 0.648694 0.007404 0.008051 1182800.000000 0 0 1
-16.128948 -6.804331 23.312199 29.153053 0.399217 0.644087 0.007169 0.000419 -484285.000000 0 0 1
-15.027448 -7.614431 24.004099 29.325765 0.468994 0.611944 0.018264 -0.001145 -176527.000000 0 0 1
-15.330148 -8.913631 24.426349 30.184645 0.526664 0.627954 0.018684 -0.003065 465915.000000 0 0 1
-14.267148 -9.391631 25.251119 30.485623 0.582167 0.594737 0.039153 0.003109 720160.000000 0 0 1
-14.871948 -10.091831 26.541839 32.054471 0.596206 0.595224 0.017118 -0.000865 182795.000000 0 0 1
-15.068448 -11.506931 26.400319 32.502991 0.652176 0.622810 0.010866 -0.005091 -60243.300000 0 0 1
-14.370748 -12.219331 27.398559 33.264267 0.704664 0.602955 0.014596 -0.005459 -107405.000000 0 0 1
-14.320648 -13.748731 27.272989 33.733136 0.765026 0.629210 0.000167 -0.004875 696449.000000 0 0 1
-15.504848 -14.364831 27.834189 34.949832 0.747250 0.649471 -0.006268 0.002323 480086.000000 0 0 1
-15.625548 -15.799231 27.721589 35.528298 0.790925 0.675702 0.003450 0.011543 -220323.000000 0 0 1
-14.573348 -16.786131 28.263449 35.958020 0.855843 0.666464 0.005725 0.006556 39596.500000 0 0 1
-13.345448 -16.870231 27.545429 34.949339 0.901527 0.662994 0.022953 -0.004510 260239.000000 0 0 1
-12.473248 -17.566931 28.439079 35.678567 0.953363 0.648333 0.028993 0.000697 -22481.900000 0 0 1
-11.076848 -17.806531 27.825569 34.842953 1.014309 0.645831 0.035074 -0.000787 337134.000000 0 0 1
-10.189548 -18.612131 28.622699 35.630004 1.069899 0.637928 0.030332 -0.000697 538335.000000 0 0 1
-9.175448 -19.243531 27.849419 35.072674 1.125875 0.653355 0.020081 -0.000478 -334510.000000 0 0 1
-8.034248 -19.788131 28.681509 35.759589 1.185117 0.640052 0.019470 0.004329 -405045.000000 0 0 1
-8.424248 -20.908431 29.484289 37.114064 1.187783 0.652738 0.007593 0.006207 87617.500000 0 0 1
-7.284748 -21.549831 30.015719 37.661733 1.244814 0.648515 0.016639 0.000261 -47444.200000 0 0 1
-7.529948 -22.866231 30.772199 39.070358 1.252676 0.663876 0.013689 -0.001197 -20874.400000 0 0 1
-7.818648 -23.969031 29.900889 39.111492 1.255481 0.700525 0.010640 -0.002489 93965.600000 0 0 1
-8.068148 -25.165831 30.615129 40.443790 1.260550 0.712118 -0.002918 -0.001518 -271890.000000 0 0 1
-8.250148 -26.439031 29.715479 40.621386 1.268327 0.750243 -0.006803 0.002397 -448416.000000 0 0 1
-9.149548 -26.282131 28.645709 39.937968 1.235790 0.770941 0.001977 -0.000226 69131.500000 0 0 1
-9.303548 -27.449031 27.859159 40.201219 1.244009 0.805164 0.007606 0.000579 -72508.300000 0 0 1
-10.742948 -27.684531 27.320469 40.351607 1.200635 0.827036 -0.002825 -0.000047 276754.000000 0 0 1
-11.008548 -27.109131 26.029689 39.161688 1.185057 0.843741 0.014247 -0.001615 142881.000000 0 0 1
-11.147948 -25.665231 26.011359 38.204340 1.161025 0.821876 0.004766 0.009662 -490743.000000 0 0 1
-11.422148 -25.088831 24.604989 36.950242 1.143570 0.842103 0.015948 -0.004887 519178.000000 0 0 1
-12.722848 -25.377631 24.078699 37.224706 1.106076 0.867353 0.010468 0.002572 544460.000000 0 0 1
-12.925048 -24.721031 22.825399 36.044210 1.089047 0.885037 0.010839 -0.000852 -60215.400000 0 0 1
-14.279248 -25.077631 22.195299 36.406260 1.053179 0.915170 0.004642 -0.000114 -249948.000000 0 0 1
-14.362748 -26.403231 21.779899 37.118501 1.072589 0.943736 0.024911 0.001943 81281.100000 0 0 1
-15.624248 -26.698431 21.213699 37.509257 1.041321 0.969685 0.022791 0.003103 142287.000000 0 0 1
-15.694348 -28.130131 20.591299 38.231118 1.061893 1.002021 0.025900 -0.002097 709861.000000 0 0 1
-14.839548 -28.343231 19.414099 37.422696 1.088474 1.025375 0.017169 0.005374 553800.000000 0 0 1
-14.699348 -29.719431 19.116799 38.272280 1.111475 1.047781 0.028695 0.011610 -77094.300000 0 0 1
-13.704548 -29.952331 17.963299 37.518487 1.141685 1.071526 0.013178 0.001212 -225586.000000 0 0 1
-14.189848 -29.562031 16.675599 36.787784 1.123274 1.100342 0.025184 -0.004343 -423575.000000 0 0 1
-13.178448 -29.749531 15.753699 36.150866 1.153796 1.119895 0.029686 -0.001029 -311401.000000 0 0 1
-13.556548 -29.261631 14.308799 35.281224 1.136948 1.153200 0.001562 -0.004018 -171591.000000 0 0 1
-13.625048 -27.868431 14.129299 34.087072 1.116063 1.143396 0.006585 0.003133 -339711.000000 0 0 1
-13.838448 -27.427431 12.821099 33.288845 1.103517 1.175429 0.001108 0.010305 -26007.000000 0 0 1
-12.893648 -27.692831 11.621699 32.683374 1.135049 1.207257 -0.006343 0.019601 -58390.000000 0 0 1
-13.264148 -26.864231 10.517699 31.752898 1.112163 1.233183 -0.015313 0.016249 -149306.000000 0 0 1
-12.431448 -26.966531 9.376599 31.139288 1.138836 1.264932 -0.004391 0.010498 21403.800000 0 0 1
-13.000948 -26.175131 8.176799 30.348347 1.109800 1.297994 -0.003691 0.007535 514137.000000 0 0 1
-14.040348 -26.832631 7.443099 31.185272 1.088717 1.329797 -0.010932 0.009676 65870.500000 0 0 1
-14.320548 -26.035431 6.309999 30.376600 1.067922 1.361547 -0.000574 0.010986 -79872.700000 0 0 1
-15.111948 -26.711131 5.206699 31.128206 1.055938 1.402740 -0.002990 0.015268 -248609.000000 0 0 1
-14.406548 -27.748431 4.568399 31.597378 1.091919 1.425706 -0.000845 0.011635 -221191.000000 0 0 1
-15.080748 -28.268331 3.430999 32.222651 1.080720 1.464116 0.002740 0.013304 -193695.000000 0 0 1
-14.439048 -29.517631 2.773399 32.976785 1.115853 1.486595 0.002697 0.013503 696369.000000 0 0 1
-13.151248 -29.348631 2.150299 32.232301 1.149520 1.504034 -0.008756 0.017432 612771.000000 0 0 1
-12.779748 -30.484331 1.344599 33.082085 1.173829 1.530141 -0.009054 0.020689 29670.600000 0 0 1
-11.416348 -30.281431 0.655399 32.368621 1.210266 1.550547 -0.013288 0.018932 -315164.000000 0 0 1
-11.419848 -29.546631 -0.565801 31.681800 1.201980 1.588656 -0.014365 0.023400 -220113.000000 0 0 1
-11.868248 -28.197731 -0.441101 30.596763 1.172409 1.585213 -0.010255 0.012984 -387437.000000 0 0 1
-11.537548 -27.356431 -1.694101 29.738179 1.171682 1.627794 0.002893 0.014647 1893070.000000 0 0 1
-10.094248 -27.343931 -1.985501 29.215178 1.217157 1.638810 -0.004814 0.009414 1421570.000000 0 0 1
-9.833248 -26.608331 -3.188801 28.545831 1.216808 1.682738 0.013237 0.006777 507989.000000 0 0 1
-8.393748 -26.815031 -3.723801 28.343740 1.267434 1.702557 0.005325 0.004230 389969.000000 0 0 1
-8.043148 -26.041231 -4.843501 27.682078 1.271229 1.746670 0.013735 0.006780 -659329.000000 0 0 1
-6.708148 -26.228331 -5.219201 27.571084 1.320404 1.761245 0.006604 0.009637 -279889.000000 0 0 1
-6.185648 -25.121331 -6.080701 26.576652 1.329368 1.801640 -0.001165 0.009007 -232103.000000 0 0 1
-6.638248 -25.010631 -7.427401 26.921446 1.311361 1.850314 0.002569 0.008787 -72765.000000 0 0 1
-6.018048 -23.901331 -8.049901 25.928583 1.324136 1.886478 -0.013863 0.013950 -302509.000000 0 0 1
-6.292748 -23.877831 -9.548401 26.474921 1.313116 1.939770 -0.006602 0.007723 -495323.000000 0 0 1
-5.575548 -24.815331 -10.292201 27.437507 1.349785 1.955316 -0.022325 0.011035 -412861.000000 0 0 1
-5.807948 -24.936031 -11.684601 28.143699 1.341962 1.998933 -0.029381 0.016597 144025.000000 0 0 1
-7.100148 -25.657231 -12.216401 29.290716 1.300822 2.001020 -0.021545 0.007737 317054.000000 0 0 1
-7.104448 -25.879531 -13.547501 30.062570 1.302876 2.038282 -0.009819 0.005623 -858087.000000 0 0 1
-8.322748 -26.413131 -13.900701 30.986305 1.265546 2.036003 0.003495 -0.001802 -1181960.000000 0 0 1
-8.414448 -26.718831 -15.486901 32.008483 1.265703 2.075831 0.008998 -0.003276 -15066.700000 0 0 1
-7.590648 -27.690431 -16.121201 32.928271 1.303243 2.082411 -0.007423 0.004331 1150800.000000 0 0 1
-6.253548 -27.166331 -16.335101 32.310245 1.344543 2.100839 -0.011085 0.011767 950306.000000 0 0 1
-5.295748 -28.031431 -17.158201 33.289787 1.384075 2.112293 -0.017637 0.007937 14227.400000 0 0 1
-5.659548 -27.931831 -18.521301 33.989061 1.370883 2.147089 -0.001760 0.008481 -77945.900000 0 0 1
-4.644248 -28.474731 -19.314201 34.719126 1.409119 2.160721 -0.001132 0.002904 -265339.000000 0 0 1
-23.957048 14.693066 -6.130797 28.764787 -0.550148 1.785579 -0.028877 -0.006097 3269.680000 0 0 1
-24.489148 13.499866 -5.580397 28.515006 -0.503809 1.767768 -0.040451 0.002538 285588.000000 0 0 1
-23.391848 12.729766 -5.136897 27.122190 -0.498377 1.761346 -0.022588 -0.002243 -238573.000000 0 0 1
-23.751048 11.306166 -4.614097 26.706395 -0.444287 1.744439 -0.009808 -0.011662 -142257.000000 0 0 1
-24.121848 10.348666 -5.568397 26.832172 -0.405268 1.779842 -0.006315 -0.008795 745870.000000 0 0 1
-25.494338 10.427366 -5.984697 28.187015 -0.388247 1.784746 -0.017174 -0.013158 333703.000000 0 0 1
-25.729548 9.822266 -7.371397 28.510069 -0.364676 1.832321 -0.001177 -0.008248 -206855.000000 0 0 1
-25.297168 10.683266 -8.401797 28.717052 -0.399591 1.867711 0.009743 -0.002648 -146027.000000 0 0 1
-25.799368 10.131966 -9.611597 29.336784 -0.374216 1.904590 0.026873 -0.003258 -161599.000000 0 0 1
-26.176158 11.058866 -10.800497 30.399679 -0.399733 1.934013 0.000406 -0.006726 219194.000000 0 0 1
-25.063648 11.688566 -11.438197 29.927268 -0.436371 1.962972 0.006781 -0.009392 652027.000000 0 0 1
-25.584478 12.518066 -12.466997 31.091695 -0.455038 1.983377 0.000326 -0.009422 18439.700000 0 0 1
-24.589248 13.554066 -13.031497 30.954220 -0.503779 2.005336 0.003937 -0.006022 -241519.000000 0 0 1
-24.351648 14.555866 -12.111797 30.847554 -0.538753 1.974290 0.004297 -0.004610 -99226.400000 0 0 1
-23.713348 15.643766 -12.693297 31.115431 -0.583166 1.990995 0.006042 -0.001763 -247222.000000 0 0 1
-23.867948 16.960966 -12.014097 31.649515 -0.617816 1.960158 0.009631 -0.002307 -914154.000000 0 0 1
-22.932148 17.111166 -11.053997 30.673543 -0.641042 1.939467 0.002127 0.005430 -881827.000000 0 0 1
-22.990248 18.402866 -10.529997 31.274555 -0.675024 1.914201 -0.010236 0.013494 227712.000000 0 0 1
-21.884348 18.678866 -9.456097 30.286011 -0.706538 1.888332 -0.024110 0.010188 127068.000000 0 0 1
-22.136248 18.101566 -8.154197 29.735014 -0.685461 1.848584 -0.019878 -0.004188 122529.000000 0 0 1
-22.951848 18.943866 -7.376997 30.660683 -0.690023 1.813782 -0.029905 -0.006808 -207093.000000 0 0 1
-23.420348 18.351566 -6.026697 30.358092 -0.664644 1.770644 -0.034319 -0.008482 -271580.000000 0 0 1
-22.432548 18.384366 -5.046697 29.439315 -0.686542 1.743074 -0.014052 -0.020682 -295042.000000 0 0 1
-22.982948 18.164266 -3.780097 29.537190 -0.668821 1.699126 -0.031456 -0.015775 -78735.000000 0 0 1
-21.972248 17.921266 -2.640297 28.476703 -0.684200 1.663647 -0.011509 -0.023958 -492232.000000 0 0 1
-21.327348 19.050966 -2.119097 28.675523 -0.729081 1.644763 0.013389 -0.028342 -159844.000000 0 0 1
-20.326348 18.596466 -1.249697 27.578084 -0.740983 1.616127 0.049796 -0.037584 -462593.000000 0 0 1
-19.521848 19.800666 -0.612297 27.812656 -0.792489 1.592813 0.059305 -0.032514 102641.000000 0 0 1
-20.190648 20.707266 0.250403 28.922583 -0.798029 1.562139 0.044396 -0.025905 340295.000000 0 0 1
-19.305448 21.782566 0.650703 29.113638 -0.845613 1.548444 0.052083 -0.025948 511509.000000 0 0 1
-19.995148 22.780066 1.622103 30.354053 -0.850412 1.517331 0.030875 -0.014033 134127.000000 0 0 1
-19.996648 22.340866 2.959303 30.128685 -0.840711 1.472416 0.028671 -0.010240 116974.000000 0 0 1
-21.196248 22.817966 3.522503 31.342440 -0.822227 1.458171 0.003186 -0.019057 -147111.000000 0 0 1
-21.198048 22.618966 5.040203 31.406663 -0.817815 1.409617 0.005258 -0.016027 -42549.400000 0 0 1
-20.279548 23.409566 5.807703 31.511859 -0.856919 1.385435 0.005987 -0.008530 1307830.000000 0 0 1
-19.405248 22.706866 6.769403 30.626626 -0.863639 1.347926 -0.001601 0.008149 835364.000000 0 0 1
-20.158848 22.381966 8.073603 31.185167 -0.837609 1.308921 -0.011360 0.005497 -133507.000000 0 0 1
-21.251848 21.478166 7.945903 31.242439 -0.790695 1.313641 -0.009248 0.005475 703588.000000 0 0 1
-21.761948 20.819866 9.093603 31.460178 -0.763278 1.277561 0.002015 0.005164 12252.300000 0 0 1
-22.222548 21.631966 10.350903 32.694415 -0.771932 1.248658 -0.002298 0.002242 -988747.000000 0 0 1
-23.313848 22.435166 10.046203 33.879173 -0.766194 1.269739 -0.001404 0.001650 79418.100000 0 0 1
-24.028448 22.855366 11.202603 35.003319 -0.760382 1.245020 0.001563 0.004767 137884.000000 0 0 1
-24.918648 24.093066 10.998903 36.364690 -0.768555 1.263523 0.002830 -0.006298 -39614.900000 0 0 1
-25.722368 24.320866 12.133003 37.421311 -0.757400 1.240602 0.004423 0.000955 -13639.400000 0 0 1
-26.340868 25.592166 12.115603 38.672834 -0.770982 1.252147 0.001310 0.000085 148949.000000 0 0 1
-27.123678 25.919866 13.397103 39.837366 -0.762707 1.227816 0.006593 0.008303 375033.000000 0 0 1
-26.228518 26.195166 14.497003 39.803077 -0.784762 1.198003 0.002042 0.004169 489225.000000 0 0 1
-26.879648 26.566066 15.673303 40.913613 -0.779531 1.177665 -0.012696 0.007752 357991.000000 0 0 1
-25.856378 26.794466 16.858503 40.874256 -0.803213 1.145657 0.003876 -0.002630 655473.000000 0 0 1
-25.174598 25.614866 17.291503 39.860730 -0.794066 1.122093 0.022576 -0.009463 122024.000000 0 0 1
-24.130748 25.930666 18.189803 39.819108 -0.821337 1.096389 0.036127 -0.007962 -182973.000000 0 0 1
-23.454948 24.635166 18.570103 38.754028 -0.809935 1.071078 0.048597 -0.001750 462833.000000 0 0 1
-22.302348 24.697366 19.462603 38.550584 -0.836312 1.041578 0.050799 -0.010466 1226000.000000 0 0 1
-21.943748 23.355766 19.801103 37.670991 -0.816559 1.017338 0.055555 -0.011710 -700810.000000 0 0 1
-20.473848 23.234266 20.196203 36.971559 -0.848470 0.992900 0.041228 -0.006573 -1012520.000000 0 0 1
-19.575948 23.373566 19.094903 35.974389 -0.873589 1.011262 0.031716 -0.008216 -173602.000000 0 0 1
-18.317948 22.821066 19.350803 35.082786 -0.894425 0.986545 0.030953 -0.002719 -646535.000000 0 0 1
-18.186348 21.267666 19.498203 34.106257 -0.863339 0.962232 0.029616 0.009928 -661199.000000 0 0 1
-18.701148 20.580866 20.659703 34.642868 -0.833214 0.931835 0.037545 0.008983 370092.000000 0 0 1
-17.950848 20.913266 21.829903 35.158815 -0.861476 0.900913 0.022944 0.017034 -11746.000000 0 0 1
-18.668748 20.493466 23.121603 36.098654 -0.831958 0.875632 0.009290 0.021754 667993.000000 0 0 1
-19.916448 21.180466 23.334603 37.279763 -0.816145 0.894470 0.025707 0.017753 785407.000000 0 0 1
-20.305848 21.406866 24.696703 38.477377 -0.811787 0.873888 0.017963 0.014454 -107545.000000 0 0 1
-21.307048 22.539266 24.878603 39.761208 -0.813494 0.894767 0.022453 0.011637 -795336.000000 0 0 1
-20.711548 23.807766 24.763303 40.112331 -0.854834 0.905428 0.017024 0.008521 255167.000000 0 0 1
-21.569948 24.943166 24.911103 41.327802 -0.857793 0.923830 0.006616 0.010081 10799.400000 0 0 1
-22.578248 25.199066 23.774003 41.351825 -0.840198 0.958290 0.012025 0.000053 763418.000000 0 0 1
-23.668048 24.277666 23.517903 41.263462 -0.798112 0.964357 0.016610 -0.009046 658162.000000 0 0 1
-24.382548 24.750966 22.423303 41.351221 -0.792896 0.997666 0.021645 -0.008170 -544827.000000 0 0 1
-25.401148 23.748766 21.891203 41.090716 -0.751792 1.008946 0.028560 -0.012285 -614076.000000 0 0 1
-26.624028 23.816366 22.571903 42.255757 -0.729793 1.007267 0.016680 -0.009811 89362.800000 0 0 1
-27.531088 22.830466 22.060403 42.022046 -0.692330 1.018114 0.020705 -0.012416 485276.000000 0 0 1
-29.004398 22.920766 22.510803 43.282247 -0.668768 1.023836 0.034080 -0.008920 -485895.000000 0 0 1
-29.767238 23.982766 22.008303 44.109261 -0.678193 1.048410 0.014699 -0.007923 120653.000000 0 0 1
-31.080118 24.167566 22.488503 45.340685 -0.660926 1.051822 0.004740 -0.002727 215457.000000 0 0 1
-32.127918 23.224366 21.849903 45.265799 -0.625912 1.067059 0.003738 -0.010264 -1265270.000000 0 0 1
-32.130668 21.867566 22.193803 44.756398 -0.597575 1.051948 0.017447 -0.002187 231811.000000 0 0 1
-32.574098 21.006166 21.154303 44.156941 -0.572763 1.071200 -0.009785 0.006434 172859.000000 0 0 1
-33.992218 21.108766 20.533103 44.973984 -0.555709 1.096677 -0.038865 0.014705 -94934.400000 0 0 1
-34.181226 20.128566 19.594603 44.243235 -0.532201 1.111984 -0.017649 0.010487 273057.000000 0 0 1
34.255572 20.047166 19.223003 44.100532 0.529484 1.119769 -0.016216 0.006449 165018.000000 0 0 1
33.970958 19.066266 18.061503 42.939100 0.511441 1.136656 0.002484 0.005536 -404572.000000 0 0 1
34.085175 17.678366 18.310103 42.539201 0.478458 1.125828 0.013843 -0.002187 447819.000000 0 0 1
33.486094 16.929066 17.273303 41.307127 0.468082 1.139369 0.014215 -0.006886 58015.100000 0 0 1
33.566594 15.473066 17.605303 40.939940 0.431936 1.126273 0.017832 -0.006843 471482.000000 0 0 1
32.588474 14.721166 16.877803 39.542149 0.424291 1.129811 0.006467 -0.021687 489490.000000 0 0 1
33.008454 13.413966 16.749803 39.370654 0.385994 1.131350 -0.002738 -0.027724 225650.000000 0 0 1
32.249574 12.779666 15.525903 38.005375 0.377290 1.149966 -0.003533 -0.026781 451988.000000 0 0 1
32.579654 13.329266 14.226103 37.966896 0.388351 1.186726 0.004162 -0.030215 207776.000000 0 0 1
31.617404 12.809666 13.355603 36.634954 0.384935 1.197637 0.006305 -0.029273 -217151.000000 0 0 1
31.937954 13.334966 11.893003 36.596417 0.395524 1.239809 0.017827 -0.026282 -696051.000000 0 0 1
33.181924 12.940866 11.418403 37.401684 0.371854 1.260552 0.013835 -0.021965 -471317.000000 0 0 1
33.349534 13.218366 10.047903 37.254220 0.377363 1.297703 0.009196 -0.015605 327318.000000 0 0 1
34.835264 12.956466 9.611403 38.389383 0.356081 1.317738 0.020911 -0.014594 470151.000000 0 0 1
-34.713284 11.580466 9.606703 37.833953 -0.321993 1.314068 0.010092 -0.008444 583427.000000 0 0 1
-33.421838 11.201666 9.107803 36.406712 -0.323394 1.317942 0.004289 0.001509 510840.000000 0 0 1
-33.126898 11.273066 7.599703 35.808224 -0.328007 1.356936 0.016746 -0.007064 -718524.000000 0 0 1
-33.121288 12.602766 7.078703 36.138034 -0.363587 1.373642 0.031428 -0.015621 49526.800000 0 0 1
-32.802228 12.597966 5.699003 35.597381 -0.366688 1.410008 0.021697 -0.013636 79296.100000 0 0 1
-33.757368 13.468366 4.802503 36.660889 -0.379623 1.439421 0.034596 -0.021220 -220027.000000 0 0 1
34.754604 12.903766 4.664403 37.365041 0.355507 1.445636 0.033950 -0.023015 473808.000000 0 0 1
33.696874 13.858366 4.508303 36.713191 0.390180 1.447688 0.020594 -0.018342 523598.000000 0 0 1
33.439544 14.704766 5.813603 36.989609 0.414291 1.412973 0.016684 -0.016541 -1244870.000000 0 0 1
32.489404 15.752666 5.589503 36.536973 0.451459 1.417211 0.007863 -0.016561 427699.000000 0 0 1
32.059174 16.489566 6.713603 36.671090 0.475060 1.386682 0.009445 -0.016497 295970.000000 0 0 1
30.884854 15.824366 7.528503 35.510042 0.473492 1.357165 0.005745 -0.016085 107254.000000 0 0 1
31.226194 14.567566 8.143103 35.406204 0.436505 1.338728 0.014817 -0.015158 326762.000000 0 0 1
30.103864 13.709566 8.345403 34.115107 0.427343 1.323664 0.018201 -0.015364 -179366.000000 0 0 1
30.065264 12.459166 7.441503 33.384530 0.392862 1.346005 0.026122 -0.015247 -180857.000000 0 0 1
29.739904 12.662466 6.132203 32.899906 0.402526 1.383310 0.019943 -0.016030 145969.000000 0 0 1
30.223374 11.627666 5.302603 32.814212 0.367269 1.408490 0.040940 -0.021915 -96915.200000 0 0 1
29.681544 11.767166 3.834303 32.158391 0.377440 1.451280 0.026168 -0.023670 -779039.000000 0 0 1
28.319624 11.524766 3.764203 30.805690 0.386486 1.448298 0.021582 -0.015622 -802926.000000 0 0 1
27.880844 11.929866 2.464503 30.425925 0.404314 1.489707 0.025918 -0.012478 371229.000000 0 0 1
26.392484 11.592666 2.163403 28.907324 0.413871 1.495887 0.051365 -0.001322 443476.000000 0 0 1
26.230634 10.182866 2.033503 28.211204 0.370297 1.498652 0.021047 0.002096 -451725.000000 0 0 1
24.867114 9.864766 2.027803 26.829069 0.377658 1.495142 0.016665 0.000940 -677406.000000 0 0 1
24.590614 8.349766 1.965103 26.043780 0.327336 1.495271 0.014732 0.004614 1415.140000 0 0 1
25.061004 7.556966 3.054103 26.353163 0.292872 1.454644 0.024961 0.004496 781344.000000 0 0 1
26.478354 7.403066 3.033603 27.660646 0.272628 1.460903 0.042324 -0.002151 16295.800000 0 0 1
27.098914 6.717566 4.280203 28.245300 0.242992 1.418673 0.045227 -0.007031 -467725.000000 0 0 1
28.494624 6.556366 4.269903 29.549308 0.226155 1.425788 0.060508 -0.011033 -31307.100000 0 0 1
28.799374 5.921566 5.504603 29.912698 0.202788 1.385719 0.043188 -0.005510 -199342.000000 0 0 1
30.299694 5.983266 5.840203 31.432131 0.194961 1.383907 0.037066 -0.010371 -95017.900000 0 0 1
30.654654 7.321166 6.147903 32.110808 0.234436 1.378148 0.041021 -0.021139 268909.000000 0 0 1
32.010734 7.400066 6.577003 33.506791 0.227184 1.373225 -0.002597 -0.009811 278393.000000 0 0 1
32.315434 8.683766 7.336303 34.256625 0.262517 1.354967 0.007822 -0.012668 -218557.000000 0 0 1
31.715344 8.742466 8.600503 34.003858 0.268974 1.315092 0.015343 -0.016918 -26934.100000 0 0 1
32.252364 9.693166 9.464303 34.982073 0.291953 1.296835 0.001434 -0.012669 -217339.000000 0 0 1
31.640894 9.502866 10.884003 34.783791 0.291764 1.252547 0.000201 -0.013660 670766.000000 0 0 1
30.272414 9.956566 10.960303 33.699859 0.317754 1.239538 0.004062 -0.012017 718126.000000 0 0 1
29.811614 9.761766 12.261403 33.680356 0.316445 1.198181 -0.002227 -0.007978 -76530.200000 0 0 1
28.328214 10.212866 12.373403 32.555974 0.346015 1.180929 -0.002593 -0.016131 -90973.700000 0 0 1
28.086824 11.621566 12.612103 32.908898 0.392323 1.177492 -0.007628 -0.025653 185573.000000 0 0 1
28.188884 12.415266 11.452503 32.862012 0.414868 1.214823 0.001648 -0.024817 287660.000000 0 0 1
27.051964 12.163766 10.364503 31.419562 0.422558 1.234626 -0.000126 -0.017349 464371.000000 0 0 1
27.157944 13.063266 9.347503 31.552791 0.448341 1.270033 -0.007400 -0.003221 -375206.000000 0 0 1
26.053914 13.025466 8.505703 30.344953 0.463602 1.286689 -0.010091 0.003419 -422944.000000 0 0 1
26.134054 14.279766 7.570203 30.727975 0.500079 1.321872 -0.011205 0.007020 -4556.870000 0 0 1
25.811074 15.446966 8.207303 31.179803 0.539288 1.304433 -0.018215 0.014709 322789.000000 0 0 1
26.004514 16.510766 7.268903 31.649282 0.565700 1.339057 -0.016848 0.015664 -532684.000000 0 0 1
25.792574 17.957866 7.784103 32.377987 0.608199 1.328005 -0.015904 0.012884 874166.000000 0 0 1
24.459714 18.492666 7.877903 31.659400 0.647359 1.319321 -0.005465 0.019640 1600000.000000 0 0 1
23.499114 17.907466 8.777603 30.820967 0.651168 1.282006 0.001813 0.018382 604927.000000 0 0 1
22.110114 18.582166 8.879403 30.215854 0.698916 1.272528 0.013320 0.015732 -81405.200000 0 0 1
21.369914 18.714266 7.693703 29.429407 0.719243 1.306294 0.018371 0.012293 -649195.000000 0 0 1
20.444014 19.683466 7.947503 29.471330 0.766447 1.297747 0.051984 0.005924 -1234840.000000 0 0 1
19.657214 20.061566 6.710103 28.877291 0.795578 1.336287 0.037607 0.008299 -706722.000000 0 0 1
20.326514 20.755466 5.734403 29.611482 0.795839 1.375910 0.031295 0.016816 -399986.000000 0 0 1
19.458814 21.166266 4.713903 29.135496 0.827403 1.408290 0.036399 0.005322 -44503.000000 0 0 1
16.956952 17.168366 33.302974 41.126379 0.791593 0.627034 0.013089 0.004229 -10123.100000 0 0 1
16.561852 17.932366 32.174339 40.386294 0.825109 0.649039 0.004002 -0.001020 231288.000000 0 0 1
15.939552 17.150666 31.147979 38.966796 0.821982 0.644589 0.010715 -0.000863 -82060.600000 0 0 1
15.433552 17.861766 29.884169 38.082814 0.858199 0.668560 0.015711 0.000498 40274.800000 0 0 1
16.454252 18.317866 29.022809 38.060610 0.838942 0.703563 0.006839 0.006404 98386.800000 0 0 1
15.923752 18.610266 27.718119 36.989214 0.863035 0.723706 0.014629 -0.001966 -427065.000000 0 0 1
17.073652 18.891566 26.728589 36.916369 0.835902 0.761168 0.015275 0.001829 -205623.000000 0 0 1
17.792052 20.073966 26.956899 38.028878 0.845588 0.782925 0.012266 0.003315 -243506.000000 0 0 1
18.664652 20.321266 25.897579 37.841877 0.827865 0.817067 0.010416 0.002710 -660432.000000 0 0 1
19.516452 21.554866 26.169499 39.119647 0.834989 0.837987 0.008883 -0.003888 -479073.000000 0 0 1
18.839852 22.766666 26.047099 39.391781 0.879499 0.848337 -0.006228 -0.004251 -7440.130000 0 0 1
19.626052 23.804166 26.527279 40.688042 0.881306 0.860620 -0.000300 -0.003780 -193444.000000 0 0 1
18.768152 25.085666 26.525769 41.050585 0.928472 0.868237 0.005469 -0.009404 170133.000000 0 0 1
18.642152 25.738666 25.213659 40.567688 0.943956 0.900114 0.008073 -0.003087 190844.000000 0 0 1
17.752852 26.819066 25.276059 40.906053 0.986067 0.904721 0.010371 -0.006509 -217714.000000 0 0 1
17.606652 27.411066 23.869699 40.387167 0.999840 0.938471 0.006935 -0.008801 171402.000000 0 0 1
18.738352 28.190166 23.482199 41.197390 0.984148 0.964300 0.016047 -0.011824 517170.000000 0 0 1
18.370552 29.386566 22.746099 41.453979 1.012100 0.989979 0.020549 -0.003742 706894.000000 0 0 1
19.691452 30.203566 22.538699 42.520602 0.993046 1.012119 0.023655 -0.001271 934598.000000 0 0 1
20.563252 29.575166 21.569799 41.985640 0.963240 1.031255 0.013258 -0.003871 -3752.170000 0 0 1
21.759252 30.338366 21.570399 43.118019 0.948607 1.046893 0.010992 -0.006528 106254.000000 0 0 1
22.318152 30.685166 20.191599 42.981158 0.941964 1.081757 0.014973 -0.005615 480594.000000 0 0 1
21.512952 31.672266 19.484799 42.960411 0.974142 1.100049 0.010764 -0.001437 547964.000000 0 0 1
21.822952 31.607666 18.090899 42.456641 0.966521 1.130616 0.017447 0.007537 -33063.700000 0 0 1
21.300852 32.719566 17.178099 42.654230 0.993710 1.156300 0.026215 -0.001429 -258065.000000 0 0 1
21.945852 33.958966 17.467499 44.044810 0.997065 1.163003 0.035119 -0.005789 253267.000000 0 0 1
21.852352 -34.635431 16.370499 44.103646 -1.007948 1.190514 0.033979 -0.006914 183556.000000 0 0 1
22.845152 34.549466 15.177399 44.112583 0.986567 1.219558 0.015179 -0.003539 30286.300000 0 0 1
22.700652 33.413366 14.309799 42.854906 0.974038 1.230345 0.027040 -0.000094 -146772.000000 0 0 1
21.659652 33.543566 13.363599 42.105784 0.997438 1.247829 0.025374 -0.002880 -100551.000000 0 0 1
21.413652 32.283066 12.508199 40.708670 0.985122 1.258483 0.025120 -0.014291 -259062.000000 0 0 1
22.601352 31.845766 11.882299 40.818659 0.953581 1.275420 0.025605 -0.024660 -9884.750000 0 0 1
22.295452 30.792266 11.012699 39.579418 0.944104 1.288832 0.021006 -0.025860 -118152.000000 0 0 1
23.539552 30.260266 10.225099 39.678039 0.909675 1.310154 0.022423 -0.021636 1978930.000000 0 0 1
24.572852 29.430166 10.910499 39.862246 0.875102 1.293553 0.016367 -0.016617 1487780.000000 0 0 1
25.147352 30.027066 12.040199 40.975363 0.873610 1.272555 0.016160 -0.011354 -942971.000000 0 0 1
26.497752 29.453266 12.538399 41.555230 0.838172 1.264291 0.021385 -0.003737 262202.000000 0 0 1
26.431852 28.375466 13.482499 41.055908 0.820846 1.236194 0.021013 -0.004954 474925.000000 0 0 1
27.569752 27.558466 13.175699 41.148017 0.785193 1.244853 0.010908 0.009667 397398.000000 0 0 1
27.925052 26.614666 14.341299 41.156066 0.761377 1.214867 -0.000882 -0.002698 -317285.000000 0 0 1
28.862552 27.165566 15.235199 42.463233 0.755119 1.203830 -0.021483 0.000879 -79476.400000 0 0 1
29.133952 26.241366 16.295999 42.461229 0.733210 1.176904 -0.014263 -0.006630 46538.900000 0 0 1
30.274452 26.512266 17.299099 43.802985 0.719244 1.164805 -0.008827 -0.005758 70157.400000 0 0 1
31.540252 26.665466 16.710699 44.554259 0.701842 1.186331 0.003084 -0.002069 -955446.000000 0 0 1
32.580152 26.777966 17.609899 45.701578 0.687959 1.175238 -0.002170 0.000906 -223918.000000 0 0 1
33.874652 27.106266 16.827499 46.533927 0.674859 1.200794 -0.000095 -0.009660 7360.260000 0 0 1
33.700952 28.332866 16.201899 46.914890 0.699078 1.218188 0.009635 -0.004659 -21815.000000 0 0 1
-34.851610 28.859166 15.802599 47.929201 -0.691617 1.234803 0.026437 -0.006137 262355.000000 0 0 1
34.811152 30.041266 14.818599 48.310297 0.711980 1.259033 0.025114 -0.003814 -56028.500000 0 0 1
34.317452 31.202766 15.331899 48.850457 0.737896 1.251547 0.029784 -0.007118 -166473.000000 0 0 1
34.037552 32.145866 14.309599 48.955860 0.756823 1.274170 0.031371 0.003333 -48592.400000 0 0 1
33.586152 33.537666 14.774499 49.710064 0.784676 1.269023 0.000616 0.004819 -1091100.000000 0 0 1
33.248652 34.339066 13.641799 49.706568 0.801530 1.292782 -0.020584 -0.000842 -136272.000000 0 0 1
31.960952 -34.604331 13.683999 49.053175 -0.825088 1.288083 -0.030842 0.008809 404467.000000 0 0 1
30.769852 33.904366 13.414499 47.709942 0.833826 1.285786 -0.032576 0.016940 -413850.000000 0 0 1
30.693852 32.856766 14.414999 47.217283 0.819420 1.260553 -0.032128 0.005973 -463109.000000 0 0 1
29.772752 31.881766 13.990299 45.810394 0.819592 1.260442 -0.025028 0.018273 -356725.000000 0 0 1
29.293952 30.888166 15.073899 45.160124 0.811882 1.230477 -0.015737 0.012867 -154293.000000 0 0 1
28.397552 31.480066 15.958999 45.300167 0.836833 1.210775 -0.013296 0.004152 14662.400000 0 0 1
27.834652 30.584966 16.960799 44.697614 0.832442 1.181588 -0.012085 0.001561 423846.000000 0 0 1
26.979652 31.353266 18.013699 45.115654 0.860235 1.160067 -0.000205 0.002202 -57892.500000 0 0 1
26.495852 30.510466 19.041599 44.671033 0.855706 1.130439 -0.012340 0.004423 220020.000000 0 0 1
27.415952 30.212566 20.104799 45.482265 0.833888 1.112929 -0.001744 -0.010029 253547.000000 0 0 1
26.998152 28.947466 20.881799 44.753832 0.820227 1.085362 0.003932 -0.011866 96452.300000 0 0 1
25.935252 29.183466 21.783699 44.708405 0.844261 1.061871 0.004486 -0.009894 -67066.500000 0 0 1
25.958652 28.238566 22.833299 44.638859 0.827440 1.033853 -0.000487 -0.010375 -557977.000000 0 0 1
24.790952 28.297266 23.817099 44.526180 0.851349 1.006406 0.002207 -0.011138 -428453.000000 0 0 1
23.661852 27.765066 23.131699 43.195574 0.865017 1.005684 -0.000079 -0.005103 576253.000000 0 0 1
22.459052 27.651066 23.915699 42.906306 0.888642 0.979553 0.000994 -0.009276 794691.000000 0 0 1
22.392652 26.423366 24.893739 42.653527 0.867781 0.947608 0.010859 -0.012901 210206.000000 0 0 1
23.522052 26.315966 25.788989 43.713715 0.841399 0.939797 0.001045 -0.015906 730898.000000 0 0 1
23.238252 25.392766 26.791649 43.618819 0.829672 0.909396 0.004360 -0.012167 -96580.600000 0 0 1
24.449452 25.230366 27.767329 44.781375 0.801116 0.901972 0.017639 -0.019002 244069.000000 0 0 1
24.748152 26.274366 28.583579 46.041658 0.815302 0.901008 0.003359 -0.015171 205012.000000 0 0 1
25.414152 27.348066 27.937749 46.629536 0.822035 0.928366 -0.002552 -0.013163 -736466.000000 0 0 1
25.744052 28.645966 28.747999 48.060326 0.838701 0.929587 -0.003998 -0.009036 -68650.100000 0 0 1
26.831052 28.400766 29.658259 49.052229 0.813811 0.921500 -0.001314 -0.003469 625022.000000 0 0 1
27.084152 29.600866 30.400799 50.338565 0.829767 0.922378 -0.002324 -0.002556 -2525.010000 0 0 1
28.553652 30.018166 30.635039 51.525789 0.810397 0.934081 -0.013411 0.001938 18700.900000 0 0 1
29.122752 30.516566 29.451359 51.446846 0.808765 0.961291 -0.023302 -0.007380 -1697820.000000 0 0 1
30.481252 30.532366 29.408109 52.212728 0.786236 0.972499 -0.004084 -0.011382 -1409080.000000 0 0 1
31.074452 30.949866 28.023849 52.046631 0.783389 1.002215 -0.009070 -0.010155 -411801.000000 0 0 1
30.930252 32.307866 27.744929 52.633257 0.807179 1.015569 -0.013253 -0.010266 242057.000000 0 0 1
31.350152 32.632766 26.425169 52.402471 0.805442 1.042256 -0.003006 -0.012721 -359134.000000 0 0 1
31.170152 34.117166 26.187429 53.116295 0.830507 1.055238 -0.008437 -0.012916 -625698.000000 0 0 1
31.990352 -34.556131 26.952379 54.258082 -0.823935 1.050953 0.003093 -0.009965 -199705.000000 0 0 1
31.765552 -33.194631 26.679919 53.129576 -0.807394 1.044694 -0.004614 -0.005252 -351965.000000 0 0 1
32.766452 -32.234631 27.343199 53.482355 -0.777217 1.034150 -0.004083 -0.000969 -273487.000000 0 0 1
32.491152 -32.079131 28.767809 53.966030 -0.779017 1.008568 -0.004839 -0.002559 61924.400000 0 0 1
33.346752 -31.157231 29.342329 54.256347 -0.751467 0.999398 -0.001134 -0.005127 -653219.000000 0 0 1
32.899552 -30.603531 30.732109 54.437295 -0.749258 0.970919 -0.000614 -0.008525 -286716.000000 0 0 1
32.921152 -31.326431 31.958149 55.556015 -0.760582 0.957896 0.003411 -0.005007 586664.000000 0 0 1
31.962252 -32.378431 31.932159 55.584270 -0.791866 0.958825 0.002029 -0.009757 -71781.900000 0 0 1
32.238552 -33.325531 33.102659 56.971056 -0.801976 0.950786 0.013921 -0.008398 -291877.000000 0 0 1
31.717052 -32.866531 34.334341 57.140416 -0.803195 0.926199 0.008811 -0.010759 212822.000000 0 0 1
32.065652 -33.613231 -33.750767 57.420985 -0.808957 2.199105 0.007670 -0.010054 -236879.000000 0 0 1
31.537652 34.429066 -33.645017 57.549728 0.829202 2.195214 0.009133 -0.008443 121908.000000 0 0 1
32.085452 33.505766 -34.543340 57.839043 0.807049 2.210842 0.001735 -0.011594 198068.000000 0 0 1
31.199652 32.408566 -34.504753 56.694897 0.804401 2.225097 -0.000491 -0.002620 153799.000000 0 0 1
31.283752 31.422066 33.616175 55.642309 0.787604 0.922100 -0.005089 0.001130 261820.000000 0 0 1
32.470752 30.635966 33.694001 55.930294 0.756332 0.924256 -0.003081 -0.005785 440498.000000 0 0 1
32.704952 29.830866 32.557709 54.949966 0.739471 0.936641 -0.003353 -0.004819 -667975.000000 0 0 1
33.952452 28.976066 32.606919 55.277414 0.706482 0.939889 0.000874 -0.005789 -503010.000000 0 0 1
33.854052 27.959466 33.508348 55.232580 0.690325 0.918922 0.001687 -0.004445 -660902.000000 0 0 1
-34.695510 27.562966 33.883441 55.781565 -0.671332 0.917974 -0.006573 -0.009373 -884211.000000 0 0 1
-34.769210 26.210266 34.618924 55.626845 -0.645951 0.899065 -0.002798 -0.007940 247257.000000 0 0 1
34.442452 25.188566 33.813512 54.443548 0.631440 0.900683 -0.005703 -0.012540 359155.000000 0 0 1
34.271252 24.034466 34.614633 54.317097 0.611599 0.879846 -0.008587 -0.020678 -74320.800000 0 0 1
33.991852 22.832866 33.738345 53.057155 0.591490 0.881639 -0.005368 -0.023594 173718.000000 0 0 1
-34.637910 22.443066 33.056849 52.879403 -0.574921 0.895490 0.003327 -0.018764 434726.000000 0 0 1
34.788252 21.310866 32.279919 52.022770 0.549624 0.901421 0.007565 -0.015821 449639.000000 0 0 1
-33.818310 20.566166 31.607369 50.652453 -0.546381 0.896939 0.002388 -0.024386 342868.000000 0 0 1
-33.298810 21.258266 30.489869 49.903474 -0.568184 0.913502 -0.001335 -0.019593 325491.000000 0 0 1
-32.177610 20.687866 29.839389 48.515724 -0.571387 0.908352 0.016448 -0.019922 145167.000000 0 0 1
-32.652710 19.732066 28.715639 47.750830 -0.543576 0.925589 0.011503 -0.009828 -765203.000000 0 0 1
-33.411810 18.718066 29.244589 48.186730 -0.510658 0.918640 -0.004473 -0.007109 -113111.000000 0 0 1
-33.648810 17.666166 28.361959 47.420845 -0.483460 0.929680 -0.015044 -0.009069 -127789.000000 0 0 1
-34.570810 16.569066 28.976659 48.055401 -0.446934 0.923559 -0.011712 -0.000227 -267353.000000 0 0 1
-33.780810 15.624866 29.649509 47.585428 -0.433230 0.898122 -0.001726 0.005639 328737.000000 0 0 1
-34.502210 14.424066 29.917789 47.890816 -0.395980 0.896038 0.002878 -0.001069 -196548.000000 0 0 1
-33.601510 13.206066 30.230749 47.088850 -0.374475 0.873700 -0.002229 0.008117 -251679.000000 0 0 1
-32.892910 13.380066 31.456729 47.439387 -0.386335 0.845853 -0.005787 0.007964 434964.000000 0 0 1
-32.288810 12.177966 31.905559 46.998242 -0.360661 0.824578 0.010808 0.011832 559248.000000 0 0 1
-30.733310 12.152266 31.735699 45.818866 -0.376543 0.805662 -0.006717 0.014682 -499495.000000 0 0 1
-30.328110 11.962066 30.442449 44.605246 -0.375688 0.819638 -0.005002 0.007857 -363150.000000 0 0 1
-29.125510 12.569666 30.118769 43.742794 -0.407421 0.811319 0.011919 0.013042 -264287.000000 0 0 1
-27.790710 11.871866 30.477599 42.920261 -0.403723 0.781159 0.004977 0.010085 -349194.000000 0 0 1
-27.379310 10.859266 29.622449 41.773673 -0.377592 0.782550 0.004675 0.001227 -902676.000000 0 0 1
-26.280010 10.171266 30.053829 41.198619 -0.369279 0.753226 0.000463 -0.000678 -1200480.000000 0 0 1
-25.858810 9.092466 29.079989 39.962441 -0.338117 0.755858 0.000027 -0.003115 58366.400000 0 0 1
-26.541210 7.819566 29.099639 40.154332 -0.286514 0.760205 -0.001799 -0.006548 -421305.000000 0 0 1
-27.795610 7.765766 28.501279 40.561385 -0.272441 0.791653 -0.000541 0.002179 -719500.000000 0 0 1
-28.354510 6.367366 28.381049 40.620260 -0.220898 0.797229 -0.005023 0.006939 -83560.400000 0 0 1
-28.867410 5.806166 29.580569 41.737860 -0.198484 0.783110 0.002541 0.004883 259743.000000 0 0 1
-29.575310 4.599166 29.424169 41.971812 -0.154271 0.793933 0.007347 -0.001813 -56291.800000 0 0 1
-30.250010 4.087866 30.735669 43.318069 -0.134322 0.781959 0.006905 0.003151 174328.000000 0 0 1
-31.368910 4.813766 31.228539 44.524179 -0.152269 0.793459 0.011608 0.000191 139714.000000 0 0 1
-31.843010 4.269866 32.437689 45.655369 -0.133296 0.780602 0.011162 -0.011342 280631.000000 0 0 1
-33.305010 4.659866 32.797959 46.974931 -0.139012 0.797914 0.012314 -0.013794 332555.000000 0 0 1
-33.497310 6.027466 33.201902 47.547517 -0.178034 0.797792 0.009171 -0.006456 -773011.000000 0 0 1
-34.840110 6.375266 33.128739 48.497326 -0.180984 0.818791 0.004703 0.005644 -469212.000000 0 0 1
34.673252 7.923366 33.174339 48.636929 0.224658 0.820191 0.003136 -0.002345 -211061.000000 0 0 1
34.625552 8.483766 34.531660 49.632032 0.240281 0.801328 -0.000944 -0.007173 228916.000000 0 0 1
34.434952 9.846666 34.554555 49.766856 0.278517 0.803310 0.004618 -0.008312 -247638.000000 0 0 1
34.435152 10.164366 -33.188457 48.893432 0.287024 2.316912 0.004466 -0.008454 -279380.000000 0 0 1
33.330952 9.615466 -32.499717 47.535683 0.280859 2.323605 0.015008 -0.008637 10741.300000 0 0 1
33.363252 9.952666 -31.153597 46.719468 0.289908 2.300733 0.008852 -0.003074 20500.700000 0 0 1
32.146852 9.487066 -30.313737 45.192335 0.286970 2.306045 0.004491 0.001659 10107.000000 0 0 1
32.196652 8.096066 -30.104647 44.815850 0.246349 2.307353 -0.001060 -0.002125 22775.500000 0 0 1
30.947452 7.562766 -29.738047 43.580863 0.239677 2.321789 0.003152 -0.000018 -119240.000000 0 0 1
33.875980 5.955266 -20.150797 39.863540 0.174018 2.100751 0.002038 -0.001545 -47886.800000 0 0 1
33.249154 7.075066 -19.449297 39.164243 0.209662 2.090483 -0.009050 0.001040 417002.000000 0 0 1
33.813538 8.379566 -19.563697 39.953857 0.242923 2.082493 -0.023303 0.010463 286353.000000 0 0 1
-34.553725 8.637166 -18.919297 40.329894 -0.244944 2.059083 -0.025071 0.008891 1897260.000000 0 0 1
-33.433498 8.043066 -19.604197 39.583004 -0.236083 2.088940 -0.015315 0.000644 713758.000000 0 0 1
-33.149098 8.600266 -20.892597 40.116429 -0.253845 2.118583 -0.030253 0.002551 -532576.000000 0 0 1
-32.172558 7.670566 -21.698697 39.556852 -0.234050 2.151419 -0.023780 0.005048 194177.000000 0 0 1
-32.792948 6.527466 -22.270997 40.174402 -0.196483 2.158388 -0.016664 0.010691 198249.000000 0 0 1
-33.485948 6.834066 -23.488797 41.469709 -0.201323 2.172938 -0.014808 0.010015 256181.000000 0 0 1
-33.463268 5.649366 -24.440997 41.821860 -0.167246 2.194946 0.001980 0.004998 885353.000000 0 0 1
-32.150348 5.488366 -25.005397 41.097894 -0.169080 2.224883 -0.011125 0.010367 729461.000000 0 0 1
-32.081548 4.234366 -25.682827 41.312990 -0.131229 2.241662 -0.002132 0.009430 497900.000000 0 0 1
-30.816488 4.192966 -26.605397 40.927791 -0.135232 2.278456 0.019243 0.007634 338663.000000 0 0 1
-29.601458 4.414366 -25.941937 39.607033 -0.148036 2.284957 0.025111 0.009115 -556749.000000 0 0 1
-28.538738 4.195766 -26.845117 39.404623 -0.145974 2.320290 0.027741 0.013027 -722420.000000 0 0 1
-27.226998 4.611466 -26.206477 38.070388 -0.167779 2.330034 0.006865 0.017501 -890989.000000 0 0 1
-27.101138 6.043166 -26.053037 38.075612 -0.219396 2.324364 -0.010033 0.014408 -453687.000000 0 0 1
-25.985478 6.345066 -25.293697 36.814074 -0.239491 2.328240 -0.009202 0.023140 -823071.000000 0 0 1
-25.427848 7.781766 -25.288787 36.696786 -0.296983 2.331081 -0.013969 0.011973 -214422.000000 0 0 1
-26.193098 8.844466 -24.680797 37.060015 -0.325643 2.299587 -0.007175 0.006143 47630.000000 0 0 1
-25.702128 10.102566 -25.011297 37.258907 -0.374512 2.306736 -0.008949 -0.002205 244955.000000 0 0 1
-24.357648 10.548766 -24.359597 36.027232 -0.408693 2.313313 0.004521 -0.001595 242928.000000 0 0 1
-24.520248 10.905366 -23.031897 35.364358 -0.418479 2.280059 0.005346 -0.002987 437868.000000 0 0 1
-23.250448 10.781566 -22.418097 34.049913 -0.434200 2.289473 0.011350 -0.006385 -156406.000000 0 0 1
-23.305548 11.296766 -20.938597 33.304509 -0.451353 2.250679 0.020744 -0.005345 -841925.000000 0 0 1
-23.600448 12.660966 -20.829897 33.928834 -0.492397 2.231825 0.021934 -0.011853 1170080.000000 0 0 1
-24.951248 13.118566 -21.011997 35.159146 -0.484049 2.211332 0.020969 -0.009064 1064530.000000 0 0 1
-26.203168 12.442966 -20.365897 35.442956 -0.443338 2.182925 0.006692 -0.007502 -335714.000000 0 0 1
-26.107768 12.494066 -18.946297 34.593054 -0.446347 2.150398 0.015485 -0.013161 542661.000000 0 0 1
-27.101518 11.679966 -18.272597 34.710253 -0.406917 2.125195 0.002366 -0.014547 -311419.000000 0 0 1
-26.804048 10.832766 -16.969497 33.522673 -0.384076 2.101580 0.021069 -0.015962 172691.000000 0 0 1
-25.895818 9.723166 -16.983797 32.458939 -0.359185 2.121444 0.031016 -0.014349 989028.000000 0 0 1
-24.514148 10.063866 -17.116097 31.546563 -0.389553 2.144285 0.022388 -0.011020 -63007.400000 0 0 1
-23.680648 8.797966 -16.843697 30.362599 -0.355721 2.158861 0.019069 -0.016283 -816943.000000 0 0 1
-22.336048 9.064766 -16.569097 29.250709 -0.385527 2.172989 0.029946 -0.012198 -372236.000000 0 0 1
-21.687348 7.926866 -16.077897 28.136720 -0.350422 2.179032 0.022895 -0.010232 34743.100000 0 0 1
-20.175248 8.170366 -15.842097 26.921507 -0.384783 2.199943 0.025646 -0.006962 162353.000000 0 0 1
-19.530248 8.620466 -17.038497 27.313978 -0.415671 2.244393 0.028705 -0.011329 491943.000000 0 0 1
-18.118348 8.536766 -16.857297 26.178605 -0.440316 2.270426 0.042511 -0.004639 382327.000000 0 0 1
-17.284048 9.084166 -18.068297 26.603077 -0.483902 2.317442 0.030435 -0.007012 -118686.000000 0 0 1
-17.076548 8.227366 -19.185597 26.970079 -0.448976 2.362236 0.038736 -0.003876 497350.000000 0 0 1
-15.936448 7.389266 -18.996497 25.873510 -0.434164 2.395293 0.037853 -0.005836 -449005.000000 0 0 1
-15.574748 6.568266 -20.235697 26.366614 -0.399094 2.445688 0.019181 -0.004358 -341305.000000 0 0 1
-16.535148 5.676666 -20.741697 27.126622 -0.330702 2.441256 0.018861 0.005512 -274616.000000 0 0 1
-17.530248 6.359766 -21.465897 28.434854 -0.348022 2.426321 0.027229 -0.003412 -390279.000000 0 0 1
-18.585048 5.465466 -22.157697 29.431936 -0.286016 2.423171 0.026853 0.005050 -330823.000000 0 0 1
-19.422848 4.732466 -21.339897 29.240972 -0.238998 2.388817 0.025523 0.001834 225402.000000 0 0 1
-20.004748 3.580066 -21.943497 29.908592 -0.177086 2.394526 0.014475 0.016603 192592.000000 0 0 1
-20.925548 2.754466 -20.987897 29.765037 -0.130879 2.353387 0.023649 0.005193 418282.000000 0 0 1
-21.512248 1.595666 -21.636597 30.552664 -0.074039 2.357705 0.020669 0.014333 521823.000000 0 0 1
-22.368948 0.890666 -20.754397 30.527170 -0.039796 2.318377 0.039396 0.002489 84978.100000 0 0 1
-22.822348 -0.519734 -21.249397 31.187603 0.022769 2.320390 0.034907 0.019403 375229.000000 0 0 1
-21.724348 -1.432534 -21.313197 30.467225 0.065846 2.345557 0.016421 0.009839 602016.000000 0 0 1
-22.210548 -2.758534 -21.559797 31.076403 0.123567 2.337503 0.023197 0.002416 -246993.000000 0 0 1
-22.464048 -3.053134 -23.090097 32.359043 0.135084 2.365362 0.023388 -0.002982 1544110.000000 0 0 1
-21.323648 -2.821934 -23.996197 32.225436 0.131574 2.410785 -0.003487 -0.001607 1627650.000000 0 0 1
-20.119348 -3.562534 -23.883397 31.430820 0.175254 2.433912 -0.032713 -0.009553 8272.080000 0 0 1
-19.221048 -3.427534 -25.104937 31.803373 0.176467 2.480594 -0.005464 -0.006912 -302096.000000 0 0 1
-19.905548 -3.781034 -26.307567 33.205649 0.187713 2.485303 -0.008970 -0.007148 210249.000000 0 0 1
-19.062848 -4.009334 -27.393557 33.613597 0.207300 2.523447 -0.009742 -0.005351 -277057.000000 0 0 1
-19.892848 -4.175734 -28.693997 35.164010 0.206907 2.525261 -0.014832 -0.009908 453649.000000 0 0 1
-20.810848 -5.269834 -28.544407 35.716183 0.248012 2.496761 -0.011463 -0.005518 601406.000000 0 0 1
-21.634448 -5.572534 -29.658537 37.131271 0.252097 2.496008 -0.016378 -0.012346 -144558.000000 0 0 1
-21.169948 -6.849234 -30.432907 37.699344 0.312907 2.510279 0.001691 -0.014178 73356.800000 0 0 1
-20.024748 -6.531434 -31.219577 37.660485 0.315288 2.548068 -0.003126 -0.022126 303654.000000 0 0 1
-19.538748 -7.686134 -31.868977 38.163740 0.374786 2.559036 0.000274 -0.018008 -669855.000000 0 0 1
-18.175148 -7.468034 -32.515417 37.991576 0.389861 2.598005 0.010048 -0.023101 -821946.000000 0 0 1
-18.105148 -6.924234 -33.810507 38.972962 0.365282 2.621026 0.015233 -0.030182 249524.000000 0 0 1
-18.476648 -7.817634 34.421794 39.841710 0.400268 0.527707 0.017773 -0.029421 -519117.000000 0 0 1
-18.449548 -7.207234 32.991879 38.481088 0.372416 0.540691 0.025279 -0.028111 -868882.000000 0 0 1
-17.200048 -7.048034 32.410689 37.362671 0.388899 0.520719 0.029434 -0.027439 -601427.000000 0 0 1
-16.497148 -5.882334 32.766139 37.153433 0.342513 0.490889 0.016103 -0.030624 -980518.000000 0 0 1
-15.195648 -5.773134 32.028579 35.917498 0.363077 0.469651 0.013527 -0.025268 -968788.000000 0 0 1
-15.449548 -5.390134 30.696719 34.785494 0.335682 0.489735 0.020267 -0.023768 495693.000000 0 0 1
-14.271748 -5.178334 29.928249 33.558874 0.348066 0.469459 0.021471 -0.016759 387674.000000 0 0 1
-14.665648 -5.117234 28.403559 32.373283 0.335718 0.500430 0.026957 -0.011337 251150.000000 0 0 1
-15.516848 -4.029834 28.080069 32.334230 0.254094 0.518766 0.018352 -0.014289 -184908.000000 0 0 1
-16.100048 -4.103634 26.803869 31.535674 0.249569 0.554899 0.023055 -0.009414 -10388.600000 0 0 1
-15.234648 -3.855234 25.521979 29.972133 0.247854 0.551912 0.028236 -0.001254 85311.800000 0 0 1
-14.818748 -2.507334 25.443269 29.550667 0.167613 0.533554 0.016632 0.012839 -204435.000000 0 0 1
-13.981548 -2.284734 24.342159 28.164595 0.161979 0.527075 0.003327 0.019758 -126746.000000 0 0 1
-13.672948 -0.798634 24.136299 27.751545 0.058344 0.516145 0.012552 0.015875 -186131.000000 0 0 1
-14.681048 -0.024434 23.548099 27.749716 0.001664 0.557484 0.016453 0.005681 -187978.000000 0 0 1
-14.465548 1.356766 23.999699 28.054918 -0.093519 0.544369 0.008129 0.015426 -96573.300000 0 0 1
-15.376248 2.452366 23.382599 28.092508 -0.158158 0.587475 0.000374 0.011559 -50691.800000 0 0 1
-14.870748 2.905866 22.136099 26.825176 -0.192976 0.600243 -0.008614 0.019151 167252.000000 0 0 1
-15.435248 4.106866 21.710699 26.953064 -0.260046 0.634277 -0.008187 0.017397 -438098.000000 0 0 1
-14.501448 4.871266 20.763599 25.790468 -0.324073 0.634972 0.007164 0.018305 -99285.800000 0 0 1
-13.492448 5.500266 21.529599 25.996590 -0.387088 0.594961 -0.021551 0.016940 -87178.700000 0 0 1
-12.405048 5.757466 20.684799 24.797067 -0.434536 0.584183 -0.018434 0.017094 89236.300000 0 1 0
-11.472748 6.960566 21.045199 24.959443 -0.545335 0.567633 -0.016534 0.020206 310107.000000 0 1 0
-12.029148 8.202366 20.716699 25.321153 -0.598457 0.612597 -0.009992 0.013640 960755.000000 0 0 1
-11.038548 9.225466 20.999699 25.454786 -0.696163 0.600629 -0.020193 0.020418 705147.000000 0 0 1
-11.551048 10.698166 20.806199 26.091672 -0.747084 0.647778 -0.016279 0.020098 -247196.000000 0 0 1
-11.778448 11.203266 19.524099 25.405421 -0.760376 0.694301 -0.021278 0.016127 451375.000000 0 0 1
-12.595348 12.363766 19.542899 26.333066 -0.776120 0.734534 -0.016748 0.009468 -412038.000000 0 0 1
-12.865148 13.057766 18.210299 25.838581 -0.792828 0.788695 -0.015555 0.007096 82184.800000 0 0 1
-11.828348 13.830366 17.586799 25.307792 -0.863265 0.802493 -0.018516 0.008908 355534.000000 0 0 1
-11.612248 15.095166 18.131599 26.295688 -0.915076 0.809960 -0.012258 0.008183 -269604.000000 0 0 1
-12.579048 16.223666 17.625499 27.057309 -0.911267 0.861350 -0.010278 0.005131 -16001.400000 0 0 1
-12.576648 16.619966 16.228099 26.414892 -0.923009 0.909229 -0.018627 0.000833 146876.000000 0 0 1
-13.094148 15.605266 15.382899 25.526743 -0.872673 0.924018 -0.014447 0.001080 -254324.000000 0 0 1
-13.659148 15.994066 14.009599 25.271552 -0.863977 0.983200 -0.016324 0.001638 -598789.000000 0 0 1
-14.776748 16.807166 14.051799 26.425104 -0.849596 1.010120 -0.013527 0.001928 -630525.000000 0 0 1
-15.014348 17.452766 12.801599 26.342183 -0.860362 1.063320 -0.021420 0.005452 -508517.000000 0 0 1
-16.167348 18.446866 12.892999 27.710998 -0.851158 1.086861 -0.009550 0.008763 68361.600000 0 0 1
-17.354248 17.743966 13.309599 28.163161 -0.796501 1.078570 0.001171 0.012171 -49127.800000 0 0 1
-18.427148 18.643466 13.404799 29.441930 -0.791233 1.098091 0.005524 0.018390 -30743.300000 0 0 1
-19.812248 17.966966 13.436499 29.931197 -0.736593 1.105248 0.014958 0.022303 61457.200000 0 0 1
-20.376248 17.644966 12.201399 29.587336 -0.713686 1.145725 0.015417 0.020158 1024690.000000 0 0 1
-21.696748 17.045766 12.312599 30.214352 -0.665921 1.151072 0.031256 0.016739 1386120.000000 0 0 1
-22.262348 16.384466 10.998699 29.749525 -0.634463 1.192099 0.027770 0.013137 -117554.000000 0 0 1
-21.819248 15.058766 10.882299 28.657816 -0.604091 1.181289 0.029541 0.005010 262675.000000 0 0 1
-22.265148 14.378266 9.709099 28.226547 -0.573399 1.219654 0.027590 0.006480 -5360.730000 0 0 1
-21.576948 12.975766 9.469699 26.900007 -0.541427 1.211054 0.036535 -0.001056 -476988.000000 0 0 1
-21.884348 11.900166 10.354199 26.976806 -0.498052 1.176868 0.031464 -0.004113 321580.000000 0 0 1
-23.184848 11.342066 10.243899 27.768995 -0.454972 1.192974 0.037213 0.002967 15044.100000 0 0 1
-23.583148 10.617866 8.943899 27.365987 -0.423046 1.237854 0.024727 0.011981 -767459.000000 0 0 1
-23.634748 11.478966 7.791199 27.405670 -0.452128 1.282529 0.019963 0.006533 1427520.000000 0 0 1
-25.021048 11.591166 7.358599 28.540444 -0.433823 1.310020 0.011975 0.012595 1016990.000000 0 0 1
-25.453048 12.948766 6.737399 29.341451 -0.470608 1.339109 -0.001564 0.023906 -239483.000000 0 0 1
-24.799248 13.281866 5.494999 28.663665 -0.491701 1.377896 0.000007 0.015169 1244800.000000 0 0 1
-23.452148 13.770566 5.460599 27.738959 -0.530938 1.372646 0.007000 0.013452 347015.000000 0 0 1
-23.210248 15.250366 5.825899 28.376581 -0.581317 1.364019 0.013310 0.014408 -613018.000000 0 0 1
-21.869148 15.659566 5.924299 27.542312 -0.621422 1.354004 -0.010354 0.012041 33742.600000 0 0 1
-21.779248 16.950866 6.428699 28.337178 -0.661371 1.341939 0.001558 0.007490 1020120.000000 0 0 1
-20.285348 17.484866 6.447899 27.546166 -0.711388 1.334528 -0.014607 0.007371 967430.000000 0 0 1
-19.938948 18.040566 5.201799 27.387632 -0.735455 1.379703 -0.004503 -0.001819 103582.000000 0 0 1
-18.588048 18.437066 5.214299 26.695127 -0.781320 1.374205 -0.012778 0.000636 -274803.000000 0 0 1
-18.145748 19.381366 4.108399 26.866046 -0.818312 1.417272 0.014025 -0.007779 674816.000000 0 0 1
-16.727148 19.613466 4.080199 26.098535 -0.864656 1.413814 0.000217 -0.008558 729957.000000 0 0 1
-16.236048 20.690966 3.303799 26.507365 -0.905459 1.445834 0.014417 -0.000877 -73054.300000 0 0 1
-16.490648 22.158866 3.815199 27.883912 -0.931017 1.433541 0.030856 -0.008965 -58851.400000 0 0 1
-15.917648 22.505566 5.087599 28.031334 -0.955204 1.388288 0.014874 -0.008670 221783.000000 0 0 1
-16.097248 23.850766 5.414199 29.279583 -0.977105 1.384812 0.008069 -0.007196 -141565.000000 0 0 1
-15.412548 24.131466 6.762699 29.421223 -1.002412 1.338865 0.004723 0.006456 131156.000000 0 0 1
-16.182648 23.578966 7.826099 29.649512 -0.969313 1.303677 -0.005099 0.009259 592983.000000 0 0 1
-15.498648 23.619266 9.092099 29.677332 -0.990084 1.259424 -0.002927 0.005905 -149239.000000 0 0 1
-16.297448 22.843266 10.097399 29.822459 -0.951103 1.225385 -0.009542 0.008588 279251.000000 0 0 1
-17.397448 23.628766 10.574699 31.189967 -0.936132 1.224898 -0.009042 0.005954 306516.000000 0 0 1
-18.395648 22.871866 11.239199 31.429949 -0.893444 1.205105 -0.014865 0.006145 59125.100000 0 0 1
-19.548248 23.764966 11.728099 32.931078 -0.882446 1.206662 -0.011828 0.003535 -228048.000000 0 0 1
-20.442848 24.282666 10.753899 33.514239 -0.871041 1.244143 -0.005468 0.008353 243898.000000 0 0 1
-20.019048 25.428566 10.075799 33.895368 -0.903868 1.268973 -0.010845 -0.005434 -740183.000000 0 0 1
-21.259748 26.168266 9.629099 35.063864 -0.888525 1.292606 -0.005529 -0.005809 -660539.000000 0 0 1
-21.774448 26.932766 10.681199 36.243461 -0.890909 1.271648 0.001348 -0.009462 -57440.000000 0 0 1
-22.814048 27.784866 10.263299 37.387362 -0.883324 1.292714 -0.011187 -0.004361 -82700.500000 0 0 1
-23.543748 28.435766 11.446099 38.651184 -0.879236 1.270149 -0.017630 0.005145 229906.000000 0 0 1
-22.620248 29.262566 12.147799 38.929968 -0.912731 1.253454 -0.004219 0.003984 758083.000000 0 0 1
-23.243548 29.714066 13.338999 40.013961 -0.906978 1.230933 -0.003960 0.009913 79503.400000 0 0 1
7.905952 -32.784831 28.237209 43.985102 -1.334167 0.873729 -0.014242 -0.015875 -382024.000000 0 0 1
9.266452 -32.987231 27.969929 44.230549 -1.296944 0.886192 -0.008127 -0.014609 11841.700000 0 0 1
9.476652 -32.987131 26.550049 43.391967 -1.291047 0.912379 -0.008327 -0.017334 -399090.000000 0 0 1
10.954952 -33.132031 26.179859 43.624849 -1.251467 0.927153 -0.010284 -0.010994 -502344.000000 0 0 1
11.468352 -34.436931 26.188859 44.758034 -1.249323 0.945767 0.004016 -0.021705 -539107.000000 0 0 1
12.859752 -34.412231 26.167849 45.103560 -1.213168 0.951856 0.015077 -0.017663 -710176.000000 0 0 1
13.596652 33.780566 25.890499 44.680124 1.188137 0.952726 0.030585 -0.010624 -302002.000000 0 0 1
13.764452 33.398266 24.557719 43.680497 1.179876 0.973738 0.023755 -0.011119 109666.000000 0 0 1
14.537152 32.234466 24.544589 43.044470 1.147126 0.964029 0.020386 -0.007472 -353626.000000 0 0 1
15.062752 31.683366 23.194699 42.056108 1.127009 0.986613 0.021739 -0.017035 -249576.000000 0 0 1
14.080352 30.997966 22.456799 40.785267 1.144426 0.987701 0.009668 -0.008080 -101368.000000 0 0 1
14.204552 29.555766 22.508899 39.773900 1.122787 0.969246 0.010994 -0.000385 -156108.000000 0 0 1
13.853752 28.782666 23.759399 39.810517 1.122202 0.931274 0.015784 -0.000527 -285404.000000 0 0 1
14.736152 28.915766 24.849949 40.875367 1.099480 0.917327 0.017106 -0.001807 -28731.700000 0 0 1
14.084352 28.530266 26.034779 41.111491 1.112231 0.885022 0.020429 -0.003646 -144140.000000 0 0 1
14.784152 28.828366 27.399239 42.430697 1.096935 0.868803 0.017989 -0.009861 -78628.800000 0 0 1
14.666852 30.200966 27.734179 43.547670 1.118701 0.880365 0.020668 -0.007947 384797.000000 0 0 1
15.471152 30.466466 28.879249 44.738944 1.100921 0.869111 0.039142 -0.011787 194323.000000 0 0 1
15.379952 31.949266 29.365669 46.039559 1.122150 0.879112 0.049883 -0.022316 -150806.000000 0 0 1
15.993152 32.883066 28.535769 46.382831 1.118117 0.908128 0.047071 -0.018627 -69043.000000 0 0 1
16.004652 34.175366 29.004739 47.596001 1.132821 0.915500 0.053698 -0.008698 -190634.000000 0 0 1
16.780352 -34.299731 28.153319 47.441133 -1.115804 0.935474 0.057994 -0.018898 -207181.000000 0 0 1
16.274452 -33.997631 26.815989 46.257907 -1.124339 0.952428 0.060580 -0.018460 -79661.200000 0 0 1
16.246852 -32.659431 26.337029 44.991529 -1.109181 0.945451 0.046278 -0.020698 463418.000000 0 0 1
17.640852 -31.961331 26.032869 44.837892 -1.066462 0.951331 0.053091 -0.010753 656832.000000 0 0 1
18.325252 -31.645731 27.168219 45.556330 -1.045905 0.931831 0.039487 -0.008692 -18551.100000 0 0 1
19.530652 -30.932231 26.878689 45.395079 -1.007607 0.937127 0.045639 -0.008706 421590.000000 0 0 1
20.092952 -30.189031 28.042439 45.841931 -0.983552 0.912563 0.050046 -0.005073 246280.000000 0 0 1
19.059752 -29.292431 28.502439 45.096670 -0.993949 0.886627 0.042230 -0.001462 901498.000000 0 0 1
19.475052 -28.409331 29.532089 45.370827 -0.969857 0.862021 0.055941 0.000733 78676.000000 0 0 1
18.236552 -27.838931 30.279629 44.993708 -0.990863 0.832573 0.033041 -0.000741 223370.000000 0 0 1
17.483652 -26.923131 29.501229 43.598802 -0.994849 0.827590 0.040553 0.002254 -471032.000000 0 0 1
16.237652 -26.841231 30.118109 43.488084 -1.026744 0.805764 0.020814 -0.003289 -649570.000000 0 0 1
15.202052 -26.019931 29.293379 42.026673 -1.042041 0.799565 0.012891 0.011840 -737593.000000 0 0 1
14.776652 -26.575431 28.080369 41.389734 -1.063338 0.825162 0.007881 0.005346 273255.000000 0 0 1
14.123652 -25.692831 27.180409 39.979666 -1.068174 0.823230 0.005812 -0.003731 -1349800.000000 0 0 1
12.727752 -25.209731 27.534719 39.442197 -1.103257 0.798052 -0.013421 0.007447 -1072650.000000 0 0 1
11.677752 -26.136831 27.377469 39.610978 -1.150613 0.807705 -0.011432 0.007505 115083.000000 0 0 1
11.401652 -26.581031 26.055539 38.928652 -1.165594 0.837510 -0.009380 -0.000124 -1166270.000000 0 0 1
10.664852 -27.896231 25.921879 39.545955 -1.205637 0.855968 -0.011904 -0.008239 6604.720000 0 0 1
9.321452 -27.881631 26.371789 39.493620 -1.248156 0.839617 -0.021913 -0.004759 335861.000000 0 0 1
8.749552 -29.192531 26.370279 40.300746 -1.279597 0.857490 -0.012970 -0.008223 -473917.000000 0 0 1
7.306852 -29.227731 26.869389 40.368482 -1.325820 0.842495 -0.019899 -0.010670 600731.000000 0 0 1
6.192952 -28.951431 25.969179 39.381928 -1.360064 0.850751 -0.022379 -0.011653 1087620.000000 0 0 1
6.106652 -27.639231 25.380389 38.018185 -1.353348 0.839835 -0.010843 -0.012495 -552337.000000 0 0 1
4.771252 -27.443031 24.626229 37.179778 -1.398657 0.846838 -0.004915 -0.016015 -570345.000000 0 0 1
4.720652 -28.135431 23.375099 36.882005 -1.404562 0.884365 -0.026610 -0.007553 29426.200000 0 0 1
4.291352 -29.489431 23.394399 37.885883 -1.426289 0.905240 -0.032561 -0.008640 632000.000000 0 0 1
2.873152 -29.716231 24.068799 38.348617 -1.474410 0.892289 -0.021117 -0.007344 663333.000000 0 0 1
1.783752 -29.323831 23.216799 37.444473 -1.510042 0.902012 -0.024371 -0.002846 1122810.000000 0 0 1
0.553052 -28.959431 23.848299 37.519273 -1.551701 0.881975 -0.011416 -0.015557 554550.000000 0 0 1
0.508852 -27.424831 24.082899 36.501593 -1.552244 0.850275 -0.003994 -0.016690 -337942.000000 0 0 1
1.366552 -26.909031 25.060999 36.796971 -1.520056 0.821585 -0.005870 -0.021500 -75100.800000 0 0 1
1.093452 -25.557531 25.276959 35.962587 -1.528038 0.791375 0.001281 -0.021046 -742910.000000 0 0 1
2.079752 -24.883031 26.217459 36.205604 -1.487409 0.761028 0.015212 -0.020149 -1381820.000000 0 0 1
3.291952 -24.730531 25.531499 35.697248 -1.438461 0.773853 0.001629 -0.010738 -308252.000000 0 0 1
4.372552 -24.267231 26.312409 36.060512 -1.392526 0.752952 0.010036 -0.005543 222337.000000 0 0 1
4.255352 -22.788431 26.571249 35.262613 -1.386189 0.717389 0.006097 0.002524 -819791.000000 0 0 1
4.294252 -21.973731 25.416219 33.871369 -1.377802 0.722168 -0.007520 0.010917 -93851.800000 0 0 1
3.778852 -20.720931 25.701609 33.229646 -1.390410 0.686524 -0.002772 -0.002970 -271519.000000 0 0 1
3.646252 -19.765631 24.477999 31.672508 -1.388373 0.687481 -0.008480 -0.001283 744601.000000 0 0 1
4.860152 -19.084031 24.119499 31.137943 -1.321426 0.684712 0.019207 0.005566 610865.000000 0 0 1
4.630652 -18.447431 22.915399 29.780298 -1.324859 0.692767 0.022034 0.007544 -511471.000000 0 0 1
5.845552 -17.722531 22.375799 29.136488 -1.252195 0.695139 0.020605 0.008900 -730183.000000 0 0 1
6.648952 -18.687931 21.735999 29.426195 -1.228974 0.739714 0.003260 0.014627 721012.000000 0 0 1
8.027252 -18.356731 21.462999 29.360972 -1.158560 0.751004 -0.005779 0.010381 1043140.000000 0 0 1
9.005052 -18.523631 22.622399 30.593934 -1.118299 0.738557 -0.003066 0.016697 -554037.000000 0 0 1
8.973152 -17.596031 23.689399 30.843563 -1.099218 0.695006 0.011174 0.019803 -95946.300000 0 0 1
10.122052 -17.759431 24.482789 31.894518 -1.052763 0.695681 0.003530 0.028307 -14081.000000 0 0 1
10.133652 -16.845431 25.705629 32.361069 -1.029226 0.652879 0.012046 0.008408 -168432.000000 0 0 1
10.320852 -15.441431 25.468549 31.521496 -0.981604 0.630091 0.022385 0.013936 222105.000000 0 0 1
10.254152 -14.662931 26.654249 32.102930 -0.960524 0.591196 0.019013 0.012353 -117910.000000 0 0 1
10.612252 -13.206431 26.476149 31.432724 -0.893884 0.569239 0.024737 0.014781 230601.000000 0 0 1
9.658352 -12.484531 25.694779 30.155744 -0.912346 0.550871 0.029986 0.011712 485785.000000 0 0 1
10.095352 -11.125431 25.653729 29.728860 -0.833901 0.529770 0.033875 0.024729 240076.000000 0 0 1
9.166152 -10.153931 24.862549 28.377226 -0.836481 0.502992 0.036967 0.020655 139660.000000 0 0 1
7.997552 -9.810731 25.563069 28.525107 -0.886865 0.459757 0.014961 0.026951 -346060.000000 0 0 1
6.990052 -9.259431 24.748659 27.333020 -0.924159 0.438360 0.015025 0.022601 -43393.500000 0 0 1
5.632052 -9.299231 25.467849 27.691281 -1.026235 0.403464 0.005194 0.021135 -918780.000000 0 0 1
5.238352 -8.210431 26.308079 28.052923 -1.002895 0.354553 0.005549 0.025444 575949.000000 0 0 1
3.877752 -8.238931 26.742369 28.250154 -1.130893 0.328190 -0.007777 0.028937 1069490.000000 0 0 1
2.759552 -8.085431 25.669269 27.053663 -1.241894 0.321293 -0.009855 0.029674 -515425.000000 0 0 1
2.825452 -6.910731 24.934999 26.028744 -1.182684 0.290924 0.000065 0.020989 -61827.800000 0 0 1
1.710152 -6.722231 24.079399 25.058540 -1.321679 0.280469 0.003698 0.004304 140797.000000 0 0 1
1.822552 -5.449031 23.314999 24.012555 -1.248021 0.241625 0.008979 -0.007684 78311.700000 0 1 0
1.503952 -4.323231 24.183699 24.613075 -1.236014 0.187062 0.006125 -0.001420 -20090.100000 0 1 0
1.764352 -3.077231 23.566699 23.832154 -1.050198 0.149394 0.005185 -0.006908 -1140360.000000 0 1 0
0.800652 -2.506231 22.504799 22.658071 -1.261579 0.116381 0.001040 -0.015655 48830.800000 0 1 0
-0.211648 -1.635231 22.977999 23.037083 1.442082 0.071636 0.007942 -0.016860 -66655.300000 0 1 0
-1.288048 -2.284231 23.621499 23.766615 1.057354 0.110563 0.020906 -0.013971 -590555.000000 0 1 0
-2.208448 -1.274231 24.352749 24.485859 0.523321 0.104318 0.016294 -0.008557 -351423.000000 0 1 0
-1.628648 -0.652231 25.433219 25.493656 0.380915 0.068871 0.018983 -0.014672 -230198.000000 0 0 1
-2.435048 0.374769 25.946799 26.063505 -0.152708 0.094669 0.019949 -0.010838 -447211.000000 0 0 1
-1.875648 1.124769 27.243329 27.330974 -0.540177 0.080106 0.040100 -0.024765 -340095.000000 0 0 1
-1.755648 0.423769 28.490029 28.547217 -0.236845 0.063308 0.036673 -0.027418 593192.000000 0 0 1
-0.714948 -0.592231 28.503399 28.518514 0.691793 0.032559 0.037073 -0.023784 -166878.000000 0 0 1
0.542952 -0.036231 29.244799 29.249861 -0.066630 0.018605 0.048172 -0.029205 -496534.000000 0 0 1
1.424652 0.779769 28.498399 28.544639 0.500799 0.056927 0.045453 -0.020465 486925.000000 0 0 1
2.078352 0.150769 27.348419 27.427692 0.072416 0.076048 0.035261 -0.017850 -357438.000000 0 0 1
3.080352 -0.969231 27.660819 27.848678 -0.304842 0.116218 0.019805 -0.016850 -833010.000000 0 0 1
2.440452 -2.144231 28.088849 28.276084 -0.720877 0.115144 0.025536 -0.017268 24380.600000 0 0 1
3.335252 -3.253231 28.219599 28.601629 -0.772950 0.163626 0.013152 0.004895 61150.700000 0 0 1
3.818552 -3.922231 26.929619 27.480349 -0.798791 0.200540 0.015297 -0.001271 -19654.800000 0 0 1
4.740152 -3.166231 26.152479 26.766513 -0.588897 0.214610 0.020201 0.002618 -100690.000000 0 0 1
5.207752 -3.853231 25.031929 25.856634 -0.637008 0.253244 0.011439 0.007243 -191870.000000 0 0 1
6.669852 -3.473231 24.711449 25.830330 -0.480098 0.295408 0.009341 0.001380 -465818.000000 0 0 1
7.681452 -3.751231 25.648929 27.035976 -0.454284 0.321710 0.007974 0.002349 121727.000000 0 0 1
8.160552 -5.124631 25.757439 27.500947 -0.560737 0.357993 0.008975 0.010601 -185345.000000 0 0 1
8.995552 -5.582431 24.559719 26.744406 -0.555412 0.407000 0.011485 0.001916 -802356.000000 0 0 1
8.308252 -5.829331 23.352999 25.463124 -0.611820 0.409977 0.010755 0.001335 -12283.900000 0 0 1
9.139852 -5.631531 22.194699 24.654729 -0.552211 0.450520 0.016793 -0.002578 389181.000000 0 1 0
9.393052 -4.175231 21.676899 23.990621 -0.418272 0.442796 0.015576 -0.002492 -98411.500000 0 1 0
8.142052 -3.703231 21.276999 23.080676 -0.426861 0.397960 0.011538 -0.011693 -613109.000000 0 1 0
8.162852 -2.669231 20.307799 22.049119 -0.316037 0.400091 0.001074 -0.021271 754246.000000 0 1 0
6.721952 -2.088231 20.054799 21.254183 -0.301206 0.337548 0.004115 -0.020812 812464.000000 0 1 0
6.276552 -1.335231 21.161299 22.112858 -0.209608 0.294429 0.010632 -0.019644 -868260.000000 0 1 0
4.933252 -1.014231 21.089299 21.682347 -0.202765 0.234424 0.001835 -0.012742 -902109.000000 0 1 0
4.480452 -0.300231 22.426499 22.871651 -0.066909 0.197618 0.006502 -0.018347 732185.000000 0 1 0
3.137952 0.207769 22.390199 22.609974 0.066115 0.139542 0.009640 -0.014846 697898.000000 0 1 0
2.606552 0.483769 23.679499 23.827438 0.183509 0.111492 0.024685 -0.018795 587918.000000 0 1 0
1.122752 0.964769 23.718999 23.765148 0.709863 0.062330 0.027423 -0.020737 306931.000000 0 1 0
0.997152 2.248769 23.287299 23.416865 1.153427 0.105244 0.034473 -0.012081 -103385.000000 0 1 0
-0.351648 2.613769 23.390599 23.538810 -1.437063 0.112277 0.019045 -0.006053 -267353.000000 0 1 0
-0.746248 4.021769 22.852999 23.216181 -1.387331 0.177113 0.023136 -0.006729 -89791.600000 0 1 0
-0.723848 5.089769 23.742299 24.292519 -1.429527 0.213241 0.030156 -0.009181 -34318.600000 0 1 0
-1.499748 6.142769 23.240699 24.085534 -1.331332 0.265644 0.024848 -0.006338 -255127.000000 0 1 0
-1.352648 7.426769 24.053199 25.209977 -1.390640 0.304109 0.035920 -0.002435 -235163.000000 0 0 1
-0.242048 8.257769 23.827899 25.219399 -1.541493 0.333739 0.028186 -0.001342 -210707.000000 0 0 1
-0.311948 9.543769 24.396339 26.198515 -1.538122 0.373076 0.036748 -0.002871 -458905.000000 0 0 1
0.578952 10.574769 23.690099 25.949599 1.516103 0.420396 0.038068 -0.008226 1103560.000000 0 0 1
2.006852 10.569769 23.849699 26.164014 1.383163 0.423768 0.028585 -0.002230 559256.000000 0 0 1
2.526452 11.050769 25.069369 27.513192 1.346037 0.424666 0.034152 -0.008115 -712810.000000 0 0 1
3.838152 11.820769 24.832779 27.769208 1.256840 0.464030 0.027199 -0.008105 905666.000000 0 0 1
5.089652 11.184769 24.501669 27.410498 1.143749 0.464872 0.012790 -0.003144 1043670.000000 0 0 1
4.974652 10.613769 23.248699 26.036537 1.132502 0.466993 0.018208 -0.008305 -444432.000000 0 0 1
6.312452 10.052769 22.626599 25.551285 1.010092 0.483149 0.017113 -0.009169 636052.000000 0 0 1
7.128052 11.128769 22.163999 25.805067 1.001124 0.537676 0.017849 -0.010947 -486576.000000 0 0 1
8.334752 10.543769 21.757299 25.573799 0.901881 0.553357 0.017843 -0.010915 -202803.000000 0 0 1
9.213852 11.616769 21.058799 25.754949 0.900246 0.613461 0.020325 -0.015225 -107497.000000 0 0 1
8.680452 11.896769 19.739099 24.627533 0.940448 0.640988 0.018737 -0.027388 512793.000000 0 1 0
9.320552 12.986769 19.061799 24.877320 0.948292 0.697840 0.026975 -0.027026 819341.000000 0 1 0
10.779652 12.789769 18.506199 24.945109 0.870477 0.734931 0.020299 -0.022863 519224.000000 0 1 0
11.764852 12.759769 19.504799 26.108631 0.825944 0.727163 0.022715 -0.018847 -992878.000000 0 0 1
13.006152 12.626769 18.909499 26.194740 0.770599 0.764279 0.024196 -0.014443 -646894.000000 0 0 1
14.197652 12.509769 19.880599 27.446418 0.722283 0.760717 0.020582 0.000083 46276.500000 0 0 1
14.557752 13.670769 20.584499 28.679952 0.753987 0.770258 0.013360 0.001168 331459.000000 0 0 1
15.654652 13.427769 21.468099 29.769991 0.708976 0.765361 0.011633 0.005383 542375.000000 0 0 1
16.400952 14.662769 22.045399 31.144624 0.729501 0.784361 0.005312 0.010699 2966.500000 0 0 1
15.680552 15.446769 22.993399 31.830469 0.777888 0.763572 0.003605 0.014553 515251.000000 0 0 1
16.520452 16.456769 23.559299 33.148019 0.783467 0.780261 0.007625 0.016813 -254402.000000 0 0 1
-20.577948 12.917266 -25.067097 34.909412 -0.560556 2.371809 -0.000274 0.002248 47347.800000 0 0 1
-20.360348 12.798966 -26.451867 35.749945 -0.561200 2.403738 -0.001224 -0.012437 272752.000000 0 0 1
-21.076848 13.793766 -27.226657 37.091675 -0.579498 2.395044 0.004571 -0.015423 36610.000000 0 0 1
-20.839948 13.818766 -28.748737 38.101858 -0.585523 2.425724 0.011803 -0.012516 -1076760.000000 0 0 1
-19.532448 14.102566 -29.051647 37.741185 -0.625344 2.449261 0.027101 -0.022373 -1198350.000000 0 0 1
-19.407648 14.668166 -30.335107 38.884837 -0.647198 2.465665 0.037918 -0.026398 599802.000000 0 0 1
-17.938548 15.120966 -30.663997 38.609789 -0.700376 2.488491 0.023480 -0.030827 319488.000000 0 0 1
-17.069648 14.054266 -31.042537 38.112129 -0.688816 2.522673 0.024601 -0.026069 -866065.000000 0 0 1
-15.744248 14.443466 -31.120327 37.748772 -0.742335 2.539949 0.018961 -0.020563 -854288.000000 0 0 1
-15.016248 14.000866 -29.849807 36.228758 -0.750420 2.539100 0.032356 -0.016541 -982572.000000 0 0 1
-15.520248 14.472666 -28.641587 35.646552 -0.750485 2.503928 0.029907 -0.019357 -451933.000000 0 0 1
-16.112648 13.388866 -28.001987 34.971280 -0.693332 2.499282 0.041521 -0.011509 -384117.000000 0 0 1
-16.799848 13.686966 -26.685997 34.376014 -0.683645 2.459566 0.034343 -0.016411 131405.000000 0 0 1
-15.906648 13.974966 -25.606197 33.226472 -0.720843 2.450667 0.046914 -0.007625 314011.000000 0 0 1
-16.690248 14.365466 -24.520697 32.957481 -0.710679 2.409848 0.028351 -0.000509 195025.000000 0 0 1
-15.865548 14.972766 -23.318097 31.931692 -0.756456 2.389483 0.029932 -0.002607 438213.000000 0 0 1
-15.331448 16.242566 -23.744197 32.598483 -0.814247 2.386756 0.010182 -0.009869 -141549.000000 0 0 1
-14.589548 16.838266 -22.713697 31.816570 -0.856828 2.365841 0.010371 -0.000110 -211657.000000 0 0 1
-14.186748 18.323866 -22.972797 32.630925 -0.911972 2.351837 0.006414 -0.006772 -148670.000000 0 0 1
-15.231048 19.252866 -23.077197 33.692947 -0.901502 2.325299 -0.019328 -0.002360 -242515.000000 0 0 1
-16.022148 19.217666 -24.231897 34.831203 -0.875830 2.340183 -0.030239 -0.001424 9816.900000 0 0 1
-17.285748 20.112566 -24.194097 35.898004 -0.860841 2.310363 -0.036560 0.000390 -193312.000000 0 0 1
-16.985348 21.462166 -24.337097 36.625413 -0.901316 2.297603 -0.045161 0.001376 -402518.000000 0 0 1
-18.131548 22.194266 -24.680197 37.821298 -0.885807 2.281738 -0.019571 -0.002538 -342622.000000 0 0 1
-17.957848 23.686266 -25.045797 38.869209 -0.922097 2.270984 -0.034941 -0.006546 -223917.000000 0 0 1
-17.733248 24.405166 -23.870497 38.469219 -0.942428 2.240188 -0.029686 -0.003117 -155109.000000 0 0 1
-16.867648 25.498566 -24.095597 38.926754 -0.986370 2.238263 -0.023569 -0.002391 -311465.000000 0 0 1
-15.913148 25.765066 -22.887897 37.959488 -1.017518 2.217997 -0.018912 -0.007770 90491.200000 0 0 1
-14.897348 24.770266 -22.673797 36.736876 -1.029333 2.235968 -0.014588 -0.016743 312394.000000 0 0 1
-15.300148 23.411266 -22.352197 35.802271 -0.991938 2.245061 -0.032384 -0.003942 -298151.000000 0 0 1
-14.068348 22.434466 -22.198397 34.554196 -1.010698 2.268452 -0.003767 -0.009318 750847.000000 0 0 1
-13.213048 22.848166 -21.154997 33.825393 -1.046487 2.246463 -0.001792 -0.017721 197253.000000 0 0 1
-12.161048 21.917466 -20.894597 32.632048 -1.064232 2.265697 0.006674 -0.012914 359872.000000 0 0 1
-11.358448 22.197166 -19.600197 31.715867 -1.097827 2.236984 0.013500 -0.019607 -162717.000000 0 0 1
-12.084448 22.082866 -18.390597 31.175325 -1.070081 2.201742 0.010876 -0.010038 -124582.000000 0 0 1
-12.769948 23.274666 -18.022897 32.087481 -1.068980 2.167211 0.006143 -0.015329 -87171.400000 0 0 1
-13.686648 23.054266 -16.766097 31.621599 -1.035044 2.129645 0.003130 -0.009077 -33026.100000 0 0 1
-13.079348 23.181566 -15.496497 30.799281 -1.057106 2.098030 0.018178 -0.012790 108447.000000 0 0 1
-14.032948 23.637566 -14.528797 31.092508 -1.035043 2.057004 0.015204 -0.012514 245574.000000 0 0 1
-13.442948 23.804966 -13.130397 30.328148 -1.056728 2.018553 0.017635 -0.005588 -227004.000000 0 0 1
-12.810148 25.037466 -12.980497 30.975278 -1.097881 2.003206 0.011424 0.003262 381397.000000 0 0 1
-11.817948 25.035366 -11.960197 30.157582 -1.129758 1.978596 0.008755 0.002951 159126.000000 0 0 1
-11.153948 26.416166 -11.739797 30.984628 -1.171266 1.959394 0.017215 -0.000160 234500.000000 0 0 1
-10.513948 26.906766 -12.926497 31.648246 -1.198285 1.991544 0.015046 -0.011933 282346.000000 0 0 1
-10.385748 28.318766 -13.011097 32.849732 -1.219283 1.978039 -0.000348 0.010279 -816176.000000 0 0 1
-9.952848 28.828266 -14.409197 33.730595 -1.238363 2.012173 0.003560 -0.003624 1234470.000000 0 0 1
-8.533148 28.856366 -14.696497 33.488677 -1.283279 2.025114 -0.004135 -0.009268 953892.000000 0 0 1
-7.854848 27.598666 -14.680997 32.232230 -1.293518 2.043703 0.000333 -0.011310 -490685.000000 0 0 1
-6.452048 27.812166 -15.299797 32.391808 -1.342842 2.062735 0.000820 -0.011452 360890.000000 0 0 1
-5.804448 28.958766 -14.770997 33.022478 -1.372979 2.034542 -0.010046 -0.009551 -669742.000000 0 0 1
-4.435348 28.952966 -15.079597 32.944510 -1.418787 2.046233 -0.001373 -0.016659 -461983.000000 0 0 1
-3.658248 30.061166 -14.322997 33.499324 -1.449698 2.012589 -0.017483 -0.012328 -209878.000000 0 0 1
-3.760848 31.431566 -14.691297 34.898732 -1.451711 2.005310 -0.016501 -0.011975 -642561.000000 0 0 1
-4.786648 32.049066 -14.001097 35.299934 -1.422538 1.978642 -0.016637 -0.013433 -844093.000000 0 0 1
-4.742748 33.601366 -14.144497 36.764279 -1.430575 1.965717 -0.017709 -0.009606 -200288.000000 0 0 1
-3.664048 34.243066 -13.490097 36.986423 -1.464201 1.944140 -0.024120 -0.010384 -96793.900000 0 0 1
-3.640748 -33.858131 -13.634197 36.681322 1.463678 1.951629 -0.019372 -0.008874 542648.000000 0 0 1
-2.518448 -33.225231 -12.744097 35.674508 1.495142 1.936100 -0.025131 -0.010723 297025.000000 0 0 1
-2.857648 -33.271831 -11.406897 35.288782 1.485119 1.899952 -0.023044 -0.013869 364718.000000 0 0 1
-1.983848 -32.486231 -10.571197 34.220477 1.509805 1.884848 -0.024748 -0.008308 312651.000000 0 0 1
-2.470948 -32.512931 -9.091397 33.850402 1.494943 1.842710 -0.023599 -0.018051 -69716.100000 0 0 1
-1.837548 -31.496231 -8.306297 32.624894 1.512521 1.828230 -0.016041 -0.008219 -37811.300000 0 0 1
-2.138548 -31.628231 -6.959897 32.455485 1.503284 1.786919 -0.018907 -0.013563 -561756.000000 0 0 1
-0.987248 -31.136031 -6.111297 31.745472 1.539099 1.764515 -0.006535 -0.008245 -448392.000000 0 0 1
-1.201148 -31.089831 -4.723097 31.469477 1.532181 1.721451 0.000079 -0.009711 -214658.000000 0 0 1
-0.034148 -30.656831 -4.063197 30.924941 1.569682 1.702566 0.010550 -0.005309 -61805.900000 0 0 1
-0.168948 -30.884031 -2.517597 30.986936 1.565326 1.652133 0.011008 0.004653 -422031.000000 0 0 1
-0.190948 -32.252331 -2.011397 32.315554 1.564876 1.633079 0.004069 0.002421 145241.000000 0 0 1
0.932752 -33.055531 -2.325797 33.150377 -1.542586 1.641013 -0.005654 -0.001565 1228650.000000 0 0 1
2.366152 -32.634231 -1.801597 32.769459 -1.498418 1.625802 0.005108 0.002307 236318.000000 0 0 1
2.486452 -32.871331 -0.432297 32.968071 -1.495298 1.583909 -0.008981 0.003658 152683.000000 0 0 1
3.737052 -32.586931 0.187903 32.801051 -1.456616 1.565068 -0.004053 0.000112 350250.000000 0 0 1
4.031552 -31.039231 0.427803 31.302880 -1.441634 1.557129 -0.011327 -0.000665 -583878.000000 0 0 1
4.144152 -30.343731 -0.828597 30.636621 -1.435063 1.597846 0.006818 -0.009366 134008.000000 0 0 1
4.248652 -28.968031 -0.671697 29.285645 -1.425168 1.593734 0.015712 -0.000415 -318986.000000 0 0 1
3.798852 -28.213431 -1.985897 28.537217 -1.436954 1.640442 0.018945 0.005681 -294126.000000 0 0 1
2.456152 -28.493031 -2.289597 28.690203 -1.484807 1.650685 0.011242 0.009206 -126254.000000 0 0 1
1.884152 -27.513431 -3.195397 27.762375 -1.502422 1.686150 0.010908 0.012435 170254.000000 0 0 1
2.438652 -27.402231 -4.649897 27.900731 -1.482036 1.738236 0.000714 0.008682 -120456.000000 0 0 1
2.067352 -28.508931 -5.448997 29.098533 -1.498407 1.759169 -0.006048 0.007018 -274408.000000 0 0 1
2.663952 -28.407631 -6.647697 29.296450 -1.477294 1.799701 0.009579 0.003882 -752986.000000 0 0 1
1.989452 -29.334831 -7.670397 30.386267 -1.503081 1.825987 -0.008026 0.003523 492992.000000 0 0 1
0.675352 -28.897131 -8.021497 29.997411 -1.547430 1.841497 -0.005413 0.003641 111201.000000 0 0 1
0.522952 -29.068031 -9.411697 30.558206 -1.552808 1.883879 -0.015572 0.013595 589475.000000 0 0 1
-0.821048 -28.417831 -9.877197 30.096615 1.541912 1.905176 -0.021488 0.005239 16770.500000 0 0 1
-0.821148 -27.055431 -9.593797 28.717792 1.540455 1.911416 -0.021710 0.008538 112690.000000 0 0 1
-2.043948 -26.306531 -9.538497 28.056981 1.493255 1.917680 -0.014568 0.001150 1033950.000000 0 0 1
-3.108648 -26.764931 -8.488897 28.250426 1.455168 1.876000 -0.011575 0.001480 -187708.000000 0 0 1
-2.821948 -26.573931 -7.119197 27.655382 1.465000 1.831153 -0.004605 0.000921 -283955.000000 0 0 1
-2.324348 -27.782731 -6.520597 28.632166 1.487329 1.800549 -0.000261 0.003878 267636.000000 0 0 1
-1.894948 -27.657331 -5.056697 28.179584 1.502388 1.751219 0.003567 0.009622 157138.000000 0 0 1
-2.976448 -27.640331 -4.152797 28.108590 1.463525 1.719080 0.003539 -0.003378 40772.000000 0 0 1
-2.512148 -27.073631 -2.908197 27.345017 1.478272 1.677350 0.002631 0.005672 -244354.000000 0 0 1
-3.434948 -27.153131 -1.732297 27.424300 1.444962 1.634005 0.005745 0.006618 -102605.000000 0 0 1
-4.584548 -26.315531 -1.784897 26.771460 1.398313 1.637517 0.010157 0.013738 289065.000000 0 0 1
-5.332948 -26.337231 -0.592197 26.878258 1.371011 1.592831 0.014189 0.011505 -175643.000000 0 0 1
-6.298348 -25.171531 -0.426997 25.951059 1.325613 1.587251 0.002527 0.007939 660773.000000 0 0 1
-5.570848 -23.955331 -0.022297 24.594567 1.342306 1.571703 -0.006086 0.014818 895342.000000 0 1 0
-6.506848 -23.036831 0.502903 23.943424 1.295513 1.549791 0.008543 0.004539 -4856.430000 0 1 0
-5.872748 -21.637331 0.691703 22.430820 1.305764 1.539954 -0.001731 -0.001677 -519690.000000 0 1 0
-4.860548 -21.734231 1.623403 22.330185 1.350781 1.498032 -0.002970 0.000449 -815899.000000 0 1 0
-4.199648 -20.508931 1.689603 21.002572 1.368817 1.490262 -0.006382 0.000651 -92674.800000 0 1 0
-3.147348 -20.501631 2.829503 20.933914 1.418469 1.435218 -0.002457 0.007913 -187379.000000 0 1 0
-3.724648 -20.423431 4.116203 21.164420 1.390407 1.375062 -0.008820 0.012032 203329.000000 0 1 0
-2.759748 -20.253531 5.155903 21.080917 1.435370 1.323713 -0.004200 0.006739 106633.000000 0 1 0
-1.872648 -21.429731 5.570303 22.220901 1.483632 1.317415 -0.018059 -0.001671 -332467.000000 0 1 0
-1.041548 -21.797131 4.539503 22.289164 1.523049 1.365697 0.003252 -0.005512 -890944.000000 0 1 0
-0.432248 -23.051731 4.707703 23.531502 1.552047 1.369378 -0.001922 -0.006767 -1391730.000000 0 1 0
0.563852 -23.344531 3.545303 23.618938 -1.546648 1.420123 0.001169 -0.013521 39873.800000 0 1 0
1.762252 -22.655931 3.400603 22.977398 -1.493169 1.422253 -0.014370 -0.008854 -591236.000000 0 1 0
2.547752 -22.738631 4.537403 23.326474 -1.459217 1.375031 0.003861 -0.015199 -1480020.000000 0 1 0
3.873852 -21.922731 4.430803 22.699006 -1.395897 1.374337 0.013319 -0.013550 463601.000000 0 1 0
4.983252 -22.529131 3.759503 23.377947 -1.353110 1.409281 0.002243 0.006476 -370213.000000 0 1 0
5.949852 -21.520031 3.751403 22.640351 -1.301055 1.404333 0.024437 0.002287 -334332.000000 0 1 0
6.312252 -21.015531 2.345803 22.068073 -1.279008 1.464297 0.027301 0.005981 -253493.000000 0 1 0
7.111652 -21.953031 1.680603 23.137320 -1.257516 1.498096 0.025302 0.008399 -337096.000000 0 1 0
7.062252 -21.714131 0.310103 22.835828 -1.256350 1.557216 0.030270 -0.001417 -114544.000000 0 1 0
7.990352 -22.628231 -0.517497 24.003132 -1.231350 1.592358 0.018417 0.010424 -425466.000000 0 1 0
9.219052 -21.990231 -0.680897 23.854240 -1.173820 1.599344 0.011742 0.015655 -986482.000000 0 1 0
9.998852 -22.753431 -1.629597 24.906851 -1.156756 1.636271 0.012539 0.013616 483406.000000 0 1 0
11.327652 -22.044031 -1.994097 24.864260 -1.096118 1.651082 0.012068 0.011771 -151832.000000 0 1 0
11.218052 -20.840131 -2.811997 23.834074 -1.076987 1.689054 0.015550 0.011401 -388722.000000 0 1 0
12.369552 -20.604631 -3.595097 24.299822 -1.030135 1.719289 0.007355 0.013229 -326001.000000 0 1 0
12.334252 -19.364431 -4.511897 23.398123 -1.003647 1.764843 0.007330 -0.015342 -711651.000000 0 1 0
12.400752 -18.077831 -3.909397 22.268139 -0.969552 1.747271 0.021896 -0.006801 52090.500000 0 1 0
12.724152 -17.162131 -4.957697 21.932203 -0.932816 1.798813 0.025130 -0.016637 -986374.000000 0 1 0
13.447552 -15.896031 -4.491897 21.300178 -0.868647 1.783277 0.066571 -0.014569 472805.000000 0 1 0
14.765552 -16.069431 -4.004197 22.187422 -0.827659 1.752262 0.042882 -0.004770 563258.000000 0 1 0
15.783852 -16.428431 -4.932697 23.309972 -0.805406 1.784022 0.039523 0.003579 520543.000000 0 1 0
17.273752 -16.171031 -4.516097 24.088999 -0.752439 1.759388 0.028394 0.007614 955016.000000 0 1 0
17.875752 -17.043331 -3.548397 24.952129 -0.761564 1.713488 0.030649 -0.001872 1060780.000000 0 1 0
19.249552 -16.681231 -3.333197 25.688887 -0.714040 1.700916 -0.000338 0.006553 325339.000000 0 0 1
19.944452 -17.655531 -2.413397 26.745531 -0.724598 1.661155 0.017660 -0.001243 724668.000000 0 0 1
21.380052 -17.539631 -2.449797 27.762326 -0.687041 1.659153 -0.006024 0.006262 777079.000000 0 0 1
21.900552 -18.209231 -1.325597 28.512584 -0.693626 1.617305 -0.014803 0.007698 1258020.000000 0 0 1
23.483852 -18.362931 -1.423897 29.844866 -0.663630 1.618524 -0.011646 0.002478 1520110.000000 0 0 1
24.029052 -17.049631 -1.400497 29.496553 -0.617102 1.618294 -0.020615 0.013867 174656.000000 0 0 1
25.350352 -16.920131 -0.897597 30.491586 -0.588546 1.600238 -0.015792 0.012282 197369.000000 0 0 1
25.643152 -15.563231 -0.243997 29.997415 -0.545489 1.578930 -0.022632 0.011126 98707.900000 0 0 1
24.982252 -15.366631 1.001403 29.347045 -0.551450 1.536667 -0.010922 0.015092 -73829.500000 0 0 1
25.634052 -14.392531 1.687003 29.446486 -0.511600 1.513474 -0.011585 0.008446 -172355.000000 0 0 1
24.732552 -13.650031 2.721003 28.380034 -0.504305 1.474771 0.001769 0.005473 -168978.000000 0 0 1
24.361252 -14.415431 3.867203 28.569748 -0.534321 1.435019 0.014669 0.012150 -314920.000000 0 0 1
25.316852 -14.935031 4.758903 29.776590 -0.532978 1.410288 0.020484 0.018580 -136652.000000 0 0 1
24.683852 -15.464331 6.103703 29.760599 -0.559674 1.364237 0.025543 0.022632 156369.000000 0 0 1
23.808952 -16.527131 5.866203 29.570671 -0.606793 1.371092 0.019637 0.030648 -41122.000000 0 0 1
22.960552 -16.802131 6.984003 29.296328 -0.631740 1.330087 0.022038 0.028757 447853.000000 0 0 1
22.236852 -18.173331 6.907003 29.537336 -0.685178 1.334771 0.022114 0.026312 273288.000000 0 0 1
23.036552 -19.212431 7.401303 30.896270 -0.695130 1.328891 0.032510 0.029947 -72328.800000 0 0 1
22.225552 -20.349731 7.524203 31.059625 -0.741368 1.326112 0.008373 0.047530 317343.000000 0 0 1
1.921452 22.888966 -3.079697 23.175014 1.487046 1.704079 -0.007607 -0.014894 423041.000000 0 1 0
2.868952 23.911266 -2.784097 24.243158 1.451384 1.685891 -0.003719 -0.011906 101578.000000 0 1 0
3.213852 24.652966 -3.950697 25.173509 1.441164 1.728386 0.005703 -0.014370 165048.000000 0 0 1
3.981352 25.924866 -3.442397 26.453732 1.418414 1.701295 0.001096 -0.005984 -551414.000000 0 0 1
5.197552 25.569966 -2.891397 26.252578 1.370261 1.681158 -0.001104 -0.010928 -1119240.000000 0 0 1
5.803452 26.710766 -2.341097 27.434026 1.356851 1.656236 -0.006358 -0.005639 -211816.000000 0 0 1
6.875552 26.184366 -1.344997 27.105410 1.314011 1.620438 -0.014338 -0.021864 -191910.000000 0 0 1
8.002352 25.707466 -2.029897 27.000591 1.269019 1.646047 -0.020809 -0.015140 -366433.000000 0 0 1
8.755152 24.742466 -1.267197 26.276379 1.230695 1.619041 -0.035471 -0.005011 -136188.000000 0 0 1
10.079252 24.407766 -1.946197 26.478633 1.179174 1.644363 -0.025851 0.000722 -1177360.000000 0 0 1
11.081152 25.408666 -1.740397 27.774470 1.159547 1.633499 -0.015446 0.008044 397990.000000 0 0 1
12.223152 25.341366 -2.572997 28.252620 1.121376 1.661994 -0.010436 0.008728 468377.000000 0 0 1
13.145252 24.097766 -2.358197 27.551062 1.071417 1.656495 0.010106 0.002546 -977000.000000 0 0 1
12.621052 22.862166 -2.863797 26.271104 1.066381 1.680023 0.009930 -0.002278 -10405.400000 0 0 1
12.739852 22.633466 -4.235797 26.315766 1.058121 1.732460 0.009498 -0.003580 -429372.000000 0 0 1
11.910552 21.395366 -4.656697 24.926045 1.062833 1.758721 0.006635 -0.012855 1459620.000000 0 1 0
10.481652 21.640566 -4.561297 24.474160 1.119745 1.758264 0.012091 -0.009207 1211890.000000 0 1 0
9.663952 20.510366 -4.702097 23.155491 1.130474 1.775285 -0.001715 -0.003891 -983015.000000 0 1 0
8.191852 20.783866 -4.689697 22.826931 1.195348 1.777716 -0.009826 -0.003753 -1105060.000000 0 1 0
7.684652 21.072866 -3.426397 22.690521 1.221112 1.722382 -0.009306 -0.010157 -369429.000000 0 1 0
6.445352 21.740866 -3.469197 22.939990 1.282588 1.722608 -0.002056 0.005036 181192.000000 0 1 0
6.085352 22.251466 -2.037297 23.158364 1.303843 1.658883 0.006060 -0.009628 -187698.000000 0 1 0
5.555552 21.286466 -1.200097 22.032204 1.315501 1.625293 0.000990 -0.016576 -445371.000000 0 1 0
5.153052 22.032166 -0.050297 22.626816 1.341039 1.573019 0.006679 -0.005934 -42600.000000 0 1 0
4.221452 21.202066 0.843603 21.634692 1.374261 1.531793 -0.010321 -0.001071 -244333.000000 0 1 0
3.660052 21.947466 1.887103 22.330436 1.405553 1.486187 -0.002115 0.007522 -57157.400000 0 1 0
3.220452 21.032366 2.895103 21.473550 1.418858 1.435563 -0.006250 0.002502 -424137.000000 0 1 0
2.316852 21.547066 3.999703 22.037274 1.463683 1.388288 0.000733 -0.000774 -252063.000000 0 1 0
0.981252 21.749066 3.606203 22.067837 1.525710 1.406646 0.001416 0.001436 198047.000000 0 1 0
0.100952 22.319766 4.593503 22.787769 1.566273 1.367828 0.004209 -0.001219 938317.000000 0 1 0
-1.353348 22.440766 4.068103 22.846640 -1.510562 1.391780 0.000821 0.002729 815034.000000 0 1 0
-2.346748 22.843566 5.034203 23.509124 -1.468424 1.354987 0.006379 -0.000079 387788.000000 0 1 0
-3.604448 22.913766 4.399903 23.609148 -1.414770 1.383336 0.013007 0.001798 382316.000000 0 1 0
-4.854948 23.211466 5.270903 24.292490 -1.364607 1.352080 0.022872 -0.008372 296486.000000 0 1 0
-4.925048 24.511766 5.714203 25.646342 -1.372511 1.346103 0.024281 -0.002278 -433545.000000 0 0 1
-6.132348 24.695266 6.376703 26.232121 -1.327399 1.325249 0.039425 -0.008452 -371287.000000 0 0 1
-6.416348 26.177966 6.724703 27.779076 -1.330430 1.326289 0.038074 -0.009126 135600.000000 0 0 1
-5.276148 26.739166 7.396603 28.240582 -1.375980 1.305791 0.026800 -0.023798 597630.000000 0 0 1
-5.486748 27.954366 8.126303 29.624108 -1.376985 1.292920 0.043010 -0.019614 -156493.000000 0 0 1
-5.803848 29.269366 7.316403 30.723121 -1.375045 1.330346 0.038737 -0.019311 -228429.000000 0 0 1
-7.013748 29.219566 6.629103 30.772076 -1.335217 1.353668 0.042745 -0.018887 -976598.000000 0 0 1
-7.233848 30.353566 5.849103 31.747118 -1.336841 1.385497 0.041674 -0.016837 -876895.000000 0 0 1
-8.713148 30.448666 5.483603 32.142030 -1.292086 1.399352 0.039570 -0.010817 151823.000000 0 0 1
-9.544148 31.055466 6.509303 33.134630 -1.272632 1.373060 0.036000 -0.007259 187941.000000 0 0 1
-9.942348 30.109866 7.470003 32.576913 -1.251866 1.339434 0.015246 -0.001668 -599102.000000 0 0 1
-10.913348 30.646366 8.537103 33.633064 -1.228692 1.314158 -0.002720 -0.001935 -77412.500000 0 0 1
-10.234848 31.409966 9.495303 34.372938 -1.255798 1.290913 0.018265 -0.016112 170208.000000 0 0 1
-11.165948 32.112366 10.331003 35.533253 -1.236159 1.275794 0.014542 -0.008895 237267.000000 0 0 1
-10.549048 32.575766 11.627803 36.161702 -1.257622 1.243430 0.026418 -0.011200 -249977.000000 0 0 1
-9.827848 33.786066 11.512903 37.022044 -1.287723 1.254578 0.023424 -0.011416 69901.700000 0 0 1
-8.823948 33.934566 12.485203 37.219580 -1.316402 1.228716 0.018729 -0.015466 -81150.000000 0 0 1
-8.410448 -34.111331 12.687803 37.353700 1.329059 1.224234 0.015870 -0.009686 -445299.000000 0 0 1
-9.218848 -33.389031 13.566903 37.200476 1.301404 1.197489 0.024842 -0.002635 -451142.000000 0 0 1
-8.919448 -31.978631 13.610503 35.880847 1.298790 1.181730 0.031030 0.005089 338125.000000 0 0 1
-9.925648 -31.020631 14.355203 35.593116 1.261121 1.155661 0.023388 0.004060 156293.000000 0 0 1
-10.020948 -31.182531 15.760003 36.347590 1.259856 1.122322 0.020967 0.002763 249177.000000 0 0 1
-8.806548 -31.028531 16.502303 36.230526 1.294248 1.097884 0.021560 0.007244 296300.000000 0 0 1
-8.964448 -31.292231 18.049903 37.220479 1.291793 1.064495 0.004227 -0.000414 468382.000000 0 0 1
-9.734348 -30.242831 18.718103 36.874839 1.259395 1.038386 0.035314 0.001086 -24846.400000 0 0 1
-10.703548 -30.777131 19.529003 37.989205 1.236104 1.030877 0.022890 -0.002619 -1104250.000000 0 0 1
-11.062548 -29.980131 20.777803 38.116995 1.217300 0.994281 0.039735 -0.011112 -382458.000000 0 0 1
-10.185148 -30.080031 21.870503 38.559881 1.244312 0.967715 0.047365 -0.011028 -237645.000000 0 0 1
-10.576348 -29.389231 23.067703 38.829177 1.225354 0.934673 0.034355 -0.009528 227796.000000 0 0 1
-9.387448 -29.174131 24.057503 38.961745 1.259486 0.905281 0.022841 -0.014590 360109.000000 0 0 1
-8.957748 -30.441431 24.489603 40.083196 1.284612 0.913512 0.033813 -0.011717 112625.000000 0 0 1
-7.838348 -30.342031 25.359603 40.313621 1.317990 0.890456 0.014349 -0.008017 226057.000000 0 0 1
-7.535048 -31.498131 26.322603 41.734741 1.335987 0.888326 0.027841 -0.010212 -222378.000000 0 0 1
-7.339048 -32.688631 25.563203 42.141257 1.349945 0.919010 0.033845 -0.007713 292232.000000 0 0 1
-7.053648 -33.780131 26.409503 43.454724 1.364944 0.917575 0.030024 -0.010759 -376296.000000 0 0 1
-6.925348 34.335066 25.691503 43.438583 -1.371768 0.937947 0.033778 -0.012605 -498406.000000 0 0 1
-5.629748 34.104466 25.218803 42.787810 -1.407198 0.940490 0.037528 -0.007907 -394679.000000 0 0 1
-5.380848 32.826066 24.671703 41.414938 -1.408321 0.932635 0.039153 -0.000206 -228683.000000 0 0 1
-6.204248 32.316766 23.447903 40.406314 -1.381122 0.951696 0.045477 0.003617 151166.000000 0 0 1
-7.457548 31.801166 23.854303 40.446965 -1.340453 0.940025 0.040100 -0.004614 -269147.000000 0 0 1
-8.287648 31.580666 22.760203 39.800131 -1.314155 0.962022 0.040694 0.002204 190531.000000 0 0 1
-9.385048 30.535766 23.089703 39.416323 -1.272614 0.944941 0.033388 -0.006096 21772.400000 0 0 1
-8.804648 29.260666 22.951103 38.215985 -1.278510 0.926591 0.025639 0.003448 5640.420000 0 0 1
-9.666348 28.138466 22.948503 37.574530 -1.239899 0.913794 0.011647 0.009740 -463812.000000 0 0 1
-9.012148 26.794366 22.484203 36.120579 -1.246338 0.898894 0.010211 0.008317 656053.000000 0 0 1
-7.932748 26.344266 23.346903 36.083607 -1.278314 0.867124 0.003046 0.003105 793546.000000 0 0 1
-7.592948 24.977366 23.118403 34.870937 -1.275680 0.846017 0.005216 0.004058 -584252.000000 0 0 1
-6.179148 24.631866 23.567603 34.645961 -1.325008 0.822705 -0.007922 0.009034 -320914.000000 0 0 1
-5.197848 25.363866 22.833003 34.520854 -1.368664 0.848077 -0.013448 0.000996 -19880.100000 0 0 1
-3.938848 25.095166 23.398303 34.536393 -1.415110 0.826442 0.007525 0.004251 13801.600000 0 0 1
-2.685848 25.600666 22.651703 34.288592 -1.466266 0.849153 0.003080 0.008768 7458.050000 0 0 1
-2.474048 24.929266 21.398903 32.946961 -1.471878 0.863876 0.009897 0.009516 -53119.700000 0 0 1
-1.393348 25.423866 20.651303 32.784000 -1.516046 0.889346 0.011629 0.012085 -246269.000000 0 0 1
-0.977348 24.529866 19.524103 31.366545 -1.530974 0.898927 0.012954 0.006142 -673969.000000 0 0 1
-0.149848 23.467966 19.915803 30.779979 -1.564411 0.867104 0.022398 0.001548 -206716.000000 0 0 1
0.222652 22.566366 18.873203 29.419181 1.560930 0.874309 0.017249 0.005786 617983.000000 0 0 1
1.463752 21.687766 19.287603 29.060512 1.503406 0.845035 0.010159 0.012509 1131010.000000 0 0 1
2.756752 22.290966 19.341703 29.640990 1.447750 0.859875 0.005798 0.002874 158660.000000 0 0 1
3.694452 21.309166 19.733403 29.276897 1.399129 0.831150 0.005706 0.008558 189845.000000 0 0 1
5.118852 21.785566 19.333703 29.573731 1.340017 0.858272 0.002975 0.007324 40733.000000 0 0 1
6.085952 20.770666 19.387903 29.057704 1.285767 0.840325 0.015604 0.001004 -845139.000000 0 0 1
7.186352 21.102566 18.614103 29.042155 1.242570 0.875082 0.014666 0.005579 -655857.000000 0 0 1
8.194752 19.972866 18.420803 28.379487 1.181447 0.864411 0.008045 0.005667 -134661.000000 0 0 1
8.745352 19.551066 19.653703 29.068770 1.150183 0.828325 0.011510 0.008624 -535027.000000 0 0 1
9.758652 18.635966 19.460903 28.657586 1.088411 0.824283 0.012071 -0.002792 -270418.000000 0 0 1
10.235552 17.899466 20.708203 29.223057 1.051343 0.783248 0.025640 -0.008897 243959.000000 0 0 1
9.305352 16.822366 20.841903 28.354303 1.065535 0.745052 0.025204 -0.004216 400582.000000 0 0 1
9.698052 16.048966 21.923603 28.849019 1.027236 0.707571 0.033071 -0.009641 563963.000000 0 0 1
8.536152 15.183066 22.562103 28.503331 1.058623 0.657438 0.026071 -0.006328 575680.000000 0 0 1
7.724652 15.893766 23.498803 29.401969 1.118397 0.644791 0.019436 0.007293 314034.000000 0 0 1
6.572252 15.185466 23.932503 29.095662 1.162339 0.604924 0.011106 0.002458 368599.000000 0 0 1
6.839252 14.124366 24.985703 29.505227 1.119855 0.560813 0.015790 0.007710 -333650.000000 0 0 1
7.333952 14.563866 26.262903 30.913316 1.104295 0.555634 0.017373 0.010936 99939.000000 0 0 1
7.715052 13.412166 27.000803 31.119955 1.048791 0.520368 0.014861 0.008654 -1287000.000000 0 0 1
8.655252 13.669766 28.140203 32.459928 1.006345 0.521804 -0.000422 0.017396 -145311.000000 0 0 1
10.001652 14.031866 27.841903 32.742906 0.951544 0.554206 0.014033 0.019665 633820.000000 0 0 1
10.169352 15.288866 27.197903 32.816018 0.983846 0.593837 0.016989 0.018780 -515272.000000 0 0 1
11.412152 15.342466 26.254603 32.479727 0.931257 0.629472 0.025454 0.016861 306816.000000 0 0 1
11.185752 14.581066 25.111203 31.117536 0.916414 0.631777 0.023978 0.011681 589486.000000 0 0 1
12.400552 14.257966 24.425803 30.881761 0.854960 0.658443 0.022655 0.014603 335319.000000 0 0 1
12.129852 13.109366 23.420703 29.453660 0.824188 0.651506 0.015990 0.009215 31993.600000 0 0 1
12.028452 11.779666 23.966203 29.288617 0.774949 0.612389 0.020968 0.008539 301747.000000 0 0 1
10.830952 11.532166 24.686903 29.321384 0.816744 0.569924 0.023224 0.008682 -83964.400000 0 0 1
10.672152 10.126466 25.244203 29.218315 0.759168 0.527664 0.008077 0.009681 -101897.000000 0 0 1
10.449152 9.191666 24.270303 27.977118 0.721461 0.520631 0.016257 0.006030 174498.000000 0 0 1
10.208152 7.877666 24.788303 27.941438 0.657247 0.479660 0.015576 0.002952 -52018.100000 0 0 1
10.397352 6.867466 23.681203 26.759417 0.583722 0.484373 0.015715 0.003133 956722.000000 0 0 1
11.802152 6.581366 23.476603 27.087932 0.508691 0.522286 0.015137 0.004773 1129540.000000 0 0 1
12.060652 5.606766 22.519403 26.153751 0.435160 0.533487 0.017140 -0.004150 17947.500000 0 0 1
11.673252 4.100766 22.867203 25.999809 0.337829 0.495956 0.005932 -0.003262 -161624.000000 0 0 1
12.557952 3.518666 23.795003 27.134578 0.273189 0.501369 0.007152 0.004550 453204.000000 0 0 1
12.033052 2.307566 24.291003 27.206103 0.189469 0.467159 -0.002697 0.005986 336933.000000 0 0 1
13.157352 1.514466 25.057603 28.342424 0.114600 0.486227 -0.017867 0.012629 736319.000000 0 0 1
14.210152 0.998866 24.267003 28.139183 0.070177 0.530821 0.004469 0.010126 -725630.000000 0 0 1
15.448452 1.003966 24.858203 29.284687 0.064897 0.556997 0.005710 0.008606 -916084.000000 0 0 1
16.438952 0.207466 23.986503 29.079796 0.012620 0.600857 0.022633 0.003125 -281332.000000 0 0 1
16.347352 -1.195334 24.263303 29.280926 -0.072991 0.594125 0.010456 0.006180 447914.000000 0 0 1
17.442752 -1.914534 23.702203 29.490837 -0.109323 0.637285 0.033513 0.011328 205701.000000 0 0 1
17.548452 -3.416134 24.033403 29.953674 -0.192264 0.639570 0.028971 0.020843 342683.000000 0 0 1
16.620652 -4.167234 23.241203 28.874997 -0.245662 0.635306 0.026064 0.016522 621518.000000 0 0 1
16.960552 -5.572134 23.449703 29.471980 -0.317426 0.650698 0.023625 0.016774 432998.000000 0 0 1
16.120352 -6.542034 22.553303 28.483600 -0.385517 0.657047 0.020737 0.012056 103974.000000 0 0 1
16.516052 -6.623234 21.206603 27.683338 -0.381384 0.698135 0.013199 0.010341 12400.600000 0 0 1
15.939552 -7.834334 20.661503 27.245987 -0.456827 0.710046 0.024121 -0.000179 44408.400000 0 0 1
16.523552 -9.200234 21.033603 28.285766 -0.508045 0.732342 0.026716 -0.001505 -192207.000000 0 0 1
16.123052 -9.644934 22.339603 29.189646 -0.539101 0.699248 0.022280 0.004574 377743.000000 0 0 1
16.940752 -10.768734 22.748403 30.338829 -0.566236 0.723019 0.008229 0.004093 205405.000000 0 0 1
16.337652 -11.491134 23.919903 31.162908 -0.612973 0.695745 0.015496 0.011742 -519664.000000 0 0 1
15.395452 -12.446834 23.551903 30.767447 -0.679887 0.699007 0.031146 -0.000565 -213945.000000 0 0 1
15.071752 -13.298734 24.617303 31.780901 -0.722984 0.684723 0.017551 0.015275 -179498.000000 0 0 1
13.900652 -14.246934 24.268003 31.386928 -0.797700 0.686943 0.026510 0.007995 -101558.000000 0 0 1
14.158552 -15.198334 23.253403 31.179717 -0.820802 0.729082 0.019110 0.005002 -830390.000000 0 0 1
13.049552 -15.955534 22.980903 30.870565 -0.885254 0.731119 0.018559 0.012526 -984120.000000 0 0 1
13.201252 -16.886734 21.733903 30.525357 -0.907281 0.778461 0.004313 0.003304 -142633.000000 0 0 1
14.135752 -17.936034 21.854203 31.608970 -0.903341 0.807382 0.012903 0.006565 -126389.000000 0 0 1
14.250652 -18.713934 20.636403 31.291430 -0.919976 0.850655 0.001931 0.007905 -211667.000000 0 0 1
-22.599348 -32.408731 26.903119 47.799939 0.961869 0.972994 -0.003362 -0.004165 -307786.000000 0 0 1
-23.328048 -33.281631 27.789119 49.235149 0.959447 0.971070 -0.001357 -0.008444 -216229.000000 0 0 1
-24.382448 -33.867831 27.096499 49.756949 0.946820 0.994911 -0.001788 -0.013395 -140252.000000 0 0 1
-25.064948 34.429866 27.886789 50.905208 -0.941524 0.991043 -0.002025 -0.012025 271443.000000 0 0 1
-25.941378 -34.659131 28.938499 52.073478 0.928274 0.981562 0.020723 -0.013288 619009.000000 0 0 1
-25.219068 -34.173831 30.091579 52.051467 0.935043 0.954383 0.014368 -0.009668 -150222.000000 0 0 1
-26.084278 -33.466631 31.135399 52.629060 0.908736 0.937753 0.011720 -0.019428 -112401.000000 0 0 1
-26.463618 -32.092131 30.843379 51.783607 0.881226 0.932758 0.013952 -0.009448 330351.000000 0 0 1
-27.276998 -31.523231 31.864089 52.469695 0.857488 0.918157 0.004458 0.002993 -57489.800000 0 0 1
-27.596188 -30.070331 31.630809 51.636058 0.828276 0.911486 0.000595 0.002424 -244768.000000 0 0 1
-28.426898 -29.835031 30.505349 51.271765 0.809562 0.933563 -0.004839 0.022728 311258.000000 0 0 1
-28.709728 -28.439631 30.437579 50.591573 0.780672 0.925252 -0.005453 0.024422 633781.000000 0 0 1
-29.584558 -28.066531 29.139929 50.120970 0.759073 0.950358 -0.014300 0.011105 795935.000000 0 0 1
-28.795668 -27.905831 27.961039 48.885024 0.769706 0.961884 -0.016475 0.010916 452685.000000 0 0 1
-28.155398 -26.626931 27.783419 47.682683 0.757505 0.948782 -0.020260 0.018681 -142600.000000 0 0 1
-27.251718 -26.547431 26.536309 46.385320 0.772308 0.961752 -0.019862 0.025310 -122181.000000 0 0 1
-27.835748 -26.726631 25.244429 46.113153 0.765073 0.991488 -0.031463 0.019661 -180046.000000 0 0 1
-26.895218 -26.365731 24.276119 44.808866 0.775457 0.998254 -0.008558 0.034440 -606008.000000 0 0 1
-27.336968 -26.774031 22.825399 44.555105 0.774995 1.032940 -0.028494 0.037039 -102254.000000 0 0 1
-27.996408 -25.708331 22.182599 44.008918 0.742819 1.042517 -0.026797 0.026574 380751.000000 0 0 1
-28.577558 -26.052131 20.910999 43.962031 0.739203 1.075082 -0.032056 0.034336 42388.900000 0 0 1
-29.160828 -24.848531 20.156199 43.290596 0.705724 1.086481 -0.028767 0.021951 -159609.000000 0 0 1
-30.436398 -24.442731 20.579499 44.128644 0.676614 1.085634 -0.023963 0.020057 -82857.000000 0 0 1
-30.939828 -23.372131 19.808799 43.542140 0.646952 1.098498 -0.018567 0.016578 51400.100000 0 0 1
-32.449748 -23.043831 19.897899 44.496412 0.617498 1.107186 -0.028434 0.024200 74946.000000 0 0 1
-33.296698 -24.096631 19.498099 45.491687 0.626452 1.127845 -0.027608 0.015536 -285105.000000 0 0 1
-34.621083 -23.651631 19.303499 46.158901 0.599332 1.139337 -0.027500 0.016056 -136844.000000 0 0 1
34.475463 -24.853331 18.643199 46.409206 -0.624615 1.157409 -0.025834 0.006538 -380053.000000 0 0 1
34.213150 -25.808331 19.630099 47.137568 -0.646273 1.141267 -0.034239 0.012751 -35545.700000 0 0 1
33.905882 -27.048431 18.962299 47.337038 -0.673368 1.158646 -0.030761 0.012500 -85597.000000 0 0 1
33.613444 -28.211131 19.938599 48.200407 -0.698238 1.144325 -0.026695 0.010791 117275.000000 0 0 1
32.331884 -28.216831 20.562499 47.585256 -0.717540 1.123955 -0.009756 0.011535 224394.000000 0 0 1
32.311574 -27.489031 21.743999 47.670600 -0.704929 1.097155 -0.000029 0.001057 -367648.000000 0 0 1
31.012534 -27.436531 22.547599 47.148008 -0.724293 1.072158 0.010030 -0.004031 134026.000000 0 0 1
29.874474 -26.864631 21.920999 45.768141 -0.732401 1.071329 0.016985 -0.001780 -426696.000000 0 0 1
28.834404 -26.635631 22.803999 45.397159 -0.745780 1.044514 0.022566 -0.001804 -800647.000000 0 0 1
27.902264 -25.572931 22.278299 43.918489 -0.741867 1.038789 0.019835 0.007603 -367980.000000 0 0 1
28.642524 -24.452231 21.762499 43.496116 -0.706640 1.046814 0.017179 0.012394 230455.000000 0 0 1
29.332774 -23.665331 22.708899 44.001745 -0.678866 1.028516 0.015325 0.002039 148030.000000 0 0 1
30.390624 -22.711131 22.109699 43.911550 -0.641775 1.043145 0.011885 0.005474 395888.000000 0 0 1
29.756334 -21.474831 21.721899 42.643272 -0.625135 1.036325 0.020328 -0.008055 139473.000000 0 0 1
30.697384 -20.547931 21.246299 42.613989 -0.589872 1.048841 0.011902 -0.008610 -816997.000000 0 0 1
30.180174 -19.121131 21.298699 41.594412 -0.564735 1.033219 0.014639 -0.003294 36682.200000 0 0 1
29.890784 -18.637331 22.620499 41.862824 -0.557530 0.999946 -0.003543 -0.012577 70919.900000 0 0 1
28.699534 -19.150331 23.168999 41.559607 -0.588420 0.979439 0.020622 -0.006066 -534704.000000 0 0 1
28.529764 -18.746731 24.629239 42.094973 -0.581346 0.945808 0.009203 -0.002734 -85586.200000 0 0 1
28.317604 -17.369031 24.795569 41.453470 -0.550189 0.929600 0.001618 -0.003803 116337.000000 0 0 1
28.287304 -17.019431 26.138389 42.107576 -0.541642 0.901094 0.004928 -0.009413 -236381.000000 0 0 1
27.780524 -15.568431 26.438089 41.389686 -0.510799 0.877910 -0.009736 -0.006460 -1090390.000000 0 0 1
26.406384 -15.441431 26.346359 40.371593 -0.529139 0.859790 0.011552 -0.004586 -915634.000000 0 0 1
25.942194 -14.277831 26.963019 40.048199 -0.503128 0.832182 -0.000131 -0.007080 -192448.000000 0 0 1
26.312954 -12.863131 26.342149 39.392137 -0.454689 0.838316 0.000328 0.000884 -717775.000000 0 0 1
25.881174 -12.543931 25.079729 38.159902 -0.451312 0.853662 -0.005003 0.008946 -38910.300000 0 0 1
26.912064 -11.973531 24.309439 38.191274 -0.418616 0.880821 -0.013222 0.009309 572217.000000 0 0 1
27.963904 -12.964831 23.664899 38.859930 -0.434128 0.916023 -0.007468 0.011719 402264.000000 0 0 1
27.404614 -13.824631 22.697199 38.174548 -0.467212 0.934073 0.007829 0.004585 337468.000000 0 0 1
28.325194 -14.911031 22.557499 39.159880 -0.484562 0.956925 0.000877 -0.002940 117876.000000 0 0 1
27.883114 -15.973631 21.521799 38.675738 -0.520238 0.980668 0.023724 -0.009841 -362228.000000 0 0 1
28.222994 -15.573631 20.213799 38.048298 -0.504229 1.010701 0.014515 -0.011465 48875.700000 0 0 1
27.494204 -16.385931 19.292399 37.371468 -0.537457 1.028349 0.015870 -0.015911 135184.000000 0 0 1
27.765774 -15.916231 17.774099 36.608512 -0.520505 1.063841 0.015661 -0.019209 -1535.680000 0 0 1
27.312734 -16.859331 16.827299 36.240591 -0.553021 1.087928 0.017649 -0.021923 798203.000000 0 0 1
25.902414 -16.878831 16.538199 35.061973 -0.577521 1.079596 0.018023 -0.019555 742213.000000 0 0 1
25.401934 -15.865231 15.480099 33.713458 -0.558288 1.093739 0.022518 -0.024895 -331368.000000 0 0 1
25.664504 -16.256631 14.140199 33.509551 -0.564637 1.135173 0.031143 -0.028910 1033650.000000 0 0 1
24.670314 -17.271631 13.751099 33.106288 -0.610792 1.142455 0.025993 -0.035566 344291.000000 0 0 1
24.968204 -18.012031 12.418799 33.197455 -0.624944 1.187382 0.037255 -0.018758 -535347.000000 0 0 1
24.465714 -17.366631 11.273799 32.051046 -0.617296 1.211362 0.036247 -0.022263 -226255.000000 0 0 1
24.561714 -18.134331 10.041999 32.139905 -0.635982 1.253029 0.022845 -0.011296 739676.000000 0 0 1
26.048184 -18.445031 9.652299 33.345073 -0.616150 1.277126 0.025149 0.003033 787656.000000 0 0 1
26.695484 -19.468231 10.433699 34.648563 -0.630102 1.264920 0.035243 0.012830 -1019260.000000 0 0 1
28.018244 -19.553131 9.993299 35.597934 -0.609296 1.286245 0.038446 0.014273 -657255.000000 0 0 1
28.790174 -20.298431 11.080999 36.928159 -0.614105 1.266031 0.044445 -0.002113 -441984.000000 0 0 1
28.779274 -19.595631 12.294399 36.924079 -0.597788 1.231351 0.049035 -0.019549 86323.000000 0 0 1
29.130664 -20.450831 13.344999 38.012117 -0.612092 1.212080 0.025625 -0.008655 -83611.300000 0 0 1
28.823644 -19.871431 14.709699 37.974352 -0.603586 1.173031 0.041287 -0.005303 73200.400000 0 0 1
29.166064 -20.722231 15.763299 39.096697 -0.617732 1.155799 0.040002 -0.000990 162778.000000 0 0 1
28.732174 -20.068331 16.978899 38.943019 -0.609693 1.119655 0.041935 -0.009128 220561.000000 0 0 1
28.599754 -21.190031 18.086899 39.926172 -0.637662 1.100659 0.032813 -0.003203 215662.000000 0 0 1
27.412764 -21.931131 17.871699 39.393295 -0.674761 1.099913 0.025942 0.003942 -88164.400000 0 0 1
27.182324 -22.893531 18.871899 40.238552 -0.699961 1.082638 0.025281 0.003774 39739.200000 0 0 1
25.860224 -23.649931 18.620999 39.683901 -0.740785 1.082374 0.026095 0.010644 73700.900000 0 0 1
24.687514 -22.969231 18.974599 38.692303 -0.749358 1.058251 0.029344 0.015958 -665942.000000 0 0 1
23.543514 -23.699531 18.663899 38.266250 -0.788701 1.061300 0.012783 0.013866 -505928.000000 0 0 1
22.322414 -23.315631 19.502799 37.712968 -0.807158 1.027293 0.003285 0.015231 -412856.000000 0 0 1
21.763914 -22.055131 19.121199 36.410396 -0.792044 1.017896 0.000087 0.012082 569468.000000 0 0 1
20.555714 -21.664431 19.785999 35.824163 -0.811653 0.985665 0.001796 0.008067 724983.000000 0 0 1
20.764714 -21.191331 21.245799 36.491503 -0.795566 0.949349 -0.008049 0.020054 -302092.000000 0 0 1
21.198614 -22.200431 22.136399 37.845218 -0.808478 0.946016 0.008530 0.022615 -33779.000000 0 0 1
21.311414 -21.768031 23.449399 38.443437 -0.795997 0.914772 0.022199 0.015210 -43953.900000 0 0 1
21.691914 -22.857931 24.437909 39.877757 -0.811566 0.911171 0.029236 0.014526 -346760.000000 0 0 1
20.585714 -23.624631 24.785189 39.952476 -0.854028 0.901586 0.027230 0.021175 -258472.000000 0 0 1
20.938414 -24.574931 25.760549 41.303151 -0.865129 0.897336 0.030281 0.027687 -60083.400000 0 0 1
19.739114 -25.305131 26.417219 41.567436 -0.908343 0.882106 0.047475 0.020178 -146476.000000 0 0 1
19.107014 -26.177031 25.537759 41.261265 -0.940274 0.903419 0.041656 0.012885 -577733.000000 0 0 1
18.113114 -26.843431 26.214619 41.663664 -0.977205 0.890278 0.047655 0.004896 -521551.000000 0 0 1
17.315814 -27.951131 25.453029 41.580762 -1.016160 0.912039 0.055048 -0.006828 1476.910000 0 0 1
16.436314 -27.446431 24.483869 40.285466 -1.031222 0.917560 0.050407 -0.009258 165863.000000 0 0 1
15.978914 -28.443031 23.570899 40.248217 -1.058949 0.945129 0.056425 -0.020259 -8654.450000 0 0 1
15.077114 -27.722531 22.459899 38.733772 -1.072681 0.952248 0.040571 -0.024558 68335.700000 0 0 1
13.817314 -27.438631 23.000299 38.377211 -1.104296 0.928143 0.015371 -0.022600 -341944.000000 0 0 1
13.122014 -26.484431 22.209399 36.971201 -1.110786 0.926393 -0.003123 -0.017314 801164.000000 0 0 1
11.677614 -26.082331 22.668699 36.476356 -1.149839 0.900188 0.010853 -0.013849 1163680.000000 0 0 1
10.687014 -27.082731 22.419099 36.746463 -1.194948 0.914607 0.006872 -0.024414 -72416.900000 0 0 1
9.428514 -26.492531 22.229599 35.845587 -1.228881 0.901864 0.005888 -0.007178 -352705.000000 0 0 1
8.240014 -27.425431 22.039999 36.136043 -1.278925 0.914840 -0.002801 -0.010881 -326144.000000 0 0 1
8.163714 -28.128831 20.844799 35.949728 -1.288331 0.952274 0.006372 -0.008064 -798055.000000 0 0 1
6.875314 -28.506531 20.538699 35.801262 -1.334132 0.959797 -0.017216 -0.001956 -873227.000000 0 0 1
6.892614 -29.416331 19.308999 35.856186 -1.340636 1.002126 -0.003590 -0.012189 95128.400000 0 0 1
7.483114 -30.687731 19.587599 37.167295 -1.331617 1.015716 0.003089 -0.014025 340493.000000 0 0 1
7.148214 -31.610231 18.598899 37.366063 -1.348401 1.049796 -0.013780 -0.008663 -180343.000000 0 0 1
7.898514 -32.901531 18.859299 38.737196 -1.335190 1.062314 -0.007612 -0.010624 -59585.700000 0 0 1
7.358514 -33.664631 19.954499 39.820059 -1.355598 1.045908 -0.010494 -0.010965 715379.000000 0 0 1
8.341114 -34.621531 20.362699 41.022726 -1.334379 1.051377 -0.007080 -0.010757 319189.000000 0 0 1
7.737314 33.693866 21.169899 40.537726 1.345074 1.021336 0.003754 -0.008455 -389015.000000 0 0 1
6.943214 32.749266 20.497499 39.253918 1.361879 1.021395 0.003396 -0.007010 -147342.000000 0 0 1
6.848814 31.597966 21.254799 38.692430 1.357349 0.989238 -0.001338 -0.014839 295695.000000 0 0 1
5.903814 30.467166 20.661899 37.282935 1.379392 0.983405 0.003606 -0.014618 792806.000000 0 0 1
4.527714 30.722066 20.904599 37.434580 1.424473 0.978304 -0.002144 -0.010000 270959.000000 0 0 1
3.755714 29.553166 20.549499 36.190840 1.444391 0.966954 0.004597 -0.001670 853093.000000 0 0 1
2.374014 29.345966 21.256299 36.313246 1.490075 0.945473 -0.004761 0.000514 355401.000000 0 0 1
2.362714 29.185566 22.662699 37.026714 1.490018 0.912129 -0.007996 0.000244 -387768.000000 0 0 1
1.111214 28.737766 23.093499 36.883650 1.532148 0.894232 -0.013438 0.008722 -480447.000000 0 0 1
1.103114 28.234566 24.518979 37.411066 1.531747 0.856093 -0.002894 0.006071 -169064.000000 0 0 1
1.375214 29.217066 25.508819 38.810153 1.523762 0.853603 -0.006842 0.005417 241829.000000 0 0 1
1.279714 28.713366 26.865789 39.342924 1.526257 0.819123 -0.005534 0.006958 70987.300000 0 0 1
2.635514 28.288266 27.502189 39.541653 1.477898 0.801647 -0.001415 0.003111 -96434.200000 0 0 1
2.973414 27.015066 26.988479 38.301866 1.461173 0.788901 0.008814 0.004554 282312.000000 0 0 1
3.656414 26.219366 27.952039 38.498584 1.432235 0.758231 0.005587 0.007413 120766.000000 0 0 1
4.208514 24.860366 27.435709 37.262145 1.403100 0.743227 0.006980 0.016024 45856.500000 0 0 1
3.174414 23.965966 27.131349 36.339434 1.439108 0.727846 0.019054 0.015310 37176.700000 0 0 1
3.752814 22.699066 27.005599 35.477226 1.406949 0.705620 0.025157 0.016821 93442.300000 0 0 1
2.671014 21.638366 26.704669 34.474520 1.447979 0.684682 0.024391 0.016596 -128415.000000 0 0 1
3.021014 20.262666 26.654409 33.617847 1.422794 0.655301 0.022483 0.027291 -387169.000000 0 0 1
3.715914 19.871766 25.518989 32.556318 1.385937 0.669968 0.026981 0.020247 -562629.000000 0 0 1
4.277614 18.458166 25.769749 31.985650 1.343070 0.633998 0.021796 0.016890 690194.000000 0 0 1
5.383014 18.413066 26.705259 32.881433 1.286375 0.622937 0.015029 0.018689 1094180.000000 0 0 1
6.653714 18.384466 26.042229 32.564676 1.223542 0.643988 0.010819 0.017154 418645.000000 0 0 1
7.841514 18.371766 27.074849 33.646078 1.167382 0.635634 0.010968 0.017018 216144.000000 0 0 1
8.012914 19.515266 27.929479 35.001545 1.181188 0.646910 0.003596 0.010153 -67.115300 0 0 1
8.311514 20.699666 27.227999 35.198314 1.188973 0.686357 0.002301 0.009097 -497758.000000 0 0 1
8.829214 21.821066 28.098939 36.656026 1.186315 0.697334 -0.005128 0.015968 388817.000000 0 0 1
10.049614 21.491266 28.769859 37.290401 1.133392 0.689588 0.003291 0.010389 282315.000000 0 0 1
10.347914 22.395266 29.786119 38.676092 1.137960 0.691731 0.012493 -0.006157 -606736.000000 0 0 1
11.573514 22.063166 30.615239 39.471792 1.087692 0.683094 0.023804 -0.009231 -251216.000000 0 0 1
12.766314 22.038066 29.845749 39.235492 1.045748 0.706433 0.010829 -0.009937 -514475.000000 0 0 1
13.817814 21.561166 30.607519 39.907844 1.000869 0.696714 0.005501 0.004241 92662.000000 0 0 1
15.245314 21.569366 29.992489 39.965066 0.955519 0.722027 0.004929 -0.001791 429381.000000 0 0 1
15.812414 22.837466 29.834199 40.763485 0.965197 0.749712 0.011182 -0.017151 176209.000000 0 0 1
17.125714 22.737966 29.294549 40.846979 0.925265 0.771052 0.000243 -0.001253 210525.000000 0 0 1
-8.770948 16.505866 4.561103 19.239979 -1.082358 1.331454 -0.000525 -0.018320 -749953.000000 0 1 0
-8.555648 17.846066 4.981003 20.408125 -1.123753 1.324236 -0.002545 -0.017671 242270.000000 0 1 0
-7.206848 18.139266 5.322703 20.231233 -1.192614 1.304569 -0.004115 -0.012938 91629.400000 0 1 0
-7.006048 19.551866 5.831003 21.572222 -1.226719 1.297090 -0.004061 -0.010796 -273946.000000 0 1 0
-7.059848 20.607766 4.887803 22.325145 -1.240745 1.350071 -0.003450 -0.014346 321600.000000 0 1 0
-8.316848 20.925266 4.301203 22.924595 -1.192486 1.382054 -0.012163 -0.019463 141545.000000 0 1 0
-8.335648 22.254966 3.513403 24.023125 -1.212418 1.424019 -0.004676 -0.003278 -122213.000000 0 1 0
-7.579948 22.245566 2.327303 23.616459 -1.242395 1.472090 -0.024433 -0.001363 -113009.000000 0 1 0
-8.137348 21.376066 1.304103 22.909677 -1.207059 1.513842 -0.006094 -0.002969 -981831.000000 0 1 0
-7.531348 21.419166 -0.091397 22.704850 -1.232681 1.574822 -0.015288 0.012530 797574.000000 0 1 0
-6.307648 20.690166 -0.346097 21.633057 -1.274885 1.586796 -0.018392 0.010801 971666.000000 0 1 0
-5.170848 21.266866 0.290303 21.888388 -1.332283 1.557533 -0.010398 0.003188 -292770.000000 0 1 0
-3.844448 21.050966 -0.471797 21.404334 -1.390161 1.592840 -0.008887 0.004140 -100256.000000 0 1 0
-3.753848 21.827466 -1.647997 22.209131 -1.400484 1.645068 -0.010174 0.011852 -202079.000000 0 1 0
-2.491448 21.820366 -2.259697 22.078086 -1.457109 1.673326 -0.000924 0.017810 -124669.000000 0 1 0
-2.646848 22.066066 -3.776497 22.542825 -1.451416 1.739115 0.001163 0.010976 -81135.700000 0 1 0
-1.409948 22.382766 -4.347597 22.844644 -1.507887 1.762276 0.011385 0.008726 51252.800000 0 1 0
-1.679348 22.865266 -5.621997 23.606089 -1.497483 1.811266 0.016546 0.002624 1903760.000000 0 1 0
-0.266448 23.378766 -6.200397 24.188481 -1.559400 1.830027 0.016685 -0.009849 1562710.000000 0 1 0
0.737752 22.402866 -6.272297 23.276047 1.537877 1.843643 0.012610 0.001946 -435091.000000 0 1 0
1.901152 22.977466 -6.833997 24.047491 1.488245 1.858955 0.016229 -0.005140 -142892.000000 0 1 0
3.109352 22.043966 -6.721497 23.254742 1.430668 1.864018 0.010831 0.002426 -356492.000000 0 1 0
2.925452 21.057266 -7.737497 22.623783 1.432752 1.919848 0.014555 -0.005992 57844.500000 0 1 0
3.866652 20.009466 -7.670997 21.775534 1.379908 1.930798 0.013577 -0.004527 259581.000000 0 1 0
3.526852 18.948266 -8.761397 21.171621 1.386772 1.997451 0.002012 -0.004706 654.393000 0 1 0
3.889752 19.368566 -10.052997 22.166061 1.372605 2.041520 0.013729 -0.011444 113823.000000 0 1 0
2.888252 19.129766 -11.035697 22.272776 1.420946 2.089183 0.010980 -0.013344 48441.500000 0 1 0
3.335152 19.548866 -12.456897 23.419130 1.401817 2.131652 0.018783 -0.012519 -17023.900000 0 1 0
3.503652 20.943266 -12.610297 24.696468 1.405039 2.106692 0.045517 -0.017472 40994.600000 0 1 0
3.714752 21.233666 -13.977897 25.691429 1.397603 2.146075 0.044868 -0.010763 -61957.000000 0 0 1
3.989952 22.754166 -14.379697 27.211164 1.397211 2.127568 0.031636 -0.005911 58437.600000 0 0 1
2.872952 23.630366 -14.415497 27.829024 1.449811 2.115310 0.039203 -0.008753 -223739.000000 0 0 1
3.167752 24.963866 -14.623797 29.104719 1.444577 2.097232 0.030136 -0.011367 -88042.500000 0 0 1
1.903252 25.662266 -15.182197 29.877639 1.496766 2.103827 0.022046 -0.000448 548413.000000 0 0 1
0.941752 26.018666 -14.194297 29.653599 1.534617 2.069936 0.025800 -0.014320 -83975.700000 0 0 1
0.784052 27.412366 -14.146997 30.857577 1.542202 2.047059 0.015037 -0.008011 -1484650.000000 0 0 1
-0.123048 27.932666 -13.024997 30.820439 -1.566391 2.007118 0.013545 -0.015477 -53443.900000 0 0 1
-1.526748 27.792266 -13.098297 30.762093 -1.515917 2.010635 -0.011790 -0.020109 258290.000000 0 0 1
-2.068148 26.518866 -13.503997 29.830947 -1.492966 2.040570 -0.014430 -0.015114 -1200540.000000 0 0 1
-1.925648 25.352866 -12.579797 28.367714 -1.494988 2.030246 0.012875 -0.017316 -462320.000000 0 0 1
-2.793948 25.418866 -11.467897 28.025658 -1.461319 1.992366 0.018442 -0.019979 108791.000000 0 0 1
-2.628648 24.247966 -10.717097 26.640754 -1.462811 1.984804 0.033785 -0.017974 196102.000000 0 0 1
-3.487148 24.328966 -9.401497 26.314386 -1.428433 1.936146 0.019834 -0.007452 347467.000000 0 0 1
-2.930348 24.832366 -8.151897 26.299938 -1.453334 1.885946 0.019570 -0.010805 -23867.300000 0 0 1
-2.706948 26.239966 -8.068297 27.585517 -1.467999 1.867619 0.016755 -0.014528 -185198.000000 0 0 1
-2.524048 26.733966 -6.598297 27.651641 -1.476662 1.811743 0.007865 -0.010976 -462195.000000 0 0 1
-1.330848 26.348666 -5.997097 27.055286 -1.520330 1.794314 0.015527 -0.014305 -660498.000000 0 0 1
-1.211148 26.897766 -4.720397 27.335669 -1.525799 1.744349 0.013075 -0.017313 -468178.000000 0 0 1
-1.959948 26.243266 -3.594597 26.560714 -1.496251 1.706548 0.013421 -0.003522 84132.200000 0 0 1
-3.371048 26.336066 -3.742397 26.813389 -1.443487 1.710825 -0.003367 -0.000602 -77096.300000 0 0 1
-3.988848 25.370666 -2.932697 25.849222 -1.414850 1.684495 -0.005886 0.005848 422918.000000 0 0 1
-5.259548 24.773166 -3.631497 25.584377 -1.361594 1.713219 -0.011947 0.008225 -59124.300000 0 0 1
-6.351148 25.610266 -3.715697 26.646373 -1.327708 1.710697 -0.027230 0.011924 -487774.000000 0 0 1
-7.534848 24.920366 -4.133097 26.360596 -1.277179 1.728237 -0.006986 0.010905 559530.000000 0 0 1
-8.706348 25.906266 -4.321397 27.669651 -1.246584 1.727617 -0.017415 0.007010 -283444.000000 0 0 1
-9.103048 26.403066 -3.049697 28.094270 -1.238786 1.679563 -0.015686 0.005440 -1101060.000000 0 0 1
-10.323348 27.057066 -3.148997 29.130268 -1.206304 1.679108 -0.005522 -0.000018 -336753.000000 0 0 1
-11.099648 27.101866 -1.775497 29.340513 -1.182082 1.631347 -0.000111 0.004667 158986.000000 0 0 1
-11.406548 25.830166 -1.278097 28.265532 -1.154951 1.616029 0.009172 -0.001001 -299644.000000 0 0 1
-10.310948 25.150366 -0.735897 27.191875 -1.181723 1.597863 0.000203 -0.003612 -607532.000000 0 0 1
-10.496548 23.614566 -0.491397 25.846986 -1.152530 1.589809 -0.009984 0.002694 -316252.000000 0 0 1
-11.407048 23.517766 0.575603 26.144547 -1.119188 1.548778 0.001557 0.001055 -2974.960000 0 0 1
-11.805948 22.147466 0.710603 25.107680 -1.081051 1.542490 0.020570 -0.006092 -166637.000000 0 0 1
-12.818748 21.829466 1.840303 25.381737 -1.039825 1.498228 0.021304 -0.005254 -291858.000000 0 0 1
-12.332848 21.905966 3.135703 25.333833 -1.058034 1.446703 0.028491 -0.008185 -3561.130000 0 0 1
-12.066248 23.216566 3.608303 26.412556 -1.091493 1.433755 0.009889 -0.008227 -99195.900000 0 0 1
-11.967948 23.258366 5.138903 26.656926 -1.095564 1.376803 0.002193 -0.004040 -246302.000000 0 0 1
-10.773148 22.696766 5.606503 25.741732 -1.127629 1.351238 -0.005820 -0.000433 -444540.000000 0 0 1
-10.937448 22.393966 6.964003 25.876916 -1.116463 1.298317 -0.006616 -0.003382 632927.000000 0 0 1
-9.661948 22.037766 7.828803 25.304279 -1.157608 1.256248 0.000754 -0.011232 414247.000000 0 0 1
-8.928848 23.175666 8.209803 26.157918 -1.203054 1.251545 0.011484 -0.017719 -30267.200000 0 0 1
-7.874048 22.838966 9.105903 25.817367 -1.238794 1.210336 0.023830 -0.016615 -62827.600000 0 0 1
-8.255548 22.641766 10.592203 26.324863 -1.221160 1.156698 0.011586 -0.019217 -632643.000000 0 0 1
-8.955148 21.488466 10.873703 25.694090 -1.175941 1.133824 0.015563 -0.017323 -301578.000000 0 0 1
-8.695248 20.958266 12.191103 25.758091 -1.177525 1.077772 0.013871 -0.013189 5256.510000 0 0 1
-9.938248 20.223666 12.781903 25.906418 -1.114039 1.054816 0.016994 -0.008266 52321.500000 0 0 1
-10.329548 19.137766 11.975103 24.826533 -1.075859 1.067460 0.021855 -0.007452 98152.800000 0 1 0
-10.254748 17.866266 12.625803 24.161420 -1.049734 1.020945 0.000635 -0.006763 -353762.000000 0 1 0
-10.700148 16.721966 11.696303 23.041719 -1.001564 1.038383 -0.010500 -0.006136 -295707.000000 0 1 0
-10.738648 15.491366 12.345503 22.532475 -0.964647 0.990947 -0.014471 -0.003920 -30973.500000 0 1 0
-11.219148 14.531266 11.480103 21.652245 -0.913320 1.011955 -0.021704 0.000155 -135621.000000 0 1 0
-11.333148 13.083666 11.988603 21.055858 -0.856969 0.965055 -0.030553 -0.006130 712892.000000 0 1 0
-12.304748 13.020566 13.092703 22.189205 -0.813656 0.939678 -0.035801 -0.000463 892902.000000 0 1 0
-12.532448 11.694066 13.534403 21.840181 -0.750806 0.902433 -0.026150 0.000315 -42710.400000 0 1 0
-13.360148 11.684966 14.838603 23.134739 -0.718611 0.874476 -0.017449 -0.002605 434009.000000 0 1 0
-14.729548 11.997566 14.657503 23.994657 -0.683534 0.913643 -0.006489 -0.015430 58866.600000 0 1 0
-15.504748 11.888866 15.845503 25.155960 -0.654160 0.889384 0.004523 -0.019691 286094.000000 0 0 1
-16.554748 13.027766 15.926803 26.409192 -0.666733 0.923442 0.017196 -0.022094 -885712.000000 0 0 1
-17.574048 12.954866 15.026103 26.503952 -0.635232 0.968012 0.015278 -0.018403 -894961.000000 0 0 1
-18.307648 14.173266 15.033603 27.605446 -0.658792 0.994898 0.025115 -0.007862 -120700.000000 0 0 1
-19.503048 14.142566 14.072403 27.900064 -0.627404 1.042126 0.030947 -0.001323 126021.000000 0 0 1
-20.547148 13.325966 14.567203 28.495088 -0.575359 1.034195 0.031275 -0.000609 794633.000000 0 0 1
-21.670848 13.067666 13.698603 28.775706 -0.542627 1.074642 0.019591 0.000894 404431.000000 0 0 1
-22.723148 12.218266 14.368503 29.531024 -0.493352 1.062653 0.016611 0.004878 -443196.000000 0 0 1
-23.263448 12.751166 15.559003 30.754883 -0.501399 1.040367 0.013845 0.010427 1133620.000000 0 0 1
-24.307548 11.906266 16.151203 31.519477 -0.455469 1.032796 0.000612 0.007946 780982.000000 0 0 1
-24.887248 12.482166 17.440503 32.853474 -0.464886 1.011185 0.000386 0.004362 -243736.000000 0 0 1
-25.792008 13.563166 17.247403 33.862369 -0.484126 1.036381 0.002939 0.009180 257392.000000 0 0 1
-26.483058 13.871766 18.434703 35.122878 -0.482504 1.018242 -0.014990 0.017952 217144.000000 0 0 1
-27.674578 14.825766 18.155903 36.267374 -0.491812 1.046490 -0.012324 0.018152 289559.000000 0 0 1
-27.184188 16.136766 17.866703 36.312455 -0.535707 1.056380 -0.002032 0.023247 722514.000000 0 0 1
-28.296698 17.033966 17.646203 37.446597 -0.541872 1.080104 0.004961 0.017441 361311.000000 0 0 1
-28.014428 18.575166 17.449603 37.872597 -0.585500 1.091962 0.020507 0.011111 -378271.000000 0 0 1
-27.667968 19.275166 18.647303 38.532718 -0.608481 1.065651 0.018190 0.011008 -267188.000000 0 0 1
-28.623568 19.380966 19.672603 39.773632 -0.595190 1.053405 0.011626 0.006989 -947658.000000 0 0 1
-28.100148 19.583466 21.126903 40.242720 -0.608654 1.018097 0.018514 -0.006062 277453.000000 0 0 1
-27.394928 18.446166 21.653503 39.491991 -0.592610 0.990465 0.000828 -0.002664 902886.000000 0 0 1
-26.128598 18.015666 21.099703 38.111223 -0.603644 0.984074 0.012919 0.004527 368848.000000 0 0 1
-25.657958 16.805066 21.903303 37.689465 -0.579858 0.950653 -0.001215 0.000094 -428167.000000 0 0 1
-26.565378 15.723466 21.933803 37.868700 -0.534426 0.953041 -0.035141 0.012450 -45212.100000 0 0 1
-26.040418 14.480066 22.324303 37.231038 -0.507485 0.927776 -0.033016 0.019401 -682780.000000 0 0 1
-27.153638 13.435466 22.570603 37.779147 -0.459474 0.930497 -0.021777 0.004696 -424189.000000 0 0 1
-27.744158 13.198866 21.355503 37.416652 -0.444048 0.963379 -0.018586 0.004561 -66883.100000 0 0 1
-28.733678 12.186566 21.570703 37.939846 -0.401126 0.966054 -0.002467 0.007821 276205.000000 0 0 1
-29.707338 12.003066 20.352803 37.958347 -0.383988 1.004882 0.010958 0.011342 -57503.700000 0 0 1
-29.120478 11.450566 19.204303 36.714070 -0.374642 1.020339 0.024405 0.002083 126165.000000 0 0 1
-28.772728 10.071166 19.273803 36.066297 -0.336697 1.006999 0.028829 -0.001287 -438817.000000 0 0 1
-27.886748 9.805566 18.066903 34.644377 -0.338118 1.022193 0.038219 -0.001616 -452925.000000 0 0 1
-28.554938 9.465366 16.867503 34.488988 -0.320081 1.059774 0.031709 0.000052 566608.000000 0 0 1
-29.239458 10.521866 16.163303 35.027246 -0.345424 1.091168 0.029437 -0.001270 396853.000000 0 0 1
-28.342018 11.333166 15.145603 34.074916 -0.380396 1.110203 0.024628 0.008051 146471.000000 0 0 1
-27.891558 10.677266 14.032003 32.997578 -0.365603 1.131565 0.018365 0.001049 277672.000000 0 0 1
-26.837118 11.411966 13.428203 32.105771 -0.402066 1.139280 0.012722 0.012687 -68981.400000 0 0 1
-26.800558 11.356466 11.892003 31.442948 -0.400803 1.182936 0.026117 0.010855 -541522.000000 0 0 1
-26.149948 10.292466 11.252003 30.271475 -0.374972 1.189953 0.028350 0.008901 712691.000000 0 0 1
-26.970878 9.122666 11.214503 30.600921 -0.326161 1.195578 0.013608 0.009786 2794.940000 0 0 1
-26.203858 7.952566 10.594303 29.361961 -0.294654 1.201652 0.014369 -0.006947 -490793.000000 0 0 1
-25.997498 8.168666 9.259203 28.780720 -0.304442 1.243256 0.024662 -0.002215 264776.000000 0 0 1
-25.566028 7.031866 8.518803 27.850295 -0.268410 1.259935 0.039609 -0.020958 -251501.000000 0 0 1
-24.972348 7.430466 7.159303 27.020096 -0.289205 1.302632 0.027344 -0.003518 -706569.000000 0 0 1
-25.859578 8.066666 6.280303 27.807033 -0.302376 1.342978 0.026241 -0.001773 -191450.000000 0 0 1
-25.186878 8.573466 5.152703 27.100433 -0.328092 1.379498 0.023826 -0.000092 -255845.000000 0 0 1
-26.091088 8.809666 3.949103 27.819966 -0.325631 1.428363 0.002278 0.011500 86192.400000 0 0 1
-26.737798 7.671966 3.280003 28.009415 -0.279426 1.453423 0.031131 -0.003005 1349010.000000 0 0 1
-25.823848 6.627166 2.822803 26.809675 -0.251209 1.465310 0.032070 -0.005026 655998.000000 0 0 1
-24.837248 6.902866 1.645403 25.831101 -0.271083 1.507055 0.030328 -0.000942 446058.000000 0 0 1
-23.830348 7.896666 1.922803 25.178165 -0.319983 1.494354 0.019450 0.004369 206497.000000 0 0 1
-22.829948 7.691766 0.970303 24.110398 -0.324971 1.530541 0.022346 0.008214 -815812.000000 0 1 0
-21.620848 8.588166 1.244903 23.297370 -0.378105 1.517336 0.005634 0.008702 -284020.000000 0 1 0
-22.029248 9.951066 1.013703 24.193782 -0.424284 1.528885 0.001641 0.012723 1050290.000000 0 1 0
-20.944448 10.870466 1.193903 23.627576 -0.478743 1.520245 0.016123 0.013430 510938.000000 0 1 0
-21.445848 12.177766 1.899803 24.735231 -0.516435 1.493915 0.014243 0.010440 48936.200000 0 1 0
-20.352848 13.027966 2.165603 24.262237 -0.569388 1.481419 0.017449 0.001723 154683.000000 0 1 0
-20.709448 14.181066 2.938303 25.270882 -0.600426 1.454260 0.008730 0.000229 28823.000000 0 0 1
-19.567148 14.659066 3.900603 24.758356 -0.642968 1.412590 -0.001225 0.004264 181685.000000 0 1 0
-19.103348 13.703466 4.825603 24.000194 -0.622264 1.368351 -0.003607 -0.005103 176578.000000 0 1 0
-18.571948 14.367066 5.978303 24.229526 -0.658428 1.321485 0.004180 -0.003148 48477.800000 0 1 0
-18.081848 13.404266 7.121903 23.608242 -0.637917 1.264352 -0.005844 -0.009245 272338.000000 0 1 0
-17.052748 12.535666 6.687103 22.195866 -0.633904 1.264765 -0.007966 -0.010452 -132315.000000 0 1 0
-16.475748 11.856266 7.737803 21.723142 -0.623772 1.206597 -0.015725 -0.003282 -428959.000000 0 1 0
9.440252 -33.975731 -14.833097 38.255580 -1.299780 1.968971 0.006649 -0.004756 -910822.000000 0 0 1
10.379052 -33.334831 -14.086897 37.648059 -1.268953 1.954301 0.023409 -0.015956 -459441.000000 0 0 1
11.051452 -32.242331 -14.725197 37.128613 -1.240584 1.978606 0.023612 -0.022623 11090.400000 0 0 1
12.349152 -31.795131 -14.053497 36.890821 -1.200332 1.961618 0.012112 -0.029506 128770.000000 0 0 1
13.541752 -32.520731 -14.321397 38.027350 -1.176229 1.956928 0.019156 -0.017574 372390.000000 0 0 1
14.654052 -31.912331 -13.673297 37.684176 -1.140320 1.942109 0.008400 -0.020287 -745768.000000 0 0 1
15.964352 -32.511431 -14.055497 38.851134 -1.114344 1.940971 0.035382 -0.015659 -1059390.000000 0 0 1
16.196952 -33.750631 -13.523897 39.803795 -1.123357 1.917462 0.035092 -0.024747 -587026.000000 0 0 1
17.187352 -34.468331 -14.199697 41.049997 -1.108236 1.924007 0.039086 -0.001990 -219904.000000 0 0 1
17.212052 33.538466 -13.964197 40.200525 1.096642 1.925554 0.029505 -0.000014 278705.000000 0 0 1
17.948852 33.218666 -12.757197 39.854574 1.075412 1.896625 0.031217 -0.004671 256858.000000 0 0 1
17.703152 31.847366 -12.480597 38.515212 1.063454 1.900797 0.022262 0.006004 -10476.500000 0 0 1
18.338252 31.246266 -11.236597 37.932594 1.040069 1.871535 0.029468 -0.002186 104135.000000 0 0 1
19.678852 30.818266 -11.374797 38.293716 1.002516 1.872388 0.030252 -0.002569 175391.000000 0 0 1
20.339452 30.749066 -10.121297 38.231387 0.986403 1.838728 0.029912 0.005764 586508.000000 0 0 1
21.591352 29.830666 -10.041297 38.169133 0.944277 1.837003 0.021110 0.014043 700346.000000 0 0 1
22.712652 30.168866 -10.838097 39.287267 0.925473 1.850289 0.015272 0.002701 273847.000000 0 0 1
23.905552 29.571966 -10.375497 39.416082 0.890963 1.837165 0.014074 0.010137 317333.000000 0 0 1
25.176452 29.963266 -11.160497 40.696532 0.871994 1.848593 0.004955 0.004308 144214.000000 0 0 1
25.671652 31.289666 -10.894397 41.913778 0.883709 1.833740 0.008124 -0.004133 627296.000000 0 0 1
26.864552 31.631066 -11.601597 43.090898 0.866704 1.843395 0.016640 -0.002122 464968.000000 0 0 1
27.317652 33.128166 -11.335897 44.409819 0.881231 1.828909 0.006441 -0.009086 -168919.000000 0 0 1
26.552452 34.138366 -11.956197 44.871052 0.909746 1.840511 0.009868 -0.006553 290416.000000 0 0 1
27.206052 -34.125631 -11.631897 45.166680 -0.897745 1.831264 0.014623 -0.009725 150182.000000 0 0 1
26.323052 -32.892231 -11.913097 43.780404 -0.895884 1.846382 0.008413 -0.007886 363479.000000 0 0 1
25.202052 -32.875831 -11.000197 42.859865 -0.916766 1.830356 0.018514 -0.008141 224103.000000 0 0 1
24.144552 -32.057731 -11.486597 41.744453 -0.925277 1.849557 0.016937 -0.012176 163069.000000 0 0 1
24.320352 -30.555431 -11.301297 40.655051 -0.898535 1.852487 -0.006422 -0.016120 -967291.000000 0 0 1
25.221852 -29.991231 -12.184597 41.037545 -0.871566 1.872255 -0.009842 -0.009564 -739199.000000 0 0 1
25.649052 -28.799131 -11.603197 40.272794 -0.843188 1.863054 -0.006057 -0.007493 -317118.000000 0 0 1
26.385452 -27.827531 -12.540697 40.346408 -0.811992 1.886858 -0.006141 -0.006658 506922.000000 0 0 1
27.654452 -28.258231 -13.020297 41.627208 -0.796196 1.888918 -0.016836 0.004154 295071.000000 0 0 1
27.528652 -29.295631 -14.003397 42.569423 -0.816484 1.905992 -0.013558 -0.005802 -959193.000000 0 0 1
28.838052 -30.009131 -14.308697 44.010453 -0.805296 1.901935 -0.017029 0.003267 -354083.000000 0 0 1
29.179652 -31.065531 -13.444997 44.691019 -0.816691 1.876373 -0.022691 -0.002737 14985.500000 0 0 1
30.386052 -31.660631 -13.891797 46.029227 -0.805938 1.877380 -0.013328 -0.007146 -92048.300000 0 0 1
31.024952 -32.574231 -12.875497 46.791095 -0.809753 1.849563 -0.015867 -0.007420 -146183.000000 0 0 1
32.037552 -33.444831 -13.332697 48.194629 -0.806886 1.851095 -0.014850 -0.009578 -46179.500000 0 0 1
32.701352 -34.205431 -12.372497 48.912867 -0.807875 1.826524 -0.003272 -0.009824 -379214.000000 0 0 1
31.922152 34.136266 -11.766297 48.194960 0.818903 1.817429 -0.005166 -0.011459 -120308.000000 0 0 1
31.148352 34.480766 -10.621297 47.665029 0.836131 1.795515 -0.009937 -0.017238 -37403.600000 0 0 1
30.762552 33.373166 -9.852397 46.445371 0.826080 1.784549 0.000562 -0.012736 -274569.000000 0 0 1
30.007952 33.684466 -8.554897 45.916300 0.843057 1.758206 -0.011094 -0.007760 485463.000000 0 0 1
28.825852 34.479766 -8.682097 45.772948 0.874473 1.761630 -0.016171 -0.015787 -99496.000000 0 0 1
28.284452 -34.702931 -7.448597 45.384857 -0.886949 1.735663 -0.016330 -0.006894 585614.000000 0 0 1
27.185452 -33.599831 -7.562597 43.876990 -0.890534 1.744020 -0.019219 -0.009106 138193.000000 0 0 1
27.801952 -32.371031 -7.915297 43.399125 -0.861185 1.754207 -0.032319 -0.016178 34330.200000 0 0 1
26.964252 -31.387931 -8.499397 42.243494 -0.861063 1.773379 -0.020991 -0.008933 449899.000000 0 0 1
26.119452 -30.512131 -7.482097 40.855815 -0.862809 1.754970 -0.009345 -0.006403 647785.000000 0 0 1
25.247952 -29.595331 -8.078897 39.731741 -0.864502 1.775560 0.000053 -0.014081 306685.000000 0 0 1
24.140252 -29.171831 -7.262097 38.554967 -0.879499 1.760285 0.003580 -0.018139 433885.000000 0 0 1
23.202252 -28.276531 -8.100097 37.463559 -0.883651 1.788730 0.017448 -0.023316 -465232.000000 0 0 1
22.521252 -29.128031 -9.026197 37.909381 -0.912623 1.811205 0.029044 -0.022003 -260988.000000 0 0 1
21.646952 -28.303731 -9.751697 36.943028 -0.917885 1.837928 0.035413 -0.024712 252866.000000 0 0 1
20.418952 -29.096231 -10.295697 37.007102 -0.958881 1.852725 0.038191 -0.023569 230630.000000 0 0 1
20.853352 -29.786031 -11.390997 38.102818 -0.960000 1.874393 0.052939 -0.027007 2608.630000 0 0 1
19.847252 -30.579331 -11.993997 38.377921 -0.995095 1.888645 0.048773 -0.030893 115385.000000 0 0 1
19.417452 -31.869031 -11.281597 38.986497 -1.023575 1.864367 0.050015 -0.033567 -302247.000000 0 0 1
20.365052 -32.891831 -11.324697 40.309510 -1.016413 1.855573 0.036701 -0.023371 -535447.000000 0 0 1
19.900552 -34.115431 -10.882597 40.967371 -1.042724 1.839665 0.029800 -0.017557 -682769.000000 0 0 1
21.013152 34.373766 -10.837997 41.720145 1.022099 1.833589 0.024680 -0.008135 -385883.000000 0 0 1
22.047752 34.720166 -9.932297 42.311272 1.005029 1.807751 0.021548 -0.000691 436747.000000 0 0 1
23.201352 33.884766 -10.257797 42.328506 0.970404 1.815571 0.017781 -0.006709 528753.000000 0 0 1
24.383952 34.376166 -9.400197 43.181727 0.953838 1.790243 0.009288 -0.004502 -861966.000000 0 0 1
24.527052 34.021566 -8.034397 42.703568 0.946163 1.760068 -0.006738 -0.004334 -35199.400000 0 0 1
24.873152 32.681366 -7.723297 41.789887 0.920241 1.756677 -0.003440 0.001233 -280802.000000 0 0 1
24.763252 32.337466 -6.245797 41.206071 0.917275 1.722957 -0.004580 0.000912 -722105.000000 0 0 1
25.758852 32.813566 -5.417897 42.066639 0.905265 1.699948 -0.012194 0.001020 -809528.000000 0 0 1
26.671752 31.863666 -4.946397 41.846653 0.873864 1.689276 -0.011418 0.004053 -336556.000000 0 0 1
26.138452 30.848066 -3.851397 40.615946 0.867855 1.665764 -0.004375 0.014739 -470880.000000 0 0 1
25.921352 31.430366 -2.588697 40.822613 0.881161 1.634252 -0.003595 0.004136 40955.200000 0 0 1
25.659552 30.391166 -1.671897 39.809933 0.869615 1.612806 0.007066 0.007859 718223.000000 0 0 1
24.312952 29.552966 -1.705697 38.306746 0.882372 1.615338 0.008901 0.014120 969244.000000 0 0 1
23.183752 30.296766 -1.183397 38.167798 0.917624 1.601806 0.006543 0.015971 37513.100000 0 0 1
22.097852 29.431166 -1.317197 36.827212 0.926763 1.606571 0.010992 0.025492 -771667.000000 0 0 1
20.791552 29.950766 -0.722397 36.467230 0.963980 1.590607 0.005252 0.019451 -310669.000000 0 0 1
20.729652 29.976666 0.665303 36.452182 0.965780 1.552544 0.018872 0.008153 36072.400000 0 0 1
19.480952 30.475966 1.095403 36.186902 1.002034 1.540521 0.026000 0.001007 -327472.000000 0 0 1
18.847752 29.683066 2.267503 35.234411 1.005062 1.506397 0.027006 -0.013691 -159963.000000 0 0 1
18.416152 28.353666 1.911703 33.863544 0.994762 1.514313 0.032181 -0.007859 287859.000000 0 0 1
17.931352 27.577166 3.020603 33.032673 0.994263 1.479226 0.037070 -0.010357 -146393.000000 0 0 1
17.449852 26.233166 2.454003 31.602190 0.983822 1.493065 0.020487 0.001297 232554.000000 0 0 1
18.429452 25.331966 1.914203 31.384986 0.941840 1.509767 0.034889 0.001384 377521.000000 0 0 1
19.272352 24.702166 2.886403 31.463500 0.908253 1.478929 0.041741 0.001172 217140.000000 0 0 1
20.438552 23.971066 2.136603 31.573905 0.864775 1.503075 0.042336 0.002959 -176401.000000 0 0 1
20.128252 22.786566 1.462303 30.438667 0.847263 1.522737 0.048695 0.006554 470248.000000 0 0 1
21.236752 21.928366 1.171803 30.548747 0.801419 1.532428 0.044116 -0.000861 243394.000000 0 0 1
20.948052 21.016266 -0.045597 29.673328 0.787024 1.572333 0.059442 -0.010419 -365873.000000 0 0 1
20.746552 21.698266 -1.282097 30.047927 0.807817 1.613478 0.044688 -0.000233 399996.000000 0 0 1
20.874852 20.766166 -2.379497 29.540736 0.782788 1.651433 0.073691 -0.016516 -178790.000000 0 0 1
20.523752 21.396466 -3.697897 29.878212 0.806214 1.694880 0.047779 -0.005642 -222733.000000 0 0 1
21.370152 22.462066 -4.113797 31.275407 0.810304 1.702713 0.039797 0.003068 266109.000000 0 0 1
20.932752 23.144566 -5.247097 31.644637 0.835536 1.737379 0.035647 0.001275 -275673.000000 0 0 1
21.999052 24.190166 -5.689997 33.188830 0.832800 1.743091 0.027875 0.024258 209767.000000 0 0 1
22.126052 25.390166 -4.922197 34.036021 0.853985 1.715923 0.015584 0.030768 174735.000000 0 0 1
22.611052 25.328266 -3.541897 34.136868 0.842018 1.674739 0.024294 0.020554 257944.000000 0 0 1
21.561352 24.950766 -2.426197 33.065375 0.858141 1.644238 0.023477 0.008107 -378356.000000 0 0 1
20.640452 26.010966 -2.107697 33.272225 0.900014 1.634186 0.023033 0.022936 1417670.000000 0 0 1
19.597052 25.703066 -1.144897 32.341967 0.919381 1.606203 0.027905 0.016432 862672.000000 0 0 1
18.650152 24.512366 -1.529797 30.838685 0.920389 1.620423 0.034110 0.012371 -1059800.000000 0 0 1
17.831352 24.826366 -2.621997 30.678664 0.947932 1.656367 0.016253 0.019989 -5880.940000 0 0 1
17.215952 23.676466 -3.198297 29.448143 0.942091 1.679619 0.017855 0.010597 54815.500000 0 0 1
16.591852 24.104566 -4.529097 29.611355 0.967947 1.724350 0.016147 0.005813 -27182.700000 0 0 1
16.094052 23.028466 -5.327097 28.595571 0.960825 1.758182 0.010234 -0.004317 174166.000000 0 0 1
15.598652 23.410766 -6.600997 28.895589 0.983046 1.801274 0.012895 -0.003901 -9292.940000 0 0 1
14.863252 22.226866 -7.336797 27.726853 0.981383 1.838596 0.014077 -0.004118 -273143.000000 0 0 1
15.651952 21.104466 -7.716497 27.384784 0.932666 1.856446 -0.005215 0.001723 523296.000000 0 0 1
14.862852 20.242166 -8.558697 26.531131 0.937450 1.899262 -0.003022 0.000712 136112.000000 0 0 1
15.627952 18.924166 -8.915597 26.112158 0.880509 1.919239 -0.014728 -0.000642 506634.000000 0 0 1
16.789252 19.184266 -9.693097 27.274001 0.851877 1.934135 -0.005160 0.000323 371118.000000 0 0 1
17.456452 18.077666 -10.301797 27.159836 0.802879 1.959839 -0.008146 0.000481 478989.000000 0 0 1
18.832352 18.540366 -10.859097 28.571360 0.777586 1.960668 -0.013220 -0.000064 265388.000000 0 0 1
18.710852 18.966466 -12.199997 29.302947 0.792182 2.000213 -0.012145 0.006428 279142.000000 0 0 1
19.970652 19.437966 -12.637797 30.600251 0.771882 1.996538 -0.009481 0.011669 103844.000000 0 0 1
20.085252 19.585366 -14.184397 31.435664 0.772798 2.038928 -0.003363 0.011338 -160222.000000 0 0 1
20.042152 18.354866 -14.896797 30.991991 0.741483 2.072210 -0.003174 0.015570 194155.000000 0 0 1
20.277052 18.654166 -16.254297 31.989668 0.743736 2.103786 0.001735 0.009721 -68867.100000 0 0 1
20.314652 17.511766 -17.226997 31.876581 0.711435 2.141742 0.006949 0.005318 65364.400000 0 0 1
21.495152 16.720266 -17.096897 32.154513 0.661096 2.131415 0.012661 0.003461 314545.000000 0 0 1
21.725452 15.896966 -18.222997 32.508251 0.631699 2.165865 0.032221 -0.005019 -364266.000000 0 0 1
22.581852 16.500766 -19.350897 34.009888 0.631040 2.176060 0.036385 -0.004242 -1576680.000000 0 0 1
23.935452 16.446566 -19.139997 34.781243 0.602030 2.153516 0.044727 -0.001518 -866871.000000 0 0 1
24.689152 16.924266 -20.256897 36.143144 0.600924 2.165741 0.049982 -0.004467 -325671.000000 0 0 1
26.046152 17.444466 -19.798297 37.076731 0.590136 2.134099 0.020875 -0.004019 -579603.000000 0 0 1
25.971852 18.470366 -18.852897 37.028681 0.618182 2.104985 0.007407 0.000732 -401630.000000 0 0 1
27.202152 19.060566 -18.580097 38.058931 0.611196 2.080814 0.006530 -0.003389 -502603.000000 0 0 1
27.046452 20.146366 -17.487297 37.989369 0.640216 2.049153 0.000229 -0.008623 26818.300000 0 0 1
26.503752 19.744966 -16.228997 36.819735 0.640285 2.027252 -0.003260 -0.006724 1013380.000000 0 0 1
25.109652 20.121166 -16.202197 36.025923 0.675553 2.037267 -0.003262 0.000874 638201.000000 0 0 1
24.345552 19.584066 -15.001697 34.659666 0.677431 2.018425 -0.011882 -0.001403 -20513.000000 0 0 1
24.873852 20.001966 -13.752397 34.755079 0.677258 1.977620 -0.002623 0.001322 171362.000000 0 0 1
23.958852 19.615266 -12.759397 33.490109 0.686044 1.961663 0.004486 -0.001659 -120730.000000 0 0 1
24.413652 20.047166 -11.387897 33.579747 0.687502 1.916788 0.010916 -0.002287 -296224.000000 0 0 1
24.258152 21.459466 -11.152497 34.254121 0.724258 1.902423 0.013278 -0.004096 -106458.000000 0 0 1
24.816752 21.884766 -9.935897 34.547593 0.722699 1.862517 0.008291 -0.001610 43006.000000 0 0 1
23.949652 21.612066 -8.689497 33.409199 0.734137 1.833915 0.021320 -0.001600 -443881.000000 0 0 1
24.015052 20.265566 -8.249497 32.487999 0.700924 1.827532 0.026743 -0.003077 -139867.000000 0 0 1
23.225352 20.038866 -7.115697 31.489780 0.711879 1.798733 0.031769 -0.007026 62973.900000 0 0 1
21.728952 19.743566 -7.400197 30.277362 0.737562 1.817711 0.020307 -0.011429 160302.000000 0 0 1
20.924052 20.910966 -7.595597 30.541407 0.785085 1.822132 0.031867 -0.001269 -933565.000000 0 0 1
19.610852 20.581066 -7.843997 29.490576 0.809533 1.840020 0.044810 -0.005654 -735415.000000 0 0 1
18.795252 21.922266 -7.973797 29.957114 0.862045 1.840218 0.027412 -0.003769 -598603.000000 0 0 1
19.245452 22.772266 -9.037497 31.155093 0.869138 1.865108 0.012133 0.003243 59787.500000 0 0 1
18.638052 22.599366 -10.303197 31.052603 0.881165 1.909005 0.002403 0.007330 1076350.000000 0 0 1
17.132752 23.084566 -10.434397 30.582756 0.932323 1.918974 0.015646 0.005792 893495.000000 0 0 1
16.974952 24.397966 -10.019697 31.365651 0.962927 1.895943 0.022666 0.003334 634613.000000 0 0 1
15.606152 24.778566 -10.212497 31.013294 1.008735 1.906352 0.021785 0.009048 843722.000000 0 0 1
15.468252 26.275966 -9.912797 32.061764 1.038739 1.885125 0.016805 0.017839 27006.500000 0 0 1
16.137052 27.054966 -10.879897 33.327883 1.032988 1.903342 0.036475 0.024456 98810.100000 0 0 1
16.319452 28.366766 -10.351697 34.324270 1.048735 1.877151 0.041237 0.015884 79781.500000 0 0 1
19.303452 29.517966 34.391565 49.261682 0.991645 0.798000 0.005980 0.007796 163170.000000 0 0 1
17.910952 29.748666 34.434006 48.902822 1.028852 0.789597 0.020113 -0.000544 -410030.000000 0 0 1
17.243352 28.601166 34.005698 47.662851 1.028255 0.776368 0.015715 0.002144 -126023.000000 0 0 1
15.709752 28.611366 34.191210 47.269920 1.068664 0.762200 0.044007 -0.009972 -55845.400000 0 0 1
15.155152 29.420166 33.202279 46.878738 1.095120 0.783768 0.034878 -0.008311 -390066.000000 0 0 1
13.805052 29.731566 33.461156 46.842229 1.136095 0.775120 0.045580 -0.021083 -348483.000000 0 0 1
12.980252 29.925966 32.210579 45.842903 1.161542 0.791710 0.034930 -0.026718 -501174.000000 0 0 1
12.647152 28.735566 31.530979 44.495908 1.156187 0.783247 0.029611 -0.019815 -33688.700000 0 0 1
11.251652 28.737466 31.312359 43.964820 1.197611 0.778149 0.026897 -0.006706 -230413.000000 0 0 1
10.642652 27.313066 31.155799 42.777954 1.199240 0.754938 0.010221 -0.002419 -324161.000000 0 0 1
11.018052 26.472466 30.060249 41.542839 1.176396 0.761798 0.015522 -0.007076 1506650.000000 0 0 1
12.409452 26.040266 30.016559 41.630322 1.126085 0.765514 0.007109 -0.003083 1261310.000000 0 0 1
12.820752 25.152166 28.796699 40.326827 1.099397 0.775483 0.011327 0.000833 -168643.000000 0 0 1
12.715852 25.900766 27.553199 39.896382 1.114419 0.808452 -0.001332 0.004753 166014.000000 0 0 1
12.825852 25.135666 26.338619 38.600868 1.098970 0.819848 -0.001997 0.014665 240302.000000 0 0 1
11.652852 24.152866 25.999749 37.351530 1.121277 0.800870 -0.005101 0.014759 -63299.700000 0 0 1
11.566552 23.729466 24.653729 36.120340 1.117252 0.819558 0.005002 0.019922 601561.000000 0 0 1
10.466052 22.839766 24.406359 35.026611 1.141113 0.799877 0.009783 0.012706 393559.000000 0 0 1
10.558952 22.360566 22.970099 33.750730 1.129624 0.822241 0.007649 0.019122 -310719.000000 0 0 1
10.199152 23.276966 21.963399 33.589146 1.157828 0.858090 0.014277 0.011946 215285.000000 0 0 1
10.580052 22.749966 20.681999 32.515281 1.135491 0.881402 0.018260 0.019148 -335556.000000 0 0 1
10.337052 23.823366 19.593499 32.531717 1.161408 0.924431 0.013280 0.019230 1823340.000000 0 0 1
8.972552 24.114166 19.116099 32.053469 1.214583 0.931811 0.010056 0.015573 1530160.000000 0 0 1
8.201852 24.874966 19.991999 32.950179 1.252298 0.918851 0.007932 0.016430 -414005.000000 0 0 1
6.855052 25.390666 19.475499 32.725719 1.307100 0.933390 0.014320 0.012558 -16262.300000 0 0 1
6.952052 26.468866 18.539799 33.055348 1.313948 0.975358 0.016859 -0.001832 -159017.000000 0 0 1
5.675852 27.051866 18.409999 33.210643 1.363983 0.983226 0.012848 -0.003908 15872.400000 0 0 1
5.730952 28.181666 17.390799 33.607885 1.370175 1.026914 0.015432 0.000196 137810.000000 0 0 1
6.012652 27.890166 16.030199 32.725840 1.358463 1.058898 0.013691 -0.000377 -81058.800000 0 0 1
6.442252 29.044366 15.337599 33.471177 1.352523 1.094790 0.007364 0.005030 -185940.000000 0 0 1
7.129752 28.710966 14.043599 32.747146 1.327391 1.127577 0.008709 -0.002481 -121857.000000 0 0 1
6.294252 28.363066 12.943199 31.805778 1.352418 1.151689 -0.003411 -0.002376 -309617.000000 0 0 1
6.573352 27.137866 12.376599 30.542641 1.333153 1.153573 -0.011958 -0.006208 -159714.000000 0 0 1
5.850052 26.956066 11.030899 29.707462 1.357089 1.190369 -0.019114 -0.011642 -527695.000000 0 0 1
6.311452 27.710666 9.940299 30.108553 1.346854 1.234335 -0.014841 -0.008420 29403.900000 0 0 1
6.206052 29.143866 10.107899 31.465054 1.360985 1.243756 -0.017666 0.003886 -483778.000000 0 0 1
6.519352 29.967266 8.833899 31.915149 1.356585 1.290341 -0.012670 0.013188 -705357.000000 0 0 1
5.539752 29.858366 7.833499 31.361992 1.387348 1.318347 -0.022094 0.001543 -146383.000000 0 0 1
5.644352 28.774366 6.899499 30.123511 1.377097 1.339705 -0.026796 0.012293 -751450.000000 0 0 1
4.253052 28.470766 6.405899 29.490820 1.422510 1.351834 -0.025118 0.015944 -790088.000000 0 0 1
3.608052 29.453666 5.654899 30.207852 1.448904 1.382486 -0.020574 0.010085 -622350.000000 0 0 1
2.329352 28.982866 5.335899 29.561871 1.490599 1.389302 -0.020728 0.000445 -352034.000000 0 0 1
1.425152 29.999666 4.620599 30.386854 1.523326 1.418145 -0.020452 0.006503 -425818.000000 0 0 1
1.818852 30.293366 3.313999 30.528328 1.510827 1.462027 -0.021915 0.004359 22784.100000 0 0 1
0.913452 31.148766 2.637099 31.273540 1.541479 1.486372 -0.017413 -0.003558 402368.000000 0 0 1
-0.338948 30.457466 2.042199 30.527736 -1.559668 1.503850 -0.008876 -0.000446 174856.000000 0 0 1
0.023052 29.647666 0.961099 29.663249 1.570019 1.538390 -0.003408 0.008006 -282301.000000 0 0 1
-1.038548 28.736566 0.892999 28.769189 -1.534672 1.539751 0.003127 0.010913 20444.800000 0 0 1
-1.346348 28.302566 -0.527801 28.339486 -1.523262 1.589422 -0.001957 0.001229 -86389.200000 0 0 1
-2.064448 29.335066 -1.168801 29.430836 -1.500537 1.610520 0.004739 -0.006522 -213615.000000 0 0 1
-1.378048 29.960766 -2.213301 30.073995 -1.524834 1.644458 -0.002942 -0.002318 -104951.000000 0 0 1
-2.285248 31.074366 -2.838701 31.287326 -1.497387 1.661651 -0.007107 -0.009046 975823.000000 0 0 1
-3.526648 30.805166 -3.490601 31.202240 -1.456810 1.682901 -0.013772 -0.009729 531205.000000 0 0 1
-3.388648 29.992066 -4.682101 30.543887 -1.458289 1.724694 -0.013518 -0.007935 -604186.000000 0 0 1
-4.728148 29.791366 -5.381301 30.640484 -1.413400 1.747339 -0.015771 -0.003911 -310346.000000 0 0 1
-5.238848 30.918066 -6.026201 31.932545 -1.402948 1.760651 -0.014836 -0.007421 -154035.000000 0 0 1
-6.342748 30.587266 -6.852301 31.980702 -1.366329 1.786734 -0.024575 0.006117 -100020.000000 0 0 1
-7.049248 31.759466 -7.517601 33.389667 -1.352380 1.797891 -0.019757 0.000742 -525257.000000 0 0 1
-7.837848 32.471966 -6.582901 34.046953 -1.333954 1.765369 -0.019941 -0.003944 -8613.120000 0 0 1
-8.039448 33.795866 -7.060201 35.449114 -1.337254 1.771301 -0.010688 -0.012833 -346008.000000 0 0 1
-9.033248 34.722466 -6.312801 36.429393 -1.316282 1.744964 0.000135 -0.016441 -398334.000000 0 0 1
-10.308948 34.169266 -6.440701 36.267006 -1.277778 1.749335 0.003402 -0.007688 -601525.000000 0 0 1
-11.286448 -34.441231 -5.865501 36.714934 1.254123 1.731242 0.011958 -0.008118 663036.000000 0 0 1
-12.737448 34.557866 -6.098001 37.331947 -1.217663 1.734877 0.019780 -0.012127 180691.000000 0 0 1
-13.136748 34.604866 -7.431601 37.753140 -1.207980 1.768938 0.030753 -0.012937 -208753.000000 0 0 1
-14.504948 34.287466 -7.544901 37.986173 -1.170588 1.770748 0.039493 -0.017828 -492011.000000 0 0 1
-15.067448 34.299566 -8.995401 38.527982 -1.156885 1.806448 0.041094 -0.004754 839037.000000 0 0 1
-16.434748 33.925566 -9.215501 38.806835 -1.119678 1.810558 0.057469 -0.006053 36324.000000 0 0 1
-17.317248 -34.561831 -8.911401 39.671404 1.106308 1.797360 0.063398 -0.003673 -1514290.000000 0 0 1
-18.777348 34.461966 -9.074901 40.281133 -1.071899 1.798036 0.061629 0.005515 -208080.000000 0 0 1
-19.249948 33.572066 -8.068501 39.531567 -1.050171 1.776343 0.048719 0.008034 45328.200000 0 0 1
-19.528148 34.197766 -6.846601 39.971386 -1.051946 1.742933 0.041686 -0.003285 -592744.000000 0 0 1
-19.879148 33.070766 -5.745701 39.011141 -1.029561 1.718618 0.033149 -0.010985 -162831.000000 0 0 1
-19.734948 33.604066 -4.406201 39.218822 -1.039783 1.683383 0.044715 -0.017187 -541398.000000 0 0 1
-20.946848 33.873166 -3.816101 40.009054 -1.016964 1.666322 0.038556 -0.012808 -756948.000000 0 0 1
-21.699448 -34.284731 -3.965301 40.768032 1.006523 1.668215 0.031628 -0.015494 -226152.000000 0 0 1
-22.105948 -34.093431 -5.276301 40.974069 0.995552 1.699927 0.026327 -0.010627 -137777.000000 0 0 1
-22.807348 -32.900431 -5.541201 40.414334 0.964633 1.708339 0.025144 -0.004567 -218694.000000 0 0 1
-23.410848 -32.961031 -6.940201 41.020285 0.953219 1.740804 0.025143 0.001388 -440006.000000 0 0 1
-22.509048 -32.935131 -8.039301 40.694108 0.971274 1.769659 0.041823 0.006643 -126130.000000 0 0 1
-23.016448 -33.306831 -9.311901 41.542910 0.966107 1.796869 0.010682 0.021485 -178974.000000 0 0 1
-24.157748 -32.480631 -9.919501 41.677148 0.931302 1.811111 0.002668 0.021932 112048.000000 0 0 1
-25.446528 -32.667731 -9.312501 42.443246 0.909023 1.792007 0.006069 0.022368 114761.000000 0 0 1
-26.508388 -32.090631 -9.989601 42.805319 0.880373 1.806341 -0.034175 0.026780 -595643.000000 0 0 1
-26.520728 -30.510131 -10.018101 41.648283 0.855236 1.813719 -0.028258 0.027356 -1546310.000000 0 0 1
-25.668818 -29.833431 -10.865201 40.828598 0.860293 1.840159 -0.018648 0.034663 -432583.000000 0 0 1
-26.147808 -29.695031 -12.193601 41.402737 0.848834 1.869741 -0.032008 0.027618 -235310.000000 0 0 1
-25.068738 -28.986531 -13.061201 40.487721 0.857749 1.899268 -0.006687 0.036309 -69852.000000 0 0 1
-23.897848 -29.771431 -13.067501 40.351020 0.894405 1.900588 -0.005668 0.030897 -450075.000000 0 0 1
-23.031448 -29.244831 -14.030501 39.781437 0.903700 1.931240 -0.003824 0.032977 -770934.000000 0 0 1
-21.822348 -30.108531 -14.360801 39.861901 0.943626 1.939347 0.014047 0.015024 -445949.000000 0 0 1
-22.031448 -31.336731 -15.053001 41.157846 0.958023 1.945222 0.020868 0.009632 -82048.700000 0 0 1
-22.368948 -32.424031 -14.204301 41.874214 0.966889 1.916877 0.009350 0.014580 -87568.200000 0 0 1
-22.473948 -33.767531 -14.897801 43.211908 0.983568 1.922781 0.003439 0.014711 -163090.000000 0 0 1
-22.914848 34.711066 -14.078101 43.910605 -0.987312 1.897168 -0.001519 0.006165 -159358.000000 0 0 1
-23.222548 33.451666 -14.716301 43.299771 -0.963965 1.917575 0.013399 -0.001555 -180798.000000 0 0 1
-23.682748 32.313366 -13.796001 42.371639 -0.938324 1.902437 0.002830 0.003370 52470.400000 0 0 1
-22.792048 31.848666 -12.732801 41.181782 -0.949653 1.885133 0.006294 0.004202 438268.000000 0 0 1
-22.482048 32.815366 -11.716301 41.467607 -0.970136 1.857238 0.019495 0.006352 -37292.300000 0 0 1
-21.613548 32.216766 -10.591601 40.215015 -0.979883 1.837315 0.015279 0.007219 -219245.000000 0 0 1
-22.204648 31.157366 -9.880201 39.515139 -0.951623 1.823514 0.005975 0.005400 32420.600000 0 0 1
-21.552548 30.880666 -8.664001 38.641852 -0.961461 1.796932 0.010466 0.007218 -246165.000000 0 0 1
-22.401148 29.846266 -7.920001 38.148885 -0.926943 1.779925 0.005362 0.003118 -650362.000000 0 0 1
-22.447048 28.561466 -8.498401 37.307507 -0.904699 1.800607 0.008104 0.009513 126028.000000 0 0 1
-23.073148 27.483066 -7.783501 36.718823 -0.872406 1.784393 0.002360 0.005614 139810.000000 0 0 1
-22.293248 26.939366 -6.526001 35.571154 -0.879490 1.755305 0.008177 0.001477 -137218.000000 0 0 1
-22.363148 27.703366 -5.363401 36.004901 -0.891659 1.720316 0.011189 0.005501 -522204.000000 0 0 1
-21.333648 27.526266 -4.454501 35.109292 -0.911468 1.698014 0.010097 0.009356 687354.000000 0 0 1
-20.005548 28.353966 -4.766901 35.027028 -0.956346 1.707312 0.009704 0.005946 745622.000000 0 0 1
-19.256948 28.134566 -5.902301 34.600881 -0.970577 1.742217 0.006502 0.005783 -1200960.000000 0 0 1
-18.013248 28.709866 -5.808701 34.387127 -1.010456 1.740531 0.018020 0.001426 -862904.000000 0 0 1
-17.118748 28.474766 -7.037101 33.961517 -1.029502 1.779517 0.026681 0.003887 -352449.000000 0 0 1
-17.405248 29.099266 -8.271201 34.901614 -1.031750 1.810059 0.025968 0.000789 -37964.300000 0 0 1
-17.384848 30.506866 -8.287001 36.077364 -1.052828 1.802567 0.033493 -0.000786 -66986.300000 0 0 1
-17.468848 31.139666 -9.697001 36.998260 -1.059559 1.835987 0.042100 -0.001234 926560.000000 0 0 1
-16.204848 30.926866 -10.382501 36.426151 -1.088155 1.859833 0.027353 0.002938 872636.000000 0 0 1
-16.186448 31.559166 -11.666901 37.337630 -1.096888 1.888589 0.032610 0.009342 71502.700000 0 0 1
-14.759548 31.588466 -12.268901 36.962161 -1.133694 1.909147 0.025406 0.009821 356265.000000 0 0 1
-14.472848 32.379466 -13.412901 37.918321 -1.150460 1.932354 0.024334 0.010034 -121182.000000 0 0 1
-14.925748 31.674266 -14.581401 37.929597 -1.130431 1.965390 0.013401 0.006206 48028.400000 0 0 1
-14.640148 32.332166 -15.967801 38.918807 -1.145613 1.993563 0.027909 0.005858 5622.440000 0 0 1
-13.278148 32.308966 -16.309501 38.550983 -1.180865 2.007620 0.015989 0.006202 -460986.000000 0 0 1
-13.040248 32.553366 -17.680001 39.272791 -1.189789 2.037768 -0.004560 -0.002622 -708261.000000 0 0 1
-11.557548 32.514966 -18.028901 38.933805 -1.229272 2.052247 0.003495 -0.013051 -928519.000000 0 0 1
-11.095648 31.155466 -17.995801 37.651365 -1.228664 2.069126 0.004786 -0.011645 -112772.000000 0 0 1
-9.726248 31.102566 -18.330401 37.389478 -1.267715 2.083179 0.006116 -0.016050 -7359.420000 0 0 1
-9.397048 31.225566 -19.821101 38.160405 -1.278477 2.116963 0.021701 -0.026754 -789973.000000 0 0 1
-9.940848 30.182766 -20.585201 37.862519 -1.252630 2.145615 0.014500 -0.028401 -21934.500000 0 0 1
-9.411648 30.134166 -21.872601 38.406480 -1.268071 2.176697 0.033179 -0.035824 -860577.000000 0 0 1
-10.452948 29.534066 -22.848601 38.776072 -1.230626 2.200920 0.033137 -0.035897 396529.000000 0 0 1
-11.442148 30.439866 -23.300401 40.005211 -1.211243 2.192516 0.032135 -0.035865 759721.000000 0 0 1
-12.452248 30.775066 -22.302501 39.994558 -1.186312 2.162334 0.024239 -0.031143 -9040.730000 0 0 1
-13.251248 32.071866 -22.634901 41.431134 -1.178985 2.148768 0.020485 -0.028459 387627.000000 0 0 1
-14.142148 31.927666 -23.733601 42.221559 -1.153826 2.167744 0.026780 -0.030937 -291937.000000 0 0 1
-14.981648 33.036366 -23.830201 43.401955 -1.145044 2.152033 0.012340 -0.021966 -62480.000000 0 0 1
-15.564348 33.112366 -25.208701 44.431479 -1.131397 2.174094 0.010492 -0.019707 198121.000000 0 0 1
-14.518948 33.370266 -26.149801 44.812795 -1.160414 2.193870 0.015181 -0.021289 333405.000000 0 0 1
-14.951748 33.442666 -27.500901 45.806836 -1.150368 2.214756 0.023777 -0.001479 75933.100000 0 0 1
-15.192548 -34.619031 -28.018901 47.056877 1.157254 2.208592 0.011374 0.010022 476436.000000 0 0 1
-16.394948 -34.072931 -27.461201 46.731965 1.122324 2.198926 0.010599 0.012677 438482.000000 0 0 1
-16.855548 -32.982231 -28.268701 46.594598 1.098348 2.222692 0.010489 0.018506 -713816.000000 0 0 1
-18.264248 -32.532131 -27.932501 46.606297 1.059226 2.213459 0.002618 0.004765 -112008.000000 0 0 1
-19.198948 -33.569931 -28.308801 47.926278 1.051288 2.202690 0.003761 0.004588 1016990.000000 0 0 1
-20.493448 -33.392031 -27.670601 47.965314 1.020348 2.185710 0.004592 0.002457 849990.000000 0 0 1
-21.464648 -34.510531 -27.877501 49.283496 1.014376 2.172025 -0.004242 0.003903 -672707.000000 0 0 1
-21.238548 33.854766 -27.089601 48.281131 -1.010514 2.166487 -0.001547 -0.005937 -9246.450000 0 0 1
-22.289148 32.929266 -27.377901 48.277242 -0.975757 2.173774 -0.009604 -0.000617 237254.000000 0 0 1
-22.147848 31.457166 -26.909301 46.948812 -0.957348 2.181156 -0.018874 0.006698 -225780.000000 0 0 1
-22.162048 31.358466 -25.521301 46.106904 -0.955566 2.157387 -0.013471 0.009866 -364650.000000 0 0 1
-22.407648 30.018266 -25.067801 45.073203 -0.929560 2.160551 -0.017585 0.008880 -236797.000000 0 0 1
30.464674 9.498766 -26.616367 41.554228 0.302243 2.265973 -0.017194 0.009856 -14001.800000 0 0 1
29.969294 8.217566 -26.285277 40.701385 0.267622 2.272877 -0.012415 0.003096 276066.000000 0 0 1
28.573614 8.058166 -26.538967 39.820876 0.274876 2.300245 -0.001837 -0.000078 518867.000000 0 0 1
28.120404 6.659166 -26.175267 38.990334 0.232526 2.306794 -0.002531 0.001493 -97750.000000 0 0 1
28.240834 6.480166 -24.764297 38.115714 0.225556 2.278004 -0.008840 0.007701 219391.000000 0 0 1
27.598184 5.238366 -24.432297 37.229522 0.187577 2.286649 -0.011716 0.002069 -113241.000000 0 0 1
27.527884 4.964466 -22.937997 36.174328 0.178425 2.257635 -0.015441 -0.003903 -889680.000000 0 0 1
28.771324 4.739766 -22.361697 36.746427 0.163273 2.225017 -0.000488 0.000023 -275976.000000 0 0 1
28.605704 4.555066 -20.964497 35.756748 0.157911 2.197291 0.006325 -0.007849 -758275.000000 0 0 1
29.919454 4.363466 -20.228297 36.378531 0.144819 2.160423 -0.002453 -0.005892 -367613.000000 0 0 1
30.555614 3.094466 -20.357397 36.846232 0.100929 2.156152 0.016696 -0.002835 454674.000000 0 0 1
31.587674 2.928666 -19.393697 37.181631 0.092451 2.119514 0.023515 -0.006876 180580.000000 0 0 1
32.232594 1.463266 -19.511497 37.706495 0.045366 2.114673 0.036488 -0.009035 73616.500000 0 0 1
31.345864 0.439566 -19.094997 36.706611 0.014022 2.117888 0.038235 -0.007627 130916.000000 0 0 1
31.988624 -0.789934 -19.178997 37.305897 -0.024689 2.110755 0.051791 -0.008043 -181905.000000 0 0 1
31.058324 -1.925034 -18.746897 36.328658 -0.061902 2.113013 0.017425 -0.002478 78829.000000 0 0 1
30.762814 -2.065334 -17.353397 35.380174 -0.067037 2.083441 0.025488 -0.000133 1241070.000000 0 0 1
29.355724 -1.768534 -17.148897 34.043661 -0.060172 2.098710 0.010082 -0.003505 1067520.000000 0 0 1
28.896724 -1.971134 -15.671797 32.931918 -0.068108 2.066766 0.011594 0.000938 -400695.000000 0 0 1
28.878534 -3.369234 -15.358997 32.881913 -0.116144 2.056799 -0.000987 -0.002304 437156.000000 0 0 1
27.973194 -3.601434 -14.301297 31.622729 -0.128042 2.040080 0.004486 -0.006565 -331706.000000 0 0 1
27.966074 -5.113334 -13.881997 31.637909 -0.180843 2.025034 -0.002315 -0.007538 -549789.000000 0 0 1
27.309154 -5.870734 -14.829997 31.625689 -0.211750 2.058867 -0.006663 -0.003458 2564.010000 0 0 1
27.173274 -7.193134 -14.355497 31.562767 -0.258778 2.042971 -0.014668 0.001736 -563359.000000 0 0 1
26.655784 -8.212534 -15.363797 31.843724 -0.298867 2.074274 -0.015873 0.006663 -495178.000000 0 0 1
25.476864 -7.777334 -15.979997 31.063126 -0.296285 2.111146 0.001922 -0.002745 -456379.000000 0 0 1
24.865924 -8.793534 -16.725897 31.231331 -0.339912 2.135954 -0.005831 0.002975 26055.700000 0 0 1
23.393514 -8.430434 -17.011597 30.128444 -0.345887 2.170788 -0.004477 -0.000149 -180870.000000 0 0 1
23.177014 -7.336934 -17.882197 30.179091 -0.306580 2.205000 -0.003174 -0.001746 -38889.900000 0 0 1
21.833514 -7.192534 -18.309397 29.388244 -0.318230 2.243391 0.028947 -0.008708 210495.000000 0 0 1
21.577814 -7.717934 -19.746197 30.250303 -0.343500 2.282019 0.028668 -0.007135 -76737.100000 0 0 1
22.109014 -6.850434 -20.735597 31.075745 -0.300467 2.301320 0.013354 -0.008818 316855.000000 0 0 1
22.113114 -7.389734 -22.051597 32.091602 -0.322511 2.328349 0.022227 -0.013033 -51374.100000 0 0 1
22.656714 -6.284034 -23.037597 32.917269 -0.270558 2.346003 0.020570 -0.012024 18469.500000 0 0 1
22.833514 -6.725534 -24.360697 34.059444 -0.286446 2.367765 0.028974 -0.015277 319869.000000 0 0 1
22.609314 -5.667034 -25.254237 34.366740 -0.245591 2.396235 0.027581 -0.016675 -362771.000000 0 0 1
22.525014 -6.044834 -26.826497 35.546831 -0.262184 2.425963 0.033977 -0.013976 679137.000000 0 0 1
21.308114 -6.682934 -27.287587 35.260597 -0.303917 2.455746 0.042261 -0.011052 670115.000000 0 0 1
21.245914 -6.730234 -28.687297 36.326931 -0.306777 2.481113 0.034367 -0.006287 -568591.000000 0 0 1
19.994914 -7.377234 -29.216647 36.163968 -0.353461 2.511366 0.043518 -0.011742 -549689.000000 0 0 1
20.094814 -8.720534 -28.805757 36.188684 -0.409443 2.491434 0.042286 -0.012360 99254.200000 0 0 1
19.187714 -9.481334 -29.553297 36.489196 -0.458945 2.514811 0.034937 -0.013137 -608145.000000 0 0 1
19.091514 -10.993434 -29.330577 36.682751 -0.522457 2.497382 0.036075 -0.012286 -385309.000000 0 0 1
18.293614 -11.421234 -28.253307 35.543639 -0.558117 2.489624 0.034790 -0.007778 82165.200000 0 0 1
18.562514 -12.743834 -27.781867 35.760374 -0.601632 2.460507 0.036136 -0.011057 -419683.000000 0 0 1
18.298714 -13.994334 -28.714027 36.812765 -0.652888 2.465465 0.028908 -0.011644 79578.800000 0 0 1
17.013314 -13.993734 -29.316557 36.670669 -0.688321 2.497184 0.030397 -0.012056 501888.000000 0 0 1
17.053414 -14.952234 -30.298937 37.847243 -0.719842 2.499023 0.026498 -0.018718 -25671.000000 0 0 1
15.757814 -15.044934 -31.163547 38.024011 -0.762259 2.531466 0.023486 -0.021949 -53963.100000 0 0 1
14.832814 -15.936334 -30.578587 37.537036 -0.821247 2.522878 0.014476 -0.024580 -693793.000000 0 0 1
13.767514 -16.131934 -31.436537 37.921492 -0.864313 2.548096 0.003466 -0.029388 -1003420.000000 0 0 1
12.653214 -16.941534 -30.781837 37.344891 -0.929298 2.539687 0.004557 -0.028820 -310828.000000 0 0 1
13.029714 -18.219434 -30.442227 37.794846 -0.949972 2.507247 -0.003220 -0.030711 -36305.000000 0 0 1
11.934414 -18.777034 -29.771717 37.166684 -1.004621 2.499814 0.003651 -0.021195 -78489.500000 0 0 1
12.377314 -19.990734 -28.966537 37.308010 -1.016413 2.459755 0.002073 -0.017845 -447192.000000 0 0 1
13.094914 -19.589934 -27.823947 36.461134 -0.981559 2.438912 -0.006259 -0.012951 -270735.000000 0 0 1
13.056914 -20.569134 -26.819667 36.233504 -1.005194 2.404149 -0.004906 -0.002073 7542.850000 0 0 1
13.997914 -20.292834 -25.602227 35.541732 -0.966952 2.375093 -0.019747 0.008724 -791541.000000 0 0 1
15.300614 -20.604734 -25.935207 36.486968 -0.932063 2.361442 -0.014337 -0.001038 -824471.000000 0 0 1
16.152014 -20.650534 -24.811097 36.096020 -0.907029 2.328650 -0.008611 0.007322 1447530.000000 0 0 1
17.638714 -21.172134 -25.158837 37.314214 -0.876190 2.310735 -0.014000 0.008088 1582840.000000 0 0 1
17.756714 -22.530534 -25.411147 38.322999 -0.903343 2.295720 -0.011306 0.003798 105616.000000 0 0 1
17.687314 -23.245534 -24.195197 37.928927 -0.920361 2.262576 -0.019707 0.004852 -680093.000000 0 0 1
18.261614 -24.667334 -24.292097 39.141664 -0.933522 2.240329 -0.021126 -0.004867 328749.000000 0 0 1
19.692514 -24.699434 -24.229497 39.811125 -0.897712 2.225105 -0.006625 -0.005509 611707.000000 0 0 1
20.189614 -26.023894 -24.129797 40.830267 -0.910980 2.203067 -0.001843 -0.016937 -248872.000000 0 0 1
20.236514 -26.534564 -22.610997 40.309512 -0.919250 2.166311 0.007084 -0.015986 -1533180.000000 0 0 1
19.007214 -26.705524 -22.005397 39.480333 -0.952239 2.162019 -0.005329 -0.009963 -748387.000000 0 0 1
19.159014 -26.932994 -20.629497 38.961906 -0.952488 2.128782 -0.004983 -0.009744 -243537.000000 0 0 1
17.893014 -27.427484 -19.902597 38.321537 -0.992753 2.116896 0.000050 -0.012089 -802441.000000 0 0 1
17.537414 -28.733304 -20.274597 39.296602 -1.022800 2.112898 0.008569 -0.009046 243217.000000 0 0 1
16.502914 -29.369684 -19.520197 38.935364 -1.058860 2.095953 0.018780 -0.002892 -487560.000000 0 0 1
15.118214 -28.868284 -19.826497 38.144832 -1.088372 2.117377 0.024878 -0.002439 -1791410.000000 0 0 1
14.706114 -27.627294 -19.328197 36.784730 -1.081641 2.124029 0.021827 -0.002565 -283408.000000 0 0 1
13.407614 -27.361664 -19.814797 36.346265 -1.115169 2.147385 0.022032 0.006573 -218913.000000 0 0 1
12.612314 -26.404944 -18.954397 34.864892 -1.125188 2.145579 0.009191 -0.009477 -592954.000000 0 0 1
12.127114 -27.009994 -17.763197 34.527349 -1.148786 2.111183 0.007552 -0.008192 378860.000000 0 0 1
11.128314 -26.176374 -17.144097 33.210872 -1.168817 2.113227 0.002015 -0.015760 1285880.000000 0 0 1
9.618014 -26.362914 -17.520197 33.082726 -1.220970 2.128910 -0.005823 -0.004175 537769.000000 0 0 1
8.958614 -27.410194 -16.737397 33.342405 -1.254906 2.096689 -0.000565 0.000729 654544.000000 0 0 1
7.537914 -27.307944 -16.875197 32.974479 -1.301469 2.108035 -0.005266 0.011577 909188.000000 0 0 1
6.985314 -28.236714 -17.995797 34.204610 -1.328281 2.124830 -0.004423 0.012119 -393131.000000 0 0 1
7.003214 -27.638874 -19.289297 34.424255 -1.322636 2.165593 0.001152 0.015325 -40636.100000 0 0 1
6.373014 -28.435164 -20.268397 35.496222 -1.350315 2.178522 0.000676 0.013458 -256723.000000 0 0 1
6.423414 -27.895154 -21.672297 35.903876 -1.344472 2.218830 0.005429 0.007602 -169864.000000 0 0 1
5.707314 -26.656164 -21.788197 34.897708 -1.359872 2.245089 0.004677 0.010964 211444.000000 0 0 1
5.749914 -26.018734 -23.059297 35.238718 -1.353301 2.284151 0.007515 0.009171 -1432080.000000 0 0 1
4.510214 -25.212884 -23.253397 34.594104 -1.393783 2.307943 0.000785 0.015824 -1461380.000000 0 0 1
3.469414 -26.132374 -23.352097 35.217300 -1.438805 2.295730 -0.003435 0.016373 27498.700000 0 0 1
2.278414 -25.576534 -23.941397 35.107560 -1.481949 2.321214 0.000694 0.012843 828719.000000 0 0 1
1.290814 -26.610074 -24.505797 36.198016 -1.522326 2.314465 -0.013616 0.011645 -516524.000000 0 0 1
1.828514 -27.334054 -25.558817 37.466613 -1.504001 2.321531 -0.006930 0.015394 -412225.000000 0 0 1
0.887314 -28.043044 -26.285357 38.446322 -1.539166 2.323603 0.000919 0.006411 -362818.000000 0 0 1
1.561014 -28.865804 -27.427837 39.849186 -1.516771 2.329927 0.005907 0.008132 -350051.000000 0 0 1
2.020714 -28.067834 -28.474947 40.033851 -1.498926 2.362102 0.005154 0.006215 164092.000000 0 0 1
2.519314 -28.851804 -29.585357 41.401291 -1.483698 2.366848 0.012918 0.007746 749924.000000 0 0 1
3.962814 -29.474444 -29.511767 41.897388 -1.437149 2.352348 0.022959 0.008999 360171.000000 0 0 1
4.118814 -30.574724 -28.643747 42.098012 -1.436889 2.319113 0.000038 0.011366 -68931.000000 0 0 1
5.329314 -31.238744 -28.925127 42.905987 -1.401824 2.310611 -0.000193 0.014218 -38764.700000 0 0 1
5.582114 -32.237214 -27.854177 42.968048 -1.399339 2.276084 0.007689 -0.002285 -376512.000000 0 0 1
4.653814 -33.283344 -27.890277 43.672721 -1.431873 2.263500 -0.000590 -0.003583 10490.900000 0 0 1
5.117414 -34.382898 -27.079727 44.064535 -1.423045 2.232608 -0.006428 -0.004093 -635453.000000 0 0 1
4.081914 34.076920 -26.797867 43.543359 1.451579 2.233727 -0.003148 -0.002525 -805331.000000 0 0 1
3.606714 33.387042 -27.941927 43.685858 1.463186 2.264788 -0.006978 -0.000596 225939.000000 0 0 1
2.324814 32.849732 -27.622977 42.983002 1.500143 2.268747 -0.029287 0.007649 198788.000000 0 0 1
1.322814 33.221562 -28.737767 43.946345 1.530999 2.283562 -0.027410 0.013548 -570228.000000 0 0 1
1.245914 32.230092 -29.769237 43.892352 1.532159 2.316152 -0.021253 0.010451 169563.000000 0 0 1
0.456414 32.609972 -30.891137 44.920829 1.556801 2.329084 -0.019818 0.005702 54558.300000 0 0 1
0.145114 31.527612 -31.951417 44.887686 1.566194 2.362865 -0.015187 0.006524 -417461.000000 0 0 1
1.125814 31.234472 -32.914317 45.389558 1.534768 2.382051 -0.012593 0.003864 -338359.000000 0 0 1
0.800214 30.154942 -33.725407 45.247806 1.544266 2.411855 -0.007471 0.005618 -534402.000000 0 0 1
1.841714 29.696292 34.491331 45.551219 1.508857 0.711782 -0.007787 0.007764 53038.800000 0 0 1
2.107114 30.673362 33.487160 45.460806 1.502209 0.742743 -0.009605 0.001777 -56040.400000 0 0 1
3.061614 30.269892 32.499469 44.518033 1.469995 0.752432 -0.020007 -0.000610 -42196.700000 0 0 1
2.659914 29.286192 31.376359 43.002698 1.480220 0.753005 -0.016061 0.002921 -176825.000000 0 0 1
2.395614 27.931932 31.676309 42.300358 1.485240 0.724482 -0.006477 -0.000876 -165752.000000 0 0 1
3.528214 27.098042 31.659319 41.821820 1.441323 0.712079 -0.008548 0.004258 -360525.000000 0 0 1
3.267314 25.695802 32.274239 41.383282 1.444321 0.676313 0.008644 0.002160 -345981.000000 0 0 1
2.336014 24.991232 31.496859 40.274939 1.477594 0.672854 0.013331 0.011392 -93715.100000 0 0 1
2.544914 23.624762 31.302699 39.299681 1.463488 0.649291 0.013231 0.005176 -435691.000000 0 0 1
1.757414 22.976262 30.166819 37.960954 1.494457 0.652316 0.018731 0.017031 1054150.000000 0 0 1
0.415414 22.609662 30.572179 38.026668 1.552425 0.636860 0.000438 0.024161 743239.000000 0 0 1
-0.375386 22.267362 29.483289 36.949163 -1.553940 0.646923 0.012921 0.025535 70577.800000 0 0 1
-1.773686 21.657362 29.725199 36.820846 -1.489081 0.631246 0.009898 0.028690 309347.000000 0 0 1
-2.643386 22.514262 30.462619 37.971708 -1.453922 0.639750 0.013154 0.020707 668665.000000 0 0 1
-3.973186 21.974362 30.437949 37.750861 -1.391919 0.632952 -0.004311 0.021883 442377.000000 0 0 1
-5.068786 22.981262 30.743019 38.716459 -1.353710 0.653344 -0.035116 0.014667 -515805.000000 0 0 1
-5.070386 23.436462 32.083279 40.053880 -1.357734 0.641828 -0.046397 0.016331 141003.000000 0 0 1
-4.598686 24.795822 32.153189 40.863287 -1.387418 0.665112 -0.038523 0.011042 -335952.000000 0 0 1
-4.667986 25.537922 33.487331 42.371888 -1.390006 0.659466 -0.028542 0.016517 -395972.000000 0 0 1
-5.999486 25.773182 33.850631 42.966451 -1.342089 0.663505 -0.046892 0.020728 -318879.000000 0 0 1
-6.061986 26.177042 -34.116694 43.427341 -1.343231 2.474468 -0.043820 0.012465 -240453.000000 0 0 1
-7.388386 26.734072 -33.590467 43.561661 -1.301161 2.451366 -0.022965 0.013216 -435046.000000 0 0 1
-7.581686 28.097342 -33.930087 44.701156 -1.307237 2.432638 -0.014651 0.005615 855791.000000 0 0 1
-8.834086 28.681892 -33.488887 44.968851 -1.272014 2.410901 0.002006 -0.003457 953446.000000 0 0 1
-9.042986 28.956292 -31.985067 44.082728 -1.268096 2.382657 0.012810 -0.003631 -99767.000000 0 0 1
-8.302686 30.120282 -31.576827 44.421413 -1.301825 2.361498 0.012915 -0.001985 476494.000000 0 0 1
-8.439986 30.303172 -30.216947 43.618568 -1.299162 2.336097 0.020797 -0.009670 -303821.000000 0 0 1
-8.034686 31.644302 -29.657527 44.107674 -1.322145 2.308228 0.015280 -0.012448 246095.000000 0 0 1
-6.628386 31.832772 -29.730477 44.058621 -1.365505 2.311481 -0.006939 -0.008405 165549.000000 0 0 1
-6.118286 33.054732 -29.211627 44.535018 -1.387772 2.286204 0.002052 -0.004212 277327.000000 0 0 1
-4.556486 33.051802 -29.294967 44.400205 -1.433801 2.291340 0.004366 -0.002823 175153.000000 0 0 1
-3.939486 34.245502 -28.821937 44.933039 -1.456263 2.267173 0.004099 -0.006494 -69752.100000 0 0 1
-4.150386 -34.099172 -29.640137 45.370882 1.449677 2.282712 0.013592 -0.005525 -343074.000000 0 0 1
-3.239786 -34.062009 -30.906607 46.107863 1.475967 2.305424 0.011110 -0.002184 68188.700000 0 0 1
-3.557286 34.458325 -31.897767 47.090317 -1.467926 2.314984 0.009110 -0.002774 259170.000000 0 0 1
-4.394686 -34.588225 -32.954117 47.975331 1.444416 2.328007 0.021744 -0.002959 746052.000000 0 0 1
-3.501886 -33.871564 -34.066867 48.167390 1.467775 2.356411 0.003227 0.002051 705380.000000 0 0 1
-2.968986 -32.609814 -33.704777 46.991774 1.480001 2.370642 0.015336 0.003721 745437.000000 0 0 1
-1.784686 -32.301614 -34.458931 47.265181 1.515602 2.387737 0.022675 0.001905 771752.000000 0 0 1
30.956744 20.335066 12.730999 39.165204 0.581201 1.239722 0.023781 -0.013894 -603648.000000 0 0 1
31.780454 19.422166 13.342099 39.562980 0.548567 1.226816 0.020764 -0.014001 -202095.000000 0 0 1
31.416614 18.078166 13.018699 38.513766 0.522160 1.225976 0.016006 -0.019448 30168.600000 0 0 1
32.405664 17.027966 13.620699 39.058956 0.483810 1.214590 0.037268 -0.025038 456999.000000 0 0 1
33.605364 16.843666 12.898399 39.741643 0.464623 1.240254 0.029344 -0.014029 729202.000000 0 0 1
34.396812 15.712766 13.399399 40.119516 0.428502 1.230266 0.022083 -0.016580 559455.000000 0 0 1
-34.163914 15.256266 12.597099 39.479280 -0.419990 1.246036 0.020193 -0.019188 270254.000000 0 0 1
-33.377408 14.222766 13.185799 38.603157 -0.402819 1.222206 0.021663 -0.013437 -81478.100000 0 0 1
-33.998458 12.956466 13.480999 38.800805 -0.364099 1.215955 0.018237 -0.016212 -524258.000000 0 0 1
-33.398778 12.122266 14.615399 38.419235 -0.348169 1.180547 0.016612 -0.010463 -191764.000000 0 0 1
-33.537108 12.719066 15.866599 39.220673 -0.362495 1.154313 0.024379 -0.013759 -52734.800000 0 0 1
-32.869368 12.033266 16.868399 38.855343 -0.350940 1.121720 0.023422 -0.011297 -293585.000000 0 0 1
-32.796298 12.790466 18.190699 39.624421 -0.371854 1.093839 0.026288 -0.003354 56227.100000 0 0 1
-33.958438 12.690666 18.985999 40.923058 -0.357641 1.088354 0.029396 0.000415 350216.000000 0 0 1
-33.724458 13.468766 20.169999 41.540048 -0.379969 1.063798 0.027824 -0.001519 615967.000000 0 0 1
34.722150 13.462866 20.934999 42.721781 0.369885 1.058671 0.030889 -0.000986 544348.000000 0 0 1
34.567352 12.252366 21.659199 42.592759 0.340633 1.037333 0.020286 0.012445 -23228.600000 0 0 1
33.398084 12.287766 22.439199 42.070641 0.352548 1.008217 0.020667 0.003744 24273.600000 0 0 1
33.336674 11.135666 23.481299 42.269472 0.322383 0.981815 0.003410 0.005535 -544390.000000 0 0 1
34.342294 11.414066 24.421809 43.658891 0.320876 0.977161 0.010685 0.017768 -187546.000000 0 0 1
33.939981 11.746466 25.761289 44.198934 0.333192 0.948566 0.005402 0.018744 -1069060.000000 0 0 1
-34.773068 11.991866 26.808289 45.515442 -0.332089 0.940984 0.006330 0.015832 373883.000000 0 0 1
-33.859538 13.036166 26.411289 44.877234 -0.367515 0.941565 0.007857 0.005622 1258240.000000 0 0 1
-32.684738 12.653666 25.678179 43.448547 -0.369374 0.938496 0.005353 0.003799 -143110.000000 0 0 1
-31.600698 13.673066 25.418629 42.797938 -0.408360 0.934872 -0.001379 -0.001805 151283.000000 0 0 1
-30.762568 14.060466 26.524889 42.983741 -0.428713 0.905756 -0.022022 -0.004174 697076.000000 0 0 1
-31.493258 14.845966 27.489929 44.361291 -0.440508 0.902458 -0.020019 0.005801 -590377.000000 0 0 1
-30.600668 15.714666 28.377809 44.594300 -0.474421 0.881032 -0.017224 0.024015 -469026.000000 0 0 1
-30.004788 16.761966 27.634799 44.101393 -0.509455 0.893588 -0.000424 0.005344 -12645.500000 0 0 1
-29.320708 17.730366 28.424649 44.520000 -0.543872 0.878289 0.007956 -0.004197 -242633.000000 0 0 1
-28.860558 18.846666 27.524009 44.110086 -0.578499 0.896965 0.019356 0.008696 -463593.000000 0 0 1
-29.873718 19.680366 26.965629 44.798448 -0.582526 0.924878 0.007047 -0.013727 232315.000000 0 0 1
-29.352978 20.790866 26.306229 44.563158 -0.616278 0.939349 0.019090 -0.021914 -418588.000000 0 0 1
-30.434428 21.824666 26.005779 45.594637 -0.622113 0.963841 0.025255 -0.003909 -247407.000000 0 0 1
-30.927228 22.609166 27.077849 46.913513 -0.631259 0.955517 0.020776 -0.012951 571332.000000 0 0 1
-32.035208 23.412366 26.658179 47.802217 -0.631121 0.979212 0.020702 -0.008720 -80486.100000 0 0 1
-31.876058 24.855966 26.188599 48.163729 -0.662283 0.995908 0.022671 -0.015085 -1060830.000000 0 0 1
-33.104458 25.330666 25.788449 49.016241 -0.653142 1.016764 0.010460 -0.005375 -646037.000000 0 0 1
-33.046428 26.705866 25.651549 49.631357 -0.679680 1.027639 0.023777 -0.011415 284273.000000 0 0 1
-33.990288 27.203866 24.516189 49.964322 -0.674950 1.057933 0.022651 -0.006152 186663.000000 0 0 1
-33.485778 26.804766 23.265299 48.796177 -0.675035 1.073802 0.014007 -0.004236 177679.000000 0 0 1
-34.435216 27.255566 22.323699 49.264566 -0.669538 1.100513 0.010971 -0.013944 -290314.000000 0 0 1
-33.901908 27.053066 20.906999 48.148835 -0.673508 1.121628 0.009216 -0.017718 -9957.350000 0 0 1
-34.036838 25.792566 20.319499 47.293179 -0.648464 1.126692 0.002094 -0.015595 121915.000000 0 0 1
-33.275438 25.645566 19.139599 46.165724 -0.656622 1.143310 0.006121 -0.010490 -187969.000000 0 0 1
-33.476628 24.303366 18.381099 45.268123 -0.627950 1.152669 -0.001817 -0.002051 -297832.000000 0 0 1
-34.791690 24.067466 17.963699 45.960843 -0.605174 1.169244 -0.009008 -0.004869 -432735.000000 0 0 1
-34.775067 23.057166 16.952699 45.037009 -0.585486 1.184870 -0.007569 0.001459 339775.000000 0 0 1
33.653644 23.025966 16.210699 43.881084 0.600046 1.192408 -0.015775 0.000418 939557.000000 0 0 1
32.793024 22.033166 16.831699 42.943554 0.591607 1.168047 -0.011943 0.000074 111197.000000 0 0 1
31.816634 21.633366 15.903599 41.632021 0.597135 1.178833 -0.007926 -0.003698 -486377.000000 0 0 1
30.699934 20.685466 16.464299 40.514782 0.592921 1.152310 -0.009939 -0.004078 600672.000000 0 0 1
29.836864 21.236366 17.440499 40.563440 0.618568 1.126352 -0.016523 0.002742 719187.000000 0 0 1
28.855844 22.168166 16.926199 40.132075 0.655072 1.135408 -0.014995 0.001913 -61453.700000 0 0 1
28.030614 22.915866 17.969899 40.419914 0.685339 1.110091 -0.012672 0.005356 -40563.200000 0 0 1
28.747644 23.926266 18.730799 41.829846 0.694120 1.106509 -0.022982 0.008152 -208396.000000 0 0 1
28.085344 24.431166 19.841299 42.182289 0.715929 1.081086 -0.021430 0.010631 -530327.000000 0 0 1
29.046284 25.144266 20.793199 43.683839 0.713517 1.074704 -0.011198 -0.001932 -337448.000000 0 0 1
29.486864 26.410666 20.564699 44.608354 0.730421 1.091668 -0.007967 -0.007390 435380.000000 0 0 1
30.492554 26.799566 21.509999 45.942275 0.721028 1.083548 -0.006399 -0.011694 251417.000000 0 0 1
31.595984 27.754566 20.984099 46.999516 0.720764 1.107975 0.004807 -0.014923 511211.000000 0 0 1
32.516494 28.389866 21.923499 48.414322 0.717748 1.100859 0.011034 -0.016437 224001.000000 0 0 1
31.994564 29.226766 22.893399 49.009832 0.740219 1.084767 0.000460 -0.010430 -731395.000000 0 0 1
32.821494 29.495766 24.171499 50.314133 0.732081 1.069672 0.002242 -0.016226 -103935.000000 0 0 1
34.026426 30.202966 23.985499 51.432683 0.725940 1.085639 0.017733 -0.011398 -95948.200000 0 0 1
34.478071 30.771366 25.232199 52.652428 0.728651 1.071028 0.018747 -0.008540 -12921.500000 0 0 1
-33.984808 31.506566 25.037859 52.673762 -0.747575 1.075448 0.021078 -0.010822 216096.000000 0 0 1
-32.893478 30.642466 24.717659 51.302088 -0.749984 1.068082 0.010840 -0.008642 -7620.980000 0 0 1
-31.707128 31.391466 24.770369 51.032708 -0.780396 1.063996 0.018975 -0.006347 -708466.000000 0 0 1
-30.446898 30.768166 24.223299 49.603042 -0.790646 1.060606 0.026222 -0.009120 -759890.000000 0 0 1
-30.440748 30.384466 22.838399 48.697509 -0.784473 1.082655 0.002257 0.000653 144804.000000 0 0 1
-31.052928 29.143766 22.498399 48.164524 -0.753693 1.084771 -0.003682 0.002161 -287177.000000 0 0 1
-30.510878 27.877366 23.208999 47.399566 -0.740325 1.059113 0.003541 0.003486 -927049.000000 0 0 1
-29.172788 27.547766 22.939599 46.218569 -0.756756 1.051432 0.000191 0.005937 137792.000000 0 0 1
-28.498928 26.731566 23.910399 45.809089 -0.753409 1.021652 0.002306 0.000820 250870.000000 0 0 1
-28.218888 27.265366 25.309969 46.693686 -0.768214 0.997930 0.026290 -0.007470 -628881.000000 0 0 1
-29.370908 27.458266 26.102879 47.937114 -0.751755 0.994976 0.016090 -0.002673 -80685.900000 0 0 1
-29.062278 28.060366 27.358099 48.790016 -0.767860 0.975527 0.029061 -0.004134 99430.900000 0 0 1
-30.279458 28.422066 28.278529 50.242757 -0.753767 0.972981 0.026783 -0.012667 217538.000000 0 0 1
-30.871528 27.228466 28.744579 50.206488 -0.722777 0.961211 0.016482 -0.006537 232631.000000 0 0 1
-31.761608 27.514566 29.831939 51.534412 -0.713872 0.953449 0.012666 -0.003477 -51850.200000 0 0 1
-32.353138 26.282866 30.420589 51.603554 -0.682241 0.940350 0.013734 -0.001971 -361844.000000 0 0 1
-31.473448 25.493566 31.188319 51.119576 -0.680810 0.914603 0.011195 -0.007846 -187081.000000 0 0 1
-32.100738 24.342966 31.654669 51.235295 -0.648811 0.904817 0.006768 -0.015820 -282276.000000 0 0 1
-31.322468 23.561866 32.738549 51.069277 -0.644930 0.874916 0.009809 -0.020375 -733656.000000 0 0 1
-30.277608 22.843166 32.156239 49.724918 -0.646348 0.867569 0.019469 -0.015794 -165781.000000 0 0 1
-29.468068 22.067066 33.030039 49.460144 -0.642763 0.839532 0.012275 -0.014627 976279.000000 0 0 1
-28.500188 22.723666 34.113628 49.923595 -0.673102 0.818501 0.016913 -0.013878 225766.000000 0 0 1
-29.259298 23.424366 -34.166570 50.716486 -0.675094 2.309970 0.022874 -0.020369 388478.000000 0 0 1
-29.160198 22.923266 -32.828857 49.533091 -0.666217 2.295303 0.012513 -0.007395 355437.000000 0 0 1
-27.836688 23.398266 -32.131667 48.526323 -0.698985 2.294479 0.022145 -0.017799 400811.000000 0 0 1
-27.879118 24.757166 -31.713637 48.948108 -0.726156 2.275625 0.010186 -0.011456 -328447.000000 0 0 1
-26.963678 25.097666 -30.729847 47.971411 -0.749571 2.266058 0.026006 -0.006503 -570713.000000 0 0 1
-27.244648 26.475766 -30.008037 48.411975 -0.771086 2.239345 0.002041 0.008456 -398184.000000 0 0 1
-26.946648 27.709966 -30.592007 49.293356 -0.799363 2.240318 0.004467 0.008184 -239791.000000 0 0 1
-27.808478 28.165166 -31.580817 50.635324 -0.791770 2.244253 0.006589 0.004349 -574581.000000 0 0 1
-27.607278 29.660166 -32.050547 51.663573 -0.821230 2.240011 0.005866 -0.000207 -206496.000000 0 0 1
-28.045328 30.609666 -31.124587 51.886722 -0.829089 2.214118 0.002976 -0.003379 337184.000000 0 0 1
-27.600938 31.902366 -31.594417 52.704648 -0.857562 2.213625 0.005063 -0.021278 -188449.000000 0 0 1
-27.724288 33.091866 -30.627977 52.931849 -0.873429 2.187845 0.003336 -0.015583 -340981.000000 0 0 1
-26.700298 33.256166 -29.702927 51.972515 -0.894309 2.179144 -0.010614 -0.004821 -90727.900000 0 0 1
-27.065258 34.297666 -28.807097 52.332656 -0.902720 2.153713 -0.018575 -0.004951 -533425.000000 0 0 1
-26.162488 34.186166 -27.608107 51.140759 -0.917578 2.141050 -0.000999 -0.001873 974003.000000 0 0 1
-24.860948 -34.662431 -27.612107 50.813180 0.948600 2.145284 -0.026379 -0.009512 1037080.000000 0 0 1
-24.858748 -33.225931 -27.835157 49.967147 0.928465 2.161649 -0.006909 0.000861 -992535.000000 0 0 1
-25.371438 -32.335731 -26.629827 48.974044 0.905501 2.145700 -0.007851 0.005472 600699.000000 0 0 1
-26.801798 -32.292731 -26.544177 49.656320 0.878050 2.134781 -0.008685 -0.000610 558765.000000 0 0 1
-27.174048 -31.465231 -25.438507 48.740202 0.858447 2.119897 -0.012550 -0.001773 -605591.000000 0 0 1
-28.675598 -31.232631 -25.349987 49.400293 0.828055 2.109652 -0.017479 -0.008543 -522327.000000 0 0 1
-29.091838 -30.330631 -26.384857 49.623007 0.806242 2.131410 -0.007718 -0.008737 -12172.100000 0 0 1
-30.492028 -30.378531 -26.478427 50.534404 0.783534 2.122300 -0.014610 -0.008001 -194605.000000 0 0 1
-31.166988 -29.522931 -27.617047 51.045919 0.758315 2.142450 -0.005711 -0.009528 -541899.000000 0 0 1
-32.549538 -29.618531 -27.645197 51.971018 0.738287 2.131680 -0.005768 -0.003598 -872224.000000 0 0 1
-33.123288 -28.794531 -28.617837 52.395208 0.715600 2.148608 -0.003687 -0.008968 529405.000000 0 0 1
-34.661878 -28.999331 -28.723717 53.548659 0.696683 2.136967 -0.005563 -0.011034 683262.000000 0 0 1
34.290575 -28.621931 -27.663807 52.538982 -0.695537 2.125320 -0.015641 0.001477 103797.000000 0 0 1
32.929744 -28.706531 -28.031257 51.905532 -0.716987 2.141285 -0.012200 0.000544 -163023.000000 0 0 1
32.001614 -28.179931 -26.952957 50.444758 -0.721981 2.134483 -0.016238 0.011226 -448342.000000 0 0 1
32.184684 -28.867131 -25.716907 50.304318 -0.731112 2.107408 -0.016325 0.014303 -252746.000000 0 0 1
31.301274 -28.409531 -24.745997 48.981992 -0.737007 2.100417 -0.011195 0.016927 -256720.000000 0 0 1
31.244314 -29.148931 -23.365197 48.701126 -0.750716 2.071186 -0.001760 0.020224 50229.100000 0 0 1
30.566304 -30.405231 -23.440997 49.073998 -0.782756 2.068793 0.005614 0.015128 21022.900000 0 0 1
30.038744 -31.023531 -22.262497 48.583993 -0.801524 2.046796 0.012916 0.000359 -291716.000000 0 0 1
30.916894 -31.286231 -20.972997 48.729346 -0.791336 2.015730 0.001749 0.007913 -772255.000000 0 0 1
31.972904 -32.145131 -21.375597 50.124766 -0.788084 2.011358 -0.015840 0.007024 737784.000000 0 0 1
33.138584 -32.019031 -20.522997 50.443805 -0.768218 1.989798 -0.032768 0.007637 620359.000000 0 0 1
34.050911 -30.854531 -20.832397 50.452506 -0.736191 1.996444 -0.041108 0.013638 -1259460.000000 0 0 1
33.638504 -29.602131 -20.362697 49.218640 -0.721659 1.997332 -0.044728 0.019460 -255363.000000 0 0 1
34.202379 -28.518231 -21.070797 49.265309 -0.695019 2.012744 -0.048382 0.021035 -366450.000000 0 0 1
33.586084 -27.224731 -20.564897 47.876152 -0.681168 2.014784 -0.055155 0.024094 -8644.710000 0 0 1
32.465814 -26.816331 -21.302897 47.190656 -0.690387 2.039155 -0.023813 0.021659 -554253.000000 0 0 1
31.534854 -26.095731 -20.563497 45.807113 -0.691298 2.036347 0.021135 0.017355 -422660.000000 0 0 1
30.296744 -25.721031 -21.397497 45.136648 -0.703896 2.064693 0.021755 0.013490 -76049.200000 0 0 1
29.433464 -26.830631 -21.636597 45.324980 -0.739170 2.068451 0.034663 0.003468 -89973.600000 0 0 1
28.309464 -26.432531 -22.380597 44.732488 -0.751125 2.094766 0.023275 -0.001902 -346553.000000 0 0 1
27.579144 -27.614431 -22.933097 45.266907 -0.786037 2.102056 0.026558 -0.005853 -386869.000000 0 0 1
27.029024 -28.462631 -21.916197 44.955635 -0.811227 2.080029 0.023929 -0.005481 97590.200000 0 0 1
26.585984 -29.639831 -22.617197 45.791611 -0.839659 2.087384 0.020413 -0.002384 -86290.600000 0 0 1
25.854074 -30.630131 -21.650097 45.556171 -0.869753 2.066033 0.024781 0.009456 141428.000000 0 0 1
26.648204 -31.312331 -20.660397 46.015658 -0.865696 2.036427 0.029646 -0.000422 136302.000000 0 0 1
26.922584 -32.648031 -21.052097 47.264259 -0.881216 2.032431 0.035028 0.003073 -33750.300000 0 0 1
27.810824 -33.506731 -20.097197 47.958735 -0.878024 2.003197 0.012617 -0.005555 21177.200000 0 0 1
27.405894 -33.846631 -18.767497 47.422530 -0.890164 1.977681 0.008969 -0.000531 -347422.000000 0 0 1
27.121094 -32.770231 -17.856797 46.133577 -0.879443 1.968245 -0.002268 -0.006469 -250142.000000 0 0 1
26.768764 -33.182131 -16.411897 45.683376 -0.891970 1.938264 0.007051 -0.002581 914638.000000 0 0 1
25.470074 -33.833431 -16.450797 45.431865 -0.925501 1.941314 0.013044 0.000796 956953.000000 0 0 1
25.111804 -34.310931 -15.154497 45.138691 -0.938987 1.913178 0.018740 -0.002291 -536231.000000 0 0 1
23.641514 -34.720831 -15.061597 44.624085 -0.973003 1.915079 0.032757 -0.003916 -181990.000000 0 0 1
22.786014 -33.598931 -14.884897 43.239458 -0.974867 1.922229 0.025241 -0.005070 -239081.000000 0 0 1
21.474214 -34.047731 -14.662797 42.841422 -1.008102 1.920115 0.038803 -0.017654 -282220.000000 0 0 1
-0.384648 -7.149834 -28.803047 29.679683 1.517050 2.897941 0.021575 -0.000507 -96154.600000 0 0 1
-0.092848 -8.514834 -29.036697 30.259557 1.559892 2.856330 0.021479 -0.001540 -107974.000000 0 0 1
-0.184048 -8.904434 -30.437557 31.713841 1.550130 2.856929 0.001130 0.012478 -75700.600000 0 0 1
-0.113148 -10.458334 -30.475597 32.220359 1.559978 2.810997 0.000187 0.012516 303833.000000 0 0 1
1.206052 -10.862934 -30.147827 32.067887 -1.460225 2.793794 -0.018478 0.012188 131346.000000 0 0 1
1.232352 -12.182234 -29.744007 32.165688 -1.469980 2.751075 -0.019520 0.012491 180473.000000 0 0 1
2.604252 -12.671934 -29.205367 31.942346 -1.368105 2.724610 -0.010665 0.009789 -71192.200000 0 0 1
3.595652 -12.697934 -30.223457 32.979139 -1.294852 2.729892 -0.007327 0.010146 -69536.000000 0 0 1
4.866452 -13.122434 -29.779477 32.904375 -1.215669 2.702249 0.009986 -0.002685 236362.000000 0 0 1
5.019252 -14.664034 -29.383847 33.221036 -1.241013 2.656207 0.018409 -0.012104 -1278810.000000 0 0 1
4.610852 -14.973534 -28.088817 32.162841 -1.272077 2.632796 0.026440 -0.008136 20892.200000 0 0 1
5.328852 -16.016134 -27.398067 32.180231 -1.249600 2.589434 0.034558 -0.007510 58857.600000 0 0 1
5.028952 -17.482634 -27.859537 33.272912 -1.290704 2.563129 0.016215 -0.008970 -241376.000000 0 0 1
5.459852 -17.848734 -29.171937 34.632199 -1.273939 2.572399 0.018915 -0.021690 134521.000000 0 0 1
4.990352 -19.140034 -29.422407 35.453103 -1.315746 2.549718 0.009009 -0.016026 -409002.000000 0 0 1
5.437652 -19.505134 -30.841837 36.894948 -1.298919 2.560633 0.007624 -0.020732 -474054.000000 0 0 1
6.816552 -19.499634 -31.114817 37.347462 -1.234502 2.555516 0.004810 -0.017796 -129377.000000 0 0 1
6.985952 -20.097034 -32.431397 38.787753 -1.236251 2.560976 0.013205 -0.022552 1178870.000000 0 0 1
8.477852 -19.916234 -32.943067 39.417966 -1.168354 2.560271 0.001950 -0.018909 1179950.000000 0 0 1
8.673452 -18.594534 -33.421307 39.216951 -1.134346 2.591002 -0.007229 -0.020717 226076.000000 0 0 1
9.891352 -18.492934 -34.141932 40.068678 -1.079642 2.590753 -0.013940 -0.009134 -74408.000000 0 0 1
10.236152 -17.076534 -34.560294 39.884843 -1.030798 2.618948 -0.017487 -0.005582 394717.000000 0 0 1
9.321752 -16.751034 33.644812 38.722933 -1.062985 0.517901 -0.005613 -0.000283 337966.000000 0 0 1
9.460352 -15.445734 33.169399 37.792565 -1.021244 0.499818 -0.015356 0.006556 47651.900000 0 0 1
8.384452 -15.114534 32.105519 36.462481 -1.064331 0.493863 -0.004645 -0.003229 -13250.700000 0 0 1
8.472152 -15.996934 30.950019 35.855027 -1.083742 0.529224 -0.000798 -0.003864 -92357.600000 0 0 1
7.529752 -15.647234 29.969969 34.637150 -1.122286 0.525137 0.005487 0.001621 -475345.000000 0 0 1
7.570052 -16.668834 28.809469 34.134165 -1.144502 0.566086 0.011230 0.015382 -481408.000000 0 0 1
6.956852 -17.932534 28.986569 34.787853 -1.200724 0.585858 0.017434 0.007442 342387.000000 0 0 1
7.143252 -18.732934 27.789199 34.266433 -1.206496 0.624981 0.009621 0.007966 75567.100000 0 0 1
6.797152 -20.261034 28.023829 35.242670 -1.247116 0.651512 0.012499 0.004470 293497.000000 0 0 1
7.622952 -20.752934 29.101029 36.546731 -1.218776 0.649694 0.015778 0.005908 900727.000000 0 0 1
6.995752 -21.889834 29.680569 37.537202 -1.261466 0.658849 0.008368 0.007315 63343.500000 0 0 1
7.429952 -22.158234 31.183539 38.969278 -1.247265 0.643154 0.004433 -0.000015 -203157.000000 0 0 1
6.961152 -21.148634 32.139849 39.098494 -1.252812 0.605842 0.020079 -0.007170 494191.000000 0 0 1
7.248152 -19.752634 31.847819 38.170484 -1.219105 0.583831 0.003660 -0.003870 -284692.000000 0 0 1
6.639152 -18.886634 32.969859 38.571944 -1.232762 0.545703 0.002818 -0.003192 1209240.000000 0 0 1
5.213152 -19.039134 33.161179 38.591830 -1.303535 0.536936 0.017346 -0.009885 928790.000000 0 0 1
4.681752 -18.050834 34.066633 38.836669 -1.317023 0.500845 0.010897 -0.010785 1086760.000000 0 0 1
3.166152 -18.309734 34.393962 39.092397 -1.399568 0.495330 0.012475 -0.009183 868634.000000 0 0 1
2.950352 -19.400334 -34.017217 39.271473 -1.419875 2.618357 0.007138 -0.011024 -154962.000000 0 0 1
2.399352 -19.062634 -32.774247 37.990685 -1.445588 2.611364 -0.008674 -0.020266 -270868.000000 0 0 1
1.976252 -20.328534 -31.967397 37.935067 -1.473885 2.573051 -0.007667 -0.005267 -1229350.000000 0 0 1
0.801152 -20.919634 -32.446047 38.613714 -1.532518 2.568582 -0.005880 -0.003562 -280808.000000 0 0 1
0.001452 -21.622434 -31.554677 38.252154 -1.570729 2.540844 -0.012542 -0.002245 188686.000000 0 0 1
-0.642248 -20.714034 -30.454937 36.837303 1.539801 2.544088 -0.006929 -0.000778 -1012080.000000 0 0 1
-1.512448 -19.711034 -30.931777 36.709497 1.494215 2.572907 -0.006606 -0.002529 -132394.000000 0 0 1
-1.982348 -18.907134 -29.899027 35.431077 1.466331 2.575242 0.008933 0.004720 27015.300000 0 0 1
-2.146848 -17.481934 -30.386107 35.121823 1.448604 2.616272 0.000857 0.012743 -87416.500000 0 0 1
-2.769048 -16.616334 -29.475987 33.950022 1.405668 2.622394 0.009884 0.012530 -381393.000000 0 0 1
-2.700348 -15.319834 -30.005547 33.798255 1.396324 2.663304 0.011272 0.009152 374087.000000 0 0 1
-3.636048 -14.181934 -29.404517 32.847735 1.319816 2.679623 0.022823 0.006803 522542.000000 0 0 1
-3.291848 -13.770434 -28.097397 31.463071 1.336148 2.674826 0.012560 0.004897 411316.000000 0 0 1
-4.351348 -12.905134 -27.688047 30.856193 1.245588 2.684468 0.019032 0.001728 435491.000000 0 0 1
-4.594348 -12.537234 -26.196827 29.403469 1.219537 2.670215 0.022601 -0.007016 -429962.000000 0 0 1
-4.948248 -13.567534 -25.285857 29.119370 1.221075 2.622666 0.014016 -0.000676 238215.000000 0 0 1
-4.816548 -13.245634 -23.876197 27.725777 1.222028 2.608334 0.007824 -0.007784 -820177.000000 0 0 1
-5.958648 -12.433934 -23.312597 27.084781 1.123907 2.607492 0.002974 -0.011324 -893638.000000 0 0 1
-7.146548 -13.162034 -23.256897 27.662168 1.073369 2.569459 -0.003161 -0.003654 -667999.000000 0 0 1
-8.272148 -12.341334 -23.019797 27.397956 0.980296 2.568451 -0.004342 -0.005755 286131.000000 0 0 1
-9.595848 -13.100634 -23.305297 28.404996 0.938608 2.533020 -0.015906 -0.004259 159116.000000 0 0 1
-9.896048 -14.085134 -22.312297 28.180869 0.958335 2.484470 -0.009125 -0.000069 -208056.000000 0 0 1
-11.068448 -14.795034 -22.659397 29.237850 0.928500 2.457515 -0.023615 0.009763 -6800.520000 0 0 1
-11.494248 -15.766134 -21.529897 29.055553 0.940841 2.405341 -0.002252 0.008782 -413800.000000 0 0 1
-10.650348 -16.869734 -21.344897 29.216818 1.007659 2.389951 -0.000214 0.010623 -633238.000000 0 0 1
-11.152448 -18.167434 -21.603797 30.350565 1.020240 2.362866 -0.007898 0.019570 -264585.000000 0 0 1
-11.559448 -18.650934 -22.992297 31.782447 1.015961 2.379550 -0.011198 0.024793 21501.500000 0 0 1
-12.705348 -17.957734 -23.470997 32.168211 0.955045 2.388582 -0.017127 0.020756 -183814.000000 0 0 1
-13.025448 -18.286934 -24.812197 33.462208 0.951875 2.406098 -0.010768 0.017362 -112080.000000 0 0 1
-14.124348 -17.354734 -25.355927 33.817259 0.887660 2.418545 -0.003776 0.011437 -889253.000000 0 0 1
-15.351548 -17.834034 -24.917197 34.272285 0.860065 2.384792 0.013269 0.014909 -662278.000000 0 0 1
-16.473648 -17.297634 -25.604817 35.017080 0.809792 2.390889 0.026161 0.014104 494372.000000 0 0 1
-17.113148 -15.973234 -25.063697 34.295670 0.750959 2.390308 0.015366 0.011528 -602229.000000 0 0 1
-17.946648 -16.239834 -23.956297 34.054641 0.735513 2.351059 0.015474 0.014850 -1105.010000 0 0 1
-18.479748 -14.985834 -23.642997 33.542028 0.681372 2.353046 0.000490 0.008471 -293996.000000 0 0 1
-19.485148 -14.935234 -22.490997 33.295302 0.653973 2.312440 -0.001371 -0.001974 -238669.000000 0 0 1
-18.849348 -15.001634 -21.251197 32.124139 0.672218 2.293658 0.000334 0.001496 602918.000000 0 0 1
-19.769048 -15.301434 -20.173997 32.123812 0.658691 2.249787 -0.022581 -0.000626 271005.000000 0 0 1
-20.204648 -14.093934 -19.288197 31.287399 0.609086 2.235066 -0.019902 -0.003181 -312762.000000 0 0 1
-21.088048 -13.269934 -20.002697 31.951601 0.561659 2.247249 -0.015374 -0.006794 205010.000000 0 0 1
-21.665648 -12.264934 -19.124897 31.394117 0.515120 2.225832 -0.020828 -0.002920 -130609.000000 0 0 1
-23.060848 -11.827434 -19.575497 32.479085 0.473898 2.217690 -0.019641 0.004772 -370828.000000 0 0 1
-23.136948 -11.006734 -20.703997 32.941191 0.444037 2.250437 -0.027568 0.003621 -970291.000000 0 0 1
-24.462248 -10.745834 -20.996697 33.981404 0.413905 2.236850 -0.025548 0.004348 -935947.000000 0 0 1
-24.765648 -9.915534 -22.224297 34.721384 0.380829 2.265392 -0.021274 0.002691 -385532.000000 0 0 1
-24.416648 -10.496734 -23.458897 35.449598 0.406014 2.293952 -0.026650 0.005789 387313.000000 0 0 1
-25.218768 -9.968934 -24.499097 36.545474 0.376447 2.305508 -0.010684 -0.002874 78409.800000 0 0 1
-24.769048 -10.645234 -25.835367 37.340232 0.405912 2.334901 -0.018572 -0.007425 -39125.200000 0 0 1
-23.791448 -9.911134 -26.532757 36.989874 0.394721 2.370713 -0.015477 -0.011296 54743.700000 0 0 1
-22.665448 -10.734334 -26.770507 36.682537 0.442305 2.388809 -0.017040 -0.005827 575218.000000 0 0 1
-21.777948 -10.339934 -28.026017 36.968242 0.443276 2.431207 -0.001402 -0.017159 407879.000000 0 0 1
-22.416848 -10.757234 -29.199997 38.351962 0.447417 2.436219 0.020155 -0.005311 -17488.100000 0 0 1
-21.531648 -10.807234 -30.265217 38.683220 0.465185 2.469284 0.023421 0.000578 118295.000000 0 0 1
-22.347748 -11.301734 -31.506957 40.247228 0.468214 2.470006 0.019242 -0.002126 1023990.000000 0 0 1
-23.415348 -10.493534 -32.013237 41.027309 0.421312 2.465927 0.017143 -0.007431 787025.000000 0 0 1
-22.902548 -9.452534 -32.865067 41.158106 0.391431 2.495609 0.012690 -0.010576 -353946.000000 0 0 1
-23.974248 -8.407034 -33.247837 41.843296 0.337271 2.489111 0.026173 -0.019127 54727.100000 0 0 1
-25.067478 -8.772934 -34.109041 43.229267 0.336651 2.480019 0.034038 -0.017430 1677900.000000 0 0 1
-26.143018 -9.491534 -33.474897 43.521435 0.348264 2.448320 0.040658 -0.009877 320004.000000 0 0 1
-27.137898 -8.634534 -32.640167 43.317447 0.308044 2.424182 0.027487 0.001840 -410629.000000 0 0 1
-28.508098 -8.910834 -32.798707 44.360678 0.302950 2.402922 0.008492 0.007012 -152023.000000 0 0 1
-29.281208 -8.606134 -31.682397 43.991237 0.285863 2.374884 0.017562 0.011052 -235592.000000 0 0 1
-30.696738 -9.198034 -31.760027 45.117545 0.291128 2.351725 0.005330 0.008584 -271480.000000 0 0 1
-30.718438 -10.597634 -31.991637 45.600407 0.332207 2.348387 0.008730 0.005630 -122192.000000 0 0 1
-31.962158 -11.141434 -31.653427 46.342751 0.335411 2.322698 -0.003265 0.005359 -498505.000000 0 0 1
-32.039818 -12.643434 -31.952247 46.982470 0.375857 2.318680 0.000751 -0.000106 -1155210.000000 0 0 1
-33.269718 -13.241934 -31.781947 47.878128 0.378796 2.296697 -0.020247 -0.004148 -873645.000000 0 0 1
-33.161888 -14.653534 -31.894347 48.287537 0.416080 2.292293 -0.022034 -0.003207 52789.400000 0 0 1
-34.310479 -15.500834 -31.326037 48.977601 0.424334 2.264773 -0.028980 -0.009289 -53172.900000 0 0 1
-34.293528 -15.515234 -29.905587 48.074033 0.424868 2.242185 -0.015966 -0.006422 -1116650.000000 0 0 1
34.319466 -15.987734 -29.441157 47.960558 -0.435957 2.231740 -0.015449 -0.003166 -1103540.000000 0 0 1
34.263819 -15.926234 -27.905387 46.971958 -0.435103 2.206925 -0.010557 -0.003549 150794.000000 0 0 1
-34.559680 -16.826434 -27.387407 47.197144 0.453097 2.189865 -0.007815 -0.011038 430572.000000 0 0 1
-34.404343 -16.876834 -26.018837 46.319178 0.456054 2.167271 -0.004668 -0.005492 1029250.000000 0 0 1
-33.140248 -16.068834 -25.424787 44.753807 0.451474 2.174996 0.016221 0.000161 1112300.000000 0 0 1
-31.931998 -16.719534 -25.711007 44.274724 0.482347 2.190403 0.001538 0.007588 -444921.000000 0 0 1
-30.786808 -16.139634 -25.147567 42.903560 0.482850 2.197085 0.010232 0.017084 373764.000000 0 0 1
-29.468578 -16.895034 -25.473757 42.458822 0.520574 2.214252 0.010640 0.018128 287134.000000 0 0 1
-29.226538 -18.143134 -24.821597 42.420225 0.555556 2.195844 0.004898 0.012855 -89899.400000 0 0 1
-29.726998 -19.289334 -25.491397 43.652997 0.575589 2.194389 -0.004373 0.009622 -86045.500000 0 0 1
-29.668448 -20.634234 -24.702897 43.774668 0.607696 2.170405 -0.005601 0.000630 -393547.000000 0 0 1
-28.446998 -21.328534 -24.653997 43.266126 0.643350 2.177086 0.001976 0.008137 -99732.900000 0 0 1
-28.598198 -22.460034 -23.818097 43.469665 0.665753 2.150678 -0.019051 0.021783 -86651.600000 0 0 1
-27.266718 -23.235434 -23.851997 43.038089 0.705743 2.158206 0.008484 0.007821 -133173.000000 0 0 1
-26.131568 -22.656534 -23.285897 41.694249 0.714291 2.163363 0.019880 0.006901 -357295.000000 0 0 1
-26.039788 -22.403434 -21.856197 40.714589 0.710474 2.137454 0.007033 0.005239 -522744.000000 0 0 1
-25.911258 -23.680334 -20.900797 40.853333 0.740443 2.107849 0.008112 0.006949 -122142.000000 0 0 1
-25.814688 -23.358934 -19.521997 39.914237 0.735499 2.081852 0.000628 0.004435 -35091.100000 0 0 1
-25.673148 -24.508434 -18.727997 40.131182 0.762192 2.056318 -0.001058 0.031399 -241674.000000 0 0 1
-25.591528 -24.244134 -17.206897 39.227308 0.758368 2.024888 -0.007235 0.019506 376388.000000 0 0 1
-26.749528 -23.668234 -16.578597 39.377309 0.724359 2.005365 -0.006356 0.019308 318349.000000 0 0 1
-26.437478 -22.648734 -15.656597 38.171121 0.708365 1.993435 -0.009742 0.023856 -352689.000000 0 0 1
-27.669328 -22.113334 -14.917297 38.433280 0.674253 1.969403 -0.013696 0.021768 362366.000000 0 0 1
-28.467088 -21.210334 -15.726997 38.827720 0.640347 1.987825 -0.012445 0.019379 1119230.000000 0 0 1
-29.699778 -20.812034 -15.081997 39.277019 0.611227 1.964910 -0.006661 0.011272 749849.000000 0 0 1
-30.578758 -19.922634 -16.000697 39.849644 0.577442 1.983980 -0.007237 0.003451 -278361.000000 0 0 1
-31.225378 -20.793534 -16.882097 41.138796 0.587484 1.993655 -0.014369 0.020719 -243208.000000 0 0 1
-32.060448 -20.037934 -17.777897 41.778520 0.558603 2.010341 -0.018746 0.021048 -3304.990000 0 0 1
-32.857098 -20.900534 -18.785497 43.235589 0.566544 2.020270 -0.028294 0.029136 265846.000000 0 0 1
-33.958528 -21.642334 -18.295797 44.230176 0.567407 1.997255 -0.027689 0.025299 -80513.300000 0 0 1
-33.688168 -22.568234 -17.221897 44.054643 0.590249 1.972429 -0.029771 0.023386 -643928.000000 0 0 1
-34.504756 -23.859934 -17.283197 45.371616 0.604996 1.961593 -0.035939 0.043133 334223.000000 0 0 1
33.921033 -23.731334 -16.987797 44.748161 -0.610461 1.960194 -0.036583 0.030162 278816.000000 0 0 1
33.170634 -24.907234 -17.202697 44.906503 -0.644065 1.963923 -0.034808 0.020579 592267.000000 0 0 1
31.714964 -24.920834 -16.631397 43.629007 -0.666007 1.961891 -0.029208 0.009560 772692.000000 0 0 1
30.742074 -24.440134 -17.587797 43.031684 -0.671688 1.991845 -0.011967 0.000479 -234520.000000 0 0 1
29.570394 -25.138504 -17.261797 42.477314 -0.704566 1.989282 0.011410 -0.000025 -307615.000000 0 0 1
28.479584 -25.047034 -18.352297 42.133685 -0.721358 2.021471 0.019439 -0.009869 -92107.100000 0 0 1
27.993854 -23.717634 -18.580397 41.126794 -0.702892 2.039560 0.032203 -0.003618 -858209.000000 0 0 1
26.778384 -23.865834 -19.198397 40.684620 -0.727951 2.062222 0.048103 -0.003608 -1046350.000000 0 0 1
33.151064 29.392266 -18.526897 48.022330 0.725371 1.966868 0.010057 -0.005296 -641798.000000 0 0 1
32.257944 29.588566 -19.595297 47.958668 0.742264 1.991702 0.010313 -0.013844 -235294.000000 0 0 1
32.823074 29.434466 -20.900897 48.791284 0.731023 2.013488 0.013901 -0.006806 -101318.000000 0 0 1
31.789454 29.568066 -22.031697 48.685065 0.749210 2.040402 0.010202 -0.004814 -161045.000000 0 0 1
30.670144 28.677766 -22.063097 47.432607 0.751840 2.054596 0.015712 -0.003613 494796.000000 0 0 1
30.005314 28.706466 -23.298697 47.615221 0.763279 2.082097 0.023469 0.000917 94114.000000 0 0 1
29.062584 29.887466 -23.653297 47.930917 0.799390 2.086891 0.034623 0.007737 -443754.000000 0 0 1
29.694074 31.170466 -23.583997 49.087074 0.809650 2.071967 0.027491 -0.008395 39870.600000 0 0 1
28.709254 32.176266 -23.454097 49.087961 0.842280 2.068942 0.030510 0.004168 -181401.000000 0 0 1
29.289134 33.508666 -22.965397 50.080869 0.852490 2.047177 0.022933 0.002901 57577.400000 0 0 1
29.703454 33.566966 -21.594497 49.752976 0.846386 2.019762 0.029016 0.001812 -581395.000000 0 0 1
31.040864 33.237666 -21.403697 50.263266 0.819561 2.010677 0.026598 -0.005948 -825165.000000 0 0 1
31.305044 33.288766 -19.846197 49.819867 0.816099 1.980523 0.016080 -0.007930 -281111.000000 0 0 1
31.073014 34.594566 -19.354597 50.367813 0.838974 1.965208 0.014510 -0.008368 -18329.600000 0 0 1
30.944564 34.590166 -17.970397 49.769275 0.840969 1.940216 0.007937 -0.016559 -532655.000000 0 0 1
30.920954 -33.462131 -17.381197 48.763978 -0.824847 1.935246 0.006091 -0.009242 -267011.000000 0 0 1
32.057554 -32.630031 -17.467897 48.964610 -0.794248 1.935578 -0.002170 -0.007750 -674967.000000 0 0 1
33.032784 -32.992031 -16.540897 49.530194 -0.784781 1.911294 -0.001443 -0.005119 -642517.000000 0 0 1
34.310888 -32.144531 -16.749397 49.910421 -0.752811 1.913027 0.002907 0.007407 -473128.000000 0 0 1
-34.721668 -32.653431 -17.771397 50.869080 0.754710 1.927680 -0.012588 0.001879 -142955.000000 0 0 1
-33.458708 -31.969231 -17.824997 49.590799 0.762637 1.938466 -0.021904 0.007039 651104.000000 0 0 1
-32.498998 -32.537431 -18.881597 49.713016 0.785989 1.960389 -0.010080 -0.003319 -1076820.000000 0 0 1
-31.910578 -33.736431 -18.469397 49.975498 0.813204 1.949342 -0.007202 -0.003965 111290.000000 0 0 1
-30.956808 -34.249531 -19.390697 50.073480 0.835852 1.968438 -0.000325 0.001766 923001.000000 0 0 1
-29.580858 -33.490131 -19.485497 48.747314 0.847301 1.982013 -0.002758 -0.000318 -780876.000000 0 0 1
-29.522808 -32.268831 -20.233597 48.189958 0.829809 2.004100 -0.010285 0.001099 -371430.000000 0 0 1
-28.284578 -31.874631 -20.761497 47.403050 0.845003 2.024145 0.003021 0.002081 -13943.500000 0 0 1
-27.444908 -32.833231 -21.645297 47.955843 0.874552 2.039084 -0.005888 0.006317 -306031.000000 0 0 1
-28.246508 -33.360131 -22.665797 49.239231 0.868213 2.049152 -0.005994 0.007348 -109895.000000 0 0 1
-27.636238 -34.485431 -23.250197 49.935741 0.895209 2.055111 -0.011101 0.008030 -20777.600000 0 0 1
-28.466368 34.456766 -24.449797 50.945023 -0.880314 2.071366 -0.016105 0.004171 720594.000000 0 0 1
-29.599258 33.644266 -24.029897 50.847700 -0.849270 2.063019 -0.009937 0.003605 648487.000000 0 0 1
-29.942258 32.842466 -25.188077 51.084299 -0.831558 2.086410 -0.005790 0.000022 440065.000000 0 0 1
-30.889688 33.334666 -26.340497 52.528036 -0.823449 2.096077 -0.001081 -0.013411 275803.000000 0 0 1
-30.220418 34.191666 -27.291207 53.170985 -0.846974 2.109790 -0.000142 -0.021553 43696.400000 0 0 1
-31.012408 -34.182031 -27.601327 53.777448 0.833978 2.109765 -0.004533 -0.019862 -169863.000000 0 0 1
-30.517828 -33.341231 -28.785237 53.586989 0.829582 2.137873 -0.009014 -0.013909 -202428.000000 0 0 1
-30.323188 -33.882831 -30.076737 54.517447 0.840782 2.155186 -0.004891 -0.012736 1022080.000000 0 0 1
-31.501798 -34.362931 -30.791267 55.868385 0.828810 2.154525 0.004991 -0.012691 804420.000000 0 0 1
-31.174388 34.257966 -32.014527 56.306133 -0.832490 2.175575 0.009548 -0.013389 -33617.300000 0 0 1
-30.530418 -34.678131 -33.154337 56.867295 0.848919 2.193228 0.018379 -0.022025 50881.600000 0 0 1
-30.525998 33.891566 -34.246346 57.037593 -0.837597 2.214819 0.001708 -0.023675 -271765.000000 0 0 1
-29.748618 34.347366 33.727449 56.588538 -0.857023 0.932271 0.010192 -0.026502 -164984.000000 0 0 1
-28.379178 34.072466 33.720714 55.708143 -0.876310 0.920641 0.007799 -0.022569 -576363.000000 0 0 1
-28.081708 32.839966 33.072349 54.413472 -0.863344 0.917513 0.010935 -0.027465 -882636.000000 0 0 1
-26.674638 32.459166 33.468172 53.714544 -0.882909 0.898129 0.010840 -0.025121 -1179630.000000 0 0 1
-26.507168 32.031566 -34.448187 53.993784 -0.879491 2.262698 0.013352 -0.020742 364989.000000 0 0 1
-25.171148 31.641766 -34.149655 52.924351 -0.898803 2.272152 0.024673 -0.017196 168039.000000 0 0 1
-24.689048 30.244266 34.564222 52.143553 -0.886182 0.846155 0.020539 -0.012480 -421411.000000 0 0 1
-24.998748 29.116666 -33.914627 51.214446 -0.861347 2.294558 0.012132 -0.007260 -20563.400000 0 0 1
-24.660148 27.866066 -34.417392 50.687251 -0.846357 2.317216 0.005485 -0.004288 -560613.000000 0 0 1
-24.430048 26.883066 -33.305367 49.282592 -0.833167 2.312851 0.012939 -0.003820 376986.000000 0 0 1
-23.314248 27.155866 -32.406737 48.282417 -0.861368 2.306611 0.011259 -0.000904 747875.000000 0 0 1
-23.414048 28.336166 -31.573367 48.456511 -0.880226 2.280464 -0.001243 0.007163 729846.000000 0 0 1
-22.211548 28.510366 -30.521817 47.305128 -0.908949 2.272097 0.005878 0.003749 155488.000000 0 0 1
-20.981648 28.735466 -31.110737 47.263458 -0.940111 2.289276 0.011723 0.003772 -927929.000000 0 0 1
-19.862648 28.653066 -30.272437 46.172972 -0.964641 2.285814 0.010666 0.001548 6231.590000 0 0 1
-19.621348 29.867266 -29.358397 46.248960 -0.989550 2.258534 -0.000271 0.000022 -785783.000000 0 0 1
-19.231448 31.057666 -30.117777 47.344563 -1.016366 2.260282 0.002371 0.001357 309038.000000 0 0 1
-18.832348 32.121866 -29.215137 47.328594 -1.040528 2.236081 -0.006968 0.001380 -40855.200000 0 0 1
-18.337448 33.351166 -30.022957 48.476182 -1.068084 2.238691 -0.010072 0.017164 -474355.000000 0 0 1
-17.107048 33.184766 -30.649407 48.303891 -1.094819 2.258174 0.002630 0.014332 -725419.000000 0 0 1
-16.709448 34.204766 -31.491247 49.405164 -1.116381 2.261926 0.010493 0.021334 -169515.000000 0 0 1
-15.253848 34.150866 -31.977597 49.209026 -1.150723 2.278160 0.004331 0.018982 32706.300000 0 0 1
-14.320948 34.406866 -30.928637 48.430388 -1.176383 2.263501 0.008853 0.025363 856421.000000 0 0 1
-12.923948 34.238066 -31.205847 48.094474 -1.209859 2.276862 0.016612 0.035361 1157120.000000 0 0 1
-12.416548 32.760966 -31.200627 46.914077 -1.208520 2.298369 0.020020 0.011089 -431460.000000 0 0 1
-12.576848 32.180466 -29.940207 45.718437 -1.198227 2.284824 0.035305 -0.012457 69600.700000 0 0 1
-12.241248 30.831866 -30.017297 44.738017 -1.192851 2.306295 0.034518 -0.019150 -317387.000000 0 0 1
-12.218448 30.324366 -28.537277 43.396242 -1.187771 2.288422 0.039445 -0.033622 369610.000000 0 0 1
-11.104748 30.992666 -27.939457 43.179555 -1.226744 2.274509 0.034013 -0.022248 306670.000000 0 0 1
-10.800048 30.502466 -26.652757 41.921485 -1.230499 2.259812 0.026043 -0.029198 -120409.000000 0 0 1
-9.495948 31.081366 -26.072197 41.665138 -1.274284 2.246896 0.032549 -0.023533 -606616.000000 0 0 1
-8.378848 30.461266 -26.593517 41.295386 -1.302369 2.270489 0.036613 -0.017567 -981469.000000 0 0 1
-7.194048 31.091266 -26.141227 41.252695 -1.343413 2.257104 0.025154 -0.021359 -468848.000000 0 0 1
-5.975048 30.338666 -26.624397 40.804342 -1.376340 2.281661 0.005328 -0.012966 -972213.000000 0 0 1
-5.679148 29.104166 -25.955807 39.408236 -1.378086 2.289805 0.010361 -0.017770 -536933.000000 0 0 1
-4.737048 28.375066 -26.667407 39.226707 -1.405378 2.318324 -0.006370 -0.013891 -605163.000000 0 0 1
-4.127548 27.333966 -25.746397 37.776438 -1.420924 2.320670 0.002286 -0.011172 -570997.000000 0 0 1
-5.035648 26.318666 -25.416937 36.933055 -1.381747 2.329787 0.013210 -0.006352 217011.000000 0 0 1
-4.377048 25.229366 -24.760397 35.619611 -1.399016 2.339402 0.010999 -0.004301 232818.000000 0 0 1
-5.406248 24.070166 -24.632197 34.861806 -1.349859 2.355431 0.021053 -0.003338 165565.000000 0 0 1
-5.506248 23.377866 -25.845037 35.281855 -1.339480 2.392828 0.009987 0.000195 13797.800000 0 0 1
-6.541648 22.429966 -25.751897 34.771493 -1.287020 2.404765 0.009388 -0.008270 -538178.000000 0 0 1
-6.572348 21.442266 -26.971777 35.077675 -1.273374 2.447940 -0.010300 0.001329 334779.000000 0 0 1
-5.442248 20.582266 -27.133447 34.488718 -1.312298 2.476296 -0.005803 0.000432 240006.000000 0 0 1
-5.457348 19.578066 -26.138977 33.110865 -1.298949 2.480689 -0.004543 0.003330 219068.000000 0 0 1
-4.275248 18.586866 -26.324737 32.507554 -1.344714 2.514614 -0.006779 -0.004484 304528.000000 0 0 1
-4.461948 17.713966 -27.470377 32.989622 -1.324041 2.554758 -0.019256 -0.001946 141141.000000 0 0 1
-3.256048 16.987666 -27.583267 32.557937 -1.381422 2.581499 -0.017718 -0.007231 7313.250000 0 0 1
-2.917148 16.477966 -29.027117 33.505322 -1.395578 2.618630 -0.014311 -0.003389 -139004.000000 0 0 1
-2.743348 17.568066 -29.917597 34.802665 -1.415892 2.605352 -0.006760 -0.012290 186606.000000 0 0 1
-2.344448 17.348466 -31.235787 35.806983 -1.436471 2.630760 -0.007190 -0.019951 62034.200000 0 0 1
-1.587548 18.542366 -31.928467 36.956280 -1.485387 2.613863 -0.001328 0.006099 25756.700000 0 0 1
-0.254248 18.591066 -31.471367 36.553239 -1.557121 2.607977 0.009680 -0.001635 -43490.300000 0 0 1
0.576352 19.556466 -32.122977 37.612141 1.541334 2.594535 0.026689 0.019512 403863.000000 0 0 1
0.498952 21.032566 -31.578197 37.944700 1.547078 2.553889 0.015885 0.015351 -128992.000000 0 0 1
1.135152 21.277266 -30.347047 37.080370 1.517496 2.529440 0.029337 -0.011712 -161368.000000 0 0 1
0.773652 22.544266 -29.862197 37.424501 1.536493 2.494652 0.025603 -0.006380 260955.000000 0 0 1
1.714852 22.894766 -28.675277 36.733942 1.496034 2.466455 0.033868 -0.011063 731590.000000 0 0 1
3.067852 23.060566 -29.092707 37.250329 1.438538 2.467070 0.022125 -0.008438 147706.000000 0 0 1
3.978552 23.254266 -28.026437 36.634286 1.401348 2.441889 0.012827 -0.011866 184583.000000 0 0 1
4.300952 24.725266 -27.730287 37.400612 1.398570 2.406009 0.014190 -0.004319 -66973.600000 0 0 1
5.043552 25.339666 -28.793417 38.685875 1.374326 2.410264 0.007930 -0.001228 350495.000000 0 0 1
5.412952 26.700366 -28.558667 39.469064 1.370778 2.379758 0.001068 -0.007083 -184855.000000 0 0 1
6.305252 27.221366 -29.708227 40.784037 1.343182 2.386821 0.010922 -0.004960 -893143.000000 0 0 1
7.652152 26.992766 -29.491157 40.704952 1.294555 2.381120 0.013633 -0.001420 -737498.000000 0 0 1
8.484652 27.832166 -30.276687 41.991624 1.274895 2.376066 0.019378 -0.012127 37847.700000 0 0 1
10.000552 27.713266 -30.058027 42.089442 1.224481 2.366200 0.015319 -0.007295 -206101.000000 0 0 1
10.681952 28.632366 -30.886387 43.449802 1.213716 2.361505 0.022795 -0.013800 -642408.000000 0 0 1
11.999652 28.726166 -30.409327 43.519092 1.175103 2.344457 0.023666 -0.021476 -390226.000000 0 0 1
12.831752 29.664866 -31.293737 44.988399 1.162542 2.340045 0.033839 -0.021223 -670489.000000 0 0 1
12.412652 30.985666 -31.191027 45.684412 1.189779 2.322316 0.019872 -0.017289 399952.000000 0 0 1
13.178052 31.799766 -32.089897 47.060043 1.177932 2.321143 0.040753 -0.021915 230904.000000 0 0 1
12.526252 33.226766 -32.184897 47.924863 1.210280 2.307122 0.028507 -0.017289 309199.000000 0 0 1
11.428552 33.259266 -33.068797 48.273552 1.239816 2.325440 0.020065 -0.018866 113842.000000 0 0 1
10.673452 34.463366 -32.924227 48.843125 1.270460 2.310516 0.009160 -0.002345 947422.000000 0 0 1
9.425952 34.592166 -33.886017 49.332835 1.304767 2.327991 -0.000366 0.007486 670031.000000 0 0 1
9.766952 -34.299231 34.117986 49.354509 -1.293382 0.807532 -0.005537 0.008823 665840.000000 0 0 1
8.624852 -34.107531 33.263086 48.416367 -1.323116 0.813414 -0.008780 0.006410 379555.000000 0 0 1
8.899252 -33.327231 31.961729 47.026090 -1.309858 0.823498 -0.008322 0.012303 -354021.000000 0 0 1
8.942652 -31.937231 32.232419 46.248098 -1.297781 0.799667 -0.024704 0.003002 191501.000000 0 0 1
9.384952 -31.199431 31.074329 45.023280 -1.278601 0.809054 -0.012977 0.001596 -598210.000000 0 0 1
9.144452 -29.663031 31.201889 44.012206 -1.271763 0.782806 -0.027228 -0.009747 -604665.000000 0 0 1
7.787052 -29.311031 31.184179 43.499744 -1.311125 0.771477 -0.016364 -0.000120 -491808.000000 0 0 1
7.226652 -29.188731 32.504169 44.280103 -1.328093 0.746518 -0.012645 0.008135 811294.000000 0 0 1
5.683652 -28.867331 32.346179 43.725301 -1.376394 0.738084 -0.011727 0.000752 1491530.000000 0 0 1
4.778152 -29.884731 31.871569 43.951391 -1.412252 0.759537 0.005177 -0.007293 363780.000000 0 0 1
4.992552 -30.417731 30.587089 43.425038 -1.408114 0.789268 -0.006158 -0.012596 -853010.000000 0 0 1
4.489852 -29.654231 29.356909 41.968563 -1.420531 0.796102 -0.006886 -0.014618 700344.000000 0 0 1
3.089552 -29.729731 29.035859 41.671133 -1.467247 0.799890 0.001325 -0.021303 906406.000000 0 0 1
2.815752 -28.928131 27.902669 40.290497 -1.473766 0.805796 0.008314 -0.033057 -857001.000000 0 0 1
1.375952 -28.951231 27.393409 39.880645 -1.523306 0.813602 0.010830 -0.038010 -437970.000000 0 0 1
0.908252 -30.211131 26.923279 40.477157 -1.540742 0.843105 0.005686 -0.033325 198455.000000 0 0 1
0.521652 -31.141631 27.921489 41.829210 -1.554047 0.839934 0.021541 -0.031066 -641449.000000 0 0 1
0.410152 -32.604631 27.384019 42.580684 -1.558217 0.872245 0.005072 -0.018646 1119570.000000 0 0 1
1.721252 -33.134031 27.040909 42.802307 -1.518895 0.886971 -0.007201 -0.017816 1053200.000000 0 0 1
2.234852 -32.907731 25.772629 41.858592 -1.502988 0.907513 -0.007461 -0.019055 -531829.000000 0 0 1
3.760452 -33.035331 25.886169 42.137487 -1.457453 0.909264 -0.017974 -0.006346 -378420.000000 0 0 1
4.421952 -32.748331 24.683979 41.246886 -1.436580 0.929238 -0.015304 -0.017997 1150450.000000 0 0 1
5.847452 -32.601531 24.905589 41.440811 -1.393322 0.926055 -0.021129 -0.023633 982674.000000 0 0 1
6.667952 -32.337631 23.622199 40.597934 -1.367448 0.949786 -0.017708 -0.012433 -1219790.000000 0 0 1
7.944752 -31.929431 23.911199 40.673739 -1.326926 0.942363 -0.016732 -0.012657 -1023460.000000 0 0 1
8.643952 -31.617631 22.716599 39.880275 -1.303927 0.964753 -0.014360 -0.009948 395291.000000 0 0 1
9.774352 -30.551431 22.945499 39.438861 -1.261156 0.949857 -0.012617 -0.006824 601578.000000 0 0 1
10.816752 -31.068031 23.768299 40.585178 -1.235759 0.945127 0.005281 -0.011252 251696.000000 0 0 1
12.027152 -30.350131 23.600199 40.283399 -1.193501 0.944863 0.007299 -0.016455 199196.000000 0 0 1
13.249152 -31.069331 24.245599 41.577547 -1.167708 0.948206 0.051639 -0.019165 -48066.700000 0 0 1
13.244652 -31.028131 25.683919 42.400818 -1.167352 0.920099 0.029052 -0.023562 206013.000000 0 0 1
13.967352 -29.879231 26.106359 42.064205 -1.133518 0.901249 0.023369 -0.017514 -488013.000000 0 0 1
-10.669248 -14.132334 25.979339 31.440130 0.924133 0.598270 0.053683 -0.010146 -782187.000000 0 0 1
-9.309548 -13.910834 26.050069 30.964255 0.981021 0.571122 0.045004 -0.010872 -1031220.000000 0 0 1
-8.631448 -14.477534 27.143279 31.950876 1.033179 0.555700 0.040477 -0.010227 282903.000000 0 0 1
-7.085748 -14.275634 27.189589 31.516270 1.110071 0.530180 0.034879 0.003588 797736.000000 0 0 1
-6.359548 -15.214334 26.372059 31.103140 1.174872 0.558803 0.027119 -0.007245 144890.000000 0 0 1
-6.411448 -14.989934 24.991229 29.839007 1.166627 0.578039 0.032419 -0.004760 -713316.000000 0 0 1
-5.760048 -16.082834 24.064899 29.511948 1.226881 0.617326 0.028892 -0.005239 -284222.000000 0 0 1
-6.370348 -17.287234 23.874499 30.156616 1.217736 0.657236 0.037489 -0.004259 -603321.000000 0 0 1
-6.366148 -18.175134 24.992869 31.551654 1.233884 0.656513 0.029024 -0.003309 -113652.000000 0 0 1
-7.088648 -19.509534 24.671839 32.242371 1.222285 0.699446 0.028291 0.001110 275905.000000 0 0 1
-8.460948 -19.464134 24.309829 32.270853 1.160743 0.717722 0.033287 0.002129 9808.880000 0 0 1
-8.907948 -20.736134 23.927799 32.891919 1.165048 0.756173 0.019322 0.001823 124972.000000 0 0 1
-10.429948 -20.913434 24.128299 33.590629 1.108173 0.769434 0.018527 -0.001867 125477.000000 0 0 1
-10.835848 -21.024134 25.495669 34.777276 1.094904 0.747909 0.011492 -0.005186 -38785.700000 0 0 1
-12.237548 -21.118234 25.583169 35.358675 1.045603 0.761889 0.021141 0.000227 31575.200000 0 0 1
-12.829548 -21.110734 27.049539 36.632471 1.024715 0.740097 0.020067 -0.000772 -181754.000000 0 0 1
-12.633748 -22.286634 27.800139 37.804145 1.055089 0.744580 0.015160 0.003937 339991.000000 0 0 1
-11.493548 -22.229434 28.667149 38.053315 1.093608 0.717668 0.014110 0.005966 298344.000000 0 0 1
-11.244548 -23.552134 29.431199 39.336222 1.125365 0.725458 -0.005125 0.001872 497512.000000 0 0 1
-12.295148 -24.019634 30.320239 40.588550 1.097691 0.727236 0.001552 0.005798 849341.000000 0 0 1
-11.928048 -25.382024 30.738529 41.609886 1.131484 0.739610 -0.005230 0.008963 345747.000000 0 0 1
-13.046548 -25.871334 31.692549 42.941309 1.103726 0.740630 0.005586 -0.010252 160097.000000 0 0 1
-12.912648 -25.368644 33.029589 43.603421 1.099974 0.711321 0.015138 -0.010804 534177.000000 0 0 1
-14.007548 -25.767144 33.877326 44.808820 1.072864 0.713552 0.023661 -0.011584 392878.000000 0 0 1
-13.875248 -25.128094 -33.950767 44.458950 1.066280 2.439733 0.018249 -0.020391 -42500.700000 0 0 1
-13.844948 -23.692034 -33.781417 43.522169 1.041948 2.459395 0.024410 -0.025577 114516.000000 0 0 1
-14.966248 -22.981934 -34.279388 43.900277 0.993565 2.466816 0.025271 -0.028646 -277851.000000 0 0 1
-14.921648 -21.537534 -33.765457 42.739058 0.964905 2.481666 0.016643 -0.025658 59044.700000 0 0 1
-15.338248 -21.350434 -32.429047 41.746209 0.947825 2.460387 0.020130 -0.018649 94903.900000 0 0 1
-15.432848 -19.950334 -32.213707 40.913464 0.912384 2.477314 0.010451 -0.018376 -381042.000000 0 0 1
-15.442848 -19.552434 -30.717207 39.551562 0.902295 2.460106 0.016626 -0.014031 -582778.000000 0 0 1
-16.579048 -19.890934 -30.000527 39.630111 0.875961 2.429526 0.028969 -0.013416 -701250.000000 0 0 1
-16.458248 -19.726634 -28.596727 38.441993 0.875478 2.409673 0.018880 -0.000423 431625.000000 0 0 1
-15.397048 -20.613634 -27.854447 37.919141 0.929260 2.395836 0.025525 0.001218 392606.000000 0 0 1
-14.040148 -20.344134 -28.097567 37.423025 0.966724 2.420083 0.027512 0.004488 -678433.000000 0 0 1
-13.245448 -21.314934 -27.503377 37.231761 1.014778 2.401947 0.023510 0.006302 -159743.000000 0 0 1
-11.749848 -21.292334 -27.851667 36.974826 1.066546 2.423801 -0.008335 0.005177 -448782.000000 0 0 1
-11.029648 -20.218534 -27.236737 35.669064 1.071398 2.439660 -0.005372 0.008608 605803.000000 0 0 1
-9.627048 -20.426934 -27.104087 35.278481 1.130378 2.446961 0.006178 0.002790 672961.000000 0 0 1
-9.110348 -21.541534 -26.130397 35.068986 1.170689 2.411502 -0.001505 0.011769 -765780.000000 0 0 1
-9.185948 -22.851434 -26.671327 36.303297 1.188579 2.395992 -0.000094 0.003119 198479.000000 0 0 1
-8.851048 -23.889334 -25.772027 36.238636 1.215975 2.361965 0.000324 0.002701 -208280.000000 0 0 1
-9.085348 -25.345324 -26.252797 37.605031 1.226603 2.343564 0.003003 0.003359 -370250.000000 0 0 1
-8.185748 -25.872174 -27.208767 38.427762 1.264370 2.357529 -0.002863 0.000525 -56682.400000 0 0 1
-8.533348 -27.097494 -27.802857 39.750359 1.265715 2.345405 -0.003404 0.005162 -255584.000000 0 0 1
-8.526548 -28.376704 -26.940597 40.046662 1.278902 2.308689 0.013710 0.008597 -356036.000000 0 0 1
-9.536948 -28.424324 -25.973897 39.667857 1.247078 2.284694 0.007873 0.007564 -372053.000000 0 0 1
-9.578348 -29.672904 -25.279587 40.140796 1.258558 2.252057 0.025303 0.007308 -215244.000000 0 0 1
-10.543648 -29.762474 -24.066197 39.700821 1.230332 2.222056 0.021214 0.001967 -1582.270000 0 0 1
-10.224948 -28.853994 -23.010797 38.296205 1.230235 2.215377 0.010753 -0.004129 -111069.000000 0 0 1
-10.991948 -27.675364 -23.123297 37.701931 1.192728 2.231052 0.012572 0.008518 -92700.200000 0 0 1
-10.651248 -26.630484 -22.009697 36.153265 1.190321 2.225329 0.028184 0.002948 -50176.100000 0 0 1
-11.243248 -27.033664 -20.796197 35.912553 1.176660 2.188395 0.027333 -0.002098 20217.600000 0 0 1
-11.102648 -26.125424 -19.710897 34.559023 1.168947 2.177734 0.028562 0.003864 -282076.000000 0 0 1
-11.841748 -26.651554 -18.497997 34.535608 1.152678 2.136039 0.041788 -0.005121 -905663.000000 0 0 1
-13.207548 -26.828884 -18.645897 35.240571 1.113337 2.128340 0.059689 -0.009068 -835781.000000 0 0 1
-13.711348 -27.210544 -17.375697 35.076055 1.104035 2.089059 0.065383 -0.009587 -202218.000000 0 0 1
-15.245248 -27.339904 -17.334897 35.782490 1.062122 2.076533 0.068451 -0.017756 -1085030.000000 0 0 1
-15.898248 -26.095074 -17.342697 35.135115 1.023608 2.087021 0.068097 -0.009152 -298010.000000 0 0 1
-17.286448 -26.143984 -17.124197 35.715085 0.986587 2.070843 0.060170 -0.003620 -126476.000000 0 0 1
-18.137048 -26.670394 -18.294797 37.080481 0.973589 2.086769 0.047876 -0.000314 -1193150.000000 0 0 1
-18.140548 -28.059424 -18.626697 38.253949 0.996882 2.079359 0.045723 -0.003238 53480.300000 0 0 1
-18.604048 -28.961764 -17.636097 38.677207 0.999807 2.044271 0.056492 -0.010690 -516802.000000 0 0 1
-20.074748 -29.400664 -17.696597 39.756309 0.971708 2.032112 0.031006 0.002591 -88192.800000 0 0 1
-20.373348 -30.314684 -18.771097 41.065892 0.979068 2.045525 0.031330 -0.006155 -570272.000000 0 0 1
-21.506748 -31.053674 -18.476197 42.050455 0.965076 2.025706 0.013934 0.009003 -543662.000000 0 0 1
-21.836548 -32.106514 -19.582197 43.487073 0.973532 2.037897 0.004199 0.006696 -81220.700000 0 0 1
-21.039648 -33.254964 -19.551997 43.941325 1.006696 2.031922 -0.005014 0.007657 -106815.000000 0 0 1
-21.537748 -34.237475 -20.433097 45.316562 1.009276 2.038566 -0.004923 0.003383 125286.000000 0 0 1
-21.051248 33.800413 -20.198697 44.649863 -1.013773 2.040228 -0.009272 0.011080 222455.000000 0 0 1
-21.635848 33.155482 -19.072097 43.944747 -0.992626 2.019726 -0.008987 0.008115 -210829.000000 0 0 1
-20.774048 32.105582 -18.752397 42.590866 -0.996495 2.026720 -0.009671 0.006084 -19106.500000 0 0 1
-21.439448 30.731222 -18.272497 41.688632 -0.961653 2.024513 -0.006446 -0.005014 312402.000000 0 0 1
-22.100548 30.815792 -17.003497 41.559189 -0.948631 1.992307 -0.013181 -0.001576 74009.100000 0 0 1
-22.697448 29.555862 -16.594897 40.793550 -0.915905 1.989747 -0.011699 -0.001236 139399.000000 0 0 1
-21.782048 28.305672 -16.306597 39.262880 -0.914913 1.999089 -0.005778 -0.014819 -50761.900000 0 0 1
-21.257048 27.801352 -17.528097 39.140918 -0.918013 2.035122 -0.012849 -0.012347 -193930.000000 0 0 1
-20.707648 26.527962 -17.390497 37.880982 -0.907999 2.047759 -0.008001 -0.010221 -133687.000000 0 0 1
-20.088648 26.031212 -18.733397 37.843334 -0.913543 2.088660 -0.011047 -0.015626 -1176540.000000 0 0 1
-19.985348 24.670012 -18.808697 36.902448 -0.889923 2.105617 0.000186 -0.014804 -196547.000000 0 0 1
-19.468048 24.086962 -19.969497 36.850610 -0.891051 2.143497 -0.001480 -0.009292 -1344720.000000 0 0 1
-18.012848 24.439462 -20.109097 36.416010 -0.935642 2.155803 -0.023851 -0.010577 -2372060.000000 0 0 1
-17.209548 24.036962 -19.015397 35.150098 -0.949438 2.142395 -0.023925 -0.002609 290975.000000 0 0 1
-15.988748 24.779602 -18.957897 35.058103 -0.997776 2.142132 -0.015361 -0.010671 39020.900000 0 0 1
-15.988148 26.098072 -18.110797 35.563059 -1.021151 2.105120 -0.016266 -0.008066 -4027.870000 0 0 1
-16.741548 27.260852 -18.574397 36.992454 -1.020056 2.096837 -0.024644 -0.008388 302864.000000 0 0 1
-16.454248 28.351842 -17.809097 37.305940 -1.044944 2.068467 -0.012929 -0.017494 -900650.000000 0 0 1
-17.391048 29.518932 -18.127197 38.760949 -1.038394 2.057445 -0.005056 -0.014891 -71707.500000 0 0 1
-17.507348 29.977682 -19.468697 39.801995 -1.042215 2.081898 -0.021898 -0.015714 -91232.100000 0 0 1
-18.410648 29.278332 -20.285197 40.095659 -1.009458 2.101245 -0.015743 -0.009627 -394374.000000 0 0 1
-18.543248 29.737632 -21.729597 41.235351 -1.013232 2.125822 -0.011003 -0.010824 -229653.000000 0 0 1
-19.142248 30.954112 -21.844697 42.447302 -1.016952 2.111374 -0.018282 -0.008094 -360449.000000 0 0 1
-19.458448 31.253632 -23.209097 43.521062 -1.013926 2.133275 -0.009856 -0.009129 311483.000000 0 0 1
-20.118548 32.618482 -23.536997 44.974566 -1.018127 2.121562 -0.013255 -0.009131 102256.000000 0 0 1
-19.152148 33.635672 -23.400097 45.229722 -1.053181 2.114561 -0.016900 -0.005948 -59158.100000 0 0 1
-19.367948 34.640282 -24.384897 46.579928 -1.060981 2.121758 -0.006347 -0.002416 439859.000000 0 0 1
-18.301248 -33.670674 -24.427997 45.446419 1.072929 2.138280 0.010683 0.003029 498686.000000 0 0 1
-18.243048 -32.751934 -23.366297 44.175580 1.062590 2.128149 0.004355 -0.000301 47356.800000 0 0 1
-17.839248 -33.333974 -22.098797 43.792116 1.079412 2.099749 0.001923 0.000121 -141938.000000 0 0 1
-17.815948 -32.283184 -21.019397 42.443221 1.066523 2.088902 0.014087 -0.004596 188398.000000 0 0 1
-16.721348 -31.422524 -21.288897 41.475241 1.081764 2.109812 0.014813 -0.003553 154841.000000 0 0 1
-16.615348 -30.505994 -20.222697 40.195061 1.072063 2.097995 0.030898 -0.002285 455997.000000 0 0 1
-15.344448 -29.572264 -20.297997 39.012557 1.092159 2.117991 0.031235 -0.007145 373933.000000 0 0 1
-14.176348 -30.314804 -20.149897 39.063724 1.133372 2.112762 0.027177 -0.007309 -237191.000000 0 0 1
-13.011248 -29.489254 -20.281997 38.082386 1.155268 2.132445 0.026454 -0.014163 -5734.380000 0 0 1
-11.695548 -30.268244 -20.415497 38.337253 1.202072 2.132376 0.024405 -0.012961 24933.400000 0 0 1
-11.073248 -30.991464 -19.340197 38.172384 1.227633 2.102096 0.027730 -0.013717 450859.000000 0 0 1
-10.410248 -30.092704 -18.434097 36.793478 1.237744 2.095568 0.032658 -0.011253 -346321.000000 0 0 1
-9.600848 -30.754024 -17.327097 36.581615 1.268201 2.064234 0.026082 -0.006874 306674.000000 0 0 1
-10.453948 -31.442324 -16.371697 36.958588 1.249814 2.029710 0.032472 -0.014616 610599.000000 0 0 1
-11.032048 -32.676094 -16.808397 38.366071 1.245194 2.024287 0.027790 -0.013192 185964.000000 0 0 1
-12.091448 -33.289074 -15.865297 38.808159 1.222388 1.991950 0.032719 -0.009872 -213174.000000 0 0 1
-11.548248 -33.755154 -14.694797 38.583799 1.241160 1.961516 0.026469 -0.003442 -110478.000000 0 0 1
-12.578148 -34.237224 -13.844297 39.013612 1.218721 1.933559 0.026195 0.000798 -216673.000000 0 0 1
-12.169948 -34.574304 -12.349797 38.678258 1.232346 1.895782 0.023349 -0.000601 -30410.400000 0 0 1
-11.712348 -33.488264 -11.593497 37.323613 1.234349 1.886643 0.029048 -0.002167 73812.400000 0 0 1
-11.466248 -33.778494 -10.242097 37.112829 1.243547 1.850397 0.026385 -0.009146 -59452.800000 0 0 1
-10.222548 -33.060744 -9.667397 35.930097 1.270916 1.843215 0.017773 -0.016231 -184853.000000 0 0 1
-9.021848 -33.567644 -10.147297 36.209779 1.308235 1.854837 0.001825 -0.010884 -895914.000000 0 0 1
-7.889348 -32.848584 -9.714997 35.151849 1.335088 1.850814 -0.006206 -0.017984 124122.000000 0 0 1
-6.600948 -33.478044 -10.278197 35.636965 1.376121 1.863366 -0.010321 -0.021329 -86508.100000 0 0 1
-6.362148 34.720063 -9.687897 36.603484 -1.389566 1.838660 -0.021437 -0.009990 111208.000000 0 0 1
-5.205548 34.176689 -10.337797 36.083429 -1.419645 1.861365 -0.016326 -0.009801 -151396.000000 0 0 1
-4.520048 33.277722 -9.428397 34.881690 -1.435794 1.844497 -0.021698 -0.017407 -709340.000000 0 0 1
-3.715348 33.897299 -8.423497 35.125290 -1.461626 1.812969 -0.005678 -0.017277 124057.000000 0 0 1
-3.153748 32.875642 -7.635597 33.897733 -1.475159 1.798000 -0.017248 -0.020969 -411424.000000 0 0 1
-2.808048 33.416482 -6.214097 34.105152 -1.486961 1.754024 -0.011973 -0.010176 -726276.000000 0 0 1
-1.759348 34.341294 -6.261797 34.951822 -1.519610 1.750924 -0.010018 -0.008662 -538138.000000 0 0 1
-1.375348 34.729139 -4.944197 35.106264 -1.531215 1.712101 -0.005760 -0.009279 -117842.000000 0 0 1
-0.502348 33.786658 -4.104697 34.038789 -1.555929 1.691679 0.002693 -0.014738 -877321.000000 0 0 1
0.795352 33.611197 -4.612397 33.935517 1.547137 1.707135 0.007455 -0.014093 -410321.000000 0 0 1
1.577252 32.998062 -3.581497 33.229308 1.523034 1.678787 0.001458 -0.015131 1219720.000000 0 0 1
3.109152 32.969922 -3.994897 33.356285 1.476772 1.690849 -0.003057 -0.009623 915663.000000 0 0 1
3.706352 34.260046 -3.831597 34.672308 1.463033 1.681531 -0.006124 0.007049 -957531.000000 0 0 1
5.053952 34.222009 -4.155697 34.841902 1.424175 1.690354 0.007361 0.004721 -124576.000000 0 0 1
5.852152 -33.905104 -3.852497 34.621460 -1.399877 1.682302 0.012403 0.009661 421197.000000 0 0 1
5.394552 -32.801714 -4.615997 33.561303 -1.407796 1.708773 0.014447 0.006761 -172164.000000 0 0 1
5.706752 -31.548644 -4.060297 32.316714 -1.391844 1.696770 0.018556 0.000664 -20253.100000 0 0 1
5.451252 -30.369564 -5.008997 31.258865 -1.393190 1.731733 0.018900 0.000738 -254669.000000 0 0 1
6.415152 -30.229304 -6.032497 31.485807 -1.361682 1.763582 0.028452 0.001673 -125946.000000 0 0 1
6.213252 -29.052434 -6.854097 30.489787 -1.360107 1.797534 0.025730 0.004925 -175899.000000 0 0 1
6.923852 -27.808914 -6.294297 29.340989 -1.326778 1.786999 0.028755 -0.001116 -424686.000000 0 0 1
6.172752 -27.098174 -5.375897 28.307494 -1.346826 1.761868 0.034052 -0.000681 -302229.000000 0 0 1
6.898052 -26.029764 -4.789197 27.350835 -1.311745 1.746806 0.032095 0.001579 164075.000000 0 0 1
6.044852 -25.519894 -3.621397 26.474889 -1.338215 1.708013 0.024708 0.001833 319168.000000 0 0 1
4.887252 -24.794634 -3.980997 25.583343 -1.376182 1.727040 0.038493 -0.003018 -240919.000000 0 0 1
4.260252 -24.357934 -2.809297 24.886761 -1.397646 1.683921 0.031132 0.002452 525508.000000 0 1 0
2.926952 -23.540234 -3.015797 23.912439 -1.447093 1.697251 0.028782 -0.004663 426618.000000 0 1 0
1.960852 -24.309434 -3.630597 24.657145 -1.490308 1.718577 0.014573 -0.000256 -816892.000000 0 1 0
0.993352 -23.487234 -4.260397 23.891168 -1.528528 1.750080 0.015125 0.001134 161531.000000 0 1 0
-14.394348 22.605966 18.097199 32.337834 -1.003792 0.976858 0.003765 0.001200 -212741.000000 0 0 1
-15.080648 22.490366 19.299999 33.252555 -0.980118 0.951569 0.007156 0.008269 22672.400000 0 0 1
-14.721048 23.456266 20.224299 34.291805 -1.010333 0.940022 0.001903 0.014347 -1097950.000000 0 0 1
-14.710248 22.927366 21.721699 34.840891 -1.000347 0.897643 0.008115 0.006579 390031.000000 0 0 1
-13.594548 22.031966 22.057099 34.010805 -1.017943 0.865142 0.010057 0.006284 894583.000000 0 0 1
-12.296048 22.539566 21.969199 33.791574 -1.071390 0.863030 -0.008250 0.005445 -683757.000000 0 0 1
-11.940848 23.704266 22.947599 35.086584 -1.104159 0.857900 0.009268 0.026201 -936747.000000 0 0 1
-11.946948 23.296066 24.341689 35.748483 -1.096937 0.821785 -0.001912 0.025112 201099.000000 0 0 1
-11.812348 24.408266 25.256039 37.056207 -1.120072 0.820904 0.010949 0.019269 -119379.000000 0 0 1
-11.213448 23.902566 26.640729 37.507366 -1.132147 0.780901 -0.002541 0.015636 750807.000000 0 0 1
-9.889348 23.371166 26.508309 36.697425 -1.170500 0.763605 -0.025764 0.017170 391672.000000 0 0 1
-9.501348 22.629766 27.656829 36.976778 -1.173287 0.725826 -0.034422 0.026570 51452.300000 0 0 1
-7.971448 22.314766 27.774479 36.509100 -1.227697 0.706321 -0.036265 0.018924 819434.000000 0 0 1
-7.130348 23.364566 28.198089 37.307868 -1.274596 0.713888 -0.029949 0.019372 -11396.100000 0 0 1
-7.041948 24.515266 27.314659 37.372154 -1.291080 0.751182 -0.022354 0.014380 -1009120.000000 0 0 1
-5.975348 25.531666 27.797049 38.213174 -1.340897 0.756241 -0.024409 0.010115 801205.000000 0 0 1
-4.658148 25.006066 27.552459 37.498528 -1.386626 0.745482 -0.015725 0.007927 318812.000000 0 0 1
-3.640948 25.801066 28.091519 38.315596 -1.430606 0.747837 -0.015900 0.013247 -155296.000000 0 0 1
-2.251548 25.166366 27.905629 37.644914 -1.481567 0.735813 -0.009413 0.011192 -384465.000000 0 0 1
-1.704248 25.285866 26.662939 36.785755 -1.503499 0.760028 0.000143 0.004694 642355.000000 0 0 1
-0.322548 24.859866 26.700629 36.483428 -1.557822 0.749754 0.016898 0.011867 1145610.000000 0 0 1
0.334452 24.628766 25.340259 35.338600 1.557217 0.771207 0.016154 0.002383 -209569.000000 0 0 1
-0.151548 23.491966 24.676359 34.070781 -1.564345 0.760825 0.016846 0.008994 -329667.000000 0 0 1
0.287152 23.303366 23.374899 33.007805 1.558475 0.783904 0.017736 0.004107 -308183.000000 0 0 1
-0.204748 22.035766 22.646099 31.598460 -1.561505 0.771761 0.017397 0.009920 51530.600000 0 0 1
0.317752 20.797466 23.103799 31.087313 1.555519 0.732970 0.025533 0.005923 -168925.000000 0 0 1
-0.014948 19.779366 22.238799 29.762186 -1.570041 0.726932 0.026391 0.002337 293385.000000 0 0 1
0.857352 18.514866 22.587999 29.219052 1.524523 0.687150 0.027316 0.009258 -128410.000000 0 0 1
2.178352 18.653266 22.169099 29.054405 1.454542 0.702823 0.030249 0.005584 -1174650.000000 0 0 1
2.946052 17.546366 22.524299 28.703627 1.404447 0.668553 0.017773 -0.001483 -1199010.000000 0 0 1
4.308452 17.712766 21.900399 28.494425 1.332190 0.694169 0.012305 0.003366 -1209440.000000 0 0 1
5.142252 18.551766 22.648899 29.725130 1.300401 0.704486 0.004939 0.014146 -1498660.000000 0 0 1
6.308452 18.718466 21.934999 29.518159 1.245734 0.733102 0.017772 0.009149 -224407.000000 0 0 1
7.519152 19.291066 22.770399 30.776191 1.199137 0.737918 0.018503 0.003982 272402.000000 0 0 1
7.216752 20.456666 23.460399 31.952261 1.231645 0.746260 0.007871 0.012233 -5604.360000 0 0 1
6.976352 21.555366 22.584999 31.990396 1.257788 0.786972 0.005530 0.014016 -494897.000000 0 0 1
6.266452 22.621166 23.385299 33.133936 1.300556 0.787272 -0.001253 0.013562 -196671.000000 0 0 1
5.891552 23.767266 22.685099 33.379739 1.327809 0.823570 -0.007354 0.012348 465741.000000 0 0 1
4.878852 24.491366 23.390099 34.215887 1.374163 0.818108 -0.024619 0.012414 -12215.000000 0 0 1
4.585652 25.803266 22.704499 34.674645 1.394917 0.856896 -0.008956 0.012833 128617.000000 0 0 1
4.078752 25.720066 21.374999 33.690482 1.413524 0.883497 0.003274 0.002158 749226.000000 0 0 1
2.742452 25.270766 21.112699 33.043588 1.462697 0.877684 0.002415 0.000115 292826.000000 0 0 1
2.445152 25.439966 19.619299 32.219365 1.474976 0.916087 0.008452 0.001369 -808760.000000 0 0 1
2.026352 26.771666 19.347799 33.093285 1.495250 0.946355 0.009200 -0.000524 188883.000000 0 0 1
1.699052 27.065366 18.000599 32.549076 1.508103 0.984800 0.009522 -0.001549 477561.000000 0 0 1
0.429252 27.989866 18.007199 33.284772 1.555462 0.999166 0.002984 0.007608 521026.000000 0 0 1
0.747552 29.303366 18.495999 34.660468 1.545291 1.007905 0.003084 0.005106 642299.000000 0 0 1
-0.407548 30.145166 18.547899 35.396633 -1.557278 1.019254 -0.000653 0.007357 386135.000000 0 0 1
-0.014048 31.561166 18.978699 36.827956 -1.570351 1.029399 -0.007141 0.006592 -76957.800000 0 0 1
0.463852 31.730566 20.291799 37.666975 1.556179 1.001884 -0.012525 0.006308 -75204.500000 0 0 1
0.781352 33.090666 20.608299 38.991084 1.547188 1.013918 -0.022600 0.007405 -111895.000000 0 0 1
1.429752 33.270766 22.000999 39.912805 1.527850 0.986963 -0.024097 -0.002501 425304.000000 0 0 1
0.518652 32.979966 23.089899 40.262769 1.555071 0.960049 -0.032053 0.003442 658095.000000 0 0 1
1.080052 33.306866 24.346169 41.270446 1.538380 0.939839 -0.028956 -0.005449 64716.700000 0 0 1
0.071652 33.085366 25.523859 41.786528 1.568631 0.913706 -0.023787 0.010519 690867.000000 0 0 1
-1.127448 33.892766 25.437109 42.391475 -1.537543 0.927230 -0.019249 0.009445 784380.000000 0 0 1
-2.085248 33.601466 26.430899 42.801859 -1.508818 0.905214 -0.012013 0.011134 52764.400000 0 0 1
-1.658548 33.847566 27.953749 43.929723 -1.521835 0.881066 0.000635 -0.000300 -1032710.000000 0 0 1
-0.562948 33.135266 28.427809 43.662376 -1.553809 0.861787 -0.005072 0.004436 -360752.000000 0 0 1
-0.124348 33.634666 29.686089 44.861677 -1.567099 0.847679 0.006966 -0.001672 -510993.000000 0 0 1
1.053452 32.889366 30.409659 44.805887 1.538777 0.824808 -0.004993 0.001911 1217430.000000 0 0 1
2.297452 33.022466 29.679319 44.459234 1.501336 0.839866 -0.019176 0.001064 634464.000000 0 0 1
2.407852 32.428166 28.402389 43.174985 1.496680 0.852844 -0.025561 0.003671 -2324800.000000 0 0 1
3.827452 32.104366 28.056649 42.807887 1.452137 0.856073 -0.031638 0.004483 -1150200.000000 0 0 1
4.340052 31.022966 28.769619 42.531769 1.431800 0.827896 -0.027257 -0.005064 621626.000000 0 0 1
5.750052 30.854266 28.605059 42.465259 1.386548 0.831713 -0.028930 -0.010014 637423.000000 0 0 1
6.423452 29.594966 29.175329 42.051427 1.357066 0.804042 -0.028689 -0.003031 -3716.910000 0 0 1
6.548252 29.761366 30.576539 43.168776 1.354222 0.783706 -0.027913 -0.016606 219589.000000 0 0 1
6.998652 28.584366 31.198729 42.888317 1.330678 0.756211 -0.022078 -0.017070 -484301.000000 0 0 1
7.077452 28.809366 32.725059 44.170118 1.329902 0.736407 -0.002217 -0.013432 115957.000000 0 0 1
5.840352 29.095066 33.389199 44.670697 1.372696 0.726578 -0.007009 -0.013299 170791.000000 0 0 1
5.849452 28.960166 -34.435738 45.373200 1.371495 2.432487 0.012028 -0.008788 -78853.200000 0 0 1
5.740552 27.433566 -33.912907 43.995905 1.364520 2.450923 0.012040 -0.006570 67409.300000 0 0 1
6.874952 26.663566 -34.264071 43.957220 1.318452 2.464642 0.005580 -0.013831 214457.000000 0 0 1
6.669752 25.295366 -34.015977 42.911861 1.312989 2.486012 0.003295 -0.007277 812826.000000 0 0 1
8.018752 24.513666 -34.276146 42.896088 1.254654 2.496511 0.017182 -0.009575 366095.000000 0 0 1
8.337652 24.404566 33.618549 42.371052 1.241586 0.654369 0.012460 -0.014694 87185.700000 0 0 1
9.617252 23.836266 33.429486 42.168585 1.187301 0.655476 0.013247 -0.016728 -269658.000000 0 0 1
9.838952 22.321766 33.810815 41.692174 1.155638 0.625000 0.020322 -0.009849 -1162240.000000 0 0 1
9.181052 21.470366 32.886639 40.333600 1.166713 0.617436 0.016520 -0.011912 237325.000000 0 0 1
8.971752 20.163366 33.407286 40.038736 1.152147 0.583800 0.017009 -0.006260 508713.000000 0 0 1
7.717652 20.048866 34.359510 40.522772 1.203338 0.558773 0.019116 -0.014708 91726.600000 0 0 1
7.793152 20.625666 -33.659727 40.238396 1.209540 2.561675 0.018474 -0.011573 -66843.200000 0 0 1
6.529252 21.070566 -33.221457 39.878127 1.270304 2.555439 0.023195 -0.006176 -131527.000000 0 0 1
6.544652 21.657866 -31.775017 39.007016 1.277337 2.522831 0.032310 -0.011493 -103143.000000 0 0 1
7.004452 22.988366 -31.726137 39.800440 1.275037 2.493324 0.024200 -0.005929 -26452.600000 0 0 1
7.169252 23.459366 -30.429437 39.085683 1.274207 2.463119 0.011533 -0.005427 -943430.000000 0 0 1
8.548252 23.455466 -29.817377 38.888397 1.221310 2.444547 0.013154 -0.011602 -827261.000000 0 0 1
9.150052 22.178366 -29.778717 38.241016 1.179504 2.463406 0.018701 -0.016128 -1555730.000000 0 0 1
10.497152 22.347066 -29.602117 38.546943 1.131654 2.446430 0.023974 -0.014002 -1530570.000000 0 0 1
11.206752 21.036866 -29.414257 37.859470 1.081317 2.460575 0.027390 -0.019679 -546451.000000 0 0 1
11.399952 20.251866 -30.625477 38.444984 1.058096 2.492455 0.023963 -0.014186 -15997.800000 0 0 1
10.256152 19.685266 -31.242477 38.324805 1.090485 2.523875 0.035077 -0.020329 -302324.000000 0 0 1
10.475452 18.603566 -32.284117 38.705193 1.057960 2.557301 0.035227 -0.019960 -183679.000000 0 0 1
11.205352 17.467866 -31.799977 37.972684 1.000431 2.563385 0.033794 -0.014416 338388.000000 0 0 1
10.975552 16.283666 -32.558737 38.022255 0.977719 2.598873 0.022019 -0.008971 -90838.200000 0 0 1
11.919152 15.975666 -33.766757 39.210737 0.929808 2.608345 0.020322 0.004896 -32826.600000 0 0 1
11.919652 16.932566 34.453894 40.197769 0.957425 0.541164 0.025178 -0.001184 304321.000000 0 0 1
12.803152 16.583166 33.406395 39.432338 0.913327 0.560136 0.021583 -0.001577 34944.800000 0 0 1
12.130452 16.817766 32.050739 38.173747 0.945926 0.574247 0.025721 -0.006410 -700742.000000 0 0 1
11.992052 18.160466 31.622839 38.387703 0.987188 0.602758 0.030816 -0.001621 70456.600000 0 0 1
11.322052 18.236966 30.377409 37.196273 1.015201 0.615164 0.017229 -0.001868 604299.000000 0 0 1
9.761052 18.220466 30.407979 36.768311 1.078983 0.597018 0.004233 0.012494 285076.000000 0 0 1
9.194352 17.080466 31.094269 36.648765 1.076983 0.557766 0.012484 0.012374 104379.000000 0 0 1
7.785052 17.196866 31.135429 36.410907 1.145698 0.545028 0.013555 0.011369 194209.000000 0 0 1
7.116352 16.198466 32.117199 36.668068 1.156857 0.503519 0.006173 0.017200 -77105.400000 0 0 1
7.350052 16.501166 33.453135 38.018732 1.151752 0.495120 0.012044 0.014757 -9283.810000 0 0 1
6.771352 15.613366 34.347261 38.332267 1.161589 0.460027 0.023692 0.005774 -248646.000000 0 0 1
7.054052 16.008066 -33.427777 37.728425 1.155740 2.659465 0.030448 -0.000401 -58558.000000 0 0 1
5.959752 16.740066 -32.918887 37.408576 1.228771 2.646621 0.030059 -0.001926 139843.000000 0 0 1
6.210552 17.064866 -31.559607 36.411391 1.221759 2.619447 0.036656 -0.019165 168825.000000 0 0 1
5.084752 17.978366 -30.991327 36.187548 1.295169 2.599069 0.038008 -0.023549 -280496.000000 0 0 1
5.100752 17.939266 -29.564957 34.955995 1.293773 2.578815 0.045154 -0.036913 108568.000000 0 0 1
4.384652 18.973166 -28.918727 34.864006 1.343686 2.548959 0.042508 -0.034807 -136781.000000 0 0 1
2.853752 18.926666 -29.013147 34.758096 1.421144 2.558414 0.040773 -0.030857 -1561840.000000 0 0 1
2.252152 17.880466 -28.260187 33.517479 1.445500 2.573907 0.037689 -0.026896 751924.000000 0 0 1
0.836852 17.805966 -28.465427 33.586206 1.523832 2.582117 0.033252 -0.024948 1204050.000000 0 0 1
-0.105548 19.026866 -28.105437 33.940364 -1.565249 2.546476 0.024612 -0.023907 -794261.000000 0 0 1
-0.149748 19.329566 -26.749987 33.003277 -1.563049 2.515845 0.013711 -0.020353 153721.000000 0 0 1
-0.894648 20.542066 -26.603467 33.623226 -1.527272 2.483603 0.012637 -0.011977 13641.300000 0 0 1
-1.127748 21.038966 -25.176187 32.829107 -1.517245 2.444771 0.006543 -0.008174 129516.000000 0 0 1
-2.240448 20.325766 -24.658997 32.034707 -1.461013 2.449259 0.006063 -0.002120 196065.000000 0 0 1
-2.329148 20.543866 -23.289697 31.142982 -1.457904 2.415586 0.009434 0.007866 -24372.800000 0 0 1
-3.339548 19.661766 -22.501397 30.067432 -1.402552 2.416389 0.004863 0.001270 171838.000000 0 0 1
-4.693248 19.999966 -22.715197 30.626873 -1.340304 2.406361 0.007673 -0.000065 325244.000000 0 0 1
-5.558348 18.983666 -22.147197 29.694665 -1.285961 2.412578 0.002205 -0.006756 -426160.000000 0 0 1
-7.014648 19.390766 -22.140697 30.255868 -1.223691 2.391729 0.022463 -0.005006 -807393.000000 0 0 1
-7.451448 20.446866 -21.227097 30.400461 -1.221325 2.343745 0.007727 -0.017810 197797.000000 0 0 1
-7.123848 21.788066 -21.542497 31.457085 -1.254792 2.325155 0.017351 -0.018352 -86907.000000 0 0 1
-7.490348 22.830166 -20.407897 31.524657 -1.253772 2.274916 0.014435 -0.019636 66084.900000 0 0 1
-6.590048 22.740866 -19.329397 30.564706 -1.288734 2.255456 0.023801 -0.013760 14235.500000 0 0 1
-6.956548 23.678866 -18.379197 30.771368 -1.285049 2.210905 0.028196 -0.018439 -60722.000000 0 0 1
-5.938348 23.890666 -17.216997 30.040853 -1.327170 2.181104 0.012838 -0.011331 349197.000000 0 0 1
-4.756648 24.582666 -17.575297 30.591244 -1.379662 2.182815 0.007180 -0.010403 -729171.000000 0 0 1
-3.793448 24.302966 -16.615097 29.683090 -1.415956 2.164880 0.007740 -0.011835 659280.000000 0 0 1
-2.459548 25.142166 -16.892197 30.389541 -1.473281 2.160188 0.010571 -0.005258 969327.000000 0 0 1
-2.504748 26.511466 -16.597697 31.378577 -1.476598 2.128159 -0.014333 -0.010689 -161046.000000 0 0 1
-1.402648 27.202066 -17.155897 32.190753 -1.519278 2.132873 -0.016486 -0.004887 -214557.000000 0 0 1
-1.496648 28.751266 -17.058297 33.464320 -1.518788 2.105686 -0.030012 -0.018752 -44577.300000 0 0 1
-2.562348 29.421566 -17.757997 34.460711 -1.483925 2.112167 -0.027508 -0.016427 218963.000000 0 0 1
-2.447248 29.421966 -19.188097 35.211137 -1.487810 2.147119 -0.028311 -0.013022 432085.000000 0 0 1
-3.846248 29.760066 -19.839697 35.973166 -1.442267 2.154974 -0.013941 -0.013329 1060210.000000 0 0 1
-4.386348 31.076066 -19.611697 37.007844 -1.430574 2.129318 0.001472 -0.007463 70511.400000 0 0 1
-4.998148 31.169266 -18.330397 36.503535 -1.411795 2.096884 0.006058 -0.018276 -333487.000000 0 0 1
-5.514648 32.625466 -17.996997 37.665956 -1.403350 2.068951 0.012449 -0.013722 335794.000000 0 0 1
-6.613048 33.155366 -18.735597 38.652726 -1.373924 2.076835 0.010478 -0.008563 266876.000000 0 0 1
-6.957848 34.387066 -18.161797 39.506111 -1.371153 2.048478 0.012094 -0.015924 -303943.000000 0 0 1
-7.694748 -34.253631 -19.163997 39.997239 1.349824 2.070463 0.012881 -0.016705 828986.000000 0 0 1
-9.083948 -34.652631 -19.242497 40.664439 1.314422 2.063718 0.015036 -0.009340 411754.000000 0 0 1
-9.793948 -33.803531 -20.022797 40.490894 1.288787 2.088057 0.032793 -0.019677 -448772.000000 0 0 1
28.728652 -21.010234 -26.519567 44.385277 -0.631447 2.211158 0.011290 0.020200 114804.000000 0 0 1
28.122252 -22.240834 -26.170857 44.389520 -0.669144 2.201326 0.032635 0.004765 -56645.800000 0 0 1
26.785052 -22.339934 -26.646157 43.892247 -0.695158 2.223179 0.025079 0.002913 640810.000000 0 0 1
26.143952 -23.645934 -25.975627 43.787779 -0.735269 2.205845 0.014699 0.005502 182896.000000 0 0 1
26.481452 -24.889634 -26.596987 45.035107 -0.754421 2.202578 0.006237 0.024167 863863.000000 0 0 1
27.871052 -25.295294 -26.637587 46.110828 -0.736989 2.186687 0.011324 0.028274 844743.000000 0 0 1
28.071052 -26.669274 -27.340097 47.399526 -0.759796 2.185604 0.017391 0.022553 -241316.000000 0 0 1
27.621652 -27.791184 -26.583417 47.349590 -0.788458 2.166908 0.025818 0.006876 -159225.000000 0 0 1
27.494652 -29.021804 -27.237877 48.374817 -0.812413 2.168879 0.017294 0.011170 290314.000000 0 0 1
26.378552 -29.164564 -28.326767 48.464477 -0.835516 2.195042 0.031347 -0.000688 -501905.000000 0 0 1
26.365752 -28.461164 -29.547157 48.767051 -0.823598 2.221672 0.002801 0.003225 -760978.000000 0 0 1
27.343152 -28.758514 -30.465187 50.028269 -0.810621 2.225544 -0.011810 0.010809 -1060420.000000 0 0 1
27.546352 -30.176754 -31.090057 51.342279 -0.830936 2.221247 0.005558 0.014991 -614834.000000 0 0 1
28.057752 -31.188564 -30.201087 51.692065 -0.838193 2.194752 0.015963 0.005439 448594.000000 0 0 1
29.403752 -31.209454 -29.752387 52.190183 -0.815180 2.177395 0.010935 0.005982 517727.000000 0 0 1
30.590652 -31.051734 -30.734547 53.334891 -0.792878 2.184936 0.009047 0.002008 -417673.000000 0 0 1
30.706452 -29.691504 -31.168627 52.876790 -0.768595 2.201184 0.018005 -0.007087 -506081.000000 0 0 1
31.835352 -29.341624 -31.892897 53.773389 -0.744658 2.205698 0.003372 -0.009658 -578219.000000 0 0 1
31.633552 -27.876614 -32.410087 53.180833 -0.722351 2.226140 -0.005496 -0.002730 147438.000000 0 0 1
31.706952 -26.828774 -31.432787 52.087753 -0.702254 2.218627 -0.020010 0.011270 727587.000000 0 0 1
30.450752 -26.661904 -30.744627 50.826543 -0.719155 2.220428 -0.004644 0.014627 428665.000000 0 0 1
30.315052 -25.331504 -30.058957 49.640995 -0.696079 2.221224 -0.008878 0.016586 -679853.000000 0 0 1
31.212852 -25.176384 -29.003387 49.490291 -0.678754 2.196962 -0.010854 0.020840 -48156.200000 0 0 1
30.984352 -23.968934 -28.318897 48.337354 -0.658424 2.196737 -0.016313 0.023549 -440708.000000 0 0 1
31.829252 -23.655134 -27.101097 48.032657 -0.639127 2.170287 -0.035525 0.026093 -416800.000000 0 0 1
31.574752 -24.449234 -25.924047 47.610778 -0.658890 2.146589 -0.021904 0.022068 -62556.600000 0 0 1
30.913652 -23.776334 -24.862597 46.250586 -0.655627 2.138340 0.015307 0.020660 -162883.000000 0 0 1
31.578252 -22.561434 -24.101197 45.684483 -0.620366 2.126519 0.009766 0.021173 -101430.000000 0 0 1
31.562052 -21.289634 -24.706297 45.385160 -0.593429 2.146434 -0.010748 0.023997 -94420.700000 0 0 1
31.688352 -20.219934 -23.755697 44.467185 -0.567955 2.134393 -0.027513 0.019785 -104277.000000 0 0 1
31.895552 -18.901634 -24.515297 44.447697 -0.534968 2.155022 -0.026379 0.011646 410803.000000 0 0 1
30.716852 -18.477734 -25.206847 43.821647 -0.541559 2.183663 -0.009677 0.005149 495699.000000 0 0 1
31.037152 -17.588834 -26.281127 44.309926 -0.515576 2.205726 -0.018465 0.000535 50802.500000 0 0 1
30.000852 -17.494334 -27.450567 44.267781 -0.527921 2.239670 -0.024386 0.010239 396713.000000 0 0 1
28.731052 -17.070234 -26.971307 42.945519 -0.536099 2.249822 -0.018566 0.004902 -167971.000000 0 0 1
27.832952 -16.868434 -28.012667 42.940969 -0.544863 2.281481 -0.018841 0.002730 -293911.000000 0 0 1
26.365552 -16.695334 -27.552097 41.629251 -0.564492 2.294073 -0.020239 0.002268 -122188.000000 0 0 1
25.847652 -17.839134 -26.985417 41.407107 -0.604094 2.280633 -0.005487 0.011896 -208408.000000 0 0 1
25.690352 -17.722534 -25.586967 40.358088 -0.603883 2.257509 -0.000713 0.014290 -222560.000000 0 0 1
25.084652 -18.886234 -24.836797 40.034936 -0.645355 2.240021 0.015337 0.015962 -156000.000000 0 0 1
24.873952 -18.533034 -23.462397 38.893070 -0.640344 2.218371 0.017383 0.027734 157662.000000 0 0 1
24.160452 -19.497034 -22.656697 38.434200 -0.678983 2.201228 0.029884 0.018661 278041.000000 0 0 1
23.997952 -18.928234 -21.192297 37.192650 -0.667840 2.177056 0.024987 0.016586 18715.000000 0 0 1
23.165352 -17.757134 -21.103497 36.018147 -0.654002 2.196802 0.011711 0.013543 100580.000000 0 0 1
23.615352 -16.475034 -21.527097 35.951738 -0.609141 2.212770 0.010417 0.019442 -730488.000000 0 0 1
24.898652 -15.842534 -21.023997 36.234475 -0.566670 2.189796 0.008819 0.011785 -451465.000000 0 0 1
24.802852 -15.094334 -19.836097 35.163776 -0.546699 2.170146 0.006399 0.005539 -321062.000000 0 0 1
26.059552 -14.594534 -19.497797 35.668820 -0.510523 2.149136 -0.004498 0.013145 -636117.000000 0 0 1
26.044052 -13.392434 -18.458997 34.617691 -0.474961 2.133204 0.002738 0.007927 -114544.000000 0 0 1
25.937152 -13.792634 -17.131797 34.006927 -0.488740 2.098758 -0.009948 0.017954 179437.000000 0 0 1
25.592052 -12.763934 -16.281997 32.908579 -0.462644 2.088360 -0.016312 0.015158 144877.000000 0 0 1
26.344052 -12.902034 -14.915597 32.908154 -0.455415 2.041204 -0.015475 0.018883 77287.800000 0 0 1
25.866352 -13.943334 -14.078497 32.583566 -0.494400 2.017587 -0.001308 0.014168 475100.000000 0 0 1
26.611952 -13.970734 -12.843797 32.685479 -0.483431 1.974635 0.005294 0.010470 136524.000000 0 0 1
26.455352 -15.242234 -12.104697 32.844102 -0.522698 1.948245 -0.003657 0.001360 -396693.000000 0 0 1
25.111252 -15.457934 -11.785497 31.755640 -0.551795 1.951023 -0.006657 -0.004294 -228308.000000 0 0 1
24.746752 -16.761034 -11.294797 31.951627 -0.595330 1.932103 -0.011780 -0.005710 207156.000000 0 0 1
23.236352 -16.865634 -10.973697 30.737594 -0.627852 1.935864 -0.007048 -0.009360 47771.200000 0 0 1
22.881652 -16.386334 -9.710197 29.771964 -0.621472 1.903027 -0.006684 -0.001104 -270171.000000 0 0 1
21.521452 -16.279234 -9.423297 28.582947 -0.647597 1.906764 -0.009758 -0.002741 -847349.000000 0 0 1
21.220352 -15.940734 -7.930397 27.700208 -0.644269 1.861153 -0.010941 -0.002347 -239178.000000 0 0 1
21.284652 -14.583634 -7.663597 26.915600 -0.600704 1.859518 -0.003785 0.003246 332812.000000 0 0 1
20.958552 -14.253934 -6.308497 26.119584 -0.597246 1.814732 -0.016602 0.007229 -190893.000000 0 0 1
21.758252 -14.852334 -5.079397 26.829343 -0.598957 1.761268 -0.013934 0.004970 -368726.000000 0 0 1
23.150152 -14.704434 -5.203197 27.914569 -0.565884 1.758290 -0.012630 0.007524 -126771.000000 0 0 1
23.793652 -15.312634 -4.119397 28.593427 -0.571834 1.715367 -0.026367 -0.002000 134544.000000 0 0 1
25.330152 -15.136634 -4.327797 29.823885 -0.538634 1.716422 -0.028180 -0.000575 57571.100000 0 0 1
25.836352 -13.901334 -3.945097 29.602837 -0.493625 1.704462 -0.024934 0.004445 109287.000000 0 0 1
27.182652 -13.681234 -4.301097 30.733893 -0.466290 1.711204 -0.020877 -0.005968 -748318.000000 0 0 1
27.791952 -12.433734 -3.677997 30.667866 -0.420678 1.691016 0.002702 -0.003488 -1179060.000000 0 0 1
28.122052 -12.524434 -2.316497 30.871952 -0.418989 1.645903 0.003900 -0.003773 546433.000000 0 0 1
28.715252 -11.407734 -1.616797 30.940526 -0.378152 1.623075 0.002957 0.000112 128487.000000 0 0 1
30.148752 -11.006734 -2.023297 32.158812 -0.350046 1.633754 0.009282 0.002422 -572569.000000 0 0 1
30.229952 -10.432834 -3.284497 32.147814 -0.332317 1.673144 0.007521 0.002555 -234210.000000 0 0 1
31.313352 -10.880934 -4.033797 33.394494 -0.334433 1.691884 0.016334 -0.000566 -604573.000000 0 0 1
31.114752 -10.568334 -5.546597 33.325399 -0.327431 1.738012 0.010841 -0.000642 698456.000000 0 0 1
29.966752 -11.263434 -6.099297 32.589455 -0.359528 1.759062 0.000529 -0.008263 918003.000000 0 0 1
29.983952 -11.318334 -7.527797 32.921266 -0.360943 1.801498 -0.008384 -0.003707 -560017.000000 0 0 1
28.986152 -12.231034 -8.179397 32.506887 -0.399294 1.825151 -0.015591 -0.003909 -555085.000000 0 0 1
29.016152 -13.590734 -7.963397 33.016069 -0.438037 1.814396 -0.012820 -0.007154 -349694.000000 0 0 1
27.765452 -14.196334 -8.157597 32.233563 -0.472643 1.826657 -0.013978 -0.010030 -318899.000000 0 0 1
27.768652 -15.747334 -8.187597 32.956233 -0.515870 1.821864 -0.007616 -0.016204 -67234.800000 0 0 1
28.362152 -16.253534 -9.411797 34.017216 -0.520384 1.851131 -0.002909 -0.020867 208808.000000 0 0 1
28.637252 -17.606334 -9.226997 34.859901 -0.551235 1.838677 -0.002727 -0.024319 -221031.000000 0 0 1
28.630152 -18.382534 -10.579797 35.630538 -0.570780 1.872273 -0.006083 -0.023936 -506665.000000 0 0 1
29.650752 -17.884234 -11.385497 36.450548 -0.542742 1.888467 -0.000560 -0.015402 -131620.000000 0 0 1
29.674152 -18.469434 -12.661897 37.175246 -0.556733 1.918352 -0.008977 0.004803 -44760.400000 0 0 1
28.950852 -17.717934 -13.804697 36.642143 -0.549197 1.957075 -0.006826 0.000817 614457.000000 0 0 1
29.758552 -16.586234 -14.249497 36.928617 -0.508477 1.966943 -0.007446 0.005014 879519.000000 0 0 1
29.041452 -15.840934 -15.208697 36.409416 -0.499351 2.001723 -0.011472 0.006680 -283683.000000 0 0 1
29.824652 -14.623934 -15.781397 36.775288 -0.455882 2.014326 -0.017939 0.011545 273678.000000 0 0 1
30.810652 -14.832434 -16.765197 38.083713 -0.448662 2.026640 -0.016349 0.011322 1172840.000000 0 0 1
32.152652 -15.079934 -16.326497 39.086467 -0.438550 2.001711 -0.003079 -0.001469 468917.000000 0 0 1
33.144452 -15.675734 -17.344097 40.559845 -0.441776 2.012652 0.006270 0.008508 17784.000000 0 0 1
34.479952 -15.673434 -16.860397 41.458372 -0.426645 1.989616 0.011307 0.004014 -364644.000000 0 0 1
-34.502910 -16.334734 -17.733397 42.092134 0.442167 2.005674 0.011254 0.008013 14657.300000 0 0 1
-32.989110 -16.241634 -17.329497 40.649521 0.457495 2.011211 0.011899 0.005589 556405.000000 0 0 1
-32.541810 -17.027834 -16.235297 40.155963 0.482082 1.987016 0.009209 -0.005893 -13795.300000 0 0 1
-33.062210 -16.666034 -14.994497 39.946231 0.466907 1.955589 0.014318 -0.011606 -694924.000000 0 0 1
-32.621610 -17.603534 -13.840097 39.567691 0.494845 1.928136 0.009690 -0.017155 -149945.000000 0 0 1
-31.324510 -17.319734 -13.343397 38.200057 0.505077 1.927624 0.021176 -0.012375 158414.000000 0 0 1
-31.161510 -17.802434 -12.068697 37.863172 0.519046 1.895201 0.027699 -0.003272 467661.000000 0 0 1
-29.672910 -17.554934 -11.664997 36.396833 0.534231 1.897048 0.019301 -0.001349 393730.000000 0 0 1
-29.463210 -16.174934 -11.345697 35.474414 0.502066 1.896344 0.007691 -0.009991 1081300.000000 0 0 1
-28.094810 -15.938034 -10.934797 34.101453 0.516024 1.897217 0.021225 -0.010385 1214120.000000 0 0 1
-27.862110 -16.030134 -9.422497 33.496953 0.522088 1.855939 0.016804 -0.002597 -88816.700000 0 0 1
-28.035310 -17.345634 -8.989697 34.171103 0.554061 1.837008 0.005893 0.000763 -156879.000000 0 0 1
-28.214910 -17.447934 -7.598697 34.033098 0.553835 1.795968 0.017111 0.003435 -121993.000000 0 0 1
-28.362610 -18.922534 -7.105797 34.828039 0.588347 1.776264 0.003490 -0.001507 -154711.000000 0 0 1
-29.506910 -19.561834 -7.647697 36.218923 0.585430 1.783550 -0.008772 0.002974 -82403.400000 0 0 1
-29.405110 -19.990134 -9.018997 36.682534 0.597052 1.819210 -0.007059 0.004254 -649053.000000 0 0 1
-30.642310 -20.701934 -9.524897 38.186973 0.594162 1.822886 -0.016025 0.007809 3137.200000 0 0 1
-31.807410 -19.894334 -9.575097 38.719225 0.558932 1.820685 -0.019113 0.001693 324134.000000 0 0 1
-33.022610 -20.624934 -9.707697 40.126301 0.558290 1.815149 -0.010388 -0.003392 4435.820000 0 0 1
-34.210110 -19.757634 -10.027897 40.758489 0.523739 1.819381 0.004525 -0.019501 -743124.000000 0 0 1
-34.371210 -19.519734 -11.445597 41.150963 0.516489 1.852650 -0.001642 -0.016470 923891.000000 0 0 1
34.098952 -19.094434 -11.801797 40.824237 -0.510466 1.864070 0.010531 -0.021863 895077.000000 0 0 1
33.846452 -19.005734 -13.320297 41.039378 -0.511651 1.901357 -0.003968 -0.010734 -210896.000000 0 0 1
33.788852 -20.239534 -13.952797 41.785234 -0.539684 1.911252 -0.008915 -0.000850 95768.600000 0 0 1
33.282252 -20.123834 -15.264497 41.781358 -0.543825 1.944797 -0.007042 0.002609 920824.000000 0 0 1
31.988052 -20.982834 -15.569397 41.302796 -0.580553 1.957306 -0.004444 0.000941 407872.000000 0 0 1
30.908552 -20.714134 -14.682597 39.999907 -0.590427 1.946649 0.009624 -0.006243 459724.000000 0 0 1
29.782252 -21.567934 -14.878097 39.667570 -0.626775 1.955268 0.015559 -0.003079 327778.000000 0 0 1
28.896052 -21.277834 -16.099697 39.331009 -0.634713 1.992525 0.028430 -0.005527 -778932.000000 0 0 1
28.172452 -20.048534 -15.893797 38.055795 -0.618493 2.001648 0.000593 0.002179 484348.000000 0 0 1
27.444152 -19.713734 -17.073997 37.859400 -0.622917 2.038664 0.010054 -0.002606 11251.900000 0 0 1
26.757152 -18.333834 -17.086797 36.661059 -0.600720 2.055645 0.007253 0.003728 -427976.000000 0 0 1
25.671752 -18.188334 -16.233497 35.403118 -0.616405 2.047140 -0.003392 0.002873 -395517.000000 0 0 1
25.286452 -16.857234 -16.118797 34.400387 -0.587992 2.058461 -0.010168 0.013565 -796458.000000 0 0 1
23.868252 -16.724034 -15.493797 33.006734 -0.611183 2.059422 -0.018557 0.010053 1236740.000000 0 0 1
22.718452 -17.239034 -16.206797 32.802022 -0.649117 2.087572 -0.010639 0.007397 1061890.000000 0 0 1
22.501752 -16.520234 -17.377897 32.882188 -0.633296 2.127617 0.001056 0.014580 -1237350.000000 0 0 1
21.500552 -17.142234 -18.349897 33.058261 -0.673088 2.159252 0.007299 0.010913 662664.000000 0 0 1
20.146952 -17.194434 -17.877597 31.955543 -0.706494 2.164521 0.010479 0.012435 93308.400000 0 0 1
19.327652 -17.757934 -18.823197 32.298840 -0.743097 2.192945 0.005814 0.005842 584402.000000 0 0 1
17.833452 -18.017234 -18.425597 31.339358 -0.790524 2.199304 0.003094 0.010573 1269250.000000 0 0 1
16.955152 -16.870034 -18.395297 30.173866 -0.782882 2.226407 -0.007964 0.013725 -205358.000000 0 0 1
15.657152 -17.312634 -18.184297 29.589565 -0.835568 2.232613 -0.007026 0.012185 -105017.000000 0 0 1
14.538152 -16.290234 -17.782697 28.159437 -0.842171 2.254283 -0.002404 0.016647 261019.000000 0 0 1
14.131352 -15.546734 -18.859897 28.232814 -0.833053 2.302332 -0.002418 0.021321 54644.500000 0 0 1
12.954552 -14.830834 -18.537097 27.044371 -0.852823 2.325994 -0.002680 0.018465 115310.000000 0 0 1
12.238152 -14.195234 -19.740797 27.220876 -0.859302 2.382133 0.003736 0.016861 6781.970000 0 0 1
12.864152 -13.007134 -20.191997 27.246810 -0.790925 2.405470 0.004406 0.011298 -153690.000000 0 0 1
12.152152 -12.501434 -21.273697 27.505106 -0.799565 2.455055 0.010211 0.007242 -102268.000000 0 0 1
12.593952 -11.116934 -21.772197 27.499498 -0.723186 2.484433 0.010698 0.011764 -499557.000000 0 0 1
13.785852 -11.053334 -22.493397 28.603825 -0.675830 2.475719 0.012513 0.012590 -527702.000000 0 0 1
13.978952 -9.762434 -22.959597 28.598240 -0.609629 2.502827 0.016381 0.013645 552290.000000 0 0 1
15.192752 -9.502034 -23.944297 29.907152 -0.558910 2.499127 0.024060 0.012576 668386.000000 0 0 1
15.040552 -10.074834 -25.254877 31.072967 -0.590200 2.519671 0.023476 0.005796 -80448.900000 0 0 1
16.014652 -9.543134 -26.109547 32.081910 -0.537399 2.521527 0.033209 0.001937 -176066.000000 0 0 1
21.663552 4.949166 -7.355497 23.407414 0.224601 1.890450 0.006131 0.031586 -309142.000000 0 1 0
21.657652 6.354966 -7.525697 23.792343 0.285417 1.892631 -0.010814 0.026066 578418.000000 0 1 0
21.150452 7.032166 -6.398397 23.189059 0.320985 1.850346 -0.020207 0.025614 -524054.000000 0 1 0
21.046952 8.595966 -6.766797 23.720336 0.387743 1.860089 -0.026763 0.028663 -648556.000000 0 1 0
19.889652 8.956066 -7.487797 23.062447 0.423093 1.901464 -0.029903 0.027038 371856.000000 0 1 0
19.704352 10.317166 -7.660397 23.524180 0.482348 1.902484 -0.016349 0.024123 -146197.000000 0 1 0
19.187652 11.104366 -6.415997 23.078950 0.524629 1.852510 -0.008876 0.012275 -391689.000000 0 1 0
20.179952 11.594466 -5.548597 23.925907 0.521499 1.804834 -0.012620 0.015984 -136531.000000 0 1 0
19.672152 12.624766 -4.723297 23.847176 0.570560 1.770180 -0.001344 0.018404 21569.200000 0 1 0
20.427652 12.985266 -3.441497 24.448926 0.566236 1.712028 -0.010165 0.005852 505800.000000 0 1 0
21.787252 13.430966 -3.518997 25.835219 0.552434 1.707430 0.001812 -0.005183 1019970.000000 0 0 1
22.422952 13.638366 -2.265997 26.342523 0.546451 1.656923 0.004942 -0.013754 267708.000000 0 0 1
23.286352 12.478066 -1.668497 26.471498 0.491917 1.633868 -0.001399 -0.009942 -696982.000000 0 0 1
24.369652 12.029266 -2.422597 27.284650 0.458528 1.659703 0.001344 -0.002314 -50853.000000 0 0 1
25.090652 11.112866 -1.601497 27.488204 0.416941 1.629091 0.009931 -0.006877 -338842.000000 0 0 1
26.495252 10.841566 -2.154597 28.708539 0.388403 1.645918 0.019637 -0.000361 -381327.000000 0 0 1
27.349352 11.931966 -2.049297 29.909170 0.411386 1.639367 0.022129 -0.009318 434895.000000 0 0 1
28.737852 11.637366 -2.213997 31.083664 0.384765 1.642084 0.024926 -0.008454 767703.000000 0 0 1
29.694152 12.755866 -1.756197 32.365707 0.405739 1.625084 0.011726 -0.003321 -731060.000000 0 0 1
30.043752 12.738566 -0.343397 32.634583 0.401024 1.581319 0.012828 -0.009967 751652.000000 0 0 1
30.836252 13.876466 0.109703 33.814830 0.422858 1.567552 0.013169 -0.007062 810760.000000 0 0 1
32.289152 13.892466 -0.461997 35.153995 0.406311 1.583939 0.021495 -0.018867 -282709.000000 0 0 1
32.882152 15.185966 -0.252397 36.220342 0.432648 1.577765 0.017219 -0.009732 104532.000000 0 0 1
33.837952 15.561866 -1.216997 37.264725 0.431051 1.603460 0.015696 -0.001980 -10162.500000 0 0 1
33.193552 16.416366 -2.344597 37.105338 0.459290 1.634026 -0.016674 0.017892 -224630.000000 0 0 1
32.167452 15.749866 -2.985697 35.940473 0.455310 1.653966 0.001217 0.013833 -634617.000000 0 0 1
31.470352 16.572066 -3.908497 35.781179 0.484695 1.680248 -0.014190 0.021886 -491057.000000 0 0 1
30.034652 16.159766 -4.179297 34.361095 0.493612 1.692727 0.007400 0.008977 -1057950.000000 0 0 1
30.007152 14.996266 -4.983497 33.913897 0.463453 1.718276 0.005534 0.013063 173753.000000 0 0 1
28.743452 14.881166 -5.588397 32.846085 0.477726 1.741767 0.010132 -0.001234 145634.000000 0 0 1
27.529352 14.314966 -4.804297 31.398483 0.479511 1.724410 0.014728 -0.007789 -948837.000000 0 0 1
26.450752 14.140066 -5.634497 30.517721 0.490928 1.756492 0.014074 -0.007711 -773718.000000 0 0 1
25.315552 13.656566 -4.952997 29.187517 0.494710 1.741317 0.009973 0.006291 265436.000000 0 0 1
24.154652 13.354466 -5.951197 28.234831 0.505047 1.783164 -0.001465 0.004259 -29284.100000 0 0 1
24.460952 12.213566 -6.758997 28.163689 0.463094 1.813152 -0.005399 0.014710 758931.000000 0 0 1
23.481852 11.781466 -7.747397 27.390189 0.465028 1.857564 -0.005768 0.005952 347298.000000 0 0 1
23.218552 12.672666 -8.983797 27.935751 0.499612 1.898202 0.001439 0.007740 -237478.000000 0 0 1
22.523852 13.850266 -8.725497 27.843995 0.551315 1.889537 -0.001595 0.003173 96681.300000 0 0 1
22.482352 14.701966 -9.820097 28.601368 0.579136 1.921271 0.004954 -0.002002 -885989.000000 0 0 1
21.776552 16.049166 -9.493397 28.669121 0.635125 1.908304 0.004501 -0.008102 1492590.000000 0 0 1
20.345652 16.000866 -9.252897 27.487985 0.666425 1.914117 -0.005644 0.003326 1335900.000000 0 0 1
19.929952 15.360066 -8.056097 26.420357 0.656620 1.880651 -0.010200 -0.006144 -906058.000000 0 0 1
18.475852 14.908166 -8.000997 25.052474 0.678934 1.895860 -0.010574 0.000222 -52742.500000 0 0 1
17.455852 15.888966 -7.904897 24.892838 0.738442 1.893948 -0.007666 -0.003555 384756.000000 0 1 0
16.159552 15.431166 -7.577797 23.593961 0.762345 1.897767 0.006742 -0.001106 205050.000000 0 1 0
15.670152 15.435366 -6.145797 22.838016 0.777850 1.843259 0.017219 -0.002752 -941721.000000 0 1 0
16.144852 14.475166 -5.270697 22.315172 0.730923 1.809243 0.013079 -0.005706 315994.000000 0 1 0
15.881452 14.780166 -3.876897 22.038696 0.749496 1.747630 0.019654 0.001215 -500761.000000 0 1 0
15.977852 13.623066 -2.892897 21.195483 0.706014 1.707710 0.019659 0.003659 -312198.000000 0 1 0
17.202452 13.125366 -2.410697 21.771794 0.651765 1.681750 0.034324 0.004044 175829.000000 0 1 0
16.973552 12.370766 -1.209597 21.038071 0.629811 1.628324 0.020967 0.004468 71759.100000 0 1 0
16.880052 13.140966 0.119403 21.392414 0.661487 1.565215 0.024173 -0.001477 -423519.000000 0 1 0
15.785652 14.016366 0.125603 21.110686 0.726100 1.564847 0.012523 -0.004445 42.460900 0 1 0
15.842452 14.913566 1.196803 21.790596 0.755206 1.515846 0.016584 -0.005850 -697825.000000 0 1 0
14.604652 15.740266 1.526103 21.526282 0.822804 1.499842 0.012721 -0.002337 -694795.000000 0 1 0
14.353252 16.809666 0.737103 22.116148 0.864060 1.537461 0.017194 -0.006915 590773.000000 0 1 0
13.114352 17.433966 1.116403 21.844352 0.925870 1.519667 0.001079 -0.014619 486892.000000 0 1 0
12.898252 18.877966 0.614103 22.871808 0.971405 1.543943 -0.014970 -0.012489 -275771.000000 0 1 0
12.624352 19.122066 -0.752397 22.925832 0.987285 1.603621 -0.006512 -0.008279 1431.600000 0 1 0
12.400752 20.504866 -1.011397 23.984392 1.026876 1.612978 -0.008038 0.003534 1663280.000000 0 1 0
10.840952 20.861366 -0.985697 23.530712 1.091540 1.612698 -0.016355 0.004199 1643390.000000 0 1 0
10.219952 20.805866 0.282203 23.182129 1.114209 1.558623 -0.022393 0.000182 -802407.000000 0 1 0
8.881152 20.442866 0.195503 22.289545 1.160959 1.562025 -0.016210 -0.004837 -454258.000000 0 1 0
8.151152 20.316166 1.540203 21.944477 1.189243 1.500552 -0.010357 -0.013790 -288034.000000 0 1 0
7.849152 21.561866 2.162503 23.047769 1.221678 1.476831 -0.018017 -0.007373 -150106.000000 0 1 0
7.069352 21.381566 3.306203 22.761328 1.251482 1.425025 -0.025915 -0.004453 -224131.000000 0 1 0
6.518752 22.678466 3.960303 23.926783 1.290900 1.404514 -0.029243 -0.004629 681688.000000 0 1 0
7.563652 23.550566 4.460603 25.134338 1.260036 1.392381 -0.025791 0.000290 918904.000000 0 0 1
6.983852 24.813466 4.744803 26.210597 1.296440 1.388767 -0.033702 0.003990 80356.100000 0 0 1
7.661252 25.403166 5.999503 27.203118 1.277885 1.348423 -0.036559 0.004372 -652537.000000 0 0 1
7.398852 24.473566 7.058303 26.523915 1.277212 1.301440 -0.015220 -0.006572 286995.000000 0 0 1
7.836252 24.958566 8.297503 27.444223 1.266572 1.263649 -0.015532 0.000982 -300545.000000 0 0 1
7.699052 23.969266 9.455403 26.892485 1.260001 1.211516 -0.007298 -0.006328 352727.000000 0 0 1
6.345152 24.087666 9.895303 26.802866 1.313228 1.192661 -0.013353 -0.007793 591960.000000 0 0 1
6.199652 23.161466 10.960503 26.363266 1.309257 1.142030 -0.029007 -0.009236 -739002.000000 0 0 1
4.939252 23.417866 11.757703 26.665262 1.362925 1.114154 -0.014568 -0.006213 289593.000000 0 0 1
3.747852 23.535666 10.968703 26.235213 1.412881 1.139454 -0.017823 -0.007483 298901.000000 0 0 1
2.562852 23.847966 11.632603 26.657290 1.463741 1.119229 -0.023695 -0.006214 585808.000000 0 0 1
1.360352 24.123366 10.644803 26.402635 1.514465 1.155816 0.006653 -0.010790 338573.000000 0 0 1
1.628552 25.234866 9.789403 27.116103 1.506350 1.201437 0.014633 -0.013542 -98124.000000 0 0 1
0.772552 25.332366 8.676803 26.788290 1.540309 1.240945 -0.003587 -0.010022 257010.000000 0 0 1
-0.581148 26.090866 8.913503 27.577555 -1.548526 1.241671 0.006051 -0.013316 548095.000000 0 0 1
-1.513948 25.342166 9.652403 27.160381 -1.511127 1.207470 0.010932 -0.009489 -809854.000000 0 0 1
-2.795148 25.851866 9.516303 27.689201 -1.463093 1.219960 0.020585 -0.014703 -774244.000000 0 0 1
-3.928148 24.947866 10.063203 27.186291 -1.414624 1.191618 0.035172 -0.016295 137352.000000 0 0 1
-4.338848 25.080466 11.415403 27.895641 -1.399495 1.149199 0.021164 -0.010871 -347015.000000 0 0 1
-5.384548 25.963266 11.595703 28.940367 -1.366304 1.158542 0.028264 -0.007154 -798196.000000 0 0 1
-5.680848 26.131666 13.093103 29.775247 -1.356734 1.115497 0.011108 0.004583 -480851.000000 0 0 1
-6.539348 25.149766 13.570803 29.316215 -1.316413 1.089520 0.012466 -0.010391 86797.900000 0 0 1
-7.154448 25.596566 14.811203 30.426009 -1.298244 1.062380 -0.003170 0.014686 361438.000000 0 0 1
-8.182248 24.624166 15.467403 30.208265 -1.249989 1.033255 -0.005195 0.001480 -66309.000000 0 0 1
-9.365048 24.617366 14.730603 30.177964 -1.207278 1.060857 -0.010949 0.015968 -425114.000000 0 0 1
-10.378748 23.833066 15.338903 30.183031 -1.160085 1.037707 -0.009660 0.007724 -542591.000000 0 0 1
-11.801748 24.207066 15.015203 30.833741 -1.117172 1.062175 -0.009864 -0.000442 -866912.000000 0 0 1
-12.138048 25.381966 15.690903 32.214606 -1.124728 1.062060 -0.001641 0.004307 -677374.000000 0 0 1
-13.508948 25.425066 15.939503 32.908865 -1.082405 1.065173 -0.009692 0.001560 -765737.000000 0 0 1
-13.915948 26.581866 16.832903 34.403427 -1.088516 1.059533 -0.005862 0.004274 -148022.000000 0 0 1
-15.234748 26.466266 17.343003 35.118948 -1.048490 1.054301 0.001307 -0.007204 315311.000000 0 0 1
-15.474648 27.371366 18.397403 36.429670 -1.056238 1.041401 0.008657 0.000149 53724.900000 0 0 1
-16.762048 27.063166 19.209503 37.180455 -1.016258 1.027856 0.014174 -0.009403 684908.000000 0 0 1
-17.941248 27.418266 18.487603 37.622349 -0.991366 1.057100 0.016380 -0.004868 138655.000000 0 0 1
-19.094948 26.826066 19.038303 38.035665 -0.952191 1.046576 0.019805 -0.007011 334795.000000 0 0 1
-20.386448 27.102966 18.224703 38.500881 -0.925898 1.077697 0.021546 -0.004152 -99899.700000 0 0 1
-20.914448 28.391066 18.157403 39.663056 -0.935890 1.095287 0.017383 -0.005159 99485.500000 0 0 1
-21.527248 28.638066 16.895403 39.610805 -0.926208 1.130138 0.016508 -0.005462 -554537.000000 0 0 1
-22.347648 29.901466 16.980503 41.010395 -0.928976 1.143893 0.004366 -0.003928 30509.500000 0 0 1
-23.587348 29.602066 17.623903 41.752212 -0.898001 1.135028 -0.006196 -0.001281 583946.000000 0 0 1
-24.559048 30.629666 17.403403 42.944170 -0.894955 1.153537 -0.017969 0.008152 695402.000000 0 0 1
-25.852748 30.463366 18.268903 43.933291 -0.867086 1.141938 -0.015725 0.011415 796665.000000 0 0 1
-26.848688 29.621866 17.630003 43.693523 -0.834467 1.155466 -0.007561 0.016808 -36323.600000 0 0 1
-28.059318 29.605666 18.313803 44.712595 -0.812208 1.148792 0.004980 0.002302 -772200.000000 0 0 1
-28.188168 28.469066 19.355603 44.493819 -0.790356 1.120738 0.001310 -0.000273 -674454.000000 0 0 1
-28.480548 27.208566 18.734003 43.616631 -0.762561 1.126841 -0.002731 0.002950 198308.000000 0 0 1
-28.884158 26.206466 19.654703 43.673571 -0.736831 1.103990 -0.005911 0.003107 -65660.000000 0 0 1
-29.084598 24.782266 19.063603 42.702406 -0.705698 1.108025 0.010729 -0.001759 29093.700000 0 0 1
-30.093828 24.724566 18.078903 42.939369 -0.687763 1.136212 0.013275 -0.002084 206111.000000 0 0 1
-29.656348 23.854466 17.045003 41.702118 -0.677396 1.149732 0.011465 0.005724 -65741.100000 0 0 1
-29.939528 22.321466 17.228503 41.127175 -0.640648 1.138554 0.003762 0.004360 -335357.000000 0 0 1
-31.286058 21.970766 17.079703 41.871807 -0.612237 1.150638 0.002246 0.012335 -472961.000000 0 0 1
-31.394258 20.584766 16.864203 41.154992 -0.580362 1.148591 -0.001550 0.012092 130406.000000 0 0 1
-32.776828 20.116966 16.350003 41.789178 -0.550473 1.168807 0.004872 0.006488 -248912.000000 0 0 1
-33.131738 20.647966 15.095603 41.856037 -0.557310 1.201826 0.013910 0.002363 -97080.900000 0 0 1
-34.122591 19.897866 14.447503 42.059561 -0.527922 1.220154 0.015229 0.000226 -14718.100000 0 0 1
-34.200488 20.201666 12.910903 41.766878 -0.533541 1.256531 0.032427 0.000146 -2363.690000 0 0 1
-34.424507 21.582466 12.557903 42.527055 -0.560001 1.271035 0.019844 -0.002033 132533.000000 0 0 1
-34.239419 22.028466 11.206703 42.227732 -0.571697 1.302191 0.016000 -0.005052 95005.800000 0 0 1
-32.956548 21.598466 10.434603 40.761608 -0.580135 1.311924 0.030233 -0.006267 -55331.000000 0 0 1
-33.057468 20.419266 9.688403 40.045072 -0.553325 1.326434 0.032243 -0.007642 1028350.000000 0 0 1
-31.758108 20.056366 9.162103 38.662377 -0.563285 1.331543 0.056900 -0.008128 1080780.000000 0 0 1
-30.994238 19.018166 9.991403 37.711557 -0.550362 1.302652 0.048304 -0.013042 -441955.000000 0 0 1
-30.607818 19.335266 11.295403 37.924625 -0.563410 1.268369 0.046902 -0.005591 224665.000000 0 0 1
-30.102588 18.292066 12.104003 37.246105 -0.546031 1.239812 0.029648 -0.000525 183872.000000 0 0 1
-29.595538 18.746466 13.523903 37.552920 -0.564633 1.202390 0.015640 0.000493 123437.000000 0 0 1
-28.533908 19.664866 13.601603 37.227604 -0.603424 1.196773 0.008435 0.011737 46562.800000 0 0 1
-29.010598 20.981766 13.553503 38.282460 -0.626157 1.208909 0.003024 0.017596 -494509.000000 0 0 1
-27.951948 22.045466 13.696503 38.143258 -0.667807 1.203514 0.004323 0.016340 -320822.000000 0 0 1
-27.541858 22.110766 15.049603 38.391802 -0.676450 1.167991 0.008759 0.016688 770515.000000 0 0 1
-26.158948 22.457166 15.247503 37.697496 -0.709402 1.154397 0.019102 0.000802 576305.000000 0 0 1
-25.707858 22.320166 16.694003 37.917984 -0.714979 1.114901 0.032569 0.000608 -452982.000000 0 0 1
-25.171958 21.039566 16.832503 36.873079 -0.696212 1.096741 0.046292 -0.000390 17581.900000 0 0 1
-24.587548 20.951066 18.118303 37.037381 -0.705712 1.059636 0.042279 0.004139 -124190.000000 0 0 1
-23.769848 19.699066 18.435203 35.957135 -0.692022 1.032470 0.032267 0.009737 128710.000000 0 0 1
-23.225848 19.803566 19.769503 36.365567 -0.706032 0.996037 0.021090 0.012994 73245.100000 0 0 1
-22.358248 18.733166 20.052103 35.396463 -0.697406 0.968544 0.015969 0.017066 -52248.300000 0 0 1
-21.829548 18.812166 21.502903 35.955550 -0.711291 0.929741 0.018922 0.006207 270170.000000 0 0 1
-22.616148 18.052066 22.452403 36.626188 -0.673639 0.910925 0.026403 0.011940 529993.000000 0 0 1
-22.087048 18.171766 23.750903 37.177361 -0.688450 0.877789 0.047546 0.008587 18318.400000 0 0 1
-22.792648 17.231366 24.776803 37.819502 -0.647334 0.856438 0.032011 0.019105 -132401.000000 0 0 1
-22.381448 15.924766 24.719203 36.953571 -0.618413 0.838033 0.039893 -0.008899 251996.000000 0 0 1
-23.222548 15.139866 25.547303 37.698368 -0.577743 0.826198 0.032515 -0.022467 278815.000000 0 0 1
20.029052 24.936566 33.783763 46.522444 0.894107 0.758044 -0.007052 0.006805 -175806.000000 0 0 1
19.424352 23.969466 32.983329 45.163489 0.889759 0.752021 -0.024715 -0.000109 -55249.100000 0 0 1
19.282152 22.709266 33.639282 44.934546 0.866832 0.724805 -0.001978 -0.005180 -481233.000000 0 0 1
18.597252 21.645766 32.789019 43.468571 0.861006 0.716185 0.026214 -0.007303 -138656.000000 0 0 1
19.397652 21.101966 31.764959 42.785213 0.827456 0.734108 0.019833 -0.011053 160435.000000 0 0 1
18.715952 20.011966 31.180619 41.508994 0.818850 0.720952 0.000983 -0.010670 -255340.000000 0 0 1
19.332952 19.516566 29.826679 40.549847 0.790124 0.744309 0.004195 0.004369 5714.840000 0 0 1
20.564452 18.839966 30.000679 40.961954 0.741662 0.748951 0.011902 0.002532 -312955.000000 0 0 1
20.972852 18.321666 28.773789 40.043412 0.718031 0.769060 0.014441 -0.002588 -123931.000000 0 0 1
22.181052 17.361366 28.913889 40.366187 0.664110 0.772326 0.027768 0.001519 402808.000000 0 0 1
23.366152 18.102066 29.166689 41.525385 0.659131 0.792058 0.036853 -0.002940 886247.000000 0 0 1
24.435252 17.302866 29.789559 42.236104 0.616149 0.787936 0.039599 0.006441 888034.000000 0 0 1
25.696652 18.163466 30.030009 43.497481 0.615303 0.808775 0.027312 -0.000843 -132441.000000 0 0 1
26.550752 18.084866 28.889859 43.204499 0.597958 0.838368 0.027628 0.011484 -122266.000000 0 0 1
27.862552 18.404166 29.318509 44.436585 0.583745 0.850266 0.004392 0.011834 -110826.000000 0 0 1
28.804552 18.171266 28.113749 44.161974 0.562793 0.880708 0.006725 0.025753 -304394.000000 0 0 1
28.537252 19.009066 27.006929 43.647377 0.587620 0.903642 -0.004987 0.015011 459930.000000 0 0 1
29.550652 18.752266 26.024849 43.614003 0.565459 0.931403 -0.002301 0.016413 376581.000000 0 0 1
30.026952 20.045466 25.299949 44.085439 0.588636 0.959555 -0.009267 0.010474 28412.100000 0 0 1
28.993752 20.637466 24.517499 43.216321 0.618595 0.967548 -0.002810 0.001474 260130.000000 0 0 1
29.360952 21.628966 23.595199 43.435136 0.634907 0.996519 -0.007484 -0.007147 -437474.000000 0 0 1
29.951952 21.115266 22.239499 42.866877 0.614055 1.025345 -0.013740 0.008456 -470255.000000 0 0 1
29.083652 20.381966 21.404699 41.466184 0.611266 1.028392 -0.010610 0.018220 91445.600000 0 0 1
29.642652 19.944366 20.127899 41.007278 0.592255 1.057746 -0.015883 0.012577 93611.900000 0 0 1
30.660252 18.779266 20.237899 41.258749 0.549557 1.058119 -0.010308 0.006067 438322.000000 0 0 1
29.981152 17.544766 20.531199 40.351188 0.529461 1.036991 -0.010669 0.006912 1089510.000000 0 0 1
30.985052 16.518766 20.650999 40.735817 0.489792 1.039154 -0.011425 0.011363 -309737.000000 0 0 1
30.473352 15.098266 20.630599 39.776933 0.460007 1.025517 -0.011938 0.013168 -88381.100000 0 0 1
29.861452 14.562166 21.786799 39.729430 0.453725 0.990371 -0.014274 0.004866 907488.000000 0 0 1
28.547152 15.100866 22.027799 39.092198 0.486562 0.972200 -0.008456 0.012305 17490.300000 0 0 1
28.055052 14.529866 23.394199 39.312739 0.477869 0.933432 -0.015855 0.008263 -130817.000000 0 0 1
27.704952 13.159866 23.288999 38.511347 0.443449 0.921368 -0.014616 0.003853 195106.000000 0 0 1
26.962752 12.822966 24.461919 38.597978 0.443922 0.884390 -0.016400 0.011426 87097.400000 0 0 1
26.224252 11.444666 24.416739 37.614743 0.411500 0.864360 -0.016538 0.011192 337559.000000 0 0 1
25.069452 11.470766 23.569599 36.270951 0.429123 0.863448 -0.026423 0.014629 539951.000000 0 0 1
24.949552 10.234466 22.989199 35.436248 0.389274 0.864858 -0.028932 0.015998 -286557.000000 0 0 1
23.733752 10.014366 22.053499 33.910696 0.399281 0.862764 -0.027866 0.012799 -95618.300000 0 0 1
22.561152 9.852666 22.849199 33.588189 0.411747 0.822659 -0.023927 0.016415 466392.000000 0 0 1
21.587052 9.248166 21.966199 32.156543 0.404758 0.818795 -0.027920 0.031422 -167769.000000 0 0 1
20.160852 9.300866 22.514499 31.620700 0.432238 0.778429 -0.005870 0.021001 -510559.000000 0 0 1
19.890452 8.269566 23.412199 31.814255 0.394015 0.743797 0.007513 0.029393 222598.000000 0 0 1
18.562052 8.449266 23.866099 31.393160 0.427162 0.707126 0.003765 0.032341 23950.600000 0 0 1
18.311152 7.645266 25.152589 32.037495 0.395518 0.667941 0.010322 0.028198 -266285.000000 0 0 1
18.461252 6.212966 24.971759 31.670294 0.324635 0.662444 0.012043 0.017611 231055.000000 0 0 1
18.031952 5.496566 26.102919 32.198228 0.295876 0.625459 0.005405 0.006507 -243583.000000 0 0 1
18.331252 3.981966 25.992139 32.054362 0.213900 0.625148 0.013490 0.001536 -269319.000000 0 0 1
19.709952 3.722966 25.975489 32.818725 0.186688 0.657563 0.035651 0.004550 -272958.000000 0 0 1
20.017452 2.376166 25.779199 32.724786 0.118152 0.663636 0.022316 0.002710 -1396400.000000 0 0 1
21.495652 2.200466 25.697969 33.575150 0.102013 0.699155 0.015342 0.012221 -1106800.000000 0 0 1
22.226352 2.554266 26.883059 34.974760 0.114419 0.694081 0.019863 0.002422 1188020.000000 0 0 1
23.653752 2.573966 26.726539 35.783141 0.108392 0.727404 0.021194 0.003762 976230.000000 0 0 1
24.434852 2.976766 27.976519 37.264041 0.121227 0.721578 0.004731 -0.001059 -1331050.000000 0 0 1
24.492452 1.943066 28.878159 37.915745 0.079167 0.704956 0.002748 -0.009868 168028.000000 0 0 1
25.330152 2.143966 30.003289 39.324426 0.084440 0.702904 0.008047 0.001681 1283710.000000 0 0 1
26.852952 2.464366 29.727989 40.136111 0.091516 0.736715 0.022026 -0.005809 -473056.000000 0 0 1
27.084952 3.798766 29.248239 40.043535 0.139345 0.751873 -0.002010 0.014152 3208.420000 0 0 1
28.297552 3.983666 28.535699 40.384491 0.139859 0.786114 -0.006543 0.011186 43241.900000 0 0 1
28.748552 3.015666 27.428409 39.848351 0.104516 0.811626 -0.001416 0.012745 -573158.000000 0 0 1
27.956952 3.076266 26.258739 38.478253 0.109595 0.819714 -0.014679 0.029189 172275.000000 0 0 1
28.341552 2.014066 25.358849 38.083740 0.070945 0.842136 -0.006265 0.037620 -77139.900000 0 0 1
28.002152 2.277466 23.842699 36.848089 0.081153 0.867082 -0.017994 0.031628 111143.000000 0 0 1
28.712752 3.308366 23.193199 37.057953 0.114717 0.894559 -0.020912 0.036819 -300138.000000 0 0 1
30.106852 3.194666 23.030199 38.039696 0.105715 0.920496 -0.029097 0.032305 236454.000000 0 0 1
30.751252 4.447466 22.288899 38.238913 0.143631 0.948521 -0.024555 0.029628 -218664.000000 0 0 1
30.404652 4.569366 20.923099 37.190026 0.149169 0.973269 -0.028797 0.020982 -138161.000000 0 0 1
30.801852 5.746466 20.278399 37.322773 0.184442 0.996404 -0.013606 0.020809 805769.000000 0 0 1
32.343152 6.056866 20.072399 38.544342 0.185125 1.023054 -0.019442 0.016830 920255.000000 0 0 1
33.143352 6.252266 21.245299 39.861451 0.186452 1.008679 -0.011167 0.017404 530566.000000 0 0 1
32.905552 7.518066 21.896199 40.233570 0.224619 0.995329 -0.007856 0.017139 -544574.000000 0 0 1
33.495652 7.447566 23.321099 41.488535 0.218785 0.973862 0.000832 0.017660 -51462.400000 0 0 1
32.931152 6.390066 24.031699 41.265194 0.191661 0.949153 0.000047 0.024948 286867.000000 0 0 1
33.690252 6.217866 25.230279 42.547172 0.182506 0.936022 0.010464 0.014648 154744.000000 0 0 1
33.158052 5.162066 26.235049 42.595553 0.154441 0.907255 0.008780 0.019266 -72483.000000 0 0 1
33.416252 3.774466 25.896909 42.444580 0.112476 0.914566 0.001411 0.018969 72255.900000 0 0 1
32.951552 2.918566 26.921759 42.650954 0.088341 0.887683 0.007181 0.018051 -140996.000000 0 0 1
32.948852 1.425966 26.608759 42.375538 0.043251 0.891909 0.002956 0.020853 173980.000000 0 0 1
32.024552 0.990466 25.601779 41.012242 0.030918 0.896629 0.007381 0.017223 221683.000000 0 0 1
32.093852 -0.388034 25.382629 40.919967 -0.012090 0.901672 0.011511 0.012359 -734000.000000 0 0 1
31.201252 -0.914234 24.292049 39.553225 -0.029293 0.909474 0.011670 0.026050 872057.000000 0 0 1
29.841452 -1.169834 24.733199 38.776435 -0.039182 0.879105 0.004780 0.023306 836448.000000 0 0 1
29.166552 -1.903134 23.713599 37.638337 -0.065158 0.889194 0.009805 0.021421 1199430.000000 0 0 1
27.609252 -1.964634 23.973999 36.618072 -0.071039 0.857005 0.004075 0.026199 1270730.000000 0 0 1
26.927552 -0.777334 23.549799 35.781145 -0.028860 0.852421 -0.004090 0.033670 -72529.500000 0 0 1
25.555952 -0.852434 23.871799 34.981368 -0.033343 0.819735 0.007180 0.027527 88605.000000 0 0 1
24.774852 0.454166 23.627399 34.238188 0.018330 0.809184 0.011978 0.032808 -284355.000000 0 0 1
24.778452 0.924866 22.329199 33.367951 0.037308 0.837690 -0.014475 0.030329 632288.000000 0 0 1
23.900652 2.074866 22.260699 32.727434 0.086595 0.822782 -0.021364 0.028777 412937.000000 0 0 1
24.315652 3.042066 21.137299 32.361868 0.124461 0.859053 -0.031256 0.028219 -214321.000000 0 0 1
24.147052 2.491966 19.821199 31.339590 0.102836 0.886065 -0.008615 0.027099 273852.000000 0 0 1
24.097752 3.510466 18.852399 30.796720 0.144658 0.912012 -0.010565 0.019745 -103855.000000 0 0 1
23.552852 3.011966 17.475899 29.482466 0.127191 0.936320 -0.020657 0.018813 -6131.130000 0 0 1
24.596652 2.798366 16.540899 29.772932 0.113283 0.981750 -0.038100 0.014288 192909.000000 0 0 1
24.212352 2.890766 15.200899 28.734332 0.118830 1.013357 -0.032594 0.001946 -76472.200000 0 0 1
23.475252 1.677966 14.529899 27.659013 0.071357 1.017702 -0.029849 0.021244 549016.000000 0 0 1
22.079252 1.541366 14.772599 26.610127 0.069698 0.982254 -0.008877 0.015487 574507.000000 0 0 1
21.540652 0.409766 14.156499 25.779334 0.019021 0.989460 -0.001477 0.011640 -746606.000000 0 0 1
20.039052 0.472566 13.892099 24.388057 0.023578 0.964744 0.005365 -0.012298 -621307.000000 0 1 0
19.460652 1.245666 12.864099 23.361372 0.063922 0.987645 0.039342 -0.016285 403252.000000 0 1 0
19.915852 1.004066 11.524799 23.031941 0.050373 1.046755 0.054574 -0.017507 -1072600.000000 0 1 0
19.476152 -0.339034 10.866199 22.304926 -0.017406 1.061955 0.041388 -0.019713 -160382.000000 0 1 0
20.383252 -1.404434 10.975599 23.192955 -0.068793 1.077843 0.024637 -0.021239 474447.000000 0 1 0
21.680052 -1.180034 10.435799 24.089895 -0.054376 1.122754 0.029071 -0.020392 -343784.000000 0 1 0
22.702452 -2.330034 10.732199 25.219248 -0.102275 1.131220 0.019508 -0.021603 229207.000000 0 0 1
23.148152 -2.287334 12.097299 26.218571 -0.098493 1.091222 0.017644 -0.022627 354522.000000 0 0 1
24.090152 -3.280434 12.466199 27.322203 -0.135341 1.097002 0.007524 -0.020044 137282.000000 0 0 1
24.314752 -3.163234 13.961999 28.216141 -0.129369 1.053165 -0.003287 -0.011444 -10429.500000 0 0 1
24.947552 -1.942934 14.310199 28.825980 -0.077724 1.051310 -0.006805 -0.013019 123841.000000 0 0 1
25.030352 -1.830534 15.708599 29.607929 -0.073003 1.011543 -0.016350 -0.006727 -161067.000000 0 0 1
26.026252 -0.702034 16.021499 30.570362 -0.026968 1.019155 0.002060 -0.003259 649350.000000 0 0 1
27.394952 -1.098934 15.881799 31.684737 -0.040093 1.045760 -0.001523 -0.000692 1026440.000000 0 0 1
28.324552 -0.048534 16.212199 32.636145 -0.001714 1.050939 -0.012824 0.004865 1301210.000000 0 0 1
29.839252 -0.456534 16.209799 33.960962 -0.015299 1.073209 -0.003585 0.010492 801450.000000 0 0 1
30.417252 -0.946934 15.031599 33.941934 -0.031121 1.112008 -0.001213 0.005776 -704219.000000 0 0 1
31.733452 -1.349534 15.211399 35.216755 -0.042502 1.124158 -0.004647 0.005033 -710899.000000 0 0 1
32.230852 -1.925434 13.865799 35.139657 -0.059668 1.165173 -0.001768 0.006171 -106406.000000 0 0 1
32.085052 -0.936234 12.885299 34.588409 -0.029171 1.189060 0.002527 -0.001440 110564.000000 0 0 1
32.392852 -1.429834 11.601199 34.437321 -0.044112 1.227197 0.000196 -0.006164 -349593.000000 0 0 1
31.832652 -0.567734 10.477299 33.517366 -0.017833 1.252875 -0.000199 0.005262 -587240.000000 0 0 1
32.533252 0.620466 10.217299 34.105581 0.019069 1.266545 0.002012 0.000081 489988.000000 0 0 1
31.681552 1.608866 9.616199 33.147857 0.050739 1.276465 -0.008626 0.000581 116421.000000 0 0 1
32.373652 2.938766 9.270199 33.802755 0.090528 1.292993 -0.010805 -0.001886 93802.300000 0 0 1
33.423952 2.809866 8.326699 34.559945 0.083870 1.327467 -0.012856 -0.005743 -157056.000000 0 0 1
33.431252 4.025966 7.558799 34.510758 0.119848 1.349979 -0.022007 -0.004515 -105680.000000 0 0 1
34.219852 3.894766 6.210799 34.996307 0.113328 1.392381 -0.027430 0.001384 -61514.500000 0 0 1
34.659352 5.128666 5.672599 35.492989 0.146907 1.410285 -0.020374 0.006016 188164.000000 0 0 1
-34.885010 5.034766 4.282299 35.505646 -0.143335 1.449893 -0.037419 -0.002170 -401283.000000 0 0 1
-34.645410 6.447266 3.721399 35.436146 -0.183988 1.465585 -0.035532 -0.009939 -54136.600000 0 0 1
34.142852 7.381966 4.046899 35.165397 0.212931 1.455459 -0.025114 -0.004863 -86301.700000 0 0 1
34.422652 8.707566 3.641299 35.693133 0.247763 1.468602 -0.028335 -0.010140 -201677.000000 0 0 1
33.212752 9.689466 3.885199 34.814758 0.283861 1.458967 0.004139 -0.015746 1474350.000000 0 0 1
32.019152 9.652666 3.084099 33.584397 0.292801 1.478835 0.004844 -0.021167 875411.000000 0 0 1
31.348752 8.381066 3.077399 32.595351 0.261240 1.476243 0.011338 -0.006568 -725655.000000 0 0 1
30.128852 8.246366 2.140999 31.310288 0.267160 1.502363 0.038459 -0.013274 31172.300000 0 0 1
30.445052 8.554166 0.797699 31.634021 0.273909 1.545577 0.034326 -0.011165 495668.000000 0 0 1
29.331752 8.095366 0.046699 30.428421 0.269289 1.569262 0.058926 -0.008435 208192.000000 0 0 1
29.669752 7.824166 -1.483701 30.719914 0.257839 1.619113 0.044403 -0.001181 215255.000000 0 0 1
28.600552 7.169166 -2.190701 29.566665 0.245605 1.644958 0.040906 0.002576 832506.000000 0 0 1
28.900752 6.933466 -3.553801 29.932523 0.235456 1.689804 0.043008 0.004567 -680132.000000 0 0 1
27.757952 6.370566 -4.394501 28.816656 0.225597 1.723892 0.029830 0.007455 -708751.000000 0 0 1
27.625452 4.954866 -4.274401 28.389906 0.177472 1.721932 0.032880 0.008877 276701.000000 0 0 1
27.068152 4.466166 -5.399401 27.960419 0.163524 1.765126 0.016208 0.012300 -776185.000000 0 0 1
26.927252 2.937566 -5.607701 27.661390 0.108663 1.774938 0.024877 0.015228 -695790.000000 0 0 1
26.066252 2.272866 -4.727701 26.588843 0.086976 1.749555 0.012172 0.014838 124088.000000 0 0 1
26.020052 0.854666 -4.947001 26.499932 0.032835 1.758578 0.009792 0.013377 -186883.000000 0 0 1
25.781752 0.268466 -3.510801 26.021079 0.010413 1.706131 0.011295 0.009738 1044340.000000 0 0 1
26.967052 0.488066 -2.678501 27.104141 0.018097 1.669780 0.026052 0.002761 1447260.000000 0 0 1
26.816652 0.101866 -1.306801 26.848667 0.003799 1.619488 0.022090 0.004766 -170157.000000 0 0 1
27.967252 0.645966 -0.429601 27.978009 0.023093 1.586152 0.026425 0.003136 -1271590.000000 0 0 1
29.152352 0.013966 -0.575201 29.158029 0.000479 1.590525 0.023901 0.006769 -1131940.000000 0 0 1
30.125452 0.627266 0.261999 30.133121 0.020819 1.562102 0.019553 0.004787 14335.800000 0 0 1
-2.672948 -21.455134 -8.518097 23.238447 1.446852 1.946097 -0.008411 0.019044 356457.000000 0 1 0
-3.179848 -22.126434 -7.379397 23.540307 1.428061 1.889651 -0.015155 0.021831 136801.000000 0 1 0
-2.201848 -23.051434 -6.873097 24.154839 1.475566 1.859326 -0.006289 0.017303 593139.000000 0 1 0
-2.623548 -23.814034 -5.557997 24.594361 1.461071 1.798752 -0.009087 0.022186 -96568.400000 0 1 0
-2.518948 -22.928734 -4.469797 23.495767 1.461375 1.762201 -0.013306 0.018879 -252272.000000 0 1 0
-2.926648 -23.627234 -3.364797 24.044403 1.447556 1.711198 -0.003201 0.018166 -52920.000000 0 1 0
-2.701048 -22.886834 -2.003097 23.132558 1.453322 1.657497 -0.004532 0.004728 -934490.000000 0 1 0
-1.358648 -22.820434 -1.714797 22.925067 1.511330 1.645666 0.009373 0.000936 -1562220.000000 0 1 0
-1.186448 -22.496334 -0.358597 22.530453 1.518106 1.586713 0.005150 -0.006136 900970.000000 0 1 0
0.344552 -22.393634 -0.054897 22.396352 -1.555411 1.573247 0.016877 -0.014515 765308.000000 0 1 0
0.996152 -21.250234 -0.559797 21.280934 -1.523953 1.597104 0.018947 -0.010825 -1346780.000000 0 1 0
2.261652 -21.067034 -0.078197 21.188231 -1.463851 1.574487 0.021079 -0.013422 -1054370.000000 0 1 0
3.022652 -19.974534 -0.831697 20.219055 -1.420611 1.611942 0.017911 -0.015678 343824.000000 0 1 0
3.703352 -20.347134 -2.011597 20.779009 -1.390759 1.667757 0.017637 -0.011686 -231654.000000 0 1 0
4.828752 -19.545434 -2.304397 20.264528 -1.328594 1.684759 0.031336 -0.008864 -90980.100000 0 1 0
5.620252 -20.101134 -3.514697 21.165914 -1.298160 1.737624 0.026312 -0.000971 -865699.000000 0 1 0
6.405152 -21.144734 -3.008097 22.297408 -1.276663 1.706117 0.031743 -0.003412 -246115.000000 0 1 0
7.256652 -21.736134 -3.995397 23.261164 -1.248579 1.743415 0.029295 -0.000204 1126170.000000 0 1 0
8.532252 -21.028234 -4.588797 23.152603 -1.185341 1.770315 0.020397 0.001971 233436.000000 0 1 0
8.132452 -19.854834 -5.272797 22.094199 -1.182045 1.811773 0.026396 -0.003450 -481588.000000 0 1 0
9.217252 -19.278534 -5.928697 22.175867 -1.124814 1.841437 0.026405 -0.007233 -1016160.000000 0 1 0
8.846852 -18.137734 -6.885097 21.322494 -1.116989 1.899591 0.028045 -0.001471 748290.000000 0 1 0
9.976652 -17.722334 -7.691297 21.743292 -1.058071 1.932354 0.034670 -0.002526 1175570.000000 0 1 0
9.483252 -16.704834 -8.521197 21.014147 -1.054469 1.988320 0.026508 0.001410 36960.000000 0 1 0
10.091452 -16.687734 -9.924697 21.881899 -1.026911 2.041549 0.024522 0.004698 -585767.000000 0 1 0
9.553452 -17.502334 -10.927397 22.737813 -1.071154 2.072115 0.027919 0.013949 -26029.300000 0 1 0
9.026352 -16.777634 -12.054197 22.544793 -1.077214 2.134923 0.014103 0.016942 132692.000000 0 1 0
8.560752 -17.647834 -13.200197 23.642710 -1.119149 2.163156 0.008528 0.019863 268345.000000 0 1 0
7.357952 -18.361534 -12.951597 23.643800 -1.189664 2.150505 0.010393 0.025721 325657.000000 0 1 0
6.704452 -18.747034 -14.155597 24.429120 -1.227343 2.188857 -0.004333 0.025977 -597757.000000 0 1 0
5.476652 -19.578334 -13.930897 24.644975 -1.298038 2.171549 0.002773 0.033460 -905376.000000 0 1 0
5.773352 -20.842834 -13.406197 25.445657 -1.300577 2.125694 0.014618 0.028815 -988913.000000 0 0 1
4.638252 -21.562234 -13.144097 25.675097 -1.358915 2.108237 0.012179 0.020346 -734430.000000 0 0 1
4.981652 -23.023734 -12.680597 26.752696 -1.357711 2.064617 0.008795 0.016509 55387.200000 0 0 1
5.469352 -23.850734 -13.748097 28.067446 -1.345378 2.082684 0.005350 0.012471 -282031.000000 0 0 1
5.038152 -25.193364 -13.742297 29.136563 -1.373421 2.061959 0.005008 0.011372 178876.000000 0 0 1
3.586052 -25.401624 -14.284097 29.362182 -1.430549 2.078852 0.000122 0.005225 580275.000000 0 0 1
2.594752 -24.984034 -13.344497 28.443107 -1.467311 2.059141 0.006024 0.006429 -497903.000000 0 0 1
1.287952 -25.145484 -13.824997 28.724288 -1.519621 2.072933 -0.003138 0.001882 382659.000000 0 0 1
0.514752 -26.482764 -13.415797 29.691504 -1.551362 2.039623 -0.012046 0.006128 -165914.000000 0 0 1
1.024952 -27.668464 -14.030697 31.039570 -1.533769 2.039832 -0.010759 0.010381 -175019.000000 0 0 1
0.549152 -28.877624 -13.475397 31.871697 -1.551782 2.007331 -0.018987 0.021441 143057.000000 0 0 1
-0.888848 -29.352624 -13.822497 32.456556 1.540524 2.010727 -0.027131 0.012027 590847.000000 0 0 1
-1.938948 -28.613434 -13.246697 31.590554 1.503136 2.003498 -0.019544 0.007604 -809741.000000 0 0 1
-3.230248 -29.017444 -13.581297 32.200904 1.459932 2.006190 -0.018291 0.011595 -307864.000000 0 0 1
-4.212148 -28.159834 -12.720997 31.185609 1.422317 1.990963 -0.025094 0.005902 -56309.500000 0 0 1
-4.344948 -28.442254 -11.337197 30.925272 1.419204 1.946148 -0.025852 -0.011442 -140478.000000 0 0 1
-4.727648 -29.763904 -10.937297 32.060336 1.413274 1.918933 -0.027444 -0.004418 -633319.000000 0 0 1
-5.163048 -29.935044 -9.493697 31.825999 1.400002 1.873707 -0.018363 -0.011928 907973.000000 0 0 1
-6.496048 -29.489234 -9.150597 31.552290 1.353974 1.865037 -0.001587 -0.013362 777758.000000 0 0 1
-6.689248 -28.084364 -9.214897 30.304981 1.336969 1.879760 -0.000493 -0.006370 -1018210.000000 0 0 1
-8.130748 -27.546444 -8.986897 30.094517 1.283781 1.874045 0.004739 -0.011466 535229.000000 0 0 1
-9.098848 -27.761164 -9.995997 30.877034 1.254075 1.900471 0.022247 -0.013247 88952.600000 0 0 1
-9.450148 -29.135934 -10.205097 32.285476 1.257155 1.892401 0.023351 -0.018163 -785839.000000 0 0 1
-10.625748 -29.358204 -11.188097 33.166010 1.223529 1.914882 0.025254 -0.019764 -190703.000000 0 0 1
-10.353848 -29.176314 -12.554197 33.407594 1.229788 1.956044 0.037757 -0.019493 -152489.000000 0 0 1
-11.346848 -29.792374 -13.325597 34.552975 1.206894 1.966716 0.040412 -0.014719 -300838.000000 0 0 1
-11.610448 -29.030904 -14.656497 34.531273 1.190347 2.009141 0.049113 -0.017319 212174.000000 0 0 1
-12.549348 -27.929184 -14.647797 33.942355 1.148502 2.017006 0.044027 -0.027997 369122.000000 0 0 1
-12.311148 -26.822054 -13.791597 32.575990 1.140489 2.007955 0.050291 -0.012984 -685080.000000 0 0 1
-13.346248 -25.763734 -13.976597 32.206173 1.092833 2.019694 0.076272 -0.013819 -251570.000000 0 0 1
-12.852448 -24.790434 -14.888397 31.645148 1.092503 2.060631 0.065311 -0.013436 599384.000000 0 0 1
-13.948348 -23.953934 -15.264897 31.644343 1.043494 2.074177 0.075782 -0.009197 95573.700000 0 0 1
-13.762848 -23.146634 -16.543197 31.604747 1.034361 2.121680 0.073730 -0.013682 -154359.000000 0 0 1
-13.049548 -21.947634 -16.398397 30.346281 1.034374 2.141680 0.057111 -0.008479 98007.600000 0 0 1
-12.953848 -21.266034 -17.614597 30.501154 1.023688 2.186467 0.042829 0.007279 -141898.000000 0 0 1
-13.206448 -19.704834 -17.503697 29.479996 0.980342 2.206505 0.031583 0.010282 326616.000000 0 0 1
-12.051748 -18.948834 -17.155497 28.259760 1.004315 2.223158 0.042969 0.002450 529086.000000 0 0 1
-12.368248 -17.573834 -17.396797 27.648902 0.957533 2.251325 0.040092 0.000952 869004.000000 0 0 1
-11.035948 -16.826334 -17.760197 26.839193 0.990303 2.293915 0.039684 -0.008474 987713.000000 0 0 1
-10.256448 -16.596334 -16.571497 25.597804 1.017250 2.274938 0.029361 -0.001435 883127.000000 0 0 1
-9.063048 -15.854834 -16.941897 24.910690 1.051501 2.318703 0.034328 -0.002045 503745.000000 0 1 0
-8.467648 -15.095134 -15.741597 23.395769 1.059583 2.308837 0.027852 -0.001442 133003.000000 0 1 0
-7.733148 -15.733434 -14.679297 22.865351 1.113963 2.267886 0.010661 -0.000967 643961.000000 0 1 0
-6.590148 -16.528934 -14.994397 23.269458 1.191408 2.271010 0.010904 0.006169 -112164.000000 0 1 0
-6.209748 -17.448734 -13.805397 23.099963 1.228888 2.211347 0.001947 0.008655 -1048400.000000 0 1 0
-5.799248 -16.698734 -12.621297 21.720408 1.236541 2.190852 -0.000814 0.005224 292405.000000 0 1 0
-5.573648 -17.482134 -11.454897 21.631117 1.262164 2.128874 -0.008718 0.002541 209363.000000 0 1 0
-4.463148 -18.576534 -11.492997 22.295656 1.335008 2.112366 -0.008089 0.003881 855564.000000 0 1 0
-3.118348 -18.081734 -11.622497 21.719937 1.400018 2.135431 -0.006192 0.005733 452563.000000 0 1 0
-2.167048 -19.141834 -11.580997 22.477220 1.458066 2.112075 0.000829 0.012794 -51631.700000 0 1 0
-0.780548 -18.699634 -12.005097 22.235286 1.529079 2.141129 0.002052 0.022043 -1414390.000000 0 1 0
-0.656248 -18.246434 -13.341497 22.613239 1.534846 2.201838 0.005976 0.009993 -531725.000000 0 1 0
0.605052 -17.693334 -13.607897 22.329241 -1.536613 2.226126 0.007874 0.011121 914978.000000 0 1 0
1.886252 -18.632234 -13.625797 23.159889 -1.469904 2.199796 0.017969 0.006488 19803.100000 0 1 0
2.027852 -19.621234 -14.651097 24.571521 -1.467812 2.209635 0.023889 0.008082 74841.800000 0 1 0
1.082552 -20.698834 -14.634997 25.373151 -1.518544 2.185591 0.009805 0.010303 -633322.000000 0 0 1
1.156852 -21.620934 -15.872797 26.846765 -1.517341 2.203388 0.017027 0.007902 -243289.000000 0 0 1
2.374052 -22.274134 -16.080397 27.574487 -1.464614 2.193412 0.003366 0.015112 -787159.000000 0 0 1
3.478252 -21.511534 -16.453297 27.304859 -1.410491 2.217523 0.000680 0.012471 -824837.000000 0 0 1
4.629852 -22.458434 -16.884697 28.476478 -1.367492 2.205495 0.001216 0.009175 -3967.700000 0 0 1
4.524952 -22.982334 -18.219997 29.675430 -1.376395 2.231884 -0.008956 0.011670 98655.700000 0 0 1
5.588652 -23.870534 -18.561497 30.750034 -1.340815 2.218837 -0.005311 0.006381 282515.000000 0 0 1
5.950352 -23.688134 -20.022397 31.582127 -1.324693 2.257484 -0.010360 0.010026 -173623.000000 0 0 1
6.513252 -22.400734 -20.271397 30.905418 -1.287837 2.286193 -0.005344 -0.000109 -23448.400000 0 0 1
6.687952 -22.301034 -21.669297 31.806026 -1.279437 2.320327 0.005036 0.002834 -158545.000000 0 0 1
7.031552 -20.940034 -22.256197 31.357073 -1.246832 2.359963 -0.000771 -0.006150 69198.300000 0 0 1
5.961552 -20.027234 -22.144597 30.446894 -1.281476 2.385203 0.013628 -0.003831 67950.300000 0 0 1
6.337252 -18.682534 -22.498797 29.923130 -1.243769 2.421715 0.026070 -0.007638 511159.000000 0 0 1
5.026552 -17.912434 -22.839597 29.457914 -1.297215 2.458033 0.026116 -0.008278 -161313.000000 0 0 1
4.473152 -18.422134 -24.005197 30.588128 -1.332592 2.473150 0.019605 -0.008891 228924.000000 0 0 1
3.401652 -17.609934 -24.504497 30.366946 -1.379980 2.509760 0.023437 -0.000205 1056140.000000 0 0 1
1.985952 -17.579234 -23.863597 29.705971 -1.458302 2.503657 0.034239 0.006187 -45811.500000 0 0 1
1.902752 -16.903334 -22.599397 28.285613 -1.458702 2.496379 0.034809 0.001789 -576237.000000 0 0 1
0.785652 -16.104834 -22.360897 27.567964 -1.522051 2.516859 0.028250 0.001372 -421532.000000 0 0 1
1.066852 -15.397934 -20.979497 26.045611 -1.501621 2.507299 0.016067 0.004147 221883.000000 0 0 1
2.022952 -14.346334 -21.035697 25.542321 -1.430712 2.538459 0.015907 0.003793 -95993.700000 0 0 1
2.035652 -13.483534 -19.915897 24.136953 -1.420955 2.541212 0.012762 -0.000809 -334631.000000 0 1 0
3.143452 -12.449434 -19.997497 23.764881 -1.323468 2.570799 0.012235 -0.002159 245283.000000 0 1 0
4.451452 -13.012634 -19.816297 24.121146 -1.241188 2.534889 0.018214 -0.000866 662762.000000 0 1 0
5.588552 -12.194934 -19.572097 23.727944 -1.141088 2.540741 0.020755 -0.006459 640969.000000 0 1 0
5.566952 -11.233434 -18.363497 22.235085 -1.110699 2.542556 0.023148 -0.002355 -546879.000000 0 1 0
4.591352 -10.196134 -18.315297 21.459072 -1.147690 2.593460 0.015708 0.005498 -130530.000000 0 1 0
4.856552 -8.960734 -19.038297 21.594851 -1.074130 2.650065 0.017395 -0.006573 -258525.000000 0 1 0
4.468052 -8.983534 -20.542097 22.861433 -1.109263 2.687246 0.020098 -0.005488 -134630.000000 0 1 0
3.067452 -9.006134 -20.689697 22.772423 -1.242524 2.710577 0.014768 -0.013465 -376126.000000 0 1 0
2.709252 -8.971534 -22.054297 23.962898 -1.277521 2.739775 0.016875 -0.017931 124415.000000 0 1 0
1.171152 -8.883534 -22.170697 23.912937 -1.439718 2.757509 0.007901 -0.019598 -387017.000000 0 1 0
0.633752 -7.812834 -21.419697 22.808889 -1.489857 2.790781 0.007334 -0.020608 49103.600000 0 1 0
-0.767048 -7.666234 -21.627797 22.959118 1.471073 2.799377 0.011441 -0.021499 426211.000000 0 1 0
-1.030748 -6.726534 -22.834597 23.827033 1.418743 2.851958 0.020410 -0.018541 -530165.000000 0 1 0
-0.698848 -7.307934 -24.065697 25.160526 1.475458 2.845508 0.021530 -0.025531 -273458.000000 0 0 1
-1.189848 -6.616434 -25.202507 26.083698 1.392866 2.880920 0.011993 -0.013400 -185036.000000 0 0 1
-0.680848 -5.202534 -25.633337 26.164821 1.440667 2.939691 0.025918 -0.015637 -51900.400000 0 0 1
-1.311048 -4.712134 -26.817987 27.260364 1.299431 2.961193 0.020799 -0.009654 -29785.600000 0 0 1
-0.944148 -3.388434 -27.210307 27.436722 1.299051 3.013034 0.007421 -0.004861 -429592.000000 0 0 1
-1.452648 -2.229334 -26.368547 26.502460 0.993293 3.041023 0.014087 -0.010149 1102660.000000 0 0 1
-2.842448 -1.817034 -26.373077 26.587973 0.568781 3.014366 0.003689 -0.006653 1196300.000000 0 0 1
-3.296348 -1.124634 -27.558647 27.777864 0.328792 3.015877 0.021541 -0.005036 673294.000000 0 0 1
-4.860548 -1.039634 -27.534357 27.979395 0.210717 2.962997 0.013275 -0.000979 544500.000000 0 0 1
-5.346048 -0.225834 -26.534727 27.068856 0.042218 2.942608 0.014891 -0.000789 -978510.000000 0 0 1
-6.727248 -0.342434 -26.500627 27.343305 0.050859 2.892683 0.011626 -0.008524 -974561.000000 0 0 1
-7.510448 0.822966 -25.876747 26.957191 -0.109141 2.857513 0.005729 0.000889 -910540.000000 0 0 1
-7.563548 1.980566 -26.727787 27.847881 -0.256106 2.857007 0.009530 0.001038 472450.000000 0 0 1
-8.531948 1.956766 -27.777837 29.124410 -0.225447 2.836319 0.002666 -0.000449 251361.000000 0 0 1
-10.027348 1.829766 -27.404437 29.238654 -0.180492 2.785504 -0.003975 -0.000361 -783958.000000 0 0 1
-10.924248 2.047766 -28.477677 30.569766 -0.185301 2.769486 -0.003235 -0.014837 238481.000000 0 0 1
-12.196348 1.614966 -27.987747 30.572422 -0.131648 2.727439 -0.023403 -0.005114 247364.000000 0 0 1
-13.317448 2.114166 -28.933907 31.921702 -0.157438 2.705484 -0.027734 -0.003195 -2130320.000000 0 0 1
-14.553548 1.634966 -28.658917 32.184039 -0.111872 2.669173 -0.019272 0.000309 -1126160.000000 0 0 1
-15.588348 2.400066 -29.278247 33.256167 -0.152766 2.647471 -0.012518 -0.003440 281006.000000 0 0 1
-15.932548 3.823066 -28.745247 33.087024 -0.235501 2.623524 -0.011610 0.006686 -977644.000000 0 0 1
-15.011248 4.872966 -28.953967 32.975984 -0.313889 2.642531 -0.006142 0.005209 -221978.000000 0 0 1
-14.897648 5.322566 -30.291757 34.173969 -0.343142 2.660303 -0.009803 -0.004653 -795189.000000 0 0 1
-16.082348 5.876766 -31.067467 35.473452 -0.350343 2.637876 -0.003481 0.001706 -526200.000000 0 0 1
-16.751148 6.928666 -30.409177 35.402336 -0.392195 2.604031 0.002986 0.007812 533486.000000 0 0 1
-17.681948 7.669566 -31.208667 36.680436 -0.409260 2.588352 -0.001992 0.006233 3425.780000 0 0 1
-18.490948 8.676166 -30.463637 36.677298 -0.438715 2.550955 0.008847 -0.000261 -522273.000000 0 0 1
-17.597248 9.654966 -29.993127 36.089737 -0.501816 2.551827 0.015615 -0.002378 266411.000000 0 0 1
-18.239748 10.565866 -29.175307 35.993395 -0.525043 2.515928 0.025143 -0.009412 -281435.000000 0 0 1
-8.278848 25.212366 30.826569 40.675300 -1.253524 0.710755 -0.033395 0.023997 -489533.000000 0 0 1
-9.132148 26.392166 30.872389 41.629880 -1.237674 0.735356 -0.025598 0.024643 469610.000000 0 0 1
-8.825348 27.382166 31.882019 42.943368 -1.259006 0.734121 -0.020767 0.015135 10312.800000 0 0 1
-7.446148 28.037166 31.628039 42.916904 -1.311207 0.742235 -0.024552 0.014141 78152.300000 0 0 1
-7.476148 28.973366 30.614689 42.808969 -1.318270 0.773963 0.002886 0.017941 -400025.000000 0 0 1
-6.173948 29.119566 30.153519 42.370997 -1.361870 0.778946 0.000534 0.018608 -544768.000000 0 0 1
-6.025248 30.275166 29.113889 42.432391 -1.374347 0.814648 0.029485 0.005496 -223978.000000 0 0 1
-6.197948 31.505666 29.766369 43.784224 -1.376552 0.823249 0.032181 -0.000004 262709.000000 0 0 1
-5.800348 32.606866 29.005499 44.024660 -1.394751 0.851512 0.034275 -0.000158 -113583.000000 0 0 1
-6.162648 33.941666 29.709949 45.526871 -1.391187 0.859811 0.030509 -0.003536 -83881.900000 0 0 1
-5.407048 34.186066 30.889679 46.390683 -1.413931 0.842151 0.027676 -0.009246 307939.000000 0 0 1
-6.036648 -34.233931 31.685199 47.035677 1.396255 0.831671 0.019312 -0.001838 836021.000000 0 0 1
-7.327748 -34.745231 32.421549 48.084132 1.362943 0.830824 -0.001684 0.002740 266243.000000 0 0 1
-7.139848 33.858966 33.488710 48.154965 -1.362971 0.801769 0.003487 0.008186 -191382.000000 0 0 1
-6.889748 32.547166 33.050009 46.894453 -1.362191 0.788691 0.023708 0.010117 -197660.000000 0 0 1
-6.656748 31.493066 34.232312 46.989112 -1.362491 0.754643 0.017584 0.002981 386253.000000 0 0 1
-5.370648 31.657866 -34.420120 47.072380 -1.402750 2.390901 0.011353 -0.001550 505438.000000 0 0 1
-5.371648 31.153966 -33.077007 45.754918 -1.400053 2.378811 0.004398 -0.003843 -280691.000000 0 0 1
-4.025748 30.799166 -32.402357 44.885498 -1.440824 2.377325 -0.015337 0.000119 523761.000000 0 0 1
-3.339148 29.574466 -32.727977 44.237082 -1.458366 2.403616 -0.016947 0.007625 637399.000000 0 0 1
-2.809648 29.411466 -34.077961 45.102504 -1.475556 2.427315 -0.007478 0.006465 -324913.000000 0 0 1
-2.293648 28.016466 -34.373422 44.404001 -1.489111 2.456099 -0.009823 0.004504 133365.000000 0 0 1
-1.180748 27.515066 -33.600707 43.445143 -1.527910 2.454992 0.005719 0.006404 933125.000000 0 0 1
-0.741248 26.133466 -33.817327 42.744813 -1.542440 2.483474 0.005718 0.010230 485039.000000 0 0 1
-0.258048 25.750666 34.002728 42.653826 -1.560776 0.648188 0.004869 0.015259 -366534.000000 0 0 1
-1.355048 25.425266 33.175279 41.819605 -1.517551 0.654595 0.005581 0.020741 3336.830000 0 0 1
-1.115148 25.351366 31.759699 40.652352 -1.526837 0.674129 0.030162 0.019522 -625104.000000 0 0 1
-0.699548 26.729866 31.129959 41.037171 -1.544631 0.709666 0.008308 0.015897 588659.000000 0 0 1
-1.695548 27.780266 31.165209 41.783828 -1.509838 0.728960 -0.007507 0.012985 603274.000000 0 0 1
-1.230948 28.883666 30.377019 41.935005 -1.528205 0.760657 0.001110 0.013422 -125297.000000 0 0 1
-2.176148 30.066866 30.364019 42.786980 -1.498545 0.781787 0.008357 0.013632 -350500.000000 0 0 1
-2.230248 30.674666 31.645929 44.129060 -1.498218 0.771132 0.018836 0.012489 -114639.000000 0 0 1
-2.983048 31.849566 31.754399 45.073665 -1.477408 0.789078 0.014326 0.015322 50332.400000 0 0 1
-2.439248 32.573966 33.032109 46.455714 -1.496052 0.779813 0.024151 0.013887 -191581.000000 0 0 1
-1.129948 33.004166 32.889739 46.607796 -1.536573 0.787428 0.011442 0.000225 -969318.000000 0 0 1
-0.548048 33.499566 34.084050 47.793762 -1.554438 0.776817 0.001962 0.007199 565961.000000 0 0 1
0.903452 33.997266 33.791895 47.942908 1.544228 0.788604 0.020185 -0.000156 411757.000000 0 0 1
0.857952 -34.260331 33.184709 47.704625 -1.545759 0.801502 0.037141 -0.007593 -13530.400000 0 0 1
2.159652 -33.786831 32.995789 47.275111 -1.506963 0.798262 0.004635 -0.000271 -305866.000000 0 0 1
2.155052 -32.356631 32.395579 45.837423 -1.504291 0.785903 0.011446 -0.000869 -95562.700000 0 0 1
1.631752 -31.499731 33.391104 45.933228 -1.519040 0.756928 0.012374 0.008779 273888.000000 0 0 1
1.513952 -30.196731 32.844679 44.641993 -1.520702 0.744045 0.020875 0.005292 -86244.300000 0 0 1
1.316052 -29.287631 34.094235 44.965700 -1.525891 0.710206 0.013859 0.008448 471601.000000 0 0 1
-0.073748 -29.095331 34.347386 45.014293 1.568262 0.702804 0.007462 0.011449 471364.000000 0 0 1
-0.241748 -28.613631 -33.607217 44.138909 1.562348 2.436261 0.005566 0.016017 475011.000000 0 0 1
-1.732748 -28.304031 -33.262297 43.709278 1.509654 2.435633 -0.009032 0.016695 426213.000000 0 0 1
-1.957048 -27.796131 -31.977447 42.414762 1.500505 2.424809 -0.004994 0.013208 -84162.500000 0 0 1
-2.953448 -26.817731 -32.028727 41.877833 1.461108 2.441548 -0.000781 0.001911 -422858.000000 0 0 1
-3.172248 -26.185331 -30.624557 40.417795 1.450238 2.430578 0.005245 -0.003224 -363894.000000 0 0 1
-3.712848 -27.111131 -29.733047 40.408572 1.434694 2.397659 0.003985 0.006466 -84074.600000 0 0 1
-4.319648 -26.564931 -28.569317 39.249978 1.409600 2.386023 0.007599 0.001145 -95559.900000 0 0 1
-3.367448 -25.987931 -27.519967 38.000800 1.441937 2.380662 0.008535 -0.000510 -362791.000000 0 0 1
-2.790548 -24.787331 -27.878957 37.409025 1.458689 2.411701 0.004281 0.004701 519601.000000 0 0 1
-1.651248 -24.468931 -27.048937 36.511644 1.503415 2.405102 0.003411 0.012324 156243.000000 0 0 1
-0.747048 -23.369731 -27.701997 36.250559 1.538841 2.440567 0.007196 0.016694 373102.000000 0 0 1
-0.024448 -23.802631 -28.848727 37.400733 1.569769 2.451742 -0.012471 0.003420 125840.000000 0 0 1
1.000352 -24.766431 -28.710697 37.929947 -1.530427 2.429414 -0.003652 0.008434 -675814.000000 0 0 1
1.728152 -24.928831 -30.046197 39.079497 -1.501584 2.447834 -0.010367 0.007219 -653836.000000 0 0 1
2.757452 -23.994531 -30.183037 38.656911 -1.456378 2.466730 -0.001008 0.010681 -267139.000000 0 0 1
3.415852 -24.432331 -31.372557 39.910452 -1.431888 2.475228 0.014319 0.008521 -886869.000000 0 0 1
4.378052 -23.301131 -31.827147 39.687244 -1.385072 2.501347 0.022419 0.003019 28497.800000 0 0 1
5.594252 -23.087531 -31.104887 39.138775 -1.333072 2.489364 0.009468 -0.002812 1754590.000000 0 0 1
6.561552 -24.200931 -31.062137 39.919862 -1.306033 2.462451 0.014533 0.003072 372744.000000 0 0 1
7.273652 -24.620831 -32.360497 41.307300 -1.283540 2.470928 0.011408 0.006021 -674305.000000 0 0 1
6.463252 -25.488131 -33.159317 42.319720 -1.322452 2.471144 0.003370 0.012220 330854.000000 0 0 1
6.730252 -25.455231 -34.583926 43.466228 -1.312315 2.490877 0.005222 0.019880 -72349.600000 0 0 1
6.219252 -24.176431 33.992031 42.173891 -1.319011 0.633438 0.008367 0.009794 149699.000000 0 0 1
4.848052 -23.895131 34.226533 42.023047 -1.370625 0.618980 0.018181 0.005710 266008.000000 0 0 1
4.372252 -22.791531 33.525308 40.773971 -1.381262 0.605490 0.022531 0.002798 811564.000000 0 0 1
2.898352 -22.313231 33.868308 40.661320 -1.441626 0.586403 0.003911 -0.005820 1365050.000000 0 0 1
1.852852 -23.096331 33.311633 40.577561 -1.490745 0.607746 0.010934 -0.006790 17992.400000 0 0 1
1.359452 -24.022431 34.263939 41.868160 -1.514266 0.612215 0.019359 0.000821 -280918.000000 0 0 1
0.067052 -24.716831 33.797423 41.871136 -1.568084 0.631442 0.006388 -0.002602 -477966.000000 0 0 1
0.175752 -25.498831 32.650679 41.428107 -1.563904 0.663034 0.018769 -0.011698 -122849.000000 0 0 1
-1.052848 -25.937231 32.103849 41.285658 1.530226 0.679952 0.004514 -0.019700 -146123.000000 0 0 1
-0.879448 -27.127831 31.119059 41.292717 1.538389 0.717243 0.002590 -0.030281 -318662.000000 0 0 1
-2.023148 -27.322631 30.336809 40.877148 1.496885 0.734530 -0.002581 -0.030136 -159922.000000 0 0 1
-1.974248 -28.499731 29.573799 41.118632 1.501634 0.768101 0.002333 -0.031707 -622018.000000 0 0 1
-3.247048 -28.686631 28.748999 40.742742 1.458086 0.787495 0.004536 -0.019822 -933665.000000 0 0 1
-4.262948 -29.085031 29.596099 41.713796 1.425264 0.782002 0.011745 -0.014190 -81664.900000 0 0 1
-5.478148 -29.324631 28.848989 41.499497 1.386115 0.802147 -0.012843 -0.005987 6639.070000 0 0 1
-6.537148 -29.802131 29.827119 42.668001 1.354864 0.796727 -0.008740 0.002967 -1020920.000000 0 0 1
-7.725348 -30.139031 29.135959 42.625653 1.319875 0.818207 0.003021 0.004122 247728.000000 0 0 1
-8.804248 -30.550731 29.965629 43.689825 1.290214 0.814995 0.004365 0.005955 -73728.800000 0 0 1
-8.700348 -31.905631 30.655369 45.093425 1.304579 0.823280 0.001165 0.010403 -768023.000000 0 0 1
-8.605448 -33.088531 29.906509 45.423605 1.316359 0.852117 0.014869 0.004823 531919.000000 0 0 1
-9.894848 -33.452031 29.414959 45.630978 1.283204 0.870261 0.008787 0.003908 -66485.900000 0 0 1
-10.064548 34.600766 29.012969 46.262949 -1.287731 0.892931 0.026749 0.002388 -288369.000000 0 0 1
-9.922048 33.701466 30.099339 46.262361 -1.284476 0.862392 0.021155 0.005465 337272.000000 0 0 1
-9.865648 32.381066 29.590939 44.960962 -1.275058 0.852441 0.024145 -0.007055 -79628.600000 0 0 1
-10.312948 31.310166 30.625799 44.995810 -1.252608 0.822165 0.020070 0.016744 1444770.000000 0 0 1
-11.742848 31.252366 30.897819 45.489340 -1.211375 0.824081 0.004777 0.024080 1207570.000000 0 0 1
-12.101148 29.942266 31.310369 44.981288 -1.186718 0.800880 0.005254 0.025128 -85888.700000 0 0 1
-12.178348 29.678066 32.822809 45.895931 -1.181401 0.773947 0.004621 0.008860 -535838.000000 0 0 1
-13.236348 30.270466 33.523522 47.067276 -1.158579 0.778102 0.012568 0.017412 35365.800000 0 0 1
-13.265748 29.988666 -34.316752 47.465141 -1.154315 2.378915 0.015755 0.008202 -680703.000000 0 0 1
-14.613948 30.297666 -33.692717 47.610032 -1.121372 2.357007 0.013801 0.006815 -640883.000000 0 0 1
-14.699848 29.804166 -32.357017 46.382651 -1.112592 2.342853 0.021230 -0.002094 -77474.500000 0 0 1
-15.814548 30.318466 -31.670397 46.608189 -1.090007 2.317881 0.023788 -0.003765 -130387.000000 0 0 1
-15.892248 29.691166 -30.234707 45.257777 -1.079347 2.302389 0.034158 -0.010951 -256809.000000 0 0 1
-16.248548 28.292066 -30.192047 44.452401 -1.049477 2.317468 0.030733 -0.015457 293011.000000 0 0 1
-16.085248 27.801566 -28.892697 43.202433 -1.046281 2.303356 0.036590 -0.015114 -194077.000000 0 0 1
-16.720848 26.407766 -28.668577 42.412783 -1.006337 2.313038 0.003872 -0.012407 373185.000000 0 0 1
-18.134148 26.390266 -28.802607 43.068360 -0.968745 2.303343 0.003511 -0.002137 65964.400000 0 0 1
-18.656448 25.120666 -28.516257 42.335420 -0.932001 2.309837 -0.010516 0.000009 -796909.000000 0 0 1
-20.145748 25.034566 -28.741887 43.112373 -0.893186 2.300533 0.003713 0.000963 -1141150.000000 0 0 1
-20.989748 25.688566 -27.846597 43.311718 -0.885724 2.269120 -0.002082 0.000924 728152.000000 0 0 1
-22.354748 25.533566 -28.290717 44.182150 -0.851681 2.265711 0.002570 -0.005545 708557.000000 0 0 1
-23.423048 25.576566 -27.223597 44.089955 -0.829320 2.236300 0.021189 -0.007964 -388210.000000 0 0 1
-23.748148 26.849866 -26.693597 44.692706 -0.846623 2.210889 0.006999 0.004981 -64650.300000 0 0 1
-24.638248 26.871466 -25.577967 44.534833 -0.828726 2.182589 0.011942 0.017264 207764.000000 0 0 1
-24.116648 26.247366 -24.263197 43.118901 -0.827679 2.168450 0.002593 0.008758 -556221.000000 0 0 1
-24.081748 24.791766 -24.192097 42.187910 -0.799925 2.181491 0.016468 0.004306 -374075.000000 0 0 1
-25.316438 24.177166 -23.905397 42.390156 -0.762384 2.169942 0.023668 -0.006099 -337128.000000 0 0 1
-25.819888 24.233966 -22.442197 41.923787 -0.753724 2.135670 0.015130 -0.001867 -355050.000000 0 0 1
-25.128978 23.622666 -21.357797 40.566629 -0.754510 2.125259 0.019153 -0.004308 126093.000000 0 0 1
-24.054148 24.452866 -20.924297 40.179234 -0.793618 2.118554 0.018203 0.000421 330493.000000 0 0 1
-23.174948 23.768966 -19.818897 38.663039 -0.798051 2.109013 0.021834 -0.009920 -48954.900000 0 0 1
-23.807348 23.784266 -18.554197 38.428366 -0.784913 2.074675 0.021635 -0.015756 169495.000000 0 0 1
-22.889448 23.461166 -17.565597 37.187408 -0.797732 2.062755 0.015543 -0.013088 -85490.800000 0 0 1
-23.614748 23.621866 -16.198697 37.122051 -0.785549 2.022349 0.003842 -0.009353 53215.000000 0 0 1
-23.936048 24.951566 -15.798497 38.014570 -0.806168 1.999388 0.010605 -0.016266 -89446.000000 0 0 1
-24.423748 24.871166 -14.481697 37.746707 -0.794474 1.964547 -0.011612 -0.014250 -15610.300000 0 0 1
-24.604848 26.167666 -13.695797 38.441125 -0.816169 1.935080 -0.011609 -0.014217 177597.000000 0 0 1
-23.413548 26.923366 -13.562597 38.170746 -0.855012 1.934046 -0.007181 -0.004272 83969.600000 0 0 1
-23.561948 27.905566 -12.505097 38.603930 -0.869594 1.900680 -0.006376 -0.003352 -986001.000000 0 0 1
-22.252448 28.560766 -12.150197 38.190523 -0.908913 1.894571 0.002205 0.000178 -470236.000000 0 0 1
-21.370548 27.538366 -11.630197 36.746747 -0.910844 1.892830 -0.003615 -0.002965 880398.000000 0 0 1
-20.313448 28.107166 -10.821497 36.328415 -0.944988 1.873267 -0.004984 -0.000573 731483.000000 0 0 1
-19.509848 26.971466 -10.068197 34.777330 -0.944570 1.864506 0.008336 0.001343 -52975.500000 0 0 1
-18.705148 26.268866 -10.946197 34.055177 -0.952019 1.898031 -0.004232 0.007532 -241166.000000 0 0 1
-18.077848 25.160266 -10.286697 32.644505 -0.947757 1.891372 -0.001174 0.007701 -326845.000000 0 0 1
-17.560548 24.182766 -11.391897 31.983657 -0.942728 1.934971 -0.005382 0.008759 -88356.200000 0 0 1
-17.342248 22.813366 -10.979997 30.688166 -0.920812 1.936699 -0.011408 0.005053 197382.000000 0 0 1
-16.957148 21.921766 -12.036897 30.215816 -0.912405 1.980529 0.004866 0.013252 -67778.800000 0 0 1
-16.728848 20.524166 -11.518097 28.874942 -0.886927 1.981109 -0.002393 0.020793 539036.000000 0 0 1
-17.908748 19.757366 -11.232897 28.935354 -0.834438 1.969481 -0.017560 0.024799 489002.000000 0 0 1
-17.515648 18.465166 -10.816497 27.654238 -0.811782 1.972659 0.005750 0.019551 -1011700.000000 0 0 1
-18.635748 17.454266 -10.738297 27.699341 -0.752673 1.968903 0.007020 0.019730 -483626.000000 0 0 1
-19.112948 16.914766 -11.980597 28.194836 -0.724460 2.009672 -0.000973 0.020132 470189.000000 0 0 1
-19.995048 17.753066 -12.747497 29.622153 -0.726075 2.015662 0.001182 0.029583 -341923.000000 0 0 1
-20.412848 17.180866 -14.102597 30.178631 -0.699638 2.057035 0.015144 0.013812 44243.300000 0 0 1
-19.453648 17.236666 -15.159297 30.089057 -0.725047 2.098805 0.025077 0.016274 320112.000000 0 0 1
-20.096248 16.934566 -16.378997 30.966276 -0.700225 2.128136 0.020651 0.014833 -234609.000000 0 0 1
-19.141648 16.525366 -17.471597 30.736738 -0.712176 2.175389 0.029801 0.016761 -421351.000000 0 0 1
-18.411948 17.636666 -17.957397 31.185251 -0.763895 2.184415 0.013955 0.004701 93428.200000 0 0 1
-17.569748 17.280566 -19.031797 31.137169 -0.777101 2.228403 0.010511 0.012612 49167.100000 0 0 1
-16.558648 18.436766 -19.434697 31.493024 -0.839014 2.235862 0.005174 0.013060 47780.000000 0 0 1
-15.547248 18.589266 -18.482497 30.477539 -0.874277 2.222360 0.011275 0.007016 103278.000000 0 0 1
-14.635148 19.637466 -18.836797 30.897290 -0.930331 2.226426 0.002486 0.006048 396435.000000 0 0 1
31.306844 32.093466 1.723503 44.867354 0.797805 1.532374 0.027723 -0.002669 491865.000000 0 0 1
32.697084 31.945266 1.450403 45.735139 0.773768 1.539078 0.024488 0.003121 351723.000000 0 0 1
32.918594 32.267266 0.122803 46.095828 0.775407 1.568132 0.014831 0.008046 -278415.000000 0 0 1
34.354799 31.871566 -0.256397 46.862721 0.747920 1.576268 0.004098 0.013512 437442.000000 0 0 1
-34.407435 32.563466 0.476703 47.375923 -0.757871 1.560734 -0.001835 0.013135 -290959.000000 0 0 1
-33.287538 32.560066 -0.337497 46.565352 -0.774351 1.578044 -0.001115 0.012410 -409674.000000 0 0 1
-32.263068 33.649866 0.148403 46.618033 -0.806435 1.567613 -0.006305 0.011329 376546.000000 0 0 1
-31.422978 33.338766 1.248203 45.830501 -0.814972 1.543558 0.007077 0.013737 211981.000000 0 0 1
-31.103848 34.509566 1.933303 46.498356 -0.837257 1.529206 -0.008427 0.001576 -388143.000000 0 0 1
-30.486208 34.398266 3.293003 46.081378 -0.845618 1.499275 -0.004944 0.010498 -208426.000000 0 0 1
-30.096548 -33.815331 3.781503 45.426628 0.843519 1.487456 -0.004714 0.010983 227555.000000 0 0 1
-29.375738 -34.035931 5.010503 45.238078 0.858757 1.459810 0.009429 0.001737 -116356.000000 0 0 1
-29.266998 -32.694831 5.862903 44.270563 0.840664 1.437973 0.012904 -0.004073 -381370.000000 0 0 1
-30.471808 -32.217431 6.397803 44.804306 0.813237 1.427512 0.009810 -0.007808 -379269.000000 0 0 1
-30.911338 -32.878231 7.559303 45.756223 0.816222 1.404827 0.018639 -0.016602 -1546480.000000 0 0 1
-32.045938 -32.198031 8.295903 46.178754 0.787766 1.390168 0.032680 -0.021666 -169687.000000 0 0 1
-33.354348 -32.119231 7.786903 46.955227 0.766536 1.404190 0.025035 -0.021227 19559.600000 0 0 1
-33.969308 -33.365131 7.506703 48.202660 0.776426 1.414428 0.021830 -0.017293 -872925.000000 0 0 1
34.299226 -33.409931 7.366103 48.445019 -0.772265 1.418153 0.013444 -0.010987 261530.000000 0 0 1
33.616974 -32.987631 8.527503 47.864423 -0.775950 1.391681 0.000445 -0.000724 342892.000000 0 0 1
32.210554 -32.909331 8.365803 46.803103 -0.796128 1.391086 -0.021108 0.009105 324331.000000 0 0 1
31.406404 -32.792631 9.674903 46.425452 -0.806987 1.360861 -0.033977 0.012507 -959759.000000 0 0 1
30.038594 -33.030131 9.527303 45.651683 -0.832796 1.360555 -0.034340 0.012888 -126233.000000 0 0 1
29.227674 -32.936731 10.692503 45.314620 -0.844993 1.332588 -0.031312 0.023332 -27800.400000 0 0 1
29.379034 -31.722231 11.675303 44.785492 -0.823729 1.307055 -0.029567 0.014677 -1233370.000000 0 0 1
28.921194 -30.470231 11.174203 43.471062 -0.811474 1.310829 -0.027882 0.007794 -211605.000000 0 0 1
29.412914 -29.870831 10.013403 43.100514 -0.793122 1.336327 -0.023300 0.006388 -752920.000000 0 0 1
28.806444 -28.528331 9.596603 41.662593 -0.780548 1.338368 -0.019326 0.001618 -752879.000000 0 0 1
29.262014 -28.004831 8.324903 41.350212 -0.763449 1.368084 -0.012798 -0.006578 -114438.000000 0 0 1
28.694574 -26.743131 8.053403 40.042863 -0.750212 1.368296 -0.003734 -0.003013 -328737.000000 0 0 1
28.878014 -26.147031 6.618103 39.514632 -0.735807 1.402518 -0.014030 0.002906 -774008.000000 0 0 1
30.142784 -25.704931 6.313503 40.114725 -0.706101 1.412753 -0.011128 -0.002133 -1283470.000000 0 0 1
30.206854 -25.256831 4.993803 39.690044 -0.696386 1.444642 -0.012951 0.001452 228821.000000 0 0 1
31.623974 -24.841431 4.518203 40.467105 -0.665852 1.458912 0.003815 0.000314 525249.000000 0 0 1
32.488024 -25.984331 4.414703 41.834755 -0.674627 1.465072 0.000826 -0.000538 127010.000000 0 0 1
33.810035 -25.668331 4.027303 42.640366 -0.649359 1.476207 0.006012 -0.006052 335695.000000 0 0 1
34.709752 -26.921131 3.869203 44.096314 -0.659689 1.482939 0.008526 -0.005459 -125502.000000 0 0 1
34.686021 -27.701231 5.055403 44.677011 -0.673904 1.457399 0.002768 -0.010882 -63793.600000 0 0 1
-34.702251 -29.052031 4.925803 45.525051 0.697004 1.462384 0.003280 -0.008302 -484595.000000 0 0 1
34.330206 -29.977631 5.934303 45.961259 -0.717818 1.441320 0.006812 -0.010279 1520050.000000 0 0 1
32.954504 -30.342531 5.707703 45.158015 -0.744156 1.444063 -0.006158 -0.002700 1331940.000000 0 0 1
31.984964 -29.298431 5.924103 43.778202 -0.741588 1.435059 -0.007376 -0.003817 122557.000000 0 0 1
30.525834 -29.698031 5.646103 42.961355 -0.771654 1.438992 -0.024586 -0.000772 -303244.000000 0 0 1
30.302244 -29.907531 4.246303 42.786884 -0.778843 1.471390 -0.031855 0.001449 36035.800000 0 0 1
29.159844 -29.284131 3.693603 41.490957 -0.787525 1.481656 -0.026056 0.004490 41166.000000 0 0 1
27.860894 -30.103131 3.759103 41.189304 -0.824062 1.479405 -0.014186 0.008385 -108990.000000 0 0 1
27.982334 -31.281131 2.978103 42.075994 -0.841004 1.499958 -0.012609 0.007072 218514.000000 0 0 1
26.891914 -32.125131 3.363203 42.029872 -0.873840 1.490691 -0.008668 0.004779 444260.000000 0 0 1
27.005714 -33.549331 2.722903 43.154147 -0.893041 1.507657 -0.001757 -0.002275 -237227.000000 0 0 1
26.859324 -33.596431 1.343503 43.034270 -0.896379 1.539572 -0.001570 -0.004466 157232.000000 0 0 1
26.985214 34.552566 0.921103 43.851225 0.907755 1.549790 -0.000252 -0.001973 -366955.000000 0 0 1
26.748684 34.459466 -0.605197 43.626977 0.910714 1.584669 -0.006546 -0.004290 321143.000000 0 0 1
27.804934 -34.499431 -1.442097 44.332885 -0.892436 1.603331 -0.018276 -0.000920 166562.000000 0 0 1
27.611054 -34.687431 -2.817997 44.424422 -0.898502 1.634272 -0.005436 -0.000655 59043.800000 0 0 1
28.621694 -34.062131 -3.852497 44.657271 -0.871973 1.657172 -0.022822 0.002722 446023.000000 0 0 1
28.621554 -32.641431 -3.737897 43.573251 -0.850921 1.656686 -0.022956 0.004094 23970.100000 0 0 1
29.607564 -32.053831 -4.558397 43.872940 -0.825050 1.674884 -0.020524 0.004686 -106916.000000 0 0 1
29.722924 -30.503031 -4.491597 42.825944 -0.798350 1.675870 -0.018652 0.015334 6599.700000 0 0 1
28.648034 -29.823431 -5.161297 41.674763 -0.805498 1.694962 -0.026217 0.013937 806649.000000 0 0 1
29.043804 -28.420531 -5.319097 40.982458 -0.774552 1.700953 -0.011941 0.007827 272340.000000 0 0 1
30.098784 -28.068831 -6.392697 41.649281 -0.750514 1.724894 -0.001984 0.000900 204879.000000 0 0 1
31.420064 -28.528731 -6.080797 42.872893 -0.737205 1.713109 -0.004291 0.020783 344881.000000 0 0 1
32.320444 -27.880131 -6.993597 43.253013 -0.711773 1.733200 0.003743 0.016438 107269.000000 0 0 1
32.519594 -28.567031 -8.389897 44.090697 -0.720784 1.762251 0.000925 -0.012425 -851996.000000 0 0 1
31.417794 -28.444931 -9.283797 43.386412 -0.735778 1.786443 -0.002935 -0.008241 55064.600000 0 0 1
31.199794 -29.485931 -10.214797 44.126968 -0.757164 1.804402 -0.016752 0.008919 300729.000000 0 0 1
30.925874 -30.896931 -9.602197 44.757482 -0.784930 1.787015 -0.016442 0.003154 282914.000000 0 0 1
32.163254 -31.454831 -9.171597 45.912955 -0.774263 1.771910 -0.008649 0.010790 -115210.000000 0 0 1
31.967314 -32.644131 -8.406797 46.456675 -0.795873 1.752759 -0.001030 -0.001077 214560.000000 0 0 1
33.232404 -33.292431 -7.802297 47.682853 -0.786300 1.735164 0.000533 0.000270 -204295.000000 0 0 1
33.023284 -34.521231 -7.067997 48.292952 -0.807572 1.717681 -0.002839 0.001526 -182277.000000 0 0 1
32.732604 -34.397931 -5.683197 47.821958 -0.810200 1.689919 -0.005535 0.002473 2954.280000 0 0 1
32.506124 33.723066 -4.956497 47.100532 0.803771 1.676224 -0.008490 0.002907 -655332.000000 0 0 1
31.372164 33.092666 -5.433097 45.922279 0.812081 1.689385 -0.007133 -0.002197 -545589.000000 0 0 1
31.277384 31.804266 -4.970897 44.883135 0.793750 1.681776 -0.003849 0.002969 -119320.000000 0 0 1
30.143384 30.962866 -5.574397 43.570592 0.798808 1.699087 0.000617 0.006502 -290696.000000 0 0 1
30.150364 30.826866 -6.976997 43.680872 0.796492 1.731210 -0.006841 0.003985 -301117.000000 0 0 1
28.978534 30.160666 -7.348297 42.466677 0.805384 1.744708 -0.009804 0.007794 -246621.000000 0 0 1
28.942854 30.017966 -8.868297 42.631136 0.803630 1.780351 -0.011188 0.004739 -181437.000000 0 0 1
29.537704 28.814166 -9.287897 42.296538 0.772999 1.792191 -0.012213 0.000365 22231.400000 0 0 1
29.767884 28.722266 -10.694597 42.725517 0.767523 1.823796 -0.021973 0.004779 385177.000000 0 0 1
31.079384 29.369366 -11.247197 44.215237 0.757117 1.827996 -0.020955 0.005115 877016.000000 0 0 1
32.314024 28.750566 -10.813597 44.583910 0.727109 1.815784 -0.024173 0.001193 1297270.000000 0 0 1
33.509454 29.441166 -11.152197 45.978660 0.720861 1.815791 -0.011340 0.000344 390604.000000 0 0 1
33.811481 30.755466 -10.343997 46.862705 0.738103 1.793359 -0.011383 -0.004079 -880450.000000 0 0 1
34.414155 30.619766 -9.054197 46.945528 0.727119 1.764878 -0.011136 0.002349 77787.300000 0 0 1
34.246301 31.818866 -8.324097 47.481996 0.748672 1.747018 -0.016706 0.000351 -1152540.000000 0 0 1
-34.611353 31.956466 -7.148297 47.647241 -0.745537 1.721390 -0.010597 0.009898 875177.000000 0 0 1
-33.209378 32.066566 -7.452497 46.761813 -0.767893 1.730850 0.001409 0.009764 877771.000000 0 0 1
-32.549448 30.941866 -8.027297 45.621301 -0.760084 1.747672 0.006059 0.006205 -1605910.000000 0 0 1
-31.180708 31.340266 -8.536797 45.025834 -0.787950 1.761549 0.002847 0.009900 -737564.000000 0 0 1
-30.317198 31.802966 -7.506897 44.574820 -0.809311 1.740014 0.008266 0.011078 384901.000000 0 0 1
-29.076758 32.395366 -7.870297 44.236401 -0.839331 1.749663 0.004711 0.008560 395824.000000 0 0 1
-29.103358 33.766066 -8.606897 45.400785 -0.859428 1.761527 -0.016400 0.013509 -543585.000000 0 0 1
-29.314358 -34.552431 -7.856297 45.988297 0.867231 1.742471 -0.024439 0.007468 686067.000000 0 0 1
-28.155728 -34.008831 -7.185597 44.732297 0.879276 1.732131 -0.009798 -0.003274 688756.000000 0 0 1
-28.546308 -32.733031 -6.412497 43.902883 0.853614 1.717382 -0.022729 -0.001790 -4368.880000 0 0 1
-29.432858 -32.980831 -5.330297 44.524604 0.842183 1.690800 -0.020143 -0.002280 -147398.000000 0 0 1
-28.926078 -33.538431 -4.155997 44.483892 0.859104 1.664360 -0.012263 -0.009062 -190138.000000 0 0 1
-30.041608 -33.655131 -3.087497 45.218345 0.842068 1.639129 -0.000877 -0.006874 -75668.100000 0 0 1
-30.478018 -32.397331 -2.658597 44.559676 0.815914 1.630496 -0.001244 -0.002790 91190.400000 0 0 1
-31.345008 -32.498431 -1.529897 45.177407 0.803463 1.604667 -0.001988 0.003640 -364047.000000 0 0 1
-31.997688 -31.177131 -1.277897 44.693384 0.772410 1.599393 0.001290 0.006454 -417942.000000 0 0 1
-33.028598 -31.298631 -0.314597 45.503753 0.758511 1.577710 -0.000057 0.007697 -464323.000000 0 0 1
-33.602848 -30.041431 -0.317197 45.074822 0.729498 1.577834 0.008329 0.007956 149481.000000 0 0 1
-34.613757 -29.739831 0.858803 45.643261 0.709806 1.551980 0.006932 0.004927 356833.000000 0 0 1
33.992483 -30.525531 0.884103 45.695498 -0.731714 1.551447 -0.011471 0.008184 824076.000000 0 0 1
33.066894 -30.149031 1.921403 44.789232 -0.739274 1.527884 -0.014663 0.010525 574225.000000 0 0 1
32.349014 -28.777531 1.747103 43.331944 -0.727037 1.530466 -0.023513 0.021899 -1462340.000000 0 0 1
31.462814 -28.845831 0.695103 42.690441 -0.742032 1.554513 -0.033613 0.018996 -737806.000000 0 0 1
30.796624 -27.636131 0.517203 41.381823 -0.731363 1.558298 -0.033304 0.016295 -167920.000000 0 0 1
29.728594 -27.889431 -0.604897 40.767334 -0.753489 1.585635 -0.039902 0.009231 40982.900000 0 0 1
28.510124 -28.447831 -0.143697 40.275636 -0.784304 1.574364 -0.033000 0.015297 -34684.200000 0 0 1
28.463654 -29.873031 0.039003 41.262320 -0.809553 1.569851 -0.031717 0.015828 -305547.000000 0 0 1
27.837204 -30.432431 -1.302197 41.264252 -0.829907 1.602359 -0.029134 0.004346 140973.000000 0 0 1
26.522734 -29.923031 -1.493297 40.013412 -0.845566 1.608125 -0.022580 0.011142 220562.000000 0 0 1
26.138414 -30.053731 -2.844997 39.931659 -0.854963 1.642103 -0.021018 0.010649 -376907.000000 0 0 1
24.690914 -30.371531 -3.221997 39.274067 -0.888201 1.652927 -0.016197 0.004430 -102719.000000 0 0 1
23.799214 -29.258131 -3.156997 37.847159 -0.887925 1.654308 -0.002710 0.003279 550845.000000 0 0 1
22.540014 -29.736731 -3.642697 37.491260 -0.922204 1.668111 0.007044 0.005224 712950.000000 0 0 1
21.403914 -28.694631 -3.828197 36.002284 -0.929911 1.677330 0.015877 0.007240 39283.100000 0 0 1
21.506114 -28.073131 -5.071597 35.725827 -0.917087 1.713236 0.005855 0.010260 179815.000000 0 0 1
20.923214 -26.748631 -5.029497 34.330248 -0.906994 1.717829 0.003848 -0.002296 -54148.800000 0 0 1
20.361614 -26.373331 -6.387797 33.925681 -0.913330 1.760215 0.011469 -0.023591 664723.000000 0 0 1
19.074814 -26.941531 -6.700897 33.683774 -0.954716 1.771068 0.012444 -0.013617 440675.000000 0 0 1
18.545314 -26.359031 -7.923297 33.188941 -0.957681 1.811857 0.018198 -0.012278 -187451.000000 0 0 1
17.023714 -26.298731 -7.863797 32.299681 -0.996307 1.816732 0.007308 -0.005091 -464507.000000 0 0 1
16.564014 -25.431631 -6.851597 31.113964 -0.993497 1.792826 -0.004221 -0.001058 714576.000000 0 0 1
15.125714 -25.349731 -6.843897 30.302392 -1.032821 1.798615 0.000935 0.002690 1030970.000000 0 0 1
14.655514 -24.384631 -5.733797 29.021901 -1.029631 1.769673 -0.006589 0.015637 -343816.000000 0 0 1
14.794314 -25.036431 -4.491097 29.425576 -1.037086 1.724021 -0.010021 0.019219 145398.000000 0 0 1
14.102814 -24.322331 -3.492797 28.331339 -1.045340 1.694395 -0.020920 0.020647 -223416.000000 0 0 1
14.144114 -25.053931 -2.139097 28.850150 -1.056853 1.645010 -0.001948 0.012500 -263460.000000 0 0 1
13.570014 -26.343431 -2.140197 29.710302 -1.095126 1.642894 0.009918 0.013991 -360602.000000 0 0 1
14.301214 -27.356931 -1.507597 30.906297 -1.089104 1.619595 0.024892 0.007082 -622899.000000 0 0 1
13.690814 -28.749031 -1.596397 31.882497 -1.126354 1.620889 0.021109 0.014161 230137.000000 0 0 1
12.451914 -28.888531 -0.922097 31.471378 -1.163827 1.600100 0.030772 0.005192 221535.000000 0 0 1
11.653614 -30.052831 -1.060997 32.250660 -1.200877 1.603701 0.027860 -0.000699 123295.000000 0 0 1
12.268414 -31.411531 -0.564797 33.727099 -1.198445 1.587543 0.027776 -0.003246 170659.000000 0 0 1
13.463714 -31.751731 -1.266897 34.511578 -1.169747 1.607514 0.023360 0.003453 -100944.000000 0 0 1
14.054814 -32.924531 -0.841497 35.808807 -1.167335 1.594298 0.025838 0.003463 -455201.000000 0 0 1
15.420614 -33.109531 -1.533597 36.556645 -1.134926 1.612760 0.021472 0.011658 -259587.000000 0 0 1
16.382614 -32.263531 -0.951797 36.197118 -1.100948 1.597094 0.013538 0.015232 -511733.000000 0 0 1
17.566014 -32.269831 -1.714597 36.781064 -1.072303 1.617430 0.012179 0.010565 -528469.000000 0 0 1
18.459314 -31.119831 -1.293497 36.205846 -1.035415 1.606530 0.009945 0.014808 -234027.000000 0 0 1
17.996414 -29.843231 -1.737797 34.892825 -1.028151 1.620621 0.000168 0.016304 335037.000000 0 0 1
18.742914 -28.904131 -0.987697 34.463330 -0.995511 1.599460 0.008243 0.007162 -76716.900000 0 0 1
18.331114 -27.458031 -1.188597 33.036131 -0.982145 1.606783 0.015449 0.014370 -394104.000000 0 0 1
18.622314 -26.887231 -2.459297 32.798809 -0.965049 1.645848 0.011007 0.009949 -98041.600000 0 0 1
17.573214 -26.862231 -3.402197 32.279595 -0.991476 1.676390 0.013651 0.012986 -351751.000000 0 0 1
31.946914 -30.171131 13.543303 45.981773 -0.756819 1.271826 -0.018602 -0.007824 14781.500000 0 0 1
32.476704 -29.890231 14.848803 46.568757 -0.743950 1.246272 -0.022263 0.000350 -67838.800000 0 0 1
31.563674 -30.249331 15.864603 46.507775 -0.764138 1.222691 -0.022739 0.008538 -323447.000000 0 0 1
32.191454 -30.648531 17.255503 47.679917 -0.760850 1.200488 -0.024188 0.009437 -909817.000000 0 0 1
31.361144 -31.171431 18.239803 47.831682 -0.782364 1.179558 -0.018463 0.006441 -131902.000000 0 0 1
32.055384 -31.753431 19.341703 49.091033 -0.780666 1.165820 -0.026423 0.015263 -225382.000000 0 0 1
32.644334 -33.143931 19.329003 50.376413 -0.792992 1.177006 -0.026860 0.012988 -621421.000000 0 0 1
33.709614 -33.407131 18.496703 50.936259 -0.780891 1.199167 -0.029326 0.021801 -231059.000000 0 0 1
34.316483 -34.671831 18.678003 52.236239 -0.790549 1.205134 -0.012717 0.011452 434058.000000 0 0 1
-34.287754 34.537966 17.699303 51.785968 -0.789034 1.221988 -0.010499 0.013198 378650.000000 0 0 1
-33.124748 -34.266831 18.090703 50.977820 0.802344 1.208017 -0.005686 0.015893 128456.000000 0 0 1
-32.268008 -33.929531 17.001803 49.814644 0.810492 1.222495 0.002502 0.016456 962869.000000 0 0 1
-30.978088 -33.138131 17.531503 48.632615 0.819075 1.202005 -0.011022 0.009174 1332570.000000 0 0 1
-29.903018 -32.936531 16.626803 47.491643 0.833635 1.213119 0.007618 0.000991 73740.900000 0 0 1
-30.173478 -32.000331 15.612403 46.671266 0.814773 1.229702 0.019553 -0.003800 -599184.000000 0 0 1
-29.103828 -31.806931 14.529603 45.495308 0.829747 1.245737 0.022384 -0.007978 531662.000000 0 0 1
-27.820208 -31.489331 15.073003 44.640087 0.847183 1.226371 0.014337 -0.008253 463711.000000 0 0 1
-26.872758 -31.121331 14.076303 43.460611 0.858526 1.240962 0.024969 -0.003589 1071080.000000 0 0 1
-25.432908 -30.893331 14.625903 42.604551 0.882039 1.220374 0.023309 -0.007677 1487720.000000 0 0 1
-24.327448 -30.667231 13.712303 41.476873 0.900171 1.233856 0.015919 -0.001776 632687.000000 0 0 1
-23.183048 -30.370231 14.503503 40.867545 0.918807 1.207999 0.010264 0.002751 -281201.000000 0 0 1
-21.878548 -30.368031 13.716503 39.862647 0.946479 1.219522 0.015034 0.004654 -288497.000000 0 0 1
-21.496248 -31.669831 13.311303 40.524778 0.974467 1.236110 0.001631 -0.001840 -357270.000000 0 0 1
-20.278748 -31.611831 12.625703 39.622517 1.000425 1.246492 -0.001096 -0.008864 -41918.000000 0 0 1
-19.589848 -32.944831 12.220903 40.230268 1.034338 1.262145 0.005754 -0.007012 292395.000000 0 0 1
-20.360848 -33.573831 11.199503 40.831301 1.025648 1.292948 -0.000474 -0.000358 256041.000000 0 0 1
-20.249348 34.518166 11.170603 41.549034 -1.040267 1.298594 -0.008209 0.001785 -248680.000000 0 0 1
-21.189948 33.861766 10.157903 41.216696 -1.011638 1.321780 -0.008345 0.003974 -162307.000000 0 0 1
-21.003348 34.136566 8.798903 41.034942 -1.019221 1.354694 -0.009786 -0.001883 -299185.000000 0 0 1
-22.197648 33.845966 8.106503 41.279539 -0.990324 1.373131 -0.001426 -0.001257 -237329.000000 0 0 1
-22.045248 34.098066 6.566203 41.131327 -0.996868 1.410470 0.005397 -0.004888 -636929.000000 0 0 1
-21.387848 33.121566 5.766603 39.846353 -0.997423 1.425565 0.005133 -0.012304 359013.000000 0 0 1
-19.983348 32.959266 5.957303 39.001754 -1.025754 1.417452 -0.003265 -0.007943 64813.500000 0 0 1
-19.088348 34.130466 5.505003 39.491249 -1.060859 1.430943 -0.005592 -0.007029 -1046750.000000 0 0 1
-19.009248 -34.177631 6.278603 39.609125 1.063213 1.411611 0.003875 -0.005845 -34975.200000 0 0 1
-18.391748 -34.268531 7.542203 39.616580 1.078225 1.379247 -0.007132 -0.001840 -616491.000000 0 0 1
-18.545548 -33.016831 8.392503 38.787660 1.059015 1.352701 -0.009014 -0.001899 -121492.000000 0 0 1
-17.715748 -31.918131 7.970403 37.364985 1.064094 1.355832 -0.007441 -0.007172 76905.100000 0 0 1
-17.729848 -30.722731 8.709403 36.525161 1.047391 1.330027 -0.006818 -0.004934 96312.000000 0 0 1
-17.311648 -30.761131 10.197303 36.741330 1.058197 1.289561 -0.018673 -0.000301 721368.000000 0 0 1
-15.946648 -31.136131 10.423903 36.502219 1.097469 1.281196 -0.005885 -0.008926 336158.000000 0 0 1
-15.533448 -30.943731 11.732803 36.557642 1.105558 1.244075 0.000332 -0.002597 231002.000000 0 0 1
-14.217848 -31.720531 12.027703 36.783215 1.149422 1.237681 0.008432 -0.007959 851059.000000 0 0 1
-13.095548 -31.193531 11.322403 35.675293 1.173325 1.247838 0.004519 -0.006046 145860.000000 0 0 1
-12.109448 -32.157031 10.986103 36.075030 1.210648 1.261346 0.021028 -0.003478 283575.000000 0 0 1
-11.002048 -31.591131 10.071403 34.935337 1.235669 1.278359 0.026482 -0.003947 379832.000000 0 0 1
-10.117048 -30.716531 10.804003 34.096721 1.252619 1.248376 0.022387 0.000544 -175950.000000 0 0 1
-9.302148 -29.979931 9.928403 32.922627 1.269936 1.264460 0.013180 0.002418 -53913.600000 0 0 1
-8.420448 -29.057731 10.775803 32.115006 1.288739 1.228620 0.007297 0.014934 98486.400000 0 0 1
-9.136948 -27.943531 11.291003 31.493039 1.254776 1.204110 0.011690 0.008186 -101525.000000 0 0 1
-8.562548 -27.448231 12.522003 31.361173 1.268410 1.160061 0.010517 0.008033 91813.600000 0 0 1
-9.265148 -26.239131 13.172303 30.787084 1.231359 1.128682 0.010867 0.002949 109546.000000 0 0 1
-8.889948 -25.008631 12.543103 29.356298 1.229252 1.129324 0.006367 0.003995 -99259.400000 0 0 1
-9.561348 -24.689731 11.352603 28.807704 1.201321 1.165727 0.009793 0.005540 -63193.500000 0 0 1
-9.059448 -23.307431 10.828303 27.249992 1.200075 1.162148 -0.004539 0.007850 -106280.000000 0 0 1
-7.859048 -23.361431 10.110003 26.640819 1.246278 1.181548 -0.013019 0.000680 -614862.000000 0 0 1
-7.355848 -22.042831 10.149103 25.357429 1.248709 1.159016 -0.012386 0.008235 -148189.000000 0 0 1
-6.067048 -21.858831 9.312403 24.522202 1.300055 1.181266 -0.013190 -0.002194 400385.000000 0 1 0
-4.950148 -22.448931 9.986603 25.063733 1.353762 1.160972 -0.029482 0.000777 -303896.000000 0 0 1
-3.883248 -22.578931 9.077403 24.643193 1.400477 1.193559 -0.029441 0.001689 -429376.000000 0 1 0
-2.844548 -23.590431 9.506603 25.592487 1.450795 1.190215 -0.016493 0.002501 -154279.000000 0 0 1
-1.879648 -23.020831 10.381203 25.323134 1.489327 1.148398 -0.010954 0.005321 -252357.000000 0 0 1
-0.979648 -23.890231 11.008903 26.322971 1.529813 1.139307 -0.014191 0.002363 54235.600000 0 0 1
-0.090248 -23.181231 12.079203 26.139716 1.566903 1.090433 -0.009283 0.005358 -92538.700000 0 0 1
-0.771948 -22.744831 13.268503 26.343432 1.536870 1.042950 -0.012310 -0.001804 -421057.000000 0 0 1
-0.020048 -22.168331 14.310803 26.386254 1.569892 0.997555 -0.009494 -0.002346 -42977.800000 0 0 1
0.640252 -20.753431 14.000803 25.042710 -1.539956 0.977524 -0.003085 -0.013655 -269281.000000 0 0 1
1.695752 -20.786231 13.095003 24.625639 -1.489396 1.010115 0.003046 -0.011798 -599087.000000 0 1 0
2.155552 -19.450831 12.905203 23.441960 -1.460426 0.987813 0.002595 -0.009724 -559944.000000 0 1 0
3.640952 -19.359731 12.593103 23.380375 -1.384899 1.002000 0.016391 -0.008569 -444751.000000 0 1 0
3.892852 -19.856931 11.285603 23.169308 -1.377207 1.062038 0.025800 -0.009008 -653585.000000 0 1 0
5.224252 -20.298831 11.211803 23.770567 -1.318896 1.079615 0.032635 0.002445 13544.000000 0 1 0
5.538752 -21.104131 9.905003 23.961870 -1.314136 1.144650 0.031420 -0.004848 -270214.000000 0 1 0
5.680052 -20.344831 8.695903 22.842808 -1.298540 1.180260 0.028686 -0.008669 -339303.000000 0 1 0
5.890952 -21.301031 7.613503 23.375257 -1.300983 1.239036 0.025413 -0.008165 -627403.000000 0 1 0
7.327252 -21.777831 7.438003 24.151323 -1.246239 1.257733 0.034761 0.000098 -204839.000000 0 1 0
8.314952 -20.884131 6.884103 23.509067 -1.191888 1.273614 0.031913 -0.005082 501212.000000 0 1 0
8.780352 -19.772131 7.678803 22.956388 -1.152879 1.229727 0.031657 -0.001857 -265456.000000 0 1 0
9.570152 -20.041131 8.943503 23.942034 -1.125289 1.187965 0.015029 0.006361 -480302.000000 0 1 0
8.825552 -20.353731 10.092003 24.372387 -1.161657 1.143870 0.029490 0.006742 -806170.000000 0 1 0
9.536652 -19.990531 11.234503 24.835119 -1.125670 1.101383 0.020660 0.008246 -139566.000000 0 1 0
8.723352 -20.113031 12.525503 25.249141 -1.161566 1.051722 0.025374 0.010329 -193161.000000 0 0 1
8.445052 -21.467431 12.877103 26.419487 -1.196002 1.061676 0.029609 0.008294 -71936.000000 0 0 1
7.803052 -21.685931 14.118003 27.027490 -1.225399 1.021183 0.035222 0.009331 103340.000000 0 0 1
8.026252 -23.086431 14.768303 28.557079 -1.236207 1.027278 0.025923 0.000237 8177.650000 0 0 1
7.649652 -24.083431 13.900603 28.840173 -1.263244 1.067875 0.033213 0.001908 -240767.000000 0 0 1
7.362352 -25.270131 14.631103 30.113999 -1.287298 1.063453 0.031630 -0.005468 267879.000000 0 0 1
7.190352 -26.467931 13.699803 30.658394 -1.305535 1.107552 0.036682 -0.014692 624420.000000 0 0 1
8.412352 -26.812231 13.048503 30.982686 -1.266773 1.136078 0.051413 -0.016629 287107.000000 0 0 1
8.205552 -27.957931 12.220403 31.596127 -1.285317 1.173671 0.051770 -0.016676 7509.390000 0 0 1
9.502352 -28.446331 11.504003 32.122119 -1.248405 1.204528 0.050221 -0.021449 -123351.000000 0 0 1
10.298152 -29.091031 12.423803 33.266964 -1.230565 1.188063 0.047370 -0.027777 -1370750.000000 0 0 1
11.490252 -29.480231 11.860503 33.790256 -1.199147 1.212154 0.039489 -0.024938 -579899.000000 0 0 1
12.425952 -30.389331 12.677903 35.194388 -1.182648 1.202287 0.023741 -0.024153 -507985.000000 0 0 1
13.088152 -29.808131 13.813503 35.364350 -1.157061 1.169507 0.027007 -0.024425 73455.300000 0 0 1
14.200452 -30.517631 14.248403 36.551274 -1.135276 1.170361 0.035263 -0.025184 -259636.000000 0 0 1
15.496552 -30.499431 13.444103 36.757344 -1.100695 1.196355 0.032575 -0.018776 -1125910.000000 0 0 1
16.163252 -29.300931 13.366203 36.034021 -1.066703 1.190783 0.027304 -0.024699 -573459.000000 0 0 1
17.506352 -29.536131 13.083603 36.742837 -1.035755 1.206721 0.017954 -0.016318 -855808.000000 0 0 1
18.400552 -28.332931 12.909303 36.166081 -0.994815 1.205801 0.004891 -0.020495 622059.000000 0 0 1
19.751152 -28.681631 12.521403 37.007154 -0.967739 1.225632 -0.003396 -0.019685 1088350.000000 0 0 1
20.435052 -27.434731 12.297103 36.352091 -0.930593 1.225710 -0.007515 -0.011149 -47891.300000 0 0 1
21.893752 -27.575931 11.830803 37.144801 -0.899759 1.246644 -0.003435 -0.003346 -203086.000000 0 0 1
22.698452 -28.147631 12.813903 38.362807 -0.892161 1.230232 0.006864 -0.009308 -275151.000000 0 0 1
23.840552 -28.787431 12.312803 39.353440 -0.879120 1.252575 -0.004181 -0.011782 -746675.000000 0 0 1
24.875552 -29.367831 13.277303 40.713012 -0.868027 1.238601 -0.001952 -0.009160 53818.300000 0 0 1
25.878152 -28.487731 13.762703 40.873482 -0.833362 1.227371 -0.004688 -0.015402 -531694.000000 0 0 1
27.009852 -28.550731 12.957403 41.383217 -0.813124 1.252333 -0.013832 -0.015951 -202284.000000 0 0 1
28.296952 -27.804531 13.512903 41.909521 -0.776621 1.242500 0.005122 -0.016871 828553.000000 0 0 1
28.201852 -26.388031 13.708003 40.982703 -0.752184 1.229740 0.025248 -0.018745 -129791.000000 0 0 1
27.275552 -25.978031 14.714503 40.439219 -0.761038 1.198380 0.025418 -0.019615 -320444.000000 0 0 1
27.891552 -25.702731 16.095003 41.202162 -0.744580 1.169475 0.019627 -0.003500 -364703.000000 0 0 1
28.362552 -26.925431 16.723803 42.533502 -0.759411 1.166696 0.020818 -0.007780 239900.000000 0 0 1
28.728052 -26.683931 18.091603 43.181469 -0.748525 1.138489 0.023902 0.005063 212977.000000 0 0 1
29.281852 -27.989131 18.800203 44.657205 -0.762830 1.136261 0.012874 0.011877 751440.000000 0 0 1
28.230452 -28.933631 19.056503 44.690757 -0.797699 1.130278 0.001601 0.007483 633038.000000 0 0 1
28.752552 -30.001231 19.823803 46.040919 -0.806648 1.125673 0.007284 -0.000411 -330749.000000 0 0 1
27.662552 -30.891331 20.380603 46.204546 -0.840484 1.113978 0.003707 0.008881 -507253.000000 0 0 1
26.786452 -30.305331 21.378603 45.749008 -0.846956 1.084560 -0.003240 0.017521 1245040.000000 0 0 1
25.695152 -31.118031 21.835103 45.884032 -0.880561 1.074837 -0.005784 0.013532 952793.000000 0 0 1
24.537152 -31.473231 20.883803 45.041862 -0.908606 1.088682 0.020848 0.006965 -598513.000000 0 0 1
24.992552 -32.410231 19.937403 45.525276 -0.913908 1.117489 0.009852 0.004669 -9038.880000 0 0 1
24.256052 -32.451431 18.713203 44.627742 -0.928925 1.138103 0.027271 -0.000931 -234562.000000 0 0 1
24.727552 -31.384231 17.717903 43.707503 -0.903479 1.153408 0.022238 0.001476 -116337.000000 0 0 1
26.036152 -31.678631 17.275803 44.495733 -0.882853 1.172056 0.003506 0.005143 107821.000000 0 0 1
26.616652 -30.647031 16.457303 43.801021 -0.855665 1.185613 0.009159 -0.004026 465638.000000 0 0 1
27.976452 -31.069731 15.819103 44.701835 -0.837738 1.209080 0.005436 -0.000128 57536.000000 0 0 1
27.852152 -32.125031 14.861503 45.040251 -0.856520 1.234535 0.014632 0.002286 142422.000000 0 0 1
27.817252 -33.421631 15.413903 46.134513 -0.876661 1.230138 0.006075 -0.000478 -105901.000000 0 0 1
27.035252 -34.535831 14.644303 46.239421 -0.906621 1.248542 0.009467 -0.001031 35970.900000 0 0 1
27.544752 34.685766 13.386603 46.271123 0.899649 1.277293 0.015679 0.007521 368142.000000 0 0 1
26.631752 33.841366 12.672503 44.889649 0.904058 1.284602 0.004280 0.000263 162261.000000 0 0 1
27.075752 33.513766 11.253903 44.529980 0.891257 1.315299 0.006314 -0.002526 -403679.000000 0 0 1
28.298352 32.831666 11.156403 44.756902 0.859421 1.318873 -0.017173 0.003671 -45142.600000 0 0 1
28.442552 32.201866 9.913403 44.093247 0.847308 1.344030 -0.014602 -0.001709 204203.000000 0 0 1
29.834852 31.531866 9.702003 44.480398 0.813045 1.350910 -0.028718 0.008215 315011.000000 0 0 1
30.042752 30.589066 10.752103 44.202552 0.794408 1.325085 -0.032769 0.013720 -343456.000000 0 0 1
31.402852 30.289166 10.859303 44.961062 0.767348 1.326857 -0.019468 0.016589 -297169.000000 0 0 1
31.834452 29.394366 12.066603 44.978483 0.745567 1.299194 -0.022429 0.019888 -107242.000000 0 0 1
31.569352 28.033066 11.872803 43.857043 0.726136 1.296660 -0.023300 0.019121 221784.000000 0 0 1
31.641352 27.364166 13.123303 43.842831 0.713037 1.266810 -0.012049 0.006919 -46479.100000 0 0 1
31.491352 25.846566 13.130603 42.803772 0.687267 1.259006 -0.014026 0.009529 255934.000000 0 0 1
32.678452 25.305566 12.551803 43.194914 0.658923 1.275958 -0.008529 0.018488 88883.700000 0 0 1
32.647652 23.950566 12.205803 42.290429 0.632927 1.278013 0.003153 0.007611 -142741.000000 0 0 1
31.632052 23.554666 11.063503 40.961080 0.640065 1.297302 -0.011850 0.004462 -190506.000000 0 0 1
30.404552 23.284766 11.648103 40.028682 0.653557 1.275531 -0.007480 -0.002901 -779427.000000 0 0 1
29.355452 23.106066 10.706103 38.861980 0.666834 1.291696 -0.016167 0.003502 -267176.000000 0 0 1
28.059352 22.714666 11.401803 37.858742 0.680520 1.264880 -0.019875 0.003500 -571237.000000 0 0 1
27.583952 23.679966 12.309003 38.381333 0.709390 1.244325 -0.013604 0.002995 109288.000000 0 0 1
26.701652 23.154666 13.298503 37.761977 0.714374 1.210911 0.003896 0.000116 -139165.000000 0 0 1
23.323252 9.400166 26.136169 36.268947 0.383123 0.766099 -0.013610 0.015836 -312230.000000 0 0 1
23.173652 8.222766 26.897669 36.443334 0.340973 0.740593 -0.008602 0.006787 -131676.000000 0 0 1
21.813952 7.968566 27.113649 35.700091 0.350237 0.708277 -0.001734 0.010004 -366197.000000 0 0 1
21.546152 6.579266 27.844019 35.816376 0.296364 0.680258 0.009054 0.004680 -94124.900000 0 0 1
21.556952 6.646366 29.302899 36.980214 0.299069 0.656073 0.004869 0.005299 -179582.000000 0 0 1
22.830352 6.477066 29.852829 38.136187 0.276440 0.671651 -0.002378 -0.003022 -525190.000000 0 0 1
22.806352 6.459766 31.404349 39.345792 0.276014 0.646557 0.009066 -0.007676 -502992.000000 0 0 1
22.637952 7.723566 31.908169 39.878084 0.328794 0.643263 0.018310 -0.006320 160212.000000 0 0 1
22.782352 7.700466 33.320127 41.092135 0.325946 0.625170 0.031447 -0.004666 -147327.000000 0 0 1
22.471252 9.008466 34.076042 41.800553 0.381272 0.617712 0.028483 -0.000069 210900.000000 0 0 1
23.420452 10.041966 33.850342 42.369851 0.405059 0.645290 0.026448 0.000233 -211780.000000 0 0 1
24.168952 10.493566 -34.310404 43.260339 0.409617 2.486702 0.035068 0.002579 67223.500000 0 0 1
25.326652 11.486866 -34.622536 44.408415 0.425801 2.464886 0.018920 -0.005126 -72613.400000 0 0 1
24.946952 12.737566 34.063763 44.101428 0.472081 0.688192 0.010078 -0.002515 189457.000000 0 0 1
24.569752 13.665466 -34.203611 44.275328 0.507584 2.453598 0.004645 -0.008941 -315923.000000 0 0 1
24.329152 15.122366 34.538123 44.871767 0.556132 0.692414 0.007882 -0.002999 -851941.000000 0 0 1
25.483952 15.646366 33.973863 45.259959 0.550628 0.721769 -0.002709 -0.002259 -384376.000000 0 0 1
25.444952 17.059166 33.809042 45.623590 0.590606 0.736174 0.009316 -0.005713 -366094.000000 0 0 1
26.130952 17.927166 -34.404163 46.774526 0.601303 2.397248 0.012327 -0.007155 -474850.000000 0 0 1
25.544252 17.886766 -33.099467 45.475487 0.610878 2.385982 0.006363 -0.018562 230767.000000 0 0 1
26.356052 17.190666 -32.162857 44.995664 0.577953 2.367133 -0.008060 -0.008927 -889203.000000 0 0 1
25.619652 16.767666 -30.879637 43.486471 0.579521 2.360433 -0.010493 -0.004149 -488259.000000 0 0 1
24.827252 15.677966 -31.202617 42.846171 0.563247 2.386558 -0.008249 0.001366 -480097.000000 0 0 1
24.004952 15.375666 -30.118717 41.470301 0.569682 2.383679 -0.000064 -0.002578 -282355.000000 0 0 1
23.474552 13.891966 -30.193657 40.690272 0.534360 2.406899 0.020091 -0.008774 -545198.000000 0 0 1
22.387552 13.896266 -31.107367 40.767351 0.555511 2.438809 0.012600 -0.010313 92382.500000 0 0 1
21.797252 12.652366 -31.394587 40.259441 0.525926 2.465153 0.015251 0.008101 19286.100000 0 0 1
21.056952 12.031666 -30.184357 38.720170 0.519115 2.464745 0.013888 0.020120 -1624350.000000 0 0 1
19.881052 12.709666 -29.916227 38.102132 0.568806 2.473749 0.008382 0.023300 -736259.000000 0 0 1
19.101752 11.973266 -29.021467 36.748899 0.559903 2.481154 0.010056 0.033420 -133285.000000 0 0 1
17.716452 12.566466 -28.675257 35.973033 0.616947 2.493327 0.017936 0.012175 -62880.500000 0 0 1
16.841252 12.540066 -29.757667 36.419771 0.640039 2.527115 0.000923 0.020711 150006.000000 0 0 1
15.637852 13.259466 -29.501217 35.926002 0.703279 2.534248 -0.000023 0.003840 -203742.000000 0 0 1
14.778252 13.469566 -30.746227 36.676374 0.739103 2.564975 -0.006770 0.003836 234821.000000 0 0 1
14.107552 12.329166 -31.322867 36.498676 0.718230 2.602533 -0.024195 0.014620 634533.000000 0 0 1
12.916752 11.948666 -30.617937 35.313894 0.746485 2.619991 -0.009634 0.008239 353701.000000 0 0 1
11.813152 11.259766 -31.474867 35.454197 0.761419 2.663255 -0.001227 0.015669 212088.000000 0 0 1
11.273452 12.261066 -32.363287 36.397895 0.827338 2.666287 0.011309 0.011278 -140586.000000 0 0 1
10.333952 11.638866 -33.204467 36.671383 0.844716 2.703258 0.014711 0.011783 -21211.000000 0 0 1
9.676952 12.475066 -34.298390 37.757783 0.911047 2.710188 0.016092 0.006764 -23329.800000 0 0 1
10.629852 12.793866 33.975508 37.828718 0.877522 0.455274 0.010404 0.011876 -21890.500000 0 0 1
10.046352 13.231166 32.819329 36.784525 0.921373 0.468593 0.012057 0.013013 -185690.000000 0 0 1
11.006552 13.170266 31.573209 35.936995 0.874656 0.497934 0.008869 0.018089 55384.600000 0 0 1
11.147652 11.868966 31.020339 35.034325 0.816727 0.483384 -0.001587 0.014431 72251.800000 0 0 1
11.422352 11.973366 29.658999 33.963036 0.808946 0.508917 0.006224 0.014479 -688631.000000 0 0 1
12.038452 10.699566 29.058059 33.223121 0.726583 0.506117 0.002986 0.017604 -636559.000000 0 0 1
11.234752 9.603066 29.136919 32.671066 0.707254 0.469430 -0.003389 0.014633 -176203.000000 0 0 1
11.868552 8.482266 28.514269 32.029281 0.620513 0.472889 -0.007401 0.006920 -82887.600000 0 0 1
11.077752 7.171766 28.714039 31.601374 0.574547 0.430798 -0.013695 0.013384 465835.000000 0 0 1
9.906952 7.013066 27.906809 30.432232 0.616004 0.410266 -0.009296 0.006084 237767.000000 0 0 1
9.210852 5.811666 28.194449 30.224860 0.562873 0.368627 -0.012125 -0.001155 -352740.000000 0 0 1
9.750352 4.528666 27.491789 29.519089 0.434815 0.372769 -0.020080 0.009422 -555817.000000 0 0 1
10.787252 3.902666 28.158379 30.405425 0.347135 0.386863 -0.030364 0.014241 -286173.000000 0 0 1
10.922652 2.577966 27.710419 29.896781 0.231778 0.384810 -0.044835 0.018393 -265795.000000 0 0 1
11.460152 1.534766 28.727379 30.966964 0.133130 0.382651 -0.038619 0.015618 256870.000000 0 0 1
10.478752 1.264966 29.730049 31.548061 0.120136 0.341142 -0.019337 0.015975 241586.000000 0 0 1
10.669052 0.087566 30.438829 32.254591 0.008207 0.337138 -0.013800 0.012245 -238125.000000 0 0 1
9.563552 -0.122334 31.465799 32.887277 -0.012791 0.295086 -0.011548 0.015747 -239489.000000 0 0 1
9.718852 0.887866 32.482309 33.916733 0.091102 0.291870 -0.021496 0.008172 449002.000000 0 0 1
8.589852 0.873866 33.356900 34.456232 0.101384 0.253284 -0.018888 0.005513 313649.000000 0 0 1
8.573852 2.093066 34.318084 35.434767 0.239439 0.251717 -0.006776 0.003494 -111243.000000 0 0 1
8.526852 3.414466 33.777253 35.003837 0.380883 0.265511 -0.019087 0.003859 577141.000000 0 0 1
9.664852 3.846866 33.003779 34.604294 0.378804 0.305329 -0.017442 0.004078 210037.000000 0 0 1
9.524552 5.168966 32.240959 34.013449 0.497221 0.324254 -0.013500 0.004662 -40931.400000 0 0 1
9.529252 6.348666 33.028239 34.956784 0.587700 0.333719 -0.012677 0.004124 87671.500000 0 0 1
9.490252 7.479166 32.181599 34.375254 0.667436 0.359181 -0.011439 0.004739 -456871.000000 0 0 1
9.678752 8.788966 32.987399 35.483695 0.737255 0.377336 -0.011611 0.005191 -271615.000000 0 0 1
8.574352 9.402866 33.629109 35.956228 0.831452 0.361749 -0.005184 0.000366 -153630.000000 0 0 1
8.106152 8.630466 -34.545310 36.518120 0.816715 2.811392 -0.003105 -0.000587 -883529.000000 0 0 1
6.782052 9.111266 -33.982547 35.830502 0.930915 2.819027 0.000595 0.001135 -486003.000000 0 0 1
6.313452 8.214166 -32.998077 34.586200 0.915494 2.837377 0.005013 0.005972 -297206.000000 0 0 1
5.030052 8.573666 -32.555727 34.039455 1.040224 2.845252 0.005599 0.002995 -129566.000000 0 0 1
4.525352 7.764966 -31.335347 32.598734 1.043127 2.862277 -0.001043 0.006011 -436911.000000 0 0 1
5.054252 8.321566 -30.165017 31.697352 1.024977 2.829383 0.000929 0.001415 125288.000000 0 0 1
4.588452 7.732966 -28.947757 30.312131 1.035272 2.840420 -0.003521 0.008164 958569.000000 0 0 1
3.068252 7.988766 -28.595037 29.848127 1.204097 2.850803 -0.000903 0.003793 1003450.000000 0 0 1
2.174152 7.205066 -29.388017 30.336371 1.277732 2.890891 -0.005785 0.009351 -758688.000000 0 0 1
0.864852 7.625766 -29.239527 30.229955 1.457867 2.884908 0.004148 0.016626 -694262.000000 0 0 1
-0.064748 6.893466 -30.227987 31.004117 -1.561404 2.917368 0.008553 0.010918 -134449.000000 0 0 1
0.300452 7.297266 -31.533577 32.368300 1.529646 2.913997 -0.003909 0.012693 -148728.000000 0 0 1
-0.447848 6.702966 -32.497687 33.184785 -1.504082 2.937744 0.012754 0.006370 -796417.000000 0 0 1
-0.077848 7.367266 -33.917757 34.708744 -1.560230 2.927694 0.020523 0.000204 -358845.000000 0 0 1
1.232152 7.288466 -34.386421 35.171947 1.403325 2.929850 0.006837 -0.003694 -414769.000000 0 0 1
1.747152 6.006166 34.574098 35.135378 1.287715 0.178983 0.012379 0.003150 -397145.000000 0 0 1
1.638352 5.775466 33.046119 33.586994 1.294384 0.179706 0.024976 -0.003081 673760.000000 0 0 1
0.287952 5.475766 32.623709 33.081313 1.518258 0.166522 0.032142 -0.009234 656005.000000 0 0 1
0.037452 5.502866 31.192099 31.673805 1.563991 0.174626 0.050096 -0.013043 25531.800000 0 0 1
0.836652 4.532166 30.284519 30.633194 1.388248 0.151023 0.060101 -0.027195 -64558.900000 0 0 1
0.674552 4.782466 28.933369 29.333715 1.430674 0.165403 0.060555 -0.024311 11010.700000 0 0 1
1.395552 3.863466 28.155889 28.453963 1.224163 0.144872 0.052474 -0.021642 -83437.400000 0 0 1
1.399752 4.271766 26.637989 27.014621 1.254147 0.167178 0.050900 -0.022967 -91489.400000 0 0 1
2.162952 5.426366 26.413669 27.051907 1.191497 0.217653 0.044991 -0.014528 18426.800000 0 0 1
2.102252 5.847766 25.052299 25.811499 1.225686 0.243140 0.039844 -0.011984 -504402.000000 0 0 1
2.874052 7.198066 24.834919 26.016255 1.190910 0.302508 0.039016 -0.005699 592544.000000 0 0 1
4.290352 7.135866 24.767449 26.129566 1.029467 0.324311 0.024817 0.002265 319419.000000 0 0 1
4.812052 6.613466 23.533299 24.914051 0.941777 0.334485 0.027920 -0.009288 195283.000000 0 1 0
6.379452 6.726766 23.477599 25.241720 0.811892 0.376082 0.025548 -0.005809 777645.000000 0 0 1
7.202352 5.823966 24.204049 25.915795 0.679975 0.365487 0.021397 -0.004907 136179.000000 0 0 1
6.999252 4.413866 24.226009 25.600219 0.562630 0.329141 0.026995 -0.008888 -948839.000000 0 0 1
7.127852 3.629166 22.851499 24.210909 0.470943 0.336696 0.012545 -0.006123 1323590.000000 0 1 0
6.032852 3.770866 21.881199 23.008728 0.558639 0.314356 0.019562 -0.005911 806226.000000 0 1 0
4.741652 3.307866 22.191399 22.932148 0.609126 0.254862 0.016508 -0.009968 -367176.000000 0 1 0
3.727152 3.544866 21.087699 21.705962 0.760337 0.239248 0.013612 -0.013861 -325555.000000 0 1 0
3.416952 4.933666 21.192499 22.025862 0.965068 0.275959 0.014205 -0.016230 -90081.500000 0 1 0
2.189552 5.237866 20.572899 21.341826 1.174849 0.269249 0.011376 -0.009977 132995.000000 0 1 0
1.695152 6.710366 20.744799 21.868910 1.323356 0.322021 0.012660 -0.002472 265056.000000 0 1 0
2.604152 7.574366 20.105299 21.641988 1.239646 0.379108 0.010758 -0.004933 -12098.100000 0 1 0
2.124752 8.878566 20.317499 22.274296 1.335901 0.422297 0.019314 -0.006900 364661.000000 0 1 0
3.096852 10.005666 19.876399 22.467200 1.270638 0.484978 0.028003 -0.012991 -429136.000000 0 1 0
3.011152 10.326466 18.468899 21.372954 1.287068 0.527388 0.008639 -0.012308 -30292.800000 0 1 0
3.847552 11.373366 17.979899 21.620219 1.244587 0.588770 0.005499 -0.011719 72185.100000 0 1 0
5.335352 10.962866 17.931799 21.684091 1.117865 0.597123 0.010004 -0.018197 -679100.000000 0 1 0
5.680152 9.942466 17.064499 20.550276 1.051746 0.591010 0.009601 -0.018448 -1162630.000000 0 1 0
6.966252 9.602066 17.413299 21.070152 0.943164 0.598034 0.004834 -0.005503 -1051880.000000 0 1 0
7.128352 8.185766 17.996199 21.016263 0.854337 0.542736 0.011027 -0.002300 -401978.000000 0 1 0
6.736352 8.057866 19.323999 21.993739 0.874488 0.497845 0.016937 -0.003437 -69781.800000 0 1 0
6.714552 6.722666 19.757999 21.923913 0.786002 0.448248 0.012268 -0.011739 489777.000000 0 1 0
8.120652 6.102166 20.043499 22.470497 0.644421 0.469064 0.014962 -0.008062 248322.000000 0 1 0
8.894352 5.874066 18.898099 21.696826 0.583670 0.513547 0.012318 -0.009819 423964.000000 0 1 0
10.219052 5.383166 19.181499 22.390565 0.484839 0.542002 0.017889 -0.009481 868576.000000 0 1 0
10.361752 3.856166 19.195799 22.152079 0.356273 0.522556 0.019127 -0.005489 -585418.000000 0 1 0
9.761652 3.249266 20.264299 22.726403 0.321325 0.469790 0.020709 -0.007457 -253876.000000 0 1 0
9.750352 1.849766 20.141099 22.453393 0.187485 0.457820 0.012420 -0.020000 -134682.000000 0 1 0
8.868752 1.006066 21.059899 22.873265 0.112956 0.400872 0.013475 -0.017987 -344584.000000 0 1 0
9.395752 0.984566 22.341599 24.256887 0.104407 0.400050 -0.000693 -0.016054 3803.180000 0 1 0
8.676852 0.076266 23.135499 24.709206 0.008789 0.358823 0.005937 -0.020997 -486785.000000 0 1 0
8.861652 0.177566 24.700459 26.242581 0.020035 0.344525 0.001687 -0.005307 -733149.000000 0 0 1
10.118652 -0.286134 25.072319 27.038679 -0.028270 0.383726 -0.011418 -0.005085 -297131.000000 0 0 1
10.154652 -1.692134 25.119849 27.147506 -0.165119 0.388945 -0.010366 -0.005695 -641904.000000 0 0 1
11.568052 -2.293234 25.040199 27.678336 -0.195701 0.440155 -0.016914 0.006938 -233427.000000 0 0 1
11.644652 -3.696234 25.063769 27.882836 -0.307360 0.453553 -0.010926 0.017161 -1041190.000000 0 0 1
12.920052 -4.187534 25.220259 28.644801 -0.313428 0.493990 -0.012234 0.022905 -984402.000000 0 0 1
13.013552 -5.680834 25.407619 29.106211 -0.411598 0.509625 -0.003356 0.014054 -175150.000000 0 0 1
12.723452 -6.352834 24.193339 28.063542 -0.463088 0.531414 0.002364 0.006637 296754.000000 0 0 1
12.789852 -7.757134 24.411729 28.630158 -0.545190 0.549745 0.013951 0.004424 47652.300000 0 0 1
12.628652 -8.565734 23.125299 27.706210 -0.595998 0.583279 0.032294 0.002319 355058.000000 0 0 1
12.116052 -9.928034 23.306399 28.081182 -0.686466 0.591751 0.031397 0.010851 -9158.770000 0 0 1
12.259352 -10.656634 22.101099 27.428345 -0.715573 0.633812 0.033179 0.000799 120041.000000 0 0 1
11.560952 -12.044234 22.149099 27.736290 -0.805869 0.645897 0.041770 0.007952 523824.000000 0 0 1
10.144052 -11.895234 22.143099 27.105631 -0.864689 0.614748 0.038553 0.006380 29145.600000 0 0 1
9.556852 -13.186334 22.163599 27.503417 -0.943649 0.633689 0.031529 0.007843 -120358.000000 0 0 1
8.086452 -13.238634 22.622299 27.430285 -1.022457 0.601090 0.012129 0.015374 -195219.000000 0 0 1
7.265952 -12.672834 21.637699 26.107179 -1.050204 0.593832 0.006702 0.001799 -512037.000000 0 0 1
5.972652 -12.411834 22.135599 26.071266 -1.122296 0.556627 -0.010779 0.009552 425364.000000 0 0 1
5.223252 -11.276034 21.365099 24.716366 -1.137006 0.526819 -0.018169 0.017166 331833.000000 0 1 0
5.764552 -10.081334 21.841199 24.736639 -1.051367 0.488689 -0.001739 0.018596 228700.000000 0 1 0
4.968652 -8.959434 21.396999 23.723206 -1.064450 0.446547 -0.009209 0.020255 436861.000000 0 1 0
5.569052 -7.583134 21.744899 23.693013 -0.937354 0.408351 0.002000 0.005333 -137505.000000 0 1 0
4.813552 -6.559134 21.190199 22.698393 -0.937699 0.366590 -0.001948 -0.005505 -223069.000000 0 1 0
5.467352 -5.324434 21.402099 22.722046 -0.772156 0.342527 0.013794 -0.022125 -175367.000000 0 1 0
-7.667948 -15.759934 -20.627697 27.067967 1.117969 2.437301 0.016865 0.012122 -23716.400000 0 0 1
-7.372748 -15.045434 -19.436597 25.661329 1.115155 2.430160 0.027128 -0.002332 -441950.000000 0 0 1
-6.463948 -14.046634 -19.792197 25.116162 1.139511 2.478393 0.012745 -0.004886 -354244.000000 0 0 1
-5.823748 -13.388734 -18.582897 23.632569 1.160508 2.475635 0.019185 -0.012288 -640767.000000 0 1 0
-4.767548 -14.157134 -18.145697 23.503623 1.245965 2.452838 0.012400 -0.001673 -958939.000000 0 1 0
-3.996548 -13.498434 -17.142297 22.181940 1.282944 2.454044 0.006183 -0.004736 262564.000000 0 1 0
-3.025948 -14.474634 -16.422897 22.099388 1.364712 2.408544 0.005349 0.000766 942255.000000 0 1 0
-1.841548 -14.701234 -17.233097 22.726575 1.446181 2.431466 0.003444 -0.000414 396818.000000 0 1 0
-1.004648 -15.643434 -16.598297 22.830458 1.506663 2.384774 0.008594 0.009166 -353079.000000 0 1 0
0.380352 -15.846934 -17.201197 23.391263 -1.546799 2.397007 0.004326 0.008753 -234988.000000 0 1 0
0.345852 -16.628934 -18.343797 24.761582 -1.550001 2.405082 0.010673 0.004450 -211817.000000 0 1 0
0.261652 -18.034034 -18.221797 25.638423 -1.556289 2.361321 0.012155 0.011567 -365966.000000 0 0 1
-0.140548 -18.714534 -19.541597 27.057856 1.563286 2.377796 0.013949 0.010468 1037320.000000 0 0 1
-1.536048 -18.357634 -19.709897 26.978551 1.487317 2.389962 0.030965 0.011224 703469.000000 0 0 1
-1.779148 -18.466934 -21.063297 28.068764 1.474750 2.419490 0.037238 0.011876 -96833.700000 0 0 1
-2.837448 -17.485434 -21.571197 27.912507 1.409924 2.454061 0.038168 0.015845 -103455.000000 0 0 1
-2.327448 -16.163434 -21.555797 27.043040 1.427785 2.493261 0.039109 0.021264 -313467.000000 0 0 1
-2.721748 -15.289234 -20.494997 25.714072 1.394625 2.493165 0.044336 0.005744 -363879.000000 0 0 1
-2.302648 -13.832434 -20.449697 24.795736 1.405842 2.540514 0.023006 -0.010668 -232898.000000 0 1 0
-2.595048 -12.985934 -21.558397 25.300854 1.373559 2.590746 0.019065 -0.025661 110968.000000 0 0 1
-1.753048 -11.838934 -21.528097 24.631129 1.423790 2.634211 0.002461 -0.013064 217711.000000 0 1 0
-1.776948 -11.123134 -22.884697 25.506686 1.412382 2.684193 0.010471 -0.005603 -1358710.000000 0 0 1
-2.928748 -10.440134 -23.041397 25.465269 1.297298 2.701745 0.012968 -0.007223 -1159450.000000 0 0 1
-2.962848 -9.998134 -24.397797 26.532879 1.282701 2.737681 0.013926 -0.015667 31839.400000 0 0 1
-3.988848 -8.806334 -24.509197 26.346976 1.145490 2.765882 0.010854 -0.011084 -323118.000000 0 0 1
-5.281048 -9.314034 -24.324697 26.576899 1.054996 2.726942 -0.003322 -0.012625 -60636.400000 0 0 1
-6.179348 -8.221734 -24.121797 26.222935 0.926280 2.738555 0.003502 -0.015889 -468342.000000 0 0 1
-7.673748 -8.616234 -24.040297 26.665742 0.843191 2.694117 -0.016969 -0.014231 -183861.000000 0 0 1
-8.352548 -8.879934 -25.230767 28.021597 0.815993 2.691494 -0.019244 -0.014017 -96369.500000 0 0 1
-8.509848 -7.720534 -26.074487 28.493912 0.736805 2.726527 -0.020084 -0.011917 -483638.000000 0 0 1
-9.318348 -8.078534 -27.351827 30.003612 0.714252 2.717999 -0.020553 -0.008069 133716.000000 0 0 1
-9.652148 -6.997434 -28.222747 30.637420 0.627283 2.741912 -0.014398 -0.010673 -222844.000000 0 0 1
-10.182548 -7.476934 -29.373237 31.974613 0.633370 2.735427 -0.001186 -0.011500 -395134.000000 0 0 1
-11.040148 -6.405234 -30.087267 32.682649 0.525716 2.740381 0.002731 -0.016985 211825.000000 0 0 1
-10.265848 -5.411934 -30.748727 32.865801 0.485153 2.780706 -0.015014 -0.013876 290937.000000 0 0 1
-11.077148 -4.875634 -31.782117 34.008498 0.414635 2.777745 0.008429 -0.021227 -78679.900000 0 0 1
-10.457948 -3.679934 -32.553327 34.389383 0.338348 2.813348 0.002189 -0.021447 -231815.000000 0 0 1
-9.361348 -4.175134 -33.289327 34.831679 0.419520 2.842893 0.001116 -0.011030 -86931.400000 0 0 1
-8.807848 -3.100234 -34.046397 35.303637 0.338443 2.873915 0.004242 -0.007175 -242044.000000 0 0 1
-7.715948 -3.578634 34.224251 35.265306 0.434268 0.243586 0.009577 -0.010789 -509354.000000 0 0 1
-6.508748 -3.744034 -34.380585 35.190996 0.522008 2.926568 0.012016 -0.011679 -1041810.000000 0 0 1
-5.513948 -4.426834 34.144244 34.868752 0.676472 0.204208 0.004259 -0.005013 -115023.000000 0 0 1
-4.133048 -3.961834 34.615614 35.085879 0.764250 0.163910 0.014998 -0.008318 -444480.000000 0 0 1
-3.887948 -2.587834 34.408768 34.724290 0.587267 0.134910 0.030286 -0.017716 278628.000000 0 0 1
-2.560948 -2.160234 -34.555611 34.717651 0.700725 3.044938 0.033164 -0.018989 545850.000000 0 0 1
-2.465648 -0.742534 -34.089737 34.186853 0.292513 3.066199 0.039827 -0.023829 -152210.000000 0 0 1
-2.979048 -0.776234 -32.795537 32.939710 0.254897 3.047997 0.026762 -0.014339 264893.000000 0 0 1
-3.413048 0.494066 -32.319917 32.503385 -0.143759 3.035292 0.030657 -0.018472 -885361.000000 0 0 1
-3.887248 0.439366 -30.821987 31.069255 -0.112550 3.015345 0.041239 -0.012009 1323380.000000 0 0 1
-5.106148 -0.311434 -30.593127 31.017884 0.060917 2.975910 0.024074 -0.017560 670183.000000 0 0 1
-6.289148 0.186466 -31.152877 31.781911 -0.029640 2.942305 0.023543 -0.017639 -573831.000000 0 0 1
-7.476448 -0.811034 -30.993767 31.893081 0.108056 2.903554 0.021978 -0.025055 277411.000000 0 0 1
-7.800848 -1.249434 -29.693507 30.726514 0.158818 2.881556 0.017379 -0.018699 -109914.000000 0 0 1
-8.692748 -2.333034 -29.741347 31.073375 0.262209 2.847732 0.008932 -0.018031 -373328.000000 0 0 1
-9.088748 -2.856234 -28.361777 29.919121 0.304488 2.817526 -0.001922 -0.011741 -287965.000000 0 0 1
-9.866948 -1.991534 -27.588087 29.367080 0.199163 2.791737 -0.004397 -0.006088 466.858000 0 0 1
-9.983448 -2.450834 -26.270877 28.210544 0.240729 2.768606 -0.015703 0.001528 48977.800000 0 0 1
-11.026548 -1.633434 -25.483517 27.814789 0.147067 2.729253 -0.024479 0.012871 455307.000000 0 0 1
-10.449148 -0.392234 -25.035097 27.131064 0.037520 2.745944 -0.017871 0.010996 786927.000000 0 0 1
-11.465148 0.237266 -24.268597 26.841585 -0.020692 2.700163 -0.016690 0.010562 342114.000000 0 0 1
-10.875248 1.402366 -23.494397 25.927289 -0.128243 2.704922 -0.021227 0.010044 36669.100000 0 0 1
-10.565648 2.456766 -24.382997 26.687060 -0.228464 2.723004 -0.024394 0.007954 93641.900000 0 0 1
-9.710048 3.374766 -23.729197 25.860179 -0.334494 2.732786 -0.014652 0.007273 -506445.000000 0 0 1
-9.472848 4.680966 -24.517997 26.697911 -0.458953 2.734685 -0.007650 -0.002033 -49051.700000 0 0 1
-10.679448 5.396066 -24.699297 27.444916 -0.467859 2.690472 -0.004022 0.000091 211812.000000 0 0 1
-11.442848 4.888266 -25.801627 28.645381 -0.403724 2.692233 -0.014918 -0.005250 573952.000000 0 0 1
-12.752848 5.674066 -26.181947 29.670263 -0.418626 2.651800 -0.016305 -0.001066 817630.000000 0 0 1
-12.504348 6.939966 -26.763117 30.344460 -0.506677 2.650837 -0.008444 0.005578 -1851.500000 0 0 1
-13.721048 7.379466 -27.342367 31.469488 -0.493445 2.623678 0.002887 0.004138 75523.400000 0 0 1
-13.873648 8.899866 -27.208067 31.811391 -0.570373 2.596913 0.024307 0.002156 -259165.000000 0 0 1
-14.092448 9.398666 -25.882257 30.932559 -0.588184 2.562084 0.032014 0.005101 156442.000000 0 0 1
-14.052548 10.843566 -25.922407 31.417005 -0.657210 2.541189 0.039416 0.001830 -140614.000000 0 0 1
-13.752548 11.449366 -24.491497 30.332391 -0.694262 2.510591 0.029396 0.008634 237240.000000 0 0 1
-14.790448 11.179166 -23.562697 29.982191 -0.647226 2.474930 0.035005 0.010209 128149.000000 0 0 1
-14.471548 11.759866 -22.300697 29.069593 -0.682389 2.445180 0.027586 0.010043 6109.000000 0 0 1
-15.574648 11.682766 -21.187497 28.774410 -0.643574 2.398428 0.029443 0.009252 466523.000000 0 0 1
-16.673148 12.547366 -21.483597 29.949544 -0.645131 2.370754 0.031201 0.003060 205888.000000 0 0 1
-17.215648 12.966266 -20.235097 29.562844 -0.645525 2.324683 0.031833 0.010090 457160.000000 0 0 1
-18.729948 13.347666 -20.326997 30.694591 -0.619157 2.294592 0.021771 0.003934 481674.000000 0 0 1
-18.869348 14.612566 -20.928897 31.742686 -0.658940 2.290723 0.022286 0.002350 372054.000000 0 0 1
-20.204848 15.083466 -20.833897 32.707768 -0.641275 2.261359 0.021326 -0.003745 216944.000000 0 0 1
-20.284648 16.400366 -21.614697 33.876748 -0.679909 2.262746 0.010973 -0.003866 -156086.000000 0 0 1
-20.030848 16.272866 -23.011597 34.577082 -0.682250 2.298981 0.019973 -0.006241 113290.000000 0 0 1
-20.035648 17.503866 -23.729397 35.649639 -0.718057 2.299131 0.015591 -0.003049 -129538.000000 0 0 1
-20.067948 17.398366 -25.254997 36.650246 -0.714266 2.331017 0.003164 -0.010282 911871.000000 0 0 1
-18.817848 16.842166 -25.727207 36.050785 -0.730051 2.365474 -0.001052 -0.017666 1049560.000000 0 0 1
-19.004648 16.614066 -27.094297 37.031132 -0.718383 2.391554 -0.001607 -0.022098 -64100.100000 0 0 1
-18.277148 17.628466 -28.012857 37.809220 -0.767334 2.405206 -0.020163 -0.012016 -112977.000000 0 0 1
-18.988048 18.881066 -27.943047 38.702125 -0.782573 2.377489 -0.011047 -0.027380 288640.000000 0 0 1
-18.208848 20.014166 -28.197637 39.079863 -0.832594 2.376819 -0.029261 -0.018885 -1202870.000000 0 0 1
-19.017548 21.284166 -28.549727 40.370407 -0.841580 2.356318 0.006052 -0.010965 185640.000000 0 0 1
-19.837248 21.858366 -27.538377 40.369131 -0.833833 2.321515 0.018773 -0.002104 445675.000000 0 0 1
-21.084648 21.189566 -27.416247 40.561196 -0.787880 2.313013 0.061049 -0.020731 -148226.000000 0 0 1
-21.986948 21.711466 -26.249197 40.544222 -0.779094 2.274992 0.065831 -0.014579 318469.000000 0 0 1
-21.549848 21.164866 -25.013697 39.217758 -0.776386 2.262455 0.029269 -0.008642 -93779.100000 0 0 1
-22.176048 21.724166 -23.910797 39.184725 -0.775105 2.227118 0.027606 -0.019282 -319690.000000 0 0 1
-21.682148 21.188866 -22.585897 37.804845 -0.773892 2.211094 0.014512 -0.004161 806794.000000 0 0 1
-20.346248 21.619366 -22.217797 37.080956 -0.815726 2.213260 0.012270 0.001196 714112.000000 0 0 1
-19.563648 20.636366 -21.604297 35.711924 -0.812076 2.220512 0.000954 0.006143 -369628.000000 0 0 1
-19.987848 20.046366 -20.206597 34.780417 -0.786860 2.190724 0.004733 -0.000381 -173464.000000 0 0 1
-21.159748 19.226466 -20.339897 35.087082 -0.737565 2.189154 0.022130 0.000145 977236.000000 0 0 1
-21.917048 19.020066 -19.122897 34.753490 -0.714749 2.153453 0.025427 0.002127 1146480.000000 0 0 1
-23.087748 20.058066 -18.903197 35.954151 -0.715294 2.124403 0.017513 -0.002296 936545.000000 0 0 1
-24.253948 19.943066 -19.724197 37.081313 -0.688168 2.131660 0.023980 -0.000849 1872000.000000 0 0 1
-25.341808 20.830566 -19.313197 38.067299 -0.688003 2.102896 0.026150 -0.008243 1287510.000000 0 0 1
-26.788118 20.565866 -19.867897 39.182795 -0.654748 2.102563 0.019099 -0.006583 871551.000000 0 0 1
-27.459938 19.359966 -19.456097 38.825200 -0.614091 2.095689 0.023727 -0.003181 474333.000000 0 0 1
-27.895518 19.403766 -18.079397 38.490656 -0.607758 2.059757 0.007089 -0.004805 -617486.000000 0 0 1
-28.624418 18.106766 -17.623697 38.181238 -0.564020 2.050572 -0.011484 -0.003796 -51991.100000 0 0 1
-27.783988 17.001866 -17.364697 36.912682 -0.549146 2.060570 -0.007330 -0.002807 -423822.000000 0 0 1
-28.537418 15.925366 -16.898897 36.790953 -0.509004 2.048028 -0.024567 0.001036 -143211.000000 0 0 1
-27.781428 14.849866 -16.064797 35.361051 -0.490885 2.042391 -0.013974 0.000754 -121338.000000 0 0 1
-27.358228 15.265266 -14.748697 34.626941 -0.508947 2.010787 -0.017486 0.005405 -89707.800000 0 0 1
-28.434528 15.437366 -13.880997 35.206771 -0.497383 1.976070 -0.032914 0.010325 -245333.000000 0 0 1
-27.927948 15.965166 -12.521697 34.520279 -0.519317 1.941997 -0.024935 -0.003850 400716.000000 0 0 1
-27.288218 17.269366 -12.526197 34.637890 -0.564225 1.940815 -0.023404 0.002858 348115.000000 0 0 1
-28.185998 18.317466 -12.810897 35.973589 -0.576290 1.934908 -0.022516 0.003035 110545.000000 0 0 1
-27.393198 19.629566 -12.932697 36.096562 -0.621771 1.937222 -0.009175 0.006040 388158.000000 0 0 1
-26.786398 20.127266 -11.740697 35.502984 -0.644396 1.907837 -0.020481 -0.004939 501010.000000 0 0 1
-25.825338 21.158366 -12.028997 35.486917 -0.686391 1.916618 -0.017980 -0.005661 579320.000000 0 0 1
-25.102038 21.636566 -10.731697 34.834216 -0.711388 1.883970 -0.024573 0.002681 -42401.400000 0 0 1
-25.722018 22.604466 -9.921197 35.651286 -0.720977 1.852804 -0.001493 -0.002931 -222723.000000 0 0 1
-25.406658 23.893066 -10.311597 36.369024 -0.754706 1.858266 0.003384 -0.004673 -54046.400000 0 0 1
-26.031998 24.912766 -9.310797 37.215612 -0.763432 1.823668 0.021951 0.005593 5463.790000 0 0 1
-25.626288 24.853166 -7.974497 36.578396 -0.770084 1.790572 0.010895 0.004056 -414226.000000 0 0 1
-26.564958 25.449166 -7.147597 37.475928 -0.763950 1.762697 0.020614 -0.001607 -304829.000000 0 0 1
-26.593198 24.865866 -5.734497 36.856396 -0.751844 1.727021 0.015186 -0.006633 -57797.800000 0 0 1
-26.945398 23.516666 -5.843297 36.238545 -0.717556 1.732749 0.016994 -0.004052 -243006.000000 0 0 1
-26.731408 22.842866 -4.633297 35.465929 -0.707120 1.701812 -0.002580 -0.004057 -70126.600000 0 0 1
-26.950608 21.303466 -4.673097 34.670027 -0.668899 1.705996 -0.016682 -0.000501 48365.400000 0 0 1
-26.045018 20.568166 -5.469297 33.634887 -0.668439 1.734129 -0.023921 -0.006943 -189669.000000 0 0 1
-25.987198 20.818566 -6.840197 33.993167 -0.675416 1.773402 -0.019582 -0.007924 -1058800.000000 0 0 1
-26.974438 20.050566 -7.671697 34.474634 -0.639210 1.795207 -0.015744 -0.008921 -785594.000000 0 0 1
-26.661288 18.705366 -7.679197 33.461695 -0.611794 1.802352 -0.033624 -0.002364 259240.000000 0 0 1
-26.924528 18.088266 -8.895197 33.633913 -0.591557 1.838452 -0.031530 0.000578 -389283.000000 0 0 1
-26.309538 16.689166 -9.047397 32.443419 -0.565287 1.853410 -0.025683 0.006910 281727.000000 0 0 1
-27.148638 15.684466 -8.475497 32.478994 -0.523880 1.834806 -0.053655 0.005107 681532.000000 0 0 1
-26.513668 14.389266 -8.633897 31.377854 -0.497230 1.849551 -0.040698 -0.002143 195500.000000 0 0 1
-27.192608 13.300366 -7.798097 31.259366 -0.454903 1.822923 -0.035742 -0.001425 -311118.000000 0 0 1
-28.534778 13.084666 -8.145197 32.431254 -0.429943 1.824667 -0.030634 -0.000453 -362790.000000 0 0 1
-29.160198 12.216366 -7.196697 32.424515 -0.396726 1.794613 -0.016065 -0.001412 -54076.600000 0 0 1
-29.836938 11.024166 -7.880397 32.770044 -0.353923 1.813652 -0.015607 -0.002325 -611780.000000 0 0 1
-28.951668 10.095166 -8.394997 31.789738 -0.335508 1.838045 -0.005956 0.001544 -508505.000000 0 0 1
-29.668058 9.049166 -8.988497 32.293562 -0.296050 1.852859 -0.014439 0.011304 -231264.000000 0 0 1
-28.882538 7.790666 -9.485997 31.382792 -0.263466 1.877867 0.004324 0.011219 -366312.000000 0 0 1
-28.190818 7.984066 -10.688697 31.188392 -0.275988 1.920601 0.005609 0.004684 -116965.000000 0 0 1
-27.205668 7.001666 -10.855697 30.116737 -0.251894 1.939551 0.019900 -0.004899 -645998.000000 0 0 1
-26.548308 7.128966 -12.205297 30.076637 -0.262339 1.988657 0.015221 -0.005763 -1471510.000000 0 0 1
-25.992978 8.332266 -12.366997 29.966718 -0.310209 1.996203 0.021191 -0.016134 -191896.000000 0 0 1
-25.086378 8.252366 -13.433497 29.629154 -0.317808 2.041359 0.018747 -0.008654 -349677.000000 0 0 1
-30.161208 26.690966 -34.094932 52.769030 -0.724434 2.273281 -0.016625 -0.006939 -19434.300000 0 0 1
-30.660948 28.010566 -34.278035 53.848576 -0.740256 2.260830 -0.015575 -0.014127 371742.000000 0 0 1
-30.610418 28.301566 33.593790 53.539882 -0.746227 0.892518 -0.004349 -0.016086 71069.800000 0 0 1
-31.247908 29.740466 33.373162 54.540764 -0.760686 0.912343 0.000638 -0.014295 80683.300000 0 0 1
-31.301548 30.088566 31.988069 53.929076 -0.765642 0.935830 0.020769 -0.013785 134711.000000 0 0 1
-31.637288 31.443566 31.804509 54.782685 -0.782327 0.951383 0.025327 -0.018530 -136953.000000 0 0 1
-31.451578 31.955966 30.358829 54.148352 -0.793353 0.975613 0.036470 -0.023020 704816.000000 0 0 1
-30.106078 31.963466 29.849039 53.094295 -0.815314 0.973766 0.026501 -0.016222 795727.000000 0 0 1
-29.982498 32.558666 28.575939 52.683975 -0.826566 0.997502 0.031834 -0.013323 695647.000000 0 0 1
-28.528988 32.554066 27.977759 51.540521 -0.851198 0.996993 0.026231 -0.010219 329947.000000 0 0 1
-28.211618 31.355966 27.324499 50.256544 -0.838135 0.995957 0.044746 -0.016953 944716.000000 0 0 1
-26.944738 31.470366 26.640469 49.255633 -0.862717 0.999335 0.009835 0.002661 516968.000000 0 0 1
-26.898828 32.260866 25.258249 49.013157 -0.875788 1.029397 0.005173 -0.005887 -502857.000000 0 0 1
-26.934698 33.600766 25.446729 50.020250 -0.895075 1.037089 -0.006161 -0.005602 707552.000000 0 0 1
-28.122658 34.119966 24.835639 50.713557 -0.881455 1.059023 0.003717 0.001617 239089.000000 0 0 1
-28.427788 -33.922131 25.273019 50.966416 0.873292 1.051953 0.005700 0.000092 -859915.000000 0 0 1
-29.030518 -33.897131 26.549899 51.929602 0.862581 1.034138 0.016206 -0.014398 145717.000000 0 0 1
-28.737258 -32.706631 27.314629 51.396913 0.849910 1.010491 0.018432 -0.014097 -261565.000000 0 0 1
-29.005538 -32.893731 28.824669 52.480285 0.848131 0.989333 0.029933 -0.020565 497002.000000 0 0 1
-30.387768 -33.118831 29.130499 53.561734 0.828376 0.995757 0.029265 -0.020285 613508.000000 0 0 1
-30.590068 -33.479331 30.456879 54.628192 0.830463 0.979388 0.013964 -0.020134 1850.370000 0 0 1
-32.077718 -33.787931 30.711569 55.801476 0.811357 0.987987 0.026551 -0.021559 72824.600000 0 0 1
-32.298588 -34.039031 32.072839 56.837676 0.811628 0.971225 0.013192 -0.023680 365553.000000 0 0 1
-33.670808 -34.280031 32.391469 57.948693 0.794364 0.977656 0.013288 -0.015170 447831.000000 0 0 1
-33.937548 34.690966 33.788389 59.134385 -0.796376 0.962606 0.008015 -0.012837 -92250.600000 0 0 1
-33.561158 33.329966 33.938290 58.215509 -0.781942 0.948409 -0.009505 -0.011725 -114032.000000 0 0 1
-34.434695 32.714866 -34.399246 58.645705 -0.759792 2.197602 0.005161 -0.010698 -12752.400000 0 0 1
-33.986368 31.342766 -33.866577 57.309573 -0.744954 2.203021 -0.003649 -0.002801 91506.300000 0 0 1
-32.958378 31.455466 -32.907467 56.201445 -0.762070 2.196326 -0.003777 -0.007406 -231160.000000 0 0 1
-32.465668 30.230566 -32.400207 54.933415 -0.749764 2.201618 -0.012947 -0.008844 91340.200000 0 0 1
-31.640368 30.356366 -31.118377 53.767790 -0.764690 2.187998 -0.013494 -0.007060 135760.000000 0 0 1
-32.386968 30.584166 -29.925907 53.664390 -0.756777 2.162347 -0.003501 -0.007150 230354.000000 0 0 1
-33.037768 31.867166 -29.726477 54.687053 -0.767364 2.145486 -0.012584 0.000756 491227.000000 0 0 1
-34.127223 32.066766 -28.659547 54.902773 -0.754281 2.119997 -0.008756 0.004908 218814.000000 0 0 1
-33.610668 31.744066 -27.371927 53.726949 -0.756845 2.105358 -0.012822 -0.001305 -135964.000000 0 0 1
-34.618526 31.666066 -26.410687 53.839636 -0.740885 2.083510 -0.014295 0.001848 -695500.000000 0 0 1
-34.074579 31.188566 -25.036297 52.541600 -0.741206 2.067471 -0.013557 0.004653 120464.000000 0 0 1
-33.371628 32.263166 -24.392097 52.436169 -0.768511 2.054631 0.004887 -0.005977 15996.100000 0 0 1
-33.053988 32.042966 -23.021697 51.471510 -0.769868 2.034508 -0.003756 -0.009460 -829502.000000 0 0 1
-34.167957 31.680766 -22.059497 51.553289 -0.747645 2.012961 -0.000922 -0.010486 -747397.000000 0 0 1
34.613909 32.581066 -21.757397 52.278416 0.755154 2.000040 0.006405 -0.021591 -184202.000000 0 0 1
-34.834200 33.786566 -21.042997 52.893868 -0.770132 1.979951 0.011959 -0.026112 -511468.000000 0 0 1
-34.646604 33.538566 -19.504897 52.015993 -0.769149 1.955170 0.013089 -0.023247 337702.000000 0 0 1
-33.528128 32.721066 -19.162797 50.616364 -0.773217 1.959068 0.018240 -0.024379 240477.000000 0 0 1
-33.266128 32.728866 -17.784297 49.940916 -0.777257 1.934895 0.023850 -0.016272 -618557.000000 0 0 1
-32.186588 31.743166 -17.461697 48.461488 -0.778462 1.939408 0.017315 -0.009949 -532032.000000 0 0 1
-31.817728 31.655466 -16.113697 47.687394 -0.782842 1.915484 0.017307 -0.003011 -345844.000000 0 0 1
-30.821848 30.693866 -15.880597 46.306512 -0.783318 1.920847 0.006853 -0.001729 -216248.000000 0 0 1
-30.606888 30.439666 -14.372597 45.496444 -0.782659 1.892208 0.006899 0.001124 94272.600000 0 0 1
-31.734798 29.866666 -13.721697 45.688074 -0.755081 1.875839 0.007044 -0.001047 281808.000000 0 0 1
-31.358998 29.523066 -12.430697 44.827674 -0.755252 1.851779 0.012991 0.000571 300325.000000 0 0 1
-32.383398 28.615466 -11.663597 44.761243 -0.723706 1.834413 0.020441 -0.004191 119992.000000 0 0 1
-31.838418 28.055866 -10.513197 43.718918 -0.722328 1.813649 0.023856 -0.000794 217626.000000 0 0 1
-32.799478 27.280766 -9.802197 43.773611 -0.693800 1.796641 0.025648 -0.002368 -538915.000000 0 0 1
-32.241988 26.362966 -8.732897 42.553675 -0.685417 1.777486 0.017726 0.000528 111148.000000 0 0 1
-31.686848 26.926966 -7.508697 42.255158 -0.704368 1.749444 0.024221 -0.002250 -147708.000000 0 0 1
-30.471358 27.586366 -7.677797 41.814588 -0.735747 1.755459 0.029143 -0.006122 -1050990.000000 0 0 1
-30.021328 28.155766 -6.316797 41.640475 -0.753342 1.723083 0.026327 -0.004500 -181422.000000 0 0 1
-29.622678 27.169766 -5.366297 40.552390 -0.742234 1.703516 0.035213 -0.009962 151711.000000 0 0 1
-29.220148 27.652566 -4.140597 40.442873 -0.757842 1.673357 0.024844 -0.006703 -234043.000000 0 0 1
-28.500008 26.578066 -3.285897 39.108070 -0.750517 1.654916 0.020619 -0.011836 -33734.100000 0 0 1
-29.292808 25.494666 -2.849497 38.937979 -0.716184 1.644042 0.019779 0.001886 153185.000000 0 0 1
-28.470378 24.569466 -2.146597 37.667346 -0.711984 1.627815 -0.000334 -0.001423 537126.000000 0 0 1
-29.260738 23.284166 -1.746897 37.435208 -0.672143 1.617478 -0.001445 -0.003424 63033.200000 0 0 1
-29.515898 22.403266 -2.828597 37.163093 -0.649251 1.646983 -0.004668 -0.000644 -11389.100000 0 0 1
-30.568178 21.512766 -2.543597 37.465751 -0.613247 1.638740 -0.002398 0.005010 -95908.700000 0 0 1
-31.008848 20.707366 -3.763197 37.476730 -0.588779 1.671380 -0.003759 0.000941 -401847.000000 0 0 1
-30.020418 19.861366 -4.255397 36.246486 -0.584483 1.688469 -0.016942 0.001917 -390876.000000 0 0 1
-30.562748 18.904466 -5.107297 36.298001 -0.553945 1.711969 -0.010016 0.004886 -253675.000000 0 0 1
-29.535198 17.896766 -5.625497 34.989546 -0.544781 1.732274 -0.030756 0.006558 -67111.400000 0 0 1
-29.091338 16.951766 -4.609397 33.984038 -0.527608 1.706850 -0.026134 0.003446 313567.000000 0 0 1
-28.138748 16.111066 -5.234397 32.844398 -0.519997 1.730848 -0.034092 0.006568 94203.900000 0 0 1
-27.586528 14.953066 -4.334597 31.676481 -0.496713 1.708067 -0.025295 -0.001020 91887.300000 0 0 1
-28.643418 14.091766 -3.999597 32.171727 -0.457205 1.695439 0.007028 -0.007115 313569.000000 0 0 1
-28.138528 12.825366 -3.619697 31.134691 -0.427662 1.687319 0.017044 -0.012476 1034610.000000 0 0 1
-29.260888 11.903966 -2.934597 31.725634 -0.386373 1.663428 0.025397 -0.018596 1331660.000000 0 0 1
-30.409908 11.588566 -3.713897 32.754395 -0.364089 1.684427 0.002439 -0.003813 665308.000000 0 0 1
-31.341228 10.771766 -3.041897 33.279974 -0.331045 1.662327 0.006753 0.001556 -360956.000000 0 0 1
-32.528718 10.354666 -3.896997 34.358742 -0.308182 1.684462 0.004838 0.005918 -609390.000000 0 0 1
-32.241998 9.398466 -4.884297 33.937206 -0.283638 1.715219 0.005193 0.001356 -101517.000000 0 0 1
-33.351488 9.004866 -5.634497 35.002242 -0.263711 1.732475 0.010168 0.012952 -468900.000000 0 0 1
-32.946878 8.257566 -6.929997 34.665675 -0.245574 1.772062 -0.001028 0.001367 116965.000000 0 0 1
-32.317688 6.996166 -6.561697 33.711054 -0.213191 1.766692 -0.009596 0.003293 674989.000000 0 0 1
-31.979518 6.106366 -7.610397 33.434943 -0.188675 1.800427 -0.019819 0.013153 -93553.000000 0 0 1
-31.126618 4.868366 -7.102797 32.295775 -0.155148 1.792539 -0.014363 0.014430 944028.000000 0 0 1
-29.755358 5.253366 -6.964097 31.007706 -0.174751 1.797321 -0.006963 0.003785 531505.000000 0 0 1
-28.867298 4.223166 -6.622897 29.916865 -0.145265 1.794022 -0.009117 0.001512 -56039.700000 0 0 1
-27.451088 4.787266 -6.368997 28.583986 -0.172656 1.795499 0.014395 -0.002881 47536.700000 0 0 1
-26.794068 5.318466 -7.515197 28.331720 -0.195947 1.839267 0.024382 0.001508 -475129.000000 0 0 1
-25.423468 5.160966 -7.338697 26.960059 -0.200279 1.846481 0.036091 -0.005002 -911571.000000 0 0 1
-24.598248 5.519266 -8.587997 26.632495 -0.220721 1.899127 0.042761 -0.003113 -344131.000000 0 0 1
-24.612648 4.703266 -9.779397 26.898694 -0.188815 1.942887 0.040257 -0.009923 377947.000000 0 0 1
-23.715848 5.130766 -10.790597 26.555662 -0.213060 1.989240 0.045182 -0.016951 -353417.000000 0 0 1
-23.882148 4.349366 -12.116197 27.130724 -0.180144 2.033742 0.045698 -0.020277 446886.000000 0 0 1
-24.871248 5.019466 -12.939697 28.481744 -0.199143 2.042400 0.045648 -0.014705 508494.000000 0 0 1
-25.225198 4.152866 -14.036497 29.164707 -0.163168 2.072915 0.039696 -0.013580 205236.000000 0 0 1
-26.212348 4.825766 -15.042797 30.604917 -0.182064 2.084626 0.022473 -0.009834 -75564.600000 0 0 1
-25.577748 5.729066 -15.920797 30.667820 -0.220349 2.116637 0.018402 -0.006164 36432.500000 0 0 1
-26.487318 6.449766 -16.688697 31.963887 -0.238855 2.120121 0.045988 -0.000375 -384936.000000 0 0 1
-27.291838 5.671466 -17.756697 33.050117 -0.204892 2.137988 -0.008189 0.011444 531465.000000 0 0 1
-28.411598 4.918366 -17.241897 33.596015 -0.171412 2.109720 -0.004117 0.001863 583804.000000 0 0 1
-29.103288 4.322866 -18.348697 34.675109 -0.147457 2.128407 0.001384 0.013438 79034.700000 0 0 1
-30.410898 3.648066 -17.814097 35.432657 -0.119389 2.097584 -0.001941 0.010239 -185849.000000 0 0 1
-30.387578 2.498366 -16.953997 34.886742 -0.082032 2.078272 -0.000946 0.002298 -121998.000000 0 0 1
-29.675298 1.440266 -17.457497 34.459569 -0.048496 2.102042 0.009801 0.000281 -524519.000000 0 0 1
-30.195468 0.160266 -16.841997 34.575205 -0.005308 2.079576 0.003280 0.006179 -855466.000000 0 0 1
-29.418838 -0.933934 -17.134797 34.057914 0.031735 2.097987 0.010812 0.011143 152988.000000 0 0 1
-29.756108 -1.955234 -16.252997 33.961873 0.065614 2.069817 0.006307 -0.003637 -55018.100000 0 0 1
-29.366938 -3.313634 -16.842597 34.015736 0.112360 2.088794 0.021199 -0.003882 -238843.000000 0 0 1
-30.184258 -3.516034 -17.969797 35.303903 0.115963 2.104823 0.024097 -0.004248 226711.000000 0 0 1
-29.956918 -4.750134 -18.574897 35.566944 0.157256 2.120286 0.031916 -0.003551 -87161.500000 0 0 1
-30.758758 -4.968534 -19.855697 36.946397 0.160149 2.138170 0.053403 -0.005981 -205555.000000 0 0 1
-30.646308 -6.288334 -20.399997 37.348350 0.202382 2.148628 0.050727 0.000181 -72847.100000 0 0 1
-31.591198 -6.498534 -21.412397 38.713376 0.202877 2.156878 0.049216 0.000078 -391645.000000 0 0 1
-31.226348 -7.695734 -22.360797 39.170325 0.241635 2.178350 0.046608 0.002695 119557.000000 0 0 1
-30.041188 -7.483634 -23.120997 38.640112 0.244143 2.212259 0.052252 -0.002793 181559.000000 0 0 1
-30.042718 -8.345334 -24.215097 39.478861 0.270951 2.231115 0.047903 0.006904 444761.000000 0 0 1
-28.759178 -8.103234 -25.070497 39.003622 0.274642 2.268910 0.043716 0.006145 96997.000000 0 0 1
-28.852528 -6.903534 -25.836277 39.340061 0.234854 2.287287 0.048781 -0.002421 211964.000000 0 0 1
-28.846058 -7.029434 -27.256337 40.304043 0.239029 2.313481 0.047241 -0.001765 646744.000000 0 0 1
-30.298778 -7.217534 -27.825217 41.765434 0.233854 2.299933 0.047053 -0.000751 772116.000000 0 0 1
-30.905848 -8.470134 -27.496027 42.224947 0.267494 2.279934 0.034249 0.002093 306267.000000 0 0 1
-32.190618 -8.623234 -28.086827 43.582863 0.261735 2.271096 0.024567 0.004685 850722.000000 0 0 1
-32.934368 -9.955634 -27.681757 44.159562 0.293554 2.248310 0.016906 -0.003311 -335590.000000 0 0 1
-32.338228 -11.035434 -28.365487 44.408813 0.328859 2.263650 0.014816 0.010834 262883.000000 0 0 1
-33.159448 -12.166234 -28.242997 45.224254 0.351651 2.245300 -0.001819 0.010896 811893.000000 0 0 1
-34.540234 -12.217434 -29.013697 46.734228 0.339981 2.240589 -0.014674 0.010605 821213.000000 0 0 1
34.345534 -11.229334 -28.517487 46.032170 -0.315996 2.238917 -0.013303 0.002673 -389519.000000 0 0 1
33.448994 -10.843734 -29.505457 45.902001 -0.313497 2.268934 -0.027239 -0.001305 -660332.000000 0 0 1
32.510274 -9.741834 -29.018297 44.652915 -0.291139 2.278201 -0.019449 -0.002881 -374002.000000 0 0 1
31.606964 -10.189934 -28.035917 43.460874 -0.311874 2.271930 -0.025155 -0.001522 -249278.000000 0 0 1
30.689244 -9.166834 -27.727207 42.363410 -0.290262 2.284329 -0.024037 -0.003645 -327834.000000 0 0 1
29.660954 -9.702334 -26.718917 41.082940 -0.316137 2.278861 -0.035091 0.001472 -525803.000000 0 0 1
30.117134 -10.111134 -25.443677 40.702057 -0.323903 2.246082 -0.043774 0.007231 -255571.000000 0 0 1
29.056354 -10.686034 -24.739897 39.629856 -0.352416 2.244998 -0.034646 0.010629 -129757.000000 0 0 1
29.321634 -10.729734 -23.223597 38.912991 -0.350797 2.210314 -0.039710 0.008322 -425334.000000 0 0 1
30.273614 -11.668134 -22.897397 39.710551 -0.367877 2.185366 -0.045326 0.011485 -405637.000000 0 0 1
30.668834 -11.485734 -21.583097 39.221544 -0.358340 2.153504 -0.027570 0.009799 225748.000000 0 0 1
31.712434 -12.503334 -21.000497 40.037891 -0.375559 2.122942 -0.019305 0.011107 254042.000000 0 0 1
33.009304 -12.402034 -21.548797 41.325237 -0.359396 2.119339 -0.012098 0.012775 -292729.000000 0 0 1
33.807059 -13.400234 -20.968197 41.977956 -0.377376 2.093824 0.000723 0.015132 383026.000000 0 0 1
-34.606372 -13.501834 -21.701597 43.021620 0.371990 2.099523 0.007041 0.006022 526272.000000 0 0 1
-33.745268 -12.374734 -21.570997 41.918791 0.351483 2.111326 0.017524 0.009213 328908.000000 0 0 1
-34.048888 -11.213734 -22.378297 42.259470 0.318154 2.128861 0.018120 0.011015 -649349.000000 0 0 1
-33.664308 -11.392434 -23.878697 42.816648 0.326315 2.162404 0.017855 0.007922 519250.000000 0 0 1
-34.443949 -12.319834 -24.676297 44.125770 0.343498 2.164249 0.010221 0.011572 7689.530000 0 0 1
34.037387 -11.971634 -24.958397 43.872375 -0.338206 2.175947 0.008827 0.016354 -803838.000000 0 0 1
33.357544 -13.037834 -25.836857 44.161680 -0.372595 2.195740 -0.009657 0.002343 -208084.000000 0 0 1
33.109954 -14.344034 -25.383297 44.117254 -0.408816 2.183840 -0.004564 -0.005012 79818.700000 0 0 1
32.322304 -14.402434 -24.238797 42.891499 -0.419179 2.171374 -0.011968 -0.003544 -807196.000000 0 0 1
-28.332468 8.492066 -20.176597 35.804176 -0.291208 2.169445 -0.015612 0.007218 119686.000000 0 0 1
-27.233878 7.647366 -20.389197 34.869552 -0.273754 2.195341 -0.013630 0.013100 -316990.000000 0 0 1
-26.171448 8.251566 -21.052197 34.586529 -0.305424 2.225195 -0.007166 0.001842 -569606.000000 0 0 1
-24.929348 7.398366 -21.282597 33.602933 -0.288494 2.256678 -0.003879 0.006952 -160049.000000 0 0 1
-24.137348 7.234666 -20.095197 32.229938 -0.291208 2.244001 0.003966 0.005921 -279207.000000 0 0 1
-22.997248 6.485766 -20.342997 31.381142 -0.274884 2.276087 0.013502 -0.005054 -389241.000000 0 0 1
-21.687248 7.212266 -19.980397 30.357367 -0.321052 2.289186 0.023151 -0.004076 -183505.000000 0 0 1
-21.310148 8.258466 -20.833397 30.924991 -0.369716 2.309967 0.026655 0.003115 -368755.000000 0 0 1
-20.167248 8.895366 -20.356497 30.003873 -0.415411 2.316464 0.031068 0.003331 -668926.000000 0 0 1
-19.533348 9.829366 -21.427697 30.615589 -0.466212 2.346047 0.017548 0.004973 -170799.000000 0 0 1
-18.857048 9.117066 -22.459197 30.710335 -0.450347 2.391057 0.024275 0.007152 150014.000000 0 0 1
-18.441148 10.029766 -23.444097 31.468998 -0.498132 2.411317 0.014809 0.007992 -194976.000000 0 0 1
-17.503248 9.326566 -24.426397 31.464224 -0.489579 2.459607 0.026019 0.004648 -208374.000000 0 0 1
-18.204548 8.356266 -25.168967 32.166903 -0.430330 2.469386 0.023424 0.005086 104486.000000 0 0 1
-17.391048 7.753066 -26.153037 32.350269 -0.419362 2.512282 0.016842 0.011406 33121.000000 0 0 1
-18.226048 6.681266 -26.943577 33.208199 -0.351367 2.517260 0.005202 0.014843 224230.000000 0 0 1
-18.340048 5.531966 -26.150957 32.416547 -0.292954 2.509370 0.014723 0.015885 145984.000000 0 0 1
-19.269348 4.659666 -26.754367 33.298895 -0.237263 2.503882 0.002016 0.017456 -608397.000000 0 0 1
-19.407048 3.304766 -25.880817 32.517252 -0.168669 2.491306 -0.003190 0.022371 222557.000000 0 0 1
-18.271448 2.431266 -25.983067 31.857128 -0.132287 2.524583 -0.002585 0.025196 705056.000000 0 0 1
-17.211548 2.934166 -25.186827 30.646745 -0.168853 2.535436 -0.007603 0.018987 -686102.000000 0 0 1
-16.388048 1.878666 -24.397197 29.450309 -0.114138 2.547075 -0.012124 0.012164 -112631.000000 0 0 1
-16.996348 1.116266 -23.336297 28.891255 -0.065583 2.511086 -0.017675 0.012432 35079.900000 0 0 1
-18.008948 0.225366 -23.727697 29.788867 -0.012513 2.492329 -0.018732 0.015811 -324637.000000 0 0 1
-18.651148 -0.563534 -22.593897 29.303021 0.030205 2.451274 0.010604 0.015984 294145.000000 0 0 1
-17.765048 -1.559234 -22.037997 28.349629 0.087545 2.461262 0.001368 0.017173 698099.000000 0 0 1
-18.351348 -2.054734 -20.842397 27.845995 0.111502 2.416576 0.021484 0.003137 -129953.000000 0 0 1
-17.789948 -3.435534 -20.446897 27.319604 0.190768 2.416493 -0.003867 -0.000884 -8026.860000 0 0 1
-18.148348 -4.428134 -21.414597 28.417527 0.239320 2.424272 -0.009651 -0.004037 301582.000000 0 0 1
-18.377448 -5.720934 -20.897297 28.410503 0.301793 2.397272 -0.003840 0.001058 -59573.500000 0 0 1
-18.380748 -6.805434 -21.974197 29.445393 0.354598 2.413236 -0.017689 0.002256 346854.000000 0 0 1
-17.084148 -6.996034 -22.534597 29.131094 0.388673 2.455233 -0.010782 0.003202 294829.000000 0 0 1
-17.147948 -7.818934 -23.671897 30.258000 0.427807 2.469202 -0.015239 0.000701 375270.000000 0 0 1
-15.832048 -7.777934 -24.507997 30.195892 0.456646 2.517739 -0.006371 0.000293 -309371.000000 0 0 1
-15.851848 -8.640734 -25.650357 31.366928 0.499068 2.528290 -0.008118 -0.008712 -201168.000000 0 0 1
-14.629648 -8.695134 -26.339677 31.359377 0.536255 2.567950 -0.002788 -0.006293 252317.000000 0 0 1
-13.460848 -9.492334 -25.652687 30.485393 0.614195 2.570803 0.007235 -0.007289 -101435.000000 0 0 1
-12.877948 -8.796834 -24.539397 29.075898 0.599289 2.575452 -0.003743 0.000484 -7913.800000 0 0 1
-11.925348 -9.655234 -23.951297 28.444720 0.680591 2.571831 -0.004960 0.002239 85216.800000 0 0 1
-11.049448 -8.999834 -22.866297 26.943549 0.683523 2.584270 -0.007933 -0.000597 -151408.000000 0 0 1
-11.780048 -8.723934 -21.698697 26.186065 0.637438 2.547462 -0.008610 0.004569 384237.000000 0 0 1
-10.887448 -8.161234 -20.761597 24.823098 0.643245 2.561446 -0.011083 0.002195 -124270.000000 0 1 0
-11.564148 -7.878434 -19.378697 23.902576 0.598052 2.516206 -0.010480 0.002775 -100605.000000 0 1 0
-12.607948 -6.945834 -19.334697 24.104677 0.503541 2.501623 -0.009240 0.005734 -297182.000000 0 1 0
-13.866948 -7.561034 -19.236797 24.890075 0.499194 2.454148 0.002257 -0.011654 -767344.000000 0 1 0
-14.968748 -6.543934 -19.002597 25.059633 0.412136 2.431490 -0.010738 0.004216 -635795.000000 0 0 1
-14.988948 -6.008534 -17.682997 23.947013 0.381251 2.401523 -0.009552 0.003072 372049.000000 0 1 0
-14.785048 -4.607634 -17.786197 23.583400 0.302103 2.425205 -0.009642 0.005354 -519004.000000 0 1 0
-14.564648 -3.982234 -16.400597 22.292751 0.266895 2.397484 -0.014278 0.005947 804893.000000 0 1 0
-15.739648 -3.893134 -15.548797 22.464597 0.242479 2.335255 -0.002137 -0.001038 988608.000000 0 1 0
-16.316448 -2.597334 -15.654497 22.760402 0.157861 2.329244 -0.022390 -0.004075 -36028.200000 0 1 0
-17.532348 -2.318234 -14.732997 23.017790 0.131464 2.265386 -0.015261 -0.007248 -141711.000000 0 1 0
-17.319848 -2.513934 -13.395197 22.039245 0.144141 2.224069 -0.002281 -0.012198 363312.000000 0 1 0
-18.303748 -1.845034 -12.617997 22.307962 0.100462 2.171990 0.003875 -0.014323 -171418.000000 0 1 0
-17.776848 -0.576934 -11.952597 21.429273 0.032443 2.162492 -0.002048 -0.005248 -295769.000000 0 1 0
-17.486448 0.421566 -12.856497 21.708134 -0.024103 2.204636 0.005049 -0.008489 -37726.200000 0 1 0
-16.697848 1.406266 -12.334597 20.807162 -0.084020 2.205334 0.012662 -0.004219 -1006780.000000 0 1 0
-16.085648 2.247366 -13.458797 21.093552 -0.138814 2.262763 0.010098 0.000670 168711.000000 0 1 0
-15.387848 1.563566 -14.483097 21.189401 -0.101263 2.323352 0.013172 -0.007322 1087680.000000 0 1 0
-14.156348 0.889166 -14.180797 20.057114 -0.062728 2.356073 0.002615 -0.004655 20912.400000 0 1 0
-13.490548 -0.056234 -15.199997 20.323335 0.004168 2.415702 -0.010099 -0.001698 -147669.000000 0 1 0
-12.978148 0.596466 -16.349297 20.882711 -0.045927 2.470127 -0.017039 -0.003832 128557.000000 0 1 0
-12.553348 -0.326934 -17.334997 21.405503 0.026038 2.514673 -0.037168 0.008331 88162.900000 0 1 0
-11.921548 0.347666 -18.586597 22.084061 -0.029155 2.571090 -0.034713 0.004174 898527.000000 0 1 0
-10.737148 1.164566 -18.420397 21.353070 -0.108039 2.611298 -0.045881 0.007506 586485.000000 0 1 0
-10.552048 1.992266 -19.507797 22.268116 -0.186607 2.638388 -0.037680 0.008556 -325210.000000 0 1 0
-9.235948 2.766266 -19.475097 21.730954 -0.291008 2.681906 -0.030854 0.012009 -741321.000000 0 1 0
-8.126548 1.918566 -19.639097 21.340473 -0.231841 2.739578 -0.032296 0.018567 -168722.000000 0 1 0
-6.826848 2.428966 -19.442197 20.748608 -0.341829 2.784841 -0.022699 0.018112 436416.000000 0 1 0
-6.371648 3.463266 -20.503597 21.748324 -0.497872 2.801629 -0.019796 0.023906 -986780.000000 0 1 0
-6.349348 2.918666 -21.785097 22.878446 -0.430874 2.831190 -0.020813 0.024690 294570.000000 0 1 0
-6.009848 3.948066 -22.699897 23.811569 -0.581233 2.834822 -0.009409 0.013467 -436470.000000 0 1 0
-5.488748 3.447166 -24.054597 24.912505 -0.560784 2.878396 -0.001049 0.003368 616613.000000 0 1 0
-4.228948 2.773966 -23.861997 24.392084 -0.580544 2.932733 0.011702 -0.008143 700441.000000 0 1 0
-3.692148 2.232466 -25.071697 25.440240 -0.543833 2.971171 0.020772 -0.003983 645725.000000 0 0 1
-2.325148 1.483366 -24.862897 25.015402 -0.567869 3.031115 0.019925 -0.008740 42682.100000 0 0 1
-1.253148 2.368966 -24.697797 24.842776 -1.084230 3.033504 0.025490 -0.011156 1122040.000000 0 1 0
0.062652 1.723466 -24.698797 24.758934 1.534460 3.071880 0.024863 -0.009974 1599310.000000 0 1 0
0.471352 0.785266 -23.500597 23.518437 1.030197 3.102640 0.020222 -0.026707 -959986.000000 0 1 0
0.003352 -0.516734 -23.650397 23.656041 -1.564310 3.119747 0.020626 -0.024161 -345005.000000 0 1 0
0.596952 -1.443234 -22.817397 22.870786 -1.178603 3.073251 0.018549 -0.014845 -889565.000000 0 1 0
-0.040348 -2.839434 -22.972597 23.147445 1.556587 3.018603 0.022735 -0.014138 273287.000000 0 1 0
-1.221248 -3.163934 -22.235097 22.492253 1.202425 2.990232 0.015309 -0.008668 90164.700000 0 1 0
-2.424948 -2.798934 -22.861697 23.159697 0.856868 2.981001 0.026489 -0.015118 -439732.000000 0 1 0
-3.026448 -1.383134 -22.733797 22.976030 0.428673 2.996255 0.021296 -0.014199 -1437980.000000 0 1 0
-3.655148 -1.188534 -21.507397 21.848131 0.314383 2.964752 0.009888 -0.006683 716349.000000 0 1 0
-4.560548 -0.042634 -21.466597 21.945733 0.009348 2.932248 -0.008319 -0.004527 1214070.000000 0 1 0
-5.897548 -0.171634 -22.265997 23.034434 0.029094 2.882566 -0.005637 0.007563 -544567.000000 0 1 0
-6.600748 -1.267334 -21.845397 22.856014 0.189690 2.843108 0.002303 0.019590 -57302.500000 0 1 0
-7.996548 -1.125734 -22.087997 23.517901 0.139858 2.791087 -0.021574 0.028886 675953.000000 0 1 0
-8.802248 -2.398634 -21.672497 23.514466 0.266043 2.743150 -0.026712 0.022578 41049.200000 0 1 0
-8.444448 -3.535434 -22.521097 24.310652 0.396497 2.755501 -0.018752 0.015958 42054.900000 0 1 0
-9.008948 -4.740634 -22.078897 24.312804 0.484398 2.709564 -0.026218 0.023673 -269854.000000 0 1 0
-9.734748 -5.435134 -23.250097 25.785131 0.509211 2.694450 -0.025166 0.020768 1271610.000000 0 0 1
-11.059948 -4.906934 -23.496397 26.428793 0.417575 2.666052 -0.029953 0.024215 806113.000000 0 0 1
-11.907948 -5.598134 -24.365997 27.691878 0.439457 2.646441 -0.028824 0.012306 234623.000000 0 0 1
-13.363948 -5.070434 -24.365997 28.249004 0.362633 2.611072 -0.034967 -0.000275 32529.100000 0 0 1
-13.613048 -3.702234 -24.646697 28.398614 0.265540 2.621723 -0.038976 0.001521 -386458.000000 0 0 1
-14.950048 -3.350434 -24.408397 28.818383 0.220466 2.581062 -0.028285 0.000662 -219012.000000 0 0 1
-15.336248 -2.030634 -25.010997 29.408739 0.131642 2.587658 -0.029404 0.003561 -330763.000000 0 0 1
-15.656848 -2.184534 -26.390027 30.762682 0.138631 2.601884 -0.035148 0.006524 87881.200000 0 0 1
-15.829848 -0.889434 -26.899647 31.224448 0.056128 2.608999 -0.034319 0.007550 -766935.000000 0 0 1
-17.144548 -0.589334 -27.584637 32.483766 0.034361 2.585231 -0.031747 0.014805 -915168.000000 0 0 1
-17.476548 -1.387334 -28.702627 33.633246 0.079217 2.593271 -0.024494 0.002197 252158.000000 0 0 1
-16.855348 -0.904434 -29.932837 34.364160 0.053607 2.628128 -0.016915 -0.007661 95451.000000 0 0 1
-17.059248 -1.777934 -31.165477 35.573388 0.103846 2.638487 -0.002948 -0.013632 -76749.700000 0 0 1
-18.396048 -1.930834 -31.565847 36.586137 0.104576 2.611542 -0.012175 -0.010773 -271155.000000 0 0 1
-18.536248 -2.846034 -32.635747 37.640196 0.152349 2.620037 -0.001582 -0.017296 -5232.530000 0 0 1
-19.904448 -3.609034 -32.837487 38.568286 0.179369 2.589467 -0.005338 -0.019643 1449920.000000 0 0 1
-21.032948 -2.767434 -33.169317 39.373178 0.130825 2.572582 -0.007039 -0.016311 980209.000000 0 0 1
-21.601448 -2.066434 -32.061877 38.715070 0.095372 2.546595 -0.013633 -0.000440 -877989.000000 0 0 1
-22.645348 -1.056734 -32.479347 39.608540 0.046631 2.532223 -0.000657 0.001160 -639007.000000 0 0 1
-22.122748 0.185866 -32.948777 39.687182 -0.008401 2.550284 -0.003994 -0.002545 508831.000000 0 0 1
-23.160148 1.102366 -33.303977 40.580322 -0.047562 2.533419 -0.002797 -0.003988 133815.000000 0 0 1
-22.621448 2.292266 -34.146363 41.023877 -0.100987 2.554137 -0.009882 -0.006441 -102032.000000 0 0 1
-21.864748 3.323466 -33.415797 40.071537 -0.150846 2.556939 -0.015027 -0.002932 356258.000000 0 0 1
-22.485648 4.120466 -32.391367 39.645722 -0.181238 2.527021 -0.012815 -0.004375 -734574.000000 0 0 1
-23.594748 5.031966 -32.976507 40.859305 -0.210119 2.509977 -0.026155 -0.008870 210434.000000 0 0 1
-24.800648 4.365766 -33.338007 41.779837 -0.174249 2.494674 -0.015199 -0.020678 505128.000000 0 0 1
-25.588118 5.228266 -34.166052 43.004716 -0.201550 2.488934 -0.003556 -0.022534 538450.000000 0 0 1
-27.038758 4.758966 -34.506989 44.096196 -0.174221 2.469530 0.004913 -0.016038 80632.800000 0 0 1
-27.032118 3.557466 34.028532 43.604265 -0.130850 0.675500 0.001511 -0.017450 254170.000000 0 0 1
-28.322248 3.092466 33.701068 44.130206 -0.108758 0.701812 0.009490 -0.018604 -184993.000000 0 0 1
-28.308388 1.635766 33.465601 43.863276 -0.057720 0.702928 0.012005 0.008701 -223548.000000 0 0 1
-28.190138 0.872866 -34.592226 44.632587 -0.030954 2.457581 0.012370 0.005595 358896.000000 0 0 1
-28.333018 -0.514234 34.385171 44.557427 0.018148 0.689279 0.004486 0.012737 -568308.000000 0 0 1
-28.238768 -1.427534 -33.590167 43.906323 0.050509 2.441902 -0.015477 0.017188 407004.000000 0 0 1
-26.903138 -1.578634 -33.115457 42.695485 0.058611 2.458493 -0.005124 0.006419 755292.000000 0 0 1
-26.334038 -0.502334 -32.406127 41.759920 0.019073 2.459112 0.002046 0.007325 -810414.000000 0 0 1
-26.334918 -0.564634 -30.863907 40.576193 0.021437 2.435096 0.014881 0.003838 -865197.000000 0 0 1
-25.360238 -1.405934 -30.367207 39.588958 0.055382 2.445046 0.017587 -0.000278 -203706.000000 0 0 1
-25.223328 -1.141834 -29.004327 38.454792 0.045238 2.425299 0.024373 -0.002147 -371252.000000 0 0 1
-24.095548 -1.884834 -28.296497 37.213435 0.078064 2.434700 0.018722 0.002056 -273721.000000 0 0 1
-24.412448 -3.246934 -27.981767 37.275856 0.132227 2.419868 0.011452 -0.003584 470880.000000 0 0 1
-23.435248 -3.687634 -27.040457 35.972153 0.156074 2.421440 0.008982 0.001042 95672.100000 0 0 1
-23.739048 -5.000534 -26.355087 35.820921 0.207611 2.397563 0.009204 -0.008685 -290495.000000 0 0 1
-24.762748 -4.848034 -25.412697 35.812041 0.193334 2.359745 0.027688 -0.008274 -304615.000000 0 0 1
-24.894348 -5.988534 -24.573097 35.488423 0.236073 2.335642 0.026258 -0.008041 330993.000000 0 0 1
-26.061238 -5.852734 -23.540897 35.603602 0.220911 2.293206 0.029161 -0.004398 342661.000000 0 0 1
-26.274038 -6.957534 -22.682697 35.401089 0.258865 2.266251 0.026826 -0.005272 -16616.100000 0 0 1
-27.286648 -6.585434 -21.760097 35.516629 0.236814 2.230235 0.033610 0.003234 5374.190000 0 0 1
-27.789628 -7.828634 -20.926797 35.657843 0.274594 2.197994 0.021714 0.003432 -558969.000000 0 0 1
-26.795988 -8.183634 -19.994997 34.420877 0.296408 2.190627 0.007894 -0.000607 -113302.000000 0 0 1
-27.166368 -9.012634 -18.899897 34.299347 0.320331 2.154392 0.010391 0.000178 -162762.000000 0 0 1
-28.075248 -8.409534 -17.824797 34.302525 0.291031 2.117220 0.021463 -0.010153 -56708.100000 0 0 1
-27.354938 -7.444034 -17.104997 33.110228 0.265694 2.113681 0.012244 -0.015665 239685.000000 0 0 1
-28.035278 -7.085834 -15.938197 33.018358 0.247562 2.074540 0.012903 -0.016560 -456001.000000 0 0 1
-27.186338 -6.210434 -15.047197 31.687294 0.224586 2.065607 0.009760 -0.018371 -231060.000000 0 0 1
-27.063768 -4.876134 -15.544997 31.589099 0.178260 2.085297 0.010618 -0.015217 536061.000000 0 0 1
-26.238618 -3.974034 -14.748497 30.360767 0.150315 2.078046 0.014525 -0.019448 216688.000000 0 0 1
-13.958548 21.281566 -5.031397 25.943420 -0.990286 1.765970 0.032112 -0.000814 112731.000000 0 0 1
-14.051448 20.847166 -6.353697 25.931004 -0.977719 1.818340 0.059887 -0.005661 -116683.000000 0 0 1
-15.119448 19.940566 -6.444797 25.841039 -0.922052 1.822859 0.053223 -0.012139 -329878.000000 0 0 1
-15.301748 19.406366 -7.892997 25.943206 -0.903112 1.879938 0.062794 -0.014455 578291.000000 0 0 1
-14.103448 18.826266 -8.507497 25.014256 -0.927848 1.917826 0.057957 -0.010484 986813.000000 0 0 1
-14.198148 17.707166 -9.389197 24.561925 -0.894940 1.963044 0.041794 -0.006781 -484978.000000 0 1 0
-14.598448 16.308866 -8.712397 23.558430 -0.840682 1.949612 0.036744 -0.009243 1554010.000000 0 1 0
-16.025048 16.315266 -8.416197 24.368472 -0.794372 1.923432 0.039671 -0.005233 1411610.000000 0 1 0
-16.220148 15.611566 -7.212597 23.639707 -0.766282 1.880845 0.051109 -0.004122 -216714.000000 0 1 0
-17.683348 15.607266 -6.755497 24.534145 -0.723116 1.849751 0.057933 -0.014552 -109434.000000 0 1 0
-18.596948 14.950266 -7.616397 25.047284 -0.677120 1.879770 0.049499 -0.014899 -660988.000000 0 0 1
-19.858748 15.501066 -7.422797 26.263108 -0.662778 1.857333 0.015757 -0.008887 -587733.000000 0 0 1
-20.865948 14.978866 -8.499297 27.055355 -0.622613 1.890352 0.011987 0.005731 -248159.000000 0 0 1
-21.306848 13.745666 -8.087997 26.614672 -0.572943 1.879572 0.035746 -0.003382 -159182.000000 0 0 1
-21.861048 13.185666 -9.272597 27.161522 -0.542738 1.919189 0.025410 -0.001598 -210351.000000 0 0 1
-22.348148 11.741566 -9.001397 26.801665 -0.483755 1.913306 0.016828 0.001487 -301499.000000 0 0 1
-21.420148 10.697566 -8.797897 25.508109 -0.463180 1.922935 0.021401 -0.000980 -183915.000000 0 0 1
-22.072048 9.554366 -8.279397 25.436384 -0.408519 1.902331 0.029830 -0.014110 -105160.000000 0 0 1
-21.146348 8.572566 -7.507697 24.021291 -0.385146 1.888666 0.043638 0.006139 -110400.000000 0 1 0
-20.690448 7.481566 -8.299897 23.515032 -0.346967 1.931531 0.022653 0.001620 691833.000000 0 1 0
-19.805948 6.615866 -7.575397 22.213327 -0.322381 1.918808 0.034122 0.004104 158789.000000 0 1 0
-19.337648 5.447866 -8.479997 21.806747 -0.274606 1.970201 0.012434 -0.005954 216874.000000 0 1 0
-20.342548 4.438066 -8.509997 22.493015 -0.214801 1.958798 0.019685 0.001185 966456.000000 0 1 0
-20.030448 3.619066 -9.625297 22.515835 -0.178750 2.012511 0.004210 0.007603 45220.300000 0 1 0
-20.883148 2.351366 -9.602897 23.105203 -0.112124 1.999417 -0.007688 0.012235 359606.000000 0 1 0
-20.251448 1.463666 -8.696897 22.088447 -0.072149 1.975483 -0.020409 0.005084 801634.000000 0 1 0
-21.222948 0.532666 -8.255897 22.778435 -0.025093 1.941685 -0.015530 0.007911 2771.330000 0 1 0
-21.368848 -0.836834 -8.971697 23.190932 0.039141 1.968023 -0.015664 0.000483 311509.000000 0 1 0
-20.289248 -1.748134 -8.723497 22.154209 0.085948 1.975518 -0.017957 0.003671 293293.000000 0 1 0
-20.352548 -3.039734 -9.256997 22.564534 0.148258 1.993519 -0.021948 0.002515 -362392.000000 0 1 0
-21.271748 -4.026334 -8.493097 23.255781 0.187068 1.944648 -0.019078 0.002538 -185901.000000 0 1 0
-20.912648 -4.307234 -7.177797 22.525805 0.203123 1.895099 -0.031926 0.004449 -161834.000000 0 1 0
-21.832048 -5.107234 -6.451697 23.331236 0.229800 1.850974 -0.031001 0.004325 -824374.000000 0 1 0
-21.915048 -6.657334 -6.784897 23.887743 0.294920 1.858794 -0.026298 -0.001361 -389392.000000 0 1 0
-20.982648 -7.492134 -6.139497 23.110539 0.342953 1.839683 -0.021169 -0.004754 216653.000000 0 1 0
-21.222648 -8.868134 -6.385897 23.870992 0.395809 1.841612 -0.012623 -0.005458 -1258960.000000 0 1 0
-20.312248 -9.844134 -5.725597 23.286839 0.451285 1.819216 0.002211 -0.002679 -436029.000000 0 1 0
-19.020548 -9.748134 -6.311397 22.285446 0.473602 1.857933 0.006193 -0.002735 815123.000000 0 1 0
-17.977948 -10.377734 -5.537997 21.484259 0.523522 1.831510 0.009170 -0.005940 930548.000000 0 1 0
-17.242048 -11.591234 -6.208197 21.683788 0.591869 1.861165 0.004856 -0.004605 -768132.000000 0 1 0
-16.292548 -11.450534 -7.186297 21.170846 0.612608 1.917121 0.008803 -0.005970 -351954.000000 0 1 0
-16.718848 -11.034434 -8.486397 21.755403 0.583373 1.971517 0.012492 -0.005244 -293141.000000 0 1 0
-15.658748 -11.317534 -9.572297 21.561814 0.625839 2.030795 0.021762 -0.002215 188176.000000 0 1 0
-15.735248 -12.592834 -10.056397 22.523513 0.674921 2.033629 0.021668 -0.005685 -520628.000000 0 1 0
-14.657248 -12.984434 -10.830597 22.377048 0.724954 2.076022 0.017970 -0.003014 -531192.000000 0 1 0
-14.880148 -14.277434 -11.672397 23.696177 0.764730 2.085855 0.024134 -0.004547 110195.000000 0 1 0
-15.714248 -14.087034 -12.812597 24.688960 0.730850 2.116431 0.022714 -0.007060 215235.000000 0 1 0
-15.672348 -15.250434 -13.635497 25.770623 0.771755 2.128348 0.014067 -0.006325 -459248.000000 0 0 1
-16.387448 -15.275734 -14.984597 26.952452 0.750302 2.160319 0.035061 -0.000097 -347639.000000 0 0 1
-16.310348 -16.482834 -15.733097 28.022163 0.790658 2.166936 0.028557 0.005901 266432.000000 0 0 1
-16.747548 -16.356134 -17.081397 28.978917 0.773575 2.201164 0.028071 0.006755 -547395.000000 0 0 1
-16.859748 -17.768734 -17.760197 30.255638 0.811642 2.198150 0.024560 0.000841 497053.000000 0 0 1
-18.045348 -18.383434 -17.215697 30.983309 0.794679 2.159934 -0.003695 0.006430 -311358.000000 0 0 1
-19.030548 -18.478334 -18.165697 32.149699 0.770677 2.171272 0.002322 0.010180 -1510240.000000 0 0 1
-20.377648 -18.142334 -17.567697 32.450221 0.727433 2.142866 -0.002620 0.004887 -1112720.000000 0 0 1
-20.594448 -16.795134 -17.255997 31.685600 0.684132 2.146709 -0.024987 0.006492 159700.000000 0 0 1
-20.257248 -16.474234 -15.967397 30.605788 0.682769 2.119652 -0.026273 0.003021 -545583.000000 0 0 1
-20.385548 -14.989734 -15.580797 29.715719 0.634034 2.122723 -0.014268 -0.006276 655364.000000 0 0 1
-21.717648 -14.517034 -15.319597 30.283503 0.589232 2.101190 -0.007997 -0.000052 1019750.000000 0 0 1
-21.618548 -13.178934 -14.906797 29.381261 0.547457 2.102912 -0.007179 -0.002468 226312.000000 0 0 1
-22.956748 -12.464334 -14.517297 29.885177 0.497413 2.078039 0.003540 -0.011324 189721.000000 0 0 1
-23.416148 -12.954134 -13.214997 29.845632 0.505307 2.029491 0.016983 -0.004709 -277713.000000 0 0 1
-24.531848 -12.215334 -12.888197 30.284180 0.461996 2.010394 0.042329 -0.018495 -1046480.000000 0 0 1
-25.202208 -12.696834 -11.565597 30.497933 0.466682 1.959756 0.042084 -0.021143 13244.100000 0 0 1
-26.360998 -11.913734 -11.335197 31.069695 0.424471 1.944248 0.035417 -0.028397 -58939.200000 0 0 1
-26.982778 -12.256434 -10.130097 31.319473 0.426367 1.900163 0.027892 -0.016072 -366926.000000 0 0 1
-27.814478 -11.142134 -9.562897 31.452207 0.381013 1.879732 0.029840 -0.019496 18507.400000 0 0 1
-27.027618 -10.052934 -9.068897 30.229101 0.356094 1.875495 0.025462 -0.018491 499744.000000 0 0 1
-27.914198 -9.141534 -8.453397 30.565177 0.316480 1.851019 0.020313 -0.022554 11379.200000 0 0 1
-27.146898 -8.081834 -7.649897 29.339241 0.289352 1.834584 0.015896 -0.014292 -155277.000000 0 0 1
-26.532748 -8.569734 -6.470497 28.623319 0.312410 1.798824 0.007721 -0.015937 -375265.000000 0 0 1
-25.700458 -7.685834 -5.767897 27.438189 0.290589 1.782590 -0.006126 -0.005585 -341962.000000 0 0 1
-26.286548 -6.481534 -4.990597 27.529965 0.241750 1.753083 -0.002034 -0.007097 -343500.000000 0 0 1
-27.143518 -6.757034 -3.867797 28.238058 0.243978 1.708199 0.000578 -0.005280 311513.000000 0 0 1
-26.501528 -7.069734 -2.668097 27.557773 0.260696 1.667767 0.018244 -0.005400 -231948.000000 0 0 1
-26.005108 -5.855634 -1.704297 26.710648 0.221479 1.634646 0.005666 0.005414 41381.700000 0 0 1
-27.041768 -5.094534 -1.154297 27.541676 0.186212 1.612720 0.006199 0.002920 -201399.000000 0 0 1
-26.474848 -4.020634 -0.405097 26.781471 0.150715 1.585923 -0.000983 0.001238 -417398.000000 0 0 1
-27.411358 -2.895034 0.080803 27.563931 0.105224 1.567865 0.009619 -0.000133 14140.400000 0 0 1
-28.239958 -3.277234 1.184903 28.454165 0.115533 1.529142 0.021582 -0.004113 405861.000000 0 0 1
-27.576608 -3.431634 2.440203 27.896237 0.123804 1.483210 0.010553 0.003418 355732.000000 0 0 1
-28.667968 -3.826434 3.483403 29.131222 0.132690 1.450933 0.002359 0.003684 353498.000000 0 0 1
-29.120588 -5.134034 3.424003 29.767277 0.174509 1.455515 0.010232 0.001603 -1085780.000000 0 0 1
-30.152158 -5.357834 4.273303 30.921193 0.175858 1.432153 0.006365 0.000090 -988148.000000 0 0 1
-30.847048 -6.726734 3.959603 31.819299 0.214706 1.446033 0.004991 0.005606 -325892.000000 0 0 1
-30.109548 -7.856434 4.372603 31.423369 0.255237 1.431192 0.004610 0.008110 -157932.000000 0 0 1
-30.735908 -9.094834 4.088703 32.312994 0.287693 1.443922 0.008002 0.008089 4687.260000 0 0 1
-29.958228 -10.440734 4.381503 32.026582 0.335347 1.433558 0.003483 0.016340 187663.000000 0 0 1
-29.949208 -10.725734 5.769903 32.330918 0.343900 1.391371 -0.000568 0.014311 -704071.000000 0 0 1
-28.924488 -11.594634 6.039203 31.741669 0.381246 1.379368 0.003445 0.016252 -943481.000000 0 0 1
-28.780928 -11.982134 7.530403 32.072112 0.394497 1.333788 0.005296 -0.000747 -67194.400000 0 0 1
-28.495238 -10.912934 8.395503 31.647357 0.365743 1.302299 0.015805 0.001704 373255.000000 0 0 1
-28.499128 -11.376534 9.715503 32.187216 0.379807 1.264171 0.016384 -0.000158 -264393.000000 0 0 1
-28.653768 -10.315834 10.827003 32.321492 0.345570 1.229214 0.018399 0.000363 -357538.000000 0 0 1
-27.588748 -9.408534 11.002303 31.156223 0.328660 1.209878 0.024706 0.005620 -167458.000000 0 0 1
-27.910178 -8.367734 11.911503 31.478261 0.291282 1.182725 0.024468 0.003483 -56285.700000 0 0 1
-27.015878 -7.103234 11.919103 30.370687 0.257109 1.167498 0.025300 0.008301 -31728.500000 0 0 1
-27.080998 -6.353734 10.677103 29.795150 0.230451 1.204296 0.018312 0.001690 156955.000000 0 0 1
-26.222668 -5.238934 10.675103 28.792926 0.197190 1.190975 0.022847 -0.003279 -495554.000000 0 0 1
-26.450098 -4.313634 9.536203 28.445638 0.161663 1.228933 0.020010 -0.014585 -389829.000000 0 0 1
-25.958168 -4.696734 8.305303 27.656172 0.178998 1.265783 0.021005 -0.004540 -394.126000 0 0 1
-26.284428 -3.823134 7.254103 27.533789 0.144440 1.304187 0.013256 -0.016260 -384247.000000 0 0 1
-25.733478 -4.300634 5.895003 26.748054 0.165592 1.348582 0.015429 -0.005423 -359958.000000 0 0 1
-24.400348 -3.859534 5.828203 25.381902 0.156876 1.339109 0.031774 -0.017570 124900.000000 0 0 1
-23.774948 -4.236634 4.608803 24.585327 0.176346 1.382219 0.044685 -0.011154 -293199.000000 0 1 0
-22.312248 -3.803534 4.469803 23.071247 0.168845 1.375824 0.044387 -0.010402 -210748.000000 0 1 0
-22.119148 -2.374834 4.500603 22.696960 0.106956 1.371182 0.026922 -0.010746 768246.000000 0 1 0
-20.728848 -2.088434 4.339303 21.280889 0.100411 1.365450 0.011379 -0.001705 -78681.700000 0 1 0
-20.328848 -0.654034 4.557103 20.843633 0.032162 1.350383 -0.002271 -0.005457 -901028.000000 0 1 0
-20.554248 0.349066 3.595103 20.869205 -0.016981 1.397664 -0.002621 0.000305 1251280.000000 0 1 0
-21.858948 0.943566 3.728103 22.194654 -0.043139 1.402023 0.001874 -0.018562 316172.000000 0 1 0
-22.009948 2.187466 2.863303 22.302944 -0.099060 1.442059 0.025312 -0.007270 -449904.000000 0 1 0
-21.204848 3.293066 3.238403 21.702007 -0.154067 1.421016 -0.005401 -0.009613 467400.000000 0 1 0
-21.511448 4.476166 2.467803 22.110371 -0.205155 1.458950 0.014661 -0.001788 517523.000000 0 1 0
-20.438048 4.588066 1.322003 20.988374 -0.220826 1.507767 0.007993 0.002429 -111626.000000 0 1 0
-20.804748 5.303566 0.183103 21.470884 -0.249605 1.562268 0.024083 0.007323 465661.000000 0 1 0
-21.801048 4.743566 -0.670097 22.321204 -0.214245 1.600821 0.036057 -0.003343 -273568.000000 0 1 0
-21.272148 3.680566 -1.651897 21.651319 -0.171327 1.647166 0.027782 -0.000445 -368909.000000 0 1 0
-20.983148 2.531266 -0.901097 21.154474 -0.120053 1.613405 -0.006084 0.004820 552804.000000 0 1 0
-20.491148 1.519766 -1.798897 20.626024 -0.074031 1.658122 -0.014378 0.004851 -795062.000000 0 1 0
-19.718848 0.506666 -1.006797 19.751033 -0.025689 1.621793 -0.013472 0.003044 -944754.000000 0 1 0
-20.493348 -0.277034 -0.154697 20.495804 0.013517 1.578344 -0.012418 0.000301 253561.000000 0 1 0
-19.692048 -1.021434 0.777203 19.733832 0.051824 1.531402 -0.007168 -0.004874 -88622.100000 0 1 0
-19.010848 -2.343134 0.256603 19.156421 0.122634 1.557401 -0.012861 -0.001662 -292442.000000 0 1 0
-18.540548 -3.120334 1.360903 18.850477 0.166735 1.498539 0.016595 -0.001502 1019660.000000 0 1 0
-17.757848 -4.293534 0.976003 18.295578 0.237230 1.517425 0.005392 0.000551 794556.000000 0 1 0
-18.662148 -5.551034 0.590303 19.479174 0.289115 1.540487 0.004495 -0.002104 375194.000000 0 1 0
-19.471648 -5.926634 1.684803 20.423238 0.295463 1.488208 0.052885 -0.001688 276810.000000 0 1 0
-20.128248 -7.119334 1.401903 21.396183 0.339966 1.505228 0.005439 -0.001052 -643906.000000 0 1 0
-20.844248 -7.682734 2.629503 22.370100 0.353129 1.452979 0.012287 0.004350 -165431.000000 0 1 0
-19.974048 -8.177134 3.652303 21.889894 0.388573 1.403163 0.011571 0.006879 354927.000000 0 1 0
-20.674748 -8.572834 4.812003 22.893101 0.393074 1.359022 0.016401 0.005624 -267563.000000 0 1 0
-19.822248 -9.365534 5.772203 22.670533 0.441387 1.313349 0.013532 0.010600 -386693.000000 0 1 0
-19.517748 -10.657834 5.324803 22.866689 0.499812 1.335776 0.015206 0.014929 -125266.000000 0 1 0
-18.667048 -11.293534 6.206003 22.682969 0.544087 1.293665 0.018592 0.014069 -53327.000000 0 1 0
-17.896748 -12.566834 5.667503 22.590695 0.612191 1.317209 0.003315 0.011805 590687.000000 0 1 0
-18.734048 -13.688334 5.896803 23.939661 0.631012 1.321916 0.009864 0.015587 -1445.990000 0 1 0
-18.167948 -14.821534 5.321203 24.043033 0.684305 1.347629 0.001847 0.016273 159161.000000 0 1 0
-18.895448 -16.203134 5.606903 25.515033 0.708841 1.349239 0.010141 0.008332 -572230.000000 0 0 1
-18.110948 -17.245234 5.187803 25.540514 0.760918 1.366252 -0.006228 0.005158 -355125.000000 0 0 1
-18.668448 -18.501734 5.550303 26.863190 0.780913 1.362684 0.005467 0.006106 -531861.000000 0 0 1
-17.792048 -19.727934 5.348603 27.099002 0.836949 1.372119 -0.004080 0.006534 -684240.000000 0 0 1
-17.508248 -20.015634 3.956703 26.885310 0.852120 1.423090 -0.008098 0.001778 317384.000000 0 0 1
-16.729748 -21.197934 3.850103 27.277467 0.902666 1.429177 -0.009953 0.000715 252754.000000 0 0 1
-15.207848 -21.197534 4.090403 26.407300 0.948465 1.415273 -0.006496 0.008017 -11828.500000 0 0 1
-14.581848 -22.463834 4.112303 27.095483 0.995036 1.418437 -0.008476 0.008713 -653923.000000 0 0 1
-13.192448 -22.405734 4.135203 26.327885 1.038654 1.413078 -0.015926 0.014086 -608752.000000 0 0 1
-12.494248 -23.752434 4.224603 27.168578 1.086550 1.414667 -0.005284 0.013697 -273259.000000 0 0 1
-12.727048 -24.589034 3.101403 27.860673 1.093176 1.459247 -0.002915 0.012476 -115813.000000 0 0 1
-11.856648 -25.672554 3.108503 28.448602 1.138139 1.461310 -0.001677 0.005507 -295737.000000 0 0 1
18.128852 19.815266 -24.953397 36.660224 0.829814 2.319469 0.043175 -0.008749 -128450.000000 0 0 1
17.076252 20.062666 -25.851557 36.910864 0.865637 2.346723 0.034056 -0.012444 35602.500000 0 0 1
17.513952 19.716266 -27.142767 37.844411 0.844483 2.370601 0.037624 -0.012655 -10383.100000 0 0 1
16.478852 19.984466 -28.235807 38.316996 0.881244 2.399270 0.029211 -0.008493 -253065.000000 0 0 1
16.206952 21.343066 -28.518927 39.134651 0.921335 2.387274 0.024854 -0.001592 623609.000000 0 0 1
15.222952 21.615266 -29.528527 39.634478 0.957211 2.411363 0.005035 0.003283 199508.000000 0 0 1
14.879252 23.062066 -29.791937 40.506919 0.997815 2.397168 0.012183 0.000454 -329373.000000 0 0 1
14.135352 23.680166 -28.742247 39.833091 1.032639 2.376859 0.010870 -0.002410 379130.000000 0 0 1
13.763652 24.988166 -29.022537 40.695874 1.067334 2.364787 0.011552 0.007450 -462428.000000 0 0 1
12.991652 25.642966 -27.896647 40.057054 1.101854 2.341197 0.004259 0.004247 -723042.000000 0 0 1
11.673452 25.185466 -27.892157 39.351614 1.136773 2.358582 0.007591 -0.002368 -452580.000000 0 0 1
10.906052 25.814866 -26.860047 38.817668 1.171069 2.334989 -0.001678 0.003775 -231809.000000 0 0 1
9.372852 25.568666 -26.915487 38.289038 1.219432 2.350341 0.002473 0.004317 491408.000000 0 0 1
8.625852 26.452166 -26.092327 38.143570 1.255577 2.324105 -0.002272 0.009324 182296.000000 0 0 1
8.563452 27.764466 -26.539117 39.351277 1.271622 2.310969 -0.000624 0.004739 -451749.000000 0 0 1
7.895252 28.762266 -25.483297 39.230107 1.302895 2.277835 -0.000141 0.005349 -281281.000000 0 0 1
8.837252 29.073666 -24.527997 39.051219 1.275710 2.249903 -0.004218 0.003634 -137986.000000 0 0 1
8.259852 29.631766 -23.363997 38.628267 1.298947 2.220364 0.015790 -0.003623 -155056.000000 0 0 1
9.305452 29.959266 -22.275897 38.475507 1.269640 2.188253 0.011418 0.001442 -141085.000000 0 0 1
10.202252 30.970466 -22.609997 39.679562 1.252573 2.177077 -0.004248 -0.002010 -474836.000000 0 0 1
10.946752 31.375466 -21.528697 39.594646 1.235106 2.145668 -0.007714 0.003153 -678536.000000 0 0 1
12.036852 32.415766 -21.809697 40.881910 1.215250 2.133506 -0.011390 0.022354 239183.000000 0 0 1
13.148752 31.727466 -22.390097 40.998026 1.177914 2.148529 -0.015843 0.022231 92587.300000 0 0 1
14.090952 32.642966 -22.952097 42.319226 1.163291 2.144035 -0.001286 0.023814 69885.500000 0 0 1
15.283152 31.927366 -23.590197 42.537381 1.124346 2.158649 0.004408 0.021126 225720.000000 0 0 1
16.272052 31.446666 -22.670697 42.043227 1.093287 2.140311 -0.009346 0.029918 269787.000000 0 0 1
17.370452 30.934666 -23.390997 42.494998 1.059151 2.153689 0.008284 0.024251 199481.000000 0 0 1
18.445652 30.128666 -22.613397 41.944538 1.021433 2.140196 0.004215 0.025265 338696.000000 0 0 1
19.246152 30.871866 -21.719497 42.370072 1.013334 2.109023 0.017031 0.027901 445294.000000 0 0 1
20.322852 30.064366 -21.219397 42.037450 0.976375 2.099916 0.013831 0.028326 597544.000000 0 0 1
20.996952 30.638166 -19.977597 42.174323 0.969991 2.064273 0.025495 0.018711 119649.000000 0 0 1
21.855252 31.774566 -20.123797 43.499911 0.968290 2.051741 0.037815 0.011900 75997.500000 0 0 1
22.275852 32.063466 -18.839497 43.349810 0.963608 2.020382 0.026800 0.009717 -201451.000000 0 0 1
23.587452 32.878466 -18.765697 44.603954 0.948479 2.005033 0.028323 0.011779 692711.000000 0 0 1
24.741652 32.223766 -19.295597 44.975999 0.915995 2.014204 0.024825 0.014439 -330501.000000 0 0 1
25.906552 32.938066 -18.997497 46.010547 0.904327 1.996426 0.012020 0.008388 510926.000000 0 0 1
27.187152 32.223966 -19.576197 46.483897 0.869975 2.005497 0.027461 -0.001031 722399.000000 0 0 1
27.504752 30.992666 -18.929297 45.556283 0.844953 1.999305 0.015110 0.006413 470523.000000 0 0 1
28.848152 30.600366 -19.252597 46.252143 0.814864 2.000117 0.016887 -0.000109 483104.000000 0 0 1
29.310152 29.455866 -18.377097 45.436227 0.787878 1.987184 0.013036 -0.008283 -375204.000000 0 0 1
29.840852 29.945566 -17.166097 45.627713 0.787150 1.956510 0.010493 -0.004135 162171.000000 0 0 1
30.175952 28.917466 -16.232397 44.836353 0.764105 1.941248 0.007794 -0.004965 -242028.000000 0 0 1
30.716452 29.375466 -14.814697 45.009928 0.763086 1.906192 0.011914 -0.006033 -4757.470000 0 0 1
32.026252 29.891566 -14.785597 46.236353 0.750936 1.896297 -0.019761 0.006268 -226687.000000 0 0 1
32.127052 31.255166 -15.105997 47.299302 0.771643 1.895861 -0.003926 -0.000669 369713.000000 0 0 1
33.573852 31.829266 -15.011597 48.637986 0.758730 1.884559 0.002005 -0.008664 793544.000000 0 0 1
34.194052 31.932966 -13.737297 48.761263 0.751218 1.856388 0.001904 -0.009950 559152.000000 0 0 1
-34.252910 32.376566 -13.815497 49.115902 -0.757245 1.855928 0.005746 -0.014516 997799.000000 0 0 1
-33.561810 32.694866 -12.429197 48.475089 -0.772314 1.830096 0.000072 0.000478 152509.000000 0 0 1
-34.153910 33.797566 -11.824797 49.483238 -0.780154 1.812097 0.014531 -0.011568 357924.000000 0 0 1
-33.376310 34.079266 -10.678897 48.881625 -0.795819 1.791037 -0.004512 0.002353 234192.000000 0 0 1
-33.912210 -34.125631 -9.975897 49.133646 0.788535 1.775254 0.001306 0.003629 -151393.000000 0 0 1
-33.050810 -33.534631 -9.034297 47.943154 0.792664 1.760367 -0.006411 0.005841 -205918.000000 0 0 1
-32.965910 -34.299931 -7.831897 48.213847 0.805228 1.733960 -0.018551 0.010078 178791.000000 0 0 1
-32.479610 -33.470031 -6.606397 47.104273 0.800415 1.711511 -0.011639 0.007542 175642.000000 0 0 1
-33.440910 -32.454331 -6.404497 47.038236 0.770427 1.707376 -0.007073 0.009673 -123206.000000 0 0 1
-33.192810 -31.632631 -5.254897 46.151922 0.761335 1.684905 -0.000317 0.013116 -291478.000000 0 0 1
-34.403410 -30.737931 -4.990097 46.403837 0.729188 1.678541 -0.003748 0.019059 -241442.000000 0 0 1
34.386652 -31.511531 -4.396097 46.848096 -0.741796 1.664772 -0.006979 0.013370 542173.000000 0 0 1
33.173652 -30.938231 -3.874997 45.526705 -0.750545 1.656014 -0.003788 0.014439 374571.000000 0 0 1
33.334252 -29.866131 -2.762797 44.841846 -0.730578 1.632447 -0.017928 0.021930 -536589.000000 0 0 1
33.861452 -28.589531 -3.141797 44.427807 -0.701181 1.641572 -0.000824 0.020299 258590.000000 0 0 1
33.514652 -27.584231 -2.224997 43.463459 -0.688639 1.622011 -0.022060 0.020255 -279361.000000 0 0 1
33.935152 -26.171631 -2.676297 42.938460 -0.656947 1.633165 -0.020534 0.009710 -380292.000000 0 0 1
33.483452 -25.772831 -3.903997 42.433731 -0.656002 1.662929 -0.004485 0.002152 60435.500000 0 0 1
33.233252 -24.429431 -4.016097 41.441225 -0.633890 1.667859 0.003966 -0.007539 -238393.000000 0 0 1
32.808952 -24.035231 -5.423397 41.030877 -0.632260 1.703363 0.010869 -0.015409 -401952.000000 0 0 1
33.864452 -23.936731 -6.344197 41.952557 -0.615301 1.722602 0.012944 -0.012440 -22868.800000 0 0 1
33.383652 -23.410731 -7.534897 41.464505 -0.611573 1.753531 -0.001514 -0.009850 45815.700000 0 0 1
34.484652 -23.456431 -8.620697 42.587695 -0.597313 1.774627 -0.001079 -0.015426 183916.000000 0 0 1
34.756752 -24.825031 -9.011597 43.652295 -0.620226 1.778732 -0.004839 0.003968 178853.000000 0 0 1
-34.020010 -24.868931 -9.994097 43.309430 0.631236 1.803655 0.003853 -0.000732 131198.000000 0 0 1
-33.629010 -26.304431 -10.460597 43.957451 0.663789 1.811073 -0.004546 0.008694 19775.900000 0 0 1
-32.847310 -27.076031 -9.550597 43.626496 0.689383 1.791501 0.001003 0.004890 134990.000000 0 0 1
-33.589110 -28.055131 -8.809997 44.642297 0.695865 1.769447 -0.007264 0.000783 -228425.000000 0 0 1
-32.722310 -29.147231 -8.145797 44.572016 0.727678 1.754585 -0.011048 0.001695 -183721.000000 0 0 1
-31.986110 -29.764131 -9.156597 44.641438 0.749430 1.777377 -0.011496 -0.002125 406669.000000 0 0 1
-31.091810 -30.840131 -8.776597 44.663665 0.781334 1.768588 -0.016082 -0.002129 542021.000000 0 0 1
-30.577610 -31.687831 -9.957797 45.147166 0.803227 1.793188 -0.017944 0.007927 404494.000000 0 0 1
-29.556910 -31.176831 -10.842397 44.307598 0.812064 1.818014 -0.030732 0.022110 446379.000000 0 0 1
-29.455610 -31.928331 -11.996797 45.066333 0.825659 1.840248 -0.033459 0.023421 -327972.000000 0 0 1
-29.772410 -31.314731 -13.379497 45.232949 0.810641 1.871080 -0.028704 0.023756 -504722.000000 0 0 1
-28.751510 -30.423031 -13.746197 44.058689 0.813638 1.888091 -0.034397 0.032437 -144134.000000 0 0 1
-29.159210 -29.778631 -14.923497 44.268918 0.795908 1.914642 -0.037605 0.032668 -29836.800000 0 0 1
-28.082310 -28.847131 -15.461397 43.125722 0.798832 1.937477 -0.032720 0.022114 -96335.500000 0 0 1
-26.989310 -29.470131 -16.108097 43.085754 0.829310 1.953965 -0.022307 0.020084 -872079.000000 0 0 1
-26.066910 -28.557931 -16.514497 42.044831 0.830969 1.974452 0.001364 0.027515 -796252.000000 0 0 1
-24.832710 -29.290431 -17.114497 42.041632 0.867575 1.990056 0.005928 0.017618 -412998.000000 0 0 1
-24.877110 -30.041631 -18.335697 43.099512 0.879162 2.010230 -0.008270 0.022639 -278729.000000 0 0 1
-25.108110 -29.305131 -19.532297 43.251803 0.862378 2.039348 0.003010 0.023266 -15978.100000 0 0 1
-23.962510 -28.390531 -20.033297 42.208496 0.869777 2.065337 0.015893 0.017620 97044.700000 0 0 1
-23.691410 -27.240031 -19.220797 40.899159 0.854960 2.060037 0.011362 0.017679 -694938.000000 0 0 1
-22.378010 -26.813931 -19.378297 39.940964 0.875331 2.077358 0.027654 0.005441 -567700.000000 0 0 1
-22.014010 -25.626631 -18.472797 38.504351 0.861084 2.071176 0.014385 0.006912 -262281.000000 0 0 1
-21.982410 -25.933031 -17.081097 38.046186 0.867662 2.036394 0.017937 0.013347 124852.000000 0 0 1
-21.756210 -24.792531 -16.325197 36.803727 0.850535 2.030379 0.021276 0.011637 -204827.000000 0 0 1
-22.060910 -24.926531 -14.828197 36.440240 0.846310 1.989874 0.003796 0.021717 -721867.000000 0 0 1
-23.404310 -24.957631 -14.449297 37.140641 0.817506 1.970389 -0.018467 0.034177 -500665.000000 0 0 1
-23.635210 -24.444731 -13.132397 36.450348 0.802234 1.939366 -0.028689 0.038464 300438.000000 0 0 1
-25.148210 -24.405831 -12.771797 37.298738 0.770418 1.920287 -0.032944 0.045801 -941664.000000 0 0 1
-25.637610 -25.720431 -12.720297 38.479001 0.787011 1.907712 -0.019460 0.040796 349234.000000 0 0 1
-26.960910 -25.804131 -12.194897 39.261423 0.763478 1.886629 -0.025832 0.040448 -358163.000000 0 0 1
-28.112910 -25.149531 -12.936597 39.877188 0.729818 1.901185 -0.023147 0.035255 -1909170.000000 0 0 1
-28.425210 -23.815731 -12.572397 39.156695 0.697391 1.897665 -0.019397 0.035885 289354.000000 0 0 1
-28.976510 -23.684931 -11.232197 39.073985 0.685251 1.862370 -0.018561 0.029694 -422473.000000 0 0 1
-30.470810 -24.049631 -11.054197 40.361495 0.668163 1.848221 -0.018318 0.021944 259382.000000 0 0 1
-31.509810 -23.204131 -11.565997 40.805295 0.634746 1.858179 -0.007907 0.013493 439735.000000 0 0 1
-31.579710 -23.110131 -12.983297 41.230113 0.631753 1.891146 -0.006971 0.022144 -721270.000000 0 0 1
-33.006810 -22.822331 -13.489297 42.335203 0.604960 1.895081 -0.014133 0.013249 353092.000000 0 0 1
-33.906410 -23.892431 -13.227697 43.536937 0.613845 1.879503 -0.013751 0.014978 -56899.800000 0 0 1
34.550252 -23.574731 -13.489897 43.948437 -0.598769 1.882781 -0.011253 0.006694 381102.000000 0 0 1
33.574552 -24.727931 -13.085297 43.702930 -0.634810 1.874875 -0.016994 0.007752 54066.100000 0 0 1
33.738152 -25.797131 -14.021097 44.725228 -0.652797 1.889667 -0.031622 0.017747 127953.000000 0 0 1
33.147152 -27.019431 -13.607997 44.877176 -0.683902 1.878874 -0.026125 0.002652 2654.060000 0 0 1
33.151652 -28.166731 -14.652797 45.903172 -0.704281 1.895693 -0.025853 -0.002121 141829.000000 0 0 1
32.250452 -27.966231 -15.721097 45.490159 -0.714371 1.923667 -0.026219 -0.008808 -128109.000000 0 0 1
32.141452 -29.141631 -16.521997 46.425036 -0.736487 1.934658 -0.032155 0.001844 232777.000000 0 0 1
31.165752 -29.060931 -17.760597 46.165794 -0.750464 1.965694 -0.031636 0.001832 1181250.000000 0 0 1
29.801252 -29.320531 -17.374197 45.273291 -0.777267 1.964664 -0.005814 -0.004154 715597.000000 0 0 1
28.955152 -29.018031 -18.477997 44.965357 -0.786483 1.994280 0.013066 -0.006568 995149.000000 0 0 1
27.414052 -29.018331 -18.162397 43.857342 -0.813819 1.997777 0.018346 -0.015481 925634.000000 0 0 1
27.083952 -28.064231 -17.172297 42.614895 -0.803172 1.985550 0.017627 -0.018399 652917.000000 0 0 1
25.657952 -27.902031 -17.092697 41.581415 -0.827272 1.994419 0.025947 -0.015145 666078.000000 0 0 1
25.262352 -26.817931 -16.044997 40.184944 -0.815258 1.981526 0.019587 -0.013924 -207704.000000 0 0 1
25.471352 -25.518331 -16.519797 39.659534 -0.786320 2.000433 0.025627 -0.020809 19577.500000 0 0 1
25.347452 -24.562031 -15.512397 38.554132 -0.769663 1.984883 0.020581 -0.012815 -67142.600000 0 0 1
25.228852 -23.157231 -16.119397 37.849534 -0.742610 2.010732 0.017208 -0.007764 555748.000000 0 0 1
23.885652 -22.772531 -16.412097 36.857420 -0.761546 2.032290 0.027482 -0.006064 359241.000000 0 0 1
23.823452 -21.398931 -16.081297 35.834051 -0.731836 2.036186 0.016686 -0.001639 643284.000000 0 0 1
22.376452 -20.818731 -16.265197 34.621984 -0.749351 2.059854 0.013962 0.004007 306998.000000 0 0 1
21.485452 -21.276231 -15.290297 33.883563 -0.780505 2.038973 0.010000 -0.001528 156534.000000 0 0 1
20.205352 -20.646331 -15.287397 32.683814 -0.796192 2.057524 0.010824 -0.003316 576500.000000 0 0 1
20.136252 -19.253831 -14.610297 31.458535 -0.763000 2.053788 0.020202 -0.006304 -468757.000000 0 0 1
20.069352 -19.445531 -13.196497 30.903965 -0.769612 2.011987 0.015385 -0.007277 -5860.340000 0 0 1
19.954452 -18.197631 -12.588497 29.796043 -0.739383 2.006986 0.004823 -0.003221 -195945.000000 0 0 1
19.151352 -18.189531 -11.250497 28.709005 -0.759646 1.973471 0.001096 -0.001136 -266906.000000 0 0 1
19.664852 -18.921431 -10.160797 29.119903 -0.766134 1.927225 -0.010206 -0.010479 -265475.000000 0 0 1
18.701352 -18.973931 -9.148997 28.168329 -0.792633 1.901594 -0.001577 -0.020865 -167269.000000 0 0 1
19.204652 -19.583631 -7.796097 28.515195 -0.795168 1.847724 0.002148 -0.024318 -138277.000000 0 0 1
20.213552 -18.927931 -7.064797 28.579111 -0.752564 1.820587 0.001853 -0.018369 -112379.000000 0 0 1
20.660852 -19.747731 -6.030297 29.209727 -0.762805 1.778740 -0.002113 -0.007669 -64994.500000 0 0 1
22.015252 -19.262931 -5.447497 29.755790 -0.718819 1.754908 -0.010083 -0.009381 170952.000000 0 0 1
23.038052 -19.233831 -6.445997 30.695976 -0.695646 1.782366 -0.022593 -0.018400 123861.000000 0 0 1
23.938652 -18.214531 -6.043397 30.681441 -0.650430 1.769065 -0.025527 -0.024913 -92335.000000 0 0 1
24.972752 -17.911431 -7.180197 31.559672 -0.622202 1.800318 -0.034263 -0.034908 81054.000000 0 0 1
25.852552 -18.943431 -7.563497 32.930449 -0.632369 1.802546 -0.020000 -0.044123 284167.000000 0 0 1
25.320352 -19.848231 -8.517197 33.280852 -0.664837 1.829594 -0.004903 -0.045619 -572346.000000 0 0 1
26.002052 -21.204831 -8.407997 34.589680 -0.684125 1.816334 0.011912 -0.049954 728520.000000 0 0 1
27.388752 -21.113531 -8.766397 35.675967 -0.656733 1.819062 -0.001349 -0.039494 323144.000000 0 0 1
28.112852 -22.191931 -8.312197 36.768286 -0.668236 1.798837 0.015656 -0.040508 -323348.000000 0 0 1
-28.967578 30.463466 4.039603 42.231052 -0.810563 1.474995 -0.001688 0.000428 80468.900000 0 0 1
-28.334588 31.519966 3.377703 42.517831 -0.838567 1.491270 -0.006833 0.003672 -244201.000000 0 0 1
-27.111598 31.809066 4.028803 41.989126 -0.864955 1.474700 -0.006881 0.001443 31683.000000 0 0 1
-26.379518 33.015866 3.425503 42.398826 -0.896668 1.489916 0.001110 -0.003835 -223728.000000 0 0 1
-25.628338 32.621966 2.257203 41.546351 -0.904888 1.516440 0.005385 -0.014950 162093.000000 0 0 1
-25.168798 33.708666 1.463703 42.093764 -0.929438 1.536017 0.013056 -0.018406 -2394.560000 0 0 1
-23.942048 34.479066 2.020203 42.025098 -0.963843 1.522706 0.034853 -0.020612 455439.000000 0 0 1
-22.701148 33.791566 1.825303 40.749770 -0.979249 1.525988 0.029872 -0.026922 -238911.000000 0 0 1
-21.602948 34.511166 2.270303 40.778207 -1.011500 1.515093 0.032007 -0.019084 501859.000000 0 0 1
-20.201348 34.006266 1.802703 39.595079 -1.034765 1.525252 0.024233 -0.018602 909043.000000 0 0 1
-19.710048 34.729866 0.645403 39.938279 -1.054598 1.554636 0.028557 -0.023137 -49103.400000 0 0 1
-18.383048 34.454466 0.263803 39.052737 -1.080673 1.564041 0.026355 -0.019042 -62309.700000 0 0 1
-17.832048 -34.280931 -1.004997 38.654549 1.091140 1.596799 0.030729 -0.015064 72464.500000 0 0 1
-17.606348 -32.924731 -0.892097 37.347252 1.079740 1.594685 0.037047 -0.011618 462880.000000 0 0 1
-16.613848 -32.436531 0.015403 36.443775 1.097440 1.570374 0.030510 -0.007744 -108394.000000 0 0 1
-16.604948 -30.882731 0.138703 35.064036 1.077463 1.566841 0.028287 -0.009177 -157974.000000 0 0 1
-15.878548 -30.286831 -0.916397 34.209066 1.087920 1.597588 0.010334 -0.003055 123099.000000 0 0 1
-16.200648 -28.921431 -1.035397 33.165980 1.060186 1.602020 0.006633 -0.001475 387289.000000 0 0 1
-15.252048 -28.214031 -2.058097 32.138641 1.075211 1.634878 0.003563 0.009384 -91875.900000 0 0 1
-15.647848 -28.541031 -3.362697 32.722367 1.069292 1.673743 0.009611 -0.002524 -22648.100000 0 0 1
-14.761448 -28.154431 -4.394397 32.091791 1.087896 1.708160 0.008847 0.001315 -265124.000000 0 0 1
-15.319148 -28.212831 -5.855497 32.633219 1.073355 1.751207 0.019321 -0.003175 178226.000000 0 0 1
-16.344448 -27.221431 -6.002597 32.313750 1.030064 1.757641 0.019176 0.005941 -34561.700000 0 0 1
-17.015148 -27.353131 -7.250997 33.019479 1.014318 1.792198 0.029394 0.004646 -147731.000000 0 0 1
-17.977848 -26.196931 -7.398997 32.622498 0.969353 1.799594 0.016200 0.005186 -131913.000000 0 0 1
-17.240148 -24.966331 -7.226397 31.189120 0.966450 1.804617 0.042142 0.004856 536171.000000 0 0 1
-17.932348 -23.761931 -7.574597 30.717633 0.924315 1.819954 0.028989 0.009924 125648.000000 0 0 1
-16.968948 -22.593931 -7.262397 29.174875 0.926630 1.822368 0.020986 0.004345 210902.000000 0 0 1
-15.806148 -22.588131 -8.033397 28.715735 0.960235 1.854336 0.045165 -0.003626 -243728.000000 0 0 1
-14.800748 -21.719931 -7.488197 27.329300 0.972638 1.848345 0.055125 0.000490 1088330.000000 0 0 1
-13.595148 -21.377831 -8.429297 26.700051 1.004364 1.891994 0.052583 -0.000620 696335.000000 0 0 1
-13.862148 -20.476231 -9.513097 26.494041 0.975683 1.938063 0.056304 0.001707 -506147.000000 0 0 1
-12.786748 -20.508531 -10.410397 26.314960 1.013288 1.977526 0.043693 0.001758 157348.000000 0 0 1
-13.065848 -19.528831 -11.631597 26.218041 0.981143 2.030462 0.047460 -0.003484 -341270.000000 0 0 1
-14.039948 -20.032531 -12.467397 27.456482 0.959495 2.042134 0.059382 0.000602 -815930.000000 0 0 1
-14.307148 -19.079431 -13.540797 27.423937 0.927377 2.087203 0.044886 -0.008687 -214013.000000 0 0 1
-15.565248 -19.430631 -14.305997 28.713897 0.895405 2.092347 0.054204 0.000041 -14780.500000 0 0 1
-16.786848 -19.381331 -13.593497 29.020982 0.857009 2.058278 0.051402 -0.004586 621429.000000 0 0 1
-17.948848 -19.606231 -14.395097 30.228864 0.829502 2.067129 0.027527 0.012461 484652.000000 0 0 1
-19.296148 -19.675431 -13.636197 30.747516 0.795130 2.030284 0.003706 0.003066 -21316.700000 0 0 1
-20.188148 -20.332831 -14.498697 32.112265 0.788969 2.039242 0.007520 -0.000657 -1255900.000000 0 0 1
-21.507048 -20.108231 -14.151997 32.667615 0.751798 2.018850 -0.003934 0.005707 -1007790.000000 0 0 1
-22.491048 -20.786431 -15.115097 34.152439 0.746030 2.029267 -0.004701 0.006639 -383213.000000 0 0 1
-22.614448 -20.155031 -16.380197 34.437616 0.727957 2.066497 -0.015378 -0.002895 -63032.800000 0 0 1
-23.409648 -20.947931 -17.207897 35.818140 0.729958 2.071935 -0.009236 -0.000473 -242717.000000 0 0 1
-23.678348 -20.334231 -18.576397 36.321173 0.709563 2.107666 -0.012680 0.004020 -805125.000000 0 0 1
-22.570648 -20.360731 -19.381197 36.050302 0.733968 2.138403 0.000141 0.003266 -553710.000000 0 0 1
-22.869748 -19.926331 -20.731497 36.740699 0.716729 2.170339 -0.008645 0.002021 444177.000000 0 0 1
-21.674148 -19.088431 -21.313697 35.894436 0.722049 2.206555 -0.007852 0.003529 618599.000000 0 0 1
-20.472848 -19.787131 -21.513597 35.686172 0.768368 2.217871 0.004143 0.004407 4363.050000 0 0 1
-19.617548 -19.228831 -22.489197 35.501551 0.775392 2.256827 0.007844 0.002693 132420.000000 0 0 1
-18.253348 -19.920531 -22.632597 35.245520 0.829044 2.268084 0.027185 0.005003 -301715.000000 0 0 1
-18.282548 -21.009831 -23.520397 36.453719 0.854697 2.272098 0.027057 0.009863 185633.000000 0 0 1
-16.991848 -21.567831 -23.685297 36.261378 0.903518 2.282576 0.030259 0.013708 115040.000000 0 0 1
-17.000948 -22.930431 -24.273997 37.470839 0.932813 2.275503 0.033220 0.017017 -113716.000000 0 0 1
-17.215548 -22.902131 -25.665707 38.465714 0.926208 2.301288 0.041341 0.010390 88253.100000 0 0 1
-17.163848 -24.160031 -26.262587 39.598336 0.953109 2.295915 0.033159 -0.001675 -33553.600000 0 0 1
-17.087948 -24.175531 -27.761777 40.585348 0.955502 2.324076 0.030942 0.002778 -1322940.000000 0 0 1
-15.850348 -23.792631 -28.160317 40.128871 0.983126 2.348643 0.028716 -0.005808 -1416650.000000 0 0 1
-15.769648 -23.699231 -29.599497 41.066599 0.983666 2.375706 0.037036 -0.016469 -431220.000000 0 0 1
-14.360848 -23.605731 -30.195937 40.929929 1.024250 2.400523 0.012534 -0.016586 -505000.000000 0 0 1
-13.584748 -24.715431 -29.933377 41.126694 1.068225 2.385953 0.016152 -0.018109 -120946.000000 0 0 1
-12.307548 -24.598431 -30.558517 41.114249 1.106878 2.408724 0.018975 -0.015431 878979.000000 0 0 1
-11.400748 -25.832431 -30.174927 41.325752 1.155172 2.389371 0.005182 -0.004416 -441081.000000 0 0 1
-11.783948 -26.963331 -30.975207 42.724069 1.158775 2.381839 0.005720 0.009877 371632.000000 0 0 1
-11.010748 -28.148131 -30.858637 43.195015 1.197924 2.366567 0.017025 0.019393 -624260.000000 0 0 1
-9.626948 -28.099431 -31.463427 43.268965 1.240726 2.384971 0.017918 0.003488 -928232.000000 0 0 1
-8.713048 -27.182331 -30.892577 42.061236 1.260603 2.395677 0.016658 -0.012096 -416380.000000 0 0 1
-7.574748 -27.133231 -31.716037 42.420467 1.298559 2.415326 0.022314 -0.003186 -338084.000000 0 0 1
-6.702648 -25.893231 -31.380887 41.232814 1.317499 2.435751 0.018449 -0.011168 -707908.000000 0 0 1
-7.351948 -24.661731 -31.499157 40.674918 1.281073 2.456582 0.021231 -0.017814 102190.000000 0 0 1
-7.941948 -24.354931 -30.221787 39.618097 1.255577 2.438472 0.017860 -0.013104 -180014.000000 0 0 1
-8.291348 -22.827831 -30.016297 38.611324 1.222400 2.461312 0.014075 -0.018124 -196485.000000 0 0 1
-9.437848 -22.520931 -30.801627 39.306558 1.173959 2.471277 0.007447 -0.022106 189536.000000 0 0 1
-9.553448 -21.068331 -30.873627 38.578799 1.145077 2.498549 0.003566 -0.017690 -22179.800000 0 0 1
-10.501648 -20.649631 -32.018187 39.520326 1.100321 2.515239 -0.002955 -0.015055 -56498.900000 0 0 1
-10.984748 -19.357531 -31.905617 38.901762 1.054642 2.532485 -0.001350 -0.015612 80278.000000 0 0 1
-11.682048 -19.007831 -33.086167 39.905668 1.019717 2.548309 0.005209 -0.012612 -716732.000000 0 0 1
-12.434848 -17.715231 -33.092357 39.541863 0.958776 2.562381 0.011908 -0.007679 -390578.000000 0 0 1
-11.759548 -16.471431 -33.272937 38.944619 0.950778 2.595125 0.016539 -0.008707 -324195.000000 0 0 1
-10.993348 -15.973831 -32.234667 37.617691 0.968027 2.600025 -0.012806 -0.000462 -186243.000000 0 0 1
-10.828848 -14.411731 -32.245377 36.942202 0.926405 2.631830 -0.000612 -0.001347 -261008.000000 0 0 1
-10.056748 -13.801531 -33.267677 37.394635 0.941087 2.667347 -0.001433 -0.007807 56791.200000 0 0 1
-10.556948 -13.942331 -34.570731 38.742395 0.922712 2.673262 0.010465 -0.009181 -223493.000000 0 0 1
-11.006748 -12.629131 33.913112 37.825158 0.853931 0.458820 0.016014 -0.008956 -429154.000000 0 0 1
-12.200748 -12.175831 34.454778 38.525846 0.784376 0.463867 0.012163 -0.003300 -443320.000000 0 0 1
-12.975448 -11.424931 33.468283 37.669845 0.721939 0.476810 0.010566 -0.007502 1473610.000000 0 0 1
-14.120048 -10.630831 34.217253 38.512475 0.645348 0.476792 0.017136 -0.007780 709971.000000 0 0 1
-13.520448 -9.568031 -34.322371 38.110036 0.615856 2.691973 0.015113 -0.007557 716741.000000 0 0 1
-14.320448 -9.070731 -33.196527 37.274157 0.564625 2.669469 0.018924 -0.005152 797277.000000 0 0 1
-13.488748 -7.941631 -32.547567 36.115923 0.532114 2.693320 0.014621 -0.018180 -94308.900000 0 0 1
-13.531548 -6.702131 -33.231607 36.501521 0.459878 2.715087 0.014601 -0.026870 572329.000000 0 0 1
-14.740548 -5.921231 -33.151947 36.761343 0.381968 2.694749 0.012666 -0.024522 468785.000000 0 0 1
-15.021948 -5.207131 -31.820557 35.571350 0.333674 2.678233 0.009863 -0.020436 -208843.000000 0 0 1
-15.441148 -6.132731 -30.834197 35.025521 0.378063 2.647365 0.002303 -0.022256 14689.100000 0 0 1
-16.027748 -5.605331 -29.691127 34.203384 0.336431 2.622109 0.010199 -0.023804 14493.500000 0 0 1
-15.009648 -4.928431 -28.739317 32.795233 0.317260 2.638978 -0.000538 -0.016983 357398.000000 0 0 1
-14.518048 -3.650231 -29.132207 32.753372 0.246321 2.666918 -0.005719 -0.014402 -680469.000000 0 0 1
-13.258548 -3.328231 -28.649907 31.744029 0.245943 2.696403 -0.016273 -0.011330 -484546.000000 0 0 1
-12.860848 -1.970231 -29.271457 32.032818 0.152014 2.723330 -0.020857 -0.005696 -141418.000000 0 0 1
-12.622148 -2.057231 -30.614467 33.178252 0.161565 2.745893 -0.015790 -0.016778 -9926.310000 0 0 1
-12.651848 -0.754231 -31.175027 33.652941 0.059544 2.755450 -0.010288 -0.022129 -38869.700000 0 0 1
-12.812648 -0.862231 -32.674647 35.107548 0.067194 2.767122 -0.014779 -0.019970 -777336.000000 0 0 1
-14.035348 -1.464231 -33.034537 35.922355 0.103948 2.737881 -0.010783 -0.026249 73697.300000 0 0 1
-14.053548 -1.675231 -34.441744 37.236304 0.118644 2.751702 -0.019426 -0.014668 -72305.600000 0 0 1
-15.454748 -1.984231 34.259412 37.636335 0.127691 0.426849 -0.014471 -0.020327 -25099.200000 0 0 1
-15.475648 -1.839231 32.840029 36.350322 0.118292 0.443089 -0.005451 -0.019052 712323.000000 0 0 1
-16.791048 -2.129231 32.351199 36.511272 0.126134 0.482019 0.002215 -0.019688 678914.000000 0 0 1
-16.823048 -2.077231 30.833239 35.185486 0.122853 0.502657 0.010503 -0.007158 16332.600000 0 0 1
-16.451948 -0.799231 30.408839 34.583274 0.048542 0.496420 0.010635 0.014134 -135067.000000 0 0 1
-16.561148 -0.693231 28.992589 33.396443 0.041834 0.519366 0.013349 0.003696 -42568.500000 0 0 1
-15.744048 0.453769 28.352539 32.433739 -0.028814 0.507076 -0.002006 0.010784 -109951.000000 0 0 1
-16.060748 1.778769 28.738529 32.969906 -0.110303 0.512218 0.000135 0.009117 787133.000000 0 0 1
-17.396948 2.229769 28.420609 33.396956 -0.127475 0.552921 0.001617 0.007383 986646.000000 0 0 1
-17.504748 2.877769 26.985889 32.294519 -0.162942 0.581539 0.003772 0.004951 -197193.000000 0 0 1
-17.305448 4.293769 26.986279 32.344617 -0.243205 0.583869 -0.000550 0.010518 -247757.000000 0 0 1
-18.099748 4.855769 26.000709 32.050214 -0.262106 0.624511 0.009272 0.015348 -355192.000000 0 0 1
-17.910848 6.378769 26.072909 32.268929 -0.342134 0.630067 0.015278 0.008323 1619090.000000 0 0 1
-16.608948 6.990769 25.758889 31.436418 -0.398396 0.610439 -0.000811 0.007599 1454790.000000 0 0 1
-16.248448 7.092769 24.376039 30.141511 -0.411587 0.628824 0.003172 0.013280 -180588.000000 0 0 1
-15.059848 8.041769 24.171399 29.592661 -0.490466 0.614947 -0.015499 0.010555 52503.500000 0 0 1
-13.819648 7.506769 24.610869 29.206662 -0.497604 0.568618 -0.035019 0.016365 -110253.000000 0 0 1
-12.809248 8.364769 24.161199 28.597373 -0.578499 0.564465 -0.016993 0.013195 156039.000000 0 0 1
-11.368848 8.091769 24.713119 28.380727 -0.618568 0.514028 -0.019252 0.021370 584105.000000 0 0 1
-10.574048 9.260769 24.611419 28.342446 -0.719284 0.518913 -0.018445 0.029622 -365163.000000 0 0 1
-9.374648 9.074769 25.301269 28.467344 -0.769145 0.476115 -0.013658 0.010653 -542737.000000 0 0 1
-9.129048 10.328769 26.173519 29.581685 -0.846978 0.484758 0.002033 -0.005475 -883952.000000 0 0 1
-10.039548 10.527769 27.219849 30.863354 -0.809131 0.490819 -0.015045 -0.004724 113295.000000 0 0 1
-10.025148 11.859769 27.741559 31.792323 -0.869033 0.510323 -0.007042 -0.000680 -672829.000000 0 0 1
-10.496348 12.973769 26.760439 31.537487 -0.890565 0.557599 -0.028018 -0.009088 -150228.000000 0 0 1
-11.879248 12.904769 26.467549 31.751862 -0.826753 0.585249 -0.026459 -0.009350 192459.000000 0 0 1
-12.165448 12.039769 25.383749 30.615174 -0.780206 0.593259 -0.027496 0.001938 -673643.000000 0 0 1
-13.685148 11.961769 25.131719 31.015649 -0.718303 0.626147 -0.024163 -0.002449 -171778.000000 0 0 1
-14.254748 13.104769 24.604019 31.309592 -0.743391 0.666759 -0.030035 -0.008176 518706.000000 0 0 1
-15.584148 12.975769 24.070399 31.474122 -0.694321 0.700115 -0.000107 0.002780 817713.000000 0 0 1
-15.596648 12.427769 22.622899 30.157925 -0.672801 0.722511 -0.003596 0.001605 -360885.000000 0 0 1
-15.363648 10.990769 22.496699 29.375843 -0.620970 0.698476 -0.006362 0.003203 126121.000000 0 0 1
-15.422448 10.668769 21.114899 28.240281 -0.605180 0.726224 -0.000709 0.004030 -213223.000000 0 0 1
-15.862048 9.245769 20.718099 27.682638 -0.527741 0.725127 0.002105 -0.005361 342618.000000 0 0 1
-17.220848 8.997769 21.028299 28.630522 -0.481480 0.745909 0.017700 -0.002923 -186093.000000 0 0 1
-17.481648 7.657769 20.922999 28.319981 -0.412869 0.739498 0.011939 0.002805 322266.000000 0 0 1
-18.984648 7.361769 21.196599 29.392317 -0.369923 0.765319 0.026905 0.003695 385294.000000 0 0 1
-19.307048 7.628769 22.552999 30.652862 -0.376300 0.744015 0.014395 -0.001383 637568.000000 0 0 1
-20.728048 7.656769 22.736199 31.705092 -0.353845 0.771142 0.002313 0.005348 587143.000000 0 0 1
-20.986948 8.473769 24.038299 33.016610 -0.383747 0.755299 0.012284 -0.003742 -645993.000000 0 0 1
-20.819148 9.898769 24.032899 33.301693 -0.443827 0.764582 0.016015 -0.005045 568687.000000 0 0 1
-19.557348 10.485769 23.741599 32.497765 -0.492152 0.751653 0.019396 -0.003592 419778.000000 0 0 1
-18.287648 10.268769 24.578789 32.311028 -0.511640 0.706416 0.024931 -0.007706 -312162.000000 0 0 1
-18.328748 10.872769 25.842219 33.495976 -0.535411 0.689597 0.035864 -0.004772 130415.000000 0 0 1
-18.690548 10.013769 26.910579 34.260639 -0.491850 0.667347 0.008560 -0.003829 -40805.000000 0 0 1
-29.622878 -14.496034 21.325099 39.273525 0.455094 0.996804 -0.002154 0.000595 -112136.000000 0 0 1
-29.256328 -15.819134 21.641899 39.680594 0.495681 0.993927 -0.000694 0.005014 -39967.000000 0 0 1
-29.834818 -16.836534 20.832299 40.094513 0.513775 1.024437 -0.006093 0.011232 -145687.000000 0 0 1
-29.480088 -16.844934 19.293899 39.052298 0.519125 1.054051 -0.001687 0.001951 -29458.300000 0 0 1
-30.074868 -15.824134 18.527499 38.706190 0.484354 1.071657 0.001020 -0.004530 -40573.100000 0 0 1
-29.337138 -15.595634 17.360399 37.486997 0.488607 1.089302 0.003401 -0.010404 -1134760.000000 0 0 1
-29.859608 -14.405234 16.539599 37.049498 0.449495 1.108037 -0.000140 -0.004222 23956.600000 0 0 1
-31.094308 -14.630234 15.866599 37.850346 0.439780 1.138240 0.015570 -0.007206 1152250.000000 0 0 1
-32.310718 -14.641134 16.626899 39.176512 0.425458 1.132486 0.007058 -0.007455 -49624.500000 0 0 1
-32.790318 -13.292534 17.172199 39.329135 0.385136 1.118949 -0.000042 -0.005008 -162261.000000 0 0 1
-34.085792 -13.400134 17.791499 40.717837 0.374570 1.118596 -0.012169 -0.006748 683827.000000 0 0 1
-34.400112 -12.090334 18.125699 40.719588 0.337977 1.109472 -0.006261 0.000452 73751.900000 0 0 1
34.319391 -11.975334 19.209399 41.112409 -0.335728 1.084629 -0.001864 0.013269 -132546.000000 0 0 1
34.858608 -12.378934 20.471399 42.278112 -0.341227 1.065339 -0.005660 0.007249 150361.000000 0 0 1
34.035779 -12.129734 21.607499 42.100459 -0.342349 1.031845 -0.008180 0.003424 -1365760.000000 0 0 1
34.542741 -12.532534 23.002999 43.352085 -0.348043 1.011478 0.003185 -0.000831 -1122550.000000 0 0 1
-34.131168 -11.935034 23.522199 43.135548 0.336391 0.994039 -0.005772 0.001125 -434053.000000 0 0 1
-32.980468 -12.532734 22.934299 42.080432 0.363151 0.994394 -0.007679 -0.004439 -286691.000000 0 0 1
-31.648798 -11.736034 23.024199 40.859450 0.355102 0.972183 0.006988 0.001528 357195.000000 0 0 1
-31.786728 -10.540434 22.374099 40.275267 0.320188 0.981797 0.013748 0.003682 265099.000000 0 0 1
-30.497088 -9.959734 22.266799 39.052260 0.315660 0.964072 0.012715 0.001385 142274.000000 0 0 1
-30.562708 -8.612834 21.470999 38.330977 0.274685 0.976233 0.013835 0.014521 65441.000000 0 0 1
-30.747038 -8.767334 20.105199 37.768579 0.277772 1.009450 0.009345 0.017456 -101117.000000 0 0 1
-32.114868 -8.780734 19.784799 38.728598 0.266893 1.034614 0.006345 0.009806 -453850.000000 0 0 1
-32.234958 -8.537334 18.291399 38.033589 0.258903 1.069084 0.009021 0.005123 144323.000000 0 0 1
-33.584118 -8.773634 17.928399 39.067853 0.255533 1.094035 -0.004096 0.010058 229641.000000 0 0 1
-33.714168 -8.697834 16.530699 38.542982 0.252482 1.127533 0.003815 0.012542 91513.200000 0 0 1
34.637727 -8.623534 16.007499 39.120039 -0.244003 1.149231 -0.004090 0.016543 245947.000000 0 0 1
33.957211 -9.848134 16.270199 38.920397 -0.282272 1.139512 -0.010102 0.019263 37629.500000 0 0 1
32.573464 -9.706834 16.029499 37.579223 -0.289619 1.130119 -0.007138 0.013857 303816.000000 0 0 1
31.710384 -11.010134 15.983699 37.178624 -0.334186 1.126396 -0.005023 0.005204 50932.000000 0 0 1
31.605884 -11.593934 17.266699 37.835038 -0.351587 1.096887 -0.015997 0.005454 -77617.600000 0 0 1
30.631854 -12.595534 17.307499 37.369874 -0.390116 1.089261 -0.017590 0.006615 -245455.000000 0 0 1
30.375224 -13.118234 18.733799 38.022329 -0.407678 1.055601 -0.022147 0.008755 -369624.000000 0 0 1
31.349654 -13.992534 19.181599 39.325889 -0.419804 1.061274 -0.013382 0.002685 -401098.000000 0 0 1
31.093504 -14.183734 20.560199 39.883657 -0.427968 1.029200 -0.013953 0.004200 -289730.000000 0 0 1
31.870844 -15.388034 21.155299 41.232135 -0.449813 1.032029 -0.024752 0.008248 -237608.000000 0 0 1
31.900664 -15.254834 22.578399 41.954099 -0.446054 1.002533 -0.021741 0.002874 149369.000000 0 0 1
32.499744 -16.455334 23.082999 43.125818 -0.468692 1.005995 -0.022974 0.013457 171393.000000 0 0 1
32.934734 -16.431434 24.602579 44.271612 -0.462774 0.981569 -0.004637 0.003104 464263.000000 0 0 1
33.904103 -15.416834 24.908709 44.806369 -0.426771 0.981328 -0.002903 0.002693 381153.000000 0 0 1
34.241980 -15.558234 26.271479 45.877690 -0.426475 0.961072 -0.001980 0.005700 -762102.000000 0 0 1
-34.459963 -14.601134 26.652289 45.945910 0.400780 0.951970 -0.000081 0.001031 -1670400.000000 0 0 1
-33.206318 -14.897434 26.160309 44.821366 0.421716 0.947571 -0.008246 0.003097 -981686.000000 0 0 1
-32.428318 -13.734334 26.395359 44.010711 0.400624 0.927610 -0.000658 -0.002373 136921.000000 0 0 1
-30.908348 -14.016834 26.276499 42.921463 0.425758 0.911957 -0.005805 0.004881 -463475.000000 0 0 1
-30.468068 -14.054734 24.952519 41.814674 0.432206 0.931363 -0.008594 0.009951 1635540.000000 0 0 1
-29.094798 -14.558934 24.760829 40.884820 0.463965 0.920247 0.002282 -0.005471 1813250.000000 0 0 1
-28.891758 -16.063234 24.979109 41.433284 0.507423 0.923696 0.001607 -0.003218 -642590.000000 0 0 1
-29.004698 -16.424934 26.379979 42.508285 0.515260 0.901309 0.007649 -0.006002 165147.000000 0 0 1
-28.660088 -17.758034 26.618599 42.956935 0.554713 0.902490 0.005049 -0.011373 -475770.000000 0 0 1
-28.530948 -18.052134 28.152029 43.959428 0.564132 0.875765 0.011773 -0.009668 291237.000000 0 0 1
-27.381438 -17.486034 28.778309 43.401562 0.568326 0.845883 0.016115 -0.009001 309346.000000 0 0 1
-27.067458 -18.120434 29.998069 44.281842 0.589930 0.826526 0.023202 -0.013460 957390.000000 0 0 1
-25.742328 -17.567734 30.673579 43.728265 0.598847 0.793354 0.024326 -0.015918 908428.000000 0 0 1
-25.958058 -16.192534 31.085749 43.615854 0.557733 0.777433 0.032161 -0.022695 374096.000000 0 0 1
-24.789448 -15.396534 30.897569 42.499762 0.555784 0.756845 0.030376 -0.019128 -24710.500000 0 0 1
-24.765548 -14.060034 31.651909 42.577697 0.516350 0.732669 0.037951 -0.019170 -298985.000000 0 0 1
-24.402348 -14.130434 33.001659 43.407986 0.524880 0.707072 0.048009 -0.017389 139270.000000 0 0 1
-24.261148 -12.784534 33.445824 43.251251 0.484978 0.686780 0.050771 -0.010430 -359593.000000 0 0 1
-23.320548 -12.659834 -34.590935 43.596469 0.497346 2.487227 0.048628 -0.009848 -227761.000000 0 0 1
-21.942148 -12.833834 34.406025 42.777795 0.529238 0.636306 0.018676 -0.008324 202515.000000 0 0 1
-21.483848 -14.159434 34.583086 43.104932 0.582727 0.639658 0.022778 -0.006231 -461819.000000 0 0 1
-21.566848 -14.868334 -33.320047 42.384217 0.603581 2.475339 0.019841 -0.006149 -985897.000000 0 0 1
-20.607148 -14.405434 -32.378297 40.994209 0.610088 2.481322 0.000012 -0.001319 139097.000000 0 0 1
-20.501948 -15.291234 -31.306267 40.425661 0.640835 2.456587 0.014626 0.001694 1293280.000000 0 0 1
-19.051648 -15.348034 -30.612097 39.187089 0.678147 2.467347 0.005947 0.002752 1472870.000000 0 0 1
-18.909048 -14.384734 -29.613107 37.965890 0.650335 2.465450 -0.011536 0.004546 229510.000000 0 0 1
-19.545548 -14.691534 -28.369407 37.452542 0.644560 2.430235 -0.013828 0.000885 -42125.900000 0 0 1
-19.541348 -13.638134 -27.251307 36.200783 0.609323 2.423075 -0.018507 0.000912 942220.000000 0 0 1
-18.214148 -13.467834 -26.702637 35.016690 0.636693 2.438071 0.002409 0.000543 1012600.000000 0 0 1
-18.015748 -12.112734 -26.181357 34.011012 0.591921 2.449309 -0.011137 -0.007051 113268.000000 0 0 1
-16.673148 -11.898934 -25.455687 32.673697 0.619834 2.464006 0.000504 0.005264 -895353.000000 0 0 1
-16.600648 -12.554534 -24.196197 31.916356 0.647500 2.431211 0.008393 0.009357 348215.000000 0 0 1
-15.297848 -12.651934 -23.627697 30.860390 0.691013 2.442819 0.023859 0.001323 496062.000000 0 0 1
-14.245548 -13.481034 -24.421397 31.322173 0.757832 2.464957 -0.008784 0.006352 -633207.000000 0 0 1
-13.591448 -12.700434 -25.396497 31.480320 0.751522 2.509414 -0.011522 -0.003539 121896.000000 0 0 1
-12.728648 -13.431434 -26.274137 32.136462 0.812257 2.527992 -0.025606 0.007568 110046.000000 0 0 1
-12.017348 -12.563134 -27.363927 32.419647 0.807599 2.575595 -0.020570 0.013475 -919564.000000 0 0 1
-12.863048 -11.750734 -28.164487 33.117610 0.740238 2.587614 -0.002356 0.004238 -117342.000000 0 0 1
-12.277848 -10.706834 -28.967337 33.233845 0.717154 2.629297 0.003020 -0.007886 -136905.000000 0 0 1
-11.619248 -11.298034 -30.263157 34.329450 0.771383 2.649934 0.003697 -0.001194 -181387.000000 0 0 1
-11.018448 -10.274734 -30.955557 34.427066 0.750485 2.688650 0.004020 -0.004844 -76583.300000 0 0 1
-10.574348 -10.669634 -32.265117 35.590669 0.789883 2.705860 0.004693 -0.006744 -26652.800000 0 0 1
-9.972048 -9.483534 -33.079057 35.827408 0.760294 2.747354 0.001966 -0.005317 -488949.000000 0 0 1
-8.792748 -9.023134 -32.506327 34.862453 0.798329 2.771839 -0.008419 -0.007643 -637606.000000 0 0 1
-8.552648 -7.679834 -32.907497 34.857295 0.731680 2.805539 0.000945 -0.008085 418450.000000 0 0 1
-7.091748 -7.148634 -32.732047 34.245916 0.789393 2.843145 0.004493 -0.003041 289928.000000 0 0 1
-6.595748 -7.020234 -31.421237 32.864596 0.816564 2.844124 -0.007117 -0.004367 -18526.500000 0 0 1
-6.973348 -5.869834 -30.640197 31.967236 0.699687 2.852446 -0.010753 -0.002051 -659370.000000 0 0 1
-6.144848 -4.627034 -30.939307 31.881175 0.645415 2.897914 -0.004390 0.000481 375076.000000 0 0 1
-4.752548 -4.842134 -30.687227 31.428313 0.794735 2.923999 0.016017 -0.002470 570009.000000 0 0 1
-4.026748 -3.626434 -30.785417 31.258721 0.733139 2.967352 0.033402 -0.012117 572785.000000 0 0 1
-2.506948 -3.742434 -30.435647 30.767177 0.980579 2.994658 0.016365 -0.001669 7547.380000 0 0 1
-1.776948 -4.293634 -31.545357 31.885771 1.178402 2.995339 0.017284 -0.008788 868274.000000 0 0 1
-0.364248 -4.052434 -31.465347 31.727322 1.481153 3.012997 0.001329 0.001331 984227.000000 0 0 1
0.192052 -2.607634 -31.591667 31.699685 -1.497279 3.059015 -0.003682 0.006185 -783841.000000 0 0 1
-0.032748 -1.728834 -30.545537 30.594440 1.551856 3.085044 -0.005539 -0.000313 -815985.000000 0 0 1
0.736352 -0.624334 -30.524417 30.539679 -0.703259 3.109976 -0.004955 0.008788 -661950.000000 0 0 1
0.899352 0.024866 -29.091527 29.105436 0.027641 3.110676 0.001859 0.003706 222994.000000 0 0 1
-0.256248 0.626166 -28.523647 28.531670 -1.182355 3.117877 0.015035 0.001682 -138943.000000 0 0 1
-0.186648 2.012966 -28.695797 28.766919 -1.478338 3.071260 0.015193 -0.002905 656437.000000 0 0 1
-1.451148 2.884566 -28.314377 28.497903 -1.104693 3.028042 0.012601 -0.000332 787737.000000 0 0 1
-2.420448 2.911766 -29.361617 29.604754 -0.877280 3.013342 0.009851 -0.001799 242662.000000 0 0 1
-3.488748 3.784166 -28.998127 29.451360 -0.825995 2.965929 0.034409 -0.006869 -375132.000000 0 0 1
-4.494048 3.995466 -30.077327 30.672558 -0.726736 2.944265 0.038521 -0.003710 -799836.000000 0 0 1
-3.941048 4.583066 -31.196987 31.777167 -0.860574 2.950210 0.037556 -0.003937 130262.000000 0 0 1
-4.958948 4.959466 -32.101587 32.858779 -0.785450 2.926498 0.042438 0.001491 -57041.500000 0 0 1
-4.373148 5.691066 -33.333937 34.097859 -0.915608 2.929517 0.040701 0.009300 142963.000000 0 0 1
-4.014648 4.868566 -34.472698 35.045502 -0.881231 2.960544 0.048223 0.002342 1047440.000000 0 0 1
-2.742448 4.186866 -34.330435 34.693366 -0.990906 2.996821 0.044139 0.001389 595189.000000 0 0 1
-2.344448 3.579866 33.565736 33.837413 -0.990985 0.126804 0.034890 -0.010669 50885.600000 0 0 1
-3.084448 2.408166 33.179529 33.409493 -0.662889 0.117398 0.040759 -0.015344 184761.000000 0 0 1
-2.743448 1.853066 31.913029 32.084291 -0.594060 0.103370 0.049867 -0.021209 -171118.000000 0 0 1
-2.576248 2.692166 30.635169 30.860952 -0.807397 0.121038 0.054628 -0.024036 -288901.000000 0 0 1
-3.681148 3.526166 30.383249 30.807897 -0.763898 0.166226 0.042752 -0.024918 -200046.000000 0 0 1
-3.596348 4.252666 29.153039 29.680272 -0.868822 0.188768 0.041888 -0.031415 592944.000000 0 0 1
-4.795848 5.247366 28.946849 29.806963 -0.830325 0.240815 0.043787 -0.018311 733102.000000 0 0 1
-4.662148 5.891666 27.716209 28.716469 -0.901375 0.264713 0.041377 -0.006010 -44320.300000 0 0 1
-5.831448 6.644566 27.460119 28.848122 -0.850481 0.311464 0.024072 -0.002985 -288025.000000 0 0 1
-5.798848 7.364966 26.116719 27.748015 -0.903813 0.344601 0.026781 -0.001913 -508526.000000 0 0 1
-4.943748 8.445366 26.155399 27.926148 -1.041196 0.358022 0.029715 0.000783 -395172.000000 0 0 1
-5.147348 9.281366 25.038729 27.195163 -1.064436 0.400913 0.034788 0.001712 -37723.400000 0 0 1
-4.436848 10.631966 25.147019 27.660384 -1.175455 0.429594 0.040691 -0.003855 -614296.000000 0 0 1
-4.629448 11.453866 24.042899 27.031164 -1.186690 0.474654 0.046978 -0.004948 359783.000000 0 0 1
-4.189448 12.816066 24.404999 27.882019 -1.254856 0.504750 0.046874 0.001638 395701.000000 0 0 1
-2.638748 13.055766 24.351439 27.756235 -1.371369 0.500522 0.040151 -0.000435 570573.000000 0 0 1
-1.737048 12.513666 25.300609 28.279497 -1.432866 0.463121 0.040100 -0.003362 183316.000000 0 0 1
-1.930048 13.019866 26.652789 29.725631 -1.423629 0.458705 0.039598 0.001064 -875678.000000 0 0 1
-1.068048 12.422666 27.758979 30.430646 -1.485031 0.422163 0.025004 0.004511 859377.000000 0 0 1
0.232152 13.065666 27.815919 30.732570 1.553030 0.439191 0.016453 0.010354 698095.000000 0 0 1
1.025452 12.594066 28.878579 31.521966 1.489552 0.412450 0.021443 0.006226 764261.000000 0 0 1
2.556952 12.882366 28.687639 31.551132 1.374858 0.429335 0.013987 0.010814 742919.000000 0 0 1
2.885652 14.244166 28.719029 32.187045 1.370917 0.468483 0.007631 0.015979 -582601.000000 0 0 1
4.202652 14.504766 28.357829 32.128133 1.288776 0.489330 0.006678 0.013381 -701932.000000 0 0 1
4.414852 16.028466 28.490089 32.986176 1.302023 0.528235 0.000808 0.016826 -356106.000000 0 0 1
4.496752 16.454666 29.836059 34.368113 1.304029 0.519370 0.004732 0.023380 967831.000000 0 0 1
3.274052 17.028566 30.349339 34.953881 1.380846 0.519096 -0.002625 0.024669 479391.000000 0 0 1
3.001052 18.531266 29.972129 35.365840 1.410245 0.559561 0.011247 0.026663 485269.000000 0 0 1
3.886652 19.485866 30.587549 36.474692 1.373920 0.576095 0.022971 0.024475 659507.000000 0 0 1
5.140152 19.722066 29.967379 36.241203 1.315839 0.597247 0.015885 0.027272 599237.000000 0 0 1
6.075652 20.787866 30.661309 37.538843 1.286447 0.614973 0.024144 0.018540 369583.000000 0 0 1
5.653652 22.138166 30.551279 38.150266 1.320760 0.642143 0.020229 0.009755 628921.000000 0 0 1
6.515552 22.981366 31.373969 39.432493 1.294532 0.650737 -0.004125 -0.004421 353226.000000 0 0 1
6.706452 24.397766 30.829239 39.883197 1.302542 0.687259 -0.000519 -0.004359 -354978.000000 0 0 1
7.486952 24.370466 29.671909 39.120279 1.272734 0.709820 -0.011634 0.005353 75019.700000 0 0 1
7.701252 25.709466 29.302109 39.735368 1.279753 0.741537 -0.020800 0.011797 -101079.000000 0 0 1
8.408052 25.774966 27.940499 38.932193 1.255470 0.770344 -0.015876 0.007313 172379.000000 0 0 1
7.534152 25.202666 26.977139 37.678957 1.280310 0.772779 -0.010414 0.002037 667239.000000 0 0 1
8.108552 25.349966 25.705829 37.002149 1.261216 0.802777 0.004419 0.004145 -292220.000000 0 0 1
28.124554 1.984966 7.063003 29.065729 0.070461 1.325338 0.015779 0.007346 28706.300000 0 0 1
28.434434 2.877466 8.076703 29.698989 0.100853 1.295375 0.007084 -0.000909 474143.000000 0 0 1
27.558154 2.671366 9.191903 29.173260 0.096634 1.250256 0.005236 -0.002092 125498.000000 0 0 1
27.858664 3.659566 10.376203 29.952682 0.130614 1.217044 0.004243 0.002982 40179.900000 0 0 1
27.519634 5.022066 10.129803 29.751711 0.180504 1.223371 0.006639 0.004653 749443.000000 0 0 1
28.655394 5.736966 9.614903 30.765089 0.197593 1.252945 0.009915 -0.004239 510556.000000 0 0 1
28.456344 7.243566 9.695203 30.922964 0.249257 1.251891 0.006319 -0.006946 -98536.500000 0 0 1
27.529944 7.750966 8.793003 29.921433 0.274442 1.272524 0.019402 -0.004770 -174034.000000 0 0 1
28.055904 8.920266 8.222703 30.566611 0.307839 1.298432 0.011476 -0.012305 173710.000000 0 0 1
27.279634 9.324466 6.952203 29.655644 0.329361 1.334163 0.013563 -0.003590 -49791.500000 0 0 1
25.943734 9.715866 7.195203 28.622479 0.358330 1.316688 0.021660 0.000476 32880.100000 0 0 1
25.400124 9.907166 5.877703 27.890242 0.371894 1.358460 0.021544 -0.012919 -596733.000000 0 0 1
23.964314 10.333866 5.640203 26.699981 0.407126 1.357949 0.005769 -0.003610 -558178.000000 0 0 1
23.676914 11.648566 6.087303 27.080262 0.457211 1.344071 0.001772 0.004374 -663113.000000 0 0 1
22.330814 11.890366 6.325603 26.077946 0.489281 1.325787 0.002982 0.008829 -599746.000000 0 0 1
21.959214 13.370066 6.661003 26.558138 0.546908 1.317281 0.003998 0.018789 -131711.000000 0 0 1
21.976514 14.322266 5.600203 26.822690 0.577575 1.360463 -0.006520 0.024246 318357.000000 0 0 1
21.615114 15.614866 6.089303 27.351724 0.625605 1.346285 0.007300 0.022943 -100189.000000 0 0 1
21.491114 16.698066 4.925403 27.657783 0.660543 1.391758 0.030396 0.009431 228634.000000 0 0 1
20.248914 16.647066 4.221103 26.551102 0.688085 1.411139 0.029225 0.013239 600328.000000 0 0 1
20.104714 17.690466 3.265703 26.978082 0.721608 1.449448 0.034626 0.005692 439380.000000 0 0 1
18.610914 17.686566 2.806403 25.827439 0.759938 1.461922 0.020126 0.008514 638123.000000 0 0 1
17.726014 18.020666 3.872503 25.572490 0.793641 1.418779 0.016245 0.004866 -886382.000000 0 0 1
16.440814 18.135466 3.405503 24.714225 0.834371 1.432561 0.015423 -0.002911 -765344.000000 0 1 0
15.604114 19.292666 4.111903 25.151601 0.890706 1.406574 0.020000 -0.007590 904240.000000 0 0 1
14.194914 19.055366 4.165003 24.123635 0.930548 1.397274 0.018024 -0.014168 839554.000000 0 1 0
13.490614 20.276266 4.410803 24.750329 0.983713 1.391627 0.011684 -0.011756 -218813.000000 0 1 0
11.971914 20.135766 4.383103 23.832486 1.034387 1.385830 -0.000351 -0.011397 -483533.000000 0 1 0
11.387414 19.338366 5.388603 23.079918 1.038615 1.335146 -0.005110 -0.013436 535698.000000 0 1 0
9.970014 19.402966 5.162203 22.417060 1.096138 1.338431 -0.001329 -0.000302 1024820.000000 0 1 0
9.225314 18.848266 6.458803 21.956313 1.115623 1.272213 0.006774 -0.005300 -349132.000000 0 1 0
8.834014 19.742666 7.467103 22.881658 1.150058 1.238372 0.000100 -0.003516 -97152.300000 0 1 0
8.213114 19.094766 8.583103 22.488552 1.164594 1.179199 0.007314 0.000607 -284991.000000 0 1 0
7.242514 20.020466 9.380103 23.264982 1.223688 1.155801 0.015195 0.002138 382587.000000 0 1 0
6.033514 20.337366 8.720203 22.935860 1.282396 1.180784 0.003349 -0.006772 63955.500000 0 1 0
6.201814 21.249766 7.629203 23.414093 1.286830 1.238898 -0.005550 -0.009777 -982258.000000 0 1 0
4.980814 21.290166 6.685003 22.864141 1.340981 1.274082 -0.008366 0.000193 650458.000000 0 1 0
3.705014 21.738466 7.168703 23.187892 1.401983 1.256490 -0.021121 0.007007 641325.000000 0 1 0
3.581414 23.069366 7.832003 24.624427 1.416780 1.247116 -0.014616 0.004531 -671610.000000 0 1 0
3.779814 24.223766 6.864303 25.459703 1.416007 1.297804 -0.018463 0.001175 -489678.000000 0 0 1
2.643414 24.358366 6.069103 25.241862 1.462698 1.327979 -0.004775 0.002081 -166002.000000 0 0 1
2.839414 25.380366 5.168403 26.056431 1.459385 1.371118 -0.003170 0.005902 -153326.000000 0 0 1
1.554314 25.635866 4.364403 26.051133 1.510240 1.402470 -0.001296 0.002344 -295375.000000 0 0 1
0.532214 26.219866 5.130903 26.722477 1.550501 1.377590 0.010043 0.003120 -392284.000000 0 0 1
-0.605686 26.365866 4.315903 26.723636 -1.547828 1.408585 0.008493 0.003118 113798.000000 0 0 1
-1.877686 27.002066 4.955803 27.517217 -1.501369 1.389710 0.009043 0.005317 442899.000000 0 0 1
-2.708686 27.441366 3.895303 27.848499 -1.472407 1.430461 0.023783 0.003187 -340206.000000 0 0 1
-3.737286 28.279766 4.315003 28.850159 -1.439404 1.420667 0.017309 0.001184 -672528.000000 0 0 1
-4.555386 28.900766 3.197903 29.431826 -1.414461 1.461927 0.008383 -0.004680 -456471.000000 0 0 1
-4.012086 29.934466 2.433103 30.299984 -1.437561 1.490409 0.008257 -0.000606 -538764.000000 0 0 1
-4.864386 30.319166 1.421803 30.739804 -1.411713 1.524527 0.015680 0.000007 -614677.000000 0 0 1
-4.197186 31.342566 0.482403 31.626026 -1.437675 1.555542 0.007473 -0.000468 -211222.000000 0 0 1
-4.067386 32.663666 0.982103 32.930582 -1.446911 1.540968 0.004718 0.007096 -173612.000000 0 0 1
-3.238286 32.859266 2.099903 33.085154 -1.472563 1.507284 0.005258 0.000182 -920260.000000 0 0 1
-2.390886 34.134766 1.953003 34.274083 -1.500868 1.513784 -0.000137 0.004217 -433359.000000 0 0 1
-1.372486 33.989366 0.943203 34.030138 -1.530438 1.543076 -0.014951 0.005547 194133.000000 0 0 1
-0.509386 -34.410731 0.873703 34.425590 1.555994 1.545414 -0.018328 0.001936 241646.000000 0 0 1
0.686814 -34.484131 1.860403 34.541107 -1.550882 1.516910 -0.023435 0.006527 -512177.000000 0 0 1
0.248314 -34.406931 3.198803 34.556199 -1.563579 1.478095 -0.021892 0.006241 -47587.000000 0 0 1
1.312114 -34.650731 4.089003 34.915823 -1.532948 1.453417 -0.027250 0.007931 -53032.500000 0 0 1
0.936014 -34.368731 5.522703 34.822206 -1.543569 1.411527 -0.021191 0.001982 195623.000000 0 0 1
0.082714 34.134566 6.108503 34.676926 1.568373 1.393718 -0.021328 0.001620 77461.200000 0 0 1
-0.314486 34.354866 7.442203 35.153123 -1.561643 1.357474 -0.014451 -0.002860 86449.900000 0 0 1
0.718214 34.055166 8.585103 35.127968 1.549710 1.323900 -0.010814 0.008933 227554.000000 0 0 1
0.819614 32.689066 8.867803 33.880447 1.545729 1.305974 -0.007322 0.001805 -105247.000000 0 0 1
2.013514 32.383966 9.564603 33.826869 1.508700 1.284135 -0.009535 0.015667 115644.000000 0 0 1
2.563814 30.939966 9.406303 32.439685 1.488121 1.276608 -0.014384 0.009321 -23806.900000 0 0 1
1.962814 29.951766 10.232103 31.712093 1.505357 1.242262 -0.009945 -0.000340 68941.700000 0 0 1
2.612714 28.737766 10.120903 30.579701 1.480130 1.233467 -0.011312 -0.001460 -525640.000000 0 0 1
2.291914 27.854166 11.341203 30.161736 1.488699 1.185307 -0.011085 -0.014129 -521925.000000 0 0 1
2.811714 28.330166 12.538503 31.108167 1.471872 1.155937 -0.008218 -0.002193 -277802.000000 0 0 1
2.715314 27.460066 13.635103 30.778957 1.472234 1.111853 -0.002030 -0.004799 625429.000000 0 0 1
1.256014 27.202966 14.208303 30.715709 1.524657 1.089899 -0.011353 -0.010451 1371190.000000 0 0 1
0.473214 28.226966 14.862203 31.904084 1.554033 1.086212 -0.004856 -0.009557 383989.000000 0 0 1
0.023214 29.150466 13.910803 32.299545 1.570000 1.125549 0.000668 -0.010051 -838113.000000 0 0 1
-0.705686 30.336666 14.597503 33.673407 -1.547539 1.122421 -0.007400 -0.005941 491740.000000 0 0 1
-1.997886 30.040166 15.131803 33.695320 -1.504387 1.105064 -0.011167 -0.003423 419582.000000 0 0 1
-2.590186 31.205766 15.647703 35.005135 -1.487983 1.107374 -0.015613 0.005191 978896.000000 0 0 1
-4.080386 31.023666 16.149803 35.212690 -1.440022 1.094337 -0.011305 0.016677 856682.000000 0 0 1
-4.978186 30.485066 15.220603 34.435277 -1.408926 1.112962 -0.002327 0.009363 -126773.000000 0 0 1
-6.138086 30.081666 15.903503 34.576063 -1.369512 1.092850 0.009605 0.013727 -29076.600000 0 0 1
-7.253286 29.494866 14.960903 33.858321 -1.329664 1.113117 -0.004614 0.006242 97391.700000 0 0 1
-8.442786 29.185766 15.623403 34.164020 -1.289205 1.095833 -0.007149 0.009711 62844.200000 0 0 1
-9.477086 28.801566 14.699203 33.695874 -1.252908 1.119390 0.006467 0.006863 1022290.000000 0 0 1
-10.758286 28.276666 15.428403 33.960951 -1.207243 1.099212 -0.002678 0.011232 513737.000000 0 0 1
-11.521486 29.162566 16.253903 35.318398 -1.194540 1.092564 -0.001715 0.006814 460810.000000 0 0 1
-10.975386 29.395366 17.540403 35.947356 -1.213454 1.061060 0.009058 0.007763 -78619.500000 0 0 1
-11.731186 30.544366 18.262203 37.471150 -1.204097 1.061724 0.020217 0.008352 485790.000000 0 0 1
-13.010686 30.299566 18.835303 37.975127 -1.165203 1.051821 0.013168 0.010002 556692.000000 0 0 1
-13.470986 31.548966 19.376103 39.398453 -1.167244 1.056642 0.013494 0.009401 -100904.000000 0 0 1
-14.663386 31.348366 20.298603 40.121917 -1.133275 1.040345 0.010724 0.012511 -381965.000000 0 0 1
-14.188886 30.819766 21.510003 40.172910 -1.139342 1.005773 0.019411 0.004507 -77629.100000 0 0 1
-15.186586 30.525766 22.442503 40.818142 -1.109150 0.988651 0.024519 0.000659 -262612.000000 0 0 1
-14.591186 30.558266 23.864603 41.427402 -1.125320 0.956898 0.046977 -0.008903 -389199.000000 0 0 1
-13.507886 29.701866 24.120203 40.576447 -1.143972 0.934229 0.042924 -0.006695 324747.000000 0 0 1
-13.072486 29.611966 25.501203 41.207642 -1.155067 0.903523 0.047165 -0.001619 174539.000000 0 0 1
-12.450386 30.819266 26.212803 42.331434 -1.186863 0.903037 0.048537 -0.006097 -66090.800000 0 0 1
-13.495286 31.746966 26.544903 43.527284 -1.168850 0.914931 0.041344 0.000394 706489.000000 0 0 1
-13.100786 33.055266 26.969203 44.627560 -1.193458 0.921888 0.035453 -0.000200 75817.400000 0 0 1
-14.332286 33.854866 27.519603 45.922706 -1.170328 0.928221 0.040746 0.002584 419682.000000 0 0 1
-14.923186 33.372466 28.673903 46.460905 -1.150298 0.905666 0.000006 0.004138 32560.000000 0 0 1
-14.083686 33.437466 29.838003 46.975747 -1.172153 0.882556 0.007889 0.020603 -143035.000000 0 0 1
-14.572886 32.790466 31.159603 47.523726 -1.152589 0.855734 -0.003963 0.013847 -267798.000000 0 0 1
-15.659886 33.502366 31.716903 48.719631 -1.133546 0.861884 -0.011014 0.020366 -364511.000000 0 0 1
-16.129486 32.849266 32.859803 49.183343 -1.114362 0.839133 -0.016465 0.025392 -13661.500000 0 0 1
-17.533186 33.345866 33.251303 50.249463 -1.086724 0.847680 -0.019754 0.024519 -84094.500000 0 0 1
-17.658086 34.665266 33.770103 51.516100 -1.099666 0.855918 -0.007286 0.016126 1196440.000000 0 0 1
-19.074486 -34.557431 33.960203 52.070601 1.066446 0.860319 0.000418 0.003556 1238880.000000 0 0 1
-19.293686 -33.045531 34.208903 51.327405 1.042335 0.841313 0.007987 0.003482 -88071.700000 0 0 1
-18.762986 -32.542031 -33.846792 50.563215 1.047778 2.304191 0.016596 0.009775 619525.000000 0 0 1
-19.719686 -32.784131 -32.783292 50.382631 1.029274 2.279284 0.021604 0.009380 640623.000000 0 0 1
-19.376686 -32.037531 -31.484092 48.919397 1.026846 2.269977 0.026642 0.004393 -466.197000 0 0 1
-19.530086 -30.655931 -31.669192 48.209419 1.003562 2.287508 0.042689 -0.001418 -87376.600000 0 0 1
-18.991086 -29.842331 -30.651092 46.805080 1.004055 2.284803 0.036998 0.001403 -52795.700000 0 0 1
-19.301386 -28.279631 -30.832992 46.075530 0.971899 2.303906 0.040427 -0.006765 -546493.000000 0 0 1
-20.594086 -27.981031 -30.409192 46.171132 0.936314 2.289779 0.036612 -0.007577 -625018.000000 0 0 1
-20.828686 -26.599431 -30.537992 45.540453 0.906476 2.305771 0.031156 -0.007237 1372150.000000 0 0 1
-22.147786 -26.203931 -29.709492 45.385288 0.869091 2.284458 0.041732 -0.012100 1225530.000000 0 0 1
-22.061186 -26.486931 -28.296292 44.597462 0.876309 2.258135 0.039012 -0.009269 -166680.000000 0 0 1
-21.282886 -25.573531 -27.616092 43.239048 0.876714 2.263583 0.042261 -0.011186 -401739.000000 0 0 1
-21.160086 -25.745431 -26.101792 42.330604 0.882846 2.235235 0.045134 -0.001732 471142.000000 0 0 1
-22.410686 -25.477631 -25.466492 42.425119 0.849355 2.214634 0.039147 -0.008836 412956.000000 0 0 1
-22.311486 -26.059131 -24.187692 41.975292 0.862721 2.184913 0.032245 0.002978 126243.000000 0 0 1
-23.534786 -25.960131 -23.201592 42.025331 0.834361 2.155660 0.025897 0.004934 1559640.000000 0 0 1
-24.776686 -26.617331 -23.535292 43.316007 0.821197 2.145206 0.015184 0.004246 828347.000000 0 0 1
-24.669786 -28.064131 -23.446792 44.112876 0.849677 2.131188 0.029258 0.006138 -883863.000000 0 0 1
-26.059586 -28.697531 -23.307192 45.231355 0.833536 2.112140 0.001010 0.002255 -2116.940000 0 0 1
-26.711586 -28.328131 -22.119792 44.780320 0.814760 2.087437 0.001549 0.012825 -99284.100000 0 0 1
-27.707486 -27.324631 -22.261292 44.831968 0.778441 2.090415 0.004360 0.016962 -245018.000000 0 0 1
-28.456186 -27.097131 -20.956592 44.532997 0.760939 2.060751 0.007750 0.030464 -805934.000000 0 0 1
-29.309686 -28.103031 -20.576992 45.521980 0.764384 2.039829 -0.012295 0.025553 -225864.000000 0 0 1
-29.656386 -28.040131 -19.197492 45.103147 0.757392 2.010460 -0.021159 0.038851 -854516.000000 0 0 1
-30.473686 -29.197431 -18.602992 46.121653 0.764013 1.985967 -0.029339 0.031416 -477717.000000 0 0 1
-31.814386 -29.356431 -18.979192 47.266954 0.745238 1.983985 -0.027376 0.022284 154544.000000 0 0 1
-32.758086 -28.325531 -18.706492 47.173730 0.712960 1.978546 -0.036312 0.030766 -532898.000000 0 0 1
-33.080986 -27.975231 -17.206592 46.615791 0.701968 1.948853 -0.026232 0.037259 143248.000000 0 0 1
-32.013486 -27.200631 -16.594792 45.167740 0.704298 1.947012 -0.029606 0.036902 928632.000000 0 0 1
-32.430086 -26.465731 -15.438992 44.615108 0.684473 1.924152 -0.026970 0.034457 71660.400000 0 0 1
-32.448986 -27.267631 -14.083892 44.663368 0.698849 1.891605 0.001504 0.027527 55410.300000 0 0 1
-33.297186 -28.383631 -14.056092 45.955488 0.705905 1.881641 -0.003598 0.022639 260004.000000 0 0 1
-32.991786 -28.983131 -12.793492 45.740062 0.720806 1.854278 -0.018475 0.009565 -112386.000000 0 0 1
-33.493786 -30.390531 -12.711492 46.978720 0.736860 1.844792 -0.008930 0.006870 -381595.000000 0 0 1
-32.895986 -31.342231 -13.563192 47.417734 0.761215 1.860884 -0.009264 -0.001132 -210326.000000 0 0 1
-33.377586 -32.631031 -13.423692 48.569980 0.774089 1.850820 -0.010973 -0.004705 -569122.000000 0 0 1
-32.769186 -33.532631 -14.452392 49.062496 0.796912 1.869803 -0.016160 0.016667 -832700.000000 0 0 1
-31.412286 -33.781131 -14.276792 48.287921 0.821718 1.870942 -0.024192 0.012306 -769359.000000 0 0 1
-30.937186 -34.591031 -15.314292 48.868972 0.841100 1.889541 -0.001292 -0.000005 -177209.000000 0 0 1
-29.467586 34.470366 -15.260292 47.847897 -0.863483 1.895400 -0.019070 0.005019 -215567.000000 0 0 1
-29.151386 33.565366 -16.276492 47.343017 -0.855662 1.921756 -0.001310 -0.000465 360401.000000 0 0 1
-27.747786 33.256866 -16.317292 46.284044 -0.875460 1.931088 -0.005860 0.002028 528857.000000 0 0 1
8.846652 20.114766 -8.586297 23.592192 1.156450 1.943298 -0.000067 -0.012838 -789151.000000 0 1 0
7.450052 20.233466 -8.780197 23.280641 1.217997 1.957509 0.011999 -0.015485 90220.600000 0 1 0
7.079252 20.257366 -10.153797 23.739761 1.234598 2.012757 0.028483 -0.018596 79032.200000 0 1 0
7.286452 18.956666 -11.050497 23.120576 1.203833 2.069117 0.022461 -0.016885 -754433.000000 0 1 0
8.586652 18.569566 -11.372197 23.406969 1.137675 2.078128 0.024374 -0.017865 -576700.000000 0 1 0
8.477052 17.441366 -12.193297 22.907163 1.118386 2.132102 0.021629 -0.025880 -851940.000000 0 1 0
9.777652 17.037666 -12.834397 23.465001 1.049801 2.149524 0.031514 -0.022402 -944712.000000 0 1 0
9.591752 15.936066 -13.587197 23.034144 1.028989 2.201697 0.033748 -0.031532 337922.000000 0 1 0
10.683652 15.722566 -14.463797 23.885998 0.973954 2.221234 0.036565 -0.025999 -112615.000000 0 1 0
10.403052 14.509666 -15.382497 23.566397 0.948769 2.281979 0.040842 -0.028455 -355160.000000 0 1 0
10.265152 13.203966 -14.804097 22.335607 0.909970 2.295352 0.051188 -0.033479 1179420.000000 0 1 0
11.512952 12.610266 -14.395397 22.333703 0.830855 2.271243 0.052875 -0.027787 553227.000000 0 1 0
12.446352 11.883066 -15.385197 23.082963 0.762250 2.300324 0.043994 -0.025681 -386940.000000 0 1 0
12.977852 12.807466 -16.302097 24.458417 0.778790 2.300331 0.028245 -0.018247 312554.000000 0 1 0
13.743852 12.099566 -17.298597 25.189966 0.721859 2.327771 0.018523 -0.015013 68708.200000 0 0 1
14.381652 13.050066 -18.333797 26.707007 0.736894 2.327432 0.010444 -0.013156 131566.000000 0 0 1
15.490852 13.811966 -17.877797 27.392563 0.728166 2.281875 0.004642 -0.005943 266719.000000 0 0 1
16.024852 14.498666 -19.039697 28.801341 0.735439 2.293040 0.003437 -0.004635 526564.000000 0 0 1
17.261452 15.419066 -18.718397 29.767158 0.729082 2.250840 0.005151 0.005518 135936.000000 0 0 1
17.043052 16.694866 -18.179797 29.994819 0.775078 2.221942 0.002926 0.004184 127075.000000 0 0 1
16.580452 17.683766 -19.102397 30.863061 0.817587 2.238189 0.006741 0.006590 -85825.700000 0 0 1
16.376552 19.120966 -18.530597 31.259971 0.862558 2.205315 0.002293 0.004116 291020.000000 0 0 1
17.601052 19.690866 -18.087897 32.010923 0.841379 2.171295 0.000039 0.012947 325096.000000 0 0 1
17.384652 21.054566 -17.791197 32.589071 0.880583 2.148289 -0.007199 0.022893 129003.000000 0 0 1
18.637652 21.960066 -17.959397 33.943283 0.867054 2.128336 -0.000791 0.016572 598749.000000 0 0 1
19.648752 21.895066 -16.960297 33.957606 0.839417 2.093766 -0.004121 0.017030 -197281.000000 0 0 1
19.339752 22.754066 -15.940597 33.850792 0.866333 2.061116 -0.003580 0.020236 -875976.000000 0 0 1
20.465152 23.393066 -15.144697 34.574843 0.852058 2.024198 -0.000030 0.017025 -1164640.000000 0 0 1
20.926152 22.588866 -14.089297 33.862501 0.823590 1.999920 0.005016 0.015855 -506935.000000 0 0 1
21.851052 23.213566 -13.250097 34.523950 0.815624 1.964698 0.001134 0.013882 890137.000000 0 0 1
23.335152 23.164266 -13.791697 35.655622 0.781723 1.967958 0.012943 0.004602 317944.000000 0 0 1
23.515352 23.841866 -15.003897 36.695003 0.792293 1.992024 0.010990 0.012281 -534602.000000 0 0 1
24.701852 24.580566 -15.090797 37.975227 0.782937 1.979462 0.005069 0.001280 -419944.000000 0 0 1
24.948852 25.014066 -16.565997 39.020263 0.786703 2.009260 0.005934 0.011438 -215428.000000 0 0 1
25.429852 23.980766 -17.378897 39.035632 0.756079 2.032201 -0.002771 0.004835 171910.000000 0 0 1
25.659652 24.501266 -18.679997 40.095786 0.762309 2.055430 0.006116 0.012320 -693933.000000 0 0 1
26.126052 23.408766 -19.663497 40.214351 0.730597 2.081702 -0.000610 0.006741 -8613.850000 0 0 1
27.520252 23.170666 -19.731997 41.031643 0.699802 2.072474 0.004178 0.004241 54876.200000 0 0 1
27.780252 22.275566 -20.818997 41.247713 0.675867 2.099867 -0.003569 0.002585 -526327.000000 0 0 1
29.247752 22.197766 -21.195197 42.395851 0.649209 2.094321 0.012178 0.000892 -835006.000000 0 0 1
29.636952 23.239966 -22.067597 43.651160 0.665004 2.100809 0.001168 0.003483 -1171950.000000 0 0 1
31.005352 23.338966 -22.009697 44.614638 0.645252 2.086709 0.003618 0.000434 -872072.000000 0 0 1
31.719652 24.649266 -22.553697 46.069424 0.660619 2.082380 0.001865 -0.002641 151210.000000 0 0 1
31.694952 24.918866 -23.985597 46.912991 0.666275 2.107468 0.002914 0.002856 743275.000000 0 0 1
30.405952 25.079266 -24.610497 46.466849 0.689690 2.128967 -0.001781 0.004477 436948.000000 0 0 1
30.377352 25.466966 -26.076937 47.448461 0.697694 2.152663 0.005085 0.002772 -293157.000000 0 0 1
30.555452 26.873866 -26.356187 48.481841 0.721379 2.145552 0.007373 0.004756 21311.200000 0 0 1
29.488152 27.515266 -27.039837 48.557118 0.750802 2.161405 0.013891 0.009079 175247.000000 0 0 1
29.152252 27.141866 -28.513427 48.985203 0.749701 2.192084 0.004312 0.011872 -308790.000000 0 0 1
28.398152 25.990066 -28.603977 47.959629 0.741151 2.209827 0.009345 0.002832 -177060.000000 0 0 1
28.245152 25.567866 -29.948877 48.460701 0.735688 2.236997 0.009970 -0.003677 -389606.000000 0 0 1
27.473652 24.252266 -30.264717 47.528171 0.723200 2.261104 0.008458 -0.004152 401251.000000 0 0 1
26.124152 24.290966 -29.831147 46.501824 0.749052 2.267255 0.004637 -0.002020 116016.000000 0 0 1
25.411352 23.080666 -30.009947 45.596610 0.737372 2.289171 0.012696 -0.008555 -871237.000000 0 0 1
24.086952 23.216966 -29.319237 44.484001 0.767009 2.290413 0.005702 -0.000410 -1100230.000000 0 0 1
24.183652 23.147366 -27.901817 43.579364 0.763507 2.265624 0.008195 0.007738 -516799.000000 0 0 1
22.963652 23.319766 -27.264127 42.596636 0.793092 2.265364 0.004442 0.002238 -815791.000000 0 0 1
22.999052 23.385266 -25.725507 41.684874 0.793724 2.235902 0.007984 0.009351 -126923.000000 0 0 1
23.443052 22.159466 -25.138297 40.896853 0.757258 2.232771 -0.001585 0.002295 212598.000000 0 0 1
23.788352 22.296066 -23.789997 40.360428 0.753028 2.201160 -0.001627 0.003207 -342768.000000 0 0 1
24.324752 21.060166 -23.175697 39.652705 0.713591 2.195019 0.013068 0.008404 -772104.000000 0 0 1
25.581452 20.706966 -23.648897 40.527268 0.680478 2.193866 -0.013235 0.012670 -679281.000000 0 0 1
25.901852 19.466366 -23.059297 39.769039 0.644488 2.189317 0.015279 0.003861 -717958.000000 0 0 1
27.185752 18.825866 -23.520297 40.579338 0.605668 2.189050 0.023594 -0.001673 -1091550.000000 0 0 1
28.328652 19.109166 -22.781097 41.068858 0.593442 2.158805 0.024531 -0.010232 -548617.000000 0 0 1
29.452352 18.501766 -23.374197 41.905959 0.560892 2.162502 0.001701 -0.003883 705647.000000 0 0 1
30.733552 18.491166 -22.444397 42.311055 0.541640 2.129942 0.008419 0.003876 713479.000000 0 0 1
31.346952 19.749866 -22.290897 43.238555 0.562216 2.112426 -0.010712 0.000452 21193.300000 0 0 1
32.532452 19.650366 -21.523697 43.677990 0.543373 2.086080 -0.016191 -0.001009 -203238.000000 0 0 1
32.463852 20.658766 -20.338797 43.524165 0.566728 2.057029 -0.006300 -0.006092 -130592.000000 0 0 1
31.622652 20.327966 -19.233097 42.227128 0.571318 2.043694 -0.000694 -0.003980 461250.000000 0 0 1
31.706752 21.308566 -18.192497 42.312410 0.591721 2.015241 -0.012860 -0.002668 -171936.000000 0 0 1
30.843152 20.932166 -16.969697 40.956394 0.596263 1.998009 0.007490 -0.014858 -477801.000000 0 0 1
31.292552 19.865366 -16.181197 40.443636 0.565635 1.982414 0.007157 -0.018970 256732.000000 0 0 1
30.828552 19.903566 -14.818197 39.574367 0.573291 1.954588 0.010630 -0.021933 -93723.400000 0 0 1
31.567852 18.766366 -14.041797 39.317653 0.536349 1.935998 0.009949 -0.021195 -467153.000000 0 0 1
32.984352 18.919466 -14.144397 40.570650 0.520773 1.926912 0.010482 -0.027010 152622.000000 0 0 1
33.571052 17.775866 -13.598497 40.347441 0.486968 1.914562 0.008238 -0.010240 -280466.000000 0 0 1
33.705552 17.827166 -12.068497 39.994008 0.486506 1.877332 0.015214 -0.016297 -763018.000000 0 0 1
34.577352 18.862366 -11.635197 41.070183 0.499391 1.858030 0.006711 -0.022258 -121883.000000 0 0 1
34.369352 19.173166 -10.248597 40.668125 0.508855 1.825549 -0.001379 -0.019182 -462219.000000 0 0 1
33.263452 20.176966 -9.944397 40.155425 0.545244 1.821048 -0.004039 -0.018033 -609382.000000 0 0 1
31.998052 19.749766 -10.331197 38.995669 0.552984 1.838930 0.021102 -0.028690 -852508.000000 0 0 1
30.950052 20.673566 -10.122897 38.571687 0.588901 1.836350 -0.001936 -0.012346 -400225.000000 0 0 1
29.603252 20.017566 -10.324897 37.197566 0.594570 1.852059 -0.016284 -0.009122 -766296.000000 0 0 1
29.369552 19.757666 -11.694197 37.278548 0.592186 1.889881 -0.002451 -0.020894 76608.800000 0 0 1
28.093052 19.129966 -11.756897 35.963867 0.597826 1.903827 -0.003168 -0.019762 -271.813000 0 0 1
27.755052 18.492366 -13.114197 35.837029 0.587728 1.945439 0.009414 -0.013280 -849186.000000 0 0 1
28.624652 17.502966 -13.579497 36.195680 0.548807 1.955375 0.015126 -0.010336 -204231.000000 0 0 1
28.183352 16.872366 -14.743897 36.005007 0.539437 1.992698 0.012962 -0.003003 -239608.000000 0 0 1
29.420352 16.345666 -15.482897 37.046700 0.507125 2.001961 0.011226 -0.012474 -112538.000000 0 0 1
30.228552 15.434866 -14.760097 37.011632 0.472096 1.981000 0.003170 -0.011211 -489565.000000 0 0 1
31.414352 15.304466 -15.478797 38.218861 0.453340 1.987780 0.001440 -0.009991 -1067840.000000 0 0 1
32.285652 14.259466 -14.842097 38.288164 0.415902 1.968868 -0.001756 -0.010843 -810103.000000 0 0 1
32.909052 14.646766 -13.653497 38.522090 0.418745 1.933104 0.003921 -0.007334 -115859.000000 0 0 1
33.442052 13.552166 -12.949297 38.336879 0.385018 1.915350 0.002625 -0.001327 -225641.000000 0 0 1
34.460152 14.010166 -11.888197 39.052734 0.386150 1.880119 0.016905 -0.002732 -321378.000000 0 0 1
-34.120110 14.389866 -12.452997 39.068239 -0.399107 1.895207 -0.002857 -0.008564 -568388.000000 0 0 1
-33.215710 14.634566 -11.387097 38.041029 -0.415002 1.874794 -0.014009 -0.008384 -428207.000000 0 0 1
-31.797310 15.012066 -11.955997 37.139964 -0.441094 1.898550 -0.003862 -0.014377 515394.000000 0 0 1
-30.960110 13.969766 -12.405197 36.160360 -0.423867 1.920970 -0.016440 -0.014424 -3352.330000 0 0 1
-30.646010 13.046466 -11.406897 35.206611 -0.402476 1.900749 -0.004758 -0.000381 -1324970.000000 0 0 1
-29.592510 11.998566 -11.829997 34.053356 -0.385204 1.925589 0.001386 -0.000538 -372439.000000 0 0 1
-29.865010 11.216266 -12.999397 34.448625 -0.359266 1.957736 -0.009227 0.002030 151002.000000 0 0 1
-29.098410 10.011166 -12.945097 33.384374 -0.331360 1.968996 -0.001740 -0.007922 -339865.000000 0 0 1
-29.018010 9.339766 -14.352297 33.693687 -0.311390 2.010823 0.000373 -0.009926 208917.000000 0 0 1
-30.281310 8.922366 -14.867397 34.894209 -0.286541 2.010941 -0.020982 0.001057 598448.000000 0 0 1
-30.125310 8.150266 -16.056697 35.096704 -0.264220 2.045977 -0.008524 -0.005203 22105.900000 0 0 1
-31.441710 7.652266 -16.706597 36.417697 -0.238738 2.047384 -0.014098 -0.003455 294032.000000 0 0 1
-32.180810 6.690866 -15.948997 36.534131 -0.204994 2.022557 -0.005311 -0.001334 -148316.000000 0 0 1
-33.195310 6.030766 -16.610197 37.605816 -0.179715 2.028280 -0.014979 -0.001906 -752507.000000 0 0 1
-34.025310 5.226666 -15.603497 37.795620 -0.152420 1.996365 -0.020055 0.006366 -188312.000000 0 0 1
34.834752 4.345566 -16.191297 38.658789 0.124107 2.002948 -0.007594 0.002747 -312920.000000 0 0 1
33.878452 4.074266 -15.221697 37.363742 0.119686 1.990393 -0.004029 0.008277 -975723.000000 0 0 1
32.953752 2.970066 -15.594897 36.578298 0.089885 2.011242 0.004025 0.006189 -1089580.000000 0 0 1
33.561852 1.673066 -15.678297 37.081074 0.049809 2.007342 0.014240 -0.001173 -55239.600000 0 0 1
32.754152 0.509766 -15.576397 36.272834 0.015562 2.014650 0.022033 -0.001471 -298596.000000 0 0 1
32.276952 0.136366 -14.144897 35.240578 0.004225 1.983820 0.023488 -0.004733 -99112.600000 0 0 1
33.326152 -0.115634 -13.224597 35.854368 -0.003470 1.948559 0.016252 -0.003907 214063.000000 0 0 1
32.870352 -0.222034 -11.868597 34.948146 -0.006755 1.917294 0.020374 0.003083 -357516.000000 0 0 1
32.992652 1.148666 -11.136397 34.840405 0.034802 1.896146 0.019981 0.006824 -123274.000000 0 0 1
32.116752 2.168966 -11.613097 34.220669 0.067431 1.917032 0.011717 0.012831 421105.000000 0 0 1
32.344352 3.437866 -11.029097 34.345553 0.105892 1.897710 0.007125 0.011852 -42268.700000 0 0 1
31.384752 4.548866 -11.584897 33.762474 0.143936 1.921043 0.006058 0.009708 288176.000000 0 0 1
31.529752 4.915966 -12.985097 34.451483 0.154670 1.957254 0.000201 0.007402 391329.000000 0 0 1
30.417852 5.720466 -13.311497 33.692215 0.185892 1.976963 0.004460 0.001736 -111635.000000 0 0 1
30.612852 6.406566 -14.681597 34.550544 0.206300 2.009682 -0.016215 0.009804 -479862.000000 0 0 1
30.441952 5.620466 -15.842897 34.774983 0.182573 2.043824 -0.011950 0.010447 199553.000000 0 0 1
30.678852 6.283966 -17.132697 35.696071 0.202036 2.071406 -0.011714 0.007769 -398866.000000 0 0 1
29.618452 7.334366 -17.596497 35.223320 0.242745 2.093898 0.005040 0.005796 729701.000000 0 0 1
28.424252 6.795366 -18.166797 34.411446 0.234665 2.126956 -0.000071 0.001852 1060780.000000 0 0 1
27.422652 6.232266 -17.295797 33.014960 0.223471 2.122193 -0.006127 0.008464 651980.000000 0 0 1
26.032752 6.098366 -18.017397 32.241601 0.230108 2.163764 -0.013410 0.003645 497926.000000 0 0 1
26.139752 5.247166 -19.131197 32.814967 0.198102 2.193215 -0.007774 -0.000208 808849.000000 0 0 1
24.984852 5.435066 -19.980197 32.449823 0.214197 2.234103 -0.018017 -0.001758 624932.000000 0 0 1
24.660852 4.174966 -20.792997 32.525938 0.167705 2.264351 -0.006941 0.014239 -309128.000000 0 0 1
24.146652 3.122866 -19.966497 31.487681 0.128615 2.257647 -0.001794 -0.001763 286396.000000 0 0 1
23.827452 1.950266 -20.673597 31.606148 0.081667 2.283789 -0.013570 -0.000237 -1248650.000000 0 0 1
22.885652 1.050866 -19.956997 30.383204 0.045886 2.287421 -0.013044 -0.009519 -1027720.000000 0 0 1
21.643752 1.570066 -19.585397 29.231915 0.072414 2.305006 -0.005457 -0.009615 -59037.500000 0 0 1
20.765552 0.541466 -19.151297 28.253734 0.026069 2.315607 -0.007960 -0.005324 -53624.200000 0 0 1
19.366952 1.027966 -18.728397 26.960868 0.053029 2.338731 -0.004116 -0.008703 -1006630.000000 0 0 1
18.642652 1.379766 -19.866997 27.279109 0.073877 2.386614 0.004776 -0.015237 685417.000000 0 0 1
17.525252 2.280066 -19.679597 26.450325 0.129375 2.409865 0.001500 -0.017881 902926.000000 0 0 1
16.254852 1.779566 -18.987397 25.058098 0.109045 2.430631 -0.000034 -0.018211 -864746.000000 0 0 1
16.427352 1.596666 -17.572097 24.107796 0.096891 2.387506 -0.012108 -0.021502 769647.000000 0 1 0
15.174552 1.751366 -16.878997 22.764772 0.114906 2.406029 -0.025406 -0.016690 325556.000000 0 1 0
14.709152 3.171166 -16.495397 22.327417 0.212341 2.402078 -0.003659 -0.014156 -355107.000000 0 1 0
14.329352 3.947666 -17.599197 23.035757 0.268826 2.440278 0.010538 -0.004026 745574.000000 0 1 0
13.217252 4.809666 -17.312597 22.305933 0.348998 2.459322 0.030403 -0.019942 223977.000000 0 1 0
-19.108748 -22.204934 -17.291697 34.017733 0.860202 2.104022 0.017497 -0.004715 -19525.800000 0 0 1
-18.982648 -22.813734 -18.564697 35.006505 0.876803 2.129776 0.033063 -0.003929 325381.000000 0 0 1
-20.052548 -22.464334 -19.410597 35.826279 0.842063 2.143371 0.031477 0.005552 -93650.000000 0 0 1
-19.922348 -23.226334 -20.780197 36.988906 0.861821 2.167351 0.036635 0.013040 8668.890000 0 0 1
-19.682048 -24.598634 -20.654097 37.670513 0.895978 2.151106 0.028664 0.011700 569507.000000 0 0 1
-19.242948 -25.256204 -21.907497 38.575968 0.919716 2.174755 0.030165 0.005770 91222.700000 0 0 1
-19.030648 -26.795354 -21.814697 39.446642 0.953243 2.156778 0.031651 0.018492 52081.900000 0 0 1
-20.214548 -27.533754 -22.043497 40.652815 0.937501 2.143895 0.024156 0.018915 129030.000000 0 0 1
-19.978348 -28.925164 -21.905597 41.420462 0.966345 2.128052 0.044097 0.005671 -630688.000000 0 0 1
-21.181448 -29.745964 -22.296197 42.785471 0.952010 2.118954 0.031928 0.008211 -663935.000000 0 0 1
-21.577348 -29.494424 -23.668597 43.539700 0.939193 2.145528 0.018667 0.006531 207956.000000 0 0 1
-20.893648 -30.254114 -24.655697 44.269169 0.966403 2.161505 0.017209 0.000755 -283850.000000 0 0 1
-21.398348 -29.967424 -26.065907 45.115045 0.950701 2.186784 0.013974 0.002439 1273130.000000 0 0 1
-22.826348 -30.226774 -26.235297 46.075925 0.923995 2.176563 0.009436 0.000947 1737770.000000 0 0 1
-23.458048 -29.418674 -27.208477 46.433174 0.897651 2.196874 0.011172 0.011196 -178767.000000 0 0 1
-22.997248 -29.671314 -28.671147 47.236585 0.911445 2.223038 0.017472 -0.007279 -812850.000000 0 0 1
-23.393548 -30.934684 -29.209507 48.553147 0.923324 2.216297 0.002737 -0.001556 90167.800000 0 0 1
-23.060148 -31.026214 -30.582827 49.292045 0.931631 2.240102 0.027124 -0.005132 -122087.000000 0 0 1
-23.607748 -32.265384 -31.324797 50.789996 0.939127 2.235405 0.006959 -0.005394 188509.000000 0 0 1
-22.938348 -33.484814 -31.001007 51.073115 0.970183 2.223067 0.009246 -0.013235 195456.000000 0 0 1
-23.799848 -34.537847 -31.371707 52.378237 0.967427 2.212980 0.007433 -0.007479 -42733.400000 0 0 1
-23.235148 33.509261 -31.227607 51.360550 -0.964517 2.224345 0.010089 -0.007274 -200677.000000 0 0 1
-22.274448 33.359932 -32.231947 51.458085 -0.982078 2.247688 0.009020 -0.011475 -831833.000000 0 0 1
-21.544348 32.230932 -32.008277 50.274464 -0.981569 2.260969 0.003364 0.004017 109712.000000 0 0 1
-20.305648 32.079282 -32.971147 50.284154 -1.006477 2.285901 0.003605 0.004834 534401.000000 0 0 1
-20.710548 31.758982 -34.296152 51.125197 -0.992935 2.306119 0.010597 0.002409 117889.000000 0 0 1
-20.295248 30.527772 34.490089 50.332973 -0.984078 0.815865 -0.002127 0.008870 -187994.000000 0 0 1
-20.508648 30.304282 33.001449 49.275245 -0.975840 0.836942 -0.000685 0.009878 -8669.580000 0 0 1
-19.682648 31.110232 32.184029 48.898516 -1.006697 0.852397 -0.007665 0.011815 319036.000000 0 0 1
-19.926948 30.890222 30.820699 47.970872 -0.997881 0.873056 0.001604 0.012343 -132561.000000 0 0 1
-19.236448 31.948772 29.947629 47.829127 -1.028832 0.894206 -0.010851 0.011413 308787.000000 0 0 1
-20.008248 33.168162 30.074889 49.040350 -1.028000 0.910605 -0.002363 0.009465 642070.000000 0 0 1
-19.388148 34.296586 29.475159 49.203060 -1.056276 0.928481 -0.020536 0.004599 517284.000000 0 0 1
-20.336248 -33.961604 29.671049 49.470443 1.031259 0.927579 -0.016772 -0.001548 469138.000000 0 0 1
-20.264748 -33.446714 30.979489 49.890595 1.026063 0.900844 -0.008965 -0.001743 -545156.000000 0 0 1
-21.196648 -32.501414 31.347419 49.882868 0.992893 0.891275 0.014448 -0.009985 -657752.000000 0 0 1
-20.882348 -31.042854 30.884769 48.513918 0.978632 0.880693 0.013567 -0.006068 -180124.000000 0 0 1
-20.939648 -30.895834 29.449049 47.542275 0.975160 0.902782 0.013111 0.000752 3755.990000 0 0 1
-20.829048 -29.522734 29.131289 46.411993 0.956371 0.892243 0.019138 -0.002830 -202668.000000 0 0 1
-22.165648 -28.902664 28.689619 46.365657 0.916562 0.903622 0.016543 0.002089 -49886.900000 0 0 1
-23.253548 -28.980194 29.612939 47.513212 0.894597 0.897896 0.014885 0.004461 770719.000000 0 0 1
-24.192448 -30.050774 29.567959 48.606458 0.892982 0.916862 0.001914 0.003014 337458.000000 0 0 1
-25.271398 -29.884564 28.431219 48.374218 0.868843 0.942540 -0.015268 0.015500 1128.270000 0 0 1
-24.732748 -29.750094 27.121039 47.247515 0.877230 0.959389 -0.009095 0.013835 166996.000000 0 0 1
-25.682638 -30.303124 26.217349 47.594397 0.867741 0.987415 -0.016312 0.018105 238452.000000 0 0 1
-25.121818 -30.602024 24.784989 46.710655 0.883429 1.011480 -0.018578 0.000462 -405767.000000 0 0 1
-25.025148 -29.462214 23.963499 45.481088 0.866652 1.015860 -0.027165 0.005030 43863.800000 0 0 1
-24.875548 -29.724614 22.595399 44.865328 0.873976 1.043004 -0.002054 -0.000522 12386.400000 0 0 1
-23.528748 -30.367084 22.159599 44.348727 0.911604 1.047582 -0.023143 -0.000673 -232077.000000 0 0 1
-23.263448 -31.685534 22.536199 45.310500 0.937486 1.050229 -0.020544 -0.008961 725151.000000 0 0 1
-22.010848 -32.143724 22.001399 44.741010 0.970370 1.056698 -0.018746 0.006809 350581.000000 0 0 1
-21.259148 -33.187084 22.864599 45.564502 1.001068 1.045109 -0.006983 0.002022 -212912.000000 0 0 1
-20.759948 -32.487604 23.979899 45.403254 1.002185 1.014371 -0.005290 -0.000628 202434.000000 0 0 1
-19.840248 -33.285064 24.703129 45.954059 1.033271 1.003254 -0.003840 -0.000956 -93783.100000 0 0 1
-19.033848 -32.581584 25.821789 45.723208 1.042083 0.970676 0.013376 -0.003356 -871082.000000 0 0 1
-18.156448 -31.599584 25.335199 44.385388 1.049279 0.963316 0.021181 -0.003221 -52130.200000 0 0 1
-17.694048 -30.802184 26.417449 44.268900 1.049382 0.931352 0.021026 0.001066 156650.000000 0 0 1
-16.542248 -31.314794 27.336019 44.738353 1.084800 0.913448 0.008809 -0.007606 -401816.000000 0 0 1
-16.881448 -32.525864 28.029269 46.136266 1.092052 0.917846 -0.000579 0.000567 156762.000000 0 0 1
-16.125248 -32.807604 29.225479 46.802683 1.113964 0.896382 0.002347 -0.001960 -221628.000000 0 0 1
-16.625648 -32.217534 30.520099 47.390486 1.094396 0.871064 0.011159 0.000684 -116780.000000 0 0 1
-16.237348 -30.853354 30.640229 46.415564 1.086350 0.849807 0.013808 -0.004203 311360.000000 0 0 1
-16.651548 -30.297394 31.913419 47.049681 1.068258 0.825361 0.018188 0.007072 13415.800000 0 0 1
-16.381748 -28.772354 31.958449 46.016872 1.053213 0.803080 0.021791 -0.004165 -27811.000000 0 0 1
-17.149648 -27.858164 31.166669 45.183504 1.018981 0.809611 0.029207 -0.008982 205751.000000 0 0 1
-17.104848 -28.025624 29.794039 44.336173 1.022817 0.833886 0.022270 -0.006051 -567015.000000 0 0 1
-15.827848 -27.669244 29.036349 43.118643 1.051191 0.831990 0.017483 -0.001808 -415804.000000 0 0 1
-15.685948 -26.272804 28.910119 42.096368 1.032555 0.813774 0.020402 0.000650 417710.000000 0 0 1
-14.523548 -25.978774 28.143569 40.962063 1.061028 0.813355 0.024297 0.002450 47868.800000 0 0 1
-14.606248 -24.605734 27.407819 39.622887 1.035087 0.806933 0.025777 0.008951 -638301.000000 0 0 1
-15.523948 -24.730134 26.341449 39.324858 1.010233 0.836800 0.045561 0.000006 184491.000000 0 0 1
-15.592648 -23.590934 25.553109 38.113308 0.986755 0.835980 0.022821 0.005059 -74449.700000 0 0 1
-16.249448 -22.316034 26.149569 38.024333 0.941426 0.812472 0.022324 0.006668 -811239.000000 0 0 1
-16.070148 -21.208434 25.307649 36.722261 0.922370 0.810462 0.016500 0.013104 332921.000000 0 0 1
-16.606748 -20.004434 25.896529 36.695935 0.877938 0.787378 0.016633 0.014869 -18298.100000 0 0 1
-16.406948 -18.752334 24.992529 35.291139 0.852007 0.783877 0.008742 0.005830 408763.000000 0 0 1
-15.050048 -18.359134 24.822049 34.346701 0.884123 0.763109 0.016297 0.003739 176308.000000 0 0 1
-15.007848 -17.105834 24.135899 33.172077 0.850635 0.755984 0.019256 0.006966 45416.800000 0 0 1
-13.590248 -16.516634 24.229599 32.319770 0.882294 0.723213 0.041757 0.001813 -161232.000000 0 0 1
-12.643148 -16.959634 23.316899 31.482633 0.930191 0.736793 0.018193 0.004211 665129.000000 0 0 1
-11.330748 -16.442634 23.664799 30.963992 0.967418 0.700890 0.030328 -0.004885 1587890.000000 0 0 1
-10.501448 -15.863234 22.396799 29.386038 0.986032 0.704157 0.042019 -0.003057 508948.000000 0 0 1
-10.140548 -16.812634 21.465499 29.090600 1.028064 0.740866 0.042046 0.000519 12288.400000 0 0 1
-8.751248 -17.096734 21.593199 28.898943 1.097701 0.726962 0.041609 0.001094 92523.100000 0 0 1
-8.277448 -18.296834 20.754499 28.879742 1.145950 0.768934 0.040034 0.001104 -80691.500000 0 0 1
-8.230448 -18.091934 19.381499 27.761500 1.143855 0.797996 0.036737 0.002346 -39405.000000 0 0 1
-7.585648 -19.262734 18.860899 28.005865 1.195647 0.831914 0.035537 -0.001430 328099.000000 0 0 1
-7.411148 -19.136934 17.326899 26.858310 1.201313 0.869613 0.010271 -0.005073 452425.000000 0 0 1
-6.316148 -18.292434 16.984699 25.748532 1.238326 0.850460 0.005358 0.001558 66640.700000 0 0 1
-6.056348 -18.327334 15.593799 24.814050 1.251639 0.891268 0.004509 0.000879 455312.000000 0 1 0
-5.150048 -17.151734 15.140199 23.450599 1.279097 0.868960 -0.009803 0.002192 422871.000000 0 1 0
-5.814548 -15.931834 15.505799 22.979602 1.220853 0.830152 0.001185 0.000095 312628.000000 0 1 0
-4.948248 -14.845734 15.302999 21.887502 1.249066 0.796566 -0.009657 -0.004365 -1352150.000000 0 1 0
-5.077348 -13.836634 16.414699 22.060695 1.219102 0.731655 -0.027181 0.002543 -435590.000000 0 1 0
-4.564948 -14.241234 17.676699 23.154205 1.260600 0.702184 -0.024309 0.008172 92759.700000 0 1 0
-5.329848 -15.023134 18.637799 24.524873 1.229873 0.707553 -0.000380 0.003971 286873.000000 0 1 0
-6.699148 -14.469834 19.163599 24.929866 1.137206 0.693989 0.044872 -0.006178 312592.000000 0 1 0
-6.468848 -13.493934 20.105899 25.063508 1.123773 0.639829 0.036001 -0.009690 -285060.000000 0 0 1
-7.644748 -13.059834 20.733699 25.668808 1.041209 0.630489 0.046973 -0.006482 -148386.000000 0 0 1
-7.435848 -12.078034 21.906799 26.097482 1.018949 0.574578 0.038996 0.002267 -104863.000000 0 0 1
-6.803348 -10.886834 21.415099 24.968283 1.012258 0.540032 0.013296 0.004650 210467.000000 0 1 0
-6.596148 -10.016134 22.535999 25.528481 0.988432 0.489052 0.017418 -0.004603 375326.000000 0 0 1
-5.213048 -10.129434 23.254599 25.895128 1.095503 0.455526 0.023970 0.011803 350535.000000 0 0 1
-5.079048 -11.323634 23.980199 27.001321 1.149161 0.477575 0.025277 0.016225 694572.000000 0 0 1
-3.797548 -11.393534 24.631489 27.403362 1.249069 0.453660 0.014346 0.022310 463122.000000 0 0 1
-3.694948 -12.681834 25.427429 28.653720 1.287287 0.479113 0.005677 0.020659 -416799.000000 0 0 1
-2.412048 -13.039934 25.886319 29.085381 1.387890 0.473426 -0.009616 0.020231 84586.400000 0 0 1
-2.487948 -14.068034 26.861079 30.423955 1.395755 0.488810 -0.012310 0.016268 -35850.300000 0 0 1
-2.532348 -15.488234 26.251869 30.585271 1.408729 0.538815 -0.011156 0.001347 -732782.000000 0 0 1
-1.369148 -15.982034 25.669739 30.269382 1.485337 0.558515 -0.018465 -0.000136 -433807.000000 0 0 1
-1.678948 -17.052034 24.755399 30.106818 1.472652 0.605439 -0.010940 0.006965 26835.000000 0 0 1
-0.509648 -18.084334 24.531039 30.480728 1.542622 0.635450 -0.014416 -0.002415 618133.000000 0 0 1
-0.089848 -18.745034 25.727489 31.832186 1.566003 0.629669 -0.012849 -0.008088 310217.000000 0 0 1
0.647252 -18.019734 26.706449 32.223659 -1.534893 0.593865 0.000291 -0.001253 -469353.000000 0 0 1
0.880352 -18.672934 28.094699 33.745601 -1.523685 0.587112 -0.002527 0.003021 -962973.000000 0 0 1
2.042652 -19.454734 28.044429 34.192822 -1.466185 0.609063 -0.006629 -0.009817 108075.000000 0 0 1
2.655752 -19.616634 29.365009 35.414250 -1.436232 0.593146 -0.001043 -0.008392 -160605.000000 0 0 1
3.604452 -18.519334 29.763009 35.239105 -1.378568 0.564975 0.027079 -0.000705 -670988.000000 0 0 1
2.987252 -17.237034 29.962349 34.695553 -1.399196 0.528471 0.004081 -0.006521 239609.000000 0 0 1
3.968752 -16.439934 30.593459 34.956861 -1.333919 0.504994 0.005460 -0.022968 87739.800000 0 0 1
3.346752 -15.238934 31.346409 35.014614 -1.354610 0.461832 0.001961 -0.011458 -62883.600000 0 0 1
2.629752 -15.667934 32.487639 36.164160 -1.404503 0.454825 -0.000428 -0.018235 -64399.200000 0 0 1
2.134452 -14.551034 33.211981 36.322502 -1.425148 0.416862 -0.008921 0.006989 210399.000000 0 0 1
1.103952 -14.965934 34.304767 37.443490 -1.497165 0.412368 -0.023134 0.007509 456741.000000 0 0 1
1.771452 -15.273434 -33.733387 37.072324 -1.455330 2.713922 -0.002670 0.000949 208777.000000 0 0 1
0.844752 -15.551734 -32.708857 36.227605 -1.516531 2.697198 -0.017356 -0.001429 484697.000000 0 0 1
1.690352 -15.750634 -31.399047 35.168735 -1.463886 2.674345 0.003014 -0.000506 512653.000000 0 0 1
1.090252 -16.620234 -30.469327 34.724641 -1.505292 2.641328 0.001970 -0.001220 -208843.000000 0 0 1
1.612452 -16.441534 -29.189077 33.539920 -1.473037 2.626564 0.011401 -0.002370 -219833.000000 0 0 1
1.176152 -17.504634 -28.216817 33.226259 -1.503706 2.585326 0.016016 -0.001884 -31747.800000 0 0 1
1.847552 -18.727334 -28.538357 34.184270 -1.472459 2.558636 0.023899 -0.005493 414045.000000 0 0 1
1.590952 -19.668534 -27.467057 33.820431 -1.490084 2.518614 0.030048 -0.005965 -891058.000000 0 0 1
2.143752 -21.072634 -27.844667 34.985384 -1.469414 2.491280 0.025673 -0.008575 914960.000000 0 0 1
3.557552 -21.351134 -27.755927 35.198275 -1.405692 2.479259 0.017141 -0.002126 1209300.000000 0 0 1
4.149952 -21.150834 -26.437307 34.110278 -1.377050 2.457597 0.025862 -0.011677 -493787.000000 0 0 1
5.521852 -21.837734 -26.267917 34.603193 -1.323129 2.432754 0.018089 -0.007547 -233510.000000 0 0 1
5.537552 -23.253534 -26.126297 35.411506 -1.337013 2.400589 0.012510 -0.003209 7231.210000 0 0 1
5.238252 -23.941834 -27.319497 36.701575 -1.355400 2.410385 0.004106 0.000048 -330465.000000 0 0 1
4.692952 -25.366254 -27.130447 37.437038 -1.387857 2.381388 0.023517 0.006081 -318434.000000 0 0 1
5.584152 -26.262424 -26.517317 37.736796 -1.361288 2.349969 0.019341 0.006359 -219510.000000 0 0 1
5.163252 -27.629634 -26.571687 38.679586 -1.386053 2.328106 0.020202 0.007139 -102124.000000 0 0 1
5.843652 -28.653354 -25.604197 38.868212 -1.369612 2.289944 0.018432 0.006831 21838.600000 0 0 1
7.178152 -28.959524 -25.950287 39.542348 -1.327825 2.286655 0.012337 0.005341 -115488.000000 0 0 1
7.541852 -30.096634 -25.191767 39.966386 -1.325264 2.252767 0.022350 -0.002187 137708.000000 0 0 1
9.017252 -30.511604 -25.445047 40.739652 -1.283441 2.245386 0.030967 -0.000711 249599.000000 0 0 1
9.209952 -30.801284 -26.764747 41.831734 -1.280246 2.265059 0.030744 0.004813 -442669.000000 0 0 1
10.565952 -30.643284 -27.063527 42.226588 -1.238757 2.266482 0.009880 0.009414 -227666.000000 0 0 1
10.684652 -30.690024 -28.582417 43.278100 -1.235773 2.292196 0.021527 0.001052 -33911.800000 0 0 1
10.414952 -31.966274 -29.171387 44.511613 -1.255831 2.285463 0.020489 -0.002198 161607.000000 0 0 1
10.732152 -31.923384 -30.551657 45.471808 -1.246482 2.307542 0.012090 0.025134 21404.900000 0 0 1
-33.841158 -4.843734 -5.506897 34.626748 0.142166 1.730510 0.038572 -0.001194 -258777.000000 0 0 1
-33.289148 -4.063434 -4.472597 33.833164 0.121464 1.703380 0.036637 -0.000305 717835.000000 0 0 1
-32.419318 -2.938834 -4.775597 32.900688 0.090404 1.716463 0.034015 -0.004868 -187341.000000 0 0 1
-33.074368 -1.722634 -5.436997 33.562512 0.052037 1.733509 0.049294 -0.005712 -379828.000000 0 0 1
-33.802078 -0.960934 -4.502097 34.114114 0.028421 1.703154 0.033121 0.005018 83045.400000 0 0 1
-34.450761 0.088066 -5.174597 34.837324 -0.002556 1.719884 0.021707 -0.004384 -351304.000000 0 0 1
34.576964 1.007166 -4.207597 34.846588 0.029120 1.691838 0.033094 -0.004263 -533579.000000 0 0 1
-34.481787 1.700666 -3.297397 34.680812 -0.049281 1.666019 0.014924 0.003057 202900.000000 0 0 1
34.451416 2.518066 -2.486297 34.632678 0.072961 1.642649 0.008847 0.000680 445977.000000 0 0 1
-34.700128 3.904366 -2.154697 34.985507 -0.112046 1.632424 -0.008654 -0.006233 -126573.000000 0 0 1
-34.618098 4.742566 -3.308297 35.097713 -0.136149 1.665196 -0.001792 -0.011623 206793.000000 0 0 1
-33.277498 4.899966 -3.718197 33.841196 -0.146195 1.680891 -0.008273 -0.001612 -197846.000000 0 0 1
-32.538628 6.174566 -3.220197 33.275475 -0.187531 1.667722 -0.006649 -0.005668 -329050.000000 0 0 1
-32.395258 6.222266 -1.811997 33.037141 -0.189762 1.625671 -0.005807 -0.016269 307149.000000 0 0 1
-32.136948 7.504366 -1.345397 33.028912 -0.229401 1.611542 0.002195 -0.022977 -182273.000000 0 0 1
-31.262888 7.563966 -0.047097 32.164949 -0.237385 1.572261 0.007435 -0.023681 -394076.000000 0 0 1
-29.899308 7.326266 -0.324797 30.785521 -0.240297 1.581347 0.021565 -0.032358 742270.000000 0 0 1
-28.953128 7.853866 0.646903 30.006421 -0.264887 1.549236 0.019619 -0.024438 560253.000000 0 0 1
-28.858008 9.410866 0.715603 30.362166 -0.315235 1.547225 0.022623 -0.017026 -786666.000000 0 0 1
-30.073498 9.937966 1.214303 31.696261 -0.319159 1.532476 0.019353 -0.020997 172373.000000 0 0 1
-30.016678 11.346166 1.378503 32.119102 -0.361394 1.527865 0.022559 -0.012495 852791.000000 0 0 1
-31.435948 12.034766 1.495703 33.694088 -0.365622 1.526391 0.021727 -0.015119 1040170.000000 0 0 1
-32.204358 12.123066 0.268803 34.411650 -0.360034 1.562985 0.018083 -0.005074 507885.000000 0 0 1
-33.501308 12.656266 0.370403 35.814186 -0.361209 1.560454 0.016102 0.008424 596983.000000 0 0 1
-34.615736 11.571866 0.636903 36.504286 -0.322616 1.553348 0.026652 -0.015715 104496.000000 0 0 1
34.874119 10.807666 -0.466597 36.513388 0.300519 1.583575 0.026453 -0.004424 -212401.000000 0 0 1
33.850216 9.879666 -0.217097 35.263182 0.283976 1.576953 0.037526 -0.002240 170092.000000 0 0 1
33.742824 8.882266 -1.388697 34.919927 0.257395 1.610575 0.025388 -0.019381 50071.000000 0 0 1
33.316954 9.487766 -2.597497 34.738798 0.277429 1.645638 0.029073 -0.012344 181576.000000 0 0 1
33.014694 8.590866 -3.587297 34.302211 0.254568 1.675567 0.012333 -0.014150 123020.000000 0 0 1
32.275144 9.142466 -4.884197 33.898746 0.276035 1.715381 0.018244 -0.006934 1351400.000000 0 0 1
30.878944 9.454966 -4.651397 32.627305 0.297130 1.713845 0.031564 -0.007085 1351920.000000 0 0 1
30.360484 10.069266 -5.846997 32.516710 0.320241 1.751595 0.033160 -0.001433 1378130.000000 0 0 1
28.810224 10.431366 -5.775597 31.180120 0.347388 1.757106 0.036260 0.004356 898021.000000 0 0 1
27.967184 9.373366 -6.056697 30.111575 0.323390 1.773320 0.028626 0.011166 -97567.900000 0 0 1
26.645164 9.870666 -6.070497 29.055907 0.354775 1.781272 0.006621 0.015895 -233642.000000 0 0 1
25.572804 8.784066 -6.303997 27.764518 0.330866 1.799846 -0.005839 0.020519 -240992.000000 0 0 1
25.695134 8.183066 -7.570297 28.009139 0.308312 1.844480 0.004935 0.017744 250088.000000 0 0 1
24.870104 7.036366 -7.609197 26.943132 0.275719 1.857109 -0.008426 0.013622 -432630.000000 0 0 1
25.151934 6.124066 -8.808397 27.344319 0.238836 1.898774 0.000218 0.005466 -440237.000000 0 0 1
26.165754 5.187666 -8.561497 28.015313 0.195724 1.881365 0.010639 0.005157 359724.000000 0 0 1
26.384314 4.239866 -9.564197 28.382782 0.159334 1.914495 0.004441 0.006154 9094.400000 0 0 1
27.441994 3.135766 -9.226197 29.120761 0.113775 1.893177 0.017822 0.009654 -65646.600000 0 0 1
28.809624 3.520866 -9.312897 30.481485 0.121608 1.881287 0.035258 0.008261 1015120.000000 0 0 1
29.673714 2.945466 -8.325197 30.959876 0.098938 1.843050 0.040018 0.008577 169446.000000 0 0 1
29.747804 1.394366 -8.282097 30.910665 0.046839 1.842047 0.043272 0.003342 -451822.000000 0 0 1
28.628554 0.745866 -7.622197 29.635254 0.026047 1.830920 0.045363 0.000335 922308.000000 0 0 1
28.773264 -0.606934 -7.281697 29.686566 -0.021091 1.818611 0.036009 -0.006001 -178235.000000 0 0 1
28.532794 -1.779234 -8.348697 29.782322 -0.062277 1.854928 0.026735 0.000473 -11105.400000 0 0 1
29.605154 -1.821734 -9.288397 31.081476 -0.061457 1.874273 0.029126 -0.000852 633553.000000 0 0 1
29.415694 -2.853534 -10.163697 31.252623 -0.096705 1.902031 0.015496 -0.004516 -422130.000000 0 0 1
30.430244 -2.939634 -11.306897 32.595814 -0.096304 1.925041 0.017872 -0.006513 -216909.000000 0 0 1
31.726964 -3.359834 -10.916897 33.720429 -0.105505 1.900484 0.026329 -0.004266 14330.200000 0 0 1
32.390114 -3.849134 -12.023497 34.763483 -0.118282 1.923958 0.007464 -0.017698 -657105.000000 0 0 1
33.801091 -4.363834 -11.737797 36.046257 -0.128393 1.902476 -0.003560 -0.003881 -571278.000000 0 0 1
33.879982 -5.529434 -10.976897 36.040534 -0.161780 1.880284 -0.002114 -0.005481 -761516.000000 0 0 1
-34.609701 -5.813134 -10.668797 36.680338 0.166409 1.865921 0.000878 0.002850 -820561.000000 0 0 1
-34.558810 -7.051734 -9.760697 36.596578 0.201287 1.840775 0.005703 -0.004881 -134237.000000 0 0 1
34.567027 -6.951934 -8.520097 36.273968 -0.198467 1.807893 0.008990 0.000538 408098.000000 0 0 1
34.213205 -8.267834 -8.062297 36.109571 -0.237110 1.795967 0.006308 0.010473 -422776.000000 0 0 1
33.974841 -8.301234 -6.575197 35.586985 -0.239640 1.756628 0.015505 0.015034 77013.000000 0 0 1
-34.652563 -8.109434 -5.774597 36.054251 0.229884 1.731653 0.020912 0.014917 686965.000000 0 0 1
-34.679966 -8.730234 -4.527797 36.047441 0.246613 1.696736 0.028883 0.002921 -316143.000000 0 0 1
-34.380539 -10.225134 -4.477797 36.147275 0.289079 1.694992 0.026201 0.003083 -553828.000000 0 0 1
34.615282 -11.074334 -5.252297 36.721182 -0.309636 1.714320 0.012246 0.000082 254548.000000 0 0 1
-34.388268 -11.910234 -6.084497 36.897531 0.333416 1.736456 0.012364 0.002457 86916.200000 0 0 1
34.626952 -12.529034 -7.263097 37.533386 -0.347174 1.765535 0.010601 -0.003935 44726.600000 0 0 1
34.484833 -11.623134 -8.371297 37.341392 -0.325092 1.796901 0.013093 0.002150 247651.000000 0 0 1
33.847174 -12.211634 -9.503197 37.216474 -0.346252 1.829005 0.004859 0.005249 10314.800000 0 0 1
34.101389 -11.529134 -10.878197 37.605330 -0.326020 1.864263 -0.016081 -0.008002 -100170.000000 0 0 1
33.479904 -10.254334 -11.057897 36.719646 -0.297211 1.876688 -0.018125 -0.001103 456057.000000 0 0 1
33.760550 -9.766834 -12.358997 37.254672 -0.281609 1.908948 -0.015783 -0.008643 -359155.000000 0 0 1
32.883284 -8.514434 -12.695497 36.262675 -0.253365 1.928472 -0.013853 -0.003693 -328758.000000 0 0 1
32.981724 -8.097334 -14.002797 36.734714 -0.240748 1.961876 -0.013164 0.001291 684614.000000 0 0 1
32.029384 -7.048634 -14.137797 35.713330 -0.216615 1.977810 -0.013835 0.000012 5513.430000 0 0 1
32.212484 -6.257334 -15.472797 36.279550 -0.191862 2.011403 -0.010343 -0.005758 845626.000000 0 0 1
33.335724 -5.334634 -15.453497 37.128686 -0.158682 2.000074 0.006326 -0.003420 1023850.000000 0 0 1
32.959154 -4.137134 -16.022097 36.879931 -0.124870 2.020212 0.019957 -0.007493 66750.600000 0 0 1
34.142457 -3.166634 -16.202997 37.924557 -0.092483 2.012237 0.020962 -0.012274 141174.000000 0 0 1
-34.836077 -3.267334 -17.386697 39.070769 0.093518 2.031976 0.025420 -0.013766 1364420.000000 0 0 1
-33.581398 -2.553534 -17.305597 37.864423 0.075894 2.045462 0.014443 -0.006292 839106.000000 0 0 1
-33.670418 -0.986834 -17.003497 37.733139 0.029300 2.038262 0.001660 0.004585 -987423.000000 0 0 1
-34.030018 -0.151034 -18.071097 38.530890 0.004438 2.058958 0.005878 -0.000819 324286.000000 0 0 1
-33.777228 1.179866 -17.617297 38.113808 -0.034917 2.051303 -0.000764 -0.001912 -273952.000000 0 0 1
-34.078785 2.209766 -18.737197 38.952910 -0.064752 2.072616 -0.003429 -0.001467 -90387.400000 0 0 1
-33.101198 2.204266 -19.774697 38.621066 -0.066494 2.108329 0.006198 0.003390 544989.000000 0 0 1
-33.082118 3.516666 -20.404197 39.027231 -0.105903 2.120951 0.004953 0.007030 432635.000000 0 0 1
-32.008368 3.659866 -21.572797 38.772617 -0.113846 2.160834 0.002762 0.009909 1662250.000000 0 0 1
-30.654928 4.056366 -21.246497 37.517894 -0.131559 2.172810 0.006468 0.014674 1438700.000000 0 0 1
-29.913518 4.357466 -22.456597 37.657732 -0.144651 2.209723 0.012334 0.014895 -748851.000000 0 0 1
-28.523998 4.879666 -22.221897 36.486193 -0.169432 2.225658 0.002338 0.020457 -1051370.000000 0 0 1
-27.673988 3.861866 -21.807297 35.444630 -0.138653 2.233499 0.013198 0.027553 -270219.000000 0 0 1
-26.567388 4.217066 -21.021397 34.139550 -0.157418 2.234133 -0.006472 0.044941 -408498.000000 0 0 1
-25.817838 3.014866 -20.475997 33.089524 -0.116248 2.238018 0.005844 0.034559 -496802.000000 0 0 1
-26.547888 2.162066 -19.594197 33.066561 -0.081261 2.205040 0.017549 0.019042 88416.500000 0 0 1
-25.755008 1.393766 -18.715797 31.867602 -0.054064 2.198513 0.017531 0.019661 62455.200000 0 0 1
-24.940048 2.205566 -17.638597 30.626632 -0.088205 2.184530 0.020236 0.005014 896387.000000 0 0 1
-23.736348 2.840966 -18.105997 29.988538 -0.119122 2.219011 0.025646 0.002989 592826.000000 0 0 1
-23.047048 3.308666 -16.995197 28.826210 -0.142587 2.201328 0.022677 -0.007536 196600.000000 0 0 1
-21.897248 4.372466 -17.202197 28.187293 -0.197089 2.227213 0.033357 -0.010513 395924.000000 0 0 1
-20.715748 3.799566 -17.655697 27.482768 -0.181398 2.268459 0.051503 -0.015854 -21160.000000 0 0 1
-19.592048 4.658066 -17.711097 26.818443 -0.233419 2.292157 0.041321 -0.011355 364250.000000 0 0 1
-18.261548 4.104666 -18.249097 26.141193 -0.221096 2.343533 0.038873 -0.008593 47687.300000 0 0 1
-17.456748 3.381066 -17.320297 24.822617 -0.191314 2.343066 0.024448 -0.010658 234045.000000 0 1 0
-16.498048 2.579666 -17.971997 24.532283 -0.155106 2.392909 0.018771 -0.011262 -723974.000000 0 1 0
-16.528648 1.131066 -17.492197 24.092581 -0.068324 2.383343 0.003603 -0.009173 905668.000000 0 1 0
-17.541948 0.153966 -17.907197 25.068134 -0.008777 2.366478 0.016709 -0.011527 540997.000000 0 0 1
-18.877648 0.522366 -17.704097 25.885778 -0.027664 2.323934 0.018884 -0.014959 -472260.000000 0 0 1
-19.844848 -0.652534 -18.086297 26.858107 0.032870 2.309597 0.018043 -0.011914 -101218.000000 0 0 1
-19.854748 -1.808334 -17.261097 26.370942 0.090828 2.284383 0.003109 -0.017100 776269.000000 0 0 1
-20.812048 -2.784534 -17.728097 27.480546 0.133004 2.271969 0.024006 -0.008971 325562.000000 0 0 1
-20.922948 -4.039934 -16.808997 27.140987 0.190739 2.238675 0.027274 -0.010022 -164773.000000 0 0 1
-21.599648 -3.664034 -15.615297 26.903670 0.168034 2.190035 0.026720 -0.016983 492276.000000 0 0 1
-21.949348 -4.786034 -14.787897 26.895388 0.214689 2.152957 0.029683 -0.020904 -54912.900000 0 0 1
-22.325348 -4.269634 -13.395197 26.383371 0.188964 2.103325 0.018168 -0.008234 -954559.000000 0 0 1
-23.453048 -3.494234 -13.303997 27.189179 0.147901 2.082097 0.027150 -0.017126 -526166.000000 0 0 1
-23.665248 -3.117634 -11.976297 26.705717 0.130985 2.035832 0.018211 -0.012000 -48929.800000 0 0 1
-24.719648 -1.987734 -11.791297 27.459912 0.080238 2.014625 0.028236 -0.005060 -75936.600000 0 0 1
-24.859148 -1.691734 -10.415597 27.005997 0.067948 1.966738 0.020456 -0.004847 600949.000000 0 0 1
-25.606068 -0.477134 -10.372097 27.631120 0.018631 1.955600 0.022993 -0.007636 -297949.000000 0 0 1
-26.066478 -0.160134 -8.966297 27.565946 0.006143 1.902091 0.024385 0.001278 -256019.000000 0 0 1
-25.097808 0.490366 -8.159497 26.395413 -0.019536 1.885070 0.017276 -0.002978 561765.000000 0 0 1
-25.677328 0.992066 -7.003297 26.633729 -0.038617 1.836873 0.022736 0.001675 -239734.000000 0 0 1
-24.637448 1.350766 -5.917897 25.374198 -0.054771 1.806189 0.012813 0.001670 98889.300000 0 0 1
-23.904648 2.539966 -6.211697 24.828790 -0.105857 1.823664 0.009643 -0.002004 575854.000000 0 1 0
-22.787748 2.699566 -5.354797 23.563594 -0.117916 1.800048 0.007201 0.003324 352305.000000 0 1 0
-22.137148 4.121166 -5.453197 23.168398 -0.184058 1.808398 0.024864 0.001838 99061.200000 0 1 0
-22.984848 5.024766 -4.778797 24.008091 -0.215226 1.771184 0.040347 -0.001980 877701.000000 0 1 0
-22.528648 6.362266 -5.023497 23.942722 -0.275240 1.782180 0.058394 -0.006899 -379633.000000 0 1 0
-22.971048 7.374066 -3.914097 24.441073 -0.310624 1.731633 0.037046 -0.005499 -258038.000000 0 1 0
-22.316048 7.227366 -2.664997 23.608114 -0.313204 1.683922 0.033415 0.001756 1054460.000000 0 1 0
-20.964148 7.678766 -2.553397 22.471733 -0.351105 1.684669 0.038711 -0.002979 320470.000000 0 1 0
-20.815148 9.252066 -2.518397 22.917535 -0.418260 1.680908 0.057302 -0.004043 -507149.000000 0 1 0
-20.616048 9.861766 -3.752597 23.159401 -0.446181 1.733547 0.042333 -0.004911 1192280.000000 0 1 0
-19.794848 11.081066 -3.704997 22.985931 -0.510333 1.732688 0.040183 -0.006127 379455.000000 0 1 0
-19.520848 11.670966 -5.089097 23.306090 -0.538853 1.790929 0.036927 -0.009991 -72640.900000 0 1 0
-18.581748 11.021866 -5.936297 22.405412 -0.535372 1.838948 0.031871 -0.000207 220089.000000 0 1 0
-18.515148 11.646466 -7.203097 23.029014 -0.561487 1.888919 0.029356 0.003987 366687.000000 0 1 0
-17.117748 11.420466 -7.862497 22.028690 -0.588352 1.935766 0.024350 0.002034 39903.400000 0 1 0
-16.860848 10.072966 -8.214097 21.289063 -0.538518 1.966911 0.015936 0.006562 342125.000000 0 1 0
-17.736248 9.427066 -9.133097 22.064848 -0.488540 1.997553 0.017868 0.002891 -343749.000000 0 1 0
-17.995148 9.984466 -10.552797 23.127396 -0.506553 2.044618 0.033018 0.006044 -41697.500000 0 1 0
-16.881448 9.879866 -11.394997 22.637159 -0.529503 2.098297 0.023718 0.005239 113515.000000 0 1 0
-17.307148 10.453566 -12.625297 23.837209 -0.543358 2.128980 0.038406 0.003615 22994.200000 0 1 0
-16.270348 10.251266 -13.740997 23.635305 -0.562228 2.191215 0.024742 0.011080 57630.900000 0 1 0
-16.074148 8.926966 -14.273597 23.276695 -0.506950 2.230919 0.016437 0.004975 178188.000000 0 1 0
-15.635548 7.867366 -13.426297 22.059720 -0.466182 2.225134 0.001976 0.001208 -431815.000000 0 1 0
-15.469348 6.474166 -14.119797 21.922231 -0.396366 2.270624 0.000131 -0.007126 -375940.000000 0 1 0
-14.645048 6.426666 -15.280997 22.119863 -0.413525 2.333428 0.017060 0.000491 503128.000000 0 1 0
-14.617348 5.150266 -15.876097 22.186540 -0.338757 2.368241 0.009344 -0.007697 7499.340000 0 1 0
31.139084 -16.488534 28.568609 45.361655 -0.486978 0.889505 -0.021663 0.003581 -373676.000000 0 0 1
30.102734 -15.549134 28.644609 44.367373 -0.476788 0.868957 -0.018404 0.011277 59456.500000 0 0 1
29.174184 -15.556734 29.737869 44.468931 -0.489882 0.838292 -0.015686 0.002886 279255.000000 0 0 1
29.634254 -15.433834 31.267559 45.760818 -0.480157 0.818548 -0.020550 0.001906 -83802.700000 0 0 1
30.201324 -14.166634 31.568909 45.928308 -0.438602 0.812960 -0.023920 0.002374 -73779.000000 0 0 1
30.271614 -13.963034 32.978409 46.892562 -0.432177 0.790801 -0.028022 -0.000126 -149637.000000 0 0 1
30.553754 -12.540134 33.388340 46.963476 -0.389464 0.779959 -0.017485 0.001993 32758.800000 0 0 1
30.278604 -12.365434 -34.480947 47.525083 -0.387717 2.382603 -0.017735 -0.009127 87161.700000 0 0 1
30.620904 -11.089434 -33.992207 47.075316 -0.347460 2.377602 -0.007497 -0.007002 -327870.000000 0 0 1
30.354774 -10.887234 -32.474527 45.766134 -0.344374 2.359692 -0.002738 -0.009808 267865.000000 0 0 1
28.976424 -10.780534 -32.147507 44.601740 -0.356177 2.375706 0.014752 -0.012939 396790.000000 0 0 1
28.712864 -10.468434 -30.765467 43.365085 -0.349613 2.359517 0.006691 -0.007910 259194.000000 0 0 1
27.243604 -10.789234 -30.355237 42.190780 -0.377078 2.373843 0.011301 0.000426 338099.000000 0 0 1
27.021724 -10.629034 -28.984267 41.027279 -0.374762 2.355285 0.002841 -0.002868 -387090.000000 0 0 1
26.051154 -11.556934 -28.655377 40.414799 -0.417540 2.358921 0.016403 0.001271 -1017060.000000 0 0 1
25.645104 -11.518334 -27.145327 39.079562 -0.422142 2.338684 0.018255 -0.000803 -681500.000000 0 0 1
24.860734 -10.381934 -26.751307 37.966736 -0.395589 2.352654 0.011238 -0.007111 1680860.000000 0 0 1
23.514114 -10.139834 -27.251987 37.395194 -0.407130 2.387300 0.017284 -0.005050 1620250.000000 0 0 1
22.488314 -11.299434 -27.169937 37.035212 -0.465612 2.394437 0.016164 0.004071 -968855.000000 0 0 1
22.903314 -12.305634 -28.039987 38.239133 -0.493030 2.393930 0.013606 -0.004463 -128891.000000 0 0 1
22.254414 -13.558334 -27.843127 38.135640 -0.547188 2.389276 0.006050 -0.008187 -540333.000000 0 0 1
23.128614 -14.645934 -28.393937 39.441752 -0.564502 2.374448 0.010482 0.001921 -265000.000000 0 0 1
23.191214 -14.526834 -29.802597 40.460550 -0.559601 2.398802 0.015681 -0.009188 459442.000000 0 0 1
24.139114 -15.478734 -30.287197 41.708540 -0.570186 2.383521 0.012535 -0.009089 31757.600000 0 0 1
24.248514 -15.526034 -31.845797 42.932539 -0.569518 2.406493 0.036010 -0.016932 183580.000000 0 0 1
23.061014 -16.128134 -32.379337 42.899283 -0.610302 2.426108 0.050078 -0.016358 540589.000000 0 0 1
23.078514 -16.332034 -33.791397 44.059183 -0.615857 2.444878 0.059919 -0.019347 -54763.300000 0 0 1
23.349214 -15.161434 34.396839 44.251524 -0.575907 0.680429 0.033602 -0.015870 -203104.000000 0 0 1
22.408314 -14.092734 34.409047 43.413364 -0.561404 0.655750 0.058594 -0.021016 -247431.000000 0 0 1
22.540314 -13.148734 33.305937 42.311232 -0.528082 0.664597 0.038764 -0.015830 -154378.000000 0 0 1
21.473714 -12.021434 33.234141 41.353880 -0.510352 0.637389 0.047492 -0.022570 4876.560000 0 0 1
20.146714 -12.424934 33.039129 40.642996 -0.552625 0.621664 0.039798 -0.015658 -226868.000000 0 0 1
19.770414 -12.481434 31.709129 39.397009 -0.563130 0.635355 0.033398 -0.006170 219057.000000 0 0 1
18.216714 -12.722434 31.620699 38.646831 -0.609647 0.612529 0.031148 -0.001412 977847.000000 0 0 1
17.448514 -11.556634 31.974569 38.214912 -0.584993 0.579559 0.028146 -0.004918 -1173940.000000 0 0 1
16.362414 -11.935534 32.690809 38.456138 -0.630218 0.554658 0.015096 0.000047 -1487590.000000 0 0 1
15.526614 -10.706434 33.055389 38.057354 -0.603681 0.518492 0.021642 0.000623 -1259300.000000 0 0 1
14.814414 -10.231534 31.936819 36.662127 -0.604421 0.513334 0.017201 0.006680 -47076.200000 0 0 1
14.062914 -9.030934 32.209459 36.287361 -0.570859 0.478640 0.027567 0.003768 851317.000000 0 0 1
12.899714 -9.123534 33.263516 36.825303 -0.615586 0.443445 0.020393 0.000591 -936890.000000 0 0 1
11.935414 -10.094834 32.825339 36.357429 -0.702044 0.444442 0.015178 0.001564 -293749.000000 0 0 1
10.887814 -10.202934 33.730530 36.883506 -0.752937 0.416488 0.008831 0.004782 28881.600000 0 0 1
9.683514 -9.301534 33.271068 35.878307 -0.765281 0.383579 -0.004384 0.006204 -541730.000000 0 0 1
10.088814 -7.937534 33.223979 35.617712 -0.666619 0.368708 0.007186 0.007454 -79010.600000 0 0 1
9.166214 -7.086234 32.598989 34.596651 -0.658111 0.341485 -0.003752 0.021989 -391147.000000 0 0 1
9.592714 -5.672434 32.546619 34.401730 -0.534018 0.329899 -0.004677 0.025838 -220382.000000 0 0 1
9.716214 -5.068034 33.842422 35.572451 -0.480783 0.313156 -0.003531 0.015883 378908.000000 0 0 1
10.060614 -3.669834 33.731223 35.390380 -0.349774 0.307417 -0.017956 0.013620 -405056.000000 0 0 1
9.825514 -2.867234 -34.208334 35.706748 -0.283931 2.850865 -0.025446 -0.001998 -553110.000000 0 0 1
8.460014 -2.672534 -33.994247 35.132934 -0.305981 2.886299 -0.024517 0.013011 -551158.000000 0 0 1
8.236114 -1.724034 -32.967997 34.024913 -0.206347 2.891692 -0.033103 0.007322 498603.000000 0 0 1
6.728314 -1.469834 -32.649767 33.368217 -0.215076 2.933705 -0.022211 0.010218 240993.000000 0 0 1
6.370514 -0.179834 -33.073867 33.682287 -0.028222 2.951234 -0.001822 0.014935 227831.000000 0 0 1
5.003314 -0.006434 -32.720697 33.101015 -0.001286 2.989858 0.003908 0.013542 203999.000000 0 0 1
4.326114 0.958666 -33.687007 33.977179 0.218076 3.010807 0.008231 0.012609 -400714.000000 0 0 1
5.016914 2.198566 -33.705097 34.147279 0.413024 2.980488 0.001252 0.008592 -8670.040000 0 0 1
4.603414 2.973066 34.486919 34.919595 0.573445 0.157584 0.009447 0.005572 67316.600000 0 0 1
5.267314 4.378266 34.461237 35.135319 0.693486 0.196199 0.004621 0.007805 104801.000000 0 0 1
4.891414 5.110866 33.355337 34.097293 0.807335 0.208994 0.020912 -0.008965 219721.000000 0 0 1
5.825114 6.200866 33.264091 34.334857 0.816633 0.250397 0.014783 -0.007346 242856.000000 0 0 1
5.399314 7.344266 32.316679 33.577650 0.936852 0.274923 0.019595 -0.007584 -1396790.000000 0 0 1
4.334914 8.081966 32.750009 34.009891 1.078479 0.273041 0.017382 -0.001322 -865498.000000 0 0 1
4.053914 9.278866 32.077979 33.638197 1.158892 0.305763 0.008881 -0.001322 -152737.000000 0 0 1
3.646514 9.203866 30.621579 32.182127 1.193576 0.312692 0.014943 -0.005102 -942587.000000 0 0 1
2.506514 8.513266 30.249949 31.524874 1.284463 0.285368 0.031757 -0.010129 -734450.000000 0 0 1
2.329614 8.498166 28.871899 30.186627 1.303238 0.296220 0.032800 -0.001554 -177229.000000 0 0 1
1.076614 7.760366 28.394979 29.456021 1.432944 0.269220 0.034605 -0.005773 -389652.000000 0 0 1
-0.114086 8.380266 28.789089 29.984221 -1.557183 0.283289 0.034974 0.000413 -492661.000000 0 0 1
-1.182886 8.065966 27.904759 29.071198 -1.425183 0.284235 0.047219 -0.005875 -509162.000000 0 0 1
-2.519386 8.394966 28.494589 29.812151 -1.279242 0.298412 0.044009 -0.000268 -1031470.000000 0 0 1
-2.732986 9.816466 28.626829 30.386305 -1.299264 0.341968 0.038859 -0.002071 -325122.000000 0 0 1
-4.038986 10.010966 29.106019 31.043408 -1.187314 0.355160 0.035707 0.012802 -336916.000000 0 0 1
-4.254386 11.373666 29.788269 32.168323 -1.212854 0.387087 0.030789 0.014697 -117201.000000 0 0 1
-4.358586 12.536266 28.997869 31.890933 -1.236191 0.429239 0.029892 0.004765 520255.000000 0 0 1
-5.680186 12.730466 28.494179 31.721404 -1.151117 0.454994 0.026370 -0.004197 443908.000000 0 0 1
-5.949286 14.148366 28.029679 31.956739 -1.172749 0.500978 0.025786 -0.003770 165138.000000 0 0 1
-5.207986 14.381466 26.842319 30.894332 -1.223355 0.517936 0.030756 0.004872 100377.000000 0 0 1
-5.369286 15.758666 26.471599 31.271558 -1.242413 0.561406 0.012832 0.007316 290594.000000 0 0 1
-4.119986 16.374166 25.774139 30.812235 -1.324298 0.579949 0.030297 0.004291 247499.000000 0 0 1
-4.017586 15.912866 24.417289 29.420474 -1.323490 0.591793 0.035454 0.000570 117217.000000 0 0 1
-3.003686 16.735866 23.823999 29.269340 -1.393211 0.619864 0.042545 0.006097 395338.000000 0 0 1
-2.800686 16.424866 22.288899 27.828314 -1.401906 0.641927 0.029744 0.009079 -47190.700000 0 0 1
-2.065586 15.271366 21.940699 26.811854 -1.436353 0.612313 0.029455 -0.002441 86813.100000 0 0 1
-2.113686 15.193766 20.496199 25.601022 -1.432568 0.642499 0.022742 -0.002497 159755.000000 0 0 1
-1.293686 13.949866 20.008599 24.425732 -1.478323 0.610850 0.021965 -0.006527 -344874.000000 0 1 0
-1.824686 12.712066 20.169099 23.910638 -1.428230 0.566993 0.025563 0.000140 -368519.000000 0 1 0
-0.922086 11.732266 19.698499 22.946179 -1.492364 0.538527 0.027868 -0.001134 -80068.900000 0 1 0
-1.556686 10.292166 19.469199 22.077175 -1.420684 0.490983 0.011824 0.001487 -124170.000000 0 1 0
-1.865286 9.421766 20.590399 22.720332 -1.375347 0.436459 0.020313 -0.008998 540281.000000 0 1 0
-2.803186 9.891366 21.572899 23.897425 -1.294640 0.444725 0.033025 -0.002595 2008880.000000 0 1 0
-4.358086 9.964966 21.158699 23.790418 -1.158519 0.474811 0.024561 0.005861 1774110.000000 0 1 0
-5.018986 8.705466 21.239799 23.496902 -1.047811 0.441901 0.011407 0.006721 -104841.000000 0 1 0
-6.402686 8.741766 21.019799 23.648357 -0.938639 0.475971 0.000553 0.011216 3194.700000 0 1 0
-7.153586 7.402366 21.144199 23.516929 -0.802488 0.453075 -0.003248 0.012824 -101229.000000 0 1 0
-7.010886 6.826166 22.392199 24.436850 -0.772049 0.411981 -0.000456 0.010130 390231.000000 0 1 0
-7.699886 5.576066 22.377699 24.313415 -0.626767 0.401733 -0.000904 0.007115 159483.000000 0 1 0
-7.713286 4.848466 23.748199 25.435789 -0.561174 0.366317 -0.005487 0.006451 -179338.000000 0 0 1
-8.534586 5.434666 24.748339 26.736773 -0.567026 0.388101 -0.019286 0.009532 258566.000000 0 0 1
-8.402486 4.698466 25.944989 27.673449 -0.509861 0.355304 -0.010124 0.018601 -87414.400000 0 0 1
-9.429586 5.096266 27.033929 29.081305 -0.495485 0.377475 -0.014730 0.020927 56612.600000 0 0 1
-9.017486 6.324766 27.553239 29.673198 -0.611658 0.380292 -0.001718 0.016507 387879.000000 0 0 1
-9.940486 6.760866 28.560269 30.987280 -0.597268 0.398415 0.000624 0.017139 352806.000000 0 0 1
-9.414586 7.961866 29.322009 31.808897 -0.701989 0.398052 0.009416 0.011347 -268788.000000 0 0 1
-8.374486 7.674966 30.202089 32.267682 -0.741840 0.359748 0.017412 0.009775 -306315.000000 0 0 1
-7.887386 8.851566 30.779579 32.983989 -0.842936 0.367670 0.023051 0.005321 -7586.100000 0 0 1
-6.929486 8.652466 31.983109 33.849700 -0.895526 0.333640 0.029842 0.005400 -271493.000000 0 0 1
-5.676486 8.213066 31.561579 33.103024 -0.966033 0.306369 0.041795 0.000161 -647114.000000 0 0 1
-4.853486 7.885866 32.690939 33.977061 -1.019082 0.276021 0.051603 -0.001573 405620.000000 0 0 1
-3.357486 7.685466 32.368269 33.437164 -1.158922 0.253531 0.034270 0.007087 398945.000000 0 0 1
-2.657586 8.935966 32.458629 33.770946 -1.281723 0.279692 0.022171 0.006856 411637.000000 0 0 1
-1.273486 8.844366 32.103599 33.323950 -1.427791 0.271465 0.014142 0.005713 1000270.000000 0 0 1
-0.659386 10.215366 31.679059 33.291910 -1.506337 0.312544 0.013688 0.006781 98793.000000 0 0 1
-0.709486 11.252466 32.679869 34.570149 -1.507828 0.332221 0.005674 0.001490 10839.200000 0 0 1
-1.141786 12.455066 32.118859 34.468151 -1.479379 0.371341 0.011755 0.006465 -199606.000000 0 0 1
-1.315086 13.542466 33.243131 35.919821 -1.473992 0.388492 -0.002745 -0.002418 288177.000000 0 0 1
-0.079486 13.971566 33.826551 36.598449 -1.565107 0.391699 -0.012817 0.006290 484719.000000 0 0 1
-0.399386 14.622966 -34.235005 37.229373 -1.543491 2.737780 -0.004838 0.005070 366618.000000 0 0 1
0.856414 15.109966 -33.460377 36.723852 1.514178 2.716826 -0.009621 0.004299 315038.000000 0 0 1
1.446614 16.200366 -34.214834 37.884025 1.481737 2.697840 -0.002401 0.004906 854812.000000 0 0 1
2.797214 16.470766 -33.820567 37.721894 1.402572 2.682775 0.012127 0.003567 489566.000000 0 0 1
3.438814 17.521766 34.496434 38.843811 1.377000 0.477644 0.028322 0.013276 94554.100000 0 0 1
2.869514 18.823866 34.628524 39.518435 1.419521 0.502746 0.020938 0.014203 838303.000000 0 0 1
3.746714 19.655566 33.851359 39.322940 1.382438 0.533848 0.017248 0.021117 440868.000000 0 0 1
3.216514 21.074166 33.905120 40.050263 1.419337 0.561299 0.019544 0.014737 -111984.000000 0 0 1
3.297814 21.728766 -34.130686 40.594563 1.420174 2.569500 0.019881 0.006842 131406.000000 0 0 1
2.838314 23.050266 -34.174702 41.319257 1.448277 2.544705 0.016702 0.005708 -91167.500000 0 0 1
3.251414 23.788966 -32.902577 40.731635 1.434961 2.511188 0.014951 0.001560 -225822.000000 0 0 1
2.863414 25.108466 -32.799477 41.405795 1.457245 2.485115 0.011706 -0.000162 11884.500000 0 0 1
3.150114 25.534566 -31.504057 40.674843 1.448050 2.456775 0.016616 0.001524 -66022.500000 0 0 1
2.527514 26.923666 -31.176717 41.270568 1.477194 2.427095 0.010322 -0.003465 305504.000000 0 0 1
3.433914 28.017166 -31.242947 42.105523 1.448840 2.406868 -0.005545 -0.004421 673323.000000 0 0 1
2.733214 29.185866 -30.814297 42.530061 1.477420 2.381148 -0.007691 -0.002843 636939.000000 0 0 1
3.837014 30.301166 -30.677967 43.289964 1.444837 2.358397 -0.013808 0.002234 962730.000000 0 0 1
4.781114 30.113866 -29.629777 42.516204 1.413343 2.341870 -0.005877 -0.005909 188651.000000 0 0 1
5.529814 31.311866 -29.376247 43.289440 1.395994 2.316652 0.004724 -0.010459 165962.000000 0 0 1
6.702514 31.085666 -28.317587 42.580841 1.358433 2.298332 0.012209 -0.019036 797750.000000 0 0 1
7.868314 30.530866 -28.954257 42.806461 1.318568 2.313659 0.017545 -0.019439 857160.000000 0 0 1
8.918714 31.523266 -29.061557 43.793079 1.295078 2.296431 0.027280 -0.022959 181733.000000 0 0 1
8.725914 32.749466 -29.993097 45.257650 1.310401 2.295240 0.023165 -0.014050 -1083500.000000 0 0 1
7.931014 33.752466 -29.363777 45.435243 1.340007 2.273493 0.011797 -0.012968 160457.000000 0 0 1
7.696714 -34.651331 -30.291507 46.664006 -1.352226 2.277251 0.016287 -0.004334 955556.000000 0 0 1
6.361114 34.729966 -31.150277 47.084754 1.389645 2.293719 0.006219 0.010534 658423.000000 0 0 1
6.417714 33.731466 -32.153827 47.041124 1.382784 2.323379 -0.000694 0.010654 121910.000000 0 0 1
5.269814 33.764566 -32.967257 47.483227 1.415970 2.338233 -0.009329 0.015757 -208667.000000 0 0 1
5.306914 32.851266 -34.209505 47.724828 1.410636 2.370009 -0.013069 0.006140 -61328.800000 0 0 1
6.124514 33.385666 34.037934 48.069671 1.389366 0.783998 -0.003053 -0.000317 79600.700000 0 0 1
6.115414 32.627566 32.835949 46.692139 1.385515 0.790847 -0.010375 -0.001404 -493834.000000 0 0 1
5.264014 33.229266 31.745359 46.256478 1.413687 0.814420 -0.020666 0.000901 -287457.000000 0 0 1
5.798514 34.418266 31.259949 46.855354 1.403892 0.840409 -0.016091 -0.000734 378922.000000 0 0 1
4.917514 -34.463531 30.297899 46.150618 -1.429066 0.854626 -0.028529 -0.007655 434123.000000 0 0 1
17.048352 -22.554034 29.880049 41.135728 -0.923537 0.757760 0.043271 0.011703 162374.000000 0 0 1
16.039652 -21.552234 30.181199 40.406361 -0.931003 0.727346 0.025530 0.017824 636642.000000 0 0 1
14.728652 -22.074834 30.149329 40.164829 -0.982414 0.721766 0.025709 0.019410 -51102.400000 0 0 1
14.251552 -22.507134 31.543469 41.287628 -1.006321 0.701317 0.025588 0.009825 -933529.000000 0 0 1
15.026052 -23.587534 31.933229 42.448617 -1.003590 0.719281 0.036963 -0.002440 145315.000000 0 0 1
14.733752 -23.862134 33.326656 43.556296 -1.017642 0.699538 0.014004 -0.003426 -208129.000000 0 0 1
15.590152 -24.977434 33.890392 44.894139 -1.012794 0.715301 0.030698 -0.013480 -271848.000000 0 0 1
15.338952 -26.213704 33.284688 45.058986 -1.041367 0.739669 0.036522 -0.014796 -57261.600000 0 0 1
15.902752 -27.182974 34.147317 46.452673 -1.041460 0.744984 0.034260 -0.013498 95631.000000 0 0 1
15.693552 -28.681664 33.798542 47.024109 -1.070134 0.768795 0.024801 -0.003255 150874.000000 0 0 1
16.362352 -29.142624 32.623179 46.704292 -1.059199 0.797490 0.020596 -0.009089 382103.000000 0 0 1
15.831552 -30.419734 32.223129 47.056650 -1.090933 0.816504 0.021478 -0.001679 49993.900000 0 0 1
16.721552 -31.101794 31.145819 47.084965 -1.077492 0.848004 0.033228 -0.011420 -1061730.000000 0 0 1
17.848852 -31.596224 31.720329 48.198363 -1.056582 0.852477 0.024551 -0.018109 -1240760.000000 0 0 1
18.536352 -32.326634 30.721089 48.294854 -1.050159 0.881343 0.021834 -0.015038 508084.000000 0 0 1
19.823452 -33.120054 31.210559 49.638757 -1.031456 0.890847 0.006880 -0.009650 -112637.000000 0 0 1
20.877252 -32.246764 31.361729 49.591042 -0.996236 0.886140 0.004116 -0.010745 -1384930.000000 0 0 1
22.039152 -33.005704 31.534449 50.690455 -0.982053 0.899376 0.001035 -0.003546 -1080740.000000 0 0 1
23.122952 -31.982574 31.864559 50.723822 -0.944810 0.891562 -0.007478 -0.008585 -746931.000000 0 0 1
23.633152 -31.329064 30.712589 49.832713 -0.924516 0.906743 -0.006694 -0.004821 -21596.400000 0 0 1
24.480152 -30.251174 31.067159 49.795379 -0.890453 0.897078 -0.009340 -0.000025 504974.000000 0 0 1
25.718952 -30.034734 30.136289 49.716654 -0.862652 0.919572 -0.008064 0.000700 -33172.000000 0 0 1
26.639352 -31.059404 30.238499 50.879352 -0.861855 0.934379 -0.011180 0.003771 -87814.700000 0 0 1
27.637852 -30.999124 29.207819 50.772958 -0.842659 0.957870 -0.014312 -0.012588 -123235.000000 0 0 1
28.795752 -31.927704 29.393669 52.082256 -0.836930 0.971126 -0.013058 -0.008403 -707391.000000 0 0 1
28.371452 -33.281204 29.208769 52.590208 -0.864866 0.981949 -0.014370 -0.009450 708624.000000 0 0 1
29.438752 -34.227060 29.435999 53.894432 -0.860467 0.993001 -0.004449 -0.008905 39446.600000 0 0 1
28.889052 33.803002 29.869329 53.566753 0.863621 0.979293 -0.017372 -0.006253 -248470.000000 0 0 1
28.242052 33.686460 31.131979 53.866420 0.873087 0.954585 -0.013188 0.002264 1169790.000000 0 0 1
27.204852 34.633129 31.533579 54.165710 0.904950 0.949403 -0.020221 0.004941 339410.000000 0 0 1
25.907352 34.618810 30.708919 53.034805 0.928345 0.953254 -0.012256 0.003866 -450383.000000 0 0 1
25.278752 33.321632 30.798349 51.941166 0.921796 0.936083 -0.007170 0.000212 961278.000000 0 0 1
23.841552 33.329532 30.690449 51.197470 0.949857 0.927979 -0.008863 -0.004378 1301190.000000 0 0 1
23.177752 31.908492 30.644449 49.944392 0.942583 0.910221 -0.003802 -0.008447 -177500.000000 0 0 1
23.120052 31.274432 29.394629 48.751114 0.934202 0.923599 -0.004709 -0.016816 -20430.600000 0 0 1
22.588352 29.987742 29.449229 47.715358 0.925217 0.905636 0.014616 -0.025572 -771102.000000 0 0 1
21.957052 29.500532 28.154509 46.314899 0.930957 0.917392 0.013334 -0.020666 -477875.000000 0 0 1
20.798552 30.199422 27.796499 46.013370 0.967690 0.922165 0.016785 -0.019777 -189649.000000 0 0 1
20.089452 29.565062 26.751169 44.646433 0.973962 0.928322 0.026163 -0.016196 -220126.000000 0 0 1
18.828452 30.314032 26.356869 44.363675 1.014997 0.934639 0.025974 -0.013238 -105579.000000 0 0 1
19.224252 31.536592 25.717639 45.005838 1.023358 0.962550 0.033414 -0.022559 975197.000000 0 0 1
18.063452 32.383782 25.632759 45.078109 1.061990 0.965957 0.043527 -0.022608 360619.000000 0 0 1
18.451352 33.796576 25.159889 45.996532 1.071065 0.992026 0.046360 -0.018757 73780.200000 0 0 1
18.954752 33.836852 23.833599 45.522034 1.060170 1.019770 0.057556 -0.017948 -79237.400000 0 0 1
20.337052 34.025135 23.650499 46.158981 1.032065 1.032853 0.059494 -0.012843 -279907.000000 0 0 1
20.691052 34.078552 22.164499 45.615045 1.025130 1.063400 0.056579 -0.013463 -184076.000000 0 0 1
20.313052 -34.184874 21.602599 45.253707 -1.034644 1.073141 0.075161 -0.011394 256767.000000 0 0 1
20.733052 -34.029054 20.281599 44.712182 -1.023585 1.099992 0.079446 -0.010385 -185113.000000 0 0 1
20.410252 -32.667834 19.646899 43.240796 -1.012354 1.099142 0.063735 -0.011565 -134041.000000 0 0 1
21.147652 -31.543964 20.081299 42.959323 -0.980201 1.084393 0.062403 -0.005589 377209.000000 0 0 1
20.569052 -30.364004 19.522199 41.547261 -0.975389 1.081642 0.071399 -0.018234 396371.000000 0 0 1
21.318952 -29.903664 18.197899 40.986466 -0.951451 1.110741 0.055843 -0.016161 -268041.000000 0 0 1
21.250052 -30.769794 17.068299 41.105617 -0.966397 1.142600 0.041279 -0.013445 377384.000000 0 0 1
21.774752 -29.994264 15.989799 40.366687 -0.942857 1.163516 0.031362 -0.004776 -235094.000000 0 0 1
21.383552 -30.628614 14.630699 40.117648 -0.961309 1.197491 0.021889 -0.015873 -379749.000000 0 0 1
22.035852 -31.806934 14.230799 41.228333 -0.964919 1.218376 0.048993 -0.011393 -203888.000000 0 0 1
21.988152 -32.175884 12.874399 41.042862 -0.971316 1.251728 0.034452 -0.015208 -182207.000000 0 0 1
20.651052 -32.334654 12.082999 40.224305 -1.002430 1.265694 0.034985 -0.006683 -61201.600000 0 0 1
19.926552 -33.410034 12.590099 40.887754 -1.033010 1.257792 0.040446 -0.012573 -530171.000000 0 0 1
18.708152 -33.587454 11.916099 40.250534 -1.062596 1.270244 0.034999 -0.013259 53508.700000 0 0 1
17.609452 -34.195645 12.834599 40.548266 -1.095251 1.248731 0.031479 -0.009104 -62734.900000 0 0 1
17.301052 -33.411524 13.990499 40.142128 -1.092997 1.214800 0.035015 -0.009937 51154.900000 0 0 1
17.816752 -33.979734 15.142199 41.247366 -1.087871 1.194899 0.030935 -0.012487 -652958.000000 0 0 1
17.761752 -33.089104 16.382299 40.972532 -1.078155 1.159458 0.040280 -0.016333 655966.000000 0 0 1
16.490752 -32.630754 16.875699 40.267856 -1.102858 1.138358 0.043898 -0.020238 1221710.000000 0 0 1
15.507552 -33.579404 17.370399 40.863080 -1.138159 1.131737 0.042115 -0.007910 72634.000000 0 0 1
15.884152 -34.360907 18.657499 42.202849 -1.137782 1.112868 0.027901 -0.009966 -158240.000000 0 0 1
16.786752 34.053737 18.435299 42.205595 1.112805 1.118761 0.020799 -0.002882 62966.800000 0 0 1
16.977652 33.432302 19.675899 42.345017 1.100911 1.087549 0.021713 -0.003879 -405949.000000 0 0 1
17.927852 32.275792 19.576199 41.789498 1.063772 1.083263 0.023627 0.002052 -526026.000000 0 0 1
17.440452 31.092112 18.940999 40.368926 1.059601 1.082415 0.011952 0.001336 -294194.000000 0 0 1
18.346552 30.016062 18.923999 39.945934 1.022164 1.077263 0.004529 -0.002438 -12200.800000 0 0 1
17.589052 28.696902 18.580299 38.446254 1.020927 1.066399 0.003527 0.010717 347034.000000 0 0 1
17.017352 28.113872 19.762999 38.347831 1.026488 1.029367 0.006939 0.001146 -18182.700000 0 0 1
16.655152 26.739942 19.541199 37.071242 1.013740 1.015582 0.003675 0.002079 -495784.000000 0 0 1
16.530052 25.912292 20.885899 37.160601 1.002958 0.973941 0.003790 0.004717 434115.000000 0 0 1
15.275952 26.194452 21.518199 37.182481 1.042840 0.953640 0.009376 0.012815 661859.000000 0 0 1
14.345552 25.119122 21.331599 35.941651 1.051897 0.935388 0.008744 0.013494 777200.000000 0 0 1
12.985952 25.348902 22.099599 36.049883 1.097366 0.910908 0.001610 0.011828 335163.000000 0 0 1
12.258752 26.342812 21.418399 36.096655 1.135247 0.935567 0.012097 0.003690 -442621.000000 0 0 1
11.077752 26.539452 22.172899 36.313861 1.175375 0.913990 -0.005194 0.008097 -168838.000000 0 0 1
10.268752 27.768262 21.680499 36.695608 1.216591 0.938722 -0.004857 0.001017 -268414.000000 0 0 1
10.873152 29.037272 21.817299 37.912836 1.212504 0.957631 -0.009384 -0.003134 -341257.000000 0 0 1
10.592252 29.944032 20.776699 37.954078 1.230798 0.991522 -0.001029 -0.005057 -66375.400000 0 0 1
11.065252 31.445182 20.788699 39.286248 1.232439 1.013186 0.011119 -0.014699 228773.000000 0 0 1
10.344452 32.241072 21.768099 40.253503 1.260325 0.999438 0.000786 -0.016364 178830.000000 0 0 1
10.921152 32.231342 23.092099 41.126342 1.244101 0.974609 -0.002267 -0.009881 -338505.000000 0 0 1
10.150652 33.157032 23.975299 42.157318 1.273717 0.965859 -0.008564 -0.018615 653266.000000 0 0 1
8.855652 32.664982 24.390079 41.716898 1.306055 0.946339 -0.011642 -0.018206 929445.000000 0 0 1
8.387852 33.397162 25.555729 42.881485 1.324731 0.932333 -0.009969 -0.019262 -430467.000000 0 0 1
7.015252 33.107432 26.195929 42.796524 1.361991 0.912078 -0.005363 -0.016326 106775.000000 0 0 1
5.814652 33.681399 25.678829 42.751012 1.399844 0.926470 -0.016355 -0.012446 796211.000000 0 0 1
5.405252 33.227202 24.365399 41.556424 1.409533 0.944287 -0.017766 -0.015415 -231712.000000 0 0 1
4.666052 31.832982 24.358749 40.354175 1.425254 0.922757 -0.018776 -0.017807 429435.000000 0 0 1
5.540452 30.825222 24.937839 40.034819 1.392958 0.898347 -0.018913 -0.010322 248534.000000 0 0 1
4.942552 29.579752 24.766329 38.894236 1.405233 0.880506 -0.023797 -0.003046 -209063.000000 0 0 1
5.986052 28.432002 25.138119 38.420523 1.363288 0.857554 -0.024077 0.004280 1376690.000000 0 0 1
7.086152 28.218712 24.218209 37.855394 1.324768 0.876616 -0.027495 0.001010 1348710.000000 0 0 1
8.016252 29.335092 24.173599 38.848047 1.304044 0.899169 -0.022032 0.006746 -235481.000000 0 0 1
9.278252 29.252292 25.102299 39.647294 1.263653 0.885193 -0.026551 0.002617 -343837.000000 0 0 1
9.081852 29.056922 26.473509 40.343914 1.267862 0.855030 -0.029871 0.004460 197173.000000 0 0 1
10.253052 28.975142 27.282859 41.097911 1.230690 0.844841 -0.000803 -0.002163 363764.000000 0 0 1
10.965152 30.358632 27.494669 42.400918 1.224190 0.865256 0.001542 -0.011988 -8694.980000 0 0 1
10.231752 31.112442 28.444789 43.379474 1.253074 0.855660 -0.000837 -0.011638 200749.000000 0 0 1
10.566752 32.481682 28.374239 44.405105 1.256280 0.877617 -0.013819 -0.006431 -419758.000000 0 0 1
9.760152 33.420242 29.271549 45.486225 1.286655 0.871701 -0.000583 -0.008568 -441085.000000 0 0 1
9.939752 33.338072 30.716309 46.408160 1.281037 0.847482 0.018388 -0.023390 61422.100000 0 0 1
9.747652 32.064222 31.350339 45.890901 1.275670 0.818730 0.010831 -0.015529 -249990.000000 0 0 1
9.972352 32.047722 32.883999 46.987888 1.269122 0.795623 0.025915 -0.023753 -289520.000000 0 0 1
9.803652 30.764062 33.454997 46.494902 1.262298 0.767655 0.025203 -0.022416 239300.000000 0 0 1
10.118852 30.772142 -34.400395 47.251487 1.253103 2.386237 0.047379 -0.024602 -162909.000000 0 0 1
10.035252 29.277572 -33.934437 45.928515 1.240584 2.402163 0.038264 -0.013440 177320.000000 0 0 1
11.139652 28.444902 -34.322007 45.947845 1.197533 2.414301 0.046957 -0.003571 181021.000000 0 0 1
11.010052 27.123782 -33.940337 44.820389 1.185198 2.429892 0.044877 -0.013936 673829.000000 0 0 1
12.238652 26.141872 -34.183370 44.740193 1.132941 2.440351 0.041391 -0.015942 783133.000000 0 0 1
11.968552 24.790212 -34.011347 43.755829 1.121008 2.461157 0.031872 -0.013879 -104417.000000 0 0 1
12.489952 24.297762 -32.758297 42.655435 1.095982 2.446469 0.043456 -0.008845 102930.000000 0 0 1
12.471852 22.692162 -32.729297 41.733538 1.068252 2.472274 0.026797 -0.017571 -304447.000000 0 0 1
13.501652 22.119662 -33.490387 42.345957 1.022771 2.483035 0.006220 -0.004025 -145231.000000 0 0 1
13.624852 20.693462 -33.385857 41.574889 0.988529 2.503158 0.008062 0.007093 -957473.000000 0 0 1
14.973852 20.174062 -33.795817 42.111355 0.932285 2.502328 0.013215 -0.005515 -896494.000000 0 0 1
16.035652 20.519862 -32.936387 41.988242 0.907457 2.472556 0.000404 -0.006545 603030.000000 0 0 1
17.255152 19.942062 -33.486397 42.623525 0.857507 2.474513 -0.000990 -0.010010 574629.000000 0 0 1
18.450252 20.333762 -32.605207 42.625968 0.833924 2.441704 0.004516 -0.000037 -328778.000000 0 0 1
18.855752 21.672962 -32.860997 43.647471 0.854798 2.423213 -0.009843 0.000144 117192.000000 0 0 1
19.784452 22.251462 -31.922657 43.653271 0.844019 2.390989 -0.010370 0.006233 214087.000000 0 0 1
19.302252 22.553762 -30.483337 42.549770 0.862926 2.369448 -0.009759 0.007085 -200803.000000 0 0 1
18.539852 23.709062 -30.324127 42.724681 0.907144 2.359949 -0.011188 0.010704 -293527.000000 0 0 1
18.250452 24.027562 -28.998837 41.848958 0.921203 2.336356 -0.001391 0.018242 105698.000000 0 0 1
19.421452 24.564142 -28.070097 42.053777 0.901787 2.301617 0.001288 0.016233 790696.000000 0 0 1
20.152452 25.718872 -28.563947 43.399087 0.906156 2.289181 0.008306 0.012518 -182140.000000 0 0 1
19.451752 26.910952 -28.748667 43.921018 0.944919 2.284389 0.008691 0.012201 -630357.000000 0 0 1
20.239652 28.000662 -29.563177 45.471551 0.944914 2.278574 0.012979 0.013981 -311946.000000 0 0 1
20.420452 27.747032 -30.982397 46.333590 0.936347 2.303230 0.009847 0.013937 338922.000000 0 0 1
21.143752 26.551592 -31.377727 46.223446 0.898299 2.316960 0.009009 0.012431 968710.000000 0 0 1
22.641052 26.393782 -30.929137 46.538806 0.861781 2.297739 0.027078 0.006490 268370.000000 0 0 1
23.508152 27.375652 -31.440877 47.860090 0.861259 2.287540 0.031652 0.006276 224801.000000 0 0 1
24.824252 27.050082 -30.975467 48.035715 0.828280 2.271613 0.021041 -0.003369 281264.000000 0 0 1
25.928752 27.945482 -31.571607 49.497641 0.822815 2.262488 0.001277 0.007678 -341414.000000 0 0 1
25.980052 29.250362 -31.012317 49.923046 0.844541 2.241072 0.005128 0.012257 -690750.000000 0 0 1
26.996252 30.077952 -31.423777 51.195064 0.839340 2.231667 0.007936 0.012174 -622196.000000 0 0 1
27.125352 31.353292 -30.591007 51.523037 0.857571 2.206488 0.008713 0.019737 -40349.900000 0 0 1
27.480852 31.036662 -29.236347 50.727069 0.846088 2.185047 0.017690 0.010677 13256.200000 0 0 1
26.772052 31.828382 -28.325437 50.320165 0.871470 2.168692 0.021464 0.013536 -679570.000000 0 0 1
27.260252 31.845622 -26.864987 49.789482 0.862822 2.140724 0.034843 0.017979 -322916.000000 0 0 1
27.130752 30.669502 -26.096267 48.556268 0.846546 2.138199 0.032383 0.021898 857984.000000 0 0 1
25.762152 30.256132 -25.925507 47.447380 0.865450 2.148863 0.028993 0.020845 827806.000000 0 0 1
25.244952 30.108572 -24.419197 46.261548 0.873038 2.126864 0.037173 0.022657 69907.200000 0 0 1
24.979552 31.337432 -23.737197 46.577539 0.897817 2.105548 0.051664 0.014723 75450.600000 0 0 1
24.422152 31.155902 -22.462797 45.516030 0.905969 2.086922 0.047721 0.016288 161000.000000 0 0 1
3.326752 -26.720584 -19.647397 33.332823 -1.446932 2.201151 -0.005333 0.006010 -417644.000000 0 0 1
2.950052 -27.719554 -18.670097 33.550693 -1.464770 2.160933 -0.004305 0.011796 213641.000000 0 0 1
2.962352 -27.192084 -17.411097 32.424239 -1.462283 2.137647 0.000335 0.011006 -72578.200000 0 0 1
2.742052 -28.237674 -16.332397 32.735795 -1.473994 2.093143 -0.005333 0.005022 51645.900000 0 0 1
3.891552 -29.054714 -16.162197 33.474426 -1.437650 2.074671 -0.000092 0.006281 190264.000000 0 0 1
3.708652 -29.885794 -15.022397 33.653933 -1.447333 2.033511 -0.006544 0.001740 65854.800000 0 0 1
5.040152 -30.559924 -14.589597 34.236946 -1.407341 2.011014 0.008519 0.000630 -66518.600000 0 0 1
5.984352 -29.598264 -14.223897 33.379469 -1.371300 2.011004 0.001060 0.002678 376769.000000 0 0 1
7.342652 -30.102294 -14.171297 34.071811 -1.331545 1.999755 0.011751 -0.006490 1390090.000000 0 0 1
7.794452 -31.024594 -12.965697 34.516492 -1.324656 1.955881 0.011494 -0.010286 -844721.000000 0 0 1
7.869552 -30.242704 -11.745997 33.384419 -1.316229 1.930333 0.012749 -0.006360 -72468.400000 0 0 1
8.145652 -31.040314 -10.571197 33.787616 -1.314161 1.889012 0.017064 -0.002639 297805.000000 0 0 1
9.432252 -31.913544 -10.550997 34.910818 -1.283421 1.877825 0.021004 -0.003501 -1082690.000000 0 0 1
10.559652 -31.204294 -10.239797 34.497358 -1.244489 1.872166 0.019205 -0.004074 -1421170.000000 0 0 1
11.608452 -32.122444 -10.248597 35.660080 -1.224018 1.862304 0.022782 -0.003626 -584375.000000 0 0 1
12.892852 -31.877474 -9.444797 35.659546 -1.186459 1.838855 0.026235 0.011108 -210844.000000 0 0 1
13.749852 -30.992564 -10.150297 35.392457 -1.153236 1.861673 0.021930 -0.012912 -49091.700000 0 0 1
14.787252 -30.618604 -9.269697 35.243284 -1.120882 1.836948 0.017531 -0.000287 93462.400000 0 0 1
15.995752 -29.835924 -9.856897 35.259111 -1.078669 1.854128 0.031963 -0.014114 229809.000000 0 0 1
15.869152 -28.446354 -10.078697 34.096997 -1.061937 1.870868 0.010088 -0.012767 -265633.000000 0 0 1
15.081252 -28.146914 -11.190097 33.836537 -1.078917 1.907853 0.011126 -0.013796 -423383.000000 0 0 1
14.761052 -26.649524 -11.324397 32.501196 -1.064967 1.926692 0.007040 -0.005900 -1429080.000000 0 0 1
13.883452 -26.266864 -10.299397 31.444808 -1.084567 1.904494 0.003703 -0.003765 -163936.000000 0 0 1
13.412452 -24.945934 -10.452797 30.190304 -1.077476 1.924346 -0.012018 0.001882 -237967.000000 0 0 1
12.555652 -24.575634 -11.604897 29.937933 -1.098468 1.968858 -0.009336 -0.001113 -869435.000000 0 0 1
13.339252 -24.266134 -12.731897 30.477567 -1.068178 2.001760 -0.006298 -0.005511 53379.900000 0 0 1
12.542652 -24.332234 -13.880397 30.692689 -1.094846 2.040069 -0.002392 -0.007054 189081.000000 0 0 1
13.387352 -23.630634 -14.969197 31.011368 -1.055354 2.074532 -0.000994 -0.007113 26178.200000 0 0 1
14.439252 -24.390834 -15.452697 32.282977 -1.036284 2.069929 0.002815 -0.013867 -559240.000000 0 0 1
14.998552 -23.814934 -16.611797 32.681179 -1.008756 2.104004 0.000213 -0.016375 -110115.000000 0 0 1
16.028552 -24.747634 -17.349897 34.210799 -0.996054 2.102667 0.008424 -0.019415 955092.000000 0 0 1
17.302952 -24.901634 -16.750497 34.641921 -0.963534 2.075482 0.021309 -0.018435 -860529.000000 0 0 1
18.276852 -24.044734 -17.124997 34.719707 -0.920851 2.086602 0.006641 -0.011758 -831307.000000 0 0 1
19.706752 -24.480034 -16.731297 35.602871 -0.893006 2.060022 0.012130 -0.009491 334425.000000 0 0 1
20.185852 -25.573294 -17.507697 36.986233 -0.902593 2.063894 0.016945 -0.012466 -828318.000000 0 0 1
21.321752 -26.152274 -16.954297 37.762504 -0.886800 2.036411 0.033729 -0.013452 -358240.000000 0 0 1
21.921252 -27.204634 -17.913697 39.262373 -0.892534 2.044580 0.027998 -0.015291 -501048.000000 0 0 1
22.568952 -26.654094 -19.001597 39.760018 -0.868201 2.069067 0.038804 -0.016124 -365984.000000 0 0 1
22.815752 -27.621934 -19.991797 41.026842 -0.880401 2.079775 0.028390 -0.016624 173233.000000 0 0 1
23.749152 -26.948174 -21.089497 41.653249 -0.848415 2.101698 0.035953 -0.010916 509567.000000 0 0 1
23.193552 -25.792404 -21.731697 40.932330 -0.838401 2.130479 0.043475 -0.013190 -104953.000000 0 0 1
23.524052 -24.615734 -20.992697 40.000109 -0.808072 2.123295 0.051502 -0.005809 -143254.000000 0 0 1
22.965652 -23.293734 -21.607197 39.203191 -0.792490 2.154549 0.079626 -0.003019 -521637.000000 0 0 1
23.400552 -22.827934 -22.861897 39.891938 -0.773012 2.181075 0.061672 -0.003629 -33459.800000 0 0 1
22.947952 -23.648134 -23.982697 40.755521 -0.800424 2.199940 0.030892 -0.010441 -303680.000000 0 0 1
22.236252 -22.688434 -24.934597 40.385023 -0.795463 2.236257 0.019955 -0.004588 36124.400000 0 0 1
23.049552 -21.925734 -25.815857 40.969234 -0.760416 2.252514 0.013813 0.000657 -98115.500000 0 0 1
22.209952 -21.067834 -26.513157 40.497939 -0.759014 2.284554 0.002307 0.006515 -154131.000000 0 0 1
22.895352 -20.400334 -27.760797 41.364630 -0.727834 2.306520 0.005063 0.008558 349552.000000 0 0 1
22.122752 -19.346734 -28.398187 40.867705 -0.718557 2.339051 0.005873 0.002610 545419.000000 0 0 1
22.595352 -19.022034 -29.729717 41.907562 -0.699747 2.359460 0.016570 -0.006256 -51055.900000 0 0 1
21.613252 -18.017834 -30.343557 41.382441 -0.694924 2.393882 0.035581 -0.009520 -55312.600000 0 0 1
20.377752 -18.573334 -30.781997 41.324966 -0.739106 2.411146 0.032446 -0.012618 234079.000000 0 0 1
19.633652 -17.615634 -31.470017 41.062791 -0.731275 2.443995 0.032496 -0.015953 244663.000000 0 0 1
18.249052 -18.090834 -32.010477 41.048469 -0.781044 2.465177 0.026549 -0.013530 339311.000000 0 0 1
18.294252 -18.696634 -33.302057 42.347028 -0.796276 2.475769 0.039302 -0.014454 343255.000000 0 0 1
17.158752 -19.496934 -33.569437 42.443613 -0.849100 2.483105 0.022838 -0.016144 -129953.000000 0 0 1
17.433052 -20.424834 34.466011 43.692002 -0.864261 0.661877 0.052849 -0.014624 -452773.000000 0 0 1
18.445352 -21.357434 34.609133 44.656053 -0.858431 0.684057 0.055709 -0.008700 -498612.000000 0 0 1
18.391552 -22.197134 33.497964 44.193614 -0.878885 0.710583 0.047700 -0.011135 -282472.000000 0 0 1
19.304452 -23.418434 33.561071 45.248540 -0.881397 0.735187 0.031649 -0.004491 -254390.000000 0 0 1
18.946752 -24.463134 34.484825 46.331711 -0.911797 0.731306 0.035431 -0.007881 -26072.800000 0 0 1
19.186552 -24.187234 -33.421927 45.499135 -0.900184 2.395817 0.034230 -0.013872 -218321.000000 0 0 1
18.282352 -24.976034 -32.440987 44.838201 -0.938918 2.379673 0.021404 -0.009846 -236511.000000 0 0 1
18.423652 -26.380514 -32.433827 45.687149 -0.961158 2.360169 0.018160 -0.012060 42240.900000 0 0 1
19.514652 -26.860854 -31.679377 45.890196 -0.942500 2.332741 -0.000121 -0.012752 -79957.200000 0 0 1
19.665652 -28.373534 -31.661137 46.842533 -0.964717 2.312989 -0.001849 -0.009699 -574386.000000 0 0 1
18.698252 -29.054424 -30.924977 46.369585 -0.998962 2.300869 -0.010204 -0.005117 -403567.000000 0 0 1
18.805352 -30.418524 -30.833987 47.219304 -1.017087 2.282329 -0.010854 0.005898 -558013.000000 0 0 1
17.467552 -31.050264 -30.345657 46.798431 -1.058363 2.276321 0.003127 0.006403 447864.000000 0 0 1
16.386752 -30.960614 -31.272427 46.957959 -1.084002 2.299585 0.001681 -0.001764 111533.000000 0 0 1
16.597252 -31.683054 -32.499687 48.327160 -1.088249 2.308369 0.007651 -0.001374 -373540.000000 0 0 1
15.287652 -32.324184 -33.082297 48.713484 -1.129024 2.317359 0.017119 -0.003342 535580.000000 0 0 1
14.405752 -31.386034 -33.650937 48.218196 -1.140495 2.343242 0.013525 0.001371 -513777.000000 0 0 1
13.283252 -32.030774 -34.185481 48.693556 -1.177680 2.349073 -0.002809 0.004139 -176427.000000 0 0 1
12.401352 -31.118754 34.186247 47.863033 -1.191569 0.775242 -0.003950 0.017949 -87995.700000 0 0 1
11.911352 -30.131154 -34.265348 47.158041 -1.194334 2.384166 -0.004146 0.010587 -336212.000000 0 0 1
11.011552 -29.286244 34.323029 46.443608 -1.211152 0.739173 -0.013141 0.019083 28517.900000 0 0 1
10.323252 -28.246754 -33.981737 45.378487 -1.220410 2.417123 -0.012177 0.017405 245829.000000 0 0 1
9.478252 -28.863814 -33.032567 44.878809 -1.253512 2.397997 -0.011822 0.022345 -318194.000000 0 0 1
8.848752 -27.965554 -32.130867 43.505922 -1.264348 2.401699 0.008068 0.017750 -388142.000000 0 0 1
7.883752 -28.638264 -31.142717 43.036874 -1.302163 2.379842 0.000191 0.019006 -468329.000000 0 0 1
6.739652 -29.186024 -31.690137 43.606326 -1.343854 2.384350 0.002852 0.022167 -661426.000000 0 0 1
7.022152 -30.356334 -32.343607 44.910205 -1.343471 2.374864 -0.002342 0.019961 -1025080.000000 0 0 1
5.895752 -31.048204 -33.136067 45.790281 -1.383140 2.379870 0.005542 0.011708 -576734.000000 0 0 1
4.953452 -31.681254 -32.383407 45.573277 -1.415699 2.361117 0.008417 0.012046 -402151.000000 0 0 1
3.852652 -32.131114 -33.162217 46.335559 -1.451462 2.368418 0.019173 0.014362 -277737.000000 0 0 1
2.698852 -32.692344 -32.347847 46.070125 -1.488430 2.349200 0.002426 0.017441 -590204.000000 0 0 1
1.787452 -31.661234 -32.046987 45.084788 -1.514401 2.361454 -0.001335 0.023623 -390512.000000 0 0 1
0.877452 -32.042464 -31.067607 44.639508 -1.543419 2.340561 -0.011820 0.019955 -229003.000000 0 0 1
-0.181548 -30.952034 -30.774457 43.647779 1.564931 2.353309 -0.005501 0.018513 -218086.000000 0 0 1
-0.980248 -31.276424 -29.670077 43.121793 1.539465 2.329599 -0.021476 0.014439 215757.000000 0 0 1
-1.887748 -30.230644 -29.311847 42.150205 1.508432 2.339792 -0.009116 0.012513 207290.000000 0 0 1
-2.506048 -30.471284 -27.892157 41.385406 1.488738 2.310354 -0.003186 0.006820 155458.000000 0 0 1
-1.600448 -30.385754 -26.781357 40.535128 1.518174 2.292541 -0.009783 0.014736 176609.000000 0 0 1
-2.271448 -30.561554 -25.542097 39.894446 1.496609 2.265609 -0.005357 0.008990 387381.000000 0 0 1
-1.307548 -30.863044 -24.348597 39.333082 1.528456 2.238311 -0.016974 0.010104 270274.000000 0 0 1
-1.898848 -30.602654 -23.120897 38.401874 1.508827 2.216897 0.001332 0.001712 -416502.000000 0 0 1
-0.982248 -30.942364 -22.127997 38.053160 1.539063 2.191370 -0.004354 0.003352 -224380.000000 0 0 1
-1.466648 -30.659804 -20.712197 37.029309 1.522997 2.164393 -0.021099 0.008774 -15992.700000 0 0 1
-1.592648 -29.366404 -20.227397 35.694115 1.516616 2.173276 -0.020820 0.005187 162209.000000 0 0 1
-0.377348 -29.014974 -19.592197 35.012359 1.557792 2.164675 -0.012798 0.008077 24231.800000 0 0 1
-0.461848 -27.582074 -18.999797 33.495916 1.554053 2.173931 -0.010909 0.006471 103556.000000 0 0 1
-1.232248 -27.633634 -17.785997 32.885831 1.526234 2.142233 -0.010247 0.012469 300365.000000 0 0 1
-1.282248 -26.356154 -17.151897 31.471870 1.522184 2.147175 -0.008327 0.011077 -201797.000000 0 0 1
-2.283048 -26.269664 -16.003697 30.845192 1.484106 2.116289 -0.011308 0.014499 -493619.000000 0 0 1
-2.382648 -24.948234 -15.490397 29.462583 1.475581 2.124411 -0.004735 0.009609 245481.000000 0 0 1
-3.219648 -24.970934 -14.343497 28.976708 1.442568 2.088632 -0.013077 0.008921 -16234.800000 0 0 1
-2.921848 -23.768434 -13.432597 27.457428 1.448480 2.081986 -0.012326 0.012795 443952.000000 0 0 1
-1.697248 -23.832334 -12.680597 27.049184 1.499700 2.058726 -0.005506 0.006672 401857.000000 0 0 1
-1.462048 -22.656434 -11.930397 25.647339 1.506354 2.054624 -0.000911 0.007600 1560550.000000 0 0 1
-0.136648 -22.766534 -11.021597 25.294453 1.564794 2.021647 -0.002356 0.008620 1590260.000000 0 0 1
0.236552 -21.482334 -10.541397 23.930476 -1.559785 2.026953 -0.000340 0.010013 -590217.000000 0 1 0
1.416852 -21.445134 -9.793697 23.618166 -1.504824 1.998374 -0.000114 0.007232 -24154.000000 0 1 0
1.771852 -20.044534 -9.270297 22.155388 -1.482630 2.002503 0.004046 0.006686 -929329.000000 0 1 0
2.172152 -19.201634 -10.272597 21.884864 -1.458152 2.059399 0.002635 0.013930 120497.000000 0 1 0
3.134152 -18.181534 -9.987497 20.979542 -1.400093 2.066964 0.003169 0.007241 657956.000000 0 1 0
4.566452 -18.645034 -9.554997 21.442662 -1.330609 2.032648 0.017057 -0.002397 -155237.000000 0 1 0
4.584852 -19.267634 -8.278597 21.466201 -1.337185 1.966716 0.021841 -0.001364 -756393.000000 0 1 0
5.642852 -20.100634 -7.954897 22.341837 -1.297111 1.934838 0.031807 -0.001241 -702914.000000 0 1 0
5.219852 -21.166534 -6.931897 22.876193 -1.329012 1.878654 0.037928 -0.000929 -194927.000000 0 1 0
4.449652 -22.153734 -7.556597 23.826236 -1.372580 1.893524 0.024250 0.006890 -100102.000000 0 1 0
4.211952 -23.240334 -6.699697 24.550756 -1.391508 1.847194 0.028338 0.002569 -58647.700000 0 1 0
3.184452 -24.211234 -7.331097 25.496462 -1.440019 1.862447 0.022054 0.004710 -7577.200000 0 0 1
3.576252 -24.743634 -8.572797 26.429716 -1.427258 1.901134 0.018280 0.007390 90493.800000 0 0 1
2.519152 -25.386584 -9.255097 27.138195 -1.471889 1.918815 0.001971 0.010889 246409.000000 0 0 1
3.148252 -26.166534 -10.387197 28.328305 -1.451056 1.946226 0.002596 0.008338 92648.500000 0 0 1
3.581652 -27.439444 -9.979897 29.416826 -1.441001 1.916924 0.000541 0.006655 -400865.000000 0 0 1
4.285352 -28.002004 -11.067797 30.413362 -1.418937 1.943261 0.012391 0.002212 222460.000000 0 0 1
4.437052 -29.502684 -10.860097 31.749607 -1.421520 1.919899 0.006412 -0.000534 679789.000000 0 0 1
3.224752 -30.164784 -11.234097 32.349933 -1.464296 1.925453 0.002845 0.004613 539243.000000 0 0 1
3.380752 -31.531304 -10.937997 33.545378 -1.463985 1.902935 0.007212 0.000510 988041.000000 0 0 1
2.235252 -32.430124 -11.592297 34.512181 -1.501980 1.913346 0.000729 -0.003111 882153.000000 0 0 1
2.274852 -32.294724 -13.012897 34.892115 -1.500472 1.952979 0.000940 -0.004941 848874.000000 0 0 1
1.369152 -33.280664 -13.601097 35.978703 -1.529680 1.958466 -0.006372 -0.006410 381351.000000 0 0 1
0.951252 -33.196524 -15.048897 36.460710 -1.542149 1.996260 -0.016252 -0.001032 -332862.000000 0 0 1
-0.026248 -32.214794 -15.208797 35.624446 1.569982 2.011881 -0.010111 -0.001591 -413432.000000 0 0 1
-0.457348 -32.241424 -16.550497 36.244138 1.556612 2.045010 -0.016476 -0.002342 -59949.500000 0 0 1
-1.692548 -31.342734 -16.799197 35.601190 1.516847 2.062209 -0.019730 0.005408 4494.540000 0 0 1
-2.861348 -31.861124 -16.216597 35.864977 1.481230 2.039978 -0.019235 0.001831 -624668.000000 0 0 1
-3.994848 -31.452904 -16.933697 35.944319 1.444462 2.061344 -0.013936 0.006361 658167.000000 0 0 1
-5.388848 -31.677674 -16.256797 36.011084 1.402294 2.039173 -0.013682 -0.002130 463122.000000 0 0 1
-5.512848 -30.843164 -15.123897 34.791156 1.393926 2.020507 -0.022460 -0.003432 -228929.000000 0 0 1
-6.842748 -30.755504 -14.651597 34.747569 1.351874 2.006070 -0.014881 0.000286 374383.000000 0 0 1
-7.349248 -31.950514 -13.760397 35.555525 1.344709 1.968185 -0.009104 -0.009425 -40596.800000 0 0 1
-7.556648 -33.137274 -14.528797 36.963060 1.346590 1.974756 -0.005262 -0.007821 -46438.400000 0 0 1
-8.252548 -34.109655 -13.722897 37.681442 1.333416 1.943550 0.005187 -0.007265 336595.000000 0 0 1
-8.760848 34.168884 -14.484697 38.132290 -1.319805 1.960435 0.010834 -0.000989 -96282.900000 0 0 1
-7.746448 33.182882 -14.595197 37.069271 -1.341456 1.975480 -0.007206 -0.001755 -255241.000000 0 0 1
-8.195848 31.974002 -15.185597 36.333333 -1.319870 2.001986 -0.001395 -0.010476 -323856.000000 0 0 1
-6.966948 -21.867934 -2.938797 23.138311 1.262371 1.698150 0.003958 0.003061 267980.000000 0 1 0
-7.062148 -20.876834 -3.977197 22.394960 1.244603 1.749337 -0.002875 0.006403 212848.000000 0 1 0
-5.895848 -20.799434 -4.801897 22.145783 1.294580 1.789364 -0.006966 0.004699 506009.000000 0 1 0
-6.031948 -19.760334 -5.884297 21.482089 1.274525 1.848259 -0.000148 0.000801 591677.000000 0 1 0
-6.920948 -20.171634 -6.962997 22.433851 1.240279 1.886388 -0.007833 0.008552 214186.000000 0 1 0
-7.033148 -19.120234 -7.893697 21.848547 1.218319 1.940449 -0.011620 -0.002581 -49660.000000 0 1 0
-7.813248 -19.523434 -9.190097 22.949275 1.190119 1.982807 -0.009306 -0.000096 260175.000000 0 1 0
-7.181448 -20.487334 -9.969297 23.889139 1.233648 2.001285 -0.012177 0.003966 -463010.000000 0 1 0
-8.037348 -20.852234 -11.037497 24.924706 1.202902 2.029553 -0.000119 0.011065 -187933.000000 0 1 0
-7.383148 -21.558234 -12.159897 25.828888 1.240841 2.060979 -0.005481 0.008185 -359532.000000 0 0 1
-6.444748 -20.810534 -12.898797 25.317821 1.270476 2.105371 0.000066 0.006604 -485878.000000 0 0 1
-6.121748 -21.480234 -14.077497 26.401746 1.293162 2.133179 -0.001969 0.002336 -160369.000000 0 0 1
-5.060848 -20.743934 -14.893397 26.033368 1.331503 2.179847 0.000197 0.005133 -893586.000000 0 0 1
-3.767548 -20.750134 -14.352997 25.510214 1.391186 2.168369 -0.005163 0.012257 -174812.000000 0 0 1
-2.853848 -19.917534 -15.085097 25.147818 1.428482 2.214119 -0.000100 0.010604 120906.000000 0 0 1
-3.175548 -18.380934 -15.270697 24.106784 1.399722 2.256814 0.003818 0.008480 -1061140.000000 0 1 0
-4.154448 -18.016534 -16.239797 24.608656 1.344167 2.291511 0.011232 0.017841 65744.700000 0 1 0
-3.767148 -18.309434 -17.571397 25.655034 1.367879 2.325277 0.020349 0.012119 -247787.000000 0 0 1
-5.033748 -18.187634 -18.455897 26.396000 1.300788 2.345064 0.021431 0.019550 232863.000000 0 0 1
-5.989748 -19.073034 -17.927997 26.852761 1.266507 2.301832 0.013264 0.018474 -1338270.000000 0 0 1
-7.202648 -18.956634 -18.584597 27.506715 1.207690 2.312627 0.011857 0.016787 -689747.000000 0 0 1
-8.230348 -19.939134 -18.001297 28.095452 1.179327 2.266231 0.020756 0.016745 -212315.000000 0 0 1
-7.917148 -21.306934 -18.224397 29.134092 1.215031 2.246614 0.011280 0.020529 -206655.000000 0 0 1
-8.896948 -22.169034 -17.771897 29.773513 1.189150 2.210432 0.019236 0.012498 -334120.000000 0 0 1
-8.402448 -23.633634 -17.917997 30.825386 1.229204 2.191090 0.013882 0.007751 -268700.000000 0 0 1
-8.244548 -24.003634 -19.293997 31.881113 1.239950 2.220796 0.008210 0.008636 544160.000000 0 0 1
-7.381448 -25.124564 -19.557597 32.683774 1.285043 2.212285 0.001742 0.007786 -450172.000000 0 0 1
-5.885248 -24.878434 -19.518697 32.164455 1.338506 2.222876 -0.005322 0.017451 -1173050.000000 0 0 1
-5.416348 -23.914034 -20.457297 31.933037 1.348062 2.266116 0.003729 0.023832 98469.000000 0 0 1
-5.219448 -22.562734 -19.962997 30.575167 1.343465 2.282223 0.021789 0.023067 -337485.000000 0 0 1
-4.167748 -22.356834 -18.857697 29.543373 1.386492 2.263091 0.018502 0.027991 289268.000000 0 0 1
-2.842948 -22.556134 -19.378197 29.872664 1.445419 2.276663 0.014752 0.020876 133772.000000 0 0 1
-1.943348 -22.255234 -18.342397 28.905286 1.483696 2.258247 0.007252 0.017668 148633.000000 0 0 1
-0.498748 -22.730934 -18.659397 29.412875 1.548858 2.258023 0.009026 0.012676 212962.000000 0 0 1
0.250752 -21.974634 -19.564397 29.423002 -1.559386 2.298204 0.015479 0.008530 349921.000000 0 0 1
1.592952 -22.482934 -19.679997 29.921934 -1.500063 2.288573 0.014429 0.010117 712225.000000 0 0 1
2.405152 -21.855634 -20.791197 30.260988 -1.461190 2.328235 0.016354 0.012848 -176767.000000 0 0 1
2.079552 -22.232134 -22.138497 31.443686 -1.477530 2.351906 0.015007 0.004170 -95557.800000 0 0 1
1.342252 -21.203334 -22.771197 31.143385 -1.507577 2.390836 0.006916 0.004064 -513376.000000 0 0 1
0.976552 -21.629234 -24.215797 32.483569 -1.525677 2.412049 0.017275 0.003881 235439.000000 0 0 1
0.311852 -20.602534 -24.949297 32.357829 -1.555661 2.451275 0.024891 0.008783 718081.000000 0 0 1
-1.049448 -20.343634 -24.553097 31.903281 1.519256 2.449027 0.037511 0.009161 423327.000000 0 0 1
-1.758848 -19.264134 -25.423107 31.945810 1.479747 2.491156 0.033891 0.013518 -45879.300000 0 0 1
-1.248448 -17.968334 -25.192797 30.969286 1.501427 2.520902 0.045229 0.005373 50026.000000 0 0 1
-1.903548 -16.910534 -25.863577 30.959882 1.458702 2.559638 0.028619 0.008265 57964.000000 0 0 1
-1.249648 -15.536734 -25.472047 29.862634 1.490537 2.592453 0.035237 0.005338 1234700.000000 0 0 1
0.102152 -15.343834 -25.955187 30.151541 -1.564139 2.607684 0.034468 -0.001857 794932.000000 0 0 1
0.699052 -14.123634 -25.482607 29.143249 -1.521342 2.634976 0.031013 -0.007787 386388.000000 0 0 1
0.141252 -12.780234 -26.057227 29.022981 -1.559744 2.685576 0.020176 0.000644 -67460.200000 0 0 1
0.868152 -11.630434 -25.676377 28.201011 -1.496290 2.715233 0.019591 -0.002990 21130.300000 0 0 1
0.487052 -10.486434 -26.453777 28.460584 -1.524384 2.763819 0.017255 0.000975 -541700.000000 0 0 1
1.403452 -9.289634 -26.222427 27.854670 -1.420853 2.797558 0.020132 -0.006463 1140180.000000 0 0 1
2.793752 -9.401734 -26.619357 28.368782 -1.281954 2.788572 0.020730 0.005387 954690.000000 0 0 1
2.999252 -9.332534 -28.022867 29.687923 -1.259846 2.805088 0.008108 0.009913 -87286.600000 0 0 1
4.487752 -9.224134 -28.486297 30.276950 -1.117988 2.795949 -0.006151 0.022639 75144.800000 0 0 1
4.882652 -7.885534 -28.598637 30.064996 -1.016385 2.827986 -0.017345 0.016294 253010.000000 0 0 1
6.141252 -7.713634 -29.229547 30.847715 -0.898404 2.816256 -0.020424 0.017580 8915.540000 0 0 1
7.390352 -7.732234 -28.288407 30.242994 -0.808002 2.780102 -0.013266 0.009591 -53275.500000 0 0 1
7.891552 -8.983534 -27.732507 30.200537 -0.850018 2.734507 -0.007189 0.008132 648440.000000 0 0 1
8.341052 -9.867734 -28.749497 31.519500 -0.869046 2.719217 -0.007005 -0.003326 -523453.000000 0 0 1
8.862452 -11.255134 -28.155267 31.590191 -0.903777 2.670926 0.008263 -0.011178 410218.000000 0 0 1
7.779752 -12.061034 -27.698017 31.195724 -0.997922 2.663510 0.008150 -0.003798 332179.000000 0 0 1
8.167852 -13.310334 -27.202547 31.366501 -1.020402 2.620445 0.013641 0.001592 -100166.000000 0 0 1
8.923552 -14.345334 -28.108167 32.794625 -1.014319 2.600404 0.019295 -0.013120 390319.000000 0 0 1
8.154352 -14.852534 -29.234197 33.789488 -1.068705 2.616318 0.019128 -0.023975 -11113.700000 0 0 1
8.854952 -15.746234 -30.021027 35.037353 -1.058518 2.599884 0.015524 -0.025268 -464669.000000 0 0 1
7.911552 -16.366634 -31.052127 35.981856 -1.120521 2.611963 0.009891 -0.028435 -274290.000000 0 0 1
7.393552 -15.387134 -31.899847 36.180502 -1.122868 2.650220 0.003743 -0.026834 -124430.000000 0 0 1
6.427152 -15.874734 -32.775707 36.980568 -1.186102 2.660080 0.007043 -0.019925 -183484.000000 0 0 1
5.691452 -14.692734 -33.522427 37.040818 -1.201229 2.702207 0.007653 -0.009906 84373.000000 0 0 1
6.517552 -13.884634 -34.284877 37.559477 -1.131921 2.720923 0.012251 -0.004553 -155047.000000 0 0 1
5.670352 -13.096434 34.136097 36.999225 -1.162195 0.395986 -0.013306 0.000392 -70298.100000 0 0 1
6.295552 -11.956934 33.279216 35.918080 -1.086159 0.385711 0.001212 0.003403 -580103.000000 0 0 1
6.793052 -12.496134 32.068279 35.080955 -1.072871 0.417459 0.000912 0.002902 1486.150000 0 0 1
7.219752 -11.423834 31.275409 34.070222 -1.007186 0.407867 0.002737 0.007369 -245776.000000 0 0 1
7.526152 -11.765334 29.799539 32.910159 -1.001704 0.438283 0.000302 0.020156 191258.000000 0 0 1
6.394552 -12.099134 29.021279 32.086040 -1.084599 0.440630 0.005099 0.028599 106633.000000 0 0 1
6.830152 -12.424234 27.740639 31.153742 -1.068149 0.472478 0.008794 0.024987 -175427.000000 0 0 1
5.919852 -13.312034 26.878399 30.572917 -1.152359 0.496706 0.004755 0.008839 -582942.000000 0 0 1
5.826352 -14.719134 27.330609 31.584196 -1.193885 0.524997 0.009713 0.011007 -6096.860000 0 0 1
5.396952 -15.471934 26.183879 30.888563 -1.235171 0.559184 -0.005390 0.008622 -1230350.000000 0 0 1
3.929152 -15.632234 25.925049 30.527252 -1.324548 0.556247 -0.011501 0.003632 -1232150.000000 0 0 1
3.315852 -14.403934 25.546289 29.514083 -1.344534 0.524523 -0.019447 0.007115 -629254.000000 0 0 1
1.963852 -14.601134 25.231639 29.217896 -1.437099 0.528493 -0.022295 0.007861 -229152.000000 0 0 1
1.265152 -13.312034 24.791609 28.167974 -1.476043 0.494651 -0.014795 0.013318 -469692.000000 0 0 1
1.537152 -12.801634 23.472599 26.780731 -1.451294 0.502309 -0.018573 0.018221 -193963.000000 0 0 1
0.779052 -11.655634 23.099199 25.885010 -1.504057 0.468210 -0.012730 0.027843 1077230.000000 0 0 1
-0.718148 -11.992734 22.739199 25.717943 1.510986 0.486068 -0.011159 0.026532 380055.000000 0 0 1
-0.770948 -12.798034 21.550499 25.076045 1.510629 0.536690 -0.013139 0.018832 -497374.000000 0 0 1
-2.074848 -13.295434 21.397599 25.277081 1.415988 0.561379 -0.009506 0.015695 -110774.000000 0 0 1
-2.332348 -14.202634 20.181799 24.788297 1.408030 0.619504 -0.006817 0.008799 -323147.000000 0 1 0
-1.846048 -15.529234 20.329999 25.649052 1.452476 0.655699 -0.008094 0.004713 -65741.400000 0 0 1
-1.829948 -16.184334 19.038699 25.055008 1.458205 0.707674 -0.007114 0.009091 -513215.000000 0 0 1
-2.391048 -17.598634 19.010399 26.015847 1.435758 0.751415 -0.010990 0.007731 -89676.200000 0 0 1
-1.994048 -18.492234 17.983799 25.871915 1.463380 0.802225 -0.022397 0.008848 -91390.500000 0 0 1
-2.878648 -19.602334 17.986699 26.759287 1.424986 0.833665 -0.010609 0.000795 119506.000000 0 0 1
-2.424948 -20.668934 16.961499 26.847303 1.454007 0.886953 -0.011107 0.001511 -304578.000000 0 0 1
-1.214748 -21.326834 17.158199 27.399147 1.513899 0.894087 -0.021171 -0.007258 -816564.000000 0 0 1
-1.185348 -22.333134 18.172999 28.817214 1.517770 0.888432 -0.016924 -0.007556 37345.800000 0 0 1
0.209552 -22.965534 18.397899 29.426899 -1.561672 0.895400 -0.022287 -0.005391 151229.000000 0 0 1
0.694752 -23.743634 17.286999 29.378277 -1.541544 0.941683 0.015150 -0.002144 -185369.000000 0 0 1
1.981052 -24.271634 17.552199 30.018602 -1.489357 0.946273 0.005245 0.013640 -599911.000000 0 0 1
3.041252 -23.648234 16.723299 29.123134 -1.442895 0.959136 0.011884 -0.006055 -992094.000000 0 0 1
3.261652 -22.297534 17.034399 28.248702 -1.425548 0.923521 -0.003387 -0.005234 -287467.000000 0 0 1
4.212752 -21.727734 16.157299 27.402555 -1.379284 0.940199 -0.004105 -0.014257 10679.400000 0 0 1
4.759152 -20.423234 16.694299 26.804060 -1.341856 0.898445 0.009305 -0.004246 -662024.000000 0 0 1
5.524052 -20.686334 17.877199 27.893258 -1.309847 0.875107 -0.002832 0.007535 30372.700000 0 0 1
6.150552 -19.578034 18.470499 27.609564 -1.266404 0.837948 0.007882 0.009828 421287.000000 0 0 1
7.284152 -18.879334 17.653799 26.854138 -1.202568 0.853439 0.020190 0.000310 -569024.000000 0 0 1
6.846552 -18.097634 16.596499 25.492026 -1.209125 0.861834 0.017060 -0.002528 -513106.000000 0 0 1
7.896052 -17.465534 15.952499 24.937417 -1.146203 0.876687 0.023077 0.005220 -352571.000000 0 1 0
7.323852 -16.585734 14.805699 23.407992 -1.154970 0.886012 0.022380 -0.001482 125765.000000 0 1 0
6.572852 -17.308434 13.873999 23.135949 -1.207869 0.927704 0.021406 0.004072 -269236.000000 0 1 0
6.024352 -16.520834 12.882399 21.798784 -1.221129 0.938537 0.021603 -0.005534 -129244.000000 0 1 0
6.597452 -16.730734 11.460899 21.325948 -1.195186 1.003427 0.033007 -0.005100 -277396.000000 0 1 0
7.947152 -16.383834 11.353799 21.459171 -1.119172 1.013270 0.024385 0.003737 -625880.000000 0 1 0
8.396852 -16.438034 10.019699 21.002630 -1.098531 1.073480 0.021474 -0.002857 780001.000000 0 1 0
9.957352 -16.396634 9.920399 21.596592 -1.025041 1.093533 0.011044 0.005892 740279.000000 0 1 0
10.347852 -16.062434 8.624399 20.963303 -0.998490 1.146802 0.007715 -0.008574 -255845.000000 0 1 0
11.740752 -15.909934 8.461299 21.507321 -0.935051 1.166453 0.014231 -0.005302 155045.000000 0 1 0
12.506052 -17.042734 7.732499 22.508835 -0.937741 1.220121 -0.003099 0.000096 17907.200000 0 1 0
12.634552 -18.272534 8.460699 23.771850 -0.965831 1.206906 -0.022873 0.009576 130240.000000 0 1 0
13.301952 -19.267534 7.703299 24.647933 -0.966555 1.252938 -0.015352 0.009171 -80981.700000 0 1 0
13.714852 -20.545134 8.484099 26.118569 -0.982184 1.239964 -0.006969 0.012465 -545517.000000 0 0 1
12.700752 -21.411634 8.907899 26.440837 -1.035414 1.227175 0.008552 0.008521 -396865.000000 0 0 1
13.220652 -22.524534 9.652699 27.844477 -1.040032 1.216783 0.011986 0.005107 -14302.400000 0 0 1
12.112252 -23.378934 10.275199 28.264128 -1.092786 1.198729 0.024852 -0.002978 162224.000000 0 0 1
11.874452 -22.995034 11.643699 28.378688 -1.094121 1.148016 0.024945 -0.000605 -869429.000000 0 0 1
11.071552 -23.822834 12.441199 29.066994 -1.135748 1.128498 0.029014 0.007014 -366953.000000 0 0 1
11.430752 -25.261914 12.864099 30.566509 -1.145874 1.136408 0.028199 -0.006766 -684215.000000 0 0 1
12.554252 -25.365994 13.665999 31.429324 -1.111217 1.120961 0.002575 -0.014907 -781857.000000 0 0 1
12.644852 -26.688004 14.158699 32.750734 -1.128325 1.123736 0.018410 -0.030604 -190126.000000 0 0 1
13.815952 -26.803334 15.128099 33.736607 -1.094860 1.105802 0.033705 -0.030349 -305657.000000 0 0 1
13.600752 -26.189794 16.390599 33.757036 -1.091816 1.063809 0.033545 -0.027996 81777.000000 0 0 1
14.160852 -26.934154 17.443399 35.074928 -1.086755 1.050292 0.031543 -0.030052 -655079.000000 0 0 1
13.809752 -26.301884 18.795299 35.153401 -1.087312 1.006685 0.020999 -0.027881 -327261.000000 0 0 1
14.402452 -25.055644 18.963499 34.566316 -1.049098 0.990093 -0.001987 -0.018773 -349634.000000 0 0 1
15.762852 -25.037534 19.309099 35.329689 -1.008918 0.992569 0.007408 -0.017789 -243826.000000 0 0 1
16.345152 -23.569734 19.559599 34.717060 -0.964459 0.972301 -0.012709 -0.008350 89521.200000 0 0 1
16.420752 -22.664834 18.503999 33.551956 -0.943814 0.986632 -0.021530 -0.005320 266413.000000 0 0 1
15.165152 -22.052634 18.255199 32.396802 -0.968387 0.972195 -0.014559 -0.004658 -307919.000000 0 0 1
15.239952 -20.844334 17.252499 31.054647 -0.939481 0.981769 -0.037368 0.000075 -267330.000000 0 0 1
15.875052 -19.654334 17.602699 30.792290 -0.891370 0.962270 -0.037089 0.005456 266047.000000 0 0 1
17.288252 -19.823334 17.461199 31.571216 -0.853602 0.984748 -0.034028 -0.000794 156370.000000 0 0 1
18.045252 -18.521134 17.806799 31.396586 -0.798412 0.967746 -0.016901 0.004072 -486149.000000 0 0 1
18.275252 -18.381434 19.197599 32.255383 -0.788295 0.933313 -0.022974 0.005546 162159.000000 0 0 1
18.607252 -17.066834 19.649299 31.993774 -0.742245 0.909475 -0.016497 0.003226 -167081.000000 0 0 1
19.276652 -16.984534 21.025199 33.198233 -0.722271 0.884957 -0.007072 0.008741 -486915.000000 0 0 1
20.584452 -17.463234 21.129199 34.280129 -0.703547 0.906673 0.001538 0.014487 -347029.000000 0 0 1
21.125452 -17.333934 22.441299 35.360457 -0.687131 0.883249 0.012112 0.019864 -174036.000000 0 0 1
32.784804 -1.204934 -8.217797 33.820517 -0.036736 1.816236 0.043120 0.002021 231978.000000 0 0 1
34.110703 -0.972834 -8.673397 35.209576 -0.028512 1.819695 0.014197 0.002577 375427.000000 0 0 1
34.811321 -2.201334 -8.733197 35.957512 -0.063152 1.816125 0.016658 -0.007248 1156140.000000 0 0 1
-33.445668 -2.147734 -9.085897 34.724329 0.064128 1.835536 0.013743 -0.006319 1091570.000000 0 0 1
-32.862388 -3.313334 -8.621997 34.135811 0.100485 1.826141 0.013356 -0.013976 -1328470.000000 0 0 1
-31.556958 -3.394834 -9.045097 33.002731 0.107166 1.848420 0.019466 -0.018079 -1478680.000000 0 0 1
-30.751208 -4.372834 -8.184897 32.120881 0.141253 1.828453 0.028246 -0.016068 -285437.000000 0 0 1
-30.363978 -3.845634 -6.912297 31.377379 0.125980 1.792914 0.023246 -0.010597 -514417.000000 0 0 1
-29.238158 -4.439934 -6.395297 30.256945 0.150703 1.783769 0.022009 -0.008756 -802002.000000 0 0 1
-28.934348 -3.831134 -4.992697 29.610828 0.131642 1.740216 0.030784 -0.012140 -503476.000000 0 0 1
-28.304188 -2.579634 -4.896497 28.840202 0.090889 1.741403 0.026974 -0.012047 365138.000000 0 0 1
-28.376088 -2.113534 -3.560997 28.676647 0.074346 1.695295 0.023325 -0.005399 -213502.000000 0 0 1
-27.965558 -0.645434 -3.211497 28.156753 0.023076 1.685103 0.051085 -0.008936 -1620890.000000 0 0 1
-26.605938 -0.545434 -3.138197 26.795927 0.020498 1.688180 0.026176 0.004198 -1184620.000000 0 0 1
-26.300588 0.800866 -2.834497 26.465009 -0.030441 1.678106 0.030074 0.000886 728083.000000 0 0 1
-24.868048 0.811066 -2.165197 24.975302 -0.032603 1.657599 0.002357 0.003677 795298.000000 0 1 0
-24.912948 0.046066 -0.964997 24.931673 -0.001849 1.609512 0.010870 -0.000625 352614.000000 0 1 0
-23.601448 -0.173634 -0.490397 23.607181 0.007357 1.591571 -0.010093 -0.001705 -365354.000000 0 1 0
-23.477348 -1.205934 0.624003 23.516580 0.051321 1.544259 -0.019381 -0.001092 -399727.000000 0 1 0
-23.550048 -2.535434 0.093903 23.686325 0.107248 1.566832 -0.010176 -0.001720 581100.000000 0 1 0
-22.643048 -3.367234 0.808803 22.906332 0.147628 1.535480 -0.016472 0.002065 -149167.000000 0 1 0
-23.020948 -4.863834 0.742103 23.540851 0.208217 1.539267 -0.009212 0.003875 76881.600000 0 1 0
-23.965248 -5.322134 1.743903 24.610962 0.218531 1.499878 -0.006378 0.006150 603721.000000 0 1 0
-24.480948 -6.559934 1.418403 25.384275 0.261810 1.514890 0.004391 0.008821 -415428.000000 0 0 1
-25.692778 -6.989234 2.269703 26.723020 0.265604 1.485759 0.006370 0.002093 -67416.200000 0 0 1
-25.492918 -7.255234 3.651903 26.755629 0.277267 1.433878 0.001636 0.004259 49501.300000 0 0 1
-26.713438 -7.753834 4.161203 28.125528 0.282497 1.422300 0.006585 0.015504 214940.000000 0 0 1
-26.672558 -7.987134 5.704603 28.421157 0.290953 1.368707 0.011218 0.011104 -378040.000000 0 0 1
-25.737968 -8.954534 6.065603 27.918063 0.334813 1.351785 0.014779 0.027298 -229294.000000 0 0 1
-25.518968 -9.122234 7.484603 28.114981 0.343313 1.301333 0.013162 0.017074 -253016.000000 0 0 1
-24.876548 -8.047634 8.308303 27.434193 0.312877 1.263120 0.016274 0.011665 -274714.000000 0 0 1
-23.554648 -7.766434 7.874403 26.022013 0.318495 1.263371 0.020117 0.009827 70187.500000 0 0 1
-23.223948 -6.449134 8.187603 25.455450 0.270868 1.243331 0.020453 0.000333 -180033.000000 0 0 1
-21.750748 -6.247934 7.763403 23.924928 0.279720 1.240324 0.005187 0.002763 501314.000000 0 1 0
-20.793948 -6.720234 8.724903 23.530273 0.312587 1.190932 0.017498 -0.003082 -93772.500000 0 1 0
-19.490348 -6.482034 8.272303 22.143203 0.321069 1.187929 0.010569 -0.003156 -94824.400000 0 1 0
-18.390548 -7.021734 9.220403 21.737821 0.364730 1.132758 0.004749 0.001253 -19382.700000 0 1 0
-18.355648 -6.147634 10.302103 21.928442 0.323176 1.081726 0.010656 0.006402 98507.000000 0 1 0
-17.291348 -6.410234 11.193203 21.572427 0.355012 1.025272 -0.000203 0.008655 -151490.000000 0 1 0
-17.035248 -5.173534 12.011403 21.476474 0.294844 0.977277 -0.010074 0.002316 -818673.000000 0 1 0
-18.100548 -4.749634 12.773703 22.657369 0.256617 0.971845 -0.003112 0.000199 -712065.000000 0 1 0
-18.136348 -3.330734 13.117403 22.629343 0.181626 0.952481 0.000116 0.000087 120057.000000 0 1 0
-19.370148 -3.010534 13.998003 24.087550 0.154188 0.950680 0.001981 -0.002591 85098.800000 0 1 0
-19.328748 -3.727934 15.176703 24.856193 0.190530 0.914003 0.004398 0.007880 357115.000000 0 1 0
-20.565248 -3.902934 15.860703 26.262601 0.187552 0.922377 0.004858 0.014154 250150.000000 0 0 1
-20.365548 -4.965134 16.956203 26.961471 0.239136 0.890652 0.005088 0.026843 -178181.000000 0 0 1
-21.269648 -4.748434 17.998903 28.264927 0.219647 0.880465 -0.000133 0.020179 -40511.200000 0 0 1
-20.995148 -5.654934 19.073603 28.923639 0.263101 0.850714 -0.005181 0.017395 -631763.000000 0 0 1
-21.737948 -5.345034 20.388003 30.278350 0.241102 0.832062 -0.007757 0.031168 -479279.000000 0 0 1
-21.451648 -4.101634 20.971003 30.278368 0.188923 0.805700 -0.011933 0.026262 412457.000000 0 0 1
-22.069248 -4.065034 22.267503 31.613572 0.182153 0.789268 -0.005314 0.012154 -1832.900000 0 0 1
-22.029948 -2.668134 22.844503 31.848216 0.120527 0.770887 -0.001681 0.010559 63288.900000 0 0 1
-22.910748 -1.744434 22.222203 31.965165 0.075994 0.802097 -0.001328 0.009826 84520.400000 0 0 1
-22.613348 -0.461934 22.696403 32.042216 0.020425 0.783669 -0.001206 -0.000122 -274100.000000 0 0 1
-23.661548 0.509166 22.118903 32.394043 -0.021515 0.819197 -0.002215 0.000583 145861.000000 0 0 1
-24.883748 0.315066 22.801803 33.752369 -0.012661 0.829070 -0.002907 -0.001110 40611.200000 0 0 1
-25.926688 1.160466 22.300703 34.217849 -0.044730 0.860937 0.000136 -0.000573 143006.000000 0 0 1
-27.037428 1.279966 23.329703 35.734240 -0.047305 0.859433 0.004002 -0.000622 -552586.000000 0 0 1
-26.755518 2.175266 24.394903 36.272591 -0.081123 0.833156 -0.000728 0.006367 119979.000000 0 0 1
-27.773858 2.145866 25.373903 37.680591 -0.077109 0.832005 -0.006912 0.004033 -119210.000000 0 0 1
-27.460668 3.068666 26.631803 38.376529 -0.111286 0.803821 0.000032 0.004311 -128458.000000 0 0 1
-26.377078 2.501066 27.320803 38.058269 -0.094537 0.770062 -0.008509 0.001864 217701.000000 0 0 1
-25.987458 3.271866 28.441403 38.664797 -0.125243 0.744260 -0.010640 -0.002136 -305670.000000 0 0 1
-24.969848 2.609866 29.392303 38.655041 -0.104143 0.706907 0.000821 -0.004711 -78473.400000 0 0 1
-25.414338 1.584766 30.250203 39.540800 -0.062277 0.699696 -0.004415 -0.003918 546329.000000 0 0 1
-24.398348 1.417666 31.254103 39.675032 -0.058040 0.663645 0.003943 -0.013936 544960.000000 0 0 1
-24.709948 0.354066 32.314103 40.680563 -0.014328 0.652880 -0.007896 -0.018753 -78510.000000 0 0 1
-24.659948 -0.934634 31.704103 40.176321 0.037883 0.661415 -0.009046 -0.016895 -90586.600000 0 0 1
-25.139698 -1.979334 32.547603 41.173640 0.078571 0.659178 -0.002317 -0.013126 -428804.000000 0 0 1
-25.939198 -3.006734 31.773203 41.126863 0.115400 0.687924 -0.006296 -0.011876 -151325.000000 0 0 1
-27.177658 -2.663434 31.181303 41.448675 0.097689 0.719270 -0.000604 -0.000635 129902.000000 0 0 1
-27.073608 -1.820334 30.048503 40.487114 0.067135 0.734487 -0.006268 -0.000687 345096.000000 0 0 1
-28.491778 -1.446734 29.428903 40.987008 0.050734 0.769864 -0.011962 -0.008818 1369940.000000 0 0 1
-29.209208 -0.687734 30.392903 42.158978 0.023541 0.765679 -0.002186 -0.006627 -1349560.000000 0 0 1
-30.538518 -0.508234 30.070203 42.861131 0.016641 0.793194 -0.004666 -0.007184 -873012.000000 0 0 1
-31.272878 -0.265434 31.419203 44.330911 0.008487 0.783082 -0.001548 -0.003492 -275766.000000 0 0 1
-31.218188 -1.353434 32.307203 44.946217 0.043327 0.768726 0.010117 -0.004762 -15188.900000 0 0 1
-32.042688 -1.156634 33.440903 46.328886 0.036081 0.764375 0.019551 -0.008051 -8834.640000 0 0 1
-32.374848 -2.439834 34.266203 47.204409 0.075220 0.758438 0.019406 -0.003816 -203676.000000 0 0 1
-33.243398 -3.322734 33.611703 47.391040 0.099621 0.782374 0.013331 -0.007646 -358558.000000 0 0 1
-33.295978 -4.512334 34.390303 48.079895 0.134701 0.773780 0.003458 -0.000580 271211.000000 0 0 1
-34.523444 -5.408034 33.980503 48.742073 0.155385 0.799383 -0.003179 0.000918 236364.000000 0 0 1
34.129995 -4.868634 34.581903 48.831017 -0.141694 0.783857 0.000700 -0.011537 -504485.000000 0 0 1
32.995004 -5.514534 34.014103 47.707857 -0.165602 0.777077 -0.002778 -0.014444 30173.900000 0 0 1
31.720894 -5.245734 -34.397792 47.084402 -0.163888 2.389932 0.010750 -0.010186 -870240.000000 0 0 1
31.576104 -5.944534 -33.185292 46.191465 -0.186083 2.372338 0.000715 -0.012463 -6474.450000 0 0 1
31.033114 -7.247634 -33.273092 46.072562 -0.229433 2.377758 -0.003638 -0.005163 9538.580000 0 0 1
29.635414 -7.339934 -33.950592 45.659337 -0.242789 2.409179 -0.004852 -0.006108 -892418.000000 0 0 1
28.612074 -6.969134 -33.077292 44.286870 -0.238921 2.414165 0.005687 -0.013507 -263102.000000 0 0 1
27.362724 -7.259834 -33.689192 44.004381 -0.259343 2.442750 0.029817 -0.011932 -134869.000000 0 0 1
26.174264 -6.747834 -32.864392 42.552246 -0.252310 2.453298 0.031302 -0.021506 316477.000000 0 0 1
24.937074 -7.411534 -33.195192 42.174747 -0.288895 2.476868 0.016901 -0.013270 950816.000000 0 0 1
23.889814 -7.036034 -32.286792 40.775801 -0.286422 2.484567 0.018648 -0.010862 158026.000000 0 0 1
22.586814 -7.740834 -32.751692 40.530951 -0.330170 2.511658 0.028085 -0.014354 -219211.000000 0 0 1
22.505914 -9.112934 -32.782392 40.795183 -0.384734 2.504090 0.031368 -0.021148 188145.000000 0 0 1
22.304514 -9.738734 -31.523892 39.825746 -0.411677 2.484130 0.035803 -0.023520 -425262.000000 0 0 1
22.273714 -11.319634 -31.566792 40.258102 -0.470191 2.472058 0.042019 -0.023781 227733.000000 0 0 1
21.083314 -11.833234 -32.156892 40.231794 -0.511448 2.496910 0.045583 -0.028874 182205.000000 0 0 1
21.026614 -13.210734 -31.925992 40.446396 -0.560959 2.480531 0.041980 -0.026075 -520920.000000 0 0 1
19.982314 -13.955834 -32.816692 40.877787 -0.609658 2.502773 0.034566 -0.018244 355341.000000 0 0 1
18.633914 -13.553234 -32.693392 39.997135 -0.628842 2.527668 0.031773 -0.017939 -96175.000000 0 0 1
18.281014 -12.237234 -33.088192 39.733787 -0.589890 2.554847 0.031470 -0.017550 -2005180.000000 0 0 1
17.019814 -11.717134 -32.449792 38.470174 -0.602926 2.574572 0.019985 -0.022406 -1359380.000000 0 0 1
15.898714 -12.178734 -33.108792 38.694738 -0.653675 2.597584 0.016208 -0.012088 -154870.000000 0 0 1
14.722214 -11.548734 -32.577792 37.568995 -0.665183 2.620239 0.028310 -0.012620 646880.000000 0 0 1
13.331514 -11.878334 -33.134292 37.639147 -0.727819 2.647321 0.015121 -0.007925 -374763.000000 0 0 1
13.017814 -13.254434 -33.137392 37.989871 -0.794404 2.630620 0.010782 -0.009948 -925956.000000 0 0 1
11.811214 -13.604034 -33.684392 38.199644 -0.855823 2.650459 -0.010404 -0.017504 -925089.000000 0 0 1
10.625914 -13.594034 -32.690192 36.964259 -0.907339 2.655945 -0.020355 -0.004111 -367841.000000 0 0 1
9.920214 -12.397534 -32.775492 36.418984 -0.895948 2.690465 -0.008473 -0.002771 -746229.000000 0 0 1
8.804214 -12.355634 -31.956392 35.374947 -0.951686 2.698342 -0.003009 -0.013949 -232587.000000 0 0 1
7.723914 -11.340134 -32.423092 35.206738 -0.972859 2.741267 -0.012837 -0.000786 10445.800000 0 0 1
8.188714 -10.013934 -32.348592 34.839135 -0.885336 2.761184 -0.011166 0.006746 780578.000000 0 0 1
7.149514 -9.195334 -32.874992 34.877426 -0.909917 2.801089 -0.011161 0.008913 -180925.000000 0 0 1
7.618214 -7.763734 -33.078092 34.820582 -0.794858 2.823898 -0.006409 0.018161 -151593.000000 0 0 1
7.922414 -7.063934 -31.926992 33.645158 -0.728177 2.820632 -0.022447 0.015438 269935.000000 0 0 1
8.336114 -5.752234 -32.302492 33.853065 -0.604009 2.837760 -0.023216 0.013376 -16148.300000 0 0 1
8.774214 -4.911834 -31.078792 32.665031 -0.510339 2.828674 -0.023640 0.013535 100853.000000 0 0 1
7.632214 -4.518134 -30.344792 31.614405 -0.534503 2.857230 -0.013375 0.016941 385925.000000 0 0 1
8.012514 -3.618634 -29.340592 30.629483 -0.424203 2.850462 -0.013879 0.011044 -462499.000000 0 0 1
6.798914 -2.941034 -28.764892 29.703433 -0.408269 2.889542 -0.005760 0.011490 -1416240.000000 0 0 1
6.123114 -2.092934 -29.654692 30.352490 -0.329359 2.926751 -0.000646 0.017092 449683.000000 0 0 1
4.847114 -1.679734 -29.175892 29.623449 -0.333592 2.967545 0.004205 0.010161 927628.000000 0 0 1
3.674014 -2.714734 -29.262392 29.616815 -0.636360 2.986732 -0.006307 0.006652 -533826.000000 0 0 1
3.863914 -3.774634 -28.320692 28.831221 -0.773711 2.953125 0.000403 0.001230 187174.000000 0 0 1
2.871914 -4.823834 -28.231792 28.784568 -1.033796 2.945299 0.008624 0.000993 480705.000000 0 0 1
3.004914 -5.709434 -27.024192 27.783702 -1.086326 2.907234 0.006228 -0.009965 -42261.000000 0 0 1
2.759914 -5.103234 -25.759092 26.404374 -1.075031 2.920059 0.014541 -0.011680 107878.000000 0 0 1
3.091914 -6.025834 -24.728692 25.639400 -1.096716 2.874265 0.021371 -0.018695 -158122.000000 0 0 1
2.854414 -5.372534 -23.331392 24.111526 -1.082425 2.886519 0.024885 -0.022616 163115.000000 0 1 0
3.768414 -4.305534 -23.104892 23.802828 -0.851825 2.898834 0.027268 -0.013232 137979.000000 0 1 0
3.460414 -3.741134 -21.844392 22.430961 -0.824359 2.912400 0.022994 -0.012253 -661055.000000 0 1 0
4.302214 -2.563534 -21.431192 22.008561 -0.537373 2.912031 0.022473 -0.017475 -405324.000000 0 1 0
5.640914 -2.905834 -21.159192 22.090161 -0.475683 2.850239 0.014651 -0.011092 -621036.000000 0 1 0
6.350014 -1.836534 -20.666692 21.698104 -0.281535 2.832025 0.021548 -0.009978 -451616.000000 0 1 0
7.790914 -2.209934 -20.285192 21.841959 -0.276395 2.761758 0.003740 -0.007455 -492585.000000 0 1 0
8.665814 -2.346234 -21.424292 23.229323 -0.264407 2.744774 0.010195 -0.011696 696816.000000 0 1 0
9.905614 -2.963234 -21.107492 23.503790 -0.290674 2.686104 0.001962 -0.012185 659609.000000 0 1 0
10.987514 -2.186434 -20.306392 23.191712 -0.196427 2.637449 -0.000122 -0.013618 -618019.000000 0 1 0
10.708114 -1.874434 -18.932092 21.831201 -0.173292 2.620355 -0.004702 -0.021105 826044.000000 0 1 0
11.890614 -1.431234 -18.231892 21.813689 -0.119790 2.560386 0.001374 -0.020762 306851.000000 0 1 0
12.121014 0.095566 -18.197892 21.865301 0.007884 2.553991 -0.001507 -0.022158 -618514.000000 0 1 0
12.571314 0.526266 -19.450692 23.165585 0.041838 2.567412 -0.001592 -0.014103 157003.000000 0 1 0
12.361814 1.938966 -19.612392 23.264134 0.155584 2.573691 -0.001979 -0.021927 -122959.000000 0 1 0
12.669414 2.409566 -21.097692 24.727164 0.187943 2.592923 0.008086 -0.012883 190800.000000 0 1 0
14.059914 2.366266 -21.373392 25.692456 0.166736 2.553308 0.008899 -0.013495 279504.000000 0 0 1
14.346314 3.250766 -22.420492 26.815344 0.222830 2.560944 0.016955 -0.014463 465823.000000 0 0 1
15.809114 3.209466 -22.978792 28.075855 0.200292 2.529511 0.022506 -0.010730 571443.000000 0 0 1
15.993714 2.185866 -23.864492 28.811298 0.135829 2.546869 0.017250 -0.008397 -47305.600000 0 0 1
16.956914 1.275366 -23.396292 28.923173 0.075071 2.513095 0.009806 -0.006485 -742826.000000 0 0 1
9.053252 27.301366 3.012203 28.920569 1.250603 1.466453 -0.027109 0.008897 -13650.100000 0 0 1
9.008252 27.584266 4.386803 29.347646 1.255143 1.420757 -0.023855 0.010586 101169.000000 0 0 1
10.259852 27.965866 4.924203 30.192747 1.219172 1.406972 -0.013216 0.010662 -671171.000000 0 0 1
10.203652 28.682766 6.252903 31.079163 1.229016 1.368221 -0.022953 0.002848 -322864.000000 0 0 1
9.887452 27.789566 7.253103 30.374811 1.228966 1.329680 -0.020782 -0.002402 43604.000000 0 0 1
9.789752 28.443466 8.512803 31.262402 1.239313 1.295012 -0.014412 -0.002892 -523718.000000 0 0 1
9.718152 27.507666 9.776203 30.768300 1.231195 1.247455 -0.015052 -0.008667 910139.000000 0 0 1
10.983052 26.960566 10.232903 30.857930 1.183949 1.232783 0.002080 -0.000264 1308520.000000 0 0 1
11.647952 26.008566 9.386403 30.003747 1.149731 1.252614 -0.008367 -0.003950 488038.000000 0 0 1
12.914552 25.308166 9.986803 30.116858 1.098949 1.232795 -0.003394 -0.003358 210248.000000 0 0 1
14.010652 26.147066 10.173003 31.360124 1.078889 1.240426 -0.005348 -0.004925 -456609.000000 0 0 1
15.053552 25.489466 10.846603 31.527307 1.037333 1.219582 0.011415 -0.005085 378137.000000 0 0 1
16.294152 26.401666 11.086103 32.946153 1.017852 1.227608 0.011703 -0.002440 -439512.000000 0 0 1
16.905752 26.931666 9.938803 33.315145 1.010238 1.267857 0.017697 -0.008095 -181721.000000 0 0 1
18.301552 27.041166 10.030803 34.158285 0.975809 1.272747 0.023726 -0.018006 -211521.000000 0 0 1
18.940252 28.015866 11.042203 35.574599 0.976323 1.255187 0.029611 -0.012973 -873105.000000 0 0 1
18.918852 29.408266 10.822203 36.604496 0.999133 1.270658 0.028961 -0.027665 -56787.600000 0 0 1
17.622252 29.931766 10.941403 36.416599 1.038692 1.265631 0.023552 -0.020109 -389528.000000 0 0 1
17.708652 31.455866 11.198503 37.795162 1.058051 1.269986 0.025547 -0.004257 -505352.000000 0 0 1
18.223252 32.406466 10.251603 38.566323 1.058533 1.301745 0.035661 -0.026582 -421507.000000 0 0 1
17.506752 32.607966 9.103803 38.113580 1.078077 1.329605 0.036254 -0.027991 1459460.000000 0 0 1
16.004052 33.161966 9.322703 37.983660 1.121163 1.322823 0.029999 -0.021057 1570190.000000 0 0 1
16.034452 34.498766 9.826503 39.291585 1.135717 1.318021 0.025706 -0.023669 -393876.000000 0 0 1
14.748352 -34.501731 10.045903 38.843320 -1.166838 1.309196 0.031070 -0.012585 -274470.000000 0 0 1
14.876452 -33.015131 10.496803 37.702660 -1.147448 1.288658 0.033029 -0.005355 -286972.000000 0 0 1
15.637052 -32.278931 9.553103 37.117496 -1.119678 1.310492 0.040715 -0.009635 22817.900000 0 0 1
15.732752 -30.854131 9.876303 36.014417 -1.099254 1.293005 0.036312 -0.008179 -133540.000000 0 0 1
16.362852 -30.143031 8.650703 35.372021 -1.073467 1.323727 0.036739 -0.012690 -198718.000000 0 0 1
15.663152 -30.145031 7.435803 34.775687 -1.091597 1.355311 0.034905 -0.023273 -149899.000000 0 0 1
16.457452 -29.552731 6.434703 34.432790 -1.062683 1.382814 0.029593 -0.011838 283300.000000 0 0 1
15.842952 -29.685731 4.981903 34.015601 -1.080562 1.423808 0.030354 -0.005324 -60207.600000 0 0 1
15.772552 -30.997831 4.420103 35.059609 -1.100112 1.444386 0.014984 -0.004949 -130893.000000 0 0 1
15.485652 -30.964131 3.054203 34.755013 -1.107056 1.482805 0.034336 0.006204 -32916.600000 0 0 1
15.582452 -32.318731 2.323303 35.954289 -1.121531 1.506133 0.003685 0.002739 -554012.000000 0 0 1
16.877952 -32.823331 2.391003 36.985851 -1.095849 1.506105 0.015981 0.001350 -510040.000000 0 0 1
16.902952 -34.074631 1.742703 38.076597 -1.110308 1.525012 0.015768 0.002870 -586038.000000 0 0 1
18.281752 -34.742331 1.629003 39.292565 -1.086401 1.529326 0.017593 0.001286 -429960.000000 0 0 1
18.871952 34.467666 2.854403 39.399469 1.069854 1.498285 0.027737 -0.021648 -799710.000000 0 0 1
19.993552 33.696266 2.632403 39.269708 1.035284 1.503712 0.026957 -0.013892 -717591.000000 0 0 1
20.771552 33.222466 3.917503 39.376851 1.012034 1.471144 0.024865 -0.020803 -437869.000000 0 0 1
20.167252 32.350666 4.799803 38.422932 1.013352 1.445549 0.027519 -0.024536 -453085.000000 0 0 1
21.127152 31.492766 5.384803 38.303354 0.979898 1.429746 0.019429 -0.029072 -53920.000000 0 0 1
20.600052 30.553566 6.518103 37.421493 0.977578 1.395723 0.036478 -0.033507 681870.000000 0 0 1
19.609252 29.583666 6.090403 36.011235 0.985447 1.400854 0.037231 -0.027201 31718.600000 0 0 1
18.714852 29.309966 7.111603 35.494995 1.002537 1.369076 0.032672 -0.035479 1262680.000000 0 0 1
17.186152 29.395666 6.631403 34.690697 1.041741 1.378455 0.032528 -0.024652 1364690.000000 0 0 1
16.603452 30.666866 6.360803 35.448428 1.074569 1.390381 0.022839 -0.027247 -141250.000000 0 0 1
17.045852 31.316066 5.189803 36.030419 1.072327 1.426254 0.029435 -0.022997 -582754.000000 0 0 1
16.889452 32.838166 5.257103 37.299274 1.095755 1.429382 0.034210 -0.020917 -50067.300000 0 0 1
15.552352 33.241966 5.419103 37.098121 1.133195 1.424197 0.021306 -0.015743 -434692.000000 0 0 1
15.523552 34.686366 5.490203 38.396184 1.149990 1.427316 0.024189 -0.023520 -585588.000000 0 0 1
14.159252 -34.244531 5.810903 37.509184 -1.178728 1.415250 0.025934 -0.019905 -70587.700000 0 0 1
13.117752 -34.467031 4.850503 37.196492 -1.207135 1.440022 0.014253 -0.004974 215211.000000 0 0 1
12.297352 -33.337531 4.762703 35.851069 -1.217407 1.437556 0.018983 -0.006592 -139598.000000 0 0 1
11.473652 -33.204331 3.469603 35.301706 -1.238094 1.472353 0.020458 -0.002713 -327946.000000 0 0 1
10.776852 -32.027531 3.435903 33.966288 -1.246210 1.469467 0.027724 -0.007649 -182271.000000 0 0 1
9.994252 -31.840131 2.256303 33.448018 -1.266647 1.503288 0.024994 -0.002621 -291444.000000 0 0 1
9.196352 -30.502731 2.155603 31.931741 -1.277971 1.503238 0.036257 -0.003883 277331.000000 0 0 1
8.578152 -30.111631 0.903203 31.322688 -1.293270 1.541957 0.040502 0.004504 -581340.000000 0 0 1
7.691752 -30.978231 0.358003 31.920871 -1.327423 1.559581 0.022512 -0.001252 -1579370.000000 0 0 1
7.969152 -31.517031 -1.073597 32.526654 -1.323135 1.603809 0.043182 -0.005977 -546021.000000 0 0 1
9.044852 -32.396431 -1.030597 33.651154 -1.298536 1.601427 0.033725 -0.005687 -611073.000000 0 0 1
9.274752 -33.052931 -2.257697 34.403698 -1.297229 1.636467 0.030910 0.007125 58561.500000 0 0 1
10.430952 -34.103231 -2.256197 35.734095 -1.273968 1.633977 0.011761 0.009043 158289.000000 0 0 1
10.473652 34.466066 -1.202897 36.042392 1.275781 1.604177 0.005970 0.003295 -300411.000000 0 0 1
11.654452 33.711066 -1.241397 35.690380 1.237943 1.605586 0.011664 0.001950 -452798.000000 0 0 1
11.772552 32.707466 -0.058597 34.761685 1.225299 1.572482 0.005668 -0.003051 -518714.000000 0 0 1
12.042152 33.181566 1.233403 35.320688 1.222661 1.535869 0.007320 -0.000944 942741.000000 0 0 1
13.348952 33.747166 1.455703 36.320583 1.194125 1.530706 0.012876 0.001620 544728.000000 0 0 1
14.567252 32.811166 1.496303 35.930716 1.152966 1.529140 0.024523 -0.002009 -961335.000000 0 0 1
15.009452 32.480166 0.220103 35.781186 1.137916 1.564645 0.027087 -0.001674 -452522.000000 0 0 1
15.914552 31.437266 0.364303 35.237868 1.102176 1.560458 0.033044 -0.005467 -645646.000000 0 0 1
16.511452 30.839666 -0.933197 34.994055 1.079234 1.597467 0.036722 -0.000023 -57713.500000 0 0 1
17.571652 31.507066 -1.580097 36.110315 1.062057 1.614568 0.027728 0.011556 -18259.600000 0 0 1
17.227752 32.744466 -2.120797 37.060670 1.086466 1.628053 0.037553 0.004097 -634898.000000 0 0 1
18.433752 33.411966 -2.769397 38.260060 1.066640 1.643243 0.022217 0.008161 -182346.000000 0 0 1
19.270252 34.076166 -1.836997 39.190588 1.056127 1.617687 0.007986 0.012738 461575.000000 0 0 1
20.328552 -34.692631 -2.506897 40.287879 -1.040763 1.633061 -0.000822 0.014361 -448846.000000 0 0 1
21.413152 -34.212031 -1.456597 40.386976 -1.011553 1.606870 0.000209 0.010748 241604.000000 0 0 1
22.383052 34.329866 -1.000297 40.994405 0.993017 1.595200 0.009134 0.012869 556026.000000 0 0 1
23.018652 33.487666 -1.899397 40.680337 0.968592 1.617504 0.019848 0.017732 -1451950.000000 0 0 1
23.785252 34.076266 -3.064197 41.669166 0.961414 1.644399 -0.001346 0.012724 -1628260.000000 0 0 1
23.094752 -34.578231 -3.990997 41.772595 -0.981941 1.666483 0.007191 0.005311 46036.200000 0 0 1
23.979252 -34.006331 -4.956597 41.904688 -0.956628 1.689357 0.001609 0.001911 -382337.000000 0 0 1
23.246052 -33.499231 -6.158697 41.237203 -0.964157 1.720705 -0.001066 0.001361 -600112.000000 0 0 1
22.479252 -32.343531 -5.950397 39.835009 -0.963424 1.720734 0.001808 0.002700 11283.000000 0 0 1
21.667252 -32.193131 -7.114697 39.452330 -0.978395 1.752125 0.004865 -0.002776 78833.800000 0 0 1
20.662652 -31.015531 -7.055997 37.930139 -0.983115 1.757912 0.010049 -0.004833 68203.300000 0 0 1
19.469052 -31.274631 -6.342497 37.381463 -1.013983 1.741291 0.020711 0.009178 -344356.000000 0 0 1
18.809552 -30.036531 -6.291297 35.994067 -1.011318 1.746486 0.021874 0.004044 284651.000000 0 0 1
17.584352 -29.929031 -5.332397 35.119664 -1.039593 1.723221 0.016316 0.017982 415537.000000 0 0 1
16.459752 -30.689931 -5.708097 35.289909 -1.078513 1.733259 0.015043 0.009893 -630895.000000 0 0 1
15.545952 -30.669531 -4.651497 34.697740 -1.101655 1.705259 0.004458 0.011560 993684.000000 0 0 1
14.177752 -31.420831 -4.957897 34.826111 -1.146927 1.713643 0.010959 0.005162 1225440.000000 0 0 1
14.352052 -32.833431 -5.081897 36.191729 -1.158707 1.711678 0.016066 0.019394 -16877.100000 0 0 1
13.066252 -33.425731 -5.069697 36.245113 -1.198156 1.711129 0.022506 0.014630 190351.000000 0 0 1
13.184952 34.563266 -5.054297 37.336419 1.206363 1.706585 0.023106 0.010328 -108903.000000 0 0 1
13.613852 34.006266 -3.826497 36.829406 1.190002 1.674882 0.027578 0.003588 -168652.000000 0 0 1
13.942852 32.637766 -4.049197 35.721462 1.167064 1.684395 0.022809 0.010979 105853.000000 0 0 1
12.900852 31.574566 -4.595397 34.416607 1.182912 1.704719 0.025911 0.005048 695919.000000 0 0 1
11.816452 31.181466 -3.775597 33.558419 1.208561 1.683543 0.011501 -0.001905 411118.000000 0 0 1
12.274952 30.185466 -2.852897 32.710484 1.184569 1.658124 0.015829 -0.001869 -50088.400000 0 0 1
11.142452 29.238466 -2.394097 31.381106 1.206698 1.647162 0.006007 0.001838 526439.000000 0 0 1
10.148952 29.907066 -1.600397 31.622699 1.243641 1.621427 -0.002093 -0.005249 -287489.000000 0 0 1
9.228352 28.997466 -1.110697 30.450766 1.262685 1.607280 -0.013025 0.003656 -287843.000000 0 0 1
8.205452 29.715066 -0.184197 30.827723 1.301373 1.576771 -0.013780 0.008840 -351728.000000 0 0 1
7.279852 28.915366 0.436103 29.820878 1.324158 1.556172 -0.024804 0.008646 -565150.000000 0 0 1
6.120252 29.686166 0.723603 30.319128 1.367480 1.546928 -0.015126 0.013574 -464902.000000 0 0 1
5.104052 28.852366 1.464103 29.336904 1.395705 1.520869 -0.016460 0.014408 -517798.000000 0 0 1
4.509252 27.907366 0.587103 28.275415 1.410602 1.550031 -0.015761 0.003638 203157.000000 0 0 1
3.427552 27.197466 1.196403 27.438688 1.445433 1.527180 -0.010415 0.001039 318942.000000 0 0 1
2.674152 26.326466 0.190203 26.462616 1.469567 1.563609 -0.001797 0.001254 -847064.000000 0 0 1
1.531752 25.809066 0.768603 25.865902 1.511516 1.541077 -0.004944 0.002839 -911084.000000 0 0 1
1.106452 24.779666 -0.058197 24.804424 1.526174 1.573143 -0.006051 0.001778 -986053.000000 0 1 0
-0.230948 24.210766 0.311903 24.213876 -1.561258 1.557915 0.000269 0.007694 -105670.000000 0 1 0
-1.342348 25.145366 0.239903 25.182312 -1.517463 1.561270 0.008734 0.003268 582280.000000 0 0 1
-2.384148 24.535866 0.987303 24.671190 -1.473931 1.530767 0.003734 0.014978 339480.000000 0 1 0
-3.644148 25.414466 1.259003 25.705252 -1.428378 1.521798 0.011308 0.009189 -159667.000000 0 0 1
-4.706948 24.639366 1.832403 25.151767 -1.382037 1.497878 -0.001320 0.005166 1536730.000000 0 0 1
-5.958148 25.321966 2.113103 26.099170 -1.339704 1.489743 -0.007122 0.004699 1218730.000000 0 0 1
-6.753248 25.682366 0.837203 26.568612 -1.313664 1.539280 -0.005461 0.006359 -1002850.000000 0 0 1
-6.340648 26.918166 0.260303 27.656088 -1.339461 1.561384 -0.008353 0.002691 71721.500000 0 0 1
-7.012448 27.130966 -0.966397 28.039216 -1.317865 1.605269 -0.015137 0.005542 -284731.000000 0 0 1
-6.474748 28.336166 -1.778597 29.120852 -1.346155 1.631911 -0.012632 0.005564 181850.000000 0 0 1
-6.788648 29.607266 -1.229197 30.400441 -1.345402 1.611241 -0.001227 -0.008268 -163792.000000 0 0 1
-6.717548 30.566966 -2.264697 31.378236 -1.354470 1.643033 -0.005125 -0.006780 -96138.800000 0 0 1
-6.915748 32.009866 -1.754497 32.795386 -1.358016 1.624320 -0.001647 -0.006097 -744740.000000 0 0 1
-7.184248 33.066866 -2.736897 33.948809 -1.356857 1.651502 0.005128 -0.001173 -312403.000000 0 0 1
-6.198948 33.394766 -3.686497 34.164713 -1.387259 1.678910 -0.005305 -0.005051 -197417.000000 0 0 1
-4.955848 34.036566 -3.025397 34.528267 -1.426209 1.658530 -0.007344 -0.005336 -536957.000000 0 0 1
-5.033048 -34.063931 -2.907297 34.556263 1.424105 1.655028 -0.007358 0.001010 -426970.000000 0 0 1
-3.998948 -33.660431 -2.086397 33.961290 1.452548 1.632270 -0.001438 0.004736 -339327.000000 0 0 1
-3.913948 -32.148431 -2.097597 32.453667 1.449646 1.635475 0.001713 0.002023 -435708.000000 0 0 1
-5.072348 -31.624631 -1.554697 32.066541 1.411759 1.619299 -0.007384 0.001855 -746400.000000 0 0 1
-5.310448 -30.261531 -1.870097 30.780812 1.397080 1.631589 -0.000600 0.012251 1283340.000000 0 0 1
-6.742348 -29.698031 -1.443597 30.487969 1.347550 1.618164 0.011601 0.014420 1338600.000000 0 0 1
-6.995248 -29.541131 -0.082897 30.358175 1.338282 1.573527 -0.002904 0.017836 -340084.000000 0 0 1
-8.186548 -28.859331 0.227703 29.998873 1.294387 1.563206 -0.024366 0.017897 -447623.000000 0 0 1
-8.152848 -28.379331 1.658603 29.573744 1.291049 1.514683 -0.017316 0.018759 200213.000000 0 0 1
-7.143748 -27.393431 1.770003 28.364874 1.315695 1.508355 -0.006396 0.013909 -228693.000000 0 0 1
-6.963248 -26.892331 3.123903 27.954303 1.317430 1.458812 -0.002091 0.009690 -174945.000000 0 0 1
-7.914048 -25.787131 3.582503 27.211075 1.273022 1.438757 -0.007527 0.009777 82725.500000 0 0 1
-7.535648 -24.469731 3.150903 25.796936 1.272055 1.448348 -0.000186 0.004773 -323270.000000 0 0 1
-8.595348 -23.569731 3.407803 25.318478 1.221106 1.435789 0.003435 -0.001013 32112.300000 0 0 1
-8.155548 -22.083631 3.673603 23.826352 1.217030 1.415996 -0.004290 0.007285 153658.000000 0 1 0
-7.421348 -21.976431 4.880303 23.703529 1.245125 1.363424 -0.013581 0.000783 80933.200000 0 1 0
-6.764448 -20.699731 5.069603 22.359282 1.254947 1.342074 -0.015636 0.001457 58335.400000 0 1 0
-7.665248 -19.685231 5.751503 21.893929 1.199469 1.304978 -0.004782 0.001951 -121748.000000 0 1 0
-7.938048 -20.069331 7.097703 22.719332 1.194148 1.253069 -0.003206 0.001265 -37742.100000 0 1 0
-8.713548 -19.134131 7.792303 22.422330 1.143467 1.215867 -0.006981 0.005169 -662053.000000 0 1 0
-26.194068 29.431466 -5.640597 39.801466 -0.843532 1.712993 0.024060 0.008455 -290681.000000 0 0 1
-25.669238 30.343466 -4.761397 40.028822 -0.868655 1.690028 0.013187 -0.001796 -773766.000000 0 0 1
-24.449448 29.803166 -4.326597 38.790767 -0.883761 1.682566 0.002475 0.005484 -251635.000000 0 0 1
-23.676048 30.802566 -3.408697 38.999648 -0.915473 1.658311 0.001549 -0.010957 -60291.100000 0 0 1
-24.173148 30.897966 -2.062397 39.284588 -0.906908 1.623319 0.000263 -0.021198 81985.500000 0 0 1
-23.527048 31.898366 -1.308497 39.657785 -0.935303 1.603797 0.008903 -0.026853 259298.000000 0 0 1
-22.248848 31.454666 -0.544597 38.531855 -0.955167 1.584930 0.013026 -0.026441 1663920.000000 0 0 1
-21.180048 30.994466 -1.468197 37.568696 -0.971333 1.609887 0.012462 -0.018454 1030350.000000 0 0 1
-19.905048 31.046266 -0.867297 36.889480 -1.000674 1.594309 0.010878 -0.014394 -343455.000000 0 0 1
-18.822348 30.249566 -1.554197 35.661359 -1.014188 1.614392 0.024540 -0.012689 127847.000000 0 0 1
-17.539048 30.482166 -0.959997 35.180992 -1.048671 1.598087 0.023806 -0.009764 -35271.300000 0 0 1
-16.547348 29.829266 -1.670297 34.152448 -1.064325 1.619723 0.019039 -0.009709 23700.700000 0 0 1
-15.109248 30.001666 -1.086397 33.609070 -1.104262 1.603126 0.014298 -0.011736 460277.000000 0 0 1
-14.900148 29.499966 0.229903 33.050193 -1.103085 1.563840 0.012448 -0.012811 -363383.000000 0 0 1
-13.841748 30.252866 0.759703 33.277725 -1.141694 1.547965 0.007646 -0.009584 -158634.000000 0 0 1
-13.313348 29.540166 2.034603 32.465462 -1.147372 1.508085 0.003081 -0.012071 -993487.000000 0 0 1
-14.305448 29.495466 2.992203 32.917801 -1.119217 1.479771 -0.010052 -0.003931 -809182.000000 0 0 1
-14.014048 28.759666 4.119003 32.256443 -1.117375 1.442751 -0.016397 -0.009041 382517.000000 0 0 1
-12.883548 29.257166 5.090503 32.370987 -1.155992 1.412886 -0.002073 -0.005536 408490.000000 0 0 1
-13.194048 30.422466 5.841003 33.670857 -1.161585 1.396441 -0.014041 -0.009562 -483299.000000 0 0 1
-13.027048 31.645366 5.159303 34.608547 -1.180281 1.421163 -0.010133 -0.008640 -252927.000000 0 0 1
-12.702448 32.789866 6.151103 35.698229 -1.201208 1.397624 -0.006844 -0.011507 410046.000000 0 0 1
-13.817348 33.250666 6.912603 36.664833 -1.176956 1.381126 -0.005965 -0.006197 515725.000000 0 0 1
-13.324548 34.314766 7.748503 37.617629 -1.200414 1.363331 0.014942 -0.007790 646328.000000 0 0 1
-14.478448 -34.459131 8.520503 38.336094 1.173030 1.346667 0.002101 -0.005175 408489.000000 0 0 1
-14.730348 34.244666 9.652003 38.507680 -1.164572 1.317443 -0.014571 -0.008728 407855.000000 0 0 1
-15.948948 34.567266 10.321603 39.443634 -1.138512 1.306034 0.002233 -0.012424 -289377.000000 0 0 1
-16.074348 33.902566 11.684803 39.297624 -1.128055 1.268890 -0.005233 -0.009846 263434.000000 0 0 1
-15.208848 34.362766 12.728503 39.675225 -1.154116 1.244204 -0.005660 -0.011160 466110.000000 0 0 1
-13.851948 33.979266 12.562503 38.785093 -1.183705 1.240947 -0.004909 -0.004470 -619743.000000 0 0 1
-13.077548 34.122366 13.869003 39.085897 -1.204809 1.208060 0.025343 -0.002496 -652379.000000 0 0 1
-13.341348 33.157966 14.845303 38.701748 -1.188259 1.177124 0.012593 -0.002955 478500.000000 0 0 1
-12.710048 31.849666 14.696003 37.308431 -1.191097 1.165919 -0.002625 0.002847 -35662.200000 0 0 1
-13.661948 30.814266 14.055003 36.520007 -1.153474 1.175743 -0.007628 -0.004111 -77391.200000 0 0 1
-13.814548 30.818366 12.661103 36.068226 -1.149393 1.212123 -0.006938 -0.002170 404953.000000 0 0 1
-14.838948 29.957566 12.206703 35.590079 -1.110890 1.220708 -0.011429 -0.001941 -67907.200000 0 0 1
-14.755548 29.759766 10.664903 34.887104 -1.110497 1.260125 -0.012091 0.000001 -824963.000000 0 0 1
-13.904648 28.784066 10.318203 33.590579 -1.120786 1.258573 -0.011704 0.001734 -769219.000000 0 0 1
-13.938048 28.526366 8.911803 32.976400 -1.116308 1.297146 -0.013548 0.010080 -264270.000000 0 0 1
-13.160048 27.271066 8.448403 31.436816 -1.121194 1.298709 -0.005555 0.008170 -695388.000000 0 0 1
-11.900648 27.506166 7.934803 31.002833 -1.162461 1.311978 -0.004854 0.005450 -606002.000000 0 0 1
-11.244948 26.262066 7.688103 29.584656 -1.166233 1.307911 0.007206 0.001848 4456.250000 0 0 1
-10.082248 26.295966 6.701403 28.948892 -1.204669 1.337186 0.014417 -0.004658 -350411.000000 0 0 1
-10.561548 26.718366 5.431203 29.238935 -1.194355 1.383959 0.008290 -0.006548 454430.000000 0 0 1
-9.551748 26.488866 4.456003 28.508803 -1.224714 1.413850 0.020906 0.002531 74141.600000 0 0 1
-9.789648 26.983166 2.994703 28.859949 -1.222759 1.466842 0.007610 -0.005724 -93267.400000 0 0 1
-9.586948 28.341966 2.717703 30.042678 -1.244619 1.480211 0.007189 -0.001763 -116326.000000 0 0 1
-9.856848 28.595166 1.396803 30.278573 -1.238848 1.524648 0.004568 -0.007176 -214115.000000 0 0 1
-9.619848 30.082166 0.897703 31.595633 -1.261288 1.542380 0.019078 -0.007730 210736.000000 0 0 1
-10.562348 30.961866 1.439503 32.745572 -1.242036 1.526822 0.014098 -0.011599 -465347.000000 0 0 1
-10.041748 32.232666 1.307203 33.785947 -1.268787 1.532096 0.011338 -0.005015 147429.000000 0 0 1
-10.753448 33.241566 2.287003 35.012408 -1.257927 1.505430 0.004771 0.001279 599229.000000 0 0 1
-12.046148 33.691966 1.952403 35.833924 -1.227422 1.516285 -0.008233 0.002220 -284804.000000 0 0 1
-11.960448 34.649866 0.951603 36.668393 -1.238422 1.544842 -0.011792 -0.000509 -257189.000000 0 0 1
-13.333348 -34.281031 0.509203 36.786227 1.199859 1.556954 -0.001890 -0.003572 -32516.800000 0 0 1
-14.108248 34.247866 -0.138697 37.040224 -1.180035 1.574541 0.008050 -0.007608 -452942.000000 0 0 1
-13.968648 34.206766 -1.603997 36.983763 -1.183105 1.614180 0.009614 -0.008942 105286.000000 0 0 1
-12.619148 33.850266 -2.304297 36.199353 -1.213962 1.634495 0.000333 -0.008874 138209.000000 0 0 1
-12.224248 32.485066 -2.227097 34.780335 -1.210883 1.634873 -0.005199 -0.008367 -414962.000000 0 0 1
-10.991648 32.422266 -2.891997 34.356706 -1.243941 1.655072 -0.010678 -0.006700 -385450.000000 0 0 1
-10.431648 31.002766 -2.848797 32.834531 -1.246221 1.657668 -0.021337 -0.015097 -228700.000000 0 0 1
-10.837748 30.155066 -3.921097 32.282499 -1.225771 1.692559 -0.015625 -0.011396 616023.000000 0 0 1
-9.890948 30.220966 -5.046397 32.196331 -1.254497 1.728184 -0.016992 -0.004140 817218.000000 0 0 1
-10.335448 29.357666 -6.270897 31.749302 -1.232294 1.769617 -0.006316 -0.000229 -263311.000000 0 0 1
-10.427648 27.929466 -6.102997 30.430864 -1.213467 1.772719 -0.001317 0.008929 -17053.400000 0 0 1
-10.774948 27.357566 -7.353597 30.308601 -1.195597 1.815866 -0.008114 0.012616 141799.000000 0 0 1
-11.340148 25.860466 -7.292497 29.164073 -1.157536 1.823529 0.012833 0.004246 -92024.200000 0 0 1
-10.366248 24.984666 -6.788697 27.888690 -1.177508 1.816688 -0.003184 0.009332 -209615.000000 0 0 1
-10.766648 23.633966 -6.788197 26.843335 -1.143330 1.826454 0.028127 -0.000547 -100544.000000 0 0 1
-10.108548 22.655766 -5.731697 25.462105 -1.151124 1.797849 0.011746 0.000061 222689.000000 0 0 1
-8.751748 22.328866 -6.033897 24.730128 -1.197251 1.817274 0.013854 -0.007315 434474.000000 0 1 0
-8.254748 21.203266 -5.339897 23.371646 -1.199535 1.801310 0.025562 -0.002047 -253163.000000 0 1 0
-8.089948 21.245866 -3.791797 23.048032 -1.206970 1.736065 0.011128 0.001719 448554.000000 0 1 0
-9.304848 21.113266 -3.013997 23.268742 -1.155694 1.700691 0.011134 0.001875 678205.000000 0 1 0
-9.844648 19.787466 -3.048297 22.310379 -1.109135 1.707856 0.017763 -0.004174 2496.830000 0 1 0
-11.307048 19.630866 -2.573997 22.800125 -1.048223 1.683931 0.031317 -0.010489 7468.530000 0 1 0
-11.519548 19.553266 -1.182297 22.725052 -1.038403 1.622846 0.036486 -0.015754 157052.000000 0 1 0
-11.036448 18.319366 -0.563197 21.394381 -1.028579 1.597124 0.030829 -0.021141 -293605.000000 0 1 0
-10.731048 18.460466 0.931903 21.373175 -1.044241 1.527181 0.015912 -0.013809 -290622.000000 0 1 0
-11.804148 18.400466 1.823903 21.937221 -1.000410 1.487558 0.025198 -0.019177 -175361.000000 0 1 0
-11.329048 18.500266 3.191603 21.927004 -1.021329 1.424722 0.006896 -0.015405 93359.600000 0 1 0
-12.459348 18.454666 4.261203 22.670860 -0.976956 1.381712 0.021043 -0.012832 313953.000000 0 1 0
-13.123448 17.213266 4.213503 22.051644 -0.919404 1.378540 -0.006818 -0.011163 139690.000000 0 1 0
-14.447348 17.290766 4.691703 23.015397 -0.874750 1.365507 -0.003800 -0.010477 -185609.000000 0 1 0
-14.993548 15.985566 5.255903 22.538175 -0.817409 1.335429 -0.015393 -0.007463 -452408.000000 0 1 0
-14.397748 15.529766 6.452103 22.138166 -0.823205 1.275057 -0.008565 -0.004881 250440.000000 0 1 0
-14.876648 16.172766 7.636503 23.263473 -0.827118 1.236334 -0.016349 0.004004 -373011.000000 0 1 0
-13.908848 15.832666 8.828503 22.848891 -0.849993 1.174086 -0.030332 0.010261 2051680.000000 0 1 0
-12.619348 16.502866 8.942603 22.617751 -0.917968 1.164315 -0.024272 0.001017 534880.000000 0 1 0
-11.702348 16.203966 7.991303 21.526132 -0.945332 1.190455 -0.021389 -0.005029 -2008990.000000 0 1 0
-10.629848 17.244266 7.867503 21.731451 -1.018385 1.200348 -0.009613 -0.008879 -1153080.000000 0 1 0
-9.671448 17.186266 8.851503 21.616053 -1.058222 1.148904 0.003536 -0.011704 -775754.000000 0 1 0
-9.024548 18.467766 8.875903 22.389339 -1.116258 1.163167 0.008776 -0.010981 -440136.000000 0 1 0
-7.738048 18.431166 9.686603 22.212959 -1.173309 1.119559 0.012273 -0.012234 -552418.000000 0 1 0
-6.698648 17.612866 9.128803 20.938481 -1.207364 1.119667 0.004579 -0.012568 429412.000000 0 1 0
-5.432548 17.870066 9.728203 21.059197 -1.275671 1.090609 0.003124 -0.009278 688856.000000 0 1 0
-4.640048 19.025766 9.030403 21.565203 -1.331584 1.138729 0.013398 -0.010267 -886708.000000 0 1 0
-5.200348 20.347966 9.188003 22.923846 -1.320581 1.158400 0.024487 -0.014535 303067.000000 0 1 0
-4.620748 21.254866 8.238703 23.259339 -1.356730 1.208727 0.029648 -0.021840 403686.000000 0 1 0
-3.174448 21.788366 8.499903 23.602084 -1.426120 1.202385 0.027925 -0.013569 1005720.000000 0 1 0
-2.104948 20.853866 8.219603 22.513916 -1.470199 1.197067 0.013457 -0.002067 466379.000000 0 1 0
-0.883948 21.591666 8.221703 23.120938 -1.529880 1.207245 0.010385 0.001556 495613.000000 0 1 0
0.316852 20.624766 8.005603 22.126252 1.555435 1.200583 0.005263 0.006686 145954.000000 0 1 0
0.755652 19.953666 9.162303 21.969697 1.532944 1.140607 0.002884 0.003675 191925.000000 0 1 0
2.151852 19.670266 8.960303 21.721806 1.461833 1.145597 -0.005426 0.007641 1150230.000000 0 1 0
2.969752 19.454666 10.295603 22.210423 1.419316 1.088801 -0.010346 -0.001537 -176750.000000 0 1 0
3.164752 18.091166 10.776503 21.294106 1.397615 1.040164 -0.000360 0.000349 238194.000000 0 1 0
3.887752 17.935066 11.985303 21.918683 1.357331 0.992250 -0.008715 0.002282 931171.000000 0 1 0
5.434352 18.200966 11.996403 22.465997 1.280647 1.007495 0.010532 -0.001895 843217.000000 0 1 0
6.251652 17.244366 11.295803 21.541738 1.223000 1.018823 0.000545 -0.003739 536012.000000 0 1 0
7.388952 16.934966 12.118303 22.096220 1.159382 0.990307 0.010131 0.002361 707195.000000 0 1 0
8.593352 16.197666 11.466903 21.626371 1.083024 1.011927 0.009403 -0.003386 661087.000000 0 1 0
9.511352 17.086666 10.845203 22.361538 1.062859 1.064440 0.016808 -0.018509 -35785.300000 0 1 0
10.695652 16.521766 10.358703 22.241143 0.996274 1.086320 0.024323 -0.018947 -54390.500000 0 1 0
11.490852 17.513066 9.486703 22.994449 0.990124 1.145528 0.016892 -0.008172 639403.000000 0 1 0
12.751752 16.971266 9.055203 23.078729 0.926417 1.167599 0.025204 -0.009732 865084.000000 0 1 0
13.524352 17.953366 8.356703 23.980532 0.925184 1.214849 0.028107 -0.000678 719880.000000 0 1 0
14.555452 17.411766 7.307703 23.841839 0.874513 1.259275 0.018641 -0.009776 -54082.400000 0 1 0
15.649552 16.752166 7.826303 24.223843 0.819415 1.241811 0.027351 -0.009013 481005.000000 0 1 0
16.837552 16.884366 7.007003 24.853230 0.786786 1.284986 0.047110 0.003188 1286010.000000 0 1 0
18.190452 16.707966 7.751303 25.886895 0.742944 1.266702 0.038871 0.006176 102143.000000 0 0 1
18.490052 15.431166 8.328703 25.482743 0.695465 1.237841 0.039882 0.001253 130189.000000 0 0 1
19.345352 15.663466 9.417803 26.613564 0.680613 1.209088 0.040232 0.006991 -290617.000000 0 0 1
19.530952 14.441566 10.345003 26.401439 0.636695 1.168171 0.028402 0.002667 402663.000000 0 0 1
20.397952 13.378366 9.858203 26.310478 0.580489 1.186737 0.030824 0.002154 795662.000000 0 0 1
20.455052 12.256966 10.708003 26.140078 0.539842 1.148738 0.031916 -0.002258 422316.000000 0 0 1
21.324752 11.048866 10.083803 26.048139 0.478041 1.173288 0.028118 -0.002600 124141.000000 0 0 1
22.711552 11.278266 10.118703 27.302052 0.460914 1.191119 0.018686 -0.003839 520626.000000 0 0 1
23.553752 10.313166 9.475403 27.402990 0.412710 1.217726 0.030394 -0.006641 100545.000000 0 0 1
23.660052 8.844266 9.977603 27.158270 0.357723 1.194598 0.035617 -0.015728 -713160.000000 0 0 1
22.578852 7.966066 9.785203 25.865285 0.339177 1.182822 0.035134 -0.011951 93418.700000 0 0 1
22.842952 6.644366 10.193903 25.881725 0.283061 1.165964 0.029406 -0.013034 469489.000000 0 0 1
23.814452 5.632866 9.435603 26.227617 0.232263 1.202787 0.036628 -0.012496 804609.000000 0 0 1
23.432052 5.556866 8.085803 25.403150 0.232847 1.246861 0.044909 -0.012138 344922.000000 0 0 1
24.540552 5.145766 7.316903 26.120005 0.206690 1.286871 0.036034 -0.006162 -25481.300000 0 0 1
24.201352 4.970166 5.838103 25.386836 0.202551 1.338754 0.036441 -0.011407 -115026.000000 0 0 1
23.253552 3.912166 5.687403 24.256530 0.166679 1.334124 0.032618 -0.011878 697330.000000 0 1 0
22.975852 3.602866 4.307103 23.652094 0.155544 1.387672 0.027387 -0.006451 -484259.000000 0 1 0
21.912752 2.547866 4.126403 22.442984 0.115753 1.385883 0.011594 -0.005121 -556342.000000 0 1 0
22.441152 1.306366 4.596203 22.944214 0.058147 1.369111 0.011429 -0.008108 643438.000000 0 1 0
21.759652 0.187766 4.051703 22.134453 0.008629 1.386709 0.003898 -0.006639 -494639.000000 0 1 0
22.388052 -1.126334 4.509103 22.865378 -0.050267 1.372293 0.007850 -0.005971 -1018020.000000 0 1 0
22.130552 -1.497934 5.836203 22.936137 -0.067583 1.313513 -0.001481 -0.009289 566729.000000 0 1 0
22.366852 -2.857234 6.041303 23.343890 -0.127056 1.309021 -0.005187 -0.009212 -1012420.000000 0 1 0
21.576552 -3.420234 7.233803 23.012464 -0.157208 1.251032 -0.011194 -0.009019 -504894.000000 0 1 0
21.805452 -4.787034 7.563503 23.571169 -0.216106 1.244138 -0.009465 -0.008918 444186.000000 0 1 0
21.143352 -5.115234 8.738503 23.442875 -0.237370 1.188818 -0.024608 -0.008893 -474275.000000 0 1 0
21.292352 -6.609934 9.176503 24.109411 -0.301004 1.180331 -0.022554 -0.011390 -312885.000000 0 1 0
20.526252 -7.495634 8.432603 23.422646 -0.350128 1.202508 0.009573 -0.010056 38807.000000 0 1 0
20.519552 -8.730234 9.135603 24.098304 -0.402260 1.181976 0.021200 -0.000933 -172737.000000 0 1 0
-25.345948 -33.197331 4.845603 42.047113 0.918715 1.455297 0.011376 -0.016156 340855.000000 0 0 1
-26.018788 -34.203031 5.678203 43.348202 0.920472 1.439428 0.013433 -0.013749 418694.000000 0 0 1
-25.929088 -33.867031 7.044503 43.230989 0.917377 1.407116 0.012090 0.002078 -199921.000000 0 0 1
-26.544348 34.536566 7.952303 44.278843 -0.915505 1.390221 0.011064 0.014224 -895236.000000 0 0 1
-27.905558 34.363466 7.818703 44.952198 -0.888739 1.395973 0.022303 -0.001542 -1175700.000000 0 0 1
-28.338048 33.004966 8.017803 44.234126 -0.861331 1.388531 0.031007 -0.002493 565976.000000 0 0 1
-29.889818 32.859466 8.158203 45.163060 -0.832688 1.389160 0.042120 -0.006828 751091.000000 0 0 1
-30.640448 33.194266 7.012203 45.715067 -0.825384 1.416799 0.024641 0.002580 -192132.000000 0 0 1
-32.015208 32.988566 7.258803 46.539330 -0.800371 1.414186 0.019897 0.001288 -156644.000000 0 0 1
-32.726498 32.876366 5.901703 46.762262 -0.787683 1.444252 0.014419 0.008980 -400227.000000 0 0 1
-32.482388 31.709866 5.162503 45.686678 -0.773364 1.457556 0.010389 0.010046 -33371.100000 0 0 1
-33.399558 31.567766 4.113703 46.140837 -0.757210 1.481522 0.019282 0.009605 -221805.000000 0 0 1
-33.099028 30.442266 3.077203 45.074897 -0.743611 1.502475 0.019844 0.011195 -47306.300000 0 0 1
-33.250068 29.096666 3.629103 44.332306 -0.718879 1.488843 0.028717 0.003568 513914.000000 0 0 1
-32.566188 28.105766 2.847503 43.111471 -0.712013 1.504698 0.010121 0.014164 35977.200000 0 0 1
-32.972468 26.711366 3.411203 42.571317 -0.680876 1.490581 0.028599 0.012034 298142.000000 0 0 1
-34.381424 26.541066 3.293403 43.558661 -0.657408 1.495116 0.033464 0.012048 301278.000000 0 0 1
-34.832266 25.558066 4.256003 43.412153 -0.633018 1.472601 0.033617 0.007516 253544.000000 0 0 1
33.495904 25.147866 4.052103 42.080996 0.643997 1.474354 0.043660 0.002564 -133455.000000 0 0 1
33.199594 24.215566 3.002303 41.202190 0.630182 1.497864 0.021021 -0.003743 60398.600000 0 0 1
33.705044 22.920666 3.225803 40.887561 0.597202 1.491820 0.013961 -0.003256 -414053.000000 0 0 1
33.095664 21.837166 2.255703 39.714896 0.583247 1.513968 0.004062 -0.005661 1821420.000000 0 0 1
31.687834 21.474266 2.470003 38.358360 0.595590 1.506359 0.003703 -0.014659 2133400.000000 0 0 1
31.371124 20.582066 3.570203 37.689722 0.580640 1.475928 -0.008310 -0.002245 -384911.000000 0 0 1
31.800644 19.099966 3.283203 37.240691 0.540872 1.482520 -0.002094 -0.006304 -714991.000000 0 0 1
31.055774 18.500966 2.268503 36.220062 0.537276 1.508124 0.001131 -0.018820 253773.000000 0 0 1
31.299704 17.096266 2.123303 35.727611 0.499930 1.511331 -0.010343 -0.012252 -676931.000000 0 0 1
30.532604 16.219866 3.094103 34.711632 0.488319 1.481541 -0.000800 -0.011077 147503.000000 0 0 1
29.144294 16.033466 2.806403 33.381698 0.502951 1.486627 0.001623 -0.002149 836602.000000 0 0 1
28.519014 15.223466 3.827603 32.553626 0.490321 1.452945 0.000225 -0.009893 -622007.000000 0 0 1
27.008804 15.379666 3.787903 31.310666 0.517639 1.449521 -0.001675 -0.004880 -952670.000000 0 0 1
26.427454 14.806666 2.633603 30.406965 0.510698 1.484076 0.014605 -0.010798 1287500.000000 0 0 1
25.134604 15.484666 2.487403 29.626177 0.552152 1.486738 0.004855 0.001812 900036.000000 0 0 1
24.246314 15.030466 1.350203 28.559091 0.554929 1.523501 0.010784 -0.005386 -637217.000000 0 0 1
24.610014 15.469666 0.067603 29.068331 0.561178 1.568471 0.024419 -0.013738 839942.000000 0 0 1
25.781934 14.822566 -0.493097 29.743229 0.521775 1.587376 0.029354 -0.011584 88374.300000 0 0 1
26.457634 15.721666 -1.543797 30.814939 0.536159 1.620916 0.042848 -0.014775 -40654.700000 0 0 1
26.980864 16.980966 -1.210997 31.902770 0.561736 1.608764 0.036989 -0.025166 266684.000000 0 0 1
27.860944 17.086466 -0.116297 32.683222 0.550125 1.574355 0.024303 -0.017867 -428488.000000 0 0 1
28.810974 18.316566 -0.156697 34.140787 0.566292 1.575386 0.037325 -0.010632 -102932.000000 0 0 1
29.655534 18.255566 -1.297397 34.848237 0.551802 1.608035 0.007333 -0.006449 279586.000000 0 0 1
30.505994 19.406166 -1.267697 36.177645 0.566572 1.605844 0.003410 0.007687 5996.940000 0 0 1
30.085324 20.457666 -2.364097 36.458630 0.597169 1.635685 0.004833 0.005455 -45047.600000 0 0 1
30.700894 21.752866 -2.371997 37.700907 0.616436 1.633754 -0.046055 0.018076 314714.000000 0 0 1
30.079714 22.626166 -3.282797 37.782394 0.644912 1.657793 -0.009696 0.011588 185860.000000 0 0 1
30.896644 23.983666 -3.322497 39.253761 0.660093 1.655539 -0.034098 0.024453 317362.000000 0 0 1
31.022824 24.740266 -2.132697 39.737196 0.673206 1.624492 -0.023955 0.030470 404272.000000 0 0 1
32.200434 24.418166 -1.398797 40.436016 0.648803 1.605396 -0.014904 0.030845 15701.400000 0 0 1
32.176224 25.086466 -0.007697 40.800002 0.662214 1.570985 -0.011748 0.016833 -133853.000000 0 0 1
32.538914 26.420766 -0.146497 41.914904 0.682000 1.574291 0.006904 0.019751 -4871.020000 0 0 1
33.801232 26.745766 0.409203 43.104834 0.669393 1.561303 0.016419 0.017200 174405.000000 0 0 1
34.245758 28.215166 0.068603 44.371975 0.689147 1.569250 0.016244 0.012818 -201882.000000 0 0 1
34.738564 28.473566 -1.249697 44.934102 0.686610 1.598612 0.000315 0.012437 -254897.000000 0 0 1
33.848479 28.408366 -2.331497 44.251448 0.698238 1.623508 -0.004007 0.012000 -541312.000000 0 0 1
34.428811 27.734966 -3.560497 44.353675 0.678131 1.651158 -0.011869 0.015577 -30814.500000 0 0 1
-34.418151 28.501666 -4.274497 44.891262 -0.691642 1.666160 -0.010167 0.019310 42930.600000 0 0 1
-34.097873 27.934766 -5.549997 44.427678 -0.686370 1.696046 -0.014774 0.012302 467308.000000 0 0 1
34.583600 28.010366 -6.657397 44.999188 0.680768 1.719286 -0.027328 0.018852 1054780.000000 0 0 1
33.402654 27.228766 -6.434197 43.572260 0.683921 1.719006 -0.030770 0.021728 -164386.000000 0 0 1
32.475574 27.466966 -7.458997 43.182563 0.702035 1.744399 -0.034265 0.017394 558924.000000 0 0 1
31.166024 26.642066 -7.155297 41.621136 0.707299 1.743570 -0.035971 0.022567 -65777.200000 0 0 1
31.310744 25.269266 -7.339697 40.899506 0.679024 1.751231 -0.041153 0.018315 -695124.000000 0 0 1
32.290044 24.538566 -6.653897 41.098205 0.649834 1.733414 -0.040984 0.020231 -233507.000000 0 0 1
32.359864 23.085666 -7.111397 40.381688 0.619666 1.747824 -0.042778 0.021572 -145806.000000 0 0 1
31.549534 22.225266 -6.363497 39.113036 0.613710 1.734218 -0.041859 0.020631 -29262.800000 0 0 1
31.874654 20.874266 -6.567197 38.663375 0.579802 1.741480 -0.016094 0.005269 -262998.000000 0 0 1
30.744344 19.979066 -6.035997 37.159265 0.576266 1.733955 -0.011778 0.008147 -234604.000000 0 0 1
29.596644 20.018666 -6.830997 36.378164 0.594699 1.759695 -0.014935 0.000732 -360975.000000 0 0 1
28.526824 19.353666 -6.189897 35.023690 0.596107 1.748464 0.027225 -0.010698 287028.000000 0 0 1
27.265464 19.079966 -7.073197 34.021768 0.610582 1.780226 0.025571 -0.013820 235350.000000 0 0 1
27.372074 18.141766 -8.120797 33.827525 0.585310 1.813229 0.023577 -0.012837 236546.000000 0 0 1
26.100704 17.951066 -8.733197 32.859644 0.602465 1.839802 0.034053 -0.011019 197804.000000 0 0 1
26.178384 16.805366 -9.776497 32.608403 0.570699 1.875295 0.018881 -0.011427 -347357.000000 0 0 1
25.355134 16.894966 -10.894197 32.357475 0.587772 1.914188 0.006023 -0.007774 -160638.000000 0 0 1
25.598364 15.780266 -11.759697 32.289061 0.552432 1.943571 0.000794 -0.001874 -33032.400000 0 0 1
24.794714 15.921566 -13.100997 32.247639 0.570827 1.989156 0.004554 0.006557 538268.000000 0 0 1
23.378814 15.776066 -12.892497 31.010799 0.593613 1.999555 0.014269 0.006797 691018.000000 0 0 1
22.722514 15.602066 -14.124997 30.971803 0.601700 2.044359 0.012826 0.007387 -499628.000000 0 0 1
22.863814 14.202666 -14.842197 30.736956 0.555851 2.074735 0.012734 0.006813 66814.000000 0 0 1
24.141814 13.842466 -15.397297 31.804367 0.520617 2.076159 0.025037 -0.000172 826683.000000 0 0 1
24.562014 14.539466 -16.566397 33.002031 0.534479 2.096684 0.035751 -0.008967 -203850.000000 0 0 1
25.951604 14.058466 -17.059597 34.090410 0.496463 2.094883 0.052378 -0.003555 217634.000000 0 0 1
25.894464 12.695366 -17.437997 33.701325 0.455836 2.114638 0.049077 -0.011222 1631550.000000 0 0 1
27.229404 12.198666 -17.800997 34.743681 0.421186 2.108718 0.046074 -0.003819 1648540.000000 0 0 1
27.313144 10.741066 -18.281397 34.577272 0.374679 2.127878 0.021835 0.001541 -328011.000000 0 0 1
26.721324 10.564166 -19.530597 34.742984 0.376488 2.167774 0.030253 -0.007376 -17673.500000 0 0 1
26.907014 9.258766 -20.088197 34.831706 0.331411 2.185506 0.011461 -0.003246 -234618.000000 0 0 1
28.229084 8.939766 -20.805097 36.189123 0.306694 2.183277 0.009479 -0.001666 -770503.000000 0 0 1
28.461524 9.667066 -22.035597 37.270337 0.327428 2.203388 0.013209 -0.005033 404836.000000 0 0 1
29.249784 8.920366 -22.957297 38.238204 0.296012 2.214767 -0.002872 -0.002048 32615.300000 0 0 1
30.694274 8.412266 -22.730897 39.110079 0.267498 2.191003 -0.006115 -0.000687 -462204.000000 0 0 1
31.538894 9.501666 -22.947097 40.144149 0.292620 2.179272 -0.008536 0.005400 181423.000000 0 0 1
32.919894 9.131766 -22.918497 41.138377 0.270590 2.161695 -0.031100 0.014670 500113.000000 0 0 1
33.942531 10.270266 -22.875797 42.200424 0.293820 2.143701 -0.018470 0.014915 -226661.000000 0 0 1
33.977253 10.891566 -21.605897 41.712045 0.310206 2.115281 -0.033932 0.016486 100354.000000 0 0 1
-34.849663 11.889466 -21.496297 42.637415 -0.328782 2.099211 -0.059451 0.023329 -287716.000000 0 0 1
34.714654 12.712266 -20.228097 42.141248 0.351027 2.071459 -0.059937 0.030127 -348780.000000 0 0 1
-34.867001 12.066966 -18.988197 41.495434 -0.333183 2.046087 -0.047966 0.024081 28507.300000 0 0 1
34.669000 12.900066 -17.870897 41.081872 0.356219 2.020842 -0.038690 0.017182 -140783.000000 0 0 1
-34.588618 12.173466 -16.628597 40.262588 -0.338411 1.996546 -0.042895 0.014029 -501862.000000 0 0 1
34.524183 10.983066 -16.364497 39.753537 0.308003 1.995059 -0.036820 0.011988 277265.000000 0 0 1
-34.649355 10.077966 -15.430697 39.246014 -0.283047 1.974883 -0.030939 0.003724 231912.000000 0 0 1
34.264749 8.824866 -15.197497 38.508637 0.252071 1.976485 -0.009475 0.011103 45988.300000 0 0 1
33.162684 8.987566 -14.329197 37.227219 0.264657 1.965909 -0.002922 0.006032 101661.000000 0 0 1
33.433454 8.810666 -12.933997 36.914928 0.257670 1.928766 -0.006741 0.006297 -907864.000000 0 0 1
32.272344 9.171766 -12.026897 35.640871 0.276898 1.915000 0.002913 0.006506 -599679.000000 0 0 1
32.126774 10.573466 -11.858097 35.840511 0.317951 1.908008 0.008747 -0.000201 193490.000000 0 0 1
31.088374 10.975466 -10.972597 34.746880 0.339381 1.892082 0.000060 0.009728 -64787.600000 0 0 1
31.330044 10.634666 -9.465097 34.413018 0.327236 1.849432 0.014826 0.013289 199241.000000 0 0 1
32.461374 11.304166 -8.910797 35.509537 0.335101 1.824449 0.020246 0.010224 349743.000000 0 0 1
32.221524 12.670366 -8.668097 35.691745 0.374654 1.816109 0.028839 0.005942 -489768.000000 0 0 1
32.130874 13.096866 -7.196597 35.436026 0.387049 1.775306 0.031064 0.002064 -273125.000000 0 0 1
33.340794 12.976266 -6.492197 36.361251 0.371162 1.750306 0.034612 -0.001785 -124770.000000 0 0 1
33.151144 13.266366 -5.083897 36.067171 0.380660 1.712224 0.027732 0.000953 279726.000000 0 0 1
34.350526 13.092166 -4.094197 36.988185 0.364138 1.681713 0.024102 0.003854 1273050.000000 0 0 1
-34.468101 14.173866 -4.116797 37.495286 -0.390139 1.680813 0.021026 0.010815 488628.000000 0 0 1
-33.298978 13.872066 -3.413997 36.234121 -0.394727 1.665157 0.010868 0.000166 213328.000000 0 0 1
-32.265718 15.031366 -3.260597 35.744230 -0.435966 1.662144 0.008804 -0.002137 617542.000000 0 0 1
-32.767838 15.968966 -2.294497 36.524017 -0.453466 1.633659 0.015869 -0.000894 143978.000000 0 0 1
-31.859918 16.992866 -2.076897 36.168016 -0.489980 1.628252 0.009859 0.003151 -308687.000000 0 0 1
-32.520358 18.112166 -1.235297 37.244465 -0.508162 1.603970 0.005121 0.007376 398355.000000 0 0 1
-33.591338 18.790666 -1.885197 38.535971 -0.510024 1.619736 -0.011627 0.010327 250205.000000 0 0 1
-34.413561 19.451266 -0.975597 39.542341 -0.514454 1.595471 -0.020862 0.013800 -391406.000000 0 0 1
34.409090 20.373566 -1.658497 40.022722 0.534589 1.612247 -0.024071 0.022830 -201185.000000 0 0 1
-34.755688 21.550366 -2.095197 40.948333 -0.555034 1.621986 -0.020188 0.017389 269975.000000 0 0 1
34.494881 21.909266 -3.363797 41.002778 0.565862 1.652927 -0.034071 0.025521 86794.100000 0 0 1
-34.750439 23.235666 -3.906197 41.985087 -0.589370 1.663969 -0.016496 0.007148 975005.000000 0 0 1
-33.381778 23.052566 -4.325697 40.797985 -0.604371 1.677023 -0.003585 0.007554 801419.000000 0 0 1
-32.834548 24.261166 -4.845997 41.111986 -0.636354 1.688944 0.006594 0.002306 762517.000000 0 0 1
-31.380468 24.276566 -5.414797 40.042545 -0.658447 1.706438 0.018935 -0.005119 602382.000000 0 0 1
-31.279538 23.512166 -6.566097 39.678017 -0.644575 1.737046 0.006129 0.001580 -436889.000000 0 0 1
-29.970908 23.631166 -7.060197 38.814091 -0.667671 1.753712 0.017820 -0.002598 -468854.000000 0 0 1
-29.665588 22.771266 -8.317097 38.311248 -0.654669 1.789632 0.006374 -0.012109 -226544.000000 0 0 1
-30.394608 23.078266 -9.484297 39.324171 -0.649419 1.814380 0.016194 -0.014834 -24523.700000 0 0 1
-29.920488 22.370266 -10.597597 38.832634 -0.642000 1.847207 0.005310 -0.011232 182069.000000 0 0 1
-30.806198 22.602066 -11.859697 40.006595 -0.632978 1.871763 0.005278 -0.011630 55449.600000 0 0 1
-31.057098 23.983066 -12.115897 41.067332 -0.657574 1.870278 0.016268 -0.014620 -135601.000000 0 0 1
-31.680898 24.049366 -13.370497 41.962143 -0.649308 1.895083 0.014000 -0.013819 -533205.000000 0 0 1
-32.028038 25.535466 -13.786597 43.219503 -0.673083 1.895460 0.006332 -0.011044 58930.700000 0 0 1
-30.931668 26.449266 -13.845597 42.988746 -0.707440 1.898717 0.007892 -0.010170 -300582.000000 0 0 1
-30.139558 26.220866 -14.997597 42.671474 -0.715981 1.929933 0.013829 -0.012397 -76885.400000 0 0 1
-28.680898 26.654666 -14.651497 41.805878 -0.748797 1.928864 0.013530 -0.009223 -31433.100000 0 0 1
-27.917428 25.761666 -13.848497 40.432995 -0.745260 1.920378 0.017147 -0.013803 86441.200000 0 0 1
-28.345048 25.548266 -12.480297 40.148642 -0.733550 1.886886 0.020610 -0.007125 -967514.000000 0 0 1
-28.554608 26.766966 -11.512497 40.796736 -0.753096 1.856874 0.019375 -0.001656 255851.000000 0 0 1
-27.336358 27.409066 -11.161997 40.288007 -0.786726 1.851524 0.017498 -0.000606 22465.700000 0 0 1
-27.547348 28.416766 -10.186797 40.867344 -0.800932 1.822718 -0.004381 -0.001377 327009.000000 0 0 1
-26.256808 29.108466 -9.659497 40.373613 -0.836859 1.812392 0.001903 -0.001053 327612.000000 0 0 1
-26.521828 30.309566 -8.998997 41.268136 -0.851948 1.790624 -0.007765 0.011646 -619567.000000 0 0 1
-25.378748 31.082966 -8.879497 41.098383 -0.886085 1.788568 -0.002012 -0.001723 -1346730.000000 0 0 1
33.713664 -25.133884 34.316058 54.276285 -0.640622 0.886345 -0.017768 0.000917 -397762.000000 0 0 1
33.274424 -23.882134 -34.420772 53.500777 -0.622528 2.269688 -0.013403 -0.007862 -207375.000000 0 0 1
32.302364 -24.110134 -33.444897 52.376544 -0.641186 2.263405 -0.012740 0.000605 -303894.000000 0 0 1
31.633574 -22.776434 -32.997827 51.071573 -0.624028 2.273272 -0.023094 0.003742 313674.000000 0 0 1
30.824914 -22.169234 -34.011737 50.974979 -0.623495 2.301272 -0.034223 -0.006371 202473.000000 0 0 1
30.478614 -20.830734 -33.818437 50.065478 -0.599535 2.312417 -0.031782 -0.001036 42762.600000 0 0 1
30.100804 -20.069834 34.207648 49.789756 -0.588063 0.813386 -0.034858 -0.000096 1135760.000000 0 0 1
31.269634 -19.711934 33.395810 49.815966 -0.562463 0.836071 -0.021464 -0.017070 952349.000000 0 0 1
30.936524 -19.098334 32.186819 48.557246 -0.553072 0.846160 -0.021919 -0.005761 -799365.000000 0 0 1
32.010874 -18.914834 31.090819 48.467577 -0.533692 0.874375 -0.028112 0.000622 -460567.000000 0 0 1
33.004174 -18.014134 31.509799 49.057639 -0.499624 0.873299 -0.024192 -0.009629 -402209.000000 0 0 1
33.957322 -17.902534 30.497669 49.027627 -0.485175 0.899437 -0.005418 -0.005632 -645558.000000 0 0 1
-34.750261 -16.874634 30.882579 49.457736 0.452059 0.896403 -0.002890 -0.008545 -665908.000000 0 0 1
-33.857938 -16.732234 29.769829 48.089192 0.458988 0.903258 0.004398 -0.008490 544576.000000 0 0 1
-32.829828 -15.766434 29.942709 47.148106 0.447721 0.882687 0.004393 -0.011069 657632.000000 0 0 1
-31.630658 -16.212134 30.838459 47.056799 0.473633 0.856156 0.018286 -0.017400 -509574.000000 0 0 1
-30.724168 -15.207934 31.251469 46.388685 0.459626 0.831609 0.018214 -0.013065 -55076.700000 0 0 1
-29.626988 -15.824634 31.883699 46.311421 0.490577 0.811429 0.023403 -0.015210 26860.600000 0 0 1
-28.657518 -14.761434 32.462739 45.749128 0.475653 0.781892 0.032853 -0.014277 31694.300000 0 0 1
-29.188878 -14.170534 33.642428 46.739786 0.451962 0.767309 0.032993 -0.009546 -228070.000000 0 0 1
-28.297608 -13.297534 34.191290 46.331667 0.439293 0.740742 0.039265 -0.011433 -732410.000000 0 0 1
-28.580718 -12.828034 -33.632217 45.962397 0.421885 2.391658 0.027659 -0.003414 -330811.000000 0 0 1
-28.310618 -13.819334 -32.600607 45.335027 0.454109 2.373309 0.044363 -0.003456 384834.000000 0 0 1
-28.455008 -13.354734 -31.288537 44.350975 0.438810 2.353891 0.051917 0.001166 -292662.000000 0 0 1
-28.401428 -14.423734 -30.136957 43.851128 0.469910 2.328501 0.056957 0.004979 486366.000000 0 0 1
-29.661618 -15.078834 -30.195307 44.932609 0.470315 2.307720 0.046246 0.003019 356543.000000 0 0 1
-30.112708 -15.628434 -28.961007 44.606760 0.478730 2.277396 0.034359 0.001039 652687.000000 0 0 1
-31.321118 -16.604634 -29.057707 45.837503 0.487469 2.257419 0.016828 -0.000279 342920.000000 0 0 1
-30.996008 -17.768234 -29.766777 46.502943 0.520513 2.265432 0.024559 -0.001623 669476.000000 0 0 1
-32.228358 -18.480534 -29.905807 47.692290 0.520650 2.248566 0.004452 -0.003874 434769.000000 0 0 1
-31.971048 -19.908434 -30.367627 48.380641 0.556945 2.249367 0.013472 -0.001997 -258851.000000 0 0 1
-33.094718 -20.731934 -30.600187 49.612951 0.559636 2.235439 -0.027689 -0.002755 29438.300000 0 0 1
-32.641648 -21.939934 -31.246767 50.231448 0.591786 2.242162 -0.024341 -0.004888 355251.000000 0 0 1
-33.841268 -22.873134 -31.617487 51.653433 0.594364 2.229520 -0.017306 -0.001792 267185.000000 0 0 1
-34.441774 -23.374334 -30.478537 51.590082 0.596261 2.202825 -0.025172 0.009557 32246.200000 0 0 1
34.388466 -24.413234 -30.608887 52.110234 -0.617356 2.198623 -0.021149 0.011450 127101.000000 0 0 1
-34.852156 -25.798724 -31.021907 53.316092 0.637221 2.191796 -0.024430 0.011221 -176694.000000 0 0 1
-34.562146 -25.956124 -32.406197 54.022439 0.644140 2.214129 -0.009724 0.006078 -71368.400000 0 0 1
-34.000528 -27.298594 -32.492167 54.378213 0.676499 2.211203 -0.001426 0.003279 188485.000000 0 0 1
-33.991368 -28.070414 -33.834447 55.570955 0.690282 2.225408 -0.002339 -0.009146 441246.000000 0 0 1
34.508978 -28.566894 -34.129328 56.318274 -0.691470 2.221829 0.002205 -0.002820 266901.000000 0 0 1
34.443727 -29.797174 34.432754 57.095153 -0.713194 0.923444 -0.000786 0.005749 -37798.100000 0 0 1
-34.746464 -31.030124 -34.094654 57.728943 0.728959 2.202597 -0.000605 -0.001500 40372.200000 0 0 1
34.330183 -31.432984 -32.939707 57.022962 -0.741372 2.186652 0.011376 -0.008826 468145.000000 0 0 1
-34.536653 -32.006864 -32.012937 56.938984 0.747399 2.167879 0.002370 -0.016539 192013.000000 0 0 1
34.635802 -32.519294 -30.720517 56.576439 -0.753892 2.144792 -0.002764 -0.016537 -52758.200000 0 0 1
33.943665 -33.759434 -30.863757 56.960015 -0.782677 2.143432 0.011974 -0.013046 229418.000000 0 0 1
33.356654 -34.065518 -29.604787 56.121024 -0.795912 2.126471 0.014381 -0.011393 -301304.000000 0 0 1
32.207564 34.405730 -29.619497 55.663237 0.818385 2.131898 0.013699 -0.014126 1273880.000000 0 0 1
30.938574 -34.496779 -30.028327 55.217058 -0.839722 2.145783 0.025732 -0.013030 294086.000000 0 0 1
29.827464 34.352290 -29.553287 54.250845 0.855784 2.146890 0.023096 -0.004637 -1053270.000000 0 0 1
28.540144 34.701866 -30.265637 54.173500 0.882522 2.163589 0.006412 0.003653 -708815.000000 0 0 1
28.494384 34.206636 -31.574577 54.580012 0.876250 2.187686 0.010777 0.008625 -468738.000000 0 0 1
27.448094 -34.739521 -32.306347 54.808140 -0.902114 2.201167 0.008812 0.018431 -463635.000000 0 0 1
27.403404 34.265564 -33.752207 55.356001 0.896216 2.226516 0.000168 0.005796 54285.200000 0 0 1
27.236974 32.839732 -33.771667 54.413474 0.878389 2.240366 -0.001521 0.011201 158443.000000 0 0 1
27.124984 32.331092 34.167636 54.300015 0.872738 0.890224 0.002310 0.006249 -55256.400000 0 0 1
27.048404 30.826802 34.123929 53.351199 0.850591 0.876806 -0.004992 0.003877 293538.000000 0 0 1
28.312374 30.175082 34.221304 53.695658 0.817235 0.879781 0.003373 0.005787 57890.600000 0 0 1
28.093234 28.821922 34.551527 53.044707 0.798201 0.861413 -0.004218 0.000676 -356467.000000 0 0 1
29.309944 27.983142 -34.407226 53.160006 0.762244 2.274753 0.010643 -0.012034 -545962.000000 0 0 1
30.009694 28.282222 -33.227987 52.958143 0.755772 2.249056 0.010023 -0.006056 -278141.000000 0 0 1
31.149374 27.456942 -33.130837 53.120801 0.722477 2.244249 0.024636 -0.008708 205657.000000 0 0 1
31.902284 27.697822 -31.757707 52.853353 0.714970 2.215379 0.024183 -0.005898 -177699.000000 0 0 1
32.765154 28.819632 -31.648317 53.904939 0.721419 2.198285 0.017048 -0.002680 141596.000000 0 0 1
32.202194 30.116652 -31.693537 54.299855 0.751945 2.194045 0.007121 -0.001126 -401365.000000 0 0 1
31.175674 30.469352 -30.617937 53.270649 0.773941 2.183109 0.007573 0.001189 -150549.000000 0 0 1
31.696544 30.614792 -29.313607 52.926590 0.768039 2.157782 0.003220 0.005608 20.358600 0 0 1
30.678594 31.001032 -28.391747 52.041631 0.790626 2.147852 0.012421 0.005929 -50442.300000 0 0 1
31.106914 31.311712 -26.911187 51.694055 0.788679 2.118333 0.018349 0.004456 -184197.000000 0 0 1
31.598834 32.643492 -26.836417 52.766250 0.801658 2.104343 0.018389 -0.000766 111492.000000 0 0 1
32.025834 32.926592 -25.538107 52.554822 0.799265 2.078226 0.008965 -0.000660 -382911.000000 0 0 1
32.515314 34.370675 -25.450037 53.724234 0.813130 2.064302 0.016739 -0.011512 -554964.000000 0 0 1
31.415824 -34.294953 -25.248847 52.920715 -0.829185 2.068156 0.016577 -0.003432 -72762.100000 0 0 1
31.696904 -32.911004 -25.056697 52.112052 -0.804188 2.072390 0.008122 -0.007853 -851317.000000 0 0 1
32.112084 -32.101514 -26.302367 52.473876 -0.785234 2.095835 0.002487 -0.006774 -462596.000000 0 0 1
33.404484 -32.322404 -26.756397 53.633032 -0.768936 2.093101 0.012517 -0.010621 -817288.000000 0 0 1
34.396451 -31.588374 -26.040757 53.470199 -0.742867 2.079464 0.021467 -0.007188 941433.000000 0 0 1
-33.989908 -32.238434 -26.440627 53.793468 0.758958 2.084632 -0.006233 -0.006491 873670.000000 0 0 1
-33.654218 -33.604954 -26.023847 54.213836 0.784666 2.071476 0.006074 -0.014942 -23595.100000 0 0 1
-33.812448 -33.961114 -24.645797 53.889278 0.787592 2.045800 0.000809 -0.015601 138604.000000 0 0 1
-32.541878 -33.605124 -23.801997 52.486315 0.801471 2.041473 -0.008180 -0.003654 534867.000000 0 0 1
-32.430248 -32.222014 -23.807497 51.543924 0.782177 2.050919 -0.034836 -0.004842 -103684.000000 0 0 1
-31.711248 -31.701534 -22.682297 50.250146 0.785245 2.039116 -0.014178 -0.012581 -79627.800000 0 0 1
-31.717708 -30.158474 -22.644497 49.277985 0.760204 2.048257 -0.023691 0.003788 185010.000000 0 0 1
-32.987428 -29.567504 -22.855997 49.847812 0.730782 2.047120 -0.041637 0.012528 -194561.000000 0 0 1
-33.043908 -29.037874 -24.175297 50.195049 0.720959 2.073307 -0.038301 0.012343 377878.000000 0 0 1
-34.323017 -28.176964 -24.459197 50.697763 0.687376 2.074247 -0.043650 0.018413 464508.000000 0 0 1
-34.311425 -26.862704 -23.797697 49.650873 0.664232 2.070654 -0.054416 0.027236 -164296.000000 0 0 1
34.605987 -25.937324 -24.422797 49.666811 -0.643184 2.084875 -0.044751 0.029283 -79846.900000 0 0 1
34.892912 -25.441064 -25.848027 50.327761 -0.630002 2.110164 -0.039742 0.025526 -740962.000000 0 0 1
-33.796858 -24.618634 -25.831077 49.148238 0.629553 2.124187 -0.049371 0.018368 -749045.000000 0 0 1
-33.553568 -24.129934 -27.128667 49.437438 0.623461 2.151662 -0.031299 0.007598 379398.000000 0 0 1
-32.378248 -23.096934 -27.278297 48.227843 0.619628 2.171973 -0.024956 -0.005589 -92007.100000 0 0 1
-32.439818 -21.940534 -26.410897 47.236261 0.594674 2.164124 -0.034683 0.016873 348633.000000 0 0 1
-33.420758 -20.929234 -26.709927 47.627724 0.559487 2.166156 -0.044460 0.014516 844740.000000 0 0 1
-34.474201 -20.667234 -25.561757 47.634111 0.540051 2.137231 -0.042236 0.015907 445083.000000 0 0 1
-33.946378 -20.038134 -24.398097 46.358932 0.533248 2.125024 -0.026708 0.010879 400941.000000 0 0 1
-33.087768 -20.844934 -23.546997 45.648360 0.562179 2.112778 -0.046405 0.019057 326800.000000 0 0 1
-33.780878 -22.176034 -23.022097 46.507431 0.580908 2.088654 -0.021113 0.025730 -139606.000000 0 0 1
-34.614424 -21.794534 -21.986097 46.438654 0.561927 2.063993 -0.029004 0.022902 -726261.000000 0 0 1
34.670778 -22.945134 -21.423197 46.770668 -0.584626 2.046594 -0.023962 0.030564 325142.000000 0 0 1
33.525084 -22.769134 -20.359797 45.352906 -0.596607 2.036352 -0.032117 0.020297 1392930.000000 0 0 1
32.305024 -22.209334 -20.894397 44.423472 -0.602280 2.060479 0.008671 0.016407 224247.000000 0 0 1
31.215414 -22.365334 -20.042797 43.316555 -0.621703 2.051841 0.026721 0.005563 -120887.000000 0 0 1
29.949384 -21.635434 -20.524397 42.264743 -0.625602 2.077863 0.024085 0.013614 -268710.000000 0 0 1
29.392484 -22.205034 -21.692697 42.749909 -0.646990 2.102999 0.023029 0.019871 173173.000000 0 0 1
28.077224 -21.745434 -21.954997 41.751842 -0.658989 2.124505 0.049015 0.012459 232134.000000 0 0 1
27.935634 -20.491834 -22.846897 41.500549 -0.632882 2.153784 0.041140 0.004762 -444112.000000 0 0 1
28.446884 -19.338234 -22.153897 40.914394 -0.597041 2.142980 0.028615 0.014805 192457.000000 0 0 1
28.395494 -18.208434 -22.942597 40.794778 -0.570195 2.168070 0.019554 0.011618 -5295.740000 0 0 1
29.175564 -17.049034 -22.227897 40.447033 -0.528840 2.152629 0.016568 0.007518 -391767.000000 0 0 1
28.549894 -16.663434 -21.061497 39.196341 -0.528318 2.138068 0.002508 0.009103 -219886.000000 0 0 1
29.377284 -16.038534 -20.131597 39.058169 -0.499729 2.112301 -0.007183 0.008467 -601511.000000 0 0 1
30.378944 -16.922434 -19.365197 39.802762 -0.508236 2.078909 0.012118 0.001608 -418001.000000 0 0 1
31.454844 -17.290534 -20.204097 41.189505 -0.502608 2.083478 0.014290 -0.000039 -435963.000000 0 0 1
32.206064 -18.277534 -19.534697 41.867687 -0.516193 2.056218 0.016115 0.002868 141471.000000 0 0 1
33.440354 -18.701434 -20.392397 43.403350 -0.509915 2.059900 0.001616 0.005343 422758.000000 0 0 1
34.472752 -17.730634 -20.458597 43.832638 -0.475052 2.056401 -0.002693 0.004292 -585197.000000 0 0 1
-34.322673 -18.194234 -21.253197 44.280633 0.487432 2.071412 -0.019077 0.013232 -544454.000000 0 0 1
-33.285618 -17.141034 -21.692297 43.270119 0.475550 2.095923 -0.016088 0.009780 220937.000000 0 0 1
-32.416648 -16.575934 -20.749497 41.906351 0.472679 2.088792 -0.009601 0.005021 76030.600000 0 0 1
-31.473488 -15.657234 -21.236997 41.069934 0.461625 2.114248 -0.004412 0.006265 429940.000000 0 0 1
-30.340838 -15.213334 -20.215297 39.505319 0.464779 2.107971 0.001085 0.004627 827458.000000 0 0 1
-29.249428 -16.149034 -20.067497 38.974669 0.504465 2.111671 -0.003895 0.003229 592130.000000 0 0 1
-29.572988 -17.329034 -19.373597 39.372494 0.530043 2.085250 -0.016789 0.005925 -405846.000000 0 0 1
-28.472458 -18.391634 -19.364597 39.037427 0.573519 2.089842 -0.016801 -0.001632 -153827.000000 0 0 1
-29.121658 -19.616234 -19.124497 39.982671 0.592785 2.069537 -0.019916 0.002407 401138.000000 0 0 1
-28.312588 -20.746634 -19.468497 40.137861 0.632383 2.077206 -0.022249 0.000400 -25502.000000 0 0 1
-28.908048 -22.112434 -19.004297 41.058474 0.652984 2.052014 -0.022955 0.018798 -296552.000000 0 0 1
-29.833628 -22.585834 -19.949597 42.404619 0.648004 2.060606 -0.032959 0.023194 -76087.700000 0 0 1
-30.093748 -23.972734 -19.801997 43.271755 0.672665 2.046112 -0.029827 0.030324 499471.000000 0 0 1
-31.190888 -24.570834 -20.767997 44.809676 0.667231 2.052705 -0.047085 0.033731 159036.000000 0 0 1
-30.753108 -24.562234 -22.079297 45.128177 0.673942 2.082034 -0.041762 0.023150 153876.000000 0 0 1
-31.442848 -25.473884 -22.957897 46.525654 0.680908 2.086844 -0.040371 0.024007 -225966.000000 0 0 1
-31.060308 -25.549854 -24.420797 47.052238 0.688364 2.116494 -0.035660 0.023910 83960.500000 0 0 1
-29.746548 -26.045524 -24.653997 46.594485 0.719159 2.128358 -0.015101 0.007654 148843.000000 0 0 1
-29.492288 -26.378844 -26.033667 47.364441 0.729730 2.152737 -0.008795 0.009784 -1244280.000000 0 0 1
-28.060898 -26.662734 -26.343957 46.822211 0.759854 2.168370 0.010331 -0.000592 -1411100.000000 0 0 1
-27.318098 -25.516014 -26.631587 45.897570 0.751303 2.189819 0.014151 -0.007695 286879.000000 0 0 1
-25.919488 -25.839654 -26.582317 45.234137 0.783856 2.198961 0.017569 -0.007286 667820.000000 0 0 1
-25.057548 -24.602134 -26.802397 44.175946 0.776228 2.222723 0.031559 -0.004747 -576372.000000 0 0 1
-25.263058 -24.005134 -28.066707 44.746046 0.759872 2.248806 0.033641 -0.006973 262502.000000 0 0 1
-24.505648 -22.794334 -28.303637 43.831545 0.749234 2.272784 0.048697 -0.012223 447449.000000 0 0 1
-24.487148 -22.418434 -29.801347 44.613080 0.741323 2.302309 0.030037 -0.007160 360854.000000 0 0 1
-23.705748 -23.325234 -30.620257 45.206517 0.777308 2.314939 0.036886 -0.011209 533645.000000 0 0 1
-23.724448 -22.916634 -31.992887 45.951783 0.768080 2.340925 0.031276 -0.011059 -447007.000000 0 0 1
-23.034648 -23.855834 -32.979557 46.769082 0.802909 2.353441 0.029834 -0.021486 286229.000000 0 0 1
-23.940348 -24.920034 -33.236747 47.946113 0.805446 2.336730 0.013736 -0.019865 478023.000000 0 0 1
-23.360948 -25.764304 -34.246515 48.809395 0.834282 2.348490 0.020529 -0.009911 134005.000000 0 0 1
-19.443748 -14.885634 -11.827997 27.194539 0.653394 2.020768 -0.002705 0.007100 -84522.400000 0 0 1
-19.791448 -14.397134 -10.624597 26.680723 0.628907 1.980364 0.001854 0.002733 -296890.000000 0 0 1
-18.757548 -14.717934 -9.742397 25.756116 0.665305 1.958708 -0.003479 -0.005382 -166470.000000 0 0 1
-18.987348 -14.255334 -8.327097 25.160972 0.644001 1.908110 0.006053 -0.013145 -282188.000000 0 0 1
-20.158848 -14.813434 -7.788897 26.200838 0.633725 1.872635 0.030973 -0.013722 -48080.300000 0 0 1
-20.423148 -14.267834 -6.489997 25.744827 0.609793 1.825635 0.014037 -0.019293 -121908.000000 0 0 1
-21.727848 -14.775234 -5.867297 26.922706 0.597186 1.790491 0.030651 -0.020811 -460510.000000 0 0 1
-21.591648 -16.119634 -5.323797 27.466064 0.641301 1.765863 0.026478 -0.023182 450178.000000 0 0 1
-20.877848 -16.254234 -4.088197 26.773084 0.661518 1.724094 0.028969 -0.019067 -37827.100000 0 0 1
-20.536148 -17.703834 -3.644497 27.357659 0.711466 1.704410 0.017336 -0.005379 -341119.000000 0 0 1
-21.647148 -18.465534 -3.273897 28.640764 0.706247 1.685356 0.030326 -0.008859 -217131.000000 0 0 1
-21.387048 -19.392834 -2.215697 28.955089 0.736535 1.647393 0.004312 -0.001037 -271842.000000 0 0 1
-22.504348 -20.440134 -2.026997 30.468894 0.737368 1.637372 0.005520 -0.009773 92799.100000 0 0 1
-22.706448 -21.393934 -3.094197 31.350555 0.755645 1.669654 -0.006702 -0.009999 -400359.000000 0 0 1
-23.861448 -22.113734 -2.791997 32.652430 0.747402 1.656407 -0.006615 -0.005593 -376877.000000 0 0 1
-24.108448 -23.231834 -3.817397 33.697298 0.766883 1.684325 -0.014586 -0.004599 -156450.000000 0 0 1
-23.163748 -24.297634 -3.709097 33.774127 0.809284 1.680839 -0.017267 0.000943 -130770.000000 0 0 1
-23.082348 -24.913334 -4.947397 34.321214 0.823529 1.715450 -0.016112 0.006791 -315844.000000 0 0 1
-21.763048 -24.888634 -5.742397 33.556661 0.852297 1.742768 -0.003348 0.009107 75593.800000 0 0 1
-21.349348 -23.632734 -6.273197 32.460034 0.836117 1.765279 -0.008234 0.013097 162151.000000 0 0 1
-20.899948 -22.625634 -5.357297 31.263842 0.825025 1.743004 -0.010848 0.008444 -807564.000000 0 0 1
-20.823348 -21.173934 -5.940297 30.285879 0.793746 1.768217 -0.003356 0.012820 -198703.000000 0 0 1
-19.853148 -20.926134 -6.929697 29.665996 0.811704 1.806565 0.001492 0.007064 -78663.200000 0 0 1
-19.955848 -19.576634 -7.407097 28.919640 0.775806 1.829810 -0.001529 0.012093 358141.000000 0 0 1
-18.700548 -19.154934 -8.221297 28.003781 0.797401 1.868764 0.011990 0.006809 -32137.600000 0 0 1
-18.565048 -19.945234 -9.396497 28.823038 0.821222 1.902872 -0.005534 0.006850 362081.000000 0 0 1
-17.315448 -19.842934 -10.089497 28.202212 0.853313 1.936660 0.035297 0.007209 213580.000000 0 0 1
-17.043948 -18.427834 -10.730297 27.298727 0.824392 1.974764 0.034325 0.004123 -318646.000000 0 0 1
-16.660048 -17.317734 -9.958897 26.012319 0.804752 1.963679 0.032063 -0.008736 -1198400.000000 0 0 1
-15.412748 -17.502634 -9.428297 25.155274 0.848806 1.954982 0.037892 -0.003435 -1527470.000000 0 0 1
-15.081648 -16.316934 -8.453197 23.772989 0.824720 1.934331 0.017305 -0.003929 109569.000000 0 1 0
-15.714648 -16.496534 -7.192797 23.891884 0.809667 1.876596 -0.002635 0.004275 8703.910000 0 1 0
-15.834048 -15.302934 -6.528197 22.967678 0.768342 1.859004 -0.006181 0.005055 -269045.000000 0 1 0
-16.473648 -15.547134 -5.166397 23.233298 0.756471 1.795041 -0.011453 0.003159 -86619.700000 0 1 0
-17.083048 -14.422934 -4.589197 22.823503 0.701166 1.773250 -0.002566 0.006024 139403.000000 0 1 0
-17.335648 -14.579934 -3.232597 22.881190 0.699268 1.712548 -0.014395 0.002387 -575764.000000 0 1 0
-18.194248 -13.526034 -2.570297 22.816457 0.639279 1.683687 -0.003872 0.006262 -529150.000000 0 1 0
-19.511548 -13.552234 -3.057597 23.952296 0.607076 1.698799 0.010072 -0.005121 126987.000000 0 1 0
-20.334448 -12.612634 -2.354497 24.043959 0.555183 1.668878 0.012480 0.003910 -720995.000000 0 1 0
-21.786148 -12.669434 -2.760397 25.352921 0.526733 1.679891 0.015788 0.002340 -873651.000000 0 0 1
-22.208348 -11.785334 -3.786297 25.425202 0.487883 1.720271 0.014154 -0.014884 398658.000000 0 0 1
-23.609748 -11.867834 -3.963497 26.720311 0.465779 1.719678 0.011234 -0.010233 127680.000000 0 0 1
-24.200648 -11.017434 -5.128997 27.080654 0.427214 1.761344 0.009147 -0.020104 143587.000000 0 0 1
-23.761748 -11.570334 -6.404997 27.194067 0.453138 1.808559 0.008227 -0.024592 348076.000000 0 0 1
-24.240748 -10.770934 -7.403697 27.539819 0.418130 1.842981 0.013194 -0.025863 -388318.000000 0 0 1
-23.620448 -11.237634 -8.753397 27.583182 0.444067 1.893725 0.038079 -0.031931 -1527970.000000 0 0 1
-22.302248 -10.951534 -8.836297 26.370562 0.456463 1.912488 0.014348 -0.023006 -1572220.000000 0 0 1
-21.586148 -11.482634 -9.927597 26.388821 0.488875 1.956493 0.008073 -0.019954 244493.000000 0 0 1
-20.171248 -10.845834 -9.977597 24.981269 0.493341 1.981662 0.000117 -0.009071 -143931.000000 0 1 0
-20.331748 -9.503634 -10.333397 24.707856 0.437252 2.002285 -0.000006 -0.019294 446554.000000 0 1 0
-19.263348 -8.725134 -9.854897 23.330742 0.425296 2.006887 -0.001635 -0.009371 -340266.000000 0 1 0
-19.321648 -7.232434 -10.336397 23.075426 0.358172 2.035256 -0.004087 -0.011542 -132629.000000 0 1 0
-19.138148 -7.209434 -11.746297 23.584320 0.360265 2.092151 0.026273 -0.010668 470926.000000 0 1 0
-19.005748 -5.925034 -12.342097 23.423318 0.302201 2.125763 0.015827 -0.019248 209594.000000 0 1 0
-18.174648 -5.998634 -13.713097 23.544648 0.318797 2.192511 0.026216 -0.011897 301874.000000 0 1 0
-18.903748 -6.589634 -14.758697 24.871552 0.335417 2.206069 0.021695 -0.018313 58509.800000 0 1 0
-18.129148 -6.563934 -15.889997 24.984860 0.347383 2.260081 0.018412 -0.017225 -462966.000000 0 1 0
-18.618248 -7.443734 -17.053797 26.322620 0.380341 2.275589 0.014003 -0.016019 -324337.000000 0 0 1
-19.897648 -7.128134 -17.545197 27.469267 0.343997 2.263631 0.006389 -0.012009 277794.000000 0 0 1
-20.307948 -8.141734 -18.457097 28.624553 0.381294 2.271557 0.003985 -0.011424 -477430.000000 0 0 1
-21.688648 -7.960934 -19.092697 29.971737 0.351787 2.261427 -0.007726 -0.005297 -932497.000000 0 0 1
-21.771448 -6.872534 -19.989197 30.344615 0.305768 2.289938 -0.005142 -0.006957 633068.000000 0 0 1
-23.018548 -6.631134 -20.636897 31.618144 0.280483 2.281928 -0.005251 -0.012926 831945.000000 0 0 1
-24.211148 -6.148234 -19.754097 31.846583 0.248686 2.239908 0.005523 -0.006918 -418496.000000 0 0 1
-24.096548 -4.811534 -19.321397 31.258773 0.197085 2.237134 0.017148 -0.007463 782609.000000 0 0 1
-25.223278 -4.317434 -18.570397 31.618248 0.169526 2.198554 0.031666 0.000861 471225.000000 0 0 1
-25.062848 -2.774134 -18.505197 31.277540 0.110238 2.203894 0.009651 -0.007470 129493.000000 0 0 1
-25.321918 -1.957234 -19.657397 32.116095 0.077141 2.229476 0.026558 -0.003802 -368236.000000 0 0 1
-26.664278 -1.951234 -20.044197 33.414980 0.073048 2.214118 0.036204 0.005376 -555537.000000 0 0 1
-26.949668 -0.902734 -21.125497 34.254725 0.033485 2.235363 0.036267 0.013687 -327751.000000 0 0 1
-26.328128 -1.020434 -22.393397 34.578546 0.038739 2.275239 0.035358 0.020178 268368.000000 0 0 1
-26.989198 -1.928334 -23.291397 35.701883 0.071327 2.281524 0.044479 0.017082 259290.000000 0 0 1
-26.414328 -1.843434 -24.778697 36.264291 0.069676 2.323043 0.039129 0.017443 -355640.000000 0 0 1
-26.569148 -0.580834 -25.499677 36.830565 0.021858 2.335538 0.044264 0.019284 258577.000000 0 0 1
-26.071238 0.639266 -24.949497 36.091488 -0.024515 2.334062 0.026935 0.026840 -1490230.000000 0 0 1
-24.647148 0.705366 -24.533097 34.782931 -0.028611 2.353671 0.024318 0.024012 -1267110.000000 0 0 1
-23.695948 0.778466 -25.602037 34.893671 -0.032840 2.394571 0.015543 0.021152 465619.000000 0 0 1
-22.354448 0.634766 -25.164467 33.665630 -0.028388 2.415060 0.004503 0.023136 132100.000000 0 0 1
-21.436448 0.116266 -26.268997 33.905678 -0.005424 2.457143 -0.009935 0.017239 -343389.000000 0 0 1
-21.351548 0.966966 -27.417097 34.763786 -0.045257 2.479436 -0.021569 0.019428 266611.000000 0 0 1
-20.596548 0.316766 -28.444887 35.120218 -0.015378 2.514828 -0.028698 0.012075 -48501.800000 0 0 1
-20.429948 1.064466 -29.784047 36.133161 -0.052056 2.539736 -0.029756 0.022591 -400381.000000 0 0 1
-19.596148 2.194166 -29.732447 35.676908 -0.111505 2.555993 -0.021838 0.020195 129013.000000 0 0 1
-19.607948 3.023266 -30.860017 36.687224 -0.152981 2.570231 -0.023050 0.013205 -622684.000000 0 0 1
-19.112848 2.424266 -32.189727 37.514751 -0.126166 2.602267 -0.021728 0.007843 -1072900.000000 0 0 1
-17.723148 2.471766 -32.206337 36.843829 -0.138572 2.634440 -0.028389 0.007018 -1001540.000000 0 0 1
-17.196448 2.135266 -33.419677 37.645079 -0.123537 2.663245 -0.033831 0.009562 899459.000000 0 0 1
-15.625248 2.003066 -33.395297 36.924335 -0.127499 2.700827 -0.020437 -0.002663 1419230.000000 0 0 1
-14.912748 3.263566 -33.182607 36.525694 -0.215447 2.710412 -0.013349 0.000651 -402126.000000 0 0 1
-13.602848 3.149566 -33.625317 36.409053 -0.227528 2.748014 -0.020722 0.003677 -643445.000000 0 0 1
-12.885048 4.477966 -33.906607 36.547703 -0.334474 2.759096 -0.012949 0.010268 -223508.000000 0 0 1
-12.746148 5.244566 -32.745027 35.527546 -0.390349 2.743185 0.006421 -0.005743 163261.000000 0 0 1
-12.170648 6.501866 -33.033637 35.799722 -0.490651 2.745912 0.015072 0.003923 -136057.000000 0 0 1
-11.704448 7.291666 -31.734397 34.601076 -0.557147 2.731667 0.019294 -0.007040 -29148.700000 0 0 1
-10.465848 6.802166 -31.256797 33.656957 -0.576333 2.761654 0.023906 -0.013083 249941.000000 0 0 1
-10.684048 5.848466 -30.235367 32.596485 -0.500846 2.758640 0.019240 -0.011419 323651.000000 0 0 1
-9.458448 4.902966 -29.945637 31.784312 -0.478235 2.799789 0.021102 -0.020955 514650.000000 0 0 1
-8.956248 4.147266 -31.027557 32.559537 -0.433660 2.833614 0.024203 -0.012866 965794.000000 0 0 1
-9.851248 3.021966 -31.362637 33.012033 -0.297647 2.824149 0.023516 -0.013214 569064.000000 0 0 1
-9.520848 2.217666 -32.609917 34.043667 -0.228847 2.850340 0.021898 -0.014772 -242703.000000 0 0 1
-10.429548 1.181166 -32.876517 34.511389 -0.112771 2.832559 0.021921 -0.014161 1720.500000 0 0 1
-10.001548 0.499566 -34.041147 35.483520 -0.049907 2.855489 0.022244 -0.008134 -736544.000000 0 0 1
-10.431548 1.054066 33.890148 35.474926 -0.100704 0.300033 0.024108 -0.002741 549775.000000 0 0 1
-11.846048 0.978666 33.654991 35.692367 -0.082428 0.339509 -0.009693 0.000832 541467.000000 0 0 1
-12.279748 1.286366 32.343749 34.620298 -0.104374 0.364668 -0.018322 0.011317 -1251640.000000 0 0 1
-13.718848 0.983466 32.137409 34.956931 -0.071565 0.404389 -0.014395 0.023615 -1137690.000000 0 0 1
-14.620448 1.987166 32.563739 35.750572 -0.135089 0.425435 -0.015990 0.034752 234513.000000 0 0 1
-15.945648 1.763366 32.135579 35.917525 -0.110138 0.463027 -0.008624 0.031071 160348.000000 0 0 1
-16.775948 3.052566 31.862169 36.137908 -0.179992 0.491380 -0.008736 0.025382 -585147.000000 0 0 1
-17.051848 3.855566 33.007389 37.351287 -0.222369 0.487084 -0.014887 0.019022 -115909.000000 0 0 1
-16.183248 4.931166 33.058049 37.135542 -0.295770 0.473013 -0.008555 0.016658 -998703.000000 0 0 1
-16.370948 5.784166 34.306320 38.449813 -0.339628 0.468523 -0.011960 0.011741 -70370.500000 0 0 1
-17.565948 6.532966 34.405706 39.179009 -0.356060 0.498780 -0.012012 0.008020 -434795.000000 0 0 1
-18.610648 5.790966 -34.292051 39.444090 -0.301667 2.624750 -0.024332 0.010342 -771980.000000 0 0 1
-19.966148 6.495966 -34.465490 40.357337 -0.314547 2.594437 -0.026816 0.005793 -319619.000000 0 0 1
-20.195348 7.731166 -33.840557 40.159760 -0.365608 2.572979 -0.013741 0.002734 -4137.070000 0 0 1
-19.872348 8.763366 34.527340 40.790244 -0.415330 0.561494 -0.013191 0.002823 -357013.000000 0 0 1
-19.905148 10.181866 -34.146560 40.815106 -0.472820 2.561872 0.000090 -0.002751 -564911.000000 0 0 1
-19.084848 10.496466 -32.995827 39.536462 -0.502835 2.558143 0.007686 -0.006268 505597.000000 0 0 1
-18.794348 11.895066 -32.898547 39.711893 -0.564265 2.547096 0.016142 -0.013969 -61639.400000 0 0 1
-17.808548 12.456566 -33.930887 40.294112 -0.610371 2.571925 0.002293 -0.023461 -1024890.000000 0 0 1
-18.442148 12.733166 34.112392 40.815458 -0.604280 0.581260 0.011486 -0.015776 -59095.000000 0 0 1
-17.652248 12.778866 32.936999 39.493634 -0.626602 0.584510 0.011613 -0.014405 -415698.000000 0 0 1
-18.375748 12.314666 31.676399 38.635649 -0.590416 0.609604 0.016977 -0.008307 -589891.000000 0 0 1
-18.543148 10.922766 31.503749 38.152868 -0.532326 0.599311 0.003837 -0.000114 273077.000000 0 0 1
-17.420248 10.156366 31.072879 37.042416 -0.527841 0.575637 -0.001681 0.000386 149489.000000 0 0 1
-17.588748 8.613766 31.124789 36.773815 -0.455399 0.561637 0.007158 0.007504 -201744.000000 0 0 1
-18.470848 8.011766 30.230219 36.321161 -0.409260 0.587547 0.002597 0.010622 -120096.000000 0 0 1
-18.375748 6.597466 30.297519 36.043506 -0.344698 0.572440 -0.001727 0.005316 -327956.000000 0 0 1
-19.176748 5.874166 29.252819 35.468026 -0.297242 0.601008 -0.005338 0.008264 -134609.000000 0 0 1
-20.563348 6.140866 29.192419 36.232014 -0.290201 0.633927 0.006566 -0.003106 120573.000000 0 0 1
-21.243348 5.156266 28.423979 35.857907 -0.238119 0.655598 0.000706 -0.003288 -492512.000000 0 0 1
-22.683048 5.509266 28.103309 36.533117 -0.238267 0.693121 -0.009480 0.007670 -786621.000000 0 0 1
-22.745248 6.220866 26.886099 35.761820 -0.266973 0.719993 -0.000618 0.001572 300710.000000 0 0 1
-24.088748 6.566766 26.645869 36.515648 -0.266140 0.752897 0.001869 -0.001184 -489008.000000 0 0 1
-24.339748 7.235566 25.316439 35.856643 -0.288954 0.786897 -0.004995 0.001137 -378455.000000 0 0 1
-24.412848 6.434366 24.114699 34.912847 -0.257704 0.808324 -0.005089 0.002429 342310.000000 0 0 1
-25.521788 5.560866 24.091999 35.534621 -0.214534 0.825776 -0.013292 0.004198 -374671.000000 0 0 1
-25.577388 4.754666 22.781899 34.580696 -0.183795 0.851569 -0.007151 0.013913 -128912.000000 0 0 1
-26.135518 5.537666 21.760499 34.456499 -0.208795 0.887264 -0.003219 0.017951 39978.300000 0 0 1
-26.280428 4.764566 20.569599 33.711576 -0.179349 0.914528 0.003109 0.016250 -175849.000000 0 0 1
-27.048738 5.501366 19.416499 33.747588 -0.200650 0.957771 0.011842 0.012987 -704377.000000 0 0 1
-28.359338 5.731566 19.794499 35.056028 -0.199419 0.970783 0.020730 0.012605 -1386940.000000 0 0 1
-29.143768 6.257566 18.811099 35.247323 -0.211502 1.007840 0.022907 0.019131 265825.000000 0 0 1
-30.620248 6.456066 19.313999 36.773780 -0.207799 1.017833 0.017552 0.020123 505183.000000 0 0 1
-30.827998 7.341566 20.371299 37.672986 -0.233791 0.999479 0.032238 -0.005308 -29602.400000 0 0 1
-32.128558 7.115566 20.862999 38.963319 -0.217954 1.005753 0.031159 0.002746 12201.300000 0 0 1
-32.798678 8.236766 21.744799 40.204899 -0.246043 0.999350 0.026934 0.005407 -16075.100000 0 0 1
-32.214338 8.570866 22.978699 40.487577 -0.260034 0.967270 0.029564 0.013721 94585.300000 0 0 1
-32.768028 9.783966 23.411699 41.443664 -0.290156 0.970479 0.025491 0.029164 -83986.100000 0 0 1
-0.232548 33.209166 12.405703 35.451435 -1.563794 1.213294 -0.023646 -0.000094 -447281.000000 0 0 1
-0.298348 33.234866 13.777003 35.978481 -1.561820 1.177837 -0.019737 -0.000754 107749.000000 0 0 1
-0.125448 34.550566 14.308803 37.396513 -1.567165 1.178162 -0.026342 0.005660 -174127.000000 0 0 1
-0.072848 34.668166 15.847603 38.118677 -1.568695 1.142036 -0.029586 0.005709 -95336.500000 0 0 1
-1.369048 34.605466 16.377703 38.309812 -1.531255 1.129063 -0.021349 0.005854 -385576.000000 0 0 1
-1.322548 34.606866 17.795303 38.936578 -1.532599 1.096140 -0.023164 0.005298 -1003140.000000 0 0 1
-2.583648 -34.599931 18.541503 39.339774 1.496263 1.080013 -0.019015 0.007161 -895727.000000 0 0 1
-3.548548 33.826766 18.553603 38.743754 -1.466275 1.071418 -0.015045 0.006373 165743.000000 0 0 1
-4.580648 34.042166 19.476503 39.486524 -1.437042 1.054981 -0.004348 0.004550 -951941.000000 0 0 1
-5.651648 33.004866 19.468103 38.733310 -1.401204 1.044171 0.000622 0.008001 -664347.000000 0 0 1
-6.533948 33.218866 18.394203 38.529628 -1.376582 1.073098 0.008256 0.005274 -380460.000000 0 0 1
-7.646248 32.382766 18.389003 38.016629 -1.338922 1.065908 0.008763 0.000887 -471631.000000 0 0 1
-8.628148 32.663366 17.247003 37.931511 -1.312542 1.098774 0.013439 0.002262 -428499.000000 0 0 1
-9.501248 33.703466 17.558103 39.172494 -1.296020 1.106017 0.023673 0.004654 -392315.000000 0 0 1
-10.322748 34.085366 16.451803 39.230512 -1.276727 1.138053 0.011849 -0.003392 512278.000000 0 0 1
-11.437748 -34.441231 16.952803 40.055187 1.250161 1.133782 0.013690 -0.004831 806273.000000 0 0 1
-12.428848 34.571066 17.899203 40.865833 -1.225669 1.117424 0.025681 0.002034 131291.000000 0 0 1
-13.583248 -34.159131 17.690403 40.795848 1.192321 1.122276 0.029129 -0.004461 -162846.000000 0 0 1
-14.684948 -34.467431 18.737903 41.889862 1.168034 1.107037 0.022983 0.001370 118821.000000 0 0 1
-14.413848 -33.958031 20.035103 41.979903 1.169383 1.073268 0.019005 0.001969 244537.000000 0 0 1
-15.509248 -34.244231 20.895603 43.009654 1.145533 1.063478 0.022459 0.002374 117741.000000 0 0 1
-15.232748 -33.669831 22.330003 43.177809 1.145936 1.027262 0.017575 -0.000663 -1184.740000 0 0 1
-15.233148 -32.256431 22.330303 42.085254 1.129593 1.011492 0.019326 0.001440 -58498.400000 0 0 1
-14.949648 -31.818831 23.646103 42.368245 1.131569 0.978691 0.019914 -0.002639 227554.000000 0 0 1
-14.794248 -30.281031 23.753203 41.231363 1.116339 0.956853 0.025135 -0.001369 -21773.100000 0 0 1
-14.568548 -29.786931 25.077403 41.573790 1.115913 0.923286 0.030436 -0.016298 -124759.000000 0 0 1
-14.450248 -28.338331 25.039003 40.482371 1.099245 0.903943 0.025556 -0.001876 -550916.000000 0 0 1
-15.691248 -27.536431 24.702203 40.182946 1.052852 0.908736 0.032467 0.000147 -848331.000000 0 0 1
-16.801448 -27.784231 25.521003 41.298593 1.026920 0.904647 0.043216 0.000529 -494151.000000 0 0 1
-17.843148 -26.972431 25.036303 40.898734 0.986356 0.912015 0.039020 0.003101 10572.500000 0 0 1
-19.023648 -26.823331 26.089703 41.976933 0.953909 0.900109 0.026389 0.005058 570741.000000 0 0 1
-19.753348 -27.993431 26.412403 43.260166 0.956294 0.914044 0.028488 -0.000195 96895.200000 0 0 1
-20.601048 -28.545131 25.439703 43.432778 0.945654 0.945021 0.028068 -0.001580 -48088.100000 0 0 1
-22.000148 -27.889431 25.241603 43.577120 0.902901 0.953001 0.035157 0.009793 -22312.700000 0 0 1
-21.980948 -26.691731 24.532103 42.396163 0.881883 0.953737 0.037538 0.008061 611979.000000 0 0 1
-23.273848 -26.434131 23.979303 42.608007 0.848890 0.973041 0.022759 0.012103 108364.000000 0 0 1
-23.492048 -24.935431 23.747603 41.684538 0.815194 0.964658 0.019913 0.024199 -267389.000000 0 0 1
-23.735748 -24.261431 24.936003 42.116588 0.796350 0.937170 0.010728 0.025603 212884.000000 0 0 1
-24.161648 -22.948331 24.671103 41.461723 0.759649 0.933489 0.001835 0.028367 83367.500000 0 0 1
-24.612948 -22.198731 25.956303 42.098819 0.733871 0.906435 0.002873 0.026653 690147.000000 0 0 1
-25.851028 -22.575631 26.589503 43.415855 0.717865 0.911656 -0.004760 0.032177 863910.000000 0 0 1
-26.095908 -21.770431 27.739603 43.868367 0.695277 0.886230 -0.005033 0.026415 -1242700.000000 0 0 1
-27.365118 -22.175131 28.511503 45.315471 0.681016 0.890301 -0.008777 0.026606 647146.000000 0 0 1
-28.622728 -21.670831 28.020703 45.541687 0.648042 0.908060 -0.006805 0.019259 994368.000000 0 0 1
-29.003258 -22.176631 26.772303 45.274144 0.652796 0.938080 -0.011520 0.025638 -889977.000000 0 0 1
-30.384748 -22.896031 26.760703 46.514475 0.645761 0.957801 -0.024444 0.026579 251144.000000 0 0 1
-30.782778 -23.448331 25.507903 46.347133 0.650970 0.987993 -0.028551 0.025391 165810.000000 0 0 1
-30.406448 -24.793231 25.303403 46.685315 0.684057 0.997982 -0.033147 0.020371 -540860.000000 0 0 1
-30.948908 -25.370131 23.967903 46.646960 0.686664 1.031171 -0.038064 0.021917 -74051.900000 0 0 1
-32.286568 -25.777931 23.827503 47.693544 0.673771 1.047664 -0.040835 0.020701 -225777.000000 0 0 1
-32.328028 -26.318731 22.568003 47.403499 0.683289 1.074601 -0.033085 0.025768 1177780.000000 0 0 1
-33.638448 -27.145631 22.160803 48.575011 0.678984 1.097056 -0.021222 0.014019 592380.000000 0 0 1
-33.756498 -28.423731 22.849203 49.694021 0.699844 1.093029 -0.028223 0.018652 289665.000000 0 0 1
-32.846198 -29.494731 22.576803 49.583505 0.731690 1.098055 -0.036667 0.018250 -300318.000000 0 0 1
-33.210708 -30.462431 21.482403 49.923987 0.742263 1.125969 -0.032783 0.019466 -364313.000000 0 0 1
-33.247498 -29.888531 20.169003 49.045990 0.732246 1.146997 -0.043523 0.019439 473769.000000 0 0 1
-33.680938 -30.947031 19.346303 49.662901 0.743121 1.170651 -0.027955 0.017522 -613689.000000 0 0 1
-34.137791 -30.544931 17.930703 49.192395 0.729909 1.197699 -0.029044 0.020030 -864347.000000 0 0 1
-33.158978 -30.289831 16.924003 47.993891 0.740209 1.210418 -0.009771 0.012479 140461.000000 0 0 1
-33.616198 -29.825431 15.633403 47.581597 0.725717 1.236018 -0.004848 0.006288 188859.000000 0 0 1
-34.310602 -30.918131 14.723803 48.476165 0.733436 1.262188 0.001650 -0.010373 364906.000000 0 0 1
-33.388858 -31.901631 14.251703 48.328469 0.762623 1.271453 0.010033 -0.014342 343721.000000 0 0 1
-33.971448 -32.635031 13.181803 48.916914 0.765336 1.297950 0.013574 -0.016274 284278.000000 0 0 1
-33.936858 -31.934531 11.766303 48.062152 0.755010 1.323468 0.027716 -0.023876 100234.000000 0 0 1
-34.729295 -30.775031 11.724803 47.861231 0.725105 1.323302 0.007673 -0.020583 -42287.700000 0 0 1
-34.603935 -30.199131 10.447503 47.101700 0.717530 1.347129 0.004845 -0.021987 517085.000000 0 0 1
33.895514 -29.544831 9.856203 46.032028 -0.716926 1.355009 0.013301 -0.019024 604267.000000 0 0 1
33.350044 -28.387731 10.500903 45.037292 -0.705193 1.335470 0.009864 -0.025781 -381467.000000 0 0 1
32.348984 -27.713931 9.818603 43.714113 -0.708381 1.344254 -0.002928 -0.025900 -851247.000000 0 0 1
32.760504 -26.798131 8.637303 43.197146 -0.685621 1.369489 0.002992 -0.021710 77152.000000 0 0 1
33.535394 -25.645731 8.959403 43.157816 -0.652866 1.361679 0.004607 -0.026078 -17567.400000 0 0 1
33.824760 -24.957331 7.784703 42.750255 -0.635675 1.387677 0.014704 -0.024904 136577.000000 0 0 1
34.456474 -23.552231 7.883603 42.474785 -0.599590 1.384107 0.023936 -0.027746 51126.500000 0 0 1
33.575754 -22.602931 8.501503 41.358183 -0.592507 1.363763 0.010024 -0.018558 -412854.000000 0 0 1
34.067561 -21.320631 8.473403 41.072698 -0.559199 1.363002 0.020649 -0.016204 -654406.000000 0 0 1
33.205964 -20.195131 9.020303 39.897935 -0.546411 1.342740 0.020806 -0.011990 -674353.000000 0 0 1
33.185114 -20.241931 10.412903 40.241969 -0.547718 1.309061 0.015104 -0.023742 -326887.000000 0 0 1
32.504074 -19.125931 10.897903 39.256596 -0.531859 1.289494 0.023088 -0.010382 -342579.000000 0 0 1
32.689384 -19.023531 12.386403 39.798411 -0.527040 1.254311 0.020360 -0.025677 169610.000000 0 0 1
33.912611 -18.422131 12.779403 40.654068 -0.497626 1.251030 -0.012069 -0.020209 253306.000000 0 0 1
34.149324 -18.504631 14.189503 41.351417 -0.496583 1.220534 -0.009790 -0.012671 -296450.000000 0 0 1
-34.333444 -17.854131 14.652503 41.379357 0.479536 1.208843 -0.011047 -0.015457 -624796.000000 0 0 1
-33.205928 -18.449731 14.105603 40.521528 0.507144 1.215251 -0.011205 -0.018059 -792208.000000 0 0 1
-32.077658 -17.776231 14.603503 39.474458 0.506033 1.191843 -0.013150 -0.017381 31218.200000 0 0 1
-30.777558 -18.029531 13.794303 38.244017 0.529914 1.201787 0.002160 -0.021749 -105521.000000 0 0 1
-30.198948 -19.320531 13.834403 38.427205 0.569154 1.202511 0.000758 -0.015726 427717.000000 0 0 1
-29.071628 -19.280031 12.946903 37.208889 0.585592 1.215411 -0.008415 -0.007383 -71071.000000 0 0 1
-28.446128 -20.657631 12.700503 37.379442 0.628096 1.224121 -0.020662 -0.010755 -718554.000000 0 0 1
-29.133548 -21.494931 11.827303 38.087804 0.635652 1.255049 -0.019418 -0.007188 -71807.700000 0 0 1
-28.221098 -22.104431 10.902203 37.468577 0.664449 1.275557 -0.021093 0.000122 498445.000000 0 0 1
-29.035058 -22.893531 9.834303 38.260448 0.667676 1.310843 -0.012620 -0.006311 506033.000000 0 0 1
-29.681928 -24.098431 10.159903 39.559763 0.681948 1.311062 -0.008310 -0.010646 -79162.500000 0 0 1
-30.919678 -23.971431 10.831703 40.595342 0.659485 1.300703 0.002479 -0.015624 -382608.000000 0 0 1
-31.583178 -25.317831 11.033903 41.955175 0.675730 1.304674 0.023517 -0.021247 -177780.000000 0 0 1
-31.869178 -25.876531 9.793003 42.203581 0.681992 1.336620 0.025197 -0.019055 -320413.000000 0 0 1
-32.429638 -27.153031 9.777603 43.411635 0.697069 1.343617 0.027743 -0.017994 -71078.400000 0 0 1
-32.453648 -27.810531 8.379703 43.553236 0.708504 1.377188 0.026694 -0.013529 -412831.000000 0 0 1
-31.214028 -28.260431 7.958303 42.852096 0.735777 1.383996 0.023450 -0.019786 -544816.000000 0 0 1
-31.417858 -28.692031 6.601803 43.056919 0.740082 1.416862 0.016222 -0.015372 -250367.000000 0 0 1
-30.110578 -29.031031 5.885403 42.238438 0.767147 1.431004 0.015234 -0.010532 -308763.000000 0 0 1
-29.462258 -27.882231 5.375603 40.918707 0.757852 1.439043 0.024181 -0.005486 225123.000000 0 0 1
-28.278638 -28.323031 4.697603 40.298175 0.786182 1.453960 0.025307 -0.005335 242831.000000 0 0 1
-27.478188 -27.218431 3.996803 38.882750 0.780649 1.467823 0.025929 -0.004328 -262255.000000 0 0 1
-28.128548 -26.619731 2.965103 38.840921 0.757846 1.494382 0.020696 -0.000102 -389264.000000 0 0 1
-27.262968 -25.623231 2.462803 37.495130 0.754403 1.505066 0.019064 -0.010081 53991.000000 0 0 1
-27.719258 -24.943031 1.154903 37.307450 0.732729 1.539835 0.019185 -0.003423 -373712.000000 0 0 1
-27.157318 -25.584031 0.045903 37.310383 0.755577 1.569566 0.016188 -0.002670 -163730.000000 0 0 1
-27.506478 -25.115831 -1.251597 37.268992 0.739999 1.604385 0.007742 -0.004849 -153120.000000 0 0 1
-28.973088 -25.170831 -1.733097 38.418930 0.715288 1.615922 0.016102 -0.004042 -304480.000000 0 0 1
-29.729818 -24.112931 -1.210897 38.298326 0.681454 1.602419 0.011405 -0.001987 -340592.000000 0 0 1
-30.940218 -24.032531 -1.944897 39.225531 0.660397 1.620399 0.009580 0.002580 180862.000000 0 0 1
-31.641338 -22.618131 -1.776097 38.934671 0.620609 1.616430 0.009770 -0.005503 44261.000000 0 0 1
-32.072238 -22.454331 -0.455897 39.153969 0.610805 1.582440 0.012444 -0.013521 126966.000000 0 0 1
-32.767368 -21.258331 -0.170097 39.059518 0.575507 1.575151 0.017737 -0.006108 -285430.000000 0 0 1
-32.727888 -20.886831 1.354603 38.848543 0.568033 1.535920 0.016492 -0.008797 -225173.000000 0 0 1
-33.540598 -21.804631 2.085303 40.059482 0.576443 1.518718 0.029124 -0.014554 390596.000000 0 0 1
-33.613398 -21.463031 3.448303 40.030151 0.568267 1.484547 0.026785 -0.015563 -1605390.000000 0 0 1
-34.564217 -22.473331 4.148603 41.436054 0.576509 1.470508 0.038109 -0.012270 756313.000000 0 0 1
33.872032 -22.359431 3.769603 40.761116 -0.583453 1.478184 0.018242 -0.002776 80962.800000 0 0 1
33.254334 -21.156931 4.032503 39.619787 -0.566624 1.468840 0.019892 -0.012619 -1766830.000000 0 0 1
32.020484 -20.891031 3.173303 38.364259 -0.578080 1.487987 -0.001282 -0.000579 325390.000000 0 0 1
30.844334 -21.588331 3.546703 37.815447 -0.610667 1.476868 -0.004867 0.006727 -46020.000000 0 0 1
29.655584 -21.072231 2.991103 36.502592 -0.617782 1.488762 -0.014759 0.011268 614527.000000 0 0 1
28.454374 -22.069531 3.065103 36.140150 -0.659692 1.485883 -0.022289 0.025648 -229013.000000 0 0 1
28.589774 -23.221331 2.277303 36.902459 -0.682151 1.509046 -0.037868 0.022165 -25546.200000 0 0 1
27.545994 -24.167031 2.511303 36.730557 -0.720150 1.502372 -0.040948 0.027475 272862.000000 0 0 1
27.474314 -25.213631 1.373203 37.315557 -0.742517 1.533988 -0.044256 0.024132 -3361.570000 0 0 1
27.003794 -24.748031 0.113303 36.628988 -0.741838 1.567703 -0.046695 0.013624 62521.600000 0 0 1
26.674064 -25.816131 -0.727297 37.128254 -0.769055 1.590386 -0.030782 0.006348 -155777.000000 0 0 1
25.812794 -25.384731 -1.930997 36.254843 -0.777037 1.624083 -0.011006 -0.002827 -156531.000000 0 0 1
26.597384 -24.752831 -2.907097 36.449618 -0.749493 1.650638 -0.025910 -0.014945 -119588.000000 0 0 1
26.903704 -25.558031 -4.030297 37.326472 -0.759753 1.678981 -0.008454 -0.013271 -218866.000000 0 0 1
25.740324 -26.191931 -4.910797 37.049931 -0.794094 1.703733 -0.009725 -0.016922 769399.000000 0 0 1
25.136784 -25.325331 -5.894697 36.165975 -0.789135 1.734517 -0.005933 -0.033469 567953.000000 0 0 1
24.270314 -24.362531 -5.304697 34.795414 -0.787294 1.723847 -0.002110 -0.037145 -571610.000000 0 0 1
23.538514 -23.412331 -6.271197 33.786488 -0.782711 1.757492 0.001795 -0.041132 -532638.000000 0 0 1
22.619414 -24.038731 -7.115397 33.765771 -0.815808 1.783116 0.000809 -0.029591 -827840.000000 0 0 1
21.721314 -23.140431 -7.662197 32.649721 -0.817021 1.807684 0.006748 -0.026633 -755071.000000 0 0 1
21.988214 -21.888931 -8.567997 32.187224 -0.783135 1.840237 0.001896 -0.028678 -969533.000000 0 0 1
22.252314 -22.178131 -9.926897 32.948114 -0.783729 1.876840 0.007951 -0.029110 55561.000000 0 0 1
22.316314 -20.928131 -10.587497 32.374366 -0.753308 1.903959 -0.000035 -0.022416 -476397.000000 0 0 1
22.897114 -21.031431 -11.992197 33.322840 -0.742953 1.938935 -0.013123 -0.008722 -143010.000000 0 0 1
24.295814 -21.093631 -11.865197 34.293013 -0.714966 1.924095 -0.004093 -0.016633 -344620.000000 0 0 1
25.017484 -20.539431 -12.965697 34.869069 -0.687417 1.951786 -0.010758 -0.012607 414223.000000 0 0 1
26.535134 -20.840731 -12.898097 36.122158 -0.665776 1.935924 -0.013426 -0.012509 2160.020000 0 0 1
26.852174 -22.152531 -13.280097 37.257681 -0.689789 1.935250 -0.014410 -0.012992 241382.000000 0 0 1
27.315324 -22.977431 -12.135397 37.700890 -0.699358 1.898517 -0.005187 -0.016545 43299.300000 0 0 1
27.757724 -24.366231 -12.662797 39.045497 -0.720424 1.901077 -0.007777 -0.019140 144247.000000 0 0 1
28.910394 -24.326931 -13.507397 40.125555 -0.699515 1.914130 -0.012218 -0.024269 503670.000000 0 0 1
29.286584 -25.634231 -13.964597 41.350063 -0.718994 1.915286 -0.002335 -0.016710 52234.800000 0 0 1
-3.393448 -9.293134 -28.045357 29.739198 1.220683 2.802460 -0.009897 -0.001782 -99530.400000 0 0 1
-3.393948 -7.966234 -27.503097 28.834010 1.168044 2.836577 0.000222 0.001489 710693.000000 0 0 1
-4.396948 -7.169134 -28.189127 29.416943 1.020643 2.851655 -0.008018 -0.003767 532596.000000 0 0 1
-4.478748 -5.755234 -27.501337 28.451809 0.909487 2.882386 -0.006646 -0.000368 -247553.000000 0 0 1
-5.038148 -5.747034 -26.220727 27.311863 0.851032 2.857974 -0.015600 -0.000976 191951.000000 0 0 1
-4.887048 -4.535334 -25.507437 26.364405 0.748088 2.885927 -0.004463 0.004811 -192527.000000 0 0 1
-5.559848 -4.512334 -24.136397 25.176154 0.681770 2.853195 -0.014619 0.011591 -404181.000000 0 0 1
-4.958448 -5.407634 -23.234997 24.365832 0.828703 2.835736 -0.018092 -0.001342 274907.000000 0 1 0
-5.250148 -5.288834 -21.858197 23.093648 0.789069 2.813016 -0.022350 0.005873 -440458.000000 0 1 0
-4.664348 -6.441434 -21.006997 22.462015 0.944068 2.779685 -0.018099 0.000509 -519451.000000 0 1 0
-5.264448 -7.710634 -21.073797 23.049365 0.971740 2.724547 -0.019388 -0.000310 680012.000000 0 1 0
-4.451848 -8.751034 -20.482897 22.714502 1.100195 2.694607 -0.010237 -0.007149 -577939.000000 0 1 0
-5.176048 -10.085634 -20.576697 23.492806 1.096637 2.638037 -0.002388 0.002498 432894.000000 0 1 0
-6.190248 -10.429034 -19.626597 23.071351 1.035126 2.588095 -0.004174 0.002900 -294540.000000 0 1 0
-7.400448 -9.792634 -19.818497 23.311695 0.923647 2.587071 -0.004344 -0.007577 -1553290.000000 0 1 0
-8.363848 -9.967634 -18.655797 22.745251 0.872664 2.532568 -0.011816 -0.001109 -507318.000000 0 1 0
-9.011748 -11.239434 -18.579297 23.510142 0.894960 2.482041 0.002884 -0.003142 255363.000000 0 1 0
-9.782148 -11.242834 -17.356997 22.876999 0.854761 2.432126 0.005124 -0.005844 366086.000000 0 1 0
-10.964648 -12.240334 -17.427097 23.953142 0.840318 2.385540 0.027466 -0.002166 554514.000000 0 1 0
-12.014548 -12.061534 -18.392797 25.062421 0.787350 2.394812 0.030997 -0.002737 593480.000000 0 0 1
-11.640448 -12.369934 -19.742697 26.043989 0.815771 2.431117 0.020710 -0.005033 -1014390.000000 0 0 1
-12.774548 -12.056034 -20.763197 27.196459 0.756470 2.439438 0.004061 0.001865 291974.000000 0 0 1
-13.799748 -13.004634 -20.793797 28.141349 0.755743 2.402241 0.002756 0.007842 -209929.000000 0 0 1
-14.670648 -13.150634 -19.686897 27.852127 0.730818 2.355812 0.007930 0.000976 -518411.000000 0 0 1
-15.632148 -14.378634 -19.796297 29.034506 0.743654 2.321044 0.010515 0.010488 411693.000000 0 0 1
-14.943348 -15.617434 -19.929797 29.400760 0.807452 2.315653 0.009607 0.011898 143144.000000 0 0 1
-15.496248 -16.344134 -21.047897 30.826586 0.812021 2.322363 0.022977 0.008933 295868.000000 0 0 1
-14.985648 -17.801134 -21.288097 31.537804 0.871061 2.311764 0.006718 0.010690 6186.740000 0 0 1
-15.558948 -18.798234 -20.404397 31.808708 0.879403 2.267212 0.022039 0.020057 322624.000000 0 0 1
-14.994848 -20.064034 -20.743697 32.522483 0.928994 2.262469 0.023349 0.021299 375515.000000 0 0 1
-15.801248 -21.255034 -20.099197 33.248062 0.931525 2.219962 0.028044 0.013825 377211.000000 0 0 1
-15.219548 -22.448134 -20.616797 34.067663 0.974997 2.220778 0.036429 0.016207 215071.000000 0 0 1
-15.966548 -23.537534 -20.157297 34.860620 0.974753 2.187348 0.043308 0.012331 73552.700000 0 0 1
-15.469348 -24.965734 -20.633097 35.893082 1.016073 2.183216 0.039374 0.009995 191941.000000 0 0 1
-15.750648 -25.255934 -21.985597 37.004211 1.013175 2.206990 0.028873 0.012530 566934.000000 0 0 1
-14.936248 -26.407434 -22.288197 37.645821 1.056049 2.204396 0.027706 0.009423 368864.000000 0 0 1
-15.028748 -26.785344 -23.785397 38.846661 1.059485 2.229749 0.029774 0.002759 -832252.000000 0 0 1
-16.100748 -27.576404 -24.176197 40.052224 1.042329 2.218826 0.036063 0.005156 -557393.000000 0 0 1
-15.868748 -28.960144 -24.095197 40.878914 1.069527 2.201148 0.027492 0.016003 -126306.000000 0 0 1
-16.903448 -29.798534 -24.909697 42.357670 1.054800 2.199479 0.027288 0.008824 43783.600000 0 0 1
-16.884048 -29.717134 -26.343157 43.152533 1.054119 2.227445 0.021808 0.013163 195175.000000 0 0 1
-17.381148 -28.464744 -26.833617 42.806413 1.022604 2.248313 0.049755 -0.003727 -590399.000000 0 0 1
-16.482648 -27.869144 -27.864347 42.717546 1.036702 2.281402 0.036453 -0.007674 -609711.000000 0 0 1
-16.461548 -28.428914 -29.149887 43.919263 1.045929 2.296571 0.038608 0.004026 578661.000000 0 0 1
-15.352948 -27.907174 -29.934177 43.710163 1.067843 2.325171 0.016092 0.010891 691104.000000 0 0 1
-15.514448 -28.126514 -31.454677 44.957709 1.066729 2.345704 0.022865 0.007986 -225989.000000 0 0 1
-15.295648 -29.440604 -31.912027 46.033504 1.091637 2.336764 0.005333 0.014983 198739.000000 0 0 1
-15.853248 -29.734884 -33.188597 47.296636 1.080979 2.348593 0.005479 0.015758 -69784.400000 0 0 1
-15.760848 -31.233084 -33.630407 48.527458 1.103459 2.336463 -0.000993 0.018724 756012.000000 0 0 1
-14.623448 -31.695494 -34.407891 49.013800 1.138525 2.349004 -0.001825 0.030194 418877.000000 0 0 1
-14.901448 -32.991074 34.329051 49.889356 1.146545 0.811924 -0.012285 0.030444 128799.000000 0 0 1
-13.717248 -33.619664 33.563044 49.446159 1.183402 0.824697 -0.014148 0.023402 511636.000000 0 0 1
-12.745448 -34.277704 34.378149 50.192276 1.214809 0.816290 -0.009236 0.023946 517579.000000 0 0 1
-11.892748 34.349646 33.608460 49.506203 -1.237487 0.824569 -0.006908 0.016708 549806.000000 0 0 1
-10.999248 33.378462 34.446292 49.210285 -1.252471 0.795425 0.002942 0.014480 763436.000000 0 0 1
-9.985848 34.110999 -34.099948 49.255292 -1.286008 2.335482 0.013922 0.022096 444753.000000 0 0 1
-9.192548 33.310062 -33.228597 47.939574 -1.301529 2.336626 0.008513 0.010265 13332.500000 0 0 1
-8.333148 34.170706 -32.304807 47.756455 -1.331597 2.313727 0.016056 0.007929 255735.000000 0 0 1
-9.144748 34.602766 -31.185957 47.471483 -1.312425 2.287550 0.013297 0.009657 372319.000000 0 0 1
-8.688848 -33.695234 -30.649917 46.371137 1.318428 2.292907 0.005689 0.010303 -454147.000000 0 0 1
-9.613348 -32.962724 -29.649797 45.365936 1.287024 2.283088 0.010352 0.018125 -90570.100000 0 0 1
-9.765848 -33.413184 -28.309947 44.869430 1.286441 2.253561 0.026914 0.009595 -217011.000000 0 0 1
-10.481448 -34.587328 -28.128027 45.796615 1.276550 2.232161 0.033350 0.003255 -496677.000000 0 0 1
-10.757448 -34.712052 -26.594497 45.032394 1.270277 2.202553 0.038421 -0.003063 -172571.000000 0 0 1
-9.688948 34.466350 -25.752157 44.101911 -1.296756 2.194350 0.037165 -0.011647 -314186.000000 0 0 1
-10.160948 34.498440 -24.435097 43.479434 -1.284362 2.167589 0.041499 -0.017676 392224.000000 0 0 1
-8.980248 34.598144 -23.422497 42.735112 -1.316842 2.150870 0.038182 -0.019453 111294.000000 0 0 1
-8.175248 33.501634 -23.282797 41.608686 -1.331449 2.164658 0.025909 -0.019864 -353454.000000 0 0 1
-7.088748 33.806077 -22.414897 41.176799 -1.364102 2.146419 0.030963 -0.013347 1193600.000000 0 0 1
-6.019748 32.625612 -22.191297 39.913927 -1.388338 2.160336 0.015247 -0.006620 1518760.000000 0 0 1
-5.115148 32.301742 -23.295297 40.152685 -1.413745 2.189731 0.002977 -0.013654 229010.000000 0 0 1
-4.462848 31.097462 -23.002497 38.936923 -1.428258 2.202801 -0.007051 -0.010886 -53317.300000 0 0 1
-2.985748 31.127702 -23.462997 39.094254 -1.475170 2.214503 -0.017470 -0.012796 -154766.000000 0 0 1
-2.550148 31.128232 -24.798497 39.880265 -1.489055 2.241866 -0.019939 -0.009061 -208949.000000 0 0 1
-3.010548 32.180862 -25.650707 41.262938 -1.477517 2.241631 -0.011227 -0.012243 -637018.000000 0 0 1
-2.071348 32.517152 -26.831247 42.208666 -1.507182 2.259687 -0.009254 0.004924 -175797.000000 0 0 1
-1.053848 33.476258 -26.604847 42.773687 -1.539326 2.242079 -0.015703 -0.003142 75745.000000 0 0 1
-1.595448 34.733839 -26.662517 43.816376 -1.524895 2.224973 -0.016031 -0.000102 -575487.000000 0 0 1
-0.602548 -33.677724 -27.149747 43.262697 1.552907 2.249206 -0.028041 0.009197 29560.400000 0 0 1
0.508652 -33.392764 -26.325867 42.525130 -1.555565 2.238349 -0.012663 0.005976 385246.000000 0 0 1
1.408052 -32.456044 -26.934137 42.199824 -1.527440 2.263022 -0.011991 0.013873 688801.000000 0 0 1
2.524952 -32.031074 -25.913097 41.277763 -1.492131 2.249486 -0.009552 0.009732 -120871.000000 0 0 1
2.052052 -31.332944 -24.758397 39.986779 -1.505398 2.238475 -0.014181 0.007845 334690.000000 0 0 1
3.138952 -30.673134 -24.157897 39.170118 -1.468816 2.235395 -0.011519 0.009096 -256924.000000 0 0 1
2.775652 -30.094084 -22.803897 37.859951 -1.478824 2.217204 -0.011217 0.011464 -227468.000000 0 0 1
2.789152 -31.122624 -21.812797 38.107679 -1.481417 2.180225 -0.006125 0.004662 404698.000000 0 0 1
2.879852 -30.499924 -20.525497 36.875940 -1.476654 2.161095 -0.006524 0.006980 -508694.000000 0 0 1
2.624452 -31.444064 -19.341797 37.009756 -1.487525 2.120710 -0.002333 0.006983 86918.500000 0 0 1
1.356852 -32.128504 -19.301097 37.504855 -1.528589 2.111372 -0.006604 0.006036 677883.000000 0 0 1
1.316552 -33.476134 -19.776997 38.903914 -1.531489 2.104070 -0.002320 0.012859 -274965.000000 0 0 1
1.873652 -34.542184 -18.747097 39.346241 -1.516607 2.067426 -0.015111 0.000651 157759.000000 0 0 1
3.230852 -34.293158 -18.414197 39.058184 -1.476861 2.061737 -0.015326 0.003525 -83116.300000 0 0 1
3.715152 34.224628 -17.542597 38.637679 1.462668 2.042078 -0.000342 -0.004909 -129083.000000 0 0 1
4.747852 33.320122 -18.236497 38.279791 1.429257 2.067352 0.006934 -0.011265 -554352.000000 0 0 1
5.990252 33.964376 -18.411397 39.095287 1.396223 2.061148 0.021080 -0.018130 -879168.000000 0 0 1
6.793252 33.062622 -19.128397 38.796660 1.368150 2.086380 0.016374 -0.016126 -1031500.000000 0 0 1
8.082552 33.752587 -19.453497 39.786974 1.335758 2.081672 0.014974 -0.013876 -1348730.000000 0 0 1
8.933752 33.959731 -18.382997 39.635966 1.313556 2.053071 0.012914 -0.006993 -429843.000000 0 0 1
10.171852 34.485604 -18.828597 40.586198 1.283970 2.053207 0.010610 0.004864 -120771.000000 0 0 1
11.191052 34.675710 -17.739697 40.525811 1.258615 2.023878 -0.003885 0.008598 -466577.000000 0 0 1
11.801152 33.494672 -17.190897 39.454875 1.232048 2.021624 -0.003669 0.005502 -229878.000000 0 0 1
12.558852 33.779371 -16.058097 39.454190 1.214842 1.989970 -0.006043 -0.000274 95277.600000 0 0 1
13.683752 32.704762 -15.819997 38.821628 1.174527 1.990516 -0.001000 0.005356 385806.000000 0 0 1
13.296552 31.462982 -15.331897 37.440414 1.170952 1.992704 -0.003332 0.009849 -273239.000000 0 0 1
14.436952 30.692502 -15.012797 37.092308 1.131129 1.987492 -0.005101 0.014392 217085.000000 0 0 1
14.073452 29.547462 -14.095397 35.634180 1.126288 1.977472 -0.012564 0.024041 -78909.500000 0 0 1
13.708152 30.058292 -12.829697 35.440308 1.142921 1.941218 -0.009137 0.014873 886307.000000 0 0 1
12.483152 29.523672 -12.261797 34.319498 1.170775 1.936154 0.020477 0.017039 831406.000000 0 0 1
12.563652 28.047902 -11.799097 32.920341 1.149661 1.937364 0.001604 0.018183 -610310.000000 0 0 1
11.714352 27.181152 -12.536397 32.143464 1.163877 1.971443 -0.009154 0.017516 54113.300000 0 0 1
11.433552 25.932392 -11.854197 30.720303 1.155537 1.966952 0.010083 0.017464 352856.000000 0 0 1
10.591952 26.083552 -10.527097 30.055963 1.185061 1.928634 0.015792 0.009697 -867819.000000 0 0 1
9.335552 26.601262 -10.758897 30.175048 1.233281 1.935368 0.019526 0.020075 -1089200.000000 0 0 1
8.617652 26.870422 -9.609097 29.809700 1.260448 1.899005 0.003381 0.026343 551839.000000 0 0 1
7.527652 27.992042 -9.813097 30.602562 1.308090 1.897225 0.004735 0.021048 623598.000000 0 0 1
8.168852 29.156482 -10.286297 31.978719 1.297627 1.898279 0.009823 0.012388 157145.000000 0 0 1
7.248552 30.238582 -10.479697 32.813677 1.335524 1.895861 0.000494 0.009003 486408.000000 0 0 1
7.856552 31.564462 -11.054697 34.354723 1.326849 1.898406 0.006934 0.005177 39422.700000 0 0 1
8.578252 32.422752 -10.174697 35.047763 1.312148 1.865347 -0.004662 0.009028 -294465.000000 0 0 1
8.991752 33.646287 -10.736697 36.444490 1.309655 1.869838 0.014611 0.002628 65553.100000 0 0 1
10.199852 33.660984 -11.694297 37.065555 1.276574 1.891783 0.002135 -0.002794 254453.000000 0 0 1
11.516552 33.650894 -11.167197 37.278947 1.241055 1.875025 -0.010089 0.010787 -66452.600000 0 0 1
12.480452 34.051576 -12.096697 38.230898 1.219484 1.892741 0.012441 -0.000677 -1097440.000000 0 0 1
13.884052 33.715344 -11.713297 38.297423 1.180157 1.881628 0.017256 0.001855 -1078590.000000 0 0 1
14.335452 34.450885 -10.617697 38.795672 1.176477 1.848016 0.033725 -0.000774 -624381.000000 0 0 1
15.727752 34.587688 -10.563497 39.436757 1.144023 1.841967 0.026015 -0.008113 -143912.000000 0 0 1
16.215452 -33.920904 -9.478797 38.773912 -1.124873 1.817762 0.043734 -0.010043 -19786.400000 0 0 1
15.932852 -34.512238 -8.208997 38.888790 -1.138290 1.783485 0.033476 0.001812 33616.100000 0 0 1
16.390152 -33.638124 -7.166897 38.098883 -1.117401 1.760037 0.021420 0.001416 -542164.000000 0 0 1
16.996952 -34.566650 -6.083097 38.996843 -1.113798 1.727425 0.021465 0.007197 622926.000000 0 0 1
18.034552 34.057320 -6.577797 39.094929 1.083801 1.739852 0.010601 0.007277 342227.000000 0 0 1
19.349852 34.545220 -6.369597 40.104373 1.060208 1.730297 0.006215 0.009910 45457.900000 0 0 1
20.459152 33.619790 -6.927697 39.960733 1.024117 1.745039 0.002586 0.012398 90236.400000 0 0 1
20.582652 32.302382 -6.372697 38.829122 1.003481 1.735664 0.014599 0.025208 -72892.900000 0 0 1
21.107152 32.189092 -5.068497 38.824466 0.990408 1.701719 0.007872 0.026384 -415125.000000 0 0 1
21.309952 30.692222 -4.681497 37.656911 0.963899 1.695439 0.004554 0.018818 189940.000000 0 0 1
22.069552 30.030072 -5.710897 37.702582 0.937020 1.722854 0.005193 0.020936 311796.000000 0 0 1
22.111452 28.639782 -5.624097 36.616716 0.913330 1.725000 0.011895 0.027940 154235.000000 0 0 1
23.216152 28.172862 -6.650397 37.106975 0.881555 1.750992 0.011491 0.032864 236678.000000 0 0 1
24.510252 28.583322 -6.358097 38.186177 0.861963 1.738078 0.006620 0.025357 484907.000000 0 0 1
25.612252 27.893882 -7.036297 38.517081 0.828015 1.754508 -0.009949 0.026741 1308260.000000 0 0 1
26.446652 26.976832 -6.138797 38.273485 0.795322 1.731885 -0.003740 0.032036 267541.000000 0 0 1
27.446652 27.658372 -5.355097 39.331683 0.789240 1.707373 -0.003799 0.021706 792265.000000 0 0 1
28.282452 26.731532 -4.636297 39.191416 0.757214 1.689373 -0.006955 0.028198 204668.000000 0 0 1
29.441452 27.370732 -3.876697 40.385453 0.748966 1.666937 -0.004833 0.022848 -213954.000000 0 0 1
28.973252 28.118142 -2.752597 40.467963 0.770421 1.638868 0.004627 0.011241 39305.500000 0 0 1
29.991352 28.437872 -1.828097 41.370710 0.758817 1.614999 0.007580 0.010720 -56657.900000 0 0 1
29.846952 29.834632 -1.168397 42.217425 0.785192 1.598476 0.014674 0.001497 110317.000000 0 0 1
30.043052 30.880172 -2.124697 43.135650 0.799138 1.620072 -0.002254 0.001371 36015.500000 0 0 1
29.608552 32.085392 -1.553597 43.686982 0.825524 1.606366 0.009844 -0.002772 -249656.000000 0 0 1
31.952114 23.227966 19.746899 44.163514 0.628593 1.107240 -0.013276 0.005779 -94714.200000 0 0 1
32.120244 23.043666 21.156599 44.836617 0.622321 1.079397 -0.027990 0.007508 54370.400000 0 0 1
32.885934 24.100166 21.695199 46.184243 0.632429 1.081785 -0.012721 0.002998 -205414.000000 0 0 1
32.802414 24.070166 23.251699 46.861634 0.633047 1.051606 -0.027136 0.004959 204542.000000 0 0 1
31.507424 24.371566 23.746099 46.374219 0.658384 1.033222 -0.022503 0.002050 279911.000000 0 0 1
31.449784 24.524666 25.174509 47.162528 0.662304 1.007730 -0.014294 0.002726 547153.000000 0 0 1
30.072434 25.182066 25.554949 46.813920 0.697122 0.993353 -0.009636 -0.004534 638183.000000 0 0 1
30.007014 26.562266 25.241639 47.361537 0.724579 1.008706 -0.011629 -0.005817 345083.000000 0 0 1
28.737274 27.087866 25.600139 47.063260 0.755861 0.995657 -0.009354 -0.009192 121363.000000 0 0 1
28.651834 28.594866 25.848829 48.028698 0.784403 1.002502 -0.005893 -0.012321 -272524.000000 0 0 1
28.653244 29.335066 24.685959 47.863880 0.797156 1.028910 -0.007336 -0.015734 257023.000000 0 0 1
28.451954 30.723566 24.952149 48.744855 0.823767 1.033409 -0.007038 -0.014342 -193099.000000 0 0 1
28.630634 31.642666 23.736699 48.830342 0.835330 1.063169 0.003086 -0.011207 -70730.900000 0 0 1
30.003014 31.907766 23.541799 49.724266 0.816155 1.077596 -0.014509 -0.014197 -112587.000000 0 0 1
30.154354 32.634466 22.353399 49.738997 0.824877 1.104687 -0.011806 -0.008865 677294.000000 0 0 1
31.673304 32.806466 22.023799 50.640992 0.802970 1.120868 -0.017773 -0.018310 596753.000000 0 0 1
32.332214 33.705466 22.882899 52.010167 0.806190 1.115231 -0.014124 -0.003783 348341.000000 0 0 1
33.715414 33.762466 22.518099 52.760762 0.786095 1.129849 -0.013111 0.005989 186411.000000 0 0 1
34.315786 -34.531731 23.252799 53.950961 -0.788535 1.125197 -0.016320 0.011299 -531281.000000 0 0 1
33.778881 -33.264631 22.808099 52.609484 -0.777728 1.122383 -0.014794 0.006815 349599.000000 0 0 1
34.013399 -32.253231 23.760499 52.552293 -0.758843 1.101644 -0.008123 -0.000401 -1140780.000000 0 0 1
33.197614 -30.959131 23.577999 51.151455 -0.750521 1.091737 -0.008156 0.003864 1108440.000000 0 0 1
31.798914 -31.140231 23.904299 50.520297 -0.774933 1.077919 -0.013154 0.000761 1568120.000000 0 0 1
30.993094 -31.718531 22.838499 49.882202 -0.796965 1.095223 -0.011252 0.011732 -21981.500000 0 0 1
30.100054 -32.938531 23.213499 50.297381 -0.830395 1.091083 -0.018302 0.006482 53936.400000 0 0 1
29.083424 -32.644431 24.152099 49.948256 -0.843023 1.066099 -0.013422 -0.000053 -79849.600000 0 0 1
28.371534 -33.850831 24.255629 50.390060 -0.873232 1.068594 -0.013627 0.000117 -361150.000000 0 0 1
27.642724 -34.008531 25.597139 50.753461 -0.888289 1.042176 -0.014057 -0.002184 -373105.000000 0 0 1
27.243724 34.211566 25.822769 50.788454 0.898297 1.037427 -0.005567 -0.018555 -24340.200000 0 0 1
26.569394 34.117466 27.046919 51.004607 0.909140 1.011861 -0.009457 -0.011375 -953206.000000 0 0 1
26.203004 32.631966 27.315969 49.976041 0.894237 0.992520 -0.006432 -0.006192 61904.500000 0 0 1
25.462674 31.962366 26.327809 48.611666 0.898104 0.998464 -0.015789 -0.003798 -813173.000000 0 0 1
24.117014 32.325366 26.330889 48.165084 0.929815 0.992402 -0.017229 -0.004790 -1251070.000000 0 0 1
23.543014 31.759666 25.039149 46.796462 0.932895 1.006212 -0.001122 -0.010521 -291824.000000 0 0 1
23.696114 32.464366 23.797199 46.709180 0.940276 1.036221 0.012964 -0.019742 -43996.100000 0 0 1
24.997514 32.622366 23.266799 47.227517 0.916964 1.055660 -0.002354 -0.013981 -264421.000000 0 0 1
25.172204 33.523066 21.981699 47.335302 0.926725 1.087859 0.005899 -0.010959 -1098910.000000 0 0 1
26.491594 33.734566 21.669199 48.056005 0.905086 1.103006 0.006564 -0.005571 -937009.000000 0 0 1
26.563604 34.399066 20.409299 48.015208 0.913226 1.131769 -0.000198 -0.002883 -504083.000000 0 0 1
27.968234 -34.733531 19.935399 48.847317 -0.892879 1.150406 0.005138 -0.008940 -260410.000000 0 0 1
28.831084 33.666966 19.662099 48.490144 0.862621 1.153285 0.004946 -0.016566 29631.100000 0 0 1
29.741144 34.085666 18.658699 48.933784 0.853361 1.179589 -0.000642 -0.007737 -49534.200000 0 0 1
30.552714 32.966966 17.967999 48.405972 0.823388 1.190502 -0.017130 -0.003572 407568.000000 0 0 1
31.515524 32.306966 18.813999 48.897186 0.797798 1.175842 -0.012992 -0.007854 577720.000000 0 0 1
32.323244 31.407866 18.053099 48.550597 0.771036 1.189805 0.000130 -0.007051 59.294100 0 0 1
33.317824 30.643366 18.920999 49.062179 0.743609 1.174880 0.011521 -0.017658 315193.000000 0 0 1
34.211382 31.535266 19.616199 50.494424 0.744717 1.171812 0.020877 -0.016616 150820.000000 0 0 1
-34.534497 30.950566 20.299799 50.622632 -0.730724 1.158185 0.019997 -0.016830 -464379.000000 0 0 1
-33.565248 31.912666 20.952099 50.833400 -0.760165 1.145960 0.008059 -0.008285 -487321.000000 0 0 1
-32.700288 32.507166 19.975399 50.249788 -0.782437 1.161982 0.012617 -0.006398 -116920.000000 0 0 1
-31.619708 33.219966 20.502299 50.236603 -0.810073 1.150408 0.005262 0.003701 -286823.000000 0 0 1
-31.876148 34.539866 21.291399 51.598593 -0.825483 1.145451 -0.008466 0.008493 -471109.000000 0 0 1
-32.156418 34.344466 22.659299 52.220890 -0.818289 1.121965 0.000614 0.007053 278152.000000 0 0 1
-31.876498 -34.019131 23.471499 52.195054 0.817902 1.104380 -0.005149 0.012316 -422266.000000 0 0 1
-31.859958 -34.152131 25.000959 52.976154 0.820108 1.079319 0.007318 -0.001396 -1783940.000000 0 0 1
-33.111898 -34.360531 25.533279 54.120164 0.803902 1.079478 0.007534 0.008122 -1009250.000000 0 0 1
-33.128078 -34.651931 26.877959 54.960445 0.807877 1.059805 0.013599 0.008460 239790.000000 0 0 1
-34.562780 34.487066 27.322909 55.950735 -0.784302 1.060611 -0.001539 -0.003700 76231.900000 0 0 1
-34.573699 33.980766 28.636269 56.303366 -0.776749 1.037231 0.010478 -0.008933 -518885.000000 0 0 1
33.904521 33.727366 29.010349 55.934355 0.782779 1.025525 0.012179 -0.017783 -481733.000000 0 0 1
33.823744 32.728866 30.190019 55.916558 0.768948 1.000464 0.019043 -0.011239 -150408.000000 0 0 1
33.720304 31.352566 29.862749 54.880106 0.749028 0.995426 0.010056 -0.011628 859358.000000 0 0 1
34.879743 30.740366 29.239129 54.922611 0.722401 1.009399 0.006395 -0.016235 471336.000000 0 0 1
34.612812 29.256866 28.907849 53.755694 0.701736 1.003014 0.019939 -0.015466 -211114.000000 0 0 1
33.550464 28.979166 28.009339 52.439953 0.712422 1.007327 0.007643 -0.013289 338563.000000 0 0 1
33.609934 27.611666 27.527519 51.476169 0.687734 1.006570 0.015331 -0.014941 -166231.000000 0 0 1
33.118404 26.554866 28.558349 51.162182 0.675847 0.978591 0.017183 -0.019427 -503576.000000 0 0 1
34.038240 26.259666 29.592499 52.190878 0.657104 0.967931 0.013680 -0.018725 -2787.870000 0 0 1
33.947606 24.906566 30.035069 51.719264 0.632972 0.951168 0.012976 -0.011080 -81764.200000 0 0 1
34.413478 23.779566 29.058009 50.932534 0.604657 0.963658 0.009358 -0.009053 -532837.000000 0 0 1
33.623974 23.636866 27.934379 49.695096 0.612721 0.973855 -0.020862 -0.003913 -336029.000000 0 0 1
34.091288 22.687766 26.942799 49.019027 0.587195 0.988864 -0.017710 -0.003762 -394958.000000 0 0 1
34.102413 21.178366 27.270569 48.530214 0.555734 0.974080 -0.020056 -0.009460 -1143370.000000 0 0 1
32.845764 20.613066 27.234209 47.386124 0.560446 0.958523 -0.013805 0.004270 -781447.000000 0 0 1
32.787264 19.453166 28.072329 47.344334 0.535489 0.936092 0.000516 0.001607 -359856.000000 0 0 1
32.350904 19.681266 29.551109 48.033334 0.546550 0.908130 -0.005175 -0.019670 468338.000000 0 0 1
31.111144 20.354566 29.821199 47.660419 0.579359 0.894766 -0.010014 -0.013769 767831.000000 0 0 1
31.093304 21.750666 29.628209 48.142660 0.610410 0.907871 0.000164 -0.017979 -717060.000000 0 0 1
29.831044 22.325566 30.320029 48.037758 0.642477 0.887735 0.000321 -0.024530 222711.000000 0 0 1
28.564564 22.056766 29.742389 46.765852 0.657541 0.881512 0.002310 -0.024377 352349.000000 0 0 1
28.247734 22.649266 28.470339 46.059569 0.675843 0.904448 -0.002557 -0.019593 -475761.000000 0 0 1
28.059994 24.224866 28.527239 46.776177 0.712179 0.914904 -0.006680 -0.014636 122397.000000 0 0 1
29.335754 24.882866 28.560869 47.911029 0.703454 0.932133 -0.002283 -0.012849 604312.000000 0 0 1
29.284364 26.229766 29.035559 48.873697 0.730430 0.934658 -0.010277 -0.009141 -111832.000000 0 0 1
29.332814 26.223366 30.611599 49.851267 0.729487 0.909604 -0.009517 -0.016148 599053.000000 0 0 1
30.619974 25.765266 31.070189 50.663481 0.699511 0.910608 0.009164 -0.013165 710154.000000 0 0 1
30.917754 25.757266 32.457559 51.699491 0.694595 0.892057 0.011570 -0.015626 99014.000000 0 0 1
30.294304 24.562166 33.239642 51.243718 0.681283 0.864977 0.019127 -0.018645 -132098.000000 0 0 1
30.692174 24.526466 34.569859 52.331942 0.674199 0.849194 0.011183 -0.022830 -95929.500000 0 0 1
30.088964 23.507766 -34.005007 51.130238 0.663219 2.298379 0.003453 -0.027404 -979690.000000 0 0 1
30.735114 23.162666 -32.697787 50.500510 0.645815 2.275062 0.006952 -0.024999 -898210.000000 0 0 1
30.683004 24.089866 -31.646527 50.232171 0.665602 2.252356 -0.003790 -0.023494 339235.000000 0 0 1
31.395444 23.640666 -30.519417 49.759318 0.645416 2.231080 0.000252 -0.026027 -532510.000000 0 0 1
31.902094 24.593666 -29.453927 49.901160 0.656750 2.202159 0.004698 -0.002956 58346.900000 0 0 1
32.541324 23.779766 -28.447187 49.332114 0.631071 2.185414 -0.001788 -0.009527 -307379.000000 0 0 1
33.657734 24.441966 -27.920067 50.097733 0.628089 2.161941 0.002483 0.005647 -312170.000000 0 0 1
34.255035 23.635066 -26.771077 49.484485 0.603965 2.142421 -0.011470 0.001751 -420558.000000 0 0 1
-34.716366 22.579166 -27.225437 49.560763 -0.576649 2.152364 -0.022002 0.003720 -35590.200000 0 0 1
-34.900279 21.297466 -26.650817 48.804483 -0.547913 2.148466 -0.031400 0.012660 -696788.000000 0 0 1
-33.836098 20.283266 -27.102187 47.862521 -0.540020 2.172746 -0.029441 0.019212 394526.000000 0 0 1
-32.554768 20.557766 -26.529507 46.757346 -0.563247 2.174125 -0.031780 0.013491 -225348.000000 0 0 1
-31.671668 19.512166 -26.725217 45.804545 -0.552157 2.193781 -0.033438 0.007208 935451.000000 0 0 1
-30.197868 19.747866 -26.194887 44.587684 -0.579146 2.198752 -0.004888 -0.003039 922984.000000 0 0 1
-30.255748 20.203666 -24.823897 44.043436 -0.588761 2.169562 -0.004422 -0.005586 511458.000000 0 0 1
-29.091478 19.887566 -24.036397 42.656509 -0.599649 2.169397 0.016311 -0.009237 383946.000000 0 0 1
-29.334128 20.062566 -22.516397 42.071198 -0.599861 2.135538 0.003710 -0.004713 -108334.000000 0 0 1
-30.355448 19.307466 -21.911897 42.123185 -0.566503 2.117865 -0.024983 0.004309 -97772.600000 0 0 1
-30.553718 19.800566 -20.598897 41.831885 -0.575008 2.085665 -0.026829 0.007188 -1288030.000000 0 0 1
-31.596038 19.062866 -19.815497 41.885038 -0.542865 2.063594 -0.030279 0.007929 -763040.000000 0 0 1
-31.921778 19.695166 -18.593597 41.864320 -0.552813 2.031010 -0.027387 0.000046 528866.000000 0 0 1
-32.940878 20.697166 -18.722097 43.173962 -0.560978 2.019328 -0.035878 0.001470 133571.000000 0 0 1
-34.075643 20.570166 -17.652997 43.542042 -0.543108 1.988239 -0.018652 -0.013947 114620.000000 0 0 1
-33.814308 21.231566 -16.387897 43.159587 -0.560673 1.960273 -0.010732 -0.019355 -433955.000000 0 0 1
-34.889782 21.043866 -15.529997 43.604151 -0.542734 1.934950 -0.007312 -0.011800 -972622.000000 0 0 1
-34.900082 21.742366 -14.150197 43.485334 -0.557152 1.902233 0.006305 -0.014502 -182108.000000 0 0 1
34.721854 23.156166 -14.120297 44.059028 0.588167 1.897039 0.001391 -0.016681 1096290.000000 0 0 1
33.417064 23.572766 -14.579397 43.415829 0.614348 1.913260 0.006360 -0.005930 714471.000000 0 0 1
33.362544 25.101366 -14.922697 44.337622 0.645024 1.914068 -0.003614 -0.007908 -171120.000000 0 0 1
33.529524 25.917466 -13.792297 44.566483 0.658043 1.885439 -0.002765 -0.002885 89316.700000 0 0 1
33.687474 27.337566 -14.027497 45.595603 0.681717 1.883519 -0.010255 0.000933 390640.000000 0 0 1
-34.770988 27.805266 -14.688797 46.881928 -0.674539 1.889478 0.009678 -0.000944 421419.000000 0 0 1
-34.719634 27.517366 -16.073597 47.127687 -0.670187 1.918846 0.024778 -0.003773 225822.000000 0 0 1
-33.576848 28.184066 -16.593097 46.872989 -0.698302 1.932642 0.026448 -0.007987 -251135.000000 0 0 1
-33.376288 27.972266 -18.138097 47.174302 -0.697538 1.965453 0.020563 -0.009425 -312814.000000 0 0 1
-32.896278 26.725266 -18.631097 46.298193 -0.682262 1.984950 0.009943 -0.013387 -613292.000000 0 0 1
-31.591758 26.395966 -18.308297 45.055298 -0.696035 1.989254 0.016379 -0.010315 -894711.000000 0 0 1
-31.181398 25.024766 -18.869297 44.210506 -0.676297 2.011754 0.008929 -0.013508 -161084.000000 0 0 1
-31.005088 24.998966 -20.273897 44.691103 -0.678562 2.041648 -0.001318 -0.006249 89954.200000 0 0 1
-30.657748 23.706366 -20.663297 43.918801 -0.658221 2.060641 0.001762 -0.009703 -441884.000000 0 0 1
-30.335438 23.623866 -22.161397 44.378523 -0.661652 2.093670 -0.010592 0.001684 12555.200000 0 0 1
-31.407038 24.032566 -22.996497 45.747187 -0.653156 2.097500 -0.009018 0.001678 152942.000000 0 0 1
-31.262498 23.457366 -24.312197 46.029064 -0.643716 2.127267 -0.007700 0.001910 -25884.700000 0 0 1
-32.211948 24.176366 -25.322797 47.574681 -0.643847 2.132082 -0.016717 0.014755 -150977.000000 0 0 1
-31.793608 25.506266 -25.562927 48.113058 -0.676108 2.130942 -0.015798 0.016282 -245012.000000 0 0 1
-32.502288 26.175166 -26.578447 49.476781 -0.677984 2.137899 -0.013213 0.011046 -426366.000000 0 0 1
-31.990818 27.575466 -26.895737 50.071942 -0.711408 2.137841 -0.014511 0.019792 -1699020.000000 0 0 1
-30.710968 27.726966 -27.296527 49.568625 -0.734380 2.153977 -0.028210 0.016678 -1885580.000000 0 0 1
-30.386038 29.118466 -27.430787 50.235888 -0.764099 2.148426 -0.023836 0.007272 164732.000000 0 0 1
-28.962768 29.392766 -27.938657 49.833173 -0.792767 2.165959 -0.015906 0.013377 799478.000000 0 0 1
-27.869828 28.903466 -27.106307 48.444706 -0.803603 2.164616 -0.025550 0.021244 1979870.000000 0 0 1
-26.538418 29.158066 -27.635257 48.147563 -0.832398 2.182142 -0.009236 0.019381 1778160.000000 0 0 1
-25.895258 30.614766 -27.532997 48.640458 -0.868721 2.172504 -0.009840 0.012685 -438289.000000 0 0 1
-25.376658 31.025166 -26.305467 47.942812 -0.885213 2.151586 -0.020195 0.013604 -46008.000000 0 0 1
-26.301818 31.257366 -25.239117 48.018971 -0.871281 2.124225 -0.015249 0.020512 -175199.000000 0 0 1
-25.637768 31.877066 -24.017297 47.437043 -0.893457 2.101683 -0.034570 0.012599 -56839.000000 0 0 1
-25.315988 33.257366 -24.147597 48.270675 -0.920157 2.094688 -0.017583 0.007958 -568644.000000 0 0 1
-23.932848 33.489566 -24.155597 47.726566 -0.950315 2.101482 -0.017549 0.011232 -598804.000000 0 0 1
-23.651048 -34.488031 -24.207797 48.319911 0.969681 2.095539 -0.021549 0.021726 -85253.400000 0 0 1
-23.919348 -33.784531 -22.981497 47.346372 0.954723 2.077607 -0.023431 0.011258 213468.000000 0 0 1
-23.614148 -32.444631 -23.189397 46.346846 0.941636 2.094793 -0.008885 0.006992 -116706.000000 0 0 1
15.948952 8.104766 -25.513067 31.160437 0.470162 2.530052 0.030340 -0.014219 400962.000000 0 0 1
14.565452 7.811166 -25.334797 30.249275 0.492249 2.563551 0.021771 -0.012640 351522.000000 0 0 1
14.276852 6.442166 -25.538497 29.959052 0.423878 2.591444 0.030670 -0.012393 162216.000000 0 0 1
12.756252 6.203066 -25.409367 29.100445 0.452609 2.632446 -0.004769 -0.012658 -49029.100000 0 0 1
12.187152 6.279566 -24.116797 27.741296 0.475782 2.624675 0.001120 -0.026414 -332964.000000 0 0 1
11.006452 5.535266 -24.118497 27.082892 0.465974 2.669335 0.007057 -0.025855 -981549.000000 0 0 1
10.296752 5.778866 -22.819997 25.693786 0.511426 2.664105 0.026503 -0.033487 -987744.000000 0 0 1
10.852752 5.150466 -21.700397 24.803563 0.443103 2.636006 0.013539 -0.031800 -159763.000000 0 1 0
10.384752 5.535266 -20.438197 23.583938 0.489712 2.619174 0.020519 -0.025531 -637880.000000 0 1 0
11.066252 6.746766 -19.824597 23.685342 0.547500 2.562571 0.029842 -0.032772 -685402.000000 0 1 0
11.012652 6.937966 -18.457097 22.584913 0.562186 2.527387 0.038139 -0.025548 -235407.000000 0 1 0
11.334952 8.265366 -18.175297 22.959504 0.630051 2.484259 0.041568 -0.020282 -354287.000000 0 1 0
12.811652 8.498366 -17.868597 23.572174 0.585690 2.431095 0.046871 -0.018526 -604155.000000 0 1 0
13.293452 8.098466 -16.606597 22.761372 0.547162 2.388527 0.049134 -0.017688 -572338.000000 0 1 0
14.666152 8.273966 -16.535497 23.600364 0.513645 2.347099 0.030933 -0.012295 -1230300.000000 0 1 0
15.240552 7.851966 -15.196997 22.910183 0.475735 2.296055 0.039842 -0.015253 -142622.000000 0 1 0
16.669452 7.764166 -15.181997 23.846298 0.435892 2.260956 0.043818 -0.014830 921607.000000 0 1 0
17.115952 8.041566 -13.876697 23.456029 0.439221 2.203844 0.043490 -0.015810 -213014.000000 0 1 0
17.369552 9.513966 -13.609797 24.030053 0.501105 2.172886 0.038290 -0.021274 -304389.000000 0 1 0
16.164852 10.219466 -13.310197 23.300241 0.563762 2.178821 0.040573 -0.016464 882341.000000 0 1 0
16.367352 11.613766 -13.439497 24.153464 0.617119 2.160869 0.030293 -0.011443 -757057.000000 0 1 0
15.104452 12.355166 -13.079797 23.492034 0.685610 2.161296 0.029423 -0.012371 -869678.000000 0 1 0
14.710252 12.431366 -11.695197 22.532376 0.701632 2.116523 0.057158 -0.016179 340957.000000 0 1 0
15.431352 13.392666 -10.918497 23.166866 0.714787 2.061558 0.063532 -0.015384 -168860.000000 0 1 0
14.956852 14.820166 -11.164397 23.832509 0.780808 2.058335 0.050249 -0.016539 142300.000000 0 1 0
13.687052 15.153366 -10.644897 23.027673 0.836197 2.051345 0.058293 -0.026846 196998.000000 0 1 0
13.368152 16.544166 -10.903097 23.901766 0.891179 2.044475 0.031679 -0.019732 424989.000000 0 1 0
12.133052 17.057566 -10.122897 23.251764 0.952526 2.021235 0.020724 -0.020950 319888.000000 0 1 0
12.508452 17.152266 -8.781697 22.973458 0.940702 1.963031 0.026566 -0.009795 278514.000000 0 1 0
11.396952 17.657866 -8.088897 22.519347 0.997639 1.938204 0.024117 0.001561 -7405.840000 0 1 0
11.473252 17.125166 -6.637097 21.655435 0.980514 1.882296 0.011832 -0.007511 -102915.000000 0 1 0
12.433352 17.820166 -5.916597 22.520050 0.961607 1.836642 0.007488 -0.003627 -229811.000000 0 1 0
12.822152 17.148966 -4.771497 21.937679 0.928774 1.790051 0.001031 -0.017850 -147920.000000 0 1 0
13.807152 17.993766 -3.895297 23.012744 0.916296 1.740882 -0.007471 -0.016515 211458.000000 0 1 0
15.030652 18.182766 -4.580497 24.031529 0.880020 1.762573 -0.012021 -0.017279 92047.400000 0 1 0
15.646552 19.432766 -4.209897 25.301585 0.892915 1.737962 -0.004108 -0.012097 261214.000000 0 0 1
17.001152 19.652666 -4.953297 26.453763 0.857612 1.759152 -0.008526 -0.003981 550451.000000 0 0 1
18.120652 18.949166 -4.444697 26.592936 0.807745 1.738723 0.002636 -0.022526 247598.000000 0 0 1
18.317652 17.728866 -5.069697 25.991361 0.769066 1.767108 -0.008398 -0.021531 -65275.100000 0 0 1
19.645952 17.070666 -4.605697 26.430730 0.715373 1.745946 0.019862 -0.029590 297656.000000 0 0 1
20.890152 17.612566 -4.993997 27.776625 0.700477 1.751571 0.020740 -0.036453 329020.000000 0 0 1
21.898652 16.777966 -4.450897 27.943900 0.653766 1.730757 0.025816 -0.035455 -844370.000000 0 0 1
23.329352 17.119766 -4.788897 29.330506 0.633071 1.734804 0.049096 -0.035217 -759970.000000 0 0 1
23.796052 18.267366 -4.086297 30.276171 0.654710 1.706177 0.059685 -0.035961 203183.000000 0 0 1
25.202152 18.343166 -4.185797 31.450613 0.629168 1.704284 0.051942 -0.022462 -335623.000000 0 0 1
25.847252 19.571666 -3.603197 32.620753 0.648096 1.681479 0.059306 -0.018444 -472723.000000 0 0 1
25.938052 20.632266 -4.476697 33.444188 0.671957 1.705055 0.051223 -0.019128 142767.000000 0 0 1
26.056352 21.820466 -3.685497 34.185510 0.697153 1.678815 0.065558 0.004590 -179068.000000 0 0 1
25.752452 23.133266 -4.387097 34.893887 0.731872 1.696857 0.027743 0.009196 397200.000000 0 0 1
26.815352 23.534366 -5.267997 36.064959 0.720326 1.717390 0.016542 0.024847 606717.000000 0 0 1
27.044452 22.739566 -6.421797 35.912807 0.699141 1.750580 0.025601 0.016203 -131409.000000 0 0 1
28.101652 23.206966 -7.432497 37.195539 0.690289 1.771973 -0.000566 0.025686 -120566.000000 0 0 1
27.636252 24.248666 -8.295797 37.690588 0.720200 1.792716 -0.006692 0.020861 -16761.600000 0 0 1
28.640552 25.065766 -8.838497 39.072917 0.718934 1.798976 -0.022934 0.021491 -765483.000000 0 0 1
29.512252 24.479666 -10.011197 39.628917 0.692457 1.826187 -0.035330 0.010081 -165074.000000 0 0 1
28.863452 24.188266 -11.198497 39.288387 0.697500 1.859837 -0.028070 0.007452 -10551.000000 0 0 1
29.767352 23.598866 -12.151097 39.882964 0.670321 1.880387 -0.034185 0.002887 623000.000000 0 0 1
29.015152 23.023566 -13.401097 39.389758 0.670766 1.917945 -0.023958 0.003616 264975.000000 0 0 1
28.933252 23.958366 -14.477997 40.258524 0.691616 1.938663 -0.016856 0.001652 -5077.780000 0 0 1
28.631052 23.362066 -15.691897 40.146717 0.684403 1.972366 -0.004586 -0.002289 -239667.000000 0 0 1
28.773852 24.475166 -16.760397 41.326495 0.704845 1.988388 -0.002279 -0.000984 9296.130000 0 0 1
30.137952 24.770766 -17.011897 42.559272 0.687960 1.982010 -0.003264 0.004307 175685.000000 0 0 1
30.279752 25.376466 -18.275897 43.529723 0.697526 2.004075 0.005785 -0.003960 282471.000000 0 0 1
31.710852 25.857166 -18.620097 44.954189 0.684063 1.997862 0.007220 -0.009626 50291.100000 0 0 1
32.608952 24.892666 -19.074297 45.241765 0.652003 2.006014 0.008870 -0.015884 -877997.000000 0 0 1
33.924452 25.259466 -18.776397 46.275934 0.640023 1.988594 0.008872 -0.011331 -791011.000000 0 0 1
34.727152 23.947166 -18.723297 46.151963 0.603699 1.988528 0.004304 -0.018863 -493717.000000 0 0 1
34.791252 23.206866 -19.937997 46.330482 0.588255 2.015669 -0.002419 -0.009213 501053.000000 0 0 1
-34.243910 23.740866 -21.051197 46.684333 -0.606207 2.038599 -0.004313 -0.010079 -144138.000000 0 0 1
-34.303010 22.850966 -22.264797 46.846390 -0.587645 2.066070 -0.011073 -0.002076 -272555.000000 0 0 1
-33.864610 21.542766 -22.016697 45.778133 -0.566573 2.072527 -0.021324 0.000493 192511.000000 0 0 1
-33.833310 20.867266 -23.261197 46.056692 -0.552657 2.100243 -0.040345 0.004342 -6606.450000 0 0 1
-33.593510 19.318866 -23.166597 45.149016 -0.521892 2.109605 -0.052570 0.011733 -4656.150000 0 0 1
-34.706210 18.554466 -22.752897 45.458591 -0.490955 2.094995 -0.049460 0.015917 -180155.000000 0 0 1
-34.329110 17.202366 -22.832597 44.673668 -0.464528 2.107257 -0.058141 0.019796 -197250.000000 0 0 1
34.350252 16.194666 -22.560697 44.172299 0.440554 2.106845 -0.051778 0.019471 227277.000000 0 0 1
33.415252 16.111466 -23.652197 43.995281 0.449273 2.138394 -0.019815 0.019863 696169.000000 0 0 1
32.482952 15.038666 -23.598497 42.874149 0.433588 2.153655 -0.007985 0.021921 -154846.000000 0 0 1
32.986252 13.759666 -24.275397 43.205510 0.395189 2.167427 -0.038395 0.017493 -417336.000000 0 0 1
32.837752 13.692766 -25.675377 43.875218 0.395060 2.195912 -0.040733 0.027188 210111.000000 0 0 1
33.298552 12.447866 -26.199037 44.160304 0.357741 2.205913 -0.032223 0.023392 -546047.000000 0 0 1
33.152852 12.292166 -27.766637 44.957703 0.355059 2.236505 -0.013667 0.016957 -1428610.000000 0 0 1
31.833352 12.157166 -28.109277 44.173413 0.364806 2.260540 -0.017142 0.015043 -1161400.000000 0 0 1
31.313352 13.367066 -28.638637 44.490178 0.403463 2.270129 -0.008364 0.016617 -251042.000000 0 0 1
31.522852 13.692566 -30.124227 45.701702 0.409780 2.290483 -0.001326 0.003800 409136.000000 0 0 1
32.887752 14.032066 -30.412137 46.940400 0.403280 2.275605 -0.006635 0.009441 443765.000000 0 0 1
33.097952 14.003866 -31.778217 47.973302 0.400263 2.294834 -0.000047 -0.001636 -720904.000000 0 0 1
34.532752 14.457366 -32.090577 49.308534 0.396486 2.279450 0.012575 -0.006697 -24905.800000 0 0 1
-34.195310 13.624266 -31.740467 48.604496 -0.379148 2.282382 -0.002821 -0.002221 -38140.000000 0 0 1
-33.980010 13.319466 -30.356657 47.471843 -0.373573 2.264601 -0.011202 -0.000085 -650097.000000 0 0 1
-32.816410 12.308566 -30.057727 46.172335 -0.358835 2.279684 -0.011689 -0.004473 530758.000000 0 0 1
-33.261410 10.962766 -30.271797 46.291309 -0.318382 2.283579 -0.014368 -0.007011 376471.000000 0 0 1
-32.250810 10.005266 -30.036597 45.193110 -0.300818 2.297792 -0.006659 -0.014121 -88570.900000 0 0 1
-32.745510 8.575866 -30.326407 45.447825 -0.256142 2.301347 -0.002537 -0.015042 -525130.000000 0 0 1
-32.839710 8.455966 -31.702607 46.422033 -0.252018 2.322551 0.001687 -0.017345 -5981.170000 0 0 1
-33.072910 7.178866 -32.251657 46.749576 -0.213746 2.332121 0.004155 -0.018193 -1200220.000000 0 0 1
-34.359510 6.485166 -31.891557 47.325518 -0.186550 2.310239 0.010467 -0.004269 -1164790.000000 0 0 1
-34.412210 6.042766 -30.598307 46.443208 -0.173827 2.290062 0.007312 -0.009661 535053.000000 0 0 1
34.243852 5.197566 -30.540577 46.177732 0.150631 2.293440 0.004936 0.005582 87995.800000 0 0 1
34.246652 4.362366 -29.287687 45.272862 0.126698 2.274328 0.011586 -0.000620 69468.600000 0 0 1
-34.691510 3.238466 -29.355167 45.560008 -0.093081 2.270928 0.032844 0.007253 533969.000000 0 0 1
34.879752 2.425366 -28.197877 44.917700 0.069423 2.249478 0.037892 0.003318 -25074.200000 0 0 1
-34.048610 1.124666 -28.128757 44.179177 -0.033019 2.261004 0.059172 -0.001076 1930840.000000 0 0 1
-32.685110 1.374566 -27.655437 42.837239 -0.042030 2.272596 0.060411 -0.004962 1692920.000000 0 0 1
-31.851910 0.239566 -27.511997 42.089328 -0.007521 2.283203 0.063659 -0.001065 329318.000000 0 0 1
-30.706610 0.371566 -26.496347 40.559713 -0.012100 2.282689 0.058320 0.003060 151630.000000 0 0 1
-31.136710 0.241266 -25.117857 40.005745 -0.007748 2.249592 0.043124 0.009960 147377.000000 0 0 1
-30.062010 0.525266 -24.264397 38.636269 -0.017471 2.249804 0.047776 0.015921 -235376.000000 0 0 1
-30.392510 0.319566 -22.808297 38.000331 -0.010514 2.214564 0.026887 0.019712 -330004.000000 0 0 1
-30.493010 -1.012834 -22.410197 37.855864 0.033203 2.204319 0.041301 0.006094 314263.000000 0 0 1
-31.024610 -1.177134 -21.109797 37.543782 0.037924 2.167926 0.028978 0.010633 1043860.000000 0 0 1
-32.594810 -1.250534 -20.960497 38.772773 0.038347 2.141945 0.028719 0.008876 714090.000000 0 0 1
-33.234710 -2.473034 -21.297897 39.550755 0.074274 2.139447 0.042465 -0.005158 -315323.000000 0 0 1
-34.584910 -2.264534 -20.967297 40.507674 0.065384 2.114855 0.033146 -0.006929 -232876.000000 0 0 1
34.479452 -3.620434 -20.711797 40.384634 -0.104619 2.109313 0.036819 -0.003245 -467361.000000 0 0 1
34.066552 -4.321134 -21.861397 40.707774 -0.126170 2.137712 0.034816 -0.001209 -234151.000000 0 0 1
-34.816110 -5.024734 -22.635997 41.830585 0.143332 2.142583 0.026793 -0.004226 -678821.000000 0 0 1
34.308552 -5.988534 -23.656797 42.102058 -0.172808 2.167467 0.017611 -0.006511 -464912.000000 0 0 1
33.738652 -7.101534 -22.972397 41.430175 -0.207458 2.158540 0.015294 0.000519 606831.000000 0 0 1
32.888352 -7.937034 -23.765297 41.345248 -0.236805 2.183157 0.016530 0.004030 1095940.000000 0 0 1
31.508052 -7.347634 -24.250997 40.433351 -0.229104 2.214019 0.003577 -0.000592 -30331.600000 0 0 1
31.508652 -6.485834 -25.336177 40.948541 -0.203007 2.237924 0.004728 -0.000617 710465.000000 0 0 1
30.177852 -6.038134 -25.661567 40.070910 -0.197477 2.265820 -0.037054 0.004820 658011.000000 0 0 1
30.039552 -4.974334 -26.726227 40.514317 -0.164104 2.291181 -0.016475 -0.014564 -154333.000000 0 0 1
30.370552 -5.451034 -27.997177 41.664446 -0.177593 2.307659 -0.014494 -0.013024 384817.000000 0 0 1
30.099552 -4.394534 -28.906007 41.962509 -0.144976 2.330702 -0.006391 -0.015594 -233623.000000 0 0 1
29.859052 -4.719034 -30.353647 42.838956 -0.156747 2.358241 -0.004039 -0.007696 -228153.000000 0 0 1
29.439652 -3.540334 -30.992297 42.892301 -0.119683 2.378296 0.000181 -0.018517 -122409.000000 0 0 1
28.773952 -3.822134 -32.172077 43.331184 -0.132060 2.407545 0.016528 -0.022583 -893605.000000 0 0 1
28.395152 -2.525734 -32.921017 43.548333 -0.088716 2.427923 0.025479 -0.017320 -1204230.000000 0 0 1
27.419752 -1.652134 -32.371377 42.455605 -0.060181 2.437928 0.013914 -0.013029 476633.000000 0 0 1
26.080752 -2.122434 -32.294677 41.565087 -0.081200 2.460629 0.017789 -0.016809 -18209.400000 0 0 1
25.426252 -2.394734 -33.636807 42.233444 -0.093907 2.492197 0.028568 -0.021987 -1585760.000000 0 0 1
25.885252 -3.575934 -34.232343 43.066075 -0.137277 2.489605 0.034263 -0.028335 -53498.600000 0 0 1
25.148552 -3.826434 33.854604 42.346493 -0.150995 0.644390 0.035142 -0.019703 -1025150.000000 0 0 1
25.697852 -5.025934 33.059319 42.172955 -0.193140 0.669876 0.021158 -0.018005 365384.000000 0 0 1
27.018552 -4.816034 32.544189 42.571358 -0.176397 0.700590 0.022369 -0.013177 503852.000000 0 0 1
27.160852 -3.814734 31.540609 41.798015 -0.139537 0.715758 0.030197 -0.015992 -1024610.000000 0 0 1
27.707252 -2.452034 31.943639 42.356822 -0.088268 0.716429 0.020389 -0.019038 -338181.000000 0 0 1
29.044752 -2.572334 32.385469 43.577897 -0.088334 0.733012 0.007073 -0.016613 69728.100000 0 0 1
29.682852 -1.304734 32.529129 44.055854 -0.043928 0.740159 0.012811 -0.012440 1232810.000000 0 0 1
31.143252 -1.378934 33.155719 45.509398 -0.044248 0.754598 0.011350 -0.013815 1456280.000000 0 0 1
32.114952 -1.715534 32.179949 45.495739 -0.053368 0.785100 0.016364 -0.013235 -132985.000000 0 0 1
33.412552 -1.889534 32.698609 46.788545 -0.056491 0.796995 0.013137 -0.009478 79933.900000 0 0 1
34.373952 -2.594534 31.729299 46.851345 -0.075337 0.826800 -0.002373 -0.004632 -363039.000000 0 0 1
34.785652 -1.850234 30.630449 46.386305 -0.053140 0.849533 -0.002611 0.001098 -72954.000000 0 0 1
-34.053010 -2.513534 29.846319 45.351164 0.073679 0.852483 -0.003389 -0.002812 -174656.000000 0 0 1
-33.840710 -1.577734 28.619589 44.348210 0.046589 0.869331 0.000264 -0.005734 420165.000000 0 0 1
34.852052 -1.409834 27.709749 44.547540 -0.040430 0.899468 0.007658 -0.005283 885003.000000 0 0 1
-34.384110 -1.209834 26.391009 43.361458 0.035171 0.916466 -0.004181 -0.003145 -250436.000000 0 0 1
-25.598318 15.428666 12.453303 32.379042 -0.542418 1.176011 0.029343 0.006671 1013970.000000 0 0 1
-26.712248 14.774366 13.140703 33.234081 -0.505215 1.164295 0.009487 0.005705 1302890.000000 0 0 1
-27.576108 15.641866 13.848503 34.596109 -0.515972 1.158962 0.011862 0.005041 860353.000000 0 0 1
-28.911978 14.899566 14.297103 35.528956 -0.475846 1.156652 0.017460 0.006383 1167940.000000 0 0 1
-29.771598 15.789866 15.019403 36.895127 -0.487645 1.151537 0.018938 -0.008392 -126848.000000 0 0 1
-30.990148 15.138466 15.309903 37.735336 -0.454400 1.153032 0.016974 0.003510 20219.600000 0 0 1
-31.912108 15.966066 16.206903 39.191346 -0.463899 1.144466 0.020329 -0.002328 -127701.000000 0 0 1
-31.336608 16.095066 17.484003 39.328419 -0.474483 1.110109 0.013824 0.006551 -99164.500000 0 0 1
-32.211518 16.725566 18.419303 40.701317 -0.478922 1.101176 0.007220 0.008353 -80715.700000 0 0 1
-31.721948 16.901366 19.848803 41.059873 -0.489540 1.066249 0.002487 0.012678 -336133.000000 0 0 1
-31.239458 15.776366 20.529403 40.574054 -0.467651 1.040286 0.006807 0.010167 -64088.200000 0 0 1
-29.973518 16.044566 21.112303 40.019610 -0.491481 1.015084 0.006338 0.005133 255842.000000 0 0 1
-30.001118 16.674166 22.566903 41.077488 -0.507274 0.989181 0.011295 0.002054 -146816.000000 0 0 1
-30.545638 18.039266 22.634503 42.080540 -0.533455 1.002870 -0.006104 0.008972 189978.000000 0 0 1
-30.891948 18.542266 23.942103 43.259131 -0.540588 0.984286 -0.003373 0.006322 333485.000000 0 0 1
-31.975188 17.765266 24.819903 44.204580 -0.507129 0.974625 -0.028406 0.006607 1246260.000000 0 0 1
-33.270428 17.545766 24.256703 44.756708 -0.485302 0.998019 -0.009506 0.007696 672173.000000 0 0 1
-34.177512 18.651466 24.268403 45.879570 -0.499554 1.013423 -0.018417 0.009726 -482368.000000 0 0 1
34.218353 18.054766 24.233503 45.652304 0.485510 1.011220 -0.026173 0.001080 -596472.000000 0 0 1
33.991099 17.212966 25.384203 45.782516 0.468752 0.983092 -0.020651 0.010143 728845.000000 0 0 1
33.061584 16.160166 24.912703 44.439420 0.454639 0.975687 -0.010481 0.012179 867076.000000 0 0 1
32.685994 15.363866 26.171503 44.602356 0.439397 0.943727 0.006787 0.003228 -950610.000000 0 0 1
32.054994 16.222166 27.061203 44.977661 0.468494 0.925220 -0.004397 0.002491 43610.100000 0 0 1
31.679694 15.665866 28.355503 45.310671 0.459244 0.894637 -0.015111 0.009667 -220187.000000 0 0 1
30.651094 14.527066 28.323103 44.189630 0.442591 0.875068 -0.013181 0.017324 -277573.000000 0 0 1
31.169524 13.349866 27.730603 43.803476 0.404661 0.885285 -0.014824 0.012635 531353.000000 0 0 1
30.113904 12.409166 27.915503 42.896502 0.390872 0.862206 -0.015599 0.015682 438508.000000 0 0 1
30.391624 11.022566 27.348503 42.344874 0.347930 0.868658 0.010333 0.016056 180594.000000 0 0 1
31.427474 10.377766 28.084903 43.406750 0.318940 0.867131 0.016877 0.011894 406527.000000 0 0 1
31.772354 9.092666 27.519203 43.005413 0.278732 0.876427 0.003181 0.013998 -127647.000000 0 0 1
32.720064 8.198466 28.351703 44.064004 0.245509 0.871838 0.011977 0.014720 333643.000000 0 0 1
33.986094 8.807066 28.556303 45.255734 0.253560 0.887957 0.014681 0.012778 771685.000000 0 0 1
-34.881608 7.863066 29.138803 46.126177 -0.221716 0.887027 0.006250 0.017446 1645710.000000 0 0 1
-33.422488 8.382366 29.450303 45.328216 -0.245732 0.863590 0.009651 0.015090 1162620.000000 0 0 1
-32.673688 8.751166 28.307103 44.107198 -0.261693 0.873980 0.002598 0.021056 121004.000000 0 0 1
-31.433298 9.318066 28.670303 43.553012 -0.288187 0.852258 0.009058 0.017889 59245.400000 0 0 1
-30.703048 10.071766 27.522103 42.445068 -0.316977 0.865293 0.007205 0.012697 -280870.000000 0 0 1
-30.191618 9.303166 26.527403 41.252707 -0.298905 0.872327 0.007254 0.008256 -30589.000000 0 0 1
-29.499358 10.055666 25.574903 40.316302 -0.328525 0.883621 -0.000588 0.007013 -474961.000000 0 0 1
-28.772468 9.149466 24.599103 38.944621 -0.307882 0.887125 0.000352 0.004786 -300393.000000 0 0 1
-27.992688 9.796866 23.651303 37.933538 -0.336657 0.897594 -0.014174 0.000010 -292131.000000 0 0 1
-27.158698 8.915366 22.960803 36.664385 -0.317186 0.894072 -0.020561 0.009079 197664.000000 0 0 1
-26.161248 9.585166 21.929303 35.456743 -0.351199 0.903989 -0.027968 0.015352 232629.000000 0 0 1
-24.910948 9.874266 22.616403 35.065056 -0.377384 0.869794 -0.014956 -0.003301 1049990.000000 0 0 1
-23.933248 10.468166 21.781603 34.012073 -0.412318 0.875767 -0.014329 0.001916 188870.000000 0 0 1
-23.357348 9.680766 20.594803 32.610257 -0.392912 0.887254 -0.014313 0.007056 -1161360.000000 0 0 1
-24.218748 9.573266 19.483203 32.523690 -0.376434 0.928487 -0.019219 0.010034 130378.000000 0 0 1
-23.826548 8.595066 18.487003 31.358393 -0.346206 0.940308 -0.019441 0.011443 -223726.000000 0 0 1
-23.801948 7.125366 18.934703 31.238223 -0.290870 0.919599 -0.024223 0.023876 -637794.000000 0 0 1
-22.577348 6.817666 19.555503 30.637149 -0.293262 0.878517 -0.003334 0.019510 364866.000000 0 0 1
-22.571648 5.511266 20.187103 30.779417 -0.239482 0.855470 0.002511 0.020833 -223480.000000 0 0 1
-22.418548 4.272766 19.199503 29.823963 -0.188332 0.871393 -0.003349 0.019279 -1302500.000000 0 0 1
-23.596248 4.065066 18.506003 30.261855 -0.170601 0.912805 0.002248 0.017340 -159834.000000 0 0 1
-23.503948 3.097766 17.448103 29.435829 -0.131042 0.936327 -0.000011 0.015405 -160784.000000 0 0 1
-23.541848 1.653566 17.876103 29.605877 -0.070124 0.922534 0.002057 0.017089 -589918.000000 0 0 1
-22.278348 1.234966 18.289003 28.850261 -0.055377 0.884174 -0.019204 0.020677 -71026.900000 0 0 1
-22.307848 -0.135534 18.620803 29.058437 0.006076 0.875249 -0.007254 0.010530 -553962.000000 0 0 1
-20.963748 -0.784234 18.972903 28.285417 0.037392 0.835555 0.009628 0.019625 -454136.000000 0 0 1
-20.452148 -0.409934 20.227803 28.768428 0.020041 0.791013 -0.005570 0.021681 -361303.000000 0 0 1
-19.438648 -1.311334 20.560103 28.324874 0.067358 0.758502 -0.013435 0.019925 -418659.000000 0 0 1
-18.423848 -0.835634 21.601603 28.403622 0.045325 0.706678 -0.016163 0.020671 168185.000000 0 0 1
-18.958548 -0.875434 22.898003 29.740738 0.046143 0.692080 -0.019402 0.018147 -321540.000000 0 0 1
-17.944648 -0.585434 23.819903 29.828525 0.032613 0.645895 -0.005988 0.013832 -373234.000000 0 0 1
-18.312348 -0.781734 25.305103 31.245823 0.042663 0.626863 0.002578 0.018039 -71517.700000 0 0 1
-18.899048 0.242366 26.032303 32.170073 -0.012824 0.627992 -0.010656 0.008663 -1011520.000000 0 0 1
-20.287448 0.190766 25.984203 32.966586 -0.009403 0.662921 0.012622 -0.000600 -1012290.000000 0 0 1
-20.966548 1.463666 26.513903 33.833793 -0.069696 0.670274 0.004973 -0.006828 -350553.000000 0 0 1
-20.828648 2.594366 25.680503 33.167025 -0.123919 0.685223 0.001204 0.002606 -758822.000000 0 0 1
-22.029248 2.921166 25.097003 33.521345 -0.131835 0.724717 0.001421 0.005749 -1119150.000000 0 0 1
-21.838248 4.013566 23.940703 32.652336 -0.181758 0.747780 0.006882 0.012673 195728.000000 0 0 1
-21.210048 3.648466 22.696503 31.277927 -0.170349 0.758833 0.003119 0.015144 194187.000000 0 0 1
-19.838748 3.366566 22.686403 30.324620 -0.168095 0.725575 -0.009636 0.019729 -465515.000000 0 0 1
-19.268448 2.775366 21.362303 28.901968 -0.143053 0.739019 -0.014209 0.018337 -98506.100000 0 0 1
-19.082448 3.621866 20.240003 28.052014 -0.187570 0.764806 -0.001559 0.018785 207878.000000 0 0 1
-18.967748 2.820966 19.045703 27.027248 -0.147642 0.788817 0.009610 0.013675 -294419.000000 0 0 1
-18.507348 3.534766 17.756303 25.890207 -0.188720 0.815052 0.014834 0.008189 511672.000000 0 0 1
-17.139948 3.940166 17.913003 25.103355 -0.225956 0.776215 0.012570 -0.001021 421053.000000 0 0 1
-16.741148 4.659466 16.790303 24.163835 -0.271454 0.802581 0.017513 0.000538 -1061950.000000 0 1 0
-15.265648 4.967066 16.700503 23.165029 -0.314571 0.765644 0.027376 -0.002189 -809956.000000 0 1 0
-14.743948 6.026866 17.579803 23.722491 -0.388043 0.736148 0.017446 -0.004384 -131865.000000 0 1 0
-15.228248 7.293466 17.558703 24.359849 -0.446661 0.765833 0.012714 -0.020503 -908297.000000 0 1 0
-14.684848 8.269266 16.455603 23.554456 -0.512857 0.797330 -0.002611 -0.010857 -73176.800000 0 1 0
-15.094148 7.998866 15.130503 22.819888 -0.487305 0.845924 -0.005065 -0.008735 1061210.000000 0 1 0
-16.503048 8.190066 14.881003 23.682737 -0.460664 0.891368 0.011338 -0.011752 858863.000000 0 1 0
-16.944348 7.573266 13.560503 22.985920 -0.420314 0.939802 0.004026 -0.012106 -262339.000000 0 1 0
-16.831048 6.179866 13.727503 22.581392 -0.351889 0.917368 0.011241 -0.011991 581407.000000 0 1 0
-17.438848 5.507666 12.565903 22.188955 -0.305913 0.968770 0.013821 -0.012749 431826.000000 0 1 0
-17.185748 4.008466 12.566903 21.664367 -0.229147 0.951979 0.008641 -0.007724 -118519.000000 0 1 0
-18.030448 3.419866 13.489303 22.776168 -0.187445 0.936942 0.008754 -0.005963 38238.000000 0 1 0
-17.677248 2.014266 13.558103 22.368829 -0.113457 0.919628 0.011499 -0.010146 361897.000000 0 1 0
-18.496048 1.141766 14.617103 23.602270 -0.061652 0.902934 0.019621 -0.003963 589211.000000 0 1 0
-19.856048 1.132166 14.222903 24.450673 -0.056957 0.949982 0.028328 0.002422 275177.000000 0 1 0
-20.741748 0.630566 15.218803 25.733824 -0.030391 0.938011 0.012412 0.005408 -632586.000000 0 0 1
-22.095748 0.277966 14.654403 26.515107 -0.012579 0.985218 0.016508 0.005573 -875473.000000 0 0 1
-22.057148 -0.827334 13.760703 26.010752 0.037491 1.013329 0.026150 -0.004189 259225.000000 0 0 1
-23.357948 -1.330734 13.593303 27.058132 0.056910 1.044454 0.032724 -0.006975 -58648.800000 0 0 1
-23.267248 -2.380934 12.496203 26.517707 0.101975 1.080100 0.027876 -0.010228 93575.500000 0 0 1
-22.664948 -3.625834 12.900503 26.330012 0.158631 1.058759 0.032166 -0.009018 389804.000000 0 0 1
-22.764248 -4.649034 11.940703 26.122881 0.201455 1.096067 0.037198 -0.003464 -212430.000000 0 0 1
-22.348448 -5.945734 12.606003 26.338493 0.260024 1.071719 0.031579 -0.003703 326490.000000 0 0 1
-23.296748 -6.459934 13.552903 27.715527 0.270493 1.059853 0.029412 -0.004128 562656.000000 0 0 1
-23.182548 -7.858334 13.751803 28.076610 0.326821 1.058941 0.027577 -0.006585 -1106.800000 0 0 1
-24.224848 -8.264634 14.804503 29.568916 0.328781 1.046415 0.022607 0.007494 1633730.000000 0 0 1
-25.642098 -8.117334 14.501403 30.556489 0.306582 1.076313 0.030316 -0.003343 1601220.000000 0 0 1
-26.450288 -8.534034 15.576803 31.860387 0.312100 1.059959 0.022774 0.008365 842125.000000 0 0 1
-27.959938 -8.070534 15.653403 33.044223 0.281008 1.077297 0.017035 -0.000985 1824990.000000 0 0 1
-28.990568 -8.656634 14.810303 33.685834 0.290174 1.115577 0.017756 0.002677 1079340.000000 0 0 1
-29.182308 -10.079634 14.786303 34.232162 0.332573 1.124152 0.019811 0.003127 -627840.000000 0 0 1
-29.635728 -10.770534 16.091403 35.400763 0.348589 1.098930 0.016052 0.009688 -262300.000000 0 0 1
-28.662198 -10.588934 17.105103 35.017591 0.353886 1.060459 0.020041 0.013651 187796.000000 0 0 1
-29.031428 -11.104434 18.362603 36.101489 0.365327 1.037194 0.019467 0.019260 143521.000000 0 0 1
-27.807838 -11.132534 19.330603 35.649424 0.380798 0.997694 0.013369 0.025708 621568.000000 0 0 1
-26.899828 -12.156434 18.954903 35.080878 0.424445 0.999979 0.013815 0.023761 520323.000000 0 0 1
-25.753138 -12.263134 19.819103 34.733348 0.444411 0.963551 -0.002030 0.022613 1084750.000000 0 0 1
-24.584748 -13.118234 19.249503 33.867998 0.490159 0.966275 0.007675 0.022768 35519.600000 0 0 1
-23.946848 -12.672834 18.105703 32.586328 0.486739 0.981685 0.006022 0.023991 62064.300000 0 0 1
-22.884748 -13.573334 17.788803 32.006072 0.535343 0.981478 0.010752 0.006604 -2413.060000 0 0 1
-22.626048 -13.617134 16.295703 31.030861 0.541767 1.017911 0.019261 -0.000268 -458423.000000 0 0 1
-22.013648 -12.416134 15.903803 29.861213 0.513543 1.009138 0.023198 -0.005039 -164623.000000 0 0 1
-21.866348 -12.352134 14.497503 28.998104 0.514205 1.047259 0.020392 0.000478 327976.000000 0 0 1
-20.579748 -11.638934 13.996103 27.475111 0.514705 1.036297 0.023360 -0.003240 89554.900000 0 0 1
-20.672748 -10.237934 14.188203 27.082890 0.459831 1.019396 0.021810 0.000570 93759.800000 0 0 1
-19.428348 -9.592434 14.039103 25.818054 0.458622 0.995873 0.022338 0.005635 -127025.000000 0 0 1
-18.869948 -9.252434 12.594403 24.501051 0.455879 1.030914 0.014383 0.014441 -496282.000000 0 1 0
-18.254448 -10.387234 12.136703 24.257351 0.517332 1.046815 0.003392 0.000125 -21322.300000 0 1 0
-17.980748 -10.324334 10.742103 23.351488 0.521224 1.092781 0.005917 0.005664 -560575.000000 0 1 0
-17.302348 -11.553134 10.129203 23.139726 0.588732 1.117712 -0.005346 -0.003081 1273580.000000 0 1 0
-15.872548 -11.741434 10.100103 22.176816 0.636897 1.097935 -0.000463 -0.007960 1230450.000000 0 1 0
-15.192148 -11.785134 11.312703 22.308474 0.659771 1.038976 0.005121 -0.012256 -372835.000000 0 1 0
-13.691448 -12.161534 11.238903 21.486545 0.726290 1.020351 0.009360 -0.010050 208910.000000 0 1 0
-13.432748 -13.505234 10.878403 21.935582 0.788089 1.051897 0.007660 -0.013275 -477526.000000 0 1 0
-12.078848 -13.824734 10.813603 21.306240 0.852696 1.038478 0.006699 -0.011555 -492569.000000 0 1 0
-11.792948 -15.331434 10.617003 22.064616 0.915120 1.068799 0.010720 -0.010272 -62290.700000 0 1 0
-12.292348 -15.902034 9.434403 22.203254 0.912734 1.131933 0.009499 -0.010275 46726.000000 0 1 0
-12.177348 -17.304434 9.413703 23.159211 0.957583 1.152201 0.002277 -0.002517 -51092.700000 0 1 0
-12.635748 -18.086534 8.166103 23.525945 0.960992 1.216308 -0.003553 -0.002299 -288719.000000 0 1 0
-11.788948 -17.881534 7.043903 22.546511 0.987925 1.253060 0.002145 -0.010464 151782.000000 0 1 0
-12.109448 -18.757534 6.021803 23.124575 0.997536 1.307353 -0.003822 0.000570 -253394.000000 0 1 0
-11.208248 -18.549534 4.820603 22.202438 1.027270 1.351933 0.002232 0.003274 -161271.000000 0 1 0
-11.529948 -19.492134 3.720903 22.950558 1.036637 1.407951 0.002350 0.007289 292577.000000 0 1 0
-10.724648 -19.255634 2.588003 22.192235 1.062624 1.453913 0.006429 -0.007914 -222769.000000 0 1 0
-11.022348 -20.176834 1.481703 23.038929 1.070808 1.506439 0.006745 0.002759 -145867.000000 0 1 0
-10.709748 -21.552634 1.784403 24.132941 1.109623 1.496788 -0.007706 0.003277 159412.000000 0 1 0
-11.213048 -22.491334 0.713803 25.141641 1.108310 1.542401 -0.006410 0.007561 455814.000000 0 0 1
-10.387448 -22.613934 -0.635097 24.893623 1.140204 1.596312 0.009405 0.011923 204076.000000 0 1 0
-10.403248 -21.407434 -1.416997 23.843525 1.118440 1.630260 0.009917 -0.002690 421465.000000 0 1 0
-11.432448 -21.424534 -2.426297 24.404886 1.080620 1.670379 0.022572 0.006730 1015630.000000 0 1 0
-12.683848 -20.572034 -2.020997 24.252279 1.018291 1.654225 0.030463 0.006997 471239.000000 0 1 0
-13.457948 -21.035534 -0.917697 24.989043 1.001645 1.607529 0.021205 0.017319 -40334.000000 0 1 0
-14.337748 -20.049934 -0.472297 24.653478 0.950007 1.589955 0.015452 0.025806 -421644.000000 0 1 0
25.787652 -20.825234 -4.612497 33.465931 -0.679337 1.709063 -0.013691 -0.007955 -1386140.000000 0 0 1
24.691852 -20.697734 -3.815297 32.444418 -0.697628 1.688664 0.006309 -0.011804 -848296.000000 0 0 1
24.826452 -21.718234 -2.833997 33.106887 -0.718718 1.656503 -0.006487 -0.011655 -266527.000000 0 0 1
23.488552 -22.021334 -2.156397 32.269200 -0.753170 1.637671 -0.005565 -0.012213 -255752.000000 0 0 1
22.566052 -22.689934 -2.974797 32.138905 -0.788136 1.663490 0.005991 -0.019604 43435.400000 0 0 1
21.427452 -23.145534 -2.240697 31.620756 -0.823924 1.641717 0.035385 -0.018624 104734.000000 0 0 1
20.352552 -23.655734 -3.195997 31.369325 -0.860316 1.672856 0.028835 -0.016890 -260661.000000 0 0 1
19.629952 -22.640134 -3.853397 30.211908 -0.856491 1.698690 0.023640 -0.024525 183328.000000 0 0 1
18.578552 -23.221034 -4.644997 30.099087 -0.896010 1.725739 0.018607 -0.014331 432100.000000 0 0 1
17.517452 -22.293534 -5.248997 28.834264 -0.904796 1.753857 0.002776 -0.003758 -1197090.000000 0 0 1
16.593552 -21.753134 -4.422197 27.714629 -0.919146 1.731043 0.002294 0.004529 -806772.000000 0 0 1
17.041552 -20.860734 -3.406497 27.151224 -0.885823 1.696592 0.001517 -0.006327 -602153.000000 0 0 1
15.888152 -20.262834 -2.580697 25.878095 -0.905824 1.670688 0.010281 0.000396 -211355.000000 0 0 1
15.214652 -21.180034 -1.774397 26.138630 -0.947862 1.638733 0.004130 0.002281 -71920.300000 0 0 1
14.502152 -20.586834 -0.707297 25.191872 -0.957098 1.598876 0.005288 0.012814 -134840.000000 0 0 1
14.262452 -21.504234 0.552403 25.809974 -0.985170 1.549392 0.015957 0.017140 560355.000000 0 0 1
13.372952 -22.622034 0.377103 26.281828 -1.036912 1.556447 0.012830 0.014734 26294.800000 0 0 1
12.765952 -22.959034 1.601103 26.318251 -1.063334 1.509923 0.023891 0.012130 178856.000000 0 0 1
11.882052 -24.235734 1.549603 27.036184 -1.114963 1.513449 0.022289 0.012490 12901.800000 0 0 1
12.589752 -25.421944 1.703903 28.419718 -1.110971 1.510805 0.027467 0.007940 -95020.900000 0 0 1
11.796052 -26.580384 1.438603 29.115859 -1.153120 1.521367 0.028031 0.001676 173904.000000 0 0 1
12.160052 -27.829184 2.315803 30.458058 -1.158845 1.494690 0.034839 -0.001825 226116.000000 0 0 1
11.567552 -27.865014 3.611303 30.385997 -1.177317 1.451667 0.057669 -0.004715 639.008000 0 0 1
11.926852 -29.076264 4.165003 31.702148 -1.181535 1.439036 0.057264 -0.010455 -31314.200000 0 0 1
11.460852 -29.230124 5.614403 31.894715 -1.197127 1.393845 0.061320 -0.011774 85488.100000 0 0 1
12.050352 -30.372904 6.186303 33.256498 -1.193098 1.383689 0.045306 -0.012600 -267078.000000 0 0 1
11.812552 -30.483064 7.557203 33.553911 -1.201102 1.343622 0.043589 -0.016152 201016.000000 0 0 1
12.451852 -31.759774 8.144603 35.072303 -1.197150 1.336434 0.032414 -0.011041 -10313.500000 0 0 1
12.148952 -32.035444 9.498903 35.554126 -1.208318 1.300344 0.031984 -0.011465 273921.000000 0 0 1
10.932152 -32.813454 9.645303 35.906359 -1.249201 1.298832 0.013651 -0.004739 1020700.000000 0 0 1
10.612552 -33.074974 11.130303 36.475524 -1.260310 1.260706 0.006236 0.002172 -478019.000000 0 0 1
11.679152 -33.790114 11.690703 37.614452 -1.238013 1.254758 0.003898 -0.001374 -185766.000000 0 0 1
11.675852 -34.093416 13.049403 38.327190 -1.240849 1.223376 0.005386 0.004645 671626.000000 0 0 1
10.583652 34.302085 13.439303 38.330948 1.271521 1.212571 0.003922 0.003364 861471.000000 0 0 1
10.877652 33.035302 12.820803 37.067877 1.252704 1.217627 0.005706 0.001434 299278.000000 0 0 1
9.856752 32.097062 13.135203 36.054272 1.272846 1.197896 0.010365 0.008567 171218.000000 0 0 1
9.886352 30.906952 12.168703 34.656269 1.261207 1.212023 0.010129 0.003739 -223954.000000 0 0 1
9.564052 31.148132 10.839403 34.339043 1.272884 1.249646 0.006119 0.009876 448575.000000 0 0 1
10.517452 31.973952 10.125603 35.149370 1.253007 1.278582 -0.004799 0.004124 208844.000000 0 0 1
10.064452 32.346372 8.776103 34.994299 1.269145 1.317304 -0.005672 0.008729 182753.000000 0 0 1
8.899352 33.173072 8.825703 35.461870 1.308697 1.319274 -0.001604 0.008082 138880.000000 0 0 1
8.226852 33.164622 7.574103 34.999147 1.327643 1.352662 -0.008615 0.011533 -26489.400000 0 0 1
8.538352 34.295138 6.535403 35.941222 1.326790 1.387943 0.001886 0.008726 -242523.000000 0 0 1
8.099152 -33.956434 7.014503 35.606726 -1.336655 1.372500 0.002654 0.007476 -262042.000000 0 0 1
8.719852 -32.853664 6.421203 34.592354 -1.311363 1.384089 0.014259 -0.004024 -199773.000000 0 0 1
7.931852 -31.520014 6.510003 33.148239 -1.324270 1.373121 0.018512 -0.004792 105301.000000 0 0 1
7.767452 -31.037504 7.819603 32.936396 -1.325573 1.331092 0.030017 -0.003144 319687.000000 0 0 1
6.961952 -29.833064 7.861703 31.627312 -1.341536 1.319589 0.032365 -0.006817 473587.000000 0 0 1
7.737252 -28.526094 7.540603 30.503505 -1.305935 1.321002 0.061218 -0.011164 20170.100000 0 0 1
8.597452 -28.038724 8.569103 30.553490 -1.273270 1.286521 0.059171 -0.013629 436922.000000 0 0 1
9.385552 -26.896024 8.116703 29.620358 -1.235051 1.293221 0.074730 -0.016002 180622.000000 0 0 1
8.679452 -25.672244 7.531403 28.126839 -1.244774 1.299723 0.049364 -0.009880 -556122.000000 0 0 1
8.415652 -26.009284 6.138203 28.017559 -1.257864 1.349921 0.047544 -0.007302 -550195.000000 0 0 1
7.599852 -25.038834 5.562203 26.751431 -1.276111 1.361347 0.052549 -0.000157 71639.100000 0 0 1
7.495252 -25.397294 4.048503 26.787903 -1.283823 1.419083 0.061319 -0.005701 235995.000000 0 0 1
6.618852 -26.491824 3.806303 27.570163 -1.325963 1.432295 0.027461 -0.009194 -421770.000000 0 0 1
7.186352 -27.772154 3.902503 28.951092 -1.317589 1.435588 0.029437 -0.010000 -332599.000000 0 0 1
6.199452 -28.883144 3.610803 29.760832 -1.359365 1.449169 0.020598 -0.009220 -26388.300000 0 0 1
5.151452 -29.092624 4.552103 29.893810 -1.395542 1.417926 0.002060 -0.007731 279628.000000 0 0 1
4.124852 -29.992374 4.137403 30.556097 -1.434124 1.434976 0.004822 -0.000126 -66416.100000 0 0 1
4.475652 -31.489604 4.202303 32.082487 -1.429611 1.439435 0.001928 0.003888 141645.000000 0 0 1
5.555452 -32.042754 3.425503 32.700692 -1.399127 1.465851 0.002559 0.006501 491537.000000 0 0 1
5.602352 -33.430494 3.628703 34.090348 -1.404757 1.464151 -0.004744 0.012302 2106.380000 0 0 1
6.743952 -34.129120 2.864703 34.906794 -1.375708 1.488637 -0.005803 0.007610 -84495.400000 0 0 1
6.517652 -34.149591 1.466903 34.796928 -1.382208 1.528628 -0.001584 0.003693 -119897.000000 0 0 1
7.453652 34.508535 0.815703 35.313755 1.358070 1.547696 -0.000030 0.002076 -488909.000000 0 0 1
6.939652 33.774779 -0.438497 34.483137 1.368148 1.583513 0.014458 0.003189 485984.000000 0 0 1
5.914352 32.800752 -0.268997 33.330785 1.392402 1.578867 -0.008206 0.006466 630626.000000 0 0 1
4.599752 33.369162 -0.151797 33.685037 1.433815 1.575303 -0.009595 0.001903 188099.000000 0 0 1
3.514852 32.300072 0.041603 32.490776 1.462404 1.569516 -0.006483 -0.000569 -191946.000000 0 0 1
3.385252 31.402342 -1.061097 31.602103 1.463409 1.604379 -0.003853 0.001709 -386652.000000 0 0 1
2.529252 30.350752 -0.734797 30.464819 1.487654 1.594918 -0.009161 -0.007876 -408660.000000 0 0 1
2.390052 29.281662 -1.854897 29.437539 1.489354 1.633849 -0.000868 -0.003754 -40286.200000 0 0 1
1.773452 29.796122 -2.998697 29.999103 1.511347 1.670923 0.005887 -0.013836 -174354.000000 0 0 1
2.035452 28.990142 -4.126297 29.352985 1.500699 1.711839 0.005416 -0.027805 -85776.300000 0 0 1
1.725752 29.706832 -5.404897 30.243792 1.512769 1.750472 0.011051 -0.033110 173997.000000 0 0 1
0.381652 29.859832 -5.835497 30.427097 1.558016 1.763778 0.016181 -0.023549 41399.900000 0 0 1
0.249552 30.946912 -6.727397 31.670672 1.562733 1.784844 0.009968 -0.020111 -22016.100000 0 0 1
-0.204748 30.485242 -8.126597 31.550491 -1.564080 1.831307 0.012821 -0.022944 -274123.000000 0 0 1
-1.548948 30.049972 -8.192797 31.185284 -1.519296 1.836630 -0.002415 -0.019697 -55115.200000 0 0 1
-1.835648 29.490332 -9.487197 31.033146 -1.508631 1.881482 0.003434 -0.019837 76941.300000 0 0 1
-1.943648 30.396672 -10.728397 32.292939 -1.506940 1.909454 -0.003021 -0.024425 -717509.000000 0 0 1
-0.716348 30.781992 -11.290097 32.794976 -1.547529 1.922250 0.007322 -0.021614 -411045.000000 0 0 1
-0.588648 32.108082 -11.757197 34.198057 -1.552465 1.921754 -0.009406 -0.024458 -224816.000000 0 0 1
-0.683448 33.290132 -10.720897 34.980532 -1.550269 1.882291 -0.008557 -0.009043 -425322.000000 0 0 1
0.398152 33.440562 -9.864297 34.867378 1.558891 1.857622 -0.007697 -0.018378 -941549.000000 0 0 1
0.040852 34.361660 -8.839297 35.480396 1.569607 1.822580 -0.006234 -0.006354 -495539.000000 0 0 1
1.081052 34.742663 -7.778697 35.619228 1.539690 1.790955 0.002821 -0.012132 -1103790.000000 0 0 1
2.081352 -33.935474 -8.251997 34.986339 -1.509540 1.808903 0.005244 -0.006601 -783739.000000 0 0 1
2.994152 -33.640474 -7.202997 34.533022 -1.482026 1.780922 0.011463 -0.010743 -591746.000000 0 0 1
4.208352 -32.784094 -7.637897 33.924100 -1.443129 1.797890 -0.002829 -0.002119 302069.000000 0 0 1
5.097052 -33.444974 -8.534297 34.890980 -1.419559 1.817902 0.011318 -0.000597 577803.000000 0 0 1
6.002352 -34.309479 -7.806397 35.694656 -1.397602 1.791278 0.022659 0.007457 -994424.000000 0 0 1
6.268352 33.850672 -8.545697 35.470962 1.387694 1.814111 0.013678 0.004447 -304224.000000 0 0 1
5.206852 32.914162 -8.669597 34.432764 1.413902 1.825319 0.007843 -0.001309 -301892.000000 0 0 1
4.275452 33.299802 -9.671197 34.938350 1.443102 1.851266 0.013428 -0.006049 98592.400000 0 0 1
3.189652 32.214862 -9.835497 33.833537 1.472106 1.865757 0.006958 -0.013761 -407755.000000 0 0 1
3.639152 31.210222 -10.687297 33.189451 1.454719 1.898647 0.020403 -0.006836 -196796.000000 0 0 1
2.715352 30.167012 -10.876097 32.182468 1.481028 1.915535 0.016974 -0.012000 58290.100000 0 0 1
3.277152 29.086772 -11.844697 31.576524 1.458601 1.955313 0.019086 -0.011577 203383.000000 0 0 1
3.141952 29.466782 -13.174197 32.430272 1.464571 1.989122 0.018990 -0.008450 -129981.000000 0 0 1
4.376152 29.183512 -13.782297 32.569614 1.421952 2.007731 0.028865 -0.014221 70788.300000 0 0 1
4.301952 29.642532 -15.254097 33.613598 1.426675 2.041830 0.031312 -0.009335 544793.000000 0 0 1
3.374352 28.862372 -16.053497 33.198456 1.454413 2.075515 0.016147 -0.007875 555544.000000 0 0 1
3.072952 29.440272 -17.279197 34.274528 1.466794 2.099183 0.038928 -0.006001 283779.000000 0 0 1
2.113552 28.573332 -18.183197 33.934216 1.496961 2.136295 0.025054 -0.010369 175348.000000 0 0 1
2.652352 27.382332 -18.712197 33.271209 1.474234 2.168099 0.039602 0.005803 -327516.000000 0 0 1
1.628952 26.649772 -19.262797 32.922928 1.509748 2.195784 0.000178 0.003216 -511671.000000 0 0 1
2.361752 25.606892 -20.033897 32.598279 1.478825 2.232636 0.012031 0.012481 359756.000000 0 0 1
2.919652 24.657752 -19.090697 31.320661 1.452938 2.226256 0.015151 0.005215 106122.000000 0 0 1
3.883952 23.805162 -19.664997 31.120458 1.409065 2.254798 0.022598 0.012987 98607.600000 0 0 1
4.378452 22.655362 -18.731497 29.720451 1.379887 2.252679 0.023463 0.016762 -110979.000000 0 0 1
3.561452 21.514262 -18.597297 28.660196 1.406745 2.276920 0.037332 0.017971 18985.500000 0 0 1
4.313952 20.479662 -17.938497 27.564767 1.363186 2.279403 0.039212 0.016634 528693.000000 0 0 1
3.433152 19.317862 -17.415397 26.234755 1.394914 2.296724 0.036208 0.008630 515044.000000 0 0 1
2.452252 19.654362 -16.421797 25.729028 1.446669 2.263032 0.030865 -0.000781 -453391.000000 0 0 1
1.596852 18.653962 -16.076997 24.677724 1.485401 2.280327 0.014083 0.003332 -649797.000000 0 1 0
2.103452 17.509262 -15.208197 23.287078 1.451236 2.282434 0.016558 0.010254 305118.000000 0 1 0
3.146152 16.639362 -15.715097 23.102617 1.383924 2.318873 0.019759 -0.004586 466649.000000 0 1 0
2.701452 15.566462 -16.486197 22.834344 1.398965 2.377472 0.021329 -0.012009 -106779.000000 0 1 0
2.477252 15.706262 -17.974197 23.997816 1.414361 2.417337 -0.001246 -0.002107 -56975.400000 0 1 0
3.663752 15.604862 -18.753197 24.670168 1.340190 2.434351 0.011663 0.001452 -78578.100000 0 1 0
3.649052 16.279762 -20.001597 26.046307 1.350294 2.446391 -0.004679 0.013551 -57485.000000 0 0 1
4.239852 15.489762 -21.234997 26.623939 1.303621 2.494086 -0.008150 0.006941 535891.000000 0 0 1
3.414852 14.421462 -21.675697 26.257867 1.338289 2.541872 -0.010824 0.009946 -199014.000000 0 0 1
2.241952 14.794962 -22.338997 26.887693 1.420406 2.551387 -0.003336 0.014217 227363.000000 0 0 1
1.322652 13.619362 -22.858397 26.640997 1.473984 2.602190 0.000487 0.015287 538385.000000 0 0 1
0.642252 12.865162 -21.867797 25.379626 1.520916 2.609265 -0.001186 0.017703 237858.000000 0 0 1
-0.352648 12.050562 -22.470197 25.500003 -1.541541 2.649157 -0.009122 0.015432 70792.800000 0 0 1
-0.881348 10.978462 -21.541697 24.193968 -1.490688 2.668964 -0.008770 0.012813 -198852.000000 0 1 0
-1.773648 11.426762 -20.485697 23.524041 -1.416806 2.627707 -0.003390 0.009890 404798.000000 0 1 0
-2.098748 10.423862 -19.534597 22.241001 -1.372112 2.643122 -0.006559 0.009193 249028.000000 0 1 0
-3.151848 9.402362 -20.035397 22.355216 -1.247350 2.681991 -0.006195 0.007353 -339680.000000 0 1 0
-2.622448 8.387662 -20.876997 22.651249 -1.267770 2.743162 -0.005177 0.005129 14603.400000 0 1 0
-3.670948 7.624862 -21.460897 23.069124 -1.122103 2.765990 -0.007302 0.014521 136703.000000 0 1 0
-3.098248 6.469762 -22.308397 23.433342 -1.124186 2.830481 -0.004928 0.011451 105958.000000 0 1 0
-2.450748 5.499562 -21.546297 22.371729 -1.151586 2.869103 0.001194 0.012028 -89750.000000 0 1 0
-2.037848 4.450862 -22.343697 22.873648 -1.141430 2.925914 0.010827 0.004244 -607002.000000 0 1 0
-1.515048 3.309362 -21.496297 21.802248 -1.141469 2.973867 0.015948 0.003654 1091220.000000 0 1 0
-0.217248 3.604662 -20.896997 21.206727 -1.510600 2.970473 0.011478 -0.011448 943037.000000 0 1 0
0.276852 2.506662 -20.197497 20.354333 1.460796 3.017373 0.010726 -0.004040 -281801.000000 0 1 0
1.806552 2.441262 -20.210097 20.437010 0.933721 2.992437 0.006407 -0.010769 -125858.000000 0 1 0
2.439652 2.160862 -21.473497 21.719399 0.724872 2.990973 0.013171 -0.006898 3405.000000 0 1 0
3.839652 2.088662 -21.268597 21.713098 0.498203 2.938902 0.015178 -0.012713 45344.100000 0 1 0
4.431452 1.336462 -22.495097 22.966351 0.292911 2.938665 0.011655 -0.001394 872884.000000 0 1 0
5.862152 1.161162 -22.425497 23.208103 0.195547 2.881160 0.012263 -0.004187 917653.000000 0 1 0
6.347452 0.601562 -23.607597 24.453438 0.094490 2.877808 0.006478 -0.000315 -13178.500000 0 1 0
7.892652 0.664562 -23.717397 25.005010 0.084002 2.819281 -0.008113 -0.004476 119754.000000 0 0 1
8.403752 1.986062 -23.824497 25.341155 0.232072 2.793868 -0.003973 -0.012222 455086.000000 0 0 1
9.779552 1.807162 -23.462597 25.483307 0.182729 2.740678 -0.000778 -0.012569 125254.000000 0 0 1
13.699752 -22.142634 21.999099 34.087238 -1.016737 0.869280 0.017963 0.020661 -901012.000000 0 0 1
12.599452 -22.963534 22.237799 34.359712 -1.068973 0.866883 0.005223 0.031414 118061.000000 0 0 1
11.305152 -22.364334 22.249399 33.511277 -1.102759 0.844724 -0.002317 0.020225 1002050.000000 0 0 1
10.726052 -21.841534 20.905599 32.080288 -1.114306 0.861019 0.001846 0.007542 -404323.000000 0 0 1
11.428052 -20.708434 20.417299 31.245891 -1.066530 0.858677 -0.008958 0.007185 92886.400000 0 0 1
10.873352 -20.347834 19.168599 29.994988 -1.080029 0.877521 0.019014 0.004113 213200.000000 0 0 1
11.263452 -18.926834 18.714799 28.902147 -1.033984 0.866467 0.019570 -0.002780 -148962.000000 0 0 1
10.508852 -17.936334 19.377099 28.418656 -1.040811 0.820515 0.027854 -0.002402 -251977.000000 0 0 1
10.708652 -16.710234 18.738999 27.295737 -1.000885 0.814108 0.029983 -0.004259 -304077.000000 0 0 1
9.745552 -15.564934 19.091599 26.490227 -1.011390 0.765980 0.033426 -0.003965 -797888.000000 0 0 1
8.448252 -15.919534 18.776199 26.025952 -1.082903 0.764915 0.020765 0.002084 -1451980.000000 0 0 1
7.561352 -14.941234 19.236899 25.504368 -1.102302 0.716272 0.006520 0.001605 555064.000000 0 0 1
6.091452 -15.080034 18.714399 24.793990 -1.186897 0.715454 -0.005630 0.010388 324331.000000 0 1 0
5.946052 -14.732134 17.377699 23.545185 -1.187181 0.740610 -0.007592 0.002921 581167.000000 0 1 0
4.595752 -14.890434 16.917799 23.001258 -1.271434 0.744368 -0.011933 0.000356 882412.000000 0 1 0
3.917052 -16.319834 16.808699 23.753161 -1.335234 0.784643 -0.026865 0.003486 140579.000000 0 1 0
2.587952 -16.307034 16.315199 23.212121 -1.413407 0.791366 -0.022119 0.005189 271856.000000 0 1 0
1.942152 -17.619134 16.416999 24.160375 -1.461010 0.823714 -0.020586 0.002878 740947.000000 0 1 0
0.427752 -17.507634 16.114299 23.798547 -1.546369 0.826964 -0.012548 0.003141 103720.000000 0 1 0
0.075252 -17.406634 14.736299 22.806909 -1.566473 0.868289 -0.008972 -0.000237 -95634.600000 0 1 0
-1.318748 -17.609934 14.594699 22.909695 1.496049 0.880127 -0.005390 0.005633 -102756.000000 0 1 0
-1.646348 -17.932434 13.159399 22.303642 1.479245 0.939724 -0.013812 -0.009611 -105477.000000 0 1 0
-2.927848 -18.489334 12.936199 22.754626 1.413747 0.966105 -0.020382 0.000062 81492.900000 0 1 0
-2.857048 -19.889034 12.663599 23.750856 1.428123 1.008435 -0.012461 0.001456 -68683.400000 0 1 0
-4.241648 -20.566334 12.623499 24.501396 1.367406 1.029537 -0.005401 0.005514 80589.300000 0 1 0
-4.712148 -20.945034 13.894299 25.572453 1.349504 0.996397 -0.006459 -0.002115 510825.000000 0 0 1
-5.951548 -21.642134 13.616799 26.253002 1.302432 1.025495 -0.007312 0.000799 1095940.000000 0 0 1
-6.664348 -22.237234 14.905599 27.587769 1.279621 1.000006 0.001624 -0.001697 -347195.000000 0 0 1
-7.892948 -22.817834 14.668399 28.250914 1.237769 1.024860 -0.000143 0.005531 -1036440.000000 0 0 1
-8.546448 -23.235934 15.817899 29.379523 1.218343 1.002261 0.007722 0.006208 50877.100000 0 0 1
-9.993748 -22.714734 15.885899 29.465165 1.156317 1.001379 0.013553 0.011479 -144265.000000 0 0 1
-10.020948 -21.351134 16.286199 28.662355 1.131976 0.966469 0.004886 0.008554 -494587.000000 0 0 1
-11.303148 -20.846934 16.523699 28.903087 1.073964 0.962228 0.004142 0.009211 -611243.000000 0 0 1
-11.330648 -19.542634 17.307599 28.457883 1.045369 0.917027 0.014677 0.009270 -417764.000000 0 0 1
-11.540648 -19.859334 18.691499 29.613373 1.044375 0.887717 0.019395 0.006036 59704.200000 0 0 1
-11.950548 -18.753034 19.491499 29.570432 1.003430 0.851102 0.028256 -0.000082 -4775.410000 0 0 1
-12.462248 -19.184834 20.877499 30.971527 0.994710 0.831069 0.034973 0.004170 889911.000000 0 0 1
-13.734548 -19.871934 20.916599 31.953649 0.966033 0.857154 0.025733 0.005575 779591.000000 0 0 1
-14.031948 -20.356634 22.211199 33.235907 0.967284 0.838890 0.018188 0.021121 323689.000000 0 0 1
-15.453648 -20.971634 22.058299 34.134927 0.935743 0.868190 0.019080 0.008333 -319507.000000 0 0 1
-15.452148 -22.043934 21.101599 34.204991 0.959419 0.905978 0.017400 0.007649 327030.000000 0 0 1
-16.710248 -22.363534 20.509399 34.640951 0.929083 0.937188 0.013338 0.007575 730845.000000 0 0 1
-17.705048 -23.094134 21.480399 36.169259 0.916726 0.934917 0.019857 0.006810 -184123.000000 0 0 1
-18.329548 -22.234234 22.437099 36.520637 0.881363 0.909212 0.024075 0.009283 250905.000000 0 0 1
-19.164748 -22.923934 23.371199 37.934249 0.874478 0.907018 0.019603 0.006178 168456.000000 0 0 1
-19.516248 -21.997934 24.554369 38.310705 0.845106 0.875091 0.013242 0.012048 -544072.000000 0 0 1
-20.322148 -21.002534 24.011099 37.823657 0.801861 0.883025 0.012965 0.020360 -420640.000000 0 0 1
-20.893548 -20.156734 24.954939 38.282937 0.767451 0.860768 0.010790 0.018323 -64780.100000 0 0 1
-21.922548 -19.273034 24.211019 37.923890 0.721171 0.878365 0.006797 0.018966 -433014.000000 0 0 1
-21.363348 -18.585234 23.121299 36.556778 0.715968 0.886050 0.008868 0.019843 -636372.000000 0 0 1
-22.290248 -17.848934 22.404099 36.295775 0.675199 0.905535 -0.003322 0.019004 -541334.000000 0 0 1
-21.818548 -17.489834 20.954799 34.943482 0.675718 0.927699 -0.000518 0.023896 -336751.000000 0 0 1
-20.872248 -16.451734 20.974499 33.856165 0.667511 0.902668 -0.001875 0.027752 -457167.000000 0 0 1
-20.603648 -16.047634 19.682599 32.702318 0.661725 0.924954 0.006967 0.022368 28796.300000 0 0 1
-19.770348 -14.738334 19.595599 31.497185 0.640600 0.899326 0.007535 0.005257 87966.300000 0 0 1
-19.625048 -14.507634 18.234399 30.464853 0.636580 0.929120 0.006435 0.002782 -8224.800000 0 0 1
-18.714948 -13.438834 18.011299 29.244802 0.622758 0.907293 0.022308 -0.012333 -365123.000000 0 0 1
-18.526648 -13.300134 16.489299 28.142979 0.622633 0.944792 0.016987 -0.016337 -25387.300000 0 0 1
-17.957448 -12.134834 15.914599 26.888633 0.594268 0.937418 0.015657 -0.011670 53852.200000 0 0 1
-16.625748 -11.825134 16.273499 26.097434 0.618239 0.897499 0.023101 -0.018630 -203749.000000 0 0 1
-15.958248 -10.637534 15.543799 24.686687 0.587946 0.889703 0.015430 -0.015004 -107074.000000 0 1 0
-16.507548 -9.379234 15.803399 24.702563 0.516693 0.876627 0.005169 -0.003786 -71639.300000 0 1 0
-15.903548 -8.370234 15.023599 23.424180 0.484475 0.874512 -0.015516 0.009360 -524126.000000 0 1 0
-16.217948 -6.899634 15.554299 23.506659 0.402237 0.847716 -0.002742 0.016215 291817.000000 0 1 0
-15.527248 -6.504334 16.719699 23.726570 0.396691 0.788821 -0.011195 0.010663 786908.000000 0 1 0
-14.115448 -6.278034 16.573099 22.656725 0.418491 0.750296 -0.005791 0.006232 729675.000000 0 1 0
-13.311048 -6.189634 17.922599 23.167113 0.435257 0.686258 0.000438 0.008460 254609.000000 0 1 0
-13.287648 -7.328034 18.806899 24.165288 0.503988 0.678905 0.008193 -0.002629 100848.000000 0 1 0
-12.768248 -8.539334 18.246099 23.850965 0.589474 0.699748 0.009498 -0.001989 -582967.000000 0 1 0
-12.850348 -9.773934 19.200299 25.086106 0.650249 0.699171 0.028974 -0.005694 417723.000000 0 0 1
-14.141448 -10.308734 19.480699 26.186794 0.629907 0.731889 0.026192 -0.004514 385894.000000 0 0 1
-14.905648 -9.533834 20.413399 27.014426 0.569038 0.714153 0.017469 0.001543 -681220.000000 0 0 1
-16.306448 -10.138334 20.711999 28.243105 0.556250 0.747564 0.001112 0.013144 572686.000000 0 0 1
-17.237448 -10.145434 19.636299 28.029336 0.531972 0.794611 0.011943 0.010040 190851.000000 0 0 1
-17.609348 -8.938334 19.057799 27.444173 0.469701 0.803182 0.004402 0.009838 -1182820.000000 0 0 1
-18.802648 -9.045334 18.116199 27.632486 0.448387 0.855803 0.009600 0.008796 -954687.000000 0 0 1
-20.025348 -9.284134 18.711999 28.936977 0.434122 0.867616 0.002961 0.015384 11631.700000 0 0 1
-21.070648 -9.328734 17.691599 29.051509 0.416797 0.916031 0.013333 0.019694 964007.000000 0 0 1
-22.515748 -9.448534 18.221999 30.467605 0.397323 0.929696 0.008150 0.023544 -77205.400000 0 0 1
-23.063448 -8.224934 18.698399 30.809127 0.342562 0.918628 0.007958 0.025790 99731.000000 0 0 1
-24.422848 -8.433434 18.990699 32.066259 0.332490 0.936969 0.008288 0.030578 -223363.000000 0 0 1
-25.045848 -7.266034 19.794299 32.739945 0.282358 0.921543 0.020837 0.023818 -174192.000000 0 0 1
-24.776848 -7.302334 21.159299 33.390601 0.286610 0.884482 0.012882 0.015803 186394.000000 0 0 1
-25.473328 -6.264934 21.774799 34.092253 0.241155 0.877986 0.018779 0.012853 -563834.000000 0 0 1
-25.786188 -6.414534 23.292299 35.335604 0.243810 0.851077 0.014464 0.003348 413794.000000 0 0 1
-24.714048 -6.249934 24.221019 35.163953 0.247697 0.810960 0.005161 0.001884 873123.000000 0 0 1
-23.590948 -7.146334 24.166699 34.520027 0.294140 0.795290 0.000149 0.011619 684281.000000 0 0 1
-22.587248 -6.852134 25.325969 34.619940 0.294539 0.750214 -0.001049 0.010778 284868.000000 0 0 1
-22.082848 -5.499034 25.342669 34.060863 0.244055 0.731698 -0.008366 0.009266 338996.000000 0 0 1
-21.171048 -5.348734 26.423659 34.278739 0.247465 0.690627 0.001093 -0.007132 16346.600000 0 0 1
-20.609648 -3.880934 26.385289 33.704639 0.186127 0.671582 0.011588 -0.012284 335799.000000 0 0 1
-19.487348 -3.581234 27.200729 33.652067 0.181744 0.629549 0.002887 -0.013511 1545.450000 0 0 1
-19.774248 -3.367134 28.603009 34.935520 0.168661 0.611588 0.009257 -0.015583 -41030.500000 0 0 1
-20.614548 -2.122434 28.995709 35.640082 0.102597 0.620530 0.014645 -0.027667 433217.000000 0 0 1
-21.982248 -2.278734 28.663249 36.193835 0.103294 0.656821 0.021592 -0.026635 -718240.000000 0 0 1
-22.726348 -1.193934 29.085029 36.930357 0.052487 0.663950 0.010448 -0.023698 -402507.000000 0 0 1
-23.907748 -1.010734 28.141249 36.939571 0.042251 0.704681 0.011445 -0.018624 -880681.000000 0 0 1
-23.445348 -0.817634 26.773559 35.597420 0.034860 0.719522 -0.003581 -0.015005 378752.000000 0 0 1
-24.487448 -0.409234 25.906889 35.650659 0.016710 0.757309 0.005346 -0.016696 -142784.000000 0 0 1
-25.514688 -1.471834 25.480009 36.088730 0.057622 0.786909 -0.001440 -0.011609 21264.600000 0 0 1
-26.352178 -1.894634 26.577789 37.475402 0.071773 0.782425 -0.007403 -0.008957 333673.000000 0 0 1
-26.748938 -3.258234 26.280599 37.640293 0.121211 0.797911 -0.012286 -0.007937 503767.000000 0 0 1
-25.599648 -4.266434 26.652319 37.200679 0.165142 0.772100 0.005638 -0.019077 623300.000000 0 0 1
-25.493658 -4.477834 28.005609 38.135177 0.173871 0.746048 0.008934 -0.017438 -14826.400000 0 0 1
-24.371548 -5.313234 28.235329 37.675411 0.214651 0.723586 0.010877 -0.015839 -147576.000000 0 0 1
-24.273648 -5.623934 29.731539 38.791791 0.227672 0.697518 0.000683 -0.014210 -516664.000000 0 0 1
-25.351128 -6.351834 30.238349 39.967277 0.245500 0.712733 0.007143 -0.014955 -141335.000000 0 0 1
-24.894548 -7.322834 31.162659 40.552111 0.286085 0.694366 0.022261 -0.010643 340930.000000 0 0 1
-26.060988 -8.055734 31.934259 41.998415 0.299794 0.706917 0.017503 -0.014476 585548.000000 0 0 1
-26.883288 -8.838134 31.063539 42.021033 0.317628 0.738858 0.011371 -0.013044 299113.000000 0 0 1
-27.980598 -9.297734 31.828809 43.387035 0.320813 0.747189 0.019647 -0.006221 495085.000000 0 0 1
-29.079228 -10.081934 31.013729 43.693229 0.333737 0.781573 0.016685 -0.012652 -126405.000000 0 0 1
-28.576728 -11.316434 30.632109 43.393746 0.377055 0.787088 0.022058 -0.013373 431610.000000 0 0 1
-29.471108 -11.947634 29.722219 43.528180 0.385154 0.819171 0.014723 -0.008079 -178946.000000 0 0 1
-28.851448 -13.199334 29.150639 43.085824 0.429068 0.827700 0.019622 -0.011774 -219763.000000 0 0 1
-27.996768 -12.874634 28.062769 41.678462 0.431024 0.832112 0.020384 -0.006056 187721.000000 0 0 1
-27.015498 -13.902134 27.910639 41.256639 0.475258 0.827780 0.016299 -0.002842 20814.700000 0 0 1
-25.596598 -13.386234 27.618659 39.964577 0.481854 0.807816 0.010662 -0.000238 -401873.000000 0 0 1
-24.870748 -12.697334 28.590939 39.965212 0.472038 0.773606 0.009435 -0.005259 309858.000000 0 0 1
-25.464118 -11.397034 29.032739 40.264297 0.420833 0.765474 0.012236 -0.006973 -683359.000000 0 0 1
-25.299168 -10.141134 28.081109 39.133607 0.381238 0.770489 0.004711 -0.003415 -121855.000000 0 0 1
-23.980248 -9.789634 27.723229 37.940304 0.387587 0.751440 0.000712 0.008316 173340.000000 0 0 1
-23.199248 -10.653934 26.906309 37.089903 0.430508 0.759130 -0.000666 0.010908 -292363.000000 0 0 1
-23.526448 -10.581634 25.425169 36.220215 0.422668 0.792650 0.009145 0.024584 -218184.000000 0 0 1
-24.765648 -11.180434 25.114369 37.000959 0.424059 0.824738 0.011562 0.012061 95267.000000 0 0 1
-25.326558 -10.774034 23.858299 36.424343 0.402213 0.856601 -0.003045 0.022975 -1510540.000000 0 0 1
-26.621538 -11.409834 23.502699 37.299698 0.404911 0.889109 0.010770 0.011458 -193949.000000 0 0 1
-27.829048 -10.871834 24.076399 38.370896 0.372433 0.892503 0.012574 0.003370 507794.000000 0 0 1
-28.036598 -10.915934 25.493509 39.435104 0.371288 0.867851 0.011223 -0.004528 -173139.000000 0 0 1
-29.461638 -10.666634 26.090089 40.773250 0.347371 0.876451 0.016518 -0.010153 248184.000000 0 0 1
-30.012558 -9.400534 25.854879 40.713615 0.303541 0.882733 0.016755 -0.017795 944889.000000 0 0 1
-31.435328 -9.213934 26.027999 41.839373 0.285122 0.899383 0.016989 -0.008133 1214010.000000 0 0 1
-32.066808 -9.308234 27.446009 43.222758 0.282512 0.882801 0.004634 -0.005172 -238254.000000 0 0 1
-32.306298 -10.631134 27.894199 43.986410 0.317911 0.883881 0.003566 -0.014324 230974.000000 0 0 1
-32.985998 -10.565134 29.138539 45.263148 0.309967 0.871396 -0.002501 -0.008848 -912851.000000 0 0 1
-33.463668 -11.950934 29.766229 46.353752 0.343014 0.873492 -0.002979 -0.002375 -176365.000000 0 0 1
-34.580325 -12.565634 29.201229 46.972394 0.348540 0.899926 -0.006855 -0.004599 -375992.000000 0 0 1
34.015631 -11.872934 29.354479 46.472735 -0.335822 0.887117 -0.005066 -0.000675 -1013240.000000 0 0 1
32.874754 -12.629534 28.654249 45.401768 -0.366787 0.887792 -0.011340 -0.000158 -317243.000000 0 0 1
32.781664 -12.299234 27.292839 44.393780 -0.358934 0.908677 -0.001513 0.005616 -392301.000000 0 0 1
31.734454 -12.957534 26.653299 43.420866 -0.387651 0.909885 -0.010733 0.015599 -411552.000000 0 0 1
31.632694 -12.466134 25.174149 42.305668 -0.375401 0.933464 -0.005688 0.015079 116089.000000 0 0 1
31.054344 -11.132834 25.120459 41.465042 -0.344223 0.919997 -0.004648 0.011830 271340.000000 0 0 1
31.050914 -10.657434 23.798899 40.547845 -0.330626 0.943530 -0.000683 0.009755 -87392.900000 0 0 1
30.879194 -9.113734 23.626199 39.934722 -0.286994 0.937729 -0.015181 0.031550 -189274.000000 0 0 1
29.549764 -8.704234 23.820599 38.940636 -0.286460 0.912569 -0.022000 0.026802 -533848.000000 0 0 1
29.391864 -7.367334 23.380999 38.273102 -0.245599 0.913601 -0.024039 0.038347 -1385370.000000 0 0 1
28.024014 -6.757134 23.265799 37.044589 -0.236603 0.891753 -0.020246 0.037318 -540326.000000 0 0 1
27.129104 -7.365934 22.323599 35.896912 -0.265123 0.899654 -0.020868 0.032747 116389.000000 0 0 1
26.384914 -8.392834 22.888299 35.923218 -0.307971 0.880008 -0.028432 0.024656 -809685.000000 0 0 1
13.737852 -17.457234 26.599489 34.655684 -0.904068 0.695808 -0.014352 0.022592 -482229.000000 0 0 1
13.075052 -18.629134 26.390089 34.848794 -0.958823 0.711667 -0.026803 0.030060 113604.000000 0 0 1
13.970852 -19.651834 25.975219 35.441378 -0.952780 0.748212 -0.010391 0.036745 -34080.200000 0 0 1
13.310852 -21.067934 26.058519 36.056664 -1.007318 0.763081 -0.030210 0.023702 416518.000000 0 0 1
12.830052 -21.458534 27.363319 37.065215 -1.031923 0.740327 -0.029767 0.021640 702583.000000 0 0 1
11.537152 -20.940234 27.689209 36.582668 -1.067219 0.712249 -0.020139 0.021272 140351.000000 0 0 1
11.014252 -21.485134 29.044559 37.769182 -1.097084 0.693519 -0.031709 0.018009 -34387.900000 0 0 1
11.710552 -20.958234 30.158009 38.547245 -1.061255 0.672343 -0.031792 0.020365 -250336.000000 0 0 1
10.938052 -20.007134 30.836869 38.351517 -1.070484 0.636706 -0.024424 0.020062 -212443.000000 0 0 1
10.674352 -18.562534 30.335499 37.131549 -1.048926 0.614653 -0.021551 0.022154 -525713.000000 0 0 1
11.799552 -17.764234 30.237619 37.001500 -0.984482 0.614261 -0.035996 0.033451 -843879.000000 0 0 1
11.512552 -16.563134 29.636349 35.849539 -0.963386 0.597602 -0.022953 0.025844 -197779.000000 0 0 1
12.357252 -15.450034 30.245909 36.141669 -0.896165 0.579255 -0.029533 0.015414 90585.000000 0 0 1
12.025252 -14.126034 29.806659 35.108239 -0.865558 0.556719 -0.001886 0.016858 346651.000000 0 0 1
12.766052 -13.233034 30.642739 35.736014 -0.803358 0.540454 -0.001746 0.019794 346027.000000 0 0 1
12.331752 -11.716834 30.308459 34.755704 -0.759834 0.511436 0.006562 0.014626 182418.000000 0 0 1
12.621352 -11.198434 29.040469 33.586490 -0.725732 0.526348 0.022865 0.021713 490331.000000 0 0 1
14.005852 -11.097734 28.695579 33.804731 -0.670068 0.556966 0.018304 0.026661 286494.000000 0 0 1
14.337852 -10.398034 27.401259 32.627015 -0.627450 0.573820 0.019047 0.019609 73261.100000 0 0 1
14.354352 -9.015434 27.305559 32.139057 -0.560799 0.555557 0.021564 0.020673 183181.000000 0 0 1
15.500652 -8.459734 27.939969 33.052673 -0.499587 0.563639 0.019401 0.014284 -351766.000000 0 0 1
15.880752 -6.970234 27.758579 32.731042 -0.413594 0.558443 0.013964 0.011811 -318832.000000 0 0 1
17.198952 -6.658834 28.134279 33.640477 -0.369393 0.580256 0.009257 0.006770 -143811.000000 0 0 1
17.537652 -5.419434 27.642979 33.182432 -0.299709 0.586179 0.007884 0.009074 -508602.000000 0 0 1
19.028752 -5.168534 27.429679 33.781569 -0.265218 0.623274 0.014270 0.006912 -1310150.000000 0 0 1
19.503952 -5.977534 26.413969 33.374134 -0.297389 0.657618 0.008316 0.016080 -145523.000000 0 0 1
20.884252 -5.945034 26.144379 33.985643 -0.277330 0.693087 0.004709 0.019616 464900.000000 0 0 1
21.951552 -6.285534 27.249379 35.551473 -0.278875 0.697459 0.010950 0.009628 -337169.000000 0 0 1
22.263852 -5.145334 28.046049 36.176435 -0.227120 0.683674 0.021073 0.003334 -367147.000000 0 0 1
23.044352 -5.456934 29.135539 37.545971 -0.232518 0.682503 0.015213 -0.006992 -365482.000000 0 0 1
23.494252 -4.125834 29.881219 38.234665 -0.173838 0.673695 0.024107 -0.007940 -4251.100000 0 0 1
24.374552 -3.412534 29.019269 38.051046 -0.139100 0.703411 0.018312 0.000109 387398.000000 0 0 1
24.666052 -2.077334 29.438399 38.462303 -0.084020 0.699160 0.019088 -0.009093 -697583.000000 0 0 1
25.598552 -1.281634 28.532409 38.353967 -0.050025 0.731874 0.022168 -0.007493 -452718.000000 0 0 1
26.961152 -1.337034 28.847149 39.507586 -0.049551 0.752230 0.019810 0.002477 -476696.000000 0 0 1
27.742252 -0.832634 27.796849 39.280919 -0.030004 0.784640 0.012716 0.013438 320692.000000 0 0 1
29.268952 -0.733334 28.049329 40.545951 -0.025050 0.806830 0.009552 0.000519 194466.000000 0 0 1
29.608052 0.290266 28.934299 41.399452 0.009803 0.796930 0.004255 0.002498 146607.000000 0 0 1
30.940452 0.143666 29.410699 42.688657 0.004643 0.810746 0.003995 -0.000854 352986.000000 0 0 1
31.327652 1.226866 30.428259 43.689883 0.039142 0.800344 0.017911 -0.010175 -169937.000000 0 0 1
31.549652 2.499866 29.805509 43.474110 0.079071 0.815380 0.004468 -0.001719 55309.300000 0 0 1
31.665452 3.522666 30.767849 44.291879 0.110791 0.802848 0.002571 -0.001101 -212683.000000 0 0 1
31.992652 4.955366 30.134349 44.228547 0.153670 0.821215 0.000466 0.002785 -54279.600000 0 0 1
31.795752 6.131166 30.914479 44.769030 0.190492 0.808571 -0.000534 0.003702 255622.000000 0 0 1
30.457452 6.191966 31.367159 44.157621 0.200566 0.780808 0.004967 0.001040 -313832.000000 0 0 1
30.304352 7.126966 32.525539 45.022861 0.230982 0.763497 0.001395 -0.003842 -387497.000000 0 0 1
30.870752 6.502266 33.644481 46.121946 0.207594 0.753253 -0.001661 0.002536 141838.000000 0 0 1
31.185852 7.482766 34.608444 47.183615 0.235489 0.747362 0.001685 -0.005993 -423458.000000 0 0 1
31.590952 6.862166 -33.342077 46.441055 0.213896 2.371641 0.006174 -0.002607 -237183.000000 0 0 1
30.626952 6.163166 -32.571317 45.131867 0.198581 2.377040 0.001343 -0.006370 129701.000000 0 0 1
30.393652 4.789466 -32.950617 45.082770 0.156296 2.390424 0.012505 -0.007756 -171182.000000 0 0 1
31.045752 3.799466 -32.011017 44.754663 0.121777 2.367786 0.007111 -0.007499 -371601.000000 0 0 1
30.683652 2.482466 -32.318947 44.633658 0.080729 2.380516 0.014755 -0.007756 265816.000000 0 0 1
31.160752 1.685966 -31.266827 44.175212 0.054053 2.357163 0.003133 0.003270 4544.730000 0 0 1
31.139152 0.184566 -31.517467 44.306112 0.005927 2.362224 0.005887 -0.002872 -575752.000000 0 0 1
32.142752 -0.172534 -32.438027 45.666310 -0.005368 2.360759 0.005000 -0.009331 -112051.000000 0 0 1
32.340052 -1.581934 -32.491617 45.870324 -0.048877 2.357935 0.001176 -0.012295 577850.000000 0 0 1
33.329452 -2.055934 -31.369877 45.816464 -0.061607 2.324969 0.003033 -0.010213 -218870.000000 0 0 1
32.706752 -1.887834 -30.128117 44.508414 -0.057656 2.314351 0.011586 -0.005632 -475334.000000 0 0 1
33.469252 -2.188434 -29.013567 44.348248 -0.065293 2.283949 0.022762 -0.009223 -229158.000000 0 0 1
32.789252 -1.735334 -27.646207 42.923876 -0.052875 2.270610 0.022102 -0.010450 139337.000000 0 0 1
32.681452 -0.344534 -27.580057 42.765120 -0.010542 2.271714 0.014872 -0.011221 262706.000000 0 0 1
32.117752 0.150866 -26.386227 41.566882 0.004697 2.258533 0.011550 -0.004560 -97619.300000 0 0 1
31.598352 1.628966 -26.549967 41.303875 0.051507 2.268939 0.005851 -0.000863 208191.000000 0 0 1
30.491852 1.823466 -27.429317 41.054177 0.059731 2.302482 0.001169 -0.001833 507549.000000 0 0 1
30.195552 3.246066 -27.533467 40.992683 0.107090 2.307254 -0.003904 0.010439 -673592.000000 0 0 1
28.911852 3.418966 -28.307897 40.606915 0.117708 2.342169 -0.000781 0.012620 -842644.000000 0 0 1
28.590452 4.759566 -28.639447 40.746599 0.164961 2.350217 -0.005481 0.007988 32497.000000 0 0 1
27.760152 4.844666 -29.769867 40.991972 0.172779 2.383628 0.021114 0.004874 -1000480.000000 0 0 1
26.543552 5.704466 -29.530717 40.114390 0.211690 2.398179 0.023137 0.001520 -414524.000000 0 0 1
25.606352 4.956666 -28.715377 38.792095 0.191207 2.404220 0.021075 0.006223 1147000.000000 0 0 1
24.543252 5.829666 -28.244967 37.869966 0.233205 2.412593 0.021043 0.001967 545817.000000 0 0 1
23.232752 5.123966 -27.856397 36.633245 0.217074 2.434745 0.009883 0.010094 478037.000000 0 0 1
22.265452 5.136866 -28.915687 36.854507 0.226743 2.472831 0.022340 0.006922 919195.000000 0 0 1
20.988052 4.590166 -28.625657 35.791007 0.215314 2.497759 0.028857 0.003238 599566.000000 0 0 1
20.019952 4.389166 -29.801777 36.169174 0.215825 2.539152 0.014042 0.011627 -4745.020000 0 0 1
20.253552 3.140766 -30.413747 36.675152 0.153847 2.548603 0.012204 0.013185 153176.000000 0 0 1
19.384752 2.744666 -31.452687 37.048256 0.140654 2.584821 0.002708 0.010884 -353371.000000 0 0 1
19.647852 3.471866 -32.866437 38.448597 0.174899 2.595991 -0.003232 0.010689 -737601.000000 0 0 1
20.819752 3.046066 -33.481057 39.543922 0.145276 2.580511 0.020284 0.008985 -662217.000000 0 0 1
21.065052 3.721366 34.563836 40.647801 0.174857 0.554194 0.012856 -0.005963 581732.000000 0 0 1
22.492652 3.358766 34.023291 40.924137 0.148232 0.589220 0.025377 -0.005059 554124.000000 0 0 1
22.677552 1.987766 33.636815 40.615981 0.087430 0.594967 0.031196 -0.014466 23336.700000 0 0 1
24.035952 1.625966 33.485317 41.250905 0.067544 0.623658 0.032155 -0.019325 17015.800000 0 0 1
24.319252 0.053466 33.268896 41.209808 0.002198 0.631225 0.021271 -0.013069 -241873.000000 0 0 1
23.851052 -0.661634 32.102289 39.998342 -0.027733 0.639171 0.022402 -0.011794 742665.000000 0 0 1
22.452952 -0.803434 31.869929 38.993242 -0.035768 0.614053 0.024027 -0.016035 344349.000000 0 0 1
21.630252 -1.815234 32.725159 39.269567 -0.083725 0.585662 0.026712 -0.016582 -537432.000000 0 0 1
21.965952 -3.137534 32.465179 39.323466 -0.141877 0.599544 0.020546 -0.015934 116928.000000 0 0 1
21.387952 -4.016034 33.394501 39.859324 -0.185610 0.577539 0.024418 -0.008315 -372356.000000 0 0 1
21.432252 -5.486134 32.883029 39.632470 -0.250595 0.592228 0.022414 -0.003997 -406971.000000 0 0 1
22.668852 -6.119834 32.768509 40.312583 -0.263681 0.621750 0.021917 -0.007754 -454932.000000 0 0 1
22.458052 -7.501834 32.707799 40.378728 -0.322384 0.626601 0.030337 -0.006476 143692.000000 0 0 1
23.813352 -8.215134 32.491629 41.112895 -0.332196 0.659494 0.012317 -0.002938 220005.000000 0 0 1
24.359752 -8.074134 31.217229 40.411688 -0.320058 0.688059 0.018599 -0.004369 138820.000000 0 0 1
25.681452 -8.587834 31.072619 41.216447 -0.322709 0.716835 0.006926 -0.000212 401239.000000 0 0 1
26.048452 -8.408334 29.574679 40.297439 -0.312237 0.746736 0.000101 0.009619 -397680.000000 0 0 1
25.353752 -9.170934 28.652579 39.343221 -0.347077 0.754999 -0.007712 0.017929 -457089.000000 0 0 1
25.536752 -8.619034 27.375589 38.416615 -0.325509 0.777602 -0.005860 0.025995 -312595.000000 0 0 1
25.073552 -9.387934 26.140599 37.418541 -0.358258 0.797357 -0.017674 0.020992 -563842.000000 0 0 1
23.874052 -8.820534 25.717559 36.182385 -0.353906 0.780196 -0.020208 0.017568 -494552.000000 0 0 1
23.182152 -9.695234 24.836899 35.331024 -0.396114 0.791222 -0.013483 0.012924 -941030.000000 0 0 1
21.762152 -9.307634 24.532649 34.089209 -0.404154 0.767483 -0.022427 0.016374 -729988.000000 0 0 1
20.857952 -9.639734 25.593359 34.394747 -0.432921 0.731600 -0.015962 0.016845 -1009950.000000 0 0 1
19.605952 -9.222234 25.217399 33.246957 -0.439672 0.709807 -0.003197 0.016725 -794630.000000 0 0 1
18.523952 -9.242234 26.334759 33.497391 -0.462795 0.666204 0.005873 0.007996 -343629.000000 0 0 1
17.954852 -10.459834 26.785099 33.900241 -0.527500 0.659799 0.004036 0.017350 -192944.000000 0 0 1
18.833452 -11.411934 27.329099 35.097162 -0.544775 0.678253 -0.004040 0.017728 -620534.000000 0 0 1
18.193652 -12.526534 28.179279 35.804955 -0.602974 0.664830 0.006096 0.007359 316082.000000 0 0 1
17.055952 -13.091034 27.502239 34.909222 -0.654629 0.663532 0.002662 0.011605 435733.000000 0 0 1
16.290152 -14.024334 28.206369 35.463365 -0.710793 0.651184 -0.004112 0.015165 -309764.000000 0 0 1
16.894452 -15.293634 28.879229 36.787601 -0.735706 0.668058 0.011440 0.019289 -1003570.000000 0 0 1
15.900152 -16.125934 29.415999 37.123599 -0.792448 0.656096 -0.001342 0.018231 69219.900000 0 0 1
16.372152 -17.330134 30.053249 38.361161 -0.813815 0.670632 0.007336 0.018329 -349499.000000 0 0 1
16.735852 -18.514634 29.098049 38.335061 -0.835817 0.708951 0.005635 0.028028 -914781.000000 0 0 1
17.893052 -18.182234 28.452229 38.213666 -0.793414 0.730926 0.015834 0.023061 -895532.000000 0 0 1
18.230452 -19.207134 27.568569 38.226815 -0.811481 0.765286 0.012196 0.030839 -194196.000000 0 0 1
19.229052 -18.764134 26.472289 37.717784 -0.773162 0.792803 0.021983 0.021818 -59026.800000 0 0 1
20.523352 -18.653134 27.047849 38.739302 -0.737696 0.797914 0.046103 0.014724 -44621.700000 0 0 1
21.381052 -18.122834 26.069199 38.277796 -0.703106 0.821597 0.032318 0.012316 -930842.000000 0 0 1
22.790552 -17.839834 26.505489 39.245508 -0.664148 0.829321 0.028923 0.006278 -273585.000000 0 0 1
23.610052 -18.992534 26.766989 40.430466 -0.677434 0.847246 0.033750 0.000903 694061.000000 0 0 1
24.997052 -18.789534 26.966279 41.292607 -0.644569 0.859187 0.024364 -0.010672 268193.000000 0 0 1
25.818252 -20.088234 27.111629 42.487171 -0.661221 0.878751 -0.000560 -0.008061 -325365.000000 0 0 1
25.743452 -20.691134 28.394239 43.555495 -0.677019 0.860697 0.001506 0.003136 331131.000000 0 0 1
26.432552 -21.952234 28.518619 44.653018 -0.693064 0.878026 -0.003572 -0.003132 256587.000000 0 0 1
25.627652 -22.943334 29.432299 45.270668 -0.730188 0.863027 0.011921 -0.000505 297999.000000 0 0 1
25.772752 -22.606134 30.783579 46.074947 -0.720037 0.839118 0.018932 -0.006128 59813.300000 0 0 1
24.922252 -23.417334 31.604029 46.565060 -0.754276 0.824796 0.023982 -0.003668 -91465.200000 0 0 1
25.009752 -23.476434 33.148879 47.701979 -0.753785 0.802493 0.019332 -0.003033 -692813.000000 0 0 1
24.128752 -24.399434 33.632006 48.048318 -0.790976 0.795452 0.008599 -0.011138 -710522.000000 0 0 1
24.129852 -24.428434 -34.219634 48.476608 -0.791547 2.354489 0.024748 -0.006467 -674584.000000 0 0 1
23.746252 -25.847364 -33.704187 48.661514 -0.827739 2.335918 0.006559 -0.005806 525656.000000 0 0 1
22.436752 -26.353404 -33.960257 48.489265 -0.865502 2.346707 0.008408 -0.002100 193089.000000 0 0 1
22.094452 -26.568744 33.961567 48.450500 -0.877084 0.794062 0.014342 -0.007861 420397.000000 0 0 1
20.757352 -27.399204 33.858623 48.249253 -0.922456 0.792954 0.021669 -0.012476 1041660.000000 0 0 1
21.022552 -28.770084 34.075988 49.303533 -0.939756 0.807721 0.009693 -0.002860 632550.000000 0 0 1
19.763652 -29.449674 34.104306 49.203546 -0.979731 0.804978 0.020938 -0.001967 584790.000000 0 0 1
19.807552 -30.971474 34.262758 50.254432 -1.001808 0.820595 0.006251 -0.003068 -168505.000000 0 0 1
20.151952 -31.421374 -33.697867 50.288668 -1.000529 2.305125 -0.006568 -0.001161 289676.000000 0 0 1
20.921752 -32.599834 -33.818497 51.421393 -1.000225 2.288523 -0.018750 0.007591 -69380.800000 0 0 1
21.496352 -33.080874 -32.462687 51.090737 -0.994553 2.259313 -0.014905 0.008874 -908865.000000 0 0 1
22.412252 -34.110609 -32.584647 52.226448 -0.989484 2.244533 -0.020951 0.012698 -61221.300000 0 0 1
22.916352 -34.498507 -31.317447 51.923874 -0.984454 2.218230 -0.016705 0.013862 305492.000000 0 0 1
24.118752 -33.701064 -30.746187 51.602364 -0.949633 2.209094 -0.014434 0.011466 -477473.000000 0 0 1
24.755452 -34.153394 -29.615267 51.539798 -0.943599 2.182923 0.006488 0.017685 80604.200000 0 0 1
25.418752 -33.056274 -28.927217 50.750508 -0.915275 2.177288 0.008433 0.015129 161133.000000 0 0 1
25.752152 -33.361744 -27.465387 50.304342 -0.913422 2.148360 0.015340 0.010717 -49393.500000 0 0 1
26.836052 -34.216781 -27.252767 51.319344 -0.905705 2.130627 0.016979 0.022040 -441690.000000 0 0 1
27.455252 -34.110356 -26.020107 50.934794 -0.893078 2.106971 0.015279 0.016183 277811.000000 0 0 1
-25.579088 -30.977831 9.863903 41.366802 0.880567 1.330027 0.021865 -0.007396 -444485.000000 0 0 1
-25.494228 -32.335631 10.167003 42.413637 0.903153 1.328728 0.019156 -0.009743 132822.000000 0 0 1
-24.363048 -32.700531 10.955303 42.224418 0.930480 1.308339 0.007155 -0.004870 515117.000000 0 0 1
-24.584448 -34.059831 11.632803 43.586572 0.945588 1.300632 -0.001205 0.001679 179732.000000 0 0 1
-24.776848 34.315966 10.812203 43.685025 -0.945444 1.320693 -0.002283 0.004182 23636.800000 0 0 1
-25.051548 33.110266 11.491003 43.080308 -0.923078 1.300793 -0.009174 0.004715 88129.000000 0 0 1
-24.854148 31.908666 10.500503 41.786986 -0.909045 1.316787 -0.006080 0.006760 -22057.200000 0 0 1
-25.791278 31.844166 9.460103 42.056325 -0.890035 1.343916 -0.003337 0.002458 -435844.000000 0 0 1
-25.736978 30.658666 8.746403 40.973716 -0.872448 1.355677 -0.002651 0.002326 -468222.000000 0 0 1
-24.878448 30.414266 7.484803 39.999838 -0.885184 1.382566 -0.006668 0.009221 -40879.300000 0 0 1
-23.489948 30.407966 7.751403 39.198294 -0.913054 1.371736 -0.009523 -0.001059 -424488.000000 0 0 1
-22.905448 30.206966 6.535103 38.468531 -0.922015 1.400087 -0.012947 -0.006451 -51398.700000 0 0 1
-21.513248 29.512066 6.481003 37.091579 -0.940894 1.395165 0.016647 -0.007466 227422.000000 0 0 1
-21.540948 28.066366 6.699903 36.008638 -0.916189 1.383642 0.005675 -0.006196 119995.000000 0 0 1
-22.199148 27.318866 5.692703 35.658512 -0.888423 1.410465 0.000205 -0.008989 -561818.000000 0 0 1
-22.553948 25.830266 6.117203 34.832505 -0.853010 1.394263 -0.004685 -0.003894 -289098.000000 0 0 1
-23.436748 25.619166 7.225503 35.465909 -0.829857 1.365629 -0.011585 -0.009418 362715.000000 0 0 1
-23.673348 24.272266 7.562803 34.738542 -0.797889 1.351332 -0.010122 -0.011807 -104022.000000 0 0 1
-24.408648 23.266566 6.628803 34.366498 -0.761447 1.376694 -0.012235 -0.017755 -803521.000000 0 0 1
-25.701198 23.588266 6.219403 35.434994 -0.742557 1.394367 -0.012569 -0.021124 -465888.000000 0 0 1
-26.002688 23.052366 4.942803 35.099610 -0.725327 1.429505 -0.005904 -0.017337 -33526.900000 0 0 1
-25.791408 23.999766 3.706603 35.424912 -0.749431 1.465972 -0.014256 -0.021359 478692.000000 0 0 1
-24.403948 24.311366 3.511703 34.625529 -0.783498 1.469202 -0.012214 -0.021577 978328.000000 0 0 1
-24.202748 24.933166 2.238803 34.820224 -0.800262 1.506456 -0.010659 -0.018373 -355842.000000 0 0 1
-22.940348 25.785266 2.231203 34.584935 -0.843718 1.506238 0.009732 -0.018411 -364535.000000 0 0 1
-22.667348 26.353366 0.980203 34.774550 -0.860450 1.542605 0.004274 -0.021014 940749.000000 0 0 1
-21.375148 27.035066 0.955203 34.477589 -0.901786 1.543088 0.016737 -0.018604 949097.000000 0 0 1
-20.955048 27.499266 -0.492897 34.576966 -0.919645 1.585052 0.027955 -0.017445 -54835.500000 0 0 1
-20.731348 26.416966 -1.408697 33.609958 -0.905409 1.612722 0.023922 -0.014368 -19803.200000 0 0 1
-19.632648 25.559966 -1.143797 32.249976 -0.915811 1.606270 0.024437 -0.013988 -201761.000000 0 0 1
-19.197848 24.463666 -2.152797 31.171507 -0.905424 1.639914 0.031536 -0.020828 554548.000000 0 0 1
-20.229148 23.463366 -2.426197 31.074658 -0.859286 1.648952 0.012536 -0.012423 482356.000000 0 0 1
-19.854848 22.502466 -3.406597 30.202332 -0.847824 1.683829 0.014547 -0.008525 -916325.000000 0 0 1
-20.949348 21.921666 -4.236497 30.616703 -0.808074 1.709614 -0.002235 -0.000899 -830155.000000 0 0 1
-21.485548 22.883866 -5.138697 31.807331 -0.816903 1.733064 -0.008164 0.001930 304990.000000 0 0 1
-22.642048 22.444366 -5.846397 32.412841 -0.781014 1.752162 -0.007781 0.000338 482129.000000 0 0 1
-22.798148 23.267766 -7.149797 33.350623 -0.795592 1.786856 -0.008529 0.004462 30657.400000 0 0 1
-21.856648 22.845066 -8.107597 32.639596 -0.807506 1.821822 -0.023247 0.006700 12158.000000 0 0 1
-21.837048 23.675466 -9.254297 33.511585 -0.825770 1.850585 -0.013144 0.002617 -323003.000000 0 0 1
-21.079748 23.009166 -10.423497 32.900255 -0.829132 1.893172 -0.019010 0.003671 -261847.000000 0 0 1
-21.608048 21.825466 -10.979697 32.616138 -0.790404 1.914136 -0.016804 0.000432 11386.900000 0 0 1
-20.731248 21.362466 -11.987397 32.091078 -0.800393 1.953622 -0.025357 0.002235 -59330.700000 0 0 1
-21.380348 21.370966 -13.413197 33.071911 -0.785179 1.988406 -0.015621 0.005251 95826.200000 0 0 1
-22.426248 20.418166 -13.469697 33.185401 -0.738563 1.988751 -0.021381 0.010892 -41094.200000 0 0 1
-22.740648 20.099666 -14.792297 33.763082 -0.723829 2.024303 -0.001327 0.002347 270238.000000 0 0 1
-23.936348 19.117666 -14.947897 34.086266 -0.673940 2.024760 0.006974 -0.001761 371306.000000 0 0 1
-23.671148 18.259266 -16.106097 33.957774 -0.657040 2.064963 0.008183 -0.001664 733016.000000 0 0 1
-24.797448 17.414666 -16.422697 34.465765 -0.612252 2.067458 0.023399 -0.008061 328490.000000 0 0 1
-24.445648 16.271566 -17.403397 34.135491 -0.587279 2.105787 0.031777 -0.007373 -103123.000000 0 0 1
-23.554648 15.299466 -16.912897 32.786295 -0.576045 2.112799 0.046941 -0.002567 -11866.200000 0 0 1
-23.309448 14.359366 -17.942797 32.733251 -0.552124 2.150949 0.039861 -0.011949 -300768.000000 0 0 1
-22.563748 13.142066 -17.478997 31.422157 -0.527409 2.160679 0.029248 -0.003423 -628129.000000 0 0 1
-21.259148 13.390666 -17.054097 30.366157 -0.562099 2.167133 0.023728 -0.000676 -469208.000000 0 0 1
-20.506648 12.219766 -16.887297 29.240829 -0.537394 2.186490 0.023039 -0.007096 853538.000000 0 0 1
-19.111548 12.548766 -16.213397 28.028504 -0.581005 2.187637 0.024192 0.000395 898407.000000 0 0 1
-18.210148 13.395966 -16.956897 28.259472 -0.634242 2.214351 0.024966 0.008358 404408.000000 0 0 1
-16.986448 13.254866 -16.259097 26.992390 -0.662625 2.217249 0.026122 0.015793 -251971.000000 0 0 1
-16.077748 14.512266 -16.294397 27.103638 -0.734267 2.215784 0.011621 0.014740 -393612.000000 0 0 1
-15.383348 14.605066 -17.527997 27.517013 -0.759451 2.261381 0.029683 0.014248 -58192.200000 0 0 1
-14.508948 15.712866 -17.522197 27.648347 -0.825213 2.257190 0.020578 0.015157 24995.200000 0 0 1
-13.420448 15.617466 -18.630397 27.768784 -0.860915 2.306234 0.005791 0.013931 364030.000000 0 0 1
-12.488848 14.572966 -18.427097 26.606400 -0.862260 2.335858 0.006424 0.013169 -152447.000000 0 0 1
-11.562548 14.499466 -19.494297 26.906405 -0.897614 2.381138 0.008539 0.009701 174400.000000 0 0 1
-10.885148 13.144066 -19.519897 25.928349 -0.879130 2.423163 0.009033 0.001675 -113964.000000 0 0 1
-11.739548 12.182466 -20.088797 26.263838 -0.803911 2.441658 0.011702 0.010641 -148057.000000 0 0 1
-11.242948 10.896566 -19.983597 25.386673 -0.769754 2.477001 -0.000384 0.018792 -189180.000000 0 0 1
-11.759848 9.772766 -20.987597 25.966906 -0.693376 2.511960 -0.000042 0.018080 -60429.500000 0 0 1
-11.370348 9.918466 -22.359597 26.974290 -0.717304 2.547975 0.002862 0.015166 -87394.100000 0 0 1
-11.171448 8.656066 -22.979697 26.977679 -0.659209 2.590216 -0.000629 0.023772 -276480.000000 0 0 1
-11.138848 8.681066 -24.526197 28.301399 -0.662022 2.619159 0.001590 0.008951 696879.000000 0 0 1
-10.069448 9.360066 -25.250307 28.750350 -0.748904 2.643009 -0.002256 0.005136 603894.000000 0 0 1
-10.006148 8.685966 -26.489167 29.618321 -0.714887 2.677774 0.000576 0.001613 -503755.000000 0 0 1
-9.384948 9.429466 -27.713277 30.741141 -0.787764 2.694030 0.006209 0.001557 -184781.000000 0 0 1
-8.057548 9.799566 -27.479827 30.267085 -0.882644 2.709070 -0.001161 0.008696 -381502.000000 0 0 1
-7.899548 11.089966 -26.899167 30.148887 -0.951853 2.673014 -0.009899 0.010861 487403.000000 0 0 1
-6.404048 11.573966 -26.957357 30.027780 -1.065412 2.685425 -0.006461 0.012215 567984.000000 0 0 1
-5.943948 12.022266 -28.222967 31.247420 -1.111629 2.697986 -0.012431 0.012020 -1033680.000000 0 0 1
-4.708148 12.597466 -28.086757 31.140467 -1.213133 2.695031 -0.001980 0.001892 -1414330.000000 0 0 1
-4.120648 12.643566 -29.456997 32.319563 -1.255743 2.717541 0.000478 -0.000395 -1122980.000000 0 0 1
-2.785848 13.027766 -29.495687 32.364783 -1.360130 2.717351 -0.006436 -0.006717 -711958.000000 0 0 1
-2.281848 12.950666 -30.813497 33.502211 -1.396391 2.738227 -0.007600 -0.004187 -403826.000000 0 0 1
-0.764348 12.807366 -30.824137 33.387726 -1.511187 2.747167 -0.002951 -0.010274 -899468.000000 0 0 1
-0.377648 11.641366 -30.075187 32.251835 -1.538368 2.772100 -0.005742 0.003396 690605.000000 0 0 1
1.060552 11.583066 -30.023487 32.197856 1.479490 2.771983 0.005233 -0.000182 961544.000000 0 0 1
1.728252 10.785466 -31.159787 33.018865 1.411908 2.804428 0.001099 0.005078 -519172.000000 0 0 1
1.695552 11.512966 -32.333007 34.363449 1.424574 2.796112 0.004382 -0.011208 137180.000000 0 0 1
1.948952 10.672466 -33.460687 35.175524 1.390172 2.828057 -0.006235 -0.004239 -246285.000000 0 0 1
1.991752 11.423166 34.466152 36.364425 1.398171 0.324537 0.000251 0.001704 -143941.000000 0 0 1
3.123652 12.210266 34.138814 36.391021 1.320346 0.353661 -0.003090 -0.000199 -21332.700000 0 0 1
2.956152 12.918466 32.917889 35.485391 1.345838 0.382736 0.008933 0.004764 -419793.000000 0 0 1
4.325452 13.334466 32.387229 35.290935 1.257124 0.408492 0.013748 0.008008 -450155.000000 0 0 1
5.047152 12.243466 31.945139 34.581326 1.179790 0.392989 0.000451 0.006771 -990107.000000 0 0 1
6.293552 12.504966 31.420599 34.398212 1.104525 0.419146 0.010501 0.010463 -624685.000000 0 0 1
7.113552 11.273766 30.961819 33.709563 1.007906 0.406557 0.000554 0.014881 -100419.000000 0 0 1
6.674652 10.711166 29.793479 32.356320 1.013529 0.400687 -0.004528 0.009376 196721.000000 0 0 1
7.650152 9.800166 29.314489 31.841911 0.907988 0.401116 0.002280 0.009327 215399.000000 0 0 1
7.151252 9.065366 28.043419 30.327456 0.902889 0.390582 0.003422 0.008749 -60439.600000 0 0 1
6.255852 8.087866 28.483599 30.263256 0.912433 0.344649 0.011405 -0.000431 -300146.000000 0 0 1
6.038352 7.137166 27.454949 29.003018 0.868604 0.328201 0.021553 -0.000333 -10291.900000 0 0 1
5.220252 5.910766 28.022349 29.110826 0.847354 0.274322 0.033970 -0.017654 -54017.000000 0 0 1
5.977352 5.065366 28.816009 29.862167 0.702998 0.265478 0.019758 -0.010111 -148202.000000 0 0 1
5.174952 4.259466 29.655359 30.403346 0.688664 0.222278 0.021128 -0.012231 243001.000000 0 0 1
6.019652 3.130366 30.408629 31.156381 0.479538 0.219530 0.029201 -0.004320 531766.000000 0 0 1
6.033952 1.920766 29.725989 30.392965 0.308184 0.209885 0.032141 -0.003959 271208.000000 0 0 1
7.174252 1.780066 28.869309 29.800596 0.243207 0.250658 0.027024 0.000677 119287.000000 0 0 1
7.244052 0.398466 28.151799 29.071616 0.054951 0.252222 0.014581 0.001445 -59379.100000 0 0 1
7.756252 -0.602034 29.001929 30.027217 -0.077464 0.262074 -0.015866 0.007473 -103522.000000 0 0 1
7.712752 -1.860634 28.305479 29.396405 -0.236718 0.273286 0.000880 -0.000884 -58451.900000 0 0 1
8.137852 -2.992934 29.324719 30.579755 -0.352425 0.287490 -0.004254 0.011437 1596800.000000 0 0 1
9.555452 -3.013834 29.680589 31.326143 -0.305529 0.325565 -0.006510 0.005415 1337290.000000 0 0 1
10.264652 -4.023934 29.013329 31.037532 -0.373607 0.363151 -0.014306 0.018285 -1187300.000000 0 0 1
11.768952 -3.801334 29.091009 31.610839 -0.312419 0.401986 -0.015526 0.020700 -368359.000000 0 0 1
12.663652 -4.876934 28.827899 31.862208 -0.367607 0.439962 -0.008138 0.020520 352386.000000 0 0 1
12.608352 -5.986934 29.642429 32.764119 -0.443317 0.440069 0.006565 0.022379 -1019620.000000 0 0 1
11.927052 -7.160934 28.952519 32.121362 -0.540709 0.447925 0.009069 0.020505 1303450.000000 0 0 1
10.477252 -6.960834 28.957529 31.571577 -0.586415 0.409795 0.004537 0.021441 1383310.000000 0 0 1
9.827752 -8.160834 28.616839 31.338593 -0.692997 0.419850 0.006033 0.020142 277725.000000 0 0 1
8.292252 -8.074034 28.437959 30.702915 -0.772066 0.386511 0.010180 0.018919 46387.900000 0 0 1
7.633552 -7.693434 29.585349 31.507982 -0.789305 0.351145 0.002779 0.024089 -685750.000000 0 0 1
6.285052 -7.434834 29.296329 30.871565 -0.869007 0.320828 -0.008852 0.032458 -397661.000000 0 0 1
5.556052 -6.657934 30.387509 31.600609 -0.875369 0.277981 -0.013673 0.020582 -41623.200000 0 0 1
5.400152 -7.365734 31.620949 32.913524 -0.938170 0.281182 -0.023718 0.017354 215424.000000 0 0 1
4.741352 -6.596934 32.663809 33.658942 -0.947616 0.243771 -0.031013 0.016735 428397.000000 0 0 1
5.593352 -5.466134 33.376619 34.280649 -0.773896 0.230166 -0.027814 0.020904 104969.000000 0 0 1
5.918052 -4.460834 32.446829 33.282414 -0.645908 0.224551 -0.012674 0.015787 -132428.000000 0 0 1
6.367452 -3.332534 33.172069 33.941661 -0.482168 0.213355 -0.016160 0.020211 -443776.000000 0 0 1
6.474252 -2.075634 32.338119 33.045092 -0.310246 0.207224 -0.014935 0.023470 810266.000000 0 0 1
5.137952 -1.624034 32.036759 32.486766 -0.306148 0.166638 -0.005727 0.019496 891861.000000 0 0 1
5.186352 -0.287834 31.605799 32.029792 -0.055442 0.162891 0.007428 0.007546 739800.000000 0 0 1
3.760752 0.364866 31.479019 31.704968 0.096717 0.119458 0.010779 0.000146 792838.000000 0 0 1
3.000852 0.403966 32.666759 32.806789 0.133813 0.092427 0.011054 -0.004027 -377247.000000 0 0 1
1.776252 1.067766 32.510639 32.576630 0.541253 0.063662 0.023344 -0.007202 187601.000000 0 0 1
0.853152 1.013166 33.782491 33.808446 0.870927 0.039187 0.023453 -0.007569 349992.000000 0 0 1
1.235852 2.030966 -34.560123 34.641799 1.024147 3.072910 0.014906 0.001420 389141.000000 0 0 1
0.444152 1.859366 -33.377697 33.432397 1.336317 3.084381 0.006018 0.005830 226327.000000 0 0 1
0.819452 2.881366 -32.263597 32.402368 1.293715 3.049010 0.006751 0.019044 -186568.000000 0 0 1
2.131352 2.746766 -31.804417 31.993879 0.910893 3.032710 -0.002301 0.015717 -392964.000000 0 0 1
2.500652 3.826166 -30.940617 31.276422 0.991918 2.994923 -0.008657 0.023292 232465.000000 0 0 1
3.669152 3.465866 -29.989537 30.411301 0.756915 2.974854 -0.010748 0.022240 264712.000000 0 0 1
3.214752 2.661266 -28.886097 29.186016 0.691481 2.998109 -0.003604 0.005700 908313.000000 0 0 1
4.254552 2.586766 -27.888737 28.329741 0.546281 2.964916 0.000529 0.004305 549332.000000 0 0 1
3.812252 1.806166 -26.632837 26.964857 0.442452 2.984504 0.003520 -0.000181 37322.500000 0 0 1
3.709252 0.438766 -26.986587 27.243842 0.117742 3.004060 0.011276 0.000333 -106408.000000 0 0 1
3.025152 -0.309734 -26.022987 26.200063 -0.102031 3.025263 0.018285 0.000707 -129694.000000 0 0 1
3.678852 -1.685434 -25.678647 25.995529 -0.429604 2.985293 0.029351 -0.005593 82633.900000 0 0 1
4.892052 -1.653534 -24.955397 25.484077 -0.325948 2.937545 0.017857 -0.011555 -13352.500000 0 0 1
5.427252 -2.999234 -25.097697 25.852366 -0.504856 2.899375 0.020987 -0.013474 -778043.000000 0 0 1
6.842752 -3.168534 -24.568397 25.699591 -0.433653 2.843791 0.017873 -0.011458 -403091.000000 0 0 1
7.836552 -2.707434 -25.439027 26.756043 -0.332650 2.826530 -0.004791 0.000545 -347325.000000 0 0 1
9.110252 -3.258534 -25.163837 26.959848 -0.343498 2.774520 -0.015498 0.011797 253109.000000 0 0 1
-28.383868 -4.484234 18.208899 34.019352 0.156690 1.005991 0.024450 0.000796 276855.000000 0 0 1
-29.790488 -4.372834 18.337799 35.254358 0.145745 1.023762 0.007267 0.012803 -27446.300000 0 0 1
-30.297088 -5.280534 19.316999 36.317269 0.172558 1.009959 0.007501 0.007949 -1049900.000000 0 0 1
-31.721358 -4.886234 19.581399 37.597221 0.152835 1.022985 0.005854 0.012522 -933312.000000 0 0 1
-32.499288 -4.978034 18.377499 37.665860 0.151992 1.061104 -0.004707 0.014932 646882.000000 0 0 1
-33.880878 -4.784534 18.708099 38.997418 0.140289 1.070453 -0.011873 0.028880 340503.000000 0 0 1
-34.814949 -4.947334 17.510799 39.283392 0.141159 1.108778 -0.008705 0.024614 690240.000000 0 0 1
33.649364 -5.264634 17.923799 38.487123 -0.155198 1.086361 -0.006734 0.023669 -152372.000000 0 0 1
32.752804 -5.204234 16.904299 37.223454 -0.157577 1.099401 -0.009163 0.021739 -1181680.000000 0 0 1
31.372884 -5.625534 17.361599 36.295035 -0.177426 1.072026 -0.011394 0.025411 -894180.000000 0 0 1
30.684654 -4.698334 18.143899 35.955853 -0.151937 1.041859 -0.000154 0.018660 -87446.800000 0 0 1
29.527944 -5.285034 18.681899 35.338992 -0.177109 1.013789 -0.012364 0.007060 92575.400000 0 0 1
28.823134 -4.556134 19.889099 35.314411 -0.156775 0.972542 -0.009447 0.013709 49742.800000 0 0 1
28.040584 -3.410234 19.746999 34.465171 -0.121023 0.960689 -0.003407 0.013374 -80006.900000 0 0 1
28.770444 -2.228934 19.566499 34.864802 -0.077319 0.974949 0.008083 0.010297 -190060.000000 0 0 1
27.889554 -1.019234 19.976099 34.320702 -0.036529 0.949558 -0.007723 0.018226 -702317.000000 0 0 1
28.380394 0.245166 19.701799 34.549497 0.008638 0.963988 -0.005181 0.015886 -201614.000000 0 0 1
27.462234 1.281766 20.021199 34.009787 0.046640 0.941360 -0.008227 0.021305 123834.000000 0 0 1
27.971014 2.631666 19.471199 34.182318 0.093809 0.964743 -0.020654 0.023534 -93887.500000 0 0 1
28.100414 2.642066 18.027399 33.490310 0.093747 1.002393 -0.026792 0.018847 80661.100000 0 0 1
27.958674 3.901266 17.391899 33.156982 0.138642 1.018631 -0.037862 0.027451 -5530.730000 0 0 1
27.967934 3.864666 15.873999 32.390196 0.137312 1.058607 -0.032108 0.024331 -60887.300000 0 0 1
27.734734 5.157266 15.251699 32.069100 0.183850 1.075163 -0.043640 0.022120 344968.000000 0 0 1
27.139114 4.960966 13.964499 30.921674 0.180801 1.102229 -0.023440 0.025766 13407.100000 0 0 1
26.563724 6.302666 13.411499 30.417484 0.232958 1.114179 -0.013619 0.024638 129079.000000 0 0 1
25.392814 6.755166 14.074399 29.807985 0.260005 1.079047 -0.024102 0.018639 -131551.000000 0 0 1
25.053994 7.979666 13.483999 29.549888 0.308341 1.096949 -0.000862 0.003762 58468.800000 0 0 1
23.792514 8.592566 14.199299 29.009239 0.346570 1.059309 -0.004746 0.002384 1758660.000000 0 0 1
22.481314 7.986566 14.054699 27.689876 0.341347 1.038428 0.012556 0.005142 1355290.000000 0 0 1
22.399014 6.571866 14.494799 27.477344 0.285391 1.015120 0.008643 0.001485 -238655.000000 0 0 1
21.092014 5.769166 14.095599 26.016191 0.266993 0.998218 0.031651 -0.001175 572094.000000 0 0 1
20.889814 5.499166 12.716299 25.066499 0.257406 1.038745 0.033083 -0.003897 204585.000000 0 0 1
19.876214 4.545466 12.593499 23.965002 0.224823 1.017499 0.048164 -0.003672 -489821.000000 0 1 0
19.473214 4.407566 11.108899 22.848202 0.222589 1.063055 0.045037 -0.006463 -741309.000000 0 1 0
20.486314 3.887666 10.336699 23.273382 0.187539 1.110579 0.038317 -0.010571 -371428.000000 0 1 0
20.098314 3.703166 9.009399 22.334389 0.182209 1.155581 0.042477 -0.011562 79963.900000 0 1 0
21.109514 2.963366 8.075699 22.794956 0.139469 1.208657 0.029233 -0.006528 -935194.000000 0 1 0
21.308314 1.595766 8.472699 22.986460 0.074750 1.193299 0.018103 -0.016975 696534.000000 0 1 0
22.269214 0.930166 7.633399 23.559539 0.041745 1.240837 0.009995 -0.011636 776066.000000 0 1 0
23.771014 1.398466 7.772299 25.048462 0.058763 1.255298 0.020988 -0.010357 223834.000000 0 0 1
24.505814 0.873166 8.888899 26.082750 0.035616 1.223033 0.005649 -0.001364 781976.000000 0 0 1
23.981614 1.324566 10.140599 26.071134 0.055176 1.171295 0.000759 -0.006207 -967077.000000 0 0 1
24.712414 0.642466 11.306999 27.183899 0.025992 1.141815 -0.005900 -0.002157 -638665.000000 0 0 1
26.046144 1.033966 11.481499 28.483249 0.039677 1.155898 -0.005535 -0.006151 -120700.000000 0 0 1
26.621764 0.288466 12.540599 29.429035 0.010835 1.130586 -0.004889 -0.008157 391668.000000 0 0 1
28.181204 0.294866 12.568699 30.858376 0.010463 1.151298 -0.000456 -0.003994 521475.000000 0 0 1
28.697814 1.524266 12.987899 31.536858 0.053064 1.146332 -0.002969 0.003795 115631.000000 0 0 1
30.114514 1.536066 13.029099 32.848148 0.050963 1.162936 -0.010793 0.005016 234881.000000 0 0 1
30.788684 2.896166 13.382899 33.696184 0.093790 1.162372 -0.015566 0.008357 -222852.000000 0 0 1
30.751634 3.867766 12.369299 33.370977 0.125117 1.191076 -0.011980 -0.003648 178428.000000 0 0 1
31.343174 5.104466 12.749699 34.219949 0.161440 1.189008 -0.018488 -0.003822 -1020470.000000 0 0 1
32.716714 5.344466 12.211299 35.327928 0.161926 1.217859 -0.027038 0.001202 -485251.000000 0 0 1
33.681924 4.370966 12.707899 36.263866 0.129051 1.212768 -0.022787 0.001424 1894940.000000 0 0 1
-34.777933 4.551266 12.170499 37.125998 -0.130127 1.236805 -0.021345 0.007567 1120840.000000 0 0 1
-33.840538 3.595166 12.913999 36.398882 -0.105841 1.208106 -0.008845 0.013144 -889138.000000 0 0 1
-33.924168 2.200766 12.512499 36.225063 -0.064782 1.218121 -0.014766 0.015152 249433.000000 0 0 1
34.724996 1.439066 12.875099 37.062980 0.041418 1.216016 -0.006383 0.021237 148415.000000 0 0 1
34.548859 1.177166 14.407499 37.451106 0.034059 1.175912 -0.001941 0.027077 -99551.000000 0 0 1
-34.423696 0.180866 15.017699 37.557354 -0.005254 1.159432 -0.004566 0.022716 199057.000000 0 0 1
-34.781937 0.026666 16.372299 38.442633 -0.000767 1.130852 0.003949 0.017047 -289313.000000 0 0 1
-33.944088 -0.883234 17.332099 38.123259 0.026014 1.098836 -0.003450 0.018911 -208823.000000 0 0 1
-32.659908 -0.351634 17.545999 37.076344 0.010766 1.077832 -0.006739 0.020560 56540.900000 0 0 1
-31.761608 -1.153234 18.317599 36.683295 0.036293 1.047954 0.003965 0.013866 344794.000000 0 0 1
-31.881708 -1.047134 19.859699 37.575889 0.032833 1.013937 0.002203 0.010579 -329097.000000 0 0 1
-32.852248 -1.830334 20.507299 38.770732 0.055657 1.013448 -0.005073 0.006459 -71299.200000 0 0 1
-32.918848 -1.516334 21.873899 39.552715 0.046030 0.984798 -0.008248 0.009918 -114065.000000 0 0 1
-33.785198 -2.566134 22.569199 40.711097 0.075809 0.983185 -0.009799 0.013564 -308770.000000 0 0 1
-33.174948 -3.825934 22.783399 40.426454 0.114819 0.972087 0.002252 0.003960 -77075.600000 0 0 1
-33.812278 -4.800834 23.626199 41.527285 0.141042 0.965590 -0.000420 0.003913 -273968.000000 0 0 1
-33.671888 -4.705134 25.177939 42.306772 0.138836 0.933372 0.003107 -0.004251 236986.000000 0 0 1
-32.329588 -4.903534 25.613999 41.537018 0.150526 0.906310 0.006643 -0.014755 -109071.000000 0 0 1
-32.301238 -4.873734 27.021019 42.394088 0.149754 0.879707 0.010809 -0.025069 -45810.800000 0 0 1
-31.219298 -3.974234 27.650579 41.892644 0.126620 0.849932 0.007898 -0.016376 -583995.000000 0 0 1
-31.198608 -2.568734 27.313589 41.544960 0.082150 0.853371 0.002439 -0.009422 -225986.000000 0 0 1
-30.603138 -2.373334 26.029109 40.245488 0.077397 0.867470 0.003719 -0.008355 -446481.000000 0 0 1
-30.462228 -0.893034 25.587599 39.792839 0.029308 0.872361 -0.006172 -0.007147 -643244.000000 0 0 1
-31.663028 -0.319534 25.218849 40.480116 0.010091 0.898233 0.013840 -0.015661 -671193.000000 0 0 1
-31.470448 1.062466 24.951429 40.175761 -0.033748 0.900706 -0.006368 -0.002190 -80150.300000 0 0 1
-32.834568 1.763966 24.838609 41.208942 -0.053671 0.923856 0.017445 -0.002372 461969.000000 0 0 1
-33.664728 1.341666 23.715299 41.201085 -0.039833 0.957460 0.008944 0.014137 876909.000000 0 0 1
-34.800804 2.167866 23.438999 42.014072 -0.062213 0.978962 0.009706 0.023442 605561.000000 0 0 1
-34.428382 3.548166 22.787599 41.438842 -0.102697 0.988541 0.014666 0.027013 42629.300000 0 0 1
-33.798798 3.363766 21.487499 40.191868 -0.099197 1.006735 0.016749 0.008786 102785.000000 0 0 1
-34.645834 3.564066 20.376599 40.351483 -0.102511 1.041440 0.002223 0.015349 -196973.000000 0 0 1
-34.139230 2.895566 19.065499 39.209241 -0.084614 1.063003 0.000510 0.014259 676016.000000 0 0 1
-32.979968 3.538666 18.490899 37.975173 -0.106888 1.062235 0.011757 0.013732 765175.000000 0 0 1
-32.544648 2.818466 17.351899 36.989002 -0.086388 1.082514 0.008226 0.020558 -562646.000000 0 0 1
-31.586608 3.640766 16.526299 35.834167 -0.114757 1.091462 0.008150 0.021056 -534693.000000 0 0 1
-32.118348 4.878466 16.034899 36.228520 -0.150738 1.112295 0.002927 0.009559 293883.000000 0 0 1
-31.301618 5.553066 15.078799 35.185196 -0.175578 1.127903 0.003475 0.009378 -138129.000000 0 0 1
-31.968848 6.890366 14.722899 35.864302 -0.212286 1.147776 0.013673 -0.003711 158355.000000 0 0 1
-31.283288 7.480666 13.640099 34.937899 -0.234719 1.169720 0.017251 -0.001016 106551.000000 0 0 1
-31.593128 8.868266 13.518299 35.489664 -0.273660 1.180018 0.007610 -0.007204 -216911.000000 0 0 1
-30.863058 9.607466 12.331499 34.596208 -0.301785 1.206341 0.011121 -0.007805 49733.900000 0 0 1
-31.174428 11.001266 12.256099 35.257407 -0.339251 1.215767 0.013143 -0.003580 468047.000000 0 0 1
-30.396888 11.699566 11.252599 34.459710 -0.367416 1.238152 0.003791 -0.007230 -22189.500000 0 0 1
-30.513488 13.229566 11.309799 35.128420 -0.409102 1.243002 0.011657 -0.000573 -82853.400000 0 0 1
-29.644078 13.816166 10.384799 34.314747 -0.436136 1.263342 0.001550 0.004066 37156.200000 0 0 1
-29.909308 15.175866 10.195699 35.054613 -0.469547 1.275679 0.008948 0.004174 124206.000000 0 0 1
-29.009478 15.706366 9.042299 34.205305 -0.496233 1.303263 0.008829 -0.001002 564580.000000 0 0 1
-27.639768 15.925966 9.383799 33.251298 -0.522734 1.284701 0.010518 0.007817 486139.000000 0 0 1
-27.061538 16.780066 8.421099 32.936490 -0.555047 1.312249 0.005526 -0.005519 -923799.000000 0 0 1
-25.574698 17.027366 8.604299 31.906587 -0.587395 1.297744 0.017298 0.003915 -779527.000000 0 0 1
-25.227328 17.634066 9.835799 32.312866 -0.610059 1.261496 0.014795 0.008148 126543.000000 0 0 1
-25.738298 18.930066 10.068799 33.499076 -0.634145 1.265507 0.007677 0.005711 -488654.000000 0 0 1
-25.599968 19.321166 11.516199 34.077685 -0.646524 1.226070 0.020315 0.016076 -542043.000000 0 0 1
-24.285248 19.546466 11.938199 33.382004 -0.677703 1.205074 0.012781 0.028959 -244681.000000 0 0 1
-24.195248 19.911766 13.313099 34.045955 -0.688586 1.169042 0.022858 0.015159 -180271.000000 0 0 1
-24.820348 18.988266 14.358499 34.391429 -0.653050 1.140102 0.019544 0.022008 -321357.000000 0 0 1
-24.105948 17.789866 14.602999 33.329021 -0.635768 1.117260 0.029486 0.020464 50148.700000 0 0 1
-24.476648 17.175866 15.815999 33.826949 -0.611882 1.084272 0.022072 0.024946 -592085.000000 0 0 1
-23.584948 16.060366 16.308999 32.865918 -0.597832 1.051547 0.021588 0.016592 153393.000000 0 0 1
-22.463448 16.516366 17.083099 32.699069 -0.633997 1.021094 0.023264 0.013648 886708.000000 0 0 1
-21.468648 15.523966 17.407699 31.700542 -0.626061 0.989474 0.010245 -0.002109 496344.000000 0 0 1
-21.903948 14.327266 18.323499 31.950025 -0.579249 0.960018 0.010699 0.001879 -717463.000000 0 0 1
-22.186748 14.774666 19.629599 33.103832 -0.587488 0.936053 0.020033 0.001967 258460.000000 0 0 1
-22.838848 13.747766 20.389499 33.561074 -0.541850 0.917844 0.018793 -0.003463 -779748.000000 0 0 1
-22.460348 13.728966 21.845199 34.207666 -0.548653 0.878112 0.011584 -0.008632 -327115.000000 0 0 1
-21.085748 13.497466 22.113799 33.403749 -0.569400 0.847292 0.008649 -0.001348 524263.000000 0 0 1
-20.469848 14.820466 22.157699 33.609887 -0.626662 0.850960 0.019969 0.012247 176513.000000 0 0 1
-18.962648 14.858766 22.630299 33.052918 -0.664649 0.816647 0.037464 0.001526 1425740.000000 0 0 1
-17.903148 14.501266 21.763999 31.693549 -0.680799 0.813855 0.017536 -0.006819 97117.900000 0 0 1
-17.727848 15.375466 20.630499 31.245784 -0.714456 0.849625 0.019177 -0.000493 -2491160.000000 0 0 1
-16.672348 14.760266 19.683399 29.719839 -0.724642 0.846914 0.013330 -0.001854 986051.000000 0 0 1
-15.386048 14.633666 20.310599 29.383585 -0.760340 0.807617 0.015044 0.000014 604769.000000 0 0 1
-14.795048 15.822366 20.813399 30.040610 -0.818939 0.805373 0.002352 0.000683 -1149470.000000 0 0 1
-13.711048 15.524666 21.944499 30.175638 -0.847353 0.756525 -0.029185 0.013863 763002.000000 0 0 1
-12.495548 15.005666 21.426299 28.989567 -0.876419 0.739057 -0.003783 0.009602 22083.500000 0 0 1
-11.678648 14.505866 22.447199 29.166551 -0.892954 0.692548 0.008292 0.011633 67492.500000 0 0 1
-10.342348 13.842866 22.041999 28.007835 -0.929138 0.664875 -0.004474 0.015278 -698121.000000 0 0 1
-9.874948 12.910566 23.008199 28.170455 -0.917844 0.615042 0.007271 0.013303 -355051.000000 0 0 1
-8.743048 12.211366 22.618199 27.150345 -0.949428 0.586158 0.010680 0.022542 -1313070.000000 0 0 1
-7.422248 12.897966 22.802799 27.228935 -1.048617 0.578201 0.002915 0.028394 -1723090.000000 0 0 1
-7.085548 13.759966 21.710699 26.662635 -1.095269 0.619318 -0.006073 0.028900 128891.000000 0 0 1
-6.211548 14.845966 22.061399 27.307349 -1.174529 0.630229 0.003217 0.024600 65336.100000 0 0 1
-6.907448 15.973366 22.868199 28.737010 -1.162645 0.650510 0.011984 0.007329 626071.000000 0 0 1
-7.908848 16.695766 22.107299 28.810261 -1.128406 0.696112 -0.022141 0.020906 474928.000000 0 0 1
-7.304648 17.687966 21.237699 28.587792 -1.179157 0.733413 -0.008131 0.022264 -978071.000000 0 0 1
-8.153048 18.104166 20.004399 28.185262 -1.147659 0.781658 -0.014141 0.026562 1102710.000000 0 0 1
-9.439548 18.709666 20.183399 29.095124 -1.103533 0.804178 -0.016911 0.027126 1222620.000000 0 0 1
-10.413848 17.900566 20.917999 29.435372 -1.043896 0.780387 -0.016573 0.014888 -1085060.000000 0 0 1
-11.715148 18.628666 21.138299 30.513924 -1.009414 0.805511 -0.014795 0.017868 -856778.000000 0 0 1
-12.437448 18.684866 19.944699 30.026743 -0.983503 0.844331 -0.005565 0.021222 720262.000000 0 0 1
-13.708348 19.379266 20.071399 31.085942 -0.955140 0.868890 -0.000821 0.020284 1176880.000000 0 0 1
-14.473248 19.337566 18.718099 30.557873 -0.928286 0.911519 0.014133 0.019346 -401869.000000 0 0 1
-15.147448 18.183166 18.411999 29.984569 -0.876227 0.909616 0.021560 0.019511 -363027.000000 0 0 1
-15.781348 18.255166 17.178099 29.620754 -0.857952 0.952148 0.031621 0.001937 -1153330.000000 0 0 1
-16.710848 17.016766 16.880199 29.219238 -0.794468 0.954878 0.029693 -0.006489 655092.000000 0 0 1
-17.929548 16.857466 17.572399 30.239577 -0.754589 0.950709 0.026340 0.004457 24004.700000 0 0 1
-18.815248 17.959566 17.459499 31.327203 -0.762134 0.979633 0.029389 0.009039 -1068500.000000 0 0 1
32.797374 -9.959734 12.214903 36.387744 -0.294825 1.228462 0.000498 0.010091 519141.000000 0 0 1
31.570814 -10.550734 11.776803 35.309027 -0.322524 1.230745 -0.020073 0.016382 637199.000000 0 0 1
31.047384 -11.653834 12.474403 35.431097 -0.359083 1.211009 0.009727 0.002065 -649137.000000 0 0 1
29.756234 -12.323634 12.033403 34.381800 -0.392647 1.213232 -0.006586 0.005323 -533030.000000 0 0 1
28.699294 -11.404834 12.293703 33.239357 -0.378255 1.191945 -0.005166 0.008923 -161533.000000 0 0 1
27.470594 -11.976834 12.660903 32.532700 -0.411140 1.171061 -0.008059 0.008339 -9556.980000 0 0 1
27.241114 -12.595434 14.089703 33.154833 -0.433092 1.131871 -0.023011 0.000116 -685531.000000 0 0 1
27.333734 -11.679034 15.185703 33.378712 -0.403796 1.098478 -0.016793 -0.001795 181123.000000 0 0 1
26.789624 -12.216634 16.384903 33.695625 -0.427850 1.062989 -0.010405 -0.005947 387185.000000 0 0 1
25.252844 -12.072334 16.602303 32.543568 -0.445941 1.035430 -0.016273 -0.009659 195029.000000 0 0 1
24.906774 -10.756334 16.842603 31.933045 -0.407670 1.015218 -0.020500 -0.003747 34628.000000 0 0 1
24.328214 -10.086334 15.693803 30.657651 -0.393024 1.033395 -0.013647 -0.010959 -317351.000000 0 0 1
24.068914 -8.595734 16.026603 30.167056 -0.343013 1.010707 0.005321 -0.017535 -1078800.000000 0 0 1
25.151224 -7.775534 16.256303 30.940433 -0.299831 1.017604 -0.013338 -0.011320 -1064230.000000 0 0 1
24.895824 -6.446734 16.626003 30.623298 -0.253383 0.996886 -0.003905 -0.006656 -828551.000000 0 0 1
26.177864 -5.645934 16.741903 31.582407 -0.212422 1.012075 -0.003667 -0.002649 -346932.000000 0 0 1
26.824014 -5.488334 15.463803 31.444852 -0.201820 1.056669 0.001569 -0.002137 950333.000000 0 0 1
27.931594 -4.546734 15.546803 32.288540 -0.161366 1.068436 -0.002519 -0.002577 725296.000000 0 0 1
28.246144 -3.717434 14.274303 31.865651 -0.130857 1.106322 0.002858 0.001770 49573.500000 0 0 1
28.728244 -4.377534 13.054903 31.857578 -0.151214 1.148573 -0.011743 0.010369 442380.000000 0 0 1
28.870834 -3.497734 11.979803 31.452740 -0.120564 1.180046 -0.005069 0.008108 -120704.000000 0 0 1
29.150624 -4.217534 10.687703 31.333264 -0.143684 1.222712 0.010472 0.006792 -350017.000000 0 0 1
30.398194 -4.848334 10.603903 32.557630 -0.158162 1.239048 0.001376 0.014073 -193498.000000 0 0 1
30.616004 -5.482434 9.365503 32.482448 -0.177193 1.278319 -0.002089 0.015536 73530.500000 0 0 1
31.925444 -6.296534 9.268903 33.834788 -0.194727 1.293303 -0.001449 0.017763 1238770.000000 0 0 1
33.154954 -5.514034 9.382503 34.895371 -0.164803 1.298571 0.004497 0.014056 1288870.000000 0 0 1
34.269655 -6.351334 9.059103 36.011332 -0.183255 1.316502 0.006245 0.007594 518439.000000 0 0 1
-34.346813 -5.527634 8.503603 35.812981 0.159568 1.331062 0.009109 0.003217 16588.000000 0 0 1
-34.618823 -4.865334 7.240803 35.701031 0.139626 1.366562 0.003392 0.002234 319668.000000 0 0 1
-33.496908 -4.025834 7.016103 34.459772 0.119612 1.365760 -0.001332 0.012062 20823.200000 0 0 1
-33.593558 -3.194034 5.730503 34.228171 0.094794 1.402583 0.003643 0.001170 -527073.000000 0 0 1
-33.253898 -3.872334 4.522503 33.782684 0.115925 1.436523 0.000075 -0.000390 104303.000000 0 0 1
-33.333718 -3.054734 3.360103 33.641618 0.091386 1.470750 -0.006218 0.004211 19254.300000 0 0 1
-32.530168 -3.674534 2.191003 32.810281 0.112481 1.503969 0.012334 0.002622 30857.400000 0 0 1
-33.174188 -4.832334 1.689703 33.566848 0.144648 1.520437 0.012455 0.013681 -440658.000000 0 0 1
-34.030668 -4.530334 0.642403 34.336904 0.132347 1.552086 0.009100 0.011344 -812397.000000 0 0 1
-33.458888 -4.517434 -0.756897 33.770954 0.134203 1.593211 0.026123 0.009808 -928699.000000 0 0 1
-33.532388 -5.857034 -1.291797 34.064566 0.172923 1.608727 0.026951 0.010602 -14843.500000 0 0 1
-32.765828 -6.125934 -2.450497 33.423517 0.184827 1.644179 0.021145 0.009746 -489510.000000 0 0 1
-31.239788 -6.079134 -2.304597 31.909112 0.192194 1.643083 0.019469 0.006277 -637623.000000 0 0 1
-30.784258 -7.112134 -1.455997 31.628673 0.227048 1.616847 0.012773 0.008221 -639476.000000 0 0 1
-29.686228 -6.719834 -0.705197 30.445453 0.222610 1.593961 0.013420 -0.006265 -876022.000000 0 0 1
-29.259768 -7.696434 0.418003 30.257955 0.257212 1.556981 0.000486 0.001601 -191700.000000 0 0 1
-28.647408 -8.808734 -0.207097 29.971832 0.298312 1.577706 0.011495 0.005505 348656.000000 0 0 1
-28.113458 -9.713534 0.716003 29.752848 0.332671 1.546729 0.013275 0.008905 -30927.200000 0 0 1
-27.638728 -11.080534 0.142103 29.777470 0.381287 1.566024 0.010892 0.006119 426016.000000 0 0 1
-26.544178 -11.028534 -0.789397 28.754915 0.393778 1.598252 0.012610 -0.000246 773231.000000 0 0 1
-26.078908 -12.343334 -1.217297 28.878178 0.442066 1.612962 0.012358 0.005474 -113320.000000 0 0 1
-26.910978 -13.210434 -2.210897 30.060013 0.456336 1.644412 0.016091 0.006933 73272.000000 0 0 1
-27.994888 -13.873934 -1.567297 31.283482 0.460112 1.620917 0.023450 -0.000861 417053.000000 0 0 1
-28.638168 -14.810534 -2.383597 32.329215 0.477282 1.644592 0.027677 0.000301 -305921.000000 0 0 1
-29.306358 -15.943634 -1.645197 33.403125 0.498251 1.620069 0.038723 -0.000513 -51998.800000 0 0 1
-28.391108 -16.685434 -0.847397 32.942022 0.531326 1.596523 0.026827 0.007207 445117.000000 0 0 1
-29.063088 -17.303034 0.245903 33.824822 0.537002 1.563526 0.025583 0.009779 128524.000000 0 0 1
-29.290958 -18.855734 0.105303 34.835471 0.571961 1.567773 0.020026 0.001406 199761.000000 0 0 1
-28.143658 -19.699934 0.209303 34.353991 0.610711 1.564704 0.030208 0.000235 325357.000000 0 0 1
-28.427578 -21.059534 0.113203 35.378581 0.637596 1.567597 0.031699 -0.003132 -407894.000000 0 0 1
-29.282968 -21.769534 1.121203 36.505643 0.639276 1.540078 0.030612 -0.005933 -823449.000000 0 0 1
-28.679928 -21.728934 2.434603 36.064001 0.648370 1.503237 0.037316 -0.014060 358906.000000 0 0 1
-29.491298 -22.332934 3.426503 37.151548 0.648139 1.478435 0.036240 -0.008383 27261.700000 0 0 1
-28.692268 -22.606334 4.713903 36.830877 0.667313 1.442456 0.022113 -0.006897 124798.000000 0 0 1
-28.134718 -21.416134 5.270603 35.749020 0.650630 1.422823 0.016735 -0.002969 71565.500000 0 0 1
-27.553708 -21.552534 6.544903 35.588683 0.663793 1.385840 0.003263 -0.003939 12901.800000 0 0 1
-27.275368 -20.200434 7.165403 34.689282 0.637465 1.362739 0.003362 0.003329 52272.500000 0 0 1
-26.390418 -20.313034 8.248403 34.309032 0.655998 1.328003 0.000890 -0.002439 -316590.000000 0 0 1
-25.977218 -19.041634 8.695003 33.361696 0.632540 1.307123 0.008569 -0.007507 -33406.600000 0 0 1
-25.098188 -19.168034 9.922903 33.102819 0.652225 1.266355 0.013353 -0.005094 -360361.000000 0 0 1
-25.819478 -19.639634 11.035403 34.265738 0.650284 1.242899 0.009337 -0.004502 -165646.000000 0 0 1
-25.013848 -19.883734 12.159003 34.189134 0.671629 1.207198 0.019218 0.006820 -543653.000000 0 0 1
-24.599448 -18.630034 12.963603 33.470376 0.648179 1.173078 0.016509 -0.004124 -294374.000000 0 0 1
-23.724448 -17.770734 12.221203 32.062537 0.642891 1.179737 0.014175 -0.002517 375790.000000 0 0 1
-23.168048 -16.711134 13.011503 31.389802 0.624879 1.143388 0.014361 0.001551 782695.000000 0 0 1
-22.161148 -16.982634 14.202203 31.324574 0.653867 1.100233 0.023670 -0.003956 219231.000000 0 0 1
-22.830648 -17.558734 15.319303 32.622518 0.655605 1.081967 0.019740 -0.013593 -267723.000000 0 0 1
-21.982248 -17.822434 16.376103 32.696103 0.681271 1.046207 0.027853 -0.012975 -645030.000000 0 0 1
-22.739748 -18.583334 17.489403 34.180633 0.685152 1.033662 0.014986 0.010644 -91595.500000 0 0 1
-23.588048 -17.754934 18.209403 34.687405 0.645233 1.018131 0.012914 0.003988 -235393.000000 0 0 1
-24.504048 -18.524434 18.970603 36.103834 0.647314 1.017557 0.011037 0.013738 -553883.000000 0 0 1
-25.563628 -17.739934 19.737103 36.847763 0.606655 1.005532 0.011251 0.012252 -666335.000000 0 0 1
-25.141338 -16.989734 20.852903 36.818223 0.594278 0.968696 0.005695 0.016219 345640.000000 0 0 1
-26.099748 -15.995234 21.241203 37.259000 0.549815 0.964174 0.008500 0.010026 190011.000000 0 0 1
-25.453738 -15.227334 22.423103 37.182793 0.539121 0.923477 0.000222 0.013698 234146.000000 0 0 1
-24.412048 -14.361534 22.050803 35.894842 0.531770 0.909277 -0.006933 0.014072 -44993.200000 0 0 1
-23.552848 -14.140234 23.158403 35.930412 0.540686 0.870382 -0.015592 0.022050 808385.000000 0 0 1
-22.287248 -13.262234 22.776503 34.516335 0.536779 0.850143 -0.014414 0.031550 694063.000000 0 0 1
-22.627548 -11.920734 22.466303 34.041807 0.484876 0.850028 -0.012810 0.033117 1032120.000000 0 0 1
-21.506248 -11.284934 21.801503 32.637004 0.483234 0.839279 -0.015534 0.030408 538515.000000 0 0 1
-21.350848 -9.815334 22.267903 32.373740 0.430905 0.812289 -0.011617 0.034004 -79101.200000 0 0 1
-20.994448 -9.582734 23.598903 33.007634 0.428198 0.774240 -0.013190 0.032518 -614534.000000 0 0 1
-19.612848 -9.658834 23.757103 32.285552 0.457609 0.743885 -0.013120 0.033312 -666742.000000 0 0 1
-19.142448 -9.792734 25.215003 33.138005 0.472862 0.706084 -0.013487 0.021734 344107.000000 0 0 1
-19.449348 -11.098534 25.788803 34.154311 0.518550 0.715040 -0.004819 0.026727 625970.000000 0 0 1
-18.416248 -11.305334 26.766903 34.401103 0.550562 0.679189 -0.006141 0.019264 -25734.300000 0 0 1
-18.373948 -12.770734 27.312603 35.308242 0.607393 0.686376 -0.008106 0.001383 430458.000000 0 0 1
-19.375648 -13.128934 28.291203 36.717528 0.595534 0.691156 0.006337 0.006506 369077.000000 0 0 1
-20.689748 -13.273534 27.786103 37.098786 0.570413 0.724281 -0.013021 0.015168 -255015.000000 0 0 1
-21.716148 -13.540734 28.887303 38.592990 0.557544 0.724982 -0.013936 0.009489 -359203.000000 0 0 1
-21.734348 -14.838034 29.538703 39.561144 0.599020 0.727770 -0.005559 0.007056 66771.400000 0 0 1
-20.833948 -15.033034 30.643503 39.988371 0.625053 0.697718 -0.011392 0.000335 156160.000000 0 0 1
-21.272148 -16.153534 31.563503 41.348467 0.649474 0.702307 0.000740 -0.009278 -577573.000000 0 0 1
-21.020348 -17.515634 31.268003 41.549254 0.694701 0.718866 0.006031 -0.003032 -164121.000000 0 0 1
-21.172148 -18.478534 32.347803 42.849696 0.717569 0.715275 0.009441 -0.005136 110760.000000 0 0 1
-22.572248 -18.667334 33.004703 44.128066 0.690991 0.725858 0.025120 -0.005884 296948.000000 0 0 1
-23.034648 -17.512834 33.690503 44.411084 0.650049 0.709626 0.037472 -0.007093 450267.000000 0 0 1
-24.346248 -17.730734 34.235103 45.597818 0.629451 0.721515 0.038798 -0.013832 559918.000000 0 0 1
-25.018748 -16.520434 -34.344392 45.589470 0.583597 2.423923 0.037907 -0.010349 121501.000000 0 0 1
-24.452748 -16.284434 -33.040192 44.212826 0.587510 2.414784 0.047711 -0.013014 214739.000000 0 0 1
-25.059448 -15.131334 -32.492092 43.734075 0.543222 2.408259 0.062892 -0.011019 -487204.000000 0 0 1
-24.476148 -14.615434 -31.195692 42.259484 0.538306 2.401185 0.054982 -0.003443 -513597.000000 0 0 1
-24.610048 -15.567634 -30.171592 41.932454 0.564026 2.373919 0.063237 0.003754 302605.000000 0 0 1
-24.045648 -15.046734 -28.964092 40.540302 0.559144 2.366637 0.068457 0.004873 -142505.000000 0 0 1
-24.518848 -15.883234 -27.712292 40.266887 0.574825 2.329823 0.045660 0.005739 1140790.000000 0 0 1
-25.913948 -15.679934 -27.362592 40.817943 0.544144 2.305486 0.047252 0.005440 1293560.000000 0 0 1
-26.267378 -14.499034 -26.654992 40.133350 0.504361 2.297167 0.038400 0.010910 -451009.000000 0 0 1
-25.610858 -14.160834 -25.270992 38.666113 0.505085 2.283087 0.012787 0.012360 776766.000000 0 0 1
-24.209848 -13.768334 -25.375992 37.677908 0.517093 2.309727 -0.004428 0.007631 1722670.000000 0 0 1
-23.439248 -14.121334 -24.231492 36.551001 0.542230 2.295549 -0.018246 0.006987 34363.300000 0 0 1
-23.045848 -15.620734 -24.158392 36.861177 0.595678 2.285493 -0.007459 0.007374 -478375.000000 0 0 1
-22.083448 -15.909034 -25.187792 37.083702 0.624290 2.317488 0.018015 0.014890 392878.000000 0 0 1
-21.782048 -17.271334 -25.180592 37.507584 0.670406 2.306821 0.036984 0.020329 60034.900000 0 0 1
-20.746848 -17.706634 -26.265892 37.866261 0.706500 2.337339 0.030265 0.022344 77568.600000 0 0 1
-21.087948 -17.761534 -27.639692 39.040059 0.699983 2.357434 0.032419 0.012660 -361029.000000 0 0 1
-22.064048 -18.708234 -27.966792 40.236323 0.703277 2.339304 0.043004 0.003383 -280645.000000 0 0 1
-22.680148 -18.570534 -29.391892 41.510688 0.686100 2.357538 0.038317 0.004844 616107.000000 0 0 1
-21.726048 -18.900334 -30.423592 41.890796 0.715956 2.383661 0.038667 0.000195 627058.000000 0 0 1
-22.268848 -18.448134 -31.646192 42.868599 0.691836 2.401215 0.025095 -0.005254 -609834.000000 0 0 1
-21.504948 -18.744034 -32.917992 43.559107 0.716910 2.427532 0.026122 -0.008054 -788553.000000 0 0 1
-20.193448 -18.207934 -33.038492 42.788388 0.733740 2.452993 0.031654 -0.004853 603014.000000 0 0 1
-19.199648 -19.193834 -32.716392 42.513434 0.785247 2.448939 0.020541 -0.011143 -122742.000000 0 0 1
-18.972848 -20.344134 -33.805792 43.779954 0.820262 2.453054 0.022623 -0.014774 -828603.000000 0 0 1
-18.461248 -19.997534 34.180603 43.692479 0.825323 0.672447 0.015687 -0.013553 157760.000000 0 0 1
-18.218548 -21.126134 33.304003 43.444052 0.859164 0.697274 0.009955 -0.016024 126404.000000 0 0 1
-19.479148 -21.817334 32.695003 43.867944 0.841957 0.729804 0.011606 -0.012124 159946.000000 0 0 1
-20.344248 -22.437234 33.689103 45.302026 0.834282 0.732275 0.015556 -0.013604 390120.000000 0 0 1
-21.529148 -22.854734 33.013603 45.560302 0.815256 0.760323 0.025167 -0.005562 -242417.000000 0 0 1
-21.444648 -24.109534 32.122203 45.529974 0.843831 0.787643 0.025783 0.007282 -1117480.000000 0 0 1
-21.410448 -25.385934 32.777703 46.660806 0.870148 0.791938 0.021090 0.010173 -146110.000000 0 0 1
-21.144048 -26.430444 31.905403 46.514449 0.896062 0.814923 0.025326 0.012657 -182503.000000 0 0 1
-20.527648 -27.700604 32.629603 47.469978 0.933045 0.812930 0.027036 0.002751 91146.700000 0 0 1
-21.305548 -28.168814 33.699403 48.816578 0.923242 0.808855 0.020500 -0.003776 108011.000000 0 0 1
-20.639948 -29.264524 34.326403 49.605663 0.956529 0.806560 0.024449 -0.014905 -382181.000000 0 0 1
-21.623048 -30.062164 -34.035292 50.296034 0.947249 2.314067 0.027910 -0.015874 168877.000000 0 0 1
-22.650948 -30.815224 34.568603 51.552224 0.936927 0.835840 0.022356 -0.010789 1083390.000000 0 0 1
-23.773348 -30.075214 34.064703 51.284448 0.901898 0.844332 0.019720 -0.008786 -429308.000000 0 0 1
-24.907748 -29.835924 -34.199992 51.770820 0.875179 2.292419 0.007979 -0.009093 -944038.000000 0 0 1
-25.823588 -28.931224 34.499703 51.904749 0.842093 0.843740 0.010032 -0.000216 -12919.100000 0 0 1
-26.832118 -28.612804 -33.815192 51.789211 0.817503 2.282255 0.000509 0.007833 274427.000000 0 0 1
-27.898758 -27.578884 -34.302992 52.111715 0.779632 2.289300 -0.008040 0.000279 553843.000000 0 0 1
-28.825248 -28.163044 34.053103 52.760457 0.773779 0.869212 -0.000177 0.003361 -342337.000000 0 0 1
-29.956438 -27.447154 33.693703 52.782574 0.741713 0.878445 -0.008788 0.002626 -326856.000000 0 0 1
